********************************************************************************
Field Output Report, written Sun Apr 16 07:17:02 2023

Source 1
---------

   ODB: C:/Temp/ZZ_displacement.odb
   Step: Loading_step
   Frame: Increment      1: Step Time =    1.000

Loc 1 : Centroidal values from source 1

Output sorted by column "Element Label".

Field Output reported at element centroid for region: PART-1-1.Region_1

         Element         S.Mises     S.Max. Prin  S.Max. Prin(a)     S.Mid. Prin     S.Min. Prin        S.Tresca      S.Pressure     S.Third Inv           S.S11           S.S22           S.S33           S.S12           S.S13           S.S23
           Label          @Loc 1          @Loc 1          @Loc 1          @Loc 1          @Loc 1          @Loc 1          @Loc 1          @Loc 1          @Loc 1          @Loc 1          @Loc 1          @Loc 1          @Loc 1          @Loc 1
-------------------------------------------------------------------------------------------------------------------------------------------------------------------------------------------------------------------------------------------------
               1    1.23891E+007    1.31949E+007    1.31949E+007    1.49120E+006    2.18663E+005    1.29762E+007   -4.96825E+006    1.22407E+007    2.37618E+005    1.47405E+006    1.31931E+007    1.53674E+005    2.55826E+004   -1.43615E+005
               2    1.36844E+007    1.40553E+007    1.40553E+007    8.64025E+005   -7.39851E+004    1.41293E+007   -4.94845E+006    1.36118E+007   -7.37886E+004    8.65991E+005    1.40532E+007    1.21503E+004    2.14101E+004   -1.67642E+005
               3    1.46975E+007    1.49496E+007    1.49496E+007    4.10669E+005    9.84954E+004    1.48511E+007   -5.15293E+006    1.46901E+007    1.06253E+005    4.04462E+005    1.49481E+007    4.81597E+004    2.78622E+004   -1.47715E+005
               4    1.55911E+007    1.55976E+007    1.55976E+007    2.12179E+004   -8.17414E+003    1.56058E+007   -5.20356E+006    1.55911E+007   -2.01675E+003    1.60109E+004    1.55967E+007    1.16829E+004    3.10312E+004   -1.17695E+005
               5    1.24406E+007    1.32633E+007    1.32633E+007    1.53403E+006    2.16274E+005    1.30470E+007   -5.00453E+006    1.22821E+007    2.38640E+005    1.52949E+006    1.32455E+007    1.67490E+005    5.56352E+004   -4.54988E+005
               6    1.38090E+007    1.41582E+007    1.41582E+007    8.80267E+005   -1.26824E+005    1.42850E+007   -4.97055E+006    1.37261E+007   -1.26492E+005    8.98146E+005    1.41400E+007    1.28013E+004    4.29910E+004   -4.89690E+005
               7    1.48305E+007    1.50624E+007    1.50624E+007    4.25323E+005    4.57861E+004    1.50166E+007   -5.17783E+006    1.48195E+007    5.31852E+004    4.32031E+005    1.50483E+007    5.07371E+004    4.36580E+004   -4.52410E+005
               8    1.57657E+007    1.57350E+007    1.57350E+007    2.62455E+004   -8.70743E+004    1.58221E+007   -5.22473E+006    1.57648E+007   -8.56229E+004    3.29231E+004    1.57269E+007    1.14653E+004    3.85554E+004   -3.55231E+005
               9    1.25381E+007    1.34385E+007    1.34385E+007    1.62169E+006    2.85982E+005    1.31525E+007   -5.11540E+006    1.23766E+007    3.17933E+005    1.64206E+006    1.33862E+007    1.97420E+005    8.75953E+004   -7.82393E+005
              10    1.39535E+007    1.43740E+007    1.43740E+007    9.35850E+005   -4.33814E+004    1.44174E+007   -5.08881E+006    1.38759E+007   -4.16055E+004    9.83068E+005    1.43250E+007    2.73719E+004    9.84189E+004   -8.04599E+005
              11    1.49655E+007    1.53135E+007    1.53135E+007    5.24054E+005    1.78091E+005    1.51354E+007   -5.33856E+006    1.49565E+007    1.97499E+005    5.41018E+005    1.52772E+007    7.28894E+004    1.09419E+005   -7.25507E+005
              12    1.58792E+007    1.60000E+007    1.60000E+007    1.61167E+005    8.07412E+004    1.59192E+007   -5.41396E+006    1.58787E+007    1.00677E+005    1.64053E+005    1.59772E+007    2.98400E+004    1.18020E+005   -5.89730E+005
              13    1.29323E+007    1.37645E+007    1.37645E+007    1.58197E+006    1.94285E+005    1.35702E+007   -5.18024E+006    1.27632E+007    2.23098E+005    1.66160E+006    1.36560E+007    1.88737E+005    9.16943E+004   -1.14346E+006
              14    1.43931E+007    1.47395E+007    1.47395E+007    9.78028E+005   -2.11354E+005    1.49509E+007   -5.16873E+006    1.42819E+007   -2.08622E+005    1.05918E+006    1.46556E+007    3.86212E+004    1.15147E+005   -1.06588E+006
              15    1.53601E+007    1.56262E+007    1.56262E+007    6.02284E+005   -4.93701E+004    1.56756E+007   -5.39303E+006    1.53290E+007   -3.86844E+004    6.56267E+005    1.55615E+007    7.20791E+004    1.17787E+005   -9.77684E+005
              16    1.63986E+007    1.63802E+007    1.63802E+007    1.96290E+005   -2.24859E+005    1.66051E+007   -5.45056E+006    1.63864E+007   -2.21152E+005    2.37897E+005    1.63349E+007    3.02238E+004    1.05803E+005   -8.49071E+005
              17    1.34145E+007    1.43586E+007    1.43586E+007    1.62905E+006    3.50758E+005    1.40079E+007   -5.44615E+006    1.32764E+007    3.96609E+005    1.73403E+006    1.42078E+007    2.22419E+005    1.33689E+005   -1.37600E+006
              18    1.44883E+007    1.51151E+007    1.51151E+007    1.24650E+006    7.77892E+004    1.50373E+007   -5.47979E+006    1.43817E+007    8.97294E+004    1.34374E+006    1.50059E+007    8.74576E+004    2.01227E+005   -1.21207E+006
              19    1.54283E+007    1.60446E+007    1.60446E+007    9.13601E+005    3.35309E+005    1.57093E+007   -5.76452E+006    1.54039E+007    3.79822E+005    9.75940E+005    1.59378E+007    1.29497E+005    2.38883E+005   -1.24901E+006
              20    1.64863E+007    1.69357E+007    1.69357E+007    5.87135E+005    3.14873E+005    1.66208E+007   -5.94589E+006    1.64813E+007    3.63112E+005    6.13343E+005    1.68612E+007    8.35950E+004    2.60819E+005   -1.07282E+006
              21    1.41262E+007    1.48742E+007    1.48742E+007    1.66575E+006   -1.87142E+004    1.48929E+007   -5.50707E+006    1.38975E+007   -4.62245E+003    1.77863E+006    1.47472E+007    1.39928E+005    1.10279E+005   -1.28630E+006
              22    1.49552E+007    1.53203E+007    1.53203E+007    1.42090E+006   -5.04277E+005    1.58246E+007   -5.41232E+006    1.46726E+007   -4.96591E+005    1.56070E+006    1.51728E+007    1.00234E+005    1.34701E+005   -1.41978E+006
              23    1.62070E+007    1.64802E+007    1.64802E+007    1.03376E+006   -3.93030E+005    1.68732E+007   -5.70696E+006    1.60648E+007   -3.81401E+005    1.15615E+006    1.63461E+007    1.08007E+005    1.51955E+005   -1.42668E+006
              24    1.74486E+007    1.74307E+007    1.74307E+007    6.70657E+005   -6.33239E+005    1.80640E+007   -5.82272E+006    1.73385E+007   -6.28213E+005    7.69730E+005    1.73266E+007    6.66183E+004    1.14196E+005   -1.31280E+006
              25    1.31872E+007    1.45578E+007    1.45578E+007    2.25489E+006    6.35868E+005    1.39219E+007   -5.81618E+006    1.29607E+007    6.79965E+005    2.34233E+006    1.44263E+007    2.32590E+005    2.28634E+005   -1.25293E+006
              26    1.44620E+007    1.57139E+007    1.57139E+007    1.99569E+006    6.08059E+005    1.51058E+007   -6.10587E+006    1.43111E+007    6.61119E+005    2.12377E+006    1.55327E+007    2.27511E+005    2.69247E+005   -1.55184E+006
              27    1.54891E+007    1.68411E+007    1.68411E+007    1.83939E+006    9.06780E+005    1.59343E+007   -6.52909E+006    1.54257E+007    1.03818E+006    1.90153E+006    1.66476E+007    2.56477E+005    5.00709E+005   -1.63711E+006
              28    1.69607E+007    1.83490E+007    1.83490E+007    1.73328E+006    1.06317E+006    1.72859E+007   -7.04850E+006    1.69309E+007    1.21812E+006    1.73520E+006    1.81922E+007    2.13817E+005    6.15236E+005   -1.50392E+006
              29    1.89049E+007    1.74413E+007    1.74413E+007    1.46388E+006   -3.42919E+006    2.08704E+007   -5.15865E+006    1.73926E+007   -3.32750E+006    1.57762E+006    1.72258E+007   -1.35587E+005   -1.37057E+006   -1.41691E+006
              30    1.72916E+007    1.59461E+007    1.59461E+007    1.33695E+006   -3.14530E+006    1.90914E+007   -4.71259E+006    1.59039E+007   -3.04305E+006    1.47609E+006    1.57047E+007   -2.12036E+005   -1.23172E+006   -1.54228E+006
              31    1.58743E+007    1.44908E+007    1.44908E+007    1.31135E+006   -3.13154E+006    1.76224E+007   -4.22355E+006    1.43725E+007   -3.01960E+006    1.40879E+006    1.42815E+007   -3.85606E+005   -1.03941E+006   -1.41237E+006
              32    1.58263E+007    1.41764E+007    1.41764E+007    1.36514E+006   -3.51528E+006    1.76917E+007   -4.00874E+006    1.39766E+007   -3.32808E+006    1.38162E+006    1.39727E+007   -6.24240E+005   -1.19378E+006   -1.29229E+006
              33    1.15232E+007    1.20279E+007    1.20279E+007    1.79777E+006   -4.55578E+005    1.24835E+007   -4.45669E+006    1.10110E+007   -4.47580E+005    1.79087E+006    1.20268E+007   -1.33234E+005   -2.85509E+004   -1.02852E+005
              34    1.15050E+007    1.20063E+007    1.20063E+007    1.93551E+006   -5.32362E+005    1.25387E+007   -4.46983E+006    1.08853E+007   -5.21721E+005    1.93847E+006    1.19927E+007   -1.55170E+005   -8.28859E+004   -3.63576E+005
              35    1.15866E+007    1.20191E+007    1.20191E+007    2.02031E+006   -6.78897E+005    1.26980E+007   -4.45349E+006    1.08448E+007   -6.61321E+005    2.05389E+006    1.19679E+007   -2.01372E+005   -1.32661E+005   -7.06272E+005
              36    1.18216E+007    1.21648E+007    1.21648E+007    2.02484E+006   -8.19486E+005    1.29843E+007   -4.45673E+006    1.10116E+007   -7.97399E+005    2.12834E+006    1.20392E+007   -2.09500E+005   -2.20417E+005   -1.10918E+006
              37    1.24247E+007    1.25028E+007    1.25028E+007    1.79833E+006   -1.12204E+006    1.36248E+007   -4.39301E+006    1.16143E+007   -1.08269E+006    1.99030E+006    1.22714E+007   -2.48061E+005   -3.75521E+005   -1.53057E+006
              38    1.34271E+007    1.32901E+007    1.32901E+007    1.77283E+006   -1.45756E+006    1.47476E+007   -4.53511E+006    1.25071E+007   -1.40225E+006    2.06414E+006    1.29434E+007   -1.61802E+005   -7.14590E+005   -1.87879E+006
              39    1.52779E+007    1.44385E+007    1.44385E+007    1.76165E+006   -2.52473E+006    1.69632E+007   -4.55847E+006    1.38249E+007   -2.36632E+006    1.91784E+006    1.41239E+007   -3.98703E+005   -1.24860E+006   -1.69555E+006
              40    2.06991E+007    1.89906E+007    1.89906E+007    1.58241E+006   -3.89698E+006    2.28876E+007   -5.55867E+006    1.89618E+007   -3.78036E+006    1.64895E+006    1.88074E+007   -7.65997E+004   -1.59635E+006   -1.11688E+006
              41    2.20160E+007    2.00987E+007    2.00987E+007    1.66171E+006   -4.27764E+006    2.43763E+007   -5.82759E+006    2.00916E+007   -4.15155E+006    1.68174E+006    1.99526E+007   -3.72609E+004   -1.73995E+006   -6.28652E+005
              42    2.25913E+007    2.05942E+007    2.05942E+007    1.69489E+006   -4.42717E+006    2.50214E+007   -5.95399E+006    2.05975E+007   -4.29531E+006    1.69489E+006    2.04624E+007   -8.87947E+002   -1.81157E+006    4.68228E+003
              43    2.20899E+007    2.01254E+007    2.01254E+007    1.66097E+006   -4.34691E+006    2.44723E+007   -5.81316E+006    2.01251E+007   -4.21610E+006    1.68228E+006    1.99733E+007    2.42217E+004   -1.77791E+006    6.42472E+005
              44    2.07698E+007    1.89570E+007    1.89570E+007    1.57250E+006   -4.04318E+006    2.30002E+007   -5.49545E+006    1.89457E+007   -3.91789E+006    1.64041E+006    1.87638E+007    8.34721E+004   -1.65719E+006    1.13147E+006
              45    1.90844E+007    1.74463E+007    1.74463E+007    1.45156E+006   -3.67883E+006    2.11252E+007   -5.07302E+006    1.74288E+007   -3.55978E+006    1.56715E+006    1.72117E+007    1.39936E+005   -1.49925E+006    1.43359E+006
              46    1.74411E+007    1.58693E+007    1.58693E+007    1.34841E+006   -3.47622E+006    1.93455E+007   -4.58051E+006    1.58322E+007   -3.35606E+006    1.47364E+006    1.56239E+007    2.67578E+005   -1.32200E+006    1.50947E+006
              47    1.66169E+007    1.50242E+007    1.50242E+007    1.42247E+006   -3.49700E+006    1.85212E+007   -4.31655E+006    1.48410E+007   -3.36233E+006    1.53076E+006    1.47812E+007    3.51355E+005   -1.30087E+006    1.45153E+006
              48    1.62065E+007    1.44192E+007    1.44192E+007    1.63974E+006   -3.80961E+006    1.82288E+007   -4.08312E+006    1.39092E+007   -3.62367E+006    1.84459E+006    1.40284E+007    2.06741E+005   -1.69411E+006    1.72622E+006
              49    1.80515E+007    1.96047E+007    1.96047E+007    1.78271E+006    1.33209E+006    1.82726E+007   -7.57316E+006    1.80388E+007    1.53331E+006    1.68959E+006    1.94966E+007    1.67332E+005    7.92101E+005   -1.15382E+006
              50    1.85247E+007    1.83789E+007    1.83789E+007    4.34661E+005   -6.76266E+005    1.90552E+007   -6.04578E+006    1.84496E+007   -6.73835E+005    4.82829E+005    1.83283E+007    4.27823E+004    8.95753E+004   -9.47811E+005
              51    1.72356E+007    1.76429E+007    1.76429E+007    5.43854E+005    2.73842E+005    1.73690E+007   -6.15352E+006    1.72308E+007    5.21851E+005    3.36004E+005    1.76027E+007    6.77113E+004    2.88396E+005   -7.82765E+005
              52    1.71028E+007    1.69755E+007    1.69755E+007   -5.67186E+004   -1.96994E+005    1.71725E+007   -5.57394E+006    1.71015E+007   -1.90807E+005   -4.41221E+004    1.69568E+007    2.48210E+004    8.98746E+004   -5.58408E+005
              53    1.64822E+007    1.65331E+007    1.65331E+007    2.23768E+005   -1.16759E+005    1.66499E+007   -5.54670E+006    1.64743E+007    2.21173E+005   -1.04173E+005    1.65231E+007    3.14276E+004    1.20916E+005   -3.89225E+005
              54    1.63295E+007    1.62065E+007    1.62065E+007   -2.16625E+004   -2.22325E+005    1.64289E+007   -5.32085E+006    1.63267E+007   -2.29358E+004   -2.18013E+005    1.62035E+007    1.58718E+004    3.05306E+004   -2.21333E+005
              55    1.61371E+007    1.60601E+007    1.60601E+007    8.18958E+004   -2.31357E+005    1.62914E+007   -5.30354E+006    1.61303E+007    8.09933E+004   -2.30059E+005    1.60597E+007    1.73168E+004    3.46590E+004   -7.21931E+004
              56    1.88657E+007    2.05302E+007    2.05302E+007    1.78786E+006    1.54349E+006    1.89867E+007   -7.95386E+006    1.88622E+007    1.71217E+006    1.68196E+006    2.04674E+007    9.29206E+004    8.99772E+005   -6.14645E+005
              57    1.92033E+007    1.89139E+007    1.89139E+007    3.08404E+005   -8.35970E+005    1.97499E+007   -6.12878E+006    1.91263E+007   -8.35560E+005    3.20015E+005    1.89019E+007    1.40423E+004    6.26766E+004   -4.68881E+005
              58    1.77246E+007    1.80809E+007    1.80809E+007    5.35304E+005    1.82648E+005    1.78983E+007   -6.26630E+006    1.77167E+007    5.37452E+005    1.92324E+005    1.80691E+007    2.81381E+004    3.09860E+005   -3.37555E+005
              59    1.75365E+007    1.72779E+007    1.72779E+007   -2.16369E+005   -3.00551E+005    1.75784E+007   -5.58699E+006    1.75360E+007   -2.99837E+005   -2.13617E+005    1.72744E+007    4.29688E+003    8.07070E+004   -2.32718E+005
              60    1.67954E+007    1.67691E+007    1.67691E+007    1.82211E+005   -2.27337E+005    1.69964E+007   -5.57464E+006    1.67841E+007    1.83068E+005   -2.26171E+005    1.67670E+007    7.72062E+003    1.31530E+005   -1.29108E+005
              61    1.66355E+007    1.64085E+007    1.64085E+007   -1.03008E+005   -3.48314E+005    1.67568E+007   -5.31905E+006    1.66314E+007   -1.02967E+005   -3.47989E+005    1.64081E+007    5.37100E+001    2.61278E+004   -7.37765E+004
              62    1.64035E+007    1.62415E+007    1.62415E+007    2.54594E+004   -3.43129E+005    1.65846E+007   -5.30795E+006    1.63941E+007    2.55511E+004   -3.43103E+005    1.62414E+007    1.34257E+003    3.96487E+004   -1.87608E+004
              63    1.91035E+007    2.08268E+007    2.08268E+007    1.76200E+006    1.68500E+006    1.91418E+007   -8.09128E+006    1.91031E+007    1.80846E+006    1.68528E+006    2.07801E+007    5.92323E+003    9.41937E+005    4.25616E+004
              64    1.93950E+007    1.91037E+007    1.91037E+007    2.92408E+005   -8.26506E+005    1.99302E+007   -6.18987E+006    1.93222E+007   -8.26234E+005    2.92937E+005    1.91029E+007   -1.06845E+004    5.72570E+004    1.09510E+005
              65    1.77926E+007    1.81806E+007    1.81806E+007    6.06285E+005    1.77400E+005    1.80032E+007   -6.32142E+006    1.77810E+007    6.11910E+005    1.78507E+005    1.81739E+007   -5.82566E+003    3.18686E+005    1.30871E+005
              66    1.75755E+007    1.73340E+007    1.73340E+007   -2.20951E+005   -2.61964E+005    1.75960E+007   -5.61704E+006    1.75754E+007   -2.59313E+005   -2.21823E+005    1.73323E+007   -8.77876E+003    7.65146E+004    1.59391E+005
              67    1.67779E+007    1.67843E+007    1.67843E+007    2.48021E+005   -2.25309E+005    1.70096E+007   -5.60233E+006    1.67629E+007    2.48956E+005   -2.24262E+005    1.67823E+007   -5.68348E+003    1.30477E+005    1.27340E+005
              68    1.66020E+007    1.64042E+007    1.64042E+007   -5.32859E+004   -3.38648E+005    1.67428E+007   -5.33742E+006    1.65965E+007   -5.33438E+004   -3.38022E+005    1.64036E+007   -5.04594E+003    2.44561E+004    9.43708E+004
              69    1.63563E+007    1.62267E+007    1.62267E+007    7.83643E+004   -3.29836E+005    1.65565E+007   -5.32507E+006    1.63448E+007    7.84160E+004   -3.29739E+005    1.62265E+007   -4.14171E+003    3.92152E+004    2.97818E+004
              70    1.87881E+007    2.04608E+007    2.04608E+007    1.79330E+006    1.55451E+006    1.89063E+007   -7.93621E+006    1.87846E+007    1.69394E+006    1.72233E+006    2.03924E+007   -8.40119E+004    8.87906E+005    7.08066E+005
              71    1.90852E+007    1.88228E+007    1.88228E+007    3.74094E+005   -8.40872E+005    1.96636E+007   -6.11866E+006    1.89979E+007   -8.39667E+005    3.95850E+005    1.87998E+007   -3.26999E+004    6.39887E+004    6.47617E+005
              72    1.75288E+007    1.79261E+007    1.79261E+007    5.38807E+005    2.58978E+005    1.76671E+007   -6.24128E+006    1.75238E+007    5.33916E+005    2.90356E+005    1.78996E+007   -4.23265E+004    3.12537E+005    6.07432E+005
              73    1.72864E+007    1.70827E+007    1.70827E+007   -1.03147E+005   -3.02546E+005    1.73853E+007   -5.55901E+006    1.72838E+007   -2.99585E+005   -9.13477E+004    1.70679E+007   -2.00772E+004    8.33737E+004    4.96716E+005
              74    1.65124E+007    1.65454E+007    1.65454E+007    1.84049E+005   -1.14069E+005    1.66595E+007   -5.53846E+006    1.65064E+007    1.83152E+005   -1.03087E+005    1.65353E+007   -2.11482E+004    1.34111E+005    3.86963E+005
              75    1.63173E+007    1.61590E+007    1.61590E+007   -1.01270E+005   -2.14755E+005    1.63738E+007   -5.28099E+006    1.63164E+007   -1.02352E+005   -2.10212E+005    1.61555E+007   -1.08599E+004    2.66052E+004    2.36545E+005
              76    1.60734E+007    1.59834E+007    1.59834E+007    2.69277E+004   -2.04458E+005    1.61878E+007   -5.26861E+006    1.60696E+007    2.64085E+004   -2.03429E+005    1.59829E+007   -1.17773E+004    4.05708E+004    8.11488E+004
              77    1.79125E+007    1.95048E+007    1.95048E+007    1.83933E+006    1.35522E+006    1.81496E+007   -7.56646E+006    1.78977E+007    1.52931E+006    1.78138E+006    1.93887E+007   -1.68870E+005    7.60356E+005    1.22710E+006
              78    1.82722E+007    1.81787E+007    1.81787E+007    5.56218E+005   -6.80440E+005    1.88591E+007   -6.01815E+006    1.81777E+007   -6.76441E+005    6.23578E+005    1.81073E+007   -5.97704E+004    9.87482E+004    1.11549E+006
              79    1.68832E+007    1.73782E+007    1.73782E+007    5.97622E+005    3.94204E+005    1.69840E+007   -6.12334E+006    1.68804E+007    5.27041E+005    5.24149E+005    1.73188E+007   -8.18679E+004    2.91213E+005    9.58321E+005
              80    1.66720E+007    1.66305E+007    1.66305E+007    1.17467E+005   -1.96100E+005    1.68266E+007   -5.51728E+006    1.66654E+007   -1.89243E+005    1.49377E+005    1.65917E+007   -3.94184E+004    9.73369E+004    7.93719E+005
              81    1.59435E+007    1.61094E+007    1.61094E+007    2.38610E+005    9.41756E+004    1.60153E+007   -5.48074E+006    1.59421E+007    2.23516E+005    1.31551E+005    1.60871E+007   -4.08768E+004    1.24057E+005    5.83871E+005
              82    1.57605E+007    1.57561E+007    1.57561E+007    2.74814E+004   -3.61795E+004    1.57923E+007   -5.24914E+006    1.57603E+007   -2.36135E+004    2.34037E+004    1.57476E+007   -2.45314E+004    3.29989E+004    3.63999E+005
              83    1.55246E+007    1.55791E+007    1.55791E+007    9.04980E+004    1.86385E+004    1.55604E+007   -5.22940E+006    1.55243E+007    8.04825E+004    2.96218E+004    1.55781E+007   -2.47061E+004    3.44924E+004    1.17763E+005
              84    1.67122E+007    1.81454E+007    1.81454E+007    1.82403E+006    1.06786E+006    1.70775E+007   -7.01242E+006    1.66737E+007    1.19505E+006    1.86593E+006    1.79763E+007   -2.07684E+005    6.01595E+005    1.55803E+006
              85    1.71740E+007    1.72431E+007    1.72431E+007    8.67158E+005   -6.30808E+005    1.78739E+007   -5.82649E+006    1.70261E+007   -6.23877E+005    9.74871E+005    1.71285E+007   -8.69298E+004    1.18503E+005    1.36154E+006
              86    1.60835E+007    1.66079E+007    1.66079E+007    7.44465E+005    3.12996E+005    1.62949E+007   -5.88845E+006    1.60705E+007    3.50967E+005    8.01512E+005    1.65129E+007   -9.58479E+004    2.69100E+005    1.19801E+006
              87    1.58658E+007    1.59492E+007    1.59492E+007    4.21476E+005   -2.34352E+005    1.61836E+007   -5.37878E+006    1.58353E+007   -2.30307E+005    4.79703E+005    1.58869E+007   -4.05217E+004    1.05225E+005    9.76336E+005
              88    1.52439E+007    1.54924E+007    1.54924E+007    4.07362E+005    9.44137E+004    1.53980E+007   -5.33139E+006    1.52367E+007    1.03260E+005    4.34663E+005    1.54562E+007   -4.33014E+004    1.21901E+005    7.28187E+005
              89    1.50429E+007    1.51572E+007    1.51572E+007    3.30450E+005   -9.28847E+004    1.52501E+007   -5.13159E+006    1.50295E+007   -9.15672E+004    3.42647E+005    1.51437E+007   -2.17023E+004    3.68495E+004    4.46023E+005
              90    1.48358E+007    1.50016E+007    1.50016E+007    3.39436E+005   -1.81429E+003    1.50035E+007   -5.11309E+006    1.48269E+007   -6.58063E+001    3.39164E+005    1.50002E+007   -2.35383E+004    3.30643E+004    1.43527E+005
              91    1.54137E+007    1.68337E+007    1.68337E+007    2.00091E+006    8.98373E+005    1.59354E+007   -6.57767E+006    1.53246E+007    1.00048E+006    2.08158E+006    1.66510E+007   -2.61636E+005    4.22434E+005    1.59740E+006
              92    1.59566E+007    1.62894E+007    1.62894E+007    1.16367E+006   -3.85114E+005    1.66745E+007   -5.68930E+006    1.57861E+007   -3.72289E+005    1.29330E+006    1.61469E+007   -1.16359E+005    1.68777E+005    1.45397E+006
              93    1.50838E+007    1.57706E+007    1.57706E+007    1.04557E+006    3.52043E+005    1.54186E+007   -5.72275E+006    1.50478E+007    3.86951E+005    1.13040E+006    1.56509E+007   -1.25605E+005    2.27046E+005    1.30711E+006
              94    1.48697E+007    1.52239E+007    1.52239E+007    7.88807E+005   -4.53671E+004    1.52692E+007   -5.32244E+006    1.48169E+007   -3.41866E+004    8.60888E+005    1.51406E+007   -8.36111E+004    1.18962E+005    1.08809E+006
              95    1.43149E+007    1.47931E+007    1.47931E+007    7.80273E+005    1.94230E+005    1.45989E+007   -5.25587E+006    1.42878E+007    2.07116E+005    8.14531E+005    1.47460E+007   -7.74076E+004    1.08246E+005    8.05410E+005
              96    1.41328E+007    1.45055E+007    1.45055E+007    7.19876E+005    4.93350E+004    1.44561E+007   -5.09156E+006    1.40970E+007    5.49986E+004    7.32088E+005    1.44876E+007   -5.91162E+004    4.47879E+004    4.94443E+005
              97    1.39371E+007    1.43446E+007    1.43446E+007    7.31972E+005    1.04251E+005    1.42403E+007   -5.06027E+006    1.39052E+007    1.09117E+005    7.29104E+005    1.43426E+007   -5.44756E+004    2.66130E+004    1.62971E+005
              98    1.44376E+007    1.56715E+007    1.56715E+007    2.06734E+006    5.24431E+005    1.51470E+007   -6.08775E+006    1.42503E+007    5.63536E+005    2.20827E+006    1.54914E+007   -2.00021E+005    2.73371E+005    1.53880E+006
              99    1.49985E+007    1.53166E+007    1.53166E+007    1.38734E+006   -5.60750E+005    1.58774E+007   -5.38107E+006    1.47098E+007   -5.57476E+005    1.54292E+006    1.51578E+007   -6.91249E+004    7.27838E+004    1.47792E+006
             100    1.41948E+007    1.48434E+007    1.48434E+007    1.33668E+006    4.83162E+004    1.47951E+007   -5.40947E+006    1.40624E+007    6.14163E+004    1.46276E+006    1.47042E+007   -1.02916E+005    1.75147E+005    1.35560E+006
             101    1.39240E+007    1.43303E+007    1.43303E+007    1.16742E+006   -2.47019E+005    1.45773E+007   -5.08356E+006    1.37610E+007   -2.44264E+005    1.26197E+006    1.42330E+007   -4.78246E+004    9.43916E+004    1.12440E+006
             102    1.34363E+007    1.39559E+007    1.39559E+007    1.17654E+006   -5.29604E+004    1.40088E+007   -5.02649E+006    1.33089E+007   -4.99942E+004    1.22650E+006    1.39030E+007   -4.79300E+004    9.48410E+004    8.16114E+005
             103    1.32537E+007    1.37024E+007    1.37024E+007    1.12606E+006   -1.38077E+005    1.38404E+007   -4.89678E+006    1.31170E+007   -1.37266E+005    1.14453E+006    1.36831E+007   -2.83577E+004    3.92952E+004    4.90773E+005
             104    1.30869E+007    1.35724E+007    1.35724E+007    1.13370E+006   -7.83904E+004    1.36508E+007   -4.87590E+006    1.29597E+007   -7.76230E+004    1.13497E+006    1.35703E+007   -2.93949E+004    2.36137E+004    1.57578E+005
             105    1.38665E+007    1.48254E+007    1.48254E+007    1.85012E+006    2.12915E+005    1.46125E+007   -5.62947E+006    1.36466E+007    2.15464E+005    2.04122E+006    1.46317E+007    2.21851E+004   -1.53638E+005    1.56706E+006
             106    1.37171E+007    1.45034E+007    1.45034E+007    1.72378E+006    9.89637E+003    1.44935E+007   -5.41236E+006    1.34730E+007    3.72012E+004    1.90170E+006    1.42982E+007   -2.15831E+005    2.68582E+003    1.60798E+006
             107    1.30026E+007    1.39802E+007    1.39802E+007    1.72459E+006    3.41181E+005    1.36390E+007   -5.34865E+006    1.28355E+007    3.69362E+005    1.86133E+006    1.38153E+007   -1.83997E+005    9.72327E+004    1.41192E+006
             108    1.25940E+007    1.35114E+007    1.35114E+007    1.74189E+006    2.29520E+005    1.32819E+007   -5.16094E+006    1.23872E+007    2.61103E+005    1.81987E+006    1.34018E+007   -2.07433E+005    8.92699E+004    1.12990E+006
             109    1.22160E+007    1.31679E+007    1.31679E+007    1.73724E+006    2.94664E+005    1.28732E+007   -5.06660E+006    1.20221E+007    3.19268E+005    1.76561E+006    1.31149E+007   -1.79973E+005    8.43431E+004    7.74204E+005
             110    1.20958E+007    1.29865E+007    1.29865E+007    1.68294E+006    2.29752E+005    1.27568E+007   -4.96641E+006    1.18971E+007    2.50274E+005    1.67897E+006    1.29700E+007   -1.68908E+005    5.24795E+004    4.30386E+005
             111    1.20491E+007    1.29152E+007    1.29152E+007    1.62209E+006    2.30858E+005    1.26844E+007   -4.92272E+006    1.18664E+007    2.47448E+005    1.60711E+006    1.29136E+007   -1.50598E+005    2.28989E+004    1.33449E+005
             112    1.14677E+007    1.19257E+007    1.19257E+007    1.83216E+006   -5.43897E+005    1.24696E+007   -4.40467E+006    1.08931E+007   -5.33012E+005    1.82244E+006    1.19246E+007    1.59425E+005   -3.53190E+004    1.04091E+005
             113    1.14843E+007    1.19217E+007    1.19217E+007    1.94417E+006   -6.31852E+005    1.25536E+007   -4.41135E+006    1.08052E+007   -6.17151E+005    1.94265E+006    1.19086E+007    1.86364E+005   -9.73996E+004    3.53486E+005
             114    1.15854E+007    1.19521E+007    1.19521E+007    2.04270E+006   -7.85540E+005    1.27377E+007   -4.40310E+006    1.07668E+007   -7.65954E+005    2.07115E+006    1.19041E+007    2.13685E+005   -1.61831E+005    6.76609E+005
             115    1.18662E+007    1.20836E+007    1.20836E+007    1.99307E+006   -9.89229E+005    1.30728E+007   -4.36248E+006    1.09744E+007   -9.57869E+005    2.07584E+006    1.19695E+007    2.60725E+005   -2.50737E+005    1.05065E+006
             116    1.24169E+007    1.23841E+007    1.23841E+007    1.88982E+006   -1.32370E+006    1.37078E+007   -4.31675E+006    1.14238E+007   -1.28025E+006    2.04614E+006    1.21843E+007    2.68167E+005   -4.23476E+005    1.39704E+006
             117    1.31894E+007    1.27791E+007    1.27791E+007    1.77698E+006   -1.84192E+006    1.46211E+007   -4.23806E+006    1.19938E+007   -1.76022E+006    1.97838E+006    1.24960E+007    3.32745E+005   -7.03228E+005    1.65576E+006
             118    1.44932E+007    1.32905E+007    1.32905E+007    1.74427E+006   -2.97380E+006    1.62643E+007   -4.02032E+006    1.25829E+007   -2.82273E+006    2.00600E+006    1.28777E+007    2.99050E+005   -1.30637E+006    1.88474E+006
             119    1.58666E+007    1.42122E+007    1.42122E+007    1.36290E+006   -3.52262E+006    1.77349E+007   -4.01751E+006    1.40183E+007   -3.33423E+006    1.37842E+006    1.40083E+007   -6.22763E+005    1.20698E+006    1.28732E+006
             120    1.58748E+007    1.44841E+007    1.44841E+007    1.30202E+006   -3.13811E+006    1.76222E+007   -4.21599E+006    1.43751E+007   -3.02731E+006    1.39598E+006    1.42793E+007   -3.88589E+005    1.02760E+006    1.39738E+006
             121    1.72486E+007    1.59176E+007    1.59176E+007    1.32928E+006   -3.11963E+006    1.90372E+007   -4.70907E+006    1.58789E+007   -3.01751E+006    1.46795E+006    1.56768E+007   -2.19376E+005    1.22027E+006    1.54476E+006
             122    1.88728E+007    1.74137E+007    1.74137E+007    1.45216E+006   -3.41637E+006    2.08300E+007   -5.14981E+006    1.73737E+007   -3.31528E+006    1.56623E+006    1.71985E+007   -1.32545E+005    1.36661E+006    1.41652E+006
             123    1.69351E+007    1.83240E+007    1.83240E+007    1.72775E+006    1.06934E+006    1.72547E+007   -7.04036E+006    1.69062E+007    1.22622E+006    1.72857E+006    1.81663E+007    2.11589E+005   -6.18903E+005    1.50596E+006
             124    1.74118E+007    1.73908E+007    1.73908E+007    6.62299E+005   -6.32109E+005    1.80229E+007   -5.80699E+006    1.73031E+007   -6.26988E+005    7.60620E+005    1.72873E+007    6.75775E+004   -1.11915E+005    1.30758E+006
             125    1.64606E+007    1.69107E+007    1.69107E+007    5.82639E+005    3.20702E+005    1.65900E+007   -5.93800E+006    1.64559E+007    3.69663E+005    6.07228E+005    1.68371E+007    8.21247E+004   -2.59504E+005    1.06558E+006
             126    1.63890E+007    1.63648E+007    1.63648E+007    1.88831E+005   -2.29173E+005    1.65940E+007   -5.44149E+006    1.63770E+007   -2.25598E+005    2.29253E+005    1.63208E+007    2.96916E+004   -1.03388E+005    8.36569E+005
             127    1.58629E+007    1.59861E+007    1.59861E+007    1.62836E+005    8.38438E+004    1.59023E+007   -5.41094E+006    1.58625E+007    1.04428E+005    1.64573E+005    1.59638E+007    2.98732E+004   -1.17904E+005    5.82727E+005
             128    1.57545E+007    1.57232E+007    1.57232E+007    2.83954E+004   -9.03135E+004    1.58135E+007   -5.22043E+006    1.57535E+007   -8.90138E+004    3.51391E+004    1.57152E+007    1.10746E+004   -3.78799E+004    3.53242E+005
             129    1.55875E+007    1.55955E+007    1.55955E+007    2.30880E+004   -6.96163E+003    1.56025E+007   -5.20388E+006    1.55874E+007   -6.17098E+002    1.76933E+004    1.55946E+007    1.19822E+004   -3.14201E+004    1.17541E+005
             130    1.54550E+007    1.68052E+007    1.68052E+007    1.83989E+006    9.03158E+005    1.59021E+007   -6.51609E+006    1.53909E+007    1.03664E+006    1.89921E+006    1.66124E+007    2.59263E+005   -5.03002E+005    1.63121E+006
             131    1.61722E+007    1.64423E+007    1.64423E+007    1.03197E+006   -3.96899E+005    1.68392E+007   -5.69247E+006    1.60293E+007   -3.85905E+005    1.15422E+006    1.63091E+007    1.04739E+005   -1.49824E+005    1.42102E+006
             132    1.53912E+007    1.60061E+007    1.60061E+007    9.10654E+005    3.35157E+005    1.56709E+007   -5.75062E+006    1.53670E+007    3.79316E+005    9.71500E+005    1.59011E+007    1.28842E+005   -2.37339E+005    1.23662E+006
             133    1.53458E+007    1.56074E+007    1.56074E+007    5.97257E+005   -5.33075E+004    1.56607E+007   -5.38379E+006    1.53147E+007   -4.28624E+004    6.50479E+005    1.55437E+007    7.12869E+004   -1.16214E+005    9.69721E+005
             134    1.49574E+007    1.53053E+007    1.53053E+007    5.22250E+005    1.79499E+005    1.51258E+007   -5.33569E+006    1.49486E+007    1.98820E+005    5.38553E+005    1.52697E+007    7.24389E+004   -1.08709E+005    7.17807E+005
             135    1.48251E+007    1.50566E+007    1.50566E+007    4.26040E+005    4.44142E+004    1.50122E+007   -5.17570E+006    1.48140E+007    5.17081E+004    4.32377E+005    1.50430E+007    5.05840E+004   -4.26330E+004    4.44631E+005
             136    1.46920E+007    1.49452E+007    1.49452E+007    4.12016E+005    9.93381E+004    1.48459E+007   -5.15218E+006    1.46845E+007    1.07071E+005    4.05762E+005    1.49437E+007    4.81539E+004   -2.67246E+004    1.44253E+005
             137    1.44365E+007    1.57071E+007    1.57071E+007    2.01360E+006    6.27480E+005    1.50796E+007   -6.11606E+006    1.42857E+007    6.82931E+005    2.13700E+006    1.55282E+007    2.31937E+005   -2.77400E+005    1.53949E+006
             138    1.49253E+007    1.52960E+007    1.52960E+007    1.42028E+006   -4.94095E+005    1.57901E+007   -5.40740E+006    1.46452E+007   -4.86602E+005    1.55810E+006    1.51507E+007    9.79750E+004   -1.36083E+005    1.40802E+006
             139    1.44569E+007    1.50866E+007    1.50866E+007    1.24450E+006    8.47863E+004    1.50018E+007   -5.47197E+006    1.43517E+007    9.69136E+004    1.34011E+006    1.49789E+007    8.81832E+004   -2.01032E+005    1.20280E+006
             140    1.43763E+007    1.47177E+007    1.47177E+007    9.75916E+005   -2.18636E+005    1.49363E+007   -5.15832E+006    1.42640E+007   -2.16148E+005    1.05611E+006    1.46350E+007    3.64573E+004   -1.11897E+005    1.05765E+006
             141    1.39502E+007    1.43717E+007    1.43717E+007    9.36161E+005   -4.17091E+004    1.44134E+007   -5.08871E+006    1.38728E+007   -3.99503E+004    9.82794E+005    1.43233E+007    2.72633E+004   -9.78825E+004    7.99565E+005
             142    1.38034E+007    1.41518E+007    1.41518E+007    8.81376E+005   -1.28981E+005    1.42808E+007   -4.96807E+006    1.37198E+007   -1.28643E+005    8.99229E+005    1.41336E+007    1.29566E+004   -4.33713E+004    4.89257E+005
             143    1.36773E+007    1.40494E+007    1.40494E+007    8.66992E+005   -7.40401E+004    1.41235E+007   -4.94746E+006    1.36041E+007   -7.38346E+004    8.68873E+005    1.40473E+007    1.22744E+004   -2.32478E+004    1.64334E+005
             144    1.31866E+007    1.45676E+007    1.45676E+007    2.25588E+006    6.52700E+005    1.39149E+007   -5.82539E+006    1.29646E+007    6.95019E+005    2.34375E+006    1.44374E+007    2.24151E+005   -2.37700E+005    1.24530E+006
             145    1.41216E+007    1.48679E+007    1.48679E+007    1.65933E+006   -1.70268E+004    1.48849E+007   -5.50340E+006    1.38951E+007   -3.20172E+003    1.77436E+006    1.47390E+007    1.38439E+005   -1.07706E+005    1.29592E+006
             146    1.33847E+007    1.43293E+007    1.43293E+007    1.62897E+006    3.51794E+005    1.39775E+007   -5.43670E+006    1.32466E+007    3.97009E+005    1.73444E+006    1.41786E+007    2.20969E+005   -1.31700E+005    1.37382E+006
             147    1.29181E+007    1.37509E+007    1.37509E+007    1.58566E+006    1.92883E+005    1.35581E+007   -5.17649E+006    1.27475E+007    2.21588E+005    1.66425E+006    1.36436E+007    1.88632E+005   -9.27508E+004    1.13662E+006
             148    1.25274E+007    1.34282E+007    1.34282E+007    1.62349E+006    2.85581E+005    1.31427E+007   -5.11244E+006    1.23651E+007    3.17025E+005    1.64339E+006    1.33769E+007    1.96021E+005   -8.76133E+004    7.74660E+005
             149    1.24381E+007    1.32616E+007    1.32616E+007    1.53648E+006    2.15943E+005    1.30456E+007   -5.00467E+006    1.22789E+007    2.38770E+005    1.53102E+006    1.32442E+007    1.69522E+005   -5.41263E+004    4.49009E+005
             150    1.23894E+007    1.31972E+007    1.31972E+007    1.49234E+006    2.21249E+005    1.29759E+007   -4.97025E+006    1.22414E+007    2.40386E+005    1.47496E+006    1.31954E+007    1.54348E+005   -2.43245E+004    1.42003E+005
             151    1.15217E+007    1.20261E+007    1.20261E+007    1.80186E+006   -4.58219E+005    1.24843E+007   -4.45657E+006    1.10063E+007   -4.50070E+005    1.79489E+006    1.20249E+007   -1.34700E+005    2.81672E+004    1.07027E+005
             152    1.15047E+007    1.20048E+007    1.20048E+007    1.94126E+006   -5.37045E+005    1.25419E+007   -4.46968E+006    1.08795E+007   -5.26258E+005    1.94403E+006    1.19913E+007   -1.56706E+005    8.24358E+004    3.62870E+005
             153    1.15864E+007    1.20218E+007    1.20218E+007    2.02291E+006   -6.75884E+005    1.26977E+007   -4.45627E+006    1.08449E+007   -6.58452E+005    2.05570E+006    1.19716E+007   -2.00301E+005    1.33693E+005    6.99487E+005
             154    1.18142E+007    1.21602E+007    1.21602E+007    2.02218E+006   -8.13911E+005    1.29741E+007   -4.45617E+006    1.10085E+007   -7.92393E+005    2.12423E+006    1.20367E+007   -2.06027E+005    2.19442E+005    1.10005E+006
             155    1.24076E+007    1.24899E+007    1.24899E+007    1.80804E+006   -1.11980E+006    1.36097E+007   -4.39270E+006    1.15915E+007   -1.08030E+006    1.99813E+006    1.22603E+007   -2.50079E+005    3.73379E+005    1.52344E+006
             156    1.34018E+007    1.32747E+007    1.32747E+007    1.77212E+006   -1.44176E+006    1.47165E+007   -4.53504E+006    1.24898E+007   -1.38714E+006    2.06411E+006    1.29281E+007   -1.58815E+005    7.10981E+005    1.87817E+006
             157    1.53150E+007    1.44582E+007    1.44582E+007    1.74523E+006   -2.54419E+006    1.70024E+007   -4.55307E+006    1.38639E+007   -2.38416E+006    1.90512E+006    1.41382E+007   -3.99210E+005    1.25690E+006    1.71394E+006
             158    1.20434E+007    1.29108E+007    1.29108E+007    1.62580E+006    2.30674E+005    1.26802E+007   -4.92244E+006    1.18595E+007    2.47375E+005    1.61088E+006    1.29091E+007   -1.51288E+005   -2.30841E+004   -1.40414E+005
             159    1.30781E+007    1.35658E+007    1.35658E+007    1.13880E+006   -7.83220E+004    1.36441E+007   -4.87542E+006    1.29497E+007   -7.74943E+004    1.14021E+006    1.35635E+007   -3.06316E+004   -2.38843E+004   -1.65108E+005
             160    1.39341E+007    1.43408E+007    1.43408E+007    7.33818E+005    1.00983E+005    1.42398E+007   -5.05852E+006    1.39018E+007    1.05732E+005    7.31379E+005    1.43385E+007   -5.39677E+004   -2.77777E+004   -1.75315E+005
             161    1.48388E+007    1.50052E+007    1.50052E+007    3.40040E+005   -1.43078E+003    1.50066E+007   -5.11459E+006    1.48300E+007    2.42862E+002    3.40133E+005    1.50034E+007   -2.29233E+004   -3.43690E+004   -1.57383E+005
             162    1.55289E+007    1.55827E+007    1.55827E+007    8.90415E+004    1.87596E+004    1.55639E+007   -5.23015E+006    1.55285E+007    7.98710E+004    2.90588E+004    1.55815E+007   -2.34710E+004   -3.53066E+004   -1.27745E+005
             163    1.60777E+007    1.59878E+007    1.59878E+007    2.73345E+004   -2.04591E+005    1.61924E+007   -5.27018E+006    1.60739E+007    2.68910E+004   -2.03592E+005    1.59872E+007   -1.10680E+004   -4.13658E+004   -8.52433E+004
             164    1.63580E+007    1.62275E+007    1.62275E+007    7.66440E+004   -3.30009E+005    1.65575E+007   -5.32472E+006    1.63466E+007    7.67017E+004   -3.29922E+005    1.62274E+007   -3.79155E+003   -3.90396E+004   -2.88557E+004
             165    1.64040E+007    1.62423E+007    1.62423E+007    2.55301E+004   -3.42786E+005    1.65851E+007   -5.30835E+006    1.63947E+007    2.56222E+004   -3.42753E+005    1.62422E+007    1.53729E+003   -4.00575E+004    2.09608E+004
             166    1.61341E+007    1.60574E+007    1.60574E+007    8.16705E+004   -2.30442E+005    1.62879E+007   -5.30289E+006    1.61273E+007    8.07902E+004   -2.29159E+005    1.60570E+007    1.70588E+004   -3.39424E+004    7.34577E+004
             167    1.20845E+007    1.29788E+007    1.29788E+007    1.68942E+006    2.31474E+005    1.27473E+007   -4.96656E+006    1.18842E+007    2.51912E+005    1.68612E+006    1.29617E+007   -1.68799E+005   -5.27332E+004   -4.37748E+005
             168    1.32415E+007    1.36969E+007    1.36969E+007    1.13446E+006   -1.32670E+005    1.38295E+007   -4.89955E+006    1.31041E+007   -1.31772E+005    1.15394E+006    1.36765E+007   -2.99950E+004   -4.03188E+004   -5.04183E+005
             169    1.41394E+007    1.45143E+007    1.45143E+007    7.22685E+005    5.10219E+004    1.44632E+007   -5.09599E+006    1.41034E+007    5.68956E+004    7.35987E+005    1.44951E+007   -6.00889E+004   -4.71058E+004   -5.12137E+005
             170    1.50632E+007    1.51774E+007    1.51774E+007    3.27320E+005   -9.02614E+004    1.52677E+007   -5.13815E+006    1.50502E+007   -8.87426E+004    3.40280E+005    1.51629E+007   -2.31315E+004   -3.90118E+004   -4.61952E+005
             171    1.57844E+007    1.57785E+007    1.57785E+007    2.57996E+004   -3.75437E+004    1.58160E+007   -5.25557E+006    1.57841E+007   -2.26469E+004    1.98182E+004    1.57695E+007   -2.59990E+004   -3.48952E+004   -3.73259E+005
             172    1.63329E+007    1.61735E+007    1.61735E+007   -1.00952E+005   -2.17275E+005    1.63908E+007   -5.28510E+006    1.63320E+007   -1.02099E+005   -2.12626E+005    1.61700E+007   -1.13171E+004   -2.75285E+004   -2.38007E+005
             173    1.66078E+007    1.64108E+007    1.64108E+007   -5.17107E+004   -3.38536E+005    1.67493E+007   -5.34018E+006    1.66022E+007   -5.17664E+004   -3.37942E+005    1.64103E+007   -5.05620E+003   -2.51816E+004   -9.15381E+004
             174    1.66318E+007    1.64061E+007    1.64061E+007   -1.01993E+005   -3.46711E+005    1.67528E+007   -5.31913E+006    1.66278E+007   -1.01951E+005   -3.46345E+005    1.64057E+007    3.55129E+002   -2.63608E+004    7.82994E+004
             175    1.63188E+007    1.61973E+007    1.61973E+007   -2.23985E+004   -2.18850E+005    1.64161E+007   -5.31867E+006    1.63161E+007   -2.38087E+004   -2.14322E+005    1.61941E+007    1.64909E+004   -2.97974E+004    2.24240E+005
             176    1.22142E+007    1.31658E+007    1.31658E+007    1.74053E+006    2.91862E+005    1.28740E+007   -5.06607E+006    1.20187E+007    3.16407E+005    1.77095E+006    1.31109E+007   -1.80113E+005   -8.39560E+004   -7.88508E+005
             177    1.34570E+007    1.39760E+007    1.39760E+007    1.17619E+006   -5.38426E+004    1.40298E+007   -5.03277E+006    1.33297E+007   -5.07147E+004    1.22842E+006    1.39206E+007   -4.95692E+004   -9.52670E+004   -8.35497E+005
             178    1.43636E+007    1.48342E+007    1.48342E+007    7.71714E+005    1.87321E+005    1.46468E+007   -5.26440E+006    1.43368E+007    2.00209E+005    8.08434E+005    1.47845E+007   -7.69249E+004   -1.10455E+005   -8.27669E+005
             179    1.53045E+007    1.55463E+007    1.55463E+007    3.96023E+005    9.20895E+004    1.54542E+007   -5.34482E+006    1.52978E+007    1.00990E+005    4.24392E+005    1.55091E+007   -4.24737E+004   -1.23896E+005   -7.40987E+005
             180    1.59939E+007    1.61546E+007    1.61546E+007    2.35970E+005    8.64352E+004    1.60682E+007   -5.49234E+006    1.59924E+007    2.22659E+005    1.22089E+005    1.61323E+007   -3.93875E+004   -1.25688E+005   -5.85389E+005
             181    1.65431E+007    1.65741E+007    1.65741E+007    1.85094E+005   -1.18745E+005    1.66929E+007   -5.54683E+006    1.65368E+007    1.84429E+005   -1.08368E+005    1.65644E+007   -2.00963E+004   -1.35451E+005   -3.78765E+005
             182    1.67855E+007    1.67913E+007    1.67913E+007    2.47344E+005   -2.25727E+005    1.70171E+007   -5.60431E+006    1.67705E+007    2.48295E+005   -2.24855E+005    1.67895E+007   -5.20203E+003   -1.30523E+005   -1.16255E+005
             183    1.67851E+007    1.67612E+007    1.67612E+007    1.83656E+005   -2.24051E+005    1.69853E+007   -5.57360E+006    1.67740E+007    1.84474E+005   -2.22697E+005    1.67590E+007    8.50226E+003   -1.31558E+005    1.38489E+005
             184    1.64594E+007    1.65145E+007    1.65145E+007    2.27865E+005   -1.12489E+005    1.66270E+007   -5.54329E+006    1.64515E+007    2.25264E+005   -9.96278E+004    1.65042E+007    3.14120E+004   -1.20936E+005    3.94625E+005
             185    1.26191E+007    1.35341E+007    1.35341E+007    1.73712E+006    2.28574E+005    1.33056E+007   -5.16661E+006    1.24138E+007    2.59850E+005    1.81865E+006    1.34213E+007   -2.06176E+005   -8.81422E+004   -1.14783E+006
             186    1.39712E+007    1.43805E+007    1.43805E+007    1.16123E+006   -2.37478E+005    1.46180E+007   -5.10142E+006    1.38124E+007   -2.34509E+005    1.25885E+006    1.42799E+007   -4.89688E+004   -9.90124E+004   -1.14533E+006
             187    1.49523E+007    1.53055E+007    1.53055E+007    7.79046E+005   -3.90261E+004    1.53445E+007   -5.34850E+006    1.49018E+007   -2.69211E+004    8.52643E+005    1.52198E+007   -8.59889E+004   -1.23306E+005   -1.10716E+006
             188    1.59517E+007    1.60305E+007    1.60305E+007    4.09484E+005   -2.32512E+005    1.62630E+007   -5.40250E+006    1.59226E+007   -2.28161E+005    4.67873E+005    1.59678E+007   -4.15586E+004   -1.08843E+005   -9.82653E+005
             189    1.67417E+007    1.66949E+007    1.66949E+007    1.07821E+005   -1.97281E+005    1.68922E+007   -5.53515E+006    1.67355E+007   -1.89770E+005    1.38251E+005    1.66570E+007   -4.08656E+004   -9.92194E+004   -7.86709E+005
             190    1.73234E+007    1.71133E+007    1.71133E+007   -1.10043E+005   -3.08450E+005    1.74217E+007   -5.56493E+006    1.73208E+007   -3.05743E+005   -9.89029E+004    1.70994E+007   -1.90281E+004   -8.26335E+004   -4.81325E+005
             191    1.75828E+007    1.73381E+007    1.73381E+007   -2.24199E+005   -2.65059E+005    1.76032E+007   -5.61628E+006    1.75827E+007   -2.62966E+005   -2.24781E+005    1.73366E+007   -7.67108E+003   -7.64966E+004   -1.43933E+005
             192    1.75174E+007    1.72566E+007    1.72566E+007   -2.14926E+005   -3.06457E+005    1.75630E+007   -5.57839E+006    1.75169E+007   -3.05789E+005   -2.11835E+005    1.72528E+007    4.35038E+003   -7.77918E+004    2.44246E+005
             193    1.70851E+007    1.69525E+007    1.69525E+007   -5.85686E+004   -2.05648E+005    1.71581E+007   -5.56276E+006    1.70837E+007   -1.99405E+005   -4.61652E+004    1.69338E+007    2.58540E+004   -8.63468E+004    5.56516E+005
             194    1.30480E+007    1.40170E+007    1.40170E+007    1.71502E+006    3.33027E+005    1.36840E+007   -5.35502E+006    1.28818E+007    3.61459E+005    1.85416E+006    1.38495E+007   -1.84801E+005   -9.66674E+004   -1.42588E+006
             195    1.42824E+007    1.49228E+007    1.49228E+007    1.32756E+006    4.03188E+004    1.48824E+007   -5.43021E+006    1.41510E+007    5.38006E+004    1.45555E+006    1.47813E+007   -1.04575E+005   -1.76488E+005   -1.37127E+006
             196    1.51873E+007    1.58687E+007    1.58687E+007    1.03713E+006    3.49056E+005    1.55196E+007   -5.75162E+006    1.51521E+007    3.84069E+005    1.12280E+006    1.57480E+007   -1.24770E+005   -2.30342E+005   -1.31676E+006
             197    1.61825E+007    1.67039E+007    1.67039E+007    7.34921E+005    3.16108E+005    1.63878E+007   -5.91832E+006    1.61703E+007    3.53957E+005    7.91048E+005    1.66100E+007   -9.35838E+004   -2.72507E+005   -1.19450E+006
             198    1.69429E+007    1.74410E+007    1.74410E+007    5.99263E+005    3.98674E+005    1.70423E+007   -6.14631E+006    1.69402E+007    5.40905E+005    5.14063E+005    1.73840E+007   -7.70459E+004   -2.94750E+005   -9.38527E+005
             199    1.75445E+007    1.79482E+007    1.79482E+007    5.52375E+005    2.58682E+005    1.76895E+007   -6.25308E+006    1.75390E+007    5.48982E+005    2.86933E+005    1.79233E+007   -4.05423E+004   -3.17228E+005   -5.81152E+005
             200    1.77702E+007    1.81666E+007    1.81666E+007    6.22014E+005    1.79158E+005    1.79875E+007   -6.32260E+006    1.77578E+007    6.27754E+005    1.79947E+005    1.81601E+007   -3.63186E+003   -3.19292E+005   -1.13524E+005
             201    1.76922E+007    1.80523E+007    1.80523E+007    5.47919E+005    1.78237E+005    1.78741E+007   -6.25950E+006    1.76835E+007    5.49664E+005    1.88729E+005    1.80401E+007    3.12731E+004   -3.12299E+005    3.45608E+005
             202    1.71995E+007    1.76105E+007    1.76105E+007    5.54458E+005    2.71028E+005    1.73394E+007   -6.14532E+006    1.71942E+007    5.35067E+005    3.30355E+005    1.75705E+007    6.62410E+004   -2.91132E+005    7.78505E+005
             203    1.37566E+007    1.45455E+007    1.45455E+007    1.72566E+006    1.25876E+004    1.45329E+007   -5.42792E+006    1.35135E+007    3.98497E+004    1.90301E+006    1.43409E+007   -2.15606E+005   -2.66423E+003   -1.60820E+006
             204    1.50624E+007    1.53836E+007    1.53836E+007    1.39073E+006   -5.58499E+005    1.59421E+007   -5.40528E+006    1.47746E+007   -5.55353E+005    1.54762E+006    1.52236E+007   -6.63552E+004   -7.78396E+004   -1.48662E+006
             205    1.60556E+007    1.63858E+007    1.63858E+007    1.15773E+006   -3.85913E+005    1.67717E+007   -5.71919E+006    1.58874E+007   -3.72684E+005    1.28781E+006    1.62425E+007   -1.18236E+005   -1.70229E+005   -1.46317E+006
             206    1.72693E+007    1.73196E+007    1.73196E+007    8.52688E+005   -6.53508E+005    1.79731E+007   -5.83959E+006    1.71206E+007   -6.46958E+005    9.59336E+005    1.72064E+007   -8.47005E+004   -1.16196E+005   -1.35687E+006
             207    1.83338E+007    1.82170E+007    1.82170E+007    5.39999E+005   -7.09633E+005    1.89267E+007   -6.01580E+006    1.82376E+007   -7.05559E+005    6.05083E+005    1.81479E+007   -6.18528E+004   -9.27012E+004   -1.10029E+006
             208    1.91027E+007    1.88084E+007    1.88084E+007    3.50806E+005   -8.79761E+005    1.96882E+007   -6.09316E+006    1.90132E+007   -8.78774E+005    3.71716E+005    1.87865E+007   -3.08992E+004   -5.01245E+004   -6.33597E+005
             209    1.93831E+007    1.90615E+007    1.90615E+007    2.64762E+005   -8.58987E+005    1.99205E+007   -6.15576E+006    1.93096E+007   -8.58718E+005    2.65138E+005    1.90609E+007   -1.31983E+004   -4.63101E+004   -1.00441E+005
             210    1.91773E+007    1.88723E+007    1.88723E+007    2.88217E+005   -8.47641E+005    1.97199E+007   -6.10429E+006    1.91014E+007   -8.47416E+005    3.00114E+005    1.88602E+007    8.34052E+003   -5.32147E+004    4.71687E+005
             211    1.84989E+007    1.83437E+007    1.83437E+007    4.22125E+005   -6.83003E+005    1.90267E+007   -6.02760E+006    1.84244E+007   -6.80548E+005    4.70196E+005    1.82932E+007    4.39995E+004   -8.27523E+004    9.47105E+005
             212    1.38587E+007    1.48235E+007    1.48235E+007    1.85684E+006    2.18292E+005    1.46052E+007   -5.63286E+006    1.36383E+007    2.20347E+005    2.05033E+006    1.46279E+007    7.89514E+003    1.55683E+005   -1.57380E+006
             213    1.44904E+007    1.57178E+007    1.57178E+007    2.06373E+006    5.15449E+005    1.52023E+007   -6.09899E+006    1.43025E+007    5.54153E+005    2.20665E+006    1.55362E+007   -2.01401E+005   -2.62828E+005   -1.55006E+006
             214    1.54698E+007    1.68968E+007    1.68968E+007    1.99831E+006    9.12828E+005    1.59840E+007   -6.60264E+006    1.53838E+007    1.01116E+006    2.08330E+006    1.67135E+007   -2.52418E+005   -4.27435E+005   -1.60198E+006
             215    1.67633E+007    1.82118E+007    1.82118E+007    1.82619E+006    1.09472E+006    1.71170E+007   -7.04423E+006    1.67273E+007    1.22098E+006    1.86857E+006    1.80431E+007   -1.99511E+005   -6.16871E+005   -1.55313E+006
             216    1.79237E+007    1.95300E+007    1.95300E+007    1.83852E+006    1.38278E+006    1.81472E+007   -7.58377E+006    1.79107E+007    1.55838E+006    1.77852E+006    1.94144E+007   -1.58878E+005   -7.78554E+005   -1.21242E+006
             217    1.87710E+007    2.04502E+007    2.04502E+007    1.79804E+006    1.56260E+006    1.88876E+007   -7.93695E+006    1.87677E+007    1.71928E+006    1.71129E+006    2.03803E+007   -8.37781E+004   -9.07048E+005   -7.02176E+005
             218    1.90934E+007    2.08014E+007    2.08014E+007    1.76123E+006    1.65506E+006    1.91463E+007   -8.07255E+006    1.90928E+007    1.80859E+006    1.65520E+006    2.07539E+007    3.98449E+003   -9.48643E+005   -4.78533E+004
             219    1.88563E+007    2.05151E+007    2.05151E+007    1.79029E+006    1.52995E+006    1.89851E+007   -7.94510E+006    1.88522E+007    1.72815E+006    1.65583E+006    2.04513E+007    9.85787E+004   -9.13001E+005    6.09414E+005
             220    1.80262E+007    1.95875E+007    1.95875E+007    1.77843E+006    1.35171E+006    1.82358E+007   -7.57255E+006    1.80149E+007    1.55925E+006    1.68081E+006    1.94776E+007    1.57735E+005   -8.08655E+005    1.15547E+006
             221    2.06723E+007    1.89905E+007    1.89905E+007    1.57420E+006   -3.85449E+006    2.28449E+007   -5.57005E+006    1.89666E+007   -3.73955E+006    1.64099E+006    1.88087E+007   -6.94981E+004    1.58560E+006    1.11563E+006
             222    2.19882E+007    2.01090E+007    2.01090E+007    1.66347E+006   -4.22343E+006    2.43324E+007   -5.84967E+006    2.00973E+007   -4.10135E+006    1.68313E+006    1.99672E+007   -2.97426E+004    1.71200E+006    6.19483E+005
             223    2.25571E+007    2.06097E+007    2.06097E+007    1.69509E+006   -4.35574E+006    2.49654E+007   -5.98302E+006    2.06094E+007   -4.22676E+006    1.69510E+006    2.04807E+007   -3.61774E+003    1.78979E+006   -1.50428E+004
             224    2.20463E+007    2.01112E+007    2.01112E+007    1.65885E+006   -4.30280E+006    2.44140E+007   -5.82243E+006    2.01095E+007   -4.17579E+006    1.68059E+006    1.99625E+007    2.32390E+004    1.74988E+006   -6.48080E+005
             225    2.07729E+007    1.89879E+007    1.89879E+007    1.57423E+006   -4.00486E+006    2.29927E+007   -5.51909E+006    1.89745E+007   -3.88151E+006    1.64273E+006    1.87960E+007    7.35086E+004    1.64748E+006   -1.13180E+006
             226    1.91283E+007    1.74917E+007    1.74917E+007    1.45405E+006   -3.67957E+006    2.11713E+007   -5.08874E+006    1.74749E+007   -3.56268E+006    1.57039E+006    1.72585E+007    1.27728E+005    1.49421E+006   -1.43204E+006
             227    1.74799E+007    1.59115E+007    1.59115E+007    1.34805E+006   -3.47289E+006    1.93844E+007   -4.59557E+006    1.58778E+007   -3.35344E+006    1.47577E+006    1.56644E+007    2.55580E+005    1.33035E+006   -1.51479E+006
             228    1.66402E+007    1.50483E+007    1.50483E+007    1.42878E+006   -3.49931E+006    1.85476E+007   -4.32594E+006    1.48604E+007   -3.36540E+006    1.54002E+006    1.48032E+007    3.44176E+005    1.30523E+006   -1.45990E+006
             229    1.61401E+007    1.43943E+007    1.43943E+007    1.64779E+006   -3.75386E+006    1.81482E+007   -4.09609E+006    1.38764E+007   -3.57262E+006    1.85417E+006    1.40067E+007    2.11190E+005    1.66252E+006   -1.73158E+006
             230    1.14675E+007    1.19248E+007    1.19248E+007    1.82975E+006   -5.43698E+005    1.24685E+007   -4.40363E+006    1.08942E+007   -5.32926E+005    1.82017E+006    1.19237E+007    1.58498E+005    3.53666E+004   -1.05440E+005
             231    1.14807E+007    1.19179E+007    1.19179E+007    1.94636E+006   -6.33114E+005    1.25510E+007   -4.41038E+006    1.07995E+007   -6.18395E+005    1.94500E+006    1.19045E+007    1.86506E+005    9.80694E+004   -3.55769E+005
             232    1.15860E+007    1.19476E+007    1.19476E+007    2.04467E+006   -7.93849E+005    1.27415E+007   -4.39949E+006    1.07612E+007   -7.73730E+005    2.07344E+006    1.18988E+007    2.17072E+005    1.63216E+005   -6.82426E+005
             233    1.18667E+007    1.20784E+007    1.20784E+007    1.98940E+006   -9.95827E+005    1.30743E+007   -4.35733E+006    1.09731E+007   -9.64106E+005    2.07412E+006    1.19620E+007    2.61907E+005    2.53074E+005   -1.06113E+006
             234    1.24390E+007    1.23959E+007    1.23959E+007    1.88331E+006   -1.33644E+006    1.37324E+007   -4.31426E+006    1.14438E+007   -1.29226E+006    2.04260E+006    1.21925E+007    2.69652E+005    4.28936E+005   -1.41072E+006
             235    1.32122E+007    1.27890E+007    1.27890E+007    1.76714E+006   -1.85716E+006    1.46462E+007   -4.23299E+006    1.20153E+007   -1.77432E+006    1.96957E+006    1.25037E+007    3.33311E+005    7.11944E+005   -1.66188E+006
             236    1.44931E+007    1.32650E+007    1.32650E+007    1.75685E+006   -3.01149E+006    1.62765E+007   -4.00346E+006    1.25369E+007   -2.85916E+006    2.01640E+006    1.28531E+007    3.12389E+005    1.30263E+006   -1.88197E+006
             237    1.15345E+007    1.18574E+007    1.18574E+007    4.91119E+005    1.61885E+005    1.16955E+007   -4.17014E+006    1.15239E+007    1.66167E+005    4.90553E+005    1.18537E+007   -3.72152E+004   -4.73634E+003   -2.05456E+005
             238    1.27385E+007    1.29405E+007    1.29405E+007    3.74168E+005    3.64583E+004    1.29040E+007   -4.45037E+006    1.27285E+007    5.87985E+004    3.54550E+005    1.29378E+007    8.38420E+004    6.79753E+003   -1.85003E+005
             239    1.38318E+007    1.38330E+007    1.38330E+007    5.65004E+004   -5.35348E+004    1.38865E+007   -4.61198E+006    1.38308E+007    5.61757E+004   -5.12540E+004    1.38310E+007    5.94755E+003    2.01974E+003   -1.64788E+005
             240    1.46799E+007    1.45518E+007    1.45518E+007    8.97512E+004   -3.36667E+005    1.48885E+007   -4.76830E+006    1.46660E+007    8.48835E+004   -3.30681E+005    1.45507E+007    4.53558E+004   -5.20949E+003   -1.28889E+005
             241    1.15361E+007    1.18306E+007    1.18306E+007    4.35580E+005    1.58366E+005    1.16722E+007   -4.14151E+006    1.15286E+007    1.65085E+005    4.60948E+005    1.17985E+007   -4.34258E+004    1.53736E+004   -6.03744E+005
             242    1.27395E+007    1.29538E+007    1.29538E+007    3.78529E+005    5.62604E+004    1.28976E+007   -4.46288E+006    1.27303E+007    9.35949E+004    3.65512E+005    1.29295E+007    9.92461E+004    7.95300E+004   -5.48242E+005
             243    1.38553E+007    1.38707E+007    1.38707E+007    9.75228E+004   -6.52855E+004    1.39360E+007   -4.63432E+006    1.38532E+007    9.62742E+004   -4.58110E+004    1.38525E+007    1.46242E+004    1.11428E+005   -4.91136E+005
             244    1.47079E+007    1.46192E+007    1.46192E+007    1.57998E+005   -3.23586E+005    1.49428E+007   -4.81788E+006    1.46902E+007    1.51033E+005   -3.06381E+005    1.46090E+007    5.86494E+004    1.27453E+005   -3.69424E+005
             245    1.15918E+007    1.17771E+007    1.17771E+007    3.30128E+005    4.58062E+004    1.17313E+007   -4.05102E+006    1.15839E+007    6.42470E+004    4.05636E+005    1.16832E+007   -6.50204E+004   -5.43624E+004   -1.03250E+006
             246    1.28401E+007    1.29637E+007    1.29637E+007    2.87941E+005   -3.46477E+004    1.29984E+007   -4.40567E+006    1.28310E+007    1.40011E+004    3.06847E+005    1.28962E+007    1.10982E+005    6.23263E+004   -9.23126E+005
             247    1.39566E+007    1.39070E+007    1.39070E+007    8.53337E+003   -1.07022E+005    1.40140E+007   -4.60285E+006    1.39556E+007    2.41819E+003   -5.37901E+004    1.38599E+007    2.18730E+004    8.82745E+004   -8.06340E+005
             248    1.48363E+007    1.46757E+007    1.46757E+007    4.89110E+004   -3.61540E+005    1.50372E+007   -4.78769E+006    1.48235E+007    3.76597E+004   -3.22283E+005    1.46477E+007    6.47786E+004    8.32311E+004   -6.42958E+005
             249    1.17178E+007    1.17393E+007    1.17393E+007    1.51514E+005   -1.04338E+005    1.18436E+007   -3.92881E+006    1.17115E+007   -1.31335E+004    2.44431E+005    1.15551E+007   -1.07968E+005   -1.20858E+005   -1.45093E+006
             250    1.28404E+007    1.29918E+007    1.29918E+007    3.03427E+005    4.63201E+003    1.29872E+007   -4.43330E+006    1.28326E+007    1.30387E+005    3.02827E+005    1.28667E+007    1.36743E+005    1.14826E+005   -1.25617E+006
             251    1.39275E+007    1.39425E+007    1.39425E+007    1.59837E+005   -1.25331E+005    1.40679E+007   -4.65902E+006    1.39209E+007    1.43353E+005   -1.52870E+004    1.38490E+007    5.52583E+004    2.13384E+005   -1.12327E+006
             252    1.48472E+007    1.48142E+007    1.48142E+007    2.72376E+005   -3.20589E+005    1.51348E+007   -4.92200E+006    1.48205E+007    2.50437E+005   -2.38928E+005    1.47545E+007    1.06676E+005    2.61828E+005   -9.11924E+005
             253    1.19865E+007    1.16526E+007    1.16526E+007   -7.14391E+004   -5.80149E+005    1.22327E+007   -3.66699E+006    1.19621E+007   -3.89405E+005    3.98961E+004    1.13505E+007   -1.81252E+005   -4.09748E+005   -1.83517E+006
             254    1.28821E+007    1.27691E+007    1.27691E+007   -7.71153E+003   -2.15897E+005    1.29850E+007   -4.18181E+006    1.28783E+007   -1.54479E+005    1.30910E+005    1.25690E+007    1.02800E+005   -5.79366E+004   -1.58846E+006
             255    1.39636E+007    1.37816E+007    1.37816E+007   -1.07941E+005   -2.54815E+005    1.40364E+007   -4.47295E+006    1.39618E+007   -1.40655E+005   -6.55630E+004    1.36251E+007    5.91580E+004    2.17220E+004   -1.47220E+006
             256    1.49176E+007    1.46905E+007    1.46905E+007   -3.04821E+004   -4.16275E+005    1.51068E+007   -4.74791E+006    1.49064E+007   -5.49129E+004   -2.92001E+005    1.45907E+007    9.20980E+004    2.72104E+004   -1.22291E+006
             257    1.19606E+007    1.12091E+007    1.12091E+007   -2.64602E+005   -1.18525E+006    1.23943E+007   -3.25307E+006    1.18805E+007   -7.30699E+005   -3.26670E+005    1.08166E+007   -3.42992E+005   -6.98395E+005   -2.03324E+006
             258    1.25096E+007    1.23628E+007    1.23628E+007   -1.78964E+004   -2.71842E+005    1.26347E+007   -4.02437E+006    1.25038E+007   -6.87254E+004    8.72982E+004    1.20545E+007    1.18308E+005   -9.28820E+004   -1.94226E+006
             259    1.36911E+007    1.35487E+007    1.35487E+007    8.45226E+004   -3.58554E+005    1.39072E+007   -4.42488E+006    1.36749E+007    4.11450E+004   -7.26944E+004    1.33062E+007    1.17385E+005    1.24883E+005   -1.81408E+006
             260    1.47156E+007    1.46363E+007    1.46363E+007    2.67423E+005   -4.03081E+005    1.50394E+007   -4.83354E+006    1.46811E+007    1.95768E+005   -1.69959E+005    1.44748E+007    1.83984E+005    3.04590E+005   -1.51888E+006
             261    1.22970E+007    1.03509E+007    1.03509E+007   -7.02827E+005   -2.89447E+006    1.32454E+007   -2.25122E+006    1.18455E+007   -2.24172E+006   -6.02719E+005    9.59809E+006   -5.49682E+005   -1.66202E+006   -2.48729E+006
             262    1.26151E+007    1.12934E+007    1.12934E+007   -7.83424E+005   -1.79859E+006    1.30920E+007   -2.90381E+006    1.25227E+007   -1.24340E+006   -7.60084E+005    1.07149E+007   -2.71722E+005   -1.22988E+006   -2.37535E+006
             263    1.30606E+007    1.21270E+007    1.21270E+007   -5.87941E+005   -1.25374E+006    1.33808E+007   -3.42844E+006    1.30223E+007   -7.89144E+005   -5.75574E+005    1.16501E+007   -1.47673E+005   -1.05548E+006   -2.23971E+006
             264    1.36815E+007    1.31101E+007    1.31101E+007   -3.05993E+005   -8.22104E+005    1.39322E+007   -3.99400E+006    1.36595E+007   -3.20986E+005   -4.55339E+005    1.27583E+007   -5.12029E+004   -9.83549E+005   -1.95179E+006
             265    1.60803E+007    1.13498E+007    1.13498E+007   -1.70357E+006   -6.61292E+006    1.79627E+007   -1.01111E+006    1.42419E+007   -6.05491E+006   -1.44864E+006    1.05369E+007   -5.80812E+004   -3.00241E+006   -1.95308E+006
             266    1.48359E+007    1.05373E+007    1.05373E+007   -1.72405E+006   -5.95427E+006    1.64915E+007   -9.52982E+005    1.33747E+007   -5.46443E+006   -1.44722E+006    9.77060E+006   -1.74312E+005   -2.59192E+006   -2.06686E+006
             267    1.38264E+007    9.62932E+006    9.62932E+006   -1.81985E+006   -5.73143E+006    1.53608E+007   -6.92681E+005    1.24876E+007   -5.26084E+006   -1.61061E+006    8.94950E+006   -3.65635E+005   -2.27579E+006   -1.98684E+006
             268    1.39979E+007    9.59541E+006    9.59541E+006   -2.25811E+006   -5.84771E+006    1.54431E+007   -4.96532E+005    1.29000E+007   -5.30905E+006   -2.24035E+006    9.03899E+006   -6.17078E+005   -2.15654E+006   -1.78818E+006
             269    1.08070E+007    1.04431E+007    1.04431E+007    4.93688E+005   -1.05448E+006    1.14976E+007   -3.29411E+006    1.05532E+007   -9.49189E+005    3.91739E+005    1.04398E+007   -3.87411E+005   -8.68664E+004   -1.66866E+005
             270    1.08166E+007    1.03504E+007    1.03504E+007    4.91473E+005   -1.21976E+006    1.15702E+007   -3.20737E+006    1.05055E+007   -1.09568E+006    4.04097E+005    1.03137E+007   -4.20858E+005   -2.67368E+005   -5.59765E+005
             271    1.09053E+007    1.02091E+007    1.02091E+007    3.70175E+005   -1.51630E+006    1.17254E+007   -3.02101E+006    1.05288E+007   -1.36293E+006    3.25094E+005    1.01009E+007   -4.55000E+005   -4.34739E+005   -9.69591E+005
             272    1.11259E+007    1.00981E+007    1.00981E+007    1.35752E+005   -1.90802E+006    1.20061E+007   -2.77527E+006    1.06913E+007   -1.71578E+006    1.78860E+005    9.86274E+006   -4.60526E+005   -6.75525E+005   -1.42196E+006
             273    1.16848E+007    1.01024E+007    1.01024E+007   -3.60826E+005   -2.50648E+006    1.26089E+007   -2.41171E+006    1.12286E+007   -2.26830E+006   -1.96700E+005    9.70012E+006   -4.07419E+005   -1.01005E+006   -1.84702E+006
             274    1.28020E+007    1.04889E+007    1.04889E+007   -7.44763E+005   -3.44936E+006    1.39382E+007   -2.09825E+006    1.21340E+007   -3.10104E+006   -4.75721E+005    9.87151E+006   -3.67514E+005   -1.60858E+006   -2.20618E+006
             275    1.42010E+007    1.06951E+007    1.06951E+007   -1.55278E+006   -4.87130E+006    1.55664E+007   -1.42368E+006    1.32859E+007   -4.35211E+006   -1.43765E+006    1.00608E+007   -5.37465E+005   -2.10741E+006   -2.10224E+006
             276    1.74819E+007    1.21852E+007    1.21852E+007   -1.65073E+006   -7.46240E+006    1.96476E+007   -1.02402E+006    1.50667E+007   -6.83751E+006   -1.49204E+006    1.14016E+007    1.46552E+004   -3.40035E+006   -1.54788E+006
             277    1.85278E+007    1.27632E+007    1.27632E+007   -1.61079E+006   -8.14676E+006    2.09099E+007   -1.00188E+006    1.55983E+007   -7.46837E+006   -1.55960E+006    1.20336E+007    2.27001E+004   -3.69181E+006   -8.90651E+005
             278    1.89747E+007    1.30326E+007    1.30326E+007   -1.57878E+006   -8.41240E+006    2.14450E+007   -1.01380E+006    1.58278E+007   -7.71471E+006   -1.57878E+006    1.23349E+007   -2.44794E+003   -3.80463E+006   -4.62880E+003
             279    1.85909E+007    1.27529E+007    1.27529E+007   -1.61899E+006   -8.24278E+006    2.09957E+007   -9.63704E+005    1.55834E+007   -7.55633E+006   -1.56852E+006    1.20160E+007   -3.00915E+004   -3.72206E+006    8.80276E+005
             280    1.75666E+007    1.21095E+007    1.21095E+007   -1.70286E+006   -7.66133E+006    1.97709E+007   -9.15112E+005    1.50269E+007   -7.01869E+006   -1.54013E+006    1.13042E+007   -1.67475E+004   -3.45827E+006    1.56501E+006
             281    1.62455E+007    1.12680E+007    1.12680E+007   -1.77599E+006   -6.92906E+006    1.81971E+007   -8.54330E+005    1.42246E+007   -6.34595E+006   -1.52172E+006    1.04307E+007    6.01103E+004   -3.09299E+006    1.95050E+006
             282    1.50511E+007    1.03969E+007    1.03969E+007   -1.90079E+006   -6.38730E+006    1.67842E+007   -7.02948E+005    1.34183E+007   -5.86133E+006   -1.62208E+006    9.59225E+006    1.87469E+005   -2.71295E+006    2.08793E+006
             283    1.44270E+007    9.88099E+006    9.88099E+006   -2.08908E+006   -6.13785E+006    1.60188E+007   -5.51354E+005    1.30542E+007   -5.59890E+006   -1.85451E+006    9.10747E+006    3.64774E+005   -2.50093E+006    2.14044E+006
             284    1.44845E+007    1.02286E+007    1.02286E+007   -1.76967E+006   -5.86163E+006    1.60902E+007   -8.65772E+005    1.30862E+007   -5.36481E+006   -1.50208E+006    9.46420E+006    4.06868E+005   -2.33672E+006    2.26438E+006
             285    1.42114E+007    1.38274E+007    1.38274E+007   -1.16165E+005   -6.37478E+005    1.44649E+007   -4.35793E+006    1.41899E+007   -9.06978E+004   -4.40596E+005    1.36051E+007   -4.07670E+004   -9.78302E+005   -1.48318E+006
             286    1.56081E+007    1.55091E+007    1.55091E+007    2.23698E+005   -4.02797E+005    1.59119E+007   -5.10999E+006    1.55797E+007    1.86586E+005   -2.81745E+005    1.54251E+007    1.38197E+005    4.03663E+005   -1.07949E+006
             287    1.56784E+007    1.53446E+007    1.53446E+007   -9.93632E+004   -5.58020E+005    1.59027E+007   -4.89575E+006    1.56633E+007   -1.03193E+005   -5.08345E+005    1.52988E+007    4.10831E+004    1.41665E+004   -8.52429E+005
             288    1.55441E+007    1.54032E+007    1.54032E+007    2.29481E+005   -4.86635E+005    1.58898E+007   -5.04867E+006    1.55069E+007    2.29720E+005   -4.57634E+005    1.53739E+007    5.26936E+004    3.05564E+005   -6.06193E+005
             289    1.54918E+007    1.51862E+007    1.51862E+007   -2.43949E+004   -5.72284E+005    1.57585E+007   -4.86317E+006    1.54700E+007   -2.46104E+004   -5.61166E+005    1.51753E+007    1.55251E+004    7.19765E+004   -4.07913E+005
             290    1.53071E+007    1.50856E+007    1.50856E+007    1.17795E+005   -5.39596E+005    1.56252E+007   -4.88792E+006    1.52752E+007    1.18809E+005   -5.35654E+005    1.50806E+007    1.43523E+004    1.46590E+005   -2.34639E+005
             291    1.52655E+007    1.49988E+007    1.49988E+007    4.34320E+004   -5.58901E+005    1.55577E+007   -4.82779E+006    1.52387E+007    4.33970E+004   -5.58483E+005    1.49985E+007    5.82068E+003   -1.71173E+004   -7.52330E+004
             292    1.45241E+007    1.43112E+007    1.43112E+007    5.70728E+004   -4.68597E+005    1.47798E+007   -4.63323E+006    1.45027E+007    1.19557E+005   -4.19187E+005    1.41993E+007   -1.23011E+004   -1.00382E+006   -7.76979E+005
             293    1.61347E+007    1.60537E+007    1.60537E+007    2.49059E+005   -3.91962E+005    1.64457E+007   -5.30361E+006    1.61061E+007    2.49486E+005   -3.61032E+005    1.60224E+007    7.91886E+004    4.84575E+005   -5.22831E+005
             294    1.60803E+007    1.57322E+007    1.57322E+007   -6.06120E+004   -6.20987E+005    1.63532E+007   -5.01686E+006    1.60583E+007   -6.13864E+004   -6.11916E+005    1.57239E+007    2.12074E+004   -1.16137E+004   -3.68018E+005
             295    1.59065E+007    1.57494E+007    1.57494E+007    2.93129E+005   -5.71999E+005    1.63214E+007   -5.15684E+006    1.58534E+007    2.98405E+005   -5.66825E+005    1.57389E+007    3.36752E+004    3.29129E+005   -2.37576E+005
             296    1.57778E+007    1.54399E+007    1.54399E+007    7.19485E+003   -6.61830E+005    1.61017E+007   -4.92841E+006    1.57459E+007    7.10568E+003   -6.60299E+005    1.54384E+007    1.30422E+004    5.33907E+004   -1.42289E+005
             297    1.55648E+007    1.53212E+007    1.53212E+007    1.68942E+005   -6.25682E+005    1.59469E+007   -4.95484E+006    1.55191E+007    1.70227E+005   -6.25061E+005    1.53193E+007    1.52711E+004    1.56009E+005   -6.93233E+004
             298    1.55063E+007    1.52090E+007    1.52090E+007    7.73201E+004   -6.46599E+005    1.58556E+007   -4.87990E+006    1.54682E+007    7.72235E+004   -6.46412E+005    1.52089E+007    1.02856E+004   -2.70270E+004   -2.58426E+004
             299    1.46202E+007    1.44147E+007    1.44147E+007    3.36891E+004   -4.33435E+005    1.48482E+007   -4.67166E+006    1.46034E+007    1.08904E+005   -4.33297E+005    1.43394E+007   -3.62931E+003   -1.03730E+006    4.50756E+004
             300    1.62826E+007    1.61907E+007    1.61907E+007    1.98932E+005   -3.68048E+005    1.65587E+007   -5.34051E+006    1.62604E+007    2.14699E+005   -3.67091E+005    1.61739E+007   -1.05857E+003    5.02571E+005    1.23111E+005
             301    1.61675E+007    1.57825E+007    1.57825E+007   -1.11578E+005   -6.45143E+005    1.64277E+007   -5.00860E+006    1.61477E+007   -1.12000E+005   -6.43398E+005    1.57812E+007   -1.57440E+004   -2.22084E+004    1.45658E+005
             302    1.59506E+007    1.57743E+007    1.57743E+007    2.55638E+005   -5.75821E+005    1.63501E+007   -5.15136E+006    1.59018E+007    2.62916E+005   -5.73969E+005    1.57651E+007   -1.04319E+004    3.41402E+005    1.62809E+005
             303    1.57962E+007    1.54286E+007    1.54286E+007   -4.23267E+004   -6.73861E+005    1.61025E+007   -4.90414E+006    1.57677E+007   -4.24263E+004   -6.72392E+005    1.54272E+007   -1.26360E+004    5.16079E+004    1.38878E+005
             304    1.55554E+007    1.52952E+007    1.52952E+007    1.31490E+005   -6.24334E+005    1.59196E+007   -4.93413E+006    1.55141E+007    1.33124E+005   -6.23671E+005    1.52929E+007   -8.81178E+003    1.63440E+005    9.24575E+004
             305    1.54873E+007    1.51737E+007    1.51737E+007    3.92302E+004   -6.43919E+005    1.58176E+007   -4.85633E+006    1.54534E+007    3.92053E+004   -6.43755E+005    1.51735E+007   -7.81396E+003   -3.08555E+004    3.47002E+004
             306    1.44697E+007    1.41884E+007    1.41884E+007   -5.08578E+004   -5.01225E+005    1.46896E+007   -4.54542E+006    1.44539E+007    1.75476E+004   -4.32868E+005    1.40516E+007    9.68640E+003   -1.07746E+006    8.96171E+005
             307    1.59606E+007    1.58908E+007    1.58908E+007    2.53165E+005   -3.74157E+005    1.62650E+007   -5.25661E+006    1.59328E+007    2.48477E+005   -3.22136E+005    1.58435E+007   -8.45177E+004    4.66085E+005    7.38888E+005
             308    1.58815E+007    1.55469E+007    1.55469E+007   -6.90480E+004   -5.87319E+005    1.61343E+007   -4.96352E+006    1.58624E+007   -7.35610E+004   -5.55512E+005    1.55196E+007   -4.91595E+004   -1.96417E+004    6.62589E+005
             309    1.56421E+007    1.55245E+007    1.55245E+007    2.97119E+005   -5.01725E+005    1.60263E+007   -5.10664E+006    1.55961E+007    2.98849E+005   -4.78421E+005    1.54995E+007   -5.36827E+004    3.28411E+005    5.37116E+005
             310    1.54917E+007    1.52015E+007    1.52015E+007    8.38008E+003   -5.72406E+005    1.57739E+007   -4.87917E+006    1.54672E+007    6.58133E+003   -5.59983E+005    1.51909E+007   -3.25243E+004    5.42881E+004    4.05568E+005
             311    1.52494E+007    1.50635E+007    1.50635E+007    1.70278E+005   -5.18631E+005    1.55822E+007   -4.90506E+006    1.52143E+007    1.70546E+005   -5.13233E+005    1.50579E+007   -2.83498E+004    1.57396E+005    2.49971E+005
             312    1.51779E+007    1.49439E+007    1.49439E+007    7.87591E+004   -5.28618E+005    1.54725E+007   -4.83133E+006    1.51505E+007    7.81223E+004   -5.27486E+005    1.49434E+007   -2.05936E+004   -2.77359E+004    8.28238E+004
             313    1.40943E+007    1.35868E+007    1.35868E+007   -2.88140E+005   -7.16935E+005    1.43038E+007   -4.19392E+006    1.40796E+007   -2.80067E+005   -4.57053E+005    1.33189E+007    4.20024E+004   -1.11925E+006    1.58276E+006
             314    1.52996E+007    1.51984E+007    1.51984E+007    2.06359E+005   -3.91159E+005    1.55896E+007   -5.00454E+006    1.52733E+007    1.66983E+005   -2.36468E+005    1.50831E+007   -1.32101E+005    3.59653E+005    1.28649E+006
             315    1.52954E+007    1.49884E+007    1.49884E+007   -1.22946E+005   -4.84652E+005    1.54731E+007   -4.79361E+006    1.52858E+007   -1.34036E+005   -3.97231E+005    1.49121E+007   -6.29480E+004   -5.92343E+003    1.08364E+006
             316    1.50886E+007    1.50088E+007    1.50088E+007    2.30104E+005   -3.71661E+005    1.53804E+007   -4.95574E+006    1.50615E+007    2.23841E+005   -3.11967E+005    1.49553E+007   -6.79752E+004    2.97675E+005    8.53870E+005
             317    1.49593E+007    1.47333E+007    1.47333E+007   -3.30973E+004   -4.11596E+005    1.51449E+007   -4.76288E+006    1.49485E+007   -3.62677E+004   -3.81914E+005    1.47068E+007   -3.32688E+004    6.65530E+004    6.29585E+005
             318    1.47332E+007    1.46149E+007    1.46149E+007    1.17198E+005   -3.43006E+005    1.49579E+007   -4.79637E+006    1.47170E+007    1.16320E+005   -3.31044E+005    1.46038E+007   -2.89776E+004    1.45903E+005    3.79384E+005
             319    1.46613E+007    1.45057E+007    1.45057E+007    3.98078E+004   -3.43632E+005    1.48493E+007   -4.73395E+006    1.46501E+007    3.89790E+004   -3.41673E+005    1.45045E+007   -1.82668E+004   -1.96975E+004    1.27973E+005
             320    1.35719E+007    1.27808E+007    1.27808E+007   -5.11433E+005   -1.05459E+006    1.38353E+007   -3.73824E+006    1.35474E+007   -6.13300E+005   -5.32926E+005    1.23610E+007    8.26790E+004   -1.17992E+006    2.05790E+006
             321    1.43089E+007    1.42305E+007    1.42305E+007    2.38948E+005   -3.75937E+005    1.46065E+007   -4.69784E+006    1.42792E+007    1.70405E+005   -1.08596E+005    1.40317E+007   -1.72134E+005    2.25307E+005    1.67560E+006
             322    1.44621E+007    1.42621E+007    1.42621E+007   -4.81810E+004   -3.47219E+005    1.46093E+007   -4.62222E+006    1.44551E+007   -8.33258E+004   -1.79874E+005    1.41299E+007   -9.68694E+004   -1.21818E+003    1.38170E+006
             323    1.42848E+007    1.43130E+007    1.43130E+007    2.78730E+005   -2.09804E+005    1.45228E+007   -4.79397E+006    1.42660E+007    2.47044E+005   -9.17735E+004    1.42266E+007   -1.08859E+005    2.48291E+005    1.08846E+006
             324    1.41885E+007    1.41239E+007    1.41239E+007    6.11861E+004   -1.87165E+005    1.43110E+007   -4.66597E+006    1.41836E+007    3.68068E+004   -1.17979E+005    1.40791E+007   -7.04149E+004    7.22989E+004    7.95867E+005
             325    1.39894E+007    1.40205E+007    1.40205E+007    1.74150E+005   -1.07728E+005    1.41282E+007   -4.69563E+006    1.39830E+007    1.58018E+005   -7.42674E+004    1.40031E+007   -6.33069E+004    1.26703E+005    4.77982E+005
             326    1.39264E+007    1.39327E+007    1.39327E+007    1.04063E+005   -8.94696E+004    1.40221E+007   -4.64909E+006    1.39234E+007    9.09894E+004   -7.46033E+004    1.39309E+007   -4.86937E+004   -9.38945E+003    1.58142E+005
             327    1.30340E+007    1.18380E+007    1.18380E+007   -7.26353E+005   -1.61966E+006    1.34576E+007   -3.16399E+006    1.29648E+007   -1.14585E+006   -6.38641E+005    1.12765E+007    2.03386E+005   -1.28608E+006    2.34717E+006
             328    1.32974E+007    1.31278E+007    1.31278E+007   -2.64399E+004   -3.08261E+005    1.34361E+007   -4.26438E+006    1.32907E+007   -5.63267E+004   -7.07776E+003    1.28565E+007   -8.66478E+004    7.09187E+003    1.88770E+006
             329    1.35747E+007    1.33510E+007    1.33510E+007   -1.94138E+005   -2.52947E+005    1.36040E+007   -4.30132E+006    1.35744E+007   -2.27915E+005   -3.26680E+004    1.31645E+007   -3.50162E+004   -4.88930E+004    1.57902E+006
             330    1.33992E+007    1.34520E+007    1.34520E+007    1.38998E+005   -3.17245E+004    1.34838E+007   -4.51977E+006    1.33968E+007    1.09486E+005    1.16107E+005    1.33337E+007   -5.10400E+004    1.64913E+005    1.24590E+006
             331    1.33366E+007    1.33399E+007    1.33399E+007    5.40571E+004   -4.68116E+004    1.33867E+007   -4.44906E+006    1.33357E+007   -3.92868E+004    1.09420E+005    1.32770E+007   -2.18878E+004    6.15865E+004    9.10202E+005
             332    1.31538E+007    1.32692E+007    1.32692E+007    1.58960E+005    7.22523E+004    1.31969E+007   -4.50014E+006    1.31532E+007    7.88129E+004    1.76214E+005    1.32454E+007   -1.75937E+004    9.87482E+004    5.49788E+005
             333    1.30863E+007    1.31948E+007    1.31948E+007    1.83511E+005    3.47825E+004    1.31600E+007   -4.47103E+006    1.30844E+007    3.54299E+004    1.85394E+005    1.31923E+007   -9.83399E+003   -3.59647E+003    1.81419E+005
             334    1.25395E+007    1.09982E+007    1.09982E+007   -7.78794E+005   -2.18533E+006    1.31835E+007   -2.67801E+006    1.23602E+007   -1.69079E+006   -5.97954E+005    1.03228E+007    2.85312E+005   -1.54753E+006    2.40970E+006
             335    1.23872E+007    1.20886E+007    1.20886E+007   -2.16884E+005   -3.78732E+005    1.24674E+007   -3.83101E+006    1.23849E+007   -2.11096E+005   -4.90158E+004    1.17531E+007   -3.95277E+004   -2.66634E+005    1.99965E+006
             336    1.25767E+007    1.24185E+007    1.24185E+007   -7.20000E+004   -2.42691E+005    1.26612E+007   -4.03460E+006    1.25741E+007   -2.17378E+005    1.44163E+005    1.21770E+007   -8.25581E+004   -1.72331E+005    1.71205E+006
             337    1.23938E+007    1.25337E+007    1.25337E+007    2.70898E+005    1.29410E+004    1.25208E+007   -4.27251E+006    1.23878E+007    1.09167E+005    3.24039E+005    1.23843E+007   -1.17855E+005    6.86875E+004    1.34932E+006
             338    1.23182E+007    1.24889E+007    1.24889E+007    3.62741E+005   -1.26732E+004    1.25016E+007   -4.27967E+006    1.23053E+007    2.00677E+004    4.09140E+005    1.24098E+007   -1.03840E+005    2.93701E+004    9.77531E+005
             339    1.21868E+007    1.24590E+007    1.24590E+007    4.68853E+005    8.46361E+004    1.23744E+007   -4.33751E+006    1.21732E+007    1.10212E+005    4.71060E+005    1.24312E+007   -9.18526E+004    7.11319E+004    5.73351E+005
             340    1.21312E+007    1.24081E+007    1.24081E+007    5.02775E+005    6.30932E+004    1.23450E+007   -4.32467E+006    1.21132E+007    7.73476E+004    4.91655E+005    1.24050E+007   -7.78719E+004    7.01284E+002    1.93261E+005
             341    1.27255E+007    1.02995E+007    1.02995E+007   -1.02426E+006   -3.47206E+006    1.37716E+007   -1.93441E+006    1.21788E+007   -2.87805E+006   -9.03314E+005    9.58459E+006    4.85075E+005   -1.92676E+006    2.27222E+006
             342    1.20205E+007    1.09918E+007    1.09918E+007   -3.48306E+005   -1.60955E+006    1.26014E+007   -3.01131E+006    1.18702E+007   -1.14377E+006   -3.26258E+005    1.05040E+007    4.19405E+005   -9.37346E+005    2.19940E+006
             343    1.17775E+007    1.12358E+007    1.12358E+007   -1.66074E+005   -8.84403E+005    1.21202E+007   -3.39512E+006    1.17281E+007   -6.52741E+005   -6.52158E+004    1.09033E+007    2.44669E+005   -5.27460E+005    1.87949E+006
             344    1.14691E+007    1.13724E+007    1.13724E+007    1.59213E+005   -3.36411E+005    1.17088E+007   -3.73174E+006    1.14449E+007   -1.96623E+005    2.23606E+005    1.11682E+007    1.93357E+005   -2.23834E+005    1.49621E+006
             345    1.13383E+007    1.14235E+007    1.14235E+007    3.18549E+005   -1.34576E+005    1.15581E+007   -3.86917E+006    1.13179E+007   -8.07023E+004    3.65889E+005    1.13223E+007    1.35751E+005   -1.11144E+005    1.05352E+006
             346    1.12414E+007    1.14699E+007    1.14699E+007    4.62248E+005    8.55985E+003    1.14614E+007   -3.98024E+006    1.12208E+007    4.14217E+004    4.64029E+005    1.14353E+007    1.16145E+005   -2.80106E+004    6.17119E+005
             347    1.12389E+007    1.15007E+007    1.15007E+007    5.05253E+005    3.32099E+004    1.14675E+007   -4.01305E+006    1.12165E+007    5.67155E+004    4.85258E+005    1.14972E+007    1.02383E+005   -1.56215E+004    1.96165E+005
             348    1.07541E+007    1.03160E+007    1.03160E+007    4.84981E+005   -1.16930E+006    1.14853E+007   -3.21057E+006    1.04620E+007   -1.05119E+006    3.70965E+005    1.03119E+007    4.22969E+005   -9.97142E+004    1.82484E+005
             349    1.07884E+007    1.02324E+007    1.02324E+007    4.55976E+005   -1.34206E+006    1.15745E+007   -3.11544E+006    1.04433E+007   -1.20535E+006    3.56788E+005    1.01949E+007    4.50990E+005   -2.91600E+005    5.56142E+005
             350    1.08864E+007    1.00872E+007    1.00872E+007    3.20250E+005   -1.64958E+006    1.17368E+007   -2.91930E+006    1.04741E+007   -1.47767E+006    2.62863E+005    9.97270E+006    4.87083E+005   -4.78813E+005    9.83703E+005
             351    1.11462E+007    9.95174E+006    9.95174E+006    1.92132E+004   -2.10306E+006    1.20548E+007   -2.62263E+006    1.06774E+007   -1.88813E+006    3.65823E+004    9.71945E+006    4.95941E+005   -7.21020E+005    1.39547E+006
             352    1.16086E+007    9.88705E+006    9.88705E+006   -3.66894E+005   -2.71674E+006    1.26038E+007   -2.26781E+006    1.10544E+007   -2.44734E+006   -2.47800E+005    9.49856E+006    4.72076E+005   -1.06051E+006    1.77491E+006
             353    1.23911E+007    9.89008E+006    9.89008E+006   -8.38227E+005   -3.67273E+006    1.35628E+007   -1.79304E+006    1.16277E+007   -3.33312E+006   -6.16658E+005    9.32889E+006    3.99409E+005   -1.56378E+006    2.03435E+006
             354    1.37313E+007    1.02452E+007    1.02452E+007   -1.29917E+006   -4.93942E+006    1.51846E+007   -1.33554E+006    1.25752E+007   -4.54292E+006   -9.80144E+005    9.52970E+006    2.99263E+005   -2.05242E+006    2.23967E+006
             355    1.40120E+007    9.59258E+006    9.59258E+006   -2.27324E+006   -5.86591E+006    1.54585E+007   -4.84477E+005    1.29133E+007   -5.32409E+006   -2.25394E+006    9.03146E+006   -6.16519E+005    2.16586E+006    1.79702E+006
             356    1.37954E+007    9.59191E+006    9.59191E+006   -1.83789E+006   -5.73203E+006    1.53239E+007   -6.73995E+005    1.24661E+007   -5.25983E+006   -1.63633E+006    8.91815E+006   -3.80130E+005    2.26228E+006    1.97955E+006
             357    1.47907E+007    1.05191E+007    1.05191E+007   -1.72360E+006   -5.91500E+006    1.64341E+007   -9.60154E+005    1.33533E+007   -5.42994E+006   -1.44896E+006    9.75936E+006   -1.78032E+005    2.57051E+006    2.06171E+006
             358    1.60578E+007    1.13534E+007    1.13534E+007   -1.69080E+006   -6.58105E+006    1.79344E+007   -1.02717E+006    1.42320E+007   -6.02588E+006   -1.43725E+006    1.05446E+007   -5.59117E+004    2.99367E+006    1.94564E+006
             359    1.36743E+007    1.31303E+007    1.31303E+007   -2.63941E+005   -8.07920E+005    1.39382E+007   -4.01947E+006    1.36499E+007   -2.78295E+005   -4.45791E+005    1.27825E+007   -5.69742E+004    9.56406E+005    1.95219E+006
             360    1.47186E+007    1.46398E+007    1.46398E+007    2.67028E+005   -4.01882E+005    1.50417E+007   -4.83498E+006    1.46844E+007    1.94530E+005   -1.68224E+005    1.44786E+007    1.84245E+005   -3.14305E+005    1.51557E+006
             361    1.49139E+007    1.46889E+007    1.46889E+007   -2.99330E+004   -4.12677E+005    1.51016E+007   -4.74877E+006    1.49029E+007   -5.31908E+004   -2.91261E+005    1.45908E+007    8.97006E+004   -2.56790E+004    1.21247E+006
             362    1.48464E+007    1.48138E+007    1.48138E+007    2.73413E+005   -3.20821E+005    1.51346E+007   -4.92213E+006    1.48196E+007    2.51785E+005   -2.40825E+005    1.47554E+007    1.06372E+005   -2.63868E+005    9.00092E+005
             363    1.48285E+007    1.46674E+007    1.46674E+007    4.59221E+004   -3.59823E+005    1.50272E+007   -4.78451E+006    1.48160E+007    3.44274E+004   -3.20975E+005    1.46401E+007    6.51188E+004   -8.13261E+004    6.35338E+005
             364    1.46981E+007    1.46118E+007    1.46118E+007    1.59768E+005   -3.20709E+005    1.49325E+007   -4.81695E+006    1.46805E+007    1.52685E+005   -3.03496E+005    1.46017E+007    5.90318E+004   -1.27270E+005    3.67096E+005
             365    1.46772E+007    1.45493E+007    1.45493E+007    8.89835E+004   -3.35505E+005    1.48848E+007   -4.76760E+006    1.46634E+007    8.40935E+004   -3.29498E+005    1.45482E+007    4.53713E+004    6.59604E+003    1.28722E+005
             366    1.30442E+007    1.21284E+007    1.21284E+007   -5.75660E+005   -1.23133E+006    1.33597E+007   -3.44046E+006    1.30071E+007   -7.60972E+005   -5.71407E+005    1.16537E+007   -1.43421E+005    1.03464E+006    2.24132E+006
             367    1.36800E+007    1.35492E+007    1.35492E+007    9.41863E+004   -3.45136E+005    1.38943E+007   -4.43275E+006    1.36641E+007    4.85769E+004   -5.88029E+004    1.33085E+007    1.18610E+005   -1.35018E+005    1.80594E+006
             368    1.39482E+007    1.37707E+007    1.37707E+007   -1.04751E+005   -2.49097E+005    1.40198E+007   -4.47229E+006    1.39465E+007   -1.36733E+005   -6.29102E+004    1.36165E+007    5.77013E+004   -2.45785E+004    1.46044E+006
             369    1.39195E+007    1.39383E+007    1.39383E+007    1.63279E+005   -1.21208E+005    1.40595E+007   -4.66013E+006    1.39129E+007    1.46228E+005   -1.21172E+004    1.38463E+007    5.62393E+004   -2.14269E+005    1.11332E+006
             370    1.39564E+007    1.39062E+007    1.39062E+007    7.19116E+003   -1.06883E+005    1.40131E+007   -4.60216E+006    1.39553E+007    1.58045E+003   -5.51500E+004    1.38601E+007    2.08120E+004   -8.69704E+004    7.97836E+005
             371    1.38496E+007    1.38664E+007    1.38664E+007    9.86733E+004   -6.34606E+004    1.39299E+007   -4.63389E+006    1.38474E+007    9.73619E+004   -4.44702E+004    1.38488E+007    1.49077E+004   -1.11241E+005    4.83267E+005
             372    1.38286E+007    1.38296E+007    1.38296E+007    5.53494E+004   -5.27239E+004    1.38823E+007   -4.61073E+006    1.38276E+007    5.50158E+004   -5.05294E+004    1.38277E+007    5.96879E+003   -2.68265E+003    1.60695E+005
             373    1.26041E+007    1.12869E+007    1.12869E+007   -7.80455E+005   -1.79290E+006    1.30798E+007   -2.90451E+006    1.25121E+007   -1.23732E+006   -7.51180E+005    1.07020E+007   -2.68535E+005    1.23191E+006    2.38846E+006
             374    1.24914E+007    1.23459E+007    1.23459E+007   -2.83108E+004   -2.59383E+005    1.26053E+007   -4.01940E+006    1.24865E+007   -7.08712E+004    8.75840E+004    1.20415E+007    1.05083E+005    8.71532E+004    1.92896E+006
             375    1.28651E+007    1.27571E+007    1.27571E+007    4.14419E+002   -2.13713E+005    1.29708E+007   -4.18127E+006    1.28611E+007   -1.53688E+005    1.38079E+005    1.25594E+007    1.04124E+005    5.91261E+004    1.57783E+006
             376    1.28313E+007    1.29874E+007    1.29874E+007    3.07571E+005    9.71999E+003    1.29776E+007   -4.43488E+006    1.28235E+007    1.33687E+005    3.06169E+005    1.28648E+007    1.35781E+005   -1.18386E+005    1.24233E+006
             377    1.28423E+007    1.29656E+007    1.29656E+007    2.89154E+005   -3.64371E+004    1.30020E+007   -4.40609E+006    1.28330E+007    1.27744E+004    3.06915E+005    1.28986E+007    1.12296E+005   -6.09516E+004    9.19264E+005
             378    1.27329E+007    1.29486E+007    1.29486E+007    3.80811E+005    5.66557E+004    1.28919E+007   -4.46202E+006    1.27237E+007    9.43569E+004    3.67454E+005    1.29242E+007    1.00009E+005   -7.98479E+004    5.48354E+005
             379    1.27308E+007    1.29333E+007    1.29333E+007    3.76087E+005    3.57083E+004    1.28976E+007   -4.44837E+006    1.27206E+007    5.82161E+004    3.56238E+005    1.29307E+007    8.45026E+004   -6.04581E+003    1.82824E+005
             380    1.22701E+007    1.03174E+007    1.03174E+007   -6.94935E+005   -2.90900E+006    1.32264E+007   -2.23783E+006    1.18081E+007   -2.25573E+006   -5.98046E+005    9.56727E+006   -5.54286E+005    1.66822E+006    2.47341E+006
             381    1.19584E+007    1.12105E+007    1.12105E+007   -2.64427E+005   -1.17896E+006    1.23894E+007   -3.25569E+006    1.18793E+007   -7.30992E+005   -3.19544E+005    1.08176E+007   -3.38423E+005    7.04595E+005    2.03164E+006
             382    1.19745E+007    1.16466E+007    1.16466E+007   -6.66393E+004   -5.73005E+005    1.22196E+007   -3.66899E+006    1.19504E+007   -3.86289E+005    4.57356E+004    1.13475E+007   -1.80380E+005    4.03761E+005    1.82588E+006
             383    1.17112E+007    1.17340E+007    1.17340E+007    1.54119E+005   -1.04321E+005    1.18383E+007   -3.92793E+006    1.17048E+007   -1.17886E+004    2.44821E+005    1.15508E+007   -1.09462E+005    1.20173E+005    1.44711E+006
             384    1.15837E+007    1.17711E+007    1.17711E+007    3.33875E+005    4.61907E+004    1.17249E+007   -4.05039E+006    1.15757E+007    6.44746E+004    4.08128E+005    1.16786E+007   -6.53511E+004    5.30050E+004    1.02438E+006
             385    1.15313E+007    1.18267E+007    1.18267E+007    4.35815E+005    1.59834E+005    1.16669E+007   -4.14078E+006    1.15239E+007    1.66097E+005    4.60905E+005    1.17953E+007   -4.19308E+004   -1.65773E+004    5.96666E+005
             386    1.15345E+007    1.18583E+007    1.18583E+007    4.91230E+005    1.63236E+005    1.16950E+007   -4.17091E+006    1.15240E+007    1.67352E+005    4.90738E+005    1.18547E+007   -3.64688E+004    2.66879E+003    2.02979E+005
             387    1.08063E+007    1.04399E+007    1.04399E+007    4.93652E+005   -1.05863E+006    1.14985E+007   -3.29165E+006    1.05511E+007   -9.52705E+005    3.91443E+005    1.04362E+007   -3.88731E+005    9.30825E+004    1.75243E+005
             388    1.08177E+007    1.03462E+007    1.03462E+007    4.93088E+005   -1.22945E+006    1.15756E+007   -3.20327E+006    1.05025E+007   -1.10443E+006    4.04938E+005    1.03093E+007   -4.23640E+005    2.70268E+005    5.60133E+005
             389    1.09055E+007    1.02099E+007    1.02099E+007    3.67325E+005   -1.51382E+006    1.17237E+007   -3.02112E+006    1.05311E+007   -1.36023E+006    3.20621E+005    1.01030E+007   -4.55032E+005    4.33792E+005    9.62863E+005
             390    1.11221E+007    1.00958E+007    1.00958E+007    1.32079E+005   -1.90345E+006    1.19993E+007   -2.77482E+006    1.06909E+007   -1.71131E+006    1.71661E+005    9.86411E+006   -4.61295E+005    6.70321E+005    1.41130E+006
             391    1.16662E+007    1.00923E+007    1.00923E+007   -3.51447E+005   -2.49807E+006    1.25904E+007   -2.41427E+006    1.12088E+007   -2.25802E+006   -1.94946E+005    9.69577E+006   -4.15684E+005    9.99795E+005    1.83432E+006
             392    1.27585E+007    1.04665E+007    1.04665E+007   -7.29060E+005   -3.42417E+006    1.38907E+007   -2.10444E+006    1.20929E+007   -3.08194E+006   -4.58717E+005    9.85397E+006   -3.62249E+005    1.59509E+006    2.19595E+006
             393    1.42084E+007    1.07106E+007    1.07106E+007   -1.53650E+006   -4.86724E+006    1.55778E+007   -1.43562E+006    1.32867E+007   -4.34769E+006   -1.41838E+006    1.00729E+007   -5.35152E+005    2.11443E+006    2.10658E+006
             394    1.12336E+007    1.14948E+007    1.14948E+007    5.05725E+005    3.17676E+004    1.14631E+007   -4.01077E+006    1.12111E+007    5.57305E+004    4.85643E+005    1.14910E+007    1.03518E+005    1.62971E+004   -2.06228E+005
             395    1.21206E+007    1.23984E+007    1.23984E+007    5.03164E+005    6.43248E+004    1.23341E+007   -4.32196E+006    1.21027E+007    7.81487E+004    4.92764E+005    1.23950E+007   -7.66636E+004    1.33754E+002   -2.01899E+005
             396    1.30795E+007    1.31897E+007    1.31897E+007    1.85381E+005    3.63611E+004    1.31533E+007   -4.47048E+006    1.30775E+007    3.72149E+004    1.87458E+005    1.31868E+007   -1.12661E+004    1.20129E+003   -1.95216E+005
             397    1.39268E+007    1.39331E+007    1.39331E+007    1.04857E+005   -9.00816E+004    1.40232E+007   -4.64931E+006    1.39237E+007    9.12528E+004   -7.43466E+004    1.39310E+007   -4.97661E+004    7.10583E+003   -1.72597E+005
             398    1.46643E+007    1.45082E+007    1.45082E+007    4.01758E+004   -3.44824E+005    1.48530E+007   -4.73452E+006    1.46529E+007    3.91615E+004   -3.42497E+005    1.45069E+007   -2.00930E+004    1.70350E+004   -1.38525E+005
             399    1.51805E+007    1.49464E+007    1.49464E+007    7.87652E+004   -5.28756E+005    1.54751E+007   -4.83213E+006    1.51531E+007    7.80494E+004   -5.27497E+005    1.49458E+007   -2.16672E+004    2.63678E+004   -8.76203E+004
             400    1.54884E+007    1.51751E+007    1.51751E+007    4.03992E+004   -6.44225E+005    1.58193E+007   -4.85710E+006    1.54543E+007    4.03553E+004   -6.44046E+005    1.51750E+007   -8.44220E+003    2.97626E+004   -3.46658E+004
             401    1.55055E+007    1.52088E+007    1.52088E+007    7.75029E+004   -6.45684E+005    1.58545E+007   -4.88020E+006    1.54675E+007    7.74087E+004   -6.45495E+005    1.52087E+007    1.01623E+004    2.67327E+004    2.73332E+004
             402    1.52643E+007    1.49975E+007    1.49975E+007    4.31486E+004   -5.58816E+005    1.55563E+007   -4.82729E+006    1.52375E+007    4.31129E+004   -5.58391E+005    1.49971E+007    5.85376E+003    1.71192E+004    7.57921E+004
             403    1.12329E+007    1.14566E+007    1.14566E+007    4.60284E+005    1.23500E+003    1.14554E+007   -3.97272E+006    1.12118E+007    3.52297E+004    4.62128E+005    1.14208E+007    1.18465E+005    3.23296E+004   -6.27220E+005
             404    1.21753E+007    1.24450E+007    1.24450E+007    4.66577E+005    8.19530E+004    1.23630E+007   -4.33117E+006    1.21616E+007    1.06985E+005    4.70963E+005    1.24156E+007   -9.08805E+004   -7.06842E+004   -5.89914E+005
             405    1.31571E+007    1.32700E+007    1.32700E+007    1.56881E+005    6.93649E+004    1.32006E+007   -4.49875E+006    1.31564E+007    7.64308E+004    1.75273E+005    1.32445E+007   -1.84414E+004   -9.83797E+004   -5.69127E+005
             406    1.40052E+007    1.40324E+007    1.40324E+007    1.71885E+005   -1.12956E+005    1.41454E+007   -4.69712E+006    1.39986E+007    1.56375E+005   -7.89188E+004    1.40139E+007   -6.23748E+004   -1.28836E+005   -4.95101E+005
             407    1.47514E+007    1.46306E+007    1.46306E+007    1.17403E+005   -3.48039E+005    1.49787E+007   -4.79999E+006    1.47349E+007    1.16781E+005   -3.35841E+005    1.46190E+007   -2.73475E+004   -1.47003E+005   -3.88828E+005
             408    1.52618E+007    1.50744E+007    1.50744E+007    1.70542E+005   -5.21791E+005    1.55962E+007   -4.90772E+006    1.52264E+007    1.70978E+005   -5.16490E+005    1.50687E+007   -2.67478E+004   -1.58604E+005   -2.51537E+005
             409    1.55599E+007    1.52993E+007    1.52993E+007    1.30927E+005   -6.24700E+005    1.59240E+007   -4.93517E+006    1.55186E+007    1.32601E+005   -6.24103E+005    1.52970E+007   -7.50681E+003   -1.63803E+005   -8.95155E+004
             410    1.55629E+007    1.53193E+007    1.53193E+007    1.68312E+005   -6.25120E+005    1.59444E+007   -4.95417E+006    1.55173E+007    1.69554E+005   -6.24423E+005    1.53174E+007    1.60616E+004   -1.55608E+005    7.38755E+004
             411    1.52963E+007    1.50774E+007    1.50774E+007    1.18598E+005   -5.35437E+005    1.56128E+007   -4.88685E+006    1.52648E+007    1.19575E+005   -5.31356E+005    1.50723E+007    1.51244E+004   -1.46931E+005    2.37662E+005
             412    1.13350E+007    1.14139E+007    1.14139E+007    3.15339E+005   -1.43594E+005    1.15575E+007   -3.86190E+006    1.13141E+007   -8.78304E+004    3.63709E+005    1.13098E+007    1.38375E+005    1.15963E+005   -1.06798E+006
             413    1.23266E+007    1.24932E+007    1.24932E+007    3.53540E+005   -1.21447E+004    1.25053E+007   -4.27820E+006    1.23144E+007    2.03359E+004    4.03652E+005    1.24106E+007   -1.01852E+005   -3.00168E+004   -9.99030E+005
             414    1.33643E+007    1.33645E+007    1.33645E+007    4.64693E+004   -4.56254E+004    1.34101E+007   -4.45512E+006    1.33636E+007   -3.52546E+004    1.02095E+005    1.32985E+007   -2.42850E+004   -6.44568E+004   -9.33472E+005
             415    1.42321E+007    1.41619E+007    1.41619E+007    6.33805E+004   -2.00049E+005    1.43620E+007   -4.67508E+006    1.42266E+007    3.86420E+004   -1.28922E+005    1.41155E+007   -7.31453E+004   -7.63522E+004   -8.10955E+005
             416    1.49986E+007    1.47677E+007    1.47677E+007   -3.20802E+004   -4.22043E+005    1.51897E+007   -4.77119E+006    1.49871E+007   -3.54972E+004   -3.91949E+005    1.47410E+007   -3.50849E+004   -6.91559E+004   -6.32231E+005
             417    1.55165E+007    1.52234E+007    1.52234E+007    8.18969E+003   -5.77815E+005    1.58012E+007   -4.88460E+006    1.54916E+007    6.25005E+003   -5.65566E+005    1.52131E+007   -3.39200E+004   -5.55146E+004   -3.99607E+005
             418    1.58034E+007    1.54351E+007    1.54351E+007   -4.21169E+004   -6.75440E+005    1.61106E+007   -4.90586E+006    1.57748E+007   -4.22024E+004   -6.74147E+005    1.54339E+007   -1.23752E+004   -5.18284E+004   -1.29075E+005
             419    1.57695E+007    1.54328E+007    1.54328E+007    6.29421E+003   -6.58685E+005    1.60915E+007   -4.92680E+006    1.57379E+007    6.18321E+003   -6.56979E+005    1.54312E+007    1.34229E+004   -5.28863E+004    1.50861E+005
             420    1.54779E+007    1.51720E+007    1.51720E+007   -2.74383E+004   -5.70011E+005    1.57420E+007   -4.85819E+006    1.54565E+007   -2.77054E+004   -5.58635E+005    1.51609E+007    1.58182E+004   -6.85127E+004    4.12264E+005
             421    1.14855E+007    1.13778E+007    1.13778E+007    1.48754E+005   -3.47960E+005    1.17258E+007   -3.72621E+006    1.14613E+007   -2.08144E+005    2.17646E+005    1.11691E+007    1.92103E+005    2.32683E+005   -1.51264E+006
             422    1.24250E+007    1.25518E+007    1.25518E+007    2.56294E+005    1.35273E+003    1.25505E+007   -4.26983E+006    1.24191E+007    9.93038E+004    3.12849E+005    1.23973E+007   -1.17587E+005   -6.36802E+004   -1.37423E+006
             423    1.34585E+007    1.34995E+007    1.34995E+007    1.32670E+005   -4.88725E+004    1.35484E+007   -4.52777E+006    1.34558E+007    1.05771E+005    9.98155E+004    1.33777E+007   -5.12009E+004   -1.62374E+005   -1.26772E+006
             424    1.43474E+007    1.43678E+007    1.43678E+007    2.77437E+005   -2.23549E+005    1.45913E+007   -4.80722E+006    1.43277E+007    2.47868E+005   -1.06884E+005    1.42807E+007   -1.06924E+005   -2.49625E+005   -1.09584E+006
             425    1.51404E+007    1.50564E+007    1.50564E+007    2.31714E+005   -3.81163E+005    1.54376E+007   -4.96898E+006    1.51125E+007    2.27120E+005   -3.24134E+005    1.50040E+007   -6.31218E+004   -2.99376E+005   -8.45972E+005
             426    1.56689E+007    1.55508E+007    1.55508E+007    3.00629E+005   -5.05721E+005    1.60565E+007   -5.11523E+006    1.56221E+007    3.03375E+005   -4.84523E+005    1.55268E+007   -4.85969E+004   -3.31445E+005   -5.19154E+005
             427    1.59544E+007    1.57795E+007    1.57795E+007    2.57738E+005   -5.74904E+005    1.63544E+007   -5.15411E+006    1.59054E+007    2.65244E+005   -5.73487E+005    1.57706E+007   -6.65849E+003   -3.43890E+005   -1.45927E+005
             428    1.58942E+007    1.57392E+007    1.57392E+007    2.94503E+005   -5.69262E+005    1.63085E+007   -5.15483E+006    1.58413E+007    2.99623E+005   -5.63499E+005    1.57284E+007    3.60833E+004   -3.31259E+005    2.48849E+005
             429    1.55349E+007    1.53969E+007    1.53969E+007    2.32640E+005   -4.83868E+005    1.58808E+007   -5.04855E+006    1.54977E+007    2.32940E+005   -4.54821E+005    1.53675E+007    5.31108E+004   -3.09406E+005    6.05328E+005
             430    1.17957E+007    1.12430E+007    1.12430E+007   -1.75287E+005   -8.96914E+005    1.21399E+007   -3.39026E+006    1.17458E+007   -6.63572E+005   -7.14667E+004    1.09058E+007    2.44284E+005    5.36326E+005   -1.89247E+006
             431    1.26222E+007    1.24533E+007    1.24533E+007   -8.85947E+004   -2.47846E+005    1.27011E+007   -4.03894E+006    1.26200E+007   -2.21339E+005    1.31798E+005    1.22064E+007   -8.20429E+004    1.75395E+005   -1.73442E+006
             432    1.36405E+007    1.34081E+007    1.34081E+007   -2.00644E+005   -2.63891E+005    1.36720E+007   -4.31453E+006    1.36402E+007   -2.29001E+005   -4.68195E+004    1.32194E+007   -3.75358E+004    4.93442E+004   -1.59257E+006
             433    1.45358E+007    1.43284E+007    1.43284E+007   -4.87913E+004   -3.60974E+005    1.46893E+007   -4.63953E+006    1.45282E+007   -8.49426E+004   -1.93819E+005    1.41974E+007   -1.00650E+005    3.07981E+003   -1.37924E+006
             434    1.53502E+007    1.50354E+007    1.50354E+007   -1.29219E+005   -4.93764E+005    1.55292E+007   -4.80415E+006    1.53404E+007   -1.40588E+005   -4.09067E+005    1.49621E+007   -6.41700E+004    9.01651E+003   -1.06411E+006
             435    1.59060E+007    1.55680E+007    1.55680E+007   -7.21698E+004   -5.91244E+005    1.61592E+007   -4.96819E+006    1.58870E+007   -7.69102E+004   -5.61171E+005    1.55427E+007   -5.05983E+004    2.41603E+004   -6.38664E+005
             436    1.61690E+007    1.57800E+007    1.57800E+007   -1.16094E+005   -6.48691E+005    1.64287E+007   -5.00507E+006    1.61492E+007   -1.16479E+005   -6.47255E+005    1.57789E+007   -1.54912E+004    2.89295E+004   -1.28069E+005
             437    1.60713E+007    1.57216E+007    1.57216E+007   -6.09076E+004   -6.23729E+005    1.63454E+007   -5.01233E+006    1.60491E+007   -6.18423E+004   -6.14033E+005    1.57129E+007    2.35278E+004    1.64694E+004    3.77934E+005
             438    1.56659E+007    1.53307E+007    1.53307E+007   -1.02281E+005   -5.58299E+005    1.58890E+007   -4.89003E+006    1.56510E+007   -1.05823E+005   -5.09356E+005    1.52853E+007    3.95064E+004   -1.14260E+004    8.47977E+005
             439    1.20448E+007    1.10023E+007    1.10023E+007   -3.62923E+005   -1.62313E+006    1.26254E+007   -3.00541E+006    1.18952E+007   -1.15873E+006   -3.34143E+005    1.05091E+007    4.14822E+005    9.50081E+005   -2.21037E+006
             440    1.24242E+007    1.21154E+007    1.21154E+007   -2.26238E+005   -3.89730E+005    1.25052E+007   -3.83315E+006    1.24218E+007   -2.19820E+005   -5.68605E+004    1.17761E+007   -4.26785E+004    2.79860E+005   -2.01213E+006
             441    1.33533E+007    1.31809E+007    1.31809E+007   -2.95258E+004   -3.10842E+005    1.34918E+007   -4.28018E+006    1.33467E+007   -5.41735E+004   -1.44914E+004    1.29092E+007   -7.96882E+004   -4.66566E+003   -1.89346E+006
             442    1.43656E+007    1.42934E+007    1.42934E+007    2.45479E+005   -3.70075E+005    1.46634E+007   -4.72292E+006    1.43358E+007    1.83547E+005   -1.11980E+005    1.40972E+007   -1.63223E+005   -2.38953E+005   -1.66623E+006
             443    1.53514E+007    1.52567E+007    1.52567E+007    2.10420E+005   -3.82681E+005    1.56394E+007   -5.02815E+006    1.53256E+007    1.77272E+005   -2.36713E+005    1.51439E+007   -1.21881E+005   -3.82791E+005   -1.26695E+006
             444    1.60029E+007    1.59349E+007    1.59349E+007    2.52747E+005   -3.70480E+005    1.63054E+007   -5.27238E+006    1.59755E+007    2.52040E+005   -3.22490E+005    1.58876E+007   -7.66413E+004   -4.92629E+005   -7.21529E+005
             445    1.63198E+007    1.62265E+007    1.62265E+007    1.96465E+005   -3.68371E+005    1.65948E+007   -5.35152E+006    1.62977E+007    2.13980E+005   -3.67546E+005    1.62081E+007   -6.42971E+002   -5.30097E+005   -1.14617E+005
             446    1.61600E+007    1.60742E+007    1.60742E+007    2.40217E+005   -3.93185E+005    1.64674E+007   -5.30709E+006    1.61321E+007    2.44282E+005   -3.64952E+005    1.60420E+007    6.88360E+004   -4.99286E+005    5.23769E+005
             447    1.56212E+007    1.55210E+007    1.55210E+007    2.22739E+005   -4.04188E+005    1.59252E+007   -5.11318E+006    1.55928E+007    1.86248E+005   -2.83794E+005    1.54371E+007    1.37474E+005   -4.11955E+005    1.07657E+006
             448    1.27543E+007    1.03280E+007    1.03280E+007   -1.02383E+006   -3.47340E+006    1.38014E+007   -1.94359E+006    1.22081E+007   -2.87696E+006   -9.03490E+005    9.61121E+006    4.89592E+005    1.92334E+006   -2.28404E+006
             449    1.25795E+007    1.10332E+007    1.10332E+007   -7.85335E+005   -2.18953E+006    1.32227E+007   -2.68610E+006    1.24013E+007   -1.69804E+006   -5.99953E+005    1.03563E+007    2.78560E+005    1.56195E+006   -2.40944E+006
             450    1.30564E+007    1.18628E+007    1.18628E+007   -7.27929E+005   -1.61418E+006    1.34770E+007   -3.17356E+006    1.29885E+007   -1.14646E+006   -6.35475E+005    1.13026E+007    1.97653E+005    1.29749E+006   -2.33976E+006
             451    1.35782E+007    1.28076E+007    1.28076E+007   -4.99930E+005   -1.02602E+006    1.38336E+007   -3.76054E+006    1.35552E+007   -5.87962E+005   -5.22164E+005    1.23918E+007    7.35866E+004    1.17850E+006   -2.04624E+006
             452    1.40902E+007    1.36163E+007    1.36163E+007   -2.45517E+005   -6.91691E+005    1.43080E+007   -4.22637E+006    1.40743E+007   -2.27396E+005   -4.48288E+005    1.33548E+007    3.74079E+004    1.09350E+006   -1.57248E+006
             453    1.44589E+007    1.42205E+007    1.42205E+007    2.12005E+004   -4.84679E+005    1.47052E+007   -4.58568E+006    1.44390E+007    8.84384E+004   -4.22333E+005    1.40909E+007   -2.55533E+002    1.03212E+006   -8.90883E+005
             454    1.46200E+007    1.44608E+007    1.44608E+007    1.16618E+005   -4.20245E+005    1.48811E+007   -4.71907E+006    1.45978E+007    1.84181E+005   -4.20035E+005    1.43931E+007   -2.09844E+003    9.82161E+005   -5.51621E+004
             455    1.45258E+007    1.43583E+007    1.43583E+007    1.38857E+005   -4.55691E+005    1.48140E+007   -4.68049E+006    1.44984E+007    1.97652E+005   -4.10402E+005    1.42542E+007   -6.02208E+003    9.53901E+005    7.67338E+005
             456    1.41937E+007    1.38503E+007    1.38503E+007   -5.23772E+004   -6.17507E+005    1.44678E+007   -4.39347E+006    1.41683E+007   -2.36115E+004   -4.30623E+005    1.36347E+007   -3.81137E+004    9.44227E+005    1.47295E+006
             457    1.74696E+007    1.22193E+007    1.22193E+007   -1.63132E+006   -7.40675E+006    1.96260E+007   -1.06039E+006    1.50860E+007   -6.79011E+006   -1.47385E+006    1.14451E+007    2.05642E+004    3.37837E+006    1.53858E+006
             458    1.84949E+007    1.27940E+007    1.27940E+007   -1.58487E+006   -8.07011E+006    2.08641E+007   -1.04633E+006    1.56107E+007   -7.39896E+006   -1.53601E+006    1.20740E+007    2.18363E+004    3.66904E+006    8.70413E+005
             459    1.89238E+007    1.30509E+007    1.30509E+007   -1.56602E+006   -8.32418E+006    2.13751E+007   -1.05357E+006    1.58459E+007   -7.63319E+006   -1.56602E+006    1.23599E+007   -5.03130E+003    3.78054E+006   -7.50158E+003
             460    1.85306E+007    1.27399E+007    1.27399E+007   -1.61809E+006   -8.17855E+006    2.09184E+007   -9.81069E+005    1.55765E+007   -7.49885E+006   -1.56709E+006    1.20091E+007   -3.10359E+004    3.69716E+006   -8.83971E+005
             461    1.75366E+007    1.21009E+007    1.21009E+007   -1.71187E+006   -7.62878E+006    1.97297E+007   -9.20092E+005    1.50314E+007   -6.98754E+006   -1.54902E+006    1.12968E+007   -1.69256E+004    3.45055E+006   -1.56593E+006
             462    1.62615E+007    1.12676E+007    1.12676E+007   -1.78782E+006   -6.94785E+006    1.82155E+007   -8.43980E+005    1.42369E+007   -6.36125E+006   -1.53514E+006    1.04283E+007    5.70948E+004    3.10570E+006   -1.94398E+006
             463    1.51030E+007    1.04302E+007    1.04302E+007   -1.90338E+006   -6.41430E+006    1.68445E+007   -7.04172E+005    1.34575E+007   -5.88637E+006   -1.62462E+006    9.62351E+006    1.79086E+005    2.73052E+006   -2.08312E+006
             464    1.44762E+007    9.92943E+006    9.92943E+006   -2.07747E+006   -6.14558E+006    1.60750E+007   -5.68792E+005    1.30946E+007   -5.60549E+006   -1.83978E+006    9.15164E+006    3.58298E+005    2.51608E+006   -2.14484E+006
             465    1.44820E+007    1.02531E+007    1.02531E+007   -1.74973E+006   -5.83188E+006    1.60850E+007   -8.90497E+005    1.30908E+007   -5.34001E+006   -1.47438E+006    9.48588E+006    3.92161E+005    2.33618E+006   -2.26978E+006
             466    1.07516E+007    1.03125E+007    1.03125E+007    4.80566E+005   -1.16825E+006    1.14808E+007   -3.20828E+006    1.04615E+007   -1.05058E+006    3.66989E+005    1.03084E+007    4.21489E+005    9.92963E+004   -1.82495E+005
             467    1.07866E+007    1.02271E+007    1.02271E+007    4.55980E+005   -1.34755E+006    1.15746E+007   -3.11184E+006    1.04392E+007   -1.21021E+006    3.56487E+005    1.01893E+007    4.52768E+005    2.91265E+005   -5.59081E+005
             468    1.08841E+007    1.00806E+007    1.00806E+007    3.21327E+005   -1.65698E+006    1.17376E+007   -2.91498E+006    1.04681E+007   -1.48457E+006    2.65093E+005    9.96441E+006    4.88208E+005    4.81689E+005   -9.90553E+005
             469    1.11477E+007    9.94266E+006    9.94266E+006    1.44769E+004   -2.11679E+006    1.20594E+007   -2.61345E+006    1.06748E+007   -1.90225E+006    3.61982E+004    9.70640E+006    4.94069E+005    7.27501E+005   -1.40654E+006
             470    1.16263E+007    9.89387E+006    9.89387E+006   -3.71501E+005   -2.73133E+006    1.26252E+007   -2.26368E+006    1.10681E+007   -2.46273E+006   -2.44435E+005    9.49821E+006    4.64823E+005    1.07583E+006   -1.78875E+006
             471    1.24312E+007    9.90151E+006    9.90151E+006   -8.56196E+005   -3.70768E+006    1.36092E+007   -1.77921E+006    1.16608E+007   -3.36640E+006   -6.28409E+005    9.33244E+006    3.94152E+005    1.58072E+006   -2.04814E+006
             472    1.37509E+007    1.02509E+007    1.02509E+007   -1.30478E+006   -4.95753E+006    1.52084E+007   -1.32953E+006    1.25881E+007   -4.56089E+006   -9.86057E+005    9.53553E+006    3.00149E+005    2.05497E+006   -2.23985E+006
             473    1.08976E+007    1.07574E+007    1.07574E+007    3.18364E+005   -5.47236E+005    1.13046E+007   -3.50950E+006    1.08199E+007   -2.65793E+005    4.09763E+004    1.07533E+007   -4.04479E+005   -5.26230E+004   -2.03681E+005
             474    1.19244E+007    1.18956E+007    1.18956E+007    1.47236E+005   -1.97285E+005    1.20929E+007   -3.94853E+006    1.19132E+007    1.18216E+005   -1.65033E+005    1.18924E+007   -9.58124E+004    6.44157E+003   -1.97270E+005
             475    1.29845E+007    1.28195E+007    1.28195E+007    7.03979E+004   -3.88238E+005    1.32078E+007   -4.16723E+006    1.29663E+007    6.79496E+004   -3.83656E+005    1.28174E+007   -3.41499E+004    2.67796E+004   -1.65517E+005
             476    1.38394E+007    1.35373E+007    1.35373E+007    1.25223E+005   -6.93111E+005    1.42304E+007   -4.32315E+006    1.37848E+007    1.24731E+005   -6.91240E+005    1.35359E+007   -2.40212E+004    4.99412E+004   -1.30206E+005
             477    1.09434E+007    1.07036E+007    1.07036E+007    2.51656E+005   -6.72705E+005    1.13763E+007   -3.42752E+006    1.08551E+007   -3.74035E+005   -9.08355E+003    1.06657E+007   -4.19325E+005   -2.18748E+005   -6.07883E+005
             478    1.19371E+007    1.18513E+007    1.18513E+007    1.05570E+005   -2.68490E+005    1.21198E+007   -3.89612E+006    1.19239E+007    7.13167E+004   -2.04370E+005    1.18214E+007   -1.04346E+005   -9.36234E+004   -5.93345E+005
             479    1.29916E+007    1.27819E+007    1.27819E+007    3.35053E+004   -4.39860E+005    1.32218E+007   -4.12520E+006    1.29722E+007    3.12360E+004   -4.17091E+005    1.27614E+007   -3.23025E+004   -6.18805E+004   -5.16507E+005
             480    1.38516E+007    1.35157E+007    1.35157E+007    9.46675E+004   -7.29702E+005    1.42454E+007   -4.29356E+006    1.37963E+007    9.39812E+004   -7.17843E+005    1.35045E+007   -2.54078E+004   -5.07266E+004   -3.95448E+005
             481    1.10201E+007    1.06333E+007    1.06333E+007    1.58547E+005   -8.61224E+005    1.14945E+007   -3.31020E+006    1.09132E+007   -5.36710E+005   -6.38093E+004    1.05311E+007   -4.38442E+005   -3.74674E+005   -9.92874E+005
             482    1.19717E+007    1.17937E+007    1.17937E+007    6.90374E+004   -4.10583E+005    1.22043E+007   -3.81740E+006    1.19501E+007    3.26937E+004   -2.94503E+005    1.17140E+007   -1.18699E+005   -1.32529E+005   -9.73821E+005
             483    1.29977E+007    1.27625E+007    1.27625E+007    4.12785E+004   -4.95125E+005    1.32576E+007   -4.10287E+006    1.29727E+007    4.03625E+004   -4.41098E+005    1.27093E+007   -2.10258E+004   -3.88830E+004   -8.36539E+005
             484    1.38835E+007    1.35346E+007    1.35346E+007    1.13197E+005   -7.68835E+005    1.43034E+007   -4.29299E+006    1.38202E+007    1.13077E+005   -7.37458E+005    1.35034E+007   -1.42163E+004    2.92261E+004   -6.67189E+005
             485    1.12808E+007    1.05540E+007    1.05540E+007   -8.23417E+004   -1.27628E+006    1.18303E+007   -3.06514E+006    1.11374E+007   -9.14135E+005   -2.41903E+005    1.03515E+007   -4.52431E+005   -6.84020E+005   -1.34748E+006
             486    1.20439E+007    1.16448E+007    1.16448E+007   -1.10622E+005   -6.68250E+005    1.23130E+007   -3.62197E+006    1.20148E+007   -1.94303E+005   -4.25499E+005    1.14857E+007   -1.67165E+005   -4.09898E+005   -1.32805E+006
             487    1.29557E+007    1.25608E+007    1.25608E+007   -1.06022E+005   -6.65771E+005    1.32265E+007   -3.92966E+006    1.29285E+007   -1.07210E+005   -5.51297E+005    1.24475E+007   -3.82890E+004   -2.83719E+005   -1.18496E+006
             488    1.38250E+007    1.33573E+007    1.33573E+007    1.71219E+003   -8.93507E+005    1.42508E+007   -4.15517E+006    1.37595E+007    3.52100E+003   -8.24443E+005    1.32864E+007   -2.79408E+004   -2.32305E+005   -9.74027E+005
             489    1.17015E+007    1.05976E+007    1.05976E+007   -2.96347E+005   -1.77159E+006    1.23692E+007   -2.84322E+006    1.14895E+007   -1.38070E+006   -3.82723E+005    1.02931E+007   -4.60900E+005   -1.04353E+006   -1.57042E+006
             490    1.21007E+007    1.14284E+007    1.14284E+007   -3.15764E+005   -9.99702E+005    1.24281E+007   -3.37099E+006    1.20571E+007   -4.90720E+005   -5.80673E+005    1.11844E+007   -2.31462E+005   -6.38028E+005   -1.59984E+006
             491    1.29757E+007    1.24138E+007    1.24138E+007   -2.80809E+005   -8.25850E+005    1.32397E+007   -3.76906E+006    1.29499E+007   -2.80543E+005   -6.39288E+005    1.22270E+007   -3.54937E+004   -4.15756E+005   -1.50480E+006
             492    1.39004E+007    1.32984E+007    1.32984E+007   -1.80730E+005   -9.88156E+005    1.42865E+007   -4.04316E+006    1.38475E+007   -1.75800E+005   -8.77097E+005    1.31824E+007   -8.30606E+003   -2.94911E+005   -1.24626E+006
             493    1.23476E+007    1.04856E+007    1.04856E+007   -6.23184E+005   -2.80894E+006    1.32945E+007   -2.35115E+006    1.19006E+007   -2.37015E+006   -6.64723E+005    1.00883E+007   -4.79552E+005   -1.64552E+006   -1.50278E+006
             494    1.22556E+007    1.09559E+007    1.09559E+007   -6.45471E+005   -1.86315E+006    1.28190E+007   -2.81575E+006    1.21184E+007   -1.26888E+006   -7.77434E+005    1.04936E+007   -3.65976E+005   -1.40930E+006   -1.91699E+006
             495    1.28699E+007    1.18303E+007    1.18303E+007   -6.37055E+005   -1.40743E+006    1.32377E+007   -3.26194E+006    1.28178E+007   -7.40903E+005   -9.27137E+005    1.14539E+007   -1.73854E+005   -1.19732E+006   -1.84603E+006
             496    1.34946E+007    1.25891E+007    1.25891E+007   -4.26067E+005   -1.33870E+006    1.39278E+007   -3.60811E+006    1.34249E+007   -4.02770E+005   -1.08329E+006    1.23104E+007   -1.06094E+005   -1.08228E+006   -1.61438E+006
             497    1.29781E+007    1.03798E+007    1.03798E+007   -6.31289E+005   -3.92892E+006    1.43088E+007   -1.93988E+006    1.19798E+007   -3.60398E+006   -5.42283E+005    9.96590E+006   -2.94764E+005   -1.87937E+006   -1.36679E+006
             498    1.36895E+007    1.10659E+007    1.10659E+007   -1.18613E+006   -3.70980E+006    1.47757E+007   -2.05667E+006    1.31508E+007   -3.24083E+006   -1.12079E+006    1.05316E+007   -3.69916E+005   -2.08708E+006   -1.72694E+006
             499    1.41561E+007    1.16490E+007    1.16490E+007   -1.34000E+006   -3.43973E+006    1.50887E+007   -2.28975E+006    1.37992E+007   -2.96537E+006   -1.24098E+006    1.10756E+007   -2.30243E+005   -2.24797E+006   -1.74799E+006
             500    1.50381E+007    1.25326E+007    1.25326E+007   -1.42920E+006   -3.38950E+006    1.59221E+007   -2.57132E+006    1.47466E+007   -2.88472E+006   -1.35302E+006    1.19517E+007   -1.68159E+005   -2.49985E+006   -1.58873E+006
             501    1.76479E+007    1.34507E+007    1.34507E+007   -1.16436E+006   -6.15509E+006    1.96058E+007   -2.04376E+006    1.59405E+007   -5.83427E+006   -1.03778E+006    1.30033E+007    2.42491E+005   -2.47548E+006   -1.33923E+006
             502    1.59805E+007    1.22028E+007    1.22028E+007   -1.18662E+006   -5.48822E+006    1.76910E+007   -1.84265E+006    1.45903E+007   -5.21658E+006   -1.04552E+006    1.17901E+007    1.88397E+005   -2.16612E+006   -1.35473E+006
             503    1.45429E+007    1.10355E+007    1.10355E+007   -1.23839E+006   -5.02666E+006    1.60621E+007   -1.59014E+006    1.33635E+007   -4.81902E+006   -1.12823E+006    1.07177E+007    1.02728E+005   -1.80709E+006   -1.15458E+006
             504    1.41987E+007    1.08884E+007    1.08884E+007   -1.44319E+006   -4.63432E+006    1.55227E+007   -1.60363E+006    1.33556E+007   -4.45573E+006   -1.37552E+006    1.06421E+007   -1.65024E+004   -1.63162E+006   -9.46344E+005
             505    1.00960E+007    9.69453E+006    9.69453E+006    6.41332E+005   -1.19286E+006    1.08874E+007   -3.04767E+006    9.71051E+006   -1.08648E+006    5.38001E+005    9.69147E+006   -4.24910E+005   -1.17983E+005   -1.31745E+005
             506    1.01235E+007    9.62735E+006    9.62735E+006    6.46089E+005   -1.34314E+006    1.09705E+007   -2.97677E+006    9.66904E+006   -1.23060E+006    5.64897E+005    9.59600E+006   -4.22880E+005   -3.54922E+005   -4.36493E+005
             507    1.02666E+007    9.54000E+006    9.54000E+006    5.32367E+005   -1.63839E+006    1.11784E+007   -2.81133E+006    9.72995E+006   -1.51384E+006    4.99883E+005    9.44794E+006   -4.01000E+005   -5.87571E+005   -7.62288E+005
             508    1.06009E+007    9.52739E+006    9.52739E+006    3.10671E+005   -2.05717E+006    1.15846E+007   -2.59363E+006    9.97952E+006   -1.91819E+006    3.62437E+005    9.33665E+006   -3.33649E+005   -8.54106E+005   -1.10322E+006
             509    1.13279E+007    9.72751E+006    9.72751E+006   -1.08122E+005   -2.65805E+006    1.23856E+007   -2.32045E+006    1.06531E+007   -2.49375E+006    4.44819E+004    9.41061E+006   -2.17447E+005   -1.17409E+006   -1.42645E+006
             510    1.25384E+007    1.04565E+007    1.04565E+007   -2.94533E+005   -3.31678E+006    1.37733E+007   -2.28174E+006    1.16760E+007   -3.12482E+006   -6.34700E+004    1.00335E+007   -5.52979E+004   -1.51896E+006   -1.63804E+006
             511    1.40421E+007    1.13964E+007    1.13964E+007   -8.09933E+005   -3.94981E+006    1.53462E+007   -2.21222E+006    1.32172E+007   -3.75279E+006   -6.67365E+005    1.10568E+007   -3.17969E+004   -1.67170E+006   -1.37143E+006
             512    1.94808E+007    1.48835E+007    1.48835E+007   -1.09457E+006   -6.81791E+006    2.17014E+007   -2.32367E+006    1.74333E+007   -6.46705E+006   -1.01650E+006    1.44545E+007    2.36827E+005   -2.72582E+006   -1.10401E+006
             513    2.08434E+007    1.59421E+007    1.59421E+007   -1.03475E+006   -7.32079E+006    2.32629E+007   -2.52886E+006    1.85236E+007   -6.96214E+006   -1.00986E+006    1.55586E+007    1.47676E+005   -2.86173E+006   -6.45284E+005
             514    2.14293E+007    1.64277E+007    1.64277E+007   -1.00277E+006   -7.49770E+006    2.39254E+007   -2.64239E+006    1.90182E+007   -7.13650E+006   -1.00277E+006    1.60664E+007    4.24598E+003   -2.91745E+006    5.34327E+003
             515    2.09231E+007    1.59931E+007    1.59931E+007   -1.02851E+006   -7.36611E+006    2.33592E+007   -2.53281E+006    1.85721E+007   -7.00872E+006   -1.00268E+006    1.56098E+007   -1.42908E+005   -2.86321E+006    6.57216E+005
             516    1.95707E+007    1.49029E+007    1.49029E+007   -1.10034E+006   -6.91656E+006    2.18195E+007   -2.29534E+006    1.74614E+007   -6.57041E+006   -1.02064E+006    1.44771E+007   -2.36430E+005   -2.71524E+006    1.11631E+006
             517    1.78379E+007    1.35489E+007    1.35489E+007   -1.15384E+006   -6.29497E+006    1.98439E+007   -2.03338E+006    1.60397E+007   -5.97870E+006   -1.03008E+006    1.31089E+007   -2.58931E+005   -2.47119E+006    1.32945E+006
             518    1.61611E+007    1.22290E+007    1.22290E+007   -1.26580E+006   -5.68073E+006    1.79098E+007   -1.76084E+006    1.47099E+007   -5.41257E+006   -1.13010E+006    1.18252E+007   -2.14141E+005   -2.16444E+006    1.33290E+006
             519    1.50520E+007    1.14801E+007    1.14801E+007   -1.24076E+006   -5.13698E+006    1.66171E+007   -1.70078E+006    1.38477E+007   -4.91946E+006   -1.12344E+006    1.11452E+007   -1.41817E+005   -1.88195E+006    1.20771E+006
             520    1.44945E+007    1.14737E+007    1.14737E+007   -7.64710E+005   -4.53266E+006    1.60064E+007   -2.05878E+006    1.33241E+007   -4.32703E+006   -5.95545E+005    1.10989E+007   -1.87828E+005   -1.79215E+006    1.41741E+006
             521    1.58073E+007    1.32520E+007    1.32520E+007   -1.50841E+006   -3.42705E+006    1.66790E+007   -2.77218E+006    1.55421E+007   -2.90765E+006   -1.45915E+006    1.26833E+007   -9.19254E+004   -2.75490E+006   -1.22247E+006
             522    1.39984E+007    1.32389E+007    1.32389E+007   -2.04697E+005   -1.25498E+006    1.44939E+007   -3.92642E+006    1.39093E+007   -1.38210E+005   -1.14880E+006    1.30663E+007   -3.21887E+004   -1.03569E+006   -1.15600E+006
             523    1.46057E+007    1.39851E+007    1.39851E+007   -1.26024E+005   -1.06958E+006    1.50546E+007   -4.26316E+006    1.45369E+007   -1.22826E+005   -1.01978E+006    1.39321E+007    3.97446E+004   -2.33680E+005   -8.57904E+005
             524    1.44148E+007    1.39145E+007    1.39145E+007    6.21532E+004   -1.00357E+006    1.49181E+007   -4.32438E+006    1.43258E+007    6.59608E+004   -9.75697E+005    1.38829E+007    9.69911E+003   -2.29426E+005   -6.44146E+005
             525    1.44991E+007    1.40879E+007    1.40879E+007    1.38706E+005   -9.04707E+005    1.49926E+007   -4.44062E+006    1.44142E+007    1.38408E+005   -8.92430E+005    1.40759E+007    2.25788E+004    6.18542E+004   -4.18831E+005
             526    1.44114E+007    1.39966E+007    1.39966E+007    1.02122E+005   -8.81360E+005    1.48779E+007   -4.40578E+006    1.43356E+007    1.02344E+005   -8.77145E+005    1.39921E+007    6.75553E+003   -5.95679E+004   -2.49393E+005
             527    1.43975E+007    1.40133E+007    1.40133E+007    1.30034E+005   -8.48535E+005    1.48618E+007   -4.43160E+006    1.43224E+007    1.30287E+005   -8.48115E+005    1.40126E+007    6.95643E+003    6.53386E+004   -7.37128E+004
             528    1.64434E+007    1.37916E+007    1.37916E+007   -1.56413E+006   -3.55759E+006    1.73492E+007   -2.88997E+006    1.61682E+007   -3.02131E+006   -1.55186E+006    1.32431E+007   -5.17742E+004   -2.96248E+006   -6.47341E+005
             529    1.43055E+007    1.35855E+007    1.35855E+007   -1.23191E+005   -1.25007E+006    1.48356E+007   -4.07076E+006    1.42051E+007   -4.81846E+004   -1.22468E+006    1.34852E+007   -1.73290E+004   -1.03229E+006   -5.75089E+005
             530    1.50337E+007    1.43746E+007    1.43746E+007   -1.43159E+005   -1.12675E+006    1.55013E+007   -4.36822E+006    1.49610E+007   -1.40490E+005   -1.11799E+006    1.43631E+007    1.90718E+004   -2.03932E+005   -3.63968E+005
             531    1.47555E+007    1.41990E+007    1.41990E+007    6.62603E+004   -1.10903E+006    1.53080E+007   -4.38541E+006    1.46497E+007    7.00017E+004   -1.10465E+006    1.41909E+007   -4.76340E+003   -2.31983E+005   -2.57098E+005
             532    1.48097E+007    1.43397E+007    1.43397E+007    1.28188E+005   -1.00332E+006    1.53430E+007   -4.48819E+006    1.47120E+007    1.28734E+005   -1.00197E+006    1.43378E+007    2.54407E+003    8.88730E+004   -1.43492E+005
             533    1.46887E+007    1.42096E+007    1.42096E+007    9.37482E+004   -9.91768E+005    1.52014E+007   -4.43719E+006    1.45981E+007    9.40420E+004   -9.91354E+005    1.42089E+007   -5.25832E+003   -6.75117E+004   -7.64818E+004
             534    1.46593E+007    1.42145E+007    1.42145E+007    1.24131E+005   -9.54100E+005    1.51686E+007   -4.46151E+006    1.45696E+007    1.24570E+005   -9.54048E+005    1.42140E+007   -3.90114E+003    7.98426E+004   -2.41344E+004
             535    1.66587E+007    1.39651E+007    1.39651E+007   -1.58999E+006   -3.61264E+006    1.75777E+007   -2.92081E+006    1.63790E+007   -3.06856E+006   -1.58987E+006    1.34209E+007   -5.03451E+003   -3.04428E+006    4.24780E+004
             536    1.43601E+007    1.36776E+007    1.36776E+007   -7.22620E+004   -1.22355E+006    1.49011E+007   -4.12726E+006    1.42558E+007    8.28082E+003   -1.22257E+006    1.35961E+007    6.15141E+002   -1.04975E+006    1.16201E+005
             537    1.51044E+007    1.44486E+007    1.44486E+007   -1.27314E+005   -1.13387E+006    1.55825E+007   -4.39580E+006    1.50286E+007   -1.24381E+005   -1.13234E+006    1.44441E+007    1.12109E+003   -2.07127E+005    1.53943E+005
             538    1.47597E+007    1.42222E+007    1.42222E+007    9.33258E+004   -1.09628E+006    1.53185E+007   -4.40642E+006    1.46512E+007    9.76197E+004   -1.09442E+006    1.42161E+007   -4.72999E+003   -2.46332E+005    1.68357E+005
             539    1.48058E+007    1.43512E+007    1.43512E+007    1.49617E+005   -9.92641E+005    1.53438E+007   -4.50271E+006    1.47061E+007    1.50189E+005   -9.91272E+005    1.43492E+007    4.47114E+002    9.01089E+004    1.44892E+005
             540    1.46540E+007    1.41951E+007    1.41951E+007    1.11261E+005   -9.69341E+005    1.51644E+007   -4.44566E+006    1.45640E+007    1.11662E+005   -9.68736E+005    1.41941E+007    3.60133E+002   -7.52133E+004    9.57715E+004
             541    1.46207E+007    1.41960E+007    1.41960E+007    1.39758E+005   -9.30423E+005    1.51264E+007   -4.46844E+006    1.45322E+007    1.40255E+005   -9.30334E+005    1.41954E+007    2.33706E+003    8.39252E+004    3.57419E+004
             542    1.64939E+007    1.37658E+007    1.37658E+007   -1.57120E+006   -3.68191E+006    1.74477E+007   -2.83755E+006    1.61859E+007   -3.13570E+006   -1.55077E+006    1.31991E+007    4.27298E+004   -2.99551E+006    7.47301E+005
             543    1.42035E+007    1.34437E+007    1.34437E+007   -2.07472E+005   -1.25417E+006    1.46979E+007   -3.99402E+006    1.41163E+007   -1.25929E+005   -1.20565E+006    1.33136E+007    2.92977E+004   -1.10145E+006    7.74083E+005
             544    1.48447E+007    1.41829E+007    1.41829E+007   -1.71570E+005   -1.10786E+006    1.52907E+007   -4.30114E+006    1.47781E+007   -1.67756E+005   -1.07788E+006    1.41491E+007   -1.28073E+004   -2.33831E+005    6.76218E+005
             545    1.45064E+007    1.39693E+007    1.39693E+007    4.04605E+004   -1.05270E+006    1.50220E+007   -4.31903E+006    1.44133E+007    4.49186E+004   -1.03133E+006    1.39435E+007    2.48566E+003   -2.53077E+005    5.64429E+005
             546    1.45262E+007    1.40937E+007    1.40937E+007    1.16851E+005   -9.25807E+005    1.50195E+007   -4.42823E+006    1.44417E+007    1.17279E+005   -9.14005E+005    1.40814E+007   -2.03562E+003    7.90082E+004    4.20544E+005
             547    1.43791E+007    1.39479E+007    1.39479E+007    8.28395E+004   -8.95403E+005    1.48433E+007   -4.37843E+006    1.43040E+007    8.31248E+004   -8.90703E+005    1.39429E+007    8.36273E+003   -7.27802E+004    2.61419E+005
             548    1.43356E+007    1.39459E+007    1.39459E+007    1.16078E+005   -8.46819E+005    1.47927E+007   -4.40506E+006    1.42625E+007    1.16466E+005   -8.46276E+005    1.39450E+007    8.00840E+003    7.86038E+004    8.45848E+004
             549    1.59113E+007    1.32116E+007    1.32116E+007   -1.50833E+006   -3.67007E+006    1.68817E+007   -2.67773E+006    1.55758E+007   -3.13297E+006   -1.44526E+006    1.26114E+007    8.84494E+004   -2.82757E+006    1.29085E+006
             550    1.38349E+007    1.29779E+007    1.29779E+007   -3.69400E+005   -1.29781E+006    1.42757E+007   -3.77022E+006    1.37645E+007   -2.99636E+005   -1.13691E+006    1.27472E+007    5.55826E+004   -1.16685E+006    1.34964E+006
             551    1.42429E+007    1.36287E+007    1.36287E+007   -1.74036E+005   -1.01704E+006    1.46457E+007   -4.14586E+006    1.41866E+007   -1.67831E+005   -9.33562E+005    1.35390E+007   -2.22430E+004   -2.91747E+005    1.10230E+006
             552    1.39838E+007    1.35110E+007    1.35110E+007    2.08596E+004   -9.19155E+005    1.44301E+007   -4.20423E+006    1.39125E+007    2.59524E+004   -8.62167E+005    1.34489E+007   -1.80960E+003   -2.68600E+005    9.02953E+005
             553    1.39735E+007    1.36284E+007    1.36284E+007    1.24118E+005   -7.71146E+005    1.43996E+007   -4.32714E+006    1.39087E+007    1.24116E+005   -7.41705E+005    1.35990E+007   -9.66104E+003    4.56046E+004    6.48737E+005
             554    1.38496E+007    1.35203E+007    1.35203E+007    9.23023E+004   -7.15626E+005    1.42359E+007   -4.29899E+006    1.37965E+007    9.26147E+004   -7.04279E+005    1.35086E+007    5.99600E+003   -7.27890E+004    4.00319E+005
             555    1.38011E+007    1.35157E+007    1.35157E+007    1.24845E+005   -6.61987E+005    1.41777E+007   -4.32620E+006    1.37505E+007    1.25114E+005   -6.60768E+005    1.35142E+007    7.30077E+003    6.60214E+004    1.28382E+005
             556    1.51657E+007    1.24371E+007    1.24371E+007   -1.46458E+006   -3.73643E+006    1.61735E+007   -2.41202E+006    1.47756E+007   -3.21812E+006   -1.36735E+006    1.18215E+007    1.68368E+005   -2.58567E+006    1.64075E+006
             557    1.33096E+007    1.22741E+007    1.22741E+007   -6.15367E+005   -1.41924E+006    1.36933E+007   -3.41315E+006    1.32548E+007   -6.56214E+005   -1.03147E+006    1.19271E+007    1.57958E+005   -1.27244E+006    1.73293E+006
             558    1.34787E+007    1.28580E+007    1.28580E+007   -2.75645E+005   -9.41173E+005    1.37991E+007   -3.88038E+006    1.34416E+007   -2.74964E+005   -7.83974E+005    1.27001E+007    4.33042E+004   -3.92228E+005    1.41337E+006
             559    1.33054E+007    1.28462E+007    1.28462E+007   -7.86349E+004   -8.09656E+005    1.36559E+007   -3.98597E+006    1.32601E+007   -8.23112E+004   -7.02297E+005    1.27425E+007    6.13588E+004   -3.00463E+005    1.14603E+006
             560    1.32592E+007    1.29717E+007    1.29717E+007    6.91270E+004   -6.17442E+005    1.35891E+007   -4.14113E+006    1.32191E+007    6.63270E+004   -5.63915E+005    1.29210E+007    4.33453E+004   -8.35946E+003    8.28609E+005
             561    1.31594E+007    1.29065E+007    1.29065E+007    5.69128E+004   -5.42327E+005    1.34488E+007   -4.14035E+006    1.31287E+007    5.16941E+004   -5.17634E+005    1.28870E+007    5.50083E+004   -7.36666E+004    5.06042E+005
             562    1.31058E+007    1.29092E+007    1.29092E+007    9.89366E+004   -4.73465E+005    1.33827E+007   -4.17822E+006    1.30777E+007    9.43172E+004   -4.66709E+005    1.29071E+007    5.26270E+004    4.45320E+004    1.62618E+005
             563    1.43705E+007    1.16612E+007    1.16612E+007   -1.28118E+006   -3.80347E+006    1.54647E+007   -2.19219E+006    1.38593E+007   -3.31861E+006   -1.15883E+006    1.10540E+007    2.28971E+005   -2.37015E+006    1.76130E+006
             564    1.27034E+007    1.15264E+007    1.15264E+007   -7.38831E+005   -1.57401E+006    1.31004E+007   -3.07117E+006    1.26414E+007   -1.02914E+006   -8.52140E+005    1.10948E+007    2.10587E+005   -1.39879E+006    1.87065E+006
             565    1.26342E+007    1.20143E+007    1.20143E+007   -3.75017E+005   -8.51237E+005    1.28656E+007   -3.59603E+006    1.26140E+007   -4.04783E+005   -6.03451E+005    1.17963E+007    8.25195E+004   -5.36003E+005    1.57166E+006
             566    1.24963E+007    1.20877E+007    1.20877E+007   -1.72487E+005   -6.32085E+005    1.27198E+007   -3.76104E+006    1.24773E+007   -1.92552E+005   -4.67988E+005    1.19437E+007    7.71224E+004   -3.71096E+005    1.29367E+006
             567    1.24060E+007    1.22048E+007    1.22048E+007    9.59861E+003   -4.01742E+005    1.26065E+007   -3.93755E+006    1.23906E+007    1.62856E+002   -3.21631E+005    1.21341E+007    5.71062E+004   -8.38073E+004    9.37451E+005
             568    1.23212E+007    1.21837E+007    1.21837E+007    2.22464E+004   -2.91370E+005    1.24751E+007   -3.97152E+006    1.23123E+007    5.65655E+003   -2.47176E+005    1.21561E+007    6.72489E+004   -9.32655E+004    5.78662E+005
             569    1.22534E+007    1.21780E+007    1.21780E+007    7.12932E+004   -2.16939E+005    1.23950E+007   -4.01079E+006    1.22458E+007    5.31184E+004   -1.95962E+005    1.21752E+007    7.05094E+004    2.36311E+004    1.84541E+005
             570    1.37698E+007    1.10491E+007    1.10491E+007   -9.69628E+005   -3.97520E+006    1.50243E+007   -2.03475E+006    1.30006E+007   -3.55491E+006   -8.60866E+005    1.05200E+007    2.97419E+005   -2.15714E+006    1.62661E+006
             571    1.23966E+007    1.08424E+007    1.08424E+007   -7.38218E+005   -2.23439E+006    1.30768E+007   -2.62328E+006    1.21910E+007   -1.67220E+006   -8.24395E+005    1.03664E+007    4.07095E+005   -1.60660E+006    1.82528E+006
             572    1.19548E+007    1.11449E+007    1.11449E+007   -3.72493E+005   -1.20398E+006    1.23488E+007   -3.18947E+006    1.18895E+007   -7.28283E+005   -5.65194E+005    1.08619E+007    3.08469E+005   -7.84881E+005    1.66491E+006
             573    1.17274E+007    1.12180E+007    1.12180E+007   -1.67646E+005   -8.23646E+005    1.20417E+007   -3.40890E+006    1.16860E+007   -3.88160E+005   -4.15493E+005    1.10304E+007    2.56131E+005   -5.22638E+005    1.39290E+006
             574    1.15338E+007    1.13203E+007    1.13203E+007    5.33444E+004   -4.62857E+005    1.17832E+007   -3.63694E+006    1.15077E+007   -9.22288E+004   -2.22907E+005    1.12260E+007    2.16205E+005   -2.08083E+005    1.02632E+006
             575    1.14466E+007    1.13427E+007    1.13427E+007    1.15572E+005   -3.11602E+005    1.16543E+007   -3.71554E+006    1.14287E+007   -3.22939E+004   -1.28635E+005    1.13076E+007    1.96458E+005   -1.39218E+005    6.21274E+005
             576    1.13688E+007    1.13477E+007    1.13477E+007    1.82068E+005   -2.13934E+005    1.15616E+007   -3.77193E+006    1.13532E+007    3.05834E+004   -5.87094E+004    1.13439E+007    1.92370E+005   -6.68929E+003    2.06514E+005
             577    1.35775E+007    1.08403E+007    1.08403E+007   -7.75556E+005   -4.08643E+006    1.49267E+007   -1.99276E+006    1.26204E+007   -3.81616E+006   -6.64414E+005    1.04588E+007    1.63488E+005   -1.85653E+006    1.31774E+006
             578    1.24158E+007    1.04341E+007    1.04341E+007   -6.07263E+005   -3.00604E+006    1.34401E+007   -2.27359E+006    1.18775E+007   -2.65217E+006   -5.26859E+005    9.99980E+006    3.49029E+005   -1.68869E+006    1.58436E+006
             579    1.16078E+007    1.03297E+007    1.03297E+007   -3.29126E+005   -2.03759E+006    1.23673E+007   -2.65433E+006    1.13197E+007   -1.67199E+006   -3.77288E+005    1.00123E+007    4.75462E+005   -1.11268E+006    1.55743E+006
             580    1.11188E+007    1.02794E+007    1.02794E+007   -5.79815E+004   -1.48331E+006    1.17627E+007   -2.91269E+006    1.09104E+007   -1.14752E+006   -1.79003E+005    1.00646E+007    4.82078E+005   -7.73559E+005    1.33464E+006
             581    1.08158E+007    1.03294E+007    1.03294E+007    1.87201E+005   -1.05315E+006    1.13825E+007   -3.15447E+006    1.06540E+007   -7.38807E+005   -1.87977E+004    1.02210E+007    4.91078E+005   -4.48537E+005    9.84830E+005
             582    1.06804E+007    1.03840E+007    1.03840E+007    3.18377E+005   -8.20017E+005    1.12040E+007   -3.29412E+006    1.05426E+007   -5.41490E+005    7.95950E+004    1.03443E+007    4.71854E+005   -2.65099E+005    5.96761E+005
             583    1.06286E+007    1.04324E+007    1.04324E+007    3.83873E+005   -6.94194E+005    1.11266E+007   -3.37402E+006    1.05046E+007   -4.27287E+005    1.20914E+005    1.04284E+007    4.63892E+005   -6.93970E+004    1.92900E+005
             584    1.00358E+007    9.60337E+006    9.60337E+006    6.86047E+005   -1.26456E+006    1.08679E+007   -3.00829E+006    9.59532E+006   -1.16401E+006    5.88842E+005    9.60003E+006    4.26753E+005   -1.26537E+005    1.34092E+005
             585    1.00920E+007    9.55121E+006    9.55121E+006    6.64908E+005   -1.42056E+006    1.09718E+007   -2.93185E+006    9.58901E+006   -1.31217E+006    5.87206E+005    9.52052E+006    4.23175E+005   -3.68519E+005    4.17842E+005
             586    1.02569E+007    9.46921E+006    9.46921E+006    5.41180E+005   -1.73430E+006    1.12035E+007   -2.75870E+006    9.66416E+006   -1.61006E+006    5.08214E+005    9.37795E+006    4.03665E+005   -6.16158E+005    7.36561E+005
             587    1.06253E+007    9.45603E+006    9.45603E+006    2.67053E+005   -2.17900E+006    1.16350E+007   -2.51469E+006    9.96185E+006   -2.03994E+006    3.06137E+005    9.27789E+006    3.37041E+005   -8.73996E+005    1.03605E+006
             588    1.12574E+007    9.59852E+006    9.59852E+006   -4.69392E+004   -2.77093E+006    1.23695E+007   -2.26022E+006    1.04767E+007   -2.60955E+006    7.73784E+004    9.31282E+006    2.17538E+005   -1.19163E+006    1.29092E+006
             589    1.22498E+007    1.00560E+007    1.00560E+007   -3.15272E+005   -3.45943E+006    1.35154E+007   -2.09376E+006    1.12872E+007   -3.28411E+006   -1.32264E+005    9.69765E+006    4.42165E+004   -1.46167E+006    1.42577E+006
             590    1.33770E+007    1.08118E+007    1.08118E+007   -4.20128E+005   -3.98702E+006    1.47989E+007   -2.13490E+006    1.22366E+007   -3.80054E+006   -1.86394E+005    1.03916E+007   -1.44464E+005   -1.63577E+006    1.59854E+006
             591    1.42185E+007    1.09112E+007    1.09112E+007   -1.45335E+006   -4.62542E+006    1.55366E+007   -1.61080E+006    1.33872E+007   -4.44714E+006   -1.38559E+006    1.06651E+007   -1.92256E+004    1.62981E+006    9.50098E+005
             592    1.45086E+007    1.10047E+007    1.10047E+007   -1.25506E+006   -5.01327E+006    1.60179E+007   -1.57878E+006    1.33460E+007   -4.80777E+006   -1.14782E+006    1.06919E+007    9.78053E+004    1.79528E+006    1.13935E+006
             593    1.59330E+007    1.21649E+007    1.21649E+007   -1.19453E+006   -5.46958E+006    1.76344E+007   -1.83358E+006    1.45565E+007   -5.19863E+006   -1.05361E+006    1.17530E+007    1.83960E+005    2.16004E+006    1.35267E+006
             594    1.76177E+007    1.34315E+007    1.34315E+007   -1.16511E+006   -6.13816E+006    1.95697E+007   -2.04275E+006    1.59200E+007   -5.81819E+006   -1.03826E+006    1.29847E+007    2.41355E+005    2.47002E+006    1.33983E+006
             595    1.49929E+007    1.25189E+007    1.25189E+007   -1.42745E+006   -3.33763E+006    1.58565E+007   -2.58459E+006    1.47154E+007   -2.83441E+006   -1.35334E+006    1.19415E+007   -1.68943E+005    2.48068E+006    1.59203E+006
             596    1.34714E+007    1.25864E+007    1.25864E+007   -3.95164E+005   -1.32661E+006    1.39130E+007   -3.62153E+006    1.33987E+007   -3.71955E+005   -1.07640E+006    1.23129E+007   -1.04518E+005    1.05228E+006    1.61098E+006
             597    1.39040E+007    1.33100E+007    1.33100E+007   -1.72664E+005   -9.80113E+005    1.42901E+007   -4.05241E+006    1.38511E+007   -1.68214E+005   -8.70825E+005    1.31963E+007   -7.78309E+003    2.79497E+005    1.23738E+006
             598    1.38248E+007    1.33603E+007    1.33603E+007    6.53641E+003   -8.91730E+005    1.42520E+007   -4.15836E+006    1.37589E+007    8.17966E+003   -8.24308E+005    1.32912E+007   -2.83891E+004    2.26860E+005    9.62243E+005
             599    1.38774E+007    1.35319E+007    1.35319E+007    1.15057E+005   -7.64304E+005    1.42962E+007   -4.29422E+006    1.38145E+007    1.14964E+005   -7.33595E+005    1.35013E+007   -1.40931E+004   -3.32985E+004    6.59941E+005
             600    1.38443E+007    1.35091E+007    1.35091E+007    9.38365E+004   -7.27738E+005    1.42368E+007   -4.29172E+006    1.37893E+007    9.31391E+004   -7.16014E+005    1.34980E+007   -2.55546E+004    5.08762E+004    3.92651E+005
             601    1.38367E+007    1.35357E+007    1.35357E+007    1.25843E+005   -6.91470E+005    1.42272E+007   -4.32337E+006    1.37822E+007    1.25354E+005   -6.89607E+005    1.35344E+007   -2.40900E+004   -5.08078E+004    1.29527E+005
             602    1.41108E+007    1.16276E+007    1.16276E+007   -1.33358E+006   -3.40409E+006    1.50317E+007   -2.29664E+006    1.37628E+007   -2.92804E+006   -1.23783E+006    1.10558E+007   -2.36110E+005    2.23192E+006    1.75452E+006
             603    1.28421E+007    1.18263E+007    1.18263E+007   -6.09099E+005   -1.38709E+006    1.32134E+007   -3.27670E+006    1.27889E+007   -7.10514E+005   -9.13747E+005    1.14544E+007   -1.76164E+005    1.16994E+006    1.84586E+006
             604    1.29601E+007    1.24082E+007    1.24082E+007   -2.71137E+005   -8.15599E+005    1.32238E+007   -3.77382E+006    1.29344E+007   -2.71808E+005   -6.31667E+005    1.22249E+007   -3.74836E+004    4.00657E+005    1.49269E+006
             605    1.29494E+007    1.25608E+007    1.25608E+007   -1.00430E+005   -6.58768E+005    1.32195E+007   -3.93386E+006    1.29223E+007   -1.01718E+005   -5.46090E+005    1.24494E+007   -3.82328E+004    2.77399E+005    1.17570E+006
             606    1.29994E+007    1.27658E+007    1.27658E+007    4.29789E+004   -4.93589E+005    1.32594E+007   -4.10507E+006    1.29745E+007    4.21011E+004   -4.40795E+005    1.27139E+007   -2.06077E+004    3.49390E+004    8.27328E+005
             607    1.29879E+007    1.27791E+007    1.27791E+007    3.34815E+004   -4.38338E+005    1.32174E+007   -4.12473E+006    1.29686E+007    3.11444E+004   -4.16057E+005    1.27591E+007   -3.27201E+004    6.14127E+004    5.09331E+005
             608    1.29805E+007    1.28162E+007    1.28162E+007    7.11695E+004   -3.87644E+005    1.32038E+007   -4.16656E+006    1.29622E+007    6.87532E+004   -3.83179E+005    1.28141E+007   -3.39268E+004   -2.66031E+004    1.62121E+005
             609    1.36744E+007    1.10543E+007    1.10543E+007   -1.17993E+006   -3.70745E+006    1.47618E+007   -2.05566E+006    1.31333E+007   -3.23732E+006   -1.11391E+006    1.05182E+007   -3.70961E+005    2.08709E+006    1.73134E+006
             610    1.22181E+007    1.09351E+007    1.09351E+007   -6.31279E+005   -1.84437E+006    1.27794E+007   -2.81981E+006    1.20815E+007   -1.25774E+006   -7.62411E+005    1.04796E+007   -3.66141E+005    1.39550E+006    1.90110E+006
             611    1.20840E+007    1.14253E+007    1.14253E+007   -3.04921E+005   -9.83859E+005    1.24091E+007   -3.37883E+006    1.20409E+007   -4.78838E+005   -5.70129E+005    1.11855E+007   -2.31173E+005    6.23238E+005    1.58828E+006
             612    1.20339E+007    1.16414E+007    1.16414E+007   -1.05159E+005   -6.60642E+005    1.23021E+007   -3.62520E+006    1.20050E+007   -1.87241E+005   -4.22316E+005    1.14852E+007   -1.65973E+005    4.03620E+005    1.31654E+006
             613    1.19729E+007    1.17973E+007    1.17973E+007    7.33136E+004   -4.09922E+005    1.22072E+007   -3.82023E+006    1.19509E+007    3.70734E+004   -2.94636E+005    1.17183E+007   -1.19241E+005    1.29659E+005    9.70046E+005
             614    1.19308E+007    1.18454E+007    1.18454E+007    1.05418E+005   -2.67417E+005    1.21128E+007   -3.89448E+006    1.19177E+007    7.14596E+004   -2.03595E+005    1.18156E+007   -1.03748E+005    9.31816E+004    5.93202E+005
             615    1.19176E+007    1.18896E+007    1.18896E+007    1.47708E+005   -1.96118E+005    1.20858E+007   -3.94708E+006    1.19064E+007    1.17987E+005   -1.63260E+005    1.18865E+007   -9.67699E+004   -7.85923E+003    1.94252E+005
             616    1.29695E+007    1.03657E+007    1.03657E+007   -6.24407E+005   -3.93967E+006    1.43054E+007   -1.93387E+006    1.19592E+007   -3.61545E+006   -5.37920E+005    9.95499E+006   -2.94333E+005    1.88089E+006    1.35040E+006
             617    1.23423E+007    1.04894E+007    1.04894E+007   -6.18741E+005   -2.79702E+006    1.32864E+007   -2.35787E+006    1.18982E+007   -2.36133E+006   -6.58273E+005    1.00932E+007   -4.75986E+005    1.64146E+006    1.50153E+006
             618    1.16800E+007    1.05867E+007    1.05867E+007   -2.87844E+005   -1.75926E+006    1.23460E+007   -2.84653E+006    1.14687E+007   -1.36851E+006   -3.77605E+005    1.02857E+007   -4.63449E+005    1.03019E+006    1.56406E+006
             619    1.12723E+007    1.05495E+007    1.05495E+007   -7.74902E+004   -1.27279E+006    1.18223E+007   -3.06640E+006    1.11283E+007   -9.09704E+005   -2.39693E+005    1.03486E+007   -4.54488E+005    6.78807E+005    1.34245E+006
             620    1.10114E+007    1.06280E+007    1.06280E+007    1.62608E+005   -8.58248E+005    1.14863E+007   -3.31080E+006    1.09042E+007   -5.34584E+005   -6.05261E+004    1.05275E+007   -4.39177E+005    3.70227E+005    9.85005E+005
             621    1.09403E+007    1.07015E+007    1.07015E+007    2.51268E+005   -6.70617E+005    1.13721E+007   -3.42738E+006    1.08524E+007   -3.73541E+005   -8.52679E+003    1.06642E+007   -4.18066E+005    2.17022E+005    6.02508E+005
             622    1.08991E+007    1.07584E+007    1.07584E+007    3.18064E+005   -5.47834E+005    1.13062E+007   -3.50954E+006    1.08213E+007   -2.66263E+005    4.05497E+004    1.07543E+007   -4.04619E+005    5.31540E+004    2.03628E+005
             623    1.00956E+007    9.69237E+006    9.69237E+006    6.42327E+005   -1.19611E+006    1.08885E+007   -3.04620E+006    9.70822E+006   -1.08983E+006    5.39394E+005    9.68903E+006   -4.24821E+005    1.24087E+005    1.37089E+005
             624    1.01226E+007    9.62605E+006    9.62605E+006    6.50811E+005   -1.34627E+006    1.09723E+007   -2.97686E+006    9.66437E+006   -1.23405E+006    5.69913E+005    9.59473E+006   -4.22931E+005    3.56280E+005    4.35139E+005
             625    1.02664E+007    9.54152E+006    9.54152E+006    5.32669E+005   -1.63597E+006    1.11775E+007   -2.81274E+006    9.73085E+006   -1.51141E+006    4.99007E+005    9.45062E+006   -4.01721E+005    5.85503E+005    7.56526E+005
             626    1.05917E+007    9.52238E+006    9.52238E+006    3.10433E+005   -2.05055E+006    1.15729E+007   -2.59409E+006    9.97350E+006   -1.91094E+006    3.58973E+005    9.33424E+006   -3.37618E+005    8.48975E+005    1.09519E+006
             627    1.12998E+007    9.70963E+006    9.70963E+006   -9.86560E+004   -2.64667E+006    1.23563E+007   -2.32144E+006    1.06243E+007   -2.48266E+006    5.05844E+004    9.39638E+006   -2.21609E+005    1.16720E+006    1.41605E+006
             628    1.25057E+007    1.04295E+007    1.04295E+007   -2.88995E+005   -3.30997E+006    1.37394E+007   -2.27684E+006    1.16415E+007   -3.11875E+006   -5.89290E+004    1.00082E+007   -5.71362E+004    1.51315E+006    1.63305E+006
             629    1.40610E+007    1.14155E+007    1.14155E+007   -8.08759E+005   -3.95057E+006    1.53661E+007   -2.21873E+006    1.32362E+007   -3.75372E+006   -6.64122E+005    1.10740E+007   -2.96525E+004    1.67262E+006    1.38063E+006
             630    1.06247E+007    1.04266E+007    1.04266E+007    3.84280E+005   -6.97672E+005    1.11243E+007   -3.37108E+006    1.04997E+007   -4.31983E+005    1.22891E+005    1.04223E+007    4.64183E+005    7.14567E+004   -2.01509E+005
             631    1.13599E+007    1.13370E+007    1.13370E+007    1.81138E+005   -2.16531E+005    1.15535E+007   -3.76720E+006    1.13442E+007    2.60843E+004   -5.74129E+004    1.13329E+007    1.93802E+005    9.98397E+003   -2.15116E+005
             632    1.22479E+007    1.21712E+007    1.21712E+007    6.94574E+004   -2.17834E+005    1.23890E+007   -4.00761E+006    1.22403E+007    5.09537E+004   -1.96085E+005    1.21680E+007    7.09458E+004   -2.11471E+004   -1.99062E+005
             633    1.31053E+007    1.29081E+007    1.29081E+007    9.86451E+004   -4.74244E+005    1.33824E+007   -4.17750E+006    1.30771E+007    9.38230E+004   -4.66915E+005    1.29056E+007    5.37226E+004   -4.32542E+004   -1.77543E+005
             634    1.38031E+007    1.35168E+007    1.35168E+007    1.24916E+005   -6.63740E+005    1.41805E+007   -4.32599E+006    1.37523E+007    1.25145E+005   -6.62284E+005    1.35151E+007    8.89310E+003   -6.48871E+004   -1.39372E+005
             635    1.43368E+007    1.39473E+007    1.39473E+007    1.16818E+005   -8.47301E+005    1.47946E+007   -4.40560E+006    1.42636E+007    1.17169E+005   -8.46666E+005    1.39463E+007    9.83542E+003   -7.80747E+004   -8.97427E+004
             636    1.46218E+007    1.41962E+007    1.41962E+007    1.39165E+005   -9.31346E+005    1.51276E+007   -4.46802E+006    1.45332E+007    1.39646E+005   -9.31250E+005    1.41957E+007    3.60334E+003   -8.31340E+004   -3.58757E+004
             637    1.46582E+007    1.42140E+007    1.42140E+007    1.24430E+005   -9.53264E+005    1.51673E+007   -4.46172E+006    1.45686E+007    1.24875E+005   -9.53215E+005    1.42135E+007   -2.93300E+003   -7.98502E+004    2.52537E+004
             638    1.43962E+007    1.40122E+007    1.40122E+007    1.30217E+005   -8.48272E+005    1.48605E+007   -4.43139E+006    1.43211E+007    1.30457E+005   -8.47835E+005    1.40115E+007    7.58812E+003   -6.50280E+004    7.43892E+004
             639    1.06742E+007    1.03717E+007    1.03717E+007    3.18650E+005   -8.30693E+005    1.12024E+007   -3.28654E+006    1.05336E+007   -5.51607E+005    8.05709E+004    1.03307E+007    4.74585E+005    2.70877E+005   -6.05216E+005
             640    1.14365E+007    1.13284E+007    1.13284E+007    1.14590E+005   -3.18447E+005    1.16469E+007   -3.70819E+006    1.14180E+007   -3.94512E+004   -1.27409E+005    1.12914E+007    2.00098E+005    1.43907E+005   -6.37228E+005
             641    1.23215E+007    1.21809E+007    1.21809E+007    2.12789E+004   -2.96314E+005    1.24772E+007   -3.96863E+006    1.23123E+007    4.70378E+003   -2.50286E+005    1.21515E+007    6.75163E+004    9.54170E+004   -5.97882E+005
             642    1.31716E+007    1.29149E+007    1.29149E+007    5.59320E+004   -5.48391E+005    1.34633E+007   -4.14082E+006    1.31403E+007    5.11488E+004   -5.22792E+005    1.28941E+007    5.29184E+004    7.50885E+004   -5.23582E+005
             643    1.38653E+007    1.35324E+007    1.35324E+007    9.16396E+004   -7.21622E+005    1.42540E+007   -4.30081E+006    1.38115E+007    9.19901E+004   -7.09781E+005    1.35202E+007    3.93125E+003    7.30276E+004   -4.09880E+005
             644    1.43902E+007    1.39566E+007    1.39566E+007    8.22924E+004   -8.99294E+005    1.48559E+007   -4.37986E+006    1.43146E+007    8.26135E+004   -8.94554E+005    1.39515E+007    6.68288E+003    7.33123E+004   -2.63486E+005
             645    1.46578E+007    1.41988E+007    1.41988E+007    1.11747E+005   -9.69858E+005    1.51687E+007   -4.44690E+006    1.45676E+007    1.12149E+005   -9.69285E+005    1.41978E+007   -4.16453E+002    7.52800E+004   -9.32621E+004
             646    1.46868E+007    1.42081E+007    1.42081E+007    9.38513E+004   -9.91138E+005    1.51992E+007   -4.43692E+006    1.45962E+007    9.41371E+004   -9.90679E+005    1.42073E+007   -5.51865E+003    6.69839E+004    8.06182E+004
             647    1.44017E+007    1.39888E+007    1.39888E+007    1.01918E+005   -8.77771E+005    1.48665E+007   -4.40430E+006    1.43264E+007    1.02149E+005   -8.73457E+005    1.39842E+007    6.58683E+003    6.03889E+004    2.52293E+005
             648    1.08160E+007    1.03198E+007    1.03198E+007    1.81849E+005   -1.06598E+006    1.13858E+007   -3.14522E+006    1.06522E+007   -7.53212E+005   -1.96074E+004    1.02085E+007    4.90536E+005    4.57364E+005   -9.96766E+005
             649    1.15431E+007    1.13183E+007    1.13183E+007    4.28001E+004   -4.74820E+005    1.17932E+007   -3.62877E+006    1.15169E+007   -1.04885E+005   -2.28747E+005    1.12200E+007    2.16378E+005    2.20581E+005   -1.04655E+006
             650    1.24311E+007    1.22187E+007    1.22187E+007    3.12693E+003   -4.17270E+005    1.26359E+007   -3.93484E+006    1.24150E+007   -6.18771E+003   -3.33709E+005    1.21444E+007    5.69987E+004    9.25174E+004   -9.61241E+005
             651    1.32951E+007    1.29986E+007    1.29986E+007    6.82103E+004   -6.33404E+005    1.36320E+007   -4.14447E+006    1.32533E+007    6.53154E+004   -5.77971E+005    1.29461E+007    4.42123E+004    1.51175E+004   -8.44469E+005
             652    1.40059E+007    1.36545E+007    1.36545E+007    1.24659E+005   -7.83269E+005    1.44378E+007   -4.33197E+006    1.39395E+007    1.24686E+005   -7.53619E+005    1.36248E+007   -7.80069E+003   -4.25729E+004   -6.52457E+005
             653    1.45466E+007    1.41112E+007    1.41112E+007    1.18485E+005   -9.32258E+005    1.50434E+007   -4.43247E+006    1.44608E+007    1.18914E+005   -9.20825E+005    1.40993E+007    1.26789E+003   -7.76032E+004   -4.14545E+005
             654    1.48115E+007    1.43559E+007    1.43559E+007    1.49606E+005   -9.94432E+005    1.53503E+007   -4.50368E+006    1.47116E+007    1.50176E+005   -9.93242E+005    1.43541E+007    2.53213E+003   -9.01700E+004   -1.34955E+005
             655    1.48029E+007    1.43349E+007    1.43349E+007    1.28514E+005   -9.99973E+005    1.53349E+007   -4.48781E+006    1.47057E+007    1.29051E+005   -9.98437E+005    1.43328E+007    4.66109E+003   -8.95419E+004    1.52083E+005
             656    1.44893E+007    1.40802E+007    1.40802E+007    1.38449E+005   -9.00692E+005    1.49809E+007   -4.43933E+006    1.44051E+007    1.38111E+005   -8.88077E+005    1.40680E+007    2.39103E+004   -6.54732E+004    4.23396E+005
             657    1.11389E+007    1.02866E+007    1.02866E+007   -6.86116E+004   -1.49804E+006    1.17846E+007   -2.90664E+006    1.09297E+007   -1.16240E+006   -1.84420E+005    1.00667E+007    4.79311E+005    7.86967E+005   -1.34907E+006
             658    1.17579E+007    1.12325E+007    1.12325E+007   -1.82246E+005   -8.40963E+005    1.20734E+007   -3.40308E+006    1.17163E+007   -4.03171E+005   -4.26393E+005    1.10388E+007    2.55085E+005    5.37060E+005   -1.41453E+006
             659    1.25490E+007    1.21247E+007    1.21247E+007   -1.82897E+005   -6.52488E+005    1.27772E+007   -3.76310E+006    1.25292E+007   -2.00788E+005   -4.86250E+005    1.19763E+007    7.41166E+004    3.83394E+005   -1.31392E+006
             660    1.33616E+007    1.28897E+007    1.28897E+007   -8.46258E+004   -8.28042E+005    1.37178E+007   -3.99236E+006    1.33149E+007   -8.70092E+004   -7.20855E+005    1.27849E+007    5.76189E+004    3.10303E+005   -1.15265E+006
             661    1.40302E+007    1.35495E+007    1.35495E+007    1.81439E+004   -9.31480E+005    1.44809E+007   -4.21204E+006    1.39577E+007    2.35877E+004   -8.76034E+005    1.34886E+007   -5.39429E+003    2.75062E+005   -8.93023E+005
             662    1.45302E+007    1.39890E+007    1.39890E+007    3.90266E+004   -1.05898E+006    1.50480E+007   -4.32302E+006    1.44364E+007    4.36590E+004   -1.03908E+006    1.39645E+007    9.73044E+002    2.57006E+005   -5.45543E+005
             663    1.47630E+007    1.42262E+007    1.42262E+007    9.46800E+004   -1.09612E+006    1.53223E+007   -4.40825E+006    1.46543E+007    9.89944E+004   -1.09463E+006    1.42204E+007   -5.12610E+003    2.47018E+005   -1.50964E+005
             664    1.47437E+007    1.41894E+007    1.41894E+007    6.81979E+004   -1.10639E+006    1.52958E+007   -4.38374E+006    1.46378E+007    7.19093E+004   -1.10160E+006    1.41809E+007   -4.72634E+003    2.31039E+005    2.68936E+005
             665    1.44052E+007    1.39086E+007    1.39086E+007    6.54640E+004   -9.99674E+005    1.49082E+007   -4.32478E+006    1.43162E+007    6.91984E+004   -9.71887E+005    1.38770E+007    9.70375E+003    2.27129E+005    6.42945E+005
             666    1.16388E+007    1.03429E+007    1.03429E+007   -3.44349E+005   -2.05756E+006    1.24004E+007   -2.64698E+006    1.13499E+007   -1.69323E+006   -3.85639E+005    1.00198E+007    4.68819E+005    1.13245E+006   -1.56684E+006
             667    1.20023E+007    1.11705E+007    1.11705E+007   -3.94626E+005   -1.22568E+006    1.23962E+007   -3.18340E+006    1.19373E+007   -7.49519E+005   -5.79803E+005    1.08795E+007    3.03498E+005    8.13070E+005   -1.68374E+006
             668    1.26944E+007    1.20567E+007    1.20567E+007   -3.87348E+005   -8.74019E+005    1.29307E+007   -3.59844E+006    1.26734E+007   -4.15918E+005   -6.23017E+005    1.18343E+007    8.20571E+004    5.57696E+005   -1.58610E+006
             669    1.35426E+007    1.29115E+007    1.29115E+007   -2.76565E+005   -9.59890E+005    1.38714E+007   -3.89168E+006    1.35038E+007   -2.76115E+005   -8.02961E+005    1.27541E+007    4.66217E+004    4.02560E+005   -1.41203E+006
             670    1.42906E+007    1.36735E+007    1.36735E+007   -1.71117E+005   -1.02473E+006    1.46983E+007   -4.15922E+006    1.42330E+007   -1.65024E+005   -9.44192E+005    1.35869E+007   -1.79393E+004    2.90213E+005   -1.08472E+006
             671    1.48729E+007    1.42110E+007    1.42110E+007   -1.70307E+005   -1.10904E+006    1.53201E+007   -4.31056E+006    1.48061E+007   -1.66765E+005   -1.08114E+006    1.41796E+007   -8.48620E+003    2.25563E+005   -6.53051E+005
             672    1.51163E+007    1.44609E+007    1.44609E+007   -1.27598E+005   -1.13310E+006    1.55939E+007   -4.40005E+006    1.50408E+007   -1.24994E+005   -1.13185E+006    1.44570E+007    4.23529E+003    1.96234E+005   -1.37528E+005
             673    1.50406E+007    1.43824E+007    1.43824E+007   -1.43581E+005   -1.12485E+006    1.55072E+007   -4.37132E+006    1.49684E+007   -1.41339E+005   -1.11556E+006    1.43708E+007    2.00289E+004    1.89520E+005    3.74421E+005
             674    1.46069E+007    1.39899E+007    1.39899E+007   -1.24224E+005   -1.06422E+006    1.50541E+007   -4.26716E+006    1.45386E+007   -1.21592E+005   -1.01482E+006    1.39379E+007    3.95945E+004    2.17694E+005    8.54002E+005
             675    1.24584E+007    1.04563E+007    1.04563E+007   -6.17484E+005   -3.03306E+006    1.34893E+007   -2.26858E+006    1.19144E+007   -2.67634E+006   -5.34688E+005    1.00168E+007    3.47642E+005    1.70456E+006   -1.59334E+006
             676    1.24598E+007    1.08789E+007    1.08789E+007   -7.58421E+005   -2.26622E+006    1.31451E+007   -2.61808E+006    1.22520E+007   -1.70103E+006   -8.39998E+005    1.03953E+007    4.04471E+005    1.63365E+006   -1.83517E+006
             677    1.27626E+007    1.15720E+007    1.15720E+007   -7.55933E+005   -1.58500E+006    1.31570E+007   -3.07701E+006    1.27018E+007   -1.04204E+006   -8.63244E+005    1.11363E+007    2.04069E+005    1.42639E+006   -1.86988E+006
             678    1.33398E+007    1.23085E+007    1.23085E+007   -6.10523E+005   -1.41561E+006    1.37241E+007   -3.42746E+006    1.32850E+007   -6.44548E+005   -1.03698E+006    1.19639E+007    1.54988E+005    1.28394E+006   -1.71833E+006
             679    1.38351E+007    1.30000E+007    1.30000E+007   -3.34870E+005   -1.28635E+006    1.42863E+007   -3.79292E+006    1.37612E+007   -2.63721E+005   -1.13295E+006    1.27754E+007    5.21400E+004    1.15545E+006   -1.32777E+006
             680    1.41830E+007    1.34523E+007    1.34523E+007   -1.51349E+005   -1.24653E+006    1.46988E+007   -4.01813E+006    1.40874E+007   -7.43935E+004   -1.20057E+006    1.33294E+007    2.94820E+004    1.06586E+006   -7.57543E+005
             681    1.43343E+007    1.36831E+007    1.36831E+007   -8.20293E+003   -1.21749E+006    1.49006E+007   -4.15247E+006    1.42188E+007    6.53357E+004   -1.21669E+006    1.36088E+007   -3.68487E+003    1.00079E+006   -1.08418E+005
             682    1.42851E+007    1.35917E+007    1.35917E+007   -7.26406E+004   -1.24212E+006    1.48339E+007   -4.09233E+006    1.41768E+007   -3.70335E+003   -1.21710E+006    1.34978E+007   -1.99713E+004    9.89746E+005    5.70974E+005
             683    1.39824E+007    1.32434E+007    1.32434E+007   -1.69193E+005   -1.24643E+006    1.44898E+007   -3.94259E+006    1.38885E+007   -1.06704E+005   -1.14124E+006    1.30757E+007   -3.38127E+004    1.00468E+006    1.15339E+006
             684    1.35875E+007    1.08463E+007    1.08463E+007   -7.74270E+005   -4.09315E+006    1.49395E+007   -1.99297E+006    1.26263E+007   -3.82217E+006   -6.58738E+005    1.04598E+007    1.56741E+005    1.86355E+006   -1.33247E+006
             685    1.38308E+007    1.10904E+007    1.10904E+007   -9.85405E+005   -3.99849E+006    1.50889E+007   -2.03551E+006    1.30613E+007   -3.57599E+006   -8.74660E+005    1.05572E+007    2.92248E+005    2.17445E+006   -1.63135E+006
             686    1.44274E+007    1.17006E+007    1.17006E+007   -1.29281E+006   -3.82541E+006    1.55260E+007   -2.19412E+006    1.39140E+007   -3.33952E+006   -1.16772E+006    1.10896E+007    2.18921E+005    2.39188E+006   -1.75716E+006
             687    1.51955E+007    1.24657E+007    1.24657E+007   -1.46795E+006   -3.73661E+006    1.62023E+007   -2.42037E+006    1.48073E+007   -3.21658E+006   -1.37047E+006    1.18482E+007    1.63040E+005    2.59953E+006   -1.63370E+006
             688    1.58885E+007    1.32110E+007    1.32110E+007   -1.51200E+006   -3.63043E+006    1.68414E+007   -2.68953E+006    1.55660E+007   -3.09476E+006   -1.44916E+006    1.26125E+007    8.29027E+004    2.82321E+006   -1.28245E+006
             689    1.64216E+007    1.37404E+007    1.37404E+007   -1.56696E+006   -3.60514E+006    1.73455E+007   -2.85609E+006    1.61333E+007   -3.06337E+006   -1.54679E+006    1.31784E+007    4.12942E+004    2.97383E+006   -7.45499E+005
             690    1.65675E+007    1.39364E+007    1.39364E+007   -1.59007E+006   -3.50562E+006    1.74420E+007   -2.94691E+006    1.63156E+007   -2.97125E+006   -1.58993E+006    1.34019E+007   -2.80259E+003    3.00576E+006   -4.95404E+004
             691    1.63679E+007    1.37699E+007    1.37699E+007   -1.56586E+006   -3.46447E+006    1.72344E+007   -2.91320E+006    1.61174E+007   -2.93477E+006   -1.55405E+006    1.32284E+007   -5.03174E+004    2.93350E+006    6.44526E+005
             692    1.57509E+007    1.32305E+007    1.32305E+007   -1.50960E+006   -3.36659E+006    1.65971E+007   -2.78478E+006    1.55018E+007   -2.84960E+006   -1.46136E+006    1.26653E+007   -8.98761E+004    2.73893E+006    1.21955E+006
             693    1.94645E+007    1.48828E+007    1.48828E+007   -1.09205E+006   -6.79657E+006    2.16794E+007   -2.33139E+006    1.74296E+007   -6.44575E+006   -1.01408E+006    1.44540E+007    2.34158E+005    2.72457E+006    1.10299E+006
             694    2.08141E+007    1.59371E+007    1.59371E+007   -1.03159E+006   -7.28751E+006    2.32246E+007   -2.53933E+006    1.85149E+007   -6.92761E+006   -1.00749E+006    1.55531E+007    1.41528E+005    2.86467E+006    6.34297E+005
             695    2.13859E+007    1.64150E+007    1.64150E+007   -1.00668E+006   -7.45239E+006    2.38674E+007   -2.65197E+006    1.90090E+007   -7.08952E+006   -1.00666E+006    1.60521E+007    1.48458E+003    2.92047E+006   -1.72560E+004
             696    2.08711E+007    1.59573E+007    1.59573E+007   -1.03966E+006   -7.33742E+006    2.32947E+007   -2.52674E+006    1.85455E+007   -6.97979E+006   -1.01316E+006    1.55732E+007   -1.40055E+005    2.86034E+006   -6.64789E+005
             697    1.95625E+007    1.49055E+007    1.49055E+007   -1.11156E+006   -6.89734E+006    2.18029E+007   -2.29887E+006    1.74763E+007   -6.55102E+006   -1.03165E+006    1.44793E+007   -2.32964E+005    2.71529E+006   -1.11792E+006
             698    1.78775E+007    1.35810E+007    1.35810E+007   -1.16247E+006   -6.30394E+006    1.98849E+007   -2.03818E+006    1.60837E+007   -5.98752E+006   -1.03880E+006    1.31409E+007   -2.56256E+005    2.47474E+006   -1.33068E+006
             699    1.62306E+007    1.22791E+007    1.22791E+007   -1.27192E+006   -5.70854E+006    1.79876E+007   -1.76620E+006    1.47713E+007   -5.43848E+006   -1.13572E+006    1.18728E+007   -2.16350E+005    2.17669E+006   -1.33804E+006
             700    1.51102E+007    1.15210E+007    1.15210E+007   -1.23900E+006   -5.16457E+006    1.66856E+007   -1.70580E+006    1.38917E+007   -4.94449E+006   -1.11907E+006    1.11810E+007   -1.43987E+005    1.89666E+006   -1.22280E+006
             701    1.44853E+007    1.14595E+007    1.14595E+007   -7.49422E+005   -4.54598E+006    1.60055E+007   -2.05471E+006    1.32951E+007   -4.33810E+006   -5.77725E+005    1.10800E+007   -1.89146E+005    1.80162E+006   -1.42600E+006
             702    1.00360E+007    9.60114E+006    9.60114E+006    6.81971E+005   -1.26612E+006    1.08673E+007   -3.00567E+006    9.59671E+006   -1.16555E+006    5.84794E+005    9.59775E+006    4.26450E+005    1.27239E+005   -1.35285E+005
             703    1.00886E+007    9.54712E+006    9.54712E+006    6.66853E+005   -1.42253E+006    1.09696E+007   -2.93048E+006    9.58345E+006   -1.31423E+006    5.89440E+005    9.51624E+006    4.23339E+005    3.68323E+005   -4.19861E+005
             704    1.02570E+007    9.46482E+006    9.46482E+006    5.41806E+005   -1.74137E+006    1.12062E+007   -2.75509E+006    9.66010E+006   -1.61747E+006    5.10261E+005    9.37247E+006    4.02422E+005    6.19170E+005   -7.41046E+005
             705    1.06318E+007    9.45146E+006    9.45146E+006    2.59961E+005   -2.19220E+006    1.16437E+007   -2.50641E+006    9.96532E+006   -2.05352E+006    3.01956E+005    9.27079E+006    3.33024E+005    8.79889E+005   -1.04343E+006
             706    1.12891E+007    9.61338E+006    9.61338E+006   -5.51874E+004   -2.79270E+006    1.24061E+007   -2.25516E+006    1.05026E+007   -2.63119E+006    7.36329E+004    9.32305E+006    2.10015E+005    1.20222E+006   -1.30241E+006
             707    1.22874E+007    1.00787E+007    1.00787E+007   -3.26931E+005   -3.47718E+006    1.35558E+007   -2.09152E+006    1.13241E+007   -3.30135E+006   -1.41151E+005    9.71706E+006    3.98295E+004    1.46787E+006   -1.43609E+006
             708    1.33693E+007    1.08037E+007    1.08037E+007   -4.12900E+005   -3.99041E+006    1.47941E+007   -2.13347E+006    1.22209E+007   -3.80445E+006   -1.78230E+005    1.03831E+007   -1.50621E+005    1.63375E+006   -1.59947E+006
             709    1.04084E+007    1.01224E+007    1.01224E+007    3.03856E+005   -7.89504E+005    1.09119E+007   -3.21226E+006    1.02780E+007   -5.66934E+005    8.56032E+004    1.01181E+007   -4.37531E+005   -1.12873E+005   -1.81580E+005
             710    1.14026E+007    1.10887E+007    1.10887E+007    4.39176E+004   -6.40828E+005    1.17295E+007   -3.49726E+006    1.13562E+007   -1.99954E+005   -3.92857E+005    1.10846E+007   -3.26511E+005   -9.79706E+004   -1.95887E+005
             711    1.23615E+007    1.19996E+007    1.19996E+007    3.13941E+004   -7.20799E+005    1.27204E+007   -3.77007E+006    1.23099E+007    6.14457E+003   -6.92668E+005    1.19967E+007   -1.35799E+005   -8.35841E+004   -1.71749E+005
             712    1.31803E+007    1.26954E+007    1.26954E+007    2.75347E+004   -9.43615E+005    1.36390E+007   -3.92644E+006    1.30994E+007    2.08764E+004   -9.34989E+005    1.26934E+007   -8.26478E+004   -8.63847E+004   -1.37653E+005
             713    1.04892E+007    1.01077E+007    1.01077E+007    2.23391E+005   -8.96454E+005    1.10042E+007   -3.14488E+006    1.03534E+007   -6.77956E+005    3.96742E+004    1.00729E+007   -4.23603E+005   -2.95232E+005   -5.29637E+005
             714    1.14560E+007    1.10768E+007    1.10768E+007   -1.23802E+004   -7.13873E+005    1.17907E+007   -3.45018E+006    1.14076E+007   -2.75954E+005   -4.19332E+005    1.10458E+007   -3.30666E+005   -2.11798E+005   -5.63225E+005
             715    1.24059E+007    1.19904E+007    1.19904E+007   -1.65347E+004   -7.79175E+005    1.27696E+007   -3.73157E+006    1.23530E+007   -4.30261E+004   -7.30894E+005    1.19686E+007   -1.37868E+005   -1.36136E+005   -5.09065E+005
             716    1.32379E+007    1.27160E+007    1.27160E+007   -1.43035E+004   -9.76941E+005    1.36930E+007   -3.90826E+006    1.31588E+007   -2.06531E+004   -9.58837E+005    1.27043E+007   -7.96204E+004   -1.00960E+005   -3.87650E+005
             717    1.06688E+007    1.00893E+007    1.00893E+007    7.51685E+004   -1.13156E+006    1.12208E+007   -3.01096E+006    1.05136E+007   -9.23610E+005   -3.16688E+004    9.98817E+006   -3.85400E+005   -5.65969E+005   -8.73038E+005
             718    1.15796E+007    1.10164E+007    1.10164E+007   -1.63420E+005   -9.25397E+005    1.19418E+007   -3.30919E+006    1.15230E+007   -4.76878E+005   -5.19504E+005    1.09240E+007   -3.40307E+005   -4.85433E+005   -9.24915E+005
             719    1.24408E+007    1.19095E+007    1.19095E+007   -1.23775E+005   -9.02189E+005    1.28117E+007   -3.62786E+006    1.23858E+007   -1.54695E+005   -8.04369E+005    1.18426E+007   -1.52117E+005   -3.87124E+005   -8.37057E+005
             720    1.32288E+007    1.26203E+007    1.26203E+007   -8.72403E+004   -1.07444E+006    1.36947E+007   -3.81953E+006    1.31455E+007   -8.89160E+004   -1.02958E+006    1.25771E+007   -8.75524E+004   -3.54302E+005   -6.76661E+005
             721    1.10873E+007    1.01743E+007    1.01743E+007   -2.04561E+005   -1.50648E+006    1.16807E+007   -2.82107E+006    1.09133E+007   -1.30365E+006   -2.22240E+005    9.98910E+006   -3.28190E+005   -8.13449E+005   -1.17408E+006
             722    1.18538E+007    1.10534E+007    1.10534E+007   -3.67881E+005   -1.19022E+006    1.22436E+007   -3.16509E+006    1.17894E+007   -7.98530E+005   -5.96873E+005    1.08907E+007   -3.35641E+005   -7.18999E+005   -1.19770E+006
             723    1.26377E+007    1.18917E+007    1.18917E+007   -3.85230E+005   -1.07833E+006    1.29700E+007   -3.47604E+006    1.25949E+007   -4.34645E+005   -9.02625E+005    1.17654E+007   -1.65032E+005   -5.78877E+005   -1.13372E+006
             724    1.34682E+007    1.26763E+007    1.26763E+007   -3.54662E+005   -1.19026E+006    1.38665E+007   -3.71045E+006    1.34097E+007   -3.50627E+005   -1.11074E+006    1.25927E+007   -7.98390E+004   -5.18003E+005   -9.34792E+005
             725    1.17375E+007    1.03772E+007    1.03772E+007   -4.92343E+005   -2.06887E+006    1.24461E+007   -2.60533E+006    1.14957E+007   -1.87059E+006   -4.05053E+005    1.00916E+007   -2.16576E+005   -1.19059E+006   -1.37404E+006
             726    1.21579E+007    1.09345E+007    1.09345E+007   -6.45660E+005   -1.72863E+006    1.26631E+007   -2.85340E+006    1.20486E+007   -1.35043E+006   -7.44504E+005    1.06551E+007   -3.29350E+005   -1.19253E+006   -1.41369E+006
             727    1.27772E+007    1.17138E+007    1.17138E+007   -6.93828E+005   -1.40338E+006    1.31172E+007   -3.20555E+006    1.27328E+007   -8.10761E+005   -1.03164E+006    1.14590E+007   -2.00995E+005   -1.08370E+006   -1.44990E+006
             728    1.34722E+007    1.24561E+007    1.24561E+007   -5.91384E+005   -1.40405E+006    1.38602E+007   -3.48690E+006    1.34169E+007   -5.67087E+005   -1.23798E+006    1.22658E+007   -1.11171E+005   -1.02490E+006   -1.23439E+006
             729    1.25017E+007    1.05571E+007    1.05571E+007   -8.56889E+005   -2.80386E+006    1.33610E+007   -2.29879E+006    1.21536E+007   -2.63609E+006   -7.28601E+005    1.02611E+007   -7.83283E+004   -1.36894E+006   -1.32652E+006
             730    1.29664E+007    1.10897E+007    1.10897E+007   -8.95862E+005   -2.67398E+006    1.37636E+007   -2.50661E+006    1.26877E+007   -2.41254E+006   -7.94425E+005    1.07268E+007   -2.02526E+005   -1.54647E+006   -1.50876E+006
             731    1.37834E+007    1.19300E+007    1.19300E+007   -1.24691E+006   -2.38889E+006    1.43189E+007   -2.76473E+006    1.36764E+007   -2.05066E+006   -1.20503E+006    1.15499E+007   -1.83738E+005   -1.67880E+006   -1.55318E+006
             732    1.45328E+007    1.26912E+007    1.26912E+007   -1.42649E+006   -2.22379E+006    1.49150E+007   -3.01365E+006    1.44835E+007   -1.88771E+006   -1.41068E+006    1.23393E+007   -1.09756E+005   -1.80217E+006   -1.36290E+006
             733    1.26357E+007    1.02915E+007    1.02915E+007   -9.66728E+005   -3.37507E+006    1.36665E+007   -1.98323E+006    1.21031E+007   -3.21579E+006   -7.20774E+005    9.88624E+006    1.06561E+005   -1.44335E+006   -1.65110E+006
             734    1.37377E+007    1.12487E+007    1.12487E+007   -1.36843E+006   -3.38630E+006    1.46350E+007   -2.16467E+006    1.33982E+007   -3.20686E+006   -1.16124E+006    1.08621E+007    4.90320E+004   -1.56121E+006   -1.63958E+006
             735    1.46573E+007    1.21239E+007    1.21239E+007   -1.45663E+006   -3.41352E+006    1.55374E+007   -2.41791E+006    1.43589E+007   -3.20161E+006   -1.27034E+006    1.17257E+007    5.24512E+004   -1.75139E+006   -1.62268E+006
             736    1.58253E+007    1.32664E+007    1.32664E+007   -1.46621E+006   -3.46217E+006    1.67286E+007   -2.77935E+006    1.55384E+007   -3.22269E+006   -1.32790E+006    1.28887E+007    8.36851E+004   -1.96236E+006   -1.44098E+006
             737    1.69318E+007    1.28002E+007    1.28002E+007   -1.57236E+006   -5.86468E+006    1.86649E+007   -1.78772E+006    1.56359E+007   -5.60957E+006   -1.38436E+006    1.23571E+007    3.22585E+005   -2.13900E+006   -1.62353E+006
             738    1.54062E+007    1.15181E+007    1.15181E+007   -1.67636E+006   -5.41265E+006    1.69308E+007   -1.47637E+006    1.43327E+007   -5.16928E+006   -1.46612E+006    1.10645E+007    2.93869E+005   -1.99251E+006   -1.63810E+006
             739    1.39633E+007    1.02133E+007    1.02133E+007   -1.83973E+006   -5.08777E+006    1.53011E+007   -1.09528E+006    1.30722E+007   -4.86201E+006   -1.64614E+006    9.79398E+006    2.14798E+005   -1.83182E+006   -1.50129E+006
             740    1.37385E+007    9.96535E+006    9.96535E+006   -2.36160E+006   -4.84577E+006    1.48111E+007   -9.19329E+005    1.32190E+007   -4.62161E+006   -2.23002E+006    9.60962E+006    3.23814E+004   -1.77375E+006   -1.30294E+006
             741    9.73882E+006    9.20535E+006    9.20535E+006    4.90458E+005   -1.30698E+006    1.05123E+007   -2.79628E+006    9.35465E+006   -1.21221E+006    3.98918E+005    9.20213E+006   -3.96698E+005   -1.34870E+005   -1.19261E+005
             742    9.79717E+006    9.14901E+006    9.14901E+006    4.53317E+005   -1.46568E+006    1.06147E+007   -2.71221E+006    9.36021E+006   -1.36449E+006    3.86173E+005    9.11496E+006   -3.80059E+005   -4.08276E+005   -4.13717E+005
             743    1.00203E+007    9.09827E+006    9.09827E+006    2.62982E+005   -1.78934E+006    1.08876E+007   -2.52397E+006    9.53010E+006   -1.67618E+006    2.49262E+005    8.99884E+006   -3.31713E+005   -6.69425E+005   -7.35628E+005
             744    1.04770E+007    9.16369E+006    9.16369E+006   -4.00552E+004   -2.23784E+006    1.14015E+007   -2.29526E+006    9.93828E+006   -2.10756E+006    3.70071E+004    8.95635E+006   -2.41833E+005   -9.38084E+005   -1.10602E+006
             745    1.13407E+007    9.47287E+006    9.47287E+006   -5.65332E+005   -2.82897E+006    1.23018E+007   -2.02619E+006    1.08148E+007   -2.67926E+006   -3.82600E+005    9.14043E+006   -1.12814E+005   -1.19858E+006   -1.46406E+006
             746    1.25659E+007    1.02700E+007    1.02700E+007   -9.09760E+005   -3.32997E+006    1.36000E+007   -2.01009E+006    1.20246E+007   -3.15740E+006   -6.31579E+005    9.81925E+006    3.28795E+004   -1.45742E+006   -1.78232E+006
             747    1.38592E+007    1.08909E+007    1.08909E+007   -1.67121E+006   -3.97621E+006    1.48672E+007   -1.74784E+006    1.34177E+007   -3.75816E+006   -1.46598E+006    1.04677E+007    1.78979E+004   -1.71774E+006   -1.65363E+006
             748    1.85132E+007    1.41733E+007    1.41733E+007   -1.41973E+006   -6.28738E+006    2.04607E+007   -2.15539E+006    1.69816E+007   -6.03655E+006   -1.30445E+006    1.38072E+007    2.79265E+005   -2.22923E+006   -1.33305E+006
             749    1.96354E+007    1.51555E+007    1.51555E+007   -1.29901E+006   -6.58045E+006    2.17360E+007   -2.42535E+006    1.79300E+007   -6.33885E+006   -1.26128E+006    1.48762E+007    1.67630E+005   -2.27047E+006   -7.87448E+005
             750    2.01149E+007    1.55983E+007    1.55983E+007   -1.23162E+006   -6.67940E+006    2.22777E+007   -2.56242E+006    1.83419E+007   -6.44391E+006   -1.23162E+006    1.53628E+007    2.79175E+003   -2.27829E+006   -1.21879E+003
             751    1.96710E+007    1.51731E+007    1.51731E+007   -1.29121E+006   -6.61057E+006    2.17837E+007   -2.42379E+006    1.79429E+007   -6.37003E+006   -1.25379E+006    1.48952E+007   -1.61611E+005   -2.26887E+006    7.83438E+005
             752    1.85226E+007    1.41258E+007    1.41258E+007   -1.43508E+006   -6.36215E+006    2.04880E+007   -2.10953E+006    1.69517E+007   -6.11231E+006   -1.31574E+006    1.37566E+007   -2.82048E+005   -2.22609E+006    1.35436E+006
             753    1.70068E+007    1.27956E+007    1.27956E+007   -1.59569E+006   -5.97157E+006    1.87672E+007   -1.74279E+006    1.56634E+007   -5.71630E+006   -1.40717E+006    1.23518E+007   -3.29950E+005   -2.14401E+006    1.62768E+006
             754    1.54696E+007    1.14219E+007    1.14219E+007   -1.81101E+006   -5.58567E+006    1.70076E+007   -1.34173E+006    1.43776E+007   -5.33834E+006   -1.59344E+006    1.09570E+007   -3.07078E+005   -2.01112E+006    1.66866E+006
             755    1.44422E+007    1.05612E+007    1.05612E+007   -2.03971E+006   -5.19911E+006    1.57603E+007   -1.10747E+006    1.36317E+007   -4.95978E+006   -1.82019E+006    1.01024E+007   -2.07546E+005   -1.91366E+006    1.63553E+006
             756    1.42310E+007    1.06933E+007    1.06933E+007   -1.78236E+006   -4.80671E+006    1.55000E+007   -1.36809E+006    1.34792E+007   -4.57593E+006   -1.49937E+006    1.01796E+007   -1.44415E+005   -1.85015E+006    1.86148E+006
             757    1.68843E+007    1.42266E+007    1.42266E+007   -1.50478E+006   -3.61272E+006    1.78393E+007   -3.03637E+006    1.65844E+007   -3.35001E+006   -1.42720E+006    1.38863E+007    7.71636E+004   -2.13741E+006   -1.11224E+006
             758    1.52356E+007    1.33704E+007    1.33704E+007   -1.57816E+006   -2.13692E+006    1.55073E+007   -3.21843E+006    1.52125E+007   -1.80429E+006   -1.60036E+006    1.30599E+007   -7.62627E+004   -1.93584E+006   -9.84524E+005
             759    1.40256E+007    1.30131E+007    1.30131E+007   -4.45621E+005   -1.51782E+006    1.45309E+007   -3.68322E+006    1.39329E+007   -3.87740E+005   -1.45045E+006    1.28879E+007   -6.28553E+004   -9.88169E+005   -8.75073E+005
             760    1.40895E+007    1.32334E+007    1.32334E+007   -2.94743E+005   -1.35731E+006    1.45907E+007   -3.86046E+006    1.39990E+007   -2.81220E+005   -1.32782E+006    1.31904E+007   -3.96101E+004   -4.80093E+005   -6.16194E+005
             761    1.37967E+007    1.31187E+007    1.31187E+007   -2.05765E+002   -1.26836E+006    1.43870E+007   -3.95003E+006    1.36647E+007    5.98420E+003   -1.25289E+006    1.30970E+007   -4.51046E+004   -3.37327E+005   -4.33105E+005
             762    1.38063E+007    1.31962E+007    1.31962E+007    3.82143E+004   -1.17793E+006    1.43741E+007   -4.01883E+006    1.36850E+007    3.73881E+004   -1.17259E+006    1.31917E+007   -3.68381E+004   -6.97931E+004   -2.44128E+005
             763    1.37299E+007    1.31567E+007    1.31567E+007    8.28092E+004   -1.14660E+006    1.43033E+007   -4.03097E+006    1.36053E+007    8.22293E+004   -1.14490E+006    1.31556E+007   -3.84656E+004   -9.29766E+004   -8.12718E+004
             764    1.76628E+007    1.49574E+007    1.49574E+007   -1.48600E+006   -3.71343E+006    1.86709E+007   -3.25267E+006    1.73426E+007   -3.43627E+006   -1.46549E+006    1.46598E+007    5.19942E+004   -2.25595E+006   -5.80705E+005
             765    1.56734E+007    1.37868E+007    1.37868E+007   -1.69313E+006   -2.07317E+006    1.58600E+007   -3.34016E+006    1.56630E+007   -1.78312E+006   -1.70225E+006    1.35058E+007   -2.94865E+004   -2.03540E+006   -4.83626E+005
             766    1.43238E+007    1.33425E+007    1.33425E+007   -3.62898E+005   -1.52846E+006    1.48710E+007   -3.81705E+006    1.42165E+007   -2.93216E+005   -1.51698E+006    1.32613E+007   -1.85865E+004   -9.87078E+005   -3.81105E+005
             767    1.44388E+007    1.35514E+007    1.35514E+007   -2.87477E+005   -1.42053E+006    1.49719E+007   -3.94779E+006    1.43382E+007   -2.71305E+005   -1.41648E+006    1.35312E+007   -4.17718E+003   -4.74745E+005   -2.42384E+005
             768    1.40469E+007    1.33508E+007    1.33508E+007    2.30784E+004   -1.31891E+006    1.46697E+007   -4.01832E+006    1.39015E+007    3.17395E+004   -1.31716E+006    1.33404E+007   -1.12337E+004   -3.42962E+005   -1.52494E+005
             769    1.40732E+007    1.34288E+007    1.34288E+007    3.64910E+004   -1.23853E+006    1.46674E+007   -4.07560E+006    1.39424E+007    3.67225E+004   -1.23814E+006    1.34282E+007   -5.11892E+003   -5.84022E+004   -7.30103E+004
             770    1.39671E+007    1.33604E+007    1.33604E+007    8.26458E+004   -1.20661E+006    1.45670E+007   -4.07882E+006    1.38323E+007    8.33841E+004   -1.20651E+006    1.33596E+007   -7.15360E+003   -1.01794E+005   -2.82892E+004
             771    1.79468E+007    1.51815E+007    1.51815E+007   -1.50652E+006   -3.80301E+006    1.89845E+007   -3.29065E+006    1.76117E+007   -3.52160E+006   -1.50641E+006    1.49000E+007   -1.19427E+003   -2.29416E+006    4.41120E+004
             772    1.58357E+007    1.39125E+007    1.39125E+007   -1.73411E+006   -2.10573E+006    1.60183E+007   -3.35756E+006    1.58259E+007   -1.82894E+006   -1.73398E+006    1.36356E+007    8.59363E+002   -2.08489E+006    1.11650E+005
             773    1.43878E+007    1.33845E+007    1.33845E+007   -3.74618E+005   -1.55873E+006    1.49432E+007   -3.81705E+006    1.42775E+007   -3.01832E+005   -1.55701E+006    1.33100E+007    1.06297E+004   -1.00059E+006    1.42973E+005
             774    1.44817E+007    1.35751E+007    1.35751E+007   -3.03121E+005   -1.44278E+006    1.50179E+007   -3.94307E+006    1.43803E+007   -2.87013E+005   -1.44056E+006    1.35568E+007    1.15306E+004   -4.76396E+005    1.71777E+005
             775    1.40532E+007    1.33407E+007    1.33407E+007    2.04557E+004   -1.34573E+006    1.46864E+007   -4.00514E+006    1.39026E+007    2.92826E+004   -1.34415E+006    1.33303E+007    1.28205E+004   -3.46627E+005    1.42942E+005
             776    1.40616E+007    1.34084E+007    1.34084E+007    3.39316E+004   -1.25208E+006    1.46604E+007   -4.06340E+006    1.39284E+007    3.39659E+004   -1.25124E+006    1.34075E+007    1.47714E+004   -5.33950E+004    9.86614E+004
             777    1.39442E+007    1.33313E+007    1.33313E+007    8.37224E+004   -1.21829E+006    1.45496E+007   -4.06558E+006    1.38065E+007    8.43439E+004   -1.21799E+006    1.33304E+007    1.65321E+004   -1.05394E+005    3.47121E+004
             778    1.76655E+007    1.49171E+007    1.49171E+007   -1.48612E+006   -3.78553E+006    1.87027E+007   -3.21516E+006    1.73241E+007   -3.50959E+006   -1.45709E+006    1.46121E+007   -5.68801E+004   -2.25180E+006    6.91586E+005
             779    1.56430E+007    1.37123E+007    1.37123E+007   -1.66875E+006   -2.18010E+006    1.58924E+007   -3.28783E+006    1.56242E+007   -1.87752E+006   -1.67005E+006    1.34110E+007    3.17639E+004   -2.06177E+006    6.67578E+005
             780    1.41839E+007    1.31794E+007    1.31794E+007   -4.33647E+005   -1.51351E+006    1.46929E+007   -3.74410E+006    1.40910E+007   -3.62063E+005   -1.47577E+006    1.30701E+007    3.82148E+004   -1.03316E+006    6.71402E+005
             781    1.42087E+007    1.33365E+007    1.33365E+007   -3.21939E+005   -1.36512E+006    1.47016E+007   -3.88314E+006    1.41222E+007   -3.06144E+005   -1.34242E+006    1.32980E+007    2.97111E+004   -4.97410E+005    5.47710E+005
             782    1.37815E+007    1.31143E+007    1.31143E+007   -2.92397E+003   -1.24714E+006    1.43615E+007   -3.95475E+006    1.36543E+007    5.02370E+003   -1.23267E+006    1.30919E+007    3.79249E+004   -3.60549E+005    4.24570E+005
             783    1.37715E+007    1.31719E+007    1.31719E+007    2.13094E+004   -1.14616E+006    1.43180E+007   -4.01568E+006    1.36595E+007    2.03315E+004   -1.14018E+006    1.31669E+007    3.77063E+004   -6.54216E+004    2.58856E+005
             784    1.36517E+007    1.30965E+007    1.30965E+007    7.01375E+004   -1.10465E+006    1.42011E+007   -4.02066E+006    1.35373E+007    6.93938E+004   -1.10253E+006    1.30951E+007    4.24560E+004   -1.04846E+005    8.73772E+004
             785    1.68841E+007    1.41571E+007    1.41571E+007   -1.48277E+006   -3.74356E+006    1.79006E+007   -2.97691E+006    1.65384E+007   -3.48373E+006   -1.39288E+006    1.38073E+007   -8.75083E+004   -2.12960E+006    1.18960E+006
             786    1.51855E+007    1.32215E+007    1.32215E+007   -1.56293E+006   -2.33554E+006    1.55570E+007   -3.10768E+006    1.51412E+007   -1.99774E+006   -1.55422E+006    1.28750E+007    8.47954E+004   -1.98079E+006    1.15593E+006
             787    1.37588E+007    1.27086E+007    1.27086E+007   -5.77618E+005   -1.47845E+006    1.41871E+007   -3.55086E+006    1.36922E+007   -5.30611E+005   -1.35425E+006    1.25374E+007    9.99771E+004   -1.07721E+006    1.09213E+006
             788    1.37016E+007    1.28582E+007    1.28582E+007   -3.68522E+005   -1.27351E+006    1.41317E+007   -3.73871E+006    1.36341E+007   -3.61781E+005   -1.20546E+006    1.27834E+007    7.86057E+004   -5.27578E+005    8.72439E+005
             789    1.33074E+007    1.26729E+007    1.26729E+007   -6.25512E+004   -1.14086E+006    1.38138E+007   -3.82316E+006    1.32086E+007   -6.27623E+004   -1.09853E+006    1.26308E+007    9.05498E+004   -3.75187E+005    6.56731E+005
             790    1.32678E+007    1.27295E+007    1.27295E+007   -2.31073E+003   -1.01611E+006    1.37456E+007   -3.90371E+006    1.31803E+007   -9.19668E+003   -9.97224E+005    1.27175E+007    8.40455E+004   -8.59608E+004    3.96408E+005
             791    1.31541E+007    1.26651E+007    1.26651E+007    4.66707E+004   -9.66083E+005    1.36312E+007   -3.91524E+006    1.30660E+007    3.93016E+004   -9.56603E+005    1.26630E+007    8.95272E+004   -1.00488E+005    1.34323E+005
             792    1.58152E+007    1.31352E+007    1.31352E+007   -1.47528E+006   -3.65799E+006    1.67932E+007   -2.66730E+006    1.54709E+007   -3.42179E+006   -1.31676E+006    1.27405E+007   -1.08492E+005   -1.95788E+006    1.52291E+006
             793    1.44522E+007    1.25155E+007    1.25155E+007   -1.36635E+006   -2.44644E+006    1.49620E+007   -2.90092E+006    1.43610E+007   -2.12434E+006   -1.30426E+006    1.21313E+007    1.08648E+005   -1.85499E+006    1.44945E+006
             794    1.31742E+007    1.21016E+007    1.21016E+007   -7.28605E+005   -1.39156E+006    1.34931E+007   -3.32714E+006    1.31366E+007   -7.55998E+005   -1.12731E+006    1.18647E+007    1.43098E+005   -1.13102E+006    1.36055E+006
             795    1.30022E+007    1.22145E+007    1.22145E+007   -4.40993E+005   -1.10869E+006    1.33232E+007   -3.55494E+006    1.29636E+007   -4.62004E+005   -9.72298E+005    1.20991E+007    1.22895E+005   -5.82239E+005    1.08671E+006
             796    1.26544E+007    1.20910E+007    1.20910E+007   -1.51390E+005   -9.38649E+005    1.30297E+007   -3.66700E+006    1.25992E+007   -1.73036E+005   -8.52044E+005    1.20261E+007    1.35733E+005   -4.06169E+005    8.20937E+005
             797    1.25740E+007    1.21310E+007    1.21310E+007   -5.46704E+004   -7.98396E+005    1.29294E+007   -3.75930E+006    1.25244E+007   -7.97308E+004   -7.53306E+005    1.21110E+007    1.32508E+005   -1.23595E+005    4.93200E+005
             798    1.24731E+007    1.20865E+007    1.20865E+007   -2.67438E+003   -7.38123E+005    1.28246E+007   -3.78189E+006    1.24242E+007   -2.96237E+004   -7.08280E+005    1.20836E+007    1.38758E+005   -9.65921E+004    1.65931E+005
             799    1.46869E+007    1.20617E+007    1.20617E+007   -1.40733E+006   -3.59709E+006    1.56588E+007   -2.35244E+006    1.43127E+007   -3.38929E+006   -1.20105E+006    1.16477E+007   -8.84590E+004   -1.75849E+006    1.67437E+006
             800    1.36941E+007    1.17443E+007    1.17443E+007   -1.14844E+006   -2.63057E+006    1.43749E+007   -2.65509E+006    1.35119E+007   -2.32259E+006   -1.06517E+006    1.13530E+007    1.75033E+005   -1.72430E+006    1.53928E+006
             801    1.25822E+007    1.14037E+007    1.14037E+007   -7.67242E+005   -1.55296E+006    1.29566E+007   -3.02782E+006    1.25268E+007   -1.06667E+006   -9.66887E+005    1.11170E+007    2.52505E+005   -1.19780E+006    1.48093E+006
             802    1.22608E+007    1.14766E+007    1.14766E+007   -4.44343E+005   -1.09788E+006    1.25745E+007   -3.31147E+006    1.22215E+007   -6.01589E+005   -7.86264E+005    1.13223E+007    2.33175E+005   -6.60871E+005    1.21651E+006
             803    1.19291E+007    1.13865E+007    1.13865E+007   -1.81417E+005   -8.73618E+005    1.22601E+007   -3.44383E+006    1.18838E+007   -2.97634E+005   -6.70385E+005    1.12995E+007    2.38383E+005   -4.54266E+005    9.23532E+005
             804    1.17901E+007    1.14168E+007    1.14168E+007   -4.27186E+004   -6.78172E+005    1.20950E+007   -3.56531E+006    1.17515E+007   -1.45318E+005   -5.46670E+005    1.13879E+007    2.28077E+005   -1.69271E+005    5.65474E+005
             805    1.16814E+007    1.13754E+007    1.13754E+007    1.45245E+004   -6.01968E+005    1.19774E+007   -3.59600E+006    1.16447E+007   -9.18349E+004   -4.91801E+005    1.13716E+007    2.32071E+005   -9.73899E+004    1.89997E+005
             806    1.36395E+007    1.11390E+007    1.11390E+007   -1.13356E+006   -3.54555E+006    1.46846E+007   -2.15331E+006    1.31468E+007   -3.36636E+006   -9.09596E+005    1.07359E+007   -1.34498E+005   -1.59537E+006    1.64143E+006
             807    1.30857E+007    1.10859E+007    1.10859E+007   -9.32743E+005   -2.85432E+006    1.39402E+007   -2.43294E+006    1.27624E+007   -2.63014E+006   -8.08314E+005    1.07373E+007    1.35058E+005   -1.54838E+006    1.45302E+006
             808    1.20813E+007    1.07513E+007    1.07513E+007   -6.42152E+005   -1.91670E+006    1.26680E+007   -2.73082E+006    1.19286E+007   -1.60647E+006   -6.49740E+005    1.04487E+007    2.99419E+005   -1.26423E+006    1.43583E+006
             809    1.15974E+007    1.07097E+007    1.07097E+007   -3.60418E+005   -1.35137E+006    1.20610E+007   -2.99930E+006    1.15015E+007   -1.02421E+006   -5.06774E+005    1.05289E+007    3.64362E+005   -7.81874E+005    1.22515E+006
             810    1.12049E+007    1.06111E+007    1.06111E+007   -1.12799E+005   -1.01967E+006    1.16308E+007   -3.15956E+006    1.11219E+007   -6.68146E+005   -3.59810E+005    1.05066E+007    3.90307E+005   -5.52343E+005    9.40415E+005
             811    1.10098E+007    1.06210E+007    1.06210E+007    5.56172E+004   -7.84955E+005    1.14059E+007   -3.29722E+006    1.09372E+007   -4.38997E+005   -2.55398E+005    1.05860E+007    4.00181E+005   -2.51670E+005    5.72437E+005
             812    1.08894E+007    1.05885E+007    1.05885E+007    1.35102E+005   -6.89847E+005    1.12784E+007   -3.34460E+006    1.08187E+007   -3.56460E+005   -1.93641E+005    1.05839E+007    4.02599E+005   -1.15220E+005    1.96446E+005
             813    1.30899E+007    1.05259E+007    1.05259E+007   -1.23622E+006   -3.57629E+006    1.41022E+007   -1.90445E+006    1.26064E+007   -3.40004E+006   -1.01396E+006    1.01274E+007   -1.49260E+005   -1.55226E+006    1.59635E+006
             814    1.25123E+007    1.05092E+007    1.05092E+007   -8.40343E+005   -2.90821E+006    1.34174E+007   -2.25354E+006    1.21189E+007   -2.74758E+006   -6.49154E+005    1.01574E+007    1.74740E+004   -1.37783E+006    1.52750E+006
             815    1.16193E+007    1.01355E+007    1.01355E+007   -5.40387E+005   -2.23995E+006    1.23755E+007   -2.45173E+006    1.13346E+007   -2.06058E+006   -4.27609E+005    9.84338E+006    1.78500E+005   -1.20159E+006    1.37223E+006
             816    1.09342E+007    9.95175E+006    9.95175E+006   -1.63746E+005   -1.64923E+006    1.16010E+007   -2.71293E+006    1.07036E+007   -1.46700E+006   -1.52910E+005    9.75869E+006    3.16692E+005   -8.52846E+005    1.16647E+006
             817    1.04929E+007    9.84313E+006    9.84313E+006    1.06475E+005   -1.27008E+006    1.11132E+007   -2.89318E+006    1.02868E+007   -1.08563E+006    2.51944E+004    9.73996E+006    3.85025E+005   -6.03039E+005    8.49060E+005
             818    1.02512E+007    9.83854E+006    9.83854E+006    3.03384E+005   -1.00336E+006    1.08419E+007   -3.04619E+006    1.00612E+007   -8.16003E+005    1.51605E+005    9.80296E+006    4.32909E+005   -3.23188E+005    5.12373E+005
             819    1.01643E+007    9.84867E+006    9.84867E+006    3.80268E+005   -8.91739E+005    1.07404E+007   -3.11240E+006    9.98285E+006   -7.02802E+005    1.95340E+005    9.84466E+006    4.49191E+005   -1.20964E+005    1.64110E+005
             820    9.68343E+006    9.12562E+006    9.12562E+006    5.07378E+005   -1.35304E+006    1.04787E+007   -2.75999E+006    9.26846E+006   -1.26372E+006    4.21709E+005    9.12198E+006    3.92038E+005   -1.40017E+005    1.28830E+005
             821    9.76947E+006    9.07931E+006    9.07931E+006    4.40551E+005   -1.52270E+006    1.06020E+007   -2.66572E+006    9.31000E+006   -1.42457E+006    3.76493E+005    9.04524E+006    3.75736E+005   -4.19757E+005    4.02717E+005
             822    1.00117E+007    9.03332E+006    9.03332E+006    2.34848E+005   -1.86003E+006    1.08933E+007   -2.46938E+006    9.49958E+006   -1.74743E+006    2.22839E+005    8.93273E+006    3.28786E+005   -6.84500E+005    7.29913E+005
             823    1.04901E+007    9.07238E+006    9.07238E+006   -1.38040E+005   -2.34591E+006    1.14183E+007   -2.19614E+006    9.94696E+006   -2.21477E+006   -7.11008E+004    8.87430E+006    2.41124E+005   -9.52186E+005    1.05768E+006
             824    1.12554E+007    9.30992E+006    9.30992E+006   -5.71797E+005   -2.94177E+006    1.22517E+007   -1.93212E+006    1.06721E+007   -2.79290E+006   -4.08188E+005    8.99743E+006    1.12530E+005   -1.20774E+006    1.37700E+006
             825    1.22100E+007    9.72024E+006    9.72024E+006   -1.00539E+006   -3.56746E+006    1.32877E+007   -1.71580E+006    1.15818E+007   -3.39866E+006   -7.63392E+005    9.30944E+006   -1.89152E+004   -1.42931E+006    1.63321E+006
             826    1.33918E+007    1.03583E+007    1.03583E+007   -1.37115E+006   -4.23305E+006    1.45914E+007   -1.58471E+006    1.26761E+007   -4.02964E+006   -1.05356E+006    9.83734E+006   -1.24149E+005   -1.67633E+006    1.91332E+006
             827    1.37502E+007    9.97048E+006    9.97048E+006   -2.37760E+006   -4.84710E+006    1.48176E+007   -9.15261E+005    1.32374E+007   -4.62218E+006   -2.24556E+006    9.61352E+006    3.07042E+004    1.77599E+006    1.30780E+006
             828    1.39269E+007    1.01719E+007    1.01719E+007   -1.86169E+006   -5.08365E+006    1.52555E+007   -1.07551E+006    1.30483E+007   -4.85833E+006   -1.67164E+006    9.75650E+006    2.07635E+005    1.82787E+006    1.48679E+006
             829    1.53651E+007    1.14864E+007    1.14864E+007   -1.68165E+006   -5.39514E+006    1.68815E+007   -1.46987E+006    1.43022E+007   -5.15270E+006   -1.47227E+006    1.10346E+007    2.91902E+005    1.98600E+006    1.63312E+006
             830    1.69106E+007    1.27893E+007    1.27893E+007   -1.56712E+006   -5.85142E+006    1.86407E+007   -1.79025E+006    1.56180E+007   -5.59687E+006   -1.38025E+006    1.23479E+007    3.21454E+005    2.13536E+006    1.61785E+006
             831    1.57933E+007    1.32525E+007    1.32525E+007   -1.46745E+006   -3.43053E+006    1.66831E+007   -2.78485E+006    1.55152E+007   -3.19098E+006   -1.32918E+006    1.28747E+007    7.95094E+004    1.95788E+006    1.44307E+006
             832    1.44838E+007    1.26648E+007    1.26648E+007   -1.41731E+006   -2.18978E+006    1.48545E+007   -3.01923E+006    1.44373E+007   -1.85007E+006   -1.40826E+006    1.23160E+007   -1.12504E+005    1.78477E+006    1.36270E+006
             833    1.34502E+007    1.24521E+007    1.24521E+007   -5.61720E+005   -1.39560E+006    1.38477E+007   -3.49826E+006    1.33918E+007   -5.39403E+005   -1.23195E+006    1.22661E+007   -1.13885E+005    1.00150E+006    1.22874E+006
             834    1.34654E+007    1.26788E+007    1.26788E+007   -3.47000E+005   -1.18689E+006    1.38657E+007   -3.71497E+006    1.34063E+007   -3.43311E+005   -1.10948E+006    1.25977E+007   -7.94499E+004    5.06439E+005    9.23193E+005
             835    1.32187E+007    1.26147E+007    1.26147E+007   -8.36052E+004   -1.06922E+006    1.36839E+007   -3.82062E+006    1.31356E+007   -8.55303E+004   -1.02506E+006    1.25724E+007   -8.77880E+004    3.49173E+005    6.69560E+005
             836    1.32311E+007    1.27110E+007    1.27110E+007   -1.42062E+004   -9.73738E+005    1.36848E+007   -3.90770E+006    1.31525E+007   -2.05597E+004   -9.55821E+005    1.26995E+007   -7.93419E+004    9.78058E+004    3.85003E+005
             837    1.31779E+007    1.26938E+007    1.26938E+007    2.77035E+004   -9.42354E+005    1.36361E+007   -3.92637E+006    1.30972E+007    2.10039E+004   -9.33697E+005    1.26918E+007   -8.27946E+004    8.57517E+004    1.37578E+005
             838    1.46181E+007    1.20993E+007    1.20993E+007   -1.45686E+006   -3.38866E+006    1.54879E+007   -2.41792E+006    1.43267E+007   -3.17705E+006   -1.27043E+006    1.17013E+007    4.86940E+004    1.74435E+006    1.62496E+006
             839    1.37322E+007    1.19046E+007    1.19046E+007   -1.22869E+006   -2.35697E+006    1.42616E+007   -2.77297E+006    1.36274E+007   -2.01621E+006   -1.19183E+006    1.15270E+007   -1.88406E+005    1.66365E+006    1.55259E+006
             840    1.27393E+007    1.16962E+007    1.16962E+007   -6.71490E+005   -1.38473E+006    1.30809E+007   -3.21333E+006    1.26943E+007   -7.85853E+005   -1.02096E+006    1.14468E+007   -2.02398E+005    1.06108E+006    1.43993E+006
             841    1.26264E+007    1.18905E+007    1.18905E+007   -3.74864E+005   -1.06852E+006    1.29590E+007   -3.48236E+006    1.25835E+007   -4.23645E+005   -8.96122E+005    1.17668E+007   -1.64412E+005    5.66352E+005    1.12439E+006
             842    1.24385E+007    1.19104E+007    1.19104E+007   -1.18842E+005   -9.00523E+005    1.28109E+007   -3.63033E+006    1.23830E+007   -1.49688E+005   -8.04150E+005    1.18448E+007   -1.52303E+005    3.81546E+005    8.29172E+005
             843    1.24018E+007    1.19882E+007    1.19882E+007   -1.48904E+004   -7.77271E+005    1.27654E+007   -3.73200E+006    1.23490E+007   -4.17319E+004   -7.29273E+005    1.19670E+007   -1.38736E+005    1.32873E+005    5.01887E+005
             844    1.23577E+007    1.19956E+007    1.19956E+007    3.08796E+004   -7.20714E+005    1.27163E+007   -3.76860E+006    1.23061E+007    5.35826E+003   -6.92439E+005    1.19929E+007   -1.36433E+005    8.21639E+004    1.67645E+005
             845    1.37166E+007    1.12390E+007    1.12390E+007   -1.36008E+006   -3.37277E+006    1.46118E+007   -2.16871E+006    1.33783E+007   -3.19386E+006   -1.15068E+006    1.08507E+007    4.89915E+004    1.55693E+006    1.64702E+006
             846    1.29237E+007    1.10617E+007    1.10617E+007   -8.85591E+005   -2.65590E+006    1.37176E+007   -2.50675E+006    1.26466E+007   -2.39431E+006   -7.88320E+005    1.07029E+007   -2.07761E+005    1.53601E+006    1.49823E+006
             847    1.21209E+007    1.09175E+007    1.09175E+007   -6.30535E+005   -1.70480E+006    1.26223E+007   -2.86073E+006    1.20131E+007   -1.32668E+006   -7.33719E+005    1.06426E+007   -3.30758E+005    1.17625E+006    1.40482E+006
             848    1.18403E+007    1.10475E+007    1.10475E+007   -3.58550E+005   -1.18394E+006    1.22314E+007   -3.16833E+006    1.17753E+007   -7.89254E+005   -5.93912E+005    1.08881E+007   -3.39350E+005    7.07055E+005    1.18731E+006
             849    1.15784E+007    1.10174E+007    1.10174E+007   -1.60863E+005   -9.23453E+005    1.19409E+007   -3.31104E+006    1.15217E+007   -4.72852E+005   -5.19799E+005    1.09258E+007   -3.40719E+005    4.82494E+005    9.21554E+005
             850    1.14507E+007    1.10717E+007    1.10717E+007   -1.14697E+004   -7.14099E+005    1.17858E+007   -3.44871E+006    1.14020E+007   -2.76567E+005   -4.18003E+005    1.10407E+007   -3.31503E+005    2.11037E+005    5.63664E+005
             851    1.13955E+007    1.10826E+007    1.10826E+007    4.41878E+004   -6.39235E+005    1.17218E+007   -3.49584E+006    1.13492E+007   -2.01024E+005   -3.90003E+005    1.10786E+007   -3.26437E+005    9.71377E+004    1.93859E+005
             852    1.26129E+007    1.02698E+007    1.02698E+007   -9.60008E+005   -3.37655E+006    1.36464E+007   -1.97776E+006    1.20755E+007   -3.21788E+006   -7.17779E+005    9.86893E+006    1.04478E+005    1.43964E+006    1.63698E+006
             853    1.24996E+007    1.05606E+007    1.05606E+007   -8.53536E+005   -2.79688E+006    1.33574E+007   -2.30338E+006    1.21527E+007   -2.62918E+006   -7.24985E+005    1.02643E+007   -7.91396E+004    1.36720E+006    1.32880E+006
             854    1.17094E+007    1.03610E+007    1.03610E+007   -4.82790E+005   -2.05517E+006    1.24162E+007   -2.60768E+006    1.14683E+007   -1.85666E+006   -3.97759E+005    1.00775E+007   -2.19533E+005    1.18406E+006    1.36859E+006
             855    1.10722E+007    1.01660E+007    1.01660E+007   -1.98722E+005   -1.49892E+006    1.16649E+007   -2.82279E+006    1.08985E+007   -1.29593E+006   -2.17897E+005    9.98220E+006   -3.29750E+005    8.07529E+005    1.17071E+006
             856    1.06579E+007    1.00827E+007    1.00827E+007    8.05384E+004   -1.12784E+006    1.12106E+007   -3.01181E+006    1.05021E+007   -9.19927E+005   -2.78187E+004    9.98317E+006   -3.86918E+005    5.60737E+005    8.66278E+005
             857    1.04855E+007    1.01058E+007    1.01058E+007    2.24082E+005   -8.93878E+005    1.09997E+007   -3.14533E+006    1.03501E+007   -6.76366E+005    4.06786E+004    1.00717E+007   -4.22760E+005    2.92236E+005    5.24435E+005
             858    1.04101E+007    1.01238E+007    1.01238E+007    3.03315E+005   -7.89518E+005    1.09134E+007   -3.21255E+006    1.02798E+007   -5.67038E+005    8.51138E+004    1.01196E+007   -4.37338E+005    1.13064E+005    1.80399E+005
             859    9.73816E+006    9.20351E+006    9.20351E+006    4.90733E+005   -1.30896E+006    1.05125E+007   -2.79509E+006    9.35296E+006   -1.21423E+006    3.99559E+005    9.19994E+006   -3.96366E+005    1.41859E+005    1.25091E+005
             860    9.79596E+006    9.14662E+006    9.14662E+006    4.55697E+005   -1.46875E+006    1.06154E+007   -2.71119E+006    9.35637E+006   -1.36773E+006    3.88854E+005    9.11244E+006   -3.79872E+005    4.10250E+005    4.13441E+005
             861    1.00197E+007    9.09948E+006    9.09948E+006    2.62730E+005   -1.78632E+006    1.08858E+007   -2.52530E+006    9.53101E+006   -1.67288E+006    2.47636E+005    9.00114E+006   -3.33193E+005    6.67350E+005    7.30521E+005
             862    1.04670E+007    9.15749E+006    9.15749E+006   -4.07119E+004   -2.23157E+006    1.13891E+007   -2.29507E+006    9.93131E+006   -2.10100E+006    3.30554E+004    8.95315E+006   -2.45634E+005    9.33353E+005    1.09637E+006
             863    1.13129E+007    9.45456E+006    9.45456E+006   -5.54763E+005   -2.81928E+006    1.22738E+007   -2.02684E+006    1.07851E+007   -2.66967E+006   -3.76018E+005    9.12620E+006   -1.17684E+005    1.19314E+006    1.45151E+006
             864    1.25290E+007    1.02432E+007    1.02432E+007   -8.95059E+005   -3.32160E+006    1.35648E+007   -2.00885E+006    1.19831E+007   -3.15050E+006   -6.18073E+005    9.79513E+006    3.31492E+004    1.45010E+006    1.77450E+006
             865    1.38720E+007    1.09083E+007    1.09083E+007   -1.66276E+006   -3.97423E+006    1.48826E+007   -1.75712E+006    1.34285E+007   -3.75546E+006   -1.45520E+006    1.04820E+007    1.74957E+004    1.72049E+006    1.66381E+006
             866    1.01608E+007    9.84475E+006    9.84475E+006    3.82157E+005   -8.93772E+005    1.07385E+007   -3.11104E+006    9.97819E+006   -7.05742E+005    1.98498E+005    9.84038E+006    4.48874E+005    1.24425E+005   -1.72524E+005
             867    1.08819E+007    1.05802E+007    1.05802E+007    1.36384E+005   -6.92416E+005    1.12726E+007   -3.34138E+006    1.08105E+007   -3.60553E+005   -1.90468E+005    1.05752E+007    4.03699E+005    1.19137E+005   -2.04246E+005
             868    1.16766E+007    1.13699E+007    1.13699E+007    1.32877E+004   -6.02350E+005    1.19722E+007   -3.59361E+006    1.16400E+007   -9.40489E+004   -4.90688E+005    1.13656E+007    2.32590E+005    1.02168E+005   -2.03277E+005
             869    1.24736E+007    1.20857E+007    1.20857E+007   -4.16872E+003   -7.39086E+005    1.28248E+007   -3.78081E+006    1.24247E+007   -3.08121E+004   -7.09085E+005    1.20823E+007    1.37957E+005    1.01020E+005   -1.80525E+005
             870    1.31566E+007    1.26662E+007    1.26662E+007    4.51545E+004   -9.67430E+005    1.36337E+007   -3.91465E+006    1.30685E+007    3.80869E+004   -9.57989E+005    1.26639E+007    8.79836E+004    1.03304E+005   -1.44998E+005
             871    1.36544E+007    1.30984E+007    1.30984E+007    6.91329E+004   -1.10528E+006    1.42037E+007   -4.02074E+006    1.35401E+007    6.85132E+004   -1.10319E+006    1.30969E+007    4.11604E+004    1.06966E+005   -9.22968E+004
             872    1.39457E+007    1.33324E+007    1.33324E+007    8.35286E+004   -1.21882E+006    1.45512E+007   -4.06569E+006    1.38079E+007    8.41792E+004   -1.21854E+006    1.33314E+007    1.58165E+004    1.06088E+005   -3.50357E+004
             873    1.39670E+007    1.33606E+007    1.33606E+007    8.24783E+004   -1.20606E+006    1.45666E+007   -4.07899E+006    1.38323E+007    8.32111E+004   -1.20596E+006    1.33597E+007   -7.68593E+003    1.01855E+005    2.95895E+004
             874    1.37283E+007    1.31550E+007    1.31550E+007    8.27115E+004   -1.14655E+006    1.43016E+007   -4.03040E+006    1.36037E+007    8.21053E+004   -1.14483E+006    1.31539E+007   -3.87298E+004    9.22983E+004    8.14741E+004
             875    1.02469E+007    9.82881E+006    9.82881E+006    3.02217E+005   -1.01159E+006    1.08404E+007   -3.03981E+006    1.00548E+007   -8.25830E+005    1.53183E+005    9.79209E+006    4.31659E+005    3.29589E+005   -5.19519E+005
             876    1.10019E+007    1.06082E+007    1.06082E+007    5.20977E+004   -7.91051E+005    1.13993E+007   -3.28975E+006    1.09289E+007   -4.49982E+005   -2.52112E+005    1.05714E+007    3.99398E+005    2.60566E+005   -5.86626E+005
             877    1.17927E+007    1.14132E+007    1.14132E+007   -4.87990E+004   -6.84492E+005    1.20977E+007   -3.55997E+006    1.17541E+007   -1.52963E+005   -5.49299E+005    1.13822E+007    2.29016E+005    1.80238E+005   -5.84484E+005
             878    1.25868E+007    1.21378E+007    1.21378E+007   -5.77022E+004   -8.06853E+005    1.29446E+007   -3.75774E+006    1.25365E+007   -8.28528E+004   -7.60175E+005    1.21163E+007    1.33179E+005    1.31936E+005   -5.10620E+005
             879    1.32826E+007    1.27400E+007    1.27400E+007   -2.95480E+003   -1.02345E+006    1.37634E+007   -3.90451E+006    1.31940E+007   -9.98045E+003   -1.00374E+006    1.27273E+007    8.53914E+004    9.26634E+004   -4.06958E+005
             880    1.37813E+007    1.31791E+007    1.31791E+007    2.13783E+004   -1.15086E+006    1.43300E+007   -4.01655E+006    1.36685E+007    2.03230E+004   -1.14467E+006    1.31740E+007    3.93797E+004    6.90591E+004   -2.61456E+005
             881    1.40647E+007    1.34108E+007    1.34108E+007    3.39568E+004   -1.25339E+006    1.46642E+007   -4.06378E+006    1.39313E+007    3.39721E+004   -1.25254E+006    1.34099E+007    1.61270E+004    5.51681E+004   -9.66508E+004
             882    1.40710E+007    1.34269E+007    1.34269E+007    3.66865E+004   -1.23816E+006    1.46650E+007   -4.07514E+006    1.39402E+007    3.69284E+004   -1.23774E+006    1.34262E+007   -4.10514E+003    5.86999E+004    7.71500E+004
             883    1.37978E+007    1.31900E+007    1.31900E+007    3.80902E+004   -1.17376E+006    1.43637E+007   -4.01810E+006    1.36773E+007    3.72558E+004   -1.16834E+006    1.31854E+007   -3.66074E+004    6.78860E+004    2.46715E+005
             884    1.04985E+007    9.83876E+006    9.83876E+006    1.01134E+005   -1.28324E+006    1.11220E+007   -2.88555E+006    1.02901E+007   -1.09946E+006    2.32352E+004    9.73287E+006    3.83291E+005    6.11102E+005   -8.60024E+005
             885    1.12235E+007    1.06168E+007    1.06168E+007   -1.24632E+005   -1.03355E+006    1.16503E+007   -3.15286E+006    1.11402E+007   -6.83232E+005   -3.66250E+005    1.05081E+007    3.88414E+005    5.65976E+005   -9.58284E+005
             886    1.19624E+007    1.14057E+007    1.14057E+007   -1.95528E+005   -8.87816E+005    1.22935E+007   -3.44077E+006    1.19172E+007   -3.09566E+005   -6.82490E+005    1.13144E+007    2.35663E+005    4.69088E+005   -9.45439E+005
             887    1.26971E+007    1.21205E+007    1.21205E+007   -1.61692E+005   -9.54371E+005    1.30748E+007   -3.66814E+006    1.26412E+007   -1.81151E+005   -8.67647E+005    1.20532E+007    1.32055E+005    4.19097E+005   -8.34034E+005
             888    1.33440E+007    1.26998E+007    1.26998E+007   -6.84505E+004   -1.15355E+006    1.38534E+007   -3.82594E+006    1.32441E+007   -6.75126E+004   -1.11173E+006    1.26571E+007    8.74779E+004    3.84948E+005   -6.58627E+005
             889    1.38041E+007    1.31318E+007    1.31318E+007   -5.89825E+003   -1.25404E+006    1.43858E+007   -3.95728E+006    1.36763E+007    2.56485E+003   -1.24027E+006    1.31095E+007    3.52956E+004    3.66261E+005   -4.16503E+005
             890    1.40595E+007    1.33456E+007    1.33456E+007    1.98112E+004   -1.34762E+006    1.46933E+007   -4.00594E+006    1.39087E+007    2.87607E+004   -1.34626E+006    1.33353E+007    1.20971E+004    3.48605E+005   -1.32370E+005
             891    1.40395E+007    1.33455E+007    1.33455E+007    2.40249E+004   -1.31584E+006    1.46614E+007   -4.01790E+006    1.38945E+007    3.25881E+004   -1.31386E+006    1.33350E+007   -1.22604E+004    3.41554E+005    1.61828E+005
             892    1.37827E+007    1.31077E+007    1.31077E+007    3.06299E+003   -1.26531E+006    1.43730E+007   -3.94850E+006    1.36505E+007    9.08216E+003   -1.24949E+006    1.30859E+007   -4.54013E+004    3.34393E+005    4.38042E+005
             893    1.09639E+007    9.96466E+006    9.96466E+006   -1.78184E+005   -1.66799E+006    1.16326E+007   -2.70616E+006    1.07327E+007   -1.48626E+006   -1.62569E+005    9.76732E+006    3.11546E+005    8.66386E+005   -1.17836E+006
             894    1.16380E+007    1.07295E+007    1.07295E+007   -3.82929E+005   -1.37104E+006    1.21006E+007   -2.99186E+006    1.15431E+007   -1.04565E+006   -5.20888E+005    1.05421E+007    3.57653E+005    8.05280E+005   -1.24415E+006
             895    1.23228E+007    1.15166E+007    1.15166E+007   -4.65985E+005   -1.12043E+006    1.26370E+007   -3.31005E+006    1.22836E+007   -6.18256E+005   -8.07764E+005    1.13562E+007    2.29059E+005    6.86476E+005   -1.23674E+006
             896    1.30651E+007    1.22602E+007    1.22602E+007   -4.52971E+005   -1.13046E+006    1.33906E+007   -3.55891E+006    1.30254E+007   -4.71675E+005   -9.93881E+005    1.21423E+007    1.21344E+005    6.00838E+005   -1.09497E+006
             897    1.37523E+007    1.28984E+007    1.28984E+007   -3.72775E+005   -1.28930E+006    1.41877E+007   -3.74544E+006    1.36834E+007   -3.65254E+005   -1.22227E+006    1.28238E+007    7.91411E+004    5.38559E+005   -8.65662E+005
             898    1.42356E+007    1.33591E+007    1.33591E+007   -3.23527E+005   -1.37158E+006    1.47307E+007   -3.88801E+006    1.41485E+007   -3.07630E+005   -1.35004E+006    1.33217E+007    3.10006E+004    5.00135E+005   -5.31723E+005
             899    1.44881E+007    1.35810E+007    1.35810E+007   -3.03083E+005   -1.44365E+006    1.50246E+007   -3.94476E+006    1.43865E+007   -2.87125E+005   -1.44176E+006    1.35632E+007    1.26426E+004    4.74554E+005   -1.55710E+005
             900    1.44297E+007    1.35447E+007    1.35447E+007   -2.86824E+005   -1.41676E+006    1.49615E+007   -3.94704E+006    1.43297E+007   -2.71078E+005   -1.41235E+006    1.35245E+007   -3.06762E+003    4.68107E+005    2.53504E+005
             901    1.40833E+007    1.32318E+007    1.32318E+007   -2.90924E+005   -1.35202E+006    1.45838E+007   -3.86294E+006    1.39929E+007   -2.78122E+005   -1.32260E+006    1.31895E+007   -3.96870E+004    4.69140E+005    6.15777E+005
             902    1.16645E+007    1.01581E+007    1.01581E+007   -5.56624E+005   -2.26732E+006    1.24254E+007   -2.44472E+006    1.13772E+007   -2.08719E+006   -4.40481E+005    9.86183E+006    1.74208E+005    1.21441E+006   -1.38226E+006
             903    1.21608E+007    1.07990E+007    1.07990E+007   -6.69725E+005   -1.95223E+006    1.27512E+007   -2.72569E+006    1.20073E+007   -1.64122E+006   -6.70343E+005    1.04886E+007    2.92795E+005    1.29199E+006   -1.45161E+006
             904    1.26700E+007    1.14626E+007    1.14626E+007   -7.99809E+005   -1.57907E+006    1.30417E+007   -3.02790E+006    1.26159E+007   -1.09584E+006   -9.89839E+005    1.11694E+007    2.45139E+005    1.23071E+006   -1.48973E+006
             905    1.32492E+007    1.21599E+007    1.21599E+007   -7.49205E+005   -1.40506E+006    1.35650E+007   -3.33521E+006    1.32126E+007   -7.69425E+005   -1.14614E+006    1.19212E+007    1.37538E+005    1.15739E+006   -1.35295E+006
             906    1.37993E+007    1.27453E+007    1.27453E+007   -5.78170E+005   -1.48519E+006    1.42305E+007   -3.56064E+006    1.37320E+007   -5.27590E+005   -1.36664E+006    1.25762E+007    9.73177E+004    1.08821E+006   -1.06992E+006
             907    1.41906E+007    1.31931E+007    1.31931E+007   -4.19651E+005   -1.51216E+006    1.47053E+007   -3.75377E+006    1.40955E+007   -3.47844E+005   -1.47751E+006    1.30867E+007    3.61357E+004    1.02965E+006   -6.45413E+005
             908    1.43721E+007    1.33804E+007    1.33804E+007   -3.52751E+005   -1.55510E+006    1.49355E+007   -3.82420E+006    1.42583E+007   -2.82021E+005   -1.55375E+006    1.33084E+007    1.03027E+004    9.85148E+005   -1.25832E+005
             909    1.42991E+007    1.33318E+007    1.33318E+007   -3.35630E+005   -1.52478E+006    1.48566E+007   -3.82380E+006    1.41873E+007   -2.69009E+005   -1.51280E+006    1.32532E+007   -1.95296E+004    9.64767E+005    3.89777E+005
             910    1.39950E+007    1.29981E+007    1.29981E+007   -4.17056E+005   -1.51252E+006    1.45106E+007   -3.68949E+006    1.38981E+007   -3.62027E+005   -1.44596E+006    1.28765E+007   -6.40005E+004    9.64142E+005    8.71361E+005
             911    1.25510E+007    1.05316E+007    1.05316E+007   -8.50633E+005   -2.92871E+006    1.34603E+007   -2.25076E+006    1.21549E+007   -2.76751E+006   -6.57252E+005    1.01771E+007    1.14658E+004    1.38685E+006   -1.53388E+006
             912    1.31623E+007    1.11351E+007    1.11351E+007   -9.51232E+005   -2.88844E+006    1.40236E+007   -2.43182E+006    1.28357E+007   -2.66309E+006   -8.22821E+005    1.07814E+007    1.26573E+005    1.56837E+006   -1.46294E+006
             913    1.37910E+007    1.18148E+007    1.18148E+007   -1.17085E+006   -2.66050E+006    1.44753E+007   -2.66115E+006    1.36082E+007   -2.35121E+006   -1.08466E+006    1.14193E+007    1.68134E+005    1.74919E+006   -1.54223E+006
             914    1.45223E+007    1.25713E+007    1.25713E+007   -1.38095E+006   -2.46077E+006    1.50321E+007   -2.90987E+006    1.44316E+007   -2.13865E+006   -1.31748E+006    1.21857E+007    1.02164E+005    1.87575E+006   -1.43890E+006
             915    1.52082E+007    1.32473E+007    1.32473E+007   -1.56752E+006   -2.32593E+006    1.55732E+007   -3.11795E+006    1.51656E+007   -1.98692E+006   -1.56091E+006    1.29017E+007    8.31899E+004    1.98959E+006   -1.13783E+006
             916    1.56164E+007    1.37016E+007    1.37016E+007   -1.67204E+006   -2.14677E+006    1.58484E+007   -3.29427E+006    1.56002E+007   -1.84465E+006   -1.67488E+006    1.34023E+007    2.96921E+004    2.05595E+006   -6.52873E+005
             917    1.57806E+007    1.38826E+007    1.38826E+007   -1.73659E+006   -2.05461E+006    1.59372E+007   -3.36379E+006    1.57734E+007   -1.78096E+006   -1.73643E+006    1.36088E+007   -7.13224E+002    2.06832E+006   -1.03836E+005
             918    1.56183E+007    1.37585E+007    1.37585E+007   -1.68932E+006   -2.02470E+006    1.57832E+007   -3.34817E+006    1.56101E+007   -1.73410E+006   -1.70296E+006    1.34816E+007   -3.10329E+004    2.01492E+006    4.84028E+005
             919    1.51927E+007    1.33508E+007    1.33508E+007   -1.56906E+006   -2.10080E+006    1.54516E+007   -3.22697E+006    1.51717E+007   -1.76430E+006   -1.59841E+006    1.30436E+007   -7.75777E+004    1.91872E+006    9.84825E+005
             920    1.31150E+007    1.05464E+007    1.05464E+007   -1.23604E+006   -3.58406E+006    1.41304E+007   -1.90876E+006    1.26291E+007   -3.40729E+006   -1.01025E+006    1.01438E+007   -1.52278E+005    1.55607E+006   -1.60976E+006
             921    1.37068E+007    1.11897E+007    1.11897E+007   -1.13987E+006   -3.56948E+006    1.47591E+007   -2.16010E+006    1.32092E+007   -3.38830E+006   -9.15549E+005    1.07841E+007   -1.40050E+005    1.60907E+006   -1.64540E+006
             922    1.47507E+007    1.21128E+007    1.21128E+007   -1.41099E+006   -3.61649E+006    1.57293E+007   -2.36178E+006    1.43728E+007   -3.40726E+006   -1.20542E+006    1.16980E+007   -9.00041E+004    1.76939E+006   -1.67427E+006
             923    1.58569E+007    1.31787E+007    1.31787E+007   -1.47419E+006   -3.65630E+006    1.68350E+007   -2.68273E+006    1.55137E+007   -3.41964E+006   -1.31679E+006    1.27846E+007   -1.09928E+005    1.96285E+006   -1.51908E+006
             924    1.68830E+007    1.41708E+007    1.41708E+007   -1.48431E+006   -3.71780E+006    1.78886E+007   -2.98957E+006    1.65458E+007   -3.45784E+006   -1.39542E+006    1.38220E+007   -8.50834E+004    2.12904E+006   -1.18463E+006
             925    1.76217E+007    1.49012E+007    1.49012E+007   -1.48928E+006   -3.73617E+006    1.86373E+007   -3.22524E+006    1.72950E+007   -3.46021E+006   -1.46031E+006    1.45962E+007   -5.50008E+004    2.24764E+006   -6.91501E+005
             926    1.78886E+007    1.51549E+007    1.51549E+007   -1.51437E+006   -3.74391E+006    1.88988E+007   -3.29888E+006    1.75719E+007   -3.46229E+006   -1.51422E+006    1.48732E+007    2.91652E+000    2.28967E+006   -5.28927E+004
             927    1.76181E+007    1.49411E+007    1.49411E+007   -1.49538E+006   -3.65876E+006    1.85999E+007   -3.26233E+006    1.73155E+007   -3.38127E+006   -1.47540E+006    1.46437E+007    4.89884E+004    2.25273E+006    5.74066E+005
             928    1.68461E+007    1.42106E+007    1.42106E+007   -1.50740E+006   -3.57304E+006    1.77837E+007   -3.04339E+006    1.65576E+007   -3.31014E+006   -1.43055E+006    1.38709E+007    7.43094E+004    2.13407E+006    1.10820E+006
             929    1.85148E+007    1.41916E+007    1.41916E+007   -1.41051E+006   -6.26750E+006    2.04591E+007   -2.17121E+006    1.69905E+007   -6.01738E+006   -1.29666E+006    1.38277E+007    2.77786E+005    2.22610E+006    1.32545E+006
             930    1.96316E+007    1.51739E+007    1.51739E+007   -1.28869E+006   -6.55321E+006    2.17271E+007   -2.44401E+006    1.79376E+007   -6.31144E+006   -1.25267E+006    1.48961E+007    1.63265E+005    2.27125E+006    7.69591E+005
             931    2.00978E+007    1.56029E+007    1.56029E+007   -1.23309E+006   -6.64745E+006    2.22503E+007   -2.57410E+006    1.83463E+007   -6.41140E+006   -1.23309E+006    1.53668E+007   -3.82192E+002    2.27958E+006   -9.86907E+003
             932    1.96347E+007    1.51470E+007    1.51470E+007   -1.30044E+006   -6.59097E+006    2.17379E+007   -2.41852E+006    1.79230E+007   -6.35007E+006   -1.26274E+006    1.48684E+007   -1.60895E+005    2.26828E+006   -7.85618E+005
             933    1.85135E+007    1.41217E+007    1.41217E+007   -1.44451E+006   -6.35069E+006    2.04724E+007   -2.10885E+006    1.69560E+007   -6.10068E+006   -1.32551E+006    1.37527E+007   -2.80137E+005    2.22637E+006   -1.35241E+006
             934    1.70332E+007    1.28144E+007    1.28144E+007   -1.60253E+006   -5.98044E+006    1.87948E+007   -1.74380E+006    1.56907E+007   -5.72462E+006   -1.41533E+006    1.23713E+007   -3.29466E+005    2.14805E+006   -1.62356E+006
             935    1.55326E+007    1.14746E+007    1.14746E+007   -1.80830E+006   -5.60407E+006    1.70786E+007   -1.35407E+006    1.44327E+007   -5.35644E+006   -1.59139E+006    1.10100E+007   -3.09511E+005    2.01614E+006   -1.66966E+006
             936    1.45029E+007    1.06187E+007    1.06187E+007   -2.02488E+006   -5.21304E+006    1.58317E+007   -1.12691E+006    1.36807E+007   -4.97330E+006   -1.80310E+006    1.01571E+007   -2.13907E+005    1.91948E+006   -1.64604E+006
             937    1.42294E+007    1.07087E+007    1.07087E+007   -1.75764E+006   -4.79367E+006    1.55024E+007   -1.38582E+006    1.34715E+007   -4.56405E+006   -1.47095E+006    1.01924E+007   -1.54803E+005    1.84752E+006   -1.86966E+006
             938    9.68260E+006    9.12334E+006    9.12334E+006    5.03506E+005   -1.35315E+006    1.04765E+007   -2.75790E+006    9.26933E+006   -1.26389E+006    4.17912E+005    9.11968E+006    3.91464E+005    1.40406E+005   -1.29075E+005
             939    9.76743E+006    9.07565E+006    9.07565E+006    4.41176E+005   -1.52547E+006    1.06011E+007   -2.66378E+006    9.30620E+006   -1.42749E+006    3.77458E+005    9.04138E+006    3.75661E+005    4.19758E+005   -4.04710E+005
             940    1.00111E+007    9.02903E+006    9.02903E+006    2.34662E+005   -1.86561E+006    1.08946E+007   -2.46603E+006    9.49627E+006   -1.75338E+006    2.24294E+005    8.92717E+006    3.26857E+005    6.87344E+005   -7.35353E+005
             941    1.04998E+007    9.06907E+006    9.06907E+006   -1.45993E+005   -2.36171E+006    1.14308E+007   -2.18712E+006    9.95315E+006   -2.23073E+006   -7.56202E+004    8.86772E+006    2.36765E+005    9.58260E+005   -1.06775E+006
             942    1.12841E+007    9.32614E+006    9.32614E+006   -5.78060E+005   -2.95813E+006    1.22843E+007   -1.92998E+006    1.06972E+007   -2.80893E+006   -4.09566E+005    9.00845E+006    1.06136E+005    1.21581E+006   -1.39151E+006
             943    1.22464E+007    9.73913E+006    9.73913E+006   -1.02130E+006   -3.58685E+006    1.33260E+007   -1.71033E+006    1.16185E+007   -3.41683E+006   -7.75504E+005    9.32332E+006   -2.32084E+004    1.43793E+006   -1.64658E+006
             944    1.33962E+007    1.03515E+007    1.03515E+007   -1.37369E+006   -4.24878E+006    1.46003E+007   -1.57636E+006    1.26739E+007   -4.04430E+006   -1.05612E+006    9.82948E+006   -1.25357E+005    1.68159E+006   -1.91262E+006
             945    1.02129E+007    9.73086E+006    9.73086E+006    2.04041E+005   -1.05189E+006    1.07828E+007   -2.96100E+006    1.00369E+007   -8.66377E+005    2.25028E+004    9.72688E+006   -4.42822E+005   -1.09337E+005   -1.70777E+005
             946    1.10910E+007    1.06227E+007    1.06227E+007   -1.06840E+005   -7.97555E+005    1.14202E+007   -3.23943E+006    1.10425E+007   -4.90758E+005   -4.10266E+005    1.06193E+007   -3.41865E+005   -8.26325E+004   -1.76828E+005
             947    1.20234E+007    1.14456E+007    1.14456E+007   -1.87694E+005   -9.33225E+005    1.23788E+007   -3.44156E+006    1.19712E+007   -2.84628E+005   -8.33867E+005    1.14432E+007   -2.50278E+005   -6.87855E+004   -1.58924E+005
             948    1.27959E+007    1.21251E+007    1.21251E+007   -1.29022E+005   -1.15110E+006    1.32762E+007   -3.61501E+006    1.27035E+007   -1.44000E+005   -1.13470E+006    1.21237E+007   -1.23174E+005   -5.19340E+004   -1.26827E+005
             949    1.03426E+007    9.73885E+006    9.73885E+006    1.01080E+005   -1.18778E+006    1.09266E+007   -2.88405E+006    1.01596E+007   -1.00298E+006   -4.53468E+004    9.70048E+006   -4.20354E+005   -3.79686E+005   -5.08560E+005
             950    1.11816E+007    1.06276E+007    1.06276E+007   -1.85015E+005   -8.89765E+005    1.15173E+007   -3.18426E+006    1.11315E+007   -5.96096E+005   -4.43852E+005    1.05927E+007   -3.29796E+005   -3.44206E+005   -5.28320E+005
             951    1.20857E+007    1.14342E+007    1.14342E+007   -2.63566E+005   -1.00531E+006    1.24395E+007   -3.38843E+006    1.20343E+007   -3.66437E+005   -8.74197E+005    1.14059E+007   -2.51980E+005   -3.20804E+005   -4.96967E+005
             952    1.28392E+007    1.21180E+007    1.21180E+007   -1.81097E+005   -1.20049E+006    1.33185E+007   -3.57880E+006    1.27476E+007   -1.92152E+005   -1.17110E+006    1.20996E+007   -1.26050E+005   -2.98454E+005   -3.87093E+005
             953    1.06357E+007    9.81659E+006    9.81659E+006   -6.54108E+004   -1.43936E+006    1.12559E+007   -2.77061E+006    1.04333E+007   -1.26293E+006   -1.40298E+005    9.71506E+006   -3.73855E+005   -6.12536E+005   -8.40985E+005
             954    1.14647E+007    1.07074E+007    1.07074E+007   -3.73551E+005   -1.10605E+006    1.18134E+007   -3.07592E+006    1.14119E+007   -8.48906E+005   -5.42528E+005    1.06192E+007   -3.00960E+005   -5.50083E+005   -8.49116E+005
             955    1.23343E+007    1.15197E+007    1.15197E+007   -4.72605E+005   -1.13038E+006    1.26501E+007   -3.30556E+006    1.22948E+007   -6.05998E+005   -9.26535E+005    1.14492E+007   -2.46706E+005   -5.21501E+005   -7.83594E+005
             956    1.30982E+007    1.22166E+007    1.22166E+007   -4.22382E+005   -1.29704E+006    1.35137E+007   -3.49906E+006    1.30323E+007   -4.30155E+005   -1.24084E+006    1.21682E+007   -1.25109E+005   -4.83273E+005   -6.39737E+005
             957    1.11591E+007    9.96763E+006    9.96763E+006   -3.86693E+005   -1.85164E+006    1.18193E+007   -2.57643E+006    1.09397E+007   -1.67294E+006   -3.71029E+005    9.77327E+006   -2.93553E+005   -9.08509E+005   -1.15226E+006
             958    1.18233E+007    1.07918E+007    1.07918E+007   -5.88760E+005   -1.42927E+006    1.22211E+007   -2.92460E+006    1.17558E+007   -1.19731E+006   -6.47879E+005    1.06190E+007   -2.53034E+005   -8.85439E+005   -1.12708E+006
             959    1.25637E+007    1.15159E+007    1.15159E+007   -7.16602E+005   -1.35463E+006    1.28705E+007   -3.14822E+006    1.25271E+007   -9.00540E+005   -1.01868E+006    1.13639E+007   -2.35744E+005   -8.70376E+005   -1.08431E+006
             960    1.32845E+007    1.22260E+007    1.22260E+007   -6.41770E+005   -1.43932E+006    1.36653E+007   -3.38162E+006    1.32304E+007   -6.34400E+005   -1.33096E+006    1.21102E+007   -1.28936E+005   -8.35828E+005   -9.20741E+005
             961    1.19671E+007    1.03459E+007    1.03459E+007   -6.92377E+005   -2.37243E+006    1.27184E+007   -2.42704E+006    1.16974E+007   -2.20636E+006   -5.85743E+005    1.00732E+007   -1.88196E+005   -1.14620E+006   -1.37238E+006
             962    1.24971E+007    1.09941E+007    1.09941E+007   -8.80182E+005   -2.04427E+006    1.30384E+007   -2.68989E+006    1.23742E+007   -1.86788E+006   -8.12092E+005    1.07496E+007   -1.64973E+005   -1.15194E+006   -1.30633E+006
             963    1.33022E+007    1.17802E+007    1.17802E+007   -1.10094E+006   -1.90641E+006    1.36867E+007   -2.92430E+006    1.32472E+007   -1.65309E+006   -1.10951E+006    1.15355E+007   -1.82404E+005   -1.24746E+006   -1.30583E+006
             964    1.40926E+007    1.25367E+007    1.25367E+007   -1.32971E+006   -1.77169E+006    1.43084E+007   -3.14509E+006    1.40770E+007   -1.44413E+006   -1.44625E+006    1.23257E+007   -1.16255E+005   -1.31188E+006   -1.11968E+006
             965    1.25890E+007    1.04740E+007    1.04740E+007   -1.05491E+006   -2.95823E+006    1.34323E+007   -2.15364E+006    1.22590E+007   -2.78537E+006   -9.19396E+005    1.01657E+007   -9.87816E+004   -1.36254E+006   -1.39508E+006
             966    1.29551E+007    1.10524E+007    1.10524E+007   -1.10313E+006   -2.57634E+006    1.36287E+007   -2.45763E+006    1.27646E+007   -2.42013E+006   -9.12551E+005    1.07056E+007   -2.58336E+004   -1.32643E+006   -1.61087E+006
             967    1.39819E+007    1.20247E+007    1.20247E+007   -1.37007E+006   -2.47850E+006    1.45032E+007   -2.72537E+006    1.38826E+007   -2.29847E+006   -1.22988E+006    1.17045E+007   -4.85157E+004   -1.41775E+006   -1.54890E+006
             968    1.48949E+007    1.29142E+007    1.29142E+007   -1.58648E+006   -2.34585E+006    1.52601E+007   -2.99398E+006    1.48513E+007   -2.16229E+006   -1.49025E+006    1.26345E+007   -1.35739E+004   -1.51129E+006   -1.36072E+006
             969    1.29938E+007    1.03198E+007    1.03198E+007   -1.05917E+006   -3.83889E+006    1.41587E+007   -1.80724E+006    1.22978E+007   -3.64188E+006   -8.70626E+005    9.93423E+006   -1.02491E+004   -1.59536E+006   -1.50935E+006
             970    1.39770E+007    1.11826E+007    1.11826E+007   -1.57219E+006   -3.75885E+006    1.49414E+007   -1.95051E+006    1.35841E+007   -3.55264E+006   -1.35678E+006    1.07610E+007    1.98528E+004   -1.67013E+006   -1.70453E+006
             971    1.48381E+007    1.20020E+007    1.20020E+007   -1.63791E+006   -3.79766E+006    1.57996E+007   -2.18880E+006    1.44781E+007   -3.58061E+006   -1.43849E+006    1.15855E+007    6.22057E+004   -1.79279E+006   -1.67364E+006
             972    1.60296E+007    1.31514E+007    1.31514E+007   -1.69045E+006   -3.84738E+006    1.69988E+007   -2.53787E+006    1.56981E+007   -3.61570E+006   -1.53905E+006    1.27684E+007    7.68143E+004   -1.94228E+006   -1.51501E+006
             973    1.73003E+007    1.37662E+007    1.37662E+007   -1.29098E+006   -5.13180E+006    1.88980E+007   -2.44780E+006    1.62991E+007   -4.98575E+006   -1.13317E+006    1.34623E+007    3.20681E+005   -1.59598E+006   -1.55462E+006
             974    1.57968E+007    1.23880E+007    1.23880E+007   -1.40976E+006   -4.84311E+006    1.72311E+007   -2.04505E+006    1.49223E+007   -4.69564E+006   -1.23889E+006    1.20697E+007    3.32689E+005   -1.52029E+006   -1.54936E+006
             975    1.44058E+007    1.10554E+007    1.10554E+007   -1.58047E+006   -4.63152E+006    1.56869E+007   -1.61446E+006    1.36501E+007   -4.49775E+006   -1.44309E+006    1.07842E+007    2.94116E+005   -1.38186E+006   -1.33538E+006
             976    1.41637E+007    1.08240E+007    1.08240E+007   -1.97903E+006   -4.39061E+006    1.52146E+007   -1.48479E+006    1.36903E+007   -4.27166E+006   -1.88973E+006    1.06158E+007    1.97975E+005   -1.31088E+006   -1.07833E+006
             977    9.55167E+006    9.00482E+006    9.00482E+006    5.74564E+005   -1.36924E+006    1.03741E+007   -2.73671E+006    9.09055E+006   -1.30659E+006    5.14976E+005    9.00175E+006   -3.36945E+005   -1.38901E+005   -1.05169E+005
             978    9.64212E+006    8.97435E+006    8.97435E+006    5.39447E+005   -1.53674E+006    1.05111E+007   -2.65902E+006    9.11863E+006   -1.46717E+006    5.01724E+005    8.94251E+006   -3.12123E+005   -4.19685E+005   -3.68476E+005
             979    9.92500E+006    8.97909E+006    8.97909E+006    3.49326E+005   -1.86657E+006    1.08457E+007   -2.48728E+006    9.34380E+006   -1.78424E+006    3.60513E+005    8.88557E+006   -2.53497E+005   -6.73365E+005   -6.81146E+005
             980    1.04708E+007    9.13103E+006    9.13103E+006    4.51868E+004   -2.32008E+006    1.14511E+007   -2.28538E+006    9.84243E+006   -2.22170E+006    1.37866E+005    8.93997E+006   -1.58194E+005   -9.09609E+005   -1.04348E+006
             981    1.13733E+007    9.52739E+006    9.52739E+006   -4.61531E+005   -2.85064E+006    1.23780E+007   -2.07174E+006    1.07868E+007   -2.73975E+006   -2.69573E+005    9.22454E+006   -2.87246E+004   -1.10197E+006   -1.41580E+006
             982    1.26263E+007    1.03986E+007    1.03986E+007   -7.18983E+005   -3.32859E+006    1.37272E+007   -2.11700E+006    1.19968E+007   -3.19783E+006   -4.49323E+005    9.99815E+006    9.95876E+004   -1.31098E+006   -1.71442E+006
             983    1.41285E+007    1.13862E+007    1.13862E+007   -1.34460E+006   -3.81437E+006    1.52005E+007   -2.07573E+006    1.36301E+007   -3.68661E+006   -1.16751E+006    1.10813E+007    1.30324E+005   -1.37937E+006   -1.48540E+006
             984    1.88680E+007    1.52832E+007    1.52832E+007   -1.11977E+006   -5.33638E+006    2.06196E+007   -2.94236E+006    1.77609E+007   -5.20059E+006   -1.02048E+006    1.50482E+007    2.63049E+005   -1.62629E+006   -1.29329E+006
             985    1.99870E+007    1.63776E+007    1.63776E+007   -9.84469E+005   -5.47152E+006    2.18491E+007   -3.30721E+006    1.88030E+007   -5.34889E+006   -9.51844E+005    1.62224E+007    1.47558E+005   -1.61885E+006   -7.63686E+005
             986    2.04694E+007    1.68751E+007    1.68751E+007   -9.16138E+005   -5.49642E+006    2.23716E+007   -3.48753E+006    1.92652E+007   -5.37904E+006   -9.16143E+005    1.67578E+007    4.96769E+003   -1.61617E+006    1.18390E+003
             987    2.00315E+007    1.64182E+007    1.64182E+007   -9.70259E+005   -5.48557E+006    2.19037E+007   -3.32077E+006    1.88347E+007   -5.36433E+006   -9.37155E+005    1.62638E+007   -1.44016E+005   -1.61262E+006    7.68269E+005
             988    1.88955E+007    1.52819E+007    1.52819E+007   -1.12075E+006   -5.37967E+006    2.06615E+007   -2.92715E+006    1.77668E+007   -5.24670E+006   -1.01863E+006    1.50468E+007   -2.61368E+005   -1.61143E+006    1.30976E+006
             989    1.73990E+007    1.38342E+007    1.38342E+007   -1.28030E+006   -5.18555E+006    1.90198E+007   -2.45612E+006    1.63688E+007   -5.04219E+006   -1.12447E+006    1.35350E+007   -3.31473E+005   -1.57877E+006    1.55321E+006
             990    1.58956E+007    1.23853E+007    1.23853E+007   -1.50897E+006   -4.94856E+006    1.73338E+007   -1.97592E+006    1.50237E+007   -4.80446E+006   -1.34068E+006    1.20729E+007   -3.40985E+005   -1.49911E+006    1.54890E+006
             991    1.49094E+007    1.15076E+007    1.15076E+007   -1.64965E+006   -4.68643E+006    1.61940E+007   -1.72383E+006    1.41883E+007   -4.55181E+006   -1.49723E+006    1.12205E+007   -2.96557E+005   -1.41128E+006    1.42963E+006
             992    1.44587E+007    1.14995E+007    1.14995E+007   -1.22921E+006   -4.22098E+006    1.57205E+007   -2.01645E+006    1.37361E+007   -4.08729E+006   -1.02075E+006    1.11574E+007   -3.10699E+005   -1.38537E+006    1.62794E+006
             993    1.70411E+007    1.40967E+007    1.40967E+007   -1.70941E+006   -3.95657E+006    1.80532E+007   -2.81023E+006    1.67029E+007   -3.71336E+006   -1.62292E+006    1.37670E+007    7.79208E+004   -2.06954E+006   -1.17518E+006
             994    1.57010E+007    1.37093E+007    1.37093E+007   -1.67058E+006   -2.29435E+006    1.60036E+007   -3.24811E+006    1.56731E+007   -2.11700E+006   -1.62358E+006    1.34849E+007    6.20221E+003   -1.60542E+006   -9.70460E+005
             995    1.47304E+007    1.31267E+007    1.31267E+007   -1.42916E+006   -1.77226E+006    1.48990E+007   -3.30844E+006    1.47214E+007   -1.37542E+006   -1.65247E+006    1.29532E+007   -6.98216E+004   -1.38500E+006   -7.87529E+005
             996    1.38159E+007    1.27292E+007    1.27292E+007   -5.65912E+005   -1.55437E+006    1.42836E+007   -3.53632E+006    1.37360E+007   -5.27355E+005   -1.51456E+006    1.26509E+007   -7.54589E+004   -8.28437E+005   -6.20183E+005
             997    1.36774E+007    1.27205E+007    1.27205E+007   -4.03078E+005   -1.45042E+006    1.41709E+007   -3.62233E+006    1.35867E+007   -3.92956E+005   -1.43164E+006    1.26916E+007   -7.18342E+004   -4.76442E+005   -4.07617E+005
             998    1.33579E+007    1.25611E+007    1.25611E+007   -1.45372E+005   -1.36463E+006    1.39257E+007   -3.68369E+006    1.32318E+007   -1.43847E+005   -1.35490E+006    1.25498E+007   -7.46311E+004   -2.94930E+005   -2.49568E+005
             999    1.33298E+007    1.25724E+007    1.25724E+007   -1.10494E+005   -1.32167E+006    1.38940E+007   -3.71340E+006    1.32051E+007   -1.14671E+005   -1.31698E+006    1.25719E+007   -7.19747E+004   -4.29036E+004   -7.23433E+004
            1000    1.78014E+007    1.48021E+007    1.48021E+007   -1.71459E+006   -4.05282E+006    1.88550E+007   -3.01157E+006    1.74509E+007   -3.80247E+006   -1.69127E+006    1.45285E+007    4.54601E+004   -2.15550E+006   -6.23173E+005
            1001    1.62218E+007    1.41891E+007    1.41891E+007   -1.75952E+006   -2.29273E+006    1.64818E+007   -3.37896E+006    1.62021E+007   -2.11892E+006   -1.74836E+006    1.40041E+007    8.05961E+003   -1.66763E+006   -4.78957E+005
            1002    1.51159E+007    1.34773E+007    1.34773E+007   -1.46360E+006   -1.80761E+006    1.52849E+007   -3.40204E+006    1.51071E+007   -1.33571E+006   -1.78923E+006    1.33311E+007   -2.87111E+004   -1.43488E+006   -3.36037E+005
            1003    1.41232E+007    1.30047E+007    1.30047E+007   -4.99720E+005   -1.66493E+006    1.46697E+007   -3.61337E+006    1.40144E+007   -4.50731E+005   -1.65941E+006    1.29502E+007   -2.40917E+004   -8.22682E+005   -2.49830E+005
            1004    1.39601E+007    1.29587E+007    1.29587E+007   -3.71107E+005   -1.55615E+006    1.45148E+007   -3.67713E+006    1.38462E+007   -3.55048E+005   -1.55439E+006    1.29408E+007   -1.85722E+004   -4.68989E+005   -1.38275E+005
            1005    1.36076E+007    1.27702E+007    1.27702E+007   -9.53733E+004   -1.47431E+006    1.42445E+007   -3.73351E+006    1.34490E+007   -8.89710E+004   -1.47362E+006    1.27631E+007   -1.76993E+004   -2.93018E+005   -7.76973E+004
            1006    1.35731E+007    1.27719E+007    1.27719E+007   -7.40649E+004   -1.42709E+006    1.41990E+007   -3.75691E+006    1.34202E+007   -7.41380E+004   -1.42689E+006    1.27718E+007   -1.49913E+004   -3.48367E+004   -2.29224E+004
            1007    1.80482E+007    1.50223E+007    1.50223E+007   -1.71217E+006   -4.10154E+006    1.91238E+007   -3.06953E+006    1.76871E+007   -3.84891E+006   -1.71206E+006    1.47696E+007   -4.08260E+003   -2.18344E+006    4.17003E+004
            1008    1.63776E+007    1.43461E+007    1.43461E+007   -1.74283E+006   -2.30565E+006    1.66517E+007   -3.43252E+006    1.63558E+007   -2.13186E+006   -1.74233E+006    1.41718E+007    5.55309E+002   -1.69104E+006    1.10562E+005
            1009    1.52091E+007    1.35544E+007    1.35544E+007   -1.50091E+006   -1.80403E+006    1.53584E+007   -3.41647E+006    1.52023E+007   -1.35885E+006   -1.80141E+006    1.34097E+007    7.03738E+003   -1.46265E+006    1.38585E+005
            1010    1.41403E+007    1.30312E+007    1.30312E+007   -5.07842E+005   -1.64203E+006    1.46733E+007   -3.62712E+006    1.40374E+007   -4.56632E+005   -1.63967E+006    1.29777E+007    1.68268E+004   -8.36136E+005    1.60633E+005
            1011    1.39676E+007    1.29667E+007    1.29667E+007   -3.91783E+005   -1.53931E+006    1.45060E+007   -3.67852E+006    1.38609E+007   -3.75364E+005   -1.53732E+006    1.29482E+007    2.19609E+004   -4.76974E+005    1.40943E+005
            1012    1.35780E+007    1.27520E+007    1.27520E+007   -1.09488E+005   -1.44393E+006    1.41960E+007   -3.73287E+006    1.34293E+007   -1.03068E+005   -1.44276E+006    1.27444E+007    2.52235E+004   -2.99602E+005    9.37685E+004
            1013    1.35423E+007    1.27506E+007    1.27506E+007   -9.12022E+004   -1.39748E+006    1.41481E+007   -3.75398E+006    1.33994E+007   -9.16867E+004   -1.39682E+006    1.27504E+007    2.72022E+004   -3.32532E+004    3.55594E+004
            1014    1.77928E+007    1.47607E+007    1.47607E+007   -1.71115E+006   -4.10962E+006    1.88703E+007   -2.97999E+006    1.74235E+007   -3.85989E+006   -1.67921E+006    1.44791E+007   -5.31679E+004   -2.15282E+006    7.27892E+005
            1015    1.61503E+007    1.40936E+007    1.40936E+007   -1.72960E+006   -2.36499E+006    1.64586E+007   -3.33300E+006    1.61221E+007   -2.18654E+006   -1.70866E+006    1.38942E+007   -3.28765E+003   -1.67116E+006    6.63089E+005
            1016    1.50082E+007    1.33463E+007    1.33463E+007   -1.51040E+006   -1.80890E+006    1.51552E+007   -3.34233E+006    1.50015E+007   -1.41582E+006   -1.73582E+006    1.31786E+007    4.94935E+004   -1.45080E+006    6.19812E+005
            1017    1.39170E+007    1.28052E+007    1.28052E+007   -5.57287E+005   -1.60693E+006    1.44121E+007   -3.54700E+006    1.38276E+007   -5.12821E+005   -1.57729E+006    1.27311E+007    6.62818E+004   -8.48830E+005    5.40708E+005
            1018    1.37109E+007    1.27351E+007    1.27351E+007   -4.10075E+005   -1.47896E+006    1.42140E+007   -3.61535E+006    1.36167E+007   -3.99153E+005   -1.46049E+006    1.27057E+007    7.03819E+004   -4.83009E+005    4.08833E+005
            1019    1.33205E+007    1.25226E+007    1.25226E+007   -1.29035E+005   -1.37879E+006    1.39014E+007   -3.67158E+006    1.31877E+007   -1.27410E+005   -1.36842E+006    1.25106E+007    7.76832E+004   -3.03284E+005    2.58097E+005
            1020    1.32689E+007    1.25156E+007    1.25156E+007   -1.01915E+005   -1.32066E+006    1.38362E+007   -3.69767E+006    1.31421E+007   -1.06872E+005   -1.31510E+006    1.25150E+007    7.81169E+004   -3.56679E+004    8.38220E+004
            1021    1.70276E+007    1.40274E+007    1.40274E+007   -1.68481E+006   -4.06522E+006    1.80926E+007   -2.75912E+006    1.66471E+007   -3.82188E+006   -1.58503E+006    1.36843E+007   -9.02026E+004   -2.07256E+006    1.25426E+006
            1022    1.55722E+007    1.35252E+007    1.35252E+007   -1.63825E+006   -2.42598E+006    1.59511E+007   -3.15364E+006    1.55273E+007   -2.24615E+006   -1.56604E+006    1.32731E+007   -1.16701E+004   -1.61101E+006    1.14775E+006
            1023    1.45069E+007    1.28781E+007    1.28781E+007   -1.44298E+006   -1.80781E+006    1.46859E+007   -3.20910E+006    1.44966E+007   -1.51449E+006   -1.53160E+006    1.26734E+007    8.42830E+004   -1.40833E+006    9.90028E+005
            1024    1.34674E+007    1.23867E+007    1.23867E+007   -6.61507E+005   -1.46392E+006    1.38507E+007   -3.42043E+006    1.34134E+007   -6.40998E+005   -1.37409E+006    1.22764E+007    1.14458E+005   -8.73537E+005    8.51632E+005
            1025    1.32160E+007    1.23053E+007    1.23053E+007   -4.69299E+005   -1.31180E+006    1.36171E+007   -3.50807E+006    1.31554E+007   -4.76410E+005   -1.25720E+006    1.22578E+007    1.23561E+005   -4.99899E+005    6.20306E+005
            1026    1.28431E+007    1.21173E+007    1.21173E+007   -1.99339E+005   -1.19446E+006    1.33117E+007   -3.57449E+006    1.27559E+007   -2.13041E+005   -1.16140E+006    1.20979E+007    1.35686E+005   -3.15305E+005    3.90702E+005
            1027    1.27737E+007    1.21020E+007    1.21020E+007   -1.56274E+005   -1.13125E+006    1.32332E+007   -3.60482E+006    1.26896E+007   -1.75955E+005   -1.11024E+006    1.21007E+007    1.37207E+005   -4.34720E+004    1.24866E+005
            1028    1.60067E+007    1.30245E+007    1.30245E+007   -1.70138E+006   -4.01201E+006    1.70365E+007   -2.43702E+006    1.56249E+007   -3.78072E+006   -1.53062E+006    1.26224E+007   -9.30239E+004   -1.94558E+006    1.59340E+006
            1029    1.47229E+007    1.26854E+007    1.26854E+007   -1.50709E+006   -2.51600E+006    1.52015E+007   -2.88745E+006    1.46449E+007   -2.33223E+006   -1.38298E+006    1.23776E+007    1.30949E+004   -1.52793E+006    1.46572E+006
            1030    1.38352E+007    1.22366E+007    1.22366E+007   -1.28080E+006   -1.89595E+006    1.41326E+007   -3.01996E+006    1.38044E+007   -1.63029E+006   -1.30593E+006    1.19961E+007    1.36226E+005   -1.33964E+006    1.23970E+006
            1031    1.28766E+007    1.18033E+007    1.18033E+007   -7.37512E+005   -1.38456E+006    1.31879E+007   -3.22709E+006    1.28399E+007   -8.00661E+005   -1.17423E+006    1.16562E+007    1.82875E+005   -8.91198E+005    1.05795E+006
            1032    1.25705E+007    1.17252E+007    1.17252E+007   -4.90817E+005   -1.17213E+006    1.28974E+007   -3.35409E+006    1.25289E+007   -5.55659E+005   -1.03911E+006    1.16570E+007    1.94881E+005   -5.18309E+005    7.76992E+005
            1033    1.22181E+007    1.15608E+007    1.15608E+007   -2.43657E+005   -1.03270E+006    1.25935E+007   -3.42813E+006    1.21605E+007   -3.02588E+005   -9.46520E+005    1.15335E+007    2.08108E+005   -3.24106E+005    4.85327E+005
            1034    1.21252E+007    1.15419E+007    1.15419E+007   -1.78481E+005   -9.51262E+005    1.24931E+007   -3.47071E+006    1.20696E+007   -2.41061E+005   -8.86491E+005    1.15397E+007    2.10503E+005   -5.51982E+004    1.55993E+005
            1035    1.48950E+007    1.19811E+007    1.19811E+007   -1.57731E+006   -3.96269E+006    1.59438E+007   -2.14703E+006    1.44559E+007   -3.74256E+006   -1.35855E+006    1.15422E+007   -7.93245E+004   -1.82030E+006    1.73537E+006
            1036    1.37909E+007    1.17938E+007    1.17938E+007   -1.25480E+006   -2.63541E+006    1.44293E+007   -2.63455E+006    1.36341E+007   -2.46794E+006   -1.08707E+006    1.14587E+007    1.17383E+004   -1.43480E+006    1.56907E+006
            1037    1.31105E+007    1.15243E+007    1.15243E+007   -1.04421E+006   -2.06813E+006    1.35924E+007   -2.80398E+006    1.30201E+007   -1.85508E+006   -1.00066E+006    1.12677E+007    1.69810E+005   -1.26322E+006    1.32747E+006
            1038    1.22294E+007    1.11515E+007    1.11515E+007   -7.03400E+005   -1.42083E+006    1.25724E+007   -3.00910E+006    1.21820E+007   -1.09726E+006   -8.51539E+005    1.09761E+007    2.58287E+005   -9.22348E+005    1.14705E+006
            1039    1.18597E+007    1.10502E+007    1.10502E+007   -4.59973E+005   -1.13053E+006    1.21808E+007   -3.15324E+006    1.18169E+007   -7.77684E+005   -7.27308E+005    1.09647E+007    2.96224E+005   -5.56114E+005    8.49825E+005
            1040    1.15096E+007    1.09065E+007    1.09065E+007   -2.46286E+005   -9.29455E+005    1.18360E+007   -3.24360E+006    1.14639E+007   -5.17696E+005   -6.22860E+005    1.08714E+007    3.20247E+005   -3.52832E+005    5.38857E+005
            1041    1.13800E+007    1.08683E+007    1.08683E+007   -1.60684E+005   -8.32830E+005    1.17011E+007   -3.29160E+006    1.13352E+007   -4.28738E+005   -5.61771E+005    1.08653E+007    3.28157E+005   -7.18841E+004    1.72637E+005
            1042    1.39396E+007    1.11565E+007    1.11565E+007   -1.32430E+006   -3.88646E+006    1.50429E+007   -1.98191E+006    1.33944E+007   -3.68144E+006   -1.10233E+006    1.07295E+007   -5.92894E+004   -1.70058E+006    1.67992E+006
            1043    1.30200E+007    1.10006E+007    1.10006E+007   -1.15985E+006   -2.73558E+006    1.37361E+007   -2.36838E+006    1.28028E+007   -2.57687E+006   -9.72710E+005    1.06547E+007    8.98919E+003   -1.37064E+006    1.57707E+006
            1044    1.23942E+007    1.08307E+007    1.08307E+007   -8.52283E+005   -2.16947E+006    1.30002E+007   -2.60300E+006    1.22353E+007   -2.00723E+006   -7.49467E+005    1.05657E+007    1.42308E+005   -1.16146E+006    1.37386E+006
            1045    1.15820E+007    1.04810E+007    1.04810E+007   -5.59655E+005   -1.57546E+006    1.20564E+007   -2.78195E+006    1.14811E+007   -1.37539E+006   -5.70864E+005    1.02921E+007    2.49810E+005   -9.16178E+005    1.16133E+006
            1046    1.11139E+007    1.03454E+007    1.03454E+007   -2.72218E+005   -1.20571E+006    1.15512E+007   -2.95584E+006    1.10251E+007   -1.00000E+006   -3.80688E+005    1.02482E+007    3.22302E+005   -5.77554E+005    8.69095E+005
            1047    1.07712E+007    1.02174E+007    1.02174E+007   -8.00517E+004   -9.72094E+005    1.11895E+007   -3.05509E+006    1.06877E+007   -7.47093E+005   -2.66992E+005    1.01794E+007    3.62828E+005   -3.68658E+005    5.30633E+005
            1048    1.06154E+007    1.01726E+007    1.01726E+007    3.05100E+004   -8.60021E+005    1.10326E+007   -3.11437E+006    1.05309E+007   -6.36061E+005   -1.89789E+005    1.01690E+007    3.84593E+005   -8.74686E+004    1.77939E+005
            1049    1.35976E+007    1.07818E+007    1.07818E+007   -1.22051E+006   -3.98593E+006    1.47677E+007   -1.85845E+006    1.29420E+007   -3.81279E+006   -1.04385E+006    1.04320E+007   -5.42440E+004   -1.56206E+006    1.46369E+006
            1050    1.26422E+007    1.04315E+007    1.04315E+007   -9.92211E+005   -3.15125E+006    1.35827E+007   -2.09600E+006    1.22171E+007   -2.98209E+006   -8.00716E+005    1.00708E+007    4.74129E+004   -1.40058E+006    1.55682E+006
            1051    1.18485E+007    1.01084E+007    1.01084E+007   -7.18899E+005   -2.54847E+006    1.26569E+007   -2.28034E+006    1.15242E+007   -2.38826E+006   -5.94894E+005    9.82417E+006    1.76466E+005   -1.15526E+006    1.39417E+006
            1052    1.10200E+007    9.75766E+006    9.75766E+006   -3.41244E+005   -1.99618E+006    1.17538E+007   -2.47341E+006    1.07351E+007   -1.82980E+006   -3.05507E+005    9.55554E+006    2.82907E+005   -9.40382E+005    1.14773E+006
            1053    1.04684E+007    9.58879E+006    9.58879E+006   -2.46988E+004   -1.56401E+006    1.11528E+007   -2.66669E+006    1.02091E+007   -1.40176E+006   -8.25009E+004    9.48434E+006    3.73871E+005   -6.38819E+005    8.28060E+005
            1054    1.01261E+007    9.50091E+006    9.50091E+006    1.92502E+005   -1.28142E+006    1.07823E+007   -2.80400E+006    9.88048E+006   -1.12054E+006    7.06151E+004    9.46191E+006    4.22484E+005   -3.98599E+005    4.91500E+005
            1055    9.99112E+006    9.49081E+006    9.49081E+006    2.93623E+005   -1.13948E+006    1.06303E+007   -2.88165E+006    9.75586E+006   -9.79411E+005    1.37328E+005    9.48704E+006    4.48179E+005   -1.15343E+005    1.57676E+005
            1056    9.49213E+006    8.94233E+006    8.94233E+006    6.12583E+005   -1.39200E+006    1.03343E+007   -2.72097E+006    8.99722E+006   -1.33503E+006    5.59014E+005    8.93893E+006    3.25686E+005   -1.45254E+005    1.10562E+005
            1057    9.61215E+006    8.92659E+006    8.92659E+006    5.48306E+005   -1.56704E+006    1.04936E+007   -2.63595E+006    9.06598E+006   -1.50204E+006    5.14502E+005    8.89540E+006    3.00174E+005   -4.24118E+005    3.54574E+005
            1058    9.90921E+006    8.93461E+006    8.93461E+006    3.48495E+005   -1.90837E+006    1.08430E+007   -2.45824E+006    9.30423E+006   -1.82784E+006    3.60735E+005    8.84183E+006    2.43433E+005   -6.86798E+005    6.63146E+005
            1059    1.04771E+007    9.07539E+006    9.07539E+006   -1.47757E+004   -2.38321E+006    1.14586E+007   -2.22580E+006    9.84740E+006   -2.28774E+006    6.85996E+004    8.89654E+006    1.42646E+005   -9.16912E+005    9.83237E+005
            1060    1.12686E+007    9.40346E+006    9.40346E+006   -3.99241E+005   -2.90816E+006    1.23116E+007   -2.03202E+006    1.06126E+007   -2.79807E+006   -2.33508E+005    9.12763E+006    1.36293E+004   -1.11369E+006    1.29683E+006
            1061    1.22739E+007    9.96752E+006    9.96752E+006   -7.14430E+005   -3.44004E+006    1.34076E+007   -1.93768E+006    1.15632E+007   -3.31713E+006   -4.94420E+005    9.62459E+006   -1.33248E+005   -1.26687E+006    1.51156E+006
            1062    1.34164E+007    1.08259E+007    1.08259E+007   -8.63801E+005   -3.82315E+006    1.46490E+007   -2.04630E+006    1.26504E+007   -3.69385E+006   -5.93333E+005    1.04261E+007   -2.78450E+005   -1.33440E+006    1.75292E+006
            1063    1.41830E+007    1.08400E+007    1.08400E+007   -1.99355E+006   -4.38771E+006    1.52277E+007   -1.48624E+006    1.37173E+007   -4.26905E+006   -1.90339E+006    1.06312E+007    1.95256E+005    1.31104E+006    1.08354E+006
            1064    1.43732E+007    1.10165E+007    1.10165E+007   -1.60314E+006   -4.62862E+006    1.56451E+007   -1.59492E+006    1.36289E+007   -4.49557E+006   -1.46906E+006    1.07494E+007    2.89296E+005    1.37774E+006    1.31846E+006
            1065    1.57554E+007    1.23487E+007    1.23487E+007   -1.41932E+006   -4.83404E+006    1.71827E+007   -2.03177E+006    1.48882E+007   -4.68658E+006   -1.24903E+006    1.20309E+007    3.30899E+005    1.51881E+006    1.54476E+006
            1066    1.72754E+007    1.37468E+007    1.37468E+007   -1.28971E+006   -5.12348E+006    1.88702E+007   -2.44452E+006    1.62765E+007   -4.97765E+006   -1.13230E+006    1.34435E+007    3.19886E+005    1.59377E+006    1.55156E+006
            1067    1.59978E+007    1.31346E+007    1.31346E+007   -1.69256E+006   -3.82092E+006    1.69555E+007   -2.54036E+006    1.56746E+007   -3.58951E+006   -1.54113E+006    1.27517E+007    7.49979E+004    1.93758E+006    1.51575E+006
            1068    1.48517E+007    1.28878E+007    1.28878E+007   -1.58145E+006   -2.31885E+006    1.52067E+007   -2.99585E+006    1.48104E+007   -2.13450E+006   -1.48780E+006    1.26098E+007   -1.70064E+004    1.50147E+006    1.35775E+006
            1069    1.40583E+007    1.25204E+007    1.25204E+007   -1.31111E+006   -1.75422E+006    1.42746E+007   -3.15169E+006    1.40426E+007   -1.41630E+006   -1.44102E+006    1.23124E+007   -1.18783E+005    1.29907E+006    1.11268E+006
            1070    1.32681E+007    1.22192E+007    1.22192E+007   -6.24992E+005   -1.43572E+006    1.36549E+007   -3.38616E+006    1.32122E+007   -6.17887E+005   -1.33006E+006    1.21064E+007   -1.29503E+005    8.22639E+005    9.10277E+005
            1071    1.30873E+007    1.22107E+007    1.22107E+007   -4.17350E+005   -1.29194E+006    1.35027E+007   -3.50049E+006    1.30213E+007   -4.25435E+005   -1.23658E+006    1.21635E+007   -1.25026E+005    4.75704E+005    6.33024E+005
            1072    1.28293E+007    1.21107E+007    1.21107E+007   -1.78568E+005   -1.19796E+006    1.33086E+007   -3.57804E+006    1.27377E+007   -1.89833E+005   -1.16868E+006    1.20926E+007   -1.26310E+005    2.94457E+005    3.84566E+005
            1073    1.27935E+007    1.21238E+007    1.21238E+007   -1.28610E+005   -1.14964E+006    1.32734E+007   -3.61518E+006    1.27013E+007   -1.43666E+005   -1.13319E+006    1.21224E+007   -1.23371E+005    4.96618E+004    1.26301E+005
            1074    1.47974E+007    1.19744E+007    1.19744E+007   -1.63833E+006   -3.77526E+006    1.57497E+007   -2.18693E+006    1.44441E+007   -3.55848E+006   -1.43851E+006    1.15578E+007    5.91303E+004    1.78659E+006    1.67590E+006
            1075    1.39352E+007    1.20000E+007    1.20000E+007   -1.35527E+006   -2.45045E+006    1.44504E+007   -2.73142E+006    1.38378E+007   -2.27001E+006   -1.21729E+006    1.16816E+007   -5.30855E+004    1.40734E+006    1.54605E+006
            1076    1.32532E+007    1.17507E+007    1.17507E+007   -1.08597E+006   -1.88294E+006    1.36337E+007   -2.92727E+006    1.31991E+007   -1.62621E+006   -1.10174E+006    1.15097E+007   -1.87093E+005    1.23307E+006    1.29624E+006
            1077    1.25402E+007    1.15056E+007    1.15056E+007   -7.01761E+005   -1.34270E+006    1.28483E+007   -3.15372E+006    1.25032E+007   -8.81995E+005   -1.01334E+006    1.13565E+007   -2.37033E+005    8.56618E+005    1.07704E+006
            1078    1.23301E+007    1.15192E+007    1.15192E+007   -4.67273E+005   -1.12784E+006    1.26471E+007   -3.30804E+006    1.22902E+007   -5.99568E+005   -9.26677E+005    1.14504E+007   -2.47191E+005    5.14231E+005    7.75514E+005
            1079    1.20794E+007    1.14302E+007    1.14302E+007   -2.61119E+005   -1.00311E+006    1.24333E+007   -3.38865E+006    1.20280E+007   -3.64770E+005   -8.71914E+005    1.14026E+007   -2.52919E+005    3.17121E+005    4.90459E+005
            1080    1.20197E+007    1.14424E+007    1.14424E+007   -1.87591E+005   -9.32480E+005    1.23749E+007   -3.44077E+006    1.19676E+007   -2.84910E+005   -8.32845E+005    1.14401E+007   -2.50595E+005    6.68643E+004    1.55477E+005
            1081    1.39576E+007    1.11675E+007    1.11675E+007   -1.56795E+006   -3.75436E+006    1.49218E+007   -1.94838E+006    1.35643E+007   -3.54747E+006   -1.35101E+006    1.07436E+007    1.83414E+004    1.67008E+006    1.71047E+006
            1082    1.29122E+007    1.10221E+007    1.10221E+007   -1.08956E+006   -2.56416E+006    1.35862E+007   -2.45611E+006    1.27207E+007   -2.40832E+006   -9.02948E+005    1.06796E+007   -2.99673E+004    1.31979E+006    1.59577E+006
            1083    1.24599E+007    1.09735E+007    1.09735E+007   -8.65628E+005   -2.02593E+006    1.29995E+007   -2.69399E+006    1.23375E+007   -1.84891E+006   -8.01265E+005    1.07322E+007   -1.69723E+005    1.14210E+006    1.29735E+006
            1084    1.17987E+007    1.07788E+007    1.07788E+007   -5.79523E+005   -1.41589E+006    1.21947E+007   -2.92779E+006    1.17318E+007   -1.18309E+006   -6.42606E+005    1.06091E+007   -2.55088E+005    8.75768E+005    1.11661E+006
            1085    1.14622E+007    1.07078E+007    1.07078E+007   -3.70160E+005   -1.10348E+006    1.18113E+007   -3.07805E+006    1.14093E+007   -8.44057E+005   -5.42204E+005    1.06204E+007   -3.02707E+005    5.45920E+005    8.46349E+005
            1086    1.11749E+007    1.06220E+007    1.06220E+007   -1.84328E+005   -8.88159E+005    1.15101E+007   -3.18317E+006    1.11248E+007   -5.95817E+005   -4.41915E+005    1.05872E+007   -3.29224E+005    3.42950E+005    5.28036E+005
            1087    1.10849E+007    1.06175E+007    1.06175E+007   -1.05059E+005   -7.97183E+005    1.14147E+007   -3.23843E+006    1.10361E+007   -4.91667E+005   -4.07310E+005    1.06143E+007   -3.42391E+005    8.08362E+004    1.74208E+005
            1088    1.29754E+007    1.02988E+007    1.02988E+007   -1.05096E+006   -3.84664E+006    1.41454E+007   -1.80038E+006    1.22700E+007   -3.64906E+006   -8.65807E+005    9.91602E+006   -1.07325E+004    1.59796E+006    1.49423E+006
            1089    1.25849E+007    1.04766E+007    1.04766E+007   -1.04876E+006   -2.95126E+006    1.34278E+007   -2.15885E+006    1.22551E+007   -2.77876E+006   -9.13143E+005    1.01685E+007   -9.90207E+004    1.36044E+006    1.39543E+006
            1090    1.19407E+007    1.03297E+007    1.03297E+007   -6.83625E+005   -2.36103E+006    1.26907E+007   -2.42834E+006    1.16712E+007   -2.19523E+006   -5.79069E+005    1.00593E+007   -1.91126E+005    1.13900E+006    1.36603E+006
            1091    1.11418E+007    9.95728E+006    9.95728E+006   -3.80778E+005   -1.84370E+006    1.18010E+007   -2.57760E+006    1.09226E+007   -1.66459E+006   -3.66867E+005    9.76426E+006   -2.95596E+005    9.03871E+005    1.14821E+006
            1092    1.06227E+007    9.80876E+006    9.80876E+006   -5.94710E+004   -1.43449E+006    1.12432E+007   -2.77160E+006    1.04197E+007   -1.25846E+006   -1.35602E+005    9.70886E+006   -3.75013E+005    6.07054E+005    8.33883E+005
            1093    1.03389E+007    9.73676E+006    9.73676E+006    1.01973E+005   -1.18564E+006    1.09224E+007   -2.88437E+006    1.01562E+007   -1.00130E+006   -4.45748E+004    9.69897E+006   -4.20011E+005    3.77549E+005    5.04057E+005
            1094    1.02145E+007    9.73210E+006    9.73210E+006    2.03474E+005   -1.05212E+006    1.07842E+007   -2.96115E+006    1.00386E+007   -8.66454E+005    2.17941E+004    9.72811E+006   -4.42878E+005    1.10094E+005    1.70700E+005
            1095    9.55098E+006    9.00288E+006    9.00288E+006    5.74889E+005   -1.37131E+006    1.03742E+007   -2.73549E+006    9.08864E+006   -1.30880E+006    5.15719E+005    8.99954E+006   -3.36172E+005    1.45272E+005    1.09369E+005
            1096    9.64041E+006    8.97295E+006    8.97295E+006    5.43141E+005   -1.53808E+006    1.05110E+007   -2.65934E+006    9.11416E+006   -1.46867E+006    5.05599E+005    8.94108E+006   -3.11700E+005    4.21211E+005    3.67314E+005
            1097    9.92335E+006    8.97961E+006    8.97961E+006    3.49807E+005   -1.86353E+006    1.08431E+007   -2.48863E+006    9.34346E+006   -1.78113E+006    3.59844E+005    8.88718E+006   -2.54971E+005    6.71166E+005    6.75887E+005
            1098    1.04594E+007    9.12316E+006    9.12316E+006    4.50758E+004   -2.31446E+006    1.14376E+007   -2.28459E+006    9.83347E+006   -2.21573E+006    1.34902E+005    8.93460E+006   -1.62529E+005    9.06511E+005    1.03433E+006
            1099    1.13437E+007    9.50625E+006    9.50625E+006   -4.52596E+005   -2.84175E+006    1.23480E+007   -2.07064E+006    1.07556E+007   -2.73118E+006   -2.63932E+005    9.20701E+006   -3.22892E+004    1.09741E+006    1.40364E+006
            1100    1.25903E+007    1.03692E+007    1.03692E+007   -7.09318E+005   -3.32266E+006    1.36919E+007   -2.11241E+006    1.19570E+007   -3.19230E+006   -4.40794E+005    9.97034E+006    9.72741E+004    1.30686E+006    1.70828E+006
            1101    1.41443E+007    1.14067E+007    1.14067E+007   -1.33973E+006   -3.80998E+006    1.52167E+007   -2.08566E+006    1.36462E+007   -3.68243E+006   -1.16054E+006    1.10999E+007    1.32689E+005    1.37902E+006    1.49485E+006
            1102    9.98799E+006    9.48691E+006    9.48691E+006    2.94836E+005   -1.14147E+006    1.06284E+007   -2.88009E+006    9.75158E+006   -9.82571E+005    1.40021E+005    9.48283E+006    4.47069E+005    1.18865E+005   -1.64842E+005
            1103    1.06085E+007    1.01645E+007    1.01645E+007    3.10881E+004   -8.62546E+005    1.10271E+007   -3.11102E+006    1.05233E+007   -6.40658E+005   -1.86781E+005    1.01605E+007    3.84073E+005    9.32185E+004   -1.85594E+005
            1104    1.13758E+007    1.08628E+007    1.08628E+007   -1.62493E+005   -8.33886E+005    1.16966E+007   -3.28879E+006    1.13311E+007   -4.32650E+005   -5.60229E+005    1.08593E+007    3.28091E+005    7.96892E+004   -1.85426E+005
            1105    1.21264E+007    1.15415E+007    1.15415E+007   -1.80011E+005   -9.52843E+005    1.24944E+007   -3.46956E+006    1.20708E+007   -2.43315E+005   -8.86898E+005    1.15389E+007    2.11563E+005    6.36587E+004   -1.70086E+005
            1106    1.27766E+007    1.21033E+007    1.21033E+007   -1.56972E+005   -1.13352E+006    1.32369E+007   -3.60428E+006    1.26922E+007   -1.76950E+005   -1.11195E+006    1.21018E+007    1.38390E+005    5.04012E+004   -1.35624E+005
            1107    1.32709E+007    1.25170E+007    1.25170E+007   -1.01786E+005   -1.32172E+006    1.38388E+007   -3.69785E+006    1.31439E+007   -1.06910E+005   -1.31590E+006    1.25164E+007    7.95905E+004    4.02165E+004   -8.90575E+004
            1108    1.35429E+007    1.27507E+007    1.27507E+007   -9.13027E+004   -1.39842E+006    1.41491E+007   -3.75364E+006    1.33999E+007   -9.18273E+004   -1.39771E+006    1.27505E+007    2.84538E+004    3.57445E+004   -3.58435E+004
            1109    1.35722E+007    1.27716E+007    1.27716E+007   -7.37158E+004   -1.42631E+006    1.41979E+007   -3.75719E+006    1.34193E+007   -7.37695E+004   -1.42611E+006    1.27714E+007   -1.41956E+004    3.52571E+004    2.38784E+004
            1110    1.33286E+007    1.25713E+007    1.25713E+007   -1.10643E+005   -1.32133E+006    1.38926E+007   -3.71311E+006    1.32040E+007   -1.14756E+005   -1.31670E+006    1.25708E+007   -7.13825E+004    4.20369E+004    7.29740E+004
            1111    1.01244E+007    9.49369E+006    9.49369E+006    1.91800E+005   -1.28993E+006    1.07836E+007   -2.79852E+006    9.87604E+006   -1.12970E+006    7.18033E+004    9.45345E+006    4.21696E+005    4.05004E+005   -4.99020E+005
            1112    1.07702E+007    1.02101E+007    1.02101E+007   -8.17653E+004   -9.81947E+005    1.11921E+007   -3.04881E+006    1.06851E+007   -7.59017E+005   -2.64654E+005    1.01701E+007    3.62570E+005    3.77354E+005   -5.44567E+005
            1113    1.15193E+007    1.09088E+007    1.09088E+007   -2.54400E+005   -9.36259E+005    1.18450E+007   -3.23937E+006    1.14737E+007   -5.27646E+005   -6.25528E+005    1.08713E+007    3.19070E+005    3.64906E+005   -5.55924E+005
            1114    1.22370E+007    1.15717E+007    1.15717E+007   -2.52359E+005   -1.04028E+006    1.26119E+007   -3.42634E+006    1.21798E+007   -3.10231E+005   -9.53302E+005    1.15425E+007    2.06416E+005    3.35835E+005   -5.01446E+005
            1115    1.28634E+007    1.21309E+007    1.21309E+007   -2.05497E+005   -1.20158E+006    1.33325E+007   -3.57460E+006    1.27762E+007   -2.18229E+005   -1.16854E+006    1.21106E+007    1.33661E+005    3.24862E+005   -3.99032E+005
            1116    1.33342E+007    1.25320E+007    1.25320E+007   -1.32855E+005   -1.38340E+006    1.39154E+007   -3.67192E+006    1.32013E+007   -1.30743E+005   -1.37316E+006    1.25197E+007    7.61869E+004    3.09710E+005   -2.59635E+005
            1117    1.35838E+007    1.27565E+007    1.27565E+007   -1.11108E+005   -1.44509E+006    1.42015E+007   -3.73342E+006    1.34352E+007   -1.04514E+005   -1.44399E+006    1.27488E+007    2.43346E+004    3.02581E+005   -9.06604E+004
            1118    1.36060E+007    1.27687E+007    1.27687E+007   -9.60051E+004   -1.47375E+006    1.42424E+007   -3.73298E+006    1.34477E+007   -8.96374E+004   -1.47298E+006    1.27615E+007   -1.84719E+004    2.92804E+005    8.19515E+004
            1119    1.33474E+007    1.25535E+007    1.25535E+007   -1.43954E+005   -1.36062E+006    1.39141E+007   -3.68297E+006    1.32218E+007   -1.42651E+005   -1.35064E+006    1.25422E+007   -7.54669E+004    2.92796E+005    2.52727E+005
            1120    1.04767E+007    9.58630E+006    9.58630E+006   -3.11284E+004   -1.57766E+006    1.11640E+007   -2.65917E+006    1.02151E+007   -1.41625E+006   -8.52513E+004    9.47901E+006    3.70881E+005    6.47513E+005   -8.39247E+005
            1121    1.11372E+007    1.03541E+007    1.03541E+007   -2.85804E+005   -1.22133E+006    1.15754E+007   -2.94899E+006    1.10483E+007   -1.01701E+006   -3.88738E+005    1.02527E+007    3.18442E+005    5.93369E+005   -8.86074E+005
            1122    1.18994E+007    1.10732E+007    1.10732E+007   -4.78511E+005   -1.14581E+006    1.22190E+007   -3.14963E+006    1.18572E+007   -7.92463E+005   -7.41741E+005    1.09831E+007    2.92334E+005    5.75607E+005   -8.71143E+005
            1123    1.26195E+007    1.17589E+007    1.17589E+007   -5.03695E+005   -1.18947E+006    1.29484E+007   -3.35524E+006    1.25774E+007   -5.65657E+005   -1.05624E+006    1.16876E+007    1.92472E+005    5.36150E+005   -7.92081E+005
            1124    1.32577E+007    1.23357E+007    1.23357E+007   -4.76854E+005   -1.32625E+006    1.36619E+007   -3.51086E+006    1.31962E+007   -4.82596E+005   -1.27186E+006    1.22870E+007    1.22331E+005    5.12376E+005   -6.23889E+005
            1125    1.37366E+007    1.27548E+007    1.27548E+007   -4.13414E+005   -1.48712E+006    1.42419E+007   -3.61810E+006    1.36417E+007   -4.01941E+005   -1.46904E+006    1.27253E+007    7.02660E+004    4.90178E+005   -4.03373E+005
            1126    1.39745E+007    1.29718E+007    1.29718E+007   -3.93000E+005   -1.54143E+006    1.45133E+007   -3.67913E+006    1.38677E+007   -3.76456E+005   -1.53963E+006    1.29535E+007    2.20945E+004    4.78708E+005   -1.31279E+005
            1127    1.39523E+007    1.29531E+007    1.29531E+007   -3.70374E+005   -1.55272E+006    1.45058E+007   -3.67666E+006    1.38389E+007   -3.54443E+005   -1.55078E+006    1.29352E+007   -1.87078E+004    4.67302E+005    1.46667E+005
            1128    1.36641E+007    1.27104E+007    1.27104E+007   -4.01796E+005   -1.44556E+006    1.41560E+007   -3.62103E+006    1.35739E+007   -3.92137E+005   -1.42647E+006    1.26817E+007   -7.18791E+004    4.70254E+005    4.12177E+005
            1129    1.10557E+007    9.77639E+006    9.77639E+006   -3.54934E+005   -2.01569E+006    1.17921E+007   -2.46859E+006    1.07696E+007   -1.84942E+006   -3.14562E+005    9.56975E+006    2.78155E+005    9.51666E+005   -1.16218E+006
            1130    1.16420E+007    1.05140E+007    1.05140E+007   -5.83688E+005   -1.60503E+006    1.21190E+007   -2.77510E+006    1.15406E+007   -1.40505E+006   -5.88663E+005    1.03190E+007    2.44638E+005    9.36193E+005   -1.18029E+006
            1131    1.23141E+007    1.12074E+007    1.12074E+007   -7.35577E+005   -1.44709E+006    1.26544E+007   -3.00823E+006    1.22677E+007   -1.12481E+006   -8.76290E+005    1.10258E+007    2.51307E+005    9.49603E+005   -1.16386E+006
            1132    1.29557E+007    1.18598E+007    1.18598E+007   -7.63537E+005   -1.40446E+006    1.32642E+007   -3.23059E+006    1.29199E+007   -8.20109E+005   -1.19736E+006    1.17092E+007    1.76790E+005    9.15841E+005   -1.06229E+006
            1133    1.35257E+007    1.24318E+007    1.24318E+007   -6.74969E+005   -1.47708E+006    1.39089E+007   -3.42659E+006    1.34720E+007   -6.50590E+005   -1.39066E+006    1.23210E+007    1.10323E+005    8.90300E+005   -8.40582E+005
            1134    1.39433E+007    1.28268E+007    1.28268E+007   -5.59628E+005   -1.61346E+006    1.44403E+007   -3.55124E+006    1.38532E+007   -5.13778E+005   -1.58585E+006    1.27533E+007    6.42275E+004    8.55545E+005   -5.21841E+005
            1135    1.41413E+007    1.30343E+007    1.30343E+007   -5.03705E+005   -1.64149E+006    1.46758E+007   -3.62970E+006    1.40377E+007   -4.52554E+005   -1.63960E+006    1.29813E+007    1.53180E+004    8.34693E+005   -1.43377E+005
            1136    1.41035E+007    1.29916E+007    1.29916E+007   -4.89807E+005   -1.66097E+006    1.46526E+007   -3.61361E+006    1.39935E+007   -4.41842E+005   -1.65496E+006    1.29376E+007   -2.46375E+004    8.14176E+005    2.61884E+005
            1137    1.37921E+007    1.27158E+007    1.27158E+007   -5.49395E+005   -1.54888E+006    1.42647E+007   -3.53918E+006    1.37103E+007   -5.12440E+005   -1.50896E+006    1.26390E+007   -7.71250E+004    8.15574E+005    6.19707E+005
            1138    1.18911E+007    1.01330E+007    1.01330E+007   -7.33651E+005   -2.56917E+006    1.27021E+007   -2.27671E+006    1.15659E+007   -2.40909E+006   -6.05735E+005    9.84496E+006    1.69926E+005    1.16640E+006   -1.40413E+006
            1139    1.24761E+007    1.08838E+007    1.08838E+007   -8.78236E+005   -2.20086E+006    1.30847E+007   -2.60157E+006    1.23168E+007   -2.03865E+006   -7.69409E+005    1.06128E+007    1.33389E+005    1.18062E+006   -1.39105E+006
            1140    1.32169E+007    1.15993E+007    1.15993E+007   -1.07557E+006   -2.10012E+006    1.36994E+007   -2.80786E+006    1.31271E+007   -1.88752E+006   -1.02633E+006    1.13374E+007    1.61297E+005    1.28749E+006   -1.33967E+006
            1141    1.39370E+007    1.23143E+007    1.23143E+007   -1.30926E+006   -1.91625E+006    1.42305E+007   -3.02959E+006    1.39072E+007   -1.65261E+006   -1.33026E+006    1.20716E+007    1.29543E+005    1.36151E+006   -1.23724E+006
            1142    1.45700E+007    1.29291E+007    1.29291E+007   -1.46069E+006   -1.81471E+006    1.47438E+007   -3.21790E+006    1.45603E+007   -1.52483E+006   -1.54649E+006    1.27250E+007    8.00550E+004    1.42197E+006   -9.71730E+005
            1143    1.50268E+007    1.33643E+007    1.33643E+007   -1.51194E+006   -1.80863E+006    1.51729E+007   -3.34791E+006    1.50202E+007   -1.41298E+006   -1.74116E+006    1.31979E+007    4.76558E+004    1.45476E+006   -5.96923E+005
            1144    1.51921E+007    1.35443E+007    1.35443E+007   -1.48809E+006   -1.80267E+006    1.53469E+007   -3.41784E+006    1.51848E+007   -1.34636E+006   -1.80069E+006    1.34006E+007    5.89259E+003    1.45789E+006   -1.22845E+005
            1145    1.50837E+007    1.34560E+007    1.34560E+007   -1.44213E+006   -1.80665E+006    1.52626E+007   -3.40240E+006    1.50737E+007   -1.31590E+006   -1.78782E+006    1.33109E+007   -2.98884E+004    1.42448E+006    3.45576E+005
            1146    1.46940E+007    1.31022E+007    1.31022E+007   -1.40991E+006   -1.76724E+006    1.48695E+007   -3.30836E+006    1.46843E+007   -1.35446E+006   -1.65107E+006    1.29306E+007   -7.20142E+004    1.37431E+006    7.84316E+005
            1147    1.26858E+007    1.04586E+007    1.04586E+007   -1.00326E+006   -3.17170E+006    1.36303E+007   -2.09454E+006    1.22584E+007   -3.00165E+006   -8.08890E+005    1.00942E+007    4.27667E+004    1.41028E+006   -1.56690E+006
            1148    1.31001E+007    1.10553E+007    1.10553E+007   -1.17874E+006   -2.76620E+006    1.38215E+007   -2.37011E+006    1.28810E+007   -2.60617E+006   -9.88357E+005    1.07049E+007    2.16706E+003    1.38671E+006   -1.58922E+006
            1149    1.38866E+007    1.18687E+007    1.18687E+007   -1.27064E+006   -2.66051E+006    1.45292E+007   -2.64586E+006    1.37288E+007   -2.49199E+006   -1.10179E+006    1.15314E+007    5.72823E+003    1.45156E+006   -1.57313E+006
            1150    1.47926E+007    1.27482E+007    1.27482E+007   -1.51587E+006   -2.52156E+006    1.52698E+007   -2.90359E+006    1.47154E+007   -2.33767E+006   -1.39340E+006    1.24418E+007    1.06557E+004    1.53690E+006   -1.45654E+006
            1151    1.55983E+007    1.35593E+007    1.35593E+007   -1.63864E+006   -2.41075E+006    1.59701E+007   -3.16997E+006    1.55553E+007   -2.23159E+006   -1.56872E+006    1.33102E+007   -1.24874E+004    1.61113E+006   -1.13069E+006
            1152    1.61320E+007    1.40921E+007    1.40921E+007   -1.73064E+006   -2.33236E+006    1.64245E+007   -3.34304E+006    1.61067E+007   -2.15499E+006   -1.71118E+006    1.38953E+007   -1.78156E+003    1.66250E+006   -6.49523E+005
            1153    1.63345E+007    1.43247E+007    1.43247E+007   -1.74554E+006   -2.26194E+006    1.65866E+007   -3.43906E+006    1.63161E+007   -2.09002E+006   -1.74508E+006    1.41523E+007   -2.57815E+002    1.67880E+006   -1.04134E+005
            1154    1.61771E+007    1.41645E+007    1.41645E+007   -1.76046E+006   -2.25345E+006    1.64180E+007   -3.38354E+006    1.61602E+007   -2.08089E+006   -1.74975E+006    1.39813E+007    7.12051E+003    1.65653E+006    4.77073E+005
            1155    1.56636E+007    1.36890E+007    1.36890E+007   -1.66794E+006   -2.26409E+006    1.59531E+007   -3.25233E+006    1.56380E+007   -2.08667E+006   -1.62273E+006    1.34664E+007    2.93952E+003    1.59550E+006    9.68298E+005
            1156    1.36162E+007    1.07977E+007    1.07977E+007   -1.21927E+006   -3.99113E+006    1.47888E+007   -1.86243E+006    1.29584E+007   -3.81771E+006   -1.03838E+006    1.04434E+007   -5.84341E+004    1.56512E+006   -1.48032E+006
            1157    1.40062E+007    1.12093E+007    1.12093E+007   -1.33380E+006   -3.90397E+006    1.51133E+007   -1.99051E+006    1.34602E+007   -3.69854E+006   -1.11075E+006    1.07808E+007   -6.40399E+004    1.70826E+006   -1.68595E+006
            1158    1.49576E+007    1.20315E+007    1.20315E+007   -1.58092E+006   -3.98098E+006    1.60125E+007   -2.15655E+006    1.45149E+007   -3.76028E+006   -1.36270E+006    1.15926E+007   -8.45964E+004    1.82920E+006   -1.73399E+006
            1159    1.60444E+007    1.30612E+007    1.30612E+007   -1.70090E+006   -4.01433E+006    1.70756E+007   -2.44867E+006    1.56626E+007   -3.78210E+006   -1.53177E+006    1.26599E+007   -9.39957E+004    1.95240E+006   -1.58732E+006
            1160    1.70225E+007    1.40315E+007    1.40315E+007   -1.68925E+006   -4.04689E+006    1.80784E+007   -2.76513E+006    1.66492E+007   -3.80298E+006   -1.59083E+006    1.36892E+007   -9.06330E+004    2.07444E+006   -1.24578E+006
            1161    1.77506E+007    1.47373E+007    1.47373E+007   -1.71561E+006   -4.07485E+006    1.88122E+007   -2.98229E+006    1.73926E+007   -3.82433E+006   -1.68399E+006    1.44552E+007   -5.24062E+004    2.15277E+006   -7.24230E+005
            1162    1.79957E+007    1.49935E+007    1.49935E+007   -1.72200E+006   -4.05491E+006    1.90484E+007   -3.07219E+006    1.76507E+007   -3.80241E+006   -1.72186E+006    1.47408E+007   -4.03998E+003    2.17854E+006   -4.94037E+004
            1163    1.77615E+007    1.47822E+007    1.47822E+007   -1.72499E+006   -4.01214E+006    1.87943E+007   -3.01502E+006    1.74256E+007   -3.76136E+006   -1.70219E+006    1.45086E+007    4.37201E+004    2.15364E+006    6.16662E+005
            1164    1.70052E+007    1.40752E+007    1.40752E+007   -1.71531E+006   -3.92809E+006    1.80033E+007   -2.81058E+006    1.66767E+007   -3.68413E+006   -1.62961E+006    1.37455E+007    7.73531E+004    2.06965E+006    1.16974E+006
            1165    1.88655E+007    1.52893E+007    1.52893E+007   -1.11603E+006   -5.32536E+006    2.06147E+007   -2.94930E+006    1.77623E+007   -5.18949E+006   -1.01751E+006    1.50549E+007    2.60275E+005    1.62774E+006    1.28774E+006
            1166    1.99790E+007    1.63814E+007    1.63814E+007   -9.80596E+005   -5.45558E+006    2.18370E+007   -3.31508E+006    1.88011E+007   -5.33224E+006   -9.49278E+005    1.62268E+007    1.43642E+005    1.62392E+006    7.47860E+005
            1167    2.04518E+007    1.68672E+007    1.68672E+007   -9.21970E+005   -5.47866E+006    2.23459E+007   -3.48886E+006    1.92594E+007   -5.36023E+006   -9.21962E+005    1.67488E+007    2.64853E+003    1.62242E+006   -1.43480E+004
            1168    1.99978E+007    1.63846E+007    1.63846E+007   -9.84006E+005   -5.47769E+006    2.18623E+007   -3.30765E+006    1.88108E+007   -5.35575E+006   -9.50329E+005    1.62290E+007   -1.43296E+005    1.61599E+006   -7.73745E+005
            1169    1.88940E+007    1.52805E+007    1.52805E+007   -1.13339E+006   -5.37320E+006    2.06537E+007   -2.92463E+006    1.77758E+007   -5.23993E+006   -1.03126E+006    1.50451E+007   -2.58610E+005    1.61422E+006   -1.30936E+006
            1170    1.74328E+007    1.38627E+007    1.38627E+007   -1.28802E+006   -5.19052E+006    1.90533E+007   -2.46140E+006    1.64062E+007   -5.04739E+006   -1.13247E+006    1.35640E+007   -3.28776E+005    1.58035E+006   -1.55286E+006
            1171    1.59571E+007    1.24396E+007    1.24396E+007   -1.50984E+006   -4.96059E+006    1.74002E+007   -1.98972E+006    1.50830E+007   -4.81636E+006   -1.34097E+006    1.21265E+007   -3.41626E+005    1.50274E+006   -1.55455E+006
            1172    1.49633E+007    1.15597E+007    1.15597E+007   -1.63983E+006   -4.69556E+006    1.62552E+007   -1.74144E+006    1.42356E+007   -4.56047E+006   -1.48415E+006    1.12689E+007   -2.98349E+005    1.41662E+006   -1.44619E+006
            1173    1.44502E+007    1.14939E+007    1.14939E+007   -1.20957E+006   -4.22665E+006    1.57206E+007   -2.01924E+006    1.37145E+007   -4.09199E+006   -9.97666E+005    1.11474E+007   -3.11526E+005    1.39146E+006   -1.63832E+006
            1174    9.49224E+006    8.94020E+006    8.94020E+006    6.08789E+005   -1.39342E+006    1.03336E+007   -2.71852E+006    8.99854E+006   -1.33641E+006    5.55207E+005    8.93677E+006    3.25559E+005    1.45873E+005   -1.11296E+005
            1175    9.60905E+006    8.92315E+006    8.92315E+006    5.49895E+005   -1.56825E+006    1.04914E+007   -2.63493E+006    9.06118E+006   -1.50334E+006    5.16354E+005    8.89179E+006    2.99941E+005    4.24325E+005   -3.56298E+005
            1176    9.91108E+006    8.93218E+006    8.93218E+006    3.48349E+005   -1.91472E+006    1.08469E+007   -2.45527E+006    9.30273E+006   -1.83442E+006    3.61953E+005    8.83828E+006    2.41110E+005    6.89621E+005   -6.68101E+005
            1177    1.04884E+007    9.07522E+006    9.07522E+006   -2.24472E+004   -2.39682E+006    1.14720E+007   -2.21865E+006    9.85612E+006   -2.30138E+006    6.35684E+004    8.89377E+006    1.38602E+005    9.20962E+005   -9.92625E+005
            1178    1.13008E+007    9.42301E+006    9.42301E+006   -4.06159E+005   -2.92449E+006    1.23475E+007   -2.03079E+006    1.06416E+007   -2.81408E+006   -2.36473E+005    9.14291E+006    7.37500E+003    1.11961E+006   -1.31068E+006
            1179    1.23137E+007    9.99341E+006    9.99341E+006   -7.27937E+005   -3.45534E+006    1.34487E+007   -1.93671E+006    1.16045E+007   -3.33196E+006   -5.04972E+005    9.64707E+006   -1.37440E+005    1.27122E+006   -1.52394E+006
            1180    1.34105E+007    1.08209E+007    1.08209E+007   -8.57332E+005   -3.82480E+006    1.46457E+007   -2.04626E+006    1.26398E+007   -3.69566E+006   -5.87072E+005    1.04215E+007   -2.83377E+005    1.33128E+006   -1.75223E+006
            1181    1.01511E+007    9.56366E+006    9.56366E+006    1.96424E+005   -1.22203E+006    1.07857E+007   -2.84602E+006    9.92443E+006   -1.11957E+006    9.82110E+004    9.55942E+006   -3.62677E+005   -1.29655E+005   -1.63369E+005
            1182    1.10051E+007    1.03484E+007    1.03484E+007   -2.45505E+005   -1.02628E+006    1.13747E+007   -3.02554E+006    1.09425E+007   -8.13990E+005   -4.53517E+005    1.03441E+007   -3.44630E+005   -1.29539E+005   -1.76921E+005
            1183    1.18605E+007    1.11269E+007    1.11269E+007   -4.36312E+005   -1.01015E+006    1.21370E+007   -3.22681E+006    1.18292E+007   -5.66732E+005   -8.76378E+005    1.11235E+007   -2.39684E+005   -1.24506E+005   -1.58407E+005
            1184    1.26062E+007    1.17528E+007    1.17528E+007   -3.94048E+005   -1.26739E+006    1.30202E+007   -3.36379E+006    1.25379E+007   -4.27688E+005   -1.23123E+006    1.17503E+007   -1.69662E+005   -1.21793E+005   -1.31514E+005
            1185    1.03272E+007    9.61624E+006    9.61624E+006    9.68761E+004   -1.36330E+006    1.09795E+007   -2.78327E+006    1.00910E+007   -1.26242E+006    3.07176E+004    9.58152E+006   -3.35242E+005   -3.50788E+005   -4.84261E+005
            1186    1.11780E+007    1.04187E+007    1.04187E+007   -3.27842E+005   -1.14577E+006    1.15645E+007   -2.98170E+006    1.11103E+007   -9.50280E+005   -4.90603E+005    1.03860E+007   -3.28014E+005   -3.35501E+005   -5.08469E+005
            1187    1.20314E+007    1.11979E+007    1.11979E+007   -5.59085E+005   -1.09034E+006    1.22882E+007   -3.18283E+006    1.20050E+007   -7.07673E+005   -9.15307E+005    1.11715E+007   -2.30104E+005   -3.25831E+005   -4.66921E+005
            1188    1.27907E+007    1.18465E+007    1.18465E+007   -5.36326E+005   -1.31639E+006    1.31629E+007   -3.33125E+006    1.27370E+007   -5.70394E+005   -1.26384E+006    1.18280E+007   -1.67862E+005   -3.26134E+005   -3.65067E+005
            1189    1.06581E+007    9.72892E+006    9.72892E+006   -6.72098E+004   -1.62066E+006    1.13496E+007   -2.68035E+006    1.03988E+007   -1.52018E+006   -7.03298E+004    9.63156E+006   -2.75419E+005   -6.02611E+005   -8.13052E+005
            1190    1.14829E+007    1.05172E+007    1.05172E+007   -5.06031E+005   -1.37577E+006    1.18930E+007   -2.87847E+006    1.14084E+007   -1.18887E+006   -6.00228E+005    1.04245E+007   -2.90750E+005   -6.05848E+005   -8.40625E+005
            1191    1.22744E+007    1.12905E+007    1.12905E+007   -7.28128E+005   -1.22454E+006    1.25150E+007   -3.11261E+006    1.22517E+007   -9.05139E+005   -9.72202E+005    1.12152E+007   -2.07991E+005   -5.93835E+005   -7.64415E+005
            1192    1.30044E+007    1.19319E+007    1.19319E+007   -7.09660E+005   -1.40736E+006    1.33392E+007   -3.27161E+006    1.29622E+007   -7.37737E+005   -1.32179E+006    1.18744E+007   -1.60086E+005   -5.93369E+005   -6.34936E+005
            1193    1.12913E+007    9.99678E+006    9.99678E+006   -3.81582E+005   -2.02691E+006    1.20237E+007   -2.52943E+006    1.10167E+007   -1.92801E+006   -3.06024E+005    9.82232E+006   -1.91004E+005   -8.04310E+005   -1.12559E+006
            1194    1.20762E+007    1.07921E+007    1.07921E+007   -7.16900E+005   -1.78080E+006    1.25729E+007   -2.76481E+006    1.19701E+007   -1.62670E+006   -7.11031E+005    1.06322E+007   -2.31479E+005   -8.44786E+005   -1.10140E+006
            1195    1.28465E+007    1.15325E+007    1.15325E+007   -1.02199E+006   -1.58726E+006    1.31198E+007   -2.97443E+006    1.28185E+007   -1.39743E+006   -1.07061E+006    1.13913E+007   -1.69444E+005   -8.73970E+005   -1.02878E+006
            1196    1.36405E+007    1.22430E+007    1.22430E+007   -1.18047E+006   -1.60468E+006    1.38477E+007   -3.15261E+006    1.36257E+007   -1.26003E+006   -1.40739E+006    1.21253E+007   -1.41732E+005   -9.28054E+005   -8.67844E+005
            1197    1.20446E+007    1.03845E+007    1.03845E+007   -6.62157E+005   -2.45667E+006    1.28411E+007   -2.42188E+006    1.17381E+007   -2.35692E+006   -5.11917E+005    1.01345E+007   -7.57279E+004   -1.00770E+006   -1.36815E+006
            1198    1.25900E+007    1.09559E+007    1.09559E+007   -9.63029E+005   -2.21197E+006    1.31679E+007   -2.59365E+006    1.24495E+007   -2.07368E+006   -8.66108E+005    1.07207E+007   -1.44906E+005   -1.04694E+006   -1.34804E+006
            1199    1.33983E+007    1.17805E+007    1.17805E+007   -1.23520E+006   -1.97023E+006    1.37507E+007   -2.85835E+006    1.33529E+007   -1.83261E+006   -1.15294E+006    1.15606E+007   -8.64769E+004   -1.06639E+006   -1.33465E+006
            1200    1.42604E+007    1.25814E+007    1.25814E+007   -1.46707E+006   -1.88178E+006    1.44632E+007   -3.07753E+006    1.42468E+007   -1.70766E+006   -1.46259E+006    1.24028E+007   -7.91058E+004   -1.12298E+006   -1.13264E+006
            1201    1.28418E+007    1.06742E+007    1.06742E+007   -1.00006E+006   -3.08103E+006    1.37553E+007   -2.19771E+006    1.24540E+007   -2.97983E+006   -8.44635E+005    1.04176E+007    2.79179E+004   -1.14765E+006   -1.35594E+006
            1202    1.33414E+007    1.11843E+007    1.11843E+007   -1.12868E+006   -2.99006E+006    1.41744E+007   -2.35519E+006    1.30445E+007   -2.84484E+006   -9.51960E+005    1.08624E+007   -6.04466E+004   -1.30011E+006   -1.56918E+006
            1203    1.43268E+007    1.21123E+007    1.21123E+007   -1.47878E+006   -2.85140E+006    1.49637E+007   -2.59404E+006    1.41777E+007   -2.69662E+006   -1.32249E+006    1.18012E+007   -2.53126E+004   -1.39451E+006   -1.55640E+006
            1204    1.52641E+007    1.29834E+007    1.29834E+007   -1.67225E+006   -2.82389E+006    1.58073E+007   -2.82909E+006    1.51659E+007   -2.65610E+006   -1.56798E+006    1.27114E+007   -2.37416E+004   -1.50837E+006   -1.35946E+006
            1205    1.29852E+007    1.05939E+007    1.05939E+007   -9.95710E+005   -3.43973E+006    1.40336E+007   -2.05281E+006    1.24519E+007   -3.35833E+006   -7.59487E+005    1.02762E+007    1.98713E+005   -1.04208E+006   -1.63495E+006
            1206    1.41790E+007    1.15717E+007    1.15717E+007   -1.48969E+006   -3.50851E+006    1.50802E+007   -2.19117E+006    1.38501E+007   -3.41566E+006   -1.26144E+006    1.12506E+007    1.34559E+005   -1.17065E+006   -1.70615E+006
            1207    1.51377E+007    1.24808E+007    1.24808E+007   -1.56729E+006   -3.55100E+006    1.60318E+007   -2.45416E+006    1.48411E+007   -3.44767E+006   -1.35836E+006    1.21685E+007    1.45802E+005   -1.27428E+006   -1.69431E+006
            1208    1.63740E+007    1.37031E+007    1.37031E+007   -1.56965E+006   -3.58563E+006    1.72887E+007   -2.84926E+006    1.60913E+007   -3.47259E+006   -1.41728E+006    1.34376E+007    1.34001E+005   -1.38685E+006   -1.51225E+006
            1209    1.68049E+007    1.35761E+007    1.35761E+007   -1.39674E+006   -4.59980E+006    1.81759E+007   -2.52651E+006    1.60964E+007   -4.50427E+006   -1.19850E+006    1.32823E+007    2.84827E+005   -1.24888E+006   -1.73100E+006
            1210    1.54053E+007    1.21873E+007    1.21873E+007   -1.56031E+006   -4.46274E+006    1.66501E+007   -2.05476E+006    1.47712E+007   -4.36004E+006   -1.33956E+006    1.18639E+007    2.94497E+005   -1.23708E+006   -1.74518E+006
            1211    1.40273E+007    1.07792E+007    1.07792E+007   -1.76827E+006   -4.36510E+006    1.51443E+007   -1.54861E+006    1.34705E+007   -4.26152E+006   -1.57002E+006    1.04774E+007    2.61605E+005   -1.19807E+006   -1.57542E+006
            1212    1.38261E+007    1.04754E+007    1.04754E+007   -2.28575E+006   -4.21329E+006    1.46887E+007   -1.32546E+006    1.35188E+007   -4.11291E+006   -2.14319E+006    1.02325E+007    1.73598E+005   -1.19185E+006   -1.34099E+006
            1213    9.54283E+006    8.92913E+006    8.92913E+006    5.33558E+005   -1.44938E+006    1.03785E+007   -2.67110E+006    9.06174E+006   -1.41375E+006    5.00733E+005    8.92632E+006   -2.56069E+005   -1.31122E+005   -1.01664E+005
            1214    9.64749E+006    8.91193E+006    8.91193E+006    4.91707E+005   -1.61474E+006    1.05267E+007   -2.59630E+006    9.10827E+006   -1.57206E+006    4.78862E+005    8.88209E+006   -2.29590E+005   -3.86699E+005   -3.70812E+005
            1215    9.95956E+006    8.94353E+006    8.94353E+006    2.82975E+005   -1.93952E+006    1.08830E+007   -2.42900E+006    9.37695E+006   -1.88414E+006    3.17177E+005    8.85395E+006   -1.71853E+005   -6.15908E+005   -6.95621E+005
            1216    1.05235E+007    9.13229E+006    9.13229E+006   -4.75388E+004   -2.35264E+006    1.14849E+007   -2.24404E+006    9.93132E+006   -2.28404E+006    7.16988E+004    8.94445E+006   -8.29240E+004   -8.05400E+005   -1.09537E+006
            1217    1.14510E+007    9.57234E+006    9.57234E+006   -5.92942E+005   -2.83327E+006    1.24056E+007   -2.04871E+006    1.09415E+007   -2.75297E+006   -3.71691E+005    9.27079E+006    2.76408E+004   -9.63031E+005   -1.49797E+006
            1218    1.27113E+007    1.05245E+007    1.05245E+007   -9.07127E+005   -3.16400E+006    1.36885E+007   -2.15114E+006    1.22483E+007   -3.07709E+006   -5.99896E+005    1.01304E+007    1.52033E+005   -1.07485E+006   -1.84248E+006
            1219    1.40029E+007    1.13288E+007    1.13288E+007   -1.61848E+006   -3.53280E+006    1.48616E+007   -2.05917E+006    1.37039E+007   -3.43698E+006   -1.38978E+006    1.10043E+007    1.73584E+005   -1.17607E+006   -1.69954E+006
            1220    1.82357E+007    1.50607E+007    1.50607E+007   -1.18837E+006   -4.66194E+006    1.97227E+007   -3.07013E+006    1.74680E+007   -4.57975E+006   -1.06604E+006    1.48562E+007    2.24842E+005   -1.22545E+006   -1.42302E+006
            1221    1.92321E+007    1.61179E+007    1.61179E+007   -1.02418E+006   -4.67955E+006    2.07974E+007   -3.47138E+006    1.84260E+007   -4.60862E+006   -9.84284E+005    1.60071E+007    1.28024E+005   -1.19647E+006   -8.37706E+005
            1222    1.96650E+007    1.65944E+007    1.65944E+007   -9.41224E+005   -4.66691E+006    2.12614E+007   -3.66210E+006    1.88463E+007   -4.60122E+006   -9.41225E+005    1.65288E+007    2.10976E+003   -1.17997E+006   -1.33990E+003
            1223    1.92559E+007    1.61428E+007    1.61428E+007   -1.01167E+006   -4.68537E+006    2.08281E+007   -3.48191E+006    1.84426E+007   -4.61538E+006   -9.71804E+005    1.60329E+007   -1.22634E+005   -1.19113E+006    8.35816E+005
            1224    1.82223E+007    1.50233E+007    1.50233E+007   -1.19509E+006   -4.69513E+006    1.97185E+007   -3.04437E+006    1.74418E+007   -4.61389E+006   -1.06870E+006    1.48157E+007   -2.26536E+005   -1.21735E+006    1.44418E+006
            1225    1.68492E+007    1.35932E+007    1.35932E+007   -1.40683E+006   -4.63735E+006    1.82305E+007   -2.51634E+006    1.61302E+007   -4.54293E+006   -1.20828E+006    1.33002E+007   -2.87854E+005   -1.24046E+006    1.73521E+006
            1226    1.54392E+007    1.21140E+007    1.21140E+007   -1.68127E+006   -4.56309E+006    1.66771E+007   -1.95654E+006    1.48159E+007   -4.46045E+006   -1.45437E+006    1.17844E+007   -2.97436E+005   -1.23620E+006    1.77197E+006
            1227    1.44925E+007    1.11820E+007    1.11820E+007   -1.91883E+006   -4.38555E+006    1.55675E+007   -1.62587E+006    1.40085E+007   -4.27980E+006   -1.69619E+006    1.08536E+007   -2.64864E+005   -1.22977E+006    1.70184E+006
            1228    1.42660E+007    1.12557E+007    1.12557E+007   -1.66634E+006   -4.05318E+006    1.53089E+007   -1.84539E+006    1.38060E+007   -3.94995E+006   -1.36723E+006    1.08534E+007   -2.48323E+005   -1.22055E+006    1.93987E+006
            1229    1.74415E+007    1.47304E+007    1.47304E+007   -1.59590E+006   -3.64519E+006    1.83756E+007   -3.16311E+006    1.71675E+007   -3.52724E+006   -1.51027E+006    1.45268E+007    1.09664E+005   -1.46334E+006   -1.17502E+006
            1230    1.60948E+007    1.37740E+007    1.37740E+007   -1.81640E+006   -2.78176E+006    1.65557E+007   -3.05860E+006    1.60294E+007   -2.61424E+006   -1.76554E+006    1.35556E+007   -3.52535E+003   -1.60237E+006   -9.79592E+005
            1231    1.49359E+007    1.32092E+007    1.32092E+007   -1.62567E+006   -1.82585E+006    1.50350E+007   -3.25255E+006    1.49329E+007   -1.60237E+006   -1.71554E+006    1.30756E+007   -3.23778E+004   -1.16121E+006   -7.99486E+005
            1232    1.42180E+007    1.27592E+007    1.27592E+007   -1.19471E+006   -1.70904E+006    1.44682E+007   -3.28514E+006    1.41971E+007   -1.15321E+006   -1.66113E+006    1.26698E+007   -7.16125E+004   -9.63361E+005   -5.77082E+005
            1233    1.35337E+007    1.24043E+007    1.24043E+007   -6.19170E+005   -1.58762E+006    1.39919E+007   -3.39916E+006    1.34554E+007   -6.01737E+005   -1.56690E+006    1.23661E+007   -7.42696E+004   -5.85322E+005   -4.09617E+005
            1234    1.33072E+007    1.22870E+007    1.22870E+007   -4.73554E+005   -1.50676E+006    1.37937E+007   -3.43555E+006    1.32165E+007   -4.72019E+005   -1.49637E+006    1.22750E+007   -7.62864E+004   -3.21397E+005   -2.31640E+005
            1235    1.31090E+007    1.21815E+007    1.21815E+007   -3.18461E+005   -1.46167E+006    1.36432E+007   -3.46712E+006    1.29961E+007   -3.22536E+005   -1.45602E+006    1.21799E+007   -7.63138E+004   -1.19514E+005   -7.80174E+004
            1236    1.82188E+007    1.55041E+007    1.55041E+007   -1.56589E+006   -3.67917E+006    1.91833E+007   -3.41969E+006    1.79400E+007   -3.55948E+006   -1.54329E+006    1.53618E+007    6.10561E+004   -1.50919E+006   -6.18744E+005
            1237    1.66189E+007    1.42586E+007    1.42586E+007   -1.88104E+006   -2.80130E+006    1.70599E+007   -3.19209E+006    1.65614E+007   -2.63388E+006   -1.86918E+006    1.40793E+007   -3.16040E+002   -1.66842E+006   -4.83425E+005
            1238    1.53382E+007    1.35929E+007    1.35929E+007   -1.66098E+006   -1.82817E+006    1.54211E+007   -3.36792E+006    1.53361E+007   -1.57744E+006   -1.80980E+006    1.34910E+007   -1.41416E+004   -1.19601E+006   -3.43511E+005
            1239    1.45594E+007    1.30533E+007    1.30533E+007   -1.20636E+006   -1.78849E+006    1.48418E+007   -3.35281E+006    1.45332E+007   -1.14006E+006   -1.78119E+006    1.29797E+007   -3.09797E+004   -9.97537E+005   -2.30006E+005
            1240    1.37824E+007    1.26248E+007    1.26248E+007   -5.94818E+005   -1.65865E+006    1.42834E+007   -3.45711E+006    1.36895E+007   -5.69796E+005   -1.65599E+006    1.25971E+007   -2.92352E+004   -5.88148E+005   -1.45559E+005
            1241    1.35626E+007    1.24981E+007    1.24981E+007   -4.70114E+005   -1.58957E+006    1.40877E+007   -3.47947E+006    1.34581E+007   -4.62669E+005   -1.58846E+006    1.24896E+007   -2.76438E+004   -3.26338E+005   -6.95861E+004
            1242    1.33349E+007    1.23679E+007    1.23679E+007   -3.06507E+005   -1.54149E+006    1.39094E+007   -3.50663E+006    1.32053E+007   -3.05942E+005   -1.54087E+006    1.23667E+007   -2.61033E+004   -1.19614E+005   -2.82116E+004
            1243    1.84823E+007    1.57432E+007    1.57432E+007   -1.58147E+006   -3.71214E+006    1.94553E+007   -3.48319E+006    1.82029E+007   -3.59295E+006   -1.58135E+006    1.56239E+007   -1.78012E+003   -1.51809E+006    4.50173E+004
            1244    1.67902E+007    1.44103E+007    1.44103E+007   -1.90127E+006   -2.82083E+006    1.72311E+007   -3.22940E+006    1.67334E+007   -2.65306E+006   -1.90063E+006    1.42419E+007   -8.67885E+002   -1.69138E+006    1.11411E+005
            1245    1.54362E+007    1.36679E+007    1.36679E+007   -1.67543E+006   -1.85958E+006    1.55275E+007   -3.37762E+006    1.54337E+007   -1.58241E+006   -1.85603E+006    1.35713E+007    9.85369E+003   -1.20595E+006    1.37760E+005
            1246    1.46038E+007    1.30852E+007    1.30852E+007   -1.20775E+006   -1.81090E+006    1.48961E+007   -3.35551E+006    1.45758E+007   -1.13788E+006   -1.80773E+006    1.30121E+007    1.82046E+004   -1.00710E+006    1.61587E+005
            1247    1.37909E+007    1.26252E+007    1.26252E+007   -5.81256E+005   -1.68393E+006    1.43092E+007   -3.45334E+006    1.36912E+007   -5.56032E+005   -1.68157E+006    1.25976E+007    2.86243E+004   -5.88923E+005    1.36050E+005
            1248    1.35479E+007    1.24825E+007    1.24825E+007   -4.58345E+005   -1.60012E+006    1.40827E+007   -3.47469E+006    1.34390E+007   -4.51220E+005   -1.59838E+006    1.24737E+007    3.32116E+004   -3.26342E+005    9.46182E+004
            1249    1.33095E+007    1.23446E+007    1.23446E+007   -2.91432E+005   -1.54914E+006    1.38937E+007   -3.50134E+006    1.31748E+007   -2.91412E+005   -1.54796E+006    1.23434E+007    3.70104E+004   -1.19426E+005    3.32152E+004
            1250    1.81970E+007    1.54640E+007    1.54640E+007   -1.55904E+006   -3.71493E+006    1.91789E+007   -3.39667E+006    1.79063E+007   -3.59713E+006   -1.52726E+006    1.53144E+007   -6.70400E+004   -1.49697E+006    7.32388E+005
            1251    1.65527E+007    1.41739E+007    1.41739E+007   -1.84866E+006   -2.86234E+006    1.70363E+007   -3.15431E+006    1.64827E+007   -2.69315E+006   -1.82466E+006    1.39807E+007   -5.84790E+003   -1.67006E+006    6.66593E+005
            1252    1.52061E+007    1.34506E+007    1.34506E+007   -1.67747E+006   -1.83233E+006    1.52830E+007   -3.31361E+006    1.52044E+007   -1.63981E+006   -1.74919E+006    1.33298E+007    2.57100E+004   -1.20072E+006    6.21709E+005
            1253    1.43656E+007    1.28703E+007    1.28703E+007   -1.25258E+006   -1.72621E+006    1.45965E+007   -3.29718E+006    1.43480E+007   -1.20253E+006   -1.68690E+006    1.27810E+007    6.28311E+004   -1.00445E+006    5.11704E+005
            1254    1.35421E+007    1.24116E+007    1.24116E+007   -6.40554E+005   -1.57234E+006    1.39840E+007   -3.39958E+006    1.34697E+007   -6.23468E+005   -1.55048E+006    1.23727E+007    8.02700E+004   -6.00006E+005    4.01318E+005
            1255    1.32846E+007    1.22624E+007    1.22624E+007   -5.07139E+005   -1.48342E+006    1.37458E+007   -3.42395E+006    1.32035E+007   -5.08080E+005   -1.46960E+006    1.22495E+007    8.95942E+004   -3.30827E+005    2.45559E+005
            1256    1.30396E+007    1.21226E+007    1.21226E+007   -3.41314E+005   -1.42500E+006    1.35476E+007   -3.45210E+006    1.29377E+007   -3.48748E+005   -1.41588E+006    1.21209E+007    9.54513E+004   -1.21554E+005    8.36051E+004
            1257    1.73990E+007    1.46659E+007    1.46659E+007   -1.56314E+006   -3.70475E+006    1.83707E+007   -3.13268E+006    1.70987E+007   -3.59042E+006   -1.46437E+006    1.44528E+007   -1.20581E+005   -1.43958E+006    1.25790E+006
            1258    1.59790E+007    1.36085E+007    1.36085E+007   -1.78020E+006   -2.90171E+006    1.65102E+007   -2.97552E+006    1.58900E+007   -2.73185E+006   -1.70489E+006    1.33633E+007   -7.16007E+001   -1.60383E+006    1.15915E+006
            1259    1.46737E+007    1.29386E+007    1.29386E+007   -1.58206E+006   -1.88358E+006    1.48222E+007   -3.15765E+006    1.46668E+007   -1.71410E+006   -1.58881E+006    1.27759E+007    5.05602E+004   -1.17066E+006    1.00671E+006
            1260    1.38912E+007    1.24421E+007    1.24421E+007   -1.24665E+006   -1.64305E+006    1.40851E+007   -3.18412E+006    1.38784E+007   -1.26729E+006   -1.50711E+006    1.23268E+007    1.09028E+005   -9.73433E+005    8.10298E+005
            1261    1.30912E+007    1.20049E+007    1.20049E+007   -6.96007E+005   -1.44459E+006    1.34495E+007   -3.28809E+006    1.30429E+007   -7.05578E+005   -1.37861E+006    1.19485E+007    1.36136E+005   -6.04344E+005    6.15000E+005
            1262    1.28154E+007    1.18636E+007    1.18636E+007   -5.36255E+005   -1.33036E+006    1.31940E+007   -3.33233E+006    1.27599E+007   -5.60891E+005   -1.28667E+006    1.18446E+007    1.49563E+005   -3.29165E+005    3.72475E+005
            1263    1.25746E+007    1.17297E+007    1.17297E+007   -3.79739E+005   -1.26343E+006    1.29931E+007   -3.36217E+006    1.25044E+007   -4.08278E+005   -1.23243E+006    1.17272E+007    1.58203E+005   -1.22852E+005    1.27057E+005
            1264    1.63130E+007    1.35811E+007    1.35811E+007   -1.56786E+006   -3.68855E+006    1.72696E+007   -2.77489E+006    1.59984E+007   -3.57968E+006   -1.39480E+006    1.32991E+007   -1.53428E+005   -1.35810E+006    1.60411E+006
            1265    1.51096E+007    1.27931E+007    1.27931E+007   -1.57254E+006   -2.96416E+006    1.57573E+007   -2.75213E+006    1.49644E+007   -2.80002E+006   -1.44043E+006    1.24969E+007    8.46874E+003   -1.51079E+006    1.46136E+006
            1266    1.39557E+007    1.22614E+007    1.22614E+007   -1.36521E+006   -2.00174E+006    1.42631E+007   -2.96480E+006    1.39230E+007   -1.85475E+006   -1.30609E+006    1.20552E+007    7.86511E+004   -1.13420E+006    1.25532E+006
            1267    1.32462E+007    1.18532E+007    1.18532E+007   -1.13076E+006   -1.64037E+006    1.34936E+007   -3.02737E+006    1.32241E+007   -1.41757E+006   -1.21284E+006    1.17125E+007    1.65184E+005   -9.39016E+005    9.96784E+005
            1268    1.24946E+007    1.14666E+007    1.14666E+007   -7.51568E+005   -1.28727E+006    1.27539E+007   -3.14259E+006    1.24688E+007   -8.83271E+005   -1.07997E+006    1.13910E+007    2.08985E+005   -6.17179E+005    7.59628E+005
            1269    1.21932E+007    1.13227E+007    1.13227E+007   -5.74700E+005   -1.14614E+006    1.24688E+007   -3.20062E+006    1.21630E+007   -7.04002E+005   -9.90987E+005    1.12968E+007    2.32475E+005   -3.35751E+005    4.56933E+005
            1270    1.19608E+007    1.12019E+007    1.12019E+007   -4.35783E+005   -1.05774E+006    1.22596E+007   -3.23613E+006    1.19243E+007   -5.55450E+005   -9.34775E+005    1.11986E+007    2.44584E+005   -1.26794E+005    1.55795E+005
            1271    1.51343E+007    1.24564E+007    1.24564E+007   -1.49956E+006   -3.63035E+006    1.60867E+007   -2.44216E+006    1.47911E+007   -3.53028E+006   -1.27320E+006    1.21300E+007   -1.70508E+005   -1.25311E+006    1.75659E+006
            1272    1.41658E+007    1.19250E+007    1.19250E+007   -1.35578E+006   -2.98495E+006    1.49099E+007   -2.52808E+006    1.39527E+007   -2.83465E+006   -1.18431E+006    1.16032E+007    9.55077E+003   -1.40055E+006    1.57440E+006
            1273    1.31676E+007    1.15060E+007    1.15060E+007   -1.17172E+006   -2.10220E+006    1.36082E+007   -2.74403E+006    1.30934E+007   -1.97224E+006   -1.06544E+006    1.12698E+007    8.43272E+004   -1.07964E+006    1.37880E+006
            1274    1.25166E+007    1.11941E+007    1.11941E+007   -9.13872E+005   -1.69460E+006    1.28887E+007   -2.86188E+006    1.24617E+007   -1.53976E+006   -9.09445E+005    1.10348E+007    1.78178E+005   -8.80468E+005    1.10346E+006
            1275    1.18164E+007    1.08454E+007    1.08454E+007   -6.48920E+005   -1.26885E+006    1.21142E+007   -2.97586E+006    1.17798E+007   -1.05584E+006   -7.72265E+005    1.07557E+007    2.39922E+005   -6.12764E+005    8.33859E+005
            1276    1.14826E+007    1.07053E+007    1.07053E+007   -4.60068E+005   -1.07019E+006    1.17755E+007   -3.05833E+006    1.14460E+007   -8.45520E+005   -6.53011E+005    1.06735E+007    2.77175E+005   -3.32996E+005    5.09206E+005
            1277    1.12485E+007    1.05855E+007    1.05855E+007   -3.45893E+005   -9.55362E+005    1.15408E+007   -3.09473E+006    1.12112E+007   -7.09280E+005   -5.87987E+005    1.05815E+007    2.96848E+005   -1.28643E+005    1.71201E+005
            1278    1.40564E+007    1.15065E+007    1.15065E+007   -1.21382E+006   -3.58439E+006    1.50909E+007   -2.23611E+006    1.35957E+007   -3.49259E+006   -9.79547E+005    1.11805E+007   -1.83989E+005   -1.15751E+006    1.70495E+006
            1279    1.34464E+007    1.11996E+007    1.11996E+007   -1.14021E+006   -3.13133E+006    1.43310E+007   -2.30937E+006    1.31086E+007   -2.99788E+006   -9.64495E+005    1.08905E+007    2.74908E+004   -1.29318E+006    1.52825E+006
            1280    1.24864E+007    1.07923E+007    1.07923E+007   -9.00288E+005   -2.35967E+006    1.31520E+007   -2.51080E+006    1.22924E+007   -2.22912E+006   -7.74722E+005    1.05362E+007    1.27305E+005   -1.07122E+006    1.40435E+006
            1281    1.18361E+007    1.04980E+007    1.04980E+007   -6.45568E+005   -1.92649E+006    1.24245E+007   -2.64198E+006    1.16787E+007   -1.78650E+006   -6.11836E+005    1.03243E+007    2.32502E+005   -8.52567E+005    1.14402E+006
            1282    1.11481E+007    1.01764E+007    1.01764E+007   -3.63402E+005   -1.49372E+006    1.16702E+007   -2.77311E+006    1.10180E+007   -1.33817E+006   -4.17722E+005    1.00752E+007    3.03854E+005   -6.29042E+005    8.57965E+005
            1283    1.07869E+007    1.00383E+007    1.00383E+007   -1.69741E+005   -1.24668E+006    1.12850E+007   -2.87395E+006    1.06649E+007   -1.09023E+006   -2.90827E+005    1.00029E+007    3.52879E+005   -3.45784E+005    5.14953E+005
            1284    1.05561E+007    9.93293E+006    9.93293E+006   -5.44914E+004   -1.11214E+006    1.10451E+007   -2.92210E+006    1.04359E+007   -9.53670E+005   -2.08347E+005    9.92832E+006    3.73645E+005   -1.37037E+005    1.75661E+005
            1285    1.34319E+007    1.09307E+007    1.09307E+007   -1.22131E+006   -3.49178E+006    1.44224E+007   -2.07252E+006    1.29896E+007   -3.40240E+006   -1.00586E+006    1.06258E+007   -2.51041E+005   -1.07782E+006    1.61519E+006
            1286    1.28321E+007    1.06691E+007    1.06691E+007   -9.38220E+005   -3.11043E+006    1.37796E+007   -2.20683E+006    1.24083E+007   -3.01746E+006   -7.22585E+005    1.03605E+007   -9.92776E+004   -1.11654E+006    1.56598E+006
            1287    1.19062E+007    1.01678E+007    1.01678E+007   -6.78556E+005   -2.57152E+006    1.27393E+007   -2.30591E+006    1.15604E+007   -2.47861E+006   -5.13651E+005    9.90998E+006    3.76577E+004   -1.00704E+006    1.38040E+006
            1288    1.11297E+007    9.80914E+006    9.80914E+006   -3.14918E+005   -2.10845E+006    1.19176E+007   -2.46192E+006    1.07974E+007   -2.01906E+006   -2.23931E+005    9.62876E+006    1.63732E+005   -8.13828E+005    1.12826E+006
            1289    1.04891E+007    9.52755E+006    9.52755E+006   -1.13432E+004   -1.70559E+006    1.12331E+007   -2.60354E+006    1.01745E+007   -1.61714E+006   -1.82565E+003    9.42958E+006    2.55125E+005   -6.16589E+005    7.93936E+005
            1290    1.01106E+007    9.40407E+006    9.40407E+006    2.08173E+005   -1.42289E+006    1.08270E+007   -2.72978E+006    9.80803E+006   -1.33845E+006    1.58349E+005    9.36945E+006    3.20933E+005   -3.58490E+005    4.68141E+005
            1291    9.93681E+006    9.35383E+006    9.35383E+006    3.04780E+005   -1.28020E+006    1.06340E+007   -2.79280E+006    9.64625E+006   -1.19625E+006    2.24723E+005    9.34994E+006    3.49837E+005   -1.32875E+005    1.46643E+005
            1292    9.48710E+006    8.87099E+006    8.87099E+006    5.58543E+005   -1.46445E+006    1.03354E+007   -2.65503E+006    8.98239E+006   -1.43126E+006    5.28484E+005    8.86786E+006    2.48841E+005   -1.33842E+005    1.10630E+005
            1293    9.61822E+006    8.86327E+006    8.86327E+006    4.84785E+005   -1.63953E+006    1.05028E+007   -2.56951E+006    9.06759E+006   -1.59820E+006    4.72992E+005    8.83373E+006    2.23068E+005   -3.92089E+005    3.61182E+005
            1294    9.95083E+006    8.89926E+006    8.89926E+006    2.58651E+005   -1.98030E+006    1.08796E+007   -2.39254E+006    9.35859E+006   -1.92529E+006    2.93163E+005    8.80974E+006    1.66279E+005   -6.22957E+005    6.89112E+005
            1295    1.05336E+007    9.06174E+006    9.06174E+006   -1.39658E+005   -2.42790E+006    1.14896E+007   -2.16473E+006    9.95108E+006   -2.35938E+006   -3.18511E+004    8.88542E+006    7.82572E+004   -8.12201E+005    1.04388E+006
            1296    1.13581E+007    9.42785E+006    9.42785E+006   -5.80354E+005   -2.91683E+006    1.23447E+007   -1.97689E+006    1.07974E+007   -2.83674E+006   -3.83407E+005    9.15082E+006   -3.18602E+004   -9.66240E+005    1.40148E+006
            1297    1.23385E+007    9.99492E+006    9.99492E+006   -9.85404E+005   -3.35737E+006    1.33523E+007   -1.88405E+006    1.18091E+007   -3.27128E+006   -7.18414E+005    9.64183E+006   -1.36621E+005   -1.05790E+006    1.68573E+006
            1298    1.34434E+007    1.07769E+007    1.07769E+007   -1.29790E+006   -3.70870E+006    1.44856E+007   -1.92345E+006    1.29435E+007   -3.61295E+006   -9.52127E+005    1.03354E+007   -2.15942E+005   -1.15320E+006    2.00596E+006
            1299    1.38411E+007    1.04845E+007    1.04845E+007   -2.30279E+006   -4.21226E+006    1.46967E+007   -1.32314E+006    1.35401E+007   -4.11192E+006   -2.15944E+006    1.02408E+007    1.72351E+005    1.19246E+006    1.34576E+006
            1300    1.39946E+007    1.07365E+007    1.07365E+007   -1.79103E+006   -4.36731E+006    1.51038E+007   -1.52604E+006    1.34455E+007   -4.26373E+006   -1.59679E+006    1.04387E+007    2.58283E+005    1.19762E+006    1.55827E+006
            1301    1.53692E+007    1.21510E+007    1.21510E+007   -1.56856E+006   -4.45776E+006    1.66088E+007   -2.04156E+006    1.47395E+007   -4.35513E+006   -1.34865E+006    1.18284E+007    2.93174E+005    1.23563E+006    1.73998E+006
            1302    1.67850E+007    1.35605E+007    1.35605E+007   -1.39408E+006   -4.59425E+006    1.81547E+007   -2.52404E+006    1.60770E+007   -4.49883E+006   -1.19686E+006    1.32678E+007    2.83924E+005    1.24768E+006    1.72551E+006
            1303    1.63470E+007    1.36842E+007    1.36842E+007   -1.57375E+006   -3.56874E+006    1.72529E+007   -2.84722E+006    1.60697E+007   -3.45531E+006   -1.42108E+006    1.34181E+007    1.32313E+005    1.38788E+006    1.51303E+006
            1304    1.52169E+007    1.29512E+007    1.29512E+007   -1.66994E+006   -2.79861E+006    1.57498E+007   -2.82756E+006    1.51223E+007   -2.63059E+006   -1.56701E+006    1.26803E+007   -2.62619E+004    1.50138E+006    1.35657E+006
            1305    1.42265E+007    1.25637E+007    1.25637E+007   -1.45573E+006   -1.86110E+006    1.44248E+007   -3.08229E+006    1.42135E+007   -1.68201E+006   -1.45872E+006    1.23876E+007   -8.22807E+004    1.11199E+006    1.12549E+006
            1306    1.36214E+007    1.22323E+007    1.22323E+007   -1.16933E+006   -1.59887E+006    1.38311E+007   -3.15469E+006    1.36062E+007   -1.24480E+006   -1.40802E+006    1.21169E+007   -1.42946E+005    9.19995E+005    8.56505E+005
            1307    1.29863E+007    1.19206E+007    1.19206E+007   -7.00336E+005   -1.40251E+006    1.33231E+007   -3.27258E+006    1.29434E+007   -7.29084E+005   -1.31752E+006    1.18644E+007   -1.61350E+005    5.85487E+005    6.28504E+005
            1308    1.27808E+007    1.18390E+007    1.18390E+007   -5.34722E+005   -1.31328E+006    1.31522E+007   -3.33032E+006    1.27273E+007   -5.69254E+005   -1.26061E+006    1.18208E+007   -1.68316E+005    3.21529E+005    3.62735E+005
            1309    1.26031E+007    1.17508E+007    1.17508E+007   -3.93081E+005   -1.26608E+006    1.30169E+007   -3.36388E+006    1.25348E+007   -4.26931E+005   -1.22976E+006    1.17483E+007   -1.70038E+005    1.19436E+005    1.31487E+005
            1310    1.51011E+007    1.24508E+007    1.24508E+007   -1.56998E+006   -3.53759E+006    1.59884E+007   -2.44776E+006    1.48086E+007   -3.43421E+006   -1.36033E+006    1.21378E+007    1.42178E+005    1.27297E+006    1.69572E+006
            1311    1.42754E+007    1.20808E+007    1.20808E+007   -1.46541E+006   -2.82626E+006    1.49071E+007   -2.59639E+006    1.41284E+007   -2.67118E+006   -1.31042E+006    1.17708E+007   -2.93180E+004    1.38747E+006    1.55346E+006
            1312    1.33492E+007    1.17492E+007    1.17492E+007   -1.22174E+006   -1.94851E+006    1.36977E+007   -2.85965E+006    1.33046E+007   -1.81018E+006   -1.14363E+006    1.15328E+007   -9.05433E+004    1.05479E+006    1.32331E+006
            1313    1.28204E+007    1.15186E+007    1.15186E+007   -1.01147E+006   -1.57361E+006    1.30922E+007   -2.97784E+006    1.27926E+007   -1.38130E+006   -1.06485E+006    1.13797E+007   -1.71897E+005    8.65179E+005    1.02048E+006
            1314    1.22648E+007    1.12859E+007    1.12859E+007   -7.22074E+005   -1.22038E+006    1.25063E+007   -3.11449E+006    1.22419E+007   -8.96434E+005   -9.72196E+005    1.12121E+007   -2.08919E+005    5.87171E+005    7.56984E+005
            1315    1.20249E+007    1.11938E+007    1.11938E+007   -5.56072E+005   -1.08845E+006    1.22822E+007   -3.18309E+006    1.19983E+007   -7.05623E+005   -9.13181E+005    1.11681E+007   -2.31133E+005    3.21611E+005    4.60185E+005
            1316    1.18559E+007    1.11227E+007    1.11227E+007   -4.36033E+005   -1.00954E+006    1.21322E+007   -3.22570E+006    1.18246E+007   -5.67090E+005   -8.75280E+005    1.11195E+007   -2.40040E+005    1.21938E+005    1.54741E+005
            1317    1.41600E+007    1.15598E+007    1.15598E+007   -1.48235E+006   -3.50128E+006    1.50611E+007   -2.19205E+006    1.38306E+007   -3.40861E+006   -1.25201E+006    1.12368E+007    1.33928E+005    1.16870E+006    1.71265E+006
            1318    1.32951E+007    1.11511E+007    1.11511E+007   -1.11769E+006   -2.97485E+006    1.41260E+007   -2.35287E+006    1.29984E+007   -2.83016E+006   -9.43985E+005    1.08328E+007   -6.28328E+004    1.29378E+006    1.55594E+006
            1319    1.25482E+007    1.09322E+007    1.09322E+007   -9.48346E+005   -2.19130E+006    1.31235E+007   -2.59751E+006    1.24086E+007   -2.05346E+006   -8.54397E+005    1.07004E+007   -1.48067E+005    1.03644E+006    1.33723E+006
            1320    1.20533E+007    1.07780E+007    1.07780E+007   -7.09257E+005   -1.77114E+006    1.25491E+007   -2.76586E+006    1.19474E+007   -1.61596E+006   -7.07235E+005    1.06208E+007   -2.35220E+005    8.37357E+005    1.09075E+006
            1321    1.14770E+007    1.05150E+007    1.05150E+007   -5.03764E+005   -1.37095E+006    1.18860E+007   -2.88010E+006    1.14029E+007   -1.18285E+006   -5.99989E+005    1.04231E+007   -2.91841E+005    6.02307E+005    8.37305E+005
            1322    1.11720E+007    1.04135E+007    1.04135E+007   -3.26204E+005   -1.14566E+006    1.15592E+007   -2.98056E+006    1.11041E+007   -9.50272E+005   -4.88883E+005    1.03808E+007   -3.28443E+005    3.34300E+005    5.08814E+005
            1323    1.09984E+007    1.03430E+007    1.03430E+007   -2.43438E+005   -1.02544E+006    1.13685E+007   -3.02472E+006    1.09355E+007   -8.14498E+005   -4.50210E+005    1.03389E+007   -3.44370E+005    1.28087E+005    1.74705E+005
            1324    1.29637E+007    1.05734E+007    1.05734E+007   -9.88261E+005   -3.44172E+006    1.40151E+007   -2.04779E+006    1.24251E+007   -3.36059E+006   -7.55779E+005    1.02598E+007    1.98161E+005    1.03942E+006    1.62038E+006
            1325    1.28376E+007    1.06767E+007    1.06767E+007   -9.96091E+005   -3.07246E+006    1.37492E+007   -2.20273E+006    1.24514E+007   -2.97166E+006   -8.40357E+005    1.04202E+007    2.73085E+004    1.14475E+006    1.35741E+006
            1326    1.20148E+007    1.03652E+007    1.03652E+007   -6.53129E+005   -2.44482E+006    1.28100E+007   -2.42241E+006    1.17085E+007   -2.34513E+006   -5.04554E+005    1.01169E+007   -7.87905E+004    1.00288E+006    1.36206E+006
            1327    1.12735E+007    9.98560E+006    9.98560E+006   -3.75535E+005   -2.01963E+006    1.20052E+007   -2.53014E+006    1.09989E+007   -1.92081E+006   -3.00980E+005    9.81222E+006   -1.92468E+005    8.00461E+005    1.12177E+006
            1328    1.06436E+007    9.71973E+006    9.71973E+006   -6.11385E+004   -1.61560E+006    1.13353E+007   -2.68100E+006    1.03836E+007   -1.51522E+006   -6.56383E+004    9.62386E+006   -2.76909E+005    5.98158E+005    8.06013E+005
            1329    1.03233E+007    9.61420E+006    9.61420E+006    9.82133E+004   -1.36106E+006    1.09753E+007   -2.78378E+006    1.00873E+007   -1.26052E+006    3.17787E+004    9.58009E+006   -3.35050E+005    3.48231E+005    4.79457E+005
            1330    1.01531E+007    9.56519E+006    9.56519E+006    1.95674E+005   -1.22232E+006    1.07875E+007   -2.84618E+006    9.92661E+006   -1.11973E+006    9.73219E+004    9.56095E+006   -3.62803E+005    1.30361E+005    1.62700E+005
            1331    9.54238E+006    8.92768E+006    8.92768E+006    5.33991E+005   -1.45111E+006    1.03788E+007   -2.67019E+006    9.06017E+006   -1.41548E+006    5.01437E+005    8.92460E+006   -2.55479E+005    1.37143E+005    1.06222E+005
            1332    9.64521E+006    8.90988E+006    8.90988E+006    4.94624E+005   -1.61579E+006    1.05257E+007   -2.59624E+006    9.10373E+006   -1.57321E+006    4.81933E+005    8.87999E+006   -2.28931E+005    3.88002E+005    3.70112E+005
            1333    9.95791E+006    8.94388E+006    8.94388E+006    2.82994E+005   -1.93651E+006    1.08804E+007   -2.43012E+006    9.37684E+006   -1.88104E+006    3.16109E+005    8.85529E+006   -1.73445E+005    6.14338E+005    6.90515E+005
            1334    1.05120E+007    9.12401E+006    9.12401E+006   -4.81646E+004   -2.34722E+006    1.14712E+007   -2.24287E+006    9.92238E+006   -2.27868E+006    6.82566E+004    8.93904E+006   -8.61208E+004    8.02194E+005    1.08489E+006
            1335    1.14207E+007    9.55067E+006    9.55067E+006   -5.82086E+005   -2.82518E+006    1.23758E+007   -2.04780E+006    1.09085E+007   -2.74506E+006   -3.64474E+005    9.25293E+006    2.47781E+004    9.60033E+005    1.48428E+006
            1336    1.26741E+007    1.04947E+007    1.04947E+007   -8.92906E+005   -3.15992E+006    1.36546E+007   -2.14730E+006    1.22054E+007   -3.07339E+006   -5.87064E+005    1.01024E+007    1.51020E+005    1.07121E+006    1.83481E+006
            1337    1.40167E+007    1.13477E+007    1.13477E+007   -1.61201E+006   -3.52874E+006    1.48765E+007   -2.06899E+006    1.37172E+007   -3.43277E+006   -1.38034E+006    1.10201E+007    1.73689E+005    1.17767E+006    1.71108E+006
            1338    9.93446E+006    9.35134E+006    9.35134E+006    3.07381E+005   -1.28198E+006    1.06333E+007   -2.79225E+006    9.64218E+006   -1.19850E+006    2.28118E+005    9.34713E+006    3.49069E+005    1.36530E+005   -1.53986E+005
            1339    1.05516E+007    9.92730E+006    9.92730E+006   -5.23884E+004   -1.11569E+006    1.10430E+007   -2.91974E+006    1.04300E+007   -9.58134E+005   -2.04944E+005    9.92231E+006    3.73598E+005    1.42366E+005   -1.82971E+005
            1340    1.12471E+007    1.05823E+007    1.05823E+007   -3.46913E+005   -9.57748E+005    1.15400E+007   -3.09255E+006    1.12097E+007   -7.13578E+005   -5.86532E+005    1.05777E+007    2.96710E+005    1.36687E+005   -1.83439E+005
            1341    1.19640E+007    1.12031E+007    1.12031E+007   -4.38964E+005   -1.05879E+006    1.22619E+007   -3.23510E+006    1.19278E+007   -5.58652E+005   -9.35256E+005    1.11992E+007    2.43964E+005    1.35973E+005   -1.69071E+005
            1342    1.25792E+007    1.17321E+007    1.17321E+007   -3.82791E+005   -1.26511E+006    1.29972E+007   -3.36139E+006    1.25093E+007   -4.10990E+005   -1.23410E+006    1.17292E+007    1.57425E+005    1.30566E+005   -1.36988E+005
            1343    1.30438E+007    1.21256E+007    1.21256E+007   -3.43311E+005   -1.42568E+006    1.35512E+007   -3.45219E+006    1.29422E+007   -3.50562E+005   -1.41658E+006    1.21237E+007    9.48945E+004    1.27026E+005   -8.80759E+004
            1344    1.33120E+007    1.23461E+007    1.23461E+007   -2.92706E+005   -1.54986E+006    1.38960E+007   -3.50118E+006    1.31774E+007   -2.92625E+005   -1.54869E+006    1.23448E+007    3.68089E+004    1.22044E+005   -3.32719E+004
            1345    1.33350E+007    1.23682E+007    1.23682E+007   -3.06845E+005   -1.54096E+006    1.39091E+007   -3.50678E+006    1.32056E+007   -3.06280E+005   -1.54032E+006    1.23670E+007   -2.63338E+004    1.20161E+005    2.96602E+004
            1346    1.31070E+007    1.21797E+007    1.21797E+007   -3.18177E+005   -1.46154E+006    1.36413E+007   -3.46667E+006    1.29941E+007   -3.22316E+005   -1.45584E+006    1.21782E+007   -7.65947E+004    1.18105E+005    7.85011E+004
            1347    1.01093E+007    9.39812E+006    9.39812E+006    2.07918E+005   -1.43020E+006    1.08283E+007   -2.72528E+006    9.80401E+006   -1.34643E+006    1.59861E+005    9.36241E+006    3.18874E+005    3.64215E+005   -4.75218E+005
            1348    1.07859E+007    1.00321E+007    1.00321E+007   -1.70696E+005   -1.25498E+006    1.12871E+007   -2.86882E+006    1.06623E+007   -1.10081E+006   -2.87598E+005    9.99486E+006    3.50433E+005    3.54849E+005   -5.28451E+005
            1349    1.14943E+007    1.07091E+007    1.07091E+007   -4.67004E+005   -1.07884E+006    1.17880E+007   -3.05443E+006    1.14575E+007   -8.56095E+005   -6.55744E+005    1.06751E+007    2.75907E+005    3.46022E+005   -5.26607E+005
            1350    1.22150E+007    1.13360E+007    1.13360E+007   -5.83289E+005   -1.15459E+006    1.24906E+007   -3.19938E+006    1.21849E+007   -7.11755E+005   -9.98375E+005    1.13083E+007    2.31443E+005    3.48820E+005   -4.73184E+005
            1351    1.28380E+007    1.18794E+007    1.18794E+007   -5.41894E+005   -1.33826E+006    1.32176E+007   -3.33307E+006    1.27822E+007   -5.65940E+005   -1.29406E+006    1.18592E+007    1.49179E+005    3.40022E+005   -3.82363E+005
            1352    1.32997E+007    1.22731E+007    1.22731E+007   -5.10424E+005   -1.48865E+006    1.37618E+007   -3.42468E+006    1.32184E+007   -5.11045E+005   -1.47473E+006    1.22598E+007    8.96798E+004    3.37794E+005   -2.47724E+005
            1353    1.35532E+007    1.24866E+007    1.24866E+007   -4.59534E+005   -1.60147E+006    1.40880E+007   -3.47519E+006    1.34443E+007   -4.52267E+005   -1.59975E+006    1.24776E+007    3.34634E+004    3.29482E+005   -9.25060E+004
            1354    1.35603E+007    1.24963E+007    1.24963E+007   -4.69902E+005   -1.58890E+006    1.40852E+007   -3.47916E+006    1.34559E+007   -4.62457E+005   -1.58775E+006    1.24877E+007   -2.74794E+004    3.26246E+005    7.37939E+004
            1355    1.32971E+007    1.22795E+007    1.22795E+007   -4.72876E+005   -1.50250E+006    1.37820E+007   -3.43471E+006    1.32070E+007   -4.71580E+005   -1.49191E+006    1.22676E+007   -7.67997E+004    3.18707E+005    2.34279E+005
            1356    1.05011E+007    9.52899E+006    9.52899E+006   -1.70873E+004   -1.71924E+006    1.12482E+007   -2.59755E+006    1.01838E+007   -1.63091E+006   -4.81864E+003    9.42839E+006    2.52491E+005    6.23434E+005   -8.05692E+005
            1357    1.11803E+007    1.01925E+007    1.01925E+007   -3.76834E+005   -1.51216E+006    1.17047E+007   -2.76784E+006    1.10495E+007   -1.35732E+006   -4.26354E+005    1.00872E+007    3.00118E+005    6.42852E+005   -8.75690E+005
            1358    1.18686E+007    1.08774E+007    1.08774E+007   -6.70093E+005   -1.28814E+006    1.21656E+007   -2.97307E+006    1.18323E+007   -1.07626E+006   -7.87874E+005    1.07833E+007    2.35814E+005    6.31244E+005   -8.54216E+005
            1359    1.25546E+007    1.15080E+007    1.15080E+007   -7.72509E+005   -1.30395E+006    1.28119E+007   -3.14384E+006    1.25293E+007   -8.99398E+005   -1.09847E+006    1.14294E+007    2.04680E+005    6.36085E+005   -7.71726E+005
            1360    1.31404E+007    1.20405E+007    1.20405E+007   -7.09427E+005   -1.45842E+006    1.34989E+007   -3.29087E+006    1.30923E+007   -7.16351E+005   -1.39377E+006    1.19827E+007    1.32739E+005    6.18905E+005   -6.16415E+005
            1361    1.35718E+007    1.24342E+007    1.24342E+007   -6.47299E+005   -1.57986E+006    1.40141E+007   -3.40234E+006    1.34995E+007   -6.28969E+005   -1.55900E+006    1.23950E+007    7.80425E+004    6.08497E+005   -3.93216E+005
            1362    1.37994E+007    1.26316E+007    1.26316E+007   -5.83226E+005   -1.68614E+006    1.43177E+007   -3.45408E+006    1.36997E+007   -5.57665E+005   -1.68407E+006    1.26040E+007    2.74187E+004    5.91736E+005   -1.25557E+005
            1363    1.37729E+007    1.26183E+007    1.26183E+007   -5.92660E+005   -1.65502E+006    1.42733E+007   -3.45687E+006    1.36803E+007   -5.67961E+005   -1.65206E+006    1.25906E+007   -3.05465E+004    5.85671E+005    1.54781E+005
            1364    1.35133E+007    1.23895E+007    1.23895E+007   -6.11651E+005   -1.58349E+006    1.39730E+007   -3.39813E+006    1.34344E+007   -5.94917E+005   -1.56233E+006    1.23516E+007   -7.49949E+004    5.78344E+005    4.14662E+005
            1365    1.11658E+007    9.82963E+006    9.82963E+006   -3.29085E+005   -2.12544E+006    1.19551E+007   -2.45837E+006    1.08335E+007   -2.03599E+006   -2.34479E+005    9.64557E+006    1.58993E+005    8.22248E+005   -1.14182E+006
            1366    1.18949E+007    1.05338E+007    1.05338E+007   -6.68608E+005   -1.94979E+006    1.24836E+007   -2.63848E+006    1.17382E+007   -1.81060E+006   -6.28611E+005    1.03546E+007    2.25045E+005    8.68316E+005   -1.16381E+006
            1367    1.26072E+007    1.12568E+007    1.12568E+007   -9.45126E+005   -1.71996E+006    1.29768E+007   -2.86391E+006    1.25535E+007   -1.56558E+006   -9.34988E+005    1.10923E+007    1.71082E+005    9.00757E+005   -1.12292E+006
            1368    1.33374E+007    1.19201E+007    1.19201E+007   -1.15999E+006   -1.66057E+006    1.35807E+007   -3.03319E+006    1.33163E+007   -1.43880E+006   -1.23808E+006    1.17764E+007    1.59246E+005    9.58351E+005   -1.00427E+006
            1369    1.39616E+007    1.24965E+007    1.24965E+007   -1.26535E+006   -1.65661E+006    1.41531E+007   -3.19152E+006    1.39493E+007   -1.28004E+006   -1.52601E+006    1.23806E+007    1.04765E+005    9.87508E+005   -8.02910E+005
            1370    1.44001E+007    1.28976E+007    1.28976E+007   -1.26096E+006   -1.73249E+006    1.46301E+007   -3.30138E+006    1.43827E+007   -1.20862E+006   -1.69581E+006    1.28086E+007    6.03520E+004    1.01132E+006   -4.95253E+005
            1371    1.46071E+007    1.30884E+007    1.30884E+007   -1.20691E+006   -1.81161E+006    1.49000E+007   -3.35664E+006    1.45789E+007   -1.13675E+006   -1.80899E+006    1.30157E+007    1.69512E+004    1.00763E+006   -1.45622E+005
            1372    1.45381E+007    1.30370E+007    1.30370E+007   -1.19952E+006   -1.78499E+006    1.48220E+007   -3.35082E+006    1.45115E+007   -1.13407E+006   -1.77703E+006    1.29636E+007   -3.21184E+004    9.92720E+005    2.41533E+005
            1373    1.41940E+007    1.27429E+007    1.27429E+007   -1.18342E+006   -1.70452E+006    1.44474E+007   -3.28498E+006    1.41725E+007   -1.14277E+006   -1.65656E+006    1.26543E+007   -7.27310E+004    9.56768E+005    5.76551E+005
            1374    1.19550E+007    1.01968E+007    1.01968E+007   -6.94940E+005   -2.59416E+006    1.27909E+007   -2.30256E+006    1.16083E+007   -2.50068E+006   -5.27134E+005    9.93548E+006    3.32543E+004    1.01558E+006   -1.39222E+006
            1375    1.25759E+007    1.08526E+007    1.08526E+007   -9.27246E+005   -2.39137E+006    1.32439E+007   -2.51131E+006    1.23820E+007   -2.26021E+006   -7.96496E+005    1.05906E+007    1.19891E+005    1.08910E+006   -1.42314E+006
            1376    1.32771E+007    1.15855E+007    1.15855E+007   -1.20097E+006   -2.13305E+006    1.37186E+007   -2.75051E+006    1.32032E+007   -2.00283E+006   -1.09087E+006    1.13452E+007    7.71308E+004    1.09999E+006   -1.39105E+006
            1377    1.40571E+007    1.23421E+007    1.23421E+007   -1.38829E+006   -2.02033E+006    1.43625E+007   -2.97784E+006    1.40251E+007   -1.87377E+006   -1.32820E+006    1.21355E+007    7.38469E+004    1.15066E+006   -1.25166E+006
            1378    1.47343E+007    1.29912E+007    1.29912E+007   -1.59505E+006   -1.88699E+006    1.48781E+007   -3.16971E+006    1.47278E+007   -1.71819E+006   -1.60317E+006    1.28305E+007    4.82431E+004    1.17791E+006   -9.87954E+005
            1379    1.52217E+007    1.34694E+007    1.34694E+007   -1.67578E+006   -1.82776E+006    1.52972E+007   -3.32195E+006    1.52200E+007   -1.63234E+006   -1.75247E+006    1.33507E+007    2.47900E+004    1.20010E+006   -5.98334E+005
            1380    1.54176E+007    1.36584E+007    1.36584E+007   -1.65908E+006   -1.85740E+006    1.55158E+007   -3.38065E+006    1.54148E+007   -1.56657E+006   -1.85453E+006    1.35631E+007    9.86735E+003    1.19899E+006   -1.22303E+005
            1381    1.53046E+007    1.35711E+007    1.35711E+007   -1.63890E+006   -1.82636E+006    1.53974E+007   -3.36860E+006    1.53020E+007   -1.55641E+006   -1.80788E+006    1.34701E+007   -1.57680E+004    1.18601E+006    3.51487E+005
            1382    1.48965E+007    1.31826E+007    1.31826E+007   -1.60810E+006   -1.81746E+006    1.50001E+007   -3.25235E+006    1.48932E+007   -1.58033E+006   -1.71354E+006    1.30509E+007   -3.39657E+004    1.14994E+006    7.94677E+005
            1383    1.28752E+007    1.06987E+007    1.06987E+007   -9.48011E+005   -3.12695E+006    1.38256E+007   -2.20790E+006    1.24502E+007   -3.03356E+006   -7.30576E+005    1.03878E+007   -1.02783E+005    1.12136E+006   -1.57458E+006
            1384    1.35293E+007    1.12598E+007    1.12598E+007   -1.15848E+006   -3.15783E+006    1.44177E+007   -2.31451E+006    1.31907E+007   -3.02406E+006   -9.79720E+005    1.09473E+007    2.12885E+004    1.30338E+006   -1.54129E+006
            1385    1.42679E+007    1.20062E+007    1.20062E+007   -1.37414E+006   -3.00851E+006    1.50147E+007   -2.54119E+006    1.40550E+007   -2.85763E+006   -1.20182E+006    1.16830E+007    3.52284E+003    1.41408E+006   -1.57892E+006
            1386    1.51845E+007    1.28560E+007    1.28560E+007   -1.58343E+006   -2.97748E+006    1.58335E+007   -2.76503E+006    1.50396E+007   -2.81262E+006   -1.45300E+006    1.25607E+007    4.58288E+003    1.52321E+006   -1.45185E+006
            1387    1.60071E+007    1.36373E+007    1.36373E+007   -1.78477E+006   -2.89689E+006    1.65342E+007   -2.98521E+006    1.59198E+007   -2.72608E+006   -1.71203E+006    1.33937E+007   -8.99684E+002    1.61176E+006   -1.14076E+006
            1388    1.65334E+007    1.41622E+007    1.41622E+007   -1.85450E+006   -2.84363E+006    1.70058E+007   -3.15467E+006    1.64667E+007   -2.67382E+006   -1.83159E+006    1.39694E+007   -6.47023E+003    1.67243E+006   -6.51392E+005
            1389    1.67447E+007    1.43774E+007    1.43774E+007   -1.90774E+006   -2.79191E+006    1.71693E+007   -3.22590E+006    1.66921E+007   -2.62385E+006   -1.90718E+006    1.42087E+007   -1.29105E+003    1.68985E+006   -1.03597E+005
            1390    1.65713E+007    1.42259E+007    1.42259E+007   -1.88506E+006   -2.77022E+006    1.69961E+007   -3.19021E+006    1.65180E+007   -2.60314E+006   -1.87336E+006    1.40471E+007   -4.21028E+002    1.66302E+006    4.82247E+005
            1391    1.60555E+007    1.37489E+007    1.37489E+007   -1.81611E+006   -2.75583E+006    1.65047E+007   -3.05897E+006    1.59934E+007   -2.58835E+006   -1.76597E+006    1.35312E+007   -5.01586E+003    1.59679E+006    9.77662E+005
            1392    1.34549E+007    1.09510E+007    1.09510E+007   -1.22049E+006   -3.49681E+006    1.44478E+007   -2.07791E+006    1.30110E+007   -3.40720E+006   -1.00105E+006    1.06420E+007   -2.53088E+005    1.07968E+006   -1.63093E+006
            1393    1.41229E+007    1.15629E+007    1.15629E+007   -1.22056E+006   -3.59767E+006    1.51606E+007   -2.24822E+006    1.36619E+007   -3.50538E+006   -9.85777E+005    1.12358E+007   -1.87693E+005    1.16249E+006   -1.71131E+006
            1394    1.51977E+007    1.25127E+007    1.25127E+007   -1.50154E+006   -3.64159E+006    1.61543E+007   -2.45652E+006    1.48530E+007   -3.54125E+006   -1.27597E+006    1.21868E+007   -1.71464E+005    1.25728E+006   -1.75738E+006
            1395    1.63565E+007    1.36256E+007    1.36256E+007   -1.56654E+006   -3.68822E+006    1.73138E+007   -2.79028E+006    1.60425E+007   -3.57924E+006   -1.39489E+006    1.33450E+007   -1.52606E+005    1.36063E+006   -1.59997E+006
            1396    1.74044E+007    1.46764E+007    1.46764E+007   -1.56756E+006   -3.69324E+006    1.83696E+007   -3.13853E+006    1.71087E+007   -3.57843E+006   -1.46993E+006    1.44639E+007   -1.18134E+005    1.44281E+006   -1.25114E+006
            1397    1.81667E+007    1.54433E+007    1.54433E+007   -1.56618E+006   -3.69335E+006    1.91367E+007   -3.39459E+006    1.78833E+007   -3.57461E+006   -1.53450E+006    1.52929E+007   -6.50816E+004    1.50130E+006   -7.30827E+005
            1398    1.84418E+007    1.57117E+007    1.57117E+007   -1.59481E+006   -3.68693E+006    1.93986E+007   -3.47666E+006    1.81719E+007   -3.56640E+006   -1.59465E+006    1.55910E+007   -1.46453E+003    1.52430E+006   -5.36530E+004
            1399    1.81896E+007    1.54831E+007    1.54831E+007   -1.57981E+006   -3.65524E+006    1.91383E+007   -3.41601E+006    1.79204E+007   -3.53440E+006   -1.55776E+006    1.53402E+007    5.84425E+004    1.51482E+006    6.10972E+005
            1400    1.74137E+007    1.47100E+007    1.47100E+007   -1.60236E+006   -3.62798E+006    1.83380E+007   -3.15988E+006    1.71457E+007   -3.50932E+006   -1.51733E+006    1.45063E+007    1.07827E+005    1.46642E+006    1.17039E+006
            1401    1.82406E+007    1.50748E+007    1.50748E+007   -1.18175E+006   -4.65150E+006    1.97263E+007   -3.08052E+006    1.74749E+007   -4.56940E+006   -1.06089E+006    1.48718E+007    2.23143E+005    1.22547E+006    1.41466E+006
            1402    1.92360E+007    1.61328E+007    1.61328E+007   -1.01716E+006   -4.66648E+006    2.07993E+007   -3.48305E+006    1.84329E+007   -4.59530E+006   -9.79020E+005    1.60235E+007    1.25155E+005    1.19945E+006    8.19264E+005
            1403    1.96599E+007    1.65955E+007    1.65955E+007   -9.45699E+005   -4.65471E+006    2.12502E+007   -3.66503E+006    1.88485E+007   -4.58859E+006   -9.45692E+005    1.65294E+007   -9.98193E+001    1.18343E+006   -1.12962E+004
            1404    1.92299E+007    1.61140E+007    1.61140E+007   -1.02430E+006   -4.68214E+006    2.07961E+007   -3.46917E+006    1.84226E+007   -4.61171E+006   -9.84071E+005    1.60033E+007   -1.22716E+005    1.19404E+006   -8.39044E+005
            1405    1.82214E+007    1.50206E+007    1.50206E+007   -1.20643E+006   -4.69185E+006    1.97124E+007   -3.04076E+006    1.74477E+007   -4.61047E+006   -1.08047E+006    1.48132E+007   -2.25142E+005    1.21895E+006   -1.44185E+006
            1406    1.68769E+007    1.36172E+007    1.36172E+007   -1.41262E+006   -4.64051E+006    1.82577E+007   -2.52135E+006    1.61603E+007   -4.54612E+006   -1.21529E+006    1.33255E+007   -2.86677E+005    1.24175E+006   -1.73162E+006
            1407    1.54969E+007    1.21706E+007    1.21706E+007   -1.67735E+006   -4.56818E+006    1.67388E+007   -1.97501E+006    1.48720E+007   -4.46580E+006   -1.45073E+006    1.18416E+007   -2.98221E+005    1.23620E+006   -1.77476E+006
            1408    1.45480E+007    1.12415E+007    1.12415E+007   -1.90400E+006   -4.38899E+006    1.56305E+007   -1.64950E+006    1.40586E+007   -4.28338E+006   -1.67864E+006    1.09105E+007   -2.67676E+005    1.23022E+006   -1.71530E+006
            1409    1.42627E+007    1.12663E+007    1.12663E+007   -1.64065E+006   -4.04625E+006    1.53126E+007   -1.85981E+006    1.37952E+007   -3.94319E+006   -1.33808E+006    1.08607E+007   -2.52929E+005    1.21779E+006   -1.95013E+006
            1410    9.48667E+006    8.86888E+006    8.86888E+006    5.54982E+005   -1.46513E+006    1.03340E+007   -2.65291E+006    8.98342E+006   -1.43194E+006    5.24932E+005    8.86574E+006    2.48652E+005    1.34325E+005   -1.11044E+005
            1411    9.61582E+006    8.85994E+006    8.85994E+006    4.85648E+005   -1.64127E+006    1.05012E+007   -2.56811E+006    9.06362E+006   -1.60001E+006    4.74096E+005    8.83023E+006    2.22755E+005    3.92343E+005   -3.62892E+005
            1412    9.95220E+006    8.89713E+006    8.89713E+006    2.58425E+005   -1.98545E+006    1.08826E+007   -2.39003E+006    9.35732E+006   -1.93052E+006    2.94200E+005    8.80642E+006    1.64291E+005    6.25111E+005   -6.94840E+005
            1413    1.05449E+007    9.06161E+006    9.06161E+006   -1.47808E+005   -2.44125E+006    1.15029E+007   -2.15752E+006    9.96028E+006   -2.37260E+006   -3.71472E+004    8.88230E+006    7.47427E+004    8.15972E+005   -1.05494E+006
            1414    1.13896E+007    9.44877E+006    9.44877E+006   -5.86875E+005   -2.93027E+006    1.23790E+007   -1.97721E+006    1.08271E+007   -2.84985E+006   -3.85422E+005    9.16690E+006   -3.65084E+004    9.70812E+005   -1.41780E+006
            1415    1.23760E+007    1.00193E+007    1.00193E+007   -1.00122E+006   -3.36974E+006    1.33890E+007   -1.88278E+006    1.18498E+007   -3.28335E+006   -7.30457E+005    9.66216E+006   -1.39393E+005    1.06101E+006   -1.70037E+006
            1416    1.34412E+007    1.07683E+007    1.07683E+007   -1.29792E+006   -3.71878E+006    1.44871E+007   -1.91720E+006    1.29370E+007   -3.62236E+006   -9.51956E+005    1.03259E+007   -2.16929E+005    1.15721E+006   -2.00571E+006
            1417    1.02183E+007    9.50780E+006    9.50780E+006    1.43736E+005   -1.39108E+006    1.08989E+007   -2.75349E+006    9.95400E+006   -1.33653E+006    9.28583E+004    9.50413E+006   -2.80392E+005   -9.96501E+004   -1.63561E+005
            1418    1.10380E+007    1.02539E+007    1.02539E+007   -3.23439E+005   -1.19332E+006    1.14472E+007   -2.91236E+006    1.09605E+007   -1.09675E+006   -4.16574E+005    1.02504E+007   -2.70824E+005   -9.74972E+004   -1.68748E+005
            1419    1.18875E+007    1.09820E+007    1.09820E+007   -6.69222E+005   -1.12845E+006    1.21105E+007   -3.06146E+006    1.18675E+007   -8.86668E+005   -9.08259E+005    1.09793E+007   -2.28052E+005   -1.04079E+005   -1.49521E+005
            1420    1.26032E+007    1.15911E+007    1.15911E+007   -6.90053E+005   -1.31130E+006    1.29024E+007   -3.19657E+006    1.25687E+007   -7.24639E+005   -1.27464E+006    1.15890E+007   -1.43257E+005   -1.09426E+005   -1.20212E+005
            1421    1.03996E+007    9.56752E+006    9.56752E+006    4.04220E+004   -1.52678E+006    1.10943E+007   -2.69372E+006    1.01289E+007   -1.47012E+006    1.75153E+004    9.53377E+006   -2.54530E+005   -3.19590E+005   -4.90942E+005
            1422    1.12063E+007    1.03287E+007    1.03287E+007   -3.93571E+005   -1.30586E+006    1.16345E+007   -2.87642E+006    1.11223E+007   -1.21372E+006   -4.53893E+005    1.02969E+007   -2.49171E+005   -3.19060E+005   -5.04758E+005
            1423    1.20459E+007    1.10539E+007    1.10539E+007   -7.56430E+005   -1.21443E+006    1.22684E+007   -3.02770E+006    1.20263E+007   -9.97876E+005   -9.46456E+005    1.10274E+007   -2.15755E+005   -3.20590E+005   -4.70405E+005
            1424    1.27605E+007    1.16798E+007    1.16798E+007   -7.89325E+005   -1.35332E+006    1.30331E+007   -3.17905E+006    1.27324E+007   -8.21296E+005   -1.30319E+006    1.16616E+007   -1.35613E+005   -3.16878E+005   -3.65947E+005
            1425    1.07891E+007    9.73743E+006    9.73743E+006   -1.26502E+005   -1.78489E+006    1.15223E+007   -2.60868E+006    1.04966E+007   -1.72689E+006   -9.38482E+004    9.64678E+006   -2.05147E+005   -5.03497E+005   -8.29709E+005
            1426    1.16366E+007    1.05280E+007    1.05280E+007   -5.64173E+005   -1.58556E+006    1.21136E+007   -2.79277E+006    1.15351E+007   -1.50091E+006   -5.66593E+005    1.04458E+007   -2.09287E+005   -5.18942E+005   -8.23694E+005
            1427    1.24717E+007    1.12762E+007    1.12762E+007   -9.22954E+005   -1.45128E+006    1.27275E+007   -2.96732E+006    1.24465E+007   -1.30027E+006   -1.00506E+006    1.12073E+007   -1.93147E+005   -5.52623E+005   -7.48622E+005
            1428    1.32075E+007    1.19192E+007    1.19192E+007   -1.09737E+006   -1.47121E+006    1.33904E+007   -3.11688E+006    1.31956E+007   -1.14743E+006   -1.36808E+006    1.18661E+007   -1.23503E+005   -5.78193E+005   -6.09703E+005
            1429    1.13876E+007    1.00056E+007    1.00056E+007   -4.46938E+005   -2.12983E+006    1.21354E+007   -2.47626E+006    1.11026E+007   -2.06797E+006   -3.40765E+005    9.83753E+006   -1.30957E+005   -6.80063E+005   -1.16582E+006
            1430    1.21431E+007    1.07849E+007    1.07849E+007   -7.43989E+005   -1.89091E+006    1.26758E+007   -2.71667E+006    1.20203E+007   -1.81440E+006   -6.74699E+005    1.06391E+007   -1.42278E+005   -6.99597E+005   -1.11492E+006
            1431    1.29363E+007    1.15049E+007    1.15049E+007   -1.10330E+006   -1.73642E+006    1.32413E+007   -2.88838E+006    1.29014E+007   -1.62386E+006   -1.08901E+006    1.13780E+007   -1.43532E+005   -7.26104E+005   -1.05276E+006
            1432    1.37245E+007    1.22281E+007    1.22281E+007   -1.36122E+006   -1.62766E+006    1.38557E+007   -3.07974E+006    1.37186E+007   -1.46166E+006   -1.43046E+006    1.21313E+007   -8.53482E+004   -7.43971E+005   -8.81754E+005
            1433    1.22399E+007    1.04897E+007    1.04897E+007   -7.40550E+005   -2.55692E+006    1.30466E+007   -2.39739E+006    1.19310E+007   -2.49282E+006   -5.69960E+005    1.02550E+007   -4.62879E+004   -8.29122E+005   -1.42068E+006
            1434    1.28562E+007    1.10871E+007    1.10871E+007   -9.72101E+005   -2.44008E+006    1.35271E+007   -2.55829E+006    1.26656E+007   -2.36148E+006   -8.42314E+005    1.08787E+007   -7.29287E+004   -8.97389E+005   -1.33586E+006
            1435    1.37122E+007    1.18807E+007    1.18807E+007   -1.27895E+006   -2.32417E+006    1.42049E+007   -2.75919E+006    1.36221E+007   -2.21913E+006   -1.18063E+006    1.16773E+007   -9.57334E+004   -9.87859E+005   -1.33035E+006
            1436    1.45776E+007    1.26715E+007    1.26715E+007   -1.57901E+006   -2.21244E+006    1.48840E+007   -2.96003E+006    1.45466E+007   -2.10596E+006   -1.52122E+006    1.25073E+007   -5.56563E+004   -1.05548E+006   -1.12708E+006
            1437    1.28597E+007    1.07431E+007    1.07431E+007   -1.08717E+006   -2.94416E+006    1.36873E+007   -2.23726E+006    1.25528E+007   -2.88587E+006   -9.04367E+005    1.05020E+007    3.97652E+004   -8.72888E+005   -1.46616E+006
            1438    1.33934E+007    1.13327E+007    1.13327E+007   -1.12652E+006   -2.83154E+006    1.41643E+007   -2.45823E+006    1.31459E+007   -2.77370E+006   -9.06435E+005    1.10548E+007    5.61102E+004   -8.85439E+005   -1.64610E+006
            1439    1.44997E+007    1.23303E+007    1.23303E+007   -1.45491E+006   -2.79146E+006    1.51217E+007   -2.69464E+006    1.43602E+007   -2.72186E+006   -1.27450E+006    1.20803E+007    1.65887E+004   -9.74556E+005   -1.59357E+006
            1440    1.54845E+007    1.32591E+007    1.32591E+007   -1.66221E+006   -2.73302E+006    1.59921E+007   -2.95462E+006    1.54009E+007   -2.66182E+006   -1.53406E+006    1.30598E+007    3.77016E+004   -1.04004E+006   -1.39175E+006
            1441    1.30421E+007    1.05869E+007    1.05869E+007   -1.09444E+006   -3.48519E+006    1.40721E+007   -2.00242E+006    1.25348E+007   -3.40735E+006   -8.47559E+005    1.02622E+007    6.72401E+004   -1.02510E+006   -1.68455E+006
            1442    1.41468E+007    1.15226E+007    1.15226E+007   -1.57889E+006   -3.47781E+006    1.50004E+007   -2.15529E+006    1.38558E+007   -3.40438E+006   -1.32160E+006    1.11919E+007    9.31986E+004   -1.03342E+006   -1.81805E+006
            1443    1.50723E+007    1.24160E+007    1.24160E+007   -1.63072E+006   -3.50633E+006    1.59223E+007   -2.42631E+006    1.48063E+007   -3.42898E+006   -1.40032E+006    1.21082E+007    9.62737E+004   -1.09588E+006   -1.78349E+006
            1444    1.62834E+007    1.36383E+007    1.36383E+007   -1.64989E+006   -3.48493E+006    1.71232E+007   -2.83449E+006    1.60483E+007   -3.40619E+006   -1.47919E+006    1.33889E+007    1.01331E+005   -1.15238E+006   -1.60339E+006
            1445    1.68720E+007    1.40369E+007    1.40369E+007   -1.26693E+006   -4.05570E+006    1.80926E+007   -2.90476E+006    1.63413E+007   -4.00756E+006   -1.07162E+006    1.37935E+007    2.23672E+005   -8.57113E+005   -1.73936E+006
            1446    1.55350E+007    1.26359E+007    1.26359E+007   -1.43476E+006   -4.03526E+006    1.66711E+007   -2.38862E+006    1.50336E+007   -3.98057E+006   -1.21868E+006    1.23651E+007    2.45570E+005   -8.66710E+005   -1.75473E+006
            1447    1.42329E+007    1.12438E+007    1.12438E+007   -1.63632E+006   -4.03675E+006    1.52805E+007   -1.85690E+006    1.37664E+007   -3.98067E+006   -1.45263E+006    1.10040E+007    2.38146E+005   -8.37230E+005   -1.55504E+006
            1448    1.40821E+007    1.09792E+007    1.09792E+007   -2.10111E+006   -3.92662E+006    1.49058E+007   -1.65048E+006    1.38121E+007   -3.87175E+006   -1.98079E+006    1.08040E+007    1.95864E+005   -8.27748E+005   -1.28222E+006
            1449    9.61253E+006    8.95313E+006    8.95313E+006    5.68099E+005   -1.53774E+006    1.04909E+007   -2.66116E+006    9.07151E+006   -1.51910E+006    5.51763E+005    8.95082E+006   -1.90155E+005   -1.09094E+005   -1.00945E+005
            1450    9.72216E+006    8.94488E+006    8.94488E+006    5.32745E+005   -1.69915E+006    1.06440E+007   -2.59283E+006    9.11864E+006   -1.67474E+006    5.33940E+005    8.91928E+006   -1.66750E+005   -3.28008E+005   -3.65854E+005
            1451    1.00383E+007    8.99418E+006    8.99418E+006    3.31122E+005   -2.00680E+006    1.10010E+007   -2.43950E+006    9.39603E+006   -1.97308E+006    3.77308E+005    8.91427E+006   -1.18757E+005   -5.10944E+005   -7.00784E+005
            1452    1.06128E+007    9.20767E+006    9.20767E+006    3.40895E+003   -2.40108E+006    1.16088E+007   -2.27000E+006    9.97193E+006   -2.35668E+006    1.32175E+005    9.03451E+006   -5.16118E+004   -6.66339E+005   -1.10889E+006
            1453    1.15406E+007    9.68562E+006    9.68562E+006   -5.42356E+005   -2.82617E+006    1.25118E+007   -2.10570E+006    1.10149E+007   -2.77633E+006   -3.08855E+005    9.40228E+006    3.29247E+004   -7.67032E+005   -1.53418E+006
            1454    1.27671E+007    1.06400E+007    1.06400E+007   -8.43521E+005   -3.10766E+006    1.37477E+007   -2.22961E+006    1.23032E+007   -3.05253E+006   -5.23162E+005    1.02645E+007    1.10100E+005   -8.58157E+005   -1.88807E+006
            1455    1.41778E+007    1.16233E+007    1.16233E+007   -1.49620E+006   -3.41693E+006    1.50402E+007   -2.23671E+006    1.38805E+007   -3.36365E+006   -1.27660E+006    1.13504E+007    1.40891E+005   -8.79897E+005   -1.68090E+006
            1456    1.82542E+007    1.55573E+007    1.55573E+007   -1.04201E+006   -3.99223E+006    1.95496E+007   -3.50770E+006    1.77058E+007   -3.95244E+006   -9.20760E+005    1.53963E+007    1.74110E+005   -8.29567E+005   -1.43207E+006
            1457    1.92259E+007    1.66437E+007    1.66437E+007   -8.67291E+005   -3.92953E+006    2.05732E+007   -3.94895E+006    1.86653E+007   -3.89729E+006   -8.27751E+005    1.65719E+007    9.43614E+004   -7.97201E+005   -8.41032E+005
            1458    1.96510E+007    1.71371E+007    1.71371E+007   -7.81056E+005   -3.87871E+006    2.10158E+007   -4.15912E+006    1.90901E+007   -3.84930E+006   -7.81058E+005    1.71077E+007    3.00522E+003   -7.85634E+005   -3.30119E+002
            1459    1.92538E+007    1.66782E+007    1.66782E+007   -8.51534E+005   -3.92894E+006    2.06072E+007   -3.96591E+006    1.86884E+007   -3.89723E+006   -8.11827E+005    1.66068E+007   -9.22328E+004   -7.92180E+005    8.42454E+005
            1460    1.82511E+007    1.55424E+007    1.55424E+007   -1.04360E+006   -4.01031E+006    1.95527E+007   -3.49617E+006    1.76964E+007   -3.97161E+006   -9.18952E+005    1.53791E+007   -1.72749E+005   -8.18209E+005    1.45012E+006
            1461    1.69322E+007    1.40889E+007    1.40889E+007   -1.26033E+006   -4.07394E+006    1.81628E+007   -2.91819E+006    1.63939E+007   -4.02689E+006   -1.06569E+006    1.38472E+007   -2.27578E+005   -8.42146E+005    1.74128E+006
            1462    1.55893E+007    1.26122E+007    1.26122E+007   -1.53542E+006   -4.10067E+006    1.67129E+007   -2.32537E+006    1.51035E+007   -4.04707E+006   -1.31946E+006    1.23426E+007   -2.51056E+005   -8.47732E+005    1.76306E+006
            1463    1.47217E+007    1.17001E+007    1.17001E+007   -1.73710E+006   -4.03568E+006    1.57357E+007   -1.97577E+006    1.43096E+007   -3.98049E+006   -1.53483E+006    1.14426E+007   -2.36562E+005   -8.43926E+005    1.66220E+006
            1464    1.43952E+007    1.17089E+007    1.17089E+007   -1.37790E+006   -3.70999E+006    1.54189E+007   -2.20701E+006    1.39607E+007   -3.65462E+006   -1.10816E+006    1.13838E+007   -2.38403E+005   -8.50528E+005    1.87422E+006
            1465    1.72974E+007    1.46462E+007    1.46462E+007   -1.64780E+006   -3.50486E+006    1.81510E+007   -3.16450E+006    1.70710E+007   -3.42469E+006   -1.55236E+006    1.44706E+007    8.02170E+004   -1.20040E+006   -1.24081E+006
            1466    1.63566E+007    1.40995E+007    1.40995E+007   -1.75529E+006   -2.71657E+006    1.68161E+007   -3.20921E+006    1.62929E+007   -2.64153E+006   -1.69475E+006    1.39639E+007    2.34651E+004   -1.10481E+006   -9.93337E+005
            1467    1.52801E+007    1.32981E+007    1.32981E+007   -1.77926E+006   -2.17690E+006    1.54751E+007   -3.11399E+006    1.52685E+007   -2.06542E+006   -1.76690E+006    1.31743E+007   -4.54029E+004   -1.12473E+006   -7.94098E+005
            1468    1.43157E+007    1.27523E+007    1.27523E+007   -1.39594E+006   -1.72523E+006    1.44775E+007   -3.21038E+006    1.43072E+007   -1.38314E+006   -1.67225E+006    1.26865E+007   -6.14785E+004   -7.68905E+005   -5.90999E+005
            1469    1.37674E+007    1.23909E+007    1.23909E+007   -1.08270E+006   -1.65244E+006    1.40434E+007   -3.21860E+006    1.37408E+007   -1.07390E+006   -1.62290E+006    1.23526E+007   -8.43141E+004   -6.09872E+005   -3.91309E+005
            1470    1.32573E+007    1.20928E+007    1.20928E+007   -7.27884E+005   -1.56178E+006    1.36545E+007   -3.26770E+006    1.31981E+007   -7.30619E+005   -1.54723E+006    1.20809E+007   -8.71424E+004   -3.15327E+005   -2.37658E+005
            1471    1.31031E+007    1.20000E+007    1.20000E+007   -6.35050E+005   -1.52573E+006    1.35258E+007   -3.27975E+006    1.30348E+007   -6.43204E+005   -1.51615E+006    1.19986E+007   -8.95848E+004   -1.16801E+005   -6.88301E+004
            1472    1.80396E+007    1.53987E+007    1.53987E+007   -1.63219E+006   -3.50366E+006    1.89024E+007   -3.42095E+006    1.78192E+007   -3.42373E+006   -1.60672E+006    1.52933E+007    4.60653E+004   -1.22569E+006   -6.56547E+005
            1473    1.69055E+007    1.46136E+007    1.46136E+007   -1.83930E+006   -2.71077E+006    1.73244E+007   -3.35451E+006    1.68548E+007   -2.63536E+006   -1.82488E+006    1.45238E+007    1.88270E+004   -1.13837E+006   -4.90185E+005
            1474    1.56971E+007    1.36795E+007    1.36795E+007   -1.90732E+006   -2.12570E+006    1.58052E+007   -3.21548E+006    1.56937E+007   -2.03242E+006   -1.90701E+006    1.35859E+007   -1.34003E+004   -1.16419E+006   -3.38893E+005
            1475    1.46578E+007    1.30517E+007    1.30517E+007   -1.36882E+006   -1.83240E+006    1.48841E+007   -3.28348E+006    1.46413E+007   -1.32833E+006   -1.82709E+006    1.30059E+007   -1.45741E+004   -7.78011E+005   -2.35725E+005
            1476    1.40323E+007    1.26157E+007    1.26157E+007   -1.05146E+006   -1.75517E+006    1.43709E+007   -3.26969E+006    1.39925E+007   -1.02401E+006   -1.75288E+006    1.25859E+007   -2.16188E+004   -6.23948E+005   -1.32881E+005
            1477    1.34962E+007    1.22947E+007    1.22947E+007   -6.75717E+005   -1.67216E+006    1.39668E+007   -3.31560E+006    1.34131E+007   -6.68684E+005   -1.67136E+006    1.22868E+007   -1.86587E+004   -3.10806E+005   -7.36366E+004
            1478    1.33265E+007    1.21843E+007    1.21843E+007   -5.91316E+005   -1.63203E+006    1.38163E+007   -3.32032E+006    1.32346E+007   -5.90512E+005   -1.63166E+006    1.21831E+007   -1.85033E+004   -1.20679E+005   -2.17074E+004
            1479    1.82766E+007    1.56305E+007    1.56305E+007   -1.62494E+006   -3.51972E+006    1.91502E+007   -3.49527E+006    1.80537E+007   -3.43999E+006   -1.62482E+006    1.55506E+007   -2.78784E+003   -1.23309E+006    4.45795E+004
            1480    1.70735E+007    1.47816E+007    1.47816E+007   -1.82127E+006   -2.72653E+006    1.75081E+007   -3.41126E+006    1.70194E+007   -2.65059E+006   -1.82053E+006    1.47049E+007   -1.58021E+003   -1.15027E+006    1.13909E+005
            1481    1.58014E+007    1.37635E+007    1.37635E+007   -1.92257E+006   -2.15080E+006    1.59143E+007   -3.23005E+006    1.57977E+007   -2.06159E+006   -1.92213E+006    1.36739E+007    2.82868E+003   -1.18306E+006    1.37552E+005
            1482    1.46964E+007    1.30883E+007    1.30883E+007   -1.39011E+006   -1.81679E+006    1.49051E+007   -3.29379E+006    1.46824E+007   -1.34830E+006   -1.81395E+006    1.30436E+007    1.40356E+004   -7.87940E+005    1.57522E+005
            1483    1.40466E+007    1.26230E+007    1.26230E+007   -1.07767E+006   -1.74580E+006    1.43688E+007   -3.26650E+006    1.40108E+007   -1.04941E+006   -1.74336E+006    1.25923E+007    2.22134E+004   -6.34739E+005    1.34360E+005
            1484    1.34745E+007    1.22775E+007    1.22775E+007   -6.94584E+005   -1.64863E+006    1.39262E+007   -3.31144E+006    1.33982E+007   -6.88021E+005   -1.64701E+006    1.22694E+007    2.93317E+004   -3.13990E+005    9.01297E+004
            1485    1.33003E+007    1.21622E+007    1.21622E+007   -6.11202E+005   -1.60893E+006    1.37711E+007   -3.31402E+006    1.32157E+007   -6.11124E+005   -1.60775E+006    1.21609E+007    3.27342E+004   -1.22479E+005    3.39486E+004
            1486    1.80079E+007    1.53534E+007    1.53534E+007   -1.62662E+006   -3.53088E+006    1.88843E+007   -3.39864E+006    1.77792E+007   -3.45167E+006   -1.59158E+006    1.52392E+007   -5.22613E+004   -1.21937E+006    7.68820E+005
            1487    1.68207E+007    1.45224E+007    1.45224E+007   -1.80680E+006   -2.75018E+006    1.72725E+007   -3.32179E+006    1.67610E+007   -2.67519E+006   -1.77905E+006    1.44196E+007   -1.97899E+004   -1.12969E+006    6.80696E+005
            1488    1.55729E+007    1.35470E+007    1.35470E+007   -1.85440E+006   -2.19184E+006    1.57389E+007   -3.16692E+006    1.55647E+007   -2.08972E+006   -1.84466E+006    1.34351E+007    2.38512E+004   -1.16440E+006    6.24055E+005
            1489    1.44537E+007    1.28637E+007    1.28637E+007   -1.40849E+006   -1.76489E+006    1.46286E+007   -3.23012E+006    1.44438E+007   -1.38225E+006   -1.73007E+006    1.28027E+007    4.66709E+004   -7.80349E+005    5.19630E+005
            1490    1.37996E+007    1.24111E+007    1.24111E+007   -1.09211E+006   -1.66682E+006    1.40779E+007   -3.21739E+006    1.37726E+007   -1.07727E+006   -1.64193E+006    1.23714E+007    7.11216E+004   -6.25418E+005    3.91730E+005
            1491    1.32244E+007    1.20651E+007    1.20651E+007   -7.17532E+005   -1.56061E+006    1.36257E+007   -3.26232E+006    1.31637E+007   -7.19443E+005   -1.54661E+006    1.20530E+007    8.36326E+004   -3.14281E+005    2.45716E+005
            1492    1.30394E+007    1.19473E+007    1.19473E+007   -6.30640E+005   -1.50921E+006    1.34565E+007   -3.26915E+006    1.29726E+007   -6.39018E+005   -1.49924E+006    1.19457E+007    9.01236E+004   -1.18954E+005    7.99573E+004
            1493    1.72396E+007    1.45712E+007    1.45712E+007   -1.61766E+006   -3.55548E+006    1.81266E+007   -3.13268E+006    1.69920E+007   -3.47614E+006   -1.50750E+006    1.43817E+007   -8.83085E+004   -1.19293E+006    1.32794E+006
            1494    1.62040E+007    1.39230E+007    1.39230E+007   -1.71124E+006   -2.79637E+006    1.67193E+007   -3.13845E+006    1.61220E+007   -2.72296E+006   -1.62365E+006    1.37620E+007   -3.29470E+004   -1.08869E+006    1.17935E+006
            1495    1.50300E+007    1.30476E+007    1.30476E+007   -1.66808E+006   -2.27820E+006    1.53258E+007   -3.03377E+006    1.50021E+007   -2.16923E+006   -1.62628E+006    1.28968E+007    4.84279E+004   -1.12464E+006    9.99897E+005
            1496    1.39694E+007    1.24292E+007    1.24292E+007   -1.40694E+006   -1.66983E+006    1.40990E+007   -3.11747E+006    1.39639E+007   -1.48527E+006   -1.50084E+006    1.23385E+007    8.57869E+004   -7.73737E+005    8.19253E+005
            1497    1.33342E+007    1.20085E+007    1.20085E+007   -1.12973E+006   -1.51332E+006    1.35218E+007   -3.12182E+006    1.33217E+007   -1.17927E+006   -1.40973E+006    1.19544E+007    1.27112E+005   -6.11488E+005    5.93134E+005
            1498    1.27734E+007    1.16840E+007    1.16840E+007   -7.92658E+005   -1.36673E+006    1.30507E+007   -3.17488E+006    1.27443E+007   -8.30024E+005   -1.31068E+006    1.16653E+007    1.45870E+005   -3.21859E+005    3.71434E+005
            1499    1.25815E+007    1.15667E+007    1.15667E+007   -6.98894E+005   -1.30858E+006    1.28753E+007   -3.18640E+006    1.25482E+007   -7.41418E+005   -1.26393E+006    1.15646E+007    1.55987E+005   -1.13989E+005    1.18458E+005
            1500    1.62024E+007    1.35050E+007    1.35050E+007   -1.65531E+006   -3.56938E+006    1.70744E+007   -2.76010E+006    1.59450E+007   -3.49144E+006   -1.46257E+006    1.32343E+007   -1.13144E+005   -1.14444E+006    1.69472E+006
            1501    1.52810E+007    1.30475E+007    1.30475E+007   -1.56973E+006   -2.82039E+006    1.58679E+007   -2.88580E+006    1.51652E+007   -2.75136E+006   -1.41501E+006    1.28238E+007   -4.77106E+004   -1.02370E+006    1.50583E+006
            1502    1.42872E+007    1.23763E+007    1.23763E+007   -1.45608E+006   -2.32605E+006    1.47023E+007   -2.86471E+006    1.42275E+007   -2.22441E+006   -1.36755E+006    1.21861E+007    5.54568E+004   -1.05246E+006    1.25742E+006
            1503    1.33096E+007    1.18312E+007    1.18312E+007   -1.25270E+006   -1.69308E+006    1.35243E+007   -2.96182E+006    1.32932E+007   -1.58274E+006   -1.24280E+006    1.17110E+007    1.03286E+005   -7.46402E+005    1.02016E+006
            1504    1.27101E+007    1.14741E+007    1.14741E+007   -1.02930E+006   -1.43308E+006    1.29072E+007   -3.00391E+006    1.26957E+007   -1.27077E+006   -1.12274E+006    1.14052E+007    1.57653E+005   -5.78474E+005    7.39790E+005
            1505    1.21751E+007    1.11729E+007    1.11729E+007   -7.94557E+005   -1.19976E+006    1.23726E+007   -3.05952E+006    1.21599E+007   -9.45362E+005   -1.02366E+006    1.11476E+007    1.86000E+005   -3.20560E+005    4.57733E+005
            1506    1.19772E+007    1.10633E+007    1.10633E+007   -6.96460E+005   -1.12006E+006    1.21834E+007   -3.08227E+006    1.19603E+007   -8.47547E+005   -9.66291E+005    1.10606E+007    2.01911E+005   -1.05662E+005    1.46573E+005
            1507    1.50639E+007    1.23891E+007    1.23891E+007   -1.56383E+006   -3.58230E+006    1.59714E+007   -2.41431E+006    1.47550E+007   -3.50471E+006   -1.31248E+006    1.20601E+007   -1.05054E+005   -1.09944E+006    1.85412E+006
            1508    1.42850E+007    1.21201E+007    1.21201E+007   -1.31135E+006   -2.88775E+006    1.50079E+007   -2.64033E+006    1.40874E+007   -2.82256E+006   -1.11595E+006    1.18595E+007   -3.94118E+004   -9.59731E+005    1.62026E+006
            1509    1.35005E+007    1.16356E+007    1.16356E+007   -1.18241E+006   -2.45698E+006    1.40926E+007   -2.66540E+006    1.33641E+007   -2.35904E+006   -1.06502E+006    1.14203E+007    8.94846E+004   -9.87125E+005    1.36665E+006
            1510    1.25941E+007    1.11649E+007    1.11649E+007   -9.54488E+005   -1.85557E+006    1.30205E+007   -2.78495E+006    1.25213E+007   -1.75857E+006   -9.05862E+005    1.10193E+007    1.52026E+005   -7.34952E+005    1.12809E+006
            1511    1.20229E+007    1.08504E+007    1.08504E+007   -7.47252E+005   -1.55688E+006    1.24073E+007   -2.84876E+006    1.19614E+007   -1.44320E+006   -7.79624E+005    1.07691E+007    2.16382E+005   -5.54811E+005    8.18577E+005
            1512    1.15084E+007    1.05804E+007    1.05804E+007   -5.59737E+005   -1.26396E+006    1.18443E+007   -2.91890E+006    1.14598E+007   -1.13398E+006   -6.57840E+005    1.05485E+007    2.51431E+005   -3.28328E+005    5.11716E+005
            1513    1.12946E+007    1.04677E+007    1.04677E+007   -4.63235E+005   -1.15839E+006    1.16261E+007   -2.94869E+006    1.12463E+007   -1.02693E+006   -5.91496E+005    1.04645E+007    2.70151E+005   -1.00050E+005    1.63015E+005
            1514    1.40344E+007    1.14900E+007    1.14900E+007   -1.32138E+006   -3.51017E+006    1.50002E+007   -2.21949E+006    1.36425E+007   -3.43603E+006   -1.05683E+006    1.11513E+007   -1.24260E+005   -1.04251E+006    1.81768E+006
            1515    1.34275E+007    1.13131E+007    1.13131E+007   -1.16746E+006   -2.89422E+006    1.42073E+007   -2.41715E+006    1.31742E+007   -2.83815E+006   -9.51804E+005    1.10414E+007   -8.82732E+004   -8.82916E+005    1.62447E+006
            1516    1.27377E+007    1.09489E+007    1.09489E+007   -9.17497E+005   -2.51031E+006    1.34592E+007   -2.50704E+006    1.25107E+007   -2.44033E+006   -7.59678E+005    1.07211E+007    3.91625E+004   -8.82535E+005    1.41185E+006
            1517    1.18873E+007    1.04993E+007    1.04993E+007   -6.69807E+005   -1.99498E+006    1.24943E+007   -2.61152E+006    1.17194E+007   -1.92717E+006   -5.77838E+005    1.03396E+007    1.23813E+005   -7.04237E+005    1.15922E+006
            1518    1.12955E+007    1.02066E+007    1.02066E+007   -4.00637E+005   -1.66992E+006    1.18766E+007   -2.71203E+006    1.11334E+007   -1.60022E+006   -3.81014E+005    1.01173E+007    2.02604E+005   -5.18619E+005    8.48099E+005
            1519    1.08196E+007    9.96943E+006    9.96943E+006   -2.10998E+005   -1.39242E+006    1.13619E+007   -2.78867E+006    1.06731E+007   -1.32005E+006   -2.49330E+005    9.93539E+006    2.51025E+005   -3.25871E+005    5.08887E+005
            1520    1.05990E+007    9.86531E+006    9.86531E+006   -9.65700E+004   -1.27271E+006    1.11380E+007   -2.83201E+006    1.04507E+007   -1.20158E+006   -1.64097E+005    9.86170E+006    2.77462E+005   -9.46172E+004    1.69891E+005
            1521    1.36054E+007    1.10362E+007    1.10362E+007   -1.28676E+006   -3.56418E+006    1.46004E+007   -2.06175E+006    1.31662E+007   -3.49396E+006   -1.05943E+006    1.07386E+007   -8.85522E+004   -9.99871E+005    1.65725E+006
            1522    1.28707E+007    1.07084E+007    1.07084E+007   -1.03113E+006   -3.05403E+006    1.37624E+007   -2.20774E+006    1.25056E+007   -2.99258E+006   -7.91247E+005    1.04070E+007   -4.89889E+004   -8.95593E+005    1.66774E+006
            1523    1.20976E+007    1.02647E+007    1.02647E+007   -7.61945E+005   -2.67581E+006    1.29405E+007   -2.27564E+006    1.17498E+007   -2.61322E+006   -5.78313E+005    1.00184E+007    3.89543E+004   -8.23476E+005    1.45121E+006
            1524    1.12368E+007    9.81750E+006    9.81750E+006   -3.84841E+005   -2.22622E+006    1.20437E+007   -2.40215E+006    1.08895E+007   -2.16577E+006   -2.71120E+005    9.64332E+006    1.22167E+005   -6.95054E+005    1.16910E+006
            1525    1.06190E+007    9.53836E+006    9.53836E+006   -6.97994E+004   -1.86308E+006    1.14014E+007   -2.53516E+006    1.02700E+007   -1.80873E+006   -3.23699E+004    9.44658E+006    1.98185E+005   -5.11156E+005    8.19938E+005
            1526    1.01912E+007    9.36624E+006    9.36624E+006    1.55575E+005   -1.58214E+006    1.09484E+007   -2.64656E+006    9.84963E+006   -1.53203E+006    1.39022E+005    9.33269E+006    2.47588E+005   -3.26918E+005    4.75376E+005
            1527    1.00113E+007    9.31140E+006    9.31140E+006    2.57247E+005   -1.44009E+006    1.07515E+007   -2.70952E+006    9.67964E+006   -1.39326E+006    2.13751E+005    9.30806E+006    2.73965E+005   -1.00050E+005    1.50482E+005
            1528    9.55115E+006    8.90218E+006    8.90218E+006    6.03637E+005   -1.53797E+006    1.04401E+007   -2.65595E+006    8.98680E+006   -1.52113E+006    5.89370E+005    8.89960E+006    1.81104E+005   -1.12833E+005    1.08160E+005
            1529    9.68914E+006    8.90691E+006    8.90691E+006    5.36371E+005   -1.70719E+006    1.06141E+007   -2.57870E+006    9.07668E+006   -1.68423E+006    5.38455E+005    8.88187E+006    1.56898E+005   -3.30655E+005    3.55860E+005
            1530    1.00197E+007    8.96016E+006    8.96016E+006    3.21739E+005   -2.02449E+006    1.09846E+007   -2.41914E+006    9.37129E+006   -1.99143E+006    3.67659E+005    8.88118E+006    1.08552E+005   -5.17580E+005    6.89542E+005
            1531    1.06138E+007    9.15855E+006    9.15855E+006   -6.68456E+004   -2.44144E+006    1.16000E+007   -2.21676E+006    9.98959E+006   -2.39847E+006    5.02139E+004    8.99852E+006    3.48190E+004   -6.68697E+005    1.05327E+006
            1532    1.14199E+007    9.56169E+006    9.56169E+006   -4.82428E+005   -2.85981E+006    1.24215E+007   -2.07315E+006    1.08420E+007   -2.81059E+006   -2.78325E+005    9.30836E+006   -5.19128E+004   -7.69256E+005    1.41876E+006
            1533    1.23741E+007    1.01711E+007    1.01711E+007   -8.29514E+005   -3.22598E+006    1.33971E+007   -2.03854E+006    1.18350E+007   -3.17223E+006   -5.62535E+005    9.85037E+006   -1.40844E+005   -8.34884E+005    1.68868E+006
            1534    1.34570E+007    1.10517E+007    1.10517E+007   -1.02166E+006   -3.45654E+006    1.45082E+007   -2.19116E+006    1.29474E+007   -3.40167E+006   -6.89982E+005    1.06651E+007   -2.22720E+005   -8.44341E+005    1.97658E+006
            1535    1.41021E+007    1.09934E+007    1.09934E+007   -2.11712E+006   -3.92567E+006    1.49191E+007   -1.65021E+006    1.38376E+007   -3.87089E+006   -1.99592E+006    1.08174E+007    1.94493E+005    8.28673E+005    1.28746E+006
            1536    1.42033E+007    1.12025E+007    1.12025E+007   -1.65986E+006   -4.04093E+006    1.52434E+007   -1.83389E+006    1.37435E+007   -3.98499E+006   -1.48017E+006    1.09668E+007    2.35349E+005    8.36424E+005    1.53735E+006
            1537    1.54991E+007    1.25965E+007    1.25965E+007   -1.44474E+006   -4.03430E+006    1.66308E+007   -2.37248E+006    1.50008E+007   -3.97950E+006   -1.22947E+006    1.23264E+007    2.44917E+005    8.67074E+005    1.74961E+006
            1538    1.68506E+007    1.40177E+007    1.40177E+007   -1.26574E+006   -4.05264E+006    1.80703E+007   -2.89977E+006    1.63200E+007   -4.00457E+006   -1.07112E+006    1.37750E+007    2.23036E+005    8.56368E+005    1.73505E+006
            1539    1.62597E+007    1.36199E+007    1.36199E+007   -1.65368E+006   -3.47284E+006    1.70928E+007   -2.83114E+006    1.60284E+007   -3.39397E+006   -1.48276E+006    1.33701E+007    1.00171E+005    1.15223E+006    1.60379E+006
            1540    1.54422E+007    1.32265E+007    1.32265E+007   -1.66078E+006   -2.71642E+006    1.59429E+007   -2.94978E+006    1.53607E+007   -2.64499E+006   -1.53338E+006    1.30277E+007    3.49505E+004    1.03782E+006    1.38803E+006
            1541    1.45408E+007    1.26489E+007    1.26489E+007   -1.57232E+006   -2.19175E+006    1.48407E+007   -2.96161E+006    1.45111E+007   -2.08428E+006   -1.51724E+006    1.24864E+007   -5.80967E+004    1.04985E+006    1.11902E+006
            1542    1.37031E+007    1.22151E+007    1.22151E+007   -1.35279E+006   -1.61929E+006    1.38344E+007   -3.08100E+006    1.36972E+007   -1.44676E+006   -1.43068E+006    1.21204E+007   -8.65988E+004    7.36498E+005    8.70450E+005
            1543    1.31899E+007    1.19073E+007    1.19073E+007   -1.09073E+006   -1.46641E+006    1.33737E+007   -3.11671E+006    1.31778E+007   -1.14092E+006   -1.36411E+006    1.18552E+007   -1.24253E+005    5.73536E+005    6.02908E+005
            1544    1.27475E+007    1.16702E+007    1.16702E+007   -7.85670E+005   -1.35017E+006    1.30203E+007   -3.17811E+006    1.27193E+007   -8.18012E+005   -1.30002E+006    1.16524E+007   -1.36098E+005    3.12018E+005    3.63599E+005
            1545    1.26004E+007    1.15892E+007    1.15892E+007   -6.89541E+005   -1.30977E+006    1.28990E+007   -3.19664E+006    1.25659E+007   -7.24319E+005   -1.27297E+006    1.15872E+007   -1.43442E+005    1.07038E+005    1.19929E+005
            1546    1.50371E+007    1.23861E+007    1.23861E+007   -1.63262E+006   -3.49586E+006    1.58819E+007   -2.41919E+006    1.47741E+007   -3.41849E+006   -1.40158E+006    1.20777E+007    9.48324E+004    1.09419E+006    1.78444E+006
            1547    1.44526E+007    1.22991E+007    1.22991E+007   -1.44226E+006   -2.77265E+006    1.50718E+007   -2.69474E+006    1.43138E+007   -2.70283E+006   -1.26261E+006    1.20496E+007    1.36071E+004    9.71606E+005    1.58967E+006
            1548    1.36593E+007    1.18444E+007    1.18444E+007   -1.26786E+006   -2.30313E+006    1.41475E+007   -2.75779E+006    1.35706E+007   -2.19778E+006   -1.17253E+006    1.16437E+007   -9.88676E+004    9.80017E+005    1.31903E+006
            1549    1.29078E+007    1.14886E+007    1.14886E+007   -1.09481E+006   -1.72086E+006    1.32094E+007   -2.89097E+006    1.28736E+007   -1.60738E+006   -1.08355E+006    1.13638E+007   -1.45378E+005    7.17601E+005    1.04420E+006
            1550    1.24621E+007    1.12710E+007    1.12710E+007   -9.20139E+005   -1.44541E+006    1.27164E+007   -2.96848E+006    1.24371E+007   -1.29263E+006   -1.00537E+006    1.12034E+007   -1.94192E+005    5.47789E+005    7.40560E+005
            1551    1.20373E+007    1.10482E+007    1.10482E+007   -7.52933E+005   -1.21198E+006    1.22602E+007   -3.02777E+006    1.20175E+007   -9.95193E+005   -9.43874E+005    1.10224E+007   -2.16579E+005    3.16793E+005    4.63944E+005
            1552    1.18834E+007    1.09785E+007    1.09785E+007   -6.68481E+005   -1.12799E+006    1.21065E+007   -3.06066E+006    1.18634E+007   -8.86951E+005   -9.06895E+005    1.09758E+007   -2.28290E+005    1.01787E+005    1.46196E+005
            1553    1.41278E+007    1.15074E+007    1.15074E+007   -1.57429E+006   -3.47420E+006    1.49816E+007   -2.15297E+006    1.38360E+007   -3.40061E+006   -1.31495E+006    1.11745E+007    9.22427E+004    1.03344E+006    1.82397E+006
            1554    1.33497E+007    1.12985E+007    1.12985E+007   -1.11496E+006   -2.82307E+006    1.41216E+007   -2.45349E+006    1.31005E+007   -2.76517E+006   -8.98356E+005    1.10240E+007    5.28755E+004    8.83619E+005    1.63098E+006
            1555    1.28146E+007    1.10604E+007    1.10604E+007   -9.58543E+005   -2.42388E+006    1.34843E+007   -2.55933E+006    1.26241E+007   -2.34519E+006   -8.31226E+005    1.08544E+007   -7.64121E+004    8.92157E+005    1.32557E+006
            1556    1.21160E+007    1.07680E+007    1.07680E+007   -7.36030E+005   -1.87891E+006    1.26469E+007   -2.71769E+006    1.19938E+007   -1.80247E+006   -6.69309E+005    1.06249E+007   -1.44510E+005    6.92985E+005    1.10353E+006
            1557    1.16315E+007    1.05258E+007    1.05258E+007   -5.62622E+005   -1.58163E+006    1.21075E+007   -2.79387E+006    1.15304E+007   -1.49638E+006   -5.66278E+005    1.04443E+007   -2.10740E+005    5.16399E+005    8.20674E+005
            1558    1.11993E+007    1.03231E+007    1.03231E+007   -3.91781E+005   -1.30470E+006    1.16278E+007   -2.87553E+006    1.11151E+007   -1.21298E+006   -4.51745E+005    1.02913E+007   -2.48806E+005    3.17801E+005    5.04478E+005
            1559    1.10319E+007    1.02489E+007    1.02489E+007   -3.20455E+005   -1.19355E+006    1.14425E+007   -2.91165E+006    1.09538E+007   -1.09734E+006   -4.13330E+005    1.02456E+007   -2.71011E+005    9.59989E+004    1.66208E+005
            1560    1.30201E+007    1.05647E+007    1.05647E+007   -1.08580E+006   -3.48997E+006    1.40546E+007   -1.99630E+006    1.25060E+007   -3.41180E+006   -8.42682E+005    1.02434E+007    6.69259E+004    1.02702E+006    1.66964E+006
            1561    1.28560E+007    1.07449E+007    1.07449E+007   -1.08162E+006   -2.93870E+006    1.36836E+007   -2.24152E+006    1.25489E+007   -2.88038E+006   -8.98680E+005    1.05036E+007    3.87080E+004    8.72442E+005    1.46678E+006
            1562    1.22117E+007    1.04703E+007    1.04703E+007   -7.31779E+005   -2.54775E+006    1.30180E+007   -2.39692E+006    1.19023E+007   -2.48379E+006   -5.62723E+005    1.02373E+007   -4.81029E+004    8.25765E+005    1.41378E+006
            1563    1.13686E+007    9.99332E+006    9.99332E+006   -4.41099E+005   -2.12231E+006    1.21156E+007   -2.47664E+006    1.10838E+007   -2.06050E+006   -3.35968E+005    9.82638E+006   -1.32336E+005    6.76937E+005    1.16134E+006
            1564    1.07746E+007    9.72809E+006    9.72809E+006   -1.20295E+005   -1.78010E+006    1.15082E+007   -2.60923E+006    1.04812E+007   -1.72233E+006   -8.88714E+004    9.63890E+006   -2.06067E+005    4.99774E+005    8.22162E+005
            1565    1.03956E+007    9.56515E+006    9.56515E+006    4.17093E+004   -1.52478E+006    1.10899E+007   -2.69403E+006    1.01249E+007   -1.46820E+006    1.83379E+004    9.53194E+006   -2.54702E+005    3.17975E+005    4.86374E+005
            1566    1.02201E+007    9.50928E+006    9.50928E+006    1.42911E+005   -1.39107E+006    1.09003E+007   -2.75371E+006    9.95612E+006   -1.33647E+006    9.19893E+004    9.50560E+006   -2.80404E+005    1.00342E+005    1.63438E+005
            1567    9.61175E+006    8.95142E+006    8.95142E+006    5.68609E+005   -1.53936E+006    1.04908E+007   -2.66023E+006    9.06954E+006   -1.52075E+006    5.52498E+005    8.94893E+006   -1.89452E+005    1.13831E+005    1.04913E+005
            1568    9.71991E+006    8.94333E+006    8.94333E+006    5.36255E+005   -1.69973E+006    1.06431E+007   -2.59328E+006    9.11390E+006   -1.67534E+006    5.37454E+005    8.91773E+006   -1.66361E+005    3.29164E+005    3.64767E+005
            1569    1.00364E+007    8.99426E+006    8.99426E+006    3.31483E+005   -2.00399E+006    1.09982E+007   -2.44058E+006    9.39540E+006   -1.97029E+006    3.76661E+005    8.91538E+006   -1.19929E+005    5.09342E+005    6.95291E+005
            1570    1.06011E+007    9.19857E+006    9.19857E+006    2.88428E+003   -2.39654E+006    1.15951E+007   -2.26830E+006    9.96223E+006   -2.35209E+006    1.28968E+005    9.02803E+006   -5.45844E+004    6.64547E+005    1.09856E+006
            1571    1.15107E+007    9.66285E+006    9.66285E+006   -5.32822E+005   -2.81952E+006    1.24824E+007   -2.10350E+006    1.09820E+007   -2.76982E+006   -3.02949E+005    9.38329E+006    3.08350E+004    7.64603E+005    1.52042E+006
            1572    1.27304E+007    1.06095E+007    1.06095E+007   -8.31422E+005   -3.10417E+006    1.37137E+007   -2.22464E+006    1.22614E+007   -3.04913E+006   -5.12327E+005    1.02354E+007    1.08754E+005    8.56357E+005    1.88094E+006
            1573    1.41931E+007    1.16444E+007    1.16444E+007   -1.49044E+006   -3.41126E+006    1.50556E+007   -2.24756E+006    1.38961E+007   -3.35807E+006   -1.26830E+006    1.13691E+007    1.42656E+005    8.79101E+005    1.69158E+006
            1574    1.00086E+007    9.30865E+006    9.30865E+006    2.59608E+005   -1.44154E+006    1.07502E+007   -2.70891E+006    9.67533E+006   -1.39506E+006    2.16758E+005    9.30502E+006    2.72954E+005    1.03085E+005   -1.57371E+005
            1575    1.05937E+007    9.85934E+006    9.85934E+006   -9.41955E+004   -1.27553E+006    1.11349E+007   -2.82987E+006    1.04440E+007   -1.20503E+006   -1.60738E+005    9.85538E+006    2.76614E+005    9.96503E+004   -1.77409E+005
            1576    1.12927E+007    1.04645E+007    1.04645E+007   -4.63018E+005   -1.16104E+006    1.16255E+007   -2.94681E+006    1.12440E+007   -1.03079E+006   -5.89559E+005    1.04608E+007    2.69531E+005    1.07534E+005   -1.75253E+005
            1577    1.19812E+007    1.10652E+007    1.10652E+007   -6.98534E+005   -1.12206E+006    1.21873E+007   -3.08155E+006    1.19643E+007   -8.50795E+005   -9.66625E+005    1.10621E+007    2.02041E+005    1.14459E+005   -1.59977E+005
            1578    1.25869E+007    1.15699E+007    1.15699E+007   -7.01087E+005   -1.31066E+006    1.28806E+007   -3.18606E+006    1.25536E+007   -7.43679E+005   -1.26561E+006    1.15675E+007    1.56154E+005    1.21550E+005   -1.28572E+005
            1579    1.30434E+007    1.19502E+007    1.19502E+007   -6.31693E+005   -1.51020E+006    1.34604E+007   -3.26945E+006    1.29766E+007   -6.40080E+005   -1.50006E+006    1.19485E+007    9.05547E+004    1.24135E+005   -8.47442E+004
            1580    1.33018E+007    1.21630E+007    1.21630E+007   -6.11653E+005   -1.60975E+006    1.37727E+007   -3.31385E+006    1.32171E+007   -6.11558E+005   -1.60854E+006    1.21617E+007    3.32283E+004    1.25058E+005   -3.39431E+004
            1581    1.33261E+007    1.21844E+007    1.21844E+007   -5.91171E+005   -1.63122E+006    1.38156E+007   -3.32067E+006    1.32343E+007   -5.90350E+005   -1.63085E+006    1.21832E+007   -1.81948E+004    1.21037E+005    2.29611E+004
            1582    1.31015E+007    1.19985E+007    1.19985E+007   -6.35157E+005   -1.52542E+006    1.35239E+007   -3.27931E+006    1.30332E+007   -6.43299E+005   -1.51587E+006    1.19971E+007   -8.93971E+004    1.15603E+005    6.95788E+004
            1583    1.01915E+007    9.36190E+006    9.36190E+006    1.55505E+005   -1.58933E+006    1.09512E+007   -2.64269E+006    9.84697E+006   -1.53937E+006    1.40182E+005    9.32726E+006    2.46314E+005    3.31792E+005   -4.83083E+005
            1584    1.08233E+007    9.96689E+006    9.96689E+006   -2.10969E+005   -1.40306E+006    1.13700E+007   -2.78429E+006    1.06741E+007   -1.33118E+006   -2.46971E+005    9.93101E+006    2.49687E+005    3.33468E+005   -5.22944E+005
            1585    1.15253E+007    1.05885E+007    1.05885E+007   -5.66274E+005   -1.27460E+006    1.18631E+007   -2.91587E+006    1.14761E+007   -1.14591E+006   -6.60938E+005    1.05545E+007    2.49695E+005    3.40005E+005   -5.28606E+005
            1586    1.22016E+007    1.11896E+007    1.11896E+007   -8.05431E+005   -1.20868E+006    1.23983E+007   -3.05849E+006    1.21866E+007   -9.55854E+005   -1.03120E+006    1.11625E+007    1.84422E+005    3.32801E+005   -4.73206E+005
            1587    1.27999E+007    1.17025E+007    1.17025E+007   -8.01238E+005   -1.37443E+006    1.30769E+007   -3.17560E+006    1.27710E+007   -8.37610E+005   -1.31840E+006    1.16828E+007    1.44531E+005    3.32550E+005   -3.79488E+005
            1588    1.32423E+007    1.20779E+007    1.20779E+007   -7.22997E+005   -1.56559E+006    1.36435E+007   -3.26310E+006    1.31818E+007   -7.24415E+005   -1.55170E+006    1.20654E+007    8.27413E+004    3.21353E+005   -2.47092E+005
            1589    1.34822E+007    1.22834E+007    1.22834E+007   -6.97168E+005   -1.64984E+006    1.39332E+007   -3.31212E+006    1.34061E+007   -6.90415E+005   -1.64830E+006    1.22751E+007    2.89125E+004    3.17383E+005   -8.68982E+004
            1590    1.34944E+007    1.22929E+007    1.22929E+007   -6.76377E+005   -1.67153E+006    1.39645E+007   -3.31500E+006    1.34115E+007   -6.69377E+005   -1.67065E+006    1.22850E+007   -1.93320E+004    3.10794E+005    7.79210E+004
            1591    1.32454E+007    1.20843E+007    1.20843E+007   -7.25766E+005   -1.55728E+006    1.36416E+007   -3.26709E+006    1.31865E+007   -7.28883E+005   -1.54237E+006    1.20725E+007   -8.80152E+004    3.12268E+005    2.40888E+005
            1592    1.06301E+007    9.53987E+006    9.53987E+006   -7.57155E+004   -1.87506E+006    1.14149E+007   -2.52970E+006    1.02791E+007   -1.82076E+006   -3.57311E+004    9.44559E+006    1.95759E+005    5.16650E+005   -8.32082E+005
            1593    1.13267E+007    1.02234E+007    1.02234E+007   -4.13368E+005   -1.68572E+006    1.19091E+007   -2.70811E+006    1.11642E+007   -1.61622E+006   -3.90015E+005    1.01306E+007    1.98868E+005    5.28987E+005   -8.65908E+005
            1594    1.20756E+007    1.08847E+007    1.08847E+007   -7.67653E+005   -1.57385E+006    1.24585E+007   -2.84773E+006    1.20149E+007   -1.46062E+006   -7.95606E+005    1.07994E+007    2.11942E+005    5.69016E+005   -8.40130E+005
            1595    1.27738E+007    1.15197E+007    1.15197E+007   -1.05062E+006   -1.44833E+006    1.29680E+007   -3.00691E+006    1.27598E+007   -1.28570E+006   -1.14172E+006    1.14481E+007    1.53842E+005    5.92846E+005   -7.54184E+005
            1596    1.33882E+007    1.20485E+007    1.20485E+007   -1.14428E+006   -1.52675E+006    1.35753E+007   -3.12584E+006    1.33759E+007   -1.19009E+006   -1.42576E+006    1.19934E+007    1.24204E+005    6.22978E+005   -5.96118E+005
            1597    1.38326E+007    1.24365E+007    1.24365E+007   -1.09938E+006   -1.67485E+006    1.41114E+007   -3.22077E+006    1.38057E+007   -1.08321E+006   -1.65105E+006    1.23966E+007    6.90065E+004    6.32506E+005   -3.85590E+005
            1598    1.40557E+007    1.26299E+007    1.26299E+007   -1.08006E+006   -1.74781E+006    1.43777E+007   -3.26733E+006    1.40199E+007   -1.05150E+006   -1.74567E+006    1.25992E+007    2.11461E+004    6.36811E+005   -1.24399E+005
            1599    1.40220E+007    1.26082E+007    1.26082E+007   -1.04976E+006   -1.75149E+006    1.43597E+007   -3.26899E+006    1.39824E+007   -1.02254E+006   -1.74890E+006    1.25784E+007   -2.27681E+004    6.22612E+005    1.41547E+005
            1600    1.37469E+007    1.23750E+007    1.23750E+007   -1.07818E+006   -1.64779E+006    1.40228E+007   -3.21636E+006    1.37203E+007   -1.07016E+006   -1.61754E+006    1.23368E+007   -8.52831E+004    6.05496E+005    3.96077E+005
            1601    1.12751E+007    9.84060E+006    9.84060E+006   -3.98717E+005   -2.24292E+006    1.20835E+007   -2.39966E+006    1.09280E+007   -2.18224E+006   -2.81285E+005    9.66249E+006    1.18526E+005    7.02232E+005   -1.18483E+006
            1602    1.19535E+007    1.05404E+007    1.05404E+007   -6.93510E+005   -2.02167E+006    1.25621E+007   -2.60841E+006    1.17857E+007   -1.95330E+006   -5.97046E+005    1.03756E+007    1.19285E+005    7.17702E+005   -1.18009E+006
            1603    1.26905E+007    1.12328E+007    1.12328E+007   -9.85502E+005   -1.88234E+006    1.31152E+007   -2.78833E+006    1.26189E+007   -1.78515E+006   -9.32494E+005    1.10826E+007    1.46215E+005    7.53293E+005   -1.14716E+006
            1604    1.34034E+007    1.19013E+007    1.19013E+007   -1.28027E+006   -1.71344E+006    1.36148E+007   -2.96921E+006    1.33877E+007   -1.60359E+006   -1.26793E+006    1.17792E+007    9.86149E+004    7.62459E+005   -1.02646E+006
            1605    1.40403E+007    1.24854E+007    1.24854E+007   -1.42455E+006   -1.68185E+006    1.41672E+007   -3.12632E+006    1.40350E+007   -1.49698E+006   -1.51905E+006    1.23950E+007    8.28875E+004    7.84618E+005   -8.10175E+005
            1606    1.44869E+007    1.28913E+007    1.28913E+007   -1.41301E+006   -1.77162E+006    1.46629E+007   -3.23555E+006    1.44769E+007   -1.38527E+006   -1.73920E+006    1.28311E+007    4.52204E+004    7.84244E+005   -5.02244E+005
            1607    1.46983E+007    1.30916E+007    1.30916E+007   -1.38751E+006   -1.81657E+006    1.49081E+007   -3.29583E+006    1.46842E+007   -1.34559E+006   -1.81427E+006    1.30473E+007    1.29020E+004    7.87005E+005   -1.41026E+005
            1608    1.46344E+007    1.30344E+007    1.30344E+007   -1.36024E+006   -1.82837E+006    1.48628E+007   -3.28194E+006    1.46175E+007   -1.32039E+006   -1.82255E+006    1.29888E+007   -1.52790E+004    7.72671E+005    2.47255E+005
            1609    1.42874E+007    1.27335E+007    1.27335E+007   -1.38156E+006   -1.72020E+006    1.44537E+007   -3.21058E+006    1.42783E+007   -1.36955E+006   -1.66728E+006    1.26686E+007   -6.32510E+004    7.60739E+005    5.89983E+005
            1610    1.21434E+007    1.02948E+007    1.02948E+007   -7.76697E+005   -2.69279E+006    1.29875E+007   -2.27509E+006    1.17961E+007   -2.63011E+006   -5.90175E+005    1.00456E+007    3.49540E+004    8.28744E+005   -1.46307E+006
            1611    1.28267E+007    1.10125E+007    1.10125E+007   -9.42964E+005   -2.53650E+006    1.35491E+007   -2.51103E+006    1.26012E+007   -2.46630E+006   -7.80969E+005    1.07803E+007    3.33063E+004    8.92282E+005   -1.43114E+006
            1612    1.36146E+007    1.17219E+007    1.17219E+007   -1.21195E+006   -2.48418E+006    1.42061E+007   -2.67525E+006    1.34799E+007   -2.38634E+006   -1.09140E+006    1.15035E+007    8.28866E+004    1.00070E+006   -1.38025E+006
            1613    1.43953E+007    1.24631E+007    1.24631E+007   -1.48061E+006   -2.34475E+006    1.48079E+007   -2.87925E+006    1.43367E+007   -2.24336E+006   -1.39175E+006    1.22729E+007    5.00909E+004    1.06551E+006   -1.25511E+006
            1614    1.50966E+007    1.31031E+007    1.31031E+007   -1.68231E+006   -2.28654E+006    1.53896E+007   -3.04474E+006    1.50693E+007   -2.17805E+006   -1.64178E+006    1.29540E+007    4.53610E+004    1.13415E+006   -9.81160E+005
            1615    1.55917E+007    1.35650E+007    1.35650E+007   -1.85918E+006   -2.18898E+006    1.57540E+007   -3.17228E+006    1.55839E+007   -2.08733E+006   -1.85029E+006    1.34545E+007    2.23704E+004    1.16878E+006   -6.00481E+005
            1616    1.57829E+007    1.37501E+007    1.37501E+007   -1.92242E+006   -2.14091E+006    1.58911E+007   -3.22894E+006    1.57795E+007   -2.05185E+006   -1.92203E+006    1.36607E+007    1.87260E+003    1.18262E+006   -1.21524E+005
            1617    1.56622E+007    1.36527E+007    1.36527E+007   -1.90614E+006   -2.11099E+006    1.57637E+007   -3.21185E+006    1.56592E+007   -2.01689E+006   -1.90655E+006    1.35590E+007   -1.42424E+004    1.16065E+006    3.47704E+005
            1618    1.52404E+007    1.32672E+007    1.32672E+007   -1.77687E+006   -2.16227E+006    1.54295E+007   -3.10936E+006    1.52295E+007   -2.04910E+006   -1.76688E+006    1.31441E+007   -4.71302E+004    1.12103E+006    7.89639E+005
            1619    1.29123E+007    1.07382E+007    1.07382E+007   -1.04140E+006   -3.06726E+006    1.38055E+007   -2.20985E+006    1.25473E+007   -3.00564E+006   -7.98937E+005    1.04341E+007   -5.27121E+004    8.99487E+005   -1.67852E+006
            1620    1.35078E+007    1.13745E+007    1.13745E+007   -1.18493E+006   -2.91492E+006    1.42894E+007   -2.42488E+006    1.32551E+007   -2.85837E+006   -9.66806E+005    1.10998E+007   -9.28473E+004    8.89708E+005   -1.63839E+006
            1621    1.43846E+007    1.22038E+007    1.22038E+007   -1.32718E+006   -2.90431E+006    1.51081E+007   -2.65745E+006    1.41881E+007   -2.83892E+006   -1.13155E+006    1.19428E+007   -4.28678E+004    9.66340E+005   -1.62598E+006
            1622    1.53564E+007    1.31166E+007    1.31166E+007   -1.57801E+006   -2.82551E+006    1.59421E+007   -2.90434E+006    1.52417E+007   -2.75648E+006   -1.42579E+006    1.28953E+007   -4.91668E+004    1.02744E+006   -1.49696E+006
            1623    1.62371E+007    1.39590E+007    1.39590E+007   -1.71303E+006   -2.78957E+006    1.67485E+007   -3.15212E+006    1.61565E+007   -2.71620E+006   -1.62826E+006    1.38008E+007   -3.23953E+004    1.08978E+006   -1.16181E+006
            1624    1.68098E+007    1.45182E+007    1.45182E+007   -1.81114E+006   -2.73416E+006    1.72523E+007   -3.32429E+006    1.67527E+007   -2.65920E+006   -1.78462E+006    1.44167E+007   -1.85507E+004    1.12860E+006   -6.66186E+005
            1625    1.70378E+007    1.47549E+007    1.47549E+007   -1.82730E+006   -2.70474E+006    1.74596E+007   -3.40760E+006    1.69869E+007   -2.62875E+006   -1.82665E+006    1.46782E+007   -1.37393E+003    1.14905E+006   -1.07057E+005
            1626    1.68659E+007    1.45832E+007    1.45832E+007   -1.84389E+006   -2.68973E+006    1.72729E+007   -3.34987E+006    1.68181E+007   -2.61421E+006   -1.82955E+006    1.44934E+007    1.85643E+004    1.13747E+006    4.88754E+005
            1627    1.63220E+007    1.40743E+007    1.40743E+007   -1.75617E+006   -2.69845E+006    1.67727E+007   -3.20656E+006    1.62607E+007   -2.62326E+006   -1.69612E+006    1.39391E+007    2.14705E+004    1.10296E+006    9.90488E+005
            1628    1.36252E+007    1.10550E+007    1.10550E+007   -1.28583E+006   -3.56672E+006    1.46217E+007   -2.06748E+006    1.31854E+007   -3.49646E+006   -1.05390E+006    1.07528E+007   -9.06788E+004    1.00091E+006   -1.67468E+006
            1629    1.40985E+007    1.15465E+007    1.15465E+007   -1.32850E+006   -3.51904E+006    1.50655E+007   -2.23299E+006    1.37078E+007   -3.44484E+006   -1.06327E+006    1.12071E+007   -1.26351E+005    1.04527E+006   -1.82444E+006
            1630    1.51234E+007    1.24435E+007    1.24435E+007   -1.56543E+006   -3.59035E+006    1.60338E+007   -2.42923E+006    1.48138E+007   -3.51279E+006   -1.31518E+006    1.21157E+007   -1.07145E+005    1.10186E+006   -1.85354E+006
            1631    1.62412E+007    1.35453E+007    1.35453E+007   -1.65366E+006   -3.56841E+006    1.71137E+007   -2.77442E+006    1.59843E+007   -3.49028E+006   -1.46290E+006    1.32764E+007   -1.13253E+005    1.14722E+006   -1.68825E+006
            1632    1.72431E+007    1.45777E+007    1.45777E+007   -1.62224E+006   -3.54703E+006    1.81247E+007   -3.13613E+006    1.69989E+007   -3.46740E+006   -1.51366E+006    1.43895E+007   -8.77530E+004    1.19512E+006   -1.31888E+006
            1633    1.79808E+007    1.53314E+007    1.53314E+007   -1.63372E+006   -3.51687E+006    1.88483E+007   -3.39360E+006    1.77569E+007   -3.43702E+006   -1.59901E+006    1.52168E+007   -5.14377E+004    1.22306E+006   -7.64879E+005
            1634    1.82431E+007    1.56016E+007    1.56016E+007   -1.63845E+006   -3.50164E+006    1.91032E+007   -3.48716E+006    1.80272E+007   -3.42144E+006   -1.63828E+006    1.55212E+007   -3.00715E+003    1.23520E+006   -5.28704E+004
            1635    1.80167E+007    1.53791E+007    1.53791E+007   -1.64583E+006   -3.48771E+006    1.88669E+007   -3.41520E+006    1.78030E+007   -3.40723E+006   -1.62098E+006    1.52738E+007    4.44783E+004    1.22880E+006    6.48577E+005
            1636    1.72725E+007    1.46248E+007    1.46248E+007   -1.65512E+006   -3.49321E+006    1.81180E+007   -3.15882E+006    1.70504E+007   -3.41253E+006   -1.56048E+006    1.44495E+007    7.98416E+004    1.20318E+006    1.23508E+006
            1637    1.82567E+007    1.55659E+007    1.55659E+007   -1.03759E+006   -3.98532E+006    1.95512E+007   -3.51432E+006    1.77094E+007   -3.94550E+006   -9.17604E+005    1.54061E+007    1.72472E+005    8.31202E+005    1.42455E+006
            1638    1.92267E+007    1.66517E+007    1.66517E+007   -8.62539E+005   -3.92085E+006    2.05725E+007   -3.95609E+006    1.86676E+007   -3.88838E+006   -8.24674E+005    1.65813E+007    9.21720E+004    8.00940E+005    8.23024E+005
            1639    1.96449E+007    1.71325E+007    1.71325E+007   -7.87396E+005   -3.87239E+006    2.10049E+007   -4.15758E+006    1.90885E+007   -3.84260E+006   -7.87387E+005    1.71027E+007    1.60173E+003    7.90410E+005   -1.35918E+004
            1640    1.92287E+007    1.66464E+007    1.66464E+007   -8.66039E+005   -3.93057E+006    2.05770E+007   -3.94993E+006    1.86674E+007   -3.89857E+006   -8.25804E+005    1.65742E+007   -9.22093E+004    7.95372E+005   -8.47356E+005
            1641    1.82535E+007    1.55405E+007    1.55405E+007   -1.05633E+006   -4.00942E+006    1.95500E+007   -3.49159E+006    1.77040E+007   -3.97063E+006   -9.31920E+005    1.53773E+007   -1.71195E+005    8.20545E+005   -1.44877E+006
            1642    1.69626E+007    1.41165E+007    1.41165E+007   -1.26677E+006   -4.07497E+006    1.81914E+007   -2.92491E+006    1.64273E+007   -4.02807E+006   -1.07290E+006    1.38757E+007   -2.25929E+005    8.42588E+005   -1.73944E+006
            1643    1.56449E+007    1.26681E+007    1.26681E+007   -1.53356E+006   -4.10208E+006    1.67702E+007   -2.34415E+006    1.51596E+007   -4.04863E+006   -1.31720E+006    1.23983E+007   -2.50751E+005    8.48209E+005   -1.76788E+006
            1644    1.47714E+007    1.17561E+007    1.17561E+007   -1.72397E+006   -4.03432E+006    1.57904E+007   -1.99926E+006    1.43564E+007   -3.97919E+006   -1.51822E+006    1.14952E+007   -2.37517E+005    8.44929E+005   -1.67837E+006
            1645    1.43858E+007    1.17075E+007    1.17075E+007   -1.35650E+006   -3.70983E+006    1.54174E+007   -2.21374E+006    1.39428E+007   -3.65429E+006   -1.08276E+006    1.13783E+007   -2.38344E+005    8.53508E+005   -1.88515E+006
            1646    9.55097E+006    8.89997E+006    8.89997E+006    6.00041E+005   -1.53921E+006    1.04392E+007   -2.65360E+006    8.98790E+006   -1.52234E+006    5.85779E+005    8.89737E+006    1.81055E+005    1.13294E+005   -1.08803E+005
            1647    9.68637E+006    8.90384E+006    8.90384E+006    5.37795E+005   -1.70823E+006    1.06121E+007   -2.57780E+006    9.07230E+006   -1.68529E+006    5.40062E+005    8.87862E+006    1.56703E+005    3.30946E+005   -3.57540E+005
            1648    1.00215E+007    8.95856E+006    8.95856E+006    3.21655E+005   -2.02951E+006    1.09881E+007   -2.41690E+006    9.37034E+006   -1.99646E+006    3.68676E+005    8.87849E+006    1.06818E+005    5.19378E+005   -6.95137E+005
            1649    1.06256E+007    9.16009E+006    9.16009E+006   -7.46458E+004   -2.45324E+006    1.16133E+007   -2.21074E+006    9.99995E+006   -2.41016E+006    4.50830E+004    8.99729E+006    3.20585E+004    6.71285E+005   -1.06437E+006
            1650    1.14511E+007    9.58370E+006    9.58370E+006   -4.89168E+005   -2.87096E+006    1.24547E+007   -2.07452E+006    1.08726E+007   -2.82164E+006   -2.80734E+005    9.32595E+006   -5.57239E+004    7.71572E+005   -1.43498E+006
            1651    1.24126E+007    1.01982E+007    1.01982E+007   -8.44279E+005   -3.23642E+006    1.34346E+007   -2.03915E+006    1.18773E+007   -3.18246E+006   -5.73794E+005    9.87370E+006   -1.43547E+005    8.37222E+005   -1.70281E+006
            1652    1.34513E+007    1.10464E+007    1.10464E+007   -1.01648E+006   -3.45864E+006    1.45050E+007   -2.19042E+006    1.29383E+007   -3.40389E+006   -6.84997E+005    1.06602E+007   -2.25457E+005    8.41121E+005   -1.97576E+006
            1653    1.03102E+007    9.51901E+006    9.51901E+006    1.51497E+005   -1.52776E+006    1.10468E+007   -2.71425E+006    9.99559E+006   -1.50449E+006    1.31705E+005    9.51553E+006   -1.92368E+005   -8.45375E+004   -1.64511E+005
            1654    1.11244E+007    1.02220E+007    1.02220E+007   -3.79398E+005   -1.36042E+006    1.15824E+007   -2.82739E+006    1.10264E+007   -1.31655E+006   -4.19855E+005    1.02186E+007   -2.00184E+005   -8.34133E+004   -1.74111E+005
            1655    1.19478E+007    1.09312E+007    1.09312E+007   -8.12645E+005   -1.21064E+006    1.21419E+007   -2.96931E+006    1.19329E+007   -1.12550E+006   -8.95298E+005    1.09287E+007   -1.61871E+005   -7.80628E+004   -1.54157E+005
            1656    1.26565E+007    1.15142E+007    1.15142E+007   -9.37447E+005   -1.33774E+006    1.28519E+007   -3.07966E+006    1.26423E+007   -9.79626E+005   -1.29392E+006    1.15125E+007   -1.22709E+005   -7.12711E+004   -1.26762E+005
            1657    1.05111E+007    9.59920E+006    9.59920E+006    5.24765E+004   -1.66476E+006    1.12640E+007   -2.66231E+006    1.01883E+007   -1.63997E+006    5.77928E+004    9.56909E+006   -1.73289E+005   -2.36034E+005   -4.93428E+005
            1658    1.13397E+007    1.03331E+007    1.03331E+007   -4.46724E+005   -1.49391E+006    1.18270E+007   -2.79748E+006    1.12301E+007   -1.45096E+006   -4.61068E+005    1.03045E+007   -1.84825E+005   -2.47179E+005   -5.06680E+005
            1659    1.21731E+007    1.10503E+007    1.10503E+007   -8.86235E+005   -1.34632E+006    1.23966E+007   -2.93924E+006    1.21535E+007   -1.27450E+006   -9.34805E+005    1.10270E+007   -1.51524E+005   -2.66114E+005   -4.61306E+005
            1660    1.29010E+007    1.16597E+007    1.16597E+007   -1.07899E+006   -1.39763E+006    1.30574E+007   -3.06104E+006    1.28921E+007   -1.13544E+006   -1.32495E+006    1.16435E+007   -1.18883E+005   -2.88906E+005   -3.57759E+005
            1661    1.08794E+007    9.76808E+006    9.76808E+006   -1.07914E+005   -1.89374E+006    1.16618E+007   -2.58881E+006    1.05421E+007   -1.86655E+006   -5.15165E+004    9.68449E+006   -1.33612E+005   -3.81804E+005   -8.39678E+005
            1662    1.17214E+007    1.05201E+007    1.05201E+007   -6.10050E+005   -1.71430E+006    1.22344E+007   -2.73192E+006    1.16035E+007   -1.67319E+006   -5.74941E+005    1.04439E+007   -1.48458E+005   -3.90837E+005   -8.45319E+005
            1663    1.25392E+007    1.12614E+007    1.12614E+007   -9.93288E+005   -1.54400E+006    1.28054E+007   -2.90805E+006    1.25119E+007   -1.49004E+006   -9.88223E+005    1.12024E+007   -1.21957E+005   -3.97655E+005   -7.59504E+005
            1664    1.32809E+007    1.18926E+007    1.18926E+007   -1.26759E+006   -1.50588E+006    1.33985E+007   -3.03970E+006    1.32761E+007   -1.35642E+006   -1.37543E+006    1.18509E+007   -9.87358E+004   -4.08828E+005   -6.23439E+005
            1665    1.15310E+007    1.00908E+007    1.00908E+007   -4.24119E+005   -2.24067E+006    1.23315E+007   -2.47535E+006    1.12023E+007   -2.21026E+006   -3.00304E+005    9.93661E+006   -8.18535E+004   -5.05942E+005   -1.18075E+006
            1666    1.23450E+007    1.08621E+007    1.08621E+007   -7.83425E+005   -2.07987E+006    1.29420E+007   -2.66628E+006    1.21904E+007   -2.03644E+006   -6.93049E+005    1.07283E+007   -1.08437E+005   -5.56071E+005   -1.13119E+006
            1667    1.31492E+007    1.15806E+007    1.15806E+007   -1.14382E+006   -1.95566E+006    1.35363E+007   -2.82706E+006    1.30926E+007   -1.90390E+006   -1.08273E+006    1.14678E+007   -9.32173E+004   -6.01247E+005   -1.04796E+006
            1668    1.39622E+007    1.22918E+007    1.22918E+007   -1.46304E+006   -1.86881E+006    1.41606E+007   -2.98665E+006    1.39489E+007   -1.79547E+006   -1.45016E+006    1.22056E+007   -8.40807E+004   -6.53963E+005   -8.79978E+005
            1669    1.22958E+007    1.05577E+007    1.05577E+007   -7.06737E+005   -2.55921E+006    1.31169E+007   -2.43059E+006    1.19758E+007   -2.52988E+006   -5.18947E+005    1.03406E+007   -1.14249E+004   -5.81030E+005   -1.45628E+006
            1670    1.29197E+007    1.11440E+007    1.11440E+007   -1.00340E+006   -2.42957E+006    1.35736E+007   -2.57035E+006    1.27408E+007   -2.39546E+006   -8.49058E+005    1.09556E+007   -3.76088E+004   -6.02221E+005   -1.39410E+006
            1671    1.38047E+007    1.19743E+007    1.19743E+007   -1.28681E+006   -2.31635E+006    1.42907E+007   -2.79039E+006    1.37179E+007   -2.28133E+006   -1.15198E+006    1.18045E+007   -2.22532E+004   -6.32021E+005   -1.36539E+006
            1672    1.47150E+007    1.27934E+007    1.27934E+007   -1.57603E+006   -2.24442E+006    1.50378E+007   -2.99097E+006    1.46808E+007   -2.20350E+006   -1.49340E+006    1.26698E+007   -2.99594E+004   -6.76467E+005   -1.15423E+006
            1673    1.29908E+007    1.08600E+007    1.08600E+007   -1.04295E+006   -2.99722E+006    1.38572E+007   -2.27327E+006    1.26537E+007   -2.96331E+006   -8.57031E+005    1.06401E+007    3.51295E+004   -6.72711E+005   -1.47887E+006
            1674    1.35213E+007    1.13907E+007    1.13907E+007   -1.15590E+006   -2.93023E+006    1.43209E+007   -2.43485E+006    1.32556E+007   -2.88477E+006   -9.32567E+005    1.11219E+007   -4.82578E+003   -7.53822E+005   -1.68007E+006
            1675    1.45840E+007    1.23602E+007    1.23602E+007   -1.48562E+006   -2.86415E+006    1.52243E+007   -2.67014E+006    1.44363E+007   -2.81824E+006   -1.29351E+006    1.21222E+007    1.50863E+004   -7.95343E+005   -1.63653E+006
            1676    1.55643E+007    1.32723E+007    1.32723E+007   -1.68386E+006   -2.83601E+006    1.61083E+007   -2.91749E+006    1.54679E+007   -2.78487E+006   -1.55193E+006    1.30893E+007    1.55334E+003   -8.58072E+005   -1.42617E+006
            1677    1.30908E+007    1.08012E+007    1.08012E+007   -1.02157E+006   -3.26714E+006    1.40683E+007   -2.17082E+006    1.26465E+007   -3.24254E+006   -7.60087E+005    1.05151E+007    1.46713E+005   -5.50550E+005   -1.74279E+006
            1678    1.42730E+007    1.17769E+007    1.17769E+007   -1.51767E+006   -3.30592E+006    1.50828E+007   -2.31778E+006    1.40176E+007   -3.27835E+006   -1.25715E+006    1.14888E+007    1.03599E+005   -6.34791E+005   -1.84114E+006
            1679    1.52059E+007    1.26896E+007    1.26896E+007   -1.57456E+006   -3.30916E+006    1.59988E+007   -2.60198E+006    1.49809E+007   -3.27998E+006   -1.33896E+006    1.24249E+007    1.09703E+005   -6.70637E+005   -1.81723E+006
            1680    1.64139E+007    1.39296E+007    1.39296E+007   -1.57301E+006   -3.26450E+006    1.71941E+007   -3.03071E+006    1.62161E+007   -3.23398E+006   -1.40125E+006    1.37274E+007    8.99563E+004   -7.16963E+005   -1.62168E+006
            1681    1.65723E+007    1.39480E+007    1.39480E+007   -1.30421E+006   -3.68654E+006    1.76345E+007   -2.98575E+006    1.61803E+007   -3.66166E+006   -1.08424E+006    1.37032E+007    1.60797E+005   -6.03683E+005   -1.83005E+006
            1682    1.52878E+007    1.25470E+007    1.25470E+007   -1.49483E+006   -3.73874E+006    1.62858E+007   -2.43782E+006    1.49106E+007   -3.71037E+006   -1.24650E+006    1.22703E+007    1.73693E+005   -6.17419E+005   -1.86229E+006
            1683    1.40035E+007    1.11282E+007    1.11282E+007   -1.71562E+006   -3.80107E+006    1.49293E+007   -1.87051E+006    1.36476E+007   -3.77102E+006   -1.49239E+006    1.08749E+007    1.61369E+005   -6.20307E+005   -1.68746E+006
            1684    1.38782E+007    1.08303E+007    1.08303E+007   -2.21937E+006   -3.74975E+006    1.45800E+007   -1.62038E+006    1.36865E+007   -3.71981E+006   -2.06106E+006    1.06420E+007    1.21825E+005   -6.31244E+005   -1.43465E+006
            1685    9.71922E+006    9.00157E+006    9.00157E+006    5.52095E+005   -1.61989E+006    1.06215E+007   -2.64459E+006    9.14896E+006   -1.61219E+006    5.46292E+005    8.99968E+006   -1.22570E+005   -8.40031E+004   -1.02810E+005
            1686    9.82276E+006    8.99584E+006    8.99584E+006    5.16650E+005   -1.76787E+006    1.07637E+007   -2.58154E+006    9.19609E+006   -1.75699E+006    5.27947E+005    8.97366E+006   -1.02703E+005   -2.42213E+005   -3.78612E+005
            1687    1.01289E+007    9.04943E+006    9.04943E+006    3.12215E+005   -2.05272E+006    1.11022E+007   -2.43631E+006    9.47739E+006   -2.03619E+006    3.68858E+005    8.97625E+006   -6.40459E+004   -3.81448E+005   -7.24200E+005
            1688    1.06883E+007    9.27445E+006    9.27445E+006   -2.15199E+004   -2.40414E+006    1.16786E+007   -2.28293E+006    1.00645E+007   -2.38243E+006    1.22343E+005    9.10888E+006   -9.67113E+003   -4.83517E+005   -1.15443E+006
            1689    1.15931E+007    9.75565E+006    9.75565E+006   -5.76597E+005   -2.78167E+006    1.25373E+007   -2.13246E+006    1.11065E+007   -2.75590E+006   -3.24143E+005    9.47743E+006    5.07068E+004   -5.59649E+005   -1.59523E+006
            1690    1.28206E+007    1.07495E+007    1.07495E+007   -8.92739E+005   -2.99064E+006    1.37402E+007   -2.28872E+006    1.24256E+007   -2.96319E+006   -5.49646E+005    1.03790E+007    1.17378E+005   -6.01423E+005   -1.96675E+006
            1691    1.41088E+007    1.16393E+007    1.16393E+007   -1.57867E+006   -3.21730E+006    1.48566E+007   -2.28111E+006    1.38923E+007   -3.18828E+006   -1.32709E+006    1.13587E+007    1.30622E+005   -6.31693E+005   -1.80803E+006
            1692    1.78954E+007    1.54514E+007    1.54514E+007   -1.06372E+006   -3.56178E+006    1.90131E+007   -3.60862E+006    1.74966E+007   -3.54184E+006   -9.28896E+005    1.52966E+007    1.23802E+005   -5.74523E+005   -1.49632E+006
            1693    1.88165E+007    1.65213E+007    1.65213E+007   -8.74137E+005   -3.45076E+006    1.99721E+007   -4.06547E+006    1.84134E+007   -3.43476E+006   -8.30553E+005    1.64617E+007    6.91597E+004   -5.50350E+005   -8.75823E+005
            1694    1.92231E+007    1.70057E+007    1.70057E+007   -7.81987E+005   -3.38712E+006    2.03928E+007   -4.27885E+006    1.88198E+007   -3.37292E+006   -7.81987E+005    1.69914E+007    1.10769E+003   -5.38025E+005   -1.43336E+003
            1695    1.88362E+007    1.65491E+007    1.65491E+007   -8.60084E+005   -3.44678E+006    1.99959E+007   -4.08074E+006    1.84302E+007   -3.43107E+006   -8.16553E+005    1.64898E+007   -6.64169E+004   -5.47059E+005    8.74852E+005
            1696    1.78748E+007    1.54193E+007    1.54193E+007   -1.06792E+006   -3.57783E+006    1.89971E+007   -3.59119E+006    1.74718E+007   -3.55814E+006   -9.29044E+005    1.52608E+007   -1.23995E+005   -5.70453E+005    1.51673E+006
            1697    1.66057E+007    1.39747E+007    1.39747E+007   -1.30776E+006   -3.69577E+006    1.76704E+007   -2.99038E+006    1.62127E+007   -3.67113E+006   -1.08744E+006    1.37297E+007   -1.62766E+005   -5.97937E+005    1.83412E+006
            1698    1.53090E+007    1.24858E+007    1.24858E+007   -1.60856E+006   -3.80128E+006    1.62871E+007   -2.35866E+006    1.49495E+007   -3.77310E+006   -1.35527E+006    1.22043E+007   -1.72306E+005   -6.15863E+005    1.88357E+006
            1699    1.44670E+007    1.15590E+007    1.15590E+007   -1.84448E+006   -3.77723E+006    1.53362E+007   -1.97909E+006    1.41721E+007   -3.74657E+006   -1.59861E+006    1.12824E+007   -1.66078E+005   -6.31758E+005    1.80832E+006
            1700    1.42640E+007    1.16191E+007    1.16191E+007   -1.57278E+006   -3.51756E+006    1.51366E+007   -2.17624E+006    1.39611E+007   -3.48626E+006   -1.24789E+006    1.12629E+007   -1.74986E+005   -6.37936E+005    2.05069E+006
            1701    1.74278E+007    1.49618E+007    1.49618E+007   -1.57875E+006   -3.23497E+006    1.81968E+007   -3.38271E+006    1.72494E+007   -3.20456E+006   -1.48291E+006    1.48356E+007    7.35232E+004   -7.37669E+005   -1.25546E+006
            1702    1.64212E+007    1.41011E+007    1.41011E+007   -1.80423E+006   -2.79146E+006    1.68926E+007   -3.16847E+006    1.63543E+007   -2.74151E+006   -1.73993E+006    1.39869E+007    1.42841E+004   -9.00087E+005   -1.02285E+006
            1703    1.54326E+007    1.34431E+007    1.34431E+007   -1.79025E+006   -2.18123E+006    1.56243E+007   -3.15721E+006    1.54214E+007   -2.14487E+006   -1.75163E+006    1.33681E+007   -5.12966E+003   -7.03656E+005   -8.10575E+005
            1704    1.45603E+007    1.28149E+007    1.28149E+007   -1.67364E+006   -1.81629E+006    1.46311E+007   -3.10831E+006    1.45588E+007   -1.72015E+006   -1.71370E+006    1.27588E+007   -4.32408E+004   -6.90528E+005   -5.83524E+005
            1705    1.38287E+007    1.23642E+007    1.23642E+007   -1.25877E+006   -1.66145E+006    1.40256E+007   -3.14798E+006    1.38155E+007   -1.25551E+006   -1.64103E+006    1.23405E+007   -4.79844E+004   -4.10934E+005   -3.99118E+005
            1706    1.33968E+007    1.20719E+007    1.20719E+007   -1.03769E+006   -1.59482E+006    1.36667E+007   -3.14646E+006    1.33707E+007   -1.03852E+006   -1.58316E+006    1.20611E+007   -6.07303E+004   -3.04967E+005   -2.27034E+005
            1707    1.31390E+007    1.19148E+007    1.19148E+007   -8.68349E+005   -1.55328E+006    1.34681E+007   -3.16440E+006    1.30988E+007   -8.73676E+005   -1.54723E+006    1.19141E+007   -6.15289E+004   -6.33075E+004   -7.44501E+004
            1708    1.81641E+007    1.57357E+007    1.57357E+007   -1.54126E+006   -3.20157E+006    1.89372E+007   -3.66428E+006    1.79922E+007   -3.17167E+006   -1.51589E+006    1.56804E+007    3.79651E+004   -7.50407E+005   -6.61658E+005
            1709    1.69586E+007    1.46089E+007    1.46089E+007   -1.86543E+006   -2.79580E+006    1.74047E+007   -3.31589E+006    1.69011E+007   -2.74496E+006   -1.85057E+006    1.45432E+007    3.89454E+003   -9.33484E+005   -5.04510E+005
            1710    1.58642E+007    1.38431E+007    1.38431E+007   -1.87265E+006   -2.16543E+006    1.60086E+007   -3.26835E+006    1.58581E+007   -2.13068E+006   -1.86661E+006    1.38023E+007   -5.87266E+003   -7.27385E+005   -3.47224E+005
            1711    1.49153E+007    1.31149E+007    1.31149E+007   -1.73101E+006   -1.86876E+006    1.49837E+007   -3.17171E+006    1.49138E+007   -1.70466E+006   -1.85642E+006    1.30762E+007   -2.22871E+004   -7.21167E+005   -2.33173E+005
            1712    1.40925E+007    1.25876E+007    1.25876E+007   -1.23638E+006   -1.75904E+006    1.43466E+007   -3.19738E+006    1.40707E+007   -1.22501E+006   -1.75654E+006    1.25737E+007   -2.03003E+004   -4.15855E+005   -1.39898E+005
            1713    1.36433E+007    1.22705E+007    1.22705E+007   -1.01714E+006   -1.70264E+006    1.39731E+007   -3.18356E+006    1.36044E+007   -1.01041E+006   -1.70135E+006    1.22624E+007   -2.40177E+004   -3.19672E+005   -6.85639E+004
            1714    1.33578E+007    1.20901E+007    1.20901E+007   -8.40034E+005   -1.65776E+006    1.37479E+007   -3.19745E+006    1.33013E+007   -8.40369E+005   -1.65712E+006    1.20898E+007   -2.18922E+004   -5.77336E+004   -2.64692E+004
            1715    1.84031E+007    1.59736E+007    1.59736E+007   -1.54868E+006   -3.19916E+006    1.91727E+007   -3.74192E+006    1.82355E+007   -3.16987E+006   -1.54855E+006    1.59442E+007   -1.61054E+003   -7.48783E+005    4.66768E+004
            1716    1.71236E+007    1.47701E+007    1.47701E+007   -1.87538E+006   -2.79457E+006    1.75646E+007   -3.36671E+006    1.70679E+007   -2.74403E+006   -1.87460E+006    1.47188E+007   -1.50404E+003   -9.40522E+005    1.15853E+005
            1717    1.59665E+007    1.39276E+007    1.39276E+007   -1.90828E+006   -2.16629E+006    1.60939E+007   -3.28436E+006    1.59618E+007   -2.13275E+006   -1.90750E+006    1.38933E+007    4.60650E+003   -7.28793E+005    1.41167E+005
            1718    1.49587E+007    1.31521E+007    1.31521E+007   -1.73454E+006   -1.87762E+006    1.50298E+007   -3.17999E+006    1.49572E+007   -1.70138E+006   -1.87353E+006    1.31149E+007    1.03751E+004   -7.26407E+005    1.61544E+005
            1719    1.41040E+007    1.25943E+007    1.25943E+007   -1.22898E+006   -1.77456E+006    1.43688E+007   -3.19691E+006    1.40802E+007   -1.21763E+006   -1.77228E+006    1.25807E+007    1.96729E+004   -4.13555E+005    1.34621E+005
            1720    1.36253E+007    1.22563E+007    1.22563E+007   -1.00959E+006   -1.70214E+006    1.39584E+007   -3.18151E+006    1.35856E+007   -1.00286E+006   -1.70047E+006    1.22479E+007    2.49680E+004   -3.21525E+005    9.20741E+004
            1721    1.33310E+007    1.20692E+007    1.20692E+007   -8.30953E+005   -1.65450E+006    1.37237E+007   -3.19459E+006    1.32736E+007   -8.31746E+005   -1.65340E+006    1.20689E+007    2.89135E+004   -5.47939E+004    3.26288E+004
            1722    1.81291E+007    1.56927E+007    1.56927E+007   -1.53391E+006   -3.22093E+006    1.89137E+007   -3.64596E+006    1.79512E+007   -3.19167E+006   -1.49858E+006    1.56281E+007   -4.10292E+004   -7.41866E+005    7.79005E+005
            1723    1.68730E+007    1.45193E+007    1.45193E+007   -1.83111E+006   -2.83173E+006    1.73510E+007   -3.28547E+006    1.68060E+007   -2.78067E+006   -1.80220E+006    1.44393E+007   -9.28057E+003   -9.31717E+005    6.96815E+005
            1724    1.57256E+007    1.37047E+007    1.37047E+007   -1.82080E+006   -2.21355E+006    1.59183E+007   -3.22346E+006    1.57145E+007   -2.17663E+006   -1.79895E+006    1.36460E+007    1.03719E+004   -7.22941E+005    6.33582E+005
            1725    1.47157E+007    1.29340E+007    1.29340E+007   -1.71424E+006   -1.84825E+006    1.47823E+007   -3.12384E+006    1.47144E+007   -1.75716E+006   -1.75191E+006    1.28806E+007    4.07646E+004   -7.21012E+005    5.16751E+005
            1726    1.38555E+007    1.23829E+007    1.23829E+007   -1.27713E+006   -1.65996E+006    1.40429E+007   -3.14862E+006    1.38436E+007   -1.27668E+006   -1.63667E+006    1.23592E+007    5.54862E+004   -4.16990E+005    3.94620E+005
            1727    1.33750E+007    1.20473E+007    1.20473E+007   -1.05899E+006   -1.58117E+006    1.36284E+007   -3.13570E+006    1.33520E+007   -1.06244E+006   -1.56577E+006    1.20353E+007    6.98715E+004   -3.19049E+005    2.40426E+005
            1728    1.30740E+007    1.18589E+007    1.18589E+007   -8.83420E+005   -1.52325E+006    1.33821E+007   -3.15073E+006    1.30387E+007   -8.92242E+005   -1.51368E+006    1.18581E+007    7.53265E+004   -5.77632E+004    8.12277E+004
            1729    1.73620E+007    1.48935E+007    1.48935E+007   -1.54586E+006   -3.26350E+006    1.81570E+007   -3.36138E+006    1.71693E+007   -3.23424E+006   -1.43528E+006    1.47537E+007   -8.09295E+004   -7.20749E+005    1.34418E+006
            1730    1.62686E+007    1.39276E+007    1.39276E+007   -1.76642E+006   -2.86042E+006    1.67880E+007   -3.10025E+006    1.61856E+007   -2.81033E+006   -1.67401E+006    1.37851E+007   -1.99702E+004   -8.95918E+005    1.21345E+006
            1731    1.51567E+007    1.31808E+007    1.31808E+007   -1.68010E+006   -2.25518E+006    1.54360E+007   -3.08185E+006    1.51321E+007   -2.21843E+006   -1.61455E+006    1.30785E+007    8.80334E+003   -6.94128E+005    1.02539E+006
            1732    1.42220E+007    1.25036E+007    1.25036E+007   -1.55741E+006   -1.87405E+006    1.43777E+007   -3.02405E+006    1.42141E+007   -1.80717E+006   -1.54379E+006    1.24231E+007    5.85643E+004   -6.86893E+005    8.19967E+005
            1733    1.33889E+007    1.19814E+007    1.19814E+007   -1.29578E+006   -1.51648E+006    1.34979E+007   -3.05639E+006    1.33849E+007   -1.34496E+006   -1.42773E+006    1.19419E+007    8.06414E+004   -4.09607E+005    6.03955E+005
            1734    1.29209E+007    1.16735E+007    1.16735E+007   -1.08789E+006   -1.40132E+006    1.30748E+007   -3.06142E+006    1.29124E+007   -1.12915E+006   -1.34286E+006    1.16563E+007    1.04715E+005   -3.02101E+005    3.64624E+005
            1735    1.26250E+007    1.14915E+007    1.14915E+007   -9.31076E+005   -1.32666E+006    1.28182E+007   -3.07793E+006    1.26111E+007   -9.66981E+005   -1.28927E+006    1.14900E+007    1.13476E+005   -6.24575E+004    1.22600E+005
            1736    1.63224E+007    1.38030E+007    1.38030E+007   -1.57043E+006   -3.32631E+006    1.71293E+007   -2.96877E+006    1.61079E+007   -3.29730E+006   -1.37581E+006    1.35794E+007   -9.86006E+004   -6.94899E+005    1.71811E+006
            1737    1.53657E+007    1.30720E+007    1.30720E+007   -1.57901E+006   -2.92038E+006    1.59924E+007   -2.85754E+006    1.52331E+007   -2.86991E+006   -1.42001E+006    1.28625E+007   -8.51364E+003   -8.55073E+005    1.53943E+006
            1738    1.43949E+007    1.24838E+007    1.24838E+007   -1.43756E+006   -2.34203E+006    1.48258E+007   -2.90141E+006    1.43308E+007   -2.30297E+006   -1.32667E+006    1.23339E+007    2.92986E+004   -6.68905E+005    1.28699E+006
            1739    1.35572E+007    1.19108E+007    1.19108E+007   -1.28933E+006   -1.97721E+006    1.38880E+007   -2.88142E+006    1.35178E+007   -1.91428E+006   -1.24354E+006    1.18021E+007    9.71183E+004   -6.52376E+005    1.01709E+006
            1740    1.27761E+007    1.14487E+007    1.14487E+007   -1.09922E+006   -1.54402E+006    1.29927E+007   -2.93516E+006    1.27587E+007   -1.47327E+006   -1.11225E+006    1.13910E+007    1.25809E+005   -4.09861E+005    7.53356E+005
            1741    1.23239E+007    1.11668E+007    1.11668E+007   -9.52243E+005   -1.35224E+006    1.25191E+007   -2.95412E+006    1.23093E+007   -1.25743E+006   -1.02406E+006    1.11439E+007    1.55580E+005   -2.86456E+005    4.50347E+005
            1742    1.20391E+007    1.10004E+007    1.10004E+007   -8.54009E+005   -1.21513E+006    1.22155E+007   -2.97709E+006    1.20269E+007   -1.10245E+006   -9.64374E+005    1.09981E+007    1.66272E+005   -7.09810E+004    1.51711E+005
            1743    1.51766E+007    1.26710E+007    1.26710E+007   -1.50554E+006   -3.33910E+006    1.60101E+007   -2.60878E+006    1.49244E+007   -3.31081E+006   -1.25047E+006    1.23876E+007   -1.28110E+005   -6.51050E+005    1.88565E+006
            1744    1.43738E+007    1.21654E+007    1.21654E+007   -1.35614E+006   -2.93100E+006    1.50964E+007   -2.62608E+006    1.41778E+007   -2.88655E+006   -1.14944E+006    1.19142E+007   -3.19079E+004   -7.93337E+005    1.66780E+006
            1745    1.35545E+007    1.17155E+007    1.17155E+007   -1.20373E+006   -2.39553E+006    1.41111E+007   -2.70543E+006    1.34359E+007   -2.36400E+006   -1.05096E+006    1.15312E+007    5.83677E+003   -6.19748E+005    1.41609E+006
            1746    1.28085E+007    1.12576E+007    1.12576E+007   -9.91010E+005   -2.04561E+006    1.33032E+007   -2.74033E+006    1.27103E+007   -2.00095E+006   -9.04725E+005    1.11267E+007    8.55665E+004   -5.94180E+005    1.13021E+006
            1747    1.20808E+007    1.08407E+007    1.08407E+007   -7.95691E+005   -1.64008E+006    1.24808E+007   -2.80165E+006    1.20141E+007   -1.59870E+006   -7.65118E+005    1.07688E+007    1.26698E+005   -3.96490E+005    8.33691E+005
            1748    1.16405E+007    1.05922E+007    1.05922E+007   -6.26089E+005   -1.42902E+006    1.20212E+007   -2.84569E+006    1.15780E+007   -1.38227E+006   -6.44729E+005    1.05641E+007    1.65975E+005   -2.61423E+005    5.05363E+005
            1749    1.13610E+007    1.04323E+007    1.04323E+007   -5.30323E+005   -1.28905E+006    1.17214E+007   -2.87098E+006    1.13038E+007   -1.24130E+006   -5.75047E+005    1.04293E+007    1.82237E+005   -7.74538E+004    1.67482E+005
            1750    1.41269E+007    1.17259E+007    1.17259E+007   -1.24225E+006   -3.32783E+006    1.50537E+007   -2.38528E+006    1.37741E+007   -3.30114E+006   -9.74863E+005    1.14318E+007   -1.19293E+005   -6.17721E+005    1.84233E+006
            1751    1.35898E+007    1.14012E+007    1.14012E+007   -1.17382E+006   -3.01550E+006    1.44167E+007   -2.40396E+006    1.33047E+007   -2.97156E+006   -9.57318E+005    1.11407E+007   -4.63056E+002   -7.51149E+005    1.65333E+006
            1752    1.27909E+007    1.09906E+007    1.09906E+007   -9.37464E+005   -2.51638E+006    1.35070E+007   -2.51226E+006    1.25688E+007   -2.48178E+006   -7.61151E+005    1.07797E+007    3.50078E+004   -6.10283E+005    1.46913E+006
            1753    1.20914E+007    1.05826E+007    1.05826E+007   -6.98412E+005   -2.18220E+006    1.27648E+007   -2.56733E+006    1.18840E+007   -2.14084E+006   -5.91717E+005    1.04346E+007    1.07957E+005   -5.51764E+005    1.18235E+006
            1754    1.13826E+007    1.02018E+007    1.02018E+007   -4.32792E+005   -1.80457E+006    1.20063E+007   -2.65480E+006    1.11944E+007   -1.76668E+006   -3.86759E+005    1.01178E+007    1.53110E+005   -3.99291E+005    8.69665E+005
            1755    1.09570E+007    9.98358E+006    9.98358E+006   -2.46772E+005   -1.57839E+006    1.15620E+007   -2.71947E+006    1.07727E+007   -1.54148E+006   -2.52881E+005    9.95278E+006    1.92160E+005   -2.45608E+005    5.15656E+005
            1756    1.06925E+007    9.84555E+006    9.84555E+006   -1.32306E+005   -1.44113E+006    1.12867E+007   -2.75737E+006    1.05100E+007   -1.40591E+006   -1.63878E+005    9.84190E+006    2.08489E+005   -8.71085E+004    1.74024E+005
            1757    1.35518E+007    1.11852E+007    1.11852E+007   -1.22773E+006   -3.27298E+006    1.44582E+007   -2.22818E+006    1.31979E+007   -3.24439E+006   -9.86263E+005    1.09152E+007   -1.83976E+005   -5.60657E+005    1.73104E+006
            1758    1.29704E+007    1.08574E+007    1.08574E+007   -9.71372E+005   -3.01249E+006    1.38699E+007   -2.29119E+006    1.26014E+007   -2.98203E+006   -7.22917E+005    1.05785E+007   -8.73376E+004   -6.43153E+005    1.69408E+006
            1759    1.21371E+007    1.03424E+007    1.03424E+007   -7.15537E+005   -2.64314E+006    1.29856E+007   -2.32792E+006    1.17853E+007   -2.61535E+006   -5.16011E+005    1.01151E+007   -1.52846E+004   -5.80432E+005    1.47780E+006
            1760    1.13602E+007    9.91335E+006    9.91335E+006   -3.51736E+005   -2.29205E+006    1.22054E+007   -2.42319E+006    1.09781E+007   -2.26496E+006   -2.19134E+005    9.75366E+006    5.86666E+004   -5.03911E+005    1.18849E+006
            1761    1.07042E+007    9.58104E+006    9.58104E+006   -4.45123E+004   -1.94677E+006    1.15278E+007   -2.52992E+006    1.03136E+007   -1.92270E+006    1.52218E+004    9.49724E+006    1.15909E+005   -3.88269E+005    8.26203E+005
            1762    1.02965E+007    9.40827E+006    9.40827E+006    1.74725E+005   -1.69489E+006    1.11032E+007   -2.62937E+006    9.90371E+006   -1.67442E+006    1.83855E+005    9.37867E+006    1.59116E+005   -2.36138E+005    4.79386E+005
            1763    1.01017E+007    9.33465E+006    9.33465E+006    2.71696E+005   -1.55624E+006    1.08909E+007   -2.68337E+006    9.71914E+006   -1.53751E+006    2.56057E+005    9.33155E+006    1.79556E+005   -8.67387E+004    1.49231E+005
            1764    9.66056E+006    8.95107E+006    8.95107E+006    5.82020E+005   -1.62060E+006    1.05717E+007   -2.63750E+006    9.06942E+006   -1.61319E+006    5.76769E+005    8.94891E+006    1.20522E+005   -8.60228E+004    1.11651E+005
            1765    9.79102E+006    8.95532E+006    8.95532E+006    5.13530E+005   -1.77835E+006    1.07337E+007   -2.56350E+006    9.15785E+006   -1.76742E+006    5.24279E+005    8.93364E+006    1.01838E+005   -2.45216E+005    3.70389E+005
            1766    1.01171E+007    9.01332E+006    9.01332E+006    2.90655E+005   -2.07796E+006    1.10913E+007   -2.40867E+006    9.46261E+006   -2.06107E+006    3.46472E+005    8.94061E+006    6.45405E+004   -3.85716E+005    7.18950E+005
            1767    1.06933E+007    9.21434E+006    9.21434E+006   -1.11185E+005   -2.45716E+006    1.16715E+007   -2.21533E+006    1.00896E+007   -2.43523E+006    1.97234E+004    9.06150E+006    1.13424E+004   -4.86097E+005    1.10446E+006
            1768    1.14853E+007    9.62057E+006    9.62057E+006   -5.52736E+005   -2.83421E+006    1.24548E+007   -2.07787E+006    1.09579E+007   -2.80834E+006   -3.28501E+005    9.37047E+006   -5.05185E+004   -5.60303E+005    1.49335E+006
            1769    1.24196E+007    1.02322E+007    1.02322E+007   -9.44833E+005   -3.13785E+006    1.33700E+007   -2.04984E+006    1.19723E+007   -3.11094E+006   -6.47894E+005    9.90835E+006   -1.07384E+005   -5.89078E+005    1.79533E+006
            1770    1.34614E+007    1.10692E+007    1.10692E+007   -1.22507E+006   -3.31480E+006    1.43840E+007   -2.17645E+006    1.30890E+007   -3.28577E+006   -8.45430E+005    1.06605E+007   -1.51935E+005   -6.19758E+005    2.12645E+006
            1771    1.38964E+007    1.08418E+007    1.08418E+007   -2.23656E+006   -3.74906E+006    1.45908E+007   -1.61871E+006    1.37094E+007   -3.71920E+006   -2.07745E+006    1.06528E+007    1.20966E+005    6.31242E+005    1.43963E+006
            1772    1.39738E+007    1.10854E+007    1.10854E+007   -1.73874E+006   -3.80748E+006    1.48929E+007   -1.84640E+006    1.36229E+007   -3.77737E+006   -1.51998E+006    1.08365E+007    1.60024E+005    6.20752E+005    1.66957E+006
            1773    1.52547E+007    1.25091E+007    1.25091E+007   -1.50443E+006   -3.74010E+006    1.62492E+007   -2.42152E+006    1.48794E+007   -3.71173E+006   -1.25694E+006    1.22332E+007    1.72976E+005    6.17260E+005    1.85719E+006
            1774    1.65535E+007    1.39307E+007    1.39307E+007   -1.30249E+006   -3.68501E+006    1.76157E+007   -2.98105E+006    1.61610E+007   -3.66014E+006   -1.08351E+006    1.36868E+007    1.60459E+005    6.03445E+005    1.82481E+006
            1775    1.63919E+007    1.39102E+007    1.39102E+007   -1.57752E+006   -3.25671E+006    1.71669E+007   -3.02532E+006    1.61967E+007   -3.22602E+006   -1.40545E+006    1.37074E+007    8.93995E+004    7.18600E+005    1.62221E+006
            1776    1.55226E+007    1.32388E+007    1.32388E+007   -1.68281E+006   -2.82194E+006    1.60608E+007   -2.91135E+006    1.54281E+007   -2.77072E+006   -1.55150E+006    1.30563E+007    3.16873E+002    8.55794E+005    1.42237E+006
            1777    1.46809E+007    1.27712E+007    1.27712E+007   -1.57104E+006   -2.22642E+006    1.49976E+007   -2.99125E+006    1.46480E+007   -2.18526E+006   -1.49013E+006    1.26491E+007   -3.17383E+004    6.72392E+005    1.14590E+006
            1778    1.39403E+007    1.22770E+007    1.22770E+007   -1.46100E+006   -1.85719E+006    1.41342E+007   -2.98627E+006    1.39276E+007   -1.78252E+006   -1.45121E+006    1.21925E+007   -8.51554E+004    6.50207E+005    8.68006E+005
            1779    1.32608E+007    1.18789E+007    1.18789E+007   -1.26028E+006   -1.50027E+006    1.33791E+007   -3.03944E+006    1.32559E+007   -1.34853E+006   -1.37128E+006    1.18381E+007   -9.97454E+004    4.03519E+005    6.16697E+005
            1780    1.28884E+007    1.16500E+007    1.16500E+007   -1.07632E+006   -1.39465E+006    1.30446E+007   -3.05967E+006    1.28795E+007   -1.13347E+006   -1.32150E+006    1.16340E+007   -1.19373E+005    2.86050E+005    3.55449E+005
            1781    1.26530E+007    1.15120E+007    1.15120E+007   -9.36340E+005   -1.33632E+006    1.28483E+007   -3.07977E+006    1.26388E+007   -9.78769E+005   -1.29226E+006    1.15103E+007   -1.22962E+005    6.91959E+004    1.26726E+005
            1782    1.51730E+007    1.26587E+007    1.26587E+007   -1.57772E+006   -3.30328E+006    1.59620E+007   -2.59258E+006    1.49499E+007   -3.27408E+006   -1.34131E+006    1.23931E+007    1.07677E+005    6.71054E+005    1.81828E+006
            1783    1.45370E+007    1.23274E+007    1.23274E+007   -1.47338E+006   -2.84805E+006    1.51755E+007   -2.66866E+006    1.43896E+007   -2.80208E+006   -1.28181E+006    1.20899E+007    1.30432E+004    7.92681E+005    1.63255E+006
            1784    1.37547E+007    1.19381E+007    1.19381E+007   -1.27586E+006   -2.30009E+006    1.42382E+007   -2.78739E+006    1.36685E+007   -2.26499E+006   -1.14348E+006    1.17707E+007   -2.51059E+004    6.27582E+005    1.35321E+006
            1785    1.31204E+007    1.15626E+007    1.15626E+007   -1.13639E+006   -1.94215E+006    1.35047E+007   -2.82801E+006    1.30646E+007   -1.89007E+006   -1.07725E+006    1.14513E+007   -9.50463E+004    5.96941E+005    1.03913E+006
            1786    1.25279E+007    1.12548E+007    1.12548E+007   -9.91817E+005   -1.53669E+006    1.27915E+007   -2.90876E+006    1.25012E+007   -1.48228E+006   -9.88387E+005    1.11969E+007   -1.22665E+005    3.93613E+005    7.51519E+005
            1787    1.21649E+007    1.10447E+007    1.10447E+007   -8.83146E+005   -1.34411E+006    1.23888E+007   -2.93915E+006    1.21452E+007   -1.27214E+006   -9.32468E+005    1.10221E+007   -1.52193E+005    2.63454E+005    4.54555E+005
            1788    1.19428E+007    1.09269E+007    1.09269E+007   -8.11351E+005   -1.21044E+006    1.21374E+007   -2.96838E+006    1.19278E+007   -1.12555E+006   -8.93860E+005    1.09246E+007   -1.62039E+005    7.60446E+004    1.50678E+005
            1789    1.42553E+007    1.17638E+007    1.17638E+007   -1.51149E+006   -3.30229E+006    1.50660E+007   -2.31666E+006    1.39988E+007   -3.27475E+006   -1.24875E+006    1.14735E+007    1.03277E+005    6.34140E+005    1.84738E+006
            1790    1.34766E+007    1.13559E+007    1.13559E+007   -1.14463E+006   -2.92068E+006    1.42766E+007   -2.43020E+006    1.32095E+007   -2.87552E+006   -9.24434E+005    1.10906E+007   -5.39387E+003    7.50374E+005    1.66545E+006
            1791    1.28789E+007    1.11176E+007    1.11176E+007   -9.89354E+005   -2.41467E+006    1.35323E+007   -2.57118E+006    1.26996E+007   -2.38073E+006   -8.37391E+005    1.09317E+007   -3.97657E+004    5.97425E+005    1.38250E+006
            1792    1.23195E+007    1.08448E+007    1.08448E+007   -7.76636E+005   -2.07067E+006    1.29155E+007   -2.66583E+006    1.21652E+007   -2.02711E+006   -6.88682E+005    1.07133E+007   -1.10515E+005    5.52661E+005    1.11967E+006
            1793    1.17148E+007    1.05169E+007    1.05169E+007   -6.08900E+005   -1.70923E+006    1.22261E+007   -2.73291E+006    1.15976E+007   -1.66797E+006   -5.74610E+005    1.04413E+007   -1.49306E+005    3.88406E+005    8.41777E+005
            1794    1.13333E+007    1.03277E+007    1.03277E+007   -4.44840E+005   -1.49346E+006    1.18211E+007   -2.79646E+006    1.12233E+007   -1.45054E+006   -4.59147E+005    1.02991E+007   -1.84962E+005    2.46407E+005    5.06786E+005
            1795    1.11179E+007    1.02170E+007    1.02170E+007   -3.76200E+005   -1.36030E+006    1.15773E+007   -2.82682E+006    1.10193E+007   -1.31671E+006   -4.16481E+005    1.02136E+007   -1.99987E+005    8.23568E+004    1.71694E+005
            1796    1.30686E+007    1.07802E+007    1.07802E+007   -1.01359E+006   -3.26955E+006    1.40498E+007   -2.16569E+006    1.26194E+007   -3.24504E+006   -7.56028E+005    1.04981E+007    1.46617E+005    5.48926E+005    1.72801E+006
            1797    1.29869E+007    1.08622E+007    1.08622E+007   -1.03843E+006   -2.99010E+006    1.38523E+007   -2.27789E+006    1.26507E+007   -2.95641E+006   -8.52219E+005    1.06423E+007    3.51010E+004    6.70418E+005    1.47983E+006
            1798    1.22672E+007    1.05375E+007    1.05375E+007   -6.97944E+005   -2.55062E+006    1.30881E+007   -2.42965E+006    1.19463E+007   -2.52133E+006   -5.11612E+005    1.03219E+007   -1.32810E+004    5.78607E+005    1.44943E+006
            1799    1.15127E+007    1.00784E+007    1.00784E+007   -4.18195E+005   -2.23450E+006    1.23129E+007   -2.47522E+006    1.11835E+007   -2.20415E+006   -2.95246E+005    9.92506E+006   -8.26276E+004    5.04057E+005    1.17626E+006
            1800    1.08644E+007    9.75818E+006    9.75818E+006   -1.01796E+005   -1.88909E+006    1.16473E+007   -2.58910E+006    1.05260E+007   -1.86197E+006   -4.66677E+004    9.67593E+006   -1.34518E+005    3.79135E+005    8.32028E+005
            1801    1.05073E+007    9.59706E+006    9.59706E+006    5.39031E+004   -1.66297E+006    1.12600E+007   -2.66267E+006    1.01846E+007   -1.63826E+006    5.87633E+004    9.56750E+006   -1.73282E+005    2.34650E+005    4.88558E+005
            1802    1.03121E+007    9.52053E+006    9.52053E+006    1.50574E+005   -1.52787E+006    1.10484E+007   -2.71441E+006    9.99788E+006   -1.50453E+006    1.30706E+005    9.51706E+006   -1.92576E+005    8.50534E+004    1.64123E+005
            1803    9.71853E+006    9.00010E+006    9.00010E+006    5.52720E+005   -1.62134E+006    1.06214E+007   -2.64383E+006    9.14709E+006   -1.61363E+006    5.47065E+005    8.99805E+006   -1.22173E+005    8.76795E+004    1.07104E+005
            1804    9.82009E+006    8.99396E+006    8.99396E+006    5.19865E+005   -1.76814E+006    1.07621E+007   -2.58189E+006    9.19122E+006   -1.75729E+006    5.31153E+005    8.97182E+006   -1.02177E+005    2.42896E+005    3.77733E+005
            1805    1.01271E+007    9.04941E+006    9.04941E+006    3.12224E+005   -2.05006E+006    1.10995E+007   -2.43719E+006    9.47701E+006   -2.03353E+006    3.67886E+005    8.97721E+006   -6.50531E+004    3.80541E+005    7.18716E+005
            1806    1.06770E+007    9.26532E+006    9.26532E+006   -2.22996E+004   -2.40014E+006    1.16655E+007   -2.28096E+006    1.00550E+007   -2.37849E+006    1.18805E+005    9.10256E+006   -1.14490E+004    4.81829E+005    1.14338E+006
            1807    1.15633E+007    9.73292E+006    9.73292E+006   -5.65794E+005   -2.77587E+006    1.25088E+007   -2.13042E+006    1.10730E+007   -2.75015E+006   -3.17199E+005    9.45861E+006    4.92917E+004    5.58389E+005    1.58076E+006
            1808    1.27836E+007    1.07187E+007    1.07187E+007   -8.78857E+005   -2.98847E+006    1.37072E+007   -2.28381E+006    1.23829E+007   -2.96113E+006   -5.37173E+005    1.03497E+007    1.16586E+005    5.99689E+005    1.95892E+006
            1809    1.41233E+007    1.16593E+007    1.16593E+007   -1.57263E+006   -3.21221E+006    1.48715E+007   -2.29148E+006    1.39067E+007   -3.18313E+006   -1.31789E+006    1.13755E+007    1.30745E+005    6.32980E+005    1.81993E+006
            1810    1.00996E+007    9.33272E+006    9.33272E+006    2.74681E+005   -1.55763E+006    1.08904E+007   -2.68326E+006    9.71507E+006   -1.53899E+006    2.59420E+005    9.32935E+006    1.78993E+005    8.91646E+004   -1.56373E+005
            1811    1.06888E+007    9.84095E+006    9.84095E+006   -1.29443E+005   -1.44458E+006    1.12855E+007   -2.75564E+006    1.05045E+007   -1.40953E+006   -1.60521E+005    9.83697E+006    2.08217E+005    9.09794E+004   -1.81594E+005
            1812    1.13608E+007    1.04304E+007    1.04304E+007   -5.29459E+005   -1.29292E+006    1.17233E+007   -2.86932E+006    1.13029E+007   -1.24545E+006   -5.73435E+005    1.04269E+007    1.82010E+005    8.35622E+004   -1.79779E+005
            1813    1.20438E+007    1.10030E+007    1.10030E+007   -8.55725E+005   -1.21771E+006    1.22207E+007   -2.97651E+006    1.20315E+007   -1.10591E+006   -9.64779E+005    1.10002E+007    1.65988E+005    7.82829E+004   -1.64838E+005
            1814    1.26310E+007    1.14951E+007    1.14951E+007   -9.33999E+005   -1.32865E+006    1.28237E+007   -3.07748E+006    1.26172E+007   -9.69955E+005   -1.29095E+006    1.14934E+007    1.13381E+005    6.89858E+004   -1.32374E+005
            1815    1.30790E+007    1.18626E+007    1.18626E+007   -8.85312E+005   -1.52406E+006    1.33867E+007   -3.15108E+006    1.30438E+007   -8.94152E+005   -1.51437E+006    1.18617E+007    7.54672E+004    6.24311E+004   -8.55586E+004
            1816    1.33338E+007    1.20709E+007    1.20709E+007   -8.32293E+005   -1.65527E+006    1.37262E+007   -3.19445E+006    1.32764E+007   -8.33083E+005   -1.65415E+006    1.20706E+007    2.91373E+004    5.71657E+004   -3.24847E+004
            1817    1.33579E+007    1.20904E+007    1.20904E+007   -8.40290E+005   -1.65711E+006    1.37476E+007   -3.19768E+006    1.33015E+007   -8.40617E+005   -1.65646E+006    1.20901E+007   -2.18203E+004    5.83310E+004    2.80283E+004
            1818    1.31370E+007    1.19130E+007    1.19130E+007   -8.68090E+005   -1.55304E+006    1.34660E+007   -3.16396E+006    1.30967E+007   -8.73456E+005   -1.54695E+006    1.19123E+007   -6.16841E+004    6.21319E+004    7.51411E+004
            1819    1.02960E+007    9.40405E+006    9.40405E+006    1.75019E+005   -1.70087E+006    1.11049E+007   -2.62607E+006    9.90046E+006   -1.68050E+006    1.85203E+005    9.37350E+006    1.57742E+005    2.39513E+005   -4.87013E+005
            1820    1.09591E+007    9.98099E+006    9.98099E+006   -2.45956E+005   -1.58679E+006    1.15678E+007   -2.71608E+006    1.07722E+007   -1.55029E+006   -2.49991E+005    9.94851E+006    1.90332E+005    2.51025E+005   -5.29738E+005
            1821    1.16569E+007    1.06007E+007    1.06007E+007   -6.31277E+005   -1.43910E+006    1.20398E+007   -2.84344E+006    1.15937E+007   -1.39264E+006   -6.47709E+005    1.05707E+007    1.64512E+005    2.69523E+005   -5.22951E+005
            1822    1.23512E+007    1.11849E+007    1.11849E+007   -9.61912E+005   -1.36095E+006    1.25459E+007   -2.95402E+006    1.23367E+007   -1.26654E+006   -1.03179E+006    1.11604E+007    1.54128E+005    2.95201E+005   -4.66481E+005
            1823    1.29487E+007    1.16935E+007    1.16935E+007   -1.09584E+006   -1.40885E+006    1.31024E+007   -3.06295E+006    1.29402E+007   -1.13602E+006   -1.35062E+006    1.16755E+007    1.03499E+005    3.09693E+005   -3.73911E+005
            1824    1.33937E+007    1.20610E+007    1.20610E+007   -1.06385E+006   -1.58628E+006    1.36473E+007   -3.13697E+006    1.33708E+007   -1.06686E+006   -1.57101E+006    1.20488E+007    6.91326E+004    3.24309E+005   -2.42160E+005
            1825    1.36325E+007    1.22619E+007    1.22619E+007   -1.01151E+006   -1.70336E+006    1.39653E+007   -3.18235E+006    1.35930E+007   -1.00463E+006   -1.70176E+006    1.22535E+007    2.45131E+004    3.23843E+005   -8.94928E+004
            1826    1.36410E+007    1.22686E+007    1.22686E+007   -1.01715E+006   -1.70179E+006    1.39704E+007   -3.18323E+006    1.36022E+007   -1.01046E+006   -1.70042E+006    1.22606E+007   -2.42853E+004    3.19428E+005    7.29440E+004
            1827    1.33851E+007    1.20632E+007    1.20632E+007   -1.03636E+006   -1.59026E+006    1.36534E+007   -3.14551E+006    1.33592E+007   -1.03747E+006   -1.57831E+006    1.20523E+007   -6.12951E+004    3.03124E+005    2.29946E+005
            1828    1.07167E+007    9.58431E+006    9.58431E+006   -5.01807E+004   -1.95832E+006    1.15426E+007   -2.52527E+006    1.03241E+007   -1.93418E+006    1.19084E+004    9.49809E+006    1.14129E+005    3.92439E+005   -8.38941E+005
            1829    1.14172E+007    1.02215E+007    1.02215E+007   -4.45469E+005   -1.82121E+006    1.20427E+007   -2.65161E+006    1.12284E+007   -1.78324E+006   -3.96079E+005    1.01341E+007    1.50507E+005    4.07946E+005   -8.88468E+005
            1830    1.21378E+007    1.08783E+007    1.08783E+007   -8.15624E+005   -1.65930E+006    1.25376E+007   -2.80114E+006    1.20716E+007   -1.61769E+006   -7.81754E+005    1.08029E+007    1.24011E+005    4.08362E+005   -8.55175E+005
            1831    1.28426E+007    1.14966E+007    1.14966E+007   -1.12057E+006   -1.56009E+006    1.30567E+007   -2.93866E+006    1.28257E+007   -1.48911E+006   -1.13177E+006    1.14369E+007    1.23233E+005    4.21995E+005   -7.66665E+005
            1832    1.34443E+007    1.20229E+007    1.20229E+007   -1.31012E+006   -1.52999E+006    1.35529E+007   -3.06093E+006    1.34402E+007   -1.35618E+006   -1.44377E+006    1.19827E+007    7.86579E+004    4.18668E+005   -6.06111E+005
            1833    1.38892E+007    1.24093E+007    1.24093E+007   -1.28381E+006   -1.66801E+006    1.40773E+007   -3.15248E+006    1.38772E+007   -1.28262E+006   -1.64561E+006    1.23857E+007    5.44864E+004    4.22069E+005   -3.87245E+005
            1834    1.41135E+007    1.26017E+007    1.26017E+007   -1.23105E+006   -1.77681E+006    1.43785E+007   -3.19794E+006    1.40898E+007   -1.21952E+006   -1.77481E+006    1.25881E+007    1.89537E+004    4.15135E+005   -1.24369E+005
            1835    1.40819E+007    1.25800E+007    1.25800E+007   -1.23443E+006   -1.75506E+006    1.43350E+007   -3.19682E+006    1.40602E+007   -1.22327E+006   -1.75227E+006    1.25660E+007   -2.11401E+004    4.14113E+005    1.48908E+005
            1836    1.38059E+007    1.23470E+007    1.23470E+007   -1.25225E+006   -1.65670E+006    1.40037E+007   -3.14601E+006    1.37925E+007   -1.24940E+006   -1.63584E+006    1.23233E+007   -4.85522E+004    4.05981E+005    4.03992E+005
            1837    1.13971E+007    9.93691E+006    9.93691E+006   -3.65683E+005   -2.30575E+006    1.22427E+007   -2.42183E+006    1.10164E+007   -2.27859E+006   -2.29723E+005    9.77379E+006    5.60371E+004    5.07791E+005   -1.20389E+006
            1838    1.21546E+007    1.06247E+007    1.06247E+007   -7.20913E+005   -2.20312E+006    1.28278E+007   -2.56687E+006    1.19488E+007   -2.16185E+006   -6.09684E+005    1.04722E+007    1.03519E+005    5.59368E+005   -1.20380E+006
            1839    1.29054E+007    1.13285E+007    1.13285E+007   -1.02140E+006   -2.06865E+006    1.33972E+007   -2.74615E+006    1.28093E+007   -2.02394E+006   -9.31446E+005    1.11938E+007    8.09352E+004    6.04608E+005   -1.15056E+006
            1840    1.36542E+007    1.19850E+007    1.19850E+007   -1.31707E+006   -1.99605E+006    1.39811E+007   -2.89063E+006    1.36162E+007   -1.93344E+006   -1.26953E+006    1.18749E+007    9.27840E+004    6.63286E+005   -1.02469E+006
            1841    1.42965E+007    1.25632E+007    1.25632E+007   -1.57695E+006   -1.88477E+006    1.44479E+007   -3.03381E+006    1.42890E+007   -1.81875E+006   -1.56299E+006    1.24832E+007    5.52123E+004    6.95335E+005   -8.11995E+005
            1842    1.47517E+007    1.29632E+007    1.29632E+007   -1.72405E+006   -1.85217E+006    1.48154E+007   -3.12899E+006    1.47505E+007   -1.76235E+006   -1.76126E+006    1.29106E+007    3.87215E+004    7.25989E+005   -4.99591E+005
            1843    1.49614E+007    1.31550E+007    1.31550E+007   -1.73390E+006   -1.87785E+006    1.50328E+007   -3.18108E+006    1.49598E+007   -1.70014E+006   -1.87458E+006    1.31179E+007    9.24184E+003    7.27542E+005   -1.45122E+005
            1844    1.48914E+007    1.30959E+007    1.30959E+007   -1.72455E+006   -1.86550E+006    1.49614E+007   -3.16861E+006    1.48899E+007   -1.69894E+006   -1.85216E+006    1.30569E+007   -2.32418E+004    7.19277E+005    2.44934E+005
            1845    1.45327E+007    1.27943E+007    1.27943E+007   -1.66597E+006   -1.80965E+006    1.46040E+007   -3.10624E+006    1.45311E+007   -1.71041E+006   -1.70932E+006    1.27384E+007   -4.40957E+004    6.88333E+005    5.82539E+005
            1846    1.21837E+007    1.03735E+007    1.03735E+007   -7.31500E+005   -2.65924E+006    1.30327E+007   -2.32757E+006    1.18333E+007   -2.63127E+006   -5.29126E+005    1.01431E+007   -1.79405E+004    5.84454E+005   -1.49081E+006
            1847    1.28792E+007    1.10553E+007    1.10553E+007   -9.63390E+005   -2.53932E+006    1.35946E+007   -2.51753E+006    1.26595E+007   -2.50452E+006   -7.82881E+005    1.08400E+007    3.04330E+004    6.18626E+005   -1.48961E+006
            1848    1.36662E+007    1.18023E+007    1.18023E+007   -1.23174E+006   -2.41870E+006    1.42210E+007   -2.71729E+006    1.35495E+007   -2.38688E+006   -1.07694E+006    1.16157E+007    1.98732E+003    6.28801E+005   -1.42998E+006
            1849    1.45007E+007    1.25718E+007    1.25718E+007   -1.45968E+006   -2.35641E+006    1.49282E+007   -2.91857E+006    1.44381E+007   -2.31730E+006   -1.34982E+006    1.24228E+007    2.69258E+004    6.75928E+005   -1.28449E+006
            1850    1.52218E+007    1.32381E+007    1.32381E+007   -1.69241E+006   -2.25916E+006    1.54972E+007   -3.09550E+006    1.51980E+007   -2.22260E+006   -1.62946E+006    1.31386E+007    7.73725E+003    6.96695E+005   -1.00667E+006
            1851    1.57446E+007    1.37248E+007    1.37248E+007   -1.82328E+006   -2.20935E+006    1.59341E+007   -3.23072E+006    1.57340E+007   -2.17268E+006   -1.80319E+006    1.36680E+007    1.03554E+004    7.22460E+005   -6.09931E+005
            1852    1.59498E+007    1.39164E+007    1.39164E+007   -1.90750E+006   -2.15629E+006    1.60727E+007   -3.28420E+006    1.59454E+007   -2.12300E+006   -1.90696E+006    1.38826E+007    4.84000E+003    7.25814E+005   -1.25378E+005
            1853    1.58318E+007    1.38180E+007    1.38180E+007   -1.87198E+006   -2.15193E+006    1.59699E+007   -3.26469E+006    1.58262E+007   -2.11715E+006   -1.86585E+006    1.37771E+007   -6.84530E+003    7.23646E+005    3.55477E+005
            1854    1.53945E+007    1.34131E+007    1.34131E+007   -1.78866E+006   -2.16713E+006    1.55802E+007   -3.15243E+006    1.53840E+007   -2.13079E+006   -1.75081E+006    1.33389E+007   -6.14226E+003    6.99235E+005    8.05319E+005
            1855    1.30119E+007    1.08888E+007    1.08888E+007   -9.81221E+005   -3.02352E+006    1.39123E+007   -2.29468E+006    1.26438E+007   -2.99293E+006   -7.30656E+005    1.06076E+007   -8.85291E+004    6.45411E+005   -1.70411E+006
            1856    1.36694E+007    1.14642E+007    1.14642E+007   -1.19153E+006   -3.03232E+006    1.44965E+007   -2.41346E+006    1.33863E+007   -2.98839E+006   -9.72343E+005    1.12011E+007   -3.54076E+003    7.55147E+005   -1.66762E+006
            1857    1.44724E+007    1.22498E+007    1.22498E+007   -1.37235E+006   -2.94451E+006    1.51943E+007   -2.64430E+006    1.42784E+007   -2.89989E+006   -1.16573E+006    1.19985E+007   -3.50094E+004    7.99246E+005   -1.67288E+006
            1858    1.54392E+007    1.31381E+007    1.31381E+007   -1.58822E+006   -2.92677E+006    1.60649E+007   -2.87437E+006    1.53078E+007   -2.87610E+006   -1.43190E+006    1.29311E+007   -1.00993E+004    8.60792E+005   -1.52973E+006
            1859    1.62995E+007    1.39591E+007    1.39591E+007   -1.76993E+006   -2.85659E+006    1.68157E+007   -3.11086E+006    1.62177E+007   -2.80617E+006   -1.68059E+006    1.38193E+007   -2.04958E+004    9.00685E+005   -1.19431E+006
            1860    1.68607E+007    1.45095E+007    1.45095E+007   -1.83704E+006   -2.82224E+006    1.73317E+007   -3.28340E+006    1.67958E+007   -2.77082E+006   -1.80944E+006    1.44305E+007   -9.27054E+003    9.34795E+005   -6.80973E+005
            1861    1.70878E+007    1.47386E+007    1.47386E+007   -1.88297E+006   -2.78017E+006    1.75188E+007   -3.35849E+006    1.70347E+007   -2.72930E+006   -1.88229E+006    1.46870E+007   -1.56949E+003    9.42434E+005   -1.07882E+005
            1862    1.69199E+007    1.45761E+007    1.45761E+007   -1.87090E+006   -2.77991E+006    1.73561E+007   -3.30845E+006    1.68648E+007   -2.72900E+006   -1.85611E+006    1.45104E+007    4.15403E+003    9.32827E+005    5.03060E+005
            1863    1.63880E+007    1.40750E+007    1.40750E+007   -1.80543E+006   -2.77735E+006    1.68523E+007   -3.16406E+006    1.63230E+007   -2.72734E+006   -1.74148E+006    1.39610E+007    1.34253E+004    8.98759E+005    1.02012E+006
            1864    1.35728E+007    1.12053E+007    1.12053E+007   -1.22697E+006   -3.27512E+006    1.44804E+007   -2.23441E+006    1.32184E+007   -3.24651E+006   -9.81017E+005    1.09307E+007   -1.84784E+005    5.61157E+005   -1.74776E+006
            1865    1.41898E+007    1.17836E+007    1.17836E+007   -1.24881E+006   -3.33309E+006    1.51167E+007   -2.40056E+006    1.38391E+007   -3.30635E+006   -9.80798E+005    1.14888E+007   -1.21355E+005    6.18619E+005   -1.84928E+006
            1866    1.52359E+007    1.27278E+007    1.27278E+007   -1.50650E+006   -3.34317E+006    1.60710E+007   -2.62604E+006    1.49838E+007   -3.31486E+006   -1.25247E+006    1.24454E+007   -1.28380E+005    6.52253E+005   -1.88587E+006
            1867    1.63639E+007    1.38468E+007    1.38468E+007   -1.56863E+006   -3.32397E+006    1.71708E+007   -2.98473E+006    1.61500E+007   -3.29499E+006   -1.37578E+006    1.36250E+007   -9.75506E+004    6.95685E+005   -1.71270E+006
            1868    1.73700E+007    1.49027E+007    1.49027E+007   -1.55058E+006   -3.25789E+006    1.81606E+007   -3.36475E+006    1.71797E+007   -3.22848E+006   -1.44143E+006    1.47642E+007   -7.95502E+004    7.23255E+005   -1.33595E+006
            1869    1.81068E+007    1.56716E+007    1.56716E+007   -1.54190E+006   -3.21269E+006    1.88843E+007   -3.63900E+006    1.79321E+007   -3.18310E+006   -1.50677E+006    1.56069E+007   -3.98180E+004    7.45646E+005   -7.76372E+005
            1870    1.83739E+007    1.59428E+007    1.59428E+007   -1.56355E+006   -3.19035E+006    1.91332E+007   -3.72965E+006    1.82108E+007   -3.16056E+006   -1.56337E+006    1.59129E+007   -1.61200E+003    7.54431E+005   -5.53793E+004
            1871    1.81449E+007    1.57150E+007    1.57150E+007   -1.55634E+006   -3.19253E+006    1.89075E+007   -3.65538E+006    1.79778E+007   -3.16222E+006   -1.53159E+006    1.56599E+007    3.65543E+004    7.55185E+005    6.53256E+005
            1872    1.74065E+007    1.49408E+007    1.49408E+007   -1.58631E+006   -3.22855E+006    1.81694E+007   -3.37533E+006    1.72309E+007   -3.19789E+006   -1.49113E+006    1.48150E+007    7.24407E+004    7.40492E+005    1.25044E+006
            1873    1.79014E+007    1.54637E+007    1.54637E+007   -1.05788E+006   -3.55531E+006    1.90190E+007   -3.61684E+006    1.75031E+007   -3.53541E+006   -9.24686E+005    1.53106E+007    1.22768E+005    5.74775E+005    1.48757E+006
            1874    1.88228E+007    1.65346E+007    1.65346E+007   -8.68020E+005   -3.44328E+006    1.99779E+007   -4.07443E+006    1.84202E+007   -3.42723E+006   -8.26338E+005    1.64769E+007    6.77871E+004    5.52161E+005    8.56748E+005
            1875    1.92225E+007    1.70053E+007    1.70053E+007   -7.87609E+005   -3.38292E+006    2.03883E+007   -4.27827E+006    1.88222E+007   -3.36861E+006   -7.87601E+005    1.69910E+007   -9.35047E+001    5.39967E+005   -1.22777E+004
            1876    1.88144E+007    1.65195E+007    1.65195E+007   -8.74003E+005   -3.45038E+006    1.99699E+007   -4.06503E+006    1.84113E+007   -3.43454E+006   -8.30022E+005    1.64597E+007   -6.65524E+004    5.49121E+005   -8.78872E+005
            1877    1.78775E+007    1.54171E+007    1.54171E+007   -1.07997E+006   -3.57810E+006    1.89952E+007   -3.58634E+006    1.74783E+007   -3.55838E+006   -9.41575E+005    1.52590E+007   -1.23394E+005    5.71408E+005   -1.51449E+006
            1878    1.66335E+007    1.40005E+007    1.40005E+007   -1.31313E+006   -3.69581E+006    1.76963E+007   -2.99718E+006    1.62429E+007   -3.67122E+006   -1.09410E+006    1.37569E+007   -1.61953E+005    5.98271E+005   -1.83063E+006
            1879    1.53626E+007    1.25429E+007    1.25429E+007   -1.60430E+006   -3.79908E+006    1.63420E+007   -2.37984E+006    1.50038E+007   -3.77101E+006   -1.35115E+006    1.22617E+007   -1.72630E+005    6.14860E+005   -1.88687E+006
            1880    1.45176E+007    1.16181E+007    1.16181E+007   -1.82974E+006   -3.77351E+006    1.53916E+007   -2.00495E+006    1.42205E+007   -3.74296E+006   -1.58069E+006    1.13385E+007   -1.67088E+005    6.31070E+005   -1.82281E+006
            1881    1.42580E+007    1.16257E+007    1.16257E+007   -1.54818E+006   -3.51261E+006    1.51384E+007   -2.18832E+006    1.39487E+007   -3.48138E+006   -1.21936E+006    1.12657E+007   -1.76896E+005    6.35835E+005   -2.06151E+006
            1882    9.66024E+006    8.94896E+006    8.94896E+006    5.78564E+005   -1.62158E+006    1.05705E+007   -2.63531E+006    9.07046E+006   -1.61416E+006    5.73324E+005    8.94677E+006    1.20474E+005    8.63749E+004   -1.12199E+005
            1883    9.78833E+006    8.95212E+006    8.95212E+006    5.14546E+005   -1.77949E+006    1.07316E+007   -2.56239E+006    9.15371E+006   -1.76858E+006    5.25471E+005    8.93028E+006    1.01632E+005    2.45367E+005   -3.72054E+005
            1884    1.01187E+007    9.01196E+006    9.01196E+006    2.90534E+005   -2.08234E+006    1.10943E+007   -2.40672E+006    9.46187E+006   -2.06543E+006    3.47456E+005    8.93813E+006    6.33514E+004    3.87055E+005   -7.25035E+005
            1885    1.07040E+007    9.21547E+006    9.21547E+006   -1.19234E+005   -2.46786E+006    1.16833E+007   -2.20946E+006    1.00996E+007   -2.44586E+006    1.45326E+004    9.05971E+006    9.42742E+003    4.87818E+005   -1.11637E+006
            1886    1.15158E+007    9.64297E+006    9.64297E+006   -5.59483E+005   -2.84376E+006    1.24867E+007   -2.07991E+006    1.09886E+007   -2.81776E+006   -3.30476E+005    9.38797E+006   -5.29479E+004    5.62662E+005   -1.51084E+006
            1887    1.24566E+007    1.02587E+007    1.02587E+007   -9.60785E+005   -3.14583E+006    1.34045E+007   -2.05069E+006    1.20140E+007   -3.11893E+006   -6.59846E+005    9.93083E+006   -1.08638E+005    5.89526E+005   -1.81060E+006
            1888    1.34557E+007    1.10605E+007    1.10605E+007   -1.22350E+006   -3.32064E+006    1.43811E+007   -2.17212E+006    1.30804E+007   -3.29133E+006   -8.43620E+005    1.06513E+007   -1.52445E+005    6.22762E+005   -2.12614E+006
            1889    1.04051E+007    9.54688E+006    9.54688E+006    1.34543E+005   -1.62625E+006    1.11731E+007   -2.68506E+006    1.00617E+007   -1.61910E+006    1.30559E+005    9.54371E+006   -1.09580E+005   -4.91683E+004   -1.67230E+005
            1890    1.12170E+007    1.02385E+007    1.02385E+007   -3.87397E+005   -1.48840E+006    1.17269E+007   -2.78757E+006    1.10945E+007   -1.47520E+006   -3.97552E+005    1.02355E+007   -1.17823E+005   -5.62760E+004   -1.72511E+005
            1891    1.20441E+007    1.09309E+007    1.09309E+007   -8.74413E+005   -1.33866E+006    1.22696E+007   -2.90594E+006    1.20240E+007   -1.31272E+006   -8.98038E+005    1.09286E+007   -1.05007E+005   -6.96569E+004   -1.51213E+005
            1892    1.27447E+007    1.15087E+007    1.15087E+007   -1.14105E+006   -1.32888E+006    1.28376E+007   -3.01293E+006    1.27416E+007   -1.17421E+006   -1.29402E+006    1.15070E+007   -7.12815E+004   -8.35579E+004   -1.21638E+005
            1893    1.05951E+007    9.62468E+006    9.62468E+006    3.47093E+004   -1.74916E+006    1.13738E+007   -2.63674E+006    1.02491E+007   -1.74132E+006    5.51878E+004    9.59636E+006   -9.59711E+004   -1.48362E+005   -5.03711E+005
            1894    1.14130E+007    1.03442E+007    1.03442E+007   -4.50640E+005   -1.59991E+006    1.19442E+007   -2.76457E+006    1.12817E+007   -1.58726E+006   -4.37153E+005    1.03181E+007   -1.04970E+005   -1.46177E+005   -5.13566E+005
            1895    1.22462E+007    1.10446E+007    1.10446E+007   -9.34534E+005   -1.45224E+006    1.24968E+007   -2.88593E+006    1.22215E+007   -1.43051E+006   -9.36158E+005    1.10245E+007   -9.45649E+004   -1.43914E+005   -4.71154E+005
            1896    1.29628E+007    1.16500E+007    1.16500E+007   -1.24278E+006   -1.38176E+006    1.30317E+007   -3.00847E+006    1.29611E+007   -1.29210E+006   -1.32078E+006    1.16383E+007   -6.30581E+004   -1.38596E+005   -3.63930E+005
            1897    1.09838E+007    9.81603E+006    9.81603E+006   -1.26827E+005   -1.97440E+006    1.17904E+007   -2.57160E+006    1.06258E+007   -1.96521E+006   -5.69892E+004    9.73700E+006   -7.25480E+004   -2.37805E+005   -8.57528E+005
            1898    1.18477E+007    1.05711E+007    1.05711E+007   -6.08719E+005   -1.84731E+006    1.24184E+007   -2.70501E+006    1.17008E+007   -1.83278E+006   -5.53322E+005    1.05011E+007   -8.77598E+004   -2.60499E+005   -8.48601E+005
            1899    1.26830E+007    1.13018E+007    1.13018E+007   -1.02572E+006   -1.70915E+006    1.30109E+007   -2.85564E+006    1.26415E+007   -1.68716E+006   -9.94125E+005    1.12482E+007   -8.46835E+004   -2.90808E+005   -7.62727E+005
            1900    1.34251E+007    1.19305E+007    1.19305E+007   -1.38028E+006   -1.60606E+006    1.35366E+007   -2.98140E+006    1.34209E+007   -1.57189E+006   -1.37834E+006    1.18944E+007   -5.85185E+004   -3.16324E+005   -6.19418E+005
            1901    1.15906E+007    1.01273E+007    1.01273E+007   -4.44092E+005   -2.26663E+006    1.23939E+007   -2.47218E+006    1.12614E+007   -2.25691E+006   -3.05829E+005    9.97927E+006   -3.64460E+004   -3.00010E+005   -1.21256E+006
            1902    1.24002E+007    1.08964E+007    1.08964E+007   -7.75992E+005   -2.12172E+006    1.30182E+007   -2.66624E+006    1.22343E+007   -2.11031E+006   -6.65635E+005    1.07747E+007   -4.86751E+004   -3.04004E+005   -1.15257E+006
            1903    1.32209E+007    1.16155E+007    1.16155E+007   -1.16208E+006   -2.00823E+006    1.36237E+007   -2.81505E+006    1.31598E+007   -1.99404E+006   -1.07842E+006    1.15176E+007   -5.06083E+004   -3.16394E+005   -1.07290E+006
            1904    1.40395E+007    1.23387E+007    1.23387E+007   -1.48849E+006   -1.90391E+006    1.42426E+007   -2.98210E+006    1.40257E+007   -1.89043E+006   -1.43655E+006    1.22733E+007   -2.93068E+004   -3.24799E+005   -8.94606E+005
            1905    1.23932E+007    1.06283E+007    1.06283E+007   -7.31887E+005   -2.58840E+006    1.32167E+007   -2.43600E+006    1.20744E+007   -2.57634E+006   -5.33919E+005    1.04183E+007   -3.51181E+003   -3.76604E+005   -1.49158E+006
            1906    1.30395E+007    1.12136E+007    1.12136E+007   -9.90654E+005   -2.52524E+006    1.37389E+007   -2.56592E+006    1.28340E+007   -2.50890E+006   -8.30364E+005    1.10370E+007   -2.70524E+004   -4.21663E+005   -1.40485E+006
            1907    1.39250E+007    1.20225E+007    1.20225E+007   -1.30027E+006   -2.43521E+006    1.44577E+007   -2.76234E+006    1.38203E+007   -2.41413E+006   -1.16136E+006    1.18625E+007   -3.73038E+004   -4.65164E+005   -1.38380E+006
            1908    1.48252E+007    1.28310E+007    1.28310E+007   -1.59445E+006   -2.36397E+006    1.51950E+007   -2.95752E+006    1.47802E+007   -2.34310E+006   -1.50419E+006    1.27199E+007   -1.98139E+004   -4.98167E+005   -1.16627E+006
            1909    1.30007E+007    1.09205E+007    1.09205E+007   -1.06906E+006   -2.89769E+006    1.38182E+007   -2.31791E+006    1.27065E+007   -2.88854E+006   -8.68003E+005    1.07103E+007    4.33434E+004   -3.52678E+005   -1.53896E+006
            1910    1.35642E+007    1.14933E+007    1.14933E+007   -1.13181E+006   -2.84689E+006    1.43402E+007   -2.50488E+006    1.33170E+007   -2.83800E+006   -8.93211E+005    1.12458E+007    4.61576E+004   -3.54027E+005   -1.71853E+006
            1911    1.46691E+007    1.24879E+007    1.24879E+007   -1.46469E+006   -2.80547E+006    1.52934E+007   -2.73927E+006    1.45302E+007   -2.79451E+006   -1.26377E+006    1.22761E+007    2.01534E+004   -3.98713E+005   -1.66400E+006
            1912    1.56586E+007    1.34190E+007    1.34190E+007   -1.66166E+006   -2.75977E+006    1.61788E+007   -2.99919E+006    1.55716E+007   -2.74876E+006   -1.52123E+006    1.32676E+007    3.16029E+004   -4.19452E+005   -1.44831E+006
            1913    1.30772E+007    1.07898E+007    1.07898E+007   -1.06970E+006   -3.23486E+006    1.40246E+007   -2.16174E+006    1.26645E+007   -3.21857E+006   -7.94017E+005    1.04978E+007    2.45941E+004   -4.64484E+005   -1.78910E+006
            1914    1.42204E+007    1.17493E+007    1.17493E+007   -1.55096E+006   -3.24027E+006    1.49896E+007   -2.31936E+006    1.39920E+007   -3.22712E+006   -1.27290E+006    1.14581E+007    4.78070E+004   -4.38706E+005   -1.90247E+006
            1915    1.51378E+007    1.26573E+007    1.26573E+007   -1.59881E+006   -3.22995E+006    1.58873E+007   -2.60952E+006    1.49381E+007   -3.21608E+006   -1.34976E+006    1.23944E+007    4.30456E+004   -4.63907E+005   -1.86764E+006
            1916    1.63277E+007    1.38944E+007    1.38944E+007   -1.60086E+006   -3.15473E+006    1.70491E+007   -3.04627E+006    1.61601E+007   -3.14130E+006   -1.41858E+006    1.36987E+007    4.92837E+004   -4.75704E+005   -1.66998E+006
            1917    1.65833E+007    1.41405E+007    1.41405E+007   -1.25313E+006   -3.41958E+006    1.75601E+007   -3.15593E+006    1.62604E+007   -3.41170E+006   -1.03117E+006    1.39107E+007    9.67504E+004   -3.25802E+005   -1.84085E+006
            1918    1.53295E+007    1.27392E+007    1.27392E+007   -1.44509E+006   -3.52343E+006    1.62626E+007   -2.59022E+006    1.50076E+007   -3.51390E+006   -1.19439E+006    1.24790E+007    1.08806E+005   -3.41416E+005   -1.87542E+006
            1919    1.40794E+007    1.13302E+007    1.13302E+007   -1.65839E+006   -3.63194E+006    1.49621E+007   -2.01328E+006    1.37631E+007   -3.62161E+006   -1.43665E+006    1.10981E+007    1.11093E+005   -3.37066E+005   -1.69030E+006
            1920    1.39835E+007    1.10560E+007    1.10560E+007   -2.14144E+006   -3.59936E+006    1.46553E+007   -1.77172E+006    1.38109E+007   -3.58819E+006   -1.98968E+006    1.08930E+007    1.02573E+005   -3.38250E+005   -1.42014E+006
            1921    9.81284E+006    9.05491E+006    9.05491E+006    5.66348E+005   -1.68938E+006    1.07443E+007   -2.64396E+006    9.20197E+006   -1.68656E+006    5.65049E+005    9.05338E+006   -7.59197E+004   -4.98378E+004   -1.05068E+005
            1922    9.91107E+006    9.04924E+006    9.04924E+006    5.33477E+005   -1.82987E+006    1.08791E+007   -2.58428E+006    9.24465E+006   -1.82564E+006    5.48579E+005    9.02992E+006   -6.48753E+004   -1.52322E+005   -3.83181E+005
            1923    1.02075E+007    9.10559E+006    9.10559E+006    3.30988E+005   -2.09703E+006    1.12026E+007   -2.44652E+006    9.52475E+006   -2.09080E+006    3.91789E+005    9.03855E+006   -4.25996E+004   -2.32502E+005   -7.37120E+005
            1924    1.07533E+007    9.33219E+006    9.33219E+006   -3.46758E+003   -2.42560E+006    1.17578E+007   -2.30104E+006    1.01118E+007   -2.41707E+006    1.45383E+005    9.17481E+006   -1.36382E+004   -2.99636E+005   -1.17320E+006
            1925    1.16492E+007    9.82633E+006    9.82633E+006   -5.61448E+005   -2.76848E+006    1.25948E+007   -2.16547E+006    1.11642E+007   -2.75911E+006   -3.00849E+005    9.55636E+006    2.29476E+004   -3.36221E+005   -1.62515E+006
            1926    1.28458E+007    1.08122E+007    1.08122E+007   -8.77703E+005   -2.93999E+006    1.37522E+007   -2.33151E+006    1.24652E+007   -2.93000E+006   -5.23531E+005    1.04481E+007    5.23647E+004   -3.65690E+005   -2.00302E+006
            1927    1.41790E+007    1.17721E+007    1.17721E+007   -1.53798E+006   -3.13976E+006    1.49118E+007   -2.36478E+006    1.39732E+007   -3.13017E+006   -1.28621E+006    1.15107E+007    6.97722E+004   -3.67621E+005   -1.81329E+006
            1928    1.78806E+007    1.56531E+007    1.56531E+007   -1.00367E+006   -3.24087E+006    1.88939E+007   -3.80284E+006    1.75616E+007   -3.23483E+006   -8.67513E+005    1.55109E+007    7.32415E+004   -3.05754E+005   -1.50457E+006
            1929    1.87871E+007    1.67301E+007    1.67301E+007   -8.08651E+005   -3.09586E+006    1.98259E+007   -4.27519E+006    1.84699E+007   -3.09143E+006   -7.64676E+005    1.66817E+007    3.90180E+004   -2.85626E+005   -8.79649E+005
            1930    1.91877E+007    1.72191E+007    1.72191E+007   -7.13928E+005   -3.01565E+006    2.02348E+007   -4.49652E+006    1.88734E+007   -3.01180E+006   -7.13929E+005    1.72153E+007    1.19165E+003   -2.79113E+005   -1.02274E+003
            1931    1.88083E+007    1.67616E+007    1.67616E+007   -7.93027E+005   -3.08959E+006    1.98511E+007   -4.29298E+006    1.84889E+007   -3.08526E+006   -7.49056E+005    1.67133E+007   -3.79898E+004   -2.83213E+005    8.79815E+005
            1932    1.78646E+007    1.56305E+007    1.56305E+007   -1.00596E+006   -3.25015E+006    1.88807E+007   -3.79147E+006    1.75433E+007   -3.24431E+006   -8.66110E+005    1.54848E+007   -7.29973E+004   -2.99670E+005    1.52358E+006
            1933    1.66255E+007    1.41823E+007    1.41823E+007   -1.25044E+006   -3.42237E+006    1.76047E+007   -3.16983E+006    1.63017E+007   -3.41470E+006   -1.02836E+006    1.39526E+007   -9.74553E+004   -3.18096E+005    1.84407E+006
            1934    1.53606E+007    1.27003E+007    1.27003E+007   -1.54856E+006   -3.57157E+006    1.62719E+007   -2.52672E+006    1.50565E+007   -3.56207E+006   -1.29597E+006    1.24382E+007   -1.13105E+005   -3.30425E+005    1.88824E+006
            1935    1.45564E+007    1.17838E+007    1.17838E+007   -1.77242E+006   -3.60012E+006    1.53839E+007   -2.13708E+006    1.42948E+007   -3.59006E+006   -1.53035E+006    1.15317E+007   -1.09171E+005   -3.36650E+005    1.80277E+006
            1936    1.43164E+007    1.18175E+007    1.18175E+007   -1.45301E+006   -3.35478E+006    1.51722E+007   -2.33656E+006    1.40280E+007   -3.34533E+006   -1.13538E+006    1.14904E+007   -9.93946E+004   -3.45766E+005    2.03102E+006
            1937    1.73166E+007    1.49162E+007    1.49162E+007   -1.59219E+006   -3.10881E+006    1.80250E+007   -3.40507E+006    1.71662E+007   -3.09522E+006   -1.49084E+006    1.48013E+007    3.51662E+004   -4.93227E+005   -1.28903E+006
            1938    1.65270E+007    1.42642E+007    1.42642E+007   -1.76191E+006   -2.72192E+006    1.69861E+007   -3.26012E+006    1.64641E+007   -2.70999E+006   -1.69498E+006    1.41853E+007    1.46617E+004   -4.45993E+005   -1.03478E+006
            1939    1.55459E+007    1.34741E+007    1.34741E+007   -1.80141E+006   -2.32882E+006    1.58029E+007   -3.11461E+006    1.55258E+007   -2.30604E+006   -1.76204E+006    1.34119E+007   -2.16090E+004   -5.34125E+005   -8.20192E+005
            1940    1.46500E+007    1.28690E+007    1.28690E+007   -1.71106E+006   -1.84983E+006    1.47188E+007   -3.10271E+006    1.46485E+007   -1.83089E+006   -1.69795E+006    1.28370E+007   -2.41970E+004   -3.36673E+005   -5.95988E+005
            1941    1.39845E+007    1.23978E+007    1.23978E+007   -1.49186E+006   -1.67966E+006    1.40775E+007   -3.07543E+006    1.39817E+007   -1.49967E+006   -1.65220E+006    1.23782E+007   -4.31373E+004   -3.44154E+005   -3.96522E+005
            1942    1.34576E+007    1.20543E+007    1.20543E+007   -1.20256E+006   -1.59549E+006    1.36498E+007   -3.08540E+006    1.34447E+007   -1.20641E+006   -1.58631E+006    1.20489E+007   -4.25037E+004   -1.33537E+005   -2.33752E+005
            1943    1.32295E+007    1.19008E+007    1.19008E+007   -1.08159E+006   -1.56262E+006    1.34635E+007   -3.08554E+006    1.32098E+007   -1.08563E+006   -1.55749E+006    1.18997E+007   -4.71614E+004   -9.78423E+004   -6.98791E+004
            1944    1.80354E+007    1.56800E+007    1.56800E+007   -1.56214E+006   -3.05569E+006    1.87357E+007   -3.68740E+006    1.78955E+007   -3.04238E+006   -1.53523E+006    1.56398E+007    2.13325E+004   -4.98789E+005   -6.80403E+005
            1945    1.70673E+007    1.47813E+007    1.47813E+007   -1.83511E+006   -2.70369E+006    1.74850E+007   -3.41418E+006    1.70175E+007   -2.69193E+006   -1.81942E+006    1.47539E+007    1.30419E+004   -4.53172E+005   -5.10111E+005
            1946    1.59735E+007    1.38686E+007    1.38686E+007   -1.90282E+006   -2.29965E+006    1.61682E+007   -3.22204E+006    1.59624E+007   -2.28013E+006   -1.89575E+006    1.38420E+007   -4.53473E+003   -5.51376E+005   -3.50211E+005
            1947    1.50055E+007    1.31747E+007    1.31747E+007   -1.80354E+006   -1.85791E+006    1.50326E+007   -3.17110E+006    1.50053E+007   -1.79736E+006   -1.85274E+006    1.31634E+007   -3.37985E+003   -3.37600E+005   -2.37038E+005
            1948    1.42501E+007    1.26211E+007    1.26211E+007   -1.46852E+006   -1.78433E+006    1.44054E+007   -3.12273E+006    1.42422E+007   -1.46016E+006   -1.78237E+006    1.26107E+007   -1.13162E+004   -3.57046E+005   -1.35580E+005
            1949    1.36983E+007    1.22527E+007    1.22527E+007   -1.15946E+006   -1.71489E+006    1.39676E+007   -3.12612E+006    1.36729E+007   -1.15842E+006   -1.71437E+006    1.22511E+007   -8.30195E+003   -1.26531E+005   -7.15267E+004
            1950    1.34458E+007    1.20759E+007    1.20759E+007   -1.03915E+006   -1.67792E+006    1.37538E+007   -3.11961E+006    1.34116E+007   -1.03844E+006   -1.67772E+006    1.20750E+007   -9.97145E+003   -1.06977E+005   -2.26794E+004
            1951    1.82638E+007    1.59143E+007    1.59143E+007   -1.55668E+006   -3.05061E+006    1.89649E+007   -3.76900E+006    1.81256E+007   -3.03729E+006   -1.55655E+006    1.59009E+007   -9.60419E+002   -5.02333E+005    4.67163E+004
            1952    1.72313E+007    1.49487E+007    1.49487E+007   -1.82425E+006   -2.70705E+006    1.76558E+007   -3.47247E+006    1.71803E+007   -2.69514E+006   -1.82343E+006    1.49360E+007   -6.79831E+002   -4.58317E+005    1.17586E+005
            1953    1.60776E+007    1.39546E+007    1.39546E+007   -1.92068E+006   -2.31788E+006    1.62725E+007   -3.23870E+006    1.60666E+007   -2.29832E+006   -1.91949E+006    1.39339E+007    6.19721E+002   -5.62652E+005    1.41762E+005
            1954    1.50494E+007    1.32140E+007    1.32140E+007   -1.81541E+006   -1.85526E+006    1.50692E+007   -3.18110E+006    1.50492E+007   -1.81056E+006   -1.85059E+006    1.32044E+007    6.76766E+003   -3.42471E+005    1.61205E+005
            1955    1.42653E+007    1.26287E+007    1.26287E+007   -1.48391E+006   -1.78444E+006    1.44131E+007   -3.12012E+006    1.42581E+007   -1.47510E+006   -1.78251E+006    1.26180E+007    1.06644E+004   -3.65689E+005    1.35116E+005
            1956    1.36799E+007    1.22371E+007    1.22371E+007   -1.17018E+006   -1.69999E+006    1.39371E+007   -3.12231E+006    1.36568E+007   -1.16946E+006   -1.69892E+006    1.22353E+007    1.50431E+004   -1.27104E+005    9.08156E+004
            1957    1.34205E+007    1.20541E+007    1.20541E+007   -1.04981E+006   -1.66200E+006    1.37161E+007   -3.11410E+006    1.33890E+007   -1.04938E+006   -1.66142E+006    1.20531E+007    1.71828E+004   -1.10417E+005    3.33879E+004
            1958    1.79961E+007    1.56345E+007    1.56345E+007   -1.55607E+006   -3.07146E+006    1.87059E+007   -3.66898E+006    1.78517E+007   -3.05823E+006   -1.51896E+006    1.55841E+007   -2.51285E+004   -4.96482E+005    7.97514E+005
            1959    1.69753E+007    1.46904E+007    1.46904E+007   -1.80217E+006   -2.72947E+006    1.74199E+007   -3.38627E+006    1.69181E+007   -2.71798E+006   -1.77178E+006    1.46486E+007   -1.48142E+004   -4.46551E+005    7.07290E+005
            1960    1.58369E+007    1.37334E+007    1.37334E+007   -1.85464E+006   -2.34111E+006    1.60745E+007   -3.17922E+006    1.58201E+007   -2.32054E+006   -1.82981E+006    1.36880E+007    6.47520E+003   -5.50342E+005    6.42923E+005
            1961    1.47988E+007    1.29906E+007    1.29906E+007   -1.75957E+006   -1.85624E+006    1.48469E+007   -3.12495E+006    1.47981E+007   -1.84026E+006   -1.74927E+006    1.29644E+007    1.54083E+004   -3.34530E+005    5.25808E+005
            1962    1.40157E+007    1.24202E+007    1.24202E+007   -1.50494E+006   -1.68431E+006    1.41045E+007   -3.07699E+006    1.40131E+007   -1.50652E+006   -1.66260E+006    1.24001E+007    3.23450E+004   -3.55485E+005    3.95428E+005
            1963    1.34296E+007    1.20306E+007    1.20306E+007   -1.20282E+006   -1.58700E+006    1.36176E+007   -3.08025E+006    1.34172E+007   -1.20610E+006   -1.57816E+006    1.20250E+007    3.89658E+004   -1.26222E+005    2.43767E+005
            1964    1.31644E+007    1.18480E+007    1.18480E+007   -1.08333E+006   -1.53773E+006    1.33857E+007   -3.07564E+006    1.31467E+007   -1.08714E+006   -1.53259E+006    1.18466E+007    4.51526E+004   -1.05069E+005    7.99090E+004
            1965    1.72437E+007    1.48417E+007    1.48417E+007   -1.56068E+006   -3.13535E+006    1.79770E+007   -3.38187E+006    1.70808E+007   -3.12184E+006   -1.44365E+006    1.47111E+007   -3.71826E+004   -4.91048E+005    1.38001E+006
            1966    1.63620E+007    1.40882E+007    1.40882E+007   -1.71831E+006   -2.77786E+006    1.68660E+007   -3.19733E+006    1.62845E+007   -2.76642E+006   -1.62244E+006    1.39808E+007   -1.79229E+004   -4.34496E+005    1.22835E+006
            1967    1.52748E+007    1.32186E+007    1.32186E+007   -1.68512E+006   -2.40203E+006    1.56206E+007   -3.04382E+006    1.52369E+007   -2.37871E+006   -1.61797E+006    1.31281E+007    2.37021E+004   -5.34577E+005    1.03548E+006
            1968    1.42994E+007    1.25526E+007    1.25526E+007   -1.56026E+006   -1.92619E+006    1.44788E+007   -3.02206E+006    1.42888E+007   -1.90990E+006   -1.51968E+006    1.24958E+007    3.61466E+004   -3.33764E+005    8.32627E+005
            1969    1.35489E+007    1.20219E+007    1.20219E+007   -1.42020E+006   -1.63132E+006    1.36532E+007   -2.99012E+006    1.35452E+007   -1.58771E+006   -1.42835E+006    1.19864E+007    6.34025E+004   -3.42492E+005    6.02361E+005
            1970    1.29805E+007    1.16589E+007    1.16589E+007   -1.24253E+006   -1.39925E+006    1.30581E+007   -3.00569E+006    1.29783E+007   -1.29485E+006   -1.33504E+006    1.16470E+007    7.05905E+004   -1.33785E+005    3.70161E+005
            1971    1.27191E+007    1.14840E+007    1.14840E+007   -1.13668E+006   -1.33118E+006    1.28152E+007   -3.00540E+006    1.27157E+007   -1.17809E+006   -1.28795E+006    1.14822E+007    7.92269E+004   -9.52014E+004    1.19263E+005
            1972    1.62255E+007    1.37609E+007    1.37609E+007   -1.60373E+006   -3.20654E+006    1.69674E+007   -2.98353E+006    1.60459E+007   -3.19308E+006   -1.39768E+006    1.35414E+007   -5.62642E+004   -4.74356E+005    1.76656E+006
            1973    1.54401E+007    1.32125E+007    1.32125E+007   -1.56465E+006   -2.81473E+006    1.60272E+007   -2.94436E+006    1.53257E+007   -2.80439E+006   -1.39636E+006    1.30338E+007   -4.13832E+004   -4.04815E+005    1.56744E+006
            1974    1.45091E+007    1.25315E+007    1.25315E+007   -1.46272E+006   -2.44275E+006    1.49743E+007   -2.87535E+006    1.44343E+007   -2.42304E+006   -1.34349E+006    1.23926E+007    1.31866E+004   -4.94001E+005    1.30479E+006
            1975    1.36177E+007    1.19520E+007    1.19520E+007   -1.31322E+006   -1.99281E+006    1.39448E+007   -2.88198E+006    1.35795E+007   -1.98140E+006   -1.23576E+006    1.18631E+007    2.94007E+004   -3.17107E+005    1.03841E+006
            1976    1.29243E+007    1.14960E+007    1.14960E+007   -1.14797E+006   -1.69137E+006    1.31874E+007   -2.88556E+006    1.28985E+007   -1.67040E+006   -1.11671E+006    1.14438E+007    6.69386E+004   -3.12228E+005    7.53475E+005
            1977    1.23836E+007    1.11611E+007    1.11611E+007   -1.01834E+006   -1.41706E+006    1.25781E+007   -2.90857E+006    1.23691E+007   -1.39666E+006   -1.02010E+006    1.11425E+007    7.98796E+004   -1.35848E+005    4.58098E+005
            1978    1.21312E+007    1.10034E+007    1.10034E+007   -9.38895E+005   -1.30833E+006    1.23117E+007   -2.91872E+006    1.21185E+007   -1.28235E+006   -9.62532E+005    1.10010E+007    9.26222E+004   -7.98271E+004    1.48132E+005
            1979    1.51032E+007    1.26320E+007    1.26320E+007   -1.53076E+006   -3.26239E+006    1.58944E+007   -2.61296E+006    1.48774E+007   -3.24821E+006   -1.26014E+006    1.23472E+007   -4.04944E+004   -4.67604E+005    1.93922E+006
            1980    1.44404E+007    1.22848E+007    1.22848E+007   -1.32279E+006   -2.86478E+006    1.51496E+007   -2.69907E+006    1.42534E+007   -2.85452E+006   -1.10810E+006    1.20598E+007   -2.42690E+004   -3.86493E+005    1.69658E+006
            1981    1.36868E+007    1.17746E+007    1.17746E+007   -1.20332E+006   -2.52516E+006    1.42998E+007   -2.68205E+006    1.35421E+007   -2.50365E+006   -1.04992E+006    1.15997E+007    4.18717E+004   -4.68144E+005    1.43185E+006
            1982    1.28688E+007    1.12862E+007    1.12862E+007   -9.97175E+005   -2.09737E+006    1.33836E+007   -2.73055E+006    1.27623E+007   -2.08339E+006   -8.93946E+005    1.11690E+007    5.69373E+004   -3.15567E+005    1.15757E+006
            1983    1.22291E+007    1.08881E+007    1.08881E+007   -8.10315E+005   -1.81015E+006    1.26983E+007   -2.75589E+006    1.21366E+007   -1.79015E+006   -7.63675E+005    1.08215E+007    9.59965E+004   -2.88988E+005    8.38673E+005
            1984    1.17134E+007    1.05905E+007    1.05905E+007   -6.47486E+005   -1.54649E+006    1.21370E+007   -2.79885E+006    1.16354E+007   -1.52965E+006   -6.39001E+005    1.05652E+007    1.09453E+005   -1.45188E+005    5.15945E+005
            1985    1.14619E+007    1.04405E+007    1.04405E+007   -5.55499E+005   -1.43644E+006    1.18770E+007   -2.81620E+006    1.13854E+007   -1.41870E+006   -5.70400E+005    1.04377E+007    1.21566E+005   -6.58118E+004    1.65513E+005
            1986    1.40728E+007    1.17102E+007    1.17102E+007   -1.28735E+006   -3.23489E+006    1.49451E+007   -2.39599E+006    1.37647E+007   -3.22136E+006   -1.00079E+006    1.14101E+007   -6.88066E+004   -4.44123E+005    1.90752E+006
            1987    1.35942E+007    1.14885E+007    1.14885E+007   -1.16204E+006   -2.88511E+006    1.43736E+007   -2.48045E+006    1.33452E+007   -2.87618E+006   -9.29686E+005    1.12472E+007   -7.19349E+004   -3.44616E+005    1.69935E+006
            1988    1.29061E+007    1.10756E+007    1.10756E+007   -9.28394E+005   -2.57462E+006    1.36502E+007   -2.52420E+006    1.26667E+007   -2.56083E+006   -7.43066E+005    1.08765E+007    2.42985E+003   -4.08927E+005    1.48614E+006
            1989    1.21330E+007    1.06178E+007    1.06178E+007   -6.91387E+005   -2.19826E+006    1.28161E+007   -2.57606E+006    1.19198E+007   -2.18841E+006   -5.64526E+005    1.04811E+007    3.34298E+004   -3.04225E+005    1.20412E+006
            1990    1.15028E+007    1.02609E+007    1.02609E+007   -4.30136E+005   -1.91045E+006    1.21713E+007   -2.64010E+006    1.12856E+007   -1.89899E+006   -3.64214E+005    1.01835E+007    7.66641E+004   -2.54433E+005    8.76543E+005
            1991    1.10273E+007    1.00016E+007    1.00016E+007   -2.47095E+005   -1.66674E+006    1.16684E+007   -2.69593E+006    1.08188E+007   -1.65691E+006   -2.28578E+005    9.97329E+006    9.91700E+004   -1.49113E+005    5.21324E+005
            1992    1.07846E+007    9.87132E+006    9.87132E+006   -1.34438E+005   -1.55189E+006    1.14232E+007   -2.72833E+006    1.05720E+007   -1.54232E+006   -1.40771E+005    9.86808E+006    1.13890E+005   -5.18729E+004    1.73933E+005
            1993    1.35952E+007    1.12200E+007    1.12200E+007   -1.27543E+006   -3.25744E+006    1.44774E+007   -2.22904E+006    1.32643E+007   -3.24281E+006   -1.01885E+006    1.09488E+007   -2.51941E+004   -4.48521E+005    1.77376E+006
            1994    1.29851E+007    1.08960E+007    1.08960E+007   -1.01406E+006   -2.94733E+006    1.38433E+007   -2.31153E+006    1.26552E+007   -2.93711E+006   -7.49771E+005    1.06215E+007   -3.11496E+004   -3.69802E+005    1.75465E+006
            1995    1.22334E+007    1.04078E+007    1.04078E+007   -7.49051E+005   -2.67396E+006    1.30817E+007   -2.32826E+006    1.18855E+007   -2.66205E+006   -5.38830E+005    1.01856E+007    5.89350E+003   -3.69996E+005    1.52230E+006
            1996    1.14252E+007    9.94688E+006    9.94688E+006   -3.76690E+005   -2.32849E+006    1.22754E+007   -2.41390E+006    1.10407E+007   -2.31814E+006   -2.33198E+005    9.79305E+006    3.85962E+004   -3.09025E+005    1.22030E+006
            1997    1.08068E+007    9.62750E+006    9.62750E+006   -6.50194E+004   -2.02530E+006    1.16528E+007   -2.51239E+006    1.03955E+007   -2.01626E+006    5.41968E+003    9.54802E+006    7.28451E+004   -2.38081E+005    8.48770E+005
            1998    1.03838E+007    9.43637E+006    9.43637E+006    1.57105E+005   -1.77940E+006    1.12158E+007   -2.60469E+006    9.96536E+006   -1.77193E+006    1.77453E+005    9.40854E+006    9.54816E+004   -1.52697E+005    4.89511E+005
            1999    1.01984E+007    9.36615E+006    9.36615E+006    2.55267E+005   -1.65083E+006    1.10170E+007   -2.65686E+006    9.78554E+006   -1.64438E+006    2.51604E+005    9.36337E+006    1.08247E+005   -4.76270E+004    1.53796E+005
            2000    9.75042E+006    9.00735E+006    9.00735E+006    6.00082E+005   -1.68159E+006    1.06889E+007   -2.64194E+006    9.12029E+006   -1.67918E+006    5.99425E+005    9.00559E+006    6.98133E+004   -5.12083E+004    1.13150E+005
            2001    9.87619E+006    9.01337E+006    9.01337E+006    5.34699E+005   -1.83076E+006    1.08441E+007   -2.57244E+006    9.20590E+006   -1.82689E+006    5.49542E+005    8.99467E+006    5.77403E+004   -1.53799E+005    3.74801E+005
            2002    1.01885E+007    9.07377E+006    9.07377E+006    3.17370E+005   -2.10883E+006    1.11826E+007   -2.42743E+006    9.50539E+006   -2.10283E+006    3.77390E+005    9.00775E+006    3.48581E+004   -2.34836E+005    7.29560E+005
            2003    1.07523E+007    9.28160E+006    9.28160E+006   -7.97315E+004   -2.46208E+006    1.17437E+007   -2.24660E+006    1.01326E+007   -2.45387E+006    5.59830E+004    9.13768E+006    2.22735E+003   -3.00870E+005    1.12105E+006
            2004    1.15256E+007    9.69957E+006    9.69957E+006   -5.10448E+005   -2.79836E+006    1.24979E+007   -2.13025E+006    1.09971E+007   -2.78913E+006   -2.80636E+005    9.46053E+006   -3.39136E+004   -3.35816E+005    1.51417E+006
            2005    1.24323E+007    1.03184E+007    1.03184E+007   -8.78428E+005   -3.06044E+006    1.33789E+007   -2.12652E+006    1.19901E+007   -3.05045E+006   -5.77296E+005    1.00073E+007   -6.92217E+004   -3.58255E+005    1.81066E+006
            2006    1.34629E+007    1.11922E+007    1.11922E+007   -1.10534E+006   -3.19238E+006    1.43846E+007   -2.29815E+006    1.30915E+007   -3.18263E+006   -7.27182E+005    1.08043E+007   -9.88190E+004   -3.50548E+005    2.12397E+006
            2007    1.40038E+007    1.10695E+007    1.10695E+007   -2.15804E+006   -3.59900E+006    1.46685E+007   -1.77083E+006    1.38355E+007   -3.58781E+006   -2.00550E+006    1.09058E+007    1.02162E+005    3.39028E+005    1.42526E+006
            2008    1.40512E+007    1.12880E+007    1.12880E+007   -1.68185E+006   -3.63940E+006    1.49274E+007   -1.98890E+006    1.37394E+007   -3.62910E+006   -1.46458E+006    1.10604E+007    1.09902E+005    3.36931E+005    1.67233E+006
            2009    1.52965E+007    1.27001E+007    1.27001E+007   -1.45522E+006   -3.52650E+006    1.62266E+007   -2.57280E+006    1.49761E+007   -3.51693E+006   -1.20539E+006    1.24407E+007    1.08730E+005    3.41938E+005    1.87033E+006
            2010    1.65640E+007    1.41218E+007    1.41218E+007   -1.25197E+006   -3.41907E+006    1.75408E+007   -3.15024E+006    1.62404E+007   -3.41121E+006   -1.03086E+006    1.38928E+007    9.63645E+004    3.25532E+005    1.83609E+006
            2011    1.63077E+007    1.38755E+007    1.38755E+007   -1.60523E+006   -3.14918E+006    1.70247E+007   -3.04038E+006    1.61420E+007   -3.13573E+006   -1.42266E+006    1.36795E+007    4.87753E+004    4.75899E+005    1.67049E+006
            2012    1.56191E+007    1.33852E+007    1.33852E+007   -1.66093E+006   -2.74986E+006    1.61351E+007   -2.99147E+006    1.55334E+007   -2.73880E+006   -1.52098E+006    1.32342E+007    3.02298E+004    4.19581E+005    1.44433E+006
            2013    1.47910E+007    1.28073E+007    1.28073E+007   -1.58961E+006   -2.34859E+006    1.51559E+007   -2.95636E+006    1.47471E+007   -2.32759E+006   -1.50078E+006    1.26974E+007   -2.10081E+004    4.96436E+005    1.15765E+006
            2014    1.40180E+007    1.23236E+007    1.23236E+007   -1.48754E+006   -1.89234E+006    1.42160E+007   -2.98126E+006    1.40048E+007   -1.87876E+006   -1.43730E+006    1.22598E+007   -2.99637E+004    3.21825E+005    8.82608E+005
            2015    1.34057E+007    1.19165E+007    1.19165E+007   -1.37530E+006   -1.60016E+006    1.35167E+007   -2.98036E+006    1.34014E+007   -1.56564E+006   -1.37436E+006    1.18811E+007   -5.90057E+004    3.15092E+005    6.12420E+005
            2016    1.29491E+007    1.16395E+007    1.16395E+007   -1.23950E+006   -1.37857E+006    1.30181E+007   -3.00714E+006    1.29474E+007   -1.28929E+006   -1.31730E+006    1.16280E+007   -6.33083E+004    1.35759E+005    3.61546E+005
            2017    1.27415E+007    1.15066E+007    1.15066E+007   -1.14028E+006   -1.32743E+006    1.28340E+007   -3.01295E+006    1.27384E+007   -1.17372E+006   -1.29230E+006    1.15049E+007   -7.13609E+004    8.24347E+004    1.21463E+005
            2018    1.51059E+007    1.26268E+007    1.26268E+007   -1.60137E+006   -3.22566E+006    1.58524E+007   -2.59991E+006    1.49075E+007   -3.21178E+006   -1.35161E+006    1.23631E+007    4.27494E+004    4.63414E+005    1.86840E+006
            2019    1.46241E+007    1.24552E+007    1.24552E+007   -1.45263E+006   -2.79275E+006    1.52480E+007   -2.73662E+006    1.44849E+007   -2.78173E+006   -1.25212E+006    1.22437E+007    1.89352E+004    3.98476E+005    1.65982E+006
            2020    1.38743E+007    1.19848E+007    1.19848E+007   -1.28991E+006   -2.42007E+006    1.44048E+007   -2.75827E+006    1.37702E+007   -2.39904E+006   -1.15316E+006    1.18270E+007   -3.83740E+004    4.61956E+005    1.37157E+006
            2021    1.31924E+007    1.15971E+007    1.15971E+007   -1.15507E+006   -1.99527E+006    1.35924E+007   -2.81560E+006    1.31320E+007   -1.98109E+006   -1.07295E+006    1.15008E+007   -5.15683E+004    3.12842E+005    1.06366E+006
            2022    1.26722E+007    1.12950E+007    1.12950E+007   -1.02478E+006   -1.70245E+006    1.29974E+007   -2.85591E+006    1.26313E+007   -1.68030E+006   -9.94417E+005    1.12424E+007   -8.52827E+004    2.88919E+005    7.54422E+005
            2023    1.22372E+007    1.10384E+007    1.10384E+007   -9.31382E+005   -1.44971E+006    1.24881E+007   -2.88577E+006    1.22124E+007   -1.42795E+006   -9.33588E+005    1.10188E+007   -9.49536E+004    1.41955E+005    4.64482E+005
            2024    1.20395E+007    1.09270E+007    1.09270E+007   -8.72911E+005   -1.33870E+006    1.22657E+007   -2.90512E+006    1.20192E+007   -1.31284E+006   -8.96555E+005    1.09247E+007   -1.05099E+005    6.85153E+004    1.47840E+005
            2025    1.42024E+007    1.17347E+007    1.17347E+007   -1.54588E+006   -3.23791E+006    1.49726E+007   -2.31698E+006    1.39730E+007   -3.22474E+006   -1.26562E+006    1.14413E+007    4.73261E+004    4.38772E+005    1.90842E+006
            2026    1.35211E+007    1.14581E+007    1.14581E+007   -1.12061E+006   -2.84087E+006    1.42989E+007   -2.49886E+006    1.32716E+007   -2.83193E+006   -8.85385E+005    1.12139E+007    4.42957E+004    3.54516E+005    1.70338E+006
            2027    1.29989E+007    1.11859E+007    1.11859E+007   -9.77184E+005   -2.51247E+006    1.36984E+007   -2.56542E+006    1.27925E+007   -2.49613E+006   -8.19079E+005    1.10115E+007   -2.84350E+004    4.19772E+005    1.39359E+006
            2028    1.23740E+007    1.08785E+007    1.08785E+007   -7.68708E+005   -2.11251E+006    1.29910E+007   -2.66576E+006    1.22082E+007   -2.10114E+006   -6.60561E+005    1.07590E+007   -4.97608E+004    3.00982E+005    1.14066E+006
            2029    1.18419E+007    1.05679E+007    1.05679E+007   -6.07831E+005   -1.84327E+006    1.24112E+007   -2.70559E+006    1.16956E+007   -1.82867E+006   -5.53040E+005    1.04985E+007   -8.83679E+004    2.59702E+005    8.45199E+005
            2030    1.14061E+007    1.03387E+007    1.03387E+007   -4.48561E+005   -1.59912E+006    1.19378E+007   -2.76366E+006    1.12745E+007   -1.58654E+006   -4.35032E+005    1.03126E+007   -1.04818E+005    1.45485E+005    5.13323E+005
            2031    1.12109E+007    1.02336E+007    1.02336E+007   -3.84034E+005   -1.48862E+006    1.17223E+007   -2.78699E+006    1.10874E+007   -1.47546E+006   -3.94233E+005    1.02307E+007   -1.17874E+005    5.55940E+004    1.69946E+005
            2032    1.30543E+007    1.07677E+007    1.07677E+007   -1.06114E+006   -3.23823E+006    1.40060E+007   -2.15612E+006    1.26361E+007   -3.22183E+006   -7.89415E+005    1.04796E+007    2.44164E+004    4.65874E+005    1.77417E+006
            2033    1.29973E+007    1.09222E+007    1.09222E+007   -1.06398E+006   -2.89256E+006    1.38148E+007   -2.32189E+006    1.27031E+007   -2.88338E+006   -8.62691E+005    1.07117E+007    4.24650E+004    3.53298E+005    1.53963E+006
            2034    1.23653E+007    1.06080E+007    1.06080E+007   -7.23096E+005   -2.58124E+006    1.31892E+007   -2.43454E+006    1.20452E+007   -2.56921E+006   -5.26580E+005    1.03994E+007   -4.07677E+003    3.75495E+005    1.48436E+006
            2035    1.15721E+007    1.01146E+007    1.01146E+007   -4.38251E+005   -2.26062E+006    1.23752E+007   -2.47190E+006    1.12425E+007   -2.25092E+006   -3.00910E+005    9.96752E+006   -3.71151E+004    2.98619E+005    1.20771E+006
            2036    1.09692E+007    9.80623E+006    9.80623E+006   -1.20634E+005   -1.97021E+006    1.17764E+007   -2.57179E+006    1.06099E+007   -1.96107E+006   -5.20666E+004    9.72851E+006   -7.29549E+004    2.36236E+005    8.49590E+005
            2037    1.05912E+007    9.62234E+006    9.62234E+006    3.60848E+004   -1.74744E+006    1.13698E+007   -2.63700E+006    1.02452E+007   -1.73960E+006    5.60550E+004    9.59453E+006   -9.61956E+004    1.47587E+005    4.98917E+005
            2038    1.04069E+007    9.54843E+006    9.54843E+006    1.33590E+005   -1.62617E+006    1.11746E+007   -2.68528E+006    1.00640E+007   -1.61902E+006    1.29605E+005    9.54526E+006   -1.09502E+005    4.95324E+004    1.67071E+005
            2039    9.81191E+006    9.05328E+006    9.05328E+006    5.67016E+005   -1.69070E+006    1.07440E+007   -2.64320E+006    9.19984E+006   -1.68789E+006    5.65844E+005    9.05163E+006   -7.55722E+004    5.19526E+004    1.09208E+005
            2040    9.90845E+006    9.04753E+006    9.04753E+006    5.36899E+005   -1.83004E+006    1.08776E+007   -2.58480E+006    9.23969E+006   -1.82581E+006    5.51926E+005    9.02827E+006   -6.47804E+004    1.52885E+005    3.82142E+005
            2041    1.02058E+007    9.10551E+006    9.10551E+006    3.31187E+005   -2.09457E+006    1.12001E+007   -2.44737E+006    9.52418E+006   -2.08836E+006    3.91004E+005    9.03948E+006   -4.30810E+004    2.31739E+005    7.31398E+005
            2042    1.07421E+007    9.32280E+006    9.32280E+006   -4.19258E+003   -2.42218E+006    1.17450E+007   -2.29881E+006    1.01022E+007   -2.41364E+006    1.41917E+005    9.16815E+006   -1.49517E+004    2.98989E+005    1.16222E+006
            2043    1.16197E+007    9.80323E+006    9.80323E+006   -5.51226E+005   -2.76354E+006    1.25668E+007   -2.16282E+006    1.11309E+007   -2.75420E+006   -2.94543E+005    9.53720E+006    2.21167E+004    3.35218E+005    1.61060E+006
            2044    1.28093E+007    1.07813E+007    1.07813E+007   -8.64523E+005   -2.93829E+006    1.37196E+007   -2.32618E+006    1.24232E+007   -2.92829E+006   -5.11723E+005    1.04185E+007    5.17977E+004    3.65380E+005    1.99539E+006
            2045    1.41942E+007    1.17932E+007    1.17932E+007   -1.53211E+006   -3.13393E+006    1.49271E+007   -2.37572E+006    1.39887E+007   -3.12438E+006   -1.27740E+006    1.15289E+007    7.06924E+004    3.66604E+005    1.82478E+006
            2046    1.01959E+007    9.36396E+006    9.36396E+006    2.58142E+005   -1.65188E+006    1.10158E+007   -2.65674E+006    9.78116E+006   -1.64548E+006    2.54783E+005    9.36092E+006    1.07788E+005    4.90464E+004   -1.60832E+005
            2047    1.07800E+007    9.86635E+006    9.86635E+006   -1.31440E+005   -1.55456E+006    1.14209E+007   -2.72678E+006    1.05656E+007   -1.54507E+006   -1.37394E+005    9.86281E+006    1.13422E+005    5.42214E+004   -1.81699E+005
            2048    1.14611E+007    1.04384E+007    1.04384E+007   -5.54176E+005   -1.43976E+006    1.18782E+007   -2.81484E+006    1.13837E+007   -1.42219E+006   -5.68490E+005    1.04352E+007    1.21085E+005    6.92869E+004   -1.77980E+005
            2049    1.21362E+007    1.10063E+007    1.10063E+007   -9.39816E+005   -1.31139E+006    1.23177E+007   -2.91836E+006    1.21234E+007   -1.28559E+006   -9.62883E+005    1.10036E+007    9.23866E+004    8.39822E+004   -1.61565E+005
            2050    1.27254E+007    1.14881E+007    1.14881E+007   -1.13939E+006   -1.33300E+006    1.28211E+007   -3.00525E+006    1.27221E+007   -1.18069E+006   -1.28963E+006    1.14861E+007    7.88454E+004    9.87559E+004   -1.29253E+005
            2051    1.31693E+007    1.18517E+007    1.18517E+007   -1.08489E+006   -1.53850E+006    1.33902E+007   -3.07611E+006    1.31517E+007   -1.08862E+006   -1.53335E+006    1.18503E+007    4.48628E+004    1.07542E+005   -8.44608E+004
            2052    1.34226E+007    1.20555E+007    1.20555E+007   -1.05060E+006   -1.66273E+006    1.37182E+007   -3.11405E+006    1.33912E+007   -1.05014E+006   -1.66216E+006    1.20545E+007    1.70890E+004    1.11565E+005   -3.32116E+004
            2053    1.34457E+007    1.20762E+007    1.20762E+007   -1.03915E+006   -1.67714E+006    1.37533E+007   -3.11996E+006    1.34116E+007   -1.03844E+006   -1.67694E+006    1.20753E+007   -1.00209E+004    1.06995E+005    2.41586E+004
            2054    1.32276E+007    1.18991E+007    1.18991E+007   -1.08159E+006   -1.56231E+006    1.34614E+007   -3.08505E+006    1.32079E+007   -1.08563E+006   -1.55717E+006    1.18980E+007   -4.71479E+004    9.72292E+004    7.06766E+004
            2055    1.03839E+007    9.43279E+006    9.43279E+006    1.57355E+005   -1.78519E+006    1.12180E+007   -2.60165E+006    9.96271E+006   -1.77771E+006    1.78628E+005    9.40403E+006    9.48482E+004    1.55021E+005   -4.97519E+005
            2056    1.10311E+007    1.00004E+007    1.00004E+007   -2.46262E+005   -1.67573E+006    1.16761E+007   -2.69280E+006    1.08198E+007   -1.66591E+006   -2.26128E+005    9.97045E+006    9.84479E+004    1.52950E+005   -5.35865E+005
            2057    1.17315E+007    1.06005E+007    1.06005E+007   -6.52497E+005   -1.55706E+006    1.21576E+007   -2.79698E+006    1.16526E+007   -1.54027E+006   -6.42210E+005    1.05734E+007    1.08614E+005    1.51229E+005   -5.33537E+005
            2058    1.24121E+007    1.11801E+007    1.11801E+007   -1.02742E+006   -1.42685E+006    1.26070E+007   -2.90861E+006    1.23976E+007   -1.40643E+006   -1.02790E+006    1.11602E+007    7.93289E+004    1.42203E+005   -4.74056E+005
            2059    1.30090E+007    1.16795E+007    1.16795E+007   -1.25024E+006   -1.40729E+006    1.30868E+007   -3.00733E+006    1.30069E+007   -1.30213E+006   -1.34293E+006    1.16670E+007    7.03634E+004    1.39327E+005   -3.78760E+005
            2060    1.34490E+007    1.20449E+007    1.20449E+007   -1.20770E+006   -1.59225E+006    1.36371E+007   -3.08164E+006    1.34366E+007   -1.21091E+006   -1.58337E+006    1.20392E+007    3.88746E+004    1.29686E+005   -2.45284E+005
            2061    1.36879E+007    1.22434E+007    1.22434E+007   -1.17244E+006   -1.70122E+006    1.39446E+007   -3.12326E+006    1.36649E+007   -1.17169E+006   -1.70018E+006    1.22416E+007    1.51502E+004    1.28813E+005   -8.77424E+004
            2062    1.36962E+007    1.22508E+007    1.22508E+007   -1.15991E+006   -1.71410E+006    1.39649E+007   -3.12560E+006    1.36710E+007   -1.15887E+006   -1.71353E+006    1.22492E+007   -8.54414E+003    1.26618E+005    7.58825E+004
            2063    1.34453E+007    1.20453E+007    1.20453E+007   -1.20081E+006   -1.59067E+006    1.36360E+007   -3.08461E+006    1.34326E+007   -1.20482E+006   -1.58124E+006    1.20399E+007   -4.28963E+004    1.31727E+005    2.36945E+005
            2064    1.08183E+007    9.63051E+006    9.63051E+006   -7.07669E+004   -2.03546E+006    1.16660E+007   -2.50809E+006    1.04055E+007   -2.02640E+006    1.98458E+003    9.54870E+006    7.18260E+004    2.40221E+005   -8.61719E+005
            2065    1.15358E+007    1.02806E+007    1.02806E+007   -4.42513E+005   -1.92458E+006    1.22052E+007   -2.63784E+006    1.13186E+007   -1.91312E+006   -3.73494E+005    1.02001E+007    7.49297E+004    2.58361E+005   -8.95480E+005
            2066    1.22850E+007    1.09263E+007    1.09263E+007   -8.30100E+005   -1.82645E+006    1.27528E+007   -2.75660E+006    1.21936E+007   -1.80653E+006   -7.80206E+005    1.08565E+007    9.36475E+004    2.94646E+005   -8.60904E+005
            2067    1.29913E+007    1.15455E+007    1.15455E+007   -1.16938E+006   -1.70560E+006    1.32511E+007   -2.89016E+006    1.29663E+007   -1.68473E+006   -1.13629E+006    1.14915E+007    6.46515E+004    3.18302E+005   -7.67828E+005
            2068    1.36055E+007    1.20650E+007    1.20650E+007   -1.43693E+006   -1.64179E+006    1.37068E+007   -2.99542E+006    1.36020E+007   -1.59818E+006   -1.44472E+006    1.20292E+007    6.15395E+004    3.47848E+005   -6.05083E+005
            2069    1.40503E+007    1.24475E+007    1.24475E+007   -1.51180E+006   -1.69216E+006    1.41396E+007   -3.08117E+006    1.40477E+007   -1.51225E+006   -1.67182E+006    1.24276E+007    3.06896E+004    3.59103E+005   -3.88685E+005
            2070    1.42749E+007    1.26362E+007    1.26362E+007   -1.48605E+006   -1.78652E+006    1.44227E+007   -3.12122E+006    1.42678E+007   -1.47708E+006   -1.78487E+006    1.26256E+007    9.85128E+003    3.66905E+005   -1.24856E+005
            2071    1.42392E+007    1.26130E+007    1.26130E+007   -1.46690E+006   -1.78038E+006    1.43934E+007   -3.12191E+006    1.42315E+007   -1.45865E+006   -1.77814E+006    1.26025E+007   -1.20671E+004    3.56680E+005    1.44536E+005
            2072    1.39620E+007    1.23800E+007    1.23800E+007   -1.48703E+006   -1.67501E+006    1.40550E+007   -3.07266E+006    1.39591E+007   -1.49536E+006   -1.64678E+006    1.23601E+007   -4.37537E+004    3.42855E+005    4.01388E+005
            2073    1.14624E+007    9.97111E+006    9.97111E+006   -3.90607E+005   -2.34156E+006    1.23127E+007   -2.41298E+006    1.10796E+007   -2.33115E+006   -2.43579E+005    9.81367E+006    3.69316E+004    3.12240E+005   -1.23676E+006
            2074    1.21978E+007    1.06611E+007    1.06611E+007   -7.14561E+005   -2.21924E+006    1.28803E+007   -2.57575E+006    1.19863E+007   -2.20921E+006   -5.83561E+005    1.05200E+007    3.14862E+004    3.10190E+005   -1.22623E+006
            2075    1.29658E+007    1.13579E+007    1.13579E+007   -1.02737E+006   -2.11921E+006    1.34771E+007   -2.73712E+006    1.28617E+007   -2.10508E+006   -9.20957E+005    1.12374E+007    5.44583E+004    3.23520E+005   -1.17805E+006
            2076    1.37139E+007    1.20266E+007    1.20266E+007   -1.33968E+006   -2.01032E+006    1.40369E+007   -2.89220E+006    1.36769E+007   -1.99879E+006   -1.26156E+006    1.19369E+007    2.77160E+004    3.23457E+005   -1.04568E+006
            2077    1.43729E+007    1.26125E+007    1.26125E+007   -1.57793E+006   -1.93619E+006    1.45486E+007   -3.03278E+006    1.43628E+007   -1.91984E+006   -1.53853E+006    1.25567E+007    3.53362E+004    3.37714E+005   -8.24116E+005
            2078    1.48339E+007    1.30201E+007    1.30201E+007   -1.76761E+006   -1.85956E+006    1.48796E+007   -3.13097E+006    1.48332E+007   -1.84354E+006   -1.75860E+006    1.29951E+007    1.51038E+004    3.35228E+005   -5.08417E+005
            2079    1.50518E+007    1.32172E+007    1.32172E+007   -1.81416E+006   -1.85504E+006    1.50722E+007   -3.18266E+006    1.50517E+007   -1.80888E+006   -1.85118E+006    1.32080E+007    6.48246E+003    3.41588E+005   -1.44566E+005
            2080    1.49818E+007    1.31560E+007    1.31560E+007   -1.79756E+006   -1.85391E+006    1.50099E+007   -3.16817E+006    1.49816E+007   -1.79159E+006   -1.84825E+006    1.31444E+007   -3.63422E+003    3.35076E+005    2.48723E+005
            2081    1.46218E+007    1.28484E+007    1.28484E+007   -1.70551E+006   -1.84035E+006    1.46888E+007   -3.10086E+006    1.46204E+007   -1.82071E+006   -1.69333E+006    1.28166E+007   -2.50518E+004    3.32657E+005    5.94777E+005
            2082    1.22785E+007    1.04393E+007    1.04393E+007   -7.64220E+005   -2.68726E+006    1.31266E+007   -2.32927E+006    1.19326E+007   -2.67533E+006   -5.51170E+005    1.02143E+007    4.41571E+003    3.71757E+005   -1.53530E+006
            2083    1.29936E+007    1.11416E+007    1.11416E+007   -9.53809E+005   -2.59431E+006    1.37360E+007   -2.53117E+006    1.27575E+007   -2.58047E+006   -7.64604E+005    1.09386E+007    3.38227E+002    4.12183E+005   -1.50669E+006
            2084    1.37987E+007    1.18633E+007    1.18633E+007   -1.23162E+006   -2.54509E+006    1.44084E+007   -2.69554E+006    1.36569E+007   -2.52363E+006   -1.07619E+006    1.16864E+007    3.88545E+004    4.73291E+005   -1.44606E+006
            2085    1.46153E+007    1.26206E+007    1.26206E+007   -1.48534E+006   -2.45563E+006    1.50763E+007   -2.89322E+006    1.45426E+007   -2.43592E+006   -1.36730E+006    1.24829E+007    1.06029E+004    4.99437E+005   -1.30232E+006
            2086    1.53405E+007    1.32757E+007    1.32757E+007   -1.69784E+006   -2.40727E+006    1.56829E+007   -3.05686E+006    1.53036E+007   -2.38396E+006   -1.63341E+006    1.31879E+007    2.22608E+004    5.39413E+005   -1.01621E+006
            2087    1.58562E+007    1.37522E+007    1.37522E+007   -1.85811E+006   -2.33885E+006    1.60911E+007   -3.18508E+006    1.58397E+007   -2.31827E+006   -1.83511E+006    1.37086E+007    5.57828E+003    5.53245E+005   -6.18656E+005
            2088    1.60608E+007    1.39415E+007    1.39415E+007   -1.92045E+006   -2.31114E+006    1.62526E+007   -3.23663E+006    1.60501E+007   -2.29151E+006   -1.91951E+006    1.39209E+007    9.30011E+001    5.63711E+005   -1.25346E+005
            2089    1.59410E+007    1.38414E+007    1.38414E+007   -1.90292E+006   -2.28920E+006    1.61306E+007   -3.21644E+006    1.59305E+007   -2.26959E+006   -1.89551E+006    1.38144E+007   -4.81428E+003    5.50969E+005    3.58946E+005
            2090    1.55081E+007    1.34423E+007    1.34423E+007   -1.80076E+006   -2.31805E+006    1.57603E+007   -3.10782E+006    1.54887E+007   -2.29503E+006   -1.76206E+006    1.33805E+007   -2.23264E+004    5.33708E+005    8.15153E+005
            2091    1.30249E+007    1.09269E+007    1.09269E+007   -1.02402E+006   -2.95616E+006    1.38830E+007   -2.31557E+006    1.26965E+007   -2.94595E+006   -7.57271E+005    1.06499E+007   -3.32828E+004    3.70624E+005   -1.76554E+006
            2092    1.36718E+007    1.15515E+007    1.15515E+007   -1.17925E+006   -2.89860E+006    1.44501E+007   -2.49123E+006    1.34253E+007   -2.88955E+006   -9.44432E+005    1.13077E+007   -7.38232E+004    3.46610E+005   -1.71383E+006
            2093    1.45375E+007    1.23702E+007    1.23702E+007   -1.33839E+006   -2.87430E+006    1.52445E+007   -2.71916E+006    1.43533E+007   -2.86407E+006   -1.12385E+006    1.21454E+007   -2.54678E+004    3.87785E+005   -1.70225E+006
            2094    1.55140E+007    1.32816E+007    1.32816E+007   -1.57266E+006   -2.81728E+006    1.60989E+007   -2.96388E+006    1.54011E+007   -2.80696E+006   -1.40732E+006    1.31059E+007   -4.18933E+004    4.05285E+005   -1.55790E+006
            2095    1.63956E+007    1.41232E+007    1.41232E+007   -1.72062E+006   -2.77335E+006    1.68966E+007   -3.20975E+006    1.63193E+007   -2.76194E+006   -1.62790E+006    1.40191E+007   -1.71521E+004    4.34213E+005   -1.20968E+006
            2096    1.69672E+007    1.46844E+007    1.46844E+007   -1.80745E+006   -2.72125E+006    1.74057E+007   -3.38523E+006    1.69117E+007   -2.70977E+006   -1.77839E+006    1.46439E+007   -1.42006E+004    4.46162E+005   -6.91748E+005
            2097    1.72002E+007    1.49201E+007    1.49201E+007   -1.83142E+006   -2.69609E+006    1.76162E+007   -3.46420E+006    1.71512E+007   -2.68414E+006   -1.83070E+006    1.49074E+007   -3.59702E+002    4.58493E+005   -1.10111E+005
            2098    1.70322E+007    1.47496E+007    1.47496E+007   -1.84069E+006   -2.69242E+006    1.74421E+007   -3.40551E+006    1.69842E+007   -2.68058E+006   -1.82507E+006    1.47222E+007    1.28524E+004    4.54071E+005    5.08794E+005
            2099    1.64959E+007    1.42380E+007    1.42380E+007   -1.76351E+006   -2.71136E+006    1.69494E+007   -3.25439E+006    1.64345E+007   -2.69936E+006   -1.69689E+006    1.41594E+007    1.38297E+004    4.46228E+005    1.03177E+006
            2100    1.36150E+007    1.12396E+007    1.12396E+007   -1.27474E+006   -3.25837E+006    1.44980E+007   -2.23549E+006    1.32840E+007   -3.24374E+006   -1.01336E+006    1.09636E+007   -2.61331E+004    4.48897E+005   -1.79125E+006
            2101    1.41343E+007    1.17676E+007    1.17676E+007   -1.29385E+006   -3.23822E+006    1.50059E+007   -2.41186E+006    1.38286E+007   -3.22468E+006   -1.00664E+006    1.14669E+007   -6.91350E+004    4.45209E+005   -1.91445E+006
            2102    1.51602E+007    1.26877E+007    1.26877E+007   -1.53162E+006   -3.26451E+006    1.59522E+007   -2.63052E+006    1.49350E+007   -3.25038E+006   -1.26224E+006    1.24042E+007   -4.12364E+004    4.67863E+005   -1.93871E+006
            2103    1.62646E+007    1.38027E+007    1.38027E+007   -1.60161E+006   -3.20350E+006    1.70062E+007   -2.99921E+006    1.60856E+007   -3.19001E+006   -1.39767E+006    1.35853E+007   -5.64692E+004    4.75384E+005   -1.75989E+006
            2104    1.72508E+007    1.48494E+007    1.48494E+007   -1.56526E+006   -3.13089E+006    1.79803E+007   -3.38440E+006    1.70899E+007   -3.11734E+006   -1.44990E+006    1.47204E+007   -3.68870E+004    4.91851E+005   -1.37075E+006
            2105    1.79753E+007    1.56131E+007    1.56131E+007   -1.56391E+006   -3.06627E+006    1.86794E+007   -3.66097E+006    1.78333E+007   -3.05293E+006   -1.52712E+006    1.55630E+007   -2.49047E+004    4.98466E+005   -7.93797E+005
            2106    1.82379E+007    1.58852E+007    1.58852E+007   -1.57143E+006   -3.04470E+006    1.89299E+007   -3.75635E+006    1.81033E+007   -3.03131E+006   -1.57125E+006    1.58716E+007   -1.04562E+003    5.03286E+005   -5.53342E+004
            2107    1.80192E+007    1.56605E+007    1.56605E+007   -1.57697E+006   -3.05005E+006    1.87105E+007   -3.67782E+006    1.78830E+007   -3.03663E+006   -1.55072E+006    1.56208E+007    2.06142E+004    5.00347E+005    6.71907E+005
            2108    1.72965E+007    1.48951E+007    1.48951E+007   -1.59991E+006   -3.10465E+006    1.79997E+007   -3.39684E+006    1.71483E+007   -3.09097E+006   -1.49935E+006    1.47809E+007    3.52180E+004    4.94668E+005    1.28351E+006
            2109    1.78854E+007    1.56630E+007    1.56630E+007   -9.98669E+005   -3.23564E+006    1.88987E+007   -3.80957E+006    1.75665E+007   -3.22960E+006   -8.64074E+005    1.55224E+007    7.26090E+004    3.06719E+005    1.49616E+006
            2110    1.87917E+007    1.67404E+007    1.67404E+007   -8.03306E+005   -3.08997E+006    1.98304E+007   -4.28237E+006    1.84748E+007   -3.08551E+006   -7.61220E+005    1.66938E+007    3.80794E+004    2.87398E+005    8.60682E+005
            2111    1.91865E+007    1.72165E+007    1.72165E+007   -7.20296E+005   -3.01367E+006    2.02301E+007   -4.49417E+006    1.88745E+007   -3.00975E+006   -7.20286E+005    1.72125E+007    7.01495E+002    2.81557E+005   -1.32396E+004
            2112    1.87868E+007    1.67308E+007    1.67308E+007   -8.07667E+005   -3.09500E+006    1.98258E+007   -4.27604E+006    1.84697E+007   -3.09062E+006   -7.63178E+005    1.66819E+007   -3.80871E+004    2.84760E+005   -8.84526E+005
            2113    1.78685E+007    1.56286E+007    1.56286E+007   -1.01854E+006   -3.25143E+006    1.88800E+007   -3.78620E+006    1.75505E+007   -3.24558E+006   -8.79092E+005    1.54833E+007   -7.22719E+004    3.00924E+005   -1.52179E+006
            2114    1.66541E+007    1.42094E+007    1.42094E+007   -1.25604E+006   -3.42153E+006    1.76309E+007   -3.17727E+006    1.63328E+007   -3.41390E+006   -1.03510E+006    1.39808E+007   -9.68018E+004    3.18160E+005   -1.84131E+006
            2115    1.54132E+007    1.27568E+007    1.27568E+007   -1.54522E+006   -3.56781E+006    1.63246E+007   -2.54793E+006    1.51103E+007   -3.55836E+006   -1.29248E+006    1.24946E+007   -1.12675E+005    3.30516E+005   -1.89227E+006
            2116    1.46042E+007    1.18414E+007    1.18414E+007   -1.75811E+006   -3.59404E+006    1.54354E+007   -2.16307E+006    1.43412E+007   -3.58400E+006   -1.51255E+006    1.15858E+007   -1.09546E+005    3.36666E+005   -1.81830E+006
            2117    1.43072E+007    1.18189E+007    1.18189E+007   -1.43051E+006   -3.35200E+006    1.51709E+007   -2.34546E+006    1.40125E+007   -3.34253E+006   -1.10871E+006    1.14876E+007   -9.89843E+004    3.47525E+005   -2.04206E+006
            2118    9.75006E+006    9.00509E+006    9.00509E+006    5.96601E+005   -1.68271E+006    1.06878E+007   -2.63966E+006    9.12126E+006   -1.68029E+006    5.95960E+005    9.00332E+006    6.97918E+004    5.13933E+004   -1.13792E+005
            2119    9.87348E+006    9.01036E+006    9.01036E+006    5.35967E+005   -1.83169E+006    1.08420E+007   -2.57155E+006    9.20167E+006   -1.82782E+006    5.50972E+005    8.99149E+006    5.76716E+004    1.54026E+005   -3.76498E+005
            2120    1.01899E+007    9.07246E+006    9.07246E+006    3.17343E+005   -2.11287E+006    1.11853E+007   -2.42564E+006    9.50454E+006   -2.10687E+006    3.78424E+005    9.00538E+006    3.40932E+004    2.35505E+005   -7.35601E+005
            2121    1.07631E+007    9.28337E+006    9.28337E+006   -8.76252E+004   -2.47195E+006    1.17553E+007   -2.24126E+006    1.01430E+007   -2.46370E+006    5.09385E+004    9.13656E+006    1.02140E+003    3.02080E+005   -1.13303E+006
            2122    1.15553E+007    9.72224E+006    9.72224E+006   -5.17278E+005   -2.80627E+006    1.25285E+007   -2.13290E+006    1.10278E+007   -2.79705E+006   -2.82699E+005    9.47845E+006   -3.54779E+004    3.36116E+005   -1.53164E+006
            2123    1.24692E+007    1.03456E+007    1.03456E+007   -8.93975E+005   -3.06750E+006    1.34131E+007   -2.12805E+006    1.20319E+007   -3.05745E+006   -5.88925E+005    1.00305E+007   -7.04699E+004    3.59510E+005   -1.82567E+006
            2124    1.34565E+007    1.11856E+007    1.11856E+007   -1.10143E+006   -3.19501E+006    1.43806E+007   -2.29638E+006    1.30826E+007   -3.18533E+006   -7.23231E+005    1.07977E+007   -1.00009E+005    3.47693E+005   -2.12332E+006
            2125    1.04564E+007    9.56739E+006    9.56739E+006    1.39554E+005   -1.67897E+006    1.12464E+007   -2.67599E+006    1.00914E+007   -1.67812E+006    1.41740E+005    9.56435E+006   -3.83901E+004   -1.73478E+004   -1.68431E+005
            2126    1.12683E+007    1.02487E+007    1.02487E+007   -3.98430E+005   -1.55212E+006    1.18008E+007   -2.76603E+006    1.11343E+007   -1.55083E+006   -3.96828E+005    1.02458E+007   -3.83294E+004   -1.09872E+004   -1.75329E+005
            2127    1.20914E+007    1.09372E+007    1.09372E+007   -8.89642E+005   -1.40240E+006    1.23396E+007   -2.88172E+006    1.20669E+007   -1.40041E+006   -8.89631E+005    1.09352E+007   -3.19006E+004   -3.13416E+002   -1.53938E+005
            2128    1.27923E+007    1.15089E+007    1.15089E+007   -1.25368E+006   -1.31289E+006    1.28218E+007   -2.98078E+006    1.27920E+007   -1.27072E+006   -1.29462E+006    1.15077E+007   -2.69324E+004    1.16229E+004   -1.24843E+005
            2129    1.06511E+007    9.65058E+006    9.65058E+006    4.07742E+004   -1.80146E+006    1.14520E+007   -2.62997E+006    1.02835E+007   -1.80046E+006    6.68200E+004    9.62354E+006   -3.53184E+004   -5.13825E+004   -5.07070E+005
            2130    1.14776E+007    1.03645E+007    1.03645E+007   -4.61198E+005   -1.66952E+006    1.20340E+007   -2.74459E+006    1.13332E+007   -1.66794E+006   -4.37780E+005    1.03395E+007   -3.63771E+004   -6.21998E+004   -5.16517E+005
            2131    1.23116E+007    1.10630E+007    1.10630E+007   -9.44919E+005   -1.53140E+006    1.25944E+007   -2.86223E+006    1.22802E+007   -1.52887E+006   -9.28544E+005    1.10441E+007   -3.17913E+004   -7.69607E+004   -4.70295E+005
            2132    1.30327E+007    1.16635E+007    1.16635E+007   -1.32146E+006   -1.41644E+006    1.30799E+007   -2.97519E+006    1.30319E+007   -1.40403E+006   -1.32305E+006    1.16527E+007   -2.86457E+004   -9.40955E+004   -3.62998E+005
            2133    1.10253E+007    9.83800E+006    9.83800E+006   -1.19219E+005   -2.01066E+006    1.18487E+007   -2.56937E+006    1.06511E+007   -2.00963E+006   -4.41317E+004    9.76188E+006   -2.64721E+004   -7.57752E+004   -8.64681E+005
            2134    1.18873E+007    1.05840E+007    1.05840E+007   -6.18908E+005   -1.88609E+006    1.24701E+007   -2.69302E+006    1.17339E+007   -1.88505E+006   -5.53239E+005    1.05173E+007   -2.41513E+004   -6.84362E+004   -8.59607E+005
            2135    1.27215E+007    1.13149E+007    1.13149E+007   -1.03117E+006   -1.75137E+006    1.30663E+007   -2.84413E+006    1.26755E+007   -1.75036E+006   -9.83719E+005    1.12665E+007   -1.94924E+004   -5.98358E+004   -7.69940E+005
            2136    1.34682E+007    1.19426E+007    1.19426E+007   -1.40285E+006   -1.64515E+006    1.35877E+007   -2.96485E+006    1.34633E+007   -1.64315E+006   -1.37514E+006    1.19128E+007   -1.81778E+004   -5.47429E+004   -6.26782E+005
            2137    1.16461E+007    1.01638E+007    1.01638E+007   -4.36016E+005   -2.30304E+006    1.24668E+007   -2.47490E+006    1.13020E+007   -2.30156E+006   -2.93847E+005    1.00201E+007   -1.85153E+004   -1.11767E+005   -1.22152E+006
            2138    1.24706E+007    1.09302E+007    1.09302E+007   -7.84900E+005   -2.17875E+006    1.31089E+007   -2.65551E+006    1.22935E+007   -2.17641E+006   -6.69401E+005    1.08124E+007   -2.33975E+004   -1.36623E+005   -1.16229E+006
            2139    1.32924E+007    1.16462E+007    1.16462E+007   -1.16249E+006   -2.08214E+006    1.37283E+007   -2.80051E+006    1.32205E+007   -2.07914E+006   -1.07274E+006    1.15534E+007   -2.15244E+004   -1.54929E+005   -1.07603E+006
            2140    1.41148E+007    1.23636E+007    1.23636E+007   -1.49568E+006   -1.99350E+006    1.43571E+007   -2.95813E+006    1.40950E+007   -1.98882E+006   -1.43970E+006    1.23029E+007   -2.40608E+004   -1.76989E+005   -8.98690E+005
            2141    1.24140E+007    1.06572E+007    1.06572E+007   -7.21416E+005   -2.58203E+006    1.32393E+007   -2.45126E+006    1.20943E+007   -2.58116E+006   -5.18089E+005    1.04530E+007    8.54237E+002   -1.02889E+005   -1.50767E+006
            2142    1.30637E+007    1.12436E+007    1.12436E+007   -9.97605E+005   -2.51087E+006    1.37545E+007   -2.57837E+006    1.28643E+007   -2.51021E+006   -8.28955E+005    1.10743E+007    3.67131E+003   -9.26531E+004   -1.42701E+006
            2143    1.39609E+007    1.20646E+007    1.20646E+007   -1.29419E+006   -2.42919E+006    1.44938E+007   -2.78040E+006    1.38565E+007   -2.42859E+006   -1.14635E+006    1.19161E+007    7.98643E+003   -9.21502E+004   -1.39752E+006
            2144    1.48736E+007    1.28814E+007    1.28814E+007   -1.58792E+006   -2.36581E+006    1.52472E+007   -2.97590E+006    1.48277E+007   -2.36506E+006   -1.49150E+006    1.27843E+007   -1.49271E+003   -9.88439E+004   -1.17791E+006
            2145    1.30379E+007    1.09567E+007    1.09567E+007   -1.05702E+006   -2.90750E+006    1.38642E+007   -2.33074E+006    1.27374E+007   -2.90540E+006   -8.54460E+005    1.07521E+007   -1.71327E+003   -1.60264E+005   -1.54770E+006
            2146    1.35914E+007    1.15089E+007    1.15089E+007   -1.14313E+006   -2.85886E+006    1.43678E+007   -2.50232E+006    1.33445E+007   -2.85541E+006   -9.01292E+005    1.12637E+007   -1.52775E+004   -1.91032E+005   -1.73585E+006
            2147    1.46815E+007    1.24945E+007    1.24945E+007   -1.47093E+006   -2.81118E+006    1.53057E+007   -2.73746E+006    1.45429E+007   -2.80854E+006   -1.26573E+006    1.22866E+007    1.43893E+003   -1.88659E+005   -1.68164E+006
            2148    1.56670E+007    1.34194E+007    1.34194E+007   -1.66686E+006   -2.77008E+006    1.61895E+007   -2.99415E+006    1.55793E+007   -2.76664E+006   -1.52439E+006    1.32735E+007   -9.85411E+003   -2.07806E+005   -1.46323E+006
            2149    1.30985E+007    1.08648E+007    1.08648E+007   -1.04449E+006   -3.16442E+006    1.40292E+007   -2.21863E+006    1.27040E+007   -3.16294E+006   -7.65251E+005    1.05841E+007    5.95934E+004   -5.06841E+004   -1.80606E+006
            2150    1.42610E+007    1.18339E+007    1.18339E+007   -1.53101E+006   -3.17996E+006    1.50138E+007   -2.37430E+006    1.40441E+007   -3.17908E+006   -1.25158E+006    1.15535E+007    2.99995E+004   -1.01989E+005   -1.91260E+006
            2151    1.51763E+007    1.27445E+007    1.27445E+007   -1.57950E+006   -3.16026E+006    1.59048E+007   -2.66825E+006    1.49894E+007   -3.15928E+006   -1.32846E+006    1.24925E+007    3.44757E+004   -1.02912E+005   -1.88055E+006
            2152    1.63629E+007    1.39850E+007    1.39850E+007   -1.57635E+006   -3.07613E+006    1.70612E+007   -3.11085E+006    1.62072E+007   -3.07526E+006   -1.39331E+006    1.38011E+007    2.11365E+004   -1.16695E+005   -1.67793E+006
            2153    1.64847E+007    1.41125E+007    1.41125E+007   -1.26347E+006   -3.29293E+006    1.74055E+007   -3.18538E+006    1.62001E+007   -3.29194E+006   -1.03307E+006    1.38811E+007    3.09366E+004   -1.20100E+005   -1.86851E+006
            2154    1.52479E+007    1.27128E+007    1.27128E+007   -1.46242E+006   -3.41889E+006    1.61317E+007   -2.61051E+006    1.49616E+007   -3.41779E+006   -1.20055E+006    1.24499E+007    3.29813E+004   -1.22098E+005   -1.90921E+006
            2155    1.40057E+007    1.12979E+007    1.12979E+007   -1.68232E+006   -3.54642E+006    1.48444E+007   -2.02307E+006    1.37224E+007   -3.54520E+006   -1.44698E+006    1.10614E+007    2.77311E+004   -1.28747E+005   -1.73200E+006
            2156    1.39183E+007    1.10139E+007    1.10139E+007   -2.17571E+006   -3.53341E+006    1.45474E+007   -1.76827E+006    1.37681E+007   -3.53215E+006   -2.00998E+006    1.08470E+007    1.46500E+004   -1.34884E+005   -1.46909E+006
            2157    9.86641E+006    9.08485E+006    9.08485E+006    5.62766E+005   -1.72422E+006    1.08091E+007   -2.64113E+006    9.24139E+006   -1.72401E+006    5.63921E+005    9.08349E+006   -1.96002E+004   -1.85424E+004   -1.06316E+005
            2158    9.96036E+006    9.07902E+006    9.07902E+006    5.30217E+005   -1.85850E+006    1.09375E+007   -2.58358E+006    9.28250E+006   -1.85818E+006    5.47851E+005    9.06106E+006   -1.45822E+004   -4.87704E+004   -3.89154E+005
            2159    1.02486E+007    9.13431E+006    9.13431E+006    3.27632E+005   -2.11495E+006    1.12493E+007   -2.44900E+006    9.56027E+006   -2.11434E+006    3.91399E+005    9.06993E+006   -5.90175E+003   -7.93157E+004   -7.47022E+005
            2160    1.07857E+007    9.36276E+006    9.36276E+006   -7.94134E+003   -2.42708E+006    1.17898E+007   -2.30925E+006    1.01480E+007   -2.42627E+006    1.45732E+005    9.20827E+006    6.65218E+003   -9.67444E+004   -1.19013E+006
            2161    1.16680E+007    9.85431E+006    9.85431E+006   -5.68104E+005   -2.75101E+006    1.26053E+007   -2.17840E+006    1.11947E+007   -2.74997E+006   -3.01053E+005    9.58622E+006    1.76589E+004   -1.13086E+005   -1.64673E+006
            2162    1.28635E+007    1.08510E+007    1.08510E+007   -8.87747E+005   -2.90004E+006    1.37510E+007   -2.35440E+006    1.25020E+007   -2.89888E+006   -5.25927E+005    1.04880E+007    3.41004E+004   -1.17877E+005   -2.02902E+006
            2163    1.41581E+007    1.17826E+007    1.17826E+007   -1.55792E+006   -3.07152E+006    1.48541E+007   -2.38438E+006    1.39743E+007   -3.07026E+006   -1.29505E+006    1.15184E+007    3.26355E+004   -1.25616E+005   -1.85453E+006
            2164    1.77643E+007    1.56189E+007    1.56189E+007   -1.00942E+006   -3.09692E+006    1.87158E+007   -3.83752E+006    1.74851E+007   -3.09612E+006   -8.68655E+005    1.54773E+007    2.42511E+004   -1.13903E+005   -1.52388E+006
            2165    1.86563E+007    1.66907E+007    1.66907E+007   -8.09642E+005   -2.93896E+006    1.96296E+007   -4.31403E+006    1.83800E+007   -2.93829E+006   -7.64312E+005    1.66447E+007    1.39338E+004   -1.11331E+005   -8.89815E+005
            2166    1.90522E+007    1.71770E+007    1.71770E+007   -7.13306E+005   -2.85585E+006    2.00329E+007   -4.53595E+006    1.87782E+007   -2.85526E+006   -7.13306E+005    1.71764E+007    1.22302E+002   -1.08546E+005   -1.33373E+003
            2167    1.86753E+007    1.67202E+007    1.67202E+007   -7.94631E+005   -2.93174E+006    1.96519E+007   -4.33128E+006    1.83972E+007   -2.93108E+006   -7.49379E+005    1.66743E+007   -1.34546E+004   -1.10885E+005    8.89383E+005
            2168    1.77433E+007    1.55912E+007    1.55912E+007   -1.01256E+006   -3.10594E+006    1.86971E+007   -3.82423E+006    1.74622E+007   -3.10513E+006   -8.67874E+005    1.54457E+007   -2.40524E+004   -1.14771E+005    1.54359E+006
            2169    1.65184E+007    1.41465E+007    1.41465E+007   -1.26372E+006   -3.29266E+006    1.74392E+007   -3.19670E+006    1.62345E+007   -3.29165E+006   -1.03292E+006    1.39147E+007   -3.18932E+004   -1.20452E+005    1.87228E+006
            2170    1.52688E+007    1.26621E+007    1.26621E+007   -1.57066E+006   -3.46581E+006    1.61279E+007   -2.54188E+006    1.50008E+007   -3.46470E+006   -1.30516E+006    1.23955E+007   -2.99186E+004   -1.25595E+005    1.92590E+006
            2171    1.44741E+007    1.17436E+007    1.17436E+007   -1.80294E+006   -3.50718E+006    1.52508E+007   -2.14451E+006    1.42458E+007   -3.50589E+006   -1.54593E+006    1.14853E+007   -3.07294E+004   -1.32665E+005    1.84835E+006
            2172    1.42720E+007    1.17943E+007    1.17943E+007   -1.50934E+006   -3.28082E+006    1.50751E+007   -2.33470E+006    1.40215E+007   -3.27922E+006   -1.17367E+006    1.14570E+007   -4.60962E+004   -1.32451E+005    2.08734E+006
            2173    1.73484E+007    1.50120E+007    1.50120E+007   -1.57005E+006   -3.01262E+006    1.80246E+007   -3.47644E+006    1.72127E+007   -3.01180E+006   -1.46832E+006    1.49095E+007    1.97025E+004   -1.14396E+005   -1.29523E+006
            2174    1.65277E+007    1.42598E+007    1.42598E+007   -1.77363E+006   -2.72149E+006    1.69813E+007   -3.25489E+006    1.64664E+007   -2.71868E+006   -1.70513E+006    1.41885E+007    2.63848E+003   -2.13504E+005   -1.04667E+006
            2175    1.55973E+007    1.35311E+007    1.35311E+007   -1.79557E+006   -2.32345E+006    1.58546E+007   -3.13737E+006    1.55772E+007   -2.32284E+006   -1.75085E+006    1.34858E+007    8.10297E+003   -9.64110E+004   -8.26839E+005
            2176    1.47241E+007    1.28917E+007    1.28917E+007   -1.72787E+006   -1.93470E+006    1.48264E+007   -3.07637E+006    1.47208E+007   -1.93066E+006   -1.70509E+006    1.28649E+007   -1.03365E+004   -1.90739E+005   -5.96484E+005
            2177    1.40257E+007    1.24117E+007    1.24117E+007   -1.56629E+006   -1.66117E+006    1.40729E+007   -3.06141E+006    1.40249E+007   -1.56650E+006   -1.64940E+006    1.24001E+007   -4.51005E+003   -4.42410E+004   -4.00535E+005
            2178    1.35268E+007    1.20673E+007    1.20673E+007   -1.31946E+006   -1.59532E+006    1.36626E+007   -3.05083E+006    1.35205E+007   -1.31938E+006   -1.59062E+006    1.20625E+007   -1.28622E+004   -1.07944E+005   -2.31226E+005
            2179    1.32733E+007    1.18999E+007    1.18999E+007   -1.17850E+006   -1.56006E+006    1.34599E+007   -3.05377E+006    1.32609E+007   -1.17876E+006   -1.55936E+006    1.18994E+007   -1.09403E+004    2.41839E+004   -7.24190E+004
            2180    1.80636E+007    1.57805E+007    1.57805E+007   -1.53263E+006   -2.94999E+006    1.87305E+007   -3.76596E+006    1.79378E+007   -2.94926E+006   -1.50567E+006    1.57528E+007    8.38206E+003   -1.15927E+005   -6.82794E+005
            2181    1.70636E+007    1.47741E+007    1.47741E+007   -1.83883E+006   -2.70705E+006    1.74812E+007   -3.40941E+006    1.70138E+007   -2.70402E+006   -1.82291E+006    1.47552E+007   -2.99090E+003   -2.25814E+005   -5.15905E+005
            2182    1.60294E+007    1.39309E+007    1.39309E+007   -1.88496E+006   -2.30377E+006    1.62347E+007   -3.24740E+006    1.60171E+007   -2.30314E+006   -1.87706E+006    1.39224E+007   -2.09863E+001   -1.00176E+005   -3.53653E+005
            2183    1.50821E+007    1.31959E+007    1.31959E+007   -1.85790E+006   -1.91431E+006    1.51102E+007   -3.14124E+006    1.50819E+007   -1.90899E+006   -1.85667E+006    1.31894E+007   -8.41675E+003   -2.05670E+005   -2.37779E+005
            2184    1.42930E+007    1.26354E+007    1.26354E+007   -1.53502E+006   -1.77713E+006    1.44125E+007   -3.10775E+006    1.42884E+007   -1.53498E+006   -1.77572E+006    1.26340E+007   -3.73341E+003   -4.09304E+004   -1.38479E+005
            2185    1.37700E+007    1.22639E+007    1.22639E+007   -1.28374E+006   -1.71827E+006    1.39822E+007   -3.08729E+006    1.37546E+007   -1.28284E+006   -1.71776E+006    1.22625E+007   -7.78386E+003   -1.20352E+005   -7.02378E+004
            2186    1.34897E+007    1.20726E+007    1.20726E+007   -1.13949E+006   -1.67863E+006    1.37512E+007   -3.08482E+006    1.34654E+007   -1.13947E+006   -1.67852E+006    1.20724E+007   -5.85422E+003    3.27576E+004   -2.46023E+004
            2187    1.82915E+007    1.60161E+007    1.60161E+007   -1.53244E+006   -2.93742E+006    1.89535E+007   -3.84875E+006    1.81695E+007   -2.93675E+006   -1.53231E+006    1.60153E+007   -6.25066E+002   -1.12235E+005    4.73891E+004
            2188    1.72253E+007    1.49390E+007    1.49390E+007   -1.83775E+006   -2.70230E+006    1.76413E+007   -3.46633E+006    1.71764E+007   -2.69941E+006   -1.83692E+006    1.49353E+007   -8.66979E+002   -2.25477E+005    1.18396E+005
            2189    1.61318E+007    1.40172E+007    1.40172E+007   -1.91081E+006   -2.31095E+006    1.63281E+007   -3.26514E+006    1.61206E+007   -2.31039E+006   -1.90953E+006    1.40153E+007    1.09648E+003   -9.48585E+004    1.43513E+005
            2190    1.51256E+007    1.32350E+007    1.32350E+007   -1.86551E+006   -1.91554E+006    1.51505E+007   -3.15131E+006    1.51254E+007   -1.91252E+006   -1.86397E+006    1.32304E+007    1.10993E+003   -2.05817E+005    1.63120E+005
            2191    1.43064E+007    1.26434E+007    1.26434E+007   -1.53825E+006   -1.78465E+006    1.44280E+007   -3.10683E+006    1.43017E+007   -1.53824E+006   -1.78329E+006    1.26420E+007    4.10040E+003   -3.54431E+004    1.35897E+005
            2192    1.37516E+007    1.22493E+007    1.22493E+007   -1.28506E+006   -1.70971E+006    1.39590E+007   -3.08485E+006    1.37369E+007   -1.28405E+006   -1.70902E+006    1.22476E+007    5.15242E+003   -1.21599E+005    9.19201E+004
            2193    1.34634E+007    1.20516E+007    1.20516E+007   -1.14026E+006   -1.66797E+006    1.37195E+007   -3.08111E+006    1.34401E+007   -1.14023E+006   -1.66782E+006    1.20514E+007    6.29769E+003    3.64816E+004    3.30979E+004
            2194    1.80237E+007    1.57358E+007    1.57358E+007   -1.52593E+006   -2.96374E+006    1.86995E+007   -3.74871E+006    1.78940E+007   -2.96305E+006   -1.48864E+006    1.56978E+007   -7.72229E+003   -1.12849E+005    8.01496E+005
            2195    1.69711E+007    1.46833E+007    1.46833E+007   -1.80511E+006   -2.73245E+006    1.74157E+007   -3.38191E+006    1.69139E+007   -2.72933E+006   -1.77429E+006    1.46493E+007    1.98151E+003   -2.27667E+005    7.13861E+005
            2196    1.58887E+007    1.37942E+007    1.37942E+007   -1.83591E+006   -2.34117E+006    1.61353E+007   -3.20570E+006    1.58706E+007   -2.34050E+006   -1.80913E+006    1.37667E+007    2.01192E+003   -9.77732E+004    6.47231E+005
            2197    1.48768E+007    1.30138E+007    1.30138E+007   -1.76753E+006   -1.95658E+006    1.49704E+007   -3.09657E+006    1.48741E+007   -1.95155E+006   -1.75088E+006    1.29921E+007    1.28269E+004   -2.06850E+005    5.27290E+005
            2198    1.40564E+007    1.24339E+007    1.24339E+007   -1.57792E+006   -1.66661E+006    1.41005E+007   -3.06313E+006    1.40558E+007   -1.57993E+006   -1.65325E+006    1.24226E+007    1.23975E+004   -4.09740E+004    3.98028E+005
            2199    1.35022E+007    1.20435E+007    1.20435E+007   -1.32955E+006   -1.58435E+006    1.36278E+007   -3.04320E+006    1.34968E+007   -1.33003E+006   -1.57845E+006    1.20381E+007    1.76875E+004   -1.19920E+005    2.43245E+005
            2200    1.32085E+007    1.18458E+007    1.18458E+007   -1.18698E+006   -1.53168E+006    1.33775E+007   -3.04239E+006    1.31984E+007   -1.18776E+006   -1.53033E+006    1.18453E+007    1.74467E+004    3.22980E+004    8.09024E+004
            2201    1.72738E+007    1.49400E+007    1.49400E+007   -1.53805E+006   -3.03242E+006    1.79724E+007   -3.45651E+006    1.71275E+007   -3.03163E+006   -1.42064E+006    1.48218E+007   -2.30001E+004   -1.07468E+005    1.38668E+006
            2202    1.63620E+007    1.40840E+007    1.40840E+007   -1.73340E+006   -2.77290E+006    1.68569E+007   -3.19257E+006    1.62874E+007   -2.77002E+006   -1.63536E+006    1.39831E+007   -5.64013E+003   -2.15877E+005    1.24213E+006
            2203    1.53182E+007    1.32726E+007    1.32726E+007   -1.68248E+006   -2.38463E+006    1.56572E+007   -3.06848E+006    1.52819E+007   -2.38410E+006   -1.60901E+006    1.31986E+007   -9.96117E+003   -8.93361E+004    1.04579E+006
            2204    1.43755E+007    1.25789E+007    1.25789E+007   -1.57721E+006   -2.00639E+006    1.45853E+007   -2.99844E+006    1.43611E+007   -2.00292E+006   -1.52860E+006    1.25269E+007    9.80320E+003   -1.89632E+005    8.36725E+005
            2205    1.35860E+007    1.20349E+007    1.20349E+007   -1.45361E+006   -1.64672E+006    1.36816E+007   -2.97817E+006    1.35830E+007   -1.64601E+006   -1.42670E+006    1.20072E+007    8.74359E+003   -4.18924E+004    6.08358E+005
            2206    1.30513E+007    1.16748E+007    1.16748E+007   -1.34134E+006   -1.41137E+006    1.30862E+007   -2.97403E+006    1.30509E+007   -1.40196E+006   -1.33941E+006    1.16634E+007    1.99472E+004   -1.05871E+005    3.69586E+005
            2207    1.27635E+007    1.14853E+007    1.14853E+007   -1.25461E+006   -1.30164E+006    1.27869E+007   -2.97635E+006    1.27633E+007   -1.26578E+006   -1.28926E+006    1.14841E+007    2.02781E+004    2.42227E+004    1.21528E+005
            2208    1.62588E+007    1.38540E+007    1.38540E+007   -1.57647E+006   -3.12255E+006    1.69766E+007   -3.05167E+006    1.60921E+007   -3.12181E+006   -1.36937E+006    1.36462E+007   -2.07207E+004   -1.06839E+005    1.77577E+006
            2209    1.54500E+007    1.32152E+007    1.32152E+007   -1.56553E+006   -2.82672E+006    1.60419E+007   -2.94097E+006    1.53335E+007   -2.82294E+006   -1.39520E+006    1.30411E+007    1.31313E+004   -2.12865E+005    1.58209E+006
            2210    1.45489E+007    1.25775E+007    1.25775E+007   -1.45100E+006   -2.44112E+006    1.50186E+007   -2.89513E+006    1.44728E+007   -2.44030E+006   -1.32643E+006    1.24521E+007    5.87366E+003   -9.54645E+004    1.31724E+006
            2211    1.36966E+007    1.19813E+007    1.19813E+007   -1.31349E+006   -2.08446E+006    1.40658E+007   -2.86113E+006    1.36476E+007   -2.07956E+006   -1.23389E+006    1.18968E+007    3.13717E+004   -1.79677E+005    1.04270E+006
            2212    1.29631E+007    1.15068E+007    1.15068E+007   -1.15346E+006   -1.73919E+006    1.32460E+007   -2.87139E+006    1.29332E+007   -1.73737E+006   -1.10908E+006    1.14606E+007    2.73751E+004   -5.43003E+004    7.61669E+005
            2213    1.24556E+007    1.11782E+007    1.11782E+007   -1.03070E+006   -1.51020E+006    1.26884E+007   -2.87910E+006    1.24348E+007   -1.50581E+006   -1.01722E+006    1.11603E+007    3.85769E+004   -9.36260E+004    4.57964E+005
            2214    1.21797E+007    1.10064E+007    1.10064E+007   -9.56730E+005   -1.37878E+006    1.23852E+007   -2.89030E+006    1.21632E+007   -1.37539E+006   -9.58199E+005    1.10045E+007    3.77390E+004    1.10253E+004    1.51078E+005
            2215    1.51367E+007    1.27232E+007    1.27232E+007   -1.51117E+006   -3.17788E+006    1.59011E+007   -2.67805E+006    1.49282E+007   -3.17663E+006   -1.23911E+006    1.24499E+007   -4.61193E+004   -9.17495E+004    1.95132E+006
            2216    1.44524E+007    1.22951E+007    1.22951E+007   -1.33530E+006   -2.85872E+006    1.51538E+007   -2.70034E+006    1.42701E+007   -2.85617E+006   -1.11574E+006    1.20729E+007   -1.08431E+004   -1.92134E+005    1.71626E+006
            2217    1.37095E+007    1.18128E+007    1.18128E+007   -1.20280E+006   -2.49856E+006    1.43113E+007   -2.70380E+006    1.35707E+007   -2.49796E+006   -1.03936E+006    1.16487E+007   -2.14887E+004   -8.15872E+004    1.44982E+006
            2218    1.29409E+007    1.13226E+007    1.13226E+007   -1.00019E+006   -2.15837E+006    1.34810E+007   -2.72136E+006    1.28235E+007   -2.15606E+006   -8.90101E+005    1.12102E+007    1.28258E+004   -1.51990E+005    1.16281E+006
            2219    1.22618E+007    1.09017E+007    1.09017E+007   -8.15926E+005   -1.84005E+006    1.27417E+007   -2.74856E+006    1.21650E+007   -1.83949E+006   -7.54624E+005    1.08398E+007    1.38445E+004   -5.77895E+004    8.47482E+005
            2220    1.17790E+007    1.06132E+007    1.06132E+007   -6.54518E+005   -1.61802E+006    1.22312E+007   -2.78021E+006    1.16899E+007   -1.61647E+006   -6.31950E+005    1.05890E+007    2.95572E+004   -7.35782E+004    5.16159E+005
            2221    1.15086E+007    1.04503E+007    1.04503E+007   -5.63653E+005   -1.49624E+006    1.19466E+007   -2.79681E+006    1.14232E+007   -1.49516E+006   -5.62164E+005    1.04478E+007    3.16871E+004   -1.11720E+003    1.68179E+005
            2222    1.41051E+007    1.17894E+007    1.17894E+007   -1.26218E+006   -3.17429E+006    1.49636E+007   -2.45096E+006    1.38090E+007   -3.17364E+006   -9.74394E+005    1.15009E+007   -2.36667E+004   -9.16285E+004    1.91669E+006
            2223    1.36334E+007    1.15123E+007    1.15123E+007   -1.16813E+006   -2.90718E+006    1.44195E+007   -2.47900E+006    1.33804E+007   -2.90300E+006   -9.33314E+005    1.12733E+007    2.76801E+004   -1.95330E+005    1.71546E+006
            2224    1.29257E+007    1.10988E+007    1.10988E+007   -9.33853E+005   -2.56517E+006    1.36639E+007   -2.53325E+006    1.26910E+007   -2.56421E+006   -7.41855E+005    1.09058E+007    7.69415E+003   -1.00138E+005    1.50872E+006
            2225    1.22050E+007    1.06533E+007    1.06533E+007   -6.98557E+005   -2.25546E+006    1.29087E+007   -2.56642E+006    1.19785E+007   -2.25288E+006   -5.68031E+005    1.05202E+007    3.03633E+004   -1.33825E+005    1.21608E+006
            2226    1.15421E+007    1.02734E+007    1.02734E+007   -4.37538E+005   -1.95068E+006    1.22240E+007   -2.62838E+006    1.13157E+007   -1.94932E+006   -3.64416E+005    1.01989E+007    3.16790E+004   -7.43739E+004    8.87605E+005
            2227    1.10923E+007    1.00239E+007    1.00239E+007   -2.54735E+005   -1.73376E+006    1.17577E+007   -2.67846E+006    1.08672E+007   -1.73213E+006   -2.29104E+005    9.99663E+006    4.17981E+004   -5.90053E+004    5.26015E+005
            2228    1.08367E+007    9.88388E+006    9.88388E+006   -1.41900E+005   -1.61344E+006    1.14973E+007   -2.70952E+006    1.06085E+007   -1.61213E+006   -1.40089E+005    9.88077E+006    4.32728E+004   -1.47537E+004    1.76271E+005
            2229    1.35839E+007    1.12752E+007    1.12752E+007   -1.25019E+006   -3.16410E+006    1.44393E+007   -2.28697E+006    1.32754E+007   -3.16144E+006   -9.89763E+005    1.10121E+007   -7.60296E+004   -5.97624E+004    1.79512E+006
            2230    1.30138E+007    1.09441E+007    1.09441E+007   -9.93040E+005   -2.92944E+006    1.38735E+007   -2.34053E+006    1.26836E+007   -2.92797E+006   -7.25836E+005    1.06754E+007   -2.84565E+004   -1.39122E+005    1.76584E+006
            2231    1.22479E+007    1.04391E+007    1.04391E+007   -7.32797E+005   -2.65706E+006    1.30962E+007   -2.34975E+006    1.19007E+007   -2.65618E+006   -5.17720E+005    1.02231E+007   -1.41749E+004   -1.06028E+005    1.53505E+006
            2232    1.14733E+007    9.98656E+006    9.98656E+006   -3.64850E+005   -2.34972E+006    1.23363E+007   -2.42399E+006    1.10771E+007   -2.34868E+006   -2.16596E+005    9.83725E+006    5.53522E+003   -1.05712E+005    1.23054E+006
            2233    1.08460E+007    9.65287E+006    9.65287E+006   -5.53617E+004   -2.05315E+006    1.17060E+007   -2.51478E+006    1.04199E+007   -2.05235E+006    2.01631E+004    9.57654E+006    1.71952E+004   -7.91295E+004    8.54561E+005
            2234    1.04367E+007    9.46497E+006    9.46497E+006    1.64640E+005   -1.82243E+006    1.12874E+007   -2.60239E+006    9.99775E+006   -1.82177E+006    1.90431E+005    9.43852E+006    2.77261E+004   -4.86510E+004    4.93429E+005
            2235    1.02483E+007    9.38977E+006    9.38977E+006    2.61465E+005   -1.69610E+006    1.10859E+007   -2.65171E+006    9.81433E+006   -1.69553E+006    2.63533E+005    9.38713E+006    3.21056E+004   -1.94930E+004    1.54226E+005
            2236    9.80513E+006    9.03709E+006    9.03709E+006    5.94695E+005   -1.71749E+006    1.07546E+007   -2.63810E+006    9.16112E+006   -1.71724E+006    5.96042E+005    9.03549E+006    2.21269E+004   -1.91931E+004    1.14890E+005
            2237    9.92604E+006    9.04194E+006    9.04194E+006    5.29140E+005   -1.86093E+006    1.09029E+007   -2.57005E+006    9.24477E+006   -1.86054E+006    5.46079E+005    9.02461E+006    1.81943E+004   -4.93093E+004    3.81292E+005
            2238    1.02320E+007    9.10142E+006    9.10142E+006    3.09564E+005   -2.12980E+006    1.12312E+007   -2.42706E+006    9.54430E+006   -2.12912E+006    3.72412E+005    9.03789E+006    1.02497E+004   -8.05595E+004    7.41356E+005
            2239    1.07857E+007    9.30831E+006    9.30831E+006   -9.14121E+004   -2.46720E+006    1.17755E+007   -2.24990E+006    1.01717E+007   -2.46636E+006    4.88667E+004    9.16719E+006   -5.17339E+002   -9.68314E+004    1.13987E+006
            2240    1.15486E+007    9.72395E+006    9.72395E+006   -5.29917E+005   -2.78632E+006    1.25103E+007   -2.13590E+006    1.10362E+007   -2.78527E+006   -2.93138E+005    9.48611E+006   -1.32553E+004   -1.13626E+005    1.54002E+006
            2241    1.24477E+007    1.03430E+007    1.03430E+007   -9.11513E+005   -3.02681E+006    1.33698E+007   -2.13490E+006    1.20334E+007   -3.02579E+006   -6.00227E+005    1.00307E+007   -2.42625E+004   -1.13978E+005    1.84562E+006
            2242    1.34626E+007    1.12028E+007    1.12028E+007   -1.16592E+006   -3.13658E+006    1.43394E+007   -2.30009E+006    1.31323E+007   -3.13533E+006   -7.71822E+005    1.08074E+007   -3.44088E+004   -1.26243E+005    2.17242E+006
            2243    1.39381E+007    1.10268E+007    1.10268E+007   -2.19269E+006   -3.53309E+006    1.45599E+007   -1.76700E+006    1.37920E+007   -3.53183E+006   -2.02619E+006    1.08590E+007    1.43637E+004    1.34470E+005    1.47415E+006
            2244    1.39774E+007    1.12554E+007    1.12554E+007   -1.70563E+006   -3.55452E+006    1.48099E+007   -1.99840E+006    1.36983E+007   -3.55329E+006   -1.47490E+006    1.10234E+007    2.76975E+004    1.29089E+005    1.71398E+006
            2245    1.52158E+007    1.26742E+007    1.26742E+007   -1.47249E+006   -3.42268E+006    1.60969E+007   -2.59301E+006    1.49308E+007   -3.42158E+006   -1.21148E+006    1.24121E+007    3.26800E+004    1.21905E+005    1.90417E+006
            2246    1.64661E+007    1.40944E+007    1.40944E+007   -1.26214E+006   -3.29291E+006    1.73873E+007   -3.17977E+006    1.61807E+007   -3.29191E+006   -1.03269E+006    1.38639E+007    3.10097E+004    1.20183E+005    1.86350E+006
            2247    1.63433E+007    1.39658E+007    1.39658E+007   -1.58087E+006   -3.07184E+006    1.70377E+007   -3.10437E+006    1.61892E+007   -3.07096E+006   -1.39753E+006    1.37816E+007    2.11532E+004    1.17439E+005    1.67849E+006
            2248    1.56280E+007    1.33856E+007    1.33856E+007   -1.66617E+006   -2.76110E+006    1.61467E+007   -2.98610E+006    1.55414E+007   -2.75768E+006   -1.52414E+006    1.32401E+007   -9.78785E+003    2.06928E+005    1.45923E+006
            2249    1.48404E+007    1.28580E+007    1.28580E+007   -1.58344E+006   -2.35160E+006    1.52096E+007   -2.97432E+006    1.47956E+007   -2.35085E+006   -1.48827E+006    1.27621E+007   -1.74580E+003    9.81026E+004    1.16919E+006
            2250    1.40933E+007    1.23480E+007    1.23480E+007   -1.49507E+006   -1.98272E+006    1.43308E+007   -2.95675E+006    1.40743E+007   -1.97798E+006   -1.44069E+006    1.22889E+007   -2.43309E+004    1.76620E+005    8.86470E+005
            2251    1.34482E+007    1.19282E+007    1.19282E+007   -1.39813E+006   -1.63865E+006    1.35669E+007   -2.96382E+006    1.34434E+007   -1.63663E+006   -1.37106E+006    1.18992E+007   -1.84114E+004    5.26898E+004    6.19796E+005
            2252    1.30192E+007    1.16530E+007    1.16530E+007   -1.31788E+006   -1.41405E+006    1.30670E+007   -2.97369E+006    1.30184E+007   -1.40173E+006   -1.31951E+006    1.16423E+007   -2.87901E+004    9.40637E+004    3.60620E+005
            2253    1.27889E+007    1.15067E+007    1.15067E+007   -1.25263E+006   -1.31154E+006    1.28182E+007   -2.98084E+006    1.27886E+007   -1.27004E+006   -1.29290E+006    1.15055E+007   -2.70085E+004   -1.22249E+004    1.24734E+005
            2254    1.51451E+007    1.27137E+007    1.27137E+007   -1.58246E+006   -3.15734E+006    1.58710E+007   -2.65796E+006    1.49592E+007   -3.15637E+006   -1.33066E+006    1.24609E+007    3.37261E+004    1.03423E+005    1.88142E+006
            2255    1.46369E+007    1.24616E+007    1.24616E+007   -1.45895E+006   -2.79944E+006    1.52610E+007   -2.73439E+006    1.44978E+007   -2.79681E+006   -1.25412E+006    1.22541E+007    1.08761E+003    1.87724E+005    1.67743E+006
            2256    1.39115E+007    1.20270E+007    1.20270E+007   -1.28381E+006   -2.41592E+006    1.44430E+007   -2.77577E+006    1.38073E+007   -2.41533E+006   -1.13809E+006    1.18807E+007    7.07119E+003    9.18937E+004    1.38507E+006
            2257    1.32640E+007    1.16274E+007    1.16274E+007   -1.15562E+006   -2.07021E+006    1.36976E+007   -2.80051E+006    1.31927E+007   -2.06719E+006   -1.06729E+006    1.15360E+007   -2.19316E+004    1.54503E+005    1.06677E+006
            2258    1.27104E+007    1.13078E+007    1.13078E+007   -1.03040E+006   -1.74466E+006    1.30525E+007   -2.84425E+006    1.26651E+007   -1.74366E+006   -9.83963E+005    1.12604E+007   -1.95810E+004    5.87911E+004    7.61615E+005
            2259    1.23029E+007    1.10569E+007    1.10569E+007   -9.41926E+005   -1.52901E+006    1.25859E+007   -2.86199E+006    1.22713E+007   -1.52649E+006   -9.26074E+005    1.10385E+007   -3.19258E+004    7.65745E+004    4.63506E+005
            2260    1.20865E+007    1.09331E+007    1.09331E+007   -8.88048E+005   -1.40243E+006    1.23355E+007   -2.88086E+006    1.20618E+007   -1.40044E+006   -8.88122E+005    1.09311E+007   -3.19354E+004   -1.95471E+002    1.50501E+005
            2261    1.42436E+007    1.18199E+007    1.18199E+007   -1.52548E+006   -3.17775E+006    1.49977E+007   -2.37223E+006    1.40256E+007   -3.17688E+006   -1.24380E+006    1.15374E+007    3.00754E+004    1.01797E+005    1.91867E+006
            2262    1.35481E+007    1.14737E+007    1.14737E+007   -1.13186E+006   -2.85261E+006    1.43263E+007   -2.49641E+006    1.32990E+007   -2.84925E+006   -8.93340E+005    1.12318E+007   -1.45903E+004    1.89209E+005    1.72077E+006
            2263    1.30239E+007    1.12162E+007    1.12162E+007   -9.83920E+005   -2.49890E+006    1.37151E+007   -2.57779E+006    1.28234E+007   -2.49825E+006   -8.17485E+005    1.10491E+007    3.17249E+003    9.16119E+004    1.41534E+006
            2264    1.24449E+007    1.09121E+007    1.09121E+007   -7.77980E+005   -2.17049E+006    1.30826E+007   -2.65455E+006    1.22678E+007   -2.16813E+006   -6.64655E+005    1.07964E+007   -2.37887E+004    1.36458E+005    1.15034E+006
            2265    1.18811E+007    1.05806E+007    1.05806E+007   -6.18066E+005   -1.88179E+006    1.24624E+007   -2.69359E+006    1.17284E+007   -1.88076E+006   -5.52935E+005    1.05145E+007   -2.43567E+004    6.75775E+004    8.56019E+005
            2266    1.14710E+007    1.03590E+007    1.03590E+007   -4.59161E+005   -1.66893E+006    1.20279E+007   -2.74363E+006    1.13261E+007   -1.66734E+006   -4.35738E+005    1.03340E+007   -3.64298E+004    6.21415E+004    5.16403E+005
            2267    1.12620E+007    1.02438E+007    1.02438E+007   -3.95002E+005   -1.55222E+006    1.17960E+007   -2.76551E+006    1.11271E+007   -1.55093E+006   -3.93472E+005    1.02409E+007   -3.82504E+004    1.07529E+004    1.72788E+005
            2268    1.30758E+007    1.08432E+007    1.08432E+007   -1.03616E+006   -3.16716E+006    1.40104E+007   -2.21330E+006    1.26762E+007   -3.16568E+006   -7.60921E+005    1.05665E+007    5.96629E+004    4.94186E+004    1.79115E+006
            2269    1.30345E+007    1.09587E+007    1.09587E+007   -1.05218E+006   -2.90181E+006    1.38606E+007   -2.33491E+006    1.27343E+007   -2.89977E+006   -8.49358E+005    1.07539E+007   -1.25664E+003    1.58805E+005    1.54845E+006
            2270    1.23862E+007    1.06368E+007    1.06368E+007   -7.12634E+005   -2.57523E+006    1.32120E+007   -2.44964E+006    1.20651E+007   -2.57435E+006   -5.10753E+005    1.04340E+007    2.38509E+002    1.02330E+005    1.50047E+006
            2271    1.16279E+007    1.01510E+007    1.01510E+007   -4.30145E+005   -2.29756E+006    1.24486E+007   -2.47443E+006    1.12831E+007   -2.29608E+006   -2.88867E+005    1.00083E+007   -1.85495E+004    1.11537E+005    1.21667E+006
            2272    1.10107E+007    9.82807E+006    9.82807E+006   -1.13057E+005   -2.00657E+006    1.18346E+007   -2.56948E+006    1.06351E+007   -2.00555E+006   -3.92537E+004    9.75324E+006   -2.67014E+004    7.52014E+004    8.56693E+005
            2273    1.06474E+007    9.64835E+006    9.64835E+006    4.21902E+004   -1.79986E+006    1.14482E+007   -2.63023E+006    1.02797E+007   -1.79887E+006    6.77328E+004    9.62182E+006   -3.52233E+004    5.11508E+004    5.02159E+005
            2274    1.04582E+007    9.56893E+006    9.56893E+006    1.38571E+005   -1.67893E+006    1.12479E+007   -2.67619E+006    1.00937E+007   -1.67807E+006    1.40741E+005    9.56590E+006   -3.85560E+004    1.74314E+004    1.68198E+005
            2275    9.86549E+006    9.08328E+006    9.08328E+006    5.63472E+005   -1.72548E+006    1.08088E+007   -2.64042E+006    9.23927E+006   -1.72528E+006    5.64736E+005    9.08181E+006   -1.95559E+004    1.93481E+004    1.10583E+005
            2276    9.95759E+006    9.07721E+006    9.07721E+006    5.33568E+005   -1.85856E+006    1.09358E+007   -2.58407E+006    9.27748E+006   -1.85823E+006    5.51127E+005    9.05933E+006   -1.43554E+004    4.88347E+004    3.88178E+005
            2277    1.02469E+007    9.13421E+006    9.13421E+006    3.27705E+005   -2.11258E+006    1.12468E+007   -2.44978E+006    9.55981E+006   -2.11196E+006    3.90489E+005    9.07081E+006   -6.17243E+003    7.92149E+004    7.41295E+005
            2278    1.07747E+007    9.35339E+006    9.35339E+006   -8.74730E+003   -2.42391E+006    1.17773E+007   -2.30691E+006    1.01385E+007   -2.42310E+006    1.42141E+005    9.20170E+006    6.39945E+003    9.62861E+004    1.17893E+006
            2279    1.16387E+007    9.83130E+006    9.83130E+006   -5.57465E+005   -2.74643E+006    1.25777E+007   -2.17580E+006    1.11614E+007   -2.74539E+006   -2.94407E+005    9.56720E+006    1.73979E+004    1.13017E+005    1.63199E+006
            2280    1.28268E+007    1.08200E+007    1.08200E+007   -8.74094E+005   -2.89874E+006    1.37188E+007   -2.34906E+006    1.24597E+007   -2.89759E+006   -5.13694E+005    1.04585E+007    3.39493E+004    1.17220E+005    2.02119E+006
            2281    1.41730E+007    1.18033E+007    1.18033E+007   -1.55201E+006   -3.06591E+006    1.48692E+007   -2.39513E+006    1.39894E+007   -3.06464E+006   -1.28599E+006    1.15360E+007    3.23702E+004    1.26748E+005    1.86640E+006
            2282    1.02460E+007    9.38784E+006    9.38784E+006    2.64502E+005   -1.69713E+006    1.10850E+007   -2.65174E+006    9.81005E+006   -1.69657E+006    2.66823E+005    9.38495E+006    3.20035E+004    2.00430E+004   -1.61369E+005
            2283    1.08327E+007    9.87932E+006    9.87932E+006   -1.38840E+005   -1.61628E+006    1.14956E+007   -2.70806E+006    1.06025E+007   -1.61498E+006   -1.36742E+005    9.87591E+006    4.32744E+004    1.56822E+004   -1.84098E+005
            2284    1.15083E+007    1.04485E+007    1.04485E+007   -5.62282E+005   -1.49981E+006    1.19483E+007   -2.79548E+006    1.14219E+007   -1.49872E+006   -5.60396E+005    1.04456E+007    3.17727E+004    2.71806E+003   -1.80731E+005
            2285    1.21847E+007    1.10094E+007    1.10094E+007   -9.57457E+005   -1.38198E+006    1.23914E+007   -2.89000E+006    1.21680E+007   -1.37860E+006   -9.58574E+005    1.10072E+007    3.78386E+004   -9.07579E+003   -1.64478E+005
            2286    1.27698E+007    1.14893E+007    1.14893E+007   -1.25682E+006   -1.30402E+006    1.27934E+007   -2.97617E+006    1.27696E+007   -1.26850E+006   -1.29094E+006    1.14879E+007    2.06254E+004   -2.23557E+004   -1.31468E+005
            2287    1.32136E+007    1.18497E+007    1.18497E+007   -1.18858E+006   -1.53250E+006    1.33822E+007   -3.04289E+006    1.32036E+007   -1.18942E+006   -1.53105E+006    1.18491E+007    1.78941E+004   -3.09559E+004   -8.53422E+004
            2288    1.34659E+007    1.20532E+007    1.20532E+007   -1.14129E+006   -1.66872E+006    1.37219E+007   -3.08106E+006    1.34427E+007   -1.14127E+006   -1.66856E+006    1.20530E+007    6.61739E+003   -3.57241E+004   -3.28999E+004
            2289    1.34897E+007    1.20729E+007    1.20729E+007   -1.13960E+006   -1.67790E+006    1.37508E+007   -3.08513E+006    1.34655E+007   -1.13958E+006   -1.67780E+006    1.20728E+007   -5.68739E+003   -3.24152E+004    2.61657E+004
            2290    1.32712E+007    1.18980E+007    1.18980E+007   -1.17839E+006   -1.55975E+006    1.34578E+007   -3.05329E+006    1.32589E+007   -1.17865E+006   -1.55904E+006    1.18976E+007   -1.09724E+004   -2.45138E+004    7.31912E+004
            2291    1.04364E+007    9.46133E+006    9.46133E+006    1.64998E+005   -1.82772E+006    1.12890E+007   -2.59954E+006    9.99480E+006   -1.82706E+006    1.91672E+005    9.43400E+006    2.73878E+004    4.91975E+004   -5.01437E+005
            2292    1.10953E+007    1.00225E+007    1.00225E+007   -2.53662E+005   -1.74178E+006    1.17643E+007   -2.67569E+006    1.08674E+007   -1.74017E+006   -2.26472E+005    9.99373E+006    4.12949E+004    5.97920E+004   -5.40599E+005
            2293    1.17966E+007    1.06232E+007    1.06232E+007   -6.59321E+005   -1.62786E+006    1.22510E+007   -2.77866E+006    1.17066E+007   -1.62632E+006   -6.35087E+005    1.05974E+007    2.91128E+004    7.46638E+004   -5.34042E+005
            2294    1.24840E+007    1.11976E+007    1.11976E+007   -1.03980E+006   -1.51921E+006    1.27168E+007   -2.87951E+006    1.24632E+007   -1.51489E+006   -1.02504E+006    1.11785E+007    3.79346E+004    9.49587E+004   -4.74200E+005
            2295    1.30800E+007    1.16959E+007    1.16959E+007   -1.34998E+006   -1.41804E+006    1.31139E+007   -2.97596E+006    1.30796E+007   -1.40886E+006   -1.34730E+006    1.16840E+007    1.91778E+004    1.07112E+005   -3.78587E+005
            2296    1.35217E+007    1.20581E+007    1.20581E+007   -1.33418E+006   -1.58956E+006    1.36476E+007   -3.04477E+006    1.35163E+007   -1.33456E+006   -1.58370E+006    1.20526E+007    1.71267E+004    1.21060E+005   -2.44844E+005
            2297    1.37594E+007    1.22556E+007    1.22556E+007   -1.28704E+006   -1.71092E+006    1.39665E+007   -3.08587E+006    1.37447E+007   -1.28601E+006   -1.71028E+006    1.22539E+007    4.68894E+003    1.22029E+005   -8.90289E+004
            2298    1.37678E+007    1.22620E+007    1.22620E+007   -1.28399E+006   -1.71739E+006    1.39794E+007   -3.08687E+006    1.37524E+007   -1.28309E+006   -1.71682E+006    1.22605E+007   -7.92665E+003    1.20165E+005    7.46664E+004
            2299    1.35145E+007    1.20582E+007    1.20582E+007   -1.31811E+006   -1.59042E+006    1.36486E+007   -3.04989E+006    1.35084E+007   -1.31806E+006   -1.58559E+006    1.20533E+007   -1.30218E+004    1.07869E+005    2.34328E+005
            2300    1.08577E+007    9.65631E+006    9.65631E+006   -6.10628E+004   -2.06307E+006    1.17194E+007   -2.51073E+006    1.04302E+007   -2.06226E+006    1.67670E+004    9.57767E+006    1.67519E+004    8.01964E+004   -8.67726E+005
            2301    1.15757E+007    1.02937E+007    1.02937E+007   -4.49972E+005   -1.96483E+006    1.22586E+007   -2.62631E+006    1.13495E+007   -1.96345E+006   -3.73796E+005    1.02162E+007    3.11476E+004    7.67871E+004   -9.06921E+005
            2302    1.23184E+007    1.09405E+007    1.09405E+007   -8.35618E+005   -1.85663E+006    1.27972E+007   -2.74943E+006    1.22227E+007   -1.85603E+006   -7.71345E+005    1.08757E+007    1.35992E+004    6.09892E+004   -8.69764E+005
            2303    1.30302E+007    1.15566E+007    1.15566E+007   -1.17460E+006   -1.75342E+006    1.33100E+007   -2.87619E+006    1.30013E+007   -1.75155E+006   -1.12879E+006    1.15089E+007    2.72954E+004    5.73564E+004   -7.75783E+005
            2304    1.36425E+007    1.20781E+007    1.20781E+007   -1.47003E+006   -1.65697E+006    1.37350E+007   -2.98369E+006    1.36397E+007   -1.65622E+006   -1.44305E+006    1.20503E+007    8.75476E+003    4.37137E+004   -6.10896E+005
            2305    1.40909E+007    1.24613E+007    1.24613E+007   -1.58336E+006   -1.67538E+006    1.41367E+007   -3.06753E+006    1.40902E+007   -1.58541E+006   -1.66239E+006    1.24504E+007    1.28274E+004    4.16292E+004   -3.90964E+005
            2306    1.43161E+007    1.26510E+007    1.26510E+007   -1.54009E+006   -1.78690E+006    1.44379E+007   -3.10801E+006    1.43113E+007   -1.54009E+006   -1.78573E+006    1.26498E+007    4.19247E+003    3.55301E+004   -1.25580E+005
            2307    1.42821E+007    1.26274E+007    1.26274E+007   -1.53350E+006   -1.77298E+006    1.44004E+007   -3.10697E+006    1.42776E+007   -1.53346E+006   -1.77139E+006    1.26258E+007   -3.75784E+003    4.02393E+004    1.47524E+005
            2308    1.40027E+007    1.23937E+007    1.23937E+007   -1.56145E+006   -1.65606E+006    1.40498E+007   -3.05874E+006    1.40020E+007   -1.56167E+006   -1.64401E+006    1.23819E+007   -4.52656E+003    4.23667E+004    4.05410E+005
            2309    1.15099E+007    1.00109E+007    1.00109E+007   -3.78777E+005   -2.36164E+006    1.23725E+007   -2.42348E+006    1.11158E+007   -2.36060E+006   -2.27063E+005    9.85810E+006    5.11187E+003    1.05979E+005   -1.24690E+006
            2310    1.22685E+007    1.06967E+007    1.06967E+007   -7.21291E+005   -2.27435E+006    1.29711E+007   -2.56703E+006    1.20444E+007   -2.27180E+006   -5.86597E+005    1.05595E+007    2.92695E+004    1.34564E+005   -1.23836E+006
            2311    1.30375E+007    1.13951E+007    1.13951E+007   -1.03028E+006   -2.17850E+006    1.35736E+007   -2.72878E+006    1.29230E+007   -2.17621E+006   -9.17086E+005    1.12796E+007    1.17288E+004    1.53220E+005   -1.18362E+006
            2312    1.37931E+007    1.20569E+007    1.20569E+007   -1.34016E+006   -2.10081E+006    1.41577E+007   -2.87196E+006    1.37458E+007   -2.09597E+006   -1.25989E+006    1.19717E+007    2.99707E+004    1.81941E+005   -1.05026E+006
            2313    1.44496E+007    1.26394E+007    1.26394E+007   -1.59517E+006   -2.01588E+006    1.46553E+007   -3.00946E+006    1.44358E+007   -2.01247E+006   -1.54771E+006    1.25886E+007    8.47365E+003    1.91890E+005   -8.28375E+005
            2314    1.49124E+007    1.30435E+007    1.30435E+007   -1.77584E+006   -1.96023E+006    1.50037E+007   -3.10247E+006    1.49098E+007   -1.95533E+006   -1.76028E+006    1.30230E+007    1.19303E+004    2.09052E+005   -5.09778E+005
            2315    1.51282E+007    1.32380E+007    1.32380E+007   -1.86606E+006   -1.91420E+006    1.51522E+007   -3.15257E+006    1.51280E+007   -1.91124E+006   -1.86478E+006    1.32337E+007    6.12329E+002    2.06881E+005   -1.46381E+005
            2316    1.50583E+007    1.31766E+007    1.31766E+007   -1.85363E+006   -1.90959E+006    1.50862E+007   -3.13780E+006    1.50581E+007   -1.90399E+006   -1.85227E+006    1.31697E+007   -8.75824E+003    2.06047E+005    2.49630E+005
            2317    1.46963E+007    1.28706E+007    1.28706E+007   -1.72331E+006   -1.92600E+006    1.47966E+007   -3.07375E+006    1.46931E+007   -1.92187E+006   -1.70064E+006    1.28438E+007   -1.04377E+004    1.91691E+005    5.95307E+005
            2318    1.22929E+007    1.04707E+007    1.04707E+007   -7.48370E+005   -2.66977E+006    1.31404E+007   -2.35084E+006    1.19480E+007   -2.66888E+006   -5.30417E+005    1.02518E+007   -1.48332E+004    1.06911E+005   -1.54840E+006
            2319    1.30123E+007    1.11647E+007    1.11647E+007   -9.59391E+005   -2.58338E+006    1.37481E+007   -2.54065E+006    1.27813E+007   -2.58241E+006   -7.63451E+005    1.09678E+007    6.40953E+003    1.02108E+005   -1.52964E+006
            2320    1.38200E+007    1.19014E+007    1.19014E+007   -1.23068E+006   -2.51675E+006    1.44181E+007   -2.71797E+006    1.36844E+007   -2.51613E+006   -1.06548E+006    1.17355E+007   -2.18797E+004    8.30369E+004   -1.46412E+006
            2321    1.46541E+007    1.26669E+007    1.26669E+007   -1.47305E+006   -2.45222E+006    1.51191E+007   -2.91388E+006    1.45802E+007   -2.45140E+006   -1.34995E+006    1.25430E+007    5.95485E+003    9.59338E+004   -1.31476E+006
            2322    1.53835E+007    1.33303E+007    1.33303E+007   -1.69466E+006   -2.38829E+006    1.57186E+007   -3.08245E+006    1.53483E+007   -2.38777E+006   -1.62421E+006    1.32593E+007   -9.79859E+003    8.81836E+004   -1.02654E+006
            2323    1.59083E+007    1.38138E+007    1.38138E+007   -1.83873E+006   -2.33850E+006    1.61523E+007   -3.21220E+006    1.58906E+007   -2.33785E+006   -1.81397E+006    1.37884E+007    2.49642E+003    9.62943E+004   -6.22968E+005
            2324    1.61158E+007    1.40049E+007    1.40049E+007   -1.91039E+006   -2.30432E+006    1.63092E+007   -3.26339E+006    1.61050E+007   -2.30378E+006   -1.90939E+006    1.40033E+007    1.42690E+003    9.31737E+004   -1.27186E+005
            2325    1.59980E+007    1.39045E+007    1.39045E+007   -1.88501E+006   -2.29414E+006    1.61986E+007   -3.24178E+006    1.59862E+007   -2.29352E+006   -1.87671E+006    1.38956E+007   -3.16164E+002    9.89292E+004    3.62256E+005
            2326    1.55604E+007    1.34998E+007    1.34998E+007   -1.79480E+006   -2.31344E+006    1.58133E+007   -3.13053E+006    1.55410E+007   -2.31285E+006   -1.75055E+006    1.34550E+007    7.89648E+003    9.49158E+004    8.21582E+005
            2327    1.30537E+007    1.09754E+007    1.09754E+007   -1.00294E+006   -2.93759E+006    1.39130E+007   -2.34497E+006    1.27251E+007   -2.93611E+006   -7.33385E+005    1.07044E+007   -2.78861E+004    1.39903E+005   -1.77651E+006
            2328    1.37105E+007    1.15756E+007    1.15756E+007   -1.18547E+006   -2.91925E+006    1.44949E+007   -2.49031E+006    1.34605E+007   -2.91508E+006   -9.48106E+005    1.13341E+007    2.71798E+004    1.96089E+005   -1.73003E+006
            2329    1.45486E+007    1.23803E+007    1.23803E+007   -1.35086E+006   -2.86707E+006    1.52473E+007   -2.72078E+006    1.43692E+007   -2.86449E+006   -1.13158E+006    1.21584E+007   -1.16201E+004    1.94060E+005   -1.72160E+006
            2330    1.55227E+007    1.32830E+007    1.32830E+007   -1.57384E+006   -2.82928E+006    1.61123E+007   -2.95996E+006    1.54078E+007   -2.82547E+006   -1.40655E+006    1.31119E+007    1.27950E+004    2.14939E+005   -1.57220E+006
            2331    1.63945E+007    1.41175E+007    1.41175E+007   -1.73617E+006   -2.76901E+006    1.68865E+007   -3.20410E+006    1.63210E+007   -2.76609E+006   -1.64137E+006    1.40197E+007   -6.24996E+003    2.18113E+005   -1.22283E+006
            2332    1.69624E+007    1.46755E+007    1.46755E+007   -1.81079E+006   -2.72611E+006    1.74016E+007   -3.37952E+006    1.69068E+007   -2.72295E+006   -1.78134E+006    1.46429E+007    1.85875E+003    2.29353E+005   -6.97863E+005
            2333    1.71942E+007    1.49091E+007    1.49091E+007   -1.84535E+006   -2.69351E+006    1.76026E+007   -3.45675E+006    1.71471E+007   -2.69059E+006   -1.84462E+006    1.49055E+007   -1.03448E+003    2.26581E+005   -1.10519E+005
            2334    1.70289E+007    1.47419E+007    1.47419E+007   -1.84461E+006   -2.69739E+006    1.74393E+007   -3.39996E+006    1.69808E+007   -2.69437E+006   -1.82874E+006    1.47230E+007   -2.72233E+003    2.25419E+005    5.14537E+005
            2335    1.64973E+007    1.42335E+007    1.42335E+007   -1.77526E+006   -2.71231E+006    1.69459E+007   -3.24866E+006    1.64373E+007   -2.70950E+006   -1.70705E+006    1.41625E+007    2.56980E+003    2.13009E+005    1.04371E+006
            2336    1.36037E+007    1.12950E+007    1.12950E+007   -1.24953E+006   -3.16484E+006    1.44599E+007   -2.29356E+006    1.32953E+007   -3.16220E+006   -9.84340E+005    1.10272E+007   -7.59223E+004    5.96782E+004   -1.81233E+006
            2337    1.41662E+007    1.18471E+007    1.18471E+007   -1.26860E+006   -3.17631E+006    1.50234E+007   -2.46738E+006    1.38728E+007   -3.17566E+006   -9.80157E+005    1.15580E+007   -2.45297E+004    9.11833E+004   -1.92367E+006
            2338    1.51936E+007    1.27795E+007    1.27795E+007   -1.51183E+006   -3.17880E+006    1.59583E+007   -2.69630E+006    1.49858E+007   -3.17756E+006   -1.24097E+006    1.25074E+007   -4.59430E+004    9.20919E+004   -1.95101E+006
            2339    1.62986E+007    1.38968E+007    1.38968E+007   -1.57434E+006   -3.11910E+006    1.70160E+007   -3.06780E+006    1.61326E+007   -3.11837E+006   -1.36928E+006    1.36911E+007   -2.00824E+004    1.06690E+005   -1.76944E+006
            2340    1.72822E+007    1.49485E+007    1.49485E+007   -1.54267E+006   -3.02876E+006    1.79772E+007   -3.45902E+006    1.71376E+007   -3.02796E+006   -1.42688E+006    1.48319E+007   -2.25891E+004    1.08373E+005   -1.37767E+006
            2341    1.80042E+007    1.57147E+007    1.57147E+007   -1.53398E+006   -2.96021E+006    1.86749E+007   -3.74016E+006    1.78764E+007   -2.95951E+006   -1.49696E+006    1.56770E+007   -7.24772E+003    1.13852E+005   -7.98212E+005
            2342    1.82668E+007    1.59864E+007    1.59864E+007   -1.54755E+006   -2.93415E+006    1.89205E+007   -3.83489E+006    1.81478E+007   -2.93346E+006   -1.54737E+006    1.59855E+007   -6.55045E+002    1.14589E+005   -5.61185E+004
            2343    1.80483E+007    1.57606E+007    1.57606E+007   -1.54783E+006   -2.94627E+006    1.87069E+007   -3.75550E+006    1.79258E+007   -2.94552E+006   -1.52154E+006    1.57336E+007    8.08680E+003    1.17563E+005    6.74193E+005
            2344    1.73293E+007    1.49910E+007    1.49910E+007   -1.57784E+006   -3.00999E+006    1.80010E+007   -3.46772E+006    1.71954E+007   -3.00916E+006   -1.47686E+006    1.48892E+007    1.91901E+004    1.15204E+005    1.28996E+006
            2345    1.77702E+007    1.56300E+007    1.56300E+007   -1.00398E+006   -3.09188E+006    1.87219E+007   -3.84472E+006    1.74910E+007   -3.09108E+006   -8.64894E+005    1.54901E+007    2.40198E+004    1.13660E+005    1.51512E+006
            2346    1.86626E+007    1.67026E+007    1.67026E+007   -8.03898E+005   -2.93343E+006    1.96360E+007   -4.32175E+006    1.83863E+007   -2.93276E+006   -7.60531E+005    1.66586E+007    1.37701E+004    1.11443E+005    8.70548E+005
            2347    1.90525E+007    1.71757E+007    1.71757E+007   -7.19450E+005   -2.85443E+006    2.00301E+007   -4.53392E+006    1.87806E+007   -2.85384E+006   -7.19441E+005    1.71751E+007   -2.20943E+002    1.08391E+005   -1.28734E+004
            2348    1.86548E+007    1.66901E+007    1.66901E+007   -8.09092E+005   -2.93770E+006    1.96278E+007   -4.31444E+006    1.83786E+007   -2.93704E+006   -7.63341E+005    1.66437E+007   -1.34517E+004    1.11216E+005   -8.93859E+005
            2349    1.77473E+007    1.55892E+007    1.55892E+007   -1.02493E+006   -3.10751E+006    1.86967E+007   -3.81891E+006    1.74692E+007   -3.10670E+006   -8.80721E+005    1.54442E+007   -2.41200E+004    1.14665E+005   -1.54154E+006
            2350    1.65463E+007    1.41731E+007    1.41731E+007   -1.26900E+006   -3.29152E+006    1.74646E+007   -3.20419E+006    1.62647E+007   -3.29051E+006   -1.03950E+006    1.39426E+007   -3.17328E+004    1.20520E+005   -1.86902E+006
            2351    1.53208E+007    1.27189E+007    1.27189E+007   -1.56659E+006   -3.46095E+006    1.61799E+007   -2.56380E+006    1.50539E+007   -3.45985E+006   -1.30112E+006    1.24524E+007   -3.02491E+004    1.24978E+005   -1.92947E+006
            2352    1.45223E+007    1.18020E+007    1.18020E+007   -1.78827E+006   -3.50043E+006    1.53025E+007   -2.17112E+006    1.42926E+007   -3.49914E+006   -1.52786E+006    1.15403E+007   -3.08883E+004    1.32315E+005   -1.86335E+006
            2353    1.42640E+007    1.17981E+007    1.17981E+007   -1.48585E+006   -3.27684E+006    1.50749E+007   -2.34513E+006    1.40077E+007   -3.27524E+006   -1.14603E+006    1.14567E+007   -4.69053E+004    1.30802E+005   -2.09832E+006
            2354    9.80476E+006    9.03488E+006    9.03488E+006    5.91256E+005   -1.71857E+006    1.07534E+007   -2.63586E+006    9.16211E+006   -1.71832E+006    5.92620E+005    9.03327E+006    2.21260E+004    1.92995E+004   -1.15515E+005
            2355    9.92329E+006    9.03885E+006    9.03885E+006    5.30276E+005   -1.86185E+006    1.09007E+007   -2.56909E+006    9.24057E+006   -1.86146E+006    5.47377E+005    9.02136E+006    1.81313E+004    4.92591E+004   -3.82984E+005
            2356    1.02334E+007    9.10019E+006    9.10019E+006    3.09515E+005   -2.13363E+006    1.12338E+007   -2.42536E+006    9.54352E+006   -2.13295E+006    3.73441E+005    9.03558E+006    1.00269E+004    8.09428E+004   -7.47559E+005
            2357    1.07959E+007    9.30986E+006    9.30986E+006   -9.93877E+004   -2.47656E+006    1.17864E+007   -2.24464E+006    1.01818E+007   -2.47572E+006    4.38127E+004    9.16582E+006   -8.50392E+002    9.69785E+004   -1.15207E+006
            2358    1.15781E+007    9.74666E+006    9.74666E+006   -5.36779E+005   -2.79370E+006    1.25404E+007   -2.13873E+006    1.10668E+007   -2.79263E+006   -2.95078E+005    9.50389E+006   -1.36691E+004    1.14602E+005   -1.55786E+006
            2359    1.24842E+007    1.03701E+007    1.03701E+007   -9.27417E+005   -3.03301E+006    1.34031E+007   -2.13655E+006    1.20750E+007   -3.03200E+006   -6.12054E+005    1.00537E+007   -2.42586E+004    1.13372E+005   -1.86096E+006
            2360    1.34559E+007    1.11949E+007    1.11949E+007   -1.16315E+006   -3.14017E+006    1.43351E+007   -2.29719E+006    1.31232E+007   -3.13888E+006   -7.68854E+005    1.07993E+007   -3.42246E+004    1.28910E+005   -2.17196E+006
            2361    1.04564E+007    9.56739E+006    9.56739E+006    1.39554E+005   -1.67897E+006    1.12464E+007   -2.67599E+006    1.00914E+007   -1.67812E+006    1.41740E+005    9.56435E+006    3.83901E+004    1.73478E+004   -1.68431E+005
            2362    1.12683E+007    1.02487E+007    1.02487E+007   -3.98430E+005   -1.55212E+006    1.18008E+007   -2.76603E+006    1.11343E+007   -1.55083E+006   -3.96828E+005    1.02458E+007    3.83294E+004    1.09872E+004   -1.75329E+005
            2363    1.20914E+007    1.09372E+007    1.09372E+007   -8.89642E+005   -1.40240E+006    1.23396E+007   -2.88172E+006    1.20669E+007   -1.40041E+006   -8.89631E+005    1.09352E+007    3.19006E+004    3.13416E+002   -1.53938E+005
            2364    1.27923E+007    1.15089E+007    1.15089E+007   -1.25368E+006   -1.31289E+006    1.28218E+007   -2.98078E+006    1.27920E+007   -1.27072E+006   -1.29462E+006    1.15077E+007    2.69324E+004   -1.16229E+004   -1.24843E+005
            2365    1.06511E+007    9.65058E+006    9.65058E+006    4.07742E+004   -1.80146E+006    1.14520E+007   -2.62997E+006    1.02835E+007   -1.80046E+006    6.68200E+004    9.62354E+006    3.53184E+004    5.13825E+004   -5.07070E+005
            2366    1.14776E+007    1.03645E+007    1.03645E+007   -4.61198E+005   -1.66952E+006    1.20340E+007   -2.74459E+006    1.13332E+007   -1.66794E+006   -4.37780E+005    1.03395E+007    3.63771E+004    6.21998E+004   -5.16517E+005
            2367    1.23116E+007    1.10630E+007    1.10630E+007   -9.44919E+005   -1.53140E+006    1.25944E+007   -2.86223E+006    1.22802E+007   -1.52887E+006   -9.28544E+005    1.10441E+007    3.17913E+004    7.69607E+004   -4.70295E+005
            2368    1.30327E+007    1.16635E+007    1.16635E+007   -1.32146E+006   -1.41644E+006    1.30799E+007   -2.97519E+006    1.30319E+007   -1.40403E+006   -1.32305E+006    1.16527E+007    2.86457E+004    9.40955E+004   -3.62998E+005
            2369    1.10253E+007    9.83800E+006    9.83800E+006   -1.19219E+005   -2.01066E+006    1.18487E+007   -2.56937E+006    1.06511E+007   -2.00963E+006   -4.41317E+004    9.76188E+006    2.64721E+004    7.57752E+004   -8.64681E+005
            2370    1.18873E+007    1.05840E+007    1.05840E+007   -6.18908E+005   -1.88609E+006    1.24701E+007   -2.69302E+006    1.17339E+007   -1.88505E+006   -5.53239E+005    1.05173E+007    2.41513E+004    6.84362E+004   -8.59607E+005
            2371    1.27215E+007    1.13149E+007    1.13149E+007   -1.03117E+006   -1.75137E+006    1.30663E+007   -2.84413E+006    1.26755E+007   -1.75036E+006   -9.83719E+005    1.12665E+007    1.94924E+004    5.98358E+004   -7.69940E+005
            2372    1.34682E+007    1.19426E+007    1.19426E+007   -1.40285E+006   -1.64515E+006    1.35877E+007   -2.96485E+006    1.34633E+007   -1.64315E+006   -1.37514E+006    1.19128E+007    1.81778E+004    5.47429E+004   -6.26782E+005
            2373    1.16461E+007    1.01638E+007    1.01638E+007   -4.36016E+005   -2.30304E+006    1.24668E+007   -2.47490E+006    1.13020E+007   -2.30156E+006   -2.93847E+005    1.00201E+007    1.85153E+004    1.11767E+005   -1.22152E+006
            2374    1.24706E+007    1.09302E+007    1.09302E+007   -7.84900E+005   -2.17875E+006    1.31089E+007   -2.65551E+006    1.22935E+007   -2.17641E+006   -6.69401E+005    1.08124E+007    2.33975E+004    1.36623E+005   -1.16229E+006
            2375    1.32924E+007    1.16462E+007    1.16462E+007   -1.16249E+006   -2.08214E+006    1.37283E+007   -2.80051E+006    1.32205E+007   -2.07914E+006   -1.07274E+006    1.15534E+007    2.15244E+004    1.54929E+005   -1.07603E+006
            2376    1.41148E+007    1.23636E+007    1.23636E+007   -1.49568E+006   -1.99350E+006    1.43571E+007   -2.95813E+006    1.40950E+007   -1.98882E+006   -1.43970E+006    1.23029E+007    2.40608E+004    1.76989E+005   -8.98690E+005
            2377    1.24140E+007    1.06572E+007    1.06572E+007   -7.21416E+005   -2.58203E+006    1.32393E+007   -2.45126E+006    1.20943E+007   -2.58116E+006   -5.18089E+005    1.04530E+007   -8.54237E+002    1.02889E+005   -1.50767E+006
            2378    1.30637E+007    1.12436E+007    1.12436E+007   -9.97605E+005   -2.51087E+006    1.37545E+007   -2.57837E+006    1.28643E+007   -2.51021E+006   -8.28955E+005    1.10743E+007   -3.67131E+003    9.26531E+004   -1.42701E+006
            2379    1.39609E+007    1.20646E+007    1.20646E+007   -1.29419E+006   -2.42919E+006    1.44938E+007   -2.78040E+006    1.38565E+007   -2.42859E+006   -1.14635E+006    1.19161E+007   -7.98643E+003    9.21502E+004   -1.39752E+006
            2380    1.48736E+007    1.28814E+007    1.28814E+007   -1.58792E+006   -2.36581E+006    1.52472E+007   -2.97590E+006    1.48277E+007   -2.36506E+006   -1.49150E+006    1.27843E+007    1.49271E+003    9.88439E+004   -1.17791E+006
            2381    1.30379E+007    1.09567E+007    1.09567E+007   -1.05702E+006   -2.90750E+006    1.38642E+007   -2.33074E+006    1.27374E+007   -2.90540E+006   -8.54460E+005    1.07521E+007    1.71327E+003    1.60264E+005   -1.54770E+006
            2382    1.35914E+007    1.15089E+007    1.15089E+007   -1.14313E+006   -2.85886E+006    1.43678E+007   -2.50232E+006    1.33445E+007   -2.85541E+006   -9.01292E+005    1.12637E+007    1.52775E+004    1.91032E+005   -1.73585E+006
            2383    1.46815E+007    1.24945E+007    1.24945E+007   -1.47093E+006   -2.81118E+006    1.53057E+007   -2.73746E+006    1.45429E+007   -2.80854E+006   -1.26573E+006    1.22866E+007   -1.43893E+003    1.88659E+005   -1.68164E+006
            2384    1.56670E+007    1.34194E+007    1.34194E+007   -1.66686E+006   -2.77008E+006    1.61895E+007   -2.99415E+006    1.55793E+007   -2.76664E+006   -1.52439E+006    1.32735E+007    9.85411E+003    2.07806E+005   -1.46323E+006
            2385    1.30985E+007    1.08648E+007    1.08648E+007   -1.04449E+006   -3.16442E+006    1.40292E+007   -2.21863E+006    1.27040E+007   -3.16294E+006   -7.65251E+005    1.05841E+007   -5.95934E+004    5.06841E+004   -1.80606E+006
            2386    1.42610E+007    1.18339E+007    1.18339E+007   -1.53101E+006   -3.17996E+006    1.50138E+007   -2.37430E+006    1.40441E+007   -3.17908E+006   -1.25158E+006    1.15535E+007   -2.99995E+004    1.01989E+005   -1.91260E+006
            2387    1.51763E+007    1.27445E+007    1.27445E+007   -1.57950E+006   -3.16026E+006    1.59048E+007   -2.66825E+006    1.49894E+007   -3.15928E+006   -1.32846E+006    1.24925E+007   -3.44757E+004    1.02912E+005   -1.88055E+006
            2388    1.63629E+007    1.39850E+007    1.39850E+007   -1.57635E+006   -3.07613E+006    1.70612E+007   -3.11085E+006    1.62072E+007   -3.07526E+006   -1.39331E+006    1.38011E+007   -2.11365E+004    1.16695E+005   -1.67793E+006
            2389    1.64847E+007    1.41125E+007    1.41125E+007   -1.26347E+006   -3.29293E+006    1.74055E+007   -3.18538E+006    1.62001E+007   -3.29194E+006   -1.03307E+006    1.38811E+007   -3.09366E+004    1.20100E+005   -1.86851E+006
            2390    1.52479E+007    1.27128E+007    1.27128E+007   -1.46242E+006   -3.41889E+006    1.61317E+007   -2.61051E+006    1.49616E+007   -3.41779E+006   -1.20055E+006    1.24499E+007   -3.29813E+004    1.22098E+005   -1.90921E+006
            2391    1.40057E+007    1.12979E+007    1.12979E+007   -1.68232E+006   -3.54642E+006    1.48444E+007   -2.02307E+006    1.37224E+007   -3.54520E+006   -1.44698E+006    1.10614E+007   -2.77311E+004    1.28747E+005   -1.73200E+006
            2392    1.39183E+007    1.10139E+007    1.10139E+007   -2.17571E+006   -3.53341E+006    1.45474E+007   -1.76827E+006    1.37681E+007   -3.53215E+006   -2.00998E+006    1.08470E+007   -1.46500E+004    1.34884E+005   -1.46909E+006
            2393    9.86641E+006    9.08485E+006    9.08485E+006    5.62766E+005   -1.72422E+006    1.08091E+007   -2.64113E+006    9.24139E+006   -1.72401E+006    5.63921E+005    9.08349E+006    1.96002E+004    1.85424E+004   -1.06316E+005
            2394    9.96036E+006    9.07902E+006    9.07902E+006    5.30217E+005   -1.85850E+006    1.09375E+007   -2.58358E+006    9.28250E+006   -1.85818E+006    5.47851E+005    9.06106E+006    1.45822E+004    4.87704E+004   -3.89154E+005
            2395    1.02486E+007    9.13431E+006    9.13431E+006    3.27632E+005   -2.11495E+006    1.12493E+007   -2.44900E+006    9.56027E+006   -2.11434E+006    3.91399E+005    9.06993E+006    5.90175E+003    7.93157E+004   -7.47022E+005
            2396    1.07857E+007    9.36276E+006    9.36276E+006   -7.94134E+003   -2.42708E+006    1.17898E+007   -2.30925E+006    1.01480E+007   -2.42627E+006    1.45732E+005    9.20827E+006   -6.65218E+003    9.67444E+004   -1.19013E+006
            2397    1.16680E+007    9.85431E+006    9.85431E+006   -5.68104E+005   -2.75101E+006    1.26053E+007   -2.17840E+006    1.11947E+007   -2.74997E+006   -3.01053E+005    9.58622E+006   -1.76589E+004    1.13086E+005   -1.64673E+006
            2398    1.28635E+007    1.08510E+007    1.08510E+007   -8.87747E+005   -2.90004E+006    1.37510E+007   -2.35440E+006    1.25020E+007   -2.89888E+006   -5.25927E+005    1.04880E+007   -3.41004E+004    1.17877E+005   -2.02902E+006
            2399    1.41581E+007    1.17826E+007    1.17826E+007   -1.55792E+006   -3.07152E+006    1.48541E+007   -2.38438E+006    1.39743E+007   -3.07026E+006   -1.29505E+006    1.15184E+007   -3.26355E+004    1.25616E+005   -1.85453E+006
            2400    1.77643E+007    1.56189E+007    1.56189E+007   -1.00942E+006   -3.09692E+006    1.87158E+007   -3.83752E+006    1.74851E+007   -3.09612E+006   -8.68655E+005    1.54773E+007   -2.42511E+004    1.13903E+005   -1.52388E+006
            2401    1.86563E+007    1.66907E+007    1.66907E+007   -8.09642E+005   -2.93896E+006    1.96296E+007   -4.31403E+006    1.83800E+007   -2.93829E+006   -7.64312E+005    1.66447E+007   -1.39338E+004    1.11331E+005   -8.89815E+005
            2402    1.90522E+007    1.71770E+007    1.71770E+007   -7.13306E+005   -2.85585E+006    2.00329E+007   -4.53595E+006    1.87782E+007   -2.85526E+006   -7.13306E+005    1.71764E+007   -1.22302E+002    1.08546E+005   -1.33373E+003
            2403    1.86753E+007    1.67202E+007    1.67202E+007   -7.94631E+005   -2.93174E+006    1.96519E+007   -4.33128E+006    1.83972E+007   -2.93108E+006   -7.49379E+005    1.66743E+007    1.34546E+004    1.10885E+005    8.89383E+005
            2404    1.77433E+007    1.55912E+007    1.55912E+007   -1.01256E+006   -3.10594E+006    1.86971E+007   -3.82423E+006    1.74622E+007   -3.10513E+006   -8.67874E+005    1.54457E+007    2.40524E+004    1.14771E+005    1.54359E+006
            2405    1.65184E+007    1.41465E+007    1.41465E+007   -1.26372E+006   -3.29266E+006    1.74392E+007   -3.19670E+006    1.62345E+007   -3.29165E+006   -1.03292E+006    1.39147E+007    3.18932E+004    1.20452E+005    1.87228E+006
            2406    1.52688E+007    1.26621E+007    1.26621E+007   -1.57066E+006   -3.46581E+006    1.61279E+007   -2.54188E+006    1.50008E+007   -3.46470E+006   -1.30516E+006    1.23955E+007    2.99186E+004    1.25595E+005    1.92590E+006
            2407    1.44741E+007    1.17436E+007    1.17436E+007   -1.80294E+006   -3.50718E+006    1.52508E+007   -2.14451E+006    1.42458E+007   -3.50589E+006   -1.54593E+006    1.14853E+007    3.07294E+004    1.32665E+005    1.84835E+006
            2408    1.42720E+007    1.17943E+007    1.17943E+007   -1.50934E+006   -3.28082E+006    1.50751E+007   -2.33470E+006    1.40215E+007   -3.27922E+006   -1.17367E+006    1.14570E+007    4.60962E+004    1.32451E+005    2.08734E+006
            2409    1.73484E+007    1.50120E+007    1.50120E+007   -1.57005E+006   -3.01262E+006    1.80246E+007   -3.47644E+006    1.72127E+007   -3.01180E+006   -1.46832E+006    1.49095E+007   -1.97025E+004    1.14396E+005   -1.29523E+006
            2410    1.65277E+007    1.42598E+007    1.42598E+007   -1.77363E+006   -2.72149E+006    1.69813E+007   -3.25489E+006    1.64664E+007   -2.71868E+006   -1.70513E+006    1.41885E+007   -2.63848E+003    2.13504E+005   -1.04667E+006
            2411    1.55973E+007    1.35311E+007    1.35311E+007   -1.79557E+006   -2.32345E+006    1.58546E+007   -3.13737E+006    1.55772E+007   -2.32284E+006   -1.75085E+006    1.34858E+007   -8.10297E+003    9.64110E+004   -8.26839E+005
            2412    1.47241E+007    1.28917E+007    1.28917E+007   -1.72787E+006   -1.93470E+006    1.48264E+007   -3.07637E+006    1.47208E+007   -1.93066E+006   -1.70509E+006    1.28649E+007    1.03365E+004    1.90739E+005   -5.96484E+005
            2413    1.40257E+007    1.24117E+007    1.24117E+007   -1.56629E+006   -1.66117E+006    1.40729E+007   -3.06141E+006    1.40249E+007   -1.56650E+006   -1.64940E+006    1.24001E+007    4.51005E+003    4.42410E+004   -4.00535E+005
            2414    1.35268E+007    1.20673E+007    1.20673E+007   -1.31946E+006   -1.59532E+006    1.36626E+007   -3.05083E+006    1.35205E+007   -1.31938E+006   -1.59062E+006    1.20625E+007    1.28622E+004    1.07944E+005   -2.31226E+005
            2415    1.32733E+007    1.18999E+007    1.18999E+007   -1.17850E+006   -1.56006E+006    1.34599E+007   -3.05377E+006    1.32609E+007   -1.17876E+006   -1.55936E+006    1.18994E+007    1.09403E+004   -2.41839E+004   -7.24190E+004
            2416    1.80636E+007    1.57805E+007    1.57805E+007   -1.53263E+006   -2.94999E+006    1.87305E+007   -3.76596E+006    1.79378E+007   -2.94926E+006   -1.50567E+006    1.57528E+007   -8.38206E+003    1.15927E+005   -6.82794E+005
            2417    1.70636E+007    1.47741E+007    1.47741E+007   -1.83883E+006   -2.70705E+006    1.74812E+007   -3.40941E+006    1.70138E+007   -2.70402E+006   -1.82291E+006    1.47552E+007    2.99090E+003    2.25814E+005   -5.15905E+005
            2418    1.60294E+007    1.39309E+007    1.39309E+007   -1.88496E+006   -2.30377E+006    1.62347E+007   -3.24740E+006    1.60171E+007   -2.30314E+006   -1.87706E+006    1.39224E+007    2.09863E+001    1.00176E+005   -3.53653E+005
            2419    1.50821E+007    1.31959E+007    1.31959E+007   -1.85790E+006   -1.91431E+006    1.51102E+007   -3.14124E+006    1.50819E+007   -1.90899E+006   -1.85667E+006    1.31894E+007    8.41675E+003    2.05670E+005   -2.37779E+005
            2420    1.42930E+007    1.26354E+007    1.26354E+007   -1.53502E+006   -1.77713E+006    1.44125E+007   -3.10775E+006    1.42884E+007   -1.53498E+006   -1.77572E+006    1.26340E+007    3.73341E+003    4.09304E+004   -1.38479E+005
            2421    1.37700E+007    1.22639E+007    1.22639E+007   -1.28374E+006   -1.71827E+006    1.39822E+007   -3.08729E+006    1.37546E+007   -1.28284E+006   -1.71776E+006    1.22625E+007    7.78386E+003    1.20352E+005   -7.02378E+004
            2422    1.34897E+007    1.20726E+007    1.20726E+007   -1.13949E+006   -1.67863E+006    1.37512E+007   -3.08482E+006    1.34654E+007   -1.13947E+006   -1.67852E+006    1.20724E+007    5.85422E+003   -3.27576E+004   -2.46023E+004
            2423    1.82915E+007    1.60161E+007    1.60161E+007   -1.53244E+006   -2.93742E+006    1.89535E+007   -3.84875E+006    1.81695E+007   -2.93675E+006   -1.53231E+006    1.60153E+007    6.25066E+002    1.12235E+005    4.73891E+004
            2424    1.72253E+007    1.49390E+007    1.49390E+007   -1.83775E+006   -2.70230E+006    1.76413E+007   -3.46633E+006    1.71764E+007   -2.69941E+006   -1.83692E+006    1.49353E+007    8.66979E+002    2.25477E+005    1.18396E+005
            2425    1.61318E+007    1.40172E+007    1.40172E+007   -1.91081E+006   -2.31095E+006    1.63281E+007   -3.26514E+006    1.61206E+007   -2.31039E+006   -1.90953E+006    1.40153E+007   -1.09648E+003    9.48585E+004    1.43513E+005
            2426    1.51256E+007    1.32350E+007    1.32350E+007   -1.86551E+006   -1.91554E+006    1.51505E+007   -3.15131E+006    1.51254E+007   -1.91252E+006   -1.86397E+006    1.32304E+007   -1.10993E+003    2.05817E+005    1.63120E+005
            2427    1.43064E+007    1.26434E+007    1.26434E+007   -1.53825E+006   -1.78465E+006    1.44280E+007   -3.10683E+006    1.43017E+007   -1.53824E+006   -1.78329E+006    1.26420E+007   -4.10040E+003    3.54431E+004    1.35897E+005
            2428    1.37516E+007    1.22493E+007    1.22493E+007   -1.28506E+006   -1.70971E+006    1.39590E+007   -3.08485E+006    1.37369E+007   -1.28405E+006   -1.70902E+006    1.22476E+007   -5.15242E+003    1.21599E+005    9.19201E+004
            2429    1.34634E+007    1.20516E+007    1.20516E+007   -1.14026E+006   -1.66797E+006    1.37195E+007   -3.08111E+006    1.34401E+007   -1.14023E+006   -1.66782E+006    1.20514E+007   -6.29769E+003   -3.64816E+004    3.30979E+004
            2430    1.80237E+007    1.57358E+007    1.57358E+007   -1.52593E+006   -2.96374E+006    1.86995E+007   -3.74871E+006    1.78940E+007   -2.96305E+006   -1.48864E+006    1.56978E+007    7.72229E+003    1.12849E+005    8.01496E+005
            2431    1.69711E+007    1.46833E+007    1.46833E+007   -1.80511E+006   -2.73245E+006    1.74157E+007   -3.38191E+006    1.69139E+007   -2.72933E+006   -1.77429E+006    1.46493E+007   -1.98151E+003    2.27667E+005    7.13861E+005
            2432    1.58887E+007    1.37942E+007    1.37942E+007   -1.83591E+006   -2.34117E+006    1.61353E+007   -3.20570E+006    1.58706E+007   -2.34050E+006   -1.80913E+006    1.37667E+007   -2.01192E+003    9.77732E+004    6.47231E+005
            2433    1.48768E+007    1.30138E+007    1.30138E+007   -1.76753E+006   -1.95658E+006    1.49704E+007   -3.09657E+006    1.48741E+007   -1.95155E+006   -1.75088E+006    1.29921E+007   -1.28269E+004    2.06850E+005    5.27290E+005
            2434    1.40564E+007    1.24339E+007    1.24339E+007   -1.57792E+006   -1.66661E+006    1.41005E+007   -3.06313E+006    1.40558E+007   -1.57993E+006   -1.65325E+006    1.24226E+007   -1.23975E+004    4.09740E+004    3.98028E+005
            2435    1.35022E+007    1.20435E+007    1.20435E+007   -1.32955E+006   -1.58435E+006    1.36278E+007   -3.04320E+006    1.34968E+007   -1.33003E+006   -1.57845E+006    1.20381E+007   -1.76875E+004    1.19920E+005    2.43245E+005
            2436    1.32085E+007    1.18458E+007    1.18458E+007   -1.18698E+006   -1.53168E+006    1.33775E+007   -3.04239E+006    1.31984E+007   -1.18776E+006   -1.53033E+006    1.18453E+007   -1.74467E+004   -3.22980E+004    8.09024E+004
            2437    1.72738E+007    1.49400E+007    1.49400E+007   -1.53805E+006   -3.03242E+006    1.79724E+007   -3.45651E+006    1.71275E+007   -3.03163E+006   -1.42064E+006    1.48218E+007    2.30001E+004    1.07468E+005    1.38668E+006
            2438    1.63620E+007    1.40840E+007    1.40840E+007   -1.73340E+006   -2.77290E+006    1.68569E+007   -3.19257E+006    1.62874E+007   -2.77002E+006   -1.63536E+006    1.39831E+007    5.64013E+003    2.15877E+005    1.24213E+006
            2439    1.53182E+007    1.32726E+007    1.32726E+007   -1.68248E+006   -2.38463E+006    1.56572E+007   -3.06848E+006    1.52819E+007   -2.38410E+006   -1.60901E+006    1.31986E+007    9.96117E+003    8.93361E+004    1.04579E+006
            2440    1.43755E+007    1.25789E+007    1.25789E+007   -1.57721E+006   -2.00639E+006    1.45853E+007   -2.99844E+006    1.43611E+007   -2.00292E+006   -1.52860E+006    1.25269E+007   -9.80320E+003    1.89632E+005    8.36725E+005
            2441    1.35860E+007    1.20349E+007    1.20349E+007   -1.45361E+006   -1.64672E+006    1.36816E+007   -2.97817E+006    1.35830E+007   -1.64601E+006   -1.42670E+006    1.20072E+007   -8.74359E+003    4.18924E+004    6.08358E+005
            2442    1.30513E+007    1.16748E+007    1.16748E+007   -1.34134E+006   -1.41137E+006    1.30862E+007   -2.97403E+006    1.30509E+007   -1.40196E+006   -1.33941E+006    1.16634E+007   -1.99472E+004    1.05871E+005    3.69586E+005
            2443    1.27635E+007    1.14853E+007    1.14853E+007   -1.25461E+006   -1.30164E+006    1.27869E+007   -2.97635E+006    1.27633E+007   -1.26578E+006   -1.28926E+006    1.14841E+007   -2.02781E+004   -2.42227E+004    1.21528E+005
            2444    1.62588E+007    1.38540E+007    1.38540E+007   -1.57647E+006   -3.12255E+006    1.69766E+007   -3.05167E+006    1.60921E+007   -3.12181E+006   -1.36937E+006    1.36462E+007    2.07207E+004    1.06839E+005    1.77577E+006
            2445    1.54500E+007    1.32152E+007    1.32152E+007   -1.56553E+006   -2.82672E+006    1.60419E+007   -2.94097E+006    1.53335E+007   -2.82294E+006   -1.39520E+006    1.30411E+007   -1.31313E+004    2.12865E+005    1.58209E+006
            2446    1.45489E+007    1.25775E+007    1.25775E+007   -1.45100E+006   -2.44112E+006    1.50186E+007   -2.89513E+006    1.44728E+007   -2.44030E+006   -1.32643E+006    1.24521E+007   -5.87366E+003    9.54645E+004    1.31724E+006
            2447    1.36966E+007    1.19813E+007    1.19813E+007   -1.31349E+006   -2.08446E+006    1.40658E+007   -2.86113E+006    1.36476E+007   -2.07956E+006   -1.23389E+006    1.18968E+007   -3.13717E+004    1.79677E+005    1.04270E+006
            2448    1.29631E+007    1.15068E+007    1.15068E+007   -1.15346E+006   -1.73919E+006    1.32460E+007   -2.87139E+006    1.29332E+007   -1.73737E+006   -1.10908E+006    1.14606E+007   -2.73751E+004    5.43003E+004    7.61669E+005
            2449    1.24556E+007    1.11782E+007    1.11782E+007   -1.03070E+006   -1.51020E+006    1.26884E+007   -2.87910E+006    1.24348E+007   -1.50581E+006   -1.01722E+006    1.11603E+007   -3.85769E+004    9.36260E+004    4.57964E+005
            2450    1.21797E+007    1.10064E+007    1.10064E+007   -9.56730E+005   -1.37878E+006    1.23852E+007   -2.89030E+006    1.21632E+007   -1.37539E+006   -9.58199E+005    1.10045E+007   -3.77390E+004   -1.10253E+004    1.51078E+005
            2451    1.51367E+007    1.27232E+007    1.27232E+007   -1.51117E+006   -3.17788E+006    1.59011E+007   -2.67805E+006    1.49282E+007   -3.17663E+006   -1.23911E+006    1.24499E+007    4.61193E+004    9.17495E+004    1.95132E+006
            2452    1.44524E+007    1.22951E+007    1.22951E+007   -1.33530E+006   -2.85872E+006    1.51538E+007   -2.70034E+006    1.42701E+007   -2.85617E+006   -1.11574E+006    1.20729E+007    1.08431E+004    1.92134E+005    1.71626E+006
            2453    1.37095E+007    1.18128E+007    1.18128E+007   -1.20280E+006   -2.49856E+006    1.43113E+007   -2.70380E+006    1.35707E+007   -2.49796E+006   -1.03936E+006    1.16487E+007    2.14887E+004    8.15872E+004    1.44982E+006
            2454    1.29409E+007    1.13226E+007    1.13226E+007   -1.00019E+006   -2.15837E+006    1.34810E+007   -2.72136E+006    1.28235E+007   -2.15606E+006   -8.90101E+005    1.12102E+007   -1.28258E+004    1.51990E+005    1.16281E+006
            2455    1.22618E+007    1.09017E+007    1.09017E+007   -8.15926E+005   -1.84005E+006    1.27417E+007   -2.74856E+006    1.21650E+007   -1.83949E+006   -7.54624E+005    1.08398E+007   -1.38445E+004    5.77895E+004    8.47482E+005
            2456    1.17790E+007    1.06132E+007    1.06132E+007   -6.54518E+005   -1.61802E+006    1.22312E+007   -2.78021E+006    1.16899E+007   -1.61647E+006   -6.31950E+005    1.05890E+007   -2.95572E+004    7.35782E+004    5.16159E+005
            2457    1.15086E+007    1.04503E+007    1.04503E+007   -5.63653E+005   -1.49624E+006    1.19466E+007   -2.79681E+006    1.14232E+007   -1.49516E+006   -5.62164E+005    1.04478E+007   -3.16871E+004    1.11720E+003    1.68179E+005
            2458    1.41051E+007    1.17894E+007    1.17894E+007   -1.26218E+006   -3.17429E+006    1.49636E+007   -2.45096E+006    1.38090E+007   -3.17364E+006   -9.74394E+005    1.15009E+007    2.36667E+004    9.16285E+004    1.91669E+006
            2459    1.36334E+007    1.15123E+007    1.15123E+007   -1.16813E+006   -2.90718E+006    1.44195E+007   -2.47900E+006    1.33804E+007   -2.90300E+006   -9.33314E+005    1.12733E+007   -2.76801E+004    1.95330E+005    1.71546E+006
            2460    1.29257E+007    1.10988E+007    1.10988E+007   -9.33853E+005   -2.56517E+006    1.36639E+007   -2.53325E+006    1.26910E+007   -2.56421E+006   -7.41855E+005    1.09058E+007   -7.69415E+003    1.00138E+005    1.50872E+006
            2461    1.22050E+007    1.06533E+007    1.06533E+007   -6.98557E+005   -2.25546E+006    1.29087E+007   -2.56642E+006    1.19785E+007   -2.25288E+006   -5.68031E+005    1.05202E+007   -3.03633E+004    1.33825E+005    1.21608E+006
            2462    1.15421E+007    1.02734E+007    1.02734E+007   -4.37538E+005   -1.95068E+006    1.22240E+007   -2.62838E+006    1.13157E+007   -1.94932E+006   -3.64416E+005    1.01989E+007   -3.16790E+004    7.43739E+004    8.87605E+005
            2463    1.10923E+007    1.00239E+007    1.00239E+007   -2.54735E+005   -1.73376E+006    1.17577E+007   -2.67846E+006    1.08672E+007   -1.73213E+006   -2.29104E+005    9.99663E+006   -4.17981E+004    5.90053E+004    5.26015E+005
            2464    1.08367E+007    9.88388E+006    9.88388E+006   -1.41900E+005   -1.61344E+006    1.14973E+007   -2.70952E+006    1.06085E+007   -1.61213E+006   -1.40089E+005    9.88077E+006   -4.32728E+004    1.47537E+004    1.76271E+005
            2465    1.35839E+007    1.12752E+007    1.12752E+007   -1.25019E+006   -3.16410E+006    1.44393E+007   -2.28697E+006    1.32754E+007   -3.16144E+006   -9.89763E+005    1.10121E+007    7.60296E+004    5.97624E+004    1.79512E+006
            2466    1.30138E+007    1.09441E+007    1.09441E+007   -9.93040E+005   -2.92944E+006    1.38735E+007   -2.34053E+006    1.26836E+007   -2.92797E+006   -7.25836E+005    1.06754E+007    2.84565E+004    1.39122E+005    1.76584E+006
            2467    1.22479E+007    1.04391E+007    1.04391E+007   -7.32797E+005   -2.65706E+006    1.30962E+007   -2.34975E+006    1.19007E+007   -2.65618E+006   -5.17720E+005    1.02231E+007    1.41749E+004    1.06028E+005    1.53505E+006
            2468    1.14733E+007    9.98656E+006    9.98656E+006   -3.64850E+005   -2.34972E+006    1.23363E+007   -2.42399E+006    1.10771E+007   -2.34868E+006   -2.16596E+005    9.83725E+006   -5.53522E+003    1.05712E+005    1.23054E+006
            2469    1.08460E+007    9.65287E+006    9.65287E+006   -5.53617E+004   -2.05315E+006    1.17060E+007   -2.51478E+006    1.04199E+007   -2.05235E+006    2.01631E+004    9.57654E+006   -1.71952E+004    7.91295E+004    8.54561E+005
            2470    1.04367E+007    9.46497E+006    9.46497E+006    1.64640E+005   -1.82243E+006    1.12874E+007   -2.60239E+006    9.99775E+006   -1.82177E+006    1.90431E+005    9.43852E+006   -2.77261E+004    4.86510E+004    4.93429E+005
            2471    1.02483E+007    9.38977E+006    9.38977E+006    2.61465E+005   -1.69610E+006    1.10859E+007   -2.65171E+006    9.81433E+006   -1.69553E+006    2.63533E+005    9.38713E+006   -3.21056E+004    1.94930E+004    1.54226E+005
            2472    9.80513E+006    9.03709E+006    9.03709E+006    5.94695E+005   -1.71749E+006    1.07546E+007   -2.63810E+006    9.16112E+006   -1.71724E+006    5.96042E+005    9.03549E+006   -2.21269E+004    1.91931E+004    1.14890E+005
            2473    9.92604E+006    9.04194E+006    9.04194E+006    5.29140E+005   -1.86093E+006    1.09029E+007   -2.57005E+006    9.24477E+006   -1.86054E+006    5.46079E+005    9.02461E+006   -1.81943E+004    4.93093E+004    3.81292E+005
            2474    1.02320E+007    9.10142E+006    9.10142E+006    3.09564E+005   -2.12980E+006    1.12312E+007   -2.42706E+006    9.54430E+006   -2.12912E+006    3.72412E+005    9.03789E+006   -1.02497E+004    8.05595E+004    7.41356E+005
            2475    1.07857E+007    9.30831E+006    9.30831E+006   -9.14121E+004   -2.46720E+006    1.17755E+007   -2.24990E+006    1.01717E+007   -2.46636E+006    4.88667E+004    9.16719E+006    5.17339E+002    9.68314E+004    1.13987E+006
            2476    1.15486E+007    9.72395E+006    9.72395E+006   -5.29917E+005   -2.78632E+006    1.25103E+007   -2.13590E+006    1.10362E+007   -2.78527E+006   -2.93138E+005    9.48611E+006    1.32553E+004    1.13626E+005    1.54002E+006
            2477    1.24477E+007    1.03430E+007    1.03430E+007   -9.11513E+005   -3.02681E+006    1.33698E+007   -2.13490E+006    1.20334E+007   -3.02579E+006   -6.00227E+005    1.00307E+007    2.42625E+004    1.13978E+005    1.84562E+006
            2478    1.34626E+007    1.12028E+007    1.12028E+007   -1.16592E+006   -3.13658E+006    1.43394E+007   -2.30009E+006    1.31323E+007   -3.13533E+006   -7.71822E+005    1.08074E+007    3.44088E+004    1.26243E+005    2.17242E+006
            2479    1.39381E+007    1.10268E+007    1.10268E+007   -2.19269E+006   -3.53309E+006    1.45599E+007   -1.76700E+006    1.37920E+007   -3.53183E+006   -2.02619E+006    1.08590E+007   -1.43637E+004   -1.34470E+005    1.47415E+006
            2480    1.39774E+007    1.12554E+007    1.12554E+007   -1.70563E+006   -3.55452E+006    1.48099E+007   -1.99840E+006    1.36983E+007   -3.55329E+006   -1.47490E+006    1.10234E+007   -2.76975E+004   -1.29089E+005    1.71398E+006
            2481    1.52158E+007    1.26742E+007    1.26742E+007   -1.47249E+006   -3.42268E+006    1.60969E+007   -2.59301E+006    1.49308E+007   -3.42158E+006   -1.21148E+006    1.24121E+007   -3.26800E+004   -1.21905E+005    1.90417E+006
            2482    1.64661E+007    1.40944E+007    1.40944E+007   -1.26214E+006   -3.29291E+006    1.73873E+007   -3.17977E+006    1.61807E+007   -3.29191E+006   -1.03269E+006    1.38639E+007   -3.10097E+004   -1.20183E+005    1.86350E+006
            2483    1.63433E+007    1.39658E+007    1.39658E+007   -1.58087E+006   -3.07184E+006    1.70377E+007   -3.10437E+006    1.61892E+007   -3.07096E+006   -1.39753E+006    1.37816E+007   -2.11532E+004   -1.17439E+005    1.67849E+006
            2484    1.56280E+007    1.33856E+007    1.33856E+007   -1.66617E+006   -2.76110E+006    1.61467E+007   -2.98610E+006    1.55414E+007   -2.75768E+006   -1.52414E+006    1.32401E+007    9.78785E+003   -2.06928E+005    1.45923E+006
            2485    1.48404E+007    1.28580E+007    1.28580E+007   -1.58344E+006   -2.35160E+006    1.52096E+007   -2.97432E+006    1.47956E+007   -2.35085E+006   -1.48827E+006    1.27621E+007    1.74580E+003   -9.81026E+004    1.16919E+006
            2486    1.40933E+007    1.23480E+007    1.23480E+007   -1.49507E+006   -1.98272E+006    1.43308E+007   -2.95675E+006    1.40743E+007   -1.97798E+006   -1.44069E+006    1.22889E+007    2.43309E+004   -1.76620E+005    8.86470E+005
            2487    1.34482E+007    1.19282E+007    1.19282E+007   -1.39813E+006   -1.63865E+006    1.35669E+007   -2.96382E+006    1.34434E+007   -1.63663E+006   -1.37106E+006    1.18992E+007    1.84114E+004   -5.26898E+004    6.19796E+005
            2488    1.30192E+007    1.16530E+007    1.16530E+007   -1.31788E+006   -1.41405E+006    1.30670E+007   -2.97369E+006    1.30184E+007   -1.40173E+006   -1.31951E+006    1.16423E+007    2.87901E+004   -9.40637E+004    3.60620E+005
            2489    1.27889E+007    1.15067E+007    1.15067E+007   -1.25263E+006   -1.31154E+006    1.28182E+007   -2.98084E+006    1.27886E+007   -1.27004E+006   -1.29290E+006    1.15055E+007    2.70085E+004    1.22249E+004    1.24734E+005
            2490    1.51451E+007    1.27137E+007    1.27137E+007   -1.58246E+006   -3.15734E+006    1.58710E+007   -2.65796E+006    1.49592E+007   -3.15637E+006   -1.33066E+006    1.24609E+007   -3.37261E+004   -1.03423E+005    1.88142E+006
            2491    1.46369E+007    1.24616E+007    1.24616E+007   -1.45895E+006   -2.79944E+006    1.52610E+007   -2.73439E+006    1.44978E+007   -2.79681E+006   -1.25412E+006    1.22541E+007   -1.08761E+003   -1.87724E+005    1.67743E+006
            2492    1.39115E+007    1.20270E+007    1.20270E+007   -1.28381E+006   -2.41592E+006    1.44430E+007   -2.77577E+006    1.38073E+007   -2.41533E+006   -1.13809E+006    1.18807E+007   -7.07119E+003   -9.18937E+004    1.38507E+006
            2493    1.32640E+007    1.16274E+007    1.16274E+007   -1.15562E+006   -2.07021E+006    1.36976E+007   -2.80051E+006    1.31927E+007   -2.06719E+006   -1.06729E+006    1.15360E+007    2.19316E+004   -1.54503E+005    1.06677E+006
            2494    1.27104E+007    1.13078E+007    1.13078E+007   -1.03040E+006   -1.74466E+006    1.30525E+007   -2.84425E+006    1.26651E+007   -1.74366E+006   -9.83963E+005    1.12604E+007    1.95810E+004   -5.87911E+004    7.61615E+005
            2495    1.23029E+007    1.10569E+007    1.10569E+007   -9.41926E+005   -1.52901E+006    1.25859E+007   -2.86199E+006    1.22713E+007   -1.52649E+006   -9.26074E+005    1.10385E+007    3.19258E+004   -7.65745E+004    4.63506E+005
            2496    1.20865E+007    1.09331E+007    1.09331E+007   -8.88048E+005   -1.40243E+006    1.23355E+007   -2.88086E+006    1.20618E+007   -1.40044E+006   -8.88122E+005    1.09311E+007    3.19354E+004    1.95471E+002    1.50501E+005
            2497    1.42436E+007    1.18199E+007    1.18199E+007   -1.52548E+006   -3.17775E+006    1.49977E+007   -2.37223E+006    1.40256E+007   -3.17688E+006   -1.24380E+006    1.15374E+007   -3.00754E+004   -1.01797E+005    1.91867E+006
            2498    1.35481E+007    1.14737E+007    1.14737E+007   -1.13186E+006   -2.85261E+006    1.43263E+007   -2.49641E+006    1.32990E+007   -2.84925E+006   -8.93340E+005    1.12318E+007    1.45903E+004   -1.89209E+005    1.72077E+006
            2499    1.30239E+007    1.12162E+007    1.12162E+007   -9.83920E+005   -2.49890E+006    1.37151E+007   -2.57779E+006    1.28234E+007   -2.49825E+006   -8.17485E+005    1.10491E+007   -3.17249E+003   -9.16119E+004    1.41534E+006
            2500    1.24449E+007    1.09121E+007    1.09121E+007   -7.77980E+005   -2.17049E+006    1.30826E+007   -2.65455E+006    1.22678E+007   -2.16813E+006   -6.64655E+005    1.07964E+007    2.37887E+004   -1.36458E+005    1.15034E+006
            2501    1.18811E+007    1.05806E+007    1.05806E+007   -6.18066E+005   -1.88179E+006    1.24624E+007   -2.69359E+006    1.17284E+007   -1.88076E+006   -5.52935E+005    1.05145E+007    2.43567E+004   -6.75775E+004    8.56019E+005
            2502    1.14710E+007    1.03590E+007    1.03590E+007   -4.59161E+005   -1.66893E+006    1.20279E+007   -2.74363E+006    1.13261E+007   -1.66734E+006   -4.35738E+005    1.03340E+007    3.64298E+004   -6.21415E+004    5.16403E+005
            2503    1.12620E+007    1.02438E+007    1.02438E+007   -3.95002E+005   -1.55222E+006    1.17960E+007   -2.76551E+006    1.11271E+007   -1.55093E+006   -3.93472E+005    1.02409E+007    3.82504E+004   -1.07529E+004    1.72788E+005
            2504    1.30758E+007    1.08432E+007    1.08432E+007   -1.03616E+006   -3.16716E+006    1.40104E+007   -2.21330E+006    1.26762E+007   -3.16568E+006   -7.60921E+005    1.05665E+007   -5.96629E+004   -4.94186E+004    1.79115E+006
            2505    1.30345E+007    1.09587E+007    1.09587E+007   -1.05218E+006   -2.90181E+006    1.38606E+007   -2.33491E+006    1.27343E+007   -2.89977E+006   -8.49358E+005    1.07539E+007    1.25664E+003   -1.58805E+005    1.54845E+006
            2506    1.23862E+007    1.06368E+007    1.06368E+007   -7.12634E+005   -2.57523E+006    1.32120E+007   -2.44964E+006    1.20651E+007   -2.57435E+006   -5.10753E+005    1.04340E+007   -2.38509E+002   -1.02330E+005    1.50047E+006
            2507    1.16279E+007    1.01510E+007    1.01510E+007   -4.30145E+005   -2.29756E+006    1.24486E+007   -2.47443E+006    1.12831E+007   -2.29608E+006   -2.88867E+005    1.00083E+007    1.85495E+004   -1.11537E+005    1.21667E+006
            2508    1.10107E+007    9.82807E+006    9.82807E+006   -1.13057E+005   -2.00657E+006    1.18346E+007   -2.56948E+006    1.06351E+007   -2.00555E+006   -3.92537E+004    9.75324E+006    2.67014E+004   -7.52014E+004    8.56693E+005
            2509    1.06474E+007    9.64835E+006    9.64835E+006    4.21902E+004   -1.79986E+006    1.14482E+007   -2.63023E+006    1.02797E+007   -1.79887E+006    6.77328E+004    9.62182E+006    3.52233E+004   -5.11508E+004    5.02159E+005
            2510    1.04582E+007    9.56893E+006    9.56893E+006    1.38571E+005   -1.67893E+006    1.12479E+007   -2.67619E+006    1.00937E+007   -1.67807E+006    1.40741E+005    9.56590E+006    3.85560E+004   -1.74314E+004    1.68198E+005
            2511    9.86549E+006    9.08328E+006    9.08328E+006    5.63472E+005   -1.72548E+006    1.08088E+007   -2.64042E+006    9.23927E+006   -1.72528E+006    5.64736E+005    9.08181E+006    1.95559E+004   -1.93481E+004    1.10583E+005
            2512    9.95759E+006    9.07721E+006    9.07721E+006    5.33568E+005   -1.85856E+006    1.09358E+007   -2.58407E+006    9.27748E+006   -1.85823E+006    5.51127E+005    9.05933E+006    1.43554E+004   -4.88347E+004    3.88178E+005
            2513    1.02469E+007    9.13421E+006    9.13421E+006    3.27705E+005   -2.11258E+006    1.12468E+007   -2.44978E+006    9.55981E+006   -2.11196E+006    3.90489E+005    9.07081E+006    6.17243E+003   -7.92149E+004    7.41295E+005
            2514    1.07747E+007    9.35339E+006    9.35339E+006   -8.74730E+003   -2.42391E+006    1.17773E+007   -2.30691E+006    1.01385E+007   -2.42310E+006    1.42141E+005    9.20170E+006   -6.39945E+003   -9.62861E+004    1.17893E+006
            2515    1.16387E+007    9.83130E+006    9.83130E+006   -5.57465E+005   -2.74643E+006    1.25777E+007   -2.17580E+006    1.11614E+007   -2.74539E+006   -2.94407E+005    9.56720E+006   -1.73979E+004   -1.13017E+005    1.63199E+006
            2516    1.28268E+007    1.08200E+007    1.08200E+007   -8.74094E+005   -2.89874E+006    1.37188E+007   -2.34906E+006    1.24597E+007   -2.89759E+006   -5.13694E+005    1.04585E+007   -3.39493E+004   -1.17220E+005    2.02119E+006
            2517    1.41730E+007    1.18033E+007    1.18033E+007   -1.55201E+006   -3.06591E+006    1.48692E+007   -2.39513E+006    1.39894E+007   -3.06464E+006   -1.28599E+006    1.15360E+007   -3.23702E+004   -1.26748E+005    1.86640E+006
            2518    1.02460E+007    9.38784E+006    9.38784E+006    2.64502E+005   -1.69713E+006    1.10850E+007   -2.65174E+006    9.81005E+006   -1.69657E+006    2.66823E+005    9.38495E+006   -3.20035E+004   -2.00430E+004   -1.61369E+005
            2519    1.08327E+007    9.87932E+006    9.87932E+006   -1.38840E+005   -1.61628E+006    1.14956E+007   -2.70806E+006    1.06025E+007   -1.61498E+006   -1.36742E+005    9.87591E+006   -4.32744E+004   -1.56822E+004   -1.84098E+005
            2520    1.15083E+007    1.04485E+007    1.04485E+007   -5.62282E+005   -1.49981E+006    1.19483E+007   -2.79548E+006    1.14219E+007   -1.49872E+006   -5.60396E+005    1.04456E+007   -3.17727E+004   -2.71806E+003   -1.80731E+005
            2521    1.21847E+007    1.10094E+007    1.10094E+007   -9.57457E+005   -1.38198E+006    1.23914E+007   -2.89000E+006    1.21680E+007   -1.37860E+006   -9.58574E+005    1.10072E+007   -3.78386E+004    9.07579E+003   -1.64478E+005
            2522    1.27698E+007    1.14893E+007    1.14893E+007   -1.25682E+006   -1.30402E+006    1.27934E+007   -2.97617E+006    1.27696E+007   -1.26850E+006   -1.29094E+006    1.14879E+007   -2.06254E+004    2.23557E+004   -1.31468E+005
            2523    1.32136E+007    1.18497E+007    1.18497E+007   -1.18858E+006   -1.53250E+006    1.33822E+007   -3.04289E+006    1.32036E+007   -1.18942E+006   -1.53105E+006    1.18491E+007   -1.78941E+004    3.09559E+004   -8.53422E+004
            2524    1.34659E+007    1.20532E+007    1.20532E+007   -1.14129E+006   -1.66872E+006    1.37219E+007   -3.08106E+006    1.34427E+007   -1.14127E+006   -1.66856E+006    1.20530E+007   -6.61739E+003    3.57241E+004   -3.28999E+004
            2525    1.34897E+007    1.20729E+007    1.20729E+007   -1.13960E+006   -1.67790E+006    1.37508E+007   -3.08513E+006    1.34655E+007   -1.13958E+006   -1.67780E+006    1.20728E+007    5.68739E+003    3.24152E+004    2.61657E+004
            2526    1.32712E+007    1.18980E+007    1.18980E+007   -1.17839E+006   -1.55975E+006    1.34578E+007   -3.05329E+006    1.32589E+007   -1.17865E+006   -1.55904E+006    1.18976E+007    1.09724E+004    2.45138E+004    7.31912E+004
            2527    1.04364E+007    9.46133E+006    9.46133E+006    1.64998E+005   -1.82772E+006    1.12890E+007   -2.59954E+006    9.99480E+006   -1.82706E+006    1.91672E+005    9.43400E+006   -2.73878E+004   -4.91975E+004   -5.01437E+005
            2528    1.10953E+007    1.00225E+007    1.00225E+007   -2.53662E+005   -1.74178E+006    1.17643E+007   -2.67569E+006    1.08674E+007   -1.74017E+006   -2.26472E+005    9.99373E+006   -4.12949E+004   -5.97920E+004   -5.40599E+005
            2529    1.17966E+007    1.06232E+007    1.06232E+007   -6.59321E+005   -1.62786E+006    1.22510E+007   -2.77866E+006    1.17066E+007   -1.62632E+006   -6.35087E+005    1.05974E+007   -2.91128E+004   -7.46638E+004   -5.34042E+005
            2530    1.24840E+007    1.11976E+007    1.11976E+007   -1.03980E+006   -1.51921E+006    1.27168E+007   -2.87951E+006    1.24632E+007   -1.51489E+006   -1.02504E+006    1.11785E+007   -3.79346E+004   -9.49587E+004   -4.74200E+005
            2531    1.30800E+007    1.16959E+007    1.16959E+007   -1.34998E+006   -1.41804E+006    1.31139E+007   -2.97596E+006    1.30796E+007   -1.40886E+006   -1.34730E+006    1.16840E+007   -1.91778E+004   -1.07112E+005   -3.78587E+005
            2532    1.35217E+007    1.20581E+007    1.20581E+007   -1.33418E+006   -1.58956E+006    1.36476E+007   -3.04477E+006    1.35163E+007   -1.33456E+006   -1.58370E+006    1.20526E+007   -1.71267E+004   -1.21060E+005   -2.44844E+005
            2533    1.37594E+007    1.22556E+007    1.22556E+007   -1.28704E+006   -1.71092E+006    1.39665E+007   -3.08587E+006    1.37447E+007   -1.28601E+006   -1.71028E+006    1.22539E+007   -4.68894E+003   -1.22029E+005   -8.90289E+004
            2534    1.37678E+007    1.22620E+007    1.22620E+007   -1.28399E+006   -1.71739E+006    1.39794E+007   -3.08687E+006    1.37524E+007   -1.28309E+006   -1.71682E+006    1.22605E+007    7.92665E+003   -1.20165E+005    7.46664E+004
            2535    1.35145E+007    1.20582E+007    1.20582E+007   -1.31811E+006   -1.59042E+006    1.36486E+007   -3.04989E+006    1.35084E+007   -1.31806E+006   -1.58559E+006    1.20533E+007    1.30218E+004   -1.07869E+005    2.34328E+005
            2536    1.08577E+007    9.65631E+006    9.65631E+006   -6.10628E+004   -2.06307E+006    1.17194E+007   -2.51073E+006    1.04302E+007   -2.06226E+006    1.67670E+004    9.57767E+006   -1.67519E+004   -8.01964E+004   -8.67726E+005
            2537    1.15757E+007    1.02937E+007    1.02937E+007   -4.49972E+005   -1.96483E+006    1.22586E+007   -2.62631E+006    1.13495E+007   -1.96345E+006   -3.73796E+005    1.02162E+007   -3.11476E+004   -7.67871E+004   -9.06921E+005
            2538    1.23184E+007    1.09405E+007    1.09405E+007   -8.35618E+005   -1.85663E+006    1.27972E+007   -2.74943E+006    1.22227E+007   -1.85603E+006   -7.71345E+005    1.08757E+007   -1.35992E+004   -6.09892E+004   -8.69764E+005
            2539    1.30302E+007    1.15566E+007    1.15566E+007   -1.17460E+006   -1.75342E+006    1.33100E+007   -2.87619E+006    1.30013E+007   -1.75155E+006   -1.12879E+006    1.15089E+007   -2.72954E+004   -5.73564E+004   -7.75783E+005
            2540    1.36425E+007    1.20781E+007    1.20781E+007   -1.47003E+006   -1.65697E+006    1.37350E+007   -2.98369E+006    1.36397E+007   -1.65622E+006   -1.44305E+006    1.20503E+007   -8.75476E+003   -4.37137E+004   -6.10896E+005
            2541    1.40909E+007    1.24613E+007    1.24613E+007   -1.58336E+006   -1.67538E+006    1.41367E+007   -3.06753E+006    1.40902E+007   -1.58541E+006   -1.66239E+006    1.24504E+007   -1.28274E+004   -4.16292E+004   -3.90964E+005
            2542    1.43161E+007    1.26510E+007    1.26510E+007   -1.54009E+006   -1.78690E+006    1.44379E+007   -3.10801E+006    1.43113E+007   -1.54009E+006   -1.78573E+006    1.26498E+007   -4.19247E+003   -3.55301E+004   -1.25580E+005
            2543    1.42821E+007    1.26274E+007    1.26274E+007   -1.53350E+006   -1.77298E+006    1.44004E+007   -3.10697E+006    1.42776E+007   -1.53346E+006   -1.77139E+006    1.26258E+007    3.75784E+003   -4.02393E+004    1.47524E+005
            2544    1.40027E+007    1.23937E+007    1.23937E+007   -1.56145E+006   -1.65606E+006    1.40498E+007   -3.05874E+006    1.40020E+007   -1.56167E+006   -1.64401E+006    1.23819E+007    4.52656E+003   -4.23667E+004    4.05410E+005
            2545    1.15099E+007    1.00109E+007    1.00109E+007   -3.78777E+005   -2.36164E+006    1.23725E+007   -2.42348E+006    1.11158E+007   -2.36060E+006   -2.27063E+005    9.85810E+006   -5.11187E+003   -1.05979E+005   -1.24690E+006
            2546    1.22685E+007    1.06967E+007    1.06967E+007   -7.21291E+005   -2.27435E+006    1.29711E+007   -2.56703E+006    1.20444E+007   -2.27180E+006   -5.86597E+005    1.05595E+007   -2.92695E+004   -1.34564E+005   -1.23836E+006
            2547    1.30375E+007    1.13951E+007    1.13951E+007   -1.03028E+006   -2.17850E+006    1.35736E+007   -2.72878E+006    1.29230E+007   -2.17621E+006   -9.17086E+005    1.12796E+007   -1.17288E+004   -1.53220E+005   -1.18362E+006
            2548    1.37931E+007    1.20569E+007    1.20569E+007   -1.34016E+006   -2.10081E+006    1.41577E+007   -2.87196E+006    1.37458E+007   -2.09597E+006   -1.25989E+006    1.19717E+007   -2.99707E+004   -1.81941E+005   -1.05026E+006
            2549    1.44496E+007    1.26394E+007    1.26394E+007   -1.59517E+006   -2.01588E+006    1.46553E+007   -3.00946E+006    1.44358E+007   -2.01247E+006   -1.54771E+006    1.25886E+007   -8.47365E+003   -1.91890E+005   -8.28375E+005
            2550    1.49124E+007    1.30435E+007    1.30435E+007   -1.77584E+006   -1.96023E+006    1.50037E+007   -3.10247E+006    1.49098E+007   -1.95533E+006   -1.76028E+006    1.30230E+007   -1.19303E+004   -2.09052E+005   -5.09778E+005
            2551    1.51282E+007    1.32380E+007    1.32380E+007   -1.86606E+006   -1.91420E+006    1.51522E+007   -3.15257E+006    1.51280E+007   -1.91124E+006   -1.86478E+006    1.32337E+007   -6.12329E+002   -2.06881E+005   -1.46381E+005
            2552    1.50583E+007    1.31766E+007    1.31766E+007   -1.85363E+006   -1.90959E+006    1.50862E+007   -3.13780E+006    1.50581E+007   -1.90399E+006   -1.85227E+006    1.31697E+007    8.75824E+003   -2.06047E+005    2.49630E+005
            2553    1.46963E+007    1.28706E+007    1.28706E+007   -1.72331E+006   -1.92600E+006    1.47966E+007   -3.07375E+006    1.46931E+007   -1.92187E+006   -1.70064E+006    1.28438E+007    1.04377E+004   -1.91691E+005    5.95307E+005
            2554    1.22929E+007    1.04707E+007    1.04707E+007   -7.48370E+005   -2.66977E+006    1.31404E+007   -2.35084E+006    1.19480E+007   -2.66888E+006   -5.30417E+005    1.02518E+007    1.48332E+004   -1.06911E+005   -1.54840E+006
            2555    1.30123E+007    1.11647E+007    1.11647E+007   -9.59391E+005   -2.58338E+006    1.37481E+007   -2.54065E+006    1.27813E+007   -2.58241E+006   -7.63451E+005    1.09678E+007   -6.40953E+003   -1.02108E+005   -1.52964E+006
            2556    1.38200E+007    1.19014E+007    1.19014E+007   -1.23068E+006   -2.51675E+006    1.44181E+007   -2.71797E+006    1.36844E+007   -2.51613E+006   -1.06548E+006    1.17355E+007    2.18797E+004   -8.30369E+004   -1.46412E+006
            2557    1.46541E+007    1.26669E+007    1.26669E+007   -1.47305E+006   -2.45222E+006    1.51191E+007   -2.91388E+006    1.45802E+007   -2.45140E+006   -1.34995E+006    1.25430E+007   -5.95485E+003   -9.59338E+004   -1.31476E+006
            2558    1.53835E+007    1.33303E+007    1.33303E+007   -1.69466E+006   -2.38829E+006    1.57186E+007   -3.08245E+006    1.53483E+007   -2.38777E+006   -1.62421E+006    1.32593E+007    9.79859E+003   -8.81836E+004   -1.02654E+006
            2559    1.59083E+007    1.38138E+007    1.38138E+007   -1.83873E+006   -2.33850E+006    1.61523E+007   -3.21220E+006    1.58906E+007   -2.33785E+006   -1.81397E+006    1.37884E+007   -2.49642E+003   -9.62943E+004   -6.22968E+005
            2560    1.61158E+007    1.40049E+007    1.40049E+007   -1.91039E+006   -2.30432E+006    1.63092E+007   -3.26339E+006    1.61050E+007   -2.30378E+006   -1.90939E+006    1.40033E+007   -1.42690E+003   -9.31737E+004   -1.27186E+005
            2561    1.59980E+007    1.39045E+007    1.39045E+007   -1.88501E+006   -2.29414E+006    1.61986E+007   -3.24178E+006    1.59862E+007   -2.29352E+006   -1.87671E+006    1.38956E+007    3.16164E+002   -9.89292E+004    3.62256E+005
            2562    1.55604E+007    1.34998E+007    1.34998E+007   -1.79480E+006   -2.31344E+006    1.58133E+007   -3.13053E+006    1.55410E+007   -2.31285E+006   -1.75055E+006    1.34550E+007   -7.89648E+003   -9.49158E+004    8.21582E+005
            2563    1.30537E+007    1.09754E+007    1.09754E+007   -1.00294E+006   -2.93759E+006    1.39130E+007   -2.34497E+006    1.27251E+007   -2.93611E+006   -7.33385E+005    1.07044E+007    2.78861E+004   -1.39903E+005   -1.77651E+006
            2564    1.37105E+007    1.15756E+007    1.15756E+007   -1.18547E+006   -2.91925E+006    1.44949E+007   -2.49031E+006    1.34605E+007   -2.91508E+006   -9.48106E+005    1.13341E+007   -2.71798E+004   -1.96089E+005   -1.73003E+006
            2565    1.45486E+007    1.23803E+007    1.23803E+007   -1.35086E+006   -2.86707E+006    1.52473E+007   -2.72078E+006    1.43692E+007   -2.86449E+006   -1.13158E+006    1.21584E+007    1.16201E+004   -1.94060E+005   -1.72160E+006
            2566    1.55227E+007    1.32830E+007    1.32830E+007   -1.57384E+006   -2.82928E+006    1.61123E+007   -2.95996E+006    1.54078E+007   -2.82547E+006   -1.40655E+006    1.31119E+007   -1.27950E+004   -2.14939E+005   -1.57220E+006
            2567    1.63945E+007    1.41175E+007    1.41175E+007   -1.73617E+006   -2.76901E+006    1.68865E+007   -3.20410E+006    1.63210E+007   -2.76609E+006   -1.64137E+006    1.40197E+007    6.24996E+003   -2.18113E+005   -1.22283E+006
            2568    1.69624E+007    1.46755E+007    1.46755E+007   -1.81079E+006   -2.72611E+006    1.74016E+007   -3.37952E+006    1.69068E+007   -2.72295E+006   -1.78134E+006    1.46429E+007   -1.85875E+003   -2.29353E+005   -6.97863E+005
            2569    1.71942E+007    1.49091E+007    1.49091E+007   -1.84535E+006   -2.69351E+006    1.76026E+007   -3.45675E+006    1.71471E+007   -2.69059E+006   -1.84462E+006    1.49055E+007    1.03448E+003   -2.26581E+005   -1.10519E+005
            2570    1.70289E+007    1.47419E+007    1.47419E+007   -1.84461E+006   -2.69739E+006    1.74393E+007   -3.39996E+006    1.69808E+007   -2.69437E+006   -1.82874E+006    1.47230E+007    2.72233E+003   -2.25419E+005    5.14537E+005
            2571    1.64973E+007    1.42335E+007    1.42335E+007   -1.77526E+006   -2.71231E+006    1.69459E+007   -3.24866E+006    1.64373E+007   -2.70950E+006   -1.70705E+006    1.41625E+007   -2.56980E+003   -2.13009E+005    1.04371E+006
            2572    1.36037E+007    1.12950E+007    1.12950E+007   -1.24953E+006   -3.16484E+006    1.44599E+007   -2.29356E+006    1.32953E+007   -3.16220E+006   -9.84340E+005    1.10272E+007    7.59223E+004   -5.96782E+004   -1.81233E+006
            2573    1.41662E+007    1.18471E+007    1.18471E+007   -1.26860E+006   -3.17631E+006    1.50234E+007   -2.46738E+006    1.38728E+007   -3.17566E+006   -9.80157E+005    1.15580E+007    2.45297E+004   -9.11833E+004   -1.92367E+006
            2574    1.51936E+007    1.27795E+007    1.27795E+007   -1.51183E+006   -3.17880E+006    1.59583E+007   -2.69630E+006    1.49858E+007   -3.17756E+006   -1.24097E+006    1.25074E+007    4.59430E+004   -9.20919E+004   -1.95101E+006
            2575    1.62986E+007    1.38968E+007    1.38968E+007   -1.57434E+006   -3.11910E+006    1.70160E+007   -3.06780E+006    1.61326E+007   -3.11837E+006   -1.36928E+006    1.36911E+007    2.00824E+004   -1.06690E+005   -1.76944E+006
            2576    1.72822E+007    1.49485E+007    1.49485E+007   -1.54267E+006   -3.02876E+006    1.79772E+007   -3.45902E+006    1.71376E+007   -3.02796E+006   -1.42688E+006    1.48319E+007    2.25891E+004   -1.08373E+005   -1.37767E+006
            2577    1.80042E+007    1.57147E+007    1.57147E+007   -1.53398E+006   -2.96021E+006    1.86749E+007   -3.74016E+006    1.78764E+007   -2.95951E+006   -1.49696E+006    1.56770E+007    7.24772E+003   -1.13852E+005   -7.98212E+005
            2578    1.82668E+007    1.59864E+007    1.59864E+007   -1.54755E+006   -2.93415E+006    1.89205E+007   -3.83489E+006    1.81478E+007   -2.93346E+006   -1.54737E+006    1.59855E+007    6.55045E+002   -1.14589E+005   -5.61185E+004
            2579    1.80483E+007    1.57606E+007    1.57606E+007   -1.54783E+006   -2.94627E+006    1.87069E+007   -3.75550E+006    1.79258E+007   -2.94552E+006   -1.52154E+006    1.57336E+007   -8.08680E+003   -1.17563E+005    6.74193E+005
            2580    1.73293E+007    1.49910E+007    1.49910E+007   -1.57784E+006   -3.00999E+006    1.80010E+007   -3.46772E+006    1.71954E+007   -3.00916E+006   -1.47686E+006    1.48892E+007   -1.91901E+004   -1.15204E+005    1.28996E+006
            2581    1.77702E+007    1.56300E+007    1.56300E+007   -1.00398E+006   -3.09188E+006    1.87219E+007   -3.84472E+006    1.74910E+007   -3.09108E+006   -8.64894E+005    1.54901E+007   -2.40198E+004   -1.13660E+005    1.51512E+006
            2582    1.86626E+007    1.67026E+007    1.67026E+007   -8.03898E+005   -2.93343E+006    1.96360E+007   -4.32175E+006    1.83863E+007   -2.93276E+006   -7.60531E+005    1.66586E+007   -1.37701E+004   -1.11443E+005    8.70548E+005
            2583    1.90525E+007    1.71757E+007    1.71757E+007   -7.19450E+005   -2.85443E+006    2.00301E+007   -4.53392E+006    1.87806E+007   -2.85384E+006   -7.19441E+005    1.71751E+007    2.20943E+002   -1.08391E+005   -1.28734E+004
            2584    1.86548E+007    1.66901E+007    1.66901E+007   -8.09092E+005   -2.93770E+006    1.96278E+007   -4.31444E+006    1.83786E+007   -2.93704E+006   -7.63341E+005    1.66437E+007    1.34517E+004   -1.11216E+005   -8.93859E+005
            2585    1.77473E+007    1.55892E+007    1.55892E+007   -1.02493E+006   -3.10751E+006    1.86967E+007   -3.81891E+006    1.74692E+007   -3.10670E+006   -8.80721E+005    1.54442E+007    2.41200E+004   -1.14665E+005   -1.54154E+006
            2586    1.65463E+007    1.41731E+007    1.41731E+007   -1.26900E+006   -3.29152E+006    1.74646E+007   -3.20419E+006    1.62647E+007   -3.29051E+006   -1.03950E+006    1.39426E+007    3.17328E+004   -1.20520E+005   -1.86902E+006
            2587    1.53208E+007    1.27189E+007    1.27189E+007   -1.56659E+006   -3.46095E+006    1.61799E+007   -2.56380E+006    1.50539E+007   -3.45985E+006   -1.30112E+006    1.24524E+007    3.02491E+004   -1.24978E+005   -1.92947E+006
            2588    1.45223E+007    1.18020E+007    1.18020E+007   -1.78827E+006   -3.50043E+006    1.53025E+007   -2.17112E+006    1.42926E+007   -3.49914E+006   -1.52786E+006    1.15403E+007    3.08883E+004   -1.32315E+005   -1.86335E+006
            2589    1.42640E+007    1.17981E+007    1.17981E+007   -1.48585E+006   -3.27684E+006    1.50749E+007   -2.34513E+006    1.40077E+007   -3.27524E+006   -1.14603E+006    1.14567E+007    4.69053E+004   -1.30802E+005   -2.09832E+006
            2590    9.80476E+006    9.03488E+006    9.03488E+006    5.91256E+005   -1.71857E+006    1.07534E+007   -2.63586E+006    9.16211E+006   -1.71832E+006    5.92620E+005    9.03327E+006   -2.21260E+004   -1.92995E+004   -1.15515E+005
            2591    9.92329E+006    9.03885E+006    9.03885E+006    5.30276E+005   -1.86185E+006    1.09007E+007   -2.56909E+006    9.24057E+006   -1.86146E+006    5.47377E+005    9.02136E+006   -1.81313E+004   -4.92591E+004   -3.82984E+005
            2592    1.02334E+007    9.10019E+006    9.10019E+006    3.09515E+005   -2.13363E+006    1.12338E+007   -2.42536E+006    9.54352E+006   -2.13295E+006    3.73441E+005    9.03558E+006   -1.00269E+004   -8.09428E+004   -7.47559E+005
            2593    1.07959E+007    9.30986E+006    9.30986E+006   -9.93877E+004   -2.47656E+006    1.17864E+007   -2.24464E+006    1.01818E+007   -2.47572E+006    4.38127E+004    9.16582E+006    8.50392E+002   -9.69785E+004   -1.15207E+006
            2594    1.15781E+007    9.74666E+006    9.74666E+006   -5.36779E+005   -2.79370E+006    1.25404E+007   -2.13873E+006    1.10668E+007   -2.79263E+006   -2.95078E+005    9.50389E+006    1.36691E+004   -1.14602E+005   -1.55786E+006
            2595    1.24842E+007    1.03701E+007    1.03701E+007   -9.27417E+005   -3.03301E+006    1.34031E+007   -2.13655E+006    1.20750E+007   -3.03200E+006   -6.12054E+005    1.00537E+007    2.42586E+004   -1.13372E+005   -1.86096E+006
            2596    1.34559E+007    1.11949E+007    1.11949E+007   -1.16315E+006   -3.14017E+006    1.43351E+007   -2.29719E+006    1.31232E+007   -3.13888E+006   -7.68854E+005    1.07993E+007    3.42246E+004   -1.28910E+005   -2.17196E+006
            2597    1.04051E+007    9.54688E+006    9.54688E+006    1.34543E+005   -1.62625E+006    1.11731E+007   -2.68506E+006    1.00617E+007   -1.61910E+006    1.30559E+005    9.54371E+006    1.09580E+005    4.91683E+004   -1.67230E+005
            2598    1.12170E+007    1.02385E+007    1.02385E+007   -3.87397E+005   -1.48840E+006    1.17269E+007   -2.78757E+006    1.10945E+007   -1.47520E+006   -3.97552E+005    1.02355E+007    1.17823E+005    5.62760E+004   -1.72511E+005
            2599    1.20441E+007    1.09309E+007    1.09309E+007   -8.74413E+005   -1.33866E+006    1.22696E+007   -2.90594E+006    1.20240E+007   -1.31272E+006   -8.98038E+005    1.09286E+007    1.05007E+005    6.96569E+004   -1.51213E+005
            2600    1.27447E+007    1.15087E+007    1.15087E+007   -1.14105E+006   -1.32888E+006    1.28376E+007   -3.01293E+006    1.27416E+007   -1.17421E+006   -1.29402E+006    1.15070E+007    7.12815E+004    8.35579E+004   -1.21638E+005
            2601    1.05951E+007    9.62468E+006    9.62468E+006    3.47093E+004   -1.74916E+006    1.13738E+007   -2.63674E+006    1.02491E+007   -1.74132E+006    5.51878E+004    9.59636E+006    9.59711E+004    1.48362E+005   -5.03711E+005
            2602    1.14130E+007    1.03442E+007    1.03442E+007   -4.50640E+005   -1.59991E+006    1.19442E+007   -2.76457E+006    1.12817E+007   -1.58726E+006   -4.37153E+005    1.03181E+007    1.04970E+005    1.46177E+005   -5.13566E+005
            2603    1.22462E+007    1.10446E+007    1.10446E+007   -9.34534E+005   -1.45224E+006    1.24968E+007   -2.88593E+006    1.22215E+007   -1.43051E+006   -9.36158E+005    1.10245E+007    9.45649E+004    1.43914E+005   -4.71154E+005
            2604    1.29628E+007    1.16500E+007    1.16500E+007   -1.24278E+006   -1.38176E+006    1.30317E+007   -3.00847E+006    1.29611E+007   -1.29210E+006   -1.32078E+006    1.16383E+007    6.30581E+004    1.38596E+005   -3.63930E+005
            2605    1.09838E+007    9.81603E+006    9.81603E+006   -1.26827E+005   -1.97440E+006    1.17904E+007   -2.57160E+006    1.06258E+007   -1.96521E+006   -5.69892E+004    9.73700E+006    7.25480E+004    2.37805E+005   -8.57528E+005
            2606    1.18477E+007    1.05711E+007    1.05711E+007   -6.08719E+005   -1.84731E+006    1.24184E+007   -2.70501E+006    1.17008E+007   -1.83278E+006   -5.53322E+005    1.05011E+007    8.77598E+004    2.60499E+005   -8.48601E+005
            2607    1.26830E+007    1.13018E+007    1.13018E+007   -1.02572E+006   -1.70915E+006    1.30109E+007   -2.85564E+006    1.26415E+007   -1.68716E+006   -9.94125E+005    1.12482E+007    8.46835E+004    2.90808E+005   -7.62727E+005
            2608    1.34251E+007    1.19305E+007    1.19305E+007   -1.38028E+006   -1.60606E+006    1.35366E+007   -2.98140E+006    1.34209E+007   -1.57189E+006   -1.37834E+006    1.18944E+007    5.85185E+004    3.16324E+005   -6.19418E+005
            2609    1.15906E+007    1.01273E+007    1.01273E+007   -4.44092E+005   -2.26663E+006    1.23939E+007   -2.47218E+006    1.12614E+007   -2.25691E+006   -3.05829E+005    9.97927E+006    3.64460E+004    3.00010E+005   -1.21256E+006
            2610    1.24002E+007    1.08964E+007    1.08964E+007   -7.75992E+005   -2.12172E+006    1.30182E+007   -2.66624E+006    1.22343E+007   -2.11031E+006   -6.65635E+005    1.07747E+007    4.86751E+004    3.04004E+005   -1.15257E+006
            2611    1.32209E+007    1.16155E+007    1.16155E+007   -1.16208E+006   -2.00823E+006    1.36237E+007   -2.81505E+006    1.31598E+007   -1.99404E+006   -1.07842E+006    1.15176E+007    5.06083E+004    3.16394E+005   -1.07290E+006
            2612    1.40395E+007    1.23387E+007    1.23387E+007   -1.48849E+006   -1.90391E+006    1.42426E+007   -2.98210E+006    1.40257E+007   -1.89043E+006   -1.43655E+006    1.22733E+007    2.93068E+004    3.24799E+005   -8.94606E+005
            2613    1.23932E+007    1.06283E+007    1.06283E+007   -7.31887E+005   -2.58840E+006    1.32167E+007   -2.43600E+006    1.20744E+007   -2.57634E+006   -5.33919E+005    1.04183E+007    3.51181E+003    3.76604E+005   -1.49158E+006
            2614    1.30395E+007    1.12136E+007    1.12136E+007   -9.90654E+005   -2.52524E+006    1.37389E+007   -2.56592E+006    1.28340E+007   -2.50890E+006   -8.30364E+005    1.10370E+007    2.70524E+004    4.21663E+005   -1.40485E+006
            2615    1.39250E+007    1.20225E+007    1.20225E+007   -1.30027E+006   -2.43521E+006    1.44577E+007   -2.76234E+006    1.38203E+007   -2.41413E+006   -1.16136E+006    1.18625E+007    3.73038E+004    4.65164E+005   -1.38380E+006
            2616    1.48252E+007    1.28310E+007    1.28310E+007   -1.59445E+006   -2.36397E+006    1.51950E+007   -2.95752E+006    1.47802E+007   -2.34310E+006   -1.50419E+006    1.27199E+007    1.98139E+004    4.98167E+005   -1.16627E+006
            2617    1.30007E+007    1.09205E+007    1.09205E+007   -1.06906E+006   -2.89769E+006    1.38182E+007   -2.31791E+006    1.27065E+007   -2.88854E+006   -8.68003E+005    1.07103E+007   -4.33434E+004    3.52678E+005   -1.53896E+006
            2618    1.35642E+007    1.14933E+007    1.14933E+007   -1.13181E+006   -2.84689E+006    1.43402E+007   -2.50488E+006    1.33170E+007   -2.83800E+006   -8.93211E+005    1.12458E+007   -4.61576E+004    3.54027E+005   -1.71853E+006
            2619    1.46691E+007    1.24879E+007    1.24879E+007   -1.46469E+006   -2.80547E+006    1.52934E+007   -2.73927E+006    1.45302E+007   -2.79451E+006   -1.26377E+006    1.22761E+007   -2.01534E+004    3.98713E+005   -1.66400E+006
            2620    1.56586E+007    1.34190E+007    1.34190E+007   -1.66166E+006   -2.75977E+006    1.61788E+007   -2.99919E+006    1.55716E+007   -2.74876E+006   -1.52123E+006    1.32676E+007   -3.16029E+004    4.19452E+005   -1.44831E+006
            2621    1.30772E+007    1.07898E+007    1.07898E+007   -1.06970E+006   -3.23486E+006    1.40246E+007   -2.16174E+006    1.26645E+007   -3.21857E+006   -7.94017E+005    1.04978E+007   -2.45941E+004    4.64484E+005   -1.78910E+006
            2622    1.42204E+007    1.17493E+007    1.17493E+007   -1.55096E+006   -3.24027E+006    1.49896E+007   -2.31936E+006    1.39920E+007   -3.22712E+006   -1.27290E+006    1.14581E+007   -4.78070E+004    4.38706E+005   -1.90247E+006
            2623    1.51378E+007    1.26573E+007    1.26573E+007   -1.59881E+006   -3.22995E+006    1.58873E+007   -2.60952E+006    1.49381E+007   -3.21608E+006   -1.34976E+006    1.23944E+007   -4.30456E+004    4.63907E+005   -1.86764E+006
            2624    1.63277E+007    1.38944E+007    1.38944E+007   -1.60086E+006   -3.15473E+006    1.70491E+007   -3.04627E+006    1.61601E+007   -3.14130E+006   -1.41858E+006    1.36987E+007   -4.92837E+004    4.75704E+005   -1.66998E+006
            2625    1.65833E+007    1.41405E+007    1.41405E+007   -1.25313E+006   -3.41958E+006    1.75601E+007   -3.15593E+006    1.62604E+007   -3.41170E+006   -1.03117E+006    1.39107E+007   -9.67504E+004    3.25802E+005   -1.84085E+006
            2626    1.53295E+007    1.27392E+007    1.27392E+007   -1.44509E+006   -3.52343E+006    1.62626E+007   -2.59022E+006    1.50076E+007   -3.51390E+006   -1.19439E+006    1.24790E+007   -1.08806E+005    3.41416E+005   -1.87542E+006
            2627    1.40794E+007    1.13302E+007    1.13302E+007   -1.65839E+006   -3.63194E+006    1.49621E+007   -2.01328E+006    1.37631E+007   -3.62161E+006   -1.43665E+006    1.10981E+007   -1.11093E+005    3.37066E+005   -1.69030E+006
            2628    1.39835E+007    1.10560E+007    1.10560E+007   -2.14144E+006   -3.59936E+006    1.46553E+007   -1.77172E+006    1.38109E+007   -3.58819E+006   -1.98968E+006    1.08930E+007   -1.02573E+005    3.38250E+005   -1.42014E+006
            2629    9.81284E+006    9.05491E+006    9.05491E+006    5.66348E+005   -1.68938E+006    1.07443E+007   -2.64396E+006    9.20197E+006   -1.68656E+006    5.65049E+005    9.05338E+006    7.59197E+004    4.98378E+004   -1.05068E+005
            2630    9.91107E+006    9.04924E+006    9.04924E+006    5.33477E+005   -1.82987E+006    1.08791E+007   -2.58428E+006    9.24465E+006   -1.82564E+006    5.48579E+005    9.02992E+006    6.48753E+004    1.52322E+005   -3.83181E+005
            2631    1.02075E+007    9.10559E+006    9.10559E+006    3.30988E+005   -2.09703E+006    1.12026E+007   -2.44652E+006    9.52475E+006   -2.09080E+006    3.91789E+005    9.03855E+006    4.25996E+004    2.32502E+005   -7.37120E+005
            2632    1.07533E+007    9.33219E+006    9.33219E+006   -3.46758E+003   -2.42560E+006    1.17578E+007   -2.30104E+006    1.01118E+007   -2.41707E+006    1.45383E+005    9.17481E+006    1.36382E+004    2.99636E+005   -1.17320E+006
            2633    1.16492E+007    9.82633E+006    9.82633E+006   -5.61448E+005   -2.76848E+006    1.25948E+007   -2.16547E+006    1.11642E+007   -2.75911E+006   -3.00849E+005    9.55636E+006   -2.29476E+004    3.36221E+005   -1.62515E+006
            2634    1.28458E+007    1.08122E+007    1.08122E+007   -8.77703E+005   -2.93999E+006    1.37522E+007   -2.33151E+006    1.24652E+007   -2.93000E+006   -5.23531E+005    1.04481E+007   -5.23647E+004    3.65690E+005   -2.00302E+006
            2635    1.41790E+007    1.17721E+007    1.17721E+007   -1.53798E+006   -3.13976E+006    1.49118E+007   -2.36478E+006    1.39732E+007   -3.13017E+006   -1.28621E+006    1.15107E+007   -6.97722E+004    3.67621E+005   -1.81329E+006
            2636    1.78806E+007    1.56531E+007    1.56531E+007   -1.00367E+006   -3.24087E+006    1.88939E+007   -3.80284E+006    1.75616E+007   -3.23483E+006   -8.67513E+005    1.55109E+007   -7.32415E+004    3.05754E+005   -1.50457E+006
            2637    1.87871E+007    1.67301E+007    1.67301E+007   -8.08651E+005   -3.09586E+006    1.98259E+007   -4.27519E+006    1.84699E+007   -3.09143E+006   -7.64676E+005    1.66817E+007   -3.90180E+004    2.85626E+005   -8.79649E+005
            2638    1.91877E+007    1.72191E+007    1.72191E+007   -7.13928E+005   -3.01565E+006    2.02348E+007   -4.49652E+006    1.88734E+007   -3.01180E+006   -7.13929E+005    1.72153E+007   -1.19165E+003    2.79113E+005   -1.02274E+003
            2639    1.88083E+007    1.67616E+007    1.67616E+007   -7.93027E+005   -3.08959E+006    1.98511E+007   -4.29298E+006    1.84889E+007   -3.08526E+006   -7.49056E+005    1.67133E+007    3.79898E+004    2.83213E+005    8.79815E+005
            2640    1.78646E+007    1.56305E+007    1.56305E+007   -1.00596E+006   -3.25015E+006    1.88807E+007   -3.79147E+006    1.75433E+007   -3.24431E+006   -8.66110E+005    1.54848E+007    7.29973E+004    2.99670E+005    1.52358E+006
            2641    1.66255E+007    1.41823E+007    1.41823E+007   -1.25044E+006   -3.42237E+006    1.76047E+007   -3.16983E+006    1.63017E+007   -3.41470E+006   -1.02836E+006    1.39526E+007    9.74553E+004    3.18096E+005    1.84407E+006
            2642    1.53606E+007    1.27003E+007    1.27003E+007   -1.54856E+006   -3.57157E+006    1.62719E+007   -2.52672E+006    1.50565E+007   -3.56207E+006   -1.29597E+006    1.24382E+007    1.13105E+005    3.30425E+005    1.88824E+006
            2643    1.45564E+007    1.17838E+007    1.17838E+007   -1.77242E+006   -3.60012E+006    1.53839E+007   -2.13708E+006    1.42948E+007   -3.59006E+006   -1.53035E+006    1.15317E+007    1.09171E+005    3.36650E+005    1.80277E+006
            2644    1.43164E+007    1.18175E+007    1.18175E+007   -1.45301E+006   -3.35478E+006    1.51722E+007   -2.33656E+006    1.40280E+007   -3.34533E+006   -1.13538E+006    1.14904E+007    9.93946E+004    3.45766E+005    2.03102E+006
            2645    1.73166E+007    1.49162E+007    1.49162E+007   -1.59219E+006   -3.10881E+006    1.80250E+007   -3.40507E+006    1.71662E+007   -3.09522E+006   -1.49084E+006    1.48013E+007   -3.51662E+004    4.93227E+005   -1.28903E+006
            2646    1.65270E+007    1.42642E+007    1.42642E+007   -1.76191E+006   -2.72192E+006    1.69861E+007   -3.26012E+006    1.64641E+007   -2.70999E+006   -1.69498E+006    1.41853E+007   -1.46617E+004    4.45993E+005   -1.03478E+006
            2647    1.55459E+007    1.34741E+007    1.34741E+007   -1.80141E+006   -2.32882E+006    1.58029E+007   -3.11461E+006    1.55258E+007   -2.30604E+006   -1.76204E+006    1.34119E+007    2.16090E+004    5.34125E+005   -8.20192E+005
            2648    1.46500E+007    1.28690E+007    1.28690E+007   -1.71106E+006   -1.84983E+006    1.47188E+007   -3.10271E+006    1.46485E+007   -1.83089E+006   -1.69795E+006    1.28370E+007    2.41970E+004    3.36673E+005   -5.95988E+005
            2649    1.39845E+007    1.23978E+007    1.23978E+007   -1.49186E+006   -1.67966E+006    1.40775E+007   -3.07543E+006    1.39817E+007   -1.49967E+006   -1.65220E+006    1.23782E+007    4.31373E+004    3.44154E+005   -3.96522E+005
            2650    1.34576E+007    1.20543E+007    1.20543E+007   -1.20256E+006   -1.59549E+006    1.36498E+007   -3.08540E+006    1.34447E+007   -1.20641E+006   -1.58631E+006    1.20489E+007    4.25037E+004    1.33537E+005   -2.33752E+005
            2651    1.32295E+007    1.19008E+007    1.19008E+007   -1.08159E+006   -1.56262E+006    1.34635E+007   -3.08554E+006    1.32098E+007   -1.08563E+006   -1.55749E+006    1.18997E+007    4.71614E+004    9.78423E+004   -6.98791E+004
            2652    1.80354E+007    1.56800E+007    1.56800E+007   -1.56214E+006   -3.05569E+006    1.87357E+007   -3.68740E+006    1.78955E+007   -3.04238E+006   -1.53523E+006    1.56398E+007   -2.13325E+004    4.98789E+005   -6.80403E+005
            2653    1.70673E+007    1.47813E+007    1.47813E+007   -1.83511E+006   -2.70369E+006    1.74850E+007   -3.41418E+006    1.70175E+007   -2.69193E+006   -1.81942E+006    1.47539E+007   -1.30419E+004    4.53172E+005   -5.10111E+005
            2654    1.59735E+007    1.38686E+007    1.38686E+007   -1.90282E+006   -2.29965E+006    1.61682E+007   -3.22204E+006    1.59624E+007   -2.28013E+006   -1.89575E+006    1.38420E+007    4.53473E+003    5.51376E+005   -3.50211E+005
            2655    1.50055E+007    1.31747E+007    1.31747E+007   -1.80354E+006   -1.85791E+006    1.50326E+007   -3.17110E+006    1.50053E+007   -1.79736E+006   -1.85274E+006    1.31634E+007    3.37985E+003    3.37600E+005   -2.37038E+005
            2656    1.42501E+007    1.26211E+007    1.26211E+007   -1.46852E+006   -1.78433E+006    1.44054E+007   -3.12273E+006    1.42422E+007   -1.46016E+006   -1.78237E+006    1.26107E+007    1.13162E+004    3.57046E+005   -1.35580E+005
            2657    1.36983E+007    1.22527E+007    1.22527E+007   -1.15946E+006   -1.71489E+006    1.39676E+007   -3.12612E+006    1.36729E+007   -1.15842E+006   -1.71437E+006    1.22511E+007    8.30195E+003    1.26531E+005   -7.15267E+004
            2658    1.34458E+007    1.20759E+007    1.20759E+007   -1.03915E+006   -1.67792E+006    1.37538E+007   -3.11961E+006    1.34116E+007   -1.03844E+006   -1.67772E+006    1.20750E+007    9.97145E+003    1.06977E+005   -2.26794E+004
            2659    1.82638E+007    1.59143E+007    1.59143E+007   -1.55668E+006   -3.05061E+006    1.89649E+007   -3.76900E+006    1.81256E+007   -3.03729E+006   -1.55655E+006    1.59009E+007    9.60419E+002    5.02333E+005    4.67163E+004
            2660    1.72313E+007    1.49487E+007    1.49487E+007   -1.82425E+006   -2.70705E+006    1.76558E+007   -3.47247E+006    1.71803E+007   -2.69514E+006   -1.82343E+006    1.49360E+007    6.79831E+002    4.58317E+005    1.17586E+005
            2661    1.60776E+007    1.39546E+007    1.39546E+007   -1.92068E+006   -2.31788E+006    1.62725E+007   -3.23870E+006    1.60666E+007   -2.29832E+006   -1.91949E+006    1.39339E+007   -6.19721E+002    5.62652E+005    1.41762E+005
            2662    1.50494E+007    1.32140E+007    1.32140E+007   -1.81541E+006   -1.85526E+006    1.50692E+007   -3.18110E+006    1.50492E+007   -1.81056E+006   -1.85059E+006    1.32044E+007   -6.76766E+003    3.42471E+005    1.61205E+005
            2663    1.42653E+007    1.26287E+007    1.26287E+007   -1.48391E+006   -1.78444E+006    1.44131E+007   -3.12012E+006    1.42581E+007   -1.47510E+006   -1.78251E+006    1.26180E+007   -1.06644E+004    3.65689E+005    1.35116E+005
            2664    1.36799E+007    1.22371E+007    1.22371E+007   -1.17018E+006   -1.69999E+006    1.39371E+007   -3.12231E+006    1.36568E+007   -1.16946E+006   -1.69892E+006    1.22353E+007   -1.50431E+004    1.27104E+005    9.08156E+004
            2665    1.34205E+007    1.20541E+007    1.20541E+007   -1.04981E+006   -1.66200E+006    1.37161E+007   -3.11410E+006    1.33890E+007   -1.04938E+006   -1.66142E+006    1.20531E+007   -1.71828E+004    1.10417E+005    3.33879E+004
            2666    1.79961E+007    1.56345E+007    1.56345E+007   -1.55607E+006   -3.07146E+006    1.87059E+007   -3.66898E+006    1.78517E+007   -3.05823E+006   -1.51896E+006    1.55841E+007    2.51285E+004    4.96482E+005    7.97514E+005
            2667    1.69753E+007    1.46904E+007    1.46904E+007   -1.80217E+006   -2.72947E+006    1.74199E+007   -3.38627E+006    1.69181E+007   -2.71798E+006   -1.77178E+006    1.46486E+007    1.48142E+004    4.46551E+005    7.07290E+005
            2668    1.58369E+007    1.37334E+007    1.37334E+007   -1.85464E+006   -2.34111E+006    1.60745E+007   -3.17922E+006    1.58201E+007   -2.32054E+006   -1.82981E+006    1.36880E+007   -6.47520E+003    5.50342E+005    6.42923E+005
            2669    1.47988E+007    1.29906E+007    1.29906E+007   -1.75957E+006   -1.85624E+006    1.48469E+007   -3.12495E+006    1.47981E+007   -1.84026E+006   -1.74927E+006    1.29644E+007   -1.54083E+004    3.34530E+005    5.25808E+005
            2670    1.40157E+007    1.24202E+007    1.24202E+007   -1.50494E+006   -1.68431E+006    1.41045E+007   -3.07699E+006    1.40131E+007   -1.50652E+006   -1.66260E+006    1.24001E+007   -3.23450E+004    3.55485E+005    3.95428E+005
            2671    1.34296E+007    1.20306E+007    1.20306E+007   -1.20282E+006   -1.58700E+006    1.36176E+007   -3.08025E+006    1.34172E+007   -1.20610E+006   -1.57816E+006    1.20250E+007   -3.89658E+004    1.26222E+005    2.43767E+005
            2672    1.31644E+007    1.18480E+007    1.18480E+007   -1.08333E+006   -1.53773E+006    1.33857E+007   -3.07564E+006    1.31467E+007   -1.08714E+006   -1.53259E+006    1.18466E+007   -4.51526E+004    1.05069E+005    7.99090E+004
            2673    1.72437E+007    1.48417E+007    1.48417E+007   -1.56068E+006   -3.13535E+006    1.79770E+007   -3.38187E+006    1.70808E+007   -3.12184E+006   -1.44365E+006    1.47111E+007    3.71826E+004    4.91048E+005    1.38001E+006
            2674    1.63620E+007    1.40882E+007    1.40882E+007   -1.71831E+006   -2.77786E+006    1.68660E+007   -3.19733E+006    1.62845E+007   -2.76642E+006   -1.62244E+006    1.39808E+007    1.79229E+004    4.34496E+005    1.22835E+006
            2675    1.52748E+007    1.32186E+007    1.32186E+007   -1.68512E+006   -2.40203E+006    1.56206E+007   -3.04382E+006    1.52369E+007   -2.37871E+006   -1.61797E+006    1.31281E+007   -2.37021E+004    5.34577E+005    1.03548E+006
            2676    1.42994E+007    1.25526E+007    1.25526E+007   -1.56026E+006   -1.92619E+006    1.44788E+007   -3.02206E+006    1.42888E+007   -1.90990E+006   -1.51968E+006    1.24958E+007   -3.61466E+004    3.33764E+005    8.32627E+005
            2677    1.35489E+007    1.20219E+007    1.20219E+007   -1.42020E+006   -1.63132E+006    1.36532E+007   -2.99012E+006    1.35452E+007   -1.58771E+006   -1.42835E+006    1.19864E+007   -6.34025E+004    3.42492E+005    6.02361E+005
            2678    1.29805E+007    1.16589E+007    1.16589E+007   -1.24253E+006   -1.39925E+006    1.30581E+007   -3.00569E+006    1.29783E+007   -1.29485E+006   -1.33504E+006    1.16470E+007   -7.05905E+004    1.33785E+005    3.70161E+005
            2679    1.27191E+007    1.14840E+007    1.14840E+007   -1.13668E+006   -1.33118E+006    1.28152E+007   -3.00540E+006    1.27157E+007   -1.17809E+006   -1.28795E+006    1.14822E+007   -7.92269E+004    9.52014E+004    1.19263E+005
            2680    1.62255E+007    1.37609E+007    1.37609E+007   -1.60373E+006   -3.20654E+006    1.69674E+007   -2.98353E+006    1.60459E+007   -3.19308E+006   -1.39768E+006    1.35414E+007    5.62642E+004    4.74356E+005    1.76656E+006
            2681    1.54401E+007    1.32125E+007    1.32125E+007   -1.56465E+006   -2.81473E+006    1.60272E+007   -2.94436E+006    1.53257E+007   -2.80439E+006   -1.39636E+006    1.30338E+007    4.13832E+004    4.04815E+005    1.56744E+006
            2682    1.45091E+007    1.25315E+007    1.25315E+007   -1.46272E+006   -2.44275E+006    1.49743E+007   -2.87535E+006    1.44343E+007   -2.42304E+006   -1.34349E+006    1.23926E+007   -1.31866E+004    4.94001E+005    1.30479E+006
            2683    1.36177E+007    1.19520E+007    1.19520E+007   -1.31322E+006   -1.99281E+006    1.39448E+007   -2.88198E+006    1.35795E+007   -1.98140E+006   -1.23576E+006    1.18631E+007   -2.94007E+004    3.17107E+005    1.03841E+006
            2684    1.29243E+007    1.14960E+007    1.14960E+007   -1.14797E+006   -1.69137E+006    1.31874E+007   -2.88556E+006    1.28985E+007   -1.67040E+006   -1.11671E+006    1.14438E+007   -6.69386E+004    3.12228E+005    7.53475E+005
            2685    1.23836E+007    1.11611E+007    1.11611E+007   -1.01834E+006   -1.41706E+006    1.25781E+007   -2.90857E+006    1.23691E+007   -1.39666E+006   -1.02010E+006    1.11425E+007   -7.98796E+004    1.35848E+005    4.58098E+005
            2686    1.21312E+007    1.10034E+007    1.10034E+007   -9.38895E+005   -1.30833E+006    1.23117E+007   -2.91872E+006    1.21185E+007   -1.28235E+006   -9.62532E+005    1.10010E+007   -9.26222E+004    7.98271E+004    1.48132E+005
            2687    1.51032E+007    1.26320E+007    1.26320E+007   -1.53076E+006   -3.26239E+006    1.58944E+007   -2.61296E+006    1.48774E+007   -3.24821E+006   -1.26014E+006    1.23472E+007    4.04944E+004    4.67604E+005    1.93922E+006
            2688    1.44404E+007    1.22848E+007    1.22848E+007   -1.32279E+006   -2.86478E+006    1.51496E+007   -2.69907E+006    1.42534E+007   -2.85452E+006   -1.10810E+006    1.20598E+007    2.42690E+004    3.86493E+005    1.69658E+006
            2689    1.36868E+007    1.17746E+007    1.17746E+007   -1.20332E+006   -2.52516E+006    1.42998E+007   -2.68205E+006    1.35421E+007   -2.50365E+006   -1.04992E+006    1.15997E+007   -4.18717E+004    4.68144E+005    1.43185E+006
            2690    1.28688E+007    1.12862E+007    1.12862E+007   -9.97175E+005   -2.09737E+006    1.33836E+007   -2.73055E+006    1.27623E+007   -2.08339E+006   -8.93946E+005    1.11690E+007   -5.69373E+004    3.15567E+005    1.15757E+006
            2691    1.22291E+007    1.08881E+007    1.08881E+007   -8.10315E+005   -1.81015E+006    1.26983E+007   -2.75589E+006    1.21366E+007   -1.79015E+006   -7.63675E+005    1.08215E+007   -9.59965E+004    2.88988E+005    8.38673E+005
            2692    1.17134E+007    1.05905E+007    1.05905E+007   -6.47486E+005   -1.54649E+006    1.21370E+007   -2.79885E+006    1.16354E+007   -1.52965E+006   -6.39001E+005    1.05652E+007   -1.09453E+005    1.45188E+005    5.15945E+005
            2693    1.14619E+007    1.04405E+007    1.04405E+007   -5.55499E+005   -1.43644E+006    1.18770E+007   -2.81620E+006    1.13854E+007   -1.41870E+006   -5.70400E+005    1.04377E+007   -1.21566E+005    6.58118E+004    1.65513E+005
            2694    1.40728E+007    1.17102E+007    1.17102E+007   -1.28735E+006   -3.23489E+006    1.49451E+007   -2.39599E+006    1.37647E+007   -3.22136E+006   -1.00079E+006    1.14101E+007    6.88066E+004    4.44123E+005    1.90752E+006
            2695    1.35942E+007    1.14885E+007    1.14885E+007   -1.16204E+006   -2.88511E+006    1.43736E+007   -2.48045E+006    1.33452E+007   -2.87618E+006   -9.29686E+005    1.12472E+007    7.19349E+004    3.44616E+005    1.69935E+006
            2696    1.29061E+007    1.10756E+007    1.10756E+007   -9.28394E+005   -2.57462E+006    1.36502E+007   -2.52420E+006    1.26667E+007   -2.56083E+006   -7.43066E+005    1.08765E+007   -2.42985E+003    4.08927E+005    1.48614E+006
            2697    1.21330E+007    1.06178E+007    1.06178E+007   -6.91387E+005   -2.19826E+006    1.28161E+007   -2.57606E+006    1.19198E+007   -2.18841E+006   -5.64526E+005    1.04811E+007   -3.34298E+004    3.04225E+005    1.20412E+006
            2698    1.15028E+007    1.02609E+007    1.02609E+007   -4.30136E+005   -1.91045E+006    1.21713E+007   -2.64010E+006    1.12856E+007   -1.89899E+006   -3.64214E+005    1.01835E+007   -7.66641E+004    2.54433E+005    8.76543E+005
            2699    1.10273E+007    1.00016E+007    1.00016E+007   -2.47095E+005   -1.66674E+006    1.16684E+007   -2.69593E+006    1.08188E+007   -1.65691E+006   -2.28578E+005    9.97329E+006   -9.91700E+004    1.49113E+005    5.21324E+005
            2700    1.07846E+007    9.87132E+006    9.87132E+006   -1.34438E+005   -1.55189E+006    1.14232E+007   -2.72833E+006    1.05720E+007   -1.54232E+006   -1.40771E+005    9.86808E+006   -1.13890E+005    5.18729E+004    1.73933E+005
            2701    1.35952E+007    1.12200E+007    1.12200E+007   -1.27543E+006   -3.25744E+006    1.44774E+007   -2.22904E+006    1.32643E+007   -3.24281E+006   -1.01885E+006    1.09488E+007    2.51941E+004    4.48521E+005    1.77376E+006
            2702    1.29851E+007    1.08960E+007    1.08960E+007   -1.01406E+006   -2.94733E+006    1.38433E+007   -2.31153E+006    1.26552E+007   -2.93711E+006   -7.49771E+005    1.06215E+007    3.11496E+004    3.69802E+005    1.75465E+006
            2703    1.22334E+007    1.04078E+007    1.04078E+007   -7.49051E+005   -2.67396E+006    1.30817E+007   -2.32826E+006    1.18855E+007   -2.66205E+006   -5.38830E+005    1.01856E+007   -5.89350E+003    3.69996E+005    1.52230E+006
            2704    1.14252E+007    9.94688E+006    9.94688E+006   -3.76690E+005   -2.32849E+006    1.22754E+007   -2.41390E+006    1.10407E+007   -2.31814E+006   -2.33198E+005    9.79305E+006   -3.85962E+004    3.09025E+005    1.22030E+006
            2705    1.08068E+007    9.62750E+006    9.62750E+006   -6.50194E+004   -2.02530E+006    1.16528E+007   -2.51239E+006    1.03955E+007   -2.01626E+006    5.41968E+003    9.54802E+006   -7.28451E+004    2.38081E+005    8.48770E+005
            2706    1.03838E+007    9.43637E+006    9.43637E+006    1.57105E+005   -1.77940E+006    1.12158E+007   -2.60469E+006    9.96536E+006   -1.77193E+006    1.77453E+005    9.40854E+006   -9.54816E+004    1.52697E+005    4.89511E+005
            2707    1.01984E+007    9.36615E+006    9.36615E+006    2.55267E+005   -1.65083E+006    1.10170E+007   -2.65686E+006    9.78554E+006   -1.64438E+006    2.51604E+005    9.36337E+006   -1.08247E+005    4.76270E+004    1.53796E+005
            2708    9.75042E+006    9.00735E+006    9.00735E+006    6.00082E+005   -1.68159E+006    1.06889E+007   -2.64194E+006    9.12029E+006   -1.67918E+006    5.99425E+005    9.00559E+006   -6.98133E+004    5.12083E+004    1.13150E+005
            2709    9.87619E+006    9.01337E+006    9.01337E+006    5.34699E+005   -1.83076E+006    1.08441E+007   -2.57244E+006    9.20590E+006   -1.82689E+006    5.49542E+005    8.99467E+006   -5.77403E+004    1.53799E+005    3.74801E+005
            2710    1.01885E+007    9.07377E+006    9.07377E+006    3.17370E+005   -2.10883E+006    1.11826E+007   -2.42743E+006    9.50539E+006   -2.10283E+006    3.77390E+005    9.00775E+006   -3.48581E+004    2.34836E+005    7.29560E+005
            2711    1.07523E+007    9.28160E+006    9.28160E+006   -7.97315E+004   -2.46208E+006    1.17437E+007   -2.24660E+006    1.01326E+007   -2.45387E+006    5.59830E+004    9.13768E+006   -2.22735E+003    3.00870E+005    1.12105E+006
            2712    1.15256E+007    9.69957E+006    9.69957E+006   -5.10448E+005   -2.79836E+006    1.24979E+007   -2.13025E+006    1.09971E+007   -2.78913E+006   -2.80636E+005    9.46053E+006    3.39136E+004    3.35816E+005    1.51417E+006
            2713    1.24323E+007    1.03184E+007    1.03184E+007   -8.78428E+005   -3.06044E+006    1.33789E+007   -2.12652E+006    1.19901E+007   -3.05045E+006   -5.77296E+005    1.00073E+007    6.92217E+004    3.58255E+005    1.81066E+006
            2714    1.34629E+007    1.11922E+007    1.11922E+007   -1.10534E+006   -3.19238E+006    1.43846E+007   -2.29815E+006    1.30915E+007   -3.18263E+006   -7.27182E+005    1.08043E+007    9.88190E+004    3.50548E+005    2.12397E+006
            2715    1.40038E+007    1.10695E+007    1.10695E+007   -2.15804E+006   -3.59900E+006    1.46685E+007   -1.77083E+006    1.38355E+007   -3.58781E+006   -2.00550E+006    1.09058E+007   -1.02162E+005   -3.39028E+005    1.42526E+006
            2716    1.40512E+007    1.12880E+007    1.12880E+007   -1.68185E+006   -3.63940E+006    1.49274E+007   -1.98890E+006    1.37394E+007   -3.62910E+006   -1.46458E+006    1.10604E+007   -1.09902E+005   -3.36931E+005    1.67233E+006
            2717    1.52965E+007    1.27001E+007    1.27001E+007   -1.45522E+006   -3.52650E+006    1.62266E+007   -2.57280E+006    1.49761E+007   -3.51693E+006   -1.20539E+006    1.24407E+007   -1.08730E+005   -3.41938E+005    1.87033E+006
            2718    1.65640E+007    1.41218E+007    1.41218E+007   -1.25197E+006   -3.41907E+006    1.75408E+007   -3.15024E+006    1.62404E+007   -3.41121E+006   -1.03086E+006    1.38928E+007   -9.63645E+004   -3.25532E+005    1.83609E+006
            2719    1.63077E+007    1.38755E+007    1.38755E+007   -1.60523E+006   -3.14918E+006    1.70247E+007   -3.04038E+006    1.61420E+007   -3.13573E+006   -1.42266E+006    1.36795E+007   -4.87753E+004   -4.75899E+005    1.67049E+006
            2720    1.56191E+007    1.33852E+007    1.33852E+007   -1.66093E+006   -2.74986E+006    1.61351E+007   -2.99147E+006    1.55334E+007   -2.73880E+006   -1.52098E+006    1.32342E+007   -3.02298E+004   -4.19581E+005    1.44433E+006
            2721    1.47910E+007    1.28073E+007    1.28073E+007   -1.58961E+006   -2.34859E+006    1.51559E+007   -2.95636E+006    1.47471E+007   -2.32759E+006   -1.50078E+006    1.26974E+007    2.10081E+004   -4.96436E+005    1.15765E+006
            2722    1.40180E+007    1.23236E+007    1.23236E+007   -1.48754E+006   -1.89234E+006    1.42160E+007   -2.98126E+006    1.40048E+007   -1.87876E+006   -1.43730E+006    1.22598E+007    2.99637E+004   -3.21825E+005    8.82608E+005
            2723    1.34057E+007    1.19165E+007    1.19165E+007   -1.37530E+006   -1.60016E+006    1.35167E+007   -2.98036E+006    1.34014E+007   -1.56564E+006   -1.37436E+006    1.18811E+007    5.90057E+004   -3.15092E+005    6.12420E+005
            2724    1.29491E+007    1.16395E+007    1.16395E+007   -1.23950E+006   -1.37857E+006    1.30181E+007   -3.00714E+006    1.29474E+007   -1.28929E+006   -1.31730E+006    1.16280E+007    6.33083E+004   -1.35759E+005    3.61546E+005
            2725    1.27415E+007    1.15066E+007    1.15066E+007   -1.14028E+006   -1.32743E+006    1.28340E+007   -3.01295E+006    1.27384E+007   -1.17372E+006   -1.29230E+006    1.15049E+007    7.13609E+004   -8.24347E+004    1.21463E+005
            2726    1.51059E+007    1.26268E+007    1.26268E+007   -1.60137E+006   -3.22566E+006    1.58524E+007   -2.59991E+006    1.49075E+007   -3.21178E+006   -1.35161E+006    1.23631E+007   -4.27494E+004   -4.63414E+005    1.86840E+006
            2727    1.46241E+007    1.24552E+007    1.24552E+007   -1.45263E+006   -2.79275E+006    1.52480E+007   -2.73662E+006    1.44849E+007   -2.78173E+006   -1.25212E+006    1.22437E+007   -1.89352E+004   -3.98476E+005    1.65982E+006
            2728    1.38743E+007    1.19848E+007    1.19848E+007   -1.28991E+006   -2.42007E+006    1.44048E+007   -2.75827E+006    1.37702E+007   -2.39904E+006   -1.15316E+006    1.18270E+007    3.83740E+004   -4.61956E+005    1.37157E+006
            2729    1.31924E+007    1.15971E+007    1.15971E+007   -1.15507E+006   -1.99527E+006    1.35924E+007   -2.81560E+006    1.31320E+007   -1.98109E+006   -1.07295E+006    1.15008E+007    5.15683E+004   -3.12842E+005    1.06366E+006
            2730    1.26722E+007    1.12950E+007    1.12950E+007   -1.02478E+006   -1.70245E+006    1.29974E+007   -2.85591E+006    1.26313E+007   -1.68030E+006   -9.94417E+005    1.12424E+007    8.52827E+004   -2.88919E+005    7.54422E+005
            2731    1.22372E+007    1.10384E+007    1.10384E+007   -9.31382E+005   -1.44971E+006    1.24881E+007   -2.88577E+006    1.22124E+007   -1.42795E+006   -9.33588E+005    1.10188E+007    9.49536E+004   -1.41955E+005    4.64482E+005
            2732    1.20395E+007    1.09270E+007    1.09270E+007   -8.72911E+005   -1.33870E+006    1.22657E+007   -2.90512E+006    1.20192E+007   -1.31284E+006   -8.96555E+005    1.09247E+007    1.05099E+005   -6.85153E+004    1.47840E+005
            2733    1.42024E+007    1.17347E+007    1.17347E+007   -1.54588E+006   -3.23791E+006    1.49726E+007   -2.31698E+006    1.39730E+007   -3.22474E+006   -1.26562E+006    1.14413E+007   -4.73261E+004   -4.38772E+005    1.90842E+006
            2734    1.35211E+007    1.14581E+007    1.14581E+007   -1.12061E+006   -2.84087E+006    1.42989E+007   -2.49886E+006    1.32716E+007   -2.83193E+006   -8.85385E+005    1.12139E+007   -4.42957E+004   -3.54516E+005    1.70338E+006
            2735    1.29989E+007    1.11859E+007    1.11859E+007   -9.77184E+005   -2.51247E+006    1.36984E+007   -2.56542E+006    1.27925E+007   -2.49613E+006   -8.19079E+005    1.10115E+007    2.84350E+004   -4.19772E+005    1.39359E+006
            2736    1.23740E+007    1.08785E+007    1.08785E+007   -7.68708E+005   -2.11251E+006    1.29910E+007   -2.66576E+006    1.22082E+007   -2.10114E+006   -6.60561E+005    1.07590E+007    4.97608E+004   -3.00982E+005    1.14066E+006
            2737    1.18419E+007    1.05679E+007    1.05679E+007   -6.07831E+005   -1.84327E+006    1.24112E+007   -2.70559E+006    1.16956E+007   -1.82867E+006   -5.53040E+005    1.04985E+007    8.83679E+004   -2.59702E+005    8.45199E+005
            2738    1.14061E+007    1.03387E+007    1.03387E+007   -4.48561E+005   -1.59912E+006    1.19378E+007   -2.76366E+006    1.12745E+007   -1.58654E+006   -4.35032E+005    1.03126E+007    1.04818E+005   -1.45485E+005    5.13323E+005
            2739    1.12109E+007    1.02336E+007    1.02336E+007   -3.84034E+005   -1.48862E+006    1.17223E+007   -2.78699E+006    1.10874E+007   -1.47546E+006   -3.94233E+005    1.02307E+007    1.17874E+005   -5.55940E+004    1.69946E+005
            2740    1.30543E+007    1.07677E+007    1.07677E+007   -1.06114E+006   -3.23823E+006    1.40060E+007   -2.15612E+006    1.26361E+007   -3.22183E+006   -7.89415E+005    1.04796E+007   -2.44164E+004   -4.65874E+005    1.77417E+006
            2741    1.29973E+007    1.09222E+007    1.09222E+007   -1.06398E+006   -2.89256E+006    1.38148E+007   -2.32189E+006    1.27031E+007   -2.88338E+006   -8.62691E+005    1.07117E+007   -4.24650E+004   -3.53298E+005    1.53963E+006
            2742    1.23653E+007    1.06080E+007    1.06080E+007   -7.23096E+005   -2.58124E+006    1.31892E+007   -2.43454E+006    1.20452E+007   -2.56921E+006   -5.26580E+005    1.03994E+007    4.07677E+003   -3.75495E+005    1.48436E+006
            2743    1.15721E+007    1.01146E+007    1.01146E+007   -4.38251E+005   -2.26062E+006    1.23752E+007   -2.47190E+006    1.12425E+007   -2.25092E+006   -3.00910E+005    9.96752E+006    3.71151E+004   -2.98619E+005    1.20771E+006
            2744    1.09692E+007    9.80623E+006    9.80623E+006   -1.20634E+005   -1.97021E+006    1.17764E+007   -2.57179E+006    1.06099E+007   -1.96107E+006   -5.20666E+004    9.72851E+006    7.29549E+004   -2.36236E+005    8.49590E+005
            2745    1.05912E+007    9.62234E+006    9.62234E+006    3.60848E+004   -1.74744E+006    1.13698E+007   -2.63700E+006    1.02452E+007   -1.73960E+006    5.60550E+004    9.59453E+006    9.61956E+004   -1.47587E+005    4.98917E+005
            2746    1.04069E+007    9.54843E+006    9.54843E+006    1.33590E+005   -1.62617E+006    1.11746E+007   -2.68528E+006    1.00640E+007   -1.61902E+006    1.29605E+005    9.54526E+006    1.09502E+005   -4.95324E+004    1.67071E+005
            2747    9.81191E+006    9.05328E+006    9.05328E+006    5.67016E+005   -1.69070E+006    1.07440E+007   -2.64320E+006    9.19984E+006   -1.68789E+006    5.65844E+005    9.05163E+006    7.55722E+004   -5.19526E+004    1.09208E+005
            2748    9.90845E+006    9.04753E+006    9.04753E+006    5.36899E+005   -1.83004E+006    1.08776E+007   -2.58480E+006    9.23969E+006   -1.82581E+006    5.51926E+005    9.02827E+006    6.47804E+004   -1.52885E+005    3.82142E+005
            2749    1.02058E+007    9.10551E+006    9.10551E+006    3.31187E+005   -2.09457E+006    1.12001E+007   -2.44737E+006    9.52418E+006   -2.08836E+006    3.91004E+005    9.03948E+006    4.30810E+004   -2.31739E+005    7.31398E+005
            2750    1.07421E+007    9.32280E+006    9.32280E+006   -4.19258E+003   -2.42218E+006    1.17450E+007   -2.29881E+006    1.01022E+007   -2.41364E+006    1.41917E+005    9.16815E+006    1.49517E+004   -2.98989E+005    1.16222E+006
            2751    1.16197E+007    9.80323E+006    9.80323E+006   -5.51226E+005   -2.76354E+006    1.25668E+007   -2.16282E+006    1.11309E+007   -2.75420E+006   -2.94543E+005    9.53720E+006   -2.21167E+004   -3.35218E+005    1.61060E+006
            2752    1.28093E+007    1.07813E+007    1.07813E+007   -8.64523E+005   -2.93829E+006    1.37196E+007   -2.32618E+006    1.24232E+007   -2.92829E+006   -5.11723E+005    1.04185E+007   -5.17977E+004   -3.65380E+005    1.99539E+006
            2753    1.41942E+007    1.17932E+007    1.17932E+007   -1.53211E+006   -3.13393E+006    1.49271E+007   -2.37572E+006    1.39887E+007   -3.12438E+006   -1.27740E+006    1.15289E+007   -7.06924E+004   -3.66604E+005    1.82478E+006
            2754    1.01959E+007    9.36396E+006    9.36396E+006    2.58142E+005   -1.65188E+006    1.10158E+007   -2.65674E+006    9.78116E+006   -1.64548E+006    2.54783E+005    9.36092E+006   -1.07788E+005   -4.90464E+004   -1.60832E+005
            2755    1.07800E+007    9.86635E+006    9.86635E+006   -1.31440E+005   -1.55456E+006    1.14209E+007   -2.72678E+006    1.05656E+007   -1.54507E+006   -1.37394E+005    9.86281E+006   -1.13422E+005   -5.42214E+004   -1.81699E+005
            2756    1.14611E+007    1.04384E+007    1.04384E+007   -5.54176E+005   -1.43976E+006    1.18782E+007   -2.81484E+006    1.13837E+007   -1.42219E+006   -5.68490E+005    1.04352E+007   -1.21085E+005   -6.92869E+004   -1.77980E+005
            2757    1.21362E+007    1.10063E+007    1.10063E+007   -9.39816E+005   -1.31139E+006    1.23177E+007   -2.91836E+006    1.21234E+007   -1.28559E+006   -9.62883E+005    1.10036E+007   -9.23866E+004   -8.39822E+004   -1.61565E+005
            2758    1.27254E+007    1.14881E+007    1.14881E+007   -1.13939E+006   -1.33300E+006    1.28211E+007   -3.00525E+006    1.27221E+007   -1.18069E+006   -1.28963E+006    1.14861E+007   -7.88454E+004   -9.87559E+004   -1.29253E+005
            2759    1.31693E+007    1.18517E+007    1.18517E+007   -1.08489E+006   -1.53850E+006    1.33902E+007   -3.07611E+006    1.31517E+007   -1.08862E+006   -1.53335E+006    1.18503E+007   -4.48628E+004   -1.07542E+005   -8.44608E+004
            2760    1.34226E+007    1.20555E+007    1.20555E+007   -1.05060E+006   -1.66273E+006    1.37182E+007   -3.11405E+006    1.33912E+007   -1.05014E+006   -1.66216E+006    1.20545E+007   -1.70890E+004   -1.11565E+005   -3.32116E+004
            2761    1.34457E+007    1.20762E+007    1.20762E+007   -1.03915E+006   -1.67714E+006    1.37533E+007   -3.11996E+006    1.34116E+007   -1.03844E+006   -1.67694E+006    1.20753E+007    1.00209E+004   -1.06995E+005    2.41586E+004
            2762    1.32276E+007    1.18991E+007    1.18991E+007   -1.08159E+006   -1.56231E+006    1.34614E+007   -3.08505E+006    1.32079E+007   -1.08563E+006   -1.55717E+006    1.18980E+007    4.71479E+004   -9.72292E+004    7.06766E+004
            2763    1.03839E+007    9.43279E+006    9.43279E+006    1.57355E+005   -1.78519E+006    1.12180E+007   -2.60165E+006    9.96271E+006   -1.77771E+006    1.78628E+005    9.40403E+006   -9.48482E+004   -1.55021E+005   -4.97519E+005
            2764    1.10311E+007    1.00004E+007    1.00004E+007   -2.46262E+005   -1.67573E+006    1.16761E+007   -2.69280E+006    1.08198E+007   -1.66591E+006   -2.26128E+005    9.97045E+006   -9.84479E+004   -1.52950E+005   -5.35865E+005
            2765    1.17315E+007    1.06005E+007    1.06005E+007   -6.52497E+005   -1.55706E+006    1.21576E+007   -2.79698E+006    1.16526E+007   -1.54027E+006   -6.42210E+005    1.05734E+007   -1.08614E+005   -1.51229E+005   -5.33537E+005
            2766    1.24121E+007    1.11801E+007    1.11801E+007   -1.02742E+006   -1.42685E+006    1.26070E+007   -2.90861E+006    1.23976E+007   -1.40643E+006   -1.02790E+006    1.11602E+007   -7.93289E+004   -1.42203E+005   -4.74056E+005
            2767    1.30090E+007    1.16795E+007    1.16795E+007   -1.25024E+006   -1.40729E+006    1.30868E+007   -3.00733E+006    1.30069E+007   -1.30213E+006   -1.34293E+006    1.16670E+007   -7.03634E+004   -1.39327E+005   -3.78760E+005
            2768    1.34490E+007    1.20449E+007    1.20449E+007   -1.20770E+006   -1.59225E+006    1.36371E+007   -3.08164E+006    1.34366E+007   -1.21091E+006   -1.58337E+006    1.20392E+007   -3.88746E+004   -1.29686E+005   -2.45284E+005
            2769    1.36879E+007    1.22434E+007    1.22434E+007   -1.17244E+006   -1.70122E+006    1.39446E+007   -3.12326E+006    1.36649E+007   -1.17169E+006   -1.70018E+006    1.22416E+007   -1.51502E+004   -1.28813E+005   -8.77424E+004
            2770    1.36962E+007    1.22508E+007    1.22508E+007   -1.15991E+006   -1.71410E+006    1.39649E+007   -3.12560E+006    1.36710E+007   -1.15887E+006   -1.71353E+006    1.22492E+007    8.54414E+003   -1.26618E+005    7.58825E+004
            2771    1.34453E+007    1.20453E+007    1.20453E+007   -1.20081E+006   -1.59067E+006    1.36360E+007   -3.08461E+006    1.34326E+007   -1.20482E+006   -1.58124E+006    1.20399E+007    4.28963E+004   -1.31727E+005    2.36945E+005
            2772    1.08183E+007    9.63051E+006    9.63051E+006   -7.07669E+004   -2.03546E+006    1.16660E+007   -2.50809E+006    1.04055E+007   -2.02640E+006    1.98458E+003    9.54870E+006   -7.18260E+004   -2.40221E+005   -8.61719E+005
            2773    1.15358E+007    1.02806E+007    1.02806E+007   -4.42513E+005   -1.92458E+006    1.22052E+007   -2.63784E+006    1.13186E+007   -1.91312E+006   -3.73494E+005    1.02001E+007   -7.49297E+004   -2.58361E+005   -8.95480E+005
            2774    1.22850E+007    1.09263E+007    1.09263E+007   -8.30100E+005   -1.82645E+006    1.27528E+007   -2.75660E+006    1.21936E+007   -1.80653E+006   -7.80206E+005    1.08565E+007   -9.36475E+004   -2.94646E+005   -8.60904E+005
            2775    1.29913E+007    1.15455E+007    1.15455E+007   -1.16938E+006   -1.70560E+006    1.32511E+007   -2.89016E+006    1.29663E+007   -1.68473E+006   -1.13629E+006    1.14915E+007   -6.46515E+004   -3.18302E+005   -7.67828E+005
            2776    1.36055E+007    1.20650E+007    1.20650E+007   -1.43693E+006   -1.64179E+006    1.37068E+007   -2.99542E+006    1.36020E+007   -1.59818E+006   -1.44472E+006    1.20292E+007   -6.15395E+004   -3.47848E+005   -6.05083E+005
            2777    1.40503E+007    1.24475E+007    1.24475E+007   -1.51180E+006   -1.69216E+006    1.41396E+007   -3.08117E+006    1.40477E+007   -1.51225E+006   -1.67182E+006    1.24276E+007   -3.06896E+004   -3.59103E+005   -3.88685E+005
            2778    1.42749E+007    1.26362E+007    1.26362E+007   -1.48605E+006   -1.78652E+006    1.44227E+007   -3.12122E+006    1.42678E+007   -1.47708E+006   -1.78487E+006    1.26256E+007   -9.85128E+003   -3.66905E+005   -1.24856E+005
            2779    1.42392E+007    1.26130E+007    1.26130E+007   -1.46690E+006   -1.78038E+006    1.43934E+007   -3.12191E+006    1.42315E+007   -1.45865E+006   -1.77814E+006    1.26025E+007    1.20671E+004   -3.56680E+005    1.44536E+005
            2780    1.39620E+007    1.23800E+007    1.23800E+007   -1.48703E+006   -1.67501E+006    1.40550E+007   -3.07266E+006    1.39591E+007   -1.49536E+006   -1.64678E+006    1.23601E+007    4.37537E+004   -3.42855E+005    4.01388E+005
            2781    1.14624E+007    9.97111E+006    9.97111E+006   -3.90607E+005   -2.34156E+006    1.23127E+007   -2.41298E+006    1.10796E+007   -2.33115E+006   -2.43579E+005    9.81367E+006   -3.69316E+004   -3.12240E+005   -1.23676E+006
            2782    1.21978E+007    1.06611E+007    1.06611E+007   -7.14561E+005   -2.21924E+006    1.28803E+007   -2.57575E+006    1.19863E+007   -2.20921E+006   -5.83561E+005    1.05200E+007   -3.14862E+004   -3.10190E+005   -1.22623E+006
            2783    1.29658E+007    1.13579E+007    1.13579E+007   -1.02737E+006   -2.11921E+006    1.34771E+007   -2.73712E+006    1.28617E+007   -2.10508E+006   -9.20957E+005    1.12374E+007   -5.44583E+004   -3.23520E+005   -1.17805E+006
            2784    1.37139E+007    1.20266E+007    1.20266E+007   -1.33968E+006   -2.01032E+006    1.40369E+007   -2.89220E+006    1.36769E+007   -1.99879E+006   -1.26156E+006    1.19369E+007   -2.77160E+004   -3.23457E+005   -1.04568E+006
            2785    1.43729E+007    1.26125E+007    1.26125E+007   -1.57793E+006   -1.93619E+006    1.45486E+007   -3.03278E+006    1.43628E+007   -1.91984E+006   -1.53853E+006    1.25567E+007   -3.53362E+004   -3.37714E+005   -8.24116E+005
            2786    1.48339E+007    1.30201E+007    1.30201E+007   -1.76761E+006   -1.85956E+006    1.48796E+007   -3.13097E+006    1.48332E+007   -1.84354E+006   -1.75860E+006    1.29951E+007   -1.51038E+004   -3.35228E+005   -5.08417E+005
            2787    1.50518E+007    1.32172E+007    1.32172E+007   -1.81416E+006   -1.85504E+006    1.50722E+007   -3.18266E+006    1.50517E+007   -1.80888E+006   -1.85118E+006    1.32080E+007   -6.48246E+003   -3.41588E+005   -1.44566E+005
            2788    1.49818E+007    1.31560E+007    1.31560E+007   -1.79756E+006   -1.85391E+006    1.50099E+007   -3.16817E+006    1.49816E+007   -1.79159E+006   -1.84825E+006    1.31444E+007    3.63422E+003   -3.35076E+005    2.48723E+005
            2789    1.46218E+007    1.28484E+007    1.28484E+007   -1.70551E+006   -1.84035E+006    1.46888E+007   -3.10086E+006    1.46204E+007   -1.82071E+006   -1.69333E+006    1.28166E+007    2.50518E+004   -3.32657E+005    5.94777E+005
            2790    1.22785E+007    1.04393E+007    1.04393E+007   -7.64220E+005   -2.68726E+006    1.31266E+007   -2.32927E+006    1.19326E+007   -2.67533E+006   -5.51170E+005    1.02143E+007   -4.41571E+003   -3.71757E+005   -1.53530E+006
            2791    1.29936E+007    1.11416E+007    1.11416E+007   -9.53809E+005   -2.59431E+006    1.37360E+007   -2.53117E+006    1.27575E+007   -2.58047E+006   -7.64604E+005    1.09386E+007   -3.38227E+002   -4.12183E+005   -1.50669E+006
            2792    1.37987E+007    1.18633E+007    1.18633E+007   -1.23162E+006   -2.54509E+006    1.44084E+007   -2.69554E+006    1.36569E+007   -2.52363E+006   -1.07619E+006    1.16864E+007   -3.88545E+004   -4.73291E+005   -1.44606E+006
            2793    1.46153E+007    1.26206E+007    1.26206E+007   -1.48534E+006   -2.45563E+006    1.50763E+007   -2.89322E+006    1.45426E+007   -2.43592E+006   -1.36730E+006    1.24829E+007   -1.06029E+004   -4.99437E+005   -1.30232E+006
            2794    1.53405E+007    1.32757E+007    1.32757E+007   -1.69784E+006   -2.40727E+006    1.56829E+007   -3.05686E+006    1.53036E+007   -2.38396E+006   -1.63341E+006    1.31879E+007   -2.22608E+004   -5.39413E+005   -1.01621E+006
            2795    1.58562E+007    1.37522E+007    1.37522E+007   -1.85811E+006   -2.33885E+006    1.60911E+007   -3.18508E+006    1.58397E+007   -2.31827E+006   -1.83511E+006    1.37086E+007   -5.57828E+003   -5.53245E+005   -6.18656E+005
            2796    1.60608E+007    1.39415E+007    1.39415E+007   -1.92045E+006   -2.31114E+006    1.62526E+007   -3.23663E+006    1.60501E+007   -2.29151E+006   -1.91951E+006    1.39209E+007   -9.30011E+001   -5.63711E+005   -1.25346E+005
            2797    1.59410E+007    1.38414E+007    1.38414E+007   -1.90292E+006   -2.28920E+006    1.61306E+007   -3.21644E+006    1.59305E+007   -2.26959E+006   -1.89551E+006    1.38144E+007    4.81428E+003   -5.50969E+005    3.58946E+005
            2798    1.55081E+007    1.34423E+007    1.34423E+007   -1.80076E+006   -2.31805E+006    1.57603E+007   -3.10782E+006    1.54887E+007   -2.29503E+006   -1.76206E+006    1.33805E+007    2.23264E+004   -5.33708E+005    8.15153E+005
            2799    1.30249E+007    1.09269E+007    1.09269E+007   -1.02402E+006   -2.95616E+006    1.38830E+007   -2.31557E+006    1.26965E+007   -2.94595E+006   -7.57271E+005    1.06499E+007    3.32828E+004   -3.70624E+005   -1.76554E+006
            2800    1.36718E+007    1.15515E+007    1.15515E+007   -1.17925E+006   -2.89860E+006    1.44501E+007   -2.49123E+006    1.34253E+007   -2.88955E+006   -9.44432E+005    1.13077E+007    7.38232E+004   -3.46610E+005   -1.71383E+006
            2801    1.45375E+007    1.23702E+007    1.23702E+007   -1.33839E+006   -2.87430E+006    1.52445E+007   -2.71916E+006    1.43533E+007   -2.86407E+006   -1.12385E+006    1.21454E+007    2.54678E+004   -3.87785E+005   -1.70225E+006
            2802    1.55140E+007    1.32816E+007    1.32816E+007   -1.57266E+006   -2.81728E+006    1.60989E+007   -2.96388E+006    1.54011E+007   -2.80696E+006   -1.40732E+006    1.31059E+007    4.18933E+004   -4.05285E+005   -1.55790E+006
            2803    1.63956E+007    1.41232E+007    1.41232E+007   -1.72062E+006   -2.77335E+006    1.68966E+007   -3.20975E+006    1.63193E+007   -2.76194E+006   -1.62790E+006    1.40191E+007    1.71521E+004   -4.34213E+005   -1.20968E+006
            2804    1.69672E+007    1.46844E+007    1.46844E+007   -1.80745E+006   -2.72125E+006    1.74057E+007   -3.38523E+006    1.69117E+007   -2.70977E+006   -1.77839E+006    1.46439E+007    1.42006E+004   -4.46162E+005   -6.91748E+005
            2805    1.72002E+007    1.49201E+007    1.49201E+007   -1.83142E+006   -2.69609E+006    1.76162E+007   -3.46420E+006    1.71512E+007   -2.68414E+006   -1.83070E+006    1.49074E+007    3.59702E+002   -4.58493E+005   -1.10111E+005
            2806    1.70322E+007    1.47496E+007    1.47496E+007   -1.84069E+006   -2.69242E+006    1.74421E+007   -3.40551E+006    1.69842E+007   -2.68058E+006   -1.82507E+006    1.47222E+007   -1.28524E+004   -4.54071E+005    5.08794E+005
            2807    1.64959E+007    1.42380E+007    1.42380E+007   -1.76351E+006   -2.71136E+006    1.69494E+007   -3.25439E+006    1.64345E+007   -2.69936E+006   -1.69689E+006    1.41594E+007   -1.38297E+004   -4.46228E+005    1.03177E+006
            2808    1.36150E+007    1.12396E+007    1.12396E+007   -1.27474E+006   -3.25837E+006    1.44980E+007   -2.23549E+006    1.32840E+007   -3.24374E+006   -1.01336E+006    1.09636E+007    2.61331E+004   -4.48897E+005   -1.79125E+006
            2809    1.41343E+007    1.17676E+007    1.17676E+007   -1.29385E+006   -3.23822E+006    1.50059E+007   -2.41186E+006    1.38286E+007   -3.22468E+006   -1.00664E+006    1.14669E+007    6.91350E+004   -4.45209E+005   -1.91445E+006
            2810    1.51602E+007    1.26877E+007    1.26877E+007   -1.53162E+006   -3.26451E+006    1.59522E+007   -2.63052E+006    1.49350E+007   -3.25038E+006   -1.26224E+006    1.24042E+007    4.12364E+004   -4.67863E+005   -1.93871E+006
            2811    1.62646E+007    1.38027E+007    1.38027E+007   -1.60161E+006   -3.20350E+006    1.70062E+007   -2.99921E+006    1.60856E+007   -3.19001E+006   -1.39767E+006    1.35853E+007    5.64692E+004   -4.75384E+005   -1.75989E+006
            2812    1.72508E+007    1.48494E+007    1.48494E+007   -1.56526E+006   -3.13089E+006    1.79803E+007   -3.38440E+006    1.70899E+007   -3.11734E+006   -1.44990E+006    1.47204E+007    3.68870E+004   -4.91851E+005   -1.37075E+006
            2813    1.79753E+007    1.56131E+007    1.56131E+007   -1.56391E+006   -3.06627E+006    1.86794E+007   -3.66097E+006    1.78333E+007   -3.05293E+006   -1.52712E+006    1.55630E+007    2.49047E+004   -4.98466E+005   -7.93797E+005
            2814    1.82379E+007    1.58852E+007    1.58852E+007   -1.57143E+006   -3.04470E+006    1.89299E+007   -3.75635E+006    1.81033E+007   -3.03131E+006   -1.57125E+006    1.58716E+007    1.04562E+003   -5.03286E+005   -5.53342E+004
            2815    1.80192E+007    1.56605E+007    1.56605E+007   -1.57697E+006   -3.05005E+006    1.87105E+007   -3.67782E+006    1.78830E+007   -3.03663E+006   -1.55072E+006    1.56208E+007   -2.06142E+004   -5.00347E+005    6.71907E+005
            2816    1.72965E+007    1.48951E+007    1.48951E+007   -1.59991E+006   -3.10465E+006    1.79997E+007   -3.39684E+006    1.71483E+007   -3.09097E+006   -1.49935E+006    1.47809E+007   -3.52180E+004   -4.94668E+005    1.28351E+006
            2817    1.78854E+007    1.56630E+007    1.56630E+007   -9.98669E+005   -3.23564E+006    1.88987E+007   -3.80957E+006    1.75665E+007   -3.22960E+006   -8.64074E+005    1.55224E+007   -7.26090E+004   -3.06719E+005    1.49616E+006
            2818    1.87917E+007    1.67404E+007    1.67404E+007   -8.03306E+005   -3.08997E+006    1.98304E+007   -4.28237E+006    1.84748E+007   -3.08551E+006   -7.61220E+005    1.66938E+007   -3.80794E+004   -2.87398E+005    8.60682E+005
            2819    1.91865E+007    1.72165E+007    1.72165E+007   -7.20296E+005   -3.01367E+006    2.02301E+007   -4.49417E+006    1.88745E+007   -3.00975E+006   -7.20286E+005    1.72125E+007   -7.01495E+002   -2.81557E+005   -1.32396E+004
            2820    1.87868E+007    1.67308E+007    1.67308E+007   -8.07667E+005   -3.09500E+006    1.98258E+007   -4.27604E+006    1.84697E+007   -3.09062E+006   -7.63178E+005    1.66819E+007    3.80871E+004   -2.84760E+005   -8.84526E+005
            2821    1.78685E+007    1.56286E+007    1.56286E+007   -1.01854E+006   -3.25143E+006    1.88800E+007   -3.78620E+006    1.75505E+007   -3.24558E+006   -8.79092E+005    1.54833E+007    7.22719E+004   -3.00924E+005   -1.52179E+006
            2822    1.66541E+007    1.42094E+007    1.42094E+007   -1.25604E+006   -3.42153E+006    1.76309E+007   -3.17727E+006    1.63328E+007   -3.41390E+006   -1.03510E+006    1.39808E+007    9.68018E+004   -3.18160E+005   -1.84131E+006
            2823    1.54132E+007    1.27568E+007    1.27568E+007   -1.54522E+006   -3.56781E+006    1.63246E+007   -2.54793E+006    1.51103E+007   -3.55836E+006   -1.29248E+006    1.24946E+007    1.12675E+005   -3.30516E+005   -1.89227E+006
            2824    1.46042E+007    1.18414E+007    1.18414E+007   -1.75811E+006   -3.59404E+006    1.54354E+007   -2.16307E+006    1.43412E+007   -3.58400E+006   -1.51255E+006    1.15858E+007    1.09546E+005   -3.36666E+005   -1.81830E+006
            2825    1.43072E+007    1.18189E+007    1.18189E+007   -1.43051E+006   -3.35200E+006    1.51709E+007   -2.34546E+006    1.40125E+007   -3.34253E+006   -1.10871E+006    1.14876E+007    9.89843E+004   -3.47525E+005   -2.04206E+006
            2826    9.75006E+006    9.00509E+006    9.00509E+006    5.96601E+005   -1.68271E+006    1.06878E+007   -2.63966E+006    9.12126E+006   -1.68029E+006    5.95960E+005    9.00332E+006   -6.97918E+004   -5.13933E+004   -1.13792E+005
            2827    9.87348E+006    9.01036E+006    9.01036E+006    5.35967E+005   -1.83169E+006    1.08420E+007   -2.57155E+006    9.20167E+006   -1.82782E+006    5.50972E+005    8.99149E+006   -5.76716E+004   -1.54026E+005   -3.76498E+005
            2828    1.01899E+007    9.07246E+006    9.07246E+006    3.17343E+005   -2.11287E+006    1.11853E+007   -2.42564E+006    9.50454E+006   -2.10687E+006    3.78424E+005    9.00538E+006   -3.40932E+004   -2.35505E+005   -7.35601E+005
            2829    1.07631E+007    9.28337E+006    9.28337E+006   -8.76252E+004   -2.47195E+006    1.17553E+007   -2.24126E+006    1.01430E+007   -2.46370E+006    5.09385E+004    9.13656E+006   -1.02140E+003   -3.02080E+005   -1.13303E+006
            2830    1.15553E+007    9.72224E+006    9.72224E+006   -5.17278E+005   -2.80627E+006    1.25285E+007   -2.13290E+006    1.10278E+007   -2.79705E+006   -2.82699E+005    9.47845E+006    3.54779E+004   -3.36116E+005   -1.53164E+006
            2831    1.24692E+007    1.03456E+007    1.03456E+007   -8.93975E+005   -3.06750E+006    1.34131E+007   -2.12805E+006    1.20319E+007   -3.05745E+006   -5.88925E+005    1.00305E+007    7.04699E+004   -3.59510E+005   -1.82567E+006
            2832    1.34565E+007    1.11856E+007    1.11856E+007   -1.10143E+006   -3.19501E+006    1.43806E+007   -2.29638E+006    1.30826E+007   -3.18533E+006   -7.23231E+005    1.07977E+007    1.00009E+005   -3.47693E+005   -2.12332E+006
            2833    1.03102E+007    9.51901E+006    9.51901E+006    1.51497E+005   -1.52776E+006    1.10468E+007   -2.71425E+006    9.99559E+006   -1.50449E+006    1.31705E+005    9.51553E+006    1.92368E+005    8.45375E+004   -1.64511E+005
            2834    1.11244E+007    1.02220E+007    1.02220E+007   -3.79398E+005   -1.36042E+006    1.15824E+007   -2.82739E+006    1.10264E+007   -1.31655E+006   -4.19855E+005    1.02186E+007    2.00184E+005    8.34133E+004   -1.74111E+005
            2835    1.19478E+007    1.09312E+007    1.09312E+007   -8.12645E+005   -1.21064E+006    1.21419E+007   -2.96931E+006    1.19329E+007   -1.12550E+006   -8.95298E+005    1.09287E+007    1.61871E+005    7.80628E+004   -1.54157E+005
            2836    1.26565E+007    1.15142E+007    1.15142E+007   -9.37447E+005   -1.33774E+006    1.28519E+007   -3.07966E+006    1.26423E+007   -9.79626E+005   -1.29392E+006    1.15125E+007    1.22709E+005    7.12711E+004   -1.26762E+005
            2837    1.05111E+007    9.59920E+006    9.59920E+006    5.24765E+004   -1.66476E+006    1.12640E+007   -2.66231E+006    1.01883E+007   -1.63997E+006    5.77928E+004    9.56909E+006    1.73289E+005    2.36034E+005   -4.93428E+005
            2838    1.13397E+007    1.03331E+007    1.03331E+007   -4.46724E+005   -1.49391E+006    1.18270E+007   -2.79748E+006    1.12301E+007   -1.45096E+006   -4.61068E+005    1.03045E+007    1.84825E+005    2.47179E+005   -5.06680E+005
            2839    1.21731E+007    1.10503E+007    1.10503E+007   -8.86235E+005   -1.34632E+006    1.23966E+007   -2.93924E+006    1.21535E+007   -1.27450E+006   -9.34805E+005    1.10270E+007    1.51524E+005    2.66114E+005   -4.61306E+005
            2840    1.29010E+007    1.16597E+007    1.16597E+007   -1.07899E+006   -1.39763E+006    1.30574E+007   -3.06104E+006    1.28921E+007   -1.13544E+006   -1.32495E+006    1.16435E+007    1.18883E+005    2.88906E+005   -3.57759E+005
            2841    1.08794E+007    9.76808E+006    9.76808E+006   -1.07914E+005   -1.89374E+006    1.16618E+007   -2.58881E+006    1.05421E+007   -1.86655E+006   -5.15165E+004    9.68449E+006    1.33612E+005    3.81804E+005   -8.39678E+005
            2842    1.17214E+007    1.05201E+007    1.05201E+007   -6.10050E+005   -1.71430E+006    1.22344E+007   -2.73192E+006    1.16035E+007   -1.67319E+006   -5.74941E+005    1.04439E+007    1.48458E+005    3.90837E+005   -8.45319E+005
            2843    1.25392E+007    1.12614E+007    1.12614E+007   -9.93288E+005   -1.54400E+006    1.28054E+007   -2.90805E+006    1.25119E+007   -1.49004E+006   -9.88223E+005    1.12024E+007    1.21957E+005    3.97655E+005   -7.59504E+005
            2844    1.32809E+007    1.18926E+007    1.18926E+007   -1.26759E+006   -1.50588E+006    1.33985E+007   -3.03970E+006    1.32761E+007   -1.35642E+006   -1.37543E+006    1.18509E+007    9.87358E+004    4.08828E+005   -6.23439E+005
            2845    1.15310E+007    1.00908E+007    1.00908E+007   -4.24119E+005   -2.24067E+006    1.23315E+007   -2.47535E+006    1.12023E+007   -2.21026E+006   -3.00304E+005    9.93661E+006    8.18535E+004    5.05942E+005   -1.18075E+006
            2846    1.23450E+007    1.08621E+007    1.08621E+007   -7.83425E+005   -2.07987E+006    1.29420E+007   -2.66628E+006    1.21904E+007   -2.03644E+006   -6.93049E+005    1.07283E+007    1.08437E+005    5.56071E+005   -1.13119E+006
            2847    1.31492E+007    1.15806E+007    1.15806E+007   -1.14382E+006   -1.95566E+006    1.35363E+007   -2.82706E+006    1.30926E+007   -1.90390E+006   -1.08273E+006    1.14678E+007    9.32173E+004    6.01247E+005   -1.04796E+006
            2848    1.39622E+007    1.22918E+007    1.22918E+007   -1.46304E+006   -1.86881E+006    1.41606E+007   -2.98665E+006    1.39489E+007   -1.79547E+006   -1.45016E+006    1.22056E+007    8.40807E+004    6.53963E+005   -8.79978E+005
            2849    1.22958E+007    1.05577E+007    1.05577E+007   -7.06737E+005   -2.55921E+006    1.31169E+007   -2.43059E+006    1.19758E+007   -2.52988E+006   -5.18947E+005    1.03406E+007    1.14249E+004    5.81030E+005   -1.45628E+006
            2850    1.29197E+007    1.11440E+007    1.11440E+007   -1.00340E+006   -2.42957E+006    1.35736E+007   -2.57035E+006    1.27408E+007   -2.39546E+006   -8.49058E+005    1.09556E+007    3.76088E+004    6.02221E+005   -1.39410E+006
            2851    1.38047E+007    1.19743E+007    1.19743E+007   -1.28681E+006   -2.31635E+006    1.42907E+007   -2.79039E+006    1.37179E+007   -2.28133E+006   -1.15198E+006    1.18045E+007    2.22532E+004    6.32021E+005   -1.36539E+006
            2852    1.47150E+007    1.27934E+007    1.27934E+007   -1.57603E+006   -2.24442E+006    1.50378E+007   -2.99097E+006    1.46808E+007   -2.20350E+006   -1.49340E+006    1.26698E+007    2.99594E+004    6.76467E+005   -1.15423E+006
            2853    1.29908E+007    1.08600E+007    1.08600E+007   -1.04295E+006   -2.99722E+006    1.38572E+007   -2.27327E+006    1.26537E+007   -2.96331E+006   -8.57031E+005    1.06401E+007   -3.51295E+004    6.72711E+005   -1.47887E+006
            2854    1.35213E+007    1.13907E+007    1.13907E+007   -1.15590E+006   -2.93023E+006    1.43209E+007   -2.43485E+006    1.32556E+007   -2.88477E+006   -9.32567E+005    1.11219E+007    4.82578E+003    7.53822E+005   -1.68007E+006
            2855    1.45840E+007    1.23602E+007    1.23602E+007   -1.48562E+006   -2.86415E+006    1.52243E+007   -2.67014E+006    1.44363E+007   -2.81824E+006   -1.29351E+006    1.21222E+007   -1.50863E+004    7.95343E+005   -1.63653E+006
            2856    1.55643E+007    1.32723E+007    1.32723E+007   -1.68386E+006   -2.83601E+006    1.61083E+007   -2.91749E+006    1.54679E+007   -2.78487E+006   -1.55193E+006    1.30893E+007   -1.55334E+003    8.58072E+005   -1.42617E+006
            2857    1.30908E+007    1.08012E+007    1.08012E+007   -1.02157E+006   -3.26714E+006    1.40683E+007   -2.17082E+006    1.26465E+007   -3.24254E+006   -7.60087E+005    1.05151E+007   -1.46713E+005    5.50550E+005   -1.74279E+006
            2858    1.42730E+007    1.17769E+007    1.17769E+007   -1.51767E+006   -3.30592E+006    1.50828E+007   -2.31778E+006    1.40176E+007   -3.27835E+006   -1.25715E+006    1.14888E+007   -1.03599E+005    6.34791E+005   -1.84114E+006
            2859    1.52059E+007    1.26896E+007    1.26896E+007   -1.57456E+006   -3.30916E+006    1.59988E+007   -2.60198E+006    1.49809E+007   -3.27998E+006   -1.33896E+006    1.24249E+007   -1.09703E+005    6.70637E+005   -1.81723E+006
            2860    1.64139E+007    1.39296E+007    1.39296E+007   -1.57301E+006   -3.26450E+006    1.71941E+007   -3.03071E+006    1.62161E+007   -3.23398E+006   -1.40125E+006    1.37274E+007   -8.99563E+004    7.16963E+005   -1.62168E+006
            2861    1.65723E+007    1.39480E+007    1.39480E+007   -1.30421E+006   -3.68654E+006    1.76345E+007   -2.98575E+006    1.61803E+007   -3.66166E+006   -1.08424E+006    1.37032E+007   -1.60797E+005    6.03683E+005   -1.83005E+006
            2862    1.52878E+007    1.25470E+007    1.25470E+007   -1.49483E+006   -3.73874E+006    1.62858E+007   -2.43782E+006    1.49106E+007   -3.71037E+006   -1.24650E+006    1.22703E+007   -1.73693E+005    6.17419E+005   -1.86229E+006
            2863    1.40035E+007    1.11282E+007    1.11282E+007   -1.71562E+006   -3.80107E+006    1.49293E+007   -1.87051E+006    1.36476E+007   -3.77102E+006   -1.49239E+006    1.08749E+007   -1.61369E+005    6.20307E+005   -1.68746E+006
            2864    1.38782E+007    1.08303E+007    1.08303E+007   -2.21937E+006   -3.74975E+006    1.45800E+007   -1.62038E+006    1.36865E+007   -3.71981E+006   -2.06106E+006    1.06420E+007   -1.21825E+005    6.31244E+005   -1.43465E+006
            2865    9.71922E+006    9.00157E+006    9.00157E+006    5.52095E+005   -1.61989E+006    1.06215E+007   -2.64459E+006    9.14896E+006   -1.61219E+006    5.46292E+005    8.99968E+006    1.22570E+005    8.40031E+004   -1.02810E+005
            2866    9.82276E+006    8.99584E+006    8.99584E+006    5.16650E+005   -1.76787E+006    1.07637E+007   -2.58154E+006    9.19609E+006   -1.75699E+006    5.27947E+005    8.97366E+006    1.02703E+005    2.42213E+005   -3.78612E+005
            2867    1.01289E+007    9.04943E+006    9.04943E+006    3.12215E+005   -2.05272E+006    1.11022E+007   -2.43631E+006    9.47739E+006   -2.03619E+006    3.68858E+005    8.97625E+006    6.40459E+004    3.81448E+005   -7.24200E+005
            2868    1.06883E+007    9.27445E+006    9.27445E+006   -2.15199E+004   -2.40414E+006    1.16786E+007   -2.28293E+006    1.00645E+007   -2.38243E+006    1.22343E+005    9.10888E+006    9.67113E+003    4.83517E+005   -1.15443E+006
            2869    1.15931E+007    9.75565E+006    9.75565E+006   -5.76597E+005   -2.78167E+006    1.25373E+007   -2.13246E+006    1.11065E+007   -2.75590E+006   -3.24143E+005    9.47743E+006   -5.07068E+004    5.59649E+005   -1.59523E+006
            2870    1.28206E+007    1.07495E+007    1.07495E+007   -8.92739E+005   -2.99064E+006    1.37402E+007   -2.28872E+006    1.24256E+007   -2.96319E+006   -5.49646E+005    1.03790E+007   -1.17378E+005    6.01423E+005   -1.96675E+006
            2871    1.41088E+007    1.16393E+007    1.16393E+007   -1.57867E+006   -3.21730E+006    1.48566E+007   -2.28111E+006    1.38923E+007   -3.18828E+006   -1.32709E+006    1.13587E+007   -1.30622E+005    6.31693E+005   -1.80803E+006
            2872    1.78954E+007    1.54514E+007    1.54514E+007   -1.06372E+006   -3.56178E+006    1.90131E+007   -3.60862E+006    1.74966E+007   -3.54184E+006   -9.28896E+005    1.52966E+007   -1.23802E+005    5.74523E+005   -1.49632E+006
            2873    1.88165E+007    1.65213E+007    1.65213E+007   -8.74137E+005   -3.45076E+006    1.99721E+007   -4.06547E+006    1.84134E+007   -3.43476E+006   -8.30553E+005    1.64617E+007   -6.91597E+004    5.50350E+005   -8.75823E+005
            2874    1.92231E+007    1.70057E+007    1.70057E+007   -7.81987E+005   -3.38712E+006    2.03928E+007   -4.27885E+006    1.88198E+007   -3.37292E+006   -7.81987E+005    1.69914E+007   -1.10769E+003    5.38025E+005   -1.43336E+003
            2875    1.88362E+007    1.65491E+007    1.65491E+007   -8.60084E+005   -3.44678E+006    1.99959E+007   -4.08074E+006    1.84302E+007   -3.43107E+006   -8.16553E+005    1.64898E+007    6.64169E+004    5.47059E+005    8.74852E+005
            2876    1.78748E+007    1.54193E+007    1.54193E+007   -1.06792E+006   -3.57783E+006    1.89971E+007   -3.59119E+006    1.74718E+007   -3.55814E+006   -9.29044E+005    1.52608E+007    1.23995E+005    5.70453E+005    1.51673E+006
            2877    1.66057E+007    1.39747E+007    1.39747E+007   -1.30776E+006   -3.69577E+006    1.76704E+007   -2.99038E+006    1.62127E+007   -3.67113E+006   -1.08744E+006    1.37297E+007    1.62766E+005    5.97937E+005    1.83412E+006
            2878    1.53090E+007    1.24858E+007    1.24858E+007   -1.60856E+006   -3.80128E+006    1.62871E+007   -2.35866E+006    1.49495E+007   -3.77310E+006   -1.35527E+006    1.22043E+007    1.72306E+005    6.15863E+005    1.88357E+006
            2879    1.44670E+007    1.15590E+007    1.15590E+007   -1.84448E+006   -3.77723E+006    1.53362E+007   -1.97909E+006    1.41721E+007   -3.74657E+006   -1.59861E+006    1.12824E+007    1.66078E+005    6.31758E+005    1.80832E+006
            2880    1.42640E+007    1.16191E+007    1.16191E+007   -1.57278E+006   -3.51756E+006    1.51366E+007   -2.17624E+006    1.39611E+007   -3.48626E+006   -1.24789E+006    1.12629E+007    1.74986E+005    6.37936E+005    2.05069E+006
            2881    1.74278E+007    1.49618E+007    1.49618E+007   -1.57875E+006   -3.23497E+006    1.81968E+007   -3.38271E+006    1.72494E+007   -3.20456E+006   -1.48291E+006    1.48356E+007   -7.35232E+004    7.37669E+005   -1.25546E+006
            2882    1.64212E+007    1.41011E+007    1.41011E+007   -1.80423E+006   -2.79146E+006    1.68926E+007   -3.16847E+006    1.63543E+007   -2.74151E+006   -1.73993E+006    1.39869E+007   -1.42841E+004    9.00087E+005   -1.02285E+006
            2883    1.54326E+007    1.34431E+007    1.34431E+007   -1.79025E+006   -2.18123E+006    1.56243E+007   -3.15721E+006    1.54214E+007   -2.14487E+006   -1.75163E+006    1.33681E+007    5.12966E+003    7.03656E+005   -8.10575E+005
            2884    1.45603E+007    1.28149E+007    1.28149E+007   -1.67364E+006   -1.81629E+006    1.46311E+007   -3.10831E+006    1.45588E+007   -1.72015E+006   -1.71370E+006    1.27588E+007    4.32408E+004    6.90528E+005   -5.83524E+005
            2885    1.38287E+007    1.23642E+007    1.23642E+007   -1.25877E+006   -1.66145E+006    1.40256E+007   -3.14798E+006    1.38155E+007   -1.25551E+006   -1.64103E+006    1.23405E+007    4.79844E+004    4.10934E+005   -3.99118E+005
            2886    1.33968E+007    1.20719E+007    1.20719E+007   -1.03769E+006   -1.59482E+006    1.36667E+007   -3.14646E+006    1.33707E+007   -1.03852E+006   -1.58316E+006    1.20611E+007    6.07303E+004    3.04967E+005   -2.27034E+005
            2887    1.31390E+007    1.19148E+007    1.19148E+007   -8.68349E+005   -1.55328E+006    1.34681E+007   -3.16440E+006    1.30988E+007   -8.73676E+005   -1.54723E+006    1.19141E+007    6.15289E+004    6.33075E+004   -7.44501E+004
            2888    1.81641E+007    1.57357E+007    1.57357E+007   -1.54126E+006   -3.20157E+006    1.89372E+007   -3.66428E+006    1.79922E+007   -3.17167E+006   -1.51589E+006    1.56804E+007   -3.79651E+004    7.50407E+005   -6.61658E+005
            2889    1.69586E+007    1.46089E+007    1.46089E+007   -1.86543E+006   -2.79580E+006    1.74047E+007   -3.31589E+006    1.69011E+007   -2.74496E+006   -1.85057E+006    1.45432E+007   -3.89454E+003    9.33484E+005   -5.04510E+005
            2890    1.58642E+007    1.38431E+007    1.38431E+007   -1.87265E+006   -2.16543E+006    1.60086E+007   -3.26835E+006    1.58581E+007   -2.13068E+006   -1.86661E+006    1.38023E+007    5.87266E+003    7.27385E+005   -3.47224E+005
            2891    1.49153E+007    1.31149E+007    1.31149E+007   -1.73101E+006   -1.86876E+006    1.49837E+007   -3.17171E+006    1.49138E+007   -1.70466E+006   -1.85642E+006    1.30762E+007    2.22871E+004    7.21167E+005   -2.33173E+005
            2892    1.40925E+007    1.25876E+007    1.25876E+007   -1.23638E+006   -1.75904E+006    1.43466E+007   -3.19738E+006    1.40707E+007   -1.22501E+006   -1.75654E+006    1.25737E+007    2.03003E+004    4.15855E+005   -1.39898E+005
            2893    1.36433E+007    1.22705E+007    1.22705E+007   -1.01714E+006   -1.70264E+006    1.39731E+007   -3.18356E+006    1.36044E+007   -1.01041E+006   -1.70135E+006    1.22624E+007    2.40177E+004    3.19672E+005   -6.85639E+004
            2894    1.33578E+007    1.20901E+007    1.20901E+007   -8.40034E+005   -1.65776E+006    1.37479E+007   -3.19745E+006    1.33013E+007   -8.40369E+005   -1.65712E+006    1.20898E+007    2.18922E+004    5.77336E+004   -2.64692E+004
            2895    1.84031E+007    1.59736E+007    1.59736E+007   -1.54868E+006   -3.19916E+006    1.91727E+007   -3.74192E+006    1.82355E+007   -3.16987E+006   -1.54855E+006    1.59442E+007    1.61054E+003    7.48783E+005    4.66768E+004
            2896    1.71236E+007    1.47701E+007    1.47701E+007   -1.87538E+006   -2.79457E+006    1.75646E+007   -3.36671E+006    1.70679E+007   -2.74403E+006   -1.87460E+006    1.47188E+007    1.50404E+003    9.40522E+005    1.15853E+005
            2897    1.59665E+007    1.39276E+007    1.39276E+007   -1.90828E+006   -2.16629E+006    1.60939E+007   -3.28436E+006    1.59618E+007   -2.13275E+006   -1.90750E+006    1.38933E+007   -4.60650E+003    7.28793E+005    1.41167E+005
            2898    1.49587E+007    1.31521E+007    1.31521E+007   -1.73454E+006   -1.87762E+006    1.50298E+007   -3.17999E+006    1.49572E+007   -1.70138E+006   -1.87353E+006    1.31149E+007   -1.03751E+004    7.26407E+005    1.61544E+005
            2899    1.41040E+007    1.25943E+007    1.25943E+007   -1.22898E+006   -1.77456E+006    1.43688E+007   -3.19691E+006    1.40802E+007   -1.21763E+006   -1.77228E+006    1.25807E+007   -1.96729E+004    4.13555E+005    1.34621E+005
            2900    1.36253E+007    1.22563E+007    1.22563E+007   -1.00959E+006   -1.70214E+006    1.39584E+007   -3.18151E+006    1.35856E+007   -1.00286E+006   -1.70047E+006    1.22479E+007   -2.49680E+004    3.21525E+005    9.20741E+004
            2901    1.33310E+007    1.20692E+007    1.20692E+007   -8.30953E+005   -1.65450E+006    1.37237E+007   -3.19459E+006    1.32736E+007   -8.31746E+005   -1.65340E+006    1.20689E+007   -2.89135E+004    5.47939E+004    3.26288E+004
            2902    1.81291E+007    1.56927E+007    1.56927E+007   -1.53391E+006   -3.22093E+006    1.89137E+007   -3.64596E+006    1.79512E+007   -3.19167E+006   -1.49858E+006    1.56281E+007    4.10292E+004    7.41866E+005    7.79005E+005
            2903    1.68730E+007    1.45193E+007    1.45193E+007   -1.83111E+006   -2.83173E+006    1.73510E+007   -3.28547E+006    1.68060E+007   -2.78067E+006   -1.80220E+006    1.44393E+007    9.28057E+003    9.31717E+005    6.96815E+005
            2904    1.57256E+007    1.37047E+007    1.37047E+007   -1.82080E+006   -2.21355E+006    1.59183E+007   -3.22346E+006    1.57145E+007   -2.17663E+006   -1.79895E+006    1.36460E+007   -1.03719E+004    7.22941E+005    6.33582E+005
            2905    1.47157E+007    1.29340E+007    1.29340E+007   -1.71424E+006   -1.84825E+006    1.47823E+007   -3.12384E+006    1.47144E+007   -1.75716E+006   -1.75191E+006    1.28806E+007   -4.07646E+004    7.21012E+005    5.16751E+005
            2906    1.38555E+007    1.23829E+007    1.23829E+007   -1.27713E+006   -1.65996E+006    1.40429E+007   -3.14862E+006    1.38436E+007   -1.27668E+006   -1.63667E+006    1.23592E+007   -5.54862E+004    4.16990E+005    3.94620E+005
            2907    1.33750E+007    1.20473E+007    1.20473E+007   -1.05899E+006   -1.58117E+006    1.36284E+007   -3.13570E+006    1.33520E+007   -1.06244E+006   -1.56577E+006    1.20353E+007   -6.98715E+004    3.19049E+005    2.40426E+005
            2908    1.30740E+007    1.18589E+007    1.18589E+007   -8.83420E+005   -1.52325E+006    1.33821E+007   -3.15073E+006    1.30387E+007   -8.92242E+005   -1.51368E+006    1.18581E+007   -7.53265E+004    5.77632E+004    8.12277E+004
            2909    1.73620E+007    1.48935E+007    1.48935E+007   -1.54586E+006   -3.26350E+006    1.81570E+007   -3.36138E+006    1.71693E+007   -3.23424E+006   -1.43528E+006    1.47537E+007    8.09295E+004    7.20749E+005    1.34418E+006
            2910    1.62686E+007    1.39276E+007    1.39276E+007   -1.76642E+006   -2.86042E+006    1.67880E+007   -3.10025E+006    1.61856E+007   -2.81033E+006   -1.67401E+006    1.37851E+007    1.99702E+004    8.95918E+005    1.21345E+006
            2911    1.51567E+007    1.31808E+007    1.31808E+007   -1.68010E+006   -2.25518E+006    1.54360E+007   -3.08185E+006    1.51321E+007   -2.21843E+006   -1.61455E+006    1.30785E+007   -8.80334E+003    6.94128E+005    1.02539E+006
            2912    1.42220E+007    1.25036E+007    1.25036E+007   -1.55741E+006   -1.87405E+006    1.43777E+007   -3.02405E+006    1.42141E+007   -1.80717E+006   -1.54379E+006    1.24231E+007   -5.85643E+004    6.86893E+005    8.19967E+005
            2913    1.33889E+007    1.19814E+007    1.19814E+007   -1.29578E+006   -1.51648E+006    1.34979E+007   -3.05639E+006    1.33849E+007   -1.34496E+006   -1.42773E+006    1.19419E+007   -8.06414E+004    4.09607E+005    6.03955E+005
            2914    1.29209E+007    1.16735E+007    1.16735E+007   -1.08789E+006   -1.40132E+006    1.30748E+007   -3.06142E+006    1.29124E+007   -1.12915E+006   -1.34286E+006    1.16563E+007   -1.04715E+005    3.02101E+005    3.64624E+005
            2915    1.26250E+007    1.14915E+007    1.14915E+007   -9.31076E+005   -1.32666E+006    1.28182E+007   -3.07793E+006    1.26111E+007   -9.66981E+005   -1.28927E+006    1.14900E+007   -1.13476E+005    6.24575E+004    1.22600E+005
            2916    1.63224E+007    1.38030E+007    1.38030E+007   -1.57043E+006   -3.32631E+006    1.71293E+007   -2.96877E+006    1.61079E+007   -3.29730E+006   -1.37581E+006    1.35794E+007    9.86006E+004    6.94899E+005    1.71811E+006
            2917    1.53657E+007    1.30720E+007    1.30720E+007   -1.57901E+006   -2.92038E+006    1.59924E+007   -2.85754E+006    1.52331E+007   -2.86991E+006   -1.42001E+006    1.28625E+007    8.51364E+003    8.55073E+005    1.53943E+006
            2918    1.43949E+007    1.24838E+007    1.24838E+007   -1.43756E+006   -2.34203E+006    1.48258E+007   -2.90141E+006    1.43308E+007   -2.30297E+006   -1.32667E+006    1.23339E+007   -2.92986E+004    6.68905E+005    1.28699E+006
            2919    1.35572E+007    1.19108E+007    1.19108E+007   -1.28933E+006   -1.97721E+006    1.38880E+007   -2.88142E+006    1.35178E+007   -1.91428E+006   -1.24354E+006    1.18021E+007   -9.71183E+004    6.52376E+005    1.01709E+006
            2920    1.27761E+007    1.14487E+007    1.14487E+007   -1.09922E+006   -1.54402E+006    1.29927E+007   -2.93516E+006    1.27587E+007   -1.47327E+006   -1.11225E+006    1.13910E+007   -1.25809E+005    4.09861E+005    7.53356E+005
            2921    1.23239E+007    1.11668E+007    1.11668E+007   -9.52243E+005   -1.35224E+006    1.25191E+007   -2.95412E+006    1.23093E+007   -1.25743E+006   -1.02406E+006    1.11439E+007   -1.55580E+005    2.86456E+005    4.50347E+005
            2922    1.20391E+007    1.10004E+007    1.10004E+007   -8.54009E+005   -1.21513E+006    1.22155E+007   -2.97709E+006    1.20269E+007   -1.10245E+006   -9.64374E+005    1.09981E+007   -1.66272E+005    7.09810E+004    1.51711E+005
            2923    1.51766E+007    1.26710E+007    1.26710E+007   -1.50554E+006   -3.33910E+006    1.60101E+007   -2.60878E+006    1.49244E+007   -3.31081E+006   -1.25047E+006    1.23876E+007    1.28110E+005    6.51050E+005    1.88565E+006
            2924    1.43738E+007    1.21654E+007    1.21654E+007   -1.35614E+006   -2.93100E+006    1.50964E+007   -2.62608E+006    1.41778E+007   -2.88655E+006   -1.14944E+006    1.19142E+007    3.19079E+004    7.93337E+005    1.66780E+006
            2925    1.35545E+007    1.17155E+007    1.17155E+007   -1.20373E+006   -2.39553E+006    1.41111E+007   -2.70543E+006    1.34359E+007   -2.36400E+006   -1.05096E+006    1.15312E+007   -5.83677E+003    6.19748E+005    1.41609E+006
            2926    1.28085E+007    1.12576E+007    1.12576E+007   -9.91010E+005   -2.04561E+006    1.33032E+007   -2.74033E+006    1.27103E+007   -2.00095E+006   -9.04725E+005    1.11267E+007   -8.55665E+004    5.94180E+005    1.13021E+006
            2927    1.20808E+007    1.08407E+007    1.08407E+007   -7.95691E+005   -1.64008E+006    1.24808E+007   -2.80165E+006    1.20141E+007   -1.59870E+006   -7.65118E+005    1.07688E+007   -1.26698E+005    3.96490E+005    8.33691E+005
            2928    1.16405E+007    1.05922E+007    1.05922E+007   -6.26089E+005   -1.42902E+006    1.20212E+007   -2.84569E+006    1.15780E+007   -1.38227E+006   -6.44729E+005    1.05641E+007   -1.65975E+005    2.61423E+005    5.05363E+005
            2929    1.13610E+007    1.04323E+007    1.04323E+007   -5.30323E+005   -1.28905E+006    1.17214E+007   -2.87098E+006    1.13038E+007   -1.24130E+006   -5.75047E+005    1.04293E+007   -1.82237E+005    7.74538E+004    1.67482E+005
            2930    1.41269E+007    1.17259E+007    1.17259E+007   -1.24225E+006   -3.32783E+006    1.50537E+007   -2.38528E+006    1.37741E+007   -3.30114E+006   -9.74863E+005    1.14318E+007    1.19293E+005    6.17721E+005    1.84233E+006
            2931    1.35898E+007    1.14012E+007    1.14012E+007   -1.17382E+006   -3.01550E+006    1.44167E+007   -2.40396E+006    1.33047E+007   -2.97156E+006   -9.57318E+005    1.11407E+007    4.63056E+002    7.51149E+005    1.65333E+006
            2932    1.27909E+007    1.09906E+007    1.09906E+007   -9.37464E+005   -2.51638E+006    1.35070E+007   -2.51226E+006    1.25688E+007   -2.48178E+006   -7.61151E+005    1.07797E+007   -3.50078E+004    6.10283E+005    1.46913E+006
            2933    1.20914E+007    1.05826E+007    1.05826E+007   -6.98412E+005   -2.18220E+006    1.27648E+007   -2.56733E+006    1.18840E+007   -2.14084E+006   -5.91717E+005    1.04346E+007   -1.07957E+005    5.51764E+005    1.18235E+006
            2934    1.13826E+007    1.02018E+007    1.02018E+007   -4.32792E+005   -1.80457E+006    1.20063E+007   -2.65480E+006    1.11944E+007   -1.76668E+006   -3.86759E+005    1.01178E+007   -1.53110E+005    3.99291E+005    8.69665E+005
            2935    1.09570E+007    9.98358E+006    9.98358E+006   -2.46772E+005   -1.57839E+006    1.15620E+007   -2.71947E+006    1.07727E+007   -1.54148E+006   -2.52881E+005    9.95278E+006   -1.92160E+005    2.45608E+005    5.15656E+005
            2936    1.06925E+007    9.84555E+006    9.84555E+006   -1.32306E+005   -1.44113E+006    1.12867E+007   -2.75737E+006    1.05100E+007   -1.40591E+006   -1.63878E+005    9.84190E+006   -2.08489E+005    8.71085E+004    1.74024E+005
            2937    1.35518E+007    1.11852E+007    1.11852E+007   -1.22773E+006   -3.27298E+006    1.44582E+007   -2.22818E+006    1.31979E+007   -3.24439E+006   -9.86263E+005    1.09152E+007    1.83976E+005    5.60657E+005    1.73104E+006
            2938    1.29704E+007    1.08574E+007    1.08574E+007   -9.71372E+005   -3.01249E+006    1.38699E+007   -2.29119E+006    1.26014E+007   -2.98203E+006   -7.22917E+005    1.05785E+007    8.73376E+004    6.43153E+005    1.69408E+006
            2939    1.21371E+007    1.03424E+007    1.03424E+007   -7.15537E+005   -2.64314E+006    1.29856E+007   -2.32792E+006    1.17853E+007   -2.61535E+006   -5.16011E+005    1.01151E+007    1.52846E+004    5.80432E+005    1.47780E+006
            2940    1.13602E+007    9.91335E+006    9.91335E+006   -3.51736E+005   -2.29205E+006    1.22054E+007   -2.42319E+006    1.09781E+007   -2.26496E+006   -2.19134E+005    9.75366E+006   -5.86666E+004    5.03911E+005    1.18849E+006
            2941    1.07042E+007    9.58104E+006    9.58104E+006   -4.45123E+004   -1.94677E+006    1.15278E+007   -2.52992E+006    1.03136E+007   -1.92270E+006    1.52218E+004    9.49724E+006   -1.15909E+005    3.88269E+005    8.26203E+005
            2942    1.02965E+007    9.40827E+006    9.40827E+006    1.74725E+005   -1.69489E+006    1.11032E+007   -2.62937E+006    9.90371E+006   -1.67442E+006    1.83855E+005    9.37867E+006   -1.59116E+005    2.36138E+005    4.79386E+005
            2943    1.01017E+007    9.33465E+006    9.33465E+006    2.71696E+005   -1.55624E+006    1.08909E+007   -2.68337E+006    9.71914E+006   -1.53751E+006    2.56057E+005    9.33155E+006   -1.79556E+005    8.67387E+004    1.49231E+005
            2944    9.66056E+006    8.95107E+006    8.95107E+006    5.82020E+005   -1.62060E+006    1.05717E+007   -2.63750E+006    9.06942E+006   -1.61319E+006    5.76769E+005    8.94891E+006   -1.20522E+005    8.60228E+004    1.11651E+005
            2945    9.79102E+006    8.95532E+006    8.95532E+006    5.13530E+005   -1.77835E+006    1.07337E+007   -2.56350E+006    9.15785E+006   -1.76742E+006    5.24279E+005    8.93364E+006   -1.01838E+005    2.45216E+005    3.70389E+005
            2946    1.01171E+007    9.01332E+006    9.01332E+006    2.90655E+005   -2.07796E+006    1.10913E+007   -2.40867E+006    9.46261E+006   -2.06107E+006    3.46472E+005    8.94061E+006   -6.45405E+004    3.85716E+005    7.18950E+005
            2947    1.06933E+007    9.21434E+006    9.21434E+006   -1.11185E+005   -2.45716E+006    1.16715E+007   -2.21533E+006    1.00896E+007   -2.43523E+006    1.97234E+004    9.06150E+006   -1.13424E+004    4.86097E+005    1.10446E+006
            2948    1.14853E+007    9.62057E+006    9.62057E+006   -5.52736E+005   -2.83421E+006    1.24548E+007   -2.07787E+006    1.09579E+007   -2.80834E+006   -3.28501E+005    9.37047E+006    5.05185E+004    5.60303E+005    1.49335E+006
            2949    1.24196E+007    1.02322E+007    1.02322E+007   -9.44833E+005   -3.13785E+006    1.33700E+007   -2.04984E+006    1.19723E+007   -3.11094E+006   -6.47894E+005    9.90835E+006    1.07384E+005    5.89078E+005    1.79533E+006
            2950    1.34614E+007    1.10692E+007    1.10692E+007   -1.22507E+006   -3.31480E+006    1.43840E+007   -2.17645E+006    1.30890E+007   -3.28577E+006   -8.45430E+005    1.06605E+007    1.51935E+005    6.19758E+005    2.12645E+006
            2951    1.38964E+007    1.08418E+007    1.08418E+007   -2.23656E+006   -3.74906E+006    1.45908E+007   -1.61871E+006    1.37094E+007   -3.71920E+006   -2.07745E+006    1.06528E+007   -1.20966E+005   -6.31242E+005    1.43963E+006
            2952    1.39738E+007    1.10854E+007    1.10854E+007   -1.73874E+006   -3.80748E+006    1.48929E+007   -1.84640E+006    1.36229E+007   -3.77737E+006   -1.51998E+006    1.08365E+007   -1.60024E+005   -6.20752E+005    1.66957E+006
            2953    1.52547E+007    1.25091E+007    1.25091E+007   -1.50443E+006   -3.74010E+006    1.62492E+007   -2.42152E+006    1.48794E+007   -3.71173E+006   -1.25694E+006    1.22332E+007   -1.72976E+005   -6.17260E+005    1.85719E+006
            2954    1.65535E+007    1.39307E+007    1.39307E+007   -1.30249E+006   -3.68501E+006    1.76157E+007   -2.98105E+006    1.61610E+007   -3.66014E+006   -1.08351E+006    1.36868E+007   -1.60459E+005   -6.03445E+005    1.82481E+006
            2955    1.63919E+007    1.39102E+007    1.39102E+007   -1.57752E+006   -3.25671E+006    1.71669E+007   -3.02532E+006    1.61967E+007   -3.22602E+006   -1.40545E+006    1.37074E+007   -8.93995E+004   -7.18600E+005    1.62221E+006
            2956    1.55226E+007    1.32388E+007    1.32388E+007   -1.68281E+006   -2.82194E+006    1.60608E+007   -2.91135E+006    1.54281E+007   -2.77072E+006   -1.55150E+006    1.30563E+007   -3.16873E+002   -8.55794E+005    1.42237E+006
            2957    1.46809E+007    1.27712E+007    1.27712E+007   -1.57104E+006   -2.22642E+006    1.49976E+007   -2.99125E+006    1.46480E+007   -2.18526E+006   -1.49013E+006    1.26491E+007    3.17383E+004   -6.72392E+005    1.14590E+006
            2958    1.39403E+007    1.22770E+007    1.22770E+007   -1.46100E+006   -1.85719E+006    1.41342E+007   -2.98627E+006    1.39276E+007   -1.78252E+006   -1.45121E+006    1.21925E+007    8.51554E+004   -6.50207E+005    8.68006E+005
            2959    1.32608E+007    1.18789E+007    1.18789E+007   -1.26028E+006   -1.50027E+006    1.33791E+007   -3.03944E+006    1.32559E+007   -1.34853E+006   -1.37128E+006    1.18381E+007    9.97454E+004   -4.03519E+005    6.16697E+005
            2960    1.28884E+007    1.16500E+007    1.16500E+007   -1.07632E+006   -1.39465E+006    1.30446E+007   -3.05967E+006    1.28795E+007   -1.13347E+006   -1.32150E+006    1.16340E+007    1.19373E+005   -2.86050E+005    3.55449E+005
            2961    1.26530E+007    1.15120E+007    1.15120E+007   -9.36340E+005   -1.33632E+006    1.28483E+007   -3.07977E+006    1.26388E+007   -9.78769E+005   -1.29226E+006    1.15103E+007    1.22962E+005   -6.91959E+004    1.26726E+005
            2962    1.51730E+007    1.26587E+007    1.26587E+007   -1.57772E+006   -3.30328E+006    1.59620E+007   -2.59258E+006    1.49499E+007   -3.27408E+006   -1.34131E+006    1.23931E+007   -1.07677E+005   -6.71054E+005    1.81828E+006
            2963    1.45370E+007    1.23274E+007    1.23274E+007   -1.47338E+006   -2.84805E+006    1.51755E+007   -2.66866E+006    1.43896E+007   -2.80208E+006   -1.28181E+006    1.20899E+007   -1.30432E+004   -7.92681E+005    1.63255E+006
            2964    1.37547E+007    1.19381E+007    1.19381E+007   -1.27586E+006   -2.30009E+006    1.42382E+007   -2.78739E+006    1.36685E+007   -2.26499E+006   -1.14348E+006    1.17707E+007    2.51059E+004   -6.27582E+005    1.35321E+006
            2965    1.31204E+007    1.15626E+007    1.15626E+007   -1.13639E+006   -1.94215E+006    1.35047E+007   -2.82801E+006    1.30646E+007   -1.89007E+006   -1.07725E+006    1.14513E+007    9.50463E+004   -5.96941E+005    1.03913E+006
            2966    1.25279E+007    1.12548E+007    1.12548E+007   -9.91817E+005   -1.53669E+006    1.27915E+007   -2.90876E+006    1.25012E+007   -1.48228E+006   -9.88387E+005    1.11969E+007    1.22665E+005   -3.93613E+005    7.51519E+005
            2967    1.21649E+007    1.10447E+007    1.10447E+007   -8.83146E+005   -1.34411E+006    1.23888E+007   -2.93915E+006    1.21452E+007   -1.27214E+006   -9.32468E+005    1.10221E+007    1.52193E+005   -2.63454E+005    4.54555E+005
            2968    1.19428E+007    1.09269E+007    1.09269E+007   -8.11351E+005   -1.21044E+006    1.21374E+007   -2.96838E+006    1.19278E+007   -1.12555E+006   -8.93860E+005    1.09246E+007    1.62039E+005   -7.60446E+004    1.50678E+005
            2969    1.42553E+007    1.17638E+007    1.17638E+007   -1.51149E+006   -3.30229E+006    1.50660E+007   -2.31666E+006    1.39988E+007   -3.27475E+006   -1.24875E+006    1.14735E+007   -1.03277E+005   -6.34140E+005    1.84738E+006
            2970    1.34766E+007    1.13559E+007    1.13559E+007   -1.14463E+006   -2.92068E+006    1.42766E+007   -2.43020E+006    1.32095E+007   -2.87552E+006   -9.24434E+005    1.10906E+007    5.39387E+003   -7.50374E+005    1.66545E+006
            2971    1.28789E+007    1.11176E+007    1.11176E+007   -9.89354E+005   -2.41467E+006    1.35323E+007   -2.57118E+006    1.26996E+007   -2.38073E+006   -8.37391E+005    1.09317E+007    3.97657E+004   -5.97425E+005    1.38250E+006
            2972    1.23195E+007    1.08448E+007    1.08448E+007   -7.76636E+005   -2.07067E+006    1.29155E+007   -2.66583E+006    1.21652E+007   -2.02711E+006   -6.88682E+005    1.07133E+007    1.10515E+005   -5.52661E+005    1.11967E+006
            2973    1.17148E+007    1.05169E+007    1.05169E+007   -6.08900E+005   -1.70923E+006    1.22261E+007   -2.73291E+006    1.15976E+007   -1.66797E+006   -5.74610E+005    1.04413E+007    1.49306E+005   -3.88406E+005    8.41777E+005
            2974    1.13333E+007    1.03277E+007    1.03277E+007   -4.44840E+005   -1.49346E+006    1.18211E+007   -2.79646E+006    1.12233E+007   -1.45054E+006   -4.59147E+005    1.02991E+007    1.84962E+005   -2.46407E+005    5.06786E+005
            2975    1.11179E+007    1.02170E+007    1.02170E+007   -3.76200E+005   -1.36030E+006    1.15773E+007   -2.82682E+006    1.10193E+007   -1.31671E+006   -4.16481E+005    1.02136E+007    1.99987E+005   -8.23568E+004    1.71694E+005
            2976    1.30686E+007    1.07802E+007    1.07802E+007   -1.01359E+006   -3.26955E+006    1.40498E+007   -2.16569E+006    1.26194E+007   -3.24504E+006   -7.56028E+005    1.04981E+007   -1.46617E+005   -5.48926E+005    1.72801E+006
            2977    1.29869E+007    1.08622E+007    1.08622E+007   -1.03843E+006   -2.99010E+006    1.38523E+007   -2.27789E+006    1.26507E+007   -2.95641E+006   -8.52219E+005    1.06423E+007   -3.51010E+004   -6.70418E+005    1.47983E+006
            2978    1.22672E+007    1.05375E+007    1.05375E+007   -6.97944E+005   -2.55062E+006    1.30881E+007   -2.42965E+006    1.19463E+007   -2.52133E+006   -5.11612E+005    1.03219E+007    1.32810E+004   -5.78607E+005    1.44943E+006
            2979    1.15127E+007    1.00784E+007    1.00784E+007   -4.18195E+005   -2.23450E+006    1.23129E+007   -2.47522E+006    1.11835E+007   -2.20415E+006   -2.95246E+005    9.92506E+006    8.26276E+004   -5.04057E+005    1.17626E+006
            2980    1.08644E+007    9.75818E+006    9.75818E+006   -1.01796E+005   -1.88909E+006    1.16473E+007   -2.58910E+006    1.05260E+007   -1.86197E+006   -4.66677E+004    9.67593E+006    1.34518E+005   -3.79135E+005    8.32028E+005
            2981    1.05073E+007    9.59706E+006    9.59706E+006    5.39031E+004   -1.66297E+006    1.12600E+007   -2.66267E+006    1.01846E+007   -1.63826E+006    5.87633E+004    9.56750E+006    1.73282E+005   -2.34650E+005    4.88558E+005
            2982    1.03121E+007    9.52053E+006    9.52053E+006    1.50574E+005   -1.52787E+006    1.10484E+007   -2.71441E+006    9.99788E+006   -1.50453E+006    1.30706E+005    9.51706E+006    1.92576E+005   -8.50534E+004    1.64123E+005
            2983    9.71853E+006    9.00010E+006    9.00010E+006    5.52720E+005   -1.62134E+006    1.06214E+007   -2.64383E+006    9.14709E+006   -1.61363E+006    5.47065E+005    8.99805E+006    1.22173E+005   -8.76795E+004    1.07104E+005
            2984    9.82009E+006    8.99396E+006    8.99396E+006    5.19865E+005   -1.76814E+006    1.07621E+007   -2.58189E+006    9.19122E+006   -1.75729E+006    5.31153E+005    8.97182E+006    1.02177E+005   -2.42896E+005    3.77733E+005
            2985    1.01271E+007    9.04941E+006    9.04941E+006    3.12224E+005   -2.05006E+006    1.10995E+007   -2.43719E+006    9.47701E+006   -2.03353E+006    3.67886E+005    8.97721E+006    6.50531E+004   -3.80541E+005    7.18716E+005
            2986    1.06770E+007    9.26532E+006    9.26532E+006   -2.22996E+004   -2.40014E+006    1.16655E+007   -2.28096E+006    1.00550E+007   -2.37849E+006    1.18805E+005    9.10256E+006    1.14490E+004   -4.81829E+005    1.14338E+006
            2987    1.15633E+007    9.73292E+006    9.73292E+006   -5.65794E+005   -2.77587E+006    1.25088E+007   -2.13042E+006    1.10730E+007   -2.75015E+006   -3.17199E+005    9.45861E+006   -4.92917E+004   -5.58389E+005    1.58076E+006
            2988    1.27836E+007    1.07187E+007    1.07187E+007   -8.78857E+005   -2.98847E+006    1.37072E+007   -2.28381E+006    1.23829E+007   -2.96113E+006   -5.37173E+005    1.03497E+007   -1.16586E+005   -5.99689E+005    1.95892E+006
            2989    1.41233E+007    1.16593E+007    1.16593E+007   -1.57263E+006   -3.21221E+006    1.48715E+007   -2.29148E+006    1.39067E+007   -3.18313E+006   -1.31789E+006    1.13755E+007   -1.30745E+005   -6.32980E+005    1.81993E+006
            2990    1.00996E+007    9.33272E+006    9.33272E+006    2.74681E+005   -1.55763E+006    1.08904E+007   -2.68326E+006    9.71507E+006   -1.53899E+006    2.59420E+005    9.32935E+006   -1.78993E+005   -8.91646E+004   -1.56373E+005
            2991    1.06888E+007    9.84095E+006    9.84095E+006   -1.29443E+005   -1.44458E+006    1.12855E+007   -2.75564E+006    1.05045E+007   -1.40953E+006   -1.60521E+005    9.83697E+006   -2.08217E+005   -9.09794E+004   -1.81594E+005
            2992    1.13608E+007    1.04304E+007    1.04304E+007   -5.29459E+005   -1.29292E+006    1.17233E+007   -2.86932E+006    1.13029E+007   -1.24545E+006   -5.73435E+005    1.04269E+007   -1.82010E+005   -8.35622E+004   -1.79779E+005
            2993    1.20438E+007    1.10030E+007    1.10030E+007   -8.55725E+005   -1.21771E+006    1.22207E+007   -2.97651E+006    1.20315E+007   -1.10591E+006   -9.64779E+005    1.10002E+007   -1.65988E+005   -7.82829E+004   -1.64838E+005
            2994    1.26310E+007    1.14951E+007    1.14951E+007   -9.33999E+005   -1.32865E+006    1.28237E+007   -3.07748E+006    1.26172E+007   -9.69955E+005   -1.29095E+006    1.14934E+007   -1.13381E+005   -6.89858E+004   -1.32374E+005
            2995    1.30790E+007    1.18626E+007    1.18626E+007   -8.85312E+005   -1.52406E+006    1.33867E+007   -3.15108E+006    1.30438E+007   -8.94152E+005   -1.51437E+006    1.18617E+007   -7.54672E+004   -6.24311E+004   -8.55586E+004
            2996    1.33338E+007    1.20709E+007    1.20709E+007   -8.32293E+005   -1.65527E+006    1.37262E+007   -3.19445E+006    1.32764E+007   -8.33083E+005   -1.65415E+006    1.20706E+007   -2.91373E+004   -5.71657E+004   -3.24847E+004
            2997    1.33579E+007    1.20904E+007    1.20904E+007   -8.40290E+005   -1.65711E+006    1.37476E+007   -3.19768E+006    1.33015E+007   -8.40617E+005   -1.65646E+006    1.20901E+007    2.18203E+004   -5.83310E+004    2.80283E+004
            2998    1.31370E+007    1.19130E+007    1.19130E+007   -8.68090E+005   -1.55304E+006    1.34660E+007   -3.16396E+006    1.30967E+007   -8.73456E+005   -1.54695E+006    1.19123E+007    6.16841E+004   -6.21319E+004    7.51411E+004
            2999    1.02960E+007    9.40405E+006    9.40405E+006    1.75019E+005   -1.70087E+006    1.11049E+007   -2.62607E+006    9.90046E+006   -1.68050E+006    1.85203E+005    9.37350E+006   -1.57742E+005   -2.39513E+005   -4.87013E+005
            3000    1.09591E+007    9.98099E+006    9.98099E+006   -2.45956E+005   -1.58679E+006    1.15678E+007   -2.71608E+006    1.07722E+007   -1.55029E+006   -2.49991E+005    9.94851E+006   -1.90332E+005   -2.51025E+005   -5.29738E+005
            3001    1.16569E+007    1.06007E+007    1.06007E+007   -6.31277E+005   -1.43910E+006    1.20398E+007   -2.84344E+006    1.15937E+007   -1.39264E+006   -6.47709E+005    1.05707E+007   -1.64512E+005   -2.69523E+005   -5.22951E+005
            3002    1.23512E+007    1.11849E+007    1.11849E+007   -9.61912E+005   -1.36095E+006    1.25459E+007   -2.95402E+006    1.23367E+007   -1.26654E+006   -1.03179E+006    1.11604E+007   -1.54128E+005   -2.95201E+005   -4.66481E+005
            3003    1.29487E+007    1.16935E+007    1.16935E+007   -1.09584E+006   -1.40885E+006    1.31024E+007   -3.06295E+006    1.29402E+007   -1.13602E+006   -1.35062E+006    1.16755E+007   -1.03499E+005   -3.09693E+005   -3.73911E+005
            3004    1.33937E+007    1.20610E+007    1.20610E+007   -1.06385E+006   -1.58628E+006    1.36473E+007   -3.13697E+006    1.33708E+007   -1.06686E+006   -1.57101E+006    1.20488E+007   -6.91326E+004   -3.24309E+005   -2.42160E+005
            3005    1.36325E+007    1.22619E+007    1.22619E+007   -1.01151E+006   -1.70336E+006    1.39653E+007   -3.18235E+006    1.35930E+007   -1.00463E+006   -1.70176E+006    1.22535E+007   -2.45131E+004   -3.23843E+005   -8.94928E+004
            3006    1.36410E+007    1.22686E+007    1.22686E+007   -1.01715E+006   -1.70179E+006    1.39704E+007   -3.18323E+006    1.36022E+007   -1.01046E+006   -1.70042E+006    1.22606E+007    2.42853E+004   -3.19428E+005    7.29440E+004
            3007    1.33851E+007    1.20632E+007    1.20632E+007   -1.03636E+006   -1.59026E+006    1.36534E+007   -3.14551E+006    1.33592E+007   -1.03747E+006   -1.57831E+006    1.20523E+007    6.12951E+004   -3.03124E+005    2.29946E+005
            3008    1.07167E+007    9.58431E+006    9.58431E+006   -5.01807E+004   -1.95832E+006    1.15426E+007   -2.52527E+006    1.03241E+007   -1.93418E+006    1.19084E+004    9.49809E+006   -1.14129E+005   -3.92439E+005   -8.38941E+005
            3009    1.14172E+007    1.02215E+007    1.02215E+007   -4.45469E+005   -1.82121E+006    1.20427E+007   -2.65161E+006    1.12284E+007   -1.78324E+006   -3.96079E+005    1.01341E+007   -1.50507E+005   -4.07946E+005   -8.88468E+005
            3010    1.21378E+007    1.08783E+007    1.08783E+007   -8.15624E+005   -1.65930E+006    1.25376E+007   -2.80114E+006    1.20716E+007   -1.61769E+006   -7.81754E+005    1.08029E+007   -1.24011E+005   -4.08362E+005   -8.55175E+005
            3011    1.28426E+007    1.14966E+007    1.14966E+007   -1.12057E+006   -1.56009E+006    1.30567E+007   -2.93866E+006    1.28257E+007   -1.48911E+006   -1.13177E+006    1.14369E+007   -1.23233E+005   -4.21995E+005   -7.66665E+005
            3012    1.34443E+007    1.20229E+007    1.20229E+007   -1.31012E+006   -1.52999E+006    1.35529E+007   -3.06093E+006    1.34402E+007   -1.35618E+006   -1.44377E+006    1.19827E+007   -7.86579E+004   -4.18668E+005   -6.06111E+005
            3013    1.38892E+007    1.24093E+007    1.24093E+007   -1.28381E+006   -1.66801E+006    1.40773E+007   -3.15248E+006    1.38772E+007   -1.28262E+006   -1.64561E+006    1.23857E+007   -5.44864E+004   -4.22069E+005   -3.87245E+005
            3014    1.41135E+007    1.26017E+007    1.26017E+007   -1.23105E+006   -1.77681E+006    1.43785E+007   -3.19794E+006    1.40898E+007   -1.21952E+006   -1.77481E+006    1.25881E+007   -1.89537E+004   -4.15135E+005   -1.24369E+005
            3015    1.40819E+007    1.25800E+007    1.25800E+007   -1.23443E+006   -1.75506E+006    1.43350E+007   -3.19682E+006    1.40602E+007   -1.22327E+006   -1.75227E+006    1.25660E+007    2.11401E+004   -4.14113E+005    1.48908E+005
            3016    1.38059E+007    1.23470E+007    1.23470E+007   -1.25225E+006   -1.65670E+006    1.40037E+007   -3.14601E+006    1.37925E+007   -1.24940E+006   -1.63584E+006    1.23233E+007    4.85522E+004   -4.05981E+005    4.03992E+005
            3017    1.13971E+007    9.93691E+006    9.93691E+006   -3.65683E+005   -2.30575E+006    1.22427E+007   -2.42183E+006    1.10164E+007   -2.27859E+006   -2.29723E+005    9.77379E+006   -5.60371E+004   -5.07791E+005   -1.20389E+006
            3018    1.21546E+007    1.06247E+007    1.06247E+007   -7.20913E+005   -2.20312E+006    1.28278E+007   -2.56687E+006    1.19488E+007   -2.16185E+006   -6.09684E+005    1.04722E+007   -1.03519E+005   -5.59368E+005   -1.20380E+006
            3019    1.29054E+007    1.13285E+007    1.13285E+007   -1.02140E+006   -2.06865E+006    1.33972E+007   -2.74615E+006    1.28093E+007   -2.02394E+006   -9.31446E+005    1.11938E+007   -8.09352E+004   -6.04608E+005   -1.15056E+006
            3020    1.36542E+007    1.19850E+007    1.19850E+007   -1.31707E+006   -1.99605E+006    1.39811E+007   -2.89063E+006    1.36162E+007   -1.93344E+006   -1.26953E+006    1.18749E+007   -9.27840E+004   -6.63286E+005   -1.02469E+006
            3021    1.42965E+007    1.25632E+007    1.25632E+007   -1.57695E+006   -1.88477E+006    1.44479E+007   -3.03381E+006    1.42890E+007   -1.81875E+006   -1.56299E+006    1.24832E+007   -5.52123E+004   -6.95335E+005   -8.11995E+005
            3022    1.47517E+007    1.29632E+007    1.29632E+007   -1.72405E+006   -1.85217E+006    1.48154E+007   -3.12899E+006    1.47505E+007   -1.76235E+006   -1.76126E+006    1.29106E+007   -3.87215E+004   -7.25989E+005   -4.99591E+005
            3023    1.49614E+007    1.31550E+007    1.31550E+007   -1.73390E+006   -1.87785E+006    1.50328E+007   -3.18108E+006    1.49598E+007   -1.70014E+006   -1.87458E+006    1.31179E+007   -9.24184E+003   -7.27542E+005   -1.45122E+005
            3024    1.48914E+007    1.30959E+007    1.30959E+007   -1.72455E+006   -1.86550E+006    1.49614E+007   -3.16861E+006    1.48899E+007   -1.69894E+006   -1.85216E+006    1.30569E+007    2.32418E+004   -7.19277E+005    2.44934E+005
            3025    1.45327E+007    1.27943E+007    1.27943E+007   -1.66597E+006   -1.80965E+006    1.46040E+007   -3.10624E+006    1.45311E+007   -1.71041E+006   -1.70932E+006    1.27384E+007    4.40957E+004   -6.88333E+005    5.82539E+005
            3026    1.21837E+007    1.03735E+007    1.03735E+007   -7.31500E+005   -2.65924E+006    1.30327E+007   -2.32757E+006    1.18333E+007   -2.63127E+006   -5.29126E+005    1.01431E+007    1.79405E+004   -5.84454E+005   -1.49081E+006
            3027    1.28792E+007    1.10553E+007    1.10553E+007   -9.63390E+005   -2.53932E+006    1.35946E+007   -2.51753E+006    1.26595E+007   -2.50452E+006   -7.82881E+005    1.08400E+007   -3.04330E+004   -6.18626E+005   -1.48961E+006
            3028    1.36662E+007    1.18023E+007    1.18023E+007   -1.23174E+006   -2.41870E+006    1.42210E+007   -2.71729E+006    1.35495E+007   -2.38688E+006   -1.07694E+006    1.16157E+007   -1.98732E+003   -6.28801E+005   -1.42998E+006
            3029    1.45007E+007    1.25718E+007    1.25718E+007   -1.45968E+006   -2.35641E+006    1.49282E+007   -2.91857E+006    1.44381E+007   -2.31730E+006   -1.34982E+006    1.24228E+007   -2.69258E+004   -6.75928E+005   -1.28449E+006
            3030    1.52218E+007    1.32381E+007    1.32381E+007   -1.69241E+006   -2.25916E+006    1.54972E+007   -3.09550E+006    1.51980E+007   -2.22260E+006   -1.62946E+006    1.31386E+007   -7.73725E+003   -6.96695E+005   -1.00667E+006
            3031    1.57446E+007    1.37248E+007    1.37248E+007   -1.82328E+006   -2.20935E+006    1.59341E+007   -3.23072E+006    1.57340E+007   -2.17268E+006   -1.80319E+006    1.36680E+007   -1.03554E+004   -7.22460E+005   -6.09931E+005
            3032    1.59498E+007    1.39164E+007    1.39164E+007   -1.90750E+006   -2.15629E+006    1.60727E+007   -3.28420E+006    1.59454E+007   -2.12300E+006   -1.90696E+006    1.38826E+007   -4.84000E+003   -7.25814E+005   -1.25378E+005
            3033    1.58318E+007    1.38180E+007    1.38180E+007   -1.87198E+006   -2.15193E+006    1.59699E+007   -3.26469E+006    1.58262E+007   -2.11715E+006   -1.86585E+006    1.37771E+007    6.84530E+003   -7.23646E+005    3.55477E+005
            3034    1.53945E+007    1.34131E+007    1.34131E+007   -1.78866E+006   -2.16713E+006    1.55802E+007   -3.15243E+006    1.53840E+007   -2.13079E+006   -1.75081E+006    1.33389E+007    6.14226E+003   -6.99235E+005    8.05319E+005
            3035    1.30119E+007    1.08888E+007    1.08888E+007   -9.81221E+005   -3.02352E+006    1.39123E+007   -2.29468E+006    1.26438E+007   -2.99293E+006   -7.30656E+005    1.06076E+007    8.85291E+004   -6.45411E+005   -1.70411E+006
            3036    1.36694E+007    1.14642E+007    1.14642E+007   -1.19153E+006   -3.03232E+006    1.44965E+007   -2.41346E+006    1.33863E+007   -2.98839E+006   -9.72343E+005    1.12011E+007    3.54076E+003   -7.55147E+005   -1.66762E+006
            3037    1.44724E+007    1.22498E+007    1.22498E+007   -1.37235E+006   -2.94451E+006    1.51943E+007   -2.64430E+006    1.42784E+007   -2.89989E+006   -1.16573E+006    1.19985E+007    3.50094E+004   -7.99246E+005   -1.67288E+006
            3038    1.54392E+007    1.31381E+007    1.31381E+007   -1.58822E+006   -2.92677E+006    1.60649E+007   -2.87437E+006    1.53078E+007   -2.87610E+006   -1.43190E+006    1.29311E+007    1.00993E+004   -8.60792E+005   -1.52973E+006
            3039    1.62995E+007    1.39591E+007    1.39591E+007   -1.76993E+006   -2.85659E+006    1.68157E+007   -3.11086E+006    1.62177E+007   -2.80617E+006   -1.68059E+006    1.38193E+007    2.04958E+004   -9.00685E+005   -1.19431E+006
            3040    1.68607E+007    1.45095E+007    1.45095E+007   -1.83704E+006   -2.82224E+006    1.73317E+007   -3.28340E+006    1.67958E+007   -2.77082E+006   -1.80944E+006    1.44305E+007    9.27054E+003   -9.34795E+005   -6.80973E+005
            3041    1.70878E+007    1.47386E+007    1.47386E+007   -1.88297E+006   -2.78017E+006    1.75188E+007   -3.35849E+006    1.70347E+007   -2.72930E+006   -1.88229E+006    1.46870E+007    1.56949E+003   -9.42434E+005   -1.07882E+005
            3042    1.69199E+007    1.45761E+007    1.45761E+007   -1.87090E+006   -2.77991E+006    1.73561E+007   -3.30845E+006    1.68648E+007   -2.72900E+006   -1.85611E+006    1.45104E+007   -4.15403E+003   -9.32827E+005    5.03060E+005
            3043    1.63880E+007    1.40750E+007    1.40750E+007   -1.80543E+006   -2.77735E+006    1.68523E+007   -3.16406E+006    1.63230E+007   -2.72734E+006   -1.74148E+006    1.39610E+007   -1.34253E+004   -8.98759E+005    1.02012E+006
            3044    1.35728E+007    1.12053E+007    1.12053E+007   -1.22697E+006   -3.27512E+006    1.44804E+007   -2.23441E+006    1.32184E+007   -3.24651E+006   -9.81017E+005    1.09307E+007    1.84784E+005   -5.61157E+005   -1.74776E+006
            3045    1.41898E+007    1.17836E+007    1.17836E+007   -1.24881E+006   -3.33309E+006    1.51167E+007   -2.40056E+006    1.38391E+007   -3.30635E+006   -9.80798E+005    1.14888E+007    1.21355E+005   -6.18619E+005   -1.84928E+006
            3046    1.52359E+007    1.27278E+007    1.27278E+007   -1.50650E+006   -3.34317E+006    1.60710E+007   -2.62604E+006    1.49838E+007   -3.31486E+006   -1.25247E+006    1.24454E+007    1.28380E+005   -6.52253E+005   -1.88587E+006
            3047    1.63639E+007    1.38468E+007    1.38468E+007   -1.56863E+006   -3.32397E+006    1.71708E+007   -2.98473E+006    1.61500E+007   -3.29499E+006   -1.37578E+006    1.36250E+007    9.75506E+004   -6.95685E+005   -1.71270E+006
            3048    1.73700E+007    1.49027E+007    1.49027E+007   -1.55058E+006   -3.25789E+006    1.81606E+007   -3.36475E+006    1.71797E+007   -3.22848E+006   -1.44143E+006    1.47642E+007    7.95502E+004   -7.23255E+005   -1.33595E+006
            3049    1.81068E+007    1.56716E+007    1.56716E+007   -1.54190E+006   -3.21269E+006    1.88843E+007   -3.63900E+006    1.79321E+007   -3.18310E+006   -1.50677E+006    1.56069E+007    3.98180E+004   -7.45646E+005   -7.76372E+005
            3050    1.83739E+007    1.59428E+007    1.59428E+007   -1.56355E+006   -3.19035E+006    1.91332E+007   -3.72965E+006    1.82108E+007   -3.16056E+006   -1.56337E+006    1.59129E+007    1.61200E+003   -7.54431E+005   -5.53793E+004
            3051    1.81449E+007    1.57150E+007    1.57150E+007   -1.55634E+006   -3.19253E+006    1.89075E+007   -3.65538E+006    1.79778E+007   -3.16222E+006   -1.53159E+006    1.56599E+007   -3.65543E+004   -7.55185E+005    6.53256E+005
            3052    1.74065E+007    1.49408E+007    1.49408E+007   -1.58631E+006   -3.22855E+006    1.81694E+007   -3.37533E+006    1.72309E+007   -3.19789E+006   -1.49113E+006    1.48150E+007   -7.24407E+004   -7.40492E+005    1.25044E+006
            3053    1.79014E+007    1.54637E+007    1.54637E+007   -1.05788E+006   -3.55531E+006    1.90190E+007   -3.61684E+006    1.75031E+007   -3.53541E+006   -9.24686E+005    1.53106E+007   -1.22768E+005   -5.74775E+005    1.48757E+006
            3054    1.88228E+007    1.65346E+007    1.65346E+007   -8.68020E+005   -3.44328E+006    1.99779E+007   -4.07443E+006    1.84202E+007   -3.42723E+006   -8.26338E+005    1.64769E+007   -6.77871E+004   -5.52161E+005    8.56748E+005
            3055    1.92225E+007    1.70053E+007    1.70053E+007   -7.87609E+005   -3.38292E+006    2.03883E+007   -4.27827E+006    1.88222E+007   -3.36861E+006   -7.87601E+005    1.69910E+007    9.35047E+001   -5.39967E+005   -1.22777E+004
            3056    1.88144E+007    1.65195E+007    1.65195E+007   -8.74003E+005   -3.45038E+006    1.99699E+007   -4.06503E+006    1.84113E+007   -3.43454E+006   -8.30022E+005    1.64597E+007    6.65524E+004   -5.49121E+005   -8.78872E+005
            3057    1.78775E+007    1.54171E+007    1.54171E+007   -1.07997E+006   -3.57810E+006    1.89952E+007   -3.58634E+006    1.74783E+007   -3.55838E+006   -9.41575E+005    1.52590E+007    1.23394E+005   -5.71408E+005   -1.51449E+006
            3058    1.66335E+007    1.40005E+007    1.40005E+007   -1.31313E+006   -3.69581E+006    1.76963E+007   -2.99718E+006    1.62429E+007   -3.67122E+006   -1.09410E+006    1.37569E+007    1.61953E+005   -5.98271E+005   -1.83063E+006
            3059    1.53626E+007    1.25429E+007    1.25429E+007   -1.60430E+006   -3.79908E+006    1.63420E+007   -2.37984E+006    1.50038E+007   -3.77101E+006   -1.35115E+006    1.22617E+007    1.72630E+005   -6.14860E+005   -1.88687E+006
            3060    1.45176E+007    1.16181E+007    1.16181E+007   -1.82974E+006   -3.77351E+006    1.53916E+007   -2.00495E+006    1.42205E+007   -3.74296E+006   -1.58069E+006    1.13385E+007    1.67088E+005   -6.31070E+005   -1.82281E+006
            3061    1.42580E+007    1.16257E+007    1.16257E+007   -1.54818E+006   -3.51261E+006    1.51384E+007   -2.18832E+006    1.39487E+007   -3.48138E+006   -1.21936E+006    1.12657E+007    1.76896E+005   -6.35835E+005   -2.06151E+006
            3062    9.66024E+006    8.94896E+006    8.94896E+006    5.78564E+005   -1.62158E+006    1.05705E+007   -2.63531E+006    9.07046E+006   -1.61416E+006    5.73324E+005    8.94677E+006   -1.20474E+005   -8.63749E+004   -1.12199E+005
            3063    9.78833E+006    8.95212E+006    8.95212E+006    5.14546E+005   -1.77949E+006    1.07316E+007   -2.56239E+006    9.15371E+006   -1.76858E+006    5.25471E+005    8.93028E+006   -1.01632E+005   -2.45367E+005   -3.72054E+005
            3064    1.01187E+007    9.01196E+006    9.01196E+006    2.90534E+005   -2.08234E+006    1.10943E+007   -2.40672E+006    9.46187E+006   -2.06543E+006    3.47456E+005    8.93813E+006   -6.33514E+004   -3.87055E+005   -7.25035E+005
            3065    1.07040E+007    9.21547E+006    9.21547E+006   -1.19234E+005   -2.46786E+006    1.16833E+007   -2.20946E+006    1.00996E+007   -2.44586E+006    1.45326E+004    9.05971E+006   -9.42742E+003   -4.87818E+005   -1.11637E+006
            3066    1.15158E+007    9.64297E+006    9.64297E+006   -5.59483E+005   -2.84376E+006    1.24867E+007   -2.07991E+006    1.09886E+007   -2.81776E+006   -3.30476E+005    9.38797E+006    5.29479E+004   -5.62662E+005   -1.51084E+006
            3067    1.24566E+007    1.02587E+007    1.02587E+007   -9.60785E+005   -3.14583E+006    1.34045E+007   -2.05069E+006    1.20140E+007   -3.11893E+006   -6.59846E+005    9.93083E+006    1.08638E+005   -5.89526E+005   -1.81060E+006
            3068    1.34557E+007    1.10605E+007    1.10605E+007   -1.22350E+006   -3.32064E+006    1.43811E+007   -2.17212E+006    1.30804E+007   -3.29133E+006   -8.43620E+005    1.06513E+007    1.52445E+005   -6.22762E+005   -2.12614E+006
            3069    1.02183E+007    9.50780E+006    9.50780E+006    1.43736E+005   -1.39108E+006    1.08989E+007   -2.75349E+006    9.95400E+006   -1.33653E+006    9.28583E+004    9.50413E+006    2.80392E+005    9.96501E+004   -1.63561E+005
            3070    1.10380E+007    1.02539E+007    1.02539E+007   -3.23439E+005   -1.19332E+006    1.14472E+007   -2.91236E+006    1.09605E+007   -1.09675E+006   -4.16574E+005    1.02504E+007    2.70824E+005    9.74972E+004   -1.68748E+005
            3071    1.18875E+007    1.09820E+007    1.09820E+007   -6.69222E+005   -1.12845E+006    1.21105E+007   -3.06146E+006    1.18675E+007   -8.86668E+005   -9.08259E+005    1.09793E+007    2.28052E+005    1.04079E+005   -1.49521E+005
            3072    1.26032E+007    1.15911E+007    1.15911E+007   -6.90053E+005   -1.31130E+006    1.29024E+007   -3.19657E+006    1.25687E+007   -7.24639E+005   -1.27464E+006    1.15890E+007    1.43257E+005    1.09426E+005   -1.20212E+005
            3073    1.03996E+007    9.56752E+006    9.56752E+006    4.04220E+004   -1.52678E+006    1.10943E+007   -2.69372E+006    1.01289E+007   -1.47012E+006    1.75153E+004    9.53377E+006    2.54530E+005    3.19590E+005   -4.90942E+005
            3074    1.12063E+007    1.03287E+007    1.03287E+007   -3.93571E+005   -1.30586E+006    1.16345E+007   -2.87642E+006    1.11223E+007   -1.21372E+006   -4.53893E+005    1.02969E+007    2.49171E+005    3.19060E+005   -5.04758E+005
            3075    1.20459E+007    1.10539E+007    1.10539E+007   -7.56430E+005   -1.21443E+006    1.22684E+007   -3.02770E+006    1.20263E+007   -9.97876E+005   -9.46456E+005    1.10274E+007    2.15755E+005    3.20590E+005   -4.70405E+005
            3076    1.27605E+007    1.16798E+007    1.16798E+007   -7.89325E+005   -1.35332E+006    1.30331E+007   -3.17905E+006    1.27324E+007   -8.21296E+005   -1.30319E+006    1.16616E+007    1.35613E+005    3.16878E+005   -3.65947E+005
            3077    1.07891E+007    9.73743E+006    9.73743E+006   -1.26502E+005   -1.78489E+006    1.15223E+007   -2.60868E+006    1.04966E+007   -1.72689E+006   -9.38482E+004    9.64678E+006    2.05147E+005    5.03497E+005   -8.29709E+005
            3078    1.16366E+007    1.05280E+007    1.05280E+007   -5.64173E+005   -1.58556E+006    1.21136E+007   -2.79277E+006    1.15351E+007   -1.50091E+006   -5.66593E+005    1.04458E+007    2.09287E+005    5.18942E+005   -8.23694E+005
            3079    1.24717E+007    1.12762E+007    1.12762E+007   -9.22954E+005   -1.45128E+006    1.27275E+007   -2.96732E+006    1.24465E+007   -1.30027E+006   -1.00506E+006    1.12073E+007    1.93147E+005    5.52623E+005   -7.48622E+005
            3080    1.32075E+007    1.19192E+007    1.19192E+007   -1.09737E+006   -1.47121E+006    1.33904E+007   -3.11688E+006    1.31956E+007   -1.14743E+006   -1.36808E+006    1.18661E+007    1.23503E+005    5.78193E+005   -6.09703E+005
            3081    1.13876E+007    1.00056E+007    1.00056E+007   -4.46938E+005   -2.12983E+006    1.21354E+007   -2.47626E+006    1.11026E+007   -2.06797E+006   -3.40765E+005    9.83753E+006    1.30957E+005    6.80063E+005   -1.16582E+006
            3082    1.21431E+007    1.07849E+007    1.07849E+007   -7.43989E+005   -1.89091E+006    1.26758E+007   -2.71667E+006    1.20203E+007   -1.81440E+006   -6.74699E+005    1.06391E+007    1.42278E+005    6.99597E+005   -1.11492E+006
            3083    1.29363E+007    1.15049E+007    1.15049E+007   -1.10330E+006   -1.73642E+006    1.32413E+007   -2.88838E+006    1.29014E+007   -1.62386E+006   -1.08901E+006    1.13780E+007    1.43532E+005    7.26104E+005   -1.05276E+006
            3084    1.37245E+007    1.22281E+007    1.22281E+007   -1.36122E+006   -1.62766E+006    1.38557E+007   -3.07974E+006    1.37186E+007   -1.46166E+006   -1.43046E+006    1.21313E+007    8.53482E+004    7.43971E+005   -8.81754E+005
            3085    1.22399E+007    1.04897E+007    1.04897E+007   -7.40550E+005   -2.55692E+006    1.30466E+007   -2.39739E+006    1.19310E+007   -2.49282E+006   -5.69960E+005    1.02550E+007    4.62879E+004    8.29122E+005   -1.42068E+006
            3086    1.28562E+007    1.10871E+007    1.10871E+007   -9.72101E+005   -2.44008E+006    1.35271E+007   -2.55829E+006    1.26656E+007   -2.36148E+006   -8.42314E+005    1.08787E+007    7.29287E+004    8.97389E+005   -1.33586E+006
            3087    1.37122E+007    1.18807E+007    1.18807E+007   -1.27895E+006   -2.32417E+006    1.42049E+007   -2.75919E+006    1.36221E+007   -2.21913E+006   -1.18063E+006    1.16773E+007    9.57334E+004    9.87859E+005   -1.33035E+006
            3088    1.45776E+007    1.26715E+007    1.26715E+007   -1.57901E+006   -2.21244E+006    1.48840E+007   -2.96003E+006    1.45466E+007   -2.10596E+006   -1.52122E+006    1.25073E+007    5.56563E+004    1.05548E+006   -1.12708E+006
            3089    1.28597E+007    1.07431E+007    1.07431E+007   -1.08717E+006   -2.94416E+006    1.36873E+007   -2.23726E+006    1.25528E+007   -2.88587E+006   -9.04367E+005    1.05020E+007   -3.97652E+004    8.72888E+005   -1.46616E+006
            3090    1.33934E+007    1.13327E+007    1.13327E+007   -1.12652E+006   -2.83154E+006    1.41643E+007   -2.45823E+006    1.31459E+007   -2.77370E+006   -9.06435E+005    1.10548E+007   -5.61102E+004    8.85439E+005   -1.64610E+006
            3091    1.44997E+007    1.23303E+007    1.23303E+007   -1.45491E+006   -2.79146E+006    1.51217E+007   -2.69464E+006    1.43602E+007   -2.72186E+006   -1.27450E+006    1.20803E+007   -1.65887E+004    9.74556E+005   -1.59357E+006
            3092    1.54845E+007    1.32591E+007    1.32591E+007   -1.66221E+006   -2.73302E+006    1.59921E+007   -2.95462E+006    1.54009E+007   -2.66182E+006   -1.53406E+006    1.30598E+007   -3.77016E+004    1.04004E+006   -1.39175E+006
            3093    1.30421E+007    1.05869E+007    1.05869E+007   -1.09444E+006   -3.48519E+006    1.40721E+007   -2.00242E+006    1.25348E+007   -3.40735E+006   -8.47559E+005    1.02622E+007   -6.72401E+004    1.02510E+006   -1.68455E+006
            3094    1.41468E+007    1.15226E+007    1.15226E+007   -1.57889E+006   -3.47781E+006    1.50004E+007   -2.15529E+006    1.38558E+007   -3.40438E+006   -1.32160E+006    1.11919E+007   -9.31986E+004    1.03342E+006   -1.81805E+006
            3095    1.50723E+007    1.24160E+007    1.24160E+007   -1.63072E+006   -3.50633E+006    1.59223E+007   -2.42631E+006    1.48063E+007   -3.42898E+006   -1.40032E+006    1.21082E+007   -9.62737E+004    1.09588E+006   -1.78349E+006
            3096    1.62834E+007    1.36383E+007    1.36383E+007   -1.64989E+006   -3.48493E+006    1.71232E+007   -2.83449E+006    1.60483E+007   -3.40619E+006   -1.47919E+006    1.33889E+007   -1.01331E+005    1.15238E+006   -1.60339E+006
            3097    1.68720E+007    1.40369E+007    1.40369E+007   -1.26693E+006   -4.05570E+006    1.80926E+007   -2.90476E+006    1.63413E+007   -4.00756E+006   -1.07162E+006    1.37935E+007   -2.23672E+005    8.57113E+005   -1.73936E+006
            3098    1.55350E+007    1.26359E+007    1.26359E+007   -1.43476E+006   -4.03526E+006    1.66711E+007   -2.38862E+006    1.50336E+007   -3.98057E+006   -1.21868E+006    1.23651E+007   -2.45570E+005    8.66710E+005   -1.75473E+006
            3099    1.42329E+007    1.12438E+007    1.12438E+007   -1.63632E+006   -4.03675E+006    1.52805E+007   -1.85690E+006    1.37664E+007   -3.98067E+006   -1.45263E+006    1.10040E+007   -2.38146E+005    8.37230E+005   -1.55504E+006
            3100    1.40821E+007    1.09792E+007    1.09792E+007   -2.10111E+006   -3.92662E+006    1.49058E+007   -1.65048E+006    1.38121E+007   -3.87175E+006   -1.98079E+006    1.08040E+007   -1.95864E+005    8.27748E+005   -1.28222E+006
            3101    9.61253E+006    8.95313E+006    8.95313E+006    5.68099E+005   -1.53774E+006    1.04909E+007   -2.66116E+006    9.07151E+006   -1.51910E+006    5.51763E+005    8.95082E+006    1.90155E+005    1.09094E+005   -1.00945E+005
            3102    9.72216E+006    8.94488E+006    8.94488E+006    5.32745E+005   -1.69915E+006    1.06440E+007   -2.59283E+006    9.11864E+006   -1.67474E+006    5.33940E+005    8.91928E+006    1.66750E+005    3.28008E+005   -3.65854E+005
            3103    1.00383E+007    8.99418E+006    8.99418E+006    3.31122E+005   -2.00680E+006    1.10010E+007   -2.43950E+006    9.39603E+006   -1.97308E+006    3.77308E+005    8.91427E+006    1.18757E+005    5.10944E+005   -7.00784E+005
            3104    1.06128E+007    9.20767E+006    9.20767E+006    3.40895E+003   -2.40108E+006    1.16088E+007   -2.27000E+006    9.97193E+006   -2.35668E+006    1.32175E+005    9.03451E+006    5.16118E+004    6.66339E+005   -1.10889E+006
            3105    1.15406E+007    9.68562E+006    9.68562E+006   -5.42356E+005   -2.82617E+006    1.25118E+007   -2.10570E+006    1.10149E+007   -2.77633E+006   -3.08855E+005    9.40228E+006   -3.29247E+004    7.67032E+005   -1.53418E+006
            3106    1.27671E+007    1.06400E+007    1.06400E+007   -8.43521E+005   -3.10766E+006    1.37477E+007   -2.22961E+006    1.23032E+007   -3.05253E+006   -5.23162E+005    1.02645E+007   -1.10100E+005    8.58157E+005   -1.88807E+006
            3107    1.41778E+007    1.16233E+007    1.16233E+007   -1.49620E+006   -3.41693E+006    1.50402E+007   -2.23671E+006    1.38805E+007   -3.36365E+006   -1.27660E+006    1.13504E+007   -1.40891E+005    8.79897E+005   -1.68090E+006
            3108    1.82542E+007    1.55573E+007    1.55573E+007   -1.04201E+006   -3.99223E+006    1.95496E+007   -3.50770E+006    1.77058E+007   -3.95244E+006   -9.20760E+005    1.53963E+007   -1.74110E+005    8.29567E+005   -1.43207E+006
            3109    1.92259E+007    1.66437E+007    1.66437E+007   -8.67291E+005   -3.92953E+006    2.05732E+007   -3.94895E+006    1.86653E+007   -3.89729E+006   -8.27751E+005    1.65719E+007   -9.43614E+004    7.97201E+005   -8.41032E+005
            3110    1.96510E+007    1.71371E+007    1.71371E+007   -7.81056E+005   -3.87871E+006    2.10158E+007   -4.15912E+006    1.90901E+007   -3.84930E+006   -7.81058E+005    1.71077E+007   -3.00522E+003    7.85634E+005   -3.30119E+002
            3111    1.92538E+007    1.66782E+007    1.66782E+007   -8.51534E+005   -3.92894E+006    2.06072E+007   -3.96591E+006    1.86884E+007   -3.89723E+006   -8.11827E+005    1.66068E+007    9.22328E+004    7.92180E+005    8.42454E+005
            3112    1.82511E+007    1.55424E+007    1.55424E+007   -1.04360E+006   -4.01031E+006    1.95527E+007   -3.49617E+006    1.76964E+007   -3.97161E+006   -9.18952E+005    1.53791E+007    1.72749E+005    8.18209E+005    1.45012E+006
            3113    1.69322E+007    1.40889E+007    1.40889E+007   -1.26033E+006   -4.07394E+006    1.81628E+007   -2.91819E+006    1.63939E+007   -4.02689E+006   -1.06569E+006    1.38472E+007    2.27578E+005    8.42146E+005    1.74128E+006
            3114    1.55893E+007    1.26122E+007    1.26122E+007   -1.53542E+006   -4.10067E+006    1.67129E+007   -2.32537E+006    1.51035E+007   -4.04707E+006   -1.31946E+006    1.23426E+007    2.51056E+005    8.47732E+005    1.76306E+006
            3115    1.47217E+007    1.17001E+007    1.17001E+007   -1.73710E+006   -4.03568E+006    1.57357E+007   -1.97577E+006    1.43096E+007   -3.98049E+006   -1.53483E+006    1.14426E+007    2.36562E+005    8.43926E+005    1.66220E+006
            3116    1.43952E+007    1.17089E+007    1.17089E+007   -1.37790E+006   -3.70999E+006    1.54189E+007   -2.20701E+006    1.39607E+007   -3.65462E+006   -1.10816E+006    1.13838E+007    2.38403E+005    8.50528E+005    1.87422E+006
            3117    1.72974E+007    1.46462E+007    1.46462E+007   -1.64780E+006   -3.50486E+006    1.81510E+007   -3.16450E+006    1.70710E+007   -3.42469E+006   -1.55236E+006    1.44706E+007   -8.02170E+004    1.20040E+006   -1.24081E+006
            3118    1.63566E+007    1.40995E+007    1.40995E+007   -1.75529E+006   -2.71657E+006    1.68161E+007   -3.20921E+006    1.62929E+007   -2.64153E+006   -1.69475E+006    1.39639E+007   -2.34651E+004    1.10481E+006   -9.93337E+005
            3119    1.52801E+007    1.32981E+007    1.32981E+007   -1.77926E+006   -2.17690E+006    1.54751E+007   -3.11399E+006    1.52685E+007   -2.06542E+006   -1.76690E+006    1.31743E+007    4.54029E+004    1.12473E+006   -7.94098E+005
            3120    1.43157E+007    1.27523E+007    1.27523E+007   -1.39594E+006   -1.72523E+006    1.44775E+007   -3.21038E+006    1.43072E+007   -1.38314E+006   -1.67225E+006    1.26865E+007    6.14785E+004    7.68905E+005   -5.90999E+005
            3121    1.37674E+007    1.23909E+007    1.23909E+007   -1.08270E+006   -1.65244E+006    1.40434E+007   -3.21860E+006    1.37408E+007   -1.07390E+006   -1.62290E+006    1.23526E+007    8.43141E+004    6.09872E+005   -3.91309E+005
            3122    1.32573E+007    1.20928E+007    1.20928E+007   -7.27884E+005   -1.56178E+006    1.36545E+007   -3.26770E+006    1.31981E+007   -7.30619E+005   -1.54723E+006    1.20809E+007    8.71424E+004    3.15327E+005   -2.37658E+005
            3123    1.31031E+007    1.20000E+007    1.20000E+007   -6.35050E+005   -1.52573E+006    1.35258E+007   -3.27975E+006    1.30348E+007   -6.43204E+005   -1.51615E+006    1.19986E+007    8.95848E+004    1.16801E+005   -6.88301E+004
            3124    1.80396E+007    1.53987E+007    1.53987E+007   -1.63219E+006   -3.50366E+006    1.89024E+007   -3.42095E+006    1.78192E+007   -3.42373E+006   -1.60672E+006    1.52933E+007   -4.60653E+004    1.22569E+006   -6.56547E+005
            3125    1.69055E+007    1.46136E+007    1.46136E+007   -1.83930E+006   -2.71077E+006    1.73244E+007   -3.35451E+006    1.68548E+007   -2.63536E+006   -1.82488E+006    1.45238E+007   -1.88270E+004    1.13837E+006   -4.90185E+005
            3126    1.56971E+007    1.36795E+007    1.36795E+007   -1.90732E+006   -2.12570E+006    1.58052E+007   -3.21548E+006    1.56937E+007   -2.03242E+006   -1.90701E+006    1.35859E+007    1.34003E+004    1.16419E+006   -3.38893E+005
            3127    1.46578E+007    1.30517E+007    1.30517E+007   -1.36882E+006   -1.83240E+006    1.48841E+007   -3.28348E+006    1.46413E+007   -1.32833E+006   -1.82709E+006    1.30059E+007    1.45741E+004    7.78011E+005   -2.35725E+005
            3128    1.40323E+007    1.26157E+007    1.26157E+007   -1.05146E+006   -1.75517E+006    1.43709E+007   -3.26969E+006    1.39925E+007   -1.02401E+006   -1.75288E+006    1.25859E+007    2.16188E+004    6.23948E+005   -1.32881E+005
            3129    1.34962E+007    1.22947E+007    1.22947E+007   -6.75717E+005   -1.67216E+006    1.39668E+007   -3.31560E+006    1.34131E+007   -6.68684E+005   -1.67136E+006    1.22868E+007    1.86587E+004    3.10806E+005   -7.36366E+004
            3130    1.33265E+007    1.21843E+007    1.21843E+007   -5.91316E+005   -1.63203E+006    1.38163E+007   -3.32032E+006    1.32346E+007   -5.90512E+005   -1.63166E+006    1.21831E+007    1.85033E+004    1.20679E+005   -2.17074E+004
            3131    1.82766E+007    1.56305E+007    1.56305E+007   -1.62494E+006   -3.51972E+006    1.91502E+007   -3.49527E+006    1.80537E+007   -3.43999E+006   -1.62482E+006    1.55506E+007    2.78784E+003    1.23309E+006    4.45795E+004
            3132    1.70735E+007    1.47816E+007    1.47816E+007   -1.82127E+006   -2.72653E+006    1.75081E+007   -3.41126E+006    1.70194E+007   -2.65059E+006   -1.82053E+006    1.47049E+007    1.58021E+003    1.15027E+006    1.13909E+005
            3133    1.58014E+007    1.37635E+007    1.37635E+007   -1.92257E+006   -2.15080E+006    1.59143E+007   -3.23005E+006    1.57977E+007   -2.06159E+006   -1.92213E+006    1.36739E+007   -2.82868E+003    1.18306E+006    1.37552E+005
            3134    1.46964E+007    1.30883E+007    1.30883E+007   -1.39011E+006   -1.81679E+006    1.49051E+007   -3.29379E+006    1.46824E+007   -1.34830E+006   -1.81395E+006    1.30436E+007   -1.40356E+004    7.87940E+005    1.57522E+005
            3135    1.40466E+007    1.26230E+007    1.26230E+007   -1.07767E+006   -1.74580E+006    1.43688E+007   -3.26650E+006    1.40108E+007   -1.04941E+006   -1.74336E+006    1.25923E+007   -2.22134E+004    6.34739E+005    1.34360E+005
            3136    1.34745E+007    1.22775E+007    1.22775E+007   -6.94584E+005   -1.64863E+006    1.39262E+007   -3.31144E+006    1.33982E+007   -6.88021E+005   -1.64701E+006    1.22694E+007   -2.93317E+004    3.13990E+005    9.01297E+004
            3137    1.33003E+007    1.21622E+007    1.21622E+007   -6.11202E+005   -1.60893E+006    1.37711E+007   -3.31402E+006    1.32157E+007   -6.11124E+005   -1.60775E+006    1.21609E+007   -3.27342E+004    1.22479E+005    3.39486E+004
            3138    1.80079E+007    1.53534E+007    1.53534E+007   -1.62662E+006   -3.53088E+006    1.88843E+007   -3.39864E+006    1.77792E+007   -3.45167E+006   -1.59158E+006    1.52392E+007    5.22613E+004    1.21937E+006    7.68820E+005
            3139    1.68207E+007    1.45224E+007    1.45224E+007   -1.80680E+006   -2.75018E+006    1.72725E+007   -3.32179E+006    1.67610E+007   -2.67519E+006   -1.77905E+006    1.44196E+007    1.97899E+004    1.12969E+006    6.80696E+005
            3140    1.55729E+007    1.35470E+007    1.35470E+007   -1.85440E+006   -2.19184E+006    1.57389E+007   -3.16692E+006    1.55647E+007   -2.08972E+006   -1.84466E+006    1.34351E+007   -2.38512E+004    1.16440E+006    6.24055E+005
            3141    1.44537E+007    1.28637E+007    1.28637E+007   -1.40849E+006   -1.76489E+006    1.46286E+007   -3.23012E+006    1.44438E+007   -1.38225E+006   -1.73007E+006    1.28027E+007   -4.66709E+004    7.80349E+005    5.19630E+005
            3142    1.37996E+007    1.24111E+007    1.24111E+007   -1.09211E+006   -1.66682E+006    1.40779E+007   -3.21739E+006    1.37726E+007   -1.07727E+006   -1.64193E+006    1.23714E+007   -7.11216E+004    6.25418E+005    3.91730E+005
            3143    1.32244E+007    1.20651E+007    1.20651E+007   -7.17532E+005   -1.56061E+006    1.36257E+007   -3.26232E+006    1.31637E+007   -7.19443E+005   -1.54661E+006    1.20530E+007   -8.36326E+004    3.14281E+005    2.45716E+005
            3144    1.30394E+007    1.19473E+007    1.19473E+007   -6.30640E+005   -1.50921E+006    1.34565E+007   -3.26915E+006    1.29726E+007   -6.39018E+005   -1.49924E+006    1.19457E+007   -9.01236E+004    1.18954E+005    7.99573E+004
            3145    1.72396E+007    1.45712E+007    1.45712E+007   -1.61766E+006   -3.55548E+006    1.81266E+007   -3.13268E+006    1.69920E+007   -3.47614E+006   -1.50750E+006    1.43817E+007    8.83085E+004    1.19293E+006    1.32794E+006
            3146    1.62040E+007    1.39230E+007    1.39230E+007   -1.71124E+006   -2.79637E+006    1.67193E+007   -3.13845E+006    1.61220E+007   -2.72296E+006   -1.62365E+006    1.37620E+007    3.29470E+004    1.08869E+006    1.17935E+006
            3147    1.50300E+007    1.30476E+007    1.30476E+007   -1.66808E+006   -2.27820E+006    1.53258E+007   -3.03377E+006    1.50021E+007   -2.16923E+006   -1.62628E+006    1.28968E+007   -4.84279E+004    1.12464E+006    9.99897E+005
            3148    1.39694E+007    1.24292E+007    1.24292E+007   -1.40694E+006   -1.66983E+006    1.40990E+007   -3.11747E+006    1.39639E+007   -1.48527E+006   -1.50084E+006    1.23385E+007   -8.57869E+004    7.73737E+005    8.19253E+005
            3149    1.33342E+007    1.20085E+007    1.20085E+007   -1.12973E+006   -1.51332E+006    1.35218E+007   -3.12182E+006    1.33217E+007   -1.17927E+006   -1.40973E+006    1.19544E+007   -1.27112E+005    6.11488E+005    5.93134E+005
            3150    1.27734E+007    1.16840E+007    1.16840E+007   -7.92658E+005   -1.36673E+006    1.30507E+007   -3.17488E+006    1.27443E+007   -8.30024E+005   -1.31068E+006    1.16653E+007   -1.45870E+005    3.21859E+005    3.71434E+005
            3151    1.25815E+007    1.15667E+007    1.15667E+007   -6.98894E+005   -1.30858E+006    1.28753E+007   -3.18640E+006    1.25482E+007   -7.41418E+005   -1.26393E+006    1.15646E+007   -1.55987E+005    1.13989E+005    1.18458E+005
            3152    1.62024E+007    1.35050E+007    1.35050E+007   -1.65531E+006   -3.56938E+006    1.70744E+007   -2.76010E+006    1.59450E+007   -3.49144E+006   -1.46257E+006    1.32343E+007    1.13144E+005    1.14444E+006    1.69472E+006
            3153    1.52810E+007    1.30475E+007    1.30475E+007   -1.56973E+006   -2.82039E+006    1.58679E+007   -2.88580E+006    1.51652E+007   -2.75136E+006   -1.41501E+006    1.28238E+007    4.77106E+004    1.02370E+006    1.50583E+006
            3154    1.42872E+007    1.23763E+007    1.23763E+007   -1.45608E+006   -2.32605E+006    1.47023E+007   -2.86471E+006    1.42275E+007   -2.22441E+006   -1.36755E+006    1.21861E+007   -5.54568E+004    1.05246E+006    1.25742E+006
            3155    1.33096E+007    1.18312E+007    1.18312E+007   -1.25270E+006   -1.69308E+006    1.35243E+007   -2.96182E+006    1.32932E+007   -1.58274E+006   -1.24280E+006    1.17110E+007   -1.03286E+005    7.46402E+005    1.02016E+006
            3156    1.27101E+007    1.14741E+007    1.14741E+007   -1.02930E+006   -1.43308E+006    1.29072E+007   -3.00391E+006    1.26957E+007   -1.27077E+006   -1.12274E+006    1.14052E+007   -1.57653E+005    5.78474E+005    7.39790E+005
            3157    1.21751E+007    1.11729E+007    1.11729E+007   -7.94557E+005   -1.19976E+006    1.23726E+007   -3.05952E+006    1.21599E+007   -9.45362E+005   -1.02366E+006    1.11476E+007   -1.86000E+005    3.20560E+005    4.57733E+005
            3158    1.19772E+007    1.10633E+007    1.10633E+007   -6.96460E+005   -1.12006E+006    1.21834E+007   -3.08227E+006    1.19603E+007   -8.47547E+005   -9.66291E+005    1.10606E+007   -2.01911E+005    1.05662E+005    1.46573E+005
            3159    1.50639E+007    1.23891E+007    1.23891E+007   -1.56383E+006   -3.58230E+006    1.59714E+007   -2.41431E+006    1.47550E+007   -3.50471E+006   -1.31248E+006    1.20601E+007    1.05054E+005    1.09944E+006    1.85412E+006
            3160    1.42850E+007    1.21201E+007    1.21201E+007   -1.31135E+006   -2.88775E+006    1.50079E+007   -2.64033E+006    1.40874E+007   -2.82256E+006   -1.11595E+006    1.18595E+007    3.94118E+004    9.59731E+005    1.62026E+006
            3161    1.35005E+007    1.16356E+007    1.16356E+007   -1.18241E+006   -2.45698E+006    1.40926E+007   -2.66540E+006    1.33641E+007   -2.35904E+006   -1.06502E+006    1.14203E+007   -8.94846E+004    9.87125E+005    1.36665E+006
            3162    1.25941E+007    1.11649E+007    1.11649E+007   -9.54488E+005   -1.85557E+006    1.30205E+007   -2.78495E+006    1.25213E+007   -1.75857E+006   -9.05862E+005    1.10193E+007   -1.52026E+005    7.34952E+005    1.12809E+006
            3163    1.20229E+007    1.08504E+007    1.08504E+007   -7.47252E+005   -1.55688E+006    1.24073E+007   -2.84876E+006    1.19614E+007   -1.44320E+006   -7.79624E+005    1.07691E+007   -2.16382E+005    5.54811E+005    8.18577E+005
            3164    1.15084E+007    1.05804E+007    1.05804E+007   -5.59737E+005   -1.26396E+006    1.18443E+007   -2.91890E+006    1.14598E+007   -1.13398E+006   -6.57840E+005    1.05485E+007   -2.51431E+005    3.28328E+005    5.11716E+005
            3165    1.12946E+007    1.04677E+007    1.04677E+007   -4.63235E+005   -1.15839E+006    1.16261E+007   -2.94869E+006    1.12463E+007   -1.02693E+006   -5.91496E+005    1.04645E+007   -2.70151E+005    1.00050E+005    1.63015E+005
            3166    1.40344E+007    1.14900E+007    1.14900E+007   -1.32138E+006   -3.51017E+006    1.50002E+007   -2.21949E+006    1.36425E+007   -3.43603E+006   -1.05683E+006    1.11513E+007    1.24260E+005    1.04251E+006    1.81768E+006
            3167    1.34275E+007    1.13131E+007    1.13131E+007   -1.16746E+006   -2.89422E+006    1.42073E+007   -2.41715E+006    1.31742E+007   -2.83815E+006   -9.51804E+005    1.10414E+007    8.82732E+004    8.82916E+005    1.62447E+006
            3168    1.27377E+007    1.09489E+007    1.09489E+007   -9.17497E+005   -2.51031E+006    1.34592E+007   -2.50704E+006    1.25107E+007   -2.44033E+006   -7.59678E+005    1.07211E+007   -3.91625E+004    8.82535E+005    1.41185E+006
            3169    1.18873E+007    1.04993E+007    1.04993E+007   -6.69807E+005   -1.99498E+006    1.24943E+007   -2.61152E+006    1.17194E+007   -1.92717E+006   -5.77838E+005    1.03396E+007   -1.23813E+005    7.04237E+005    1.15922E+006
            3170    1.12955E+007    1.02066E+007    1.02066E+007   -4.00637E+005   -1.66992E+006    1.18766E+007   -2.71203E+006    1.11334E+007   -1.60022E+006   -3.81014E+005    1.01173E+007   -2.02604E+005    5.18619E+005    8.48099E+005
            3171    1.08196E+007    9.96943E+006    9.96943E+006   -2.10998E+005   -1.39242E+006    1.13619E+007   -2.78867E+006    1.06731E+007   -1.32005E+006   -2.49330E+005    9.93539E+006   -2.51025E+005    3.25871E+005    5.08887E+005
            3172    1.05990E+007    9.86531E+006    9.86531E+006   -9.65700E+004   -1.27271E+006    1.11380E+007   -2.83201E+006    1.04507E+007   -1.20158E+006   -1.64097E+005    9.86170E+006   -2.77462E+005    9.46172E+004    1.69891E+005
            3173    1.36054E+007    1.10362E+007    1.10362E+007   -1.28676E+006   -3.56418E+006    1.46004E+007   -2.06175E+006    1.31662E+007   -3.49396E+006   -1.05943E+006    1.07386E+007    8.85522E+004    9.99871E+005    1.65725E+006
            3174    1.28707E+007    1.07084E+007    1.07084E+007   -1.03113E+006   -3.05403E+006    1.37624E+007   -2.20774E+006    1.25056E+007   -2.99258E+006   -7.91247E+005    1.04070E+007    4.89889E+004    8.95593E+005    1.66774E+006
            3175    1.20976E+007    1.02647E+007    1.02647E+007   -7.61945E+005   -2.67581E+006    1.29405E+007   -2.27564E+006    1.17498E+007   -2.61322E+006   -5.78313E+005    1.00184E+007   -3.89543E+004    8.23476E+005    1.45121E+006
            3176    1.12368E+007    9.81750E+006    9.81750E+006   -3.84841E+005   -2.22622E+006    1.20437E+007   -2.40215E+006    1.08895E+007   -2.16577E+006   -2.71120E+005    9.64332E+006   -1.22167E+005    6.95054E+005    1.16910E+006
            3177    1.06190E+007    9.53836E+006    9.53836E+006   -6.97994E+004   -1.86308E+006    1.14014E+007   -2.53516E+006    1.02700E+007   -1.80873E+006   -3.23699E+004    9.44658E+006   -1.98185E+005    5.11156E+005    8.19938E+005
            3178    1.01912E+007    9.36624E+006    9.36624E+006    1.55575E+005   -1.58214E+006    1.09484E+007   -2.64656E+006    9.84963E+006   -1.53203E+006    1.39022E+005    9.33269E+006   -2.47588E+005    3.26918E+005    4.75376E+005
            3179    1.00113E+007    9.31140E+006    9.31140E+006    2.57247E+005   -1.44009E+006    1.07515E+007   -2.70952E+006    9.67964E+006   -1.39326E+006    2.13751E+005    9.30806E+006   -2.73965E+005    1.00050E+005    1.50482E+005
            3180    9.55115E+006    8.90218E+006    8.90218E+006    6.03637E+005   -1.53797E+006    1.04401E+007   -2.65595E+006    8.98680E+006   -1.52113E+006    5.89370E+005    8.89960E+006   -1.81104E+005    1.12833E+005    1.08160E+005
            3181    9.68914E+006    8.90691E+006    8.90691E+006    5.36371E+005   -1.70719E+006    1.06141E+007   -2.57870E+006    9.07668E+006   -1.68423E+006    5.38455E+005    8.88187E+006   -1.56898E+005    3.30655E+005    3.55860E+005
            3182    1.00197E+007    8.96016E+006    8.96016E+006    3.21739E+005   -2.02449E+006    1.09846E+007   -2.41914E+006    9.37129E+006   -1.99143E+006    3.67659E+005    8.88118E+006   -1.08552E+005    5.17580E+005    6.89542E+005
            3183    1.06138E+007    9.15855E+006    9.15855E+006   -6.68456E+004   -2.44144E+006    1.16000E+007   -2.21676E+006    9.98959E+006   -2.39847E+006    5.02139E+004    8.99852E+006   -3.48190E+004    6.68697E+005    1.05327E+006
            3184    1.14199E+007    9.56169E+006    9.56169E+006   -4.82428E+005   -2.85981E+006    1.24215E+007   -2.07315E+006    1.08420E+007   -2.81059E+006   -2.78325E+005    9.30836E+006    5.19128E+004    7.69256E+005    1.41876E+006
            3185    1.23741E+007    1.01711E+007    1.01711E+007   -8.29514E+005   -3.22598E+006    1.33971E+007   -2.03854E+006    1.18350E+007   -3.17223E+006   -5.62535E+005    9.85037E+006    1.40844E+005    8.34884E+005    1.68868E+006
            3186    1.34570E+007    1.10517E+007    1.10517E+007   -1.02166E+006   -3.45654E+006    1.45082E+007   -2.19116E+006    1.29474E+007   -3.40167E+006   -6.89982E+005    1.06651E+007    2.22720E+005    8.44341E+005    1.97658E+006
            3187    1.41021E+007    1.09934E+007    1.09934E+007   -2.11712E+006   -3.92567E+006    1.49191E+007   -1.65021E+006    1.38376E+007   -3.87089E+006   -1.99592E+006    1.08174E+007   -1.94493E+005   -8.28673E+005    1.28746E+006
            3188    1.42033E+007    1.12025E+007    1.12025E+007   -1.65986E+006   -4.04093E+006    1.52434E+007   -1.83389E+006    1.37435E+007   -3.98499E+006   -1.48017E+006    1.09668E+007   -2.35349E+005   -8.36424E+005    1.53735E+006
            3189    1.54991E+007    1.25965E+007    1.25965E+007   -1.44474E+006   -4.03430E+006    1.66308E+007   -2.37248E+006    1.50008E+007   -3.97950E+006   -1.22947E+006    1.23264E+007   -2.44917E+005   -8.67074E+005    1.74961E+006
            3190    1.68506E+007    1.40177E+007    1.40177E+007   -1.26574E+006   -4.05264E+006    1.80703E+007   -2.89977E+006    1.63200E+007   -4.00457E+006   -1.07112E+006    1.37750E+007   -2.23036E+005   -8.56368E+005    1.73505E+006
            3191    1.62597E+007    1.36199E+007    1.36199E+007   -1.65368E+006   -3.47284E+006    1.70928E+007   -2.83114E+006    1.60284E+007   -3.39397E+006   -1.48276E+006    1.33701E+007   -1.00171E+005   -1.15223E+006    1.60379E+006
            3192    1.54422E+007    1.32265E+007    1.32265E+007   -1.66078E+006   -2.71642E+006    1.59429E+007   -2.94978E+006    1.53607E+007   -2.64499E+006   -1.53338E+006    1.30277E+007   -3.49505E+004   -1.03782E+006    1.38803E+006
            3193    1.45408E+007    1.26489E+007    1.26489E+007   -1.57232E+006   -2.19175E+006    1.48407E+007   -2.96161E+006    1.45111E+007   -2.08428E+006   -1.51724E+006    1.24864E+007    5.80967E+004   -1.04985E+006    1.11902E+006
            3194    1.37031E+007    1.22151E+007    1.22151E+007   -1.35279E+006   -1.61929E+006    1.38344E+007   -3.08100E+006    1.36972E+007   -1.44676E+006   -1.43068E+006    1.21204E+007    8.65988E+004   -7.36498E+005    8.70450E+005
            3195    1.31899E+007    1.19073E+007    1.19073E+007   -1.09073E+006   -1.46641E+006    1.33737E+007   -3.11671E+006    1.31778E+007   -1.14092E+006   -1.36411E+006    1.18552E+007    1.24253E+005   -5.73536E+005    6.02908E+005
            3196    1.27475E+007    1.16702E+007    1.16702E+007   -7.85670E+005   -1.35017E+006    1.30203E+007   -3.17811E+006    1.27193E+007   -8.18012E+005   -1.30002E+006    1.16524E+007    1.36098E+005   -3.12018E+005    3.63599E+005
            3197    1.26004E+007    1.15892E+007    1.15892E+007   -6.89541E+005   -1.30977E+006    1.28990E+007   -3.19664E+006    1.25659E+007   -7.24319E+005   -1.27297E+006    1.15872E+007    1.43442E+005   -1.07038E+005    1.19929E+005
            3198    1.50371E+007    1.23861E+007    1.23861E+007   -1.63262E+006   -3.49586E+006    1.58819E+007   -2.41919E+006    1.47741E+007   -3.41849E+006   -1.40158E+006    1.20777E+007   -9.48324E+004   -1.09419E+006    1.78444E+006
            3199    1.44526E+007    1.22991E+007    1.22991E+007   -1.44226E+006   -2.77265E+006    1.50718E+007   -2.69474E+006    1.43138E+007   -2.70283E+006   -1.26261E+006    1.20496E+007   -1.36071E+004   -9.71606E+005    1.58967E+006
            3200    1.36593E+007    1.18444E+007    1.18444E+007   -1.26786E+006   -2.30313E+006    1.41475E+007   -2.75779E+006    1.35706E+007   -2.19778E+006   -1.17253E+006    1.16437E+007    9.88676E+004   -9.80017E+005    1.31903E+006
            3201    1.29078E+007    1.14886E+007    1.14886E+007   -1.09481E+006   -1.72086E+006    1.32094E+007   -2.89097E+006    1.28736E+007   -1.60738E+006   -1.08355E+006    1.13638E+007    1.45378E+005   -7.17601E+005    1.04420E+006
            3202    1.24621E+007    1.12710E+007    1.12710E+007   -9.20139E+005   -1.44541E+006    1.27164E+007   -2.96848E+006    1.24371E+007   -1.29263E+006   -1.00537E+006    1.12034E+007    1.94192E+005   -5.47789E+005    7.40560E+005
            3203    1.20373E+007    1.10482E+007    1.10482E+007   -7.52933E+005   -1.21198E+006    1.22602E+007   -3.02777E+006    1.20175E+007   -9.95193E+005   -9.43874E+005    1.10224E+007    2.16579E+005   -3.16793E+005    4.63944E+005
            3204    1.18834E+007    1.09785E+007    1.09785E+007   -6.68481E+005   -1.12799E+006    1.21065E+007   -3.06066E+006    1.18634E+007   -8.86951E+005   -9.06895E+005    1.09758E+007    2.28290E+005   -1.01787E+005    1.46196E+005
            3205    1.41278E+007    1.15074E+007    1.15074E+007   -1.57429E+006   -3.47420E+006    1.49816E+007   -2.15297E+006    1.38360E+007   -3.40061E+006   -1.31495E+006    1.11745E+007   -9.22427E+004   -1.03344E+006    1.82397E+006
            3206    1.33497E+007    1.12985E+007    1.12985E+007   -1.11496E+006   -2.82307E+006    1.41216E+007   -2.45349E+006    1.31005E+007   -2.76517E+006   -8.98356E+005    1.10240E+007   -5.28755E+004   -8.83619E+005    1.63098E+006
            3207    1.28146E+007    1.10604E+007    1.10604E+007   -9.58543E+005   -2.42388E+006    1.34843E+007   -2.55933E+006    1.26241E+007   -2.34519E+006   -8.31226E+005    1.08544E+007    7.64121E+004   -8.92157E+005    1.32557E+006
            3208    1.21160E+007    1.07680E+007    1.07680E+007   -7.36030E+005   -1.87891E+006    1.26469E+007   -2.71769E+006    1.19938E+007   -1.80247E+006   -6.69309E+005    1.06249E+007    1.44510E+005   -6.92985E+005    1.10353E+006
            3209    1.16315E+007    1.05258E+007    1.05258E+007   -5.62622E+005   -1.58163E+006    1.21075E+007   -2.79387E+006    1.15304E+007   -1.49638E+006   -5.66278E+005    1.04443E+007    2.10740E+005   -5.16399E+005    8.20674E+005
            3210    1.11993E+007    1.03231E+007    1.03231E+007   -3.91781E+005   -1.30470E+006    1.16278E+007   -2.87553E+006    1.11151E+007   -1.21298E+006   -4.51745E+005    1.02913E+007    2.48806E+005   -3.17801E+005    5.04478E+005
            3211    1.10319E+007    1.02489E+007    1.02489E+007   -3.20455E+005   -1.19355E+006    1.14425E+007   -2.91165E+006    1.09538E+007   -1.09734E+006   -4.13330E+005    1.02456E+007    2.71011E+005   -9.59989E+004    1.66208E+005
            3212    1.30201E+007    1.05647E+007    1.05647E+007   -1.08580E+006   -3.48997E+006    1.40546E+007   -1.99630E+006    1.25060E+007   -3.41180E+006   -8.42682E+005    1.02434E+007   -6.69259E+004   -1.02702E+006    1.66964E+006
            3213    1.28560E+007    1.07449E+007    1.07449E+007   -1.08162E+006   -2.93870E+006    1.36836E+007   -2.24152E+006    1.25489E+007   -2.88038E+006   -8.98680E+005    1.05036E+007   -3.87080E+004   -8.72442E+005    1.46678E+006
            3214    1.22117E+007    1.04703E+007    1.04703E+007   -7.31779E+005   -2.54775E+006    1.30180E+007   -2.39692E+006    1.19023E+007   -2.48379E+006   -5.62723E+005    1.02373E+007    4.81029E+004   -8.25765E+005    1.41378E+006
            3215    1.13686E+007    9.99332E+006    9.99332E+006   -4.41099E+005   -2.12231E+006    1.21156E+007   -2.47664E+006    1.10838E+007   -2.06050E+006   -3.35968E+005    9.82638E+006    1.32336E+005   -6.76937E+005    1.16134E+006
            3216    1.07746E+007    9.72809E+006    9.72809E+006   -1.20295E+005   -1.78010E+006    1.15082E+007   -2.60923E+006    1.04812E+007   -1.72233E+006   -8.88714E+004    9.63890E+006    2.06067E+005   -4.99774E+005    8.22162E+005
            3217    1.03956E+007    9.56515E+006    9.56515E+006    4.17093E+004   -1.52478E+006    1.10899E+007   -2.69403E+006    1.01249E+007   -1.46820E+006    1.83379E+004    9.53194E+006    2.54702E+005   -3.17975E+005    4.86374E+005
            3218    1.02201E+007    9.50928E+006    9.50928E+006    1.42911E+005   -1.39107E+006    1.09003E+007   -2.75371E+006    9.95612E+006   -1.33647E+006    9.19893E+004    9.50560E+006    2.80404E+005   -1.00342E+005    1.63438E+005
            3219    9.61175E+006    8.95142E+006    8.95142E+006    5.68609E+005   -1.53936E+006    1.04908E+007   -2.66023E+006    9.06954E+006   -1.52075E+006    5.52498E+005    8.94893E+006    1.89452E+005   -1.13831E+005    1.04913E+005
            3220    9.71991E+006    8.94333E+006    8.94333E+006    5.36255E+005   -1.69973E+006    1.06431E+007   -2.59328E+006    9.11390E+006   -1.67534E+006    5.37454E+005    8.91773E+006    1.66361E+005   -3.29164E+005    3.64767E+005
            3221    1.00364E+007    8.99426E+006    8.99426E+006    3.31483E+005   -2.00399E+006    1.09982E+007   -2.44058E+006    9.39540E+006   -1.97029E+006    3.76661E+005    8.91538E+006    1.19929E+005   -5.09342E+005    6.95291E+005
            3222    1.06011E+007    9.19857E+006    9.19857E+006    2.88428E+003   -2.39654E+006    1.15951E+007   -2.26830E+006    9.96223E+006   -2.35209E+006    1.28968E+005    9.02803E+006    5.45844E+004   -6.64547E+005    1.09856E+006
            3223    1.15107E+007    9.66285E+006    9.66285E+006   -5.32822E+005   -2.81952E+006    1.24824E+007   -2.10350E+006    1.09820E+007   -2.76982E+006   -3.02949E+005    9.38329E+006   -3.08350E+004   -7.64603E+005    1.52042E+006
            3224    1.27304E+007    1.06095E+007    1.06095E+007   -8.31422E+005   -3.10417E+006    1.37137E+007   -2.22464E+006    1.22614E+007   -3.04913E+006   -5.12327E+005    1.02354E+007   -1.08754E+005   -8.56357E+005    1.88094E+006
            3225    1.41931E+007    1.16444E+007    1.16444E+007   -1.49044E+006   -3.41126E+006    1.50556E+007   -2.24756E+006    1.38961E+007   -3.35807E+006   -1.26830E+006    1.13691E+007   -1.42656E+005   -8.79101E+005    1.69158E+006
            3226    1.00086E+007    9.30865E+006    9.30865E+006    2.59608E+005   -1.44154E+006    1.07502E+007   -2.70891E+006    9.67533E+006   -1.39506E+006    2.16758E+005    9.30502E+006   -2.72954E+005   -1.03085E+005   -1.57371E+005
            3227    1.05937E+007    9.85934E+006    9.85934E+006   -9.41955E+004   -1.27553E+006    1.11349E+007   -2.82987E+006    1.04440E+007   -1.20503E+006   -1.60738E+005    9.85538E+006   -2.76614E+005   -9.96503E+004   -1.77409E+005
            3228    1.12927E+007    1.04645E+007    1.04645E+007   -4.63018E+005   -1.16104E+006    1.16255E+007   -2.94681E+006    1.12440E+007   -1.03079E+006   -5.89559E+005    1.04608E+007   -2.69531E+005   -1.07534E+005   -1.75253E+005
            3229    1.19812E+007    1.10652E+007    1.10652E+007   -6.98534E+005   -1.12206E+006    1.21873E+007   -3.08155E+006    1.19643E+007   -8.50795E+005   -9.66625E+005    1.10621E+007   -2.02041E+005   -1.14459E+005   -1.59977E+005
            3230    1.25869E+007    1.15699E+007    1.15699E+007   -7.01087E+005   -1.31066E+006    1.28806E+007   -3.18606E+006    1.25536E+007   -7.43679E+005   -1.26561E+006    1.15675E+007   -1.56154E+005   -1.21550E+005   -1.28572E+005
            3231    1.30434E+007    1.19502E+007    1.19502E+007   -6.31693E+005   -1.51020E+006    1.34604E+007   -3.26945E+006    1.29766E+007   -6.40080E+005   -1.50006E+006    1.19485E+007   -9.05547E+004   -1.24135E+005   -8.47442E+004
            3232    1.33018E+007    1.21630E+007    1.21630E+007   -6.11653E+005   -1.60975E+006    1.37727E+007   -3.31385E+006    1.32171E+007   -6.11558E+005   -1.60854E+006    1.21617E+007   -3.32283E+004   -1.25058E+005   -3.39431E+004
            3233    1.33261E+007    1.21844E+007    1.21844E+007   -5.91171E+005   -1.63122E+006    1.38156E+007   -3.32067E+006    1.32343E+007   -5.90350E+005   -1.63085E+006    1.21832E+007    1.81948E+004   -1.21037E+005    2.29611E+004
            3234    1.31015E+007    1.19985E+007    1.19985E+007   -6.35157E+005   -1.52542E+006    1.35239E+007   -3.27931E+006    1.30332E+007   -6.43299E+005   -1.51587E+006    1.19971E+007    8.93971E+004   -1.15603E+005    6.95788E+004
            3235    1.01915E+007    9.36190E+006    9.36190E+006    1.55505E+005   -1.58933E+006    1.09512E+007   -2.64269E+006    9.84697E+006   -1.53937E+006    1.40182E+005    9.32726E+006   -2.46314E+005   -3.31792E+005   -4.83083E+005
            3236    1.08233E+007    9.96689E+006    9.96689E+006   -2.10969E+005   -1.40306E+006    1.13700E+007   -2.78429E+006    1.06741E+007   -1.33118E+006   -2.46971E+005    9.93101E+006   -2.49687E+005   -3.33468E+005   -5.22944E+005
            3237    1.15253E+007    1.05885E+007    1.05885E+007   -5.66274E+005   -1.27460E+006    1.18631E+007   -2.91587E+006    1.14761E+007   -1.14591E+006   -6.60938E+005    1.05545E+007   -2.49695E+005   -3.40005E+005   -5.28606E+005
            3238    1.22016E+007    1.11896E+007    1.11896E+007   -8.05431E+005   -1.20868E+006    1.23983E+007   -3.05849E+006    1.21866E+007   -9.55854E+005   -1.03120E+006    1.11625E+007   -1.84422E+005   -3.32801E+005   -4.73206E+005
            3239    1.27999E+007    1.17025E+007    1.17025E+007   -8.01238E+005   -1.37443E+006    1.30769E+007   -3.17560E+006    1.27710E+007   -8.37610E+005   -1.31840E+006    1.16828E+007   -1.44531E+005   -3.32550E+005   -3.79488E+005
            3240    1.32423E+007    1.20779E+007    1.20779E+007   -7.22997E+005   -1.56559E+006    1.36435E+007   -3.26310E+006    1.31818E+007   -7.24415E+005   -1.55170E+006    1.20654E+007   -8.27413E+004   -3.21353E+005   -2.47092E+005
            3241    1.34822E+007    1.22834E+007    1.22834E+007   -6.97168E+005   -1.64984E+006    1.39332E+007   -3.31212E+006    1.34061E+007   -6.90415E+005   -1.64830E+006    1.22751E+007   -2.89125E+004   -3.17383E+005   -8.68982E+004
            3242    1.34944E+007    1.22929E+007    1.22929E+007   -6.76377E+005   -1.67153E+006    1.39645E+007   -3.31500E+006    1.34115E+007   -6.69377E+005   -1.67065E+006    1.22850E+007    1.93320E+004   -3.10794E+005    7.79210E+004
            3243    1.32454E+007    1.20843E+007    1.20843E+007   -7.25766E+005   -1.55728E+006    1.36416E+007   -3.26709E+006    1.31865E+007   -7.28883E+005   -1.54237E+006    1.20725E+007    8.80152E+004   -3.12268E+005    2.40888E+005
            3244    1.06301E+007    9.53987E+006    9.53987E+006   -7.57155E+004   -1.87506E+006    1.14149E+007   -2.52970E+006    1.02791E+007   -1.82076E+006   -3.57311E+004    9.44559E+006   -1.95759E+005   -5.16650E+005   -8.32082E+005
            3245    1.13267E+007    1.02234E+007    1.02234E+007   -4.13368E+005   -1.68572E+006    1.19091E+007   -2.70811E+006    1.11642E+007   -1.61622E+006   -3.90015E+005    1.01306E+007   -1.98868E+005   -5.28987E+005   -8.65908E+005
            3246    1.20756E+007    1.08847E+007    1.08847E+007   -7.67653E+005   -1.57385E+006    1.24585E+007   -2.84773E+006    1.20149E+007   -1.46062E+006   -7.95606E+005    1.07994E+007   -2.11942E+005   -5.69016E+005   -8.40130E+005
            3247    1.27738E+007    1.15197E+007    1.15197E+007   -1.05062E+006   -1.44833E+006    1.29680E+007   -3.00691E+006    1.27598E+007   -1.28570E+006   -1.14172E+006    1.14481E+007   -1.53842E+005   -5.92846E+005   -7.54184E+005
            3248    1.33882E+007    1.20485E+007    1.20485E+007   -1.14428E+006   -1.52675E+006    1.35753E+007   -3.12584E+006    1.33759E+007   -1.19009E+006   -1.42576E+006    1.19934E+007   -1.24204E+005   -6.22978E+005   -5.96118E+005
            3249    1.38326E+007    1.24365E+007    1.24365E+007   -1.09938E+006   -1.67485E+006    1.41114E+007   -3.22077E+006    1.38057E+007   -1.08321E+006   -1.65105E+006    1.23966E+007   -6.90065E+004   -6.32506E+005   -3.85590E+005
            3250    1.40557E+007    1.26299E+007    1.26299E+007   -1.08006E+006   -1.74781E+006    1.43777E+007   -3.26733E+006    1.40199E+007   -1.05150E+006   -1.74567E+006    1.25992E+007   -2.11461E+004   -6.36811E+005   -1.24399E+005
            3251    1.40220E+007    1.26082E+007    1.26082E+007   -1.04976E+006   -1.75149E+006    1.43597E+007   -3.26899E+006    1.39824E+007   -1.02254E+006   -1.74890E+006    1.25784E+007    2.27681E+004   -6.22612E+005    1.41547E+005
            3252    1.37469E+007    1.23750E+007    1.23750E+007   -1.07818E+006   -1.64779E+006    1.40228E+007   -3.21636E+006    1.37203E+007   -1.07016E+006   -1.61754E+006    1.23368E+007    8.52831E+004   -6.05496E+005    3.96077E+005
            3253    1.12751E+007    9.84060E+006    9.84060E+006   -3.98717E+005   -2.24292E+006    1.20835E+007   -2.39966E+006    1.09280E+007   -2.18224E+006   -2.81285E+005    9.66249E+006   -1.18526E+005   -7.02232E+005   -1.18483E+006
            3254    1.19535E+007    1.05404E+007    1.05404E+007   -6.93510E+005   -2.02167E+006    1.25621E+007   -2.60841E+006    1.17857E+007   -1.95330E+006   -5.97046E+005    1.03756E+007   -1.19285E+005   -7.17702E+005   -1.18009E+006
            3255    1.26905E+007    1.12328E+007    1.12328E+007   -9.85502E+005   -1.88234E+006    1.31152E+007   -2.78833E+006    1.26189E+007   -1.78515E+006   -9.32494E+005    1.10826E+007   -1.46215E+005   -7.53293E+005   -1.14716E+006
            3256    1.34034E+007    1.19013E+007    1.19013E+007   -1.28027E+006   -1.71344E+006    1.36148E+007   -2.96921E+006    1.33877E+007   -1.60359E+006   -1.26793E+006    1.17792E+007   -9.86149E+004   -7.62459E+005   -1.02646E+006
            3257    1.40403E+007    1.24854E+007    1.24854E+007   -1.42455E+006   -1.68185E+006    1.41672E+007   -3.12632E+006    1.40350E+007   -1.49698E+006   -1.51905E+006    1.23950E+007   -8.28875E+004   -7.84618E+005   -8.10175E+005
            3258    1.44869E+007    1.28913E+007    1.28913E+007   -1.41301E+006   -1.77162E+006    1.46629E+007   -3.23555E+006    1.44769E+007   -1.38527E+006   -1.73920E+006    1.28311E+007   -4.52204E+004   -7.84244E+005   -5.02244E+005
            3259    1.46983E+007    1.30916E+007    1.30916E+007   -1.38751E+006   -1.81657E+006    1.49081E+007   -3.29583E+006    1.46842E+007   -1.34559E+006   -1.81427E+006    1.30473E+007   -1.29020E+004   -7.87005E+005   -1.41026E+005
            3260    1.46344E+007    1.30344E+007    1.30344E+007   -1.36024E+006   -1.82837E+006    1.48628E+007   -3.28194E+006    1.46175E+007   -1.32039E+006   -1.82255E+006    1.29888E+007    1.52790E+004   -7.72671E+005    2.47255E+005
            3261    1.42874E+007    1.27335E+007    1.27335E+007   -1.38156E+006   -1.72020E+006    1.44537E+007   -3.21058E+006    1.42783E+007   -1.36955E+006   -1.66728E+006    1.26686E+007    6.32510E+004   -7.60739E+005    5.89983E+005
            3262    1.21434E+007    1.02948E+007    1.02948E+007   -7.76697E+005   -2.69279E+006    1.29875E+007   -2.27509E+006    1.17961E+007   -2.63011E+006   -5.90175E+005    1.00456E+007   -3.49540E+004   -8.28744E+005   -1.46307E+006
            3263    1.28267E+007    1.10125E+007    1.10125E+007   -9.42964E+005   -2.53650E+006    1.35491E+007   -2.51103E+006    1.26012E+007   -2.46630E+006   -7.80969E+005    1.07803E+007   -3.33063E+004   -8.92282E+005   -1.43114E+006
            3264    1.36146E+007    1.17219E+007    1.17219E+007   -1.21195E+006   -2.48418E+006    1.42061E+007   -2.67525E+006    1.34799E+007   -2.38634E+006   -1.09140E+006    1.15035E+007   -8.28866E+004   -1.00070E+006   -1.38025E+006
            3265    1.43953E+007    1.24631E+007    1.24631E+007   -1.48061E+006   -2.34475E+006    1.48079E+007   -2.87925E+006    1.43367E+007   -2.24336E+006   -1.39175E+006    1.22729E+007   -5.00909E+004   -1.06551E+006   -1.25511E+006
            3266    1.50966E+007    1.31031E+007    1.31031E+007   -1.68231E+006   -2.28654E+006    1.53896E+007   -3.04474E+006    1.50693E+007   -2.17805E+006   -1.64178E+006    1.29540E+007   -4.53610E+004   -1.13415E+006   -9.81160E+005
            3267    1.55917E+007    1.35650E+007    1.35650E+007   -1.85918E+006   -2.18898E+006    1.57540E+007   -3.17228E+006    1.55839E+007   -2.08733E+006   -1.85029E+006    1.34545E+007   -2.23704E+004   -1.16878E+006   -6.00481E+005
            3268    1.57829E+007    1.37501E+007    1.37501E+007   -1.92242E+006   -2.14091E+006    1.58911E+007   -3.22894E+006    1.57795E+007   -2.05185E+006   -1.92203E+006    1.36607E+007   -1.87260E+003   -1.18262E+006   -1.21524E+005
            3269    1.56622E+007    1.36527E+007    1.36527E+007   -1.90614E+006   -2.11099E+006    1.57637E+007   -3.21185E+006    1.56592E+007   -2.01689E+006   -1.90655E+006    1.35590E+007    1.42424E+004   -1.16065E+006    3.47704E+005
            3270    1.52404E+007    1.32672E+007    1.32672E+007   -1.77687E+006   -2.16227E+006    1.54295E+007   -3.10936E+006    1.52295E+007   -2.04910E+006   -1.76688E+006    1.31441E+007    4.71302E+004   -1.12103E+006    7.89639E+005
            3271    1.29123E+007    1.07382E+007    1.07382E+007   -1.04140E+006   -3.06726E+006    1.38055E+007   -2.20985E+006    1.25473E+007   -3.00564E+006   -7.98937E+005    1.04341E+007    5.27121E+004   -8.99487E+005   -1.67852E+006
            3272    1.35078E+007    1.13745E+007    1.13745E+007   -1.18493E+006   -2.91492E+006    1.42894E+007   -2.42488E+006    1.32551E+007   -2.85837E+006   -9.66806E+005    1.10998E+007    9.28473E+004   -8.89708E+005   -1.63839E+006
            3273    1.43846E+007    1.22038E+007    1.22038E+007   -1.32718E+006   -2.90431E+006    1.51081E+007   -2.65745E+006    1.41881E+007   -2.83892E+006   -1.13155E+006    1.19428E+007    4.28678E+004   -9.66340E+005   -1.62598E+006
            3274    1.53564E+007    1.31166E+007    1.31166E+007   -1.57801E+006   -2.82551E+006    1.59421E+007   -2.90434E+006    1.52417E+007   -2.75648E+006   -1.42579E+006    1.28953E+007    4.91668E+004   -1.02744E+006   -1.49696E+006
            3275    1.62371E+007    1.39590E+007    1.39590E+007   -1.71303E+006   -2.78957E+006    1.67485E+007   -3.15212E+006    1.61565E+007   -2.71620E+006   -1.62826E+006    1.38008E+007    3.23953E+004   -1.08978E+006   -1.16181E+006
            3276    1.68098E+007    1.45182E+007    1.45182E+007   -1.81114E+006   -2.73416E+006    1.72523E+007   -3.32429E+006    1.67527E+007   -2.65920E+006   -1.78462E+006    1.44167E+007    1.85507E+004   -1.12860E+006   -6.66186E+005
            3277    1.70378E+007    1.47549E+007    1.47549E+007   -1.82730E+006   -2.70474E+006    1.74596E+007   -3.40760E+006    1.69869E+007   -2.62875E+006   -1.82665E+006    1.46782E+007    1.37393E+003   -1.14905E+006   -1.07057E+005
            3278    1.68659E+007    1.45832E+007    1.45832E+007   -1.84389E+006   -2.68973E+006    1.72729E+007   -3.34987E+006    1.68181E+007   -2.61421E+006   -1.82955E+006    1.44934E+007   -1.85643E+004   -1.13747E+006    4.88754E+005
            3279    1.63220E+007    1.40743E+007    1.40743E+007   -1.75617E+006   -2.69845E+006    1.67727E+007   -3.20656E+006    1.62607E+007   -2.62326E+006   -1.69612E+006    1.39391E+007   -2.14705E+004   -1.10296E+006    9.90488E+005
            3280    1.36252E+007    1.10550E+007    1.10550E+007   -1.28583E+006   -3.56672E+006    1.46217E+007   -2.06748E+006    1.31854E+007   -3.49646E+006   -1.05390E+006    1.07528E+007    9.06788E+004   -1.00091E+006   -1.67468E+006
            3281    1.40985E+007    1.15465E+007    1.15465E+007   -1.32850E+006   -3.51904E+006    1.50655E+007   -2.23299E+006    1.37078E+007   -3.44484E+006   -1.06327E+006    1.12071E+007    1.26351E+005   -1.04527E+006   -1.82444E+006
            3282    1.51234E+007    1.24435E+007    1.24435E+007   -1.56543E+006   -3.59035E+006    1.60338E+007   -2.42923E+006    1.48138E+007   -3.51279E+006   -1.31518E+006    1.21157E+007    1.07145E+005   -1.10186E+006   -1.85354E+006
            3283    1.62412E+007    1.35453E+007    1.35453E+007   -1.65366E+006   -3.56841E+006    1.71137E+007   -2.77442E+006    1.59843E+007   -3.49028E+006   -1.46290E+006    1.32764E+007    1.13253E+005   -1.14722E+006   -1.68825E+006
            3284    1.72431E+007    1.45777E+007    1.45777E+007   -1.62224E+006   -3.54703E+006    1.81247E+007   -3.13613E+006    1.69989E+007   -3.46740E+006   -1.51366E+006    1.43895E+007    8.77530E+004   -1.19512E+006   -1.31888E+006
            3285    1.79808E+007    1.53314E+007    1.53314E+007   -1.63372E+006   -3.51687E+006    1.88483E+007   -3.39360E+006    1.77569E+007   -3.43702E+006   -1.59901E+006    1.52168E+007    5.14377E+004   -1.22306E+006   -7.64879E+005
            3286    1.82431E+007    1.56016E+007    1.56016E+007   -1.63845E+006   -3.50164E+006    1.91032E+007   -3.48716E+006    1.80272E+007   -3.42144E+006   -1.63828E+006    1.55212E+007    3.00715E+003   -1.23520E+006   -5.28704E+004
            3287    1.80167E+007    1.53791E+007    1.53791E+007   -1.64583E+006   -3.48771E+006    1.88669E+007   -3.41520E+006    1.78030E+007   -3.40723E+006   -1.62098E+006    1.52738E+007   -4.44783E+004   -1.22880E+006    6.48577E+005
            3288    1.72725E+007    1.46248E+007    1.46248E+007   -1.65512E+006   -3.49321E+006    1.81180E+007   -3.15882E+006    1.70504E+007   -3.41253E+006   -1.56048E+006    1.44495E+007   -7.98416E+004   -1.20318E+006    1.23508E+006
            3289    1.82567E+007    1.55659E+007    1.55659E+007   -1.03759E+006   -3.98532E+006    1.95512E+007   -3.51432E+006    1.77094E+007   -3.94550E+006   -9.17604E+005    1.54061E+007   -1.72472E+005   -8.31202E+005    1.42455E+006
            3290    1.92267E+007    1.66517E+007    1.66517E+007   -8.62539E+005   -3.92085E+006    2.05725E+007   -3.95609E+006    1.86676E+007   -3.88838E+006   -8.24674E+005    1.65813E+007   -9.21720E+004   -8.00940E+005    8.23024E+005
            3291    1.96449E+007    1.71325E+007    1.71325E+007   -7.87396E+005   -3.87239E+006    2.10049E+007   -4.15758E+006    1.90885E+007   -3.84260E+006   -7.87387E+005    1.71027E+007   -1.60173E+003   -7.90410E+005   -1.35918E+004
            3292    1.92287E+007    1.66464E+007    1.66464E+007   -8.66039E+005   -3.93057E+006    2.05770E+007   -3.94993E+006    1.86674E+007   -3.89857E+006   -8.25804E+005    1.65742E+007    9.22093E+004   -7.95372E+005   -8.47356E+005
            3293    1.82535E+007    1.55405E+007    1.55405E+007   -1.05633E+006   -4.00942E+006    1.95500E+007   -3.49159E+006    1.77040E+007   -3.97063E+006   -9.31920E+005    1.53773E+007    1.71195E+005   -8.20545E+005   -1.44877E+006
            3294    1.69626E+007    1.41165E+007    1.41165E+007   -1.26677E+006   -4.07497E+006    1.81914E+007   -2.92491E+006    1.64273E+007   -4.02807E+006   -1.07290E+006    1.38757E+007    2.25929E+005   -8.42588E+005   -1.73944E+006
            3295    1.56449E+007    1.26681E+007    1.26681E+007   -1.53356E+006   -4.10208E+006    1.67702E+007   -2.34415E+006    1.51596E+007   -4.04863E+006   -1.31720E+006    1.23983E+007    2.50751E+005   -8.48209E+005   -1.76788E+006
            3296    1.47714E+007    1.17561E+007    1.17561E+007   -1.72397E+006   -4.03432E+006    1.57904E+007   -1.99926E+006    1.43564E+007   -3.97919E+006   -1.51822E+006    1.14952E+007    2.37517E+005   -8.44929E+005   -1.67837E+006
            3297    1.43858E+007    1.17075E+007    1.17075E+007   -1.35650E+006   -3.70983E+006    1.54174E+007   -2.21374E+006    1.39428E+007   -3.65429E+006   -1.08276E+006    1.13783E+007    2.38344E+005   -8.53508E+005   -1.88515E+006
            3298    9.55097E+006    8.89997E+006    8.89997E+006    6.00041E+005   -1.53921E+006    1.04392E+007   -2.65360E+006    8.98790E+006   -1.52234E+006    5.85779E+005    8.89737E+006   -1.81055E+005   -1.13294E+005   -1.08803E+005
            3299    9.68637E+006    8.90384E+006    8.90384E+006    5.37795E+005   -1.70823E+006    1.06121E+007   -2.57780E+006    9.07230E+006   -1.68529E+006    5.40062E+005    8.87862E+006   -1.56703E+005   -3.30946E+005   -3.57540E+005
            3300    1.00215E+007    8.95856E+006    8.95856E+006    3.21655E+005   -2.02951E+006    1.09881E+007   -2.41690E+006    9.37034E+006   -1.99646E+006    3.68676E+005    8.87849E+006   -1.06818E+005   -5.19378E+005   -6.95137E+005
            3301    1.06256E+007    9.16009E+006    9.16009E+006   -7.46458E+004   -2.45324E+006    1.16133E+007   -2.21074E+006    9.99995E+006   -2.41016E+006    4.50830E+004    8.99729E+006   -3.20585E+004   -6.71285E+005   -1.06437E+006
            3302    1.14511E+007    9.58370E+006    9.58370E+006   -4.89168E+005   -2.87096E+006    1.24547E+007   -2.07452E+006    1.08726E+007   -2.82164E+006   -2.80734E+005    9.32595E+006    5.57239E+004   -7.71572E+005   -1.43498E+006
            3303    1.24126E+007    1.01982E+007    1.01982E+007   -8.44279E+005   -3.23642E+006    1.34346E+007   -2.03915E+006    1.18773E+007   -3.18246E+006   -5.73794E+005    9.87370E+006    1.43547E+005   -8.37222E+005   -1.70281E+006
            3304    1.34513E+007    1.10464E+007    1.10464E+007   -1.01648E+006   -3.45864E+006    1.45050E+007   -2.19042E+006    1.29383E+007   -3.40389E+006   -6.84997E+005    1.06602E+007    2.25457E+005   -8.41121E+005   -1.97576E+006
            3305    1.01511E+007    9.56366E+006    9.56366E+006    1.96424E+005   -1.22203E+006    1.07857E+007   -2.84602E+006    9.92443E+006   -1.11957E+006    9.82110E+004    9.55942E+006    3.62677E+005    1.29655E+005   -1.63369E+005
            3306    1.10051E+007    1.03484E+007    1.03484E+007   -2.45505E+005   -1.02628E+006    1.13747E+007   -3.02554E+006    1.09425E+007   -8.13990E+005   -4.53517E+005    1.03441E+007    3.44630E+005    1.29539E+005   -1.76921E+005
            3307    1.18605E+007    1.11269E+007    1.11269E+007   -4.36312E+005   -1.01015E+006    1.21370E+007   -3.22681E+006    1.18292E+007   -5.66732E+005   -8.76378E+005    1.11235E+007    2.39684E+005    1.24506E+005   -1.58407E+005
            3308    1.26062E+007    1.17528E+007    1.17528E+007   -3.94048E+005   -1.26739E+006    1.30202E+007   -3.36379E+006    1.25379E+007   -4.27688E+005   -1.23123E+006    1.17503E+007    1.69662E+005    1.21793E+005   -1.31514E+005
            3309    1.03272E+007    9.61624E+006    9.61624E+006    9.68761E+004   -1.36330E+006    1.09795E+007   -2.78327E+006    1.00910E+007   -1.26242E+006    3.07176E+004    9.58152E+006    3.35242E+005    3.50788E+005   -4.84261E+005
            3310    1.11780E+007    1.04187E+007    1.04187E+007   -3.27842E+005   -1.14577E+006    1.15645E+007   -2.98170E+006    1.11103E+007   -9.50280E+005   -4.90603E+005    1.03860E+007    3.28014E+005    3.35501E+005   -5.08469E+005
            3311    1.20314E+007    1.11979E+007    1.11979E+007   -5.59085E+005   -1.09034E+006    1.22882E+007   -3.18283E+006    1.20050E+007   -7.07673E+005   -9.15307E+005    1.11715E+007    2.30104E+005    3.25831E+005   -4.66921E+005
            3312    1.27907E+007    1.18465E+007    1.18465E+007   -5.36326E+005   -1.31639E+006    1.31629E+007   -3.33125E+006    1.27370E+007   -5.70394E+005   -1.26384E+006    1.18280E+007    1.67862E+005    3.26134E+005   -3.65067E+005
            3313    1.06581E+007    9.72892E+006    9.72892E+006   -6.72098E+004   -1.62066E+006    1.13496E+007   -2.68035E+006    1.03988E+007   -1.52018E+006   -7.03298E+004    9.63156E+006    2.75419E+005    6.02611E+005   -8.13052E+005
            3314    1.14829E+007    1.05172E+007    1.05172E+007   -5.06031E+005   -1.37577E+006    1.18930E+007   -2.87847E+006    1.14084E+007   -1.18887E+006   -6.00228E+005    1.04245E+007    2.90750E+005    6.05848E+005   -8.40625E+005
            3315    1.22744E+007    1.12905E+007    1.12905E+007   -7.28128E+005   -1.22454E+006    1.25150E+007   -3.11261E+006    1.22517E+007   -9.05139E+005   -9.72202E+005    1.12152E+007    2.07991E+005    5.93835E+005   -7.64415E+005
            3316    1.30044E+007    1.19319E+007    1.19319E+007   -7.09660E+005   -1.40736E+006    1.33392E+007   -3.27161E+006    1.29622E+007   -7.37737E+005   -1.32179E+006    1.18744E+007    1.60086E+005    5.93369E+005   -6.34936E+005
            3317    1.12913E+007    9.99678E+006    9.99678E+006   -3.81582E+005   -2.02691E+006    1.20237E+007   -2.52943E+006    1.10167E+007   -1.92801E+006   -3.06024E+005    9.82232E+006    1.91004E+005    8.04310E+005   -1.12559E+006
            3318    1.20762E+007    1.07921E+007    1.07921E+007   -7.16900E+005   -1.78080E+006    1.25729E+007   -2.76481E+006    1.19701E+007   -1.62670E+006   -7.11031E+005    1.06322E+007    2.31479E+005    8.44786E+005   -1.10140E+006
            3319    1.28465E+007    1.15325E+007    1.15325E+007   -1.02199E+006   -1.58726E+006    1.31198E+007   -2.97443E+006    1.28185E+007   -1.39743E+006   -1.07061E+006    1.13913E+007    1.69444E+005    8.73970E+005   -1.02878E+006
            3320    1.36405E+007    1.22430E+007    1.22430E+007   -1.18047E+006   -1.60468E+006    1.38477E+007   -3.15261E+006    1.36257E+007   -1.26003E+006   -1.40739E+006    1.21253E+007    1.41732E+005    9.28054E+005   -8.67844E+005
            3321    1.20446E+007    1.03845E+007    1.03845E+007   -6.62157E+005   -2.45667E+006    1.28411E+007   -2.42188E+006    1.17381E+007   -2.35692E+006   -5.11917E+005    1.01345E+007    7.57279E+004    1.00770E+006   -1.36815E+006
            3322    1.25900E+007    1.09559E+007    1.09559E+007   -9.63029E+005   -2.21197E+006    1.31679E+007   -2.59365E+006    1.24495E+007   -2.07368E+006   -8.66108E+005    1.07207E+007    1.44906E+005    1.04694E+006   -1.34804E+006
            3323    1.33983E+007    1.17805E+007    1.17805E+007   -1.23520E+006   -1.97023E+006    1.37507E+007   -2.85835E+006    1.33529E+007   -1.83261E+006   -1.15294E+006    1.15606E+007    8.64769E+004    1.06639E+006   -1.33465E+006
            3324    1.42604E+007    1.25814E+007    1.25814E+007   -1.46707E+006   -1.88178E+006    1.44632E+007   -3.07753E+006    1.42468E+007   -1.70766E+006   -1.46259E+006    1.24028E+007    7.91058E+004    1.12298E+006   -1.13264E+006
            3325    1.28418E+007    1.06742E+007    1.06742E+007   -1.00006E+006   -3.08103E+006    1.37553E+007   -2.19771E+006    1.24540E+007   -2.97983E+006   -8.44635E+005    1.04176E+007   -2.79179E+004    1.14765E+006   -1.35594E+006
            3326    1.33414E+007    1.11843E+007    1.11843E+007   -1.12868E+006   -2.99006E+006    1.41744E+007   -2.35519E+006    1.30445E+007   -2.84484E+006   -9.51960E+005    1.08624E+007    6.04466E+004    1.30011E+006   -1.56918E+006
            3327    1.43268E+007    1.21123E+007    1.21123E+007   -1.47878E+006   -2.85140E+006    1.49637E+007   -2.59404E+006    1.41777E+007   -2.69662E+006   -1.32249E+006    1.18012E+007    2.53126E+004    1.39451E+006   -1.55640E+006
            3328    1.52641E+007    1.29834E+007    1.29834E+007   -1.67225E+006   -2.82389E+006    1.58073E+007   -2.82909E+006    1.51659E+007   -2.65610E+006   -1.56798E+006    1.27114E+007    2.37416E+004    1.50837E+006   -1.35946E+006
            3329    1.29852E+007    1.05939E+007    1.05939E+007   -9.95710E+005   -3.43973E+006    1.40336E+007   -2.05281E+006    1.24519E+007   -3.35833E+006   -7.59487E+005    1.02762E+007   -1.98713E+005    1.04208E+006   -1.63495E+006
            3330    1.41790E+007    1.15717E+007    1.15717E+007   -1.48969E+006   -3.50851E+006    1.50802E+007   -2.19117E+006    1.38501E+007   -3.41566E+006   -1.26144E+006    1.12506E+007   -1.34559E+005    1.17065E+006   -1.70615E+006
            3331    1.51377E+007    1.24808E+007    1.24808E+007   -1.56729E+006   -3.55100E+006    1.60318E+007   -2.45416E+006    1.48411E+007   -3.44767E+006   -1.35836E+006    1.21685E+007   -1.45802E+005    1.27428E+006   -1.69431E+006
            3332    1.63740E+007    1.37031E+007    1.37031E+007   -1.56965E+006   -3.58563E+006    1.72887E+007   -2.84926E+006    1.60913E+007   -3.47259E+006   -1.41728E+006    1.34376E+007   -1.34001E+005    1.38685E+006   -1.51225E+006
            3333    1.68049E+007    1.35761E+007    1.35761E+007   -1.39674E+006   -4.59980E+006    1.81759E+007   -2.52651E+006    1.60964E+007   -4.50427E+006   -1.19850E+006    1.32823E+007   -2.84827E+005    1.24888E+006   -1.73100E+006
            3334    1.54053E+007    1.21873E+007    1.21873E+007   -1.56031E+006   -4.46274E+006    1.66501E+007   -2.05476E+006    1.47712E+007   -4.36004E+006   -1.33956E+006    1.18639E+007   -2.94497E+005    1.23708E+006   -1.74518E+006
            3335    1.40273E+007    1.07792E+007    1.07792E+007   -1.76827E+006   -4.36510E+006    1.51443E+007   -1.54861E+006    1.34705E+007   -4.26152E+006   -1.57002E+006    1.04774E+007   -2.61605E+005    1.19807E+006   -1.57542E+006
            3336    1.38261E+007    1.04754E+007    1.04754E+007   -2.28575E+006   -4.21329E+006    1.46887E+007   -1.32546E+006    1.35188E+007   -4.11291E+006   -2.14319E+006    1.02325E+007   -1.73598E+005    1.19185E+006   -1.34099E+006
            3337    9.54283E+006    8.92913E+006    8.92913E+006    5.33558E+005   -1.44938E+006    1.03785E+007   -2.67110E+006    9.06174E+006   -1.41375E+006    5.00733E+005    8.92632E+006    2.56069E+005    1.31122E+005   -1.01664E+005
            3338    9.64749E+006    8.91193E+006    8.91193E+006    4.91707E+005   -1.61474E+006    1.05267E+007   -2.59630E+006    9.10827E+006   -1.57206E+006    4.78862E+005    8.88209E+006    2.29590E+005    3.86699E+005   -3.70812E+005
            3339    9.95956E+006    8.94353E+006    8.94353E+006    2.82975E+005   -1.93952E+006    1.08830E+007   -2.42900E+006    9.37695E+006   -1.88414E+006    3.17177E+005    8.85395E+006    1.71853E+005    6.15908E+005   -6.95621E+005
            3340    1.05235E+007    9.13229E+006    9.13229E+006   -4.75388E+004   -2.35264E+006    1.14849E+007   -2.24404E+006    9.93132E+006   -2.28404E+006    7.16988E+004    8.94445E+006    8.29240E+004    8.05400E+005   -1.09537E+006
            3341    1.14510E+007    9.57234E+006    9.57234E+006   -5.92942E+005   -2.83327E+006    1.24056E+007   -2.04871E+006    1.09415E+007   -2.75297E+006   -3.71691E+005    9.27079E+006   -2.76408E+004    9.63031E+005   -1.49797E+006
            3342    1.27113E+007    1.05245E+007    1.05245E+007   -9.07127E+005   -3.16400E+006    1.36885E+007   -2.15114E+006    1.22483E+007   -3.07709E+006   -5.99896E+005    1.01304E+007   -1.52033E+005    1.07485E+006   -1.84248E+006
            3343    1.40029E+007    1.13288E+007    1.13288E+007   -1.61848E+006   -3.53280E+006    1.48616E+007   -2.05917E+006    1.37039E+007   -3.43698E+006   -1.38978E+006    1.10043E+007   -1.73584E+005    1.17607E+006   -1.69954E+006
            3344    1.82357E+007    1.50607E+007    1.50607E+007   -1.18837E+006   -4.66194E+006    1.97227E+007   -3.07013E+006    1.74680E+007   -4.57975E+006   -1.06604E+006    1.48562E+007   -2.24842E+005    1.22545E+006   -1.42302E+006
            3345    1.92321E+007    1.61179E+007    1.61179E+007   -1.02418E+006   -4.67955E+006    2.07974E+007   -3.47138E+006    1.84260E+007   -4.60862E+006   -9.84284E+005    1.60071E+007   -1.28024E+005    1.19647E+006   -8.37706E+005
            3346    1.96650E+007    1.65944E+007    1.65944E+007   -9.41224E+005   -4.66691E+006    2.12614E+007   -3.66210E+006    1.88463E+007   -4.60122E+006   -9.41225E+005    1.65288E+007   -2.10976E+003    1.17997E+006   -1.33990E+003
            3347    1.92559E+007    1.61428E+007    1.61428E+007   -1.01167E+006   -4.68537E+006    2.08281E+007   -3.48191E+006    1.84426E+007   -4.61538E+006   -9.71804E+005    1.60329E+007    1.22634E+005    1.19113E+006    8.35816E+005
            3348    1.82223E+007    1.50233E+007    1.50233E+007   -1.19509E+006   -4.69513E+006    1.97185E+007   -3.04437E+006    1.74418E+007   -4.61389E+006   -1.06870E+006    1.48157E+007    2.26536E+005    1.21735E+006    1.44418E+006
            3349    1.68492E+007    1.35932E+007    1.35932E+007   -1.40683E+006   -4.63735E+006    1.82305E+007   -2.51634E+006    1.61302E+007   -4.54293E+006   -1.20828E+006    1.33002E+007    2.87854E+005    1.24046E+006    1.73521E+006
            3350    1.54392E+007    1.21140E+007    1.21140E+007   -1.68127E+006   -4.56309E+006    1.66771E+007   -1.95654E+006    1.48159E+007   -4.46045E+006   -1.45437E+006    1.17844E+007    2.97436E+005    1.23620E+006    1.77197E+006
            3351    1.44925E+007    1.11820E+007    1.11820E+007   -1.91883E+006   -4.38555E+006    1.55675E+007   -1.62587E+006    1.40085E+007   -4.27980E+006   -1.69619E+006    1.08536E+007    2.64864E+005    1.22977E+006    1.70184E+006
            3352    1.42660E+007    1.12557E+007    1.12557E+007   -1.66634E+006   -4.05318E+006    1.53089E+007   -1.84539E+006    1.38060E+007   -3.94995E+006   -1.36723E+006    1.08534E+007    2.48323E+005    1.22055E+006    1.93987E+006
            3353    1.74415E+007    1.47304E+007    1.47304E+007   -1.59590E+006   -3.64519E+006    1.83756E+007   -3.16311E+006    1.71675E+007   -3.52724E+006   -1.51027E+006    1.45268E+007   -1.09664E+005    1.46334E+006   -1.17502E+006
            3354    1.60948E+007    1.37740E+007    1.37740E+007   -1.81640E+006   -2.78176E+006    1.65557E+007   -3.05860E+006    1.60294E+007   -2.61424E+006   -1.76554E+006    1.35556E+007    3.52535E+003    1.60237E+006   -9.79592E+005
            3355    1.49359E+007    1.32092E+007    1.32092E+007   -1.62567E+006   -1.82585E+006    1.50350E+007   -3.25255E+006    1.49329E+007   -1.60237E+006   -1.71554E+006    1.30756E+007    3.23778E+004    1.16121E+006   -7.99486E+005
            3356    1.42180E+007    1.27592E+007    1.27592E+007   -1.19471E+006   -1.70904E+006    1.44682E+007   -3.28514E+006    1.41971E+007   -1.15321E+006   -1.66113E+006    1.26698E+007    7.16125E+004    9.63361E+005   -5.77082E+005
            3357    1.35337E+007    1.24043E+007    1.24043E+007   -6.19170E+005   -1.58762E+006    1.39919E+007   -3.39916E+006    1.34554E+007   -6.01737E+005   -1.56690E+006    1.23661E+007    7.42696E+004    5.85322E+005   -4.09617E+005
            3358    1.33072E+007    1.22870E+007    1.22870E+007   -4.73554E+005   -1.50676E+006    1.37937E+007   -3.43555E+006    1.32165E+007   -4.72019E+005   -1.49637E+006    1.22750E+007    7.62864E+004    3.21397E+005   -2.31640E+005
            3359    1.31090E+007    1.21815E+007    1.21815E+007   -3.18461E+005   -1.46167E+006    1.36432E+007   -3.46712E+006    1.29961E+007   -3.22536E+005   -1.45602E+006    1.21799E+007    7.63138E+004    1.19514E+005   -7.80174E+004
            3360    1.82188E+007    1.55041E+007    1.55041E+007   -1.56589E+006   -3.67917E+006    1.91833E+007   -3.41969E+006    1.79400E+007   -3.55948E+006   -1.54329E+006    1.53618E+007   -6.10561E+004    1.50919E+006   -6.18744E+005
            3361    1.66189E+007    1.42586E+007    1.42586E+007   -1.88104E+006   -2.80130E+006    1.70599E+007   -3.19209E+006    1.65614E+007   -2.63388E+006   -1.86918E+006    1.40793E+007    3.16040E+002    1.66842E+006   -4.83425E+005
            3362    1.53382E+007    1.35929E+007    1.35929E+007   -1.66098E+006   -1.82817E+006    1.54211E+007   -3.36792E+006    1.53361E+007   -1.57744E+006   -1.80980E+006    1.34910E+007    1.41416E+004    1.19601E+006   -3.43511E+005
            3363    1.45594E+007    1.30533E+007    1.30533E+007   -1.20636E+006   -1.78849E+006    1.48418E+007   -3.35281E+006    1.45332E+007   -1.14006E+006   -1.78119E+006    1.29797E+007    3.09797E+004    9.97537E+005   -2.30006E+005
            3364    1.37824E+007    1.26248E+007    1.26248E+007   -5.94818E+005   -1.65865E+006    1.42834E+007   -3.45711E+006    1.36895E+007   -5.69796E+005   -1.65599E+006    1.25971E+007    2.92352E+004    5.88148E+005   -1.45559E+005
            3365    1.35626E+007    1.24981E+007    1.24981E+007   -4.70114E+005   -1.58957E+006    1.40877E+007   -3.47947E+006    1.34581E+007   -4.62669E+005   -1.58846E+006    1.24896E+007    2.76438E+004    3.26338E+005   -6.95861E+004
            3366    1.33349E+007    1.23679E+007    1.23679E+007   -3.06507E+005   -1.54149E+006    1.39094E+007   -3.50663E+006    1.32053E+007   -3.05942E+005   -1.54087E+006    1.23667E+007    2.61033E+004    1.19614E+005   -2.82116E+004
            3367    1.84823E+007    1.57432E+007    1.57432E+007   -1.58147E+006   -3.71214E+006    1.94553E+007   -3.48319E+006    1.82029E+007   -3.59295E+006   -1.58135E+006    1.56239E+007    1.78012E+003    1.51809E+006    4.50173E+004
            3368    1.67902E+007    1.44103E+007    1.44103E+007   -1.90127E+006   -2.82083E+006    1.72311E+007   -3.22940E+006    1.67334E+007   -2.65306E+006   -1.90063E+006    1.42419E+007    8.67885E+002    1.69138E+006    1.11411E+005
            3369    1.54362E+007    1.36679E+007    1.36679E+007   -1.67543E+006   -1.85958E+006    1.55275E+007   -3.37762E+006    1.54337E+007   -1.58241E+006   -1.85603E+006    1.35713E+007   -9.85369E+003    1.20595E+006    1.37760E+005
            3370    1.46038E+007    1.30852E+007    1.30852E+007   -1.20775E+006   -1.81090E+006    1.48961E+007   -3.35551E+006    1.45758E+007   -1.13788E+006   -1.80773E+006    1.30121E+007   -1.82046E+004    1.00710E+006    1.61587E+005
            3371    1.37909E+007    1.26252E+007    1.26252E+007   -5.81256E+005   -1.68393E+006    1.43092E+007   -3.45334E+006    1.36912E+007   -5.56032E+005   -1.68157E+006    1.25976E+007   -2.86243E+004    5.88923E+005    1.36050E+005
            3372    1.35479E+007    1.24825E+007    1.24825E+007   -4.58345E+005   -1.60012E+006    1.40827E+007   -3.47469E+006    1.34390E+007   -4.51220E+005   -1.59838E+006    1.24737E+007   -3.32116E+004    3.26342E+005    9.46182E+004
            3373    1.33095E+007    1.23446E+007    1.23446E+007   -2.91432E+005   -1.54914E+006    1.38937E+007   -3.50134E+006    1.31748E+007   -2.91412E+005   -1.54796E+006    1.23434E+007   -3.70104E+004    1.19426E+005    3.32152E+004
            3374    1.81970E+007    1.54640E+007    1.54640E+007   -1.55904E+006   -3.71493E+006    1.91789E+007   -3.39667E+006    1.79063E+007   -3.59713E+006   -1.52726E+006    1.53144E+007    6.70400E+004    1.49697E+006    7.32388E+005
            3375    1.65527E+007    1.41739E+007    1.41739E+007   -1.84866E+006   -2.86234E+006    1.70363E+007   -3.15431E+006    1.64827E+007   -2.69315E+006   -1.82466E+006    1.39807E+007    5.84790E+003    1.67006E+006    6.66593E+005
            3376    1.52061E+007    1.34506E+007    1.34506E+007   -1.67747E+006   -1.83233E+006    1.52830E+007   -3.31361E+006    1.52044E+007   -1.63981E+006   -1.74919E+006    1.33298E+007   -2.57100E+004    1.20072E+006    6.21709E+005
            3377    1.43656E+007    1.28703E+007    1.28703E+007   -1.25258E+006   -1.72621E+006    1.45965E+007   -3.29718E+006    1.43480E+007   -1.20253E+006   -1.68690E+006    1.27810E+007   -6.28311E+004    1.00445E+006    5.11704E+005
            3378    1.35421E+007    1.24116E+007    1.24116E+007   -6.40554E+005   -1.57234E+006    1.39840E+007   -3.39958E+006    1.34697E+007   -6.23468E+005   -1.55048E+006    1.23727E+007   -8.02700E+004    6.00006E+005    4.01318E+005
            3379    1.32846E+007    1.22624E+007    1.22624E+007   -5.07139E+005   -1.48342E+006    1.37458E+007   -3.42395E+006    1.32035E+007   -5.08080E+005   -1.46960E+006    1.22495E+007   -8.95942E+004    3.30827E+005    2.45559E+005
            3380    1.30396E+007    1.21226E+007    1.21226E+007   -3.41314E+005   -1.42500E+006    1.35476E+007   -3.45210E+006    1.29377E+007   -3.48748E+005   -1.41588E+006    1.21209E+007   -9.54513E+004    1.21554E+005    8.36051E+004
            3381    1.73990E+007    1.46659E+007    1.46659E+007   -1.56314E+006   -3.70475E+006    1.83707E+007   -3.13268E+006    1.70987E+007   -3.59042E+006   -1.46437E+006    1.44528E+007    1.20581E+005    1.43958E+006    1.25790E+006
            3382    1.59790E+007    1.36085E+007    1.36085E+007   -1.78020E+006   -2.90171E+006    1.65102E+007   -2.97552E+006    1.58900E+007   -2.73185E+006   -1.70489E+006    1.33633E+007    7.16007E+001    1.60383E+006    1.15915E+006
            3383    1.46737E+007    1.29386E+007    1.29386E+007   -1.58206E+006   -1.88358E+006    1.48222E+007   -3.15765E+006    1.46668E+007   -1.71410E+006   -1.58881E+006    1.27759E+007   -5.05602E+004    1.17066E+006    1.00671E+006
            3384    1.38912E+007    1.24421E+007    1.24421E+007   -1.24665E+006   -1.64305E+006    1.40851E+007   -3.18412E+006    1.38784E+007   -1.26729E+006   -1.50711E+006    1.23268E+007   -1.09028E+005    9.73433E+005    8.10298E+005
            3385    1.30912E+007    1.20049E+007    1.20049E+007   -6.96007E+005   -1.44459E+006    1.34495E+007   -3.28809E+006    1.30429E+007   -7.05578E+005   -1.37861E+006    1.19485E+007   -1.36136E+005    6.04344E+005    6.15000E+005
            3386    1.28154E+007    1.18636E+007    1.18636E+007   -5.36255E+005   -1.33036E+006    1.31940E+007   -3.33233E+006    1.27599E+007   -5.60891E+005   -1.28667E+006    1.18446E+007   -1.49563E+005    3.29165E+005    3.72475E+005
            3387    1.25746E+007    1.17297E+007    1.17297E+007   -3.79739E+005   -1.26343E+006    1.29931E+007   -3.36217E+006    1.25044E+007   -4.08278E+005   -1.23243E+006    1.17272E+007   -1.58203E+005    1.22852E+005    1.27057E+005
            3388    1.63130E+007    1.35811E+007    1.35811E+007   -1.56786E+006   -3.68855E+006    1.72696E+007   -2.77489E+006    1.59984E+007   -3.57968E+006   -1.39480E+006    1.32991E+007    1.53428E+005    1.35810E+006    1.60411E+006
            3389    1.51096E+007    1.27931E+007    1.27931E+007   -1.57254E+006   -2.96416E+006    1.57573E+007   -2.75213E+006    1.49644E+007   -2.80002E+006   -1.44043E+006    1.24969E+007   -8.46874E+003    1.51079E+006    1.46136E+006
            3390    1.39557E+007    1.22614E+007    1.22614E+007   -1.36521E+006   -2.00174E+006    1.42631E+007   -2.96480E+006    1.39230E+007   -1.85475E+006   -1.30609E+006    1.20552E+007   -7.86511E+004    1.13420E+006    1.25532E+006
            3391    1.32462E+007    1.18532E+007    1.18532E+007   -1.13076E+006   -1.64037E+006    1.34936E+007   -3.02737E+006    1.32241E+007   -1.41757E+006   -1.21284E+006    1.17125E+007   -1.65184E+005    9.39016E+005    9.96784E+005
            3392    1.24946E+007    1.14666E+007    1.14666E+007   -7.51568E+005   -1.28727E+006    1.27539E+007   -3.14259E+006    1.24688E+007   -8.83271E+005   -1.07997E+006    1.13910E+007   -2.08985E+005    6.17179E+005    7.59628E+005
            3393    1.21932E+007    1.13227E+007    1.13227E+007   -5.74700E+005   -1.14614E+006    1.24688E+007   -3.20062E+006    1.21630E+007   -7.04002E+005   -9.90987E+005    1.12968E+007   -2.32475E+005    3.35751E+005    4.56933E+005
            3394    1.19608E+007    1.12019E+007    1.12019E+007   -4.35783E+005   -1.05774E+006    1.22596E+007   -3.23613E+006    1.19243E+007   -5.55450E+005   -9.34775E+005    1.11986E+007   -2.44584E+005    1.26794E+005    1.55795E+005
            3395    1.51343E+007    1.24564E+007    1.24564E+007   -1.49956E+006   -3.63035E+006    1.60867E+007   -2.44216E+006    1.47911E+007   -3.53028E+006   -1.27320E+006    1.21300E+007    1.70508E+005    1.25311E+006    1.75659E+006
            3396    1.41658E+007    1.19250E+007    1.19250E+007   -1.35578E+006   -2.98495E+006    1.49099E+007   -2.52808E+006    1.39527E+007   -2.83465E+006   -1.18431E+006    1.16032E+007   -9.55077E+003    1.40055E+006    1.57440E+006
            3397    1.31676E+007    1.15060E+007    1.15060E+007   -1.17172E+006   -2.10220E+006    1.36082E+007   -2.74403E+006    1.30934E+007   -1.97224E+006   -1.06544E+006    1.12698E+007   -8.43272E+004    1.07964E+006    1.37880E+006
            3398    1.25166E+007    1.11941E+007    1.11941E+007   -9.13872E+005   -1.69460E+006    1.28887E+007   -2.86188E+006    1.24617E+007   -1.53976E+006   -9.09445E+005    1.10348E+007   -1.78178E+005    8.80468E+005    1.10346E+006
            3399    1.18164E+007    1.08454E+007    1.08454E+007   -6.48920E+005   -1.26885E+006    1.21142E+007   -2.97586E+006    1.17798E+007   -1.05584E+006   -7.72265E+005    1.07557E+007   -2.39922E+005    6.12764E+005    8.33859E+005
            3400    1.14826E+007    1.07053E+007    1.07053E+007   -4.60068E+005   -1.07019E+006    1.17755E+007   -3.05833E+006    1.14460E+007   -8.45520E+005   -6.53011E+005    1.06735E+007   -2.77175E+005    3.32996E+005    5.09206E+005
            3401    1.12485E+007    1.05855E+007    1.05855E+007   -3.45893E+005   -9.55362E+005    1.15408E+007   -3.09473E+006    1.12112E+007   -7.09280E+005   -5.87987E+005    1.05815E+007   -2.96848E+005    1.28643E+005    1.71201E+005
            3402    1.40564E+007    1.15065E+007    1.15065E+007   -1.21382E+006   -3.58439E+006    1.50909E+007   -2.23611E+006    1.35957E+007   -3.49259E+006   -9.79547E+005    1.11805E+007    1.83989E+005    1.15751E+006    1.70495E+006
            3403    1.34464E+007    1.11996E+007    1.11996E+007   -1.14021E+006   -3.13133E+006    1.43310E+007   -2.30937E+006    1.31086E+007   -2.99788E+006   -9.64495E+005    1.08905E+007   -2.74908E+004    1.29318E+006    1.52825E+006
            3404    1.24864E+007    1.07923E+007    1.07923E+007   -9.00288E+005   -2.35967E+006    1.31520E+007   -2.51080E+006    1.22924E+007   -2.22912E+006   -7.74722E+005    1.05362E+007   -1.27305E+005    1.07122E+006    1.40435E+006
            3405    1.18361E+007    1.04980E+007    1.04980E+007   -6.45568E+005   -1.92649E+006    1.24245E+007   -2.64198E+006    1.16787E+007   -1.78650E+006   -6.11836E+005    1.03243E+007   -2.32502E+005    8.52567E+005    1.14402E+006
            3406    1.11481E+007    1.01764E+007    1.01764E+007   -3.63402E+005   -1.49372E+006    1.16702E+007   -2.77311E+006    1.10180E+007   -1.33817E+006   -4.17722E+005    1.00752E+007   -3.03854E+005    6.29042E+005    8.57965E+005
            3407    1.07869E+007    1.00383E+007    1.00383E+007   -1.69741E+005   -1.24668E+006    1.12850E+007   -2.87395E+006    1.06649E+007   -1.09023E+006   -2.90827E+005    1.00029E+007   -3.52879E+005    3.45784E+005    5.14953E+005
            3408    1.05561E+007    9.93293E+006    9.93293E+006   -5.44914E+004   -1.11214E+006    1.10451E+007   -2.92210E+006    1.04359E+007   -9.53670E+005   -2.08347E+005    9.92832E+006   -3.73645E+005    1.37037E+005    1.75661E+005
            3409    1.34319E+007    1.09307E+007    1.09307E+007   -1.22131E+006   -3.49178E+006    1.44224E+007   -2.07252E+006    1.29896E+007   -3.40240E+006   -1.00586E+006    1.06258E+007    2.51041E+005    1.07782E+006    1.61519E+006
            3410    1.28321E+007    1.06691E+007    1.06691E+007   -9.38220E+005   -3.11043E+006    1.37796E+007   -2.20683E+006    1.24083E+007   -3.01746E+006   -7.22585E+005    1.03605E+007    9.92776E+004    1.11654E+006    1.56598E+006
            3411    1.19062E+007    1.01678E+007    1.01678E+007   -6.78556E+005   -2.57152E+006    1.27393E+007   -2.30591E+006    1.15604E+007   -2.47861E+006   -5.13651E+005    9.90998E+006   -3.76577E+004    1.00704E+006    1.38040E+006
            3412    1.11297E+007    9.80914E+006    9.80914E+006   -3.14918E+005   -2.10845E+006    1.19176E+007   -2.46192E+006    1.07974E+007   -2.01906E+006   -2.23931E+005    9.62876E+006   -1.63732E+005    8.13828E+005    1.12826E+006
            3413    1.04891E+007    9.52755E+006    9.52755E+006   -1.13432E+004   -1.70559E+006    1.12331E+007   -2.60354E+006    1.01745E+007   -1.61714E+006   -1.82565E+003    9.42958E+006   -2.55125E+005    6.16589E+005    7.93936E+005
            3414    1.01106E+007    9.40407E+006    9.40407E+006    2.08173E+005   -1.42289E+006    1.08270E+007   -2.72978E+006    9.80803E+006   -1.33845E+006    1.58349E+005    9.36945E+006   -3.20933E+005    3.58490E+005    4.68141E+005
            3415    9.93681E+006    9.35383E+006    9.35383E+006    3.04780E+005   -1.28020E+006    1.06340E+007   -2.79280E+006    9.64625E+006   -1.19625E+006    2.24723E+005    9.34994E+006   -3.49837E+005    1.32875E+005    1.46643E+005
            3416    9.48710E+006    8.87099E+006    8.87099E+006    5.58543E+005   -1.46445E+006    1.03354E+007   -2.65503E+006    8.98239E+006   -1.43126E+006    5.28484E+005    8.86786E+006   -2.48841E+005    1.33842E+005    1.10630E+005
            3417    9.61822E+006    8.86327E+006    8.86327E+006    4.84785E+005   -1.63953E+006    1.05028E+007   -2.56951E+006    9.06759E+006   -1.59820E+006    4.72992E+005    8.83373E+006   -2.23068E+005    3.92089E+005    3.61182E+005
            3418    9.95083E+006    8.89926E+006    8.89926E+006    2.58651E+005   -1.98030E+006    1.08796E+007   -2.39254E+006    9.35859E+006   -1.92529E+006    2.93163E+005    8.80974E+006   -1.66279E+005    6.22957E+005    6.89112E+005
            3419    1.05336E+007    9.06174E+006    9.06174E+006   -1.39658E+005   -2.42790E+006    1.14896E+007   -2.16473E+006    9.95108E+006   -2.35938E+006   -3.18511E+004    8.88542E+006   -7.82572E+004    8.12201E+005    1.04388E+006
            3420    1.13581E+007    9.42785E+006    9.42785E+006   -5.80354E+005   -2.91683E+006    1.23447E+007   -1.97689E+006    1.07974E+007   -2.83674E+006   -3.83407E+005    9.15082E+006    3.18602E+004    9.66240E+005    1.40148E+006
            3421    1.23385E+007    9.99492E+006    9.99492E+006   -9.85404E+005   -3.35737E+006    1.33523E+007   -1.88405E+006    1.18091E+007   -3.27128E+006   -7.18414E+005    9.64183E+006    1.36621E+005    1.05790E+006    1.68573E+006
            3422    1.34434E+007    1.07769E+007    1.07769E+007   -1.29790E+006   -3.70870E+006    1.44856E+007   -1.92345E+006    1.29435E+007   -3.61295E+006   -9.52127E+005    1.03354E+007    2.15942E+005    1.15320E+006    2.00596E+006
            3423    1.38411E+007    1.04845E+007    1.04845E+007   -2.30279E+006   -4.21226E+006    1.46967E+007   -1.32314E+006    1.35401E+007   -4.11192E+006   -2.15944E+006    1.02408E+007   -1.72351E+005   -1.19246E+006    1.34576E+006
            3424    1.39946E+007    1.07365E+007    1.07365E+007   -1.79103E+006   -4.36731E+006    1.51038E+007   -1.52604E+006    1.34455E+007   -4.26373E+006   -1.59679E+006    1.04387E+007   -2.58283E+005   -1.19762E+006    1.55827E+006
            3425    1.53692E+007    1.21510E+007    1.21510E+007   -1.56856E+006   -4.45776E+006    1.66088E+007   -2.04156E+006    1.47395E+007   -4.35513E+006   -1.34865E+006    1.18284E+007   -2.93174E+005   -1.23563E+006    1.73998E+006
            3426    1.67850E+007    1.35605E+007    1.35605E+007   -1.39408E+006   -4.59425E+006    1.81547E+007   -2.52404E+006    1.60770E+007   -4.49883E+006   -1.19686E+006    1.32678E+007   -2.83924E+005   -1.24768E+006    1.72551E+006
            3427    1.63470E+007    1.36842E+007    1.36842E+007   -1.57375E+006   -3.56874E+006    1.72529E+007   -2.84722E+006    1.60697E+007   -3.45531E+006   -1.42108E+006    1.34181E+007   -1.32313E+005   -1.38788E+006    1.51303E+006
            3428    1.52169E+007    1.29512E+007    1.29512E+007   -1.66994E+006   -2.79861E+006    1.57498E+007   -2.82756E+006    1.51223E+007   -2.63059E+006   -1.56701E+006    1.26803E+007    2.62619E+004   -1.50138E+006    1.35657E+006
            3429    1.42265E+007    1.25637E+007    1.25637E+007   -1.45573E+006   -1.86110E+006    1.44248E+007   -3.08229E+006    1.42135E+007   -1.68201E+006   -1.45872E+006    1.23876E+007    8.22807E+004   -1.11199E+006    1.12549E+006
            3430    1.36214E+007    1.22323E+007    1.22323E+007   -1.16933E+006   -1.59887E+006    1.38311E+007   -3.15469E+006    1.36062E+007   -1.24480E+006   -1.40802E+006    1.21169E+007    1.42946E+005   -9.19995E+005    8.56505E+005
            3431    1.29863E+007    1.19206E+007    1.19206E+007   -7.00336E+005   -1.40251E+006    1.33231E+007   -3.27258E+006    1.29434E+007   -7.29084E+005   -1.31752E+006    1.18644E+007    1.61350E+005   -5.85487E+005    6.28504E+005
            3432    1.27808E+007    1.18390E+007    1.18390E+007   -5.34722E+005   -1.31328E+006    1.31522E+007   -3.33032E+006    1.27273E+007   -5.69254E+005   -1.26061E+006    1.18208E+007    1.68316E+005   -3.21529E+005    3.62735E+005
            3433    1.26031E+007    1.17508E+007    1.17508E+007   -3.93081E+005   -1.26608E+006    1.30169E+007   -3.36388E+006    1.25348E+007   -4.26931E+005   -1.22976E+006    1.17483E+007    1.70038E+005   -1.19436E+005    1.31487E+005
            3434    1.51011E+007    1.24508E+007    1.24508E+007   -1.56998E+006   -3.53759E+006    1.59884E+007   -2.44776E+006    1.48086E+007   -3.43421E+006   -1.36033E+006    1.21378E+007   -1.42178E+005   -1.27297E+006    1.69572E+006
            3435    1.42754E+007    1.20808E+007    1.20808E+007   -1.46541E+006   -2.82626E+006    1.49071E+007   -2.59639E+006    1.41284E+007   -2.67118E+006   -1.31042E+006    1.17708E+007    2.93180E+004   -1.38747E+006    1.55346E+006
            3436    1.33492E+007    1.17492E+007    1.17492E+007   -1.22174E+006   -1.94851E+006    1.36977E+007   -2.85965E+006    1.33046E+007   -1.81018E+006   -1.14363E+006    1.15328E+007    9.05433E+004   -1.05479E+006    1.32331E+006
            3437    1.28204E+007    1.15186E+007    1.15186E+007   -1.01147E+006   -1.57361E+006    1.30922E+007   -2.97784E+006    1.27926E+007   -1.38130E+006   -1.06485E+006    1.13797E+007    1.71897E+005   -8.65179E+005    1.02048E+006
            3438    1.22648E+007    1.12859E+007    1.12859E+007   -7.22074E+005   -1.22038E+006    1.25063E+007   -3.11449E+006    1.22419E+007   -8.96434E+005   -9.72196E+005    1.12121E+007    2.08919E+005   -5.87171E+005    7.56984E+005
            3439    1.20249E+007    1.11938E+007    1.11938E+007   -5.56072E+005   -1.08845E+006    1.22822E+007   -3.18309E+006    1.19983E+007   -7.05623E+005   -9.13181E+005    1.11681E+007    2.31133E+005   -3.21611E+005    4.60185E+005
            3440    1.18559E+007    1.11227E+007    1.11227E+007   -4.36033E+005   -1.00954E+006    1.21322E+007   -3.22570E+006    1.18246E+007   -5.67090E+005   -8.75280E+005    1.11195E+007    2.40040E+005   -1.21938E+005    1.54741E+005
            3441    1.41600E+007    1.15598E+007    1.15598E+007   -1.48235E+006   -3.50128E+006    1.50611E+007   -2.19205E+006    1.38306E+007   -3.40861E+006   -1.25201E+006    1.12368E+007   -1.33928E+005   -1.16870E+006    1.71265E+006
            3442    1.32951E+007    1.11511E+007    1.11511E+007   -1.11769E+006   -2.97485E+006    1.41260E+007   -2.35287E+006    1.29984E+007   -2.83016E+006   -9.43985E+005    1.08328E+007    6.28328E+004   -1.29378E+006    1.55594E+006
            3443    1.25482E+007    1.09322E+007    1.09322E+007   -9.48346E+005   -2.19130E+006    1.31235E+007   -2.59751E+006    1.24086E+007   -2.05346E+006   -8.54397E+005    1.07004E+007    1.48067E+005   -1.03644E+006    1.33723E+006
            3444    1.20533E+007    1.07780E+007    1.07780E+007   -7.09257E+005   -1.77114E+006    1.25491E+007   -2.76586E+006    1.19474E+007   -1.61596E+006   -7.07235E+005    1.06208E+007    2.35220E+005   -8.37357E+005    1.09075E+006
            3445    1.14770E+007    1.05150E+007    1.05150E+007   -5.03764E+005   -1.37095E+006    1.18860E+007   -2.88010E+006    1.14029E+007   -1.18285E+006   -5.99989E+005    1.04231E+007    2.91841E+005   -6.02307E+005    8.37305E+005
            3446    1.11720E+007    1.04135E+007    1.04135E+007   -3.26204E+005   -1.14566E+006    1.15592E+007   -2.98056E+006    1.11041E+007   -9.50272E+005   -4.88883E+005    1.03808E+007    3.28443E+005   -3.34300E+005    5.08814E+005
            3447    1.09984E+007    1.03430E+007    1.03430E+007   -2.43438E+005   -1.02544E+006    1.13685E+007   -3.02472E+006    1.09355E+007   -8.14498E+005   -4.50210E+005    1.03389E+007    3.44370E+005   -1.28087E+005    1.74705E+005
            3448    1.29637E+007    1.05734E+007    1.05734E+007   -9.88261E+005   -3.44172E+006    1.40151E+007   -2.04779E+006    1.24251E+007   -3.36059E+006   -7.55779E+005    1.02598E+007   -1.98161E+005   -1.03942E+006    1.62038E+006
            3449    1.28376E+007    1.06767E+007    1.06767E+007   -9.96091E+005   -3.07246E+006    1.37492E+007   -2.20273E+006    1.24514E+007   -2.97166E+006   -8.40357E+005    1.04202E+007   -2.73085E+004   -1.14475E+006    1.35741E+006
            3450    1.20148E+007    1.03652E+007    1.03652E+007   -6.53129E+005   -2.44482E+006    1.28100E+007   -2.42241E+006    1.17085E+007   -2.34513E+006   -5.04554E+005    1.01169E+007    7.87905E+004   -1.00288E+006    1.36206E+006
            3451    1.12735E+007    9.98560E+006    9.98560E+006   -3.75535E+005   -2.01963E+006    1.20052E+007   -2.53014E+006    1.09989E+007   -1.92081E+006   -3.00980E+005    9.81222E+006    1.92468E+005   -8.00461E+005    1.12177E+006
            3452    1.06436E+007    9.71973E+006    9.71973E+006   -6.11385E+004   -1.61560E+006    1.13353E+007   -2.68100E+006    1.03836E+007   -1.51522E+006   -6.56383E+004    9.62386E+006    2.76909E+005   -5.98158E+005    8.06013E+005
            3453    1.03233E+007    9.61420E+006    9.61420E+006    9.82133E+004   -1.36106E+006    1.09753E+007   -2.78378E+006    1.00873E+007   -1.26052E+006    3.17787E+004    9.58009E+006    3.35050E+005   -3.48231E+005    4.79457E+005
            3454    1.01531E+007    9.56519E+006    9.56519E+006    1.95674E+005   -1.22232E+006    1.07875E+007   -2.84618E+006    9.92661E+006   -1.11973E+006    9.73219E+004    9.56095E+006    3.62803E+005   -1.30361E+005    1.62700E+005
            3455    9.54238E+006    8.92768E+006    8.92768E+006    5.33991E+005   -1.45111E+006    1.03788E+007   -2.67019E+006    9.06017E+006   -1.41548E+006    5.01437E+005    8.92460E+006    2.55479E+005   -1.37143E+005    1.06222E+005
            3456    9.64521E+006    8.90988E+006    8.90988E+006    4.94624E+005   -1.61579E+006    1.05257E+007   -2.59624E+006    9.10373E+006   -1.57321E+006    4.81933E+005    8.87999E+006    2.28931E+005   -3.88002E+005    3.70112E+005
            3457    9.95791E+006    8.94388E+006    8.94388E+006    2.82994E+005   -1.93651E+006    1.08804E+007   -2.43012E+006    9.37684E+006   -1.88104E+006    3.16109E+005    8.85529E+006    1.73445E+005   -6.14338E+005    6.90515E+005
            3458    1.05120E+007    9.12401E+006    9.12401E+006   -4.81646E+004   -2.34722E+006    1.14712E+007   -2.24287E+006    9.92238E+006   -2.27868E+006    6.82566E+004    8.93904E+006    8.61208E+004   -8.02194E+005    1.08489E+006
            3459    1.14207E+007    9.55067E+006    9.55067E+006   -5.82086E+005   -2.82518E+006    1.23758E+007   -2.04780E+006    1.09085E+007   -2.74506E+006   -3.64474E+005    9.25293E+006   -2.47781E+004   -9.60033E+005    1.48428E+006
            3460    1.26741E+007    1.04947E+007    1.04947E+007   -8.92906E+005   -3.15992E+006    1.36546E+007   -2.14730E+006    1.22054E+007   -3.07339E+006   -5.87064E+005    1.01024E+007   -1.51020E+005   -1.07121E+006    1.83481E+006
            3461    1.40167E+007    1.13477E+007    1.13477E+007   -1.61201E+006   -3.52874E+006    1.48765E+007   -2.06899E+006    1.37172E+007   -3.43277E+006   -1.38034E+006    1.10201E+007   -1.73689E+005   -1.17767E+006    1.71108E+006
            3462    9.93446E+006    9.35134E+006    9.35134E+006    3.07381E+005   -1.28198E+006    1.06333E+007   -2.79225E+006    9.64218E+006   -1.19850E+006    2.28118E+005    9.34713E+006   -3.49069E+005   -1.36530E+005   -1.53986E+005
            3463    1.05516E+007    9.92730E+006    9.92730E+006   -5.23884E+004   -1.11569E+006    1.10430E+007   -2.91974E+006    1.04300E+007   -9.58134E+005   -2.04944E+005    9.92231E+006   -3.73598E+005   -1.42366E+005   -1.82971E+005
            3464    1.12471E+007    1.05823E+007    1.05823E+007   -3.46913E+005   -9.57748E+005    1.15400E+007   -3.09255E+006    1.12097E+007   -7.13578E+005   -5.86532E+005    1.05777E+007   -2.96710E+005   -1.36687E+005   -1.83439E+005
            3465    1.19640E+007    1.12031E+007    1.12031E+007   -4.38964E+005   -1.05879E+006    1.22619E+007   -3.23510E+006    1.19278E+007   -5.58652E+005   -9.35256E+005    1.11992E+007   -2.43964E+005   -1.35973E+005   -1.69071E+005
            3466    1.25792E+007    1.17321E+007    1.17321E+007   -3.82791E+005   -1.26511E+006    1.29972E+007   -3.36139E+006    1.25093E+007   -4.10990E+005   -1.23410E+006    1.17292E+007   -1.57425E+005   -1.30566E+005   -1.36988E+005
            3467    1.30438E+007    1.21256E+007    1.21256E+007   -3.43311E+005   -1.42568E+006    1.35512E+007   -3.45219E+006    1.29422E+007   -3.50562E+005   -1.41658E+006    1.21237E+007   -9.48945E+004   -1.27026E+005   -8.80759E+004
            3468    1.33120E+007    1.23461E+007    1.23461E+007   -2.92706E+005   -1.54986E+006    1.38960E+007   -3.50118E+006    1.31774E+007   -2.92625E+005   -1.54869E+006    1.23448E+007   -3.68089E+004   -1.22044E+005   -3.32719E+004
            3469    1.33350E+007    1.23682E+007    1.23682E+007   -3.06845E+005   -1.54096E+006    1.39091E+007   -3.50678E+006    1.32056E+007   -3.06280E+005   -1.54032E+006    1.23670E+007    2.63338E+004   -1.20161E+005    2.96602E+004
            3470    1.31070E+007    1.21797E+007    1.21797E+007   -3.18177E+005   -1.46154E+006    1.36413E+007   -3.46667E+006    1.29941E+007   -3.22316E+005   -1.45584E+006    1.21782E+007    7.65947E+004   -1.18105E+005    7.85011E+004
            3471    1.01093E+007    9.39812E+006    9.39812E+006    2.07918E+005   -1.43020E+006    1.08283E+007   -2.72528E+006    9.80401E+006   -1.34643E+006    1.59861E+005    9.36241E+006   -3.18874E+005   -3.64215E+005   -4.75218E+005
            3472    1.07859E+007    1.00321E+007    1.00321E+007   -1.70696E+005   -1.25498E+006    1.12871E+007   -2.86882E+006    1.06623E+007   -1.10081E+006   -2.87598E+005    9.99486E+006   -3.50433E+005   -3.54849E+005   -5.28451E+005
            3473    1.14943E+007    1.07091E+007    1.07091E+007   -4.67004E+005   -1.07884E+006    1.17880E+007   -3.05443E+006    1.14575E+007   -8.56095E+005   -6.55744E+005    1.06751E+007   -2.75907E+005   -3.46022E+005   -5.26607E+005
            3474    1.22150E+007    1.13360E+007    1.13360E+007   -5.83289E+005   -1.15459E+006    1.24906E+007   -3.19938E+006    1.21849E+007   -7.11755E+005   -9.98375E+005    1.13083E+007   -2.31443E+005   -3.48820E+005   -4.73184E+005
            3475    1.28380E+007    1.18794E+007    1.18794E+007   -5.41894E+005   -1.33826E+006    1.32176E+007   -3.33307E+006    1.27822E+007   -5.65940E+005   -1.29406E+006    1.18592E+007   -1.49179E+005   -3.40022E+005   -3.82363E+005
            3476    1.32997E+007    1.22731E+007    1.22731E+007   -5.10424E+005   -1.48865E+006    1.37618E+007   -3.42468E+006    1.32184E+007   -5.11045E+005   -1.47473E+006    1.22598E+007   -8.96798E+004   -3.37794E+005   -2.47724E+005
            3477    1.35532E+007    1.24866E+007    1.24866E+007   -4.59534E+005   -1.60147E+006    1.40880E+007   -3.47519E+006    1.34443E+007   -4.52267E+005   -1.59975E+006    1.24776E+007   -3.34634E+004   -3.29482E+005   -9.25060E+004
            3478    1.35603E+007    1.24963E+007    1.24963E+007   -4.69902E+005   -1.58890E+006    1.40852E+007   -3.47916E+006    1.34559E+007   -4.62457E+005   -1.58775E+006    1.24877E+007    2.74794E+004   -3.26246E+005    7.37939E+004
            3479    1.32971E+007    1.22795E+007    1.22795E+007   -4.72876E+005   -1.50250E+006    1.37820E+007   -3.43471E+006    1.32070E+007   -4.71580E+005   -1.49191E+006    1.22676E+007    7.67997E+004   -3.18707E+005    2.34279E+005
            3480    1.05011E+007    9.52899E+006    9.52899E+006   -1.70873E+004   -1.71924E+006    1.12482E+007   -2.59755E+006    1.01838E+007   -1.63091E+006   -4.81864E+003    9.42839E+006   -2.52491E+005   -6.23434E+005   -8.05692E+005
            3481    1.11803E+007    1.01925E+007    1.01925E+007   -3.76834E+005   -1.51216E+006    1.17047E+007   -2.76784E+006    1.10495E+007   -1.35732E+006   -4.26354E+005    1.00872E+007   -3.00118E+005   -6.42852E+005   -8.75690E+005
            3482    1.18686E+007    1.08774E+007    1.08774E+007   -6.70093E+005   -1.28814E+006    1.21656E+007   -2.97307E+006    1.18323E+007   -1.07626E+006   -7.87874E+005    1.07833E+007   -2.35814E+005   -6.31244E+005   -8.54216E+005
            3483    1.25546E+007    1.15080E+007    1.15080E+007   -7.72509E+005   -1.30395E+006    1.28119E+007   -3.14384E+006    1.25293E+007   -8.99398E+005   -1.09847E+006    1.14294E+007   -2.04680E+005   -6.36085E+005   -7.71726E+005
            3484    1.31404E+007    1.20405E+007    1.20405E+007   -7.09427E+005   -1.45842E+006    1.34989E+007   -3.29087E+006    1.30923E+007   -7.16351E+005   -1.39377E+006    1.19827E+007   -1.32739E+005   -6.18905E+005   -6.16415E+005
            3485    1.35718E+007    1.24342E+007    1.24342E+007   -6.47299E+005   -1.57986E+006    1.40141E+007   -3.40234E+006    1.34995E+007   -6.28969E+005   -1.55900E+006    1.23950E+007   -7.80425E+004   -6.08497E+005   -3.93216E+005
            3486    1.37994E+007    1.26316E+007    1.26316E+007   -5.83226E+005   -1.68614E+006    1.43177E+007   -3.45408E+006    1.36997E+007   -5.57665E+005   -1.68407E+006    1.26040E+007   -2.74187E+004   -5.91736E+005   -1.25557E+005
            3487    1.37729E+007    1.26183E+007    1.26183E+007   -5.92660E+005   -1.65502E+006    1.42733E+007   -3.45687E+006    1.36803E+007   -5.67961E+005   -1.65206E+006    1.25906E+007    3.05465E+004   -5.85671E+005    1.54781E+005
            3488    1.35133E+007    1.23895E+007    1.23895E+007   -6.11651E+005   -1.58349E+006    1.39730E+007   -3.39813E+006    1.34344E+007   -5.94917E+005   -1.56233E+006    1.23516E+007    7.49949E+004   -5.78344E+005    4.14662E+005
            3489    1.11658E+007    9.82963E+006    9.82963E+006   -3.29085E+005   -2.12544E+006    1.19551E+007   -2.45837E+006    1.08335E+007   -2.03599E+006   -2.34479E+005    9.64557E+006   -1.58993E+005   -8.22248E+005   -1.14182E+006
            3490    1.18949E+007    1.05338E+007    1.05338E+007   -6.68608E+005   -1.94979E+006    1.24836E+007   -2.63848E+006    1.17382E+007   -1.81060E+006   -6.28611E+005    1.03546E+007   -2.25045E+005   -8.68316E+005   -1.16381E+006
            3491    1.26072E+007    1.12568E+007    1.12568E+007   -9.45126E+005   -1.71996E+006    1.29768E+007   -2.86391E+006    1.25535E+007   -1.56558E+006   -9.34988E+005    1.10923E+007   -1.71082E+005   -9.00757E+005   -1.12292E+006
            3492    1.33374E+007    1.19201E+007    1.19201E+007   -1.15999E+006   -1.66057E+006    1.35807E+007   -3.03319E+006    1.33163E+007   -1.43880E+006   -1.23808E+006    1.17764E+007   -1.59246E+005   -9.58351E+005   -1.00427E+006
            3493    1.39616E+007    1.24965E+007    1.24965E+007   -1.26535E+006   -1.65661E+006    1.41531E+007   -3.19152E+006    1.39493E+007   -1.28004E+006   -1.52601E+006    1.23806E+007   -1.04765E+005   -9.87508E+005   -8.02910E+005
            3494    1.44001E+007    1.28976E+007    1.28976E+007   -1.26096E+006   -1.73249E+006    1.46301E+007   -3.30138E+006    1.43827E+007   -1.20862E+006   -1.69581E+006    1.28086E+007   -6.03520E+004   -1.01132E+006   -4.95253E+005
            3495    1.46071E+007    1.30884E+007    1.30884E+007   -1.20691E+006   -1.81161E+006    1.49000E+007   -3.35664E+006    1.45789E+007   -1.13675E+006   -1.80899E+006    1.30157E+007   -1.69512E+004   -1.00763E+006   -1.45622E+005
            3496    1.45381E+007    1.30370E+007    1.30370E+007   -1.19952E+006   -1.78499E+006    1.48220E+007   -3.35082E+006    1.45115E+007   -1.13407E+006   -1.77703E+006    1.29636E+007    3.21184E+004   -9.92720E+005    2.41533E+005
            3497    1.41940E+007    1.27429E+007    1.27429E+007   -1.18342E+006   -1.70452E+006    1.44474E+007   -3.28498E+006    1.41725E+007   -1.14277E+006   -1.65656E+006    1.26543E+007    7.27310E+004   -9.56768E+005    5.76551E+005
            3498    1.19550E+007    1.01968E+007    1.01968E+007   -6.94940E+005   -2.59416E+006    1.27909E+007   -2.30256E+006    1.16083E+007   -2.50068E+006   -5.27134E+005    9.93548E+006   -3.32543E+004   -1.01558E+006   -1.39222E+006
            3499    1.25759E+007    1.08526E+007    1.08526E+007   -9.27246E+005   -2.39137E+006    1.32439E+007   -2.51131E+006    1.23820E+007   -2.26021E+006   -7.96496E+005    1.05906E+007   -1.19891E+005   -1.08910E+006   -1.42314E+006
            3500    1.32771E+007    1.15855E+007    1.15855E+007   -1.20097E+006   -2.13305E+006    1.37186E+007   -2.75051E+006    1.32032E+007   -2.00283E+006   -1.09087E+006    1.13452E+007   -7.71308E+004   -1.09999E+006   -1.39105E+006
            3501    1.40571E+007    1.23421E+007    1.23421E+007   -1.38829E+006   -2.02033E+006    1.43625E+007   -2.97784E+006    1.40251E+007   -1.87377E+006   -1.32820E+006    1.21355E+007   -7.38469E+004   -1.15066E+006   -1.25166E+006
            3502    1.47343E+007    1.29912E+007    1.29912E+007   -1.59505E+006   -1.88699E+006    1.48781E+007   -3.16971E+006    1.47278E+007   -1.71819E+006   -1.60317E+006    1.28305E+007   -4.82431E+004   -1.17791E+006   -9.87954E+005
            3503    1.52217E+007    1.34694E+007    1.34694E+007   -1.67578E+006   -1.82776E+006    1.52972E+007   -3.32195E+006    1.52200E+007   -1.63234E+006   -1.75247E+006    1.33507E+007   -2.47900E+004   -1.20010E+006   -5.98334E+005
            3504    1.54176E+007    1.36584E+007    1.36584E+007   -1.65908E+006   -1.85740E+006    1.55158E+007   -3.38065E+006    1.54148E+007   -1.56657E+006   -1.85453E+006    1.35631E+007   -9.86735E+003   -1.19899E+006   -1.22303E+005
            3505    1.53046E+007    1.35711E+007    1.35711E+007   -1.63890E+006   -1.82636E+006    1.53974E+007   -3.36860E+006    1.53020E+007   -1.55641E+006   -1.80788E+006    1.34701E+007    1.57680E+004   -1.18601E+006    3.51487E+005
            3506    1.48965E+007    1.31826E+007    1.31826E+007   -1.60810E+006   -1.81746E+006    1.50001E+007   -3.25235E+006    1.48932E+007   -1.58033E+006   -1.71354E+006    1.30509E+007    3.39657E+004   -1.14994E+006    7.94677E+005
            3507    1.28752E+007    1.06987E+007    1.06987E+007   -9.48011E+005   -3.12695E+006    1.38256E+007   -2.20790E+006    1.24502E+007   -3.03356E+006   -7.30576E+005    1.03878E+007    1.02783E+005   -1.12136E+006   -1.57458E+006
            3508    1.35293E+007    1.12598E+007    1.12598E+007   -1.15848E+006   -3.15783E+006    1.44177E+007   -2.31451E+006    1.31907E+007   -3.02406E+006   -9.79720E+005    1.09473E+007   -2.12885E+004   -1.30338E+006   -1.54129E+006
            3509    1.42679E+007    1.20062E+007    1.20062E+007   -1.37414E+006   -3.00851E+006    1.50147E+007   -2.54119E+006    1.40550E+007   -2.85763E+006   -1.20182E+006    1.16830E+007   -3.52284E+003   -1.41408E+006   -1.57892E+006
            3510    1.51845E+007    1.28560E+007    1.28560E+007   -1.58343E+006   -2.97748E+006    1.58335E+007   -2.76503E+006    1.50396E+007   -2.81262E+006   -1.45300E+006    1.25607E+007   -4.58288E+003   -1.52321E+006   -1.45185E+006
            3511    1.60071E+007    1.36373E+007    1.36373E+007   -1.78477E+006   -2.89689E+006    1.65342E+007   -2.98521E+006    1.59198E+007   -2.72608E+006   -1.71203E+006    1.33937E+007    8.99684E+002   -1.61176E+006   -1.14076E+006
            3512    1.65334E+007    1.41622E+007    1.41622E+007   -1.85450E+006   -2.84363E+006    1.70058E+007   -3.15467E+006    1.64667E+007   -2.67382E+006   -1.83159E+006    1.39694E+007    6.47023E+003   -1.67243E+006   -6.51392E+005
            3513    1.67447E+007    1.43774E+007    1.43774E+007   -1.90774E+006   -2.79191E+006    1.71693E+007   -3.22590E+006    1.66921E+007   -2.62385E+006   -1.90718E+006    1.42087E+007    1.29105E+003   -1.68985E+006   -1.03597E+005
            3514    1.65713E+007    1.42259E+007    1.42259E+007   -1.88506E+006   -2.77022E+006    1.69961E+007   -3.19021E+006    1.65180E+007   -2.60314E+006   -1.87336E+006    1.40471E+007    4.21028E+002   -1.66302E+006    4.82247E+005
            3515    1.60555E+007    1.37489E+007    1.37489E+007   -1.81611E+006   -2.75583E+006    1.65047E+007   -3.05897E+006    1.59934E+007   -2.58835E+006   -1.76597E+006    1.35312E+007    5.01586E+003   -1.59679E+006    9.77662E+005
            3516    1.34549E+007    1.09510E+007    1.09510E+007   -1.22049E+006   -3.49681E+006    1.44478E+007   -2.07791E+006    1.30110E+007   -3.40720E+006   -1.00105E+006    1.06420E+007    2.53088E+005   -1.07968E+006   -1.63093E+006
            3517    1.41229E+007    1.15629E+007    1.15629E+007   -1.22056E+006   -3.59767E+006    1.51606E+007   -2.24822E+006    1.36619E+007   -3.50538E+006   -9.85777E+005    1.12358E+007    1.87693E+005   -1.16249E+006   -1.71131E+006
            3518    1.51977E+007    1.25127E+007    1.25127E+007   -1.50154E+006   -3.64159E+006    1.61543E+007   -2.45652E+006    1.48530E+007   -3.54125E+006   -1.27597E+006    1.21868E+007    1.71464E+005   -1.25728E+006   -1.75738E+006
            3519    1.63565E+007    1.36256E+007    1.36256E+007   -1.56654E+006   -3.68822E+006    1.73138E+007   -2.79028E+006    1.60425E+007   -3.57924E+006   -1.39489E+006    1.33450E+007    1.52606E+005   -1.36063E+006   -1.59997E+006
            3520    1.74044E+007    1.46764E+007    1.46764E+007   -1.56756E+006   -3.69324E+006    1.83696E+007   -3.13853E+006    1.71087E+007   -3.57843E+006   -1.46993E+006    1.44639E+007    1.18134E+005   -1.44281E+006   -1.25114E+006
            3521    1.81667E+007    1.54433E+007    1.54433E+007   -1.56618E+006   -3.69335E+006    1.91367E+007   -3.39459E+006    1.78833E+007   -3.57461E+006   -1.53450E+006    1.52929E+007    6.50816E+004   -1.50130E+006   -7.30827E+005
            3522    1.84418E+007    1.57117E+007    1.57117E+007   -1.59481E+006   -3.68693E+006    1.93986E+007   -3.47666E+006    1.81719E+007   -3.56640E+006   -1.59465E+006    1.55910E+007    1.46453E+003   -1.52430E+006   -5.36530E+004
            3523    1.81896E+007    1.54831E+007    1.54831E+007   -1.57981E+006   -3.65524E+006    1.91383E+007   -3.41601E+006    1.79204E+007   -3.53440E+006   -1.55776E+006    1.53402E+007   -5.84425E+004   -1.51482E+006    6.10972E+005
            3524    1.74137E+007    1.47100E+007    1.47100E+007   -1.60236E+006   -3.62798E+006    1.83380E+007   -3.15988E+006    1.71457E+007   -3.50932E+006   -1.51733E+006    1.45063E+007   -1.07827E+005   -1.46642E+006    1.17039E+006
            3525    1.82406E+007    1.50748E+007    1.50748E+007   -1.18175E+006   -4.65150E+006    1.97263E+007   -3.08052E+006    1.74749E+007   -4.56940E+006   -1.06089E+006    1.48718E+007   -2.23143E+005   -1.22547E+006    1.41466E+006
            3526    1.92360E+007    1.61328E+007    1.61328E+007   -1.01716E+006   -4.66648E+006    2.07993E+007   -3.48305E+006    1.84329E+007   -4.59530E+006   -9.79020E+005    1.60235E+007   -1.25155E+005   -1.19945E+006    8.19264E+005
            3527    1.96599E+007    1.65955E+007    1.65955E+007   -9.45699E+005   -4.65471E+006    2.12502E+007   -3.66503E+006    1.88485E+007   -4.58859E+006   -9.45692E+005    1.65294E+007    9.98193E+001   -1.18343E+006   -1.12962E+004
            3528    1.92299E+007    1.61140E+007    1.61140E+007   -1.02430E+006   -4.68214E+006    2.07961E+007   -3.46917E+006    1.84226E+007   -4.61171E+006   -9.84071E+005    1.60033E+007    1.22716E+005   -1.19404E+006   -8.39044E+005
            3529    1.82214E+007    1.50206E+007    1.50206E+007   -1.20643E+006   -4.69185E+006    1.97124E+007   -3.04076E+006    1.74477E+007   -4.61047E+006   -1.08047E+006    1.48132E+007    2.25142E+005   -1.21895E+006   -1.44185E+006
            3530    1.68769E+007    1.36172E+007    1.36172E+007   -1.41262E+006   -4.64051E+006    1.82577E+007   -2.52135E+006    1.61603E+007   -4.54612E+006   -1.21529E+006    1.33255E+007    2.86677E+005   -1.24175E+006   -1.73162E+006
            3531    1.54969E+007    1.21706E+007    1.21706E+007   -1.67735E+006   -4.56818E+006    1.67388E+007   -1.97501E+006    1.48720E+007   -4.46580E+006   -1.45073E+006    1.18416E+007    2.98221E+005   -1.23620E+006   -1.77476E+006
            3532    1.45480E+007    1.12415E+007    1.12415E+007   -1.90400E+006   -4.38899E+006    1.56305E+007   -1.64950E+006    1.40586E+007   -4.28338E+006   -1.67864E+006    1.09105E+007    2.67676E+005   -1.23022E+006   -1.71530E+006
            3533    1.42627E+007    1.12663E+007    1.12663E+007   -1.64065E+006   -4.04625E+006    1.53126E+007   -1.85981E+006    1.37952E+007   -3.94319E+006   -1.33808E+006    1.08607E+007    2.52929E+005   -1.21779E+006   -1.95013E+006
            3534    9.48667E+006    8.86888E+006    8.86888E+006    5.54982E+005   -1.46513E+006    1.03340E+007   -2.65291E+006    8.98342E+006   -1.43194E+006    5.24932E+005    8.86574E+006   -2.48652E+005   -1.34325E+005   -1.11044E+005
            3535    9.61582E+006    8.85994E+006    8.85994E+006    4.85648E+005   -1.64127E+006    1.05012E+007   -2.56811E+006    9.06362E+006   -1.60001E+006    4.74096E+005    8.83023E+006   -2.22755E+005   -3.92343E+005   -3.62892E+005
            3536    9.95220E+006    8.89713E+006    8.89713E+006    2.58425E+005   -1.98545E+006    1.08826E+007   -2.39003E+006    9.35732E+006   -1.93052E+006    2.94200E+005    8.80642E+006   -1.64291E+005   -6.25111E+005   -6.94840E+005
            3537    1.05449E+007    9.06161E+006    9.06161E+006   -1.47808E+005   -2.44125E+006    1.15029E+007   -2.15752E+006    9.96028E+006   -2.37260E+006   -3.71472E+004    8.88230E+006   -7.47427E+004   -8.15972E+005   -1.05494E+006
            3538    1.13896E+007    9.44877E+006    9.44877E+006   -5.86875E+005   -2.93027E+006    1.23790E+007   -1.97721E+006    1.08271E+007   -2.84985E+006   -3.85422E+005    9.16690E+006    3.65084E+004   -9.70812E+005   -1.41780E+006
            3539    1.23760E+007    1.00193E+007    1.00193E+007   -1.00122E+006   -3.36974E+006    1.33890E+007   -1.88278E+006    1.18498E+007   -3.28335E+006   -7.30457E+005    9.66216E+006    1.39393E+005   -1.06101E+006   -1.70037E+006
            3540    1.34412E+007    1.07683E+007    1.07683E+007   -1.29792E+006   -3.71878E+006    1.44871E+007   -1.91720E+006    1.29370E+007   -3.62236E+006   -9.51956E+005    1.03259E+007    2.16929E+005   -1.15721E+006   -2.00571E+006
            3541    1.02129E+007    9.73086E+006    9.73086E+006    2.04041E+005   -1.05189E+006    1.07828E+007   -2.96100E+006    1.00369E+007   -8.66377E+005    2.25028E+004    9.72688E+006    4.42822E+005    1.09337E+005   -1.70777E+005
            3542    1.10910E+007    1.06227E+007    1.06227E+007   -1.06840E+005   -7.97555E+005    1.14202E+007   -3.23943E+006    1.10425E+007   -4.90758E+005   -4.10266E+005    1.06193E+007    3.41865E+005    8.26325E+004   -1.76828E+005
            3543    1.20234E+007    1.14456E+007    1.14456E+007   -1.87694E+005   -9.33225E+005    1.23788E+007   -3.44156E+006    1.19712E+007   -2.84628E+005   -8.33867E+005    1.14432E+007    2.50278E+005    6.87855E+004   -1.58924E+005
            3544    1.27959E+007    1.21251E+007    1.21251E+007   -1.29022E+005   -1.15110E+006    1.32762E+007   -3.61501E+006    1.27035E+007   -1.44000E+005   -1.13470E+006    1.21237E+007    1.23174E+005    5.19340E+004   -1.26827E+005
            3545    1.03426E+007    9.73885E+006    9.73885E+006    1.01080E+005   -1.18778E+006    1.09266E+007   -2.88405E+006    1.01596E+007   -1.00298E+006   -4.53468E+004    9.70048E+006    4.20354E+005    3.79686E+005   -5.08560E+005
            3546    1.11816E+007    1.06276E+007    1.06276E+007   -1.85015E+005   -8.89765E+005    1.15173E+007   -3.18426E+006    1.11315E+007   -5.96096E+005   -4.43852E+005    1.05927E+007    3.29796E+005    3.44206E+005   -5.28320E+005
            3547    1.20857E+007    1.14342E+007    1.14342E+007   -2.63566E+005   -1.00531E+006    1.24395E+007   -3.38843E+006    1.20343E+007   -3.66437E+005   -8.74197E+005    1.14059E+007    2.51980E+005    3.20804E+005   -4.96967E+005
            3548    1.28392E+007    1.21180E+007    1.21180E+007   -1.81097E+005   -1.20049E+006    1.33185E+007   -3.57880E+006    1.27476E+007   -1.92152E+005   -1.17110E+006    1.20996E+007    1.26050E+005    2.98454E+005   -3.87093E+005
            3549    1.06357E+007    9.81659E+006    9.81659E+006   -6.54108E+004   -1.43936E+006    1.12559E+007   -2.77061E+006    1.04333E+007   -1.26293E+006   -1.40298E+005    9.71506E+006    3.73855E+005    6.12536E+005   -8.40985E+005
            3550    1.14647E+007    1.07074E+007    1.07074E+007   -3.73551E+005   -1.10605E+006    1.18134E+007   -3.07592E+006    1.14119E+007   -8.48906E+005   -5.42528E+005    1.06192E+007    3.00960E+005    5.50083E+005   -8.49116E+005
            3551    1.23343E+007    1.15197E+007    1.15197E+007   -4.72605E+005   -1.13038E+006    1.26501E+007   -3.30556E+006    1.22948E+007   -6.05998E+005   -9.26535E+005    1.14492E+007    2.46706E+005    5.21501E+005   -7.83594E+005
            3552    1.30982E+007    1.22166E+007    1.22166E+007   -4.22382E+005   -1.29704E+006    1.35137E+007   -3.49906E+006    1.30323E+007   -4.30155E+005   -1.24084E+006    1.21682E+007    1.25109E+005    4.83273E+005   -6.39737E+005
            3553    1.11591E+007    9.96763E+006    9.96763E+006   -3.86693E+005   -1.85164E+006    1.18193E+007   -2.57643E+006    1.09397E+007   -1.67294E+006   -3.71029E+005    9.77327E+006    2.93553E+005    9.08509E+005   -1.15226E+006
            3554    1.18233E+007    1.07918E+007    1.07918E+007   -5.88760E+005   -1.42927E+006    1.22211E+007   -2.92460E+006    1.17558E+007   -1.19731E+006   -6.47879E+005    1.06190E+007    2.53034E+005    8.85439E+005   -1.12708E+006
            3555    1.25637E+007    1.15159E+007    1.15159E+007   -7.16602E+005   -1.35463E+006    1.28705E+007   -3.14822E+006    1.25271E+007   -9.00540E+005   -1.01868E+006    1.13639E+007    2.35744E+005    8.70376E+005   -1.08431E+006
            3556    1.32845E+007    1.22260E+007    1.22260E+007   -6.41770E+005   -1.43932E+006    1.36653E+007   -3.38162E+006    1.32304E+007   -6.34400E+005   -1.33096E+006    1.21102E+007    1.28936E+005    8.35828E+005   -9.20741E+005
            3557    1.19671E+007    1.03459E+007    1.03459E+007   -6.92377E+005   -2.37243E+006    1.27184E+007   -2.42704E+006    1.16974E+007   -2.20636E+006   -5.85743E+005    1.00732E+007    1.88196E+005    1.14620E+006   -1.37238E+006
            3558    1.24971E+007    1.09941E+007    1.09941E+007   -8.80182E+005   -2.04427E+006    1.30384E+007   -2.68989E+006    1.23742E+007   -1.86788E+006   -8.12092E+005    1.07496E+007    1.64973E+005    1.15194E+006   -1.30633E+006
            3559    1.33022E+007    1.17802E+007    1.17802E+007   -1.10094E+006   -1.90641E+006    1.36867E+007   -2.92430E+006    1.32472E+007   -1.65309E+006   -1.10951E+006    1.15355E+007    1.82404E+005    1.24746E+006   -1.30583E+006
            3560    1.40926E+007    1.25367E+007    1.25367E+007   -1.32971E+006   -1.77169E+006    1.43084E+007   -3.14509E+006    1.40770E+007   -1.44413E+006   -1.44625E+006    1.23257E+007    1.16255E+005    1.31188E+006   -1.11968E+006
            3561    1.25890E+007    1.04740E+007    1.04740E+007   -1.05491E+006   -2.95823E+006    1.34323E+007   -2.15364E+006    1.22590E+007   -2.78537E+006   -9.19396E+005    1.01657E+007    9.87816E+004    1.36254E+006   -1.39508E+006
            3562    1.29551E+007    1.10524E+007    1.10524E+007   -1.10313E+006   -2.57634E+006    1.36287E+007   -2.45763E+006    1.27646E+007   -2.42013E+006   -9.12551E+005    1.07056E+007    2.58336E+004    1.32643E+006   -1.61087E+006
            3563    1.39819E+007    1.20247E+007    1.20247E+007   -1.37007E+006   -2.47850E+006    1.45032E+007   -2.72537E+006    1.38826E+007   -2.29847E+006   -1.22988E+006    1.17045E+007    4.85157E+004    1.41775E+006   -1.54890E+006
            3564    1.48949E+007    1.29142E+007    1.29142E+007   -1.58648E+006   -2.34585E+006    1.52601E+007   -2.99398E+006    1.48513E+007   -2.16229E+006   -1.49025E+006    1.26345E+007    1.35739E+004    1.51129E+006   -1.36072E+006
            3565    1.29938E+007    1.03198E+007    1.03198E+007   -1.05917E+006   -3.83889E+006    1.41587E+007   -1.80724E+006    1.22978E+007   -3.64188E+006   -8.70626E+005    9.93423E+006    1.02491E+004    1.59536E+006   -1.50935E+006
            3566    1.39770E+007    1.11826E+007    1.11826E+007   -1.57219E+006   -3.75885E+006    1.49414E+007   -1.95051E+006    1.35841E+007   -3.55264E+006   -1.35678E+006    1.07610E+007   -1.98528E+004    1.67013E+006   -1.70453E+006
            3567    1.48381E+007    1.20020E+007    1.20020E+007   -1.63791E+006   -3.79766E+006    1.57996E+007   -2.18880E+006    1.44781E+007   -3.58061E+006   -1.43849E+006    1.15855E+007   -6.22057E+004    1.79279E+006   -1.67364E+006
            3568    1.60296E+007    1.31514E+007    1.31514E+007   -1.69045E+006   -3.84738E+006    1.69988E+007   -2.53787E+006    1.56981E+007   -3.61570E+006   -1.53905E+006    1.27684E+007   -7.68143E+004    1.94228E+006   -1.51501E+006
            3569    1.73003E+007    1.37662E+007    1.37662E+007   -1.29098E+006   -5.13180E+006    1.88980E+007   -2.44780E+006    1.62991E+007   -4.98575E+006   -1.13317E+006    1.34623E+007   -3.20681E+005    1.59598E+006   -1.55462E+006
            3570    1.57968E+007    1.23880E+007    1.23880E+007   -1.40976E+006   -4.84311E+006    1.72311E+007   -2.04505E+006    1.49223E+007   -4.69564E+006   -1.23889E+006    1.20697E+007   -3.32689E+005    1.52029E+006   -1.54936E+006
            3571    1.44058E+007    1.10554E+007    1.10554E+007   -1.58047E+006   -4.63152E+006    1.56869E+007   -1.61446E+006    1.36501E+007   -4.49775E+006   -1.44309E+006    1.07842E+007   -2.94116E+005    1.38186E+006   -1.33538E+006
            3572    1.41637E+007    1.08240E+007    1.08240E+007   -1.97903E+006   -4.39061E+006    1.52146E+007   -1.48479E+006    1.36903E+007   -4.27166E+006   -1.88973E+006    1.06158E+007   -1.97975E+005    1.31088E+006   -1.07833E+006
            3573    9.55167E+006    9.00482E+006    9.00482E+006    5.74564E+005   -1.36924E+006    1.03741E+007   -2.73671E+006    9.09055E+006   -1.30659E+006    5.14976E+005    9.00175E+006    3.36945E+005    1.38901E+005   -1.05169E+005
            3574    9.64212E+006    8.97435E+006    8.97435E+006    5.39447E+005   -1.53674E+006    1.05111E+007   -2.65902E+006    9.11863E+006   -1.46717E+006    5.01724E+005    8.94251E+006    3.12123E+005    4.19685E+005   -3.68476E+005
            3575    9.92500E+006    8.97909E+006    8.97909E+006    3.49326E+005   -1.86657E+006    1.08457E+007   -2.48728E+006    9.34380E+006   -1.78424E+006    3.60513E+005    8.88557E+006    2.53497E+005    6.73365E+005   -6.81146E+005
            3576    1.04708E+007    9.13103E+006    9.13103E+006    4.51868E+004   -2.32008E+006    1.14511E+007   -2.28538E+006    9.84243E+006   -2.22170E+006    1.37866E+005    8.93997E+006    1.58194E+005    9.09609E+005   -1.04348E+006
            3577    1.13733E+007    9.52739E+006    9.52739E+006   -4.61531E+005   -2.85064E+006    1.23780E+007   -2.07174E+006    1.07868E+007   -2.73975E+006   -2.69573E+005    9.22454E+006    2.87246E+004    1.10197E+006   -1.41580E+006
            3578    1.26263E+007    1.03986E+007    1.03986E+007   -7.18983E+005   -3.32859E+006    1.37272E+007   -2.11700E+006    1.19968E+007   -3.19783E+006   -4.49323E+005    9.99815E+006   -9.95876E+004    1.31098E+006   -1.71442E+006
            3579    1.41285E+007    1.13862E+007    1.13862E+007   -1.34460E+006   -3.81437E+006    1.52005E+007   -2.07573E+006    1.36301E+007   -3.68661E+006   -1.16751E+006    1.10813E+007   -1.30324E+005    1.37937E+006   -1.48540E+006
            3580    1.88680E+007    1.52832E+007    1.52832E+007   -1.11977E+006   -5.33638E+006    2.06196E+007   -2.94236E+006    1.77609E+007   -5.20059E+006   -1.02048E+006    1.50482E+007   -2.63049E+005    1.62629E+006   -1.29329E+006
            3581    1.99870E+007    1.63776E+007    1.63776E+007   -9.84469E+005   -5.47152E+006    2.18491E+007   -3.30721E+006    1.88030E+007   -5.34889E+006   -9.51844E+005    1.62224E+007   -1.47558E+005    1.61885E+006   -7.63686E+005
            3582    2.04694E+007    1.68751E+007    1.68751E+007   -9.16138E+005   -5.49642E+006    2.23716E+007   -3.48753E+006    1.92652E+007   -5.37904E+006   -9.16143E+005    1.67578E+007   -4.96769E+003    1.61617E+006    1.18390E+003
            3583    2.00315E+007    1.64182E+007    1.64182E+007   -9.70259E+005   -5.48557E+006    2.19037E+007   -3.32077E+006    1.88347E+007   -5.36433E+006   -9.37155E+005    1.62638E+007    1.44016E+005    1.61262E+006    7.68269E+005
            3584    1.88955E+007    1.52819E+007    1.52819E+007   -1.12075E+006   -5.37967E+006    2.06615E+007   -2.92715E+006    1.77668E+007   -5.24670E+006   -1.01863E+006    1.50468E+007    2.61368E+005    1.61143E+006    1.30976E+006
            3585    1.73990E+007    1.38342E+007    1.38342E+007   -1.28030E+006   -5.18555E+006    1.90198E+007   -2.45612E+006    1.63688E+007   -5.04219E+006   -1.12447E+006    1.35350E+007    3.31473E+005    1.57877E+006    1.55321E+006
            3586    1.58956E+007    1.23853E+007    1.23853E+007   -1.50897E+006   -4.94856E+006    1.73338E+007   -1.97592E+006    1.50237E+007   -4.80446E+006   -1.34068E+006    1.20729E+007    3.40985E+005    1.49911E+006    1.54890E+006
            3587    1.49094E+007    1.15076E+007    1.15076E+007   -1.64965E+006   -4.68643E+006    1.61940E+007   -1.72383E+006    1.41883E+007   -4.55181E+006   -1.49723E+006    1.12205E+007    2.96557E+005    1.41128E+006    1.42963E+006
            3588    1.44587E+007    1.14995E+007    1.14995E+007   -1.22921E+006   -4.22098E+006    1.57205E+007   -2.01645E+006    1.37361E+007   -4.08729E+006   -1.02075E+006    1.11574E+007    3.10699E+005    1.38537E+006    1.62794E+006
            3589    1.70411E+007    1.40967E+007    1.40967E+007   -1.70941E+006   -3.95657E+006    1.80532E+007   -2.81023E+006    1.67029E+007   -3.71336E+006   -1.62292E+006    1.37670E+007   -7.79208E+004    2.06954E+006   -1.17518E+006
            3590    1.57010E+007    1.37093E+007    1.37093E+007   -1.67058E+006   -2.29435E+006    1.60036E+007   -3.24811E+006    1.56731E+007   -2.11700E+006   -1.62358E+006    1.34849E+007   -6.20221E+003    1.60542E+006   -9.70460E+005
            3591    1.47304E+007    1.31267E+007    1.31267E+007   -1.42916E+006   -1.77226E+006    1.48990E+007   -3.30844E+006    1.47214E+007   -1.37542E+006   -1.65247E+006    1.29532E+007    6.98216E+004    1.38500E+006   -7.87529E+005
            3592    1.38159E+007    1.27292E+007    1.27292E+007   -5.65912E+005   -1.55437E+006    1.42836E+007   -3.53632E+006    1.37360E+007   -5.27355E+005   -1.51456E+006    1.26509E+007    7.54589E+004    8.28437E+005   -6.20183E+005
            3593    1.36774E+007    1.27205E+007    1.27205E+007   -4.03078E+005   -1.45042E+006    1.41709E+007   -3.62233E+006    1.35867E+007   -3.92956E+005   -1.43164E+006    1.26916E+007    7.18342E+004    4.76442E+005   -4.07617E+005
            3594    1.33579E+007    1.25611E+007    1.25611E+007   -1.45372E+005   -1.36463E+006    1.39257E+007   -3.68369E+006    1.32318E+007   -1.43847E+005   -1.35490E+006    1.25498E+007    7.46311E+004    2.94930E+005   -2.49568E+005
            3595    1.33298E+007    1.25724E+007    1.25724E+007   -1.10494E+005   -1.32167E+006    1.38940E+007   -3.71340E+006    1.32051E+007   -1.14671E+005   -1.31698E+006    1.25719E+007    7.19747E+004    4.29036E+004   -7.23433E+004
            3596    1.78014E+007    1.48021E+007    1.48021E+007   -1.71459E+006   -4.05282E+006    1.88550E+007   -3.01157E+006    1.74509E+007   -3.80247E+006   -1.69127E+006    1.45285E+007   -4.54601E+004    2.15550E+006   -6.23173E+005
            3597    1.62218E+007    1.41891E+007    1.41891E+007   -1.75952E+006   -2.29273E+006    1.64818E+007   -3.37896E+006    1.62021E+007   -2.11892E+006   -1.74836E+006    1.40041E+007   -8.05961E+003    1.66763E+006   -4.78957E+005
            3598    1.51159E+007    1.34773E+007    1.34773E+007   -1.46360E+006   -1.80761E+006    1.52849E+007   -3.40204E+006    1.51071E+007   -1.33571E+006   -1.78923E+006    1.33311E+007    2.87111E+004    1.43488E+006   -3.36037E+005
            3599    1.41232E+007    1.30047E+007    1.30047E+007   -4.99720E+005   -1.66493E+006    1.46697E+007   -3.61337E+006    1.40144E+007   -4.50731E+005   -1.65941E+006    1.29502E+007    2.40917E+004    8.22682E+005   -2.49830E+005
            3600    1.39601E+007    1.29587E+007    1.29587E+007   -3.71107E+005   -1.55615E+006    1.45148E+007   -3.67713E+006    1.38462E+007   -3.55048E+005   -1.55439E+006    1.29408E+007    1.85722E+004    4.68989E+005   -1.38275E+005
            3601    1.36076E+007    1.27702E+007    1.27702E+007   -9.53733E+004   -1.47431E+006    1.42445E+007   -3.73351E+006    1.34490E+007   -8.89710E+004   -1.47362E+006    1.27631E+007    1.76993E+004    2.93018E+005   -7.76973E+004
            3602    1.35731E+007    1.27719E+007    1.27719E+007   -7.40649E+004   -1.42709E+006    1.41990E+007   -3.75691E+006    1.34202E+007   -7.41380E+004   -1.42689E+006    1.27718E+007    1.49913E+004    3.48367E+004   -2.29224E+004
            3603    1.80482E+007    1.50223E+007    1.50223E+007   -1.71217E+006   -4.10154E+006    1.91238E+007   -3.06953E+006    1.76871E+007   -3.84891E+006   -1.71206E+006    1.47696E+007    4.08260E+003    2.18344E+006    4.17003E+004
            3604    1.63776E+007    1.43461E+007    1.43461E+007   -1.74283E+006   -2.30565E+006    1.66517E+007   -3.43252E+006    1.63558E+007   -2.13186E+006   -1.74233E+006    1.41718E+007   -5.55309E+002    1.69104E+006    1.10562E+005
            3605    1.52091E+007    1.35544E+007    1.35544E+007   -1.50091E+006   -1.80403E+006    1.53584E+007   -3.41647E+006    1.52023E+007   -1.35885E+006   -1.80141E+006    1.34097E+007   -7.03738E+003    1.46265E+006    1.38585E+005
            3606    1.41403E+007    1.30312E+007    1.30312E+007   -5.07842E+005   -1.64203E+006    1.46733E+007   -3.62712E+006    1.40374E+007   -4.56632E+005   -1.63967E+006    1.29777E+007   -1.68268E+004    8.36136E+005    1.60633E+005
            3607    1.39676E+007    1.29667E+007    1.29667E+007   -3.91783E+005   -1.53931E+006    1.45060E+007   -3.67852E+006    1.38609E+007   -3.75364E+005   -1.53732E+006    1.29482E+007   -2.19609E+004    4.76974E+005    1.40943E+005
            3608    1.35780E+007    1.27520E+007    1.27520E+007   -1.09488E+005   -1.44393E+006    1.41960E+007   -3.73287E+006    1.34293E+007   -1.03068E+005   -1.44276E+006    1.27444E+007   -2.52235E+004    2.99602E+005    9.37685E+004
            3609    1.35423E+007    1.27506E+007    1.27506E+007   -9.12022E+004   -1.39748E+006    1.41481E+007   -3.75398E+006    1.33994E+007   -9.16867E+004   -1.39682E+006    1.27504E+007   -2.72022E+004    3.32532E+004    3.55594E+004
            3610    1.77928E+007    1.47607E+007    1.47607E+007   -1.71115E+006   -4.10962E+006    1.88703E+007   -2.97999E+006    1.74235E+007   -3.85989E+006   -1.67921E+006    1.44791E+007    5.31679E+004    2.15282E+006    7.27892E+005
            3611    1.61503E+007    1.40936E+007    1.40936E+007   -1.72960E+006   -2.36499E+006    1.64586E+007   -3.33300E+006    1.61221E+007   -2.18654E+006   -1.70866E+006    1.38942E+007    3.28765E+003    1.67116E+006    6.63089E+005
            3612    1.50082E+007    1.33463E+007    1.33463E+007   -1.51040E+006   -1.80890E+006    1.51552E+007   -3.34233E+006    1.50015E+007   -1.41582E+006   -1.73582E+006    1.31786E+007   -4.94935E+004    1.45080E+006    6.19812E+005
            3613    1.39170E+007    1.28052E+007    1.28052E+007   -5.57287E+005   -1.60693E+006    1.44121E+007   -3.54700E+006    1.38276E+007   -5.12821E+005   -1.57729E+006    1.27311E+007   -6.62818E+004    8.48830E+005    5.40708E+005
            3614    1.37109E+007    1.27351E+007    1.27351E+007   -4.10075E+005   -1.47896E+006    1.42140E+007   -3.61535E+006    1.36167E+007   -3.99153E+005   -1.46049E+006    1.27057E+007   -7.03819E+004    4.83009E+005    4.08833E+005
            3615    1.33205E+007    1.25226E+007    1.25226E+007   -1.29035E+005   -1.37879E+006    1.39014E+007   -3.67158E+006    1.31877E+007   -1.27410E+005   -1.36842E+006    1.25106E+007   -7.76832E+004    3.03284E+005    2.58097E+005
            3616    1.32689E+007    1.25156E+007    1.25156E+007   -1.01915E+005   -1.32066E+006    1.38362E+007   -3.69767E+006    1.31421E+007   -1.06872E+005   -1.31510E+006    1.25150E+007   -7.81169E+004    3.56679E+004    8.38220E+004
            3617    1.70276E+007    1.40274E+007    1.40274E+007   -1.68481E+006   -4.06522E+006    1.80926E+007   -2.75912E+006    1.66471E+007   -3.82188E+006   -1.58503E+006    1.36843E+007    9.02026E+004    2.07256E+006    1.25426E+006
            3618    1.55722E+007    1.35252E+007    1.35252E+007   -1.63825E+006   -2.42598E+006    1.59511E+007   -3.15364E+006    1.55273E+007   -2.24615E+006   -1.56604E+006    1.32731E+007    1.16701E+004    1.61101E+006    1.14775E+006
            3619    1.45069E+007    1.28781E+007    1.28781E+007   -1.44298E+006   -1.80781E+006    1.46859E+007   -3.20910E+006    1.44966E+007   -1.51449E+006   -1.53160E+006    1.26734E+007   -8.42830E+004    1.40833E+006    9.90028E+005
            3620    1.34674E+007    1.23867E+007    1.23867E+007   -6.61507E+005   -1.46392E+006    1.38507E+007   -3.42043E+006    1.34134E+007   -6.40998E+005   -1.37409E+006    1.22764E+007   -1.14458E+005    8.73537E+005    8.51632E+005
            3621    1.32160E+007    1.23053E+007    1.23053E+007   -4.69299E+005   -1.31180E+006    1.36171E+007   -3.50807E+006    1.31554E+007   -4.76410E+005   -1.25720E+006    1.22578E+007   -1.23561E+005    4.99899E+005    6.20306E+005
            3622    1.28431E+007    1.21173E+007    1.21173E+007   -1.99339E+005   -1.19446E+006    1.33117E+007   -3.57449E+006    1.27559E+007   -2.13041E+005   -1.16140E+006    1.20979E+007   -1.35686E+005    3.15305E+005    3.90702E+005
            3623    1.27737E+007    1.21020E+007    1.21020E+007   -1.56274E+005   -1.13125E+006    1.32332E+007   -3.60482E+006    1.26896E+007   -1.75955E+005   -1.11024E+006    1.21007E+007   -1.37207E+005    4.34720E+004    1.24866E+005
            3624    1.60067E+007    1.30245E+007    1.30245E+007   -1.70138E+006   -4.01201E+006    1.70365E+007   -2.43702E+006    1.56249E+007   -3.78072E+006   -1.53062E+006    1.26224E+007    9.30239E+004    1.94558E+006    1.59340E+006
            3625    1.47229E+007    1.26854E+007    1.26854E+007   -1.50709E+006   -2.51600E+006    1.52015E+007   -2.88745E+006    1.46449E+007   -2.33223E+006   -1.38298E+006    1.23776E+007   -1.30949E+004    1.52793E+006    1.46572E+006
            3626    1.38352E+007    1.22366E+007    1.22366E+007   -1.28080E+006   -1.89595E+006    1.41326E+007   -3.01996E+006    1.38044E+007   -1.63029E+006   -1.30593E+006    1.19961E+007   -1.36226E+005    1.33964E+006    1.23970E+006
            3627    1.28766E+007    1.18033E+007    1.18033E+007   -7.37512E+005   -1.38456E+006    1.31879E+007   -3.22709E+006    1.28399E+007   -8.00661E+005   -1.17423E+006    1.16562E+007   -1.82875E+005    8.91198E+005    1.05795E+006
            3628    1.25705E+007    1.17252E+007    1.17252E+007   -4.90817E+005   -1.17213E+006    1.28974E+007   -3.35409E+006    1.25289E+007   -5.55659E+005   -1.03911E+006    1.16570E+007   -1.94881E+005    5.18309E+005    7.76992E+005
            3629    1.22181E+007    1.15608E+007    1.15608E+007   -2.43657E+005   -1.03270E+006    1.25935E+007   -3.42813E+006    1.21605E+007   -3.02588E+005   -9.46520E+005    1.15335E+007   -2.08108E+005    3.24106E+005    4.85327E+005
            3630    1.21252E+007    1.15419E+007    1.15419E+007   -1.78481E+005   -9.51262E+005    1.24931E+007   -3.47071E+006    1.20696E+007   -2.41061E+005   -8.86491E+005    1.15397E+007   -2.10503E+005    5.51982E+004    1.55993E+005
            3631    1.48950E+007    1.19811E+007    1.19811E+007   -1.57731E+006   -3.96269E+006    1.59438E+007   -2.14703E+006    1.44559E+007   -3.74256E+006   -1.35855E+006    1.15422E+007    7.93245E+004    1.82030E+006    1.73537E+006
            3632    1.37909E+007    1.17938E+007    1.17938E+007   -1.25480E+006   -2.63541E+006    1.44293E+007   -2.63455E+006    1.36341E+007   -2.46794E+006   -1.08707E+006    1.14587E+007   -1.17383E+004    1.43480E+006    1.56907E+006
            3633    1.31105E+007    1.15243E+007    1.15243E+007   -1.04421E+006   -2.06813E+006    1.35924E+007   -2.80398E+006    1.30201E+007   -1.85508E+006   -1.00066E+006    1.12677E+007   -1.69810E+005    1.26322E+006    1.32747E+006
            3634    1.22294E+007    1.11515E+007    1.11515E+007   -7.03400E+005   -1.42083E+006    1.25724E+007   -3.00910E+006    1.21820E+007   -1.09726E+006   -8.51539E+005    1.09761E+007   -2.58287E+005    9.22348E+005    1.14705E+006
            3635    1.18597E+007    1.10502E+007    1.10502E+007   -4.59973E+005   -1.13053E+006    1.21808E+007   -3.15324E+006    1.18169E+007   -7.77684E+005   -7.27308E+005    1.09647E+007   -2.96224E+005    5.56114E+005    8.49825E+005
            3636    1.15096E+007    1.09065E+007    1.09065E+007   -2.46286E+005   -9.29455E+005    1.18360E+007   -3.24360E+006    1.14639E+007   -5.17696E+005   -6.22860E+005    1.08714E+007   -3.20247E+005    3.52832E+005    5.38857E+005
            3637    1.13800E+007    1.08683E+007    1.08683E+007   -1.60684E+005   -8.32830E+005    1.17011E+007   -3.29160E+006    1.13352E+007   -4.28738E+005   -5.61771E+005    1.08653E+007   -3.28157E+005    7.18841E+004    1.72637E+005
            3638    1.39396E+007    1.11565E+007    1.11565E+007   -1.32430E+006   -3.88646E+006    1.50429E+007   -1.98191E+006    1.33944E+007   -3.68144E+006   -1.10233E+006    1.07295E+007    5.92894E+004    1.70058E+006    1.67992E+006
            3639    1.30200E+007    1.10006E+007    1.10006E+007   -1.15985E+006   -2.73558E+006    1.37361E+007   -2.36838E+006    1.28028E+007   -2.57687E+006   -9.72710E+005    1.06547E+007   -8.98919E+003    1.37064E+006    1.57707E+006
            3640    1.23942E+007    1.08307E+007    1.08307E+007   -8.52283E+005   -2.16947E+006    1.30002E+007   -2.60300E+006    1.22353E+007   -2.00723E+006   -7.49467E+005    1.05657E+007   -1.42308E+005    1.16146E+006    1.37386E+006
            3641    1.15820E+007    1.04810E+007    1.04810E+007   -5.59655E+005   -1.57546E+006    1.20564E+007   -2.78195E+006    1.14811E+007   -1.37539E+006   -5.70864E+005    1.02921E+007   -2.49810E+005    9.16178E+005    1.16133E+006
            3642    1.11139E+007    1.03454E+007    1.03454E+007   -2.72218E+005   -1.20571E+006    1.15512E+007   -2.95584E+006    1.10251E+007   -1.00000E+006   -3.80688E+005    1.02482E+007   -3.22302E+005    5.77554E+005    8.69095E+005
            3643    1.07712E+007    1.02174E+007    1.02174E+007   -8.00517E+004   -9.72094E+005    1.11895E+007   -3.05509E+006    1.06877E+007   -7.47093E+005   -2.66992E+005    1.01794E+007   -3.62828E+005    3.68658E+005    5.30633E+005
            3644    1.06154E+007    1.01726E+007    1.01726E+007    3.05100E+004   -8.60021E+005    1.10326E+007   -3.11437E+006    1.05309E+007   -6.36061E+005   -1.89789E+005    1.01690E+007   -3.84593E+005    8.74686E+004    1.77939E+005
            3645    1.35976E+007    1.07818E+007    1.07818E+007   -1.22051E+006   -3.98593E+006    1.47677E+007   -1.85845E+006    1.29420E+007   -3.81279E+006   -1.04385E+006    1.04320E+007    5.42440E+004    1.56206E+006    1.46369E+006
            3646    1.26422E+007    1.04315E+007    1.04315E+007   -9.92211E+005   -3.15125E+006    1.35827E+007   -2.09600E+006    1.22171E+007   -2.98209E+006   -8.00716E+005    1.00708E+007   -4.74129E+004    1.40058E+006    1.55682E+006
            3647    1.18485E+007    1.01084E+007    1.01084E+007   -7.18899E+005   -2.54847E+006    1.26569E+007   -2.28034E+006    1.15242E+007   -2.38826E+006   -5.94894E+005    9.82417E+006   -1.76466E+005    1.15526E+006    1.39417E+006
            3648    1.10200E+007    9.75766E+006    9.75766E+006   -3.41244E+005   -1.99618E+006    1.17538E+007   -2.47341E+006    1.07351E+007   -1.82980E+006   -3.05507E+005    9.55554E+006   -2.82907E+005    9.40382E+005    1.14773E+006
            3649    1.04684E+007    9.58879E+006    9.58879E+006   -2.46988E+004   -1.56401E+006    1.11528E+007   -2.66669E+006    1.02091E+007   -1.40176E+006   -8.25009E+004    9.48434E+006   -3.73871E+005    6.38819E+005    8.28060E+005
            3650    1.01261E+007    9.50091E+006    9.50091E+006    1.92502E+005   -1.28142E+006    1.07823E+007   -2.80400E+006    9.88048E+006   -1.12054E+006    7.06151E+004    9.46191E+006   -4.22484E+005    3.98599E+005    4.91500E+005
            3651    9.99112E+006    9.49081E+006    9.49081E+006    2.93623E+005   -1.13948E+006    1.06303E+007   -2.88165E+006    9.75586E+006   -9.79411E+005    1.37328E+005    9.48704E+006   -4.48179E+005    1.15343E+005    1.57676E+005
            3652    9.49213E+006    8.94233E+006    8.94233E+006    6.12583E+005   -1.39200E+006    1.03343E+007   -2.72097E+006    8.99722E+006   -1.33503E+006    5.59014E+005    8.93893E+006   -3.25686E+005    1.45254E+005    1.10562E+005
            3653    9.61215E+006    8.92659E+006    8.92659E+006    5.48306E+005   -1.56704E+006    1.04936E+007   -2.63595E+006    9.06598E+006   -1.50204E+006    5.14502E+005    8.89540E+006   -3.00174E+005    4.24118E+005    3.54574E+005
            3654    9.90921E+006    8.93461E+006    8.93461E+006    3.48495E+005   -1.90837E+006    1.08430E+007   -2.45824E+006    9.30423E+006   -1.82784E+006    3.60735E+005    8.84183E+006   -2.43433E+005    6.86798E+005    6.63146E+005
            3655    1.04771E+007    9.07539E+006    9.07539E+006   -1.47757E+004   -2.38321E+006    1.14586E+007   -2.22580E+006    9.84740E+006   -2.28774E+006    6.85996E+004    8.89654E+006   -1.42646E+005    9.16912E+005    9.83237E+005
            3656    1.12686E+007    9.40346E+006    9.40346E+006   -3.99241E+005   -2.90816E+006    1.23116E+007   -2.03202E+006    1.06126E+007   -2.79807E+006   -2.33508E+005    9.12763E+006   -1.36293E+004    1.11369E+006    1.29683E+006
            3657    1.22739E+007    9.96752E+006    9.96752E+006   -7.14430E+005   -3.44004E+006    1.34076E+007   -1.93768E+006    1.15632E+007   -3.31713E+006   -4.94420E+005    9.62459E+006    1.33248E+005    1.26687E+006    1.51156E+006
            3658    1.34164E+007    1.08259E+007    1.08259E+007   -8.63801E+005   -3.82315E+006    1.46490E+007   -2.04630E+006    1.26504E+007   -3.69385E+006   -5.93333E+005    1.04261E+007    2.78450E+005    1.33440E+006    1.75292E+006
            3659    1.41830E+007    1.08400E+007    1.08400E+007   -1.99355E+006   -4.38771E+006    1.52277E+007   -1.48624E+006    1.37173E+007   -4.26905E+006   -1.90339E+006    1.06312E+007   -1.95256E+005   -1.31104E+006    1.08354E+006
            3660    1.43732E+007    1.10165E+007    1.10165E+007   -1.60314E+006   -4.62862E+006    1.56451E+007   -1.59492E+006    1.36289E+007   -4.49557E+006   -1.46906E+006    1.07494E+007   -2.89296E+005   -1.37774E+006    1.31846E+006
            3661    1.57554E+007    1.23487E+007    1.23487E+007   -1.41932E+006   -4.83404E+006    1.71827E+007   -2.03177E+006    1.48882E+007   -4.68658E+006   -1.24903E+006    1.20309E+007   -3.30899E+005   -1.51881E+006    1.54476E+006
            3662    1.72754E+007    1.37468E+007    1.37468E+007   -1.28971E+006   -5.12348E+006    1.88702E+007   -2.44452E+006    1.62765E+007   -4.97765E+006   -1.13230E+006    1.34435E+007   -3.19886E+005   -1.59377E+006    1.55156E+006
            3663    1.59978E+007    1.31346E+007    1.31346E+007   -1.69256E+006   -3.82092E+006    1.69555E+007   -2.54036E+006    1.56746E+007   -3.58951E+006   -1.54113E+006    1.27517E+007   -7.49979E+004   -1.93758E+006    1.51575E+006
            3664    1.48517E+007    1.28878E+007    1.28878E+007   -1.58145E+006   -2.31885E+006    1.52067E+007   -2.99585E+006    1.48104E+007   -2.13450E+006   -1.48780E+006    1.26098E+007    1.70064E+004   -1.50147E+006    1.35775E+006
            3665    1.40583E+007    1.25204E+007    1.25204E+007   -1.31111E+006   -1.75422E+006    1.42746E+007   -3.15169E+006    1.40426E+007   -1.41630E+006   -1.44102E+006    1.23124E+007    1.18783E+005   -1.29907E+006    1.11268E+006
            3666    1.32681E+007    1.22192E+007    1.22192E+007   -6.24992E+005   -1.43572E+006    1.36549E+007   -3.38616E+006    1.32122E+007   -6.17887E+005   -1.33006E+006    1.21064E+007    1.29503E+005   -8.22639E+005    9.10277E+005
            3667    1.30873E+007    1.22107E+007    1.22107E+007   -4.17350E+005   -1.29194E+006    1.35027E+007   -3.50049E+006    1.30213E+007   -4.25435E+005   -1.23658E+006    1.21635E+007    1.25026E+005   -4.75704E+005    6.33024E+005
            3668    1.28293E+007    1.21107E+007    1.21107E+007   -1.78568E+005   -1.19796E+006    1.33086E+007   -3.57804E+006    1.27377E+007   -1.89833E+005   -1.16868E+006    1.20926E+007    1.26310E+005   -2.94457E+005    3.84566E+005
            3669    1.27935E+007    1.21238E+007    1.21238E+007   -1.28610E+005   -1.14964E+006    1.32734E+007   -3.61518E+006    1.27013E+007   -1.43666E+005   -1.13319E+006    1.21224E+007    1.23371E+005   -4.96618E+004    1.26301E+005
            3670    1.47974E+007    1.19744E+007    1.19744E+007   -1.63833E+006   -3.77526E+006    1.57497E+007   -2.18693E+006    1.44441E+007   -3.55848E+006   -1.43851E+006    1.15578E+007   -5.91303E+004   -1.78659E+006    1.67590E+006
            3671    1.39352E+007    1.20000E+007    1.20000E+007   -1.35527E+006   -2.45045E+006    1.44504E+007   -2.73142E+006    1.38378E+007   -2.27001E+006   -1.21729E+006    1.16816E+007    5.30855E+004   -1.40734E+006    1.54605E+006
            3672    1.32532E+007    1.17507E+007    1.17507E+007   -1.08597E+006   -1.88294E+006    1.36337E+007   -2.92727E+006    1.31991E+007   -1.62621E+006   -1.10174E+006    1.15097E+007    1.87093E+005   -1.23307E+006    1.29624E+006
            3673    1.25402E+007    1.15056E+007    1.15056E+007   -7.01761E+005   -1.34270E+006    1.28483E+007   -3.15372E+006    1.25032E+007   -8.81995E+005   -1.01334E+006    1.13565E+007    2.37033E+005   -8.56618E+005    1.07704E+006
            3674    1.23301E+007    1.15192E+007    1.15192E+007   -4.67273E+005   -1.12784E+006    1.26471E+007   -3.30804E+006    1.22902E+007   -5.99568E+005   -9.26677E+005    1.14504E+007    2.47191E+005   -5.14231E+005    7.75514E+005
            3675    1.20794E+007    1.14302E+007    1.14302E+007   -2.61119E+005   -1.00311E+006    1.24333E+007   -3.38865E+006    1.20280E+007   -3.64770E+005   -8.71914E+005    1.14026E+007    2.52919E+005   -3.17121E+005    4.90459E+005
            3676    1.20197E+007    1.14424E+007    1.14424E+007   -1.87591E+005   -9.32480E+005    1.23749E+007   -3.44077E+006    1.19676E+007   -2.84910E+005   -8.32845E+005    1.14401E+007    2.50595E+005   -6.68643E+004    1.55477E+005
            3677    1.39576E+007    1.11675E+007    1.11675E+007   -1.56795E+006   -3.75436E+006    1.49218E+007   -1.94838E+006    1.35643E+007   -3.54747E+006   -1.35101E+006    1.07436E+007   -1.83414E+004   -1.67008E+006    1.71047E+006
            3678    1.29122E+007    1.10221E+007    1.10221E+007   -1.08956E+006   -2.56416E+006    1.35862E+007   -2.45611E+006    1.27207E+007   -2.40832E+006   -9.02948E+005    1.06796E+007    2.99673E+004   -1.31979E+006    1.59577E+006
            3679    1.24599E+007    1.09735E+007    1.09735E+007   -8.65628E+005   -2.02593E+006    1.29995E+007   -2.69399E+006    1.23375E+007   -1.84891E+006   -8.01265E+005    1.07322E+007    1.69723E+005   -1.14210E+006    1.29735E+006
            3680    1.17987E+007    1.07788E+007    1.07788E+007   -5.79523E+005   -1.41589E+006    1.21947E+007   -2.92779E+006    1.17318E+007   -1.18309E+006   -6.42606E+005    1.06091E+007    2.55088E+005   -8.75768E+005    1.11661E+006
            3681    1.14622E+007    1.07078E+007    1.07078E+007   -3.70160E+005   -1.10348E+006    1.18113E+007   -3.07805E+006    1.14093E+007   -8.44057E+005   -5.42204E+005    1.06204E+007    3.02707E+005   -5.45920E+005    8.46349E+005
            3682    1.11749E+007    1.06220E+007    1.06220E+007   -1.84328E+005   -8.88159E+005    1.15101E+007   -3.18317E+006    1.11248E+007   -5.95817E+005   -4.41915E+005    1.05872E+007    3.29224E+005   -3.42950E+005    5.28036E+005
            3683    1.10849E+007    1.06175E+007    1.06175E+007   -1.05059E+005   -7.97183E+005    1.14147E+007   -3.23843E+006    1.10361E+007   -4.91667E+005   -4.07310E+005    1.06143E+007    3.42391E+005   -8.08362E+004    1.74208E+005
            3684    1.29754E+007    1.02988E+007    1.02988E+007   -1.05096E+006   -3.84664E+006    1.41454E+007   -1.80038E+006    1.22700E+007   -3.64906E+006   -8.65807E+005    9.91602E+006    1.07325E+004   -1.59796E+006    1.49423E+006
            3685    1.25849E+007    1.04766E+007    1.04766E+007   -1.04876E+006   -2.95126E+006    1.34278E+007   -2.15885E+006    1.22551E+007   -2.77876E+006   -9.13143E+005    1.01685E+007    9.90207E+004   -1.36044E+006    1.39543E+006
            3686    1.19407E+007    1.03297E+007    1.03297E+007   -6.83625E+005   -2.36103E+006    1.26907E+007   -2.42834E+006    1.16712E+007   -2.19523E+006   -5.79069E+005    1.00593E+007    1.91126E+005   -1.13900E+006    1.36603E+006
            3687    1.11418E+007    9.95728E+006    9.95728E+006   -3.80778E+005   -1.84370E+006    1.18010E+007   -2.57760E+006    1.09226E+007   -1.66459E+006   -3.66867E+005    9.76426E+006    2.95596E+005   -9.03871E+005    1.14821E+006
            3688    1.06227E+007    9.80876E+006    9.80876E+006   -5.94710E+004   -1.43449E+006    1.12432E+007   -2.77160E+006    1.04197E+007   -1.25846E+006   -1.35602E+005    9.70886E+006    3.75013E+005   -6.07054E+005    8.33883E+005
            3689    1.03389E+007    9.73676E+006    9.73676E+006    1.01973E+005   -1.18564E+006    1.09224E+007   -2.88437E+006    1.01562E+007   -1.00130E+006   -4.45748E+004    9.69897E+006    4.20011E+005   -3.77549E+005    5.04057E+005
            3690    1.02145E+007    9.73210E+006    9.73210E+006    2.03474E+005   -1.05212E+006    1.07842E+007   -2.96115E+006    1.00386E+007   -8.66454E+005    2.17941E+004    9.72811E+006    4.42878E+005   -1.10094E+005    1.70700E+005
            3691    9.55098E+006    9.00288E+006    9.00288E+006    5.74889E+005   -1.37131E+006    1.03742E+007   -2.73549E+006    9.08864E+006   -1.30880E+006    5.15719E+005    8.99954E+006    3.36172E+005   -1.45272E+005    1.09369E+005
            3692    9.64041E+006    8.97295E+006    8.97295E+006    5.43141E+005   -1.53808E+006    1.05110E+007   -2.65934E+006    9.11416E+006   -1.46867E+006    5.05599E+005    8.94108E+006    3.11700E+005   -4.21211E+005    3.67314E+005
            3693    9.92335E+006    8.97961E+006    8.97961E+006    3.49807E+005   -1.86353E+006    1.08431E+007   -2.48863E+006    9.34346E+006   -1.78113E+006    3.59844E+005    8.88718E+006    2.54971E+005   -6.71166E+005    6.75887E+005
            3694    1.04594E+007    9.12316E+006    9.12316E+006    4.50758E+004   -2.31446E+006    1.14376E+007   -2.28459E+006    9.83347E+006   -2.21573E+006    1.34902E+005    8.93460E+006    1.62529E+005   -9.06511E+005    1.03433E+006
            3695    1.13437E+007    9.50625E+006    9.50625E+006   -4.52596E+005   -2.84175E+006    1.23480E+007   -2.07064E+006    1.07556E+007   -2.73118E+006   -2.63932E+005    9.20701E+006    3.22892E+004   -1.09741E+006    1.40364E+006
            3696    1.25903E+007    1.03692E+007    1.03692E+007   -7.09318E+005   -3.32266E+006    1.36919E+007   -2.11241E+006    1.19570E+007   -3.19230E+006   -4.40794E+005    9.97034E+006   -9.72741E+004   -1.30686E+006    1.70828E+006
            3697    1.41443E+007    1.14067E+007    1.14067E+007   -1.33973E+006   -3.80998E+006    1.52167E+007   -2.08566E+006    1.36462E+007   -3.68243E+006   -1.16054E+006    1.10999E+007   -1.32689E+005   -1.37902E+006    1.49485E+006
            3698    9.98799E+006    9.48691E+006    9.48691E+006    2.94836E+005   -1.14147E+006    1.06284E+007   -2.88009E+006    9.75158E+006   -9.82571E+005    1.40021E+005    9.48283E+006   -4.47069E+005   -1.18865E+005   -1.64842E+005
            3699    1.06085E+007    1.01645E+007    1.01645E+007    3.10881E+004   -8.62546E+005    1.10271E+007   -3.11102E+006    1.05233E+007   -6.40658E+005   -1.86781E+005    1.01605E+007   -3.84073E+005   -9.32185E+004   -1.85594E+005
            3700    1.13758E+007    1.08628E+007    1.08628E+007   -1.62493E+005   -8.33886E+005    1.16966E+007   -3.28879E+006    1.13311E+007   -4.32650E+005   -5.60229E+005    1.08593E+007   -3.28091E+005   -7.96892E+004   -1.85426E+005
            3701    1.21264E+007    1.15415E+007    1.15415E+007   -1.80011E+005   -9.52843E+005    1.24944E+007   -3.46956E+006    1.20708E+007   -2.43315E+005   -8.86898E+005    1.15389E+007   -2.11563E+005   -6.36587E+004   -1.70086E+005
            3702    1.27766E+007    1.21033E+007    1.21033E+007   -1.56972E+005   -1.13352E+006    1.32369E+007   -3.60428E+006    1.26922E+007   -1.76950E+005   -1.11195E+006    1.21018E+007   -1.38390E+005   -5.04012E+004   -1.35624E+005
            3703    1.32709E+007    1.25170E+007    1.25170E+007   -1.01786E+005   -1.32172E+006    1.38388E+007   -3.69785E+006    1.31439E+007   -1.06910E+005   -1.31590E+006    1.25164E+007   -7.95905E+004   -4.02165E+004   -8.90575E+004
            3704    1.35429E+007    1.27507E+007    1.27507E+007   -9.13027E+004   -1.39842E+006    1.41491E+007   -3.75364E+006    1.33999E+007   -9.18273E+004   -1.39771E+006    1.27505E+007   -2.84538E+004   -3.57445E+004   -3.58435E+004
            3705    1.35722E+007    1.27716E+007    1.27716E+007   -7.37158E+004   -1.42631E+006    1.41979E+007   -3.75719E+006    1.34193E+007   -7.37695E+004   -1.42611E+006    1.27714E+007    1.41956E+004   -3.52571E+004    2.38784E+004
            3706    1.33286E+007    1.25713E+007    1.25713E+007   -1.10643E+005   -1.32133E+006    1.38926E+007   -3.71311E+006    1.32040E+007   -1.14756E+005   -1.31670E+006    1.25708E+007    7.13825E+004   -4.20369E+004    7.29740E+004
            3707    1.01244E+007    9.49369E+006    9.49369E+006    1.91800E+005   -1.28993E+006    1.07836E+007   -2.79852E+006    9.87604E+006   -1.12970E+006    7.18033E+004    9.45345E+006   -4.21696E+005   -4.05004E+005   -4.99020E+005
            3708    1.07702E+007    1.02101E+007    1.02101E+007   -8.17653E+004   -9.81947E+005    1.11921E+007   -3.04881E+006    1.06851E+007   -7.59017E+005   -2.64654E+005    1.01701E+007   -3.62570E+005   -3.77354E+005   -5.44567E+005
            3709    1.15193E+007    1.09088E+007    1.09088E+007   -2.54400E+005   -9.36259E+005    1.18450E+007   -3.23937E+006    1.14737E+007   -5.27646E+005   -6.25528E+005    1.08713E+007   -3.19070E+005   -3.64906E+005   -5.55924E+005
            3710    1.22370E+007    1.15717E+007    1.15717E+007   -2.52359E+005   -1.04028E+006    1.26119E+007   -3.42634E+006    1.21798E+007   -3.10231E+005   -9.53302E+005    1.15425E+007   -2.06416E+005   -3.35835E+005   -5.01446E+005
            3711    1.28634E+007    1.21309E+007    1.21309E+007   -2.05497E+005   -1.20158E+006    1.33325E+007   -3.57460E+006    1.27762E+007   -2.18229E+005   -1.16854E+006    1.21106E+007   -1.33661E+005   -3.24862E+005   -3.99032E+005
            3712    1.33342E+007    1.25320E+007    1.25320E+007   -1.32855E+005   -1.38340E+006    1.39154E+007   -3.67192E+006    1.32013E+007   -1.30743E+005   -1.37316E+006    1.25197E+007   -7.61869E+004   -3.09710E+005   -2.59635E+005
            3713    1.35838E+007    1.27565E+007    1.27565E+007   -1.11108E+005   -1.44509E+006    1.42015E+007   -3.73342E+006    1.34352E+007   -1.04514E+005   -1.44399E+006    1.27488E+007   -2.43346E+004   -3.02581E+005   -9.06604E+004
            3714    1.36060E+007    1.27687E+007    1.27687E+007   -9.60051E+004   -1.47375E+006    1.42424E+007   -3.73298E+006    1.34477E+007   -8.96374E+004   -1.47298E+006    1.27615E+007    1.84719E+004   -2.92804E+005    8.19515E+004
            3715    1.33474E+007    1.25535E+007    1.25535E+007   -1.43954E+005   -1.36062E+006    1.39141E+007   -3.68297E+006    1.32218E+007   -1.42651E+005   -1.35064E+006    1.25422E+007    7.54669E+004   -2.92796E+005    2.52727E+005
            3716    1.04767E+007    9.58630E+006    9.58630E+006   -3.11284E+004   -1.57766E+006    1.11640E+007   -2.65917E+006    1.02151E+007   -1.41625E+006   -8.52513E+004    9.47901E+006   -3.70881E+005   -6.47513E+005   -8.39247E+005
            3717    1.11372E+007    1.03541E+007    1.03541E+007   -2.85804E+005   -1.22133E+006    1.15754E+007   -2.94899E+006    1.10483E+007   -1.01701E+006   -3.88738E+005    1.02527E+007   -3.18442E+005   -5.93369E+005   -8.86074E+005
            3718    1.18994E+007    1.10732E+007    1.10732E+007   -4.78511E+005   -1.14581E+006    1.22190E+007   -3.14963E+006    1.18572E+007   -7.92463E+005   -7.41741E+005    1.09831E+007   -2.92334E+005   -5.75607E+005   -8.71143E+005
            3719    1.26195E+007    1.17589E+007    1.17589E+007   -5.03695E+005   -1.18947E+006    1.29484E+007   -3.35524E+006    1.25774E+007   -5.65657E+005   -1.05624E+006    1.16876E+007   -1.92472E+005   -5.36150E+005   -7.92081E+005
            3720    1.32577E+007    1.23357E+007    1.23357E+007   -4.76854E+005   -1.32625E+006    1.36619E+007   -3.51086E+006    1.31962E+007   -4.82596E+005   -1.27186E+006    1.22870E+007   -1.22331E+005   -5.12376E+005   -6.23889E+005
            3721    1.37366E+007    1.27548E+007    1.27548E+007   -4.13414E+005   -1.48712E+006    1.42419E+007   -3.61810E+006    1.36417E+007   -4.01941E+005   -1.46904E+006    1.27253E+007   -7.02660E+004   -4.90178E+005   -4.03373E+005
            3722    1.39745E+007    1.29718E+007    1.29718E+007   -3.93000E+005   -1.54143E+006    1.45133E+007   -3.67913E+006    1.38677E+007   -3.76456E+005   -1.53963E+006    1.29535E+007   -2.20945E+004   -4.78708E+005   -1.31279E+005
            3723    1.39523E+007    1.29531E+007    1.29531E+007   -3.70374E+005   -1.55272E+006    1.45058E+007   -3.67666E+006    1.38389E+007   -3.54443E+005   -1.55078E+006    1.29352E+007    1.87078E+004   -4.67302E+005    1.46667E+005
            3724    1.36641E+007    1.27104E+007    1.27104E+007   -4.01796E+005   -1.44556E+006    1.41560E+007   -3.62103E+006    1.35739E+007   -3.92137E+005   -1.42647E+006    1.26817E+007    7.18791E+004   -4.70254E+005    4.12177E+005
            3725    1.10557E+007    9.77639E+006    9.77639E+006   -3.54934E+005   -2.01569E+006    1.17921E+007   -2.46859E+006    1.07696E+007   -1.84942E+006   -3.14562E+005    9.56975E+006   -2.78155E+005   -9.51666E+005   -1.16218E+006
            3726    1.16420E+007    1.05140E+007    1.05140E+007   -5.83688E+005   -1.60503E+006    1.21190E+007   -2.77510E+006    1.15406E+007   -1.40505E+006   -5.88663E+005    1.03190E+007   -2.44638E+005   -9.36193E+005   -1.18029E+006
            3727    1.23141E+007    1.12074E+007    1.12074E+007   -7.35577E+005   -1.44709E+006    1.26544E+007   -3.00823E+006    1.22677E+007   -1.12481E+006   -8.76290E+005    1.10258E+007   -2.51307E+005   -9.49603E+005   -1.16386E+006
            3728    1.29557E+007    1.18598E+007    1.18598E+007   -7.63537E+005   -1.40446E+006    1.32642E+007   -3.23059E+006    1.29199E+007   -8.20109E+005   -1.19736E+006    1.17092E+007   -1.76790E+005   -9.15841E+005   -1.06229E+006
            3729    1.35257E+007    1.24318E+007    1.24318E+007   -6.74969E+005   -1.47708E+006    1.39089E+007   -3.42659E+006    1.34720E+007   -6.50590E+005   -1.39066E+006    1.23210E+007   -1.10323E+005   -8.90300E+005   -8.40582E+005
            3730    1.39433E+007    1.28268E+007    1.28268E+007   -5.59628E+005   -1.61346E+006    1.44403E+007   -3.55124E+006    1.38532E+007   -5.13778E+005   -1.58585E+006    1.27533E+007   -6.42275E+004   -8.55545E+005   -5.21841E+005
            3731    1.41413E+007    1.30343E+007    1.30343E+007   -5.03705E+005   -1.64149E+006    1.46758E+007   -3.62970E+006    1.40377E+007   -4.52554E+005   -1.63960E+006    1.29813E+007   -1.53180E+004   -8.34693E+005   -1.43377E+005
            3732    1.41035E+007    1.29916E+007    1.29916E+007   -4.89807E+005   -1.66097E+006    1.46526E+007   -3.61361E+006    1.39935E+007   -4.41842E+005   -1.65496E+006    1.29376E+007    2.46375E+004   -8.14176E+005    2.61884E+005
            3733    1.37921E+007    1.27158E+007    1.27158E+007   -5.49395E+005   -1.54888E+006    1.42647E+007   -3.53918E+006    1.37103E+007   -5.12440E+005   -1.50896E+006    1.26390E+007    7.71250E+004   -8.15574E+005    6.19707E+005
            3734    1.18911E+007    1.01330E+007    1.01330E+007   -7.33651E+005   -2.56917E+006    1.27021E+007   -2.27671E+006    1.15659E+007   -2.40909E+006   -6.05735E+005    9.84496E+006   -1.69926E+005   -1.16640E+006   -1.40413E+006
            3735    1.24761E+007    1.08838E+007    1.08838E+007   -8.78236E+005   -2.20086E+006    1.30847E+007   -2.60157E+006    1.23168E+007   -2.03865E+006   -7.69409E+005    1.06128E+007   -1.33389E+005   -1.18062E+006   -1.39105E+006
            3736    1.32169E+007    1.15993E+007    1.15993E+007   -1.07557E+006   -2.10012E+006    1.36994E+007   -2.80786E+006    1.31271E+007   -1.88752E+006   -1.02633E+006    1.13374E+007   -1.61297E+005   -1.28749E+006   -1.33967E+006
            3737    1.39370E+007    1.23143E+007    1.23143E+007   -1.30926E+006   -1.91625E+006    1.42305E+007   -3.02959E+006    1.39072E+007   -1.65261E+006   -1.33026E+006    1.20716E+007   -1.29543E+005   -1.36151E+006   -1.23724E+006
            3738    1.45700E+007    1.29291E+007    1.29291E+007   -1.46069E+006   -1.81471E+006    1.47438E+007   -3.21790E+006    1.45603E+007   -1.52483E+006   -1.54649E+006    1.27250E+007   -8.00550E+004   -1.42197E+006   -9.71730E+005
            3739    1.50268E+007    1.33643E+007    1.33643E+007   -1.51194E+006   -1.80863E+006    1.51729E+007   -3.34791E+006    1.50202E+007   -1.41298E+006   -1.74116E+006    1.31979E+007   -4.76558E+004   -1.45476E+006   -5.96923E+005
            3740    1.51921E+007    1.35443E+007    1.35443E+007   -1.48809E+006   -1.80267E+006    1.53469E+007   -3.41784E+006    1.51848E+007   -1.34636E+006   -1.80069E+006    1.34006E+007   -5.89259E+003   -1.45789E+006   -1.22845E+005
            3741    1.50837E+007    1.34560E+007    1.34560E+007   -1.44213E+006   -1.80665E+006    1.52626E+007   -3.40240E+006    1.50737E+007   -1.31590E+006   -1.78782E+006    1.33109E+007    2.98884E+004   -1.42448E+006    3.45576E+005
            3742    1.46940E+007    1.31022E+007    1.31022E+007   -1.40991E+006   -1.76724E+006    1.48695E+007   -3.30836E+006    1.46843E+007   -1.35446E+006   -1.65107E+006    1.29306E+007    7.20142E+004   -1.37431E+006    7.84316E+005
            3743    1.26858E+007    1.04586E+007    1.04586E+007   -1.00326E+006   -3.17170E+006    1.36303E+007   -2.09454E+006    1.22584E+007   -3.00165E+006   -8.08890E+005    1.00942E+007   -4.27667E+004   -1.41028E+006   -1.56690E+006
            3744    1.31001E+007    1.10553E+007    1.10553E+007   -1.17874E+006   -2.76620E+006    1.38215E+007   -2.37011E+006    1.28810E+007   -2.60617E+006   -9.88357E+005    1.07049E+007   -2.16706E+003   -1.38671E+006   -1.58922E+006
            3745    1.38866E+007    1.18687E+007    1.18687E+007   -1.27064E+006   -2.66051E+006    1.45292E+007   -2.64586E+006    1.37288E+007   -2.49199E+006   -1.10179E+006    1.15314E+007   -5.72823E+003   -1.45156E+006   -1.57313E+006
            3746    1.47926E+007    1.27482E+007    1.27482E+007   -1.51587E+006   -2.52156E+006    1.52698E+007   -2.90359E+006    1.47154E+007   -2.33767E+006   -1.39340E+006    1.24418E+007   -1.06557E+004   -1.53690E+006   -1.45654E+006
            3747    1.55983E+007    1.35593E+007    1.35593E+007   -1.63864E+006   -2.41075E+006    1.59701E+007   -3.16997E+006    1.55553E+007   -2.23159E+006   -1.56872E+006    1.33102E+007    1.24874E+004   -1.61113E+006   -1.13069E+006
            3748    1.61320E+007    1.40921E+007    1.40921E+007   -1.73064E+006   -2.33236E+006    1.64245E+007   -3.34304E+006    1.61067E+007   -2.15499E+006   -1.71118E+006    1.38953E+007    1.78156E+003   -1.66250E+006   -6.49523E+005
            3749    1.63345E+007    1.43247E+007    1.43247E+007   -1.74554E+006   -2.26194E+006    1.65866E+007   -3.43906E+006    1.63161E+007   -2.09002E+006   -1.74508E+006    1.41523E+007    2.57815E+002   -1.67880E+006   -1.04134E+005
            3750    1.61771E+007    1.41645E+007    1.41645E+007   -1.76046E+006   -2.25345E+006    1.64180E+007   -3.38354E+006    1.61602E+007   -2.08089E+006   -1.74975E+006    1.39813E+007   -7.12051E+003   -1.65653E+006    4.77073E+005
            3751    1.56636E+007    1.36890E+007    1.36890E+007   -1.66794E+006   -2.26409E+006    1.59531E+007   -3.25233E+006    1.56380E+007   -2.08667E+006   -1.62273E+006    1.34664E+007   -2.93952E+003   -1.59550E+006    9.68298E+005
            3752    1.36162E+007    1.07977E+007    1.07977E+007   -1.21927E+006   -3.99113E+006    1.47888E+007   -1.86243E+006    1.29584E+007   -3.81771E+006   -1.03838E+006    1.04434E+007    5.84341E+004   -1.56512E+006   -1.48032E+006
            3753    1.40062E+007    1.12093E+007    1.12093E+007   -1.33380E+006   -3.90397E+006    1.51133E+007   -1.99051E+006    1.34602E+007   -3.69854E+006   -1.11075E+006    1.07808E+007    6.40399E+004   -1.70826E+006   -1.68595E+006
            3754    1.49576E+007    1.20315E+007    1.20315E+007   -1.58092E+006   -3.98098E+006    1.60125E+007   -2.15655E+006    1.45149E+007   -3.76028E+006   -1.36270E+006    1.15926E+007    8.45964E+004   -1.82920E+006   -1.73399E+006
            3755    1.60444E+007    1.30612E+007    1.30612E+007   -1.70090E+006   -4.01433E+006    1.70756E+007   -2.44867E+006    1.56626E+007   -3.78210E+006   -1.53177E+006    1.26599E+007    9.39957E+004   -1.95240E+006   -1.58732E+006
            3756    1.70225E+007    1.40315E+007    1.40315E+007   -1.68925E+006   -4.04689E+006    1.80784E+007   -2.76513E+006    1.66492E+007   -3.80298E+006   -1.59083E+006    1.36892E+007    9.06330E+004   -2.07444E+006   -1.24578E+006
            3757    1.77506E+007    1.47373E+007    1.47373E+007   -1.71561E+006   -4.07485E+006    1.88122E+007   -2.98229E+006    1.73926E+007   -3.82433E+006   -1.68399E+006    1.44552E+007    5.24062E+004   -2.15277E+006   -7.24230E+005
            3758    1.79957E+007    1.49935E+007    1.49935E+007   -1.72200E+006   -4.05491E+006    1.90484E+007   -3.07219E+006    1.76507E+007   -3.80241E+006   -1.72186E+006    1.47408E+007    4.03998E+003   -2.17854E+006   -4.94037E+004
            3759    1.77615E+007    1.47822E+007    1.47822E+007   -1.72499E+006   -4.01214E+006    1.87943E+007   -3.01502E+006    1.74256E+007   -3.76136E+006   -1.70219E+006    1.45086E+007   -4.37201E+004   -2.15364E+006    6.16662E+005
            3760    1.70052E+007    1.40752E+007    1.40752E+007   -1.71531E+006   -3.92809E+006    1.80033E+007   -2.81058E+006    1.66767E+007   -3.68413E+006   -1.62961E+006    1.37455E+007   -7.73531E+004   -2.06965E+006    1.16974E+006
            3761    1.88655E+007    1.52893E+007    1.52893E+007   -1.11603E+006   -5.32536E+006    2.06147E+007   -2.94930E+006    1.77623E+007   -5.18949E+006   -1.01751E+006    1.50549E+007   -2.60275E+005   -1.62774E+006    1.28774E+006
            3762    1.99790E+007    1.63814E+007    1.63814E+007   -9.80596E+005   -5.45558E+006    2.18370E+007   -3.31508E+006    1.88011E+007   -5.33224E+006   -9.49278E+005    1.62268E+007   -1.43642E+005   -1.62392E+006    7.47860E+005
            3763    2.04518E+007    1.68672E+007    1.68672E+007   -9.21970E+005   -5.47866E+006    2.23459E+007   -3.48886E+006    1.92594E+007   -5.36023E+006   -9.21962E+005    1.67488E+007   -2.64853E+003   -1.62242E+006   -1.43480E+004
            3764    1.99978E+007    1.63846E+007    1.63846E+007   -9.84006E+005   -5.47769E+006    2.18623E+007   -3.30765E+006    1.88108E+007   -5.35575E+006   -9.50329E+005    1.62290E+007    1.43296E+005   -1.61599E+006   -7.73745E+005
            3765    1.88940E+007    1.52805E+007    1.52805E+007   -1.13339E+006   -5.37320E+006    2.06537E+007   -2.92463E+006    1.77758E+007   -5.23993E+006   -1.03126E+006    1.50451E+007    2.58610E+005   -1.61422E+006   -1.30936E+006
            3766    1.74328E+007    1.38627E+007    1.38627E+007   -1.28802E+006   -5.19052E+006    1.90533E+007   -2.46140E+006    1.64062E+007   -5.04739E+006   -1.13247E+006    1.35640E+007    3.28776E+005   -1.58035E+006   -1.55286E+006
            3767    1.59571E+007    1.24396E+007    1.24396E+007   -1.50984E+006   -4.96059E+006    1.74002E+007   -1.98972E+006    1.50830E+007   -4.81636E+006   -1.34097E+006    1.21265E+007    3.41626E+005   -1.50274E+006   -1.55455E+006
            3768    1.49633E+007    1.15597E+007    1.15597E+007   -1.63983E+006   -4.69556E+006    1.62552E+007   -1.74144E+006    1.42356E+007   -4.56047E+006   -1.48415E+006    1.12689E+007    2.98349E+005   -1.41662E+006   -1.44619E+006
            3769    1.44502E+007    1.14939E+007    1.14939E+007   -1.20957E+006   -4.22665E+006    1.57206E+007   -2.01924E+006    1.37145E+007   -4.09199E+006   -9.97666E+005    1.11474E+007    3.11526E+005   -1.39146E+006   -1.63832E+006
            3770    9.49224E+006    8.94020E+006    8.94020E+006    6.08789E+005   -1.39342E+006    1.03336E+007   -2.71852E+006    8.99854E+006   -1.33641E+006    5.55207E+005    8.93677E+006   -3.25559E+005   -1.45873E+005   -1.11296E+005
            3771    9.60905E+006    8.92315E+006    8.92315E+006    5.49895E+005   -1.56825E+006    1.04914E+007   -2.63493E+006    9.06118E+006   -1.50334E+006    5.16354E+005    8.89179E+006   -2.99941E+005   -4.24325E+005   -3.56298E+005
            3772    9.91108E+006    8.93218E+006    8.93218E+006    3.48349E+005   -1.91472E+006    1.08469E+007   -2.45527E+006    9.30273E+006   -1.83442E+006    3.61953E+005    8.83828E+006   -2.41110E+005   -6.89621E+005   -6.68101E+005
            3773    1.04884E+007    9.07522E+006    9.07522E+006   -2.24472E+004   -2.39682E+006    1.14720E+007   -2.21865E+006    9.85612E+006   -2.30138E+006    6.35684E+004    8.89377E+006   -1.38602E+005   -9.20962E+005   -9.92625E+005
            3774    1.13008E+007    9.42301E+006    9.42301E+006   -4.06159E+005   -2.92449E+006    1.23475E+007   -2.03079E+006    1.06416E+007   -2.81408E+006   -2.36473E+005    9.14291E+006   -7.37500E+003   -1.11961E+006   -1.31068E+006
            3775    1.23137E+007    9.99341E+006    9.99341E+006   -7.27937E+005   -3.45534E+006    1.34487E+007   -1.93671E+006    1.16045E+007   -3.33196E+006   -5.04972E+005    9.64707E+006    1.37440E+005   -1.27122E+006   -1.52394E+006
            3776    1.34105E+007    1.08209E+007    1.08209E+007   -8.57332E+005   -3.82480E+006    1.46457E+007   -2.04626E+006    1.26398E+007   -3.69566E+006   -5.87072E+005    1.04215E+007    2.83377E+005   -1.33128E+006   -1.75223E+006
            3777    1.04084E+007    1.01224E+007    1.01224E+007    3.03856E+005   -7.89504E+005    1.09119E+007   -3.21226E+006    1.02780E+007   -5.66934E+005    8.56032E+004    1.01181E+007    4.37531E+005    1.12873E+005   -1.81580E+005
            3778    1.14026E+007    1.10887E+007    1.10887E+007    4.39176E+004   -6.40828E+005    1.17295E+007   -3.49726E+006    1.13562E+007   -1.99954E+005   -3.92857E+005    1.10846E+007    3.26511E+005    9.79706E+004   -1.95887E+005
            3779    1.23615E+007    1.19996E+007    1.19996E+007    3.13941E+004   -7.20799E+005    1.27204E+007   -3.77007E+006    1.23099E+007    6.14457E+003   -6.92668E+005    1.19967E+007    1.35799E+005    8.35841E+004   -1.71749E+005
            3780    1.31803E+007    1.26954E+007    1.26954E+007    2.75347E+004   -9.43615E+005    1.36390E+007   -3.92644E+006    1.30994E+007    2.08764E+004   -9.34989E+005    1.26934E+007    8.26478E+004    8.63847E+004   -1.37653E+005
            3781    1.04892E+007    1.01077E+007    1.01077E+007    2.23391E+005   -8.96454E+005    1.10042E+007   -3.14488E+006    1.03534E+007   -6.77956E+005    3.96742E+004    1.00729E+007    4.23603E+005    2.95232E+005   -5.29637E+005
            3782    1.14560E+007    1.10768E+007    1.10768E+007   -1.23802E+004   -7.13873E+005    1.17907E+007   -3.45018E+006    1.14076E+007   -2.75954E+005   -4.19332E+005    1.10458E+007    3.30666E+005    2.11798E+005   -5.63225E+005
            3783    1.24059E+007    1.19904E+007    1.19904E+007   -1.65347E+004   -7.79175E+005    1.27696E+007   -3.73157E+006    1.23530E+007   -4.30261E+004   -7.30894E+005    1.19686E+007    1.37868E+005    1.36136E+005   -5.09065E+005
            3784    1.32379E+007    1.27160E+007    1.27160E+007   -1.43035E+004   -9.76941E+005    1.36930E+007   -3.90826E+006    1.31588E+007   -2.06531E+004   -9.58837E+005    1.27043E+007    7.96204E+004    1.00960E+005   -3.87650E+005
            3785    1.06688E+007    1.00893E+007    1.00893E+007    7.51685E+004   -1.13156E+006    1.12208E+007   -3.01096E+006    1.05136E+007   -9.23610E+005   -3.16688E+004    9.98817E+006    3.85400E+005    5.65969E+005   -8.73038E+005
            3786    1.15796E+007    1.10164E+007    1.10164E+007   -1.63420E+005   -9.25397E+005    1.19418E+007   -3.30919E+006    1.15230E+007   -4.76878E+005   -5.19504E+005    1.09240E+007    3.40307E+005    4.85433E+005   -9.24915E+005
            3787    1.24408E+007    1.19095E+007    1.19095E+007   -1.23775E+005   -9.02189E+005    1.28117E+007   -3.62786E+006    1.23858E+007   -1.54695E+005   -8.04369E+005    1.18426E+007    1.52117E+005    3.87124E+005   -8.37057E+005
            3788    1.32288E+007    1.26203E+007    1.26203E+007   -8.72403E+004   -1.07444E+006    1.36947E+007   -3.81953E+006    1.31455E+007   -8.89160E+004   -1.02958E+006    1.25771E+007    8.75524E+004    3.54302E+005   -6.76661E+005
            3789    1.10873E+007    1.01743E+007    1.01743E+007   -2.04561E+005   -1.50648E+006    1.16807E+007   -2.82107E+006    1.09133E+007   -1.30365E+006   -2.22240E+005    9.98910E+006    3.28190E+005    8.13449E+005   -1.17408E+006
            3790    1.18538E+007    1.10534E+007    1.10534E+007   -3.67881E+005   -1.19022E+006    1.22436E+007   -3.16509E+006    1.17894E+007   -7.98530E+005   -5.96873E+005    1.08907E+007    3.35641E+005    7.18999E+005   -1.19770E+006
            3791    1.26377E+007    1.18917E+007    1.18917E+007   -3.85230E+005   -1.07833E+006    1.29700E+007   -3.47604E+006    1.25949E+007   -4.34645E+005   -9.02625E+005    1.17654E+007    1.65032E+005    5.78877E+005   -1.13372E+006
            3792    1.34682E+007    1.26763E+007    1.26763E+007   -3.54662E+005   -1.19026E+006    1.38665E+007   -3.71045E+006    1.34097E+007   -3.50627E+005   -1.11074E+006    1.25927E+007    7.98390E+004    5.18003E+005   -9.34792E+005
            3793    1.17375E+007    1.03772E+007    1.03772E+007   -4.92343E+005   -2.06887E+006    1.24461E+007   -2.60533E+006    1.14957E+007   -1.87059E+006   -4.05053E+005    1.00916E+007    2.16576E+005    1.19059E+006   -1.37404E+006
            3794    1.21579E+007    1.09345E+007    1.09345E+007   -6.45660E+005   -1.72863E+006    1.26631E+007   -2.85340E+006    1.20486E+007   -1.35043E+006   -7.44504E+005    1.06551E+007    3.29350E+005    1.19253E+006   -1.41369E+006
            3795    1.27772E+007    1.17138E+007    1.17138E+007   -6.93828E+005   -1.40338E+006    1.31172E+007   -3.20555E+006    1.27328E+007   -8.10761E+005   -1.03164E+006    1.14590E+007    2.00995E+005    1.08370E+006   -1.44990E+006
            3796    1.34722E+007    1.24561E+007    1.24561E+007   -5.91384E+005   -1.40405E+006    1.38602E+007   -3.48690E+006    1.34169E+007   -5.67087E+005   -1.23798E+006    1.22658E+007    1.11171E+005    1.02490E+006   -1.23439E+006
            3797    1.25017E+007    1.05571E+007    1.05571E+007   -8.56889E+005   -2.80386E+006    1.33610E+007   -2.29879E+006    1.21536E+007   -2.63609E+006   -7.28601E+005    1.02611E+007    7.83283E+004    1.36894E+006   -1.32652E+006
            3798    1.29664E+007    1.10897E+007    1.10897E+007   -8.95862E+005   -2.67398E+006    1.37636E+007   -2.50661E+006    1.26877E+007   -2.41254E+006   -7.94425E+005    1.07268E+007    2.02526E+005    1.54647E+006   -1.50876E+006
            3799    1.37834E+007    1.19300E+007    1.19300E+007   -1.24691E+006   -2.38889E+006    1.43189E+007   -2.76473E+006    1.36764E+007   -2.05066E+006   -1.20503E+006    1.15499E+007    1.83738E+005    1.67880E+006   -1.55318E+006
            3800    1.45328E+007    1.26912E+007    1.26912E+007   -1.42649E+006   -2.22379E+006    1.49150E+007   -3.01365E+006    1.44835E+007   -1.88771E+006   -1.41068E+006    1.23393E+007    1.09756E+005    1.80217E+006   -1.36290E+006
            3801    1.26357E+007    1.02915E+007    1.02915E+007   -9.66728E+005   -3.37507E+006    1.36665E+007   -1.98323E+006    1.21031E+007   -3.21579E+006   -7.20774E+005    9.88624E+006   -1.06561E+005    1.44335E+006   -1.65110E+006
            3802    1.37377E+007    1.12487E+007    1.12487E+007   -1.36843E+006   -3.38630E+006    1.46350E+007   -2.16467E+006    1.33982E+007   -3.20686E+006   -1.16124E+006    1.08621E+007   -4.90320E+004    1.56121E+006   -1.63958E+006
            3803    1.46573E+007    1.21239E+007    1.21239E+007   -1.45663E+006   -3.41352E+006    1.55374E+007   -2.41791E+006    1.43589E+007   -3.20161E+006   -1.27034E+006    1.17257E+007   -5.24512E+004    1.75139E+006   -1.62268E+006
            3804    1.58253E+007    1.32664E+007    1.32664E+007   -1.46621E+006   -3.46217E+006    1.67286E+007   -2.77935E+006    1.55384E+007   -3.22269E+006   -1.32790E+006    1.28887E+007   -8.36851E+004    1.96236E+006   -1.44098E+006
            3805    1.69318E+007    1.28002E+007    1.28002E+007   -1.57236E+006   -5.86468E+006    1.86649E+007   -1.78772E+006    1.56359E+007   -5.60957E+006   -1.38436E+006    1.23571E+007   -3.22585E+005    2.13900E+006   -1.62353E+006
            3806    1.54062E+007    1.15181E+007    1.15181E+007   -1.67636E+006   -5.41265E+006    1.69308E+007   -1.47637E+006    1.43327E+007   -5.16928E+006   -1.46612E+006    1.10645E+007   -2.93869E+005    1.99251E+006   -1.63810E+006
            3807    1.39633E+007    1.02133E+007    1.02133E+007   -1.83973E+006   -5.08777E+006    1.53011E+007   -1.09528E+006    1.30722E+007   -4.86201E+006   -1.64614E+006    9.79398E+006   -2.14798E+005    1.83182E+006   -1.50129E+006
            3808    1.37385E+007    9.96535E+006    9.96535E+006   -2.36160E+006   -4.84577E+006    1.48111E+007   -9.19329E+005    1.32190E+007   -4.62161E+006   -2.23002E+006    9.60962E+006   -3.23814E+004    1.77375E+006   -1.30294E+006
            3809    9.73882E+006    9.20535E+006    9.20535E+006    4.90458E+005   -1.30698E+006    1.05123E+007   -2.79628E+006    9.35465E+006   -1.21221E+006    3.98918E+005    9.20213E+006    3.96698E+005    1.34870E+005   -1.19261E+005
            3810    9.79717E+006    9.14901E+006    9.14901E+006    4.53317E+005   -1.46568E+006    1.06147E+007   -2.71221E+006    9.36021E+006   -1.36449E+006    3.86173E+005    9.11496E+006    3.80059E+005    4.08276E+005   -4.13717E+005
            3811    1.00203E+007    9.09827E+006    9.09827E+006    2.62982E+005   -1.78934E+006    1.08876E+007   -2.52397E+006    9.53010E+006   -1.67618E+006    2.49262E+005    8.99884E+006    3.31713E+005    6.69425E+005   -7.35628E+005
            3812    1.04770E+007    9.16369E+006    9.16369E+006   -4.00552E+004   -2.23784E+006    1.14015E+007   -2.29526E+006    9.93828E+006   -2.10756E+006    3.70071E+004    8.95635E+006    2.41833E+005    9.38084E+005   -1.10602E+006
            3813    1.13407E+007    9.47287E+006    9.47287E+006   -5.65332E+005   -2.82897E+006    1.23018E+007   -2.02619E+006    1.08148E+007   -2.67926E+006   -3.82600E+005    9.14043E+006    1.12814E+005    1.19858E+006   -1.46406E+006
            3814    1.25659E+007    1.02700E+007    1.02700E+007   -9.09760E+005   -3.32997E+006    1.36000E+007   -2.01009E+006    1.20246E+007   -3.15740E+006   -6.31579E+005    9.81925E+006   -3.28795E+004    1.45742E+006   -1.78232E+006
            3815    1.38592E+007    1.08909E+007    1.08909E+007   -1.67121E+006   -3.97621E+006    1.48672E+007   -1.74784E+006    1.34177E+007   -3.75816E+006   -1.46598E+006    1.04677E+007   -1.78979E+004    1.71774E+006   -1.65363E+006
            3816    1.85132E+007    1.41733E+007    1.41733E+007   -1.41973E+006   -6.28738E+006    2.04607E+007   -2.15539E+006    1.69816E+007   -6.03655E+006   -1.30445E+006    1.38072E+007   -2.79265E+005    2.22923E+006   -1.33305E+006
            3817    1.96354E+007    1.51555E+007    1.51555E+007   -1.29901E+006   -6.58045E+006    2.17360E+007   -2.42535E+006    1.79300E+007   -6.33885E+006   -1.26128E+006    1.48762E+007   -1.67630E+005    2.27047E+006   -7.87448E+005
            3818    2.01149E+007    1.55983E+007    1.55983E+007   -1.23162E+006   -6.67940E+006    2.22777E+007   -2.56242E+006    1.83419E+007   -6.44391E+006   -1.23162E+006    1.53628E+007   -2.79175E+003    2.27829E+006   -1.21879E+003
            3819    1.96710E+007    1.51731E+007    1.51731E+007   -1.29121E+006   -6.61057E+006    2.17837E+007   -2.42379E+006    1.79429E+007   -6.37003E+006   -1.25379E+006    1.48952E+007    1.61611E+005    2.26887E+006    7.83438E+005
            3820    1.85226E+007    1.41258E+007    1.41258E+007   -1.43508E+006   -6.36215E+006    2.04880E+007   -2.10953E+006    1.69517E+007   -6.11231E+006   -1.31574E+006    1.37566E+007    2.82048E+005    2.22609E+006    1.35436E+006
            3821    1.70068E+007    1.27956E+007    1.27956E+007   -1.59569E+006   -5.97157E+006    1.87672E+007   -1.74279E+006    1.56634E+007   -5.71630E+006   -1.40717E+006    1.23518E+007    3.29950E+005    2.14401E+006    1.62768E+006
            3822    1.54696E+007    1.14219E+007    1.14219E+007   -1.81101E+006   -5.58567E+006    1.70076E+007   -1.34173E+006    1.43776E+007   -5.33834E+006   -1.59344E+006    1.09570E+007    3.07078E+005    2.01112E+006    1.66866E+006
            3823    1.44422E+007    1.05612E+007    1.05612E+007   -2.03971E+006   -5.19911E+006    1.57603E+007   -1.10747E+006    1.36317E+007   -4.95978E+006   -1.82019E+006    1.01024E+007    2.07546E+005    1.91366E+006    1.63553E+006
            3824    1.42310E+007    1.06933E+007    1.06933E+007   -1.78236E+006   -4.80671E+006    1.55000E+007   -1.36809E+006    1.34792E+007   -4.57593E+006   -1.49937E+006    1.01796E+007    1.44415E+005    1.85015E+006    1.86148E+006
            3825    1.68843E+007    1.42266E+007    1.42266E+007   -1.50478E+006   -3.61272E+006    1.78393E+007   -3.03637E+006    1.65844E+007   -3.35001E+006   -1.42720E+006    1.38863E+007   -7.71636E+004    2.13741E+006   -1.11224E+006
            3826    1.52356E+007    1.33704E+007    1.33704E+007   -1.57816E+006   -2.13692E+006    1.55073E+007   -3.21843E+006    1.52125E+007   -1.80429E+006   -1.60036E+006    1.30599E+007    7.62627E+004    1.93584E+006   -9.84524E+005
            3827    1.40256E+007    1.30131E+007    1.30131E+007   -4.45621E+005   -1.51782E+006    1.45309E+007   -3.68322E+006    1.39329E+007   -3.87740E+005   -1.45045E+006    1.28879E+007    6.28553E+004    9.88169E+005   -8.75073E+005
            3828    1.40895E+007    1.32334E+007    1.32334E+007   -2.94743E+005   -1.35731E+006    1.45907E+007   -3.86046E+006    1.39990E+007   -2.81220E+005   -1.32782E+006    1.31904E+007    3.96101E+004    4.80093E+005   -6.16194E+005
            3829    1.37967E+007    1.31187E+007    1.31187E+007   -2.05765E+002   -1.26836E+006    1.43870E+007   -3.95003E+006    1.36647E+007    5.98420E+003   -1.25289E+006    1.30970E+007    4.51046E+004    3.37327E+005   -4.33105E+005
            3830    1.38063E+007    1.31962E+007    1.31962E+007    3.82143E+004   -1.17793E+006    1.43741E+007   -4.01883E+006    1.36850E+007    3.73881E+004   -1.17259E+006    1.31917E+007    3.68381E+004    6.97931E+004   -2.44128E+005
            3831    1.37299E+007    1.31567E+007    1.31567E+007    8.28092E+004   -1.14660E+006    1.43033E+007   -4.03097E+006    1.36053E+007    8.22293E+004   -1.14490E+006    1.31556E+007    3.84656E+004    9.29766E+004   -8.12718E+004
            3832    1.76628E+007    1.49574E+007    1.49574E+007   -1.48600E+006   -3.71343E+006    1.86709E+007   -3.25267E+006    1.73426E+007   -3.43627E+006   -1.46549E+006    1.46598E+007   -5.19942E+004    2.25595E+006   -5.80705E+005
            3833    1.56734E+007    1.37868E+007    1.37868E+007   -1.69313E+006   -2.07317E+006    1.58600E+007   -3.34016E+006    1.56630E+007   -1.78312E+006   -1.70225E+006    1.35058E+007    2.94865E+004    2.03540E+006   -4.83626E+005
            3834    1.43238E+007    1.33425E+007    1.33425E+007   -3.62898E+005   -1.52846E+006    1.48710E+007   -3.81705E+006    1.42165E+007   -2.93216E+005   -1.51698E+006    1.32613E+007    1.85865E+004    9.87078E+005   -3.81105E+005
            3835    1.44388E+007    1.35514E+007    1.35514E+007   -2.87477E+005   -1.42053E+006    1.49719E+007   -3.94779E+006    1.43382E+007   -2.71305E+005   -1.41648E+006    1.35312E+007    4.17718E+003    4.74745E+005   -2.42384E+005
            3836    1.40469E+007    1.33508E+007    1.33508E+007    2.30784E+004   -1.31891E+006    1.46697E+007   -4.01832E+006    1.39015E+007    3.17395E+004   -1.31716E+006    1.33404E+007    1.12337E+004    3.42962E+005   -1.52494E+005
            3837    1.40732E+007    1.34288E+007    1.34288E+007    3.64910E+004   -1.23853E+006    1.46674E+007   -4.07560E+006    1.39424E+007    3.67225E+004   -1.23814E+006    1.34282E+007    5.11892E+003    5.84022E+004   -7.30103E+004
            3838    1.39671E+007    1.33604E+007    1.33604E+007    8.26458E+004   -1.20661E+006    1.45670E+007   -4.07882E+006    1.38323E+007    8.33841E+004   -1.20651E+006    1.33596E+007    7.15360E+003    1.01794E+005   -2.82892E+004
            3839    1.79468E+007    1.51815E+007    1.51815E+007   -1.50652E+006   -3.80301E+006    1.89845E+007   -3.29065E+006    1.76117E+007   -3.52160E+006   -1.50641E+006    1.49000E+007    1.19427E+003    2.29416E+006    4.41120E+004
            3840    1.58357E+007    1.39125E+007    1.39125E+007   -1.73411E+006   -2.10573E+006    1.60183E+007   -3.35756E+006    1.58259E+007   -1.82894E+006   -1.73398E+006    1.36356E+007   -8.59363E+002    2.08489E+006    1.11650E+005
            3841    1.43878E+007    1.33845E+007    1.33845E+007   -3.74618E+005   -1.55873E+006    1.49432E+007   -3.81705E+006    1.42775E+007   -3.01832E+005   -1.55701E+006    1.33100E+007   -1.06297E+004    1.00059E+006    1.42973E+005
            3842    1.44817E+007    1.35751E+007    1.35751E+007   -3.03121E+005   -1.44278E+006    1.50179E+007   -3.94307E+006    1.43803E+007   -2.87013E+005   -1.44056E+006    1.35568E+007   -1.15306E+004    4.76396E+005    1.71777E+005
            3843    1.40532E+007    1.33407E+007    1.33407E+007    2.04557E+004   -1.34573E+006    1.46864E+007   -4.00514E+006    1.39026E+007    2.92826E+004   -1.34415E+006    1.33303E+007   -1.28205E+004    3.46627E+005    1.42942E+005
            3844    1.40616E+007    1.34084E+007    1.34084E+007    3.39316E+004   -1.25208E+006    1.46604E+007   -4.06340E+006    1.39284E+007    3.39659E+004   -1.25124E+006    1.34075E+007   -1.47714E+004    5.33950E+004    9.86614E+004
            3845    1.39442E+007    1.33313E+007    1.33313E+007    8.37224E+004   -1.21829E+006    1.45496E+007   -4.06558E+006    1.38065E+007    8.43439E+004   -1.21799E+006    1.33304E+007   -1.65321E+004    1.05394E+005    3.47121E+004
            3846    1.76655E+007    1.49171E+007    1.49171E+007   -1.48612E+006   -3.78553E+006    1.87027E+007   -3.21516E+006    1.73241E+007   -3.50959E+006   -1.45709E+006    1.46121E+007    5.68801E+004    2.25180E+006    6.91586E+005
            3847    1.56430E+007    1.37123E+007    1.37123E+007   -1.66875E+006   -2.18010E+006    1.58924E+007   -3.28783E+006    1.56242E+007   -1.87752E+006   -1.67005E+006    1.34110E+007   -3.17639E+004    2.06177E+006    6.67578E+005
            3848    1.41839E+007    1.31794E+007    1.31794E+007   -4.33647E+005   -1.51351E+006    1.46929E+007   -3.74410E+006    1.40910E+007   -3.62063E+005   -1.47577E+006    1.30701E+007   -3.82148E+004    1.03316E+006    6.71402E+005
            3849    1.42087E+007    1.33365E+007    1.33365E+007   -3.21939E+005   -1.36512E+006    1.47016E+007   -3.88314E+006    1.41222E+007   -3.06144E+005   -1.34242E+006    1.32980E+007   -2.97111E+004    4.97410E+005    5.47710E+005
            3850    1.37815E+007    1.31143E+007    1.31143E+007   -2.92397E+003   -1.24714E+006    1.43615E+007   -3.95475E+006    1.36543E+007    5.02370E+003   -1.23267E+006    1.30919E+007   -3.79249E+004    3.60549E+005    4.24570E+005
            3851    1.37715E+007    1.31719E+007    1.31719E+007    2.13094E+004   -1.14616E+006    1.43180E+007   -4.01568E+006    1.36595E+007    2.03315E+004   -1.14018E+006    1.31669E+007   -3.77063E+004    6.54216E+004    2.58856E+005
            3852    1.36517E+007    1.30965E+007    1.30965E+007    7.01375E+004   -1.10465E+006    1.42011E+007   -4.02066E+006    1.35373E+007    6.93938E+004   -1.10253E+006    1.30951E+007   -4.24560E+004    1.04846E+005    8.73772E+004
            3853    1.68841E+007    1.41571E+007    1.41571E+007   -1.48277E+006   -3.74356E+006    1.79006E+007   -2.97691E+006    1.65384E+007   -3.48373E+006   -1.39288E+006    1.38073E+007    8.75083E+004    2.12960E+006    1.18960E+006
            3854    1.51855E+007    1.32215E+007    1.32215E+007   -1.56293E+006   -2.33554E+006    1.55570E+007   -3.10768E+006    1.51412E+007   -1.99774E+006   -1.55422E+006    1.28750E+007   -8.47954E+004    1.98079E+006    1.15593E+006
            3855    1.37588E+007    1.27086E+007    1.27086E+007   -5.77618E+005   -1.47845E+006    1.41871E+007   -3.55086E+006    1.36922E+007   -5.30611E+005   -1.35425E+006    1.25374E+007   -9.99771E+004    1.07721E+006    1.09213E+006
            3856    1.37016E+007    1.28582E+007    1.28582E+007   -3.68522E+005   -1.27351E+006    1.41317E+007   -3.73871E+006    1.36341E+007   -3.61781E+005   -1.20546E+006    1.27834E+007   -7.86057E+004    5.27578E+005    8.72439E+005
            3857    1.33074E+007    1.26729E+007    1.26729E+007   -6.25512E+004   -1.14086E+006    1.38138E+007   -3.82316E+006    1.32086E+007   -6.27623E+004   -1.09853E+006    1.26308E+007   -9.05498E+004    3.75187E+005    6.56731E+005
            3858    1.32678E+007    1.27295E+007    1.27295E+007   -2.31073E+003   -1.01611E+006    1.37456E+007   -3.90371E+006    1.31803E+007   -9.19668E+003   -9.97224E+005    1.27175E+007   -8.40455E+004    8.59608E+004    3.96408E+005
            3859    1.31541E+007    1.26651E+007    1.26651E+007    4.66707E+004   -9.66083E+005    1.36312E+007   -3.91524E+006    1.30660E+007    3.93016E+004   -9.56603E+005    1.26630E+007   -8.95272E+004    1.00488E+005    1.34323E+005
            3860    1.58152E+007    1.31352E+007    1.31352E+007   -1.47528E+006   -3.65799E+006    1.67932E+007   -2.66730E+006    1.54709E+007   -3.42179E+006   -1.31676E+006    1.27405E+007    1.08492E+005    1.95788E+006    1.52291E+006
            3861    1.44522E+007    1.25155E+007    1.25155E+007   -1.36635E+006   -2.44644E+006    1.49620E+007   -2.90092E+006    1.43610E+007   -2.12434E+006   -1.30426E+006    1.21313E+007   -1.08648E+005    1.85499E+006    1.44945E+006
            3862    1.31742E+007    1.21016E+007    1.21016E+007   -7.28605E+005   -1.39156E+006    1.34931E+007   -3.32714E+006    1.31366E+007   -7.55998E+005   -1.12731E+006    1.18647E+007   -1.43098E+005    1.13102E+006    1.36055E+006
            3863    1.30022E+007    1.22145E+007    1.22145E+007   -4.40993E+005   -1.10869E+006    1.33232E+007   -3.55494E+006    1.29636E+007   -4.62004E+005   -9.72298E+005    1.20991E+007   -1.22895E+005    5.82239E+005    1.08671E+006
            3864    1.26544E+007    1.20910E+007    1.20910E+007   -1.51390E+005   -9.38649E+005    1.30297E+007   -3.66700E+006    1.25992E+007   -1.73036E+005   -8.52044E+005    1.20261E+007   -1.35733E+005    4.06169E+005    8.20937E+005
            3865    1.25740E+007    1.21310E+007    1.21310E+007   -5.46704E+004   -7.98396E+005    1.29294E+007   -3.75930E+006    1.25244E+007   -7.97308E+004   -7.53306E+005    1.21110E+007   -1.32508E+005    1.23595E+005    4.93200E+005
            3866    1.24731E+007    1.20865E+007    1.20865E+007   -2.67438E+003   -7.38123E+005    1.28246E+007   -3.78189E+006    1.24242E+007   -2.96237E+004   -7.08280E+005    1.20836E+007   -1.38758E+005    9.65921E+004    1.65931E+005
            3867    1.46869E+007    1.20617E+007    1.20617E+007   -1.40733E+006   -3.59709E+006    1.56588E+007   -2.35244E+006    1.43127E+007   -3.38929E+006   -1.20105E+006    1.16477E+007    8.84590E+004    1.75849E+006    1.67437E+006
            3868    1.36941E+007    1.17443E+007    1.17443E+007   -1.14844E+006   -2.63057E+006    1.43749E+007   -2.65509E+006    1.35119E+007   -2.32259E+006   -1.06517E+006    1.13530E+007   -1.75033E+005    1.72430E+006    1.53928E+006
            3869    1.25822E+007    1.14037E+007    1.14037E+007   -7.67242E+005   -1.55296E+006    1.29566E+007   -3.02782E+006    1.25268E+007   -1.06667E+006   -9.66887E+005    1.11170E+007   -2.52505E+005    1.19780E+006    1.48093E+006
            3870    1.22608E+007    1.14766E+007    1.14766E+007   -4.44343E+005   -1.09788E+006    1.25745E+007   -3.31147E+006    1.22215E+007   -6.01589E+005   -7.86264E+005    1.13223E+007   -2.33175E+005    6.60871E+005    1.21651E+006
            3871    1.19291E+007    1.13865E+007    1.13865E+007   -1.81417E+005   -8.73618E+005    1.22601E+007   -3.44383E+006    1.18838E+007   -2.97634E+005   -6.70385E+005    1.12995E+007   -2.38383E+005    4.54266E+005    9.23532E+005
            3872    1.17901E+007    1.14168E+007    1.14168E+007   -4.27186E+004   -6.78172E+005    1.20950E+007   -3.56531E+006    1.17515E+007   -1.45318E+005   -5.46670E+005    1.13879E+007   -2.28077E+005    1.69271E+005    5.65474E+005
            3873    1.16814E+007    1.13754E+007    1.13754E+007    1.45245E+004   -6.01968E+005    1.19774E+007   -3.59600E+006    1.16447E+007   -9.18349E+004   -4.91801E+005    1.13716E+007   -2.32071E+005    9.73899E+004    1.89997E+005
            3874    1.36395E+007    1.11390E+007    1.11390E+007   -1.13356E+006   -3.54555E+006    1.46846E+007   -2.15331E+006    1.31468E+007   -3.36636E+006   -9.09596E+005    1.07359E+007    1.34498E+005    1.59537E+006    1.64143E+006
            3875    1.30857E+007    1.10859E+007    1.10859E+007   -9.32743E+005   -2.85432E+006    1.39402E+007   -2.43294E+006    1.27624E+007   -2.63014E+006   -8.08314E+005    1.07373E+007   -1.35058E+005    1.54838E+006    1.45302E+006
            3876    1.20813E+007    1.07513E+007    1.07513E+007   -6.42152E+005   -1.91670E+006    1.26680E+007   -2.73082E+006    1.19286E+007   -1.60647E+006   -6.49740E+005    1.04487E+007   -2.99419E+005    1.26423E+006    1.43583E+006
            3877    1.15974E+007    1.07097E+007    1.07097E+007   -3.60418E+005   -1.35137E+006    1.20610E+007   -2.99930E+006    1.15015E+007   -1.02421E+006   -5.06774E+005    1.05289E+007   -3.64362E+005    7.81874E+005    1.22515E+006
            3878    1.12049E+007    1.06111E+007    1.06111E+007   -1.12799E+005   -1.01967E+006    1.16308E+007   -3.15956E+006    1.11219E+007   -6.68146E+005   -3.59810E+005    1.05066E+007   -3.90307E+005    5.52343E+005    9.40415E+005
            3879    1.10098E+007    1.06210E+007    1.06210E+007    5.56172E+004   -7.84955E+005    1.14059E+007   -3.29722E+006    1.09372E+007   -4.38997E+005   -2.55398E+005    1.05860E+007   -4.00181E+005    2.51670E+005    5.72437E+005
            3880    1.08894E+007    1.05885E+007    1.05885E+007    1.35102E+005   -6.89847E+005    1.12784E+007   -3.34460E+006    1.08187E+007   -3.56460E+005   -1.93641E+005    1.05839E+007   -4.02599E+005    1.15220E+005    1.96446E+005
            3881    1.30899E+007    1.05259E+007    1.05259E+007   -1.23622E+006   -3.57629E+006    1.41022E+007   -1.90445E+006    1.26064E+007   -3.40004E+006   -1.01396E+006    1.01274E+007    1.49260E+005    1.55226E+006    1.59635E+006
            3882    1.25123E+007    1.05092E+007    1.05092E+007   -8.40343E+005   -2.90821E+006    1.34174E+007   -2.25354E+006    1.21189E+007   -2.74758E+006   -6.49154E+005    1.01574E+007   -1.74740E+004    1.37783E+006    1.52750E+006
            3883    1.16193E+007    1.01355E+007    1.01355E+007   -5.40387E+005   -2.23995E+006    1.23755E+007   -2.45173E+006    1.13346E+007   -2.06058E+006   -4.27609E+005    9.84338E+006   -1.78500E+005    1.20159E+006    1.37223E+006
            3884    1.09342E+007    9.95175E+006    9.95175E+006   -1.63746E+005   -1.64923E+006    1.16010E+007   -2.71293E+006    1.07036E+007   -1.46700E+006   -1.52910E+005    9.75869E+006   -3.16692E+005    8.52846E+005    1.16647E+006
            3885    1.04929E+007    9.84313E+006    9.84313E+006    1.06475E+005   -1.27008E+006    1.11132E+007   -2.89318E+006    1.02868E+007   -1.08563E+006    2.51944E+004    9.73996E+006   -3.85025E+005    6.03039E+005    8.49060E+005
            3886    1.02512E+007    9.83854E+006    9.83854E+006    3.03384E+005   -1.00336E+006    1.08419E+007   -3.04619E+006    1.00612E+007   -8.16003E+005    1.51605E+005    9.80296E+006   -4.32909E+005    3.23188E+005    5.12373E+005
            3887    1.01643E+007    9.84867E+006    9.84867E+006    3.80268E+005   -8.91739E+005    1.07404E+007   -3.11240E+006    9.98285E+006   -7.02802E+005    1.95340E+005    9.84466E+006   -4.49191E+005    1.20964E+005    1.64110E+005
            3888    9.68343E+006    9.12562E+006    9.12562E+006    5.07378E+005   -1.35304E+006    1.04787E+007   -2.75999E+006    9.26846E+006   -1.26372E+006    4.21709E+005    9.12198E+006   -3.92038E+005    1.40017E+005    1.28830E+005
            3889    9.76947E+006    9.07931E+006    9.07931E+006    4.40551E+005   -1.52270E+006    1.06020E+007   -2.66572E+006    9.31000E+006   -1.42457E+006    3.76493E+005    9.04524E+006   -3.75736E+005    4.19757E+005    4.02717E+005
            3890    1.00117E+007    9.03332E+006    9.03332E+006    2.34848E+005   -1.86003E+006    1.08933E+007   -2.46938E+006    9.49958E+006   -1.74743E+006    2.22839E+005    8.93273E+006   -3.28786E+005    6.84500E+005    7.29913E+005
            3891    1.04901E+007    9.07238E+006    9.07238E+006   -1.38040E+005   -2.34591E+006    1.14183E+007   -2.19614E+006    9.94696E+006   -2.21477E+006   -7.11008E+004    8.87430E+006   -2.41124E+005    9.52186E+005    1.05768E+006
            3892    1.12554E+007    9.30992E+006    9.30992E+006   -5.71797E+005   -2.94177E+006    1.22517E+007   -1.93212E+006    1.06721E+007   -2.79290E+006   -4.08188E+005    8.99743E+006   -1.12530E+005    1.20774E+006    1.37700E+006
            3893    1.22100E+007    9.72024E+006    9.72024E+006   -1.00539E+006   -3.56746E+006    1.32877E+007   -1.71580E+006    1.15818E+007   -3.39866E+006   -7.63392E+005    9.30944E+006    1.89152E+004    1.42931E+006    1.63321E+006
            3894    1.33918E+007    1.03583E+007    1.03583E+007   -1.37115E+006   -4.23305E+006    1.45914E+007   -1.58471E+006    1.26761E+007   -4.02964E+006   -1.05356E+006    9.83734E+006    1.24149E+005    1.67633E+006    1.91332E+006
            3895    1.37502E+007    9.97048E+006    9.97048E+006   -2.37760E+006   -4.84710E+006    1.48176E+007   -9.15261E+005    1.32374E+007   -4.62218E+006   -2.24556E+006    9.61352E+006   -3.07042E+004   -1.77599E+006    1.30780E+006
            3896    1.39269E+007    1.01719E+007    1.01719E+007   -1.86169E+006   -5.08365E+006    1.52555E+007   -1.07551E+006    1.30483E+007   -4.85833E+006   -1.67164E+006    9.75650E+006   -2.07635E+005   -1.82787E+006    1.48679E+006
            3897    1.53651E+007    1.14864E+007    1.14864E+007   -1.68165E+006   -5.39514E+006    1.68815E+007   -1.46987E+006    1.43022E+007   -5.15270E+006   -1.47227E+006    1.10346E+007   -2.91902E+005   -1.98600E+006    1.63312E+006
            3898    1.69106E+007    1.27893E+007    1.27893E+007   -1.56712E+006   -5.85142E+006    1.86407E+007   -1.79025E+006    1.56180E+007   -5.59687E+006   -1.38025E+006    1.23479E+007   -3.21454E+005   -2.13536E+006    1.61785E+006
            3899    1.57933E+007    1.32525E+007    1.32525E+007   -1.46745E+006   -3.43053E+006    1.66831E+007   -2.78485E+006    1.55152E+007   -3.19098E+006   -1.32918E+006    1.28747E+007   -7.95094E+004   -1.95788E+006    1.44307E+006
            3900    1.44838E+007    1.26648E+007    1.26648E+007   -1.41731E+006   -2.18978E+006    1.48545E+007   -3.01923E+006    1.44373E+007   -1.85007E+006   -1.40826E+006    1.23160E+007    1.12504E+005   -1.78477E+006    1.36270E+006
            3901    1.34502E+007    1.24521E+007    1.24521E+007   -5.61720E+005   -1.39560E+006    1.38477E+007   -3.49826E+006    1.33918E+007   -5.39403E+005   -1.23195E+006    1.22661E+007    1.13885E+005   -1.00150E+006    1.22874E+006
            3902    1.34654E+007    1.26788E+007    1.26788E+007   -3.47000E+005   -1.18689E+006    1.38657E+007   -3.71497E+006    1.34063E+007   -3.43311E+005   -1.10948E+006    1.25977E+007    7.94499E+004   -5.06439E+005    9.23193E+005
            3903    1.32187E+007    1.26147E+007    1.26147E+007   -8.36052E+004   -1.06922E+006    1.36839E+007   -3.82062E+006    1.31356E+007   -8.55303E+004   -1.02506E+006    1.25724E+007    8.77880E+004   -3.49173E+005    6.69560E+005
            3904    1.32311E+007    1.27110E+007    1.27110E+007   -1.42062E+004   -9.73738E+005    1.36848E+007   -3.90770E+006    1.31525E+007   -2.05597E+004   -9.55821E+005    1.26995E+007    7.93419E+004   -9.78058E+004    3.85003E+005
            3905    1.31779E+007    1.26938E+007    1.26938E+007    2.77035E+004   -9.42354E+005    1.36361E+007   -3.92637E+006    1.30972E+007    2.10039E+004   -9.33697E+005    1.26918E+007    8.27946E+004   -8.57517E+004    1.37578E+005
            3906    1.46181E+007    1.20993E+007    1.20993E+007   -1.45686E+006   -3.38866E+006    1.54879E+007   -2.41792E+006    1.43267E+007   -3.17705E+006   -1.27043E+006    1.17013E+007   -4.86940E+004   -1.74435E+006    1.62496E+006
            3907    1.37322E+007    1.19046E+007    1.19046E+007   -1.22869E+006   -2.35697E+006    1.42616E+007   -2.77297E+006    1.36274E+007   -2.01621E+006   -1.19183E+006    1.15270E+007    1.88406E+005   -1.66365E+006    1.55259E+006
            3908    1.27393E+007    1.16962E+007    1.16962E+007   -6.71490E+005   -1.38473E+006    1.30809E+007   -3.21333E+006    1.26943E+007   -7.85853E+005   -1.02096E+006    1.14468E+007    2.02398E+005   -1.06108E+006    1.43993E+006
            3909    1.26264E+007    1.18905E+007    1.18905E+007   -3.74864E+005   -1.06852E+006    1.29590E+007   -3.48236E+006    1.25835E+007   -4.23645E+005   -8.96122E+005    1.17668E+007    1.64412E+005   -5.66352E+005    1.12439E+006
            3910    1.24385E+007    1.19104E+007    1.19104E+007   -1.18842E+005   -9.00523E+005    1.28109E+007   -3.63033E+006    1.23830E+007   -1.49688E+005   -8.04150E+005    1.18448E+007    1.52303E+005   -3.81546E+005    8.29172E+005
            3911    1.24018E+007    1.19882E+007    1.19882E+007   -1.48904E+004   -7.77271E+005    1.27654E+007   -3.73200E+006    1.23490E+007   -4.17319E+004   -7.29273E+005    1.19670E+007    1.38736E+005   -1.32873E+005    5.01887E+005
            3912    1.23577E+007    1.19956E+007    1.19956E+007    3.08796E+004   -7.20714E+005    1.27163E+007   -3.76860E+006    1.23061E+007    5.35826E+003   -6.92439E+005    1.19929E+007    1.36433E+005   -8.21639E+004    1.67645E+005
            3913    1.37166E+007    1.12390E+007    1.12390E+007   -1.36008E+006   -3.37277E+006    1.46118E+007   -2.16871E+006    1.33783E+007   -3.19386E+006   -1.15068E+006    1.08507E+007   -4.89915E+004   -1.55693E+006    1.64702E+006
            3914    1.29237E+007    1.10617E+007    1.10617E+007   -8.85591E+005   -2.65590E+006    1.37176E+007   -2.50675E+006    1.26466E+007   -2.39431E+006   -7.88320E+005    1.07029E+007    2.07761E+005   -1.53601E+006    1.49823E+006
            3915    1.21209E+007    1.09175E+007    1.09175E+007   -6.30535E+005   -1.70480E+006    1.26223E+007   -2.86073E+006    1.20131E+007   -1.32668E+006   -7.33719E+005    1.06426E+007    3.30758E+005   -1.17625E+006    1.40482E+006
            3916    1.18403E+007    1.10475E+007    1.10475E+007   -3.58550E+005   -1.18394E+006    1.22314E+007   -3.16833E+006    1.17753E+007   -7.89254E+005   -5.93912E+005    1.08881E+007    3.39350E+005   -7.07055E+005    1.18731E+006
            3917    1.15784E+007    1.10174E+007    1.10174E+007   -1.60863E+005   -9.23453E+005    1.19409E+007   -3.31104E+006    1.15217E+007   -4.72852E+005   -5.19799E+005    1.09258E+007    3.40719E+005   -4.82494E+005    9.21554E+005
            3918    1.14507E+007    1.10717E+007    1.10717E+007   -1.14697E+004   -7.14099E+005    1.17858E+007   -3.44871E+006    1.14020E+007   -2.76567E+005   -4.18003E+005    1.10407E+007    3.31503E+005   -2.11037E+005    5.63664E+005
            3919    1.13955E+007    1.10826E+007    1.10826E+007    4.41878E+004   -6.39235E+005    1.17218E+007   -3.49584E+006    1.13492E+007   -2.01024E+005   -3.90003E+005    1.10786E+007    3.26437E+005   -9.71377E+004    1.93859E+005
            3920    1.26129E+007    1.02698E+007    1.02698E+007   -9.60008E+005   -3.37655E+006    1.36464E+007   -1.97776E+006    1.20755E+007   -3.21788E+006   -7.17779E+005    9.86893E+006   -1.04478E+005   -1.43964E+006    1.63698E+006
            3921    1.24996E+007    1.05606E+007    1.05606E+007   -8.53536E+005   -2.79688E+006    1.33574E+007   -2.30338E+006    1.21527E+007   -2.62918E+006   -7.24985E+005    1.02643E+007    7.91396E+004   -1.36720E+006    1.32880E+006
            3922    1.17094E+007    1.03610E+007    1.03610E+007   -4.82790E+005   -2.05517E+006    1.24162E+007   -2.60768E+006    1.14683E+007   -1.85666E+006   -3.97759E+005    1.00775E+007    2.19533E+005   -1.18406E+006    1.36859E+006
            3923    1.10722E+007    1.01660E+007    1.01660E+007   -1.98722E+005   -1.49892E+006    1.16649E+007   -2.82279E+006    1.08985E+007   -1.29593E+006   -2.17897E+005    9.98220E+006    3.29750E+005   -8.07529E+005    1.17071E+006
            3924    1.06579E+007    1.00827E+007    1.00827E+007    8.05384E+004   -1.12784E+006    1.12106E+007   -3.01181E+006    1.05021E+007   -9.19927E+005   -2.78187E+004    9.98317E+006    3.86918E+005   -5.60737E+005    8.66278E+005
            3925    1.04855E+007    1.01058E+007    1.01058E+007    2.24082E+005   -8.93878E+005    1.09997E+007   -3.14533E+006    1.03501E+007   -6.76366E+005    4.06786E+004    1.00717E+007    4.22760E+005   -2.92236E+005    5.24435E+005
            3926    1.04101E+007    1.01238E+007    1.01238E+007    3.03315E+005   -7.89518E+005    1.09134E+007   -3.21255E+006    1.02798E+007   -5.67038E+005    8.51138E+004    1.01196E+007    4.37338E+005   -1.13064E+005    1.80399E+005
            3927    9.73816E+006    9.20351E+006    9.20351E+006    4.90733E+005   -1.30896E+006    1.05125E+007   -2.79509E+006    9.35296E+006   -1.21423E+006    3.99559E+005    9.19994E+006    3.96366E+005   -1.41859E+005    1.25091E+005
            3928    9.79596E+006    9.14662E+006    9.14662E+006    4.55697E+005   -1.46875E+006    1.06154E+007   -2.71119E+006    9.35637E+006   -1.36773E+006    3.88854E+005    9.11244E+006    3.79872E+005   -4.10250E+005    4.13441E+005
            3929    1.00197E+007    9.09948E+006    9.09948E+006    2.62730E+005   -1.78632E+006    1.08858E+007   -2.52530E+006    9.53101E+006   -1.67288E+006    2.47636E+005    9.00114E+006    3.33193E+005   -6.67350E+005    7.30521E+005
            3930    1.04670E+007    9.15749E+006    9.15749E+006   -4.07119E+004   -2.23157E+006    1.13891E+007   -2.29507E+006    9.93131E+006   -2.10100E+006    3.30554E+004    8.95315E+006    2.45634E+005   -9.33353E+005    1.09637E+006
            3931    1.13129E+007    9.45456E+006    9.45456E+006   -5.54763E+005   -2.81928E+006    1.22738E+007   -2.02684E+006    1.07851E+007   -2.66967E+006   -3.76018E+005    9.12620E+006    1.17684E+005   -1.19314E+006    1.45151E+006
            3932    1.25290E+007    1.02432E+007    1.02432E+007   -8.95059E+005   -3.32160E+006    1.35648E+007   -2.00885E+006    1.19831E+007   -3.15050E+006   -6.18073E+005    9.79513E+006   -3.31492E+004   -1.45010E+006    1.77450E+006
            3933    1.38720E+007    1.09083E+007    1.09083E+007   -1.66276E+006   -3.97423E+006    1.48826E+007   -1.75712E+006    1.34285E+007   -3.75546E+006   -1.45520E+006    1.04820E+007   -1.74957E+004   -1.72049E+006    1.66381E+006
            3934    1.01608E+007    9.84475E+006    9.84475E+006    3.82157E+005   -8.93772E+005    1.07385E+007   -3.11104E+006    9.97819E+006   -7.05742E+005    1.98498E+005    9.84038E+006   -4.48874E+005   -1.24425E+005   -1.72524E+005
            3935    1.08819E+007    1.05802E+007    1.05802E+007    1.36384E+005   -6.92416E+005    1.12726E+007   -3.34138E+006    1.08105E+007   -3.60553E+005   -1.90468E+005    1.05752E+007   -4.03699E+005   -1.19137E+005   -2.04246E+005
            3936    1.16766E+007    1.13699E+007    1.13699E+007    1.32877E+004   -6.02350E+005    1.19722E+007   -3.59361E+006    1.16400E+007   -9.40489E+004   -4.90688E+005    1.13656E+007   -2.32590E+005   -1.02168E+005   -2.03277E+005
            3937    1.24736E+007    1.20857E+007    1.20857E+007   -4.16872E+003   -7.39086E+005    1.28248E+007   -3.78081E+006    1.24247E+007   -3.08121E+004   -7.09085E+005    1.20823E+007   -1.37957E+005   -1.01020E+005   -1.80525E+005
            3938    1.31566E+007    1.26662E+007    1.26662E+007    4.51545E+004   -9.67430E+005    1.36337E+007   -3.91465E+006    1.30685E+007    3.80869E+004   -9.57989E+005    1.26639E+007   -8.79836E+004   -1.03304E+005   -1.44998E+005
            3939    1.36544E+007    1.30984E+007    1.30984E+007    6.91329E+004   -1.10528E+006    1.42037E+007   -4.02074E+006    1.35401E+007    6.85132E+004   -1.10319E+006    1.30969E+007   -4.11604E+004   -1.06966E+005   -9.22968E+004
            3940    1.39457E+007    1.33324E+007    1.33324E+007    8.35286E+004   -1.21882E+006    1.45512E+007   -4.06569E+006    1.38079E+007    8.41792E+004   -1.21854E+006    1.33314E+007   -1.58165E+004   -1.06088E+005   -3.50357E+004
            3941    1.39670E+007    1.33606E+007    1.33606E+007    8.24783E+004   -1.20606E+006    1.45666E+007   -4.07899E+006    1.38323E+007    8.32111E+004   -1.20596E+006    1.33597E+007    7.68593E+003   -1.01855E+005    2.95895E+004
            3942    1.37283E+007    1.31550E+007    1.31550E+007    8.27115E+004   -1.14655E+006    1.43016E+007   -4.03040E+006    1.36037E+007    8.21053E+004   -1.14483E+006    1.31539E+007    3.87298E+004   -9.22983E+004    8.14741E+004
            3943    1.02469E+007    9.82881E+006    9.82881E+006    3.02217E+005   -1.01159E+006    1.08404E+007   -3.03981E+006    1.00548E+007   -8.25830E+005    1.53183E+005    9.79209E+006   -4.31659E+005   -3.29589E+005   -5.19519E+005
            3944    1.10019E+007    1.06082E+007    1.06082E+007    5.20977E+004   -7.91051E+005    1.13993E+007   -3.28975E+006    1.09289E+007   -4.49982E+005   -2.52112E+005    1.05714E+007   -3.99398E+005   -2.60566E+005   -5.86626E+005
            3945    1.17927E+007    1.14132E+007    1.14132E+007   -4.87990E+004   -6.84492E+005    1.20977E+007   -3.55997E+006    1.17541E+007   -1.52963E+005   -5.49299E+005    1.13822E+007   -2.29016E+005   -1.80238E+005   -5.84484E+005
            3946    1.25868E+007    1.21378E+007    1.21378E+007   -5.77022E+004   -8.06853E+005    1.29446E+007   -3.75774E+006    1.25365E+007   -8.28528E+004   -7.60175E+005    1.21163E+007   -1.33179E+005   -1.31936E+005   -5.10620E+005
            3947    1.32826E+007    1.27400E+007    1.27400E+007   -2.95480E+003   -1.02345E+006    1.37634E+007   -3.90451E+006    1.31940E+007   -9.98045E+003   -1.00374E+006    1.27273E+007   -8.53914E+004   -9.26634E+004   -4.06958E+005
            3948    1.37813E+007    1.31791E+007    1.31791E+007    2.13783E+004   -1.15086E+006    1.43300E+007   -4.01655E+006    1.36685E+007    2.03230E+004   -1.14467E+006    1.31740E+007   -3.93797E+004   -6.90591E+004   -2.61456E+005
            3949    1.40647E+007    1.34108E+007    1.34108E+007    3.39568E+004   -1.25339E+006    1.46642E+007   -4.06378E+006    1.39313E+007    3.39721E+004   -1.25254E+006    1.34099E+007   -1.61270E+004   -5.51681E+004   -9.66508E+004
            3950    1.40710E+007    1.34269E+007    1.34269E+007    3.66865E+004   -1.23816E+006    1.46650E+007   -4.07514E+006    1.39402E+007    3.69284E+004   -1.23774E+006    1.34262E+007    4.10514E+003   -5.86999E+004    7.71500E+004
            3951    1.37978E+007    1.31900E+007    1.31900E+007    3.80902E+004   -1.17376E+006    1.43637E+007   -4.01810E+006    1.36773E+007    3.72558E+004   -1.16834E+006    1.31854E+007    3.66074E+004   -6.78860E+004    2.46715E+005
            3952    1.04985E+007    9.83876E+006    9.83876E+006    1.01134E+005   -1.28324E+006    1.11220E+007   -2.88555E+006    1.02901E+007   -1.09946E+006    2.32352E+004    9.73287E+006   -3.83291E+005   -6.11102E+005   -8.60024E+005
            3953    1.12235E+007    1.06168E+007    1.06168E+007   -1.24632E+005   -1.03355E+006    1.16503E+007   -3.15286E+006    1.11402E+007   -6.83232E+005   -3.66250E+005    1.05081E+007   -3.88414E+005   -5.65976E+005   -9.58284E+005
            3954    1.19624E+007    1.14057E+007    1.14057E+007   -1.95528E+005   -8.87816E+005    1.22935E+007   -3.44077E+006    1.19172E+007   -3.09566E+005   -6.82490E+005    1.13144E+007   -2.35663E+005   -4.69088E+005   -9.45439E+005
            3955    1.26971E+007    1.21205E+007    1.21205E+007   -1.61692E+005   -9.54371E+005    1.30748E+007   -3.66814E+006    1.26412E+007   -1.81151E+005   -8.67647E+005    1.20532E+007   -1.32055E+005   -4.19097E+005   -8.34034E+005
            3956    1.33440E+007    1.26998E+007    1.26998E+007   -6.84505E+004   -1.15355E+006    1.38534E+007   -3.82594E+006    1.32441E+007   -6.75126E+004   -1.11173E+006    1.26571E+007   -8.74779E+004   -3.84948E+005   -6.58627E+005
            3957    1.38041E+007    1.31318E+007    1.31318E+007   -5.89825E+003   -1.25404E+006    1.43858E+007   -3.95728E+006    1.36763E+007    2.56485E+003   -1.24027E+006    1.31095E+007   -3.52956E+004   -3.66261E+005   -4.16503E+005
            3958    1.40595E+007    1.33456E+007    1.33456E+007    1.98112E+004   -1.34762E+006    1.46933E+007   -4.00594E+006    1.39087E+007    2.87607E+004   -1.34626E+006    1.33353E+007   -1.20971E+004   -3.48605E+005   -1.32370E+005
            3959    1.40395E+007    1.33455E+007    1.33455E+007    2.40249E+004   -1.31584E+006    1.46614E+007   -4.01790E+006    1.38945E+007    3.25881E+004   -1.31386E+006    1.33350E+007    1.22604E+004   -3.41554E+005    1.61828E+005
            3960    1.37827E+007    1.31077E+007    1.31077E+007    3.06299E+003   -1.26531E+006    1.43730E+007   -3.94850E+006    1.36505E+007    9.08216E+003   -1.24949E+006    1.30859E+007    4.54013E+004   -3.34393E+005    4.38042E+005
            3961    1.09639E+007    9.96466E+006    9.96466E+006   -1.78184E+005   -1.66799E+006    1.16326E+007   -2.70616E+006    1.07327E+007   -1.48626E+006   -1.62569E+005    9.76732E+006   -3.11546E+005   -8.66386E+005   -1.17836E+006
            3962    1.16380E+007    1.07295E+007    1.07295E+007   -3.82929E+005   -1.37104E+006    1.21006E+007   -2.99186E+006    1.15431E+007   -1.04565E+006   -5.20888E+005    1.05421E+007   -3.57653E+005   -8.05280E+005   -1.24415E+006
            3963    1.23228E+007    1.15166E+007    1.15166E+007   -4.65985E+005   -1.12043E+006    1.26370E+007   -3.31005E+006    1.22836E+007   -6.18256E+005   -8.07764E+005    1.13562E+007   -2.29059E+005   -6.86476E+005   -1.23674E+006
            3964    1.30651E+007    1.22602E+007    1.22602E+007   -4.52971E+005   -1.13046E+006    1.33906E+007   -3.55891E+006    1.30254E+007   -4.71675E+005   -9.93881E+005    1.21423E+007   -1.21344E+005   -6.00838E+005   -1.09497E+006
            3965    1.37523E+007    1.28984E+007    1.28984E+007   -3.72775E+005   -1.28930E+006    1.41877E+007   -3.74544E+006    1.36834E+007   -3.65254E+005   -1.22227E+006    1.28238E+007   -7.91411E+004   -5.38559E+005   -8.65662E+005
            3966    1.42356E+007    1.33591E+007    1.33591E+007   -3.23527E+005   -1.37158E+006    1.47307E+007   -3.88801E+006    1.41485E+007   -3.07630E+005   -1.35004E+006    1.33217E+007   -3.10006E+004   -5.00135E+005   -5.31723E+005
            3967    1.44881E+007    1.35810E+007    1.35810E+007   -3.03083E+005   -1.44365E+006    1.50246E+007   -3.94476E+006    1.43865E+007   -2.87125E+005   -1.44176E+006    1.35632E+007   -1.26426E+004   -4.74554E+005   -1.55710E+005
            3968    1.44297E+007    1.35447E+007    1.35447E+007   -2.86824E+005   -1.41676E+006    1.49615E+007   -3.94704E+006    1.43297E+007   -2.71078E+005   -1.41235E+006    1.35245E+007    3.06762E+003   -4.68107E+005    2.53504E+005
            3969    1.40833E+007    1.32318E+007    1.32318E+007   -2.90924E+005   -1.35202E+006    1.45838E+007   -3.86294E+006    1.39929E+007   -2.78122E+005   -1.32260E+006    1.31895E+007    3.96870E+004   -4.69140E+005    6.15777E+005
            3970    1.16645E+007    1.01581E+007    1.01581E+007   -5.56624E+005   -2.26732E+006    1.24254E+007   -2.44472E+006    1.13772E+007   -2.08719E+006   -4.40481E+005    9.86183E+006   -1.74208E+005   -1.21441E+006   -1.38226E+006
            3971    1.21608E+007    1.07990E+007    1.07990E+007   -6.69725E+005   -1.95223E+006    1.27512E+007   -2.72569E+006    1.20073E+007   -1.64122E+006   -6.70343E+005    1.04886E+007   -2.92795E+005   -1.29199E+006   -1.45161E+006
            3972    1.26700E+007    1.14626E+007    1.14626E+007   -7.99809E+005   -1.57907E+006    1.30417E+007   -3.02790E+006    1.26159E+007   -1.09584E+006   -9.89839E+005    1.11694E+007   -2.45139E+005   -1.23071E+006   -1.48973E+006
            3973    1.32492E+007    1.21599E+007    1.21599E+007   -7.49205E+005   -1.40506E+006    1.35650E+007   -3.33521E+006    1.32126E+007   -7.69425E+005   -1.14614E+006    1.19212E+007   -1.37538E+005   -1.15739E+006   -1.35295E+006
            3974    1.37993E+007    1.27453E+007    1.27453E+007   -5.78170E+005   -1.48519E+006    1.42305E+007   -3.56064E+006    1.37320E+007   -5.27590E+005   -1.36664E+006    1.25762E+007   -9.73177E+004   -1.08821E+006   -1.06992E+006
            3975    1.41906E+007    1.31931E+007    1.31931E+007   -4.19651E+005   -1.51216E+006    1.47053E+007   -3.75377E+006    1.40955E+007   -3.47844E+005   -1.47751E+006    1.30867E+007   -3.61357E+004   -1.02965E+006   -6.45413E+005
            3976    1.43721E+007    1.33804E+007    1.33804E+007   -3.52751E+005   -1.55510E+006    1.49355E+007   -3.82420E+006    1.42583E+007   -2.82021E+005   -1.55375E+006    1.33084E+007   -1.03027E+004   -9.85148E+005   -1.25832E+005
            3977    1.42991E+007    1.33318E+007    1.33318E+007   -3.35630E+005   -1.52478E+006    1.48566E+007   -3.82380E+006    1.41873E+007   -2.69009E+005   -1.51280E+006    1.32532E+007    1.95296E+004   -9.64767E+005    3.89777E+005
            3978    1.39950E+007    1.29981E+007    1.29981E+007   -4.17056E+005   -1.51252E+006    1.45106E+007   -3.68949E+006    1.38981E+007   -3.62027E+005   -1.44596E+006    1.28765E+007    6.40005E+004   -9.64142E+005    8.71361E+005
            3979    1.25510E+007    1.05316E+007    1.05316E+007   -8.50633E+005   -2.92871E+006    1.34603E+007   -2.25076E+006    1.21549E+007   -2.76751E+006   -6.57252E+005    1.01771E+007   -1.14658E+004   -1.38685E+006   -1.53388E+006
            3980    1.31623E+007    1.11351E+007    1.11351E+007   -9.51232E+005   -2.88844E+006    1.40236E+007   -2.43182E+006    1.28357E+007   -2.66309E+006   -8.22821E+005    1.07814E+007   -1.26573E+005   -1.56837E+006   -1.46294E+006
            3981    1.37910E+007    1.18148E+007    1.18148E+007   -1.17085E+006   -2.66050E+006    1.44753E+007   -2.66115E+006    1.36082E+007   -2.35121E+006   -1.08466E+006    1.14193E+007   -1.68134E+005   -1.74919E+006   -1.54223E+006
            3982    1.45223E+007    1.25713E+007    1.25713E+007   -1.38095E+006   -2.46077E+006    1.50321E+007   -2.90987E+006    1.44316E+007   -2.13865E+006   -1.31748E+006    1.21857E+007   -1.02164E+005   -1.87575E+006   -1.43890E+006
            3983    1.52082E+007    1.32473E+007    1.32473E+007   -1.56752E+006   -2.32593E+006    1.55732E+007   -3.11795E+006    1.51656E+007   -1.98692E+006   -1.56091E+006    1.29017E+007   -8.31899E+004   -1.98959E+006   -1.13783E+006
            3984    1.56164E+007    1.37016E+007    1.37016E+007   -1.67204E+006   -2.14677E+006    1.58484E+007   -3.29427E+006    1.56002E+007   -1.84465E+006   -1.67488E+006    1.34023E+007   -2.96921E+004   -2.05595E+006   -6.52873E+005
            3985    1.57806E+007    1.38826E+007    1.38826E+007   -1.73659E+006   -2.05461E+006    1.59372E+007   -3.36379E+006    1.57734E+007   -1.78096E+006   -1.73643E+006    1.36088E+007    7.13224E+002   -2.06832E+006   -1.03836E+005
            3986    1.56183E+007    1.37585E+007    1.37585E+007   -1.68932E+006   -2.02470E+006    1.57832E+007   -3.34817E+006    1.56101E+007   -1.73410E+006   -1.70296E+006    1.34816E+007    3.10329E+004   -2.01492E+006    4.84028E+005
            3987    1.51927E+007    1.33508E+007    1.33508E+007   -1.56906E+006   -2.10080E+006    1.54516E+007   -3.22697E+006    1.51717E+007   -1.76430E+006   -1.59841E+006    1.30436E+007    7.75777E+004   -1.91872E+006    9.84825E+005
            3988    1.31150E+007    1.05464E+007    1.05464E+007   -1.23604E+006   -3.58406E+006    1.41304E+007   -1.90876E+006    1.26291E+007   -3.40729E+006   -1.01025E+006    1.01438E+007    1.52278E+005   -1.55607E+006   -1.60976E+006
            3989    1.37068E+007    1.11897E+007    1.11897E+007   -1.13987E+006   -3.56948E+006    1.47591E+007   -2.16010E+006    1.32092E+007   -3.38830E+006   -9.15549E+005    1.07841E+007    1.40050E+005   -1.60907E+006   -1.64540E+006
            3990    1.47507E+007    1.21128E+007    1.21128E+007   -1.41099E+006   -3.61649E+006    1.57293E+007   -2.36178E+006    1.43728E+007   -3.40726E+006   -1.20542E+006    1.16980E+007    9.00041E+004   -1.76939E+006   -1.67427E+006
            3991    1.58569E+007    1.31787E+007    1.31787E+007   -1.47419E+006   -3.65630E+006    1.68350E+007   -2.68273E+006    1.55137E+007   -3.41964E+006   -1.31679E+006    1.27846E+007    1.09928E+005   -1.96285E+006   -1.51908E+006
            3992    1.68830E+007    1.41708E+007    1.41708E+007   -1.48431E+006   -3.71780E+006    1.78886E+007   -2.98957E+006    1.65458E+007   -3.45784E+006   -1.39542E+006    1.38220E+007    8.50834E+004   -2.12904E+006   -1.18463E+006
            3993    1.76217E+007    1.49012E+007    1.49012E+007   -1.48928E+006   -3.73617E+006    1.86373E+007   -3.22524E+006    1.72950E+007   -3.46021E+006   -1.46031E+006    1.45962E+007    5.50008E+004   -2.24764E+006   -6.91501E+005
            3994    1.78886E+007    1.51549E+007    1.51549E+007   -1.51437E+006   -3.74391E+006    1.88988E+007   -3.29888E+006    1.75719E+007   -3.46229E+006   -1.51422E+006    1.48732E+007   -2.91652E+000   -2.28967E+006   -5.28927E+004
            3995    1.76181E+007    1.49411E+007    1.49411E+007   -1.49538E+006   -3.65876E+006    1.85999E+007   -3.26233E+006    1.73155E+007   -3.38127E+006   -1.47540E+006    1.46437E+007   -4.89884E+004   -2.25273E+006    5.74066E+005
            3996    1.68461E+007    1.42106E+007    1.42106E+007   -1.50740E+006   -3.57304E+006    1.77837E+007   -3.04339E+006    1.65576E+007   -3.31014E+006   -1.43055E+006    1.38709E+007   -7.43094E+004   -2.13407E+006    1.10820E+006
            3997    1.85148E+007    1.41916E+007    1.41916E+007   -1.41051E+006   -6.26750E+006    2.04591E+007   -2.17121E+006    1.69905E+007   -6.01738E+006   -1.29666E+006    1.38277E+007   -2.77786E+005   -2.22610E+006    1.32545E+006
            3998    1.96316E+007    1.51739E+007    1.51739E+007   -1.28869E+006   -6.55321E+006    2.17271E+007   -2.44401E+006    1.79376E+007   -6.31144E+006   -1.25267E+006    1.48961E+007   -1.63265E+005   -2.27125E+006    7.69591E+005
            3999    2.00978E+007    1.56029E+007    1.56029E+007   -1.23309E+006   -6.64745E+006    2.22503E+007   -2.57410E+006    1.83463E+007   -6.41140E+006   -1.23309E+006    1.53668E+007    3.82192E+002   -2.27958E+006   -9.86907E+003
            4000    1.96347E+007    1.51470E+007    1.51470E+007   -1.30044E+006   -6.59097E+006    2.17379E+007   -2.41852E+006    1.79230E+007   -6.35007E+006   -1.26274E+006    1.48684E+007    1.60895E+005   -2.26828E+006   -7.85618E+005
            4001    1.85135E+007    1.41217E+007    1.41217E+007   -1.44451E+006   -6.35069E+006    2.04724E+007   -2.10885E+006    1.69560E+007   -6.10068E+006   -1.32551E+006    1.37527E+007    2.80137E+005   -2.22637E+006   -1.35241E+006
            4002    1.70332E+007    1.28144E+007    1.28144E+007   -1.60253E+006   -5.98044E+006    1.87948E+007   -1.74380E+006    1.56907E+007   -5.72462E+006   -1.41533E+006    1.23713E+007    3.29466E+005   -2.14805E+006   -1.62356E+006
            4003    1.55326E+007    1.14746E+007    1.14746E+007   -1.80830E+006   -5.60407E+006    1.70786E+007   -1.35407E+006    1.44327E+007   -5.35644E+006   -1.59139E+006    1.10100E+007    3.09511E+005   -2.01614E+006   -1.66966E+006
            4004    1.45029E+007    1.06187E+007    1.06187E+007   -2.02488E+006   -5.21304E+006    1.58317E+007   -1.12691E+006    1.36807E+007   -4.97330E+006   -1.80310E+006    1.01571E+007    2.13907E+005   -1.91948E+006   -1.64604E+006
            4005    1.42294E+007    1.07087E+007    1.07087E+007   -1.75764E+006   -4.79367E+006    1.55024E+007   -1.38582E+006    1.34715E+007   -4.56405E+006   -1.47095E+006    1.01924E+007    1.54803E+005   -1.84752E+006   -1.86966E+006
            4006    9.68260E+006    9.12334E+006    9.12334E+006    5.03506E+005   -1.35315E+006    1.04765E+007   -2.75790E+006    9.26933E+006   -1.26389E+006    4.17912E+005    9.11968E+006   -3.91464E+005   -1.40406E+005   -1.29075E+005
            4007    9.76743E+006    9.07565E+006    9.07565E+006    4.41176E+005   -1.52547E+006    1.06011E+007   -2.66378E+006    9.30620E+006   -1.42749E+006    3.77458E+005    9.04138E+006   -3.75661E+005   -4.19758E+005   -4.04710E+005
            4008    1.00111E+007    9.02903E+006    9.02903E+006    2.34662E+005   -1.86561E+006    1.08946E+007   -2.46603E+006    9.49627E+006   -1.75338E+006    2.24294E+005    8.92717E+006   -3.26857E+005   -6.87344E+005   -7.35353E+005
            4009    1.04998E+007    9.06907E+006    9.06907E+006   -1.45993E+005   -2.36171E+006    1.14308E+007   -2.18712E+006    9.95315E+006   -2.23073E+006   -7.56202E+004    8.86772E+006   -2.36765E+005   -9.58260E+005   -1.06775E+006
            4010    1.12841E+007    9.32614E+006    9.32614E+006   -5.78060E+005   -2.95813E+006    1.22843E+007   -1.92998E+006    1.06972E+007   -2.80893E+006   -4.09566E+005    9.00845E+006   -1.06136E+005   -1.21581E+006   -1.39151E+006
            4011    1.22464E+007    9.73913E+006    9.73913E+006   -1.02130E+006   -3.58685E+006    1.33260E+007   -1.71033E+006    1.16185E+007   -3.41683E+006   -7.75504E+005    9.32332E+006    2.32084E+004   -1.43793E+006   -1.64658E+006
            4012    1.33962E+007    1.03515E+007    1.03515E+007   -1.37369E+006   -4.24878E+006    1.46003E+007   -1.57636E+006    1.26739E+007   -4.04430E+006   -1.05612E+006    9.82948E+006    1.25357E+005   -1.68159E+006   -1.91262E+006
            4013    1.08976E+007    1.07574E+007    1.07574E+007    3.18364E+005   -5.47236E+005    1.13046E+007   -3.50950E+006    1.08199E+007   -2.65793E+005    4.09763E+004    1.07533E+007    4.04479E+005    5.26230E+004   -2.03681E+005
            4014    1.19244E+007    1.18956E+007    1.18956E+007    1.47236E+005   -1.97285E+005    1.20929E+007   -3.94853E+006    1.19132E+007    1.18216E+005   -1.65033E+005    1.18924E+007    9.58124E+004   -6.44157E+003   -1.97270E+005
            4015    1.29845E+007    1.28195E+007    1.28195E+007    7.03979E+004   -3.88238E+005    1.32078E+007   -4.16723E+006    1.29663E+007    6.79496E+004   -3.83656E+005    1.28174E+007    3.41499E+004   -2.67796E+004   -1.65517E+005
            4016    1.38394E+007    1.35373E+007    1.35373E+007    1.25223E+005   -6.93111E+005    1.42304E+007   -4.32315E+006    1.37848E+007    1.24731E+005   -6.91240E+005    1.35359E+007    2.40212E+004   -4.99412E+004   -1.30206E+005
            4017    1.09434E+007    1.07036E+007    1.07036E+007    2.51656E+005   -6.72705E+005    1.13763E+007   -3.42752E+006    1.08551E+007   -3.74035E+005   -9.08355E+003    1.06657E+007    4.19325E+005    2.18748E+005   -6.07883E+005
            4018    1.19371E+007    1.18513E+007    1.18513E+007    1.05570E+005   -2.68490E+005    1.21198E+007   -3.89612E+006    1.19239E+007    7.13167E+004   -2.04370E+005    1.18214E+007    1.04346E+005    9.36234E+004   -5.93345E+005
            4019    1.29916E+007    1.27819E+007    1.27819E+007    3.35053E+004   -4.39860E+005    1.32218E+007   -4.12520E+006    1.29722E+007    3.12360E+004   -4.17091E+005    1.27614E+007    3.23025E+004    6.18805E+004   -5.16507E+005
            4020    1.38516E+007    1.35157E+007    1.35157E+007    9.46675E+004   -7.29702E+005    1.42454E+007   -4.29356E+006    1.37963E+007    9.39812E+004   -7.17843E+005    1.35045E+007    2.54078E+004    5.07266E+004   -3.95448E+005
            4021    1.10201E+007    1.06333E+007    1.06333E+007    1.58547E+005   -8.61224E+005    1.14945E+007   -3.31020E+006    1.09132E+007   -5.36710E+005   -6.38093E+004    1.05311E+007    4.38442E+005    3.74674E+005   -9.92874E+005
            4022    1.19717E+007    1.17937E+007    1.17937E+007    6.90374E+004   -4.10583E+005    1.22043E+007   -3.81740E+006    1.19501E+007    3.26937E+004   -2.94503E+005    1.17140E+007    1.18699E+005    1.32529E+005   -9.73821E+005
            4023    1.29977E+007    1.27625E+007    1.27625E+007    4.12785E+004   -4.95125E+005    1.32576E+007   -4.10287E+006    1.29727E+007    4.03625E+004   -4.41098E+005    1.27093E+007    2.10258E+004    3.88830E+004   -8.36539E+005
            4024    1.38835E+007    1.35346E+007    1.35346E+007    1.13197E+005   -7.68835E+005    1.43034E+007   -4.29299E+006    1.38202E+007    1.13077E+005   -7.37458E+005    1.35034E+007    1.42163E+004   -2.92261E+004   -6.67189E+005
            4025    1.12808E+007    1.05540E+007    1.05540E+007   -8.23417E+004   -1.27628E+006    1.18303E+007   -3.06514E+006    1.11374E+007   -9.14135E+005   -2.41903E+005    1.03515E+007    4.52431E+005    6.84020E+005   -1.34748E+006
            4026    1.20439E+007    1.16448E+007    1.16448E+007   -1.10622E+005   -6.68250E+005    1.23130E+007   -3.62197E+006    1.20148E+007   -1.94303E+005   -4.25499E+005    1.14857E+007    1.67165E+005    4.09898E+005   -1.32805E+006
            4027    1.29557E+007    1.25608E+007    1.25608E+007   -1.06022E+005   -6.65771E+005    1.32265E+007   -3.92966E+006    1.29285E+007   -1.07210E+005   -5.51297E+005    1.24475E+007    3.82890E+004    2.83719E+005   -1.18496E+006
            4028    1.38250E+007    1.33573E+007    1.33573E+007    1.71219E+003   -8.93507E+005    1.42508E+007   -4.15517E+006    1.37595E+007    3.52100E+003   -8.24443E+005    1.32864E+007    2.79408E+004    2.32305E+005   -9.74027E+005
            4029    1.17015E+007    1.05976E+007    1.05976E+007   -2.96347E+005   -1.77159E+006    1.23692E+007   -2.84322E+006    1.14895E+007   -1.38070E+006   -3.82723E+005    1.02931E+007    4.60900E+005    1.04353E+006   -1.57042E+006
            4030    1.21007E+007    1.14284E+007    1.14284E+007   -3.15764E+005   -9.99702E+005    1.24281E+007   -3.37099E+006    1.20571E+007   -4.90720E+005   -5.80673E+005    1.11844E+007    2.31462E+005    6.38028E+005   -1.59984E+006
            4031    1.29757E+007    1.24138E+007    1.24138E+007   -2.80809E+005   -8.25850E+005    1.32397E+007   -3.76906E+006    1.29499E+007   -2.80543E+005   -6.39288E+005    1.22270E+007    3.54937E+004    4.15756E+005   -1.50480E+006
            4032    1.39004E+007    1.32984E+007    1.32984E+007   -1.80730E+005   -9.88156E+005    1.42865E+007   -4.04316E+006    1.38475E+007   -1.75800E+005   -8.77097E+005    1.31824E+007    8.30606E+003    2.94911E+005   -1.24626E+006
            4033    1.23476E+007    1.04856E+007    1.04856E+007   -6.23184E+005   -2.80894E+006    1.32945E+007   -2.35115E+006    1.19006E+007   -2.37015E+006   -6.64723E+005    1.00883E+007    4.79552E+005    1.64552E+006   -1.50278E+006
            4034    1.22556E+007    1.09559E+007    1.09559E+007   -6.45471E+005   -1.86315E+006    1.28190E+007   -2.81575E+006    1.21184E+007   -1.26888E+006   -7.77434E+005    1.04936E+007    3.65976E+005    1.40930E+006   -1.91699E+006
            4035    1.28699E+007    1.18303E+007    1.18303E+007   -6.37055E+005   -1.40743E+006    1.32377E+007   -3.26194E+006    1.28178E+007   -7.40903E+005   -9.27137E+005    1.14539E+007    1.73854E+005    1.19732E+006   -1.84603E+006
            4036    1.34946E+007    1.25891E+007    1.25891E+007   -4.26067E+005   -1.33870E+006    1.39278E+007   -3.60811E+006    1.34249E+007   -4.02770E+005   -1.08329E+006    1.23104E+007    1.06094E+005    1.08228E+006   -1.61438E+006
            4037    1.29781E+007    1.03798E+007    1.03798E+007   -6.31289E+005   -3.92892E+006    1.43088E+007   -1.93988E+006    1.19798E+007   -3.60398E+006   -5.42283E+005    9.96590E+006    2.94764E+005    1.87937E+006   -1.36679E+006
            4038    1.36895E+007    1.10659E+007    1.10659E+007   -1.18613E+006   -3.70980E+006    1.47757E+007   -2.05667E+006    1.31508E+007   -3.24083E+006   -1.12079E+006    1.05316E+007    3.69916E+005    2.08708E+006   -1.72694E+006
            4039    1.41561E+007    1.16490E+007    1.16490E+007   -1.34000E+006   -3.43973E+006    1.50887E+007   -2.28975E+006    1.37992E+007   -2.96537E+006   -1.24098E+006    1.10756E+007    2.30243E+005    2.24797E+006   -1.74799E+006
            4040    1.50381E+007    1.25326E+007    1.25326E+007   -1.42920E+006   -3.38950E+006    1.59221E+007   -2.57132E+006    1.47466E+007   -2.88472E+006   -1.35302E+006    1.19517E+007    1.68159E+005    2.49985E+006   -1.58873E+006
            4041    1.76479E+007    1.34507E+007    1.34507E+007   -1.16436E+006   -6.15509E+006    1.96058E+007   -2.04376E+006    1.59405E+007   -5.83427E+006   -1.03778E+006    1.30033E+007   -2.42491E+005    2.47548E+006   -1.33923E+006
            4042    1.59805E+007    1.22028E+007    1.22028E+007   -1.18662E+006   -5.48822E+006    1.76910E+007   -1.84265E+006    1.45903E+007   -5.21658E+006   -1.04552E+006    1.17901E+007   -1.88397E+005    2.16612E+006   -1.35473E+006
            4043    1.45429E+007    1.10355E+007    1.10355E+007   -1.23839E+006   -5.02666E+006    1.60621E+007   -1.59014E+006    1.33635E+007   -4.81902E+006   -1.12823E+006    1.07177E+007   -1.02728E+005    1.80709E+006   -1.15458E+006
            4044    1.41987E+007    1.08884E+007    1.08884E+007   -1.44319E+006   -4.63432E+006    1.55227E+007   -1.60363E+006    1.33556E+007   -4.45573E+006   -1.37552E+006    1.06421E+007    1.65024E+004    1.63162E+006   -9.46344E+005
            4045    1.00960E+007    9.69453E+006    9.69453E+006    6.41332E+005   -1.19286E+006    1.08874E+007   -3.04767E+006    9.71051E+006   -1.08648E+006    5.38001E+005    9.69147E+006    4.24910E+005    1.17983E+005   -1.31745E+005
            4046    1.01235E+007    9.62735E+006    9.62735E+006    6.46089E+005   -1.34314E+006    1.09705E+007   -2.97677E+006    9.66904E+006   -1.23060E+006    5.64897E+005    9.59600E+006    4.22880E+005    3.54922E+005   -4.36493E+005
            4047    1.02666E+007    9.54000E+006    9.54000E+006    5.32367E+005   -1.63839E+006    1.11784E+007   -2.81133E+006    9.72995E+006   -1.51384E+006    4.99883E+005    9.44794E+006    4.01000E+005    5.87571E+005   -7.62288E+005
            4048    1.06009E+007    9.52739E+006    9.52739E+006    3.10671E+005   -2.05717E+006    1.15846E+007   -2.59363E+006    9.97952E+006   -1.91819E+006    3.62437E+005    9.33665E+006    3.33649E+005    8.54106E+005   -1.10322E+006
            4049    1.13279E+007    9.72751E+006    9.72751E+006   -1.08122E+005   -2.65805E+006    1.23856E+007   -2.32045E+006    1.06531E+007   -2.49375E+006    4.44819E+004    9.41061E+006    2.17447E+005    1.17409E+006   -1.42645E+006
            4050    1.25384E+007    1.04565E+007    1.04565E+007   -2.94533E+005   -3.31678E+006    1.37733E+007   -2.28174E+006    1.16760E+007   -3.12482E+006   -6.34700E+004    1.00335E+007    5.52979E+004    1.51896E+006   -1.63804E+006
            4051    1.40421E+007    1.13964E+007    1.13964E+007   -8.09933E+005   -3.94981E+006    1.53462E+007   -2.21222E+006    1.32172E+007   -3.75279E+006   -6.67365E+005    1.10568E+007    3.17969E+004    1.67170E+006   -1.37143E+006
            4052    1.94808E+007    1.48835E+007    1.48835E+007   -1.09457E+006   -6.81791E+006    2.17014E+007   -2.32367E+006    1.74333E+007   -6.46705E+006   -1.01650E+006    1.44545E+007   -2.36827E+005    2.72582E+006   -1.10401E+006
            4053    2.08434E+007    1.59421E+007    1.59421E+007   -1.03475E+006   -7.32079E+006    2.32629E+007   -2.52886E+006    1.85236E+007   -6.96214E+006   -1.00986E+006    1.55586E+007   -1.47676E+005    2.86173E+006   -6.45284E+005
            4054    2.14293E+007    1.64277E+007    1.64277E+007   -1.00277E+006   -7.49770E+006    2.39254E+007   -2.64239E+006    1.90182E+007   -7.13650E+006   -1.00277E+006    1.60664E+007   -4.24598E+003    2.91745E+006    5.34327E+003
            4055    2.09231E+007    1.59931E+007    1.59931E+007   -1.02851E+006   -7.36611E+006    2.33592E+007   -2.53281E+006    1.85721E+007   -7.00872E+006   -1.00268E+006    1.56098E+007    1.42908E+005    2.86321E+006    6.57216E+005
            4056    1.95707E+007    1.49029E+007    1.49029E+007   -1.10034E+006   -6.91656E+006    2.18195E+007   -2.29534E+006    1.74614E+007   -6.57041E+006   -1.02064E+006    1.44771E+007    2.36430E+005    2.71524E+006    1.11631E+006
            4057    1.78379E+007    1.35489E+007    1.35489E+007   -1.15384E+006   -6.29497E+006    1.98439E+007   -2.03338E+006    1.60397E+007   -5.97870E+006   -1.03008E+006    1.31089E+007    2.58931E+005    2.47119E+006    1.32945E+006
            4058    1.61611E+007    1.22290E+007    1.22290E+007   -1.26580E+006   -5.68073E+006    1.79098E+007   -1.76084E+006    1.47099E+007   -5.41257E+006   -1.13010E+006    1.18252E+007    2.14141E+005    2.16444E+006    1.33290E+006
            4059    1.50520E+007    1.14801E+007    1.14801E+007   -1.24076E+006   -5.13698E+006    1.66171E+007   -1.70078E+006    1.38477E+007   -4.91946E+006   -1.12344E+006    1.11452E+007    1.41817E+005    1.88195E+006    1.20771E+006
            4060    1.44945E+007    1.14737E+007    1.14737E+007   -7.64710E+005   -4.53266E+006    1.60064E+007   -2.05878E+006    1.33241E+007   -4.32703E+006   -5.95545E+005    1.10989E+007    1.87828E+005    1.79215E+006    1.41741E+006
            4061    1.58073E+007    1.32520E+007    1.32520E+007   -1.50841E+006   -3.42705E+006    1.66790E+007   -2.77218E+006    1.55421E+007   -2.90765E+006   -1.45915E+006    1.26833E+007    9.19254E+004    2.75490E+006   -1.22247E+006
            4062    1.39984E+007    1.32389E+007    1.32389E+007   -2.04697E+005   -1.25498E+006    1.44939E+007   -3.92642E+006    1.39093E+007   -1.38210E+005   -1.14880E+006    1.30663E+007    3.21887E+004    1.03569E+006   -1.15600E+006
            4063    1.46057E+007    1.39851E+007    1.39851E+007   -1.26024E+005   -1.06958E+006    1.50546E+007   -4.26316E+006    1.45369E+007   -1.22826E+005   -1.01978E+006    1.39321E+007   -3.97446E+004    2.33680E+005   -8.57904E+005
            4064    1.44148E+007    1.39145E+007    1.39145E+007    6.21532E+004   -1.00357E+006    1.49181E+007   -4.32438E+006    1.43258E+007    6.59608E+004   -9.75697E+005    1.38829E+007   -9.69911E+003    2.29426E+005   -6.44146E+005
            4065    1.44991E+007    1.40879E+007    1.40879E+007    1.38706E+005   -9.04707E+005    1.49926E+007   -4.44062E+006    1.44142E+007    1.38408E+005   -8.92430E+005    1.40759E+007   -2.25788E+004   -6.18542E+004   -4.18831E+005
            4066    1.44114E+007    1.39966E+007    1.39966E+007    1.02122E+005   -8.81360E+005    1.48779E+007   -4.40578E+006    1.43356E+007    1.02344E+005   -8.77145E+005    1.39921E+007   -6.75553E+003    5.95679E+004   -2.49393E+005
            4067    1.43975E+007    1.40133E+007    1.40133E+007    1.30034E+005   -8.48535E+005    1.48618E+007   -4.43160E+006    1.43224E+007    1.30287E+005   -8.48115E+005    1.40126E+007   -6.95643E+003   -6.53386E+004   -7.37128E+004
            4068    1.64434E+007    1.37916E+007    1.37916E+007   -1.56413E+006   -3.55759E+006    1.73492E+007   -2.88997E+006    1.61682E+007   -3.02131E+006   -1.55186E+006    1.32431E+007    5.17742E+004    2.96248E+006   -6.47341E+005
            4069    1.43055E+007    1.35855E+007    1.35855E+007   -1.23191E+005   -1.25007E+006    1.48356E+007   -4.07076E+006    1.42051E+007   -4.81846E+004   -1.22468E+006    1.34852E+007    1.73290E+004    1.03229E+006   -5.75089E+005
            4070    1.50337E+007    1.43746E+007    1.43746E+007   -1.43159E+005   -1.12675E+006    1.55013E+007   -4.36822E+006    1.49610E+007   -1.40490E+005   -1.11799E+006    1.43631E+007   -1.90718E+004    2.03932E+005   -3.63968E+005
            4071    1.47555E+007    1.41990E+007    1.41990E+007    6.62603E+004   -1.10903E+006    1.53080E+007   -4.38541E+006    1.46497E+007    7.00017E+004   -1.10465E+006    1.41909E+007    4.76340E+003    2.31983E+005   -2.57098E+005
            4072    1.48097E+007    1.43397E+007    1.43397E+007    1.28188E+005   -1.00332E+006    1.53430E+007   -4.48819E+006    1.47120E+007    1.28734E+005   -1.00197E+006    1.43378E+007   -2.54407E+003   -8.88730E+004   -1.43492E+005
            4073    1.46887E+007    1.42096E+007    1.42096E+007    9.37482E+004   -9.91768E+005    1.52014E+007   -4.43719E+006    1.45981E+007    9.40420E+004   -9.91354E+005    1.42089E+007    5.25832E+003    6.75117E+004   -7.64818E+004
            4074    1.46593E+007    1.42145E+007    1.42145E+007    1.24131E+005   -9.54100E+005    1.51686E+007   -4.46151E+006    1.45696E+007    1.24570E+005   -9.54048E+005    1.42140E+007    3.90114E+003   -7.98426E+004   -2.41344E+004
            4075    1.66587E+007    1.39651E+007    1.39651E+007   -1.58999E+006   -3.61264E+006    1.75777E+007   -2.92081E+006    1.63790E+007   -3.06856E+006   -1.58987E+006    1.34209E+007    5.03451E+003    3.04428E+006    4.24780E+004
            4076    1.43601E+007    1.36776E+007    1.36776E+007   -7.22620E+004   -1.22355E+006    1.49011E+007   -4.12726E+006    1.42558E+007    8.28082E+003   -1.22257E+006    1.35961E+007   -6.15141E+002    1.04975E+006    1.16201E+005
            4077    1.51044E+007    1.44486E+007    1.44486E+007   -1.27314E+005   -1.13387E+006    1.55825E+007   -4.39580E+006    1.50286E+007   -1.24381E+005   -1.13234E+006    1.44441E+007   -1.12109E+003    2.07127E+005    1.53943E+005
            4078    1.47597E+007    1.42222E+007    1.42222E+007    9.33258E+004   -1.09628E+006    1.53185E+007   -4.40642E+006    1.46512E+007    9.76197E+004   -1.09442E+006    1.42161E+007    4.72999E+003    2.46332E+005    1.68357E+005
            4079    1.48058E+007    1.43512E+007    1.43512E+007    1.49617E+005   -9.92641E+005    1.53438E+007   -4.50271E+006    1.47061E+007    1.50189E+005   -9.91272E+005    1.43492E+007   -4.47114E+002   -9.01089E+004    1.44892E+005
            4080    1.46540E+007    1.41951E+007    1.41951E+007    1.11261E+005   -9.69341E+005    1.51644E+007   -4.44566E+006    1.45640E+007    1.11662E+005   -9.68736E+005    1.41941E+007   -3.60133E+002    7.52133E+004    9.57715E+004
            4081    1.46207E+007    1.41960E+007    1.41960E+007    1.39758E+005   -9.30423E+005    1.51264E+007   -4.46844E+006    1.45322E+007    1.40255E+005   -9.30334E+005    1.41954E+007   -2.33706E+003   -8.39252E+004    3.57419E+004
            4082    1.64939E+007    1.37658E+007    1.37658E+007   -1.57120E+006   -3.68191E+006    1.74477E+007   -2.83755E+006    1.61859E+007   -3.13570E+006   -1.55077E+006    1.31991E+007   -4.27298E+004    2.99551E+006    7.47301E+005
            4083    1.42035E+007    1.34437E+007    1.34437E+007   -2.07472E+005   -1.25417E+006    1.46979E+007   -3.99402E+006    1.41163E+007   -1.25929E+005   -1.20565E+006    1.33136E+007   -2.92977E+004    1.10145E+006    7.74083E+005
            4084    1.48447E+007    1.41829E+007    1.41829E+007   -1.71570E+005   -1.10786E+006    1.52907E+007   -4.30114E+006    1.47781E+007   -1.67756E+005   -1.07788E+006    1.41491E+007    1.28073E+004    2.33831E+005    6.76218E+005
            4085    1.45064E+007    1.39693E+007    1.39693E+007    4.04605E+004   -1.05270E+006    1.50220E+007   -4.31903E+006    1.44133E+007    4.49186E+004   -1.03133E+006    1.39435E+007   -2.48566E+003    2.53077E+005    5.64429E+005
            4086    1.45262E+007    1.40937E+007    1.40937E+007    1.16851E+005   -9.25807E+005    1.50195E+007   -4.42823E+006    1.44417E+007    1.17279E+005   -9.14005E+005    1.40814E+007    2.03562E+003   -7.90082E+004    4.20544E+005
            4087    1.43791E+007    1.39479E+007    1.39479E+007    8.28395E+004   -8.95403E+005    1.48433E+007   -4.37843E+006    1.43040E+007    8.31248E+004   -8.90703E+005    1.39429E+007   -8.36273E+003    7.27802E+004    2.61419E+005
            4088    1.43356E+007    1.39459E+007    1.39459E+007    1.16078E+005   -8.46819E+005    1.47927E+007   -4.40506E+006    1.42625E+007    1.16466E+005   -8.46276E+005    1.39450E+007   -8.00840E+003   -7.86038E+004    8.45848E+004
            4089    1.59113E+007    1.32116E+007    1.32116E+007   -1.50833E+006   -3.67007E+006    1.68817E+007   -2.67773E+006    1.55758E+007   -3.13297E+006   -1.44526E+006    1.26114E+007   -8.84494E+004    2.82757E+006    1.29085E+006
            4090    1.38349E+007    1.29779E+007    1.29779E+007   -3.69400E+005   -1.29781E+006    1.42757E+007   -3.77022E+006    1.37645E+007   -2.99636E+005   -1.13691E+006    1.27472E+007   -5.55826E+004    1.16685E+006    1.34964E+006
            4091    1.42429E+007    1.36287E+007    1.36287E+007   -1.74036E+005   -1.01704E+006    1.46457E+007   -4.14586E+006    1.41866E+007   -1.67831E+005   -9.33562E+005    1.35390E+007    2.22430E+004    2.91747E+005    1.10230E+006
            4092    1.39838E+007    1.35110E+007    1.35110E+007    2.08596E+004   -9.19155E+005    1.44301E+007   -4.20423E+006    1.39125E+007    2.59524E+004   -8.62167E+005    1.34489E+007    1.80960E+003    2.68600E+005    9.02953E+005
            4093    1.39735E+007    1.36284E+007    1.36284E+007    1.24118E+005   -7.71146E+005    1.43996E+007   -4.32714E+006    1.39087E+007    1.24116E+005   -7.41705E+005    1.35990E+007    9.66104E+003   -4.56046E+004    6.48737E+005
            4094    1.38496E+007    1.35203E+007    1.35203E+007    9.23023E+004   -7.15626E+005    1.42359E+007   -4.29899E+006    1.37965E+007    9.26147E+004   -7.04279E+005    1.35086E+007   -5.99600E+003    7.27890E+004    4.00319E+005
            4095    1.38011E+007    1.35157E+007    1.35157E+007    1.24845E+005   -6.61987E+005    1.41777E+007   -4.32620E+006    1.37505E+007    1.25114E+005   -6.60768E+005    1.35142E+007   -7.30077E+003   -6.60214E+004    1.28382E+005
            4096    1.51657E+007    1.24371E+007    1.24371E+007   -1.46458E+006   -3.73643E+006    1.61735E+007   -2.41202E+006    1.47756E+007   -3.21812E+006   -1.36735E+006    1.18215E+007   -1.68368E+005    2.58567E+006    1.64075E+006
            4097    1.33096E+007    1.22741E+007    1.22741E+007   -6.15367E+005   -1.41924E+006    1.36933E+007   -3.41315E+006    1.32548E+007   -6.56214E+005   -1.03147E+006    1.19271E+007   -1.57958E+005    1.27244E+006    1.73293E+006
            4098    1.34787E+007    1.28580E+007    1.28580E+007   -2.75645E+005   -9.41173E+005    1.37991E+007   -3.88038E+006    1.34416E+007   -2.74964E+005   -7.83974E+005    1.27001E+007   -4.33042E+004    3.92228E+005    1.41337E+006
            4099    1.33054E+007    1.28462E+007    1.28462E+007   -7.86349E+004   -8.09656E+005    1.36559E+007   -3.98597E+006    1.32601E+007   -8.23112E+004   -7.02297E+005    1.27425E+007   -6.13588E+004    3.00463E+005    1.14603E+006
            4100    1.32592E+007    1.29717E+007    1.29717E+007    6.91270E+004   -6.17442E+005    1.35891E+007   -4.14113E+006    1.32191E+007    6.63270E+004   -5.63915E+005    1.29210E+007   -4.33453E+004    8.35946E+003    8.28609E+005
            4101    1.31594E+007    1.29065E+007    1.29065E+007    5.69128E+004   -5.42327E+005    1.34488E+007   -4.14035E+006    1.31287E+007    5.16941E+004   -5.17634E+005    1.28870E+007   -5.50083E+004    7.36666E+004    5.06042E+005
            4102    1.31058E+007    1.29092E+007    1.29092E+007    9.89366E+004   -4.73465E+005    1.33827E+007   -4.17822E+006    1.30777E+007    9.43172E+004   -4.66709E+005    1.29071E+007   -5.26270E+004   -4.45320E+004    1.62618E+005
            4103    1.43705E+007    1.16612E+007    1.16612E+007   -1.28118E+006   -3.80347E+006    1.54647E+007   -2.19219E+006    1.38593E+007   -3.31861E+006   -1.15883E+006    1.10540E+007   -2.28971E+005    2.37015E+006    1.76130E+006
            4104    1.27034E+007    1.15264E+007    1.15264E+007   -7.38831E+005   -1.57401E+006    1.31004E+007   -3.07117E+006    1.26414E+007   -1.02914E+006   -8.52140E+005    1.10948E+007   -2.10587E+005    1.39879E+006    1.87065E+006
            4105    1.26342E+007    1.20143E+007    1.20143E+007   -3.75017E+005   -8.51237E+005    1.28656E+007   -3.59603E+006    1.26140E+007   -4.04783E+005   -6.03451E+005    1.17963E+007   -8.25195E+004    5.36003E+005    1.57166E+006
            4106    1.24963E+007    1.20877E+007    1.20877E+007   -1.72487E+005   -6.32085E+005    1.27198E+007   -3.76104E+006    1.24773E+007   -1.92552E+005   -4.67988E+005    1.19437E+007   -7.71224E+004    3.71096E+005    1.29367E+006
            4107    1.24060E+007    1.22048E+007    1.22048E+007    9.59861E+003   -4.01742E+005    1.26065E+007   -3.93755E+006    1.23906E+007    1.62856E+002   -3.21631E+005    1.21341E+007   -5.71062E+004    8.38073E+004    9.37451E+005
            4108    1.23212E+007    1.21837E+007    1.21837E+007    2.22464E+004   -2.91370E+005    1.24751E+007   -3.97152E+006    1.23123E+007    5.65655E+003   -2.47176E+005    1.21561E+007   -6.72489E+004    9.32655E+004    5.78662E+005
            4109    1.22534E+007    1.21780E+007    1.21780E+007    7.12932E+004   -2.16939E+005    1.23950E+007   -4.01079E+006    1.22458E+007    5.31184E+004   -1.95962E+005    1.21752E+007   -7.05094E+004   -2.36311E+004    1.84541E+005
            4110    1.37698E+007    1.10491E+007    1.10491E+007   -9.69628E+005   -3.97520E+006    1.50243E+007   -2.03475E+006    1.30006E+007   -3.55491E+006   -8.60866E+005    1.05200E+007   -2.97419E+005    2.15714E+006    1.62661E+006
            4111    1.23966E+007    1.08424E+007    1.08424E+007   -7.38218E+005   -2.23439E+006    1.30768E+007   -2.62328E+006    1.21910E+007   -1.67220E+006   -8.24395E+005    1.03664E+007   -4.07095E+005    1.60660E+006    1.82528E+006
            4112    1.19548E+007    1.11449E+007    1.11449E+007   -3.72493E+005   -1.20398E+006    1.23488E+007   -3.18947E+006    1.18895E+007   -7.28283E+005   -5.65194E+005    1.08619E+007   -3.08469E+005    7.84881E+005    1.66491E+006
            4113    1.17274E+007    1.12180E+007    1.12180E+007   -1.67646E+005   -8.23646E+005    1.20417E+007   -3.40890E+006    1.16860E+007   -3.88160E+005   -4.15493E+005    1.10304E+007   -2.56131E+005    5.22638E+005    1.39290E+006
            4114    1.15338E+007    1.13203E+007    1.13203E+007    5.33444E+004   -4.62857E+005    1.17832E+007   -3.63694E+006    1.15077E+007   -9.22288E+004   -2.22907E+005    1.12260E+007   -2.16205E+005    2.08083E+005    1.02632E+006
            4115    1.14466E+007    1.13427E+007    1.13427E+007    1.15572E+005   -3.11602E+005    1.16543E+007   -3.71554E+006    1.14287E+007   -3.22939E+004   -1.28635E+005    1.13076E+007   -1.96458E+005    1.39218E+005    6.21274E+005
            4116    1.13688E+007    1.13477E+007    1.13477E+007    1.82068E+005   -2.13934E+005    1.15616E+007   -3.77193E+006    1.13532E+007    3.05834E+004   -5.87094E+004    1.13439E+007   -1.92370E+005    6.68929E+003    2.06514E+005
            4117    1.35775E+007    1.08403E+007    1.08403E+007   -7.75556E+005   -4.08643E+006    1.49267E+007   -1.99276E+006    1.26204E+007   -3.81616E+006   -6.64414E+005    1.04588E+007   -1.63488E+005    1.85653E+006    1.31774E+006
            4118    1.24158E+007    1.04341E+007    1.04341E+007   -6.07263E+005   -3.00604E+006    1.34401E+007   -2.27359E+006    1.18775E+007   -2.65217E+006   -5.26859E+005    9.99980E+006   -3.49029E+005    1.68869E+006    1.58436E+006
            4119    1.16078E+007    1.03297E+007    1.03297E+007   -3.29126E+005   -2.03759E+006    1.23673E+007   -2.65433E+006    1.13197E+007   -1.67199E+006   -3.77288E+005    1.00123E+007   -4.75462E+005    1.11268E+006    1.55743E+006
            4120    1.11188E+007    1.02794E+007    1.02794E+007   -5.79815E+004   -1.48331E+006    1.17627E+007   -2.91269E+006    1.09104E+007   -1.14752E+006   -1.79003E+005    1.00646E+007   -4.82078E+005    7.73559E+005    1.33464E+006
            4121    1.08158E+007    1.03294E+007    1.03294E+007    1.87201E+005   -1.05315E+006    1.13825E+007   -3.15447E+006    1.06540E+007   -7.38807E+005   -1.87977E+004    1.02210E+007   -4.91078E+005    4.48537E+005    9.84830E+005
            4122    1.06804E+007    1.03840E+007    1.03840E+007    3.18377E+005   -8.20017E+005    1.12040E+007   -3.29412E+006    1.05426E+007   -5.41490E+005    7.95950E+004    1.03443E+007   -4.71854E+005    2.65099E+005    5.96761E+005
            4123    1.06286E+007    1.04324E+007    1.04324E+007    3.83873E+005   -6.94194E+005    1.11266E+007   -3.37402E+006    1.05046E+007   -4.27287E+005    1.20914E+005    1.04284E+007   -4.63892E+005    6.93970E+004    1.92900E+005
            4124    1.00358E+007    9.60337E+006    9.60337E+006    6.86047E+005   -1.26456E+006    1.08679E+007   -3.00829E+006    9.59532E+006   -1.16401E+006    5.88842E+005    9.60003E+006   -4.26753E+005    1.26537E+005    1.34092E+005
            4125    1.00920E+007    9.55121E+006    9.55121E+006    6.64908E+005   -1.42056E+006    1.09718E+007   -2.93185E+006    9.58901E+006   -1.31217E+006    5.87206E+005    9.52052E+006   -4.23175E+005    3.68519E+005    4.17842E+005
            4126    1.02569E+007    9.46921E+006    9.46921E+006    5.41180E+005   -1.73430E+006    1.12035E+007   -2.75870E+006    9.66416E+006   -1.61006E+006    5.08214E+005    9.37795E+006   -4.03665E+005    6.16158E+005    7.36561E+005
            4127    1.06253E+007    9.45603E+006    9.45603E+006    2.67053E+005   -2.17900E+006    1.16350E+007   -2.51469E+006    9.96185E+006   -2.03994E+006    3.06137E+005    9.27789E+006   -3.37041E+005    8.73996E+005    1.03605E+006
            4128    1.12574E+007    9.59852E+006    9.59852E+006   -4.69392E+004   -2.77093E+006    1.23695E+007   -2.26022E+006    1.04767E+007   -2.60955E+006    7.73784E+004    9.31282E+006   -2.17538E+005    1.19163E+006    1.29092E+006
            4129    1.22498E+007    1.00560E+007    1.00560E+007   -3.15272E+005   -3.45943E+006    1.35154E+007   -2.09376E+006    1.12872E+007   -3.28411E+006   -1.32264E+005    9.69765E+006   -4.42165E+004    1.46167E+006    1.42577E+006
            4130    1.33770E+007    1.08118E+007    1.08118E+007   -4.20128E+005   -3.98702E+006    1.47989E+007   -2.13490E+006    1.22366E+007   -3.80054E+006   -1.86394E+005    1.03916E+007    1.44464E+005    1.63577E+006    1.59854E+006
            4131    1.42185E+007    1.09112E+007    1.09112E+007   -1.45335E+006   -4.62542E+006    1.55366E+007   -1.61080E+006    1.33872E+007   -4.44714E+006   -1.38559E+006    1.06651E+007    1.92256E+004   -1.62981E+006    9.50098E+005
            4132    1.45086E+007    1.10047E+007    1.10047E+007   -1.25506E+006   -5.01327E+006    1.60179E+007   -1.57878E+006    1.33460E+007   -4.80777E+006   -1.14782E+006    1.06919E+007   -9.78053E+004   -1.79528E+006    1.13935E+006
            4133    1.59330E+007    1.21649E+007    1.21649E+007   -1.19453E+006   -5.46958E+006    1.76344E+007   -1.83358E+006    1.45565E+007   -5.19863E+006   -1.05361E+006    1.17530E+007   -1.83960E+005   -2.16004E+006    1.35267E+006
            4134    1.76177E+007    1.34315E+007    1.34315E+007   -1.16511E+006   -6.13816E+006    1.95697E+007   -2.04275E+006    1.59200E+007   -5.81819E+006   -1.03826E+006    1.29847E+007   -2.41355E+005   -2.47002E+006    1.33983E+006
            4135    1.49929E+007    1.25189E+007    1.25189E+007   -1.42745E+006   -3.33763E+006    1.58565E+007   -2.58459E+006    1.47154E+007   -2.83441E+006   -1.35334E+006    1.19415E+007    1.68943E+005   -2.48068E+006    1.59203E+006
            4136    1.34714E+007    1.25864E+007    1.25864E+007   -3.95164E+005   -1.32661E+006    1.39130E+007   -3.62153E+006    1.33987E+007   -3.71955E+005   -1.07640E+006    1.23129E+007    1.04518E+005   -1.05228E+006    1.61098E+006
            4137    1.39040E+007    1.33100E+007    1.33100E+007   -1.72664E+005   -9.80113E+005    1.42901E+007   -4.05241E+006    1.38511E+007   -1.68214E+005   -8.70825E+005    1.31963E+007    7.78309E+003   -2.79497E+005    1.23738E+006
            4138    1.38248E+007    1.33603E+007    1.33603E+007    6.53641E+003   -8.91730E+005    1.42520E+007   -4.15836E+006    1.37589E+007    8.17966E+003   -8.24308E+005    1.32912E+007    2.83891E+004   -2.26860E+005    9.62243E+005
            4139    1.38774E+007    1.35319E+007    1.35319E+007    1.15057E+005   -7.64304E+005    1.42962E+007   -4.29422E+006    1.38145E+007    1.14964E+005   -7.33595E+005    1.35013E+007    1.40931E+004    3.32985E+004    6.59941E+005
            4140    1.38443E+007    1.35091E+007    1.35091E+007    9.38365E+004   -7.27738E+005    1.42368E+007   -4.29172E+006    1.37893E+007    9.31391E+004   -7.16014E+005    1.34980E+007    2.55546E+004   -5.08762E+004    3.92651E+005
            4141    1.38367E+007    1.35357E+007    1.35357E+007    1.25843E+005   -6.91470E+005    1.42272E+007   -4.32337E+006    1.37822E+007    1.25354E+005   -6.89607E+005    1.35344E+007    2.40900E+004    5.08078E+004    1.29527E+005
            4142    1.41108E+007    1.16276E+007    1.16276E+007   -1.33358E+006   -3.40409E+006    1.50317E+007   -2.29664E+006    1.37628E+007   -2.92804E+006   -1.23783E+006    1.10558E+007    2.36110E+005   -2.23192E+006    1.75452E+006
            4143    1.28421E+007    1.18263E+007    1.18263E+007   -6.09099E+005   -1.38709E+006    1.32134E+007   -3.27670E+006    1.27889E+007   -7.10514E+005   -9.13747E+005    1.14544E+007    1.76164E+005   -1.16994E+006    1.84586E+006
            4144    1.29601E+007    1.24082E+007    1.24082E+007   -2.71137E+005   -8.15599E+005    1.32238E+007   -3.77382E+006    1.29344E+007   -2.71808E+005   -6.31667E+005    1.22249E+007    3.74836E+004   -4.00657E+005    1.49269E+006
            4145    1.29494E+007    1.25608E+007    1.25608E+007   -1.00430E+005   -6.58768E+005    1.32195E+007   -3.93386E+006    1.29223E+007   -1.01718E+005   -5.46090E+005    1.24494E+007    3.82328E+004   -2.77399E+005    1.17570E+006
            4146    1.29994E+007    1.27658E+007    1.27658E+007    4.29789E+004   -4.93589E+005    1.32594E+007   -4.10507E+006    1.29745E+007    4.21011E+004   -4.40795E+005    1.27139E+007    2.06077E+004   -3.49390E+004    8.27328E+005
            4147    1.29879E+007    1.27791E+007    1.27791E+007    3.34815E+004   -4.38338E+005    1.32174E+007   -4.12473E+006    1.29686E+007    3.11444E+004   -4.16057E+005    1.27591E+007    3.27201E+004   -6.14127E+004    5.09331E+005
            4148    1.29805E+007    1.28162E+007    1.28162E+007    7.11695E+004   -3.87644E+005    1.32038E+007   -4.16656E+006    1.29622E+007    6.87532E+004   -3.83179E+005    1.28141E+007    3.39268E+004    2.66031E+004    1.62121E+005
            4149    1.36744E+007    1.10543E+007    1.10543E+007   -1.17993E+006   -3.70745E+006    1.47618E+007   -2.05566E+006    1.31333E+007   -3.23732E+006   -1.11391E+006    1.05182E+007    3.70961E+005   -2.08709E+006    1.73134E+006
            4150    1.22181E+007    1.09351E+007    1.09351E+007   -6.31279E+005   -1.84437E+006    1.27794E+007   -2.81981E+006    1.20815E+007   -1.25774E+006   -7.62411E+005    1.04796E+007    3.66141E+005   -1.39550E+006    1.90110E+006
            4151    1.20840E+007    1.14253E+007    1.14253E+007   -3.04921E+005   -9.83859E+005    1.24091E+007   -3.37883E+006    1.20409E+007   -4.78838E+005   -5.70129E+005    1.11855E+007    2.31173E+005   -6.23238E+005    1.58828E+006
            4152    1.20339E+007    1.16414E+007    1.16414E+007   -1.05159E+005   -6.60642E+005    1.23021E+007   -3.62520E+006    1.20050E+007   -1.87241E+005   -4.22316E+005    1.14852E+007    1.65973E+005   -4.03620E+005    1.31654E+006
            4153    1.19729E+007    1.17973E+007    1.17973E+007    7.33136E+004   -4.09922E+005    1.22072E+007   -3.82023E+006    1.19509E+007    3.70734E+004   -2.94636E+005    1.17183E+007    1.19241E+005   -1.29659E+005    9.70046E+005
            4154    1.19308E+007    1.18454E+007    1.18454E+007    1.05418E+005   -2.67417E+005    1.21128E+007   -3.89448E+006    1.19177E+007    7.14596E+004   -2.03595E+005    1.18156E+007    1.03748E+005   -9.31816E+004    5.93202E+005
            4155    1.19176E+007    1.18896E+007    1.18896E+007    1.47708E+005   -1.96118E+005    1.20858E+007   -3.94708E+006    1.19064E+007    1.17987E+005   -1.63260E+005    1.18865E+007    9.67699E+004    7.85923E+003    1.94252E+005
            4156    1.29695E+007    1.03657E+007    1.03657E+007   -6.24407E+005   -3.93967E+006    1.43054E+007   -1.93387E+006    1.19592E+007   -3.61545E+006   -5.37920E+005    9.95499E+006    2.94333E+005   -1.88089E+006    1.35040E+006
            4157    1.23423E+007    1.04894E+007    1.04894E+007   -6.18741E+005   -2.79702E+006    1.32864E+007   -2.35787E+006    1.18982E+007   -2.36133E+006   -6.58273E+005    1.00932E+007    4.75986E+005   -1.64146E+006    1.50153E+006
            4158    1.16800E+007    1.05867E+007    1.05867E+007   -2.87844E+005   -1.75926E+006    1.23460E+007   -2.84653E+006    1.14687E+007   -1.36851E+006   -3.77605E+005    1.02857E+007    4.63449E+005   -1.03019E+006    1.56406E+006
            4159    1.12723E+007    1.05495E+007    1.05495E+007   -7.74902E+004   -1.27279E+006    1.18223E+007   -3.06640E+006    1.11283E+007   -9.09704E+005   -2.39693E+005    1.03486E+007    4.54488E+005   -6.78807E+005    1.34245E+006
            4160    1.10114E+007    1.06280E+007    1.06280E+007    1.62608E+005   -8.58248E+005    1.14863E+007   -3.31080E+006    1.09042E+007   -5.34584E+005   -6.05261E+004    1.05275E+007    4.39177E+005   -3.70227E+005    9.85005E+005
            4161    1.09403E+007    1.07015E+007    1.07015E+007    2.51268E+005   -6.70617E+005    1.13721E+007   -3.42738E+006    1.08524E+007   -3.73541E+005   -8.52679E+003    1.06642E+007    4.18066E+005   -2.17022E+005    6.02508E+005
            4162    1.08991E+007    1.07584E+007    1.07584E+007    3.18064E+005   -5.47834E+005    1.13062E+007   -3.50954E+006    1.08213E+007   -2.66263E+005    4.05497E+004    1.07543E+007    4.04619E+005   -5.31540E+004    2.03628E+005
            4163    1.00956E+007    9.69237E+006    9.69237E+006    6.42327E+005   -1.19611E+006    1.08885E+007   -3.04620E+006    9.70822E+006   -1.08983E+006    5.39394E+005    9.68903E+006    4.24821E+005   -1.24087E+005    1.37089E+005
            4164    1.01226E+007    9.62605E+006    9.62605E+006    6.50811E+005   -1.34627E+006    1.09723E+007   -2.97686E+006    9.66437E+006   -1.23405E+006    5.69913E+005    9.59473E+006    4.22931E+005   -3.56280E+005    4.35139E+005
            4165    1.02664E+007    9.54152E+006    9.54152E+006    5.32669E+005   -1.63597E+006    1.11775E+007   -2.81274E+006    9.73085E+006   -1.51141E+006    4.99007E+005    9.45062E+006    4.01721E+005   -5.85503E+005    7.56526E+005
            4166    1.05917E+007    9.52238E+006    9.52238E+006    3.10433E+005   -2.05055E+006    1.15729E+007   -2.59409E+006    9.97350E+006   -1.91094E+006    3.58973E+005    9.33424E+006    3.37618E+005   -8.48975E+005    1.09519E+006
            4167    1.12998E+007    9.70963E+006    9.70963E+006   -9.86560E+004   -2.64667E+006    1.23563E+007   -2.32144E+006    1.06243E+007   -2.48266E+006    5.05844E+004    9.39638E+006    2.21609E+005   -1.16720E+006    1.41605E+006
            4168    1.25057E+007    1.04295E+007    1.04295E+007   -2.88995E+005   -3.30997E+006    1.37394E+007   -2.27684E+006    1.16415E+007   -3.11875E+006   -5.89290E+004    1.00082E+007    5.71362E+004   -1.51315E+006    1.63305E+006
            4169    1.40610E+007    1.14155E+007    1.14155E+007   -8.08759E+005   -3.95057E+006    1.53661E+007   -2.21873E+006    1.32362E+007   -3.75372E+006   -6.64122E+005    1.10740E+007    2.96525E+004   -1.67262E+006    1.38063E+006
            4170    1.06247E+007    1.04266E+007    1.04266E+007    3.84280E+005   -6.97672E+005    1.11243E+007   -3.37108E+006    1.04997E+007   -4.31983E+005    1.22891E+005    1.04223E+007   -4.64183E+005   -7.14567E+004   -2.01509E+005
            4171    1.13599E+007    1.13370E+007    1.13370E+007    1.81138E+005   -2.16531E+005    1.15535E+007   -3.76720E+006    1.13442E+007    2.60843E+004   -5.74129E+004    1.13329E+007   -1.93802E+005   -9.98397E+003   -2.15116E+005
            4172    1.22479E+007    1.21712E+007    1.21712E+007    6.94574E+004   -2.17834E+005    1.23890E+007   -4.00761E+006    1.22403E+007    5.09537E+004   -1.96085E+005    1.21680E+007   -7.09458E+004    2.11471E+004   -1.99062E+005
            4173    1.31053E+007    1.29081E+007    1.29081E+007    9.86451E+004   -4.74244E+005    1.33824E+007   -4.17750E+006    1.30771E+007    9.38230E+004   -4.66915E+005    1.29056E+007   -5.37226E+004    4.32542E+004   -1.77543E+005
            4174    1.38031E+007    1.35168E+007    1.35168E+007    1.24916E+005   -6.63740E+005    1.41805E+007   -4.32599E+006    1.37523E+007    1.25145E+005   -6.62284E+005    1.35151E+007   -8.89310E+003    6.48871E+004   -1.39372E+005
            4175    1.43368E+007    1.39473E+007    1.39473E+007    1.16818E+005   -8.47301E+005    1.47946E+007   -4.40560E+006    1.42636E+007    1.17169E+005   -8.46666E+005    1.39463E+007   -9.83542E+003    7.80747E+004   -8.97427E+004
            4176    1.46218E+007    1.41962E+007    1.41962E+007    1.39165E+005   -9.31346E+005    1.51276E+007   -4.46802E+006    1.45332E+007    1.39646E+005   -9.31250E+005    1.41957E+007   -3.60334E+003    8.31340E+004   -3.58757E+004
            4177    1.46582E+007    1.42140E+007    1.42140E+007    1.24430E+005   -9.53264E+005    1.51673E+007   -4.46172E+006    1.45686E+007    1.24875E+005   -9.53215E+005    1.42135E+007    2.93300E+003    7.98502E+004    2.52537E+004
            4178    1.43962E+007    1.40122E+007    1.40122E+007    1.30217E+005   -8.48272E+005    1.48605E+007   -4.43139E+006    1.43211E+007    1.30457E+005   -8.47835E+005    1.40115E+007   -7.58812E+003    6.50280E+004    7.43892E+004
            4179    1.06742E+007    1.03717E+007    1.03717E+007    3.18650E+005   -8.30693E+005    1.12024E+007   -3.28654E+006    1.05336E+007   -5.51607E+005    8.05709E+004    1.03307E+007   -4.74585E+005   -2.70877E+005   -6.05216E+005
            4180    1.14365E+007    1.13284E+007    1.13284E+007    1.14590E+005   -3.18447E+005    1.16469E+007   -3.70819E+006    1.14180E+007   -3.94512E+004   -1.27409E+005    1.12914E+007   -2.00098E+005   -1.43907E+005   -6.37228E+005
            4181    1.23215E+007    1.21809E+007    1.21809E+007    2.12789E+004   -2.96314E+005    1.24772E+007   -3.96863E+006    1.23123E+007    4.70378E+003   -2.50286E+005    1.21515E+007   -6.75163E+004   -9.54170E+004   -5.97882E+005
            4182    1.31716E+007    1.29149E+007    1.29149E+007    5.59320E+004   -5.48391E+005    1.34633E+007   -4.14082E+006    1.31403E+007    5.11488E+004   -5.22792E+005    1.28941E+007   -5.29184E+004   -7.50885E+004   -5.23582E+005
            4183    1.38653E+007    1.35324E+007    1.35324E+007    9.16396E+004   -7.21622E+005    1.42540E+007   -4.30081E+006    1.38115E+007    9.19901E+004   -7.09781E+005    1.35202E+007   -3.93125E+003   -7.30276E+004   -4.09880E+005
            4184    1.43902E+007    1.39566E+007    1.39566E+007    8.22924E+004   -8.99294E+005    1.48559E+007   -4.37986E+006    1.43146E+007    8.26135E+004   -8.94554E+005    1.39515E+007   -6.68288E+003   -7.33123E+004   -2.63486E+005
            4185    1.46578E+007    1.41988E+007    1.41988E+007    1.11747E+005   -9.69858E+005    1.51687E+007   -4.44690E+006    1.45676E+007    1.12149E+005   -9.69285E+005    1.41978E+007    4.16453E+002   -7.52800E+004   -9.32621E+004
            4186    1.46868E+007    1.42081E+007    1.42081E+007    9.38513E+004   -9.91138E+005    1.51992E+007   -4.43692E+006    1.45962E+007    9.41371E+004   -9.90679E+005    1.42073E+007    5.51865E+003   -6.69839E+004    8.06182E+004
            4187    1.44017E+007    1.39888E+007    1.39888E+007    1.01918E+005   -8.77771E+005    1.48665E+007   -4.40430E+006    1.43264E+007    1.02149E+005   -8.73457E+005    1.39842E+007   -6.58683E+003   -6.03889E+004    2.52293E+005
            4188    1.08160E+007    1.03198E+007    1.03198E+007    1.81849E+005   -1.06598E+006    1.13858E+007   -3.14522E+006    1.06522E+007   -7.53212E+005   -1.96074E+004    1.02085E+007   -4.90536E+005   -4.57364E+005   -9.96766E+005
            4189    1.15431E+007    1.13183E+007    1.13183E+007    4.28001E+004   -4.74820E+005    1.17932E+007   -3.62877E+006    1.15169E+007   -1.04885E+005   -2.28747E+005    1.12200E+007   -2.16378E+005   -2.20581E+005   -1.04655E+006
            4190    1.24311E+007    1.22187E+007    1.22187E+007    3.12693E+003   -4.17270E+005    1.26359E+007   -3.93484E+006    1.24150E+007   -6.18771E+003   -3.33709E+005    1.21444E+007   -5.69987E+004   -9.25174E+004   -9.61241E+005
            4191    1.32951E+007    1.29986E+007    1.29986E+007    6.82103E+004   -6.33404E+005    1.36320E+007   -4.14447E+006    1.32533E+007    6.53154E+004   -5.77971E+005    1.29461E+007   -4.42123E+004   -1.51175E+004   -8.44469E+005
            4192    1.40059E+007    1.36545E+007    1.36545E+007    1.24659E+005   -7.83269E+005    1.44378E+007   -4.33197E+006    1.39395E+007    1.24686E+005   -7.53619E+005    1.36248E+007    7.80069E+003    4.25729E+004   -6.52457E+005
            4193    1.45466E+007    1.41112E+007    1.41112E+007    1.18485E+005   -9.32258E+005    1.50434E+007   -4.43247E+006    1.44608E+007    1.18914E+005   -9.20825E+005    1.40993E+007   -1.26789E+003    7.76032E+004   -4.14545E+005
            4194    1.48115E+007    1.43559E+007    1.43559E+007    1.49606E+005   -9.94432E+005    1.53503E+007   -4.50368E+006    1.47116E+007    1.50176E+005   -9.93242E+005    1.43541E+007   -2.53213E+003    9.01700E+004   -1.34955E+005
            4195    1.48029E+007    1.43349E+007    1.43349E+007    1.28514E+005   -9.99973E+005    1.53349E+007   -4.48781E+006    1.47057E+007    1.29051E+005   -9.98437E+005    1.43328E+007   -4.66109E+003    8.95419E+004    1.52083E+005
            4196    1.44893E+007    1.40802E+007    1.40802E+007    1.38449E+005   -9.00692E+005    1.49809E+007   -4.43933E+006    1.44051E+007    1.38111E+005   -8.88077E+005    1.40680E+007   -2.39103E+004    6.54732E+004    4.23396E+005
            4197    1.11389E+007    1.02866E+007    1.02866E+007   -6.86116E+004   -1.49804E+006    1.17846E+007   -2.90664E+006    1.09297E+007   -1.16240E+006   -1.84420E+005    1.00667E+007   -4.79311E+005   -7.86967E+005   -1.34907E+006
            4198    1.17579E+007    1.12325E+007    1.12325E+007   -1.82246E+005   -8.40963E+005    1.20734E+007   -3.40308E+006    1.17163E+007   -4.03171E+005   -4.26393E+005    1.10388E+007   -2.55085E+005   -5.37060E+005   -1.41453E+006
            4199    1.25490E+007    1.21247E+007    1.21247E+007   -1.82897E+005   -6.52488E+005    1.27772E+007   -3.76310E+006    1.25292E+007   -2.00788E+005   -4.86250E+005    1.19763E+007   -7.41166E+004   -3.83394E+005   -1.31392E+006
            4200    1.33616E+007    1.28897E+007    1.28897E+007   -8.46258E+004   -8.28042E+005    1.37178E+007   -3.99236E+006    1.33149E+007   -8.70092E+004   -7.20855E+005    1.27849E+007   -5.76189E+004   -3.10303E+005   -1.15265E+006
            4201    1.40302E+007    1.35495E+007    1.35495E+007    1.81439E+004   -9.31480E+005    1.44809E+007   -4.21204E+006    1.39577E+007    2.35877E+004   -8.76034E+005    1.34886E+007    5.39429E+003   -2.75062E+005   -8.93023E+005
            4202    1.45302E+007    1.39890E+007    1.39890E+007    3.90266E+004   -1.05898E+006    1.50480E+007   -4.32302E+006    1.44364E+007    4.36590E+004   -1.03908E+006    1.39645E+007   -9.73044E+002   -2.57006E+005   -5.45543E+005
            4203    1.47630E+007    1.42262E+007    1.42262E+007    9.46800E+004   -1.09612E+006    1.53223E+007   -4.40825E+006    1.46543E+007    9.89944E+004   -1.09463E+006    1.42204E+007    5.12610E+003   -2.47018E+005   -1.50964E+005
            4204    1.47437E+007    1.41894E+007    1.41894E+007    6.81979E+004   -1.10639E+006    1.52958E+007   -4.38374E+006    1.46378E+007    7.19093E+004   -1.10160E+006    1.41809E+007    4.72634E+003   -2.31039E+005    2.68936E+005
            4205    1.44052E+007    1.39086E+007    1.39086E+007    6.54640E+004   -9.99674E+005    1.49082E+007   -4.32478E+006    1.43162E+007    6.91984E+004   -9.71887E+005    1.38770E+007   -9.70375E+003   -2.27129E+005    6.42945E+005
            4206    1.16388E+007    1.03429E+007    1.03429E+007   -3.44349E+005   -2.05756E+006    1.24004E+007   -2.64698E+006    1.13499E+007   -1.69323E+006   -3.85639E+005    1.00198E+007   -4.68819E+005   -1.13245E+006   -1.56684E+006
            4207    1.20023E+007    1.11705E+007    1.11705E+007   -3.94626E+005   -1.22568E+006    1.23962E+007   -3.18340E+006    1.19373E+007   -7.49519E+005   -5.79803E+005    1.08795E+007   -3.03498E+005   -8.13070E+005   -1.68374E+006
            4208    1.26944E+007    1.20567E+007    1.20567E+007   -3.87348E+005   -8.74019E+005    1.29307E+007   -3.59844E+006    1.26734E+007   -4.15918E+005   -6.23017E+005    1.18343E+007   -8.20571E+004   -5.57696E+005   -1.58610E+006
            4209    1.35426E+007    1.29115E+007    1.29115E+007   -2.76565E+005   -9.59890E+005    1.38714E+007   -3.89168E+006    1.35038E+007   -2.76115E+005   -8.02961E+005    1.27541E+007   -4.66217E+004   -4.02560E+005   -1.41203E+006
            4210    1.42906E+007    1.36735E+007    1.36735E+007   -1.71117E+005   -1.02473E+006    1.46983E+007   -4.15922E+006    1.42330E+007   -1.65024E+005   -9.44192E+005    1.35869E+007    1.79393E+004   -2.90213E+005   -1.08472E+006
            4211    1.48729E+007    1.42110E+007    1.42110E+007   -1.70307E+005   -1.10904E+006    1.53201E+007   -4.31056E+006    1.48061E+007   -1.66765E+005   -1.08114E+006    1.41796E+007    8.48620E+003   -2.25563E+005   -6.53051E+005
            4212    1.51163E+007    1.44609E+007    1.44609E+007   -1.27598E+005   -1.13310E+006    1.55939E+007   -4.40005E+006    1.50408E+007   -1.24994E+005   -1.13185E+006    1.44570E+007   -4.23529E+003   -1.96234E+005   -1.37528E+005
            4213    1.50406E+007    1.43824E+007    1.43824E+007   -1.43581E+005   -1.12485E+006    1.55072E+007   -4.37132E+006    1.49684E+007   -1.41339E+005   -1.11556E+006    1.43708E+007   -2.00289E+004   -1.89520E+005    3.74421E+005
            4214    1.46069E+007    1.39899E+007    1.39899E+007   -1.24224E+005   -1.06422E+006    1.50541E+007   -4.26716E+006    1.45386E+007   -1.21592E+005   -1.01482E+006    1.39379E+007   -3.95945E+004   -2.17694E+005    8.54002E+005
            4215    1.24584E+007    1.04563E+007    1.04563E+007   -6.17484E+005   -3.03306E+006    1.34893E+007   -2.26858E+006    1.19144E+007   -2.67634E+006   -5.34688E+005    1.00168E+007   -3.47642E+005   -1.70456E+006   -1.59334E+006
            4216    1.24598E+007    1.08789E+007    1.08789E+007   -7.58421E+005   -2.26622E+006    1.31451E+007   -2.61808E+006    1.22520E+007   -1.70103E+006   -8.39998E+005    1.03953E+007   -4.04471E+005   -1.63365E+006   -1.83517E+006
            4217    1.27626E+007    1.15720E+007    1.15720E+007   -7.55933E+005   -1.58500E+006    1.31570E+007   -3.07701E+006    1.27018E+007   -1.04204E+006   -8.63244E+005    1.11363E+007   -2.04069E+005   -1.42639E+006   -1.86988E+006
            4218    1.33398E+007    1.23085E+007    1.23085E+007   -6.10523E+005   -1.41561E+006    1.37241E+007   -3.42746E+006    1.32850E+007   -6.44548E+005   -1.03698E+006    1.19639E+007   -1.54988E+005   -1.28394E+006   -1.71833E+006
            4219    1.38351E+007    1.30000E+007    1.30000E+007   -3.34870E+005   -1.28635E+006    1.42863E+007   -3.79292E+006    1.37612E+007   -2.63721E+005   -1.13295E+006    1.27754E+007   -5.21400E+004   -1.15545E+006   -1.32777E+006
            4220    1.41830E+007    1.34523E+007    1.34523E+007   -1.51349E+005   -1.24653E+006    1.46988E+007   -4.01813E+006    1.40874E+007   -7.43935E+004   -1.20057E+006    1.33294E+007   -2.94820E+004   -1.06586E+006   -7.57543E+005
            4221    1.43343E+007    1.36831E+007    1.36831E+007   -8.20293E+003   -1.21749E+006    1.49006E+007   -4.15247E+006    1.42188E+007    6.53357E+004   -1.21669E+006    1.36088E+007    3.68487E+003   -1.00079E+006   -1.08418E+005
            4222    1.42851E+007    1.35917E+007    1.35917E+007   -7.26406E+004   -1.24212E+006    1.48339E+007   -4.09233E+006    1.41768E+007   -3.70335E+003   -1.21710E+006    1.34978E+007    1.99713E+004   -9.89746E+005    5.70974E+005
            4223    1.39824E+007    1.32434E+007    1.32434E+007   -1.69193E+005   -1.24643E+006    1.44898E+007   -3.94259E+006    1.38885E+007   -1.06704E+005   -1.14124E+006    1.30757E+007    3.38127E+004   -1.00468E+006    1.15339E+006
            4224    1.35875E+007    1.08463E+007    1.08463E+007   -7.74270E+005   -4.09315E+006    1.49395E+007   -1.99297E+006    1.26263E+007   -3.82217E+006   -6.58738E+005    1.04598E+007   -1.56741E+005   -1.86355E+006   -1.33247E+006
            4225    1.38308E+007    1.10904E+007    1.10904E+007   -9.85405E+005   -3.99849E+006    1.50889E+007   -2.03551E+006    1.30613E+007   -3.57599E+006   -8.74660E+005    1.05572E+007   -2.92248E+005   -2.17445E+006   -1.63135E+006
            4226    1.44274E+007    1.17006E+007    1.17006E+007   -1.29281E+006   -3.82541E+006    1.55260E+007   -2.19412E+006    1.39140E+007   -3.33952E+006   -1.16772E+006    1.10896E+007   -2.18921E+005   -2.39188E+006   -1.75716E+006
            4227    1.51955E+007    1.24657E+007    1.24657E+007   -1.46795E+006   -3.73661E+006    1.62023E+007   -2.42037E+006    1.48073E+007   -3.21658E+006   -1.37047E+006    1.18482E+007   -1.63040E+005   -2.59953E+006   -1.63370E+006
            4228    1.58885E+007    1.32110E+007    1.32110E+007   -1.51200E+006   -3.63043E+006    1.68414E+007   -2.68953E+006    1.55660E+007   -3.09476E+006   -1.44916E+006    1.26125E+007   -8.29027E+004   -2.82321E+006   -1.28245E+006
            4229    1.64216E+007    1.37404E+007    1.37404E+007   -1.56696E+006   -3.60514E+006    1.73455E+007   -2.85609E+006    1.61333E+007   -3.06337E+006   -1.54679E+006    1.31784E+007   -4.12942E+004   -2.97383E+006   -7.45499E+005
            4230    1.65675E+007    1.39364E+007    1.39364E+007   -1.59007E+006   -3.50562E+006    1.74420E+007   -2.94691E+006    1.63156E+007   -2.97125E+006   -1.58993E+006    1.34019E+007    2.80259E+003   -3.00576E+006   -4.95404E+004
            4231    1.63679E+007    1.37699E+007    1.37699E+007   -1.56586E+006   -3.46447E+006    1.72344E+007   -2.91320E+006    1.61174E+007   -2.93477E+006   -1.55405E+006    1.32284E+007    5.03174E+004   -2.93350E+006    6.44526E+005
            4232    1.57509E+007    1.32305E+007    1.32305E+007   -1.50960E+006   -3.36659E+006    1.65971E+007   -2.78478E+006    1.55018E+007   -2.84960E+006   -1.46136E+006    1.26653E+007    8.98761E+004   -2.73893E+006    1.21955E+006
            4233    1.94645E+007    1.48828E+007    1.48828E+007   -1.09205E+006   -6.79657E+006    2.16794E+007   -2.33139E+006    1.74296E+007   -6.44575E+006   -1.01408E+006    1.44540E+007   -2.34158E+005   -2.72457E+006    1.10299E+006
            4234    2.08141E+007    1.59371E+007    1.59371E+007   -1.03159E+006   -7.28751E+006    2.32246E+007   -2.53933E+006    1.85149E+007   -6.92761E+006   -1.00749E+006    1.55531E+007   -1.41528E+005   -2.86467E+006    6.34297E+005
            4235    2.13859E+007    1.64150E+007    1.64150E+007   -1.00668E+006   -7.45239E+006    2.38674E+007   -2.65197E+006    1.90090E+007   -7.08952E+006   -1.00666E+006    1.60521E+007   -1.48458E+003   -2.92047E+006   -1.72560E+004
            4236    2.08711E+007    1.59573E+007    1.59573E+007   -1.03966E+006   -7.33742E+006    2.32947E+007   -2.52674E+006    1.85455E+007   -6.97979E+006   -1.01316E+006    1.55732E+007    1.40055E+005   -2.86034E+006   -6.64789E+005
            4237    1.95625E+007    1.49055E+007    1.49055E+007   -1.11156E+006   -6.89734E+006    2.18029E+007   -2.29887E+006    1.74763E+007   -6.55102E+006   -1.03165E+006    1.44793E+007    2.32964E+005   -2.71529E+006   -1.11792E+006
            4238    1.78775E+007    1.35810E+007    1.35810E+007   -1.16247E+006   -6.30394E+006    1.98849E+007   -2.03818E+006    1.60837E+007   -5.98752E+006   -1.03880E+006    1.31409E+007    2.56256E+005   -2.47474E+006   -1.33068E+006
            4239    1.62306E+007    1.22791E+007    1.22791E+007   -1.27192E+006   -5.70854E+006    1.79876E+007   -1.76620E+006    1.47713E+007   -5.43848E+006   -1.13572E+006    1.18728E+007    2.16350E+005   -2.17669E+006   -1.33804E+006
            4240    1.51102E+007    1.15210E+007    1.15210E+007   -1.23900E+006   -5.16457E+006    1.66856E+007   -1.70580E+006    1.38917E+007   -4.94449E+006   -1.11907E+006    1.11810E+007    1.43987E+005   -1.89666E+006   -1.22280E+006
            4241    1.44853E+007    1.14595E+007    1.14595E+007   -7.49422E+005   -4.54598E+006    1.60055E+007   -2.05471E+006    1.32951E+007   -4.33810E+006   -5.77725E+005    1.10800E+007    1.89146E+005   -1.80162E+006   -1.42600E+006
            4242    1.00360E+007    9.60114E+006    9.60114E+006    6.81971E+005   -1.26612E+006    1.08673E+007   -3.00567E+006    9.59671E+006   -1.16555E+006    5.84794E+005    9.59775E+006   -4.26450E+005   -1.27239E+005   -1.35285E+005
            4243    1.00886E+007    9.54712E+006    9.54712E+006    6.66853E+005   -1.42253E+006    1.09696E+007   -2.93048E+006    9.58345E+006   -1.31423E+006    5.89440E+005    9.51624E+006   -4.23339E+005   -3.68323E+005   -4.19861E+005
            4244    1.02570E+007    9.46482E+006    9.46482E+006    5.41806E+005   -1.74137E+006    1.12062E+007   -2.75509E+006    9.66010E+006   -1.61747E+006    5.10261E+005    9.37247E+006   -4.02422E+005   -6.19170E+005   -7.41046E+005
            4245    1.06318E+007    9.45146E+006    9.45146E+006    2.59961E+005   -2.19220E+006    1.16437E+007   -2.50641E+006    9.96532E+006   -2.05352E+006    3.01956E+005    9.27079E+006   -3.33024E+005   -8.79889E+005   -1.04343E+006
            4246    1.12891E+007    9.61338E+006    9.61338E+006   -5.51874E+004   -2.79270E+006    1.24061E+007   -2.25516E+006    1.05026E+007   -2.63119E+006    7.36329E+004    9.32305E+006   -2.10015E+005   -1.20222E+006   -1.30241E+006
            4247    1.22874E+007    1.00787E+007    1.00787E+007   -3.26931E+005   -3.47718E+006    1.35558E+007   -2.09152E+006    1.13241E+007   -3.30135E+006   -1.41151E+005    9.71706E+006   -3.98295E+004   -1.46787E+006   -1.43609E+006
            4248    1.33693E+007    1.08037E+007    1.08037E+007   -4.12900E+005   -3.99041E+006    1.47941E+007   -2.13347E+006    1.22209E+007   -3.80445E+006   -1.78230E+005    1.03831E+007    1.50621E+005   -1.63375E+006   -1.59947E+006
            4249    1.15345E+007    1.18574E+007    1.18574E+007    4.91119E+005    1.61885E+005    1.16955E+007   -4.17014E+006    1.15239E+007    1.66167E+005    4.90553E+005    1.18537E+007    3.72152E+004    4.73634E+003   -2.05456E+005
            4250    1.27385E+007    1.29405E+007    1.29405E+007    3.74168E+005    3.64583E+004    1.29040E+007   -4.45037E+006    1.27285E+007    5.87985E+004    3.54550E+005    1.29378E+007   -8.38420E+004   -6.79753E+003   -1.85003E+005
            4251    1.38318E+007    1.38330E+007    1.38330E+007    5.65004E+004   -5.35348E+004    1.38865E+007   -4.61198E+006    1.38308E+007    5.61757E+004   -5.12540E+004    1.38310E+007   -5.94755E+003   -2.01974E+003   -1.64788E+005
            4252    1.46799E+007    1.45518E+007    1.45518E+007    8.97512E+004   -3.36667E+005    1.48885E+007   -4.76830E+006    1.46660E+007    8.48835E+004   -3.30681E+005    1.45507E+007   -4.53558E+004    5.20949E+003   -1.28889E+005
            4253    1.15361E+007    1.18306E+007    1.18306E+007    4.35580E+005    1.58366E+005    1.16722E+007   -4.14151E+006    1.15286E+007    1.65085E+005    4.60948E+005    1.17985E+007    4.34258E+004   -1.53736E+004   -6.03744E+005
            4254    1.27395E+007    1.29538E+007    1.29538E+007    3.78529E+005    5.62604E+004    1.28976E+007   -4.46288E+006    1.27303E+007    9.35949E+004    3.65512E+005    1.29295E+007   -9.92461E+004   -7.95300E+004   -5.48242E+005
            4255    1.38553E+007    1.38707E+007    1.38707E+007    9.75228E+004   -6.52855E+004    1.39360E+007   -4.63432E+006    1.38532E+007    9.62742E+004   -4.58110E+004    1.38525E+007   -1.46242E+004   -1.11428E+005   -4.91136E+005
            4256    1.47079E+007    1.46192E+007    1.46192E+007    1.57998E+005   -3.23586E+005    1.49428E+007   -4.81788E+006    1.46902E+007    1.51033E+005   -3.06381E+005    1.46090E+007   -5.86494E+004   -1.27453E+005   -3.69424E+005
            4257    1.15918E+007    1.17771E+007    1.17771E+007    3.30128E+005    4.58062E+004    1.17313E+007   -4.05102E+006    1.15839E+007    6.42470E+004    4.05636E+005    1.16832E+007    6.50204E+004    5.43624E+004   -1.03250E+006
            4258    1.28401E+007    1.29637E+007    1.29637E+007    2.87941E+005   -3.46477E+004    1.29984E+007   -4.40567E+006    1.28310E+007    1.40011E+004    3.06847E+005    1.28962E+007   -1.10982E+005   -6.23263E+004   -9.23126E+005
            4259    1.39566E+007    1.39070E+007    1.39070E+007    8.53337E+003   -1.07022E+005    1.40140E+007   -4.60285E+006    1.39556E+007    2.41819E+003   -5.37901E+004    1.38599E+007   -2.18730E+004   -8.82745E+004   -8.06340E+005
            4260    1.48363E+007    1.46757E+007    1.46757E+007    4.89110E+004   -3.61540E+005    1.50372E+007   -4.78769E+006    1.48235E+007    3.76597E+004   -3.22283E+005    1.46477E+007   -6.47786E+004   -8.32311E+004   -6.42958E+005
            4261    1.17178E+007    1.17393E+007    1.17393E+007    1.51514E+005   -1.04338E+005    1.18436E+007   -3.92881E+006    1.17115E+007   -1.31335E+004    2.44431E+005    1.15551E+007    1.07968E+005    1.20858E+005   -1.45093E+006
            4262    1.28404E+007    1.29918E+007    1.29918E+007    3.03427E+005    4.63201E+003    1.29872E+007   -4.43330E+006    1.28326E+007    1.30387E+005    3.02827E+005    1.28667E+007   -1.36743E+005   -1.14826E+005   -1.25617E+006
            4263    1.39275E+007    1.39425E+007    1.39425E+007    1.59837E+005   -1.25331E+005    1.40679E+007   -4.65902E+006    1.39209E+007    1.43353E+005   -1.52870E+004    1.38490E+007   -5.52583E+004   -2.13384E+005   -1.12327E+006
            4264    1.48472E+007    1.48142E+007    1.48142E+007    2.72376E+005   -3.20589E+005    1.51348E+007   -4.92200E+006    1.48205E+007    2.50437E+005   -2.38928E+005    1.47545E+007   -1.06676E+005   -2.61828E+005   -9.11924E+005
            4265    1.19865E+007    1.16526E+007    1.16526E+007   -7.14391E+004   -5.80149E+005    1.22327E+007   -3.66699E+006    1.19621E+007   -3.89405E+005    3.98961E+004    1.13505E+007    1.81252E+005    4.09748E+005   -1.83517E+006
            4266    1.28821E+007    1.27691E+007    1.27691E+007   -7.71153E+003   -2.15897E+005    1.29850E+007   -4.18181E+006    1.28783E+007   -1.54479E+005    1.30910E+005    1.25690E+007   -1.02800E+005    5.79366E+004   -1.58846E+006
            4267    1.39636E+007    1.37816E+007    1.37816E+007   -1.07941E+005   -2.54815E+005    1.40364E+007   -4.47295E+006    1.39618E+007   -1.40655E+005   -6.55630E+004    1.36251E+007   -5.91580E+004   -2.17220E+004   -1.47220E+006
            4268    1.49176E+007    1.46905E+007    1.46905E+007   -3.04821E+004   -4.16275E+005    1.51068E+007   -4.74791E+006    1.49064E+007   -5.49129E+004   -2.92001E+005    1.45907E+007   -9.20980E+004   -2.72104E+004   -1.22291E+006
            4269    1.19606E+007    1.12091E+007    1.12091E+007   -2.64602E+005   -1.18525E+006    1.23943E+007   -3.25307E+006    1.18805E+007   -7.30699E+005   -3.26670E+005    1.08166E+007    3.42992E+005    6.98395E+005   -2.03324E+006
            4270    1.25096E+007    1.23628E+007    1.23628E+007   -1.78964E+004   -2.71842E+005    1.26347E+007   -4.02437E+006    1.25038E+007   -6.87254E+004    8.72982E+004    1.20545E+007   -1.18308E+005    9.28820E+004   -1.94226E+006
            4271    1.36911E+007    1.35487E+007    1.35487E+007    8.45226E+004   -3.58554E+005    1.39072E+007   -4.42488E+006    1.36749E+007    4.11450E+004   -7.26944E+004    1.33062E+007   -1.17385E+005   -1.24883E+005   -1.81408E+006
            4272    1.47156E+007    1.46363E+007    1.46363E+007    2.67423E+005   -4.03081E+005    1.50394E+007   -4.83354E+006    1.46811E+007    1.95768E+005   -1.69959E+005    1.44748E+007   -1.83984E+005   -3.04590E+005   -1.51888E+006
            4273    1.22970E+007    1.03509E+007    1.03509E+007   -7.02827E+005   -2.89447E+006    1.32454E+007   -2.25122E+006    1.18455E+007   -2.24172E+006   -6.02719E+005    9.59809E+006    5.49682E+005    1.66202E+006   -2.48729E+006
            4274    1.26151E+007    1.12934E+007    1.12934E+007   -7.83424E+005   -1.79859E+006    1.30920E+007   -2.90381E+006    1.25227E+007   -1.24340E+006   -7.60084E+005    1.07149E+007    2.71722E+005    1.22988E+006   -2.37535E+006
            4275    1.30606E+007    1.21270E+007    1.21270E+007   -5.87941E+005   -1.25374E+006    1.33808E+007   -3.42844E+006    1.30223E+007   -7.89144E+005   -5.75574E+005    1.16501E+007    1.47673E+005    1.05548E+006   -2.23971E+006
            4276    1.36815E+007    1.31101E+007    1.31101E+007   -3.05993E+005   -8.22104E+005    1.39322E+007   -3.99400E+006    1.36595E+007   -3.20986E+005   -4.55339E+005    1.27583E+007    5.12029E+004    9.83549E+005   -1.95179E+006
            4277    1.60803E+007    1.13498E+007    1.13498E+007   -1.70357E+006   -6.61292E+006    1.79627E+007   -1.01111E+006    1.42419E+007   -6.05491E+006   -1.44864E+006    1.05369E+007    5.80812E+004    3.00241E+006   -1.95308E+006
            4278    1.48359E+007    1.05373E+007    1.05373E+007   -1.72405E+006   -5.95427E+006    1.64915E+007   -9.52982E+005    1.33747E+007   -5.46443E+006   -1.44722E+006    9.77060E+006    1.74312E+005    2.59192E+006   -2.06686E+006
            4279    1.38264E+007    9.62932E+006    9.62932E+006   -1.81985E+006   -5.73143E+006    1.53608E+007   -6.92681E+005    1.24876E+007   -5.26084E+006   -1.61061E+006    8.94950E+006    3.65635E+005    2.27579E+006   -1.98684E+006
            4280    1.39979E+007    9.59541E+006    9.59541E+006   -2.25811E+006   -5.84771E+006    1.54431E+007   -4.96532E+005    1.29000E+007   -5.30905E+006   -2.24035E+006    9.03899E+006    6.17078E+005    2.15654E+006   -1.78818E+006
            4281    1.08070E+007    1.04431E+007    1.04431E+007    4.93688E+005   -1.05448E+006    1.14976E+007   -3.29411E+006    1.05532E+007   -9.49189E+005    3.91739E+005    1.04398E+007    3.87411E+005    8.68664E+004   -1.66866E+005
            4282    1.08166E+007    1.03504E+007    1.03504E+007    4.91473E+005   -1.21976E+006    1.15702E+007   -3.20737E+006    1.05055E+007   -1.09568E+006    4.04097E+005    1.03137E+007    4.20858E+005    2.67368E+005   -5.59765E+005
            4283    1.09053E+007    1.02091E+007    1.02091E+007    3.70175E+005   -1.51630E+006    1.17254E+007   -3.02101E+006    1.05288E+007   -1.36293E+006    3.25094E+005    1.01009E+007    4.55000E+005    4.34739E+005   -9.69591E+005
            4284    1.11259E+007    1.00981E+007    1.00981E+007    1.35752E+005   -1.90802E+006    1.20061E+007   -2.77527E+006    1.06913E+007   -1.71578E+006    1.78860E+005    9.86274E+006    4.60526E+005    6.75525E+005   -1.42196E+006
            4285    1.16848E+007    1.01024E+007    1.01024E+007   -3.60826E+005   -2.50648E+006    1.26089E+007   -2.41171E+006    1.12286E+007   -2.26830E+006   -1.96700E+005    9.70012E+006    4.07419E+005    1.01005E+006   -1.84702E+006
            4286    1.28020E+007    1.04889E+007    1.04889E+007   -7.44763E+005   -3.44936E+006    1.39382E+007   -2.09825E+006    1.21340E+007   -3.10104E+006   -4.75721E+005    9.87151E+006    3.67514E+005    1.60858E+006   -2.20618E+006
            4287    1.42010E+007    1.06951E+007    1.06951E+007   -1.55278E+006   -4.87130E+006    1.55664E+007   -1.42368E+006    1.32859E+007   -4.35211E+006   -1.43765E+006    1.00608E+007    5.37465E+005    2.10741E+006   -2.10224E+006
            4288    1.74819E+007    1.21852E+007    1.21852E+007   -1.65073E+006   -7.46240E+006    1.96476E+007   -1.02402E+006    1.50667E+007   -6.83751E+006   -1.49204E+006    1.14016E+007   -1.46552E+004    3.40035E+006   -1.54788E+006
            4289    1.85278E+007    1.27632E+007    1.27632E+007   -1.61079E+006   -8.14676E+006    2.09099E+007   -1.00188E+006    1.55983E+007   -7.46837E+006   -1.55960E+006    1.20336E+007   -2.27001E+004    3.69181E+006   -8.90651E+005
            4290    1.89747E+007    1.30326E+007    1.30326E+007   -1.57878E+006   -8.41240E+006    2.14450E+007   -1.01380E+006    1.58278E+007   -7.71471E+006   -1.57878E+006    1.23349E+007    2.44794E+003    3.80463E+006   -4.62880E+003
            4291    1.85909E+007    1.27529E+007    1.27529E+007   -1.61899E+006   -8.24278E+006    2.09957E+007   -9.63704E+005    1.55834E+007   -7.55633E+006   -1.56852E+006    1.20160E+007    3.00915E+004    3.72206E+006    8.80276E+005
            4292    1.75666E+007    1.21095E+007    1.21095E+007   -1.70286E+006   -7.66133E+006    1.97709E+007   -9.15112E+005    1.50269E+007   -7.01869E+006   -1.54013E+006    1.13042E+007    1.67475E+004    3.45827E+006    1.56501E+006
            4293    1.62455E+007    1.12680E+007    1.12680E+007   -1.77599E+006   -6.92906E+006    1.81971E+007   -8.54330E+005    1.42246E+007   -6.34595E+006   -1.52172E+006    1.04307E+007   -6.01103E+004    3.09299E+006    1.95050E+006
            4294    1.50511E+007    1.03969E+007    1.03969E+007   -1.90079E+006   -6.38730E+006    1.67842E+007   -7.02948E+005    1.34183E+007   -5.86133E+006   -1.62208E+006    9.59225E+006   -1.87469E+005    2.71295E+006    2.08793E+006
            4295    1.44270E+007    9.88099E+006    9.88099E+006   -2.08908E+006   -6.13785E+006    1.60188E+007   -5.51354E+005    1.30542E+007   -5.59890E+006   -1.85451E+006    9.10747E+006   -3.64774E+005    2.50093E+006    2.14044E+006
            4296    1.44845E+007    1.02286E+007    1.02286E+007   -1.76967E+006   -5.86163E+006    1.60902E+007   -8.65772E+005    1.30862E+007   -5.36481E+006   -1.50208E+006    9.46420E+006   -4.06868E+005    2.33672E+006    2.26438E+006
            4297    1.42114E+007    1.38274E+007    1.38274E+007   -1.16165E+005   -6.37478E+005    1.44649E+007   -4.35793E+006    1.41899E+007   -9.06978E+004   -4.40596E+005    1.36051E+007    4.07670E+004    9.78302E+005   -1.48318E+006
            4298    1.56081E+007    1.55091E+007    1.55091E+007    2.23698E+005   -4.02797E+005    1.59119E+007   -5.10999E+006    1.55797E+007    1.86586E+005   -2.81745E+005    1.54251E+007   -1.38197E+005   -4.03663E+005   -1.07949E+006
            4299    1.56784E+007    1.53446E+007    1.53446E+007   -9.93632E+004   -5.58020E+005    1.59027E+007   -4.89575E+006    1.56633E+007   -1.03193E+005   -5.08345E+005    1.52988E+007   -4.10831E+004   -1.41665E+004   -8.52429E+005
            4300    1.55441E+007    1.54032E+007    1.54032E+007    2.29481E+005   -4.86635E+005    1.58898E+007   -5.04867E+006    1.55069E+007    2.29720E+005   -4.57634E+005    1.53739E+007   -5.26936E+004   -3.05564E+005   -6.06193E+005
            4301    1.54918E+007    1.51862E+007    1.51862E+007   -2.43949E+004   -5.72284E+005    1.57585E+007   -4.86317E+006    1.54700E+007   -2.46104E+004   -5.61166E+005    1.51753E+007   -1.55251E+004   -7.19765E+004   -4.07913E+005
            4302    1.53071E+007    1.50856E+007    1.50856E+007    1.17795E+005   -5.39596E+005    1.56252E+007   -4.88792E+006    1.52752E+007    1.18809E+005   -5.35654E+005    1.50806E+007   -1.43523E+004   -1.46590E+005   -2.34639E+005
            4303    1.52655E+007    1.49988E+007    1.49988E+007    4.34320E+004   -5.58901E+005    1.55577E+007   -4.82779E+006    1.52387E+007    4.33970E+004   -5.58483E+005    1.49985E+007   -5.82068E+003    1.71173E+004   -7.52330E+004
            4304    1.45241E+007    1.43112E+007    1.43112E+007    5.70728E+004   -4.68597E+005    1.47798E+007   -4.63323E+006    1.45027E+007    1.19557E+005   -4.19187E+005    1.41993E+007    1.23011E+004    1.00382E+006   -7.76979E+005
            4305    1.61347E+007    1.60537E+007    1.60537E+007    2.49059E+005   -3.91962E+005    1.64457E+007   -5.30361E+006    1.61061E+007    2.49486E+005   -3.61032E+005    1.60224E+007   -7.91886E+004   -4.84575E+005   -5.22831E+005
            4306    1.60803E+007    1.57322E+007    1.57322E+007   -6.06120E+004   -6.20987E+005    1.63532E+007   -5.01686E+006    1.60583E+007   -6.13864E+004   -6.11916E+005    1.57239E+007   -2.12074E+004    1.16137E+004   -3.68018E+005
            4307    1.59065E+007    1.57494E+007    1.57494E+007    2.93129E+005   -5.71999E+005    1.63214E+007   -5.15684E+006    1.58534E+007    2.98405E+005   -5.66825E+005    1.57389E+007   -3.36752E+004   -3.29129E+005   -2.37576E+005
            4308    1.57778E+007    1.54399E+007    1.54399E+007    7.19485E+003   -6.61830E+005    1.61017E+007   -4.92841E+006    1.57459E+007    7.10568E+003   -6.60299E+005    1.54384E+007   -1.30422E+004   -5.33907E+004   -1.42289E+005
            4309    1.55648E+007    1.53212E+007    1.53212E+007    1.68942E+005   -6.25682E+005    1.59469E+007   -4.95484E+006    1.55191E+007    1.70227E+005   -6.25061E+005    1.53193E+007   -1.52711E+004   -1.56009E+005   -6.93233E+004
            4310    1.55063E+007    1.52090E+007    1.52090E+007    7.73201E+004   -6.46599E+005    1.58556E+007   -4.87990E+006    1.54682E+007    7.72235E+004   -6.46412E+005    1.52089E+007   -1.02856E+004    2.70270E+004   -2.58426E+004
            4311    1.46202E+007    1.44147E+007    1.44147E+007    3.36891E+004   -4.33435E+005    1.48482E+007   -4.67166E+006    1.46034E+007    1.08904E+005   -4.33297E+005    1.43394E+007    3.62931E+003    1.03730E+006    4.50756E+004
            4312    1.62826E+007    1.61907E+007    1.61907E+007    1.98932E+005   -3.68048E+005    1.65587E+007   -5.34051E+006    1.62604E+007    2.14699E+005   -3.67091E+005    1.61739E+007    1.05857E+003   -5.02571E+005    1.23111E+005
            4313    1.61675E+007    1.57825E+007    1.57825E+007   -1.11578E+005   -6.45143E+005    1.64277E+007   -5.00860E+006    1.61477E+007   -1.12000E+005   -6.43398E+005    1.57812E+007    1.57440E+004    2.22084E+004    1.45658E+005
            4314    1.59506E+007    1.57743E+007    1.57743E+007    2.55638E+005   -5.75821E+005    1.63501E+007   -5.15136E+006    1.59018E+007    2.62916E+005   -5.73969E+005    1.57651E+007    1.04319E+004   -3.41402E+005    1.62809E+005
            4315    1.57962E+007    1.54286E+007    1.54286E+007   -4.23267E+004   -6.73861E+005    1.61025E+007   -4.90414E+006    1.57677E+007   -4.24263E+004   -6.72392E+005    1.54272E+007    1.26360E+004   -5.16079E+004    1.38878E+005
            4316    1.55554E+007    1.52952E+007    1.52952E+007    1.31490E+005   -6.24334E+005    1.59196E+007   -4.93413E+006    1.55141E+007    1.33124E+005   -6.23671E+005    1.52929E+007    8.81178E+003   -1.63440E+005    9.24575E+004
            4317    1.54873E+007    1.51737E+007    1.51737E+007    3.92302E+004   -6.43919E+005    1.58176E+007   -4.85633E+006    1.54534E+007    3.92053E+004   -6.43755E+005    1.51735E+007    7.81396E+003    3.08555E+004    3.47002E+004
            4318    1.44697E+007    1.41884E+007    1.41884E+007   -5.08578E+004   -5.01225E+005    1.46896E+007   -4.54542E+006    1.44539E+007    1.75476E+004   -4.32868E+005    1.40516E+007   -9.68640E+003    1.07746E+006    8.96171E+005
            4319    1.59606E+007    1.58908E+007    1.58908E+007    2.53165E+005   -3.74157E+005    1.62650E+007   -5.25661E+006    1.59328E+007    2.48477E+005   -3.22136E+005    1.58435E+007    8.45177E+004   -4.66085E+005    7.38888E+005
            4320    1.58815E+007    1.55469E+007    1.55469E+007   -6.90480E+004   -5.87319E+005    1.61343E+007   -4.96352E+006    1.58624E+007   -7.35610E+004   -5.55512E+005    1.55196E+007    4.91595E+004    1.96417E+004    6.62589E+005
            4321    1.56421E+007    1.55245E+007    1.55245E+007    2.97119E+005   -5.01725E+005    1.60263E+007   -5.10664E+006    1.55961E+007    2.98849E+005   -4.78421E+005    1.54995E+007    5.36827E+004   -3.28411E+005    5.37116E+005
            4322    1.54917E+007    1.52015E+007    1.52015E+007    8.38008E+003   -5.72406E+005    1.57739E+007   -4.87917E+006    1.54672E+007    6.58133E+003   -5.59983E+005    1.51909E+007    3.25243E+004   -5.42881E+004    4.05568E+005
            4323    1.52494E+007    1.50635E+007    1.50635E+007    1.70278E+005   -5.18631E+005    1.55822E+007   -4.90506E+006    1.52143E+007    1.70546E+005   -5.13233E+005    1.50579E+007    2.83498E+004   -1.57396E+005    2.49971E+005
            4324    1.51779E+007    1.49439E+007    1.49439E+007    7.87591E+004   -5.28618E+005    1.54725E+007   -4.83133E+006    1.51505E+007    7.81223E+004   -5.27486E+005    1.49434E+007    2.05936E+004    2.77359E+004    8.28238E+004
            4325    1.40943E+007    1.35868E+007    1.35868E+007   -2.88140E+005   -7.16935E+005    1.43038E+007   -4.19392E+006    1.40796E+007   -2.80067E+005   -4.57053E+005    1.33189E+007   -4.20024E+004    1.11925E+006    1.58276E+006
            4326    1.52996E+007    1.51984E+007    1.51984E+007    2.06359E+005   -3.91159E+005    1.55896E+007   -5.00454E+006    1.52733E+007    1.66983E+005   -2.36468E+005    1.50831E+007    1.32101E+005   -3.59653E+005    1.28649E+006
            4327    1.52954E+007    1.49884E+007    1.49884E+007   -1.22946E+005   -4.84652E+005    1.54731E+007   -4.79361E+006    1.52858E+007   -1.34036E+005   -3.97231E+005    1.49121E+007    6.29480E+004    5.92343E+003    1.08364E+006
            4328    1.50886E+007    1.50088E+007    1.50088E+007    2.30104E+005   -3.71661E+005    1.53804E+007   -4.95574E+006    1.50615E+007    2.23841E+005   -3.11967E+005    1.49553E+007    6.79752E+004   -2.97675E+005    8.53870E+005
            4329    1.49593E+007    1.47333E+007    1.47333E+007   -3.30973E+004   -4.11596E+005    1.51449E+007   -4.76288E+006    1.49485E+007   -3.62677E+004   -3.81914E+005    1.47068E+007    3.32688E+004   -6.65530E+004    6.29585E+005
            4330    1.47332E+007    1.46149E+007    1.46149E+007    1.17198E+005   -3.43006E+005    1.49579E+007   -4.79637E+006    1.47170E+007    1.16320E+005   -3.31044E+005    1.46038E+007    2.89776E+004   -1.45903E+005    3.79384E+005
            4331    1.46613E+007    1.45057E+007    1.45057E+007    3.98078E+004   -3.43632E+005    1.48493E+007   -4.73395E+006    1.46501E+007    3.89790E+004   -3.41673E+005    1.45045E+007    1.82668E+004    1.96975E+004    1.27973E+005
            4332    1.35719E+007    1.27808E+007    1.27808E+007   -5.11433E+005   -1.05459E+006    1.38353E+007   -3.73824E+006    1.35474E+007   -6.13300E+005   -5.32926E+005    1.23610E+007   -8.26790E+004    1.17992E+006    2.05790E+006
            4333    1.43089E+007    1.42305E+007    1.42305E+007    2.38948E+005   -3.75937E+005    1.46065E+007   -4.69784E+006    1.42792E+007    1.70405E+005   -1.08596E+005    1.40317E+007    1.72134E+005   -2.25307E+005    1.67560E+006
            4334    1.44621E+007    1.42621E+007    1.42621E+007   -4.81810E+004   -3.47219E+005    1.46093E+007   -4.62222E+006    1.44551E+007   -8.33258E+004   -1.79874E+005    1.41299E+007    9.68694E+004    1.21818E+003    1.38170E+006
            4335    1.42848E+007    1.43130E+007    1.43130E+007    2.78730E+005   -2.09804E+005    1.45228E+007   -4.79397E+006    1.42660E+007    2.47044E+005   -9.17735E+004    1.42266E+007    1.08859E+005   -2.48291E+005    1.08846E+006
            4336    1.41885E+007    1.41239E+007    1.41239E+007    6.11861E+004   -1.87165E+005    1.43110E+007   -4.66597E+006    1.41836E+007    3.68068E+004   -1.17979E+005    1.40791E+007    7.04149E+004   -7.22989E+004    7.95867E+005
            4337    1.39894E+007    1.40205E+007    1.40205E+007    1.74150E+005   -1.07728E+005    1.41282E+007   -4.69563E+006    1.39830E+007    1.58018E+005   -7.42674E+004    1.40031E+007    6.33069E+004   -1.26703E+005    4.77982E+005
            4338    1.39264E+007    1.39327E+007    1.39327E+007    1.04063E+005   -8.94696E+004    1.40221E+007   -4.64909E+006    1.39234E+007    9.09894E+004   -7.46033E+004    1.39309E+007    4.86937E+004    9.38945E+003    1.58142E+005
            4339    1.30340E+007    1.18380E+007    1.18380E+007   -7.26353E+005   -1.61966E+006    1.34576E+007   -3.16399E+006    1.29648E+007   -1.14585E+006   -6.38641E+005    1.12765E+007   -2.03386E+005    1.28608E+006    2.34717E+006
            4340    1.32974E+007    1.31278E+007    1.31278E+007   -2.64399E+004   -3.08261E+005    1.34361E+007   -4.26438E+006    1.32907E+007   -5.63267E+004   -7.07776E+003    1.28565E+007    8.66478E+004   -7.09187E+003    1.88770E+006
            4341    1.35747E+007    1.33510E+007    1.33510E+007   -1.94138E+005   -2.52947E+005    1.36040E+007   -4.30132E+006    1.35744E+007   -2.27915E+005   -3.26680E+004    1.31645E+007    3.50162E+004    4.88930E+004    1.57902E+006
            4342    1.33992E+007    1.34520E+007    1.34520E+007    1.38998E+005   -3.17245E+004    1.34838E+007   -4.51977E+006    1.33968E+007    1.09486E+005    1.16107E+005    1.33337E+007    5.10400E+004   -1.64913E+005    1.24590E+006
            4343    1.33366E+007    1.33399E+007    1.33399E+007    5.40571E+004   -4.68116E+004    1.33867E+007   -4.44906E+006    1.33357E+007   -3.92868E+004    1.09420E+005    1.32770E+007    2.18878E+004   -6.15865E+004    9.10202E+005
            4344    1.31538E+007    1.32692E+007    1.32692E+007    1.58960E+005    7.22523E+004    1.31969E+007   -4.50014E+006    1.31532E+007    7.88129E+004    1.76214E+005    1.32454E+007    1.75937E+004   -9.87482E+004    5.49788E+005
            4345    1.30863E+007    1.31948E+007    1.31948E+007    1.83511E+005    3.47825E+004    1.31600E+007   -4.47103E+006    1.30844E+007    3.54299E+004    1.85394E+005    1.31923E+007    9.83399E+003    3.59647E+003    1.81419E+005
            4346    1.25395E+007    1.09982E+007    1.09982E+007   -7.78794E+005   -2.18533E+006    1.31835E+007   -2.67801E+006    1.23602E+007   -1.69079E+006   -5.97954E+005    1.03228E+007   -2.85312E+005    1.54753E+006    2.40970E+006
            4347    1.23872E+007    1.20886E+007    1.20886E+007   -2.16884E+005   -3.78732E+005    1.24674E+007   -3.83101E+006    1.23849E+007   -2.11096E+005   -4.90158E+004    1.17531E+007    3.95277E+004    2.66634E+005    1.99965E+006
            4348    1.25767E+007    1.24185E+007    1.24185E+007   -7.20000E+004   -2.42691E+005    1.26612E+007   -4.03460E+006    1.25741E+007   -2.17378E+005    1.44163E+005    1.21770E+007    8.25581E+004    1.72331E+005    1.71205E+006
            4349    1.23938E+007    1.25337E+007    1.25337E+007    2.70898E+005    1.29410E+004    1.25208E+007   -4.27251E+006    1.23878E+007    1.09167E+005    3.24039E+005    1.23843E+007    1.17855E+005   -6.86875E+004    1.34932E+006
            4350    1.23182E+007    1.24889E+007    1.24889E+007    3.62741E+005   -1.26732E+004    1.25016E+007   -4.27967E+006    1.23053E+007    2.00677E+004    4.09140E+005    1.24098E+007    1.03840E+005   -2.93701E+004    9.77531E+005
            4351    1.21868E+007    1.24590E+007    1.24590E+007    4.68853E+005    8.46361E+004    1.23744E+007   -4.33751E+006    1.21732E+007    1.10212E+005    4.71060E+005    1.24312E+007    9.18526E+004   -7.11319E+004    5.73351E+005
            4352    1.21312E+007    1.24081E+007    1.24081E+007    5.02775E+005    6.30932E+004    1.23450E+007   -4.32467E+006    1.21132E+007    7.73476E+004    4.91655E+005    1.24050E+007    7.78719E+004   -7.01284E+002    1.93261E+005
            4353    1.27255E+007    1.02995E+007    1.02995E+007   -1.02426E+006   -3.47206E+006    1.37716E+007   -1.93441E+006    1.21788E+007   -2.87805E+006   -9.03314E+005    9.58459E+006   -4.85075E+005    1.92676E+006    2.27222E+006
            4354    1.20205E+007    1.09918E+007    1.09918E+007   -3.48306E+005   -1.60955E+006    1.26014E+007   -3.01131E+006    1.18702E+007   -1.14377E+006   -3.26258E+005    1.05040E+007   -4.19405E+005    9.37346E+005    2.19940E+006
            4355    1.17775E+007    1.12358E+007    1.12358E+007   -1.66074E+005   -8.84403E+005    1.21202E+007   -3.39512E+006    1.17281E+007   -6.52741E+005   -6.52158E+004    1.09033E+007   -2.44669E+005    5.27460E+005    1.87949E+006
            4356    1.14691E+007    1.13724E+007    1.13724E+007    1.59213E+005   -3.36411E+005    1.17088E+007   -3.73174E+006    1.14449E+007   -1.96623E+005    2.23606E+005    1.11682E+007   -1.93357E+005    2.23834E+005    1.49621E+006
            4357    1.13383E+007    1.14235E+007    1.14235E+007    3.18549E+005   -1.34576E+005    1.15581E+007   -3.86917E+006    1.13179E+007   -8.07023E+004    3.65889E+005    1.13223E+007   -1.35751E+005    1.11144E+005    1.05352E+006
            4358    1.12414E+007    1.14699E+007    1.14699E+007    4.62248E+005    8.55985E+003    1.14614E+007   -3.98024E+006    1.12208E+007    4.14217E+004    4.64029E+005    1.14353E+007   -1.16145E+005    2.80106E+004    6.17119E+005
            4359    1.12389E+007    1.15007E+007    1.15007E+007    5.05253E+005    3.32099E+004    1.14675E+007   -4.01305E+006    1.12165E+007    5.67155E+004    4.85258E+005    1.14972E+007   -1.02383E+005    1.56215E+004    1.96165E+005
            4360    1.07541E+007    1.03160E+007    1.03160E+007    4.84981E+005   -1.16930E+006    1.14853E+007   -3.21057E+006    1.04620E+007   -1.05119E+006    3.70965E+005    1.03119E+007   -4.22969E+005    9.97142E+004    1.82484E+005
            4361    1.07884E+007    1.02324E+007    1.02324E+007    4.55976E+005   -1.34206E+006    1.15745E+007   -3.11544E+006    1.04433E+007   -1.20535E+006    3.56788E+005    1.01949E+007   -4.50990E+005    2.91600E+005    5.56142E+005
            4362    1.08864E+007    1.00872E+007    1.00872E+007    3.20250E+005   -1.64958E+006    1.17368E+007   -2.91930E+006    1.04741E+007   -1.47767E+006    2.62863E+005    9.97270E+006   -4.87083E+005    4.78813E+005    9.83703E+005
            4363    1.11462E+007    9.95174E+006    9.95174E+006    1.92132E+004   -2.10306E+006    1.20548E+007   -2.62263E+006    1.06774E+007   -1.88813E+006    3.65823E+004    9.71945E+006   -4.95941E+005    7.21020E+005    1.39547E+006
            4364    1.16086E+007    9.88705E+006    9.88705E+006   -3.66894E+005   -2.71674E+006    1.26038E+007   -2.26781E+006    1.10544E+007   -2.44734E+006   -2.47800E+005    9.49856E+006   -4.72076E+005    1.06051E+006    1.77491E+006
            4365    1.23911E+007    9.89008E+006    9.89008E+006   -8.38227E+005   -3.67273E+006    1.35628E+007   -1.79304E+006    1.16277E+007   -3.33312E+006   -6.16658E+005    9.32889E+006   -3.99409E+005    1.56378E+006    2.03435E+006
            4366    1.37313E+007    1.02452E+007    1.02452E+007   -1.29917E+006   -4.93942E+006    1.51846E+007   -1.33554E+006    1.25752E+007   -4.54292E+006   -9.80144E+005    9.52970E+006   -2.99263E+005    2.05242E+006    2.23967E+006
            4367    1.40120E+007    9.59258E+006    9.59258E+006   -2.27324E+006   -5.86591E+006    1.54585E+007   -4.84477E+005    1.29133E+007   -5.32409E+006   -2.25394E+006    9.03146E+006    6.16519E+005   -2.16586E+006    1.79702E+006
            4368    1.37954E+007    9.59191E+006    9.59191E+006   -1.83789E+006   -5.73203E+006    1.53239E+007   -6.73995E+005    1.24661E+007   -5.25983E+006   -1.63633E+006    8.91815E+006    3.80130E+005   -2.26228E+006    1.97955E+006
            4369    1.47907E+007    1.05191E+007    1.05191E+007   -1.72360E+006   -5.91500E+006    1.64341E+007   -9.60154E+005    1.33533E+007   -5.42994E+006   -1.44896E+006    9.75936E+006    1.78032E+005   -2.57051E+006    2.06171E+006
            4370    1.60578E+007    1.13534E+007    1.13534E+007   -1.69080E+006   -6.58105E+006    1.79344E+007   -1.02717E+006    1.42320E+007   -6.02588E+006   -1.43725E+006    1.05446E+007    5.59117E+004   -2.99367E+006    1.94564E+006
            4371    1.36743E+007    1.31303E+007    1.31303E+007   -2.63941E+005   -8.07920E+005    1.39382E+007   -4.01947E+006    1.36499E+007   -2.78295E+005   -4.45791E+005    1.27825E+007    5.69742E+004   -9.56406E+005    1.95219E+006
            4372    1.47186E+007    1.46398E+007    1.46398E+007    2.67028E+005   -4.01882E+005    1.50417E+007   -4.83498E+006    1.46844E+007    1.94530E+005   -1.68224E+005    1.44786E+007   -1.84245E+005    3.14305E+005    1.51557E+006
            4373    1.49139E+007    1.46889E+007    1.46889E+007   -2.99330E+004   -4.12677E+005    1.51016E+007   -4.74877E+006    1.49029E+007   -5.31908E+004   -2.91261E+005    1.45908E+007   -8.97006E+004    2.56790E+004    1.21247E+006
            4374    1.48464E+007    1.48138E+007    1.48138E+007    2.73413E+005   -3.20821E+005    1.51346E+007   -4.92213E+006    1.48196E+007    2.51785E+005   -2.40825E+005    1.47554E+007   -1.06372E+005    2.63868E+005    9.00092E+005
            4375    1.48285E+007    1.46674E+007    1.46674E+007    4.59221E+004   -3.59823E+005    1.50272E+007   -4.78451E+006    1.48160E+007    3.44274E+004   -3.20975E+005    1.46401E+007   -6.51188E+004    8.13261E+004    6.35338E+005
            4376    1.46981E+007    1.46118E+007    1.46118E+007    1.59768E+005   -3.20709E+005    1.49325E+007   -4.81695E+006    1.46805E+007    1.52685E+005   -3.03496E+005    1.46017E+007   -5.90318E+004    1.27270E+005    3.67096E+005
            4377    1.46772E+007    1.45493E+007    1.45493E+007    8.89835E+004   -3.35505E+005    1.48848E+007   -4.76760E+006    1.46634E+007    8.40935E+004   -3.29498E+005    1.45482E+007   -4.53713E+004   -6.59604E+003    1.28722E+005
            4378    1.30442E+007    1.21284E+007    1.21284E+007   -5.75660E+005   -1.23133E+006    1.33597E+007   -3.44046E+006    1.30071E+007   -7.60972E+005   -5.71407E+005    1.16537E+007    1.43421E+005   -1.03464E+006    2.24132E+006
            4379    1.36800E+007    1.35492E+007    1.35492E+007    9.41863E+004   -3.45136E+005    1.38943E+007   -4.43275E+006    1.36641E+007    4.85769E+004   -5.88029E+004    1.33085E+007   -1.18610E+005    1.35018E+005    1.80594E+006
            4380    1.39482E+007    1.37707E+007    1.37707E+007   -1.04751E+005   -2.49097E+005    1.40198E+007   -4.47229E+006    1.39465E+007   -1.36733E+005   -6.29102E+004    1.36165E+007   -5.77013E+004    2.45785E+004    1.46044E+006
            4381    1.39195E+007    1.39383E+007    1.39383E+007    1.63279E+005   -1.21208E+005    1.40595E+007   -4.66013E+006    1.39129E+007    1.46228E+005   -1.21172E+004    1.38463E+007   -5.62393E+004    2.14269E+005    1.11332E+006
            4382    1.39564E+007    1.39062E+007    1.39062E+007    7.19116E+003   -1.06883E+005    1.40131E+007   -4.60216E+006    1.39553E+007    1.58045E+003   -5.51500E+004    1.38601E+007   -2.08120E+004    8.69704E+004    7.97836E+005
            4383    1.38496E+007    1.38664E+007    1.38664E+007    9.86733E+004   -6.34606E+004    1.39299E+007   -4.63389E+006    1.38474E+007    9.73619E+004   -4.44702E+004    1.38488E+007   -1.49077E+004    1.11241E+005    4.83267E+005
            4384    1.38286E+007    1.38296E+007    1.38296E+007    5.53494E+004   -5.27239E+004    1.38823E+007   -4.61073E+006    1.38276E+007    5.50158E+004   -5.05294E+004    1.38277E+007   -5.96879E+003    2.68265E+003    1.60695E+005
            4385    1.26041E+007    1.12869E+007    1.12869E+007   -7.80455E+005   -1.79290E+006    1.30798E+007   -2.90451E+006    1.25121E+007   -1.23732E+006   -7.51180E+005    1.07020E+007    2.68535E+005   -1.23191E+006    2.38846E+006
            4386    1.24914E+007    1.23459E+007    1.23459E+007   -2.83108E+004   -2.59383E+005    1.26053E+007   -4.01940E+006    1.24865E+007   -7.08712E+004    8.75840E+004    1.20415E+007   -1.05083E+005   -8.71532E+004    1.92896E+006
            4387    1.28651E+007    1.27571E+007    1.27571E+007    4.14419E+002   -2.13713E+005    1.29708E+007   -4.18127E+006    1.28611E+007   -1.53688E+005    1.38079E+005    1.25594E+007   -1.04124E+005   -5.91261E+004    1.57783E+006
            4388    1.28313E+007    1.29874E+007    1.29874E+007    3.07571E+005    9.71999E+003    1.29776E+007   -4.43488E+006    1.28235E+007    1.33687E+005    3.06169E+005    1.28648E+007   -1.35781E+005    1.18386E+005    1.24233E+006
            4389    1.28423E+007    1.29656E+007    1.29656E+007    2.89154E+005   -3.64371E+004    1.30020E+007   -4.40609E+006    1.28330E+007    1.27744E+004    3.06915E+005    1.28986E+007   -1.12296E+005    6.09516E+004    9.19264E+005
            4390    1.27329E+007    1.29486E+007    1.29486E+007    3.80811E+005    5.66557E+004    1.28919E+007   -4.46202E+006    1.27237E+007    9.43569E+004    3.67454E+005    1.29242E+007   -1.00009E+005    7.98479E+004    5.48354E+005
            4391    1.27308E+007    1.29333E+007    1.29333E+007    3.76087E+005    3.57083E+004    1.28976E+007   -4.44837E+006    1.27206E+007    5.82161E+004    3.56238E+005    1.29307E+007   -8.45026E+004    6.04581E+003    1.82824E+005
            4392    1.22701E+007    1.03174E+007    1.03174E+007   -6.94935E+005   -2.90900E+006    1.32264E+007   -2.23783E+006    1.18081E+007   -2.25573E+006   -5.98046E+005    9.56727E+006    5.54286E+005   -1.66822E+006    2.47341E+006
            4393    1.19584E+007    1.12105E+007    1.12105E+007   -2.64427E+005   -1.17896E+006    1.23894E+007   -3.25569E+006    1.18793E+007   -7.30992E+005   -3.19544E+005    1.08176E+007    3.38423E+005   -7.04595E+005    2.03164E+006
            4394    1.19745E+007    1.16466E+007    1.16466E+007   -6.66393E+004   -5.73005E+005    1.22196E+007   -3.66899E+006    1.19504E+007   -3.86289E+005    4.57356E+004    1.13475E+007    1.80380E+005   -4.03761E+005    1.82588E+006
            4395    1.17112E+007    1.17340E+007    1.17340E+007    1.54119E+005   -1.04321E+005    1.18383E+007   -3.92793E+006    1.17048E+007   -1.17886E+004    2.44821E+005    1.15508E+007    1.09462E+005   -1.20173E+005    1.44711E+006
            4396    1.15837E+007    1.17711E+007    1.17711E+007    3.33875E+005    4.61907E+004    1.17249E+007   -4.05039E+006    1.15757E+007    6.44746E+004    4.08128E+005    1.16786E+007    6.53511E+004   -5.30050E+004    1.02438E+006
            4397    1.15313E+007    1.18267E+007    1.18267E+007    4.35815E+005    1.59834E+005    1.16669E+007   -4.14078E+006    1.15239E+007    1.66097E+005    4.60905E+005    1.17953E+007    4.19308E+004    1.65773E+004    5.96666E+005
            4398    1.15345E+007    1.18583E+007    1.18583E+007    4.91230E+005    1.63236E+005    1.16950E+007   -4.17091E+006    1.15240E+007    1.67352E+005    4.90738E+005    1.18547E+007    3.64688E+004   -2.66879E+003    2.02979E+005
            4399    1.08063E+007    1.04399E+007    1.04399E+007    4.93652E+005   -1.05863E+006    1.14985E+007   -3.29165E+006    1.05511E+007   -9.52705E+005    3.91443E+005    1.04362E+007    3.88731E+005   -9.30825E+004    1.75243E+005
            4400    1.08177E+007    1.03462E+007    1.03462E+007    4.93088E+005   -1.22945E+006    1.15756E+007   -3.20327E+006    1.05025E+007   -1.10443E+006    4.04938E+005    1.03093E+007    4.23640E+005   -2.70268E+005    5.60133E+005
            4401    1.09055E+007    1.02099E+007    1.02099E+007    3.67325E+005   -1.51382E+006    1.17237E+007   -3.02112E+006    1.05311E+007   -1.36023E+006    3.20621E+005    1.01030E+007    4.55032E+005   -4.33792E+005    9.62863E+005
            4402    1.11221E+007    1.00958E+007    1.00958E+007    1.32079E+005   -1.90345E+006    1.19993E+007   -2.77482E+006    1.06909E+007   -1.71131E+006    1.71661E+005    9.86411E+006    4.61295E+005   -6.70321E+005    1.41130E+006
            4403    1.16662E+007    1.00923E+007    1.00923E+007   -3.51447E+005   -2.49807E+006    1.25904E+007   -2.41427E+006    1.12088E+007   -2.25802E+006   -1.94946E+005    9.69577E+006    4.15684E+005   -9.99795E+005    1.83432E+006
            4404    1.27585E+007    1.04665E+007    1.04665E+007   -7.29060E+005   -3.42417E+006    1.38907E+007   -2.10444E+006    1.20929E+007   -3.08194E+006   -4.58717E+005    9.85397E+006    3.62249E+005   -1.59509E+006    2.19595E+006
            4405    1.42084E+007    1.07106E+007    1.07106E+007   -1.53650E+006   -4.86724E+006    1.55778E+007   -1.43562E+006    1.32867E+007   -4.34769E+006   -1.41838E+006    1.00729E+007    5.35152E+005   -2.11443E+006    2.10658E+006
            4406    1.12336E+007    1.14948E+007    1.14948E+007    5.05725E+005    3.17676E+004    1.14631E+007   -4.01077E+006    1.12111E+007    5.57305E+004    4.85643E+005    1.14910E+007   -1.03518E+005   -1.62971E+004   -2.06228E+005
            4407    1.21206E+007    1.23984E+007    1.23984E+007    5.03164E+005    6.43248E+004    1.23341E+007   -4.32196E+006    1.21027E+007    7.81487E+004    4.92764E+005    1.23950E+007    7.66636E+004   -1.33754E+002   -2.01899E+005
            4408    1.30795E+007    1.31897E+007    1.31897E+007    1.85381E+005    3.63611E+004    1.31533E+007   -4.47048E+006    1.30775E+007    3.72149E+004    1.87458E+005    1.31868E+007    1.12661E+004   -1.20129E+003   -1.95216E+005
            4409    1.39268E+007    1.39331E+007    1.39331E+007    1.04857E+005   -9.00816E+004    1.40232E+007   -4.64931E+006    1.39237E+007    9.12528E+004   -7.43466E+004    1.39310E+007    4.97661E+004   -7.10583E+003   -1.72597E+005
            4410    1.46643E+007    1.45082E+007    1.45082E+007    4.01758E+004   -3.44824E+005    1.48530E+007   -4.73452E+006    1.46529E+007    3.91615E+004   -3.42497E+005    1.45069E+007    2.00930E+004   -1.70350E+004   -1.38525E+005
            4411    1.51805E+007    1.49464E+007    1.49464E+007    7.87652E+004   -5.28756E+005    1.54751E+007   -4.83213E+006    1.51531E+007    7.80494E+004   -5.27497E+005    1.49458E+007    2.16672E+004   -2.63678E+004   -8.76203E+004
            4412    1.54884E+007    1.51751E+007    1.51751E+007    4.03992E+004   -6.44225E+005    1.58193E+007   -4.85710E+006    1.54543E+007    4.03553E+004   -6.44046E+005    1.51750E+007    8.44220E+003   -2.97626E+004   -3.46658E+004
            4413    1.55055E+007    1.52088E+007    1.52088E+007    7.75029E+004   -6.45684E+005    1.58545E+007   -4.88020E+006    1.54675E+007    7.74087E+004   -6.45495E+005    1.52087E+007   -1.01623E+004   -2.67327E+004    2.73332E+004
            4414    1.52643E+007    1.49975E+007    1.49975E+007    4.31486E+004   -5.58816E+005    1.55563E+007   -4.82729E+006    1.52375E+007    4.31129E+004   -5.58391E+005    1.49971E+007   -5.85376E+003   -1.71192E+004    7.57921E+004
            4415    1.12329E+007    1.14566E+007    1.14566E+007    4.60284E+005    1.23500E+003    1.14554E+007   -3.97272E+006    1.12118E+007    3.52297E+004    4.62128E+005    1.14208E+007   -1.18465E+005   -3.23296E+004   -6.27220E+005
            4416    1.21753E+007    1.24450E+007    1.24450E+007    4.66577E+005    8.19530E+004    1.23630E+007   -4.33117E+006    1.21616E+007    1.06985E+005    4.70963E+005    1.24156E+007    9.08805E+004    7.06842E+004   -5.89914E+005
            4417    1.31571E+007    1.32700E+007    1.32700E+007    1.56881E+005    6.93649E+004    1.32006E+007   -4.49875E+006    1.31564E+007    7.64308E+004    1.75273E+005    1.32445E+007    1.84414E+004    9.83797E+004   -5.69127E+005
            4418    1.40052E+007    1.40324E+007    1.40324E+007    1.71885E+005   -1.12956E+005    1.41454E+007   -4.69712E+006    1.39986E+007    1.56375E+005   -7.89188E+004    1.40139E+007    6.23748E+004    1.28836E+005   -4.95101E+005
            4419    1.47514E+007    1.46306E+007    1.46306E+007    1.17403E+005   -3.48039E+005    1.49787E+007   -4.79999E+006    1.47349E+007    1.16781E+005   -3.35841E+005    1.46190E+007    2.73475E+004    1.47003E+005   -3.88828E+005
            4420    1.52618E+007    1.50744E+007    1.50744E+007    1.70542E+005   -5.21791E+005    1.55962E+007   -4.90772E+006    1.52264E+007    1.70978E+005   -5.16490E+005    1.50687E+007    2.67478E+004    1.58604E+005   -2.51537E+005
            4421    1.55599E+007    1.52993E+007    1.52993E+007    1.30927E+005   -6.24700E+005    1.59240E+007   -4.93517E+006    1.55186E+007    1.32601E+005   -6.24103E+005    1.52970E+007    7.50681E+003    1.63803E+005   -8.95155E+004
            4422    1.55629E+007    1.53193E+007    1.53193E+007    1.68312E+005   -6.25120E+005    1.59444E+007   -4.95417E+006    1.55173E+007    1.69554E+005   -6.24423E+005    1.53174E+007   -1.60616E+004    1.55608E+005    7.38755E+004
            4423    1.52963E+007    1.50774E+007    1.50774E+007    1.18598E+005   -5.35437E+005    1.56128E+007   -4.88685E+006    1.52648E+007    1.19575E+005   -5.31356E+005    1.50723E+007   -1.51244E+004    1.46931E+005    2.37662E+005
            4424    1.13350E+007    1.14139E+007    1.14139E+007    3.15339E+005   -1.43594E+005    1.15575E+007   -3.86190E+006    1.13141E+007   -8.78304E+004    3.63709E+005    1.13098E+007   -1.38375E+005   -1.15963E+005   -1.06798E+006
            4425    1.23266E+007    1.24932E+007    1.24932E+007    3.53540E+005   -1.21447E+004    1.25053E+007   -4.27820E+006    1.23144E+007    2.03359E+004    4.03652E+005    1.24106E+007    1.01852E+005    3.00168E+004   -9.99030E+005
            4426    1.33643E+007    1.33645E+007    1.33645E+007    4.64693E+004   -4.56254E+004    1.34101E+007   -4.45512E+006    1.33636E+007   -3.52546E+004    1.02095E+005    1.32985E+007    2.42850E+004    6.44568E+004   -9.33472E+005
            4427    1.42321E+007    1.41619E+007    1.41619E+007    6.33805E+004   -2.00049E+005    1.43620E+007   -4.67508E+006    1.42266E+007    3.86420E+004   -1.28922E+005    1.41155E+007    7.31453E+004    7.63522E+004   -8.10955E+005
            4428    1.49986E+007    1.47677E+007    1.47677E+007   -3.20802E+004   -4.22043E+005    1.51897E+007   -4.77119E+006    1.49871E+007   -3.54972E+004   -3.91949E+005    1.47410E+007    3.50849E+004    6.91559E+004   -6.32231E+005
            4429    1.55165E+007    1.52234E+007    1.52234E+007    8.18969E+003   -5.77815E+005    1.58012E+007   -4.88460E+006    1.54916E+007    6.25005E+003   -5.65566E+005    1.52131E+007    3.39200E+004    5.55146E+004   -3.99607E+005
            4430    1.58034E+007    1.54351E+007    1.54351E+007   -4.21169E+004   -6.75440E+005    1.61106E+007   -4.90586E+006    1.57748E+007   -4.22024E+004   -6.74147E+005    1.54339E+007    1.23752E+004    5.18284E+004   -1.29075E+005
            4431    1.57695E+007    1.54328E+007    1.54328E+007    6.29421E+003   -6.58685E+005    1.60915E+007   -4.92680E+006    1.57379E+007    6.18321E+003   -6.56979E+005    1.54312E+007   -1.34229E+004    5.28863E+004    1.50861E+005
            4432    1.54779E+007    1.51720E+007    1.51720E+007   -2.74383E+004   -5.70011E+005    1.57420E+007   -4.85819E+006    1.54565E+007   -2.77054E+004   -5.58635E+005    1.51609E+007   -1.58182E+004    6.85127E+004    4.12264E+005
            4433    1.14855E+007    1.13778E+007    1.13778E+007    1.48754E+005   -3.47960E+005    1.17258E+007   -3.72621E+006    1.14613E+007   -2.08144E+005    2.17646E+005    1.11691E+007   -1.92103E+005   -2.32683E+005   -1.51264E+006
            4434    1.24250E+007    1.25518E+007    1.25518E+007    2.56294E+005    1.35273E+003    1.25505E+007   -4.26983E+006    1.24191E+007    9.93038E+004    3.12849E+005    1.23973E+007    1.17587E+005    6.36802E+004   -1.37423E+006
            4435    1.34585E+007    1.34995E+007    1.34995E+007    1.32670E+005   -4.88725E+004    1.35484E+007   -4.52777E+006    1.34558E+007    1.05771E+005    9.98155E+004    1.33777E+007    5.12009E+004    1.62374E+005   -1.26772E+006
            4436    1.43474E+007    1.43678E+007    1.43678E+007    2.77437E+005   -2.23549E+005    1.45913E+007   -4.80722E+006    1.43277E+007    2.47868E+005   -1.06884E+005    1.42807E+007    1.06924E+005    2.49625E+005   -1.09584E+006
            4437    1.51404E+007    1.50564E+007    1.50564E+007    2.31714E+005   -3.81163E+005    1.54376E+007   -4.96898E+006    1.51125E+007    2.27120E+005   -3.24134E+005    1.50040E+007    6.31218E+004    2.99376E+005   -8.45972E+005
            4438    1.56689E+007    1.55508E+007    1.55508E+007    3.00629E+005   -5.05721E+005    1.60565E+007   -5.11523E+006    1.56221E+007    3.03375E+005   -4.84523E+005    1.55268E+007    4.85969E+004    3.31445E+005   -5.19154E+005
            4439    1.59544E+007    1.57795E+007    1.57795E+007    2.57738E+005   -5.74904E+005    1.63544E+007   -5.15411E+006    1.59054E+007    2.65244E+005   -5.73487E+005    1.57706E+007    6.65849E+003    3.43890E+005   -1.45927E+005
            4440    1.58942E+007    1.57392E+007    1.57392E+007    2.94503E+005   -5.69262E+005    1.63085E+007   -5.15483E+006    1.58413E+007    2.99623E+005   -5.63499E+005    1.57284E+007   -3.60833E+004    3.31259E+005    2.48849E+005
            4441    1.55349E+007    1.53969E+007    1.53969E+007    2.32640E+005   -4.83868E+005    1.58808E+007   -5.04855E+006    1.54977E+007    2.32940E+005   -4.54821E+005    1.53675E+007   -5.31108E+004    3.09406E+005    6.05328E+005
            4442    1.17957E+007    1.12430E+007    1.12430E+007   -1.75287E+005   -8.96914E+005    1.21399E+007   -3.39026E+006    1.17458E+007   -6.63572E+005   -7.14667E+004    1.09058E+007   -2.44284E+005   -5.36326E+005   -1.89247E+006
            4443    1.26222E+007    1.24533E+007    1.24533E+007   -8.85947E+004   -2.47846E+005    1.27011E+007   -4.03894E+006    1.26200E+007   -2.21339E+005    1.31798E+005    1.22064E+007    8.20429E+004   -1.75395E+005   -1.73442E+006
            4444    1.36405E+007    1.34081E+007    1.34081E+007   -2.00644E+005   -2.63891E+005    1.36720E+007   -4.31453E+006    1.36402E+007   -2.29001E+005   -4.68195E+004    1.32194E+007    3.75358E+004   -4.93442E+004   -1.59257E+006
            4445    1.45358E+007    1.43284E+007    1.43284E+007   -4.87913E+004   -3.60974E+005    1.46893E+007   -4.63953E+006    1.45282E+007   -8.49426E+004   -1.93819E+005    1.41974E+007    1.00650E+005   -3.07981E+003   -1.37924E+006
            4446    1.53502E+007    1.50354E+007    1.50354E+007   -1.29219E+005   -4.93764E+005    1.55292E+007   -4.80415E+006    1.53404E+007   -1.40588E+005   -4.09067E+005    1.49621E+007    6.41700E+004   -9.01651E+003   -1.06411E+006
            4447    1.59060E+007    1.55680E+007    1.55680E+007   -7.21698E+004   -5.91244E+005    1.61592E+007   -4.96819E+006    1.58870E+007   -7.69102E+004   -5.61171E+005    1.55427E+007    5.05983E+004   -2.41603E+004   -6.38664E+005
            4448    1.61690E+007    1.57800E+007    1.57800E+007   -1.16094E+005   -6.48691E+005    1.64287E+007   -5.00507E+006    1.61492E+007   -1.16479E+005   -6.47255E+005    1.57789E+007    1.54912E+004   -2.89295E+004   -1.28069E+005
            4449    1.60713E+007    1.57216E+007    1.57216E+007   -6.09076E+004   -6.23729E+005    1.63454E+007   -5.01233E+006    1.60491E+007   -6.18423E+004   -6.14033E+005    1.57129E+007   -2.35278E+004   -1.64694E+004    3.77934E+005
            4450    1.56659E+007    1.53307E+007    1.53307E+007   -1.02281E+005   -5.58299E+005    1.58890E+007   -4.89003E+006    1.56510E+007   -1.05823E+005   -5.09356E+005    1.52853E+007   -3.95064E+004    1.14260E+004    8.47977E+005
            4451    1.20448E+007    1.10023E+007    1.10023E+007   -3.62923E+005   -1.62313E+006    1.26254E+007   -3.00541E+006    1.18952E+007   -1.15873E+006   -3.34143E+005    1.05091E+007   -4.14822E+005   -9.50081E+005   -2.21037E+006
            4452    1.24242E+007    1.21154E+007    1.21154E+007   -2.26238E+005   -3.89730E+005    1.25052E+007   -3.83315E+006    1.24218E+007   -2.19820E+005   -5.68605E+004    1.17761E+007    4.26785E+004   -2.79860E+005   -2.01213E+006
            4453    1.33533E+007    1.31809E+007    1.31809E+007   -2.95258E+004   -3.10842E+005    1.34918E+007   -4.28018E+006    1.33467E+007   -5.41735E+004   -1.44914E+004    1.29092E+007    7.96882E+004    4.66566E+003   -1.89346E+006
            4454    1.43656E+007    1.42934E+007    1.42934E+007    2.45479E+005   -3.70075E+005    1.46634E+007   -4.72292E+006    1.43358E+007    1.83547E+005   -1.11980E+005    1.40972E+007    1.63223E+005    2.38953E+005   -1.66623E+006
            4455    1.53514E+007    1.52567E+007    1.52567E+007    2.10420E+005   -3.82681E+005    1.56394E+007   -5.02815E+006    1.53256E+007    1.77272E+005   -2.36713E+005    1.51439E+007    1.21881E+005    3.82791E+005   -1.26695E+006
            4456    1.60029E+007    1.59349E+007    1.59349E+007    2.52747E+005   -3.70480E+005    1.63054E+007   -5.27238E+006    1.59755E+007    2.52040E+005   -3.22490E+005    1.58876E+007    7.66413E+004    4.92629E+005   -7.21529E+005
            4457    1.63198E+007    1.62265E+007    1.62265E+007    1.96465E+005   -3.68371E+005    1.65948E+007   -5.35152E+006    1.62977E+007    2.13980E+005   -3.67546E+005    1.62081E+007    6.42971E+002    5.30097E+005   -1.14617E+005
            4458    1.61600E+007    1.60742E+007    1.60742E+007    2.40217E+005   -3.93185E+005    1.64674E+007   -5.30709E+006    1.61321E+007    2.44282E+005   -3.64952E+005    1.60420E+007   -6.88360E+004    4.99286E+005    5.23769E+005
            4459    1.56212E+007    1.55210E+007    1.55210E+007    2.22739E+005   -4.04188E+005    1.59252E+007   -5.11318E+006    1.55928E+007    1.86248E+005   -2.83794E+005    1.54371E+007   -1.37474E+005    4.11955E+005    1.07657E+006
            4460    1.27543E+007    1.03280E+007    1.03280E+007   -1.02383E+006   -3.47340E+006    1.38014E+007   -1.94359E+006    1.22081E+007   -2.87696E+006   -9.03490E+005    9.61121E+006   -4.89592E+005   -1.92334E+006   -2.28404E+006
            4461    1.25795E+007    1.10332E+007    1.10332E+007   -7.85335E+005   -2.18953E+006    1.32227E+007   -2.68610E+006    1.24013E+007   -1.69804E+006   -5.99953E+005    1.03563E+007   -2.78560E+005   -1.56195E+006   -2.40944E+006
            4462    1.30564E+007    1.18628E+007    1.18628E+007   -7.27929E+005   -1.61418E+006    1.34770E+007   -3.17356E+006    1.29885E+007   -1.14646E+006   -6.35475E+005    1.13026E+007   -1.97653E+005   -1.29749E+006   -2.33976E+006
            4463    1.35782E+007    1.28076E+007    1.28076E+007   -4.99930E+005   -1.02602E+006    1.38336E+007   -3.76054E+006    1.35552E+007   -5.87962E+005   -5.22164E+005    1.23918E+007   -7.35866E+004   -1.17850E+006   -2.04624E+006
            4464    1.40902E+007    1.36163E+007    1.36163E+007   -2.45517E+005   -6.91691E+005    1.43080E+007   -4.22637E+006    1.40743E+007   -2.27396E+005   -4.48288E+005    1.33548E+007   -3.74079E+004   -1.09350E+006   -1.57248E+006
            4465    1.44589E+007    1.42205E+007    1.42205E+007    2.12005E+004   -4.84679E+005    1.47052E+007   -4.58568E+006    1.44390E+007    8.84384E+004   -4.22333E+005    1.40909E+007    2.55533E+002   -1.03212E+006   -8.90883E+005
            4466    1.46200E+007    1.44608E+007    1.44608E+007    1.16618E+005   -4.20245E+005    1.48811E+007   -4.71907E+006    1.45978E+007    1.84181E+005   -4.20035E+005    1.43931E+007    2.09844E+003   -9.82161E+005   -5.51621E+004
            4467    1.45258E+007    1.43583E+007    1.43583E+007    1.38857E+005   -4.55691E+005    1.48140E+007   -4.68049E+006    1.44984E+007    1.97652E+005   -4.10402E+005    1.42542E+007    6.02208E+003   -9.53901E+005    7.67338E+005
            4468    1.41937E+007    1.38503E+007    1.38503E+007   -5.23772E+004   -6.17507E+005    1.44678E+007   -4.39347E+006    1.41683E+007   -2.36115E+004   -4.30623E+005    1.36347E+007    3.81137E+004   -9.44227E+005    1.47295E+006
            4469    1.74696E+007    1.22193E+007    1.22193E+007   -1.63132E+006   -7.40675E+006    1.96260E+007   -1.06039E+006    1.50860E+007   -6.79011E+006   -1.47385E+006    1.14451E+007   -2.05642E+004   -3.37837E+006    1.53858E+006
            4470    1.84949E+007    1.27940E+007    1.27940E+007   -1.58487E+006   -8.07011E+006    2.08641E+007   -1.04633E+006    1.56107E+007   -7.39896E+006   -1.53601E+006    1.20740E+007   -2.18363E+004   -3.66904E+006    8.70413E+005
            4471    1.89238E+007    1.30509E+007    1.30509E+007   -1.56602E+006   -8.32418E+006    2.13751E+007   -1.05357E+006    1.58459E+007   -7.63319E+006   -1.56602E+006    1.23599E+007    5.03130E+003   -3.78054E+006   -7.50158E+003
            4472    1.85306E+007    1.27399E+007    1.27399E+007   -1.61809E+006   -8.17855E+006    2.09184E+007   -9.81069E+005    1.55765E+007   -7.49885E+006   -1.56709E+006    1.20091E+007    3.10359E+004   -3.69716E+006   -8.83971E+005
            4473    1.75366E+007    1.21009E+007    1.21009E+007   -1.71187E+006   -7.62878E+006    1.97297E+007   -9.20092E+005    1.50314E+007   -6.98754E+006   -1.54902E+006    1.12968E+007    1.69256E+004   -3.45055E+006   -1.56593E+006
            4474    1.62615E+007    1.12676E+007    1.12676E+007   -1.78782E+006   -6.94785E+006    1.82155E+007   -8.43980E+005    1.42369E+007   -6.36125E+006   -1.53514E+006    1.04283E+007   -5.70948E+004   -3.10570E+006   -1.94398E+006
            4475    1.51030E+007    1.04302E+007    1.04302E+007   -1.90338E+006   -6.41430E+006    1.68445E+007   -7.04172E+005    1.34575E+007   -5.88637E+006   -1.62462E+006    9.62351E+006   -1.79086E+005   -2.73052E+006   -2.08312E+006
            4476    1.44762E+007    9.92943E+006    9.92943E+006   -2.07747E+006   -6.14558E+006    1.60750E+007   -5.68792E+005    1.30946E+007   -5.60549E+006   -1.83978E+006    9.15164E+006   -3.58298E+005   -2.51608E+006   -2.14484E+006
            4477    1.44820E+007    1.02531E+007    1.02531E+007   -1.74973E+006   -5.83188E+006    1.60850E+007   -8.90497E+005    1.30908E+007   -5.34001E+006   -1.47438E+006    9.48588E+006   -3.92161E+005   -2.33618E+006   -2.26978E+006
            4478    1.07516E+007    1.03125E+007    1.03125E+007    4.80566E+005   -1.16825E+006    1.14808E+007   -3.20828E+006    1.04615E+007   -1.05058E+006    3.66989E+005    1.03084E+007   -4.21489E+005   -9.92963E+004   -1.82495E+005
            4479    1.07866E+007    1.02271E+007    1.02271E+007    4.55980E+005   -1.34755E+006    1.15746E+007   -3.11184E+006    1.04392E+007   -1.21021E+006    3.56487E+005    1.01893E+007   -4.52768E+005   -2.91265E+005   -5.59081E+005
            4480    1.08841E+007    1.00806E+007    1.00806E+007    3.21327E+005   -1.65698E+006    1.17376E+007   -2.91498E+006    1.04681E+007   -1.48457E+006    2.65093E+005    9.96441E+006   -4.88208E+005   -4.81689E+005   -9.90553E+005
            4481    1.11477E+007    9.94266E+006    9.94266E+006    1.44769E+004   -2.11679E+006    1.20594E+007   -2.61345E+006    1.06748E+007   -1.90225E+006    3.61982E+004    9.70640E+006   -4.94069E+005   -7.27501E+005   -1.40654E+006
            4482    1.16263E+007    9.89387E+006    9.89387E+006   -3.71501E+005   -2.73133E+006    1.26252E+007   -2.26368E+006    1.10681E+007   -2.46273E+006   -2.44435E+005    9.49821E+006   -4.64823E+005   -1.07583E+006   -1.78875E+006
            4483    1.24312E+007    9.90151E+006    9.90151E+006   -8.56196E+005   -3.70768E+006    1.36092E+007   -1.77921E+006    1.16608E+007   -3.36640E+006   -6.28409E+005    9.33244E+006   -3.94152E+005   -1.58072E+006   -2.04814E+006
            4484    1.37509E+007    1.02509E+007    1.02509E+007   -1.30478E+006   -4.95753E+006    1.52084E+007   -1.32953E+006    1.25881E+007   -4.56089E+006   -9.86057E+005    9.53553E+006   -3.00149E+005   -2.05497E+006   -2.23985E+006
            4485    1.23891E+007    1.31949E+007    1.31949E+007    1.49120E+006    2.18663E+005    1.29762E+007   -4.96825E+006    1.22407E+007    2.37618E+005    1.47405E+006    1.31931E+007   -1.53674E+005   -2.55826E+004   -1.43615E+005
            4486    1.36844E+007    1.40553E+007    1.40553E+007    8.64025E+005   -7.39851E+004    1.41293E+007   -4.94845E+006    1.36118E+007   -7.37886E+004    8.65991E+005    1.40532E+007   -1.21503E+004   -2.14101E+004   -1.67642E+005
            4487    1.46975E+007    1.49496E+007    1.49496E+007    4.10669E+005    9.84954E+004    1.48511E+007   -5.15293E+006    1.46901E+007    1.06253E+005    4.04462E+005    1.49481E+007   -4.81597E+004   -2.78622E+004   -1.47715E+005
            4488    1.55911E+007    1.55976E+007    1.55976E+007    2.12179E+004   -8.17414E+003    1.56058E+007   -5.20356E+006    1.55911E+007   -2.01675E+003    1.60109E+004    1.55967E+007   -1.16829E+004   -3.10312E+004   -1.17695E+005
            4489    1.24406E+007    1.32633E+007    1.32633E+007    1.53403E+006    2.16274E+005    1.30470E+007   -5.00453E+006    1.22821E+007    2.38640E+005    1.52949E+006    1.32455E+007   -1.67490E+005   -5.56352E+004   -4.54988E+005
            4490    1.38090E+007    1.41582E+007    1.41582E+007    8.80267E+005   -1.26824E+005    1.42850E+007   -4.97055E+006    1.37261E+007   -1.26492E+005    8.98146E+005    1.41400E+007   -1.28013E+004   -4.29910E+004   -4.89690E+005
            4491    1.48305E+007    1.50624E+007    1.50624E+007    4.25323E+005    4.57861E+004    1.50166E+007   -5.17783E+006    1.48195E+007    5.31852E+004    4.32031E+005    1.50483E+007   -5.07371E+004   -4.36580E+004   -4.52410E+005
            4492    1.57657E+007    1.57350E+007    1.57350E+007    2.62455E+004   -8.70743E+004    1.58221E+007   -5.22473E+006    1.57648E+007   -8.56229E+004    3.29231E+004    1.57269E+007   -1.14653E+004   -3.85554E+004   -3.55231E+005
            4493    1.25381E+007    1.34385E+007    1.34385E+007    1.62169E+006    2.85982E+005    1.31525E+007   -5.11540E+006    1.23766E+007    3.17933E+005    1.64206E+006    1.33862E+007   -1.97420E+005   -8.75953E+004   -7.82393E+005
            4494    1.39535E+007    1.43740E+007    1.43740E+007    9.35850E+005   -4.33814E+004    1.44174E+007   -5.08881E+006    1.38759E+007   -4.16055E+004    9.83068E+005    1.43250E+007   -2.73719E+004   -9.84189E+004   -8.04599E+005
            4495    1.49655E+007    1.53135E+007    1.53135E+007    5.24054E+005    1.78091E+005    1.51354E+007   -5.33856E+006    1.49565E+007    1.97499E+005    5.41018E+005    1.52772E+007   -7.28894E+004   -1.09419E+005   -7.25507E+005
            4496    1.58792E+007    1.60000E+007    1.60000E+007    1.61167E+005    8.07412E+004    1.59192E+007   -5.41396E+006    1.58787E+007    1.00677E+005    1.64053E+005    1.59772E+007   -2.98400E+004   -1.18020E+005   -5.89730E+005
            4497    1.29323E+007    1.37645E+007    1.37645E+007    1.58197E+006    1.94285E+005    1.35702E+007   -5.18024E+006    1.27632E+007    2.23098E+005    1.66160E+006    1.36560E+007   -1.88737E+005   -9.16943E+004   -1.14346E+006
            4498    1.43931E+007    1.47395E+007    1.47395E+007    9.78028E+005   -2.11354E+005    1.49509E+007   -5.16873E+006    1.42819E+007   -2.08622E+005    1.05918E+006    1.46556E+007   -3.86212E+004   -1.15147E+005   -1.06588E+006
            4499    1.53601E+007    1.56262E+007    1.56262E+007    6.02284E+005   -4.93701E+004    1.56756E+007   -5.39303E+006    1.53290E+007   -3.86844E+004    6.56267E+005    1.55615E+007   -7.20791E+004   -1.17787E+005   -9.77684E+005
            4500    1.63986E+007    1.63802E+007    1.63802E+007    1.96290E+005   -2.24859E+005    1.66051E+007   -5.45056E+006    1.63864E+007   -2.21152E+005    2.37897E+005    1.63349E+007   -3.02238E+004   -1.05803E+005   -8.49071E+005
            4501    1.34145E+007    1.43586E+007    1.43586E+007    1.62905E+006    3.50758E+005    1.40079E+007   -5.44615E+006    1.32764E+007    3.96609E+005    1.73403E+006    1.42078E+007   -2.22419E+005   -1.33689E+005   -1.37600E+006
            4502    1.44883E+007    1.51151E+007    1.51151E+007    1.24650E+006    7.77892E+004    1.50373E+007   -5.47979E+006    1.43817E+007    8.97294E+004    1.34374E+006    1.50059E+007   -8.74576E+004   -2.01227E+005   -1.21207E+006
            4503    1.54283E+007    1.60446E+007    1.60446E+007    9.13601E+005    3.35309E+005    1.57093E+007   -5.76452E+006    1.54039E+007    3.79822E+005    9.75940E+005    1.59378E+007   -1.29497E+005   -2.38883E+005   -1.24901E+006
            4504    1.64863E+007    1.69357E+007    1.69357E+007    5.87135E+005    3.14873E+005    1.66208E+007   -5.94589E+006    1.64813E+007    3.63112E+005    6.13343E+005    1.68612E+007   -8.35950E+004   -2.60819E+005   -1.07282E+006
            4505    1.41262E+007    1.48742E+007    1.48742E+007    1.66575E+006   -1.87142E+004    1.48929E+007   -5.50707E+006    1.38975E+007   -4.62245E+003    1.77863E+006    1.47472E+007   -1.39928E+005   -1.10279E+005   -1.28630E+006
            4506    1.49552E+007    1.53203E+007    1.53203E+007    1.42090E+006   -5.04277E+005    1.58246E+007   -5.41232E+006    1.46726E+007   -4.96591E+005    1.56070E+006    1.51728E+007   -1.00234E+005   -1.34701E+005   -1.41978E+006
            4507    1.62070E+007    1.64802E+007    1.64802E+007    1.03376E+006   -3.93030E+005    1.68732E+007   -5.70696E+006    1.60648E+007   -3.81401E+005    1.15615E+006    1.63461E+007   -1.08007E+005   -1.51955E+005   -1.42668E+006
            4508    1.74486E+007    1.74307E+007    1.74307E+007    6.70657E+005   -6.33239E+005    1.80640E+007   -5.82272E+006    1.73385E+007   -6.28213E+005    7.69730E+005    1.73266E+007   -6.66183E+004   -1.14196E+005   -1.31280E+006
            4509    1.31872E+007    1.45578E+007    1.45578E+007    2.25489E+006    6.35868E+005    1.39219E+007   -5.81618E+006    1.29607E+007    6.79965E+005    2.34233E+006    1.44263E+007   -2.32590E+005   -2.28634E+005   -1.25293E+006
            4510    1.44620E+007    1.57139E+007    1.57139E+007    1.99569E+006    6.08059E+005    1.51058E+007   -6.10587E+006    1.43111E+007    6.61119E+005    2.12377E+006    1.55327E+007   -2.27511E+005   -2.69247E+005   -1.55184E+006
            4511    1.54891E+007    1.68411E+007    1.68411E+007    1.83939E+006    9.06780E+005    1.59343E+007   -6.52909E+006    1.54257E+007    1.03818E+006    1.90153E+006    1.66476E+007   -2.56477E+005   -5.00709E+005   -1.63711E+006
            4512    1.69607E+007    1.83490E+007    1.83490E+007    1.73328E+006    1.06317E+006    1.72859E+007   -7.04850E+006    1.69309E+007    1.21812E+006    1.73520E+006    1.81922E+007   -2.13817E+005   -6.15236E+005   -1.50392E+006
            4513    1.89049E+007    1.74413E+007    1.74413E+007    1.46388E+006   -3.42919E+006    2.08704E+007   -5.15865E+006    1.73926E+007   -3.32750E+006    1.57762E+006    1.72258E+007    1.35587E+005    1.37057E+006   -1.41691E+006
            4514    1.72916E+007    1.59461E+007    1.59461E+007    1.33695E+006   -3.14530E+006    1.90914E+007   -4.71259E+006    1.59039E+007   -3.04305E+006    1.47609E+006    1.57047E+007    2.12036E+005    1.23172E+006   -1.54228E+006
            4515    1.58743E+007    1.44908E+007    1.44908E+007    1.31135E+006   -3.13154E+006    1.76224E+007   -4.22355E+006    1.43725E+007   -3.01960E+006    1.40879E+006    1.42815E+007    3.85606E+005    1.03941E+006   -1.41237E+006
            4516    1.58263E+007    1.41764E+007    1.41764E+007    1.36514E+006   -3.51528E+006    1.76917E+007   -4.00874E+006    1.39766E+007   -3.32808E+006    1.38162E+006    1.39727E+007    6.24240E+005    1.19378E+006   -1.29229E+006
            4517    1.15232E+007    1.20279E+007    1.20279E+007    1.79777E+006   -4.55578E+005    1.24835E+007   -4.45669E+006    1.10110E+007   -4.47580E+005    1.79087E+006    1.20268E+007    1.33234E+005    2.85509E+004   -1.02852E+005
            4518    1.15050E+007    1.20063E+007    1.20063E+007    1.93551E+006   -5.32362E+005    1.25387E+007   -4.46983E+006    1.08853E+007   -5.21721E+005    1.93847E+006    1.19927E+007    1.55170E+005    8.28859E+004   -3.63576E+005
            4519    1.15866E+007    1.20191E+007    1.20191E+007    2.02031E+006   -6.78897E+005    1.26980E+007   -4.45349E+006    1.08448E+007   -6.61321E+005    2.05389E+006    1.19679E+007    2.01372E+005    1.32661E+005   -7.06272E+005
            4520    1.18216E+007    1.21648E+007    1.21648E+007    2.02484E+006   -8.19486E+005    1.29843E+007   -4.45673E+006    1.10116E+007   -7.97399E+005    2.12834E+006    1.20392E+007    2.09500E+005    2.20417E+005   -1.10918E+006
            4521    1.24247E+007    1.25028E+007    1.25028E+007    1.79833E+006   -1.12204E+006    1.36248E+007   -4.39301E+006    1.16143E+007   -1.08269E+006    1.99030E+006    1.22714E+007    2.48061E+005    3.75521E+005   -1.53057E+006
            4522    1.34271E+007    1.32901E+007    1.32901E+007    1.77283E+006   -1.45756E+006    1.47476E+007   -4.53511E+006    1.25071E+007   -1.40225E+006    2.06414E+006    1.29434E+007    1.61802E+005    7.14590E+005   -1.87879E+006
            4523    1.52779E+007    1.44385E+007    1.44385E+007    1.76165E+006   -2.52473E+006    1.69632E+007   -4.55847E+006    1.38249E+007   -2.36632E+006    1.91784E+006    1.41239E+007    3.98703E+005    1.24860E+006   -1.69555E+006
            4524    2.06991E+007    1.89906E+007    1.89906E+007    1.58241E+006   -3.89698E+006    2.28876E+007   -5.55867E+006    1.89618E+007   -3.78036E+006    1.64895E+006    1.88074E+007    7.65997E+004    1.59635E+006   -1.11688E+006
            4525    2.20160E+007    2.00987E+007    2.00987E+007    1.66171E+006   -4.27764E+006    2.43763E+007   -5.82759E+006    2.00916E+007   -4.15155E+006    1.68174E+006    1.99526E+007    3.72609E+004    1.73995E+006   -6.28652E+005
            4526    2.25913E+007    2.05942E+007    2.05942E+007    1.69489E+006   -4.42717E+006    2.50214E+007   -5.95399E+006    2.05975E+007   -4.29531E+006    1.69489E+006    2.04624E+007    8.87947E+002    1.81157E+006    4.68228E+003
            4527    2.20899E+007    2.01254E+007    2.01254E+007    1.66097E+006   -4.34691E+006    2.44723E+007   -5.81316E+006    2.01251E+007   -4.21610E+006    1.68228E+006    1.99733E+007   -2.42217E+004    1.77791E+006    6.42472E+005
            4528    2.07698E+007    1.89570E+007    1.89570E+007    1.57250E+006   -4.04318E+006    2.30002E+007   -5.49545E+006    1.89457E+007   -3.91789E+006    1.64041E+006    1.87638E+007   -8.34721E+004    1.65719E+006    1.13147E+006
            4529    1.90844E+007    1.74463E+007    1.74463E+007    1.45156E+006   -3.67883E+006    2.11252E+007   -5.07302E+006    1.74288E+007   -3.55978E+006    1.56715E+006    1.72117E+007   -1.39936E+005    1.49925E+006    1.43359E+006
            4530    1.74411E+007    1.58693E+007    1.58693E+007    1.34841E+006   -3.47622E+006    1.93455E+007   -4.58051E+006    1.58322E+007   -3.35606E+006    1.47364E+006    1.56239E+007   -2.67578E+005    1.32200E+006    1.50947E+006
            4531    1.66169E+007    1.50242E+007    1.50242E+007    1.42247E+006   -3.49700E+006    1.85212E+007   -4.31655E+006    1.48410E+007   -3.36233E+006    1.53076E+006    1.47812E+007   -3.51355E+005    1.30087E+006    1.45153E+006
            4532    1.62065E+007    1.44192E+007    1.44192E+007    1.63974E+006   -3.80961E+006    1.82288E+007   -4.08312E+006    1.39092E+007   -3.62367E+006    1.84459E+006    1.40284E+007   -2.06741E+005    1.69411E+006    1.72622E+006
            4533    1.80515E+007    1.96047E+007    1.96047E+007    1.78271E+006    1.33209E+006    1.82726E+007   -7.57316E+006    1.80388E+007    1.53331E+006    1.68959E+006    1.94966E+007   -1.67332E+005   -7.92101E+005   -1.15382E+006
            4534    1.85247E+007    1.83789E+007    1.83789E+007    4.34661E+005   -6.76266E+005    1.90552E+007   -6.04578E+006    1.84496E+007   -6.73835E+005    4.82829E+005    1.83283E+007   -4.27823E+004   -8.95753E+004   -9.47811E+005
            4535    1.72356E+007    1.76429E+007    1.76429E+007    5.43854E+005    2.73842E+005    1.73690E+007   -6.15352E+006    1.72308E+007    5.21851E+005    3.36004E+005    1.76027E+007   -6.77113E+004   -2.88396E+005   -7.82765E+005
            4536    1.71028E+007    1.69755E+007    1.69755E+007   -5.67186E+004   -1.96994E+005    1.71725E+007   -5.57394E+006    1.71015E+007   -1.90807E+005   -4.41221E+004    1.69568E+007   -2.48210E+004   -8.98746E+004   -5.58408E+005
            4537    1.64822E+007    1.65331E+007    1.65331E+007    2.23768E+005   -1.16759E+005    1.66499E+007   -5.54670E+006    1.64743E+007    2.21173E+005   -1.04173E+005    1.65231E+007   -3.14276E+004   -1.20916E+005   -3.89225E+005
            4538    1.63295E+007    1.62065E+007    1.62065E+007   -2.16625E+004   -2.22325E+005    1.64289E+007   -5.32085E+006    1.63267E+007   -2.29358E+004   -2.18013E+005    1.62035E+007   -1.58718E+004   -3.05306E+004   -2.21333E+005
            4539    1.61371E+007    1.60601E+007    1.60601E+007    8.18958E+004   -2.31357E+005    1.62914E+007   -5.30354E+006    1.61303E+007    8.09933E+004   -2.30059E+005    1.60597E+007   -1.73168E+004   -3.46590E+004   -7.21931E+004
            4540    1.88657E+007    2.05302E+007    2.05302E+007    1.78786E+006    1.54349E+006    1.89867E+007   -7.95386E+006    1.88622E+007    1.71217E+006    1.68196E+006    2.04674E+007   -9.29206E+004   -8.99772E+005   -6.14645E+005
            4541    1.92033E+007    1.89139E+007    1.89139E+007    3.08404E+005   -8.35970E+005    1.97499E+007   -6.12878E+006    1.91263E+007   -8.35560E+005    3.20015E+005    1.89019E+007   -1.40423E+004   -6.26766E+004   -4.68881E+005
            4542    1.77246E+007    1.80809E+007    1.80809E+007    5.35304E+005    1.82648E+005    1.78983E+007   -6.26630E+006    1.77167E+007    5.37452E+005    1.92324E+005    1.80691E+007   -2.81381E+004   -3.09860E+005   -3.37555E+005
            4543    1.75365E+007    1.72779E+007    1.72779E+007   -2.16369E+005   -3.00551E+005    1.75784E+007   -5.58699E+006    1.75360E+007   -2.99837E+005   -2.13617E+005    1.72744E+007   -4.29688E+003   -8.07070E+004   -2.32718E+005
            4544    1.67954E+007    1.67691E+007    1.67691E+007    1.82211E+005   -2.27337E+005    1.69964E+007   -5.57464E+006    1.67841E+007    1.83068E+005   -2.26171E+005    1.67670E+007   -7.72062E+003   -1.31530E+005   -1.29108E+005
            4545    1.66355E+007    1.64085E+007    1.64085E+007   -1.03008E+005   -3.48314E+005    1.67568E+007   -5.31905E+006    1.66314E+007   -1.02967E+005   -3.47989E+005    1.64081E+007   -5.37100E+001   -2.61278E+004   -7.37765E+004
            4546    1.64035E+007    1.62415E+007    1.62415E+007    2.54594E+004   -3.43129E+005    1.65846E+007   -5.30795E+006    1.63941E+007    2.55511E+004   -3.43103E+005    1.62414E+007   -1.34257E+003   -3.96487E+004   -1.87608E+004
            4547    1.91035E+007    2.08268E+007    2.08268E+007    1.76200E+006    1.68500E+006    1.91418E+007   -8.09128E+006    1.91031E+007    1.80846E+006    1.68528E+006    2.07801E+007   -5.92323E+003   -9.41937E+005    4.25616E+004
            4548    1.93950E+007    1.91037E+007    1.91037E+007    2.92408E+005   -8.26506E+005    1.99302E+007   -6.18987E+006    1.93222E+007   -8.26234E+005    2.92937E+005    1.91029E+007    1.06845E+004   -5.72570E+004    1.09510E+005
            4549    1.77926E+007    1.81806E+007    1.81806E+007    6.06285E+005    1.77400E+005    1.80032E+007   -6.32142E+006    1.77810E+007    6.11910E+005    1.78507E+005    1.81739E+007    5.82566E+003   -3.18686E+005    1.30871E+005
            4550    1.75755E+007    1.73340E+007    1.73340E+007   -2.20951E+005   -2.61964E+005    1.75960E+007   -5.61704E+006    1.75754E+007   -2.59313E+005   -2.21823E+005    1.73323E+007    8.77876E+003   -7.65146E+004    1.59391E+005
            4551    1.67779E+007    1.67843E+007    1.67843E+007    2.48021E+005   -2.25309E+005    1.70096E+007   -5.60233E+006    1.67629E+007    2.48956E+005   -2.24262E+005    1.67823E+007    5.68348E+003   -1.30477E+005    1.27340E+005
            4552    1.66020E+007    1.64042E+007    1.64042E+007   -5.32859E+004   -3.38648E+005    1.67428E+007   -5.33742E+006    1.65965E+007   -5.33438E+004   -3.38022E+005    1.64036E+007    5.04594E+003   -2.44561E+004    9.43708E+004
            4553    1.63563E+007    1.62267E+007    1.62267E+007    7.83643E+004   -3.29836E+005    1.65565E+007   -5.32507E+006    1.63448E+007    7.84160E+004   -3.29739E+005    1.62265E+007    4.14171E+003   -3.92152E+004    2.97818E+004
            4554    1.87881E+007    2.04608E+007    2.04608E+007    1.79330E+006    1.55451E+006    1.89063E+007   -7.93621E+006    1.87846E+007    1.69394E+006    1.72233E+006    2.03924E+007    8.40119E+004   -8.87906E+005    7.08066E+005
            4555    1.90852E+007    1.88228E+007    1.88228E+007    3.74094E+005   -8.40872E+005    1.96636E+007   -6.11866E+006    1.89979E+007   -8.39667E+005    3.95850E+005    1.87998E+007    3.26999E+004   -6.39887E+004    6.47617E+005
            4556    1.75288E+007    1.79261E+007    1.79261E+007    5.38807E+005    2.58978E+005    1.76671E+007   -6.24128E+006    1.75238E+007    5.33916E+005    2.90356E+005    1.78996E+007    4.23265E+004   -3.12537E+005    6.07432E+005
            4557    1.72864E+007    1.70827E+007    1.70827E+007   -1.03147E+005   -3.02546E+005    1.73853E+007   -5.55901E+006    1.72838E+007   -2.99585E+005   -9.13477E+004    1.70679E+007    2.00772E+004   -8.33737E+004    4.96716E+005
            4558    1.65124E+007    1.65454E+007    1.65454E+007    1.84049E+005   -1.14069E+005    1.66595E+007   -5.53846E+006    1.65064E+007    1.83152E+005   -1.03087E+005    1.65353E+007    2.11482E+004   -1.34111E+005    3.86963E+005
            4559    1.63173E+007    1.61590E+007    1.61590E+007   -1.01270E+005   -2.14755E+005    1.63738E+007   -5.28099E+006    1.63164E+007   -1.02352E+005   -2.10212E+005    1.61555E+007    1.08599E+004   -2.66052E+004    2.36545E+005
            4560    1.60734E+007    1.59834E+007    1.59834E+007    2.69277E+004   -2.04458E+005    1.61878E+007   -5.26861E+006    1.60696E+007    2.64085E+004   -2.03429E+005    1.59829E+007    1.17773E+004   -4.05708E+004    8.11488E+004
            4561    1.79125E+007    1.95048E+007    1.95048E+007    1.83933E+006    1.35522E+006    1.81496E+007   -7.56646E+006    1.78977E+007    1.52931E+006    1.78138E+006    1.93887E+007    1.68870E+005   -7.60356E+005    1.22710E+006
            4562    1.82722E+007    1.81787E+007    1.81787E+007    5.56218E+005   -6.80440E+005    1.88591E+007   -6.01815E+006    1.81777E+007   -6.76441E+005    6.23578E+005    1.81073E+007    5.97704E+004   -9.87482E+004    1.11549E+006
            4563    1.68832E+007    1.73782E+007    1.73782E+007    5.97622E+005    3.94204E+005    1.69840E+007   -6.12334E+006    1.68804E+007    5.27041E+005    5.24149E+005    1.73188E+007    8.18679E+004   -2.91213E+005    9.58321E+005
            4564    1.66720E+007    1.66305E+007    1.66305E+007    1.17467E+005   -1.96100E+005    1.68266E+007   -5.51728E+006    1.66654E+007   -1.89243E+005    1.49377E+005    1.65917E+007    3.94184E+004   -9.73369E+004    7.93719E+005
            4565    1.59435E+007    1.61094E+007    1.61094E+007    2.38610E+005    9.41756E+004    1.60153E+007   -5.48074E+006    1.59421E+007    2.23516E+005    1.31551E+005    1.60871E+007    4.08768E+004   -1.24057E+005    5.83871E+005
            4566    1.57605E+007    1.57561E+007    1.57561E+007    2.74814E+004   -3.61795E+004    1.57923E+007   -5.24914E+006    1.57603E+007   -2.36135E+004    2.34037E+004    1.57476E+007    2.45314E+004   -3.29989E+004    3.63999E+005
            4567    1.55246E+007    1.55791E+007    1.55791E+007    9.04980E+004    1.86385E+004    1.55604E+007   -5.22940E+006    1.55243E+007    8.04825E+004    2.96218E+004    1.55781E+007    2.47061E+004   -3.44924E+004    1.17763E+005
            4568    1.67122E+007    1.81454E+007    1.81454E+007    1.82403E+006    1.06786E+006    1.70775E+007   -7.01242E+006    1.66737E+007    1.19505E+006    1.86593E+006    1.79763E+007    2.07684E+005   -6.01595E+005    1.55803E+006
            4569    1.71740E+007    1.72431E+007    1.72431E+007    8.67158E+005   -6.30808E+005    1.78739E+007   -5.82649E+006    1.70261E+007   -6.23877E+005    9.74871E+005    1.71285E+007    8.69298E+004   -1.18503E+005    1.36154E+006
            4570    1.60835E+007    1.66079E+007    1.66079E+007    7.44465E+005    3.12996E+005    1.62949E+007   -5.88845E+006    1.60705E+007    3.50967E+005    8.01512E+005    1.65129E+007    9.58479E+004   -2.69100E+005    1.19801E+006
            4571    1.58658E+007    1.59492E+007    1.59492E+007    4.21476E+005   -2.34352E+005    1.61836E+007   -5.37878E+006    1.58353E+007   -2.30307E+005    4.79703E+005    1.58869E+007    4.05217E+004   -1.05225E+005    9.76336E+005
            4572    1.52439E+007    1.54924E+007    1.54924E+007    4.07362E+005    9.44137E+004    1.53980E+007   -5.33139E+006    1.52367E+007    1.03260E+005    4.34663E+005    1.54562E+007    4.33014E+004   -1.21901E+005    7.28187E+005
            4573    1.50429E+007    1.51572E+007    1.51572E+007    3.30450E+005   -9.28847E+004    1.52501E+007   -5.13159E+006    1.50295E+007   -9.15672E+004    3.42647E+005    1.51437E+007    2.17023E+004   -3.68495E+004    4.46023E+005
            4574    1.48358E+007    1.50016E+007    1.50016E+007    3.39436E+005   -1.81429E+003    1.50035E+007   -5.11309E+006    1.48269E+007   -6.58063E+001    3.39164E+005    1.50002E+007    2.35383E+004   -3.30643E+004    1.43527E+005
            4575    1.54137E+007    1.68337E+007    1.68337E+007    2.00091E+006    8.98373E+005    1.59354E+007   -6.57767E+006    1.53246E+007    1.00048E+006    2.08158E+006    1.66510E+007    2.61636E+005   -4.22434E+005    1.59740E+006
            4576    1.59566E+007    1.62894E+007    1.62894E+007    1.16367E+006   -3.85114E+005    1.66745E+007   -5.68930E+006    1.57861E+007   -3.72289E+005    1.29330E+006    1.61469E+007    1.16359E+005   -1.68777E+005    1.45397E+006
            4577    1.50838E+007    1.57706E+007    1.57706E+007    1.04557E+006    3.52043E+005    1.54186E+007   -5.72275E+006    1.50478E+007    3.86951E+005    1.13040E+006    1.56509E+007    1.25605E+005   -2.27046E+005    1.30711E+006
            4578    1.48697E+007    1.52239E+007    1.52239E+007    7.88807E+005   -4.53671E+004    1.52692E+007   -5.32244E+006    1.48169E+007   -3.41866E+004    8.60888E+005    1.51406E+007    8.36111E+004   -1.18962E+005    1.08809E+006
            4579    1.43149E+007    1.47931E+007    1.47931E+007    7.80273E+005    1.94230E+005    1.45989E+007   -5.25587E+006    1.42878E+007    2.07116E+005    8.14531E+005    1.47460E+007    7.74076E+004   -1.08246E+005    8.05410E+005
            4580    1.41328E+007    1.45055E+007    1.45055E+007    7.19876E+005    4.93350E+004    1.44561E+007   -5.09156E+006    1.40970E+007    5.49986E+004    7.32088E+005    1.44876E+007    5.91162E+004   -4.47879E+004    4.94443E+005
            4581    1.39371E+007    1.43446E+007    1.43446E+007    7.31972E+005    1.04251E+005    1.42403E+007   -5.06027E+006    1.39052E+007    1.09117E+005    7.29104E+005    1.43426E+007    5.44756E+004   -2.66130E+004    1.62971E+005
            4582    1.44376E+007    1.56715E+007    1.56715E+007    2.06734E+006    5.24431E+005    1.51470E+007   -6.08775E+006    1.42503E+007    5.63536E+005    2.20827E+006    1.54914E+007    2.00021E+005   -2.73371E+005    1.53880E+006
            4583    1.49985E+007    1.53166E+007    1.53166E+007    1.38734E+006   -5.60750E+005    1.58774E+007   -5.38107E+006    1.47098E+007   -5.57476E+005    1.54292E+006    1.51578E+007    6.91249E+004   -7.27838E+004    1.47792E+006
            4584    1.41948E+007    1.48434E+007    1.48434E+007    1.33668E+006    4.83162E+004    1.47951E+007   -5.40947E+006    1.40624E+007    6.14163E+004    1.46276E+006    1.47042E+007    1.02916E+005   -1.75147E+005    1.35560E+006
            4585    1.39240E+007    1.43303E+007    1.43303E+007    1.16742E+006   -2.47019E+005    1.45773E+007   -5.08356E+006    1.37610E+007   -2.44264E+005    1.26197E+006    1.42330E+007    4.78246E+004   -9.43916E+004    1.12440E+006
            4586    1.34363E+007    1.39559E+007    1.39559E+007    1.17654E+006   -5.29604E+004    1.40088E+007   -5.02649E+006    1.33089E+007   -4.99942E+004    1.22650E+006    1.39030E+007    4.79300E+004   -9.48410E+004    8.16114E+005
            4587    1.32537E+007    1.37024E+007    1.37024E+007    1.12606E+006   -1.38077E+005    1.38404E+007   -4.89678E+006    1.31170E+007   -1.37266E+005    1.14453E+006    1.36831E+007    2.83577E+004   -3.92952E+004    4.90773E+005
            4588    1.30869E+007    1.35724E+007    1.35724E+007    1.13370E+006   -7.83904E+004    1.36508E+007   -4.87590E+006    1.29597E+007   -7.76230E+004    1.13497E+006    1.35703E+007    2.93949E+004   -2.36137E+004    1.57578E+005
            4589    1.38665E+007    1.48254E+007    1.48254E+007    1.85012E+006    2.12915E+005    1.46125E+007   -5.62947E+006    1.36466E+007    2.15464E+005    2.04122E+006    1.46317E+007   -2.21851E+004    1.53638E+005    1.56706E+006
            4590    1.37171E+007    1.45034E+007    1.45034E+007    1.72378E+006    9.89637E+003    1.44935E+007   -5.41236E+006    1.34730E+007    3.72012E+004    1.90170E+006    1.42982E+007    2.15831E+005   -2.68582E+003    1.60798E+006
            4591    1.30026E+007    1.39802E+007    1.39802E+007    1.72459E+006    3.41181E+005    1.36390E+007   -5.34865E+006    1.28355E+007    3.69362E+005    1.86133E+006    1.38153E+007    1.83997E+005   -9.72327E+004    1.41192E+006
            4592    1.25940E+007    1.35114E+007    1.35114E+007    1.74189E+006    2.29520E+005    1.32819E+007   -5.16094E+006    1.23872E+007    2.61103E+005    1.81987E+006    1.34018E+007    2.07433E+005   -8.92699E+004    1.12990E+006
            4593    1.22160E+007    1.31679E+007    1.31679E+007    1.73724E+006    2.94664E+005    1.28732E+007   -5.06660E+006    1.20221E+007    3.19268E+005    1.76561E+006    1.31149E+007    1.79973E+005   -8.43431E+004    7.74204E+005
            4594    1.20958E+007    1.29865E+007    1.29865E+007    1.68294E+006    2.29752E+005    1.27568E+007   -4.96641E+006    1.18971E+007    2.50274E+005    1.67897E+006    1.29700E+007    1.68908E+005   -5.24795E+004    4.30386E+005
            4595    1.20491E+007    1.29152E+007    1.29152E+007    1.62209E+006    2.30858E+005    1.26844E+007   -4.92272E+006    1.18664E+007    2.47448E+005    1.60711E+006    1.29136E+007    1.50598E+005   -2.28989E+004    1.33449E+005
            4596    1.14677E+007    1.19257E+007    1.19257E+007    1.83216E+006   -5.43897E+005    1.24696E+007   -4.40467E+006    1.08931E+007   -5.33012E+005    1.82244E+006    1.19246E+007   -1.59425E+005    3.53190E+004    1.04091E+005
            4597    1.14843E+007    1.19217E+007    1.19217E+007    1.94417E+006   -6.31852E+005    1.25536E+007   -4.41135E+006    1.08052E+007   -6.17151E+005    1.94265E+006    1.19086E+007   -1.86364E+005    9.73996E+004    3.53486E+005
            4598    1.15854E+007    1.19521E+007    1.19521E+007    2.04270E+006   -7.85540E+005    1.27377E+007   -4.40310E+006    1.07668E+007   -7.65954E+005    2.07115E+006    1.19041E+007   -2.13685E+005    1.61831E+005    6.76609E+005
            4599    1.18662E+007    1.20836E+007    1.20836E+007    1.99307E+006   -9.89229E+005    1.30728E+007   -4.36248E+006    1.09744E+007   -9.57869E+005    2.07584E+006    1.19695E+007   -2.60725E+005    2.50737E+005    1.05065E+006
            4600    1.24169E+007    1.23841E+007    1.23841E+007    1.88982E+006   -1.32370E+006    1.37078E+007   -4.31675E+006    1.14238E+007   -1.28025E+006    2.04614E+006    1.21843E+007   -2.68167E+005    4.23476E+005    1.39704E+006
            4601    1.31894E+007    1.27791E+007    1.27791E+007    1.77698E+006   -1.84192E+006    1.46211E+007   -4.23806E+006    1.19938E+007   -1.76022E+006    1.97838E+006    1.24960E+007   -3.32745E+005    7.03228E+005    1.65576E+006
            4602    1.44932E+007    1.32905E+007    1.32905E+007    1.74427E+006   -2.97380E+006    1.62643E+007   -4.02032E+006    1.25829E+007   -2.82273E+006    2.00600E+006    1.28777E+007   -2.99050E+005    1.30637E+006    1.88474E+006
            4603    1.58666E+007    1.42122E+007    1.42122E+007    1.36290E+006   -3.52262E+006    1.77349E+007   -4.01751E+006    1.40183E+007   -3.33423E+006    1.37842E+006    1.40083E+007    6.22763E+005   -1.20698E+006    1.28732E+006
            4604    1.58748E+007    1.44841E+007    1.44841E+007    1.30202E+006   -3.13811E+006    1.76222E+007   -4.21599E+006    1.43751E+007   -3.02731E+006    1.39598E+006    1.42793E+007    3.88589E+005   -1.02760E+006    1.39738E+006
            4605    1.72486E+007    1.59176E+007    1.59176E+007    1.32928E+006   -3.11963E+006    1.90372E+007   -4.70907E+006    1.58789E+007   -3.01751E+006    1.46795E+006    1.56768E+007    2.19376E+005   -1.22027E+006    1.54476E+006
            4606    1.88728E+007    1.74137E+007    1.74137E+007    1.45216E+006   -3.41637E+006    2.08300E+007   -5.14981E+006    1.73737E+007   -3.31528E+006    1.56623E+006    1.71985E+007    1.32545E+005   -1.36661E+006    1.41652E+006
            4607    1.69351E+007    1.83240E+007    1.83240E+007    1.72775E+006    1.06934E+006    1.72547E+007   -7.04036E+006    1.69062E+007    1.22622E+006    1.72857E+006    1.81663E+007   -2.11589E+005    6.18903E+005    1.50596E+006
            4608    1.74118E+007    1.73908E+007    1.73908E+007    6.62299E+005   -6.32109E+005    1.80229E+007   -5.80699E+006    1.73031E+007   -6.26988E+005    7.60620E+005    1.72873E+007   -6.75775E+004    1.11915E+005    1.30758E+006
            4609    1.64606E+007    1.69107E+007    1.69107E+007    5.82639E+005    3.20702E+005    1.65900E+007   -5.93800E+006    1.64559E+007    3.69663E+005    6.07228E+005    1.68371E+007   -8.21247E+004    2.59504E+005    1.06558E+006
            4610    1.63890E+007    1.63648E+007    1.63648E+007    1.88831E+005   -2.29173E+005    1.65940E+007   -5.44149E+006    1.63770E+007   -2.25598E+005    2.29253E+005    1.63208E+007   -2.96916E+004    1.03388E+005    8.36569E+005
            4611    1.58629E+007    1.59861E+007    1.59861E+007    1.62836E+005    8.38438E+004    1.59023E+007   -5.41094E+006    1.58625E+007    1.04428E+005    1.64573E+005    1.59638E+007   -2.98732E+004    1.17904E+005    5.82727E+005
            4612    1.57545E+007    1.57232E+007    1.57232E+007    2.83954E+004   -9.03135E+004    1.58135E+007   -5.22043E+006    1.57535E+007   -8.90138E+004    3.51391E+004    1.57152E+007   -1.10746E+004    3.78799E+004    3.53242E+005
            4613    1.55875E+007    1.55955E+007    1.55955E+007    2.30880E+004   -6.96163E+003    1.56025E+007   -5.20388E+006    1.55874E+007   -6.17098E+002    1.76933E+004    1.55946E+007   -1.19822E+004    3.14201E+004    1.17541E+005
            4614    1.54550E+007    1.68052E+007    1.68052E+007    1.83989E+006    9.03158E+005    1.59021E+007   -6.51609E+006    1.53909E+007    1.03664E+006    1.89921E+006    1.66124E+007   -2.59263E+005    5.03002E+005    1.63121E+006
            4615    1.61722E+007    1.64423E+007    1.64423E+007    1.03197E+006   -3.96899E+005    1.68392E+007   -5.69247E+006    1.60293E+007   -3.85905E+005    1.15422E+006    1.63091E+007   -1.04739E+005    1.49824E+005    1.42102E+006
            4616    1.53912E+007    1.60061E+007    1.60061E+007    9.10654E+005    3.35157E+005    1.56709E+007   -5.75062E+006    1.53670E+007    3.79316E+005    9.71500E+005    1.59011E+007   -1.28842E+005    2.37339E+005    1.23662E+006
            4617    1.53458E+007    1.56074E+007    1.56074E+007    5.97257E+005   -5.33075E+004    1.56607E+007   -5.38379E+006    1.53147E+007   -4.28624E+004    6.50479E+005    1.55437E+007   -7.12869E+004    1.16214E+005    9.69721E+005
            4618    1.49574E+007    1.53053E+007    1.53053E+007    5.22250E+005    1.79499E+005    1.51258E+007   -5.33569E+006    1.49486E+007    1.98820E+005    5.38553E+005    1.52697E+007   -7.24389E+004    1.08709E+005    7.17807E+005
            4619    1.48251E+007    1.50566E+007    1.50566E+007    4.26040E+005    4.44142E+004    1.50122E+007   -5.17570E+006    1.48140E+007    5.17081E+004    4.32377E+005    1.50430E+007   -5.05840E+004    4.26330E+004    4.44631E+005
            4620    1.46920E+007    1.49452E+007    1.49452E+007    4.12016E+005    9.93381E+004    1.48459E+007   -5.15218E+006    1.46845E+007    1.07071E+005    4.05762E+005    1.49437E+007   -4.81539E+004    2.67246E+004    1.44253E+005
            4621    1.44365E+007    1.57071E+007    1.57071E+007    2.01360E+006    6.27480E+005    1.50796E+007   -6.11606E+006    1.42857E+007    6.82931E+005    2.13700E+006    1.55282E+007   -2.31937E+005    2.77400E+005    1.53949E+006
            4622    1.49253E+007    1.52960E+007    1.52960E+007    1.42028E+006   -4.94095E+005    1.57901E+007   -5.40740E+006    1.46452E+007   -4.86602E+005    1.55810E+006    1.51507E+007   -9.79750E+004    1.36083E+005    1.40802E+006
            4623    1.44569E+007    1.50866E+007    1.50866E+007    1.24450E+006    8.47863E+004    1.50018E+007   -5.47197E+006    1.43517E+007    9.69136E+004    1.34011E+006    1.49789E+007   -8.81832E+004    2.01032E+005    1.20280E+006
            4624    1.43763E+007    1.47177E+007    1.47177E+007    9.75916E+005   -2.18636E+005    1.49363E+007   -5.15832E+006    1.42640E+007   -2.16148E+005    1.05611E+006    1.46350E+007   -3.64573E+004    1.11897E+005    1.05765E+006
            4625    1.39502E+007    1.43717E+007    1.43717E+007    9.36161E+005   -4.17091E+004    1.44134E+007   -5.08871E+006    1.38728E+007   -3.99503E+004    9.82794E+005    1.43233E+007   -2.72633E+004    9.78825E+004    7.99565E+005
            4626    1.38034E+007    1.41518E+007    1.41518E+007    8.81376E+005   -1.28981E+005    1.42808E+007   -4.96807E+006    1.37198E+007   -1.28643E+005    8.99229E+005    1.41336E+007   -1.29566E+004    4.33713E+004    4.89257E+005
            4627    1.36773E+007    1.40494E+007    1.40494E+007    8.66992E+005   -7.40401E+004    1.41235E+007   -4.94746E+006    1.36041E+007   -7.38346E+004    8.68873E+005    1.40473E+007   -1.22744E+004    2.32478E+004    1.64334E+005
            4628    1.31866E+007    1.45676E+007    1.45676E+007    2.25588E+006    6.52700E+005    1.39149E+007   -5.82539E+006    1.29646E+007    6.95019E+005    2.34375E+006    1.44374E+007   -2.24151E+005    2.37700E+005    1.24530E+006
            4629    1.41216E+007    1.48679E+007    1.48679E+007    1.65933E+006   -1.70268E+004    1.48849E+007   -5.50340E+006    1.38951E+007   -3.20172E+003    1.77436E+006    1.47390E+007   -1.38439E+005    1.07706E+005    1.29592E+006
            4630    1.33847E+007    1.43293E+007    1.43293E+007    1.62897E+006    3.51794E+005    1.39775E+007   -5.43670E+006    1.32466E+007    3.97009E+005    1.73444E+006    1.41786E+007   -2.20969E+005    1.31700E+005    1.37382E+006
            4631    1.29181E+007    1.37509E+007    1.37509E+007    1.58566E+006    1.92883E+005    1.35581E+007   -5.17649E+006    1.27475E+007    2.21588E+005    1.66425E+006    1.36436E+007   -1.88632E+005    9.27508E+004    1.13662E+006
            4632    1.25274E+007    1.34282E+007    1.34282E+007    1.62349E+006    2.85581E+005    1.31427E+007   -5.11244E+006    1.23651E+007    3.17025E+005    1.64339E+006    1.33769E+007   -1.96021E+005    8.76133E+004    7.74660E+005
            4633    1.24381E+007    1.32616E+007    1.32616E+007    1.53648E+006    2.15943E+005    1.30456E+007   -5.00467E+006    1.22789E+007    2.38770E+005    1.53102E+006    1.32442E+007   -1.69522E+005    5.41263E+004    4.49009E+005
            4634    1.23894E+007    1.31972E+007    1.31972E+007    1.49234E+006    2.21249E+005    1.29759E+007   -4.97025E+006    1.22414E+007    2.40386E+005    1.47496E+006    1.31954E+007   -1.54348E+005    2.43245E+004    1.42003E+005
            4635    1.15217E+007    1.20261E+007    1.20261E+007    1.80186E+006   -4.58219E+005    1.24843E+007   -4.45657E+006    1.10063E+007   -4.50070E+005    1.79489E+006    1.20249E+007    1.34700E+005   -2.81672E+004    1.07027E+005
            4636    1.15047E+007    1.20048E+007    1.20048E+007    1.94126E+006   -5.37045E+005    1.25419E+007   -4.46968E+006    1.08795E+007   -5.26258E+005    1.94403E+006    1.19913E+007    1.56706E+005   -8.24358E+004    3.62870E+005
            4637    1.15864E+007    1.20218E+007    1.20218E+007    2.02291E+006   -6.75884E+005    1.26977E+007   -4.45627E+006    1.08449E+007   -6.58452E+005    2.05570E+006    1.19716E+007    2.00301E+005   -1.33693E+005    6.99487E+005
            4638    1.18142E+007    1.21602E+007    1.21602E+007    2.02218E+006   -8.13911E+005    1.29741E+007   -4.45617E+006    1.10085E+007   -7.92393E+005    2.12423E+006    1.20367E+007    2.06027E+005   -2.19442E+005    1.10005E+006
            4639    1.24076E+007    1.24899E+007    1.24899E+007    1.80804E+006   -1.11980E+006    1.36097E+007   -4.39270E+006    1.15915E+007   -1.08030E+006    1.99813E+006    1.22603E+007    2.50079E+005   -3.73379E+005    1.52344E+006
            4640    1.34018E+007    1.32747E+007    1.32747E+007    1.77212E+006   -1.44176E+006    1.47165E+007   -4.53504E+006    1.24898E+007   -1.38714E+006    2.06411E+006    1.29281E+007    1.58815E+005   -7.10981E+005    1.87817E+006
            4641    1.53150E+007    1.44582E+007    1.44582E+007    1.74523E+006   -2.54419E+006    1.70024E+007   -4.55307E+006    1.38639E+007   -2.38416E+006    1.90512E+006    1.41382E+007    3.99210E+005   -1.25690E+006    1.71394E+006
            4642    1.20434E+007    1.29108E+007    1.29108E+007    1.62580E+006    2.30674E+005    1.26802E+007   -4.92244E+006    1.18595E+007    2.47375E+005    1.61088E+006    1.29091E+007    1.51288E+005    2.30841E+004   -1.40414E+005
            4643    1.30781E+007    1.35658E+007    1.35658E+007    1.13880E+006   -7.83220E+004    1.36441E+007   -4.87542E+006    1.29497E+007   -7.74943E+004    1.14021E+006    1.35635E+007    3.06316E+004    2.38843E+004   -1.65108E+005
            4644    1.39341E+007    1.43408E+007    1.43408E+007    7.33818E+005    1.00983E+005    1.42398E+007   -5.05852E+006    1.39018E+007    1.05732E+005    7.31379E+005    1.43385E+007    5.39677E+004    2.77777E+004   -1.75315E+005
            4645    1.48388E+007    1.50052E+007    1.50052E+007    3.40040E+005   -1.43078E+003    1.50066E+007   -5.11459E+006    1.48300E+007    2.42862E+002    3.40133E+005    1.50034E+007    2.29233E+004    3.43690E+004   -1.57383E+005
            4646    1.55289E+007    1.55827E+007    1.55827E+007    8.90415E+004    1.87596E+004    1.55639E+007   -5.23015E+006    1.55285E+007    7.98710E+004    2.90588E+004    1.55815E+007    2.34710E+004    3.53066E+004   -1.27745E+005
            4647    1.60777E+007    1.59878E+007    1.59878E+007    2.73345E+004   -2.04591E+005    1.61924E+007   -5.27018E+006    1.60739E+007    2.68910E+004   -2.03592E+005    1.59872E+007    1.10680E+004    4.13658E+004   -8.52433E+004
            4648    1.63580E+007    1.62275E+007    1.62275E+007    7.66440E+004   -3.30009E+005    1.65575E+007   -5.32472E+006    1.63466E+007    7.67017E+004   -3.29922E+005    1.62274E+007    3.79155E+003    3.90396E+004   -2.88557E+004
            4649    1.64040E+007    1.62423E+007    1.62423E+007    2.55301E+004   -3.42786E+005    1.65851E+007   -5.30835E+006    1.63947E+007    2.56222E+004   -3.42753E+005    1.62422E+007   -1.53729E+003    4.00575E+004    2.09608E+004
            4650    1.61341E+007    1.60574E+007    1.60574E+007    8.16705E+004   -2.30442E+005    1.62879E+007   -5.30289E+006    1.61273E+007    8.07902E+004   -2.29159E+005    1.60570E+007   -1.70588E+004    3.39424E+004    7.34577E+004
            4651    1.20845E+007    1.29788E+007    1.29788E+007    1.68942E+006    2.31474E+005    1.27473E+007   -4.96656E+006    1.18842E+007    2.51912E+005    1.68612E+006    1.29617E+007    1.68799E+005    5.27332E+004   -4.37748E+005
            4652    1.32415E+007    1.36969E+007    1.36969E+007    1.13446E+006   -1.32670E+005    1.38295E+007   -4.89955E+006    1.31041E+007   -1.31772E+005    1.15394E+006    1.36765E+007    2.99950E+004    4.03188E+004   -5.04183E+005
            4653    1.41394E+007    1.45143E+007    1.45143E+007    7.22685E+005    5.10219E+004    1.44632E+007   -5.09599E+006    1.41034E+007    5.68956E+004    7.35987E+005    1.44951E+007    6.00889E+004    4.71058E+004   -5.12137E+005
            4654    1.50632E+007    1.51774E+007    1.51774E+007    3.27320E+005   -9.02614E+004    1.52677E+007   -5.13815E+006    1.50502E+007   -8.87426E+004    3.40280E+005    1.51629E+007    2.31315E+004    3.90118E+004   -4.61952E+005
            4655    1.57844E+007    1.57785E+007    1.57785E+007    2.57996E+004   -3.75437E+004    1.58160E+007   -5.25557E+006    1.57841E+007   -2.26469E+004    1.98182E+004    1.57695E+007    2.59990E+004    3.48952E+004   -3.73259E+005
            4656    1.63329E+007    1.61735E+007    1.61735E+007   -1.00952E+005   -2.17275E+005    1.63908E+007   -5.28510E+006    1.63320E+007   -1.02099E+005   -2.12626E+005    1.61700E+007    1.13171E+004    2.75285E+004   -2.38007E+005
            4657    1.66078E+007    1.64108E+007    1.64108E+007   -5.17107E+004   -3.38536E+005    1.67493E+007   -5.34018E+006    1.66022E+007   -5.17664E+004   -3.37942E+005    1.64103E+007    5.05620E+003    2.51816E+004   -9.15381E+004
            4658    1.66318E+007    1.64061E+007    1.64061E+007   -1.01993E+005   -3.46711E+005    1.67528E+007   -5.31913E+006    1.66278E+007   -1.01951E+005   -3.46345E+005    1.64057E+007   -3.55129E+002    2.63608E+004    7.82994E+004
            4659    1.63188E+007    1.61973E+007    1.61973E+007   -2.23985E+004   -2.18850E+005    1.64161E+007   -5.31867E+006    1.63161E+007   -2.38087E+004   -2.14322E+005    1.61941E+007   -1.64909E+004    2.97974E+004    2.24240E+005
            4660    1.22142E+007    1.31658E+007    1.31658E+007    1.74053E+006    2.91862E+005    1.28740E+007   -5.06607E+006    1.20187E+007    3.16407E+005    1.77095E+006    1.31109E+007    1.80113E+005    8.39560E+004   -7.88508E+005
            4661    1.34570E+007    1.39760E+007    1.39760E+007    1.17619E+006   -5.38426E+004    1.40298E+007   -5.03277E+006    1.33297E+007   -5.07147E+004    1.22842E+006    1.39206E+007    4.95692E+004    9.52670E+004   -8.35497E+005
            4662    1.43636E+007    1.48342E+007    1.48342E+007    7.71714E+005    1.87321E+005    1.46468E+007   -5.26440E+006    1.43368E+007    2.00209E+005    8.08434E+005    1.47845E+007    7.69249E+004    1.10455E+005   -8.27669E+005
            4663    1.53045E+007    1.55463E+007    1.55463E+007    3.96023E+005    9.20895E+004    1.54542E+007   -5.34482E+006    1.52978E+007    1.00990E+005    4.24392E+005    1.55091E+007    4.24737E+004    1.23896E+005   -7.40987E+005
            4664    1.59939E+007    1.61546E+007    1.61546E+007    2.35970E+005    8.64352E+004    1.60682E+007   -5.49234E+006    1.59924E+007    2.22659E+005    1.22089E+005    1.61323E+007    3.93875E+004    1.25688E+005   -5.85389E+005
            4665    1.65431E+007    1.65741E+007    1.65741E+007    1.85094E+005   -1.18745E+005    1.66929E+007   -5.54683E+006    1.65368E+007    1.84429E+005   -1.08368E+005    1.65644E+007    2.00963E+004    1.35451E+005   -3.78765E+005
            4666    1.67855E+007    1.67913E+007    1.67913E+007    2.47344E+005   -2.25727E+005    1.70171E+007   -5.60431E+006    1.67705E+007    2.48295E+005   -2.24855E+005    1.67895E+007    5.20203E+003    1.30523E+005   -1.16255E+005
            4667    1.67851E+007    1.67612E+007    1.67612E+007    1.83656E+005   -2.24051E+005    1.69853E+007   -5.57360E+006    1.67740E+007    1.84474E+005   -2.22697E+005    1.67590E+007   -8.50226E+003    1.31558E+005    1.38489E+005
            4668    1.64594E+007    1.65145E+007    1.65145E+007    2.27865E+005   -1.12489E+005    1.66270E+007   -5.54329E+006    1.64515E+007    2.25264E+005   -9.96278E+004    1.65042E+007   -3.14120E+004    1.20936E+005    3.94625E+005
            4669    1.26191E+007    1.35341E+007    1.35341E+007    1.73712E+006    2.28574E+005    1.33056E+007   -5.16661E+006    1.24138E+007    2.59850E+005    1.81865E+006    1.34213E+007    2.06176E+005    8.81422E+004   -1.14783E+006
            4670    1.39712E+007    1.43805E+007    1.43805E+007    1.16123E+006   -2.37478E+005    1.46180E+007   -5.10142E+006    1.38124E+007   -2.34509E+005    1.25885E+006    1.42799E+007    4.89688E+004    9.90124E+004   -1.14533E+006
            4671    1.49523E+007    1.53055E+007    1.53055E+007    7.79046E+005   -3.90261E+004    1.53445E+007   -5.34850E+006    1.49018E+007   -2.69211E+004    8.52643E+005    1.52198E+007    8.59889E+004    1.23306E+005   -1.10716E+006
            4672    1.59517E+007    1.60305E+007    1.60305E+007    4.09484E+005   -2.32512E+005    1.62630E+007   -5.40250E+006    1.59226E+007   -2.28161E+005    4.67873E+005    1.59678E+007    4.15586E+004    1.08843E+005   -9.82653E+005
            4673    1.67417E+007    1.66949E+007    1.66949E+007    1.07821E+005   -1.97281E+005    1.68922E+007   -5.53515E+006    1.67355E+007   -1.89770E+005    1.38251E+005    1.66570E+007    4.08656E+004    9.92194E+004   -7.86709E+005
            4674    1.73234E+007    1.71133E+007    1.71133E+007   -1.10043E+005   -3.08450E+005    1.74217E+007   -5.56493E+006    1.73208E+007   -3.05743E+005   -9.89029E+004    1.70994E+007    1.90281E+004    8.26335E+004   -4.81325E+005
            4675    1.75828E+007    1.73381E+007    1.73381E+007   -2.24199E+005   -2.65059E+005    1.76032E+007   -5.61628E+006    1.75827E+007   -2.62966E+005   -2.24781E+005    1.73366E+007    7.67108E+003    7.64966E+004   -1.43933E+005
            4676    1.75174E+007    1.72566E+007    1.72566E+007   -2.14926E+005   -3.06457E+005    1.75630E+007   -5.57839E+006    1.75169E+007   -3.05789E+005   -2.11835E+005    1.72528E+007   -4.35038E+003    7.77918E+004    2.44246E+005
            4677    1.70851E+007    1.69525E+007    1.69525E+007   -5.85686E+004   -2.05648E+005    1.71581E+007   -5.56276E+006    1.70837E+007   -1.99405E+005   -4.61652E+004    1.69338E+007   -2.58540E+004    8.63468E+004    5.56516E+005
            4678    1.30480E+007    1.40170E+007    1.40170E+007    1.71502E+006    3.33027E+005    1.36840E+007   -5.35502E+006    1.28818E+007    3.61459E+005    1.85416E+006    1.38495E+007    1.84801E+005    9.66674E+004   -1.42588E+006
            4679    1.42824E+007    1.49228E+007    1.49228E+007    1.32756E+006    4.03188E+004    1.48824E+007   -5.43021E+006    1.41510E+007    5.38006E+004    1.45555E+006    1.47813E+007    1.04575E+005    1.76488E+005   -1.37127E+006
            4680    1.51873E+007    1.58687E+007    1.58687E+007    1.03713E+006    3.49056E+005    1.55196E+007   -5.75162E+006    1.51521E+007    3.84069E+005    1.12280E+006    1.57480E+007    1.24770E+005    2.30342E+005   -1.31676E+006
            4681    1.61825E+007    1.67039E+007    1.67039E+007    7.34921E+005    3.16108E+005    1.63878E+007   -5.91832E+006    1.61703E+007    3.53957E+005    7.91048E+005    1.66100E+007    9.35838E+004    2.72507E+005   -1.19450E+006
            4682    1.69429E+007    1.74410E+007    1.74410E+007    5.99263E+005    3.98674E+005    1.70423E+007   -6.14631E+006    1.69402E+007    5.40905E+005    5.14063E+005    1.73840E+007    7.70459E+004    2.94750E+005   -9.38527E+005
            4683    1.75445E+007    1.79482E+007    1.79482E+007    5.52375E+005    2.58682E+005    1.76895E+007   -6.25308E+006    1.75390E+007    5.48982E+005    2.86933E+005    1.79233E+007    4.05423E+004    3.17228E+005   -5.81152E+005
            4684    1.77702E+007    1.81666E+007    1.81666E+007    6.22014E+005    1.79158E+005    1.79875E+007   -6.32260E+006    1.77578E+007    6.27754E+005    1.79947E+005    1.81601E+007    3.63186E+003    3.19292E+005   -1.13524E+005
            4685    1.76922E+007    1.80523E+007    1.80523E+007    5.47919E+005    1.78237E+005    1.78741E+007   -6.25950E+006    1.76835E+007    5.49664E+005    1.88729E+005    1.80401E+007   -3.12731E+004    3.12299E+005    3.45608E+005
            4686    1.71995E+007    1.76105E+007    1.76105E+007    5.54458E+005    2.71028E+005    1.73394E+007   -6.14532E+006    1.71942E+007    5.35067E+005    3.30355E+005    1.75705E+007   -6.62410E+004    2.91132E+005    7.78505E+005
            4687    1.37566E+007    1.45455E+007    1.45455E+007    1.72566E+006    1.25876E+004    1.45329E+007   -5.42792E+006    1.35135E+007    3.98497E+004    1.90301E+006    1.43409E+007    2.15606E+005    2.66423E+003   -1.60820E+006
            4688    1.50624E+007    1.53836E+007    1.53836E+007    1.39073E+006   -5.58499E+005    1.59421E+007   -5.40528E+006    1.47746E+007   -5.55353E+005    1.54762E+006    1.52236E+007    6.63552E+004    7.78396E+004   -1.48662E+006
            4689    1.60556E+007    1.63858E+007    1.63858E+007    1.15773E+006   -3.85913E+005    1.67717E+007   -5.71919E+006    1.58874E+007   -3.72684E+005    1.28781E+006    1.62425E+007    1.18236E+005    1.70229E+005   -1.46317E+006
            4690    1.72693E+007    1.73196E+007    1.73196E+007    8.52688E+005   -6.53508E+005    1.79731E+007   -5.83959E+006    1.71206E+007   -6.46958E+005    9.59336E+005    1.72064E+007    8.47005E+004    1.16196E+005   -1.35687E+006
            4691    1.83338E+007    1.82170E+007    1.82170E+007    5.39999E+005   -7.09633E+005    1.89267E+007   -6.01580E+006    1.82376E+007   -7.05559E+005    6.05083E+005    1.81479E+007    6.18528E+004    9.27012E+004   -1.10029E+006
            4692    1.91027E+007    1.88084E+007    1.88084E+007    3.50806E+005   -8.79761E+005    1.96882E+007   -6.09316E+006    1.90132E+007   -8.78774E+005    3.71716E+005    1.87865E+007    3.08992E+004    5.01245E+004   -6.33597E+005
            4693    1.93831E+007    1.90615E+007    1.90615E+007    2.64762E+005   -8.58987E+005    1.99205E+007   -6.15576E+006    1.93096E+007   -8.58718E+005    2.65138E+005    1.90609E+007    1.31983E+004    4.63101E+004   -1.00441E+005
            4694    1.91773E+007    1.88723E+007    1.88723E+007    2.88217E+005   -8.47641E+005    1.97199E+007   -6.10429E+006    1.91014E+007   -8.47416E+005    3.00114E+005    1.88602E+007   -8.34052E+003    5.32147E+004    4.71687E+005
            4695    1.84989E+007    1.83437E+007    1.83437E+007    4.22125E+005   -6.83003E+005    1.90267E+007   -6.02760E+006    1.84244E+007   -6.80548E+005    4.70196E+005    1.82932E+007   -4.39995E+004    8.27523E+004    9.47105E+005
            4696    1.38587E+007    1.48235E+007    1.48235E+007    1.85684E+006    2.18292E+005    1.46052E+007   -5.63286E+006    1.36383E+007    2.20347E+005    2.05033E+006    1.46279E+007   -7.89514E+003   -1.55683E+005   -1.57380E+006
            4697    1.44904E+007    1.57178E+007    1.57178E+007    2.06373E+006    5.15449E+005    1.52023E+007   -6.09899E+006    1.43025E+007    5.54153E+005    2.20665E+006    1.55362E+007    2.01401E+005    2.62828E+005   -1.55006E+006
            4698    1.54698E+007    1.68968E+007    1.68968E+007    1.99831E+006    9.12828E+005    1.59840E+007   -6.60264E+006    1.53838E+007    1.01116E+006    2.08330E+006    1.67135E+007    2.52418E+005    4.27435E+005   -1.60198E+006
            4699    1.67633E+007    1.82118E+007    1.82118E+007    1.82619E+006    1.09472E+006    1.71170E+007   -7.04423E+006    1.67273E+007    1.22098E+006    1.86857E+006    1.80431E+007    1.99511E+005    6.16871E+005   -1.55313E+006
            4700    1.79237E+007    1.95300E+007    1.95300E+007    1.83852E+006    1.38278E+006    1.81472E+007   -7.58377E+006    1.79107E+007    1.55838E+006    1.77852E+006    1.94144E+007    1.58878E+005    7.78554E+005   -1.21242E+006
            4701    1.87710E+007    2.04502E+007    2.04502E+007    1.79804E+006    1.56260E+006    1.88876E+007   -7.93695E+006    1.87677E+007    1.71928E+006    1.71129E+006    2.03803E+007    8.37781E+004    9.07048E+005   -7.02176E+005
            4702    1.90934E+007    2.08014E+007    2.08014E+007    1.76123E+006    1.65506E+006    1.91463E+007   -8.07255E+006    1.90928E+007    1.80859E+006    1.65520E+006    2.07539E+007   -3.98449E+003    9.48643E+005   -4.78533E+004
            4703    1.88563E+007    2.05151E+007    2.05151E+007    1.79029E+006    1.52995E+006    1.89851E+007   -7.94510E+006    1.88522E+007    1.72815E+006    1.65583E+006    2.04513E+007   -9.85787E+004    9.13001E+005    6.09414E+005
            4704    1.80262E+007    1.95875E+007    1.95875E+007    1.77843E+006    1.35171E+006    1.82358E+007   -7.57255E+006    1.80149E+007    1.55925E+006    1.68081E+006    1.94776E+007   -1.57735E+005    8.08655E+005    1.15547E+006
            4705    2.06723E+007    1.89905E+007    1.89905E+007    1.57420E+006   -3.85449E+006    2.28449E+007   -5.57005E+006    1.89666E+007   -3.73955E+006    1.64099E+006    1.88087E+007    6.94981E+004   -1.58560E+006    1.11563E+006
            4706    2.19882E+007    2.01090E+007    2.01090E+007    1.66347E+006   -4.22343E+006    2.43324E+007   -5.84967E+006    2.00973E+007   -4.10135E+006    1.68313E+006    1.99672E+007    2.97426E+004   -1.71200E+006    6.19483E+005
            4707    2.25571E+007    2.06097E+007    2.06097E+007    1.69509E+006   -4.35574E+006    2.49654E+007   -5.98302E+006    2.06094E+007   -4.22676E+006    1.69510E+006    2.04807E+007    3.61774E+003   -1.78979E+006   -1.50428E+004
            4708    2.20463E+007    2.01112E+007    2.01112E+007    1.65885E+006   -4.30280E+006    2.44140E+007   -5.82243E+006    2.01095E+007   -4.17579E+006    1.68059E+006    1.99625E+007   -2.32390E+004   -1.74988E+006   -6.48080E+005
            4709    2.07729E+007    1.89879E+007    1.89879E+007    1.57423E+006   -4.00486E+006    2.29927E+007   -5.51909E+006    1.89745E+007   -3.88151E+006    1.64273E+006    1.87960E+007   -7.35086E+004   -1.64748E+006   -1.13180E+006
            4710    1.91283E+007    1.74917E+007    1.74917E+007    1.45405E+006   -3.67957E+006    2.11713E+007   -5.08874E+006    1.74749E+007   -3.56268E+006    1.57039E+006    1.72585E+007   -1.27728E+005   -1.49421E+006   -1.43204E+006
            4711    1.74799E+007    1.59115E+007    1.59115E+007    1.34805E+006   -3.47289E+006    1.93844E+007   -4.59557E+006    1.58778E+007   -3.35344E+006    1.47577E+006    1.56644E+007   -2.55580E+005   -1.33035E+006   -1.51479E+006
            4712    1.66402E+007    1.50483E+007    1.50483E+007    1.42878E+006   -3.49931E+006    1.85476E+007   -4.32594E+006    1.48604E+007   -3.36540E+006    1.54002E+006    1.48032E+007   -3.44176E+005   -1.30523E+006   -1.45990E+006
            4713    1.61401E+007    1.43943E+007    1.43943E+007    1.64779E+006   -3.75386E+006    1.81482E+007   -4.09609E+006    1.38764E+007   -3.57262E+006    1.85417E+006    1.40067E+007   -2.11190E+005   -1.66252E+006   -1.73158E+006
            4714    1.14675E+007    1.19248E+007    1.19248E+007    1.82975E+006   -5.43698E+005    1.24685E+007   -4.40363E+006    1.08942E+007   -5.32926E+005    1.82017E+006    1.19237E+007   -1.58498E+005   -3.53666E+004   -1.05440E+005
            4715    1.14807E+007    1.19179E+007    1.19179E+007    1.94636E+006   -6.33114E+005    1.25510E+007   -4.41038E+006    1.07995E+007   -6.18395E+005    1.94500E+006    1.19045E+007   -1.86506E+005   -9.80694E+004   -3.55769E+005
            4716    1.15860E+007    1.19476E+007    1.19476E+007    2.04467E+006   -7.93849E+005    1.27415E+007   -4.39949E+006    1.07612E+007   -7.73730E+005    2.07344E+006    1.18988E+007   -2.17072E+005   -1.63216E+005   -6.82426E+005
            4717    1.18667E+007    1.20784E+007    1.20784E+007    1.98940E+006   -9.95827E+005    1.30743E+007   -4.35733E+006    1.09731E+007   -9.64106E+005    2.07412E+006    1.19620E+007   -2.61907E+005   -2.53074E+005   -1.06113E+006
            4718    1.24390E+007    1.23959E+007    1.23959E+007    1.88331E+006   -1.33644E+006    1.37324E+007   -4.31426E+006    1.14438E+007   -1.29226E+006    2.04260E+006    1.21925E+007   -2.69652E+005   -4.28936E+005   -1.41072E+006
            4719    1.32122E+007    1.27890E+007    1.27890E+007    1.76714E+006   -1.85716E+006    1.46462E+007   -4.23299E+006    1.20153E+007   -1.77432E+006    1.96957E+006    1.25037E+007   -3.33311E+005   -7.11944E+005   -1.66188E+006
            4720    1.44931E+007    1.32650E+007    1.32650E+007    1.75685E+006   -3.01149E+006    1.62765E+007   -4.00346E+006    1.25369E+007   -2.85916E+006    2.01640E+006    1.28531E+007   -3.12389E+005   -1.30263E+006   -1.88197E+006


  Minimum           9.48667E+006    8.85994E+006    8.85994E+006   -2.37760E+006   -8.41240E+006    1.03336E+007   -8.09128E+006    8.98239E+006   -7.71471E+006   -2.25394E+006    8.80642E+006   -6.24240E+005   -3.80463E+006   -2.48729E+006
      At Element            3534            3535            3535            3895            4290            3770            4547            3416            4290            4367            3536              32             278            4273

  Maximum           2.25913E+007    2.08268E+007    2.08268E+007    2.25588E+006    1.68500E+006    2.50214E+007   -4.84477E+005    2.06094E+007    1.80859E+006    2.34375E+006    2.07801E+007    6.24240E+005    3.80463E+006    2.47341E+006
      At Element            4526            4547            4547            4628            4547            4526            4367            4707            4702            4628            4547            4516            4290            4392

           Total    6.52631E+010    5.86973E+010    5.86973E+010   -2.72722E+009   -9.58166E+009    6.82789E+010   -1.54628E+010    6.39889E+010   -8.33430E+009   -3.27950E+009    5.80022E+010    0.00000E+000    0.00000E+000   -8.67488E+006


