********************************************************************************
Field Output Report, written Sun Apr 16 07:17:23 2023

Source 1
---------

   ODB: C:/Temp/ZZ_displacement.odb
   Step: Loading_step
   Frame: Increment      1: Step Time =    1.000

Loc 1 : Centroidal values from source 1

Output sorted by column "Element Label".

Field Output reported at element centroid for region: PART-1-1.Region_2

         Element         S.Mises     S.Max. Prin  S.Max. Prin(a)     S.Mid. Prin     S.Min. Prin        S.Tresca      S.Pressure     S.Third Inv           S.S11           S.S22           S.S33           S.S12           S.S13           S.S23
           Label          @Loc 1          @Loc 1          @Loc 1          @Loc 1          @Loc 1          @Loc 1          @Loc 1          @Loc 1          @Loc 1          @Loc 1          @Loc 1          @Loc 1          @Loc 1          @Loc 1
-------------------------------------------------------------------------------------------------------------------------------------------------------------------------------------------------------------------------------------------------
            4721    7.04551E+006    6.58291E+006    6.58291E+006    5.10624E+005   -1.14203E+006    7.72494E+006   -1.98383E+006    6.58789E+006    4.07351E+005   -9.64544E+005    6.50869E+006   -5.17451E+005    5.59404E+005   -3.73449E+005
            4722    6.19483E+006    5.68973E+006    5.68973E+006    4.82430E+005   -1.16116E+006    6.85088E+006   -1.67033E+006    5.67235E+006    3.76224E+005   -8.36812E+005    5.47159E+006   -5.40635E+005    3.83036E+005   -1.07143E+006
            4723    5.44871E+006    5.13447E+006    5.13447E+006    5.22804E+005   -8.77813E+005    6.01229E+006   -1.59315E+006    5.01916E+006    4.13388E+005   -2.94431E+005    4.66051E+006   -5.52601E+005    3.29872E+005   -1.51665E+006
            4724    4.68768E+006    4.56340E+006    4.56340E+006    5.59772E+005   -5.93178E+005    5.15658E+006   -1.51000E+006    4.35118E+006    4.23496E+005    2.99571E+005    3.80693E+006   -5.59373E+005    2.46848E+005   -1.72922E+006
            4725    3.92418E+006    3.85929E+006    3.85929E+006    9.23512E+004   -2.05185E+005    4.06448E+006   -1.24882E+006    3.89868E+006    4.29220E+004    1.73850E+004    3.68615E+006   -1.37252E+005    9.75998E+004   -8.05662E+005
            4726    4.23566E+006    4.26655E+006    4.26655E+006    7.11086E+004   -8.20396E+003    4.27476E+006   -1.44315E+006    4.23398E+006    5.58933E+004    2.33528E+004    4.25021E+006   -3.83058E+004    9.38321E+004   -2.45038E+005
            4727    4.31466E+006    4.12428E+006    4.12428E+006    2.79974E+004   -3.79803E+005    4.50408E+006   -1.25749E+006    4.27098E+006    7.44696E+003   -2.95741E+005    4.06076E+006   -1.07727E+005    1.00659E+005   -5.16668E+005
            4728    4.40734E+006    4.37601E+006    4.37601E+006    6.12131E+004   -1.18389E+005    4.49440E+006   -1.43961E+006    4.39910E+006    4.84821E+004   -1.02990E+005    4.37334E+006   -5.01918E+004    8.71891E+004   -6.28649E+004
            4729    4.72927E+006    4.42731E+006    4.42731E+006    2.30691E+004   -5.70882E+005    4.99819E+006   -1.29317E+006    4.64425E+006    1.29508E+004   -5.55529E+005    4.42208E+006   -9.05198E+004    1.42645E+005    5.87351E+004
            4730    4.10052E+006    4.04619E+006    4.04619E+006    2.54087E+004   -1.29668E+005    4.17586E+006   -1.31398E+006    4.09392E+006    2.50591E+004   -1.17517E+005    4.03439E+006   -1.20016E+004    7.09208E+004    2.09803E+005
            4731    4.78384E+006    4.51708E+006    4.51708E+006   -2.67861E+004   -4.75158E+005    4.99224E+006   -1.33838E+006    4.73622E+006   -2.51040E+004   -3.86329E+005    4.42657E+006    5.92011E+004    1.46904E+005    6.46508E+005
            4732    3.47053E+006    3.44751E+006    3.44751E+006    1.23391E+004   -5.73370E+004    3.50485E+006   -1.13417E+006    3.46896E+006    1.28189E+004   -2.61561E+004    3.41585E+006    3.92836E+003    4.04088E+004    3.29085E+005
            4733    2.86158E+006    2.82472E+006    2.82472E+006   -2.72915E+003   -6.98180E+004    2.89454E+006   -9.17390E+005    2.85981E+006   -2.12781E+004   -1.64119E+004    2.78986E+006    3.31581E+004    2.55776E+004    3.13338E+005
            4734    2.33225E+006    2.33560E+006    2.33560E+006    8.29639E+004   -6.88423E+004    2.40444E+006   -7.83240E+005    2.32109E+006   -3.86041E+004    6.19900E+004    2.32633E+006    6.11178E+004    6.23175E+003    1.44794E+005
            4735    4.32760E+006    4.21755E+006    4.21755E+006    2.75540E+004   -2.35638E+005    4.45319E+006   -1.33649E+006    4.30954E+006   -8.78313E+003   -8.33948E+004    4.10164E+006    1.09762E+005    9.18030E+004    6.97332E+005
            4736    3.69046E+006    3.77259E+006    3.77259E+006    2.55899E+005   -7.00048E+004    3.84260E+006   -1.31950E+006    3.65787E+006    9.99958E+003    1.98844E+005    3.74965E+006    1.43765E+005    4.52612E+004    2.81017E+005
            4737    4.72796E+006    4.90724E+006    4.90724E+006    3.97865E+005   -1.25548E+004    4.91979E+006   -1.76418E+006    4.68763E+006    8.89365E+004    3.21711E+005    4.88190E+006    1.83900E+005    1.32409E+005    3.10139E+005
            4738    6.00452E+006    6.22206E+006    6.22206E+006    4.65171E+005   -2.70661E+003    6.22477E+006   -2.22818E+006    5.96330E+006    1.13554E+005    3.59257E+005    6.21172E+006    2.05091E+005    1.33757E+005    2.03914E+005
            4739    7.69941E+006    7.97046E+006    7.97046E+006    5.00332E+005    6.06149E+004    7.90985E+006   -2.84380E+006    7.67109E+006    1.92910E+005    3.83222E+005    7.95528E+006    2.06561E+005    1.93295E+005    2.75421E+005
            4740    9.38212E+006    9.75979E+006    9.75979E+006    6.05673E+005    1.65187E+005    9.59460E+006   -3.51022E+006    9.35881E+006    2.76611E+005    5.03959E+005    9.75008E+006    1.93194E+005    2.22465E+005    1.99316E+005
            4741    5.64852E+006    5.45289E+006    5.45289E+006   -6.38009E+004   -3.18818E+005    5.77171E+006   -1.69009E+006    5.63555E+006   -1.22001E+005   -1.93318E+005    5.38559E+006    1.18174E+005    8.70582E+004    6.08197E+005
            4742    7.37806E+006    7.26739E+006    7.26739E+006   -9.04002E+003   -2.08257E+005    7.47565E+006   -2.35003E+006    7.37200E+006   -4.14867E+004   -9.68923E+004    7.18847E+006    1.05741E+005    2.49771E+005    7.16252E+005
            4743    8.73223E+006    8.80157E+006    8.80157E+006    2.26661E+005   -7.99007E+004    8.88147E+006   -2.98278E+006    8.72011E+006   -4.07236E+004    2.68945E+005    8.72011E+006    1.14817E+005    3.48378E+005    7.55648E+005
            4744    1.03429E+007    1.06410E+007    1.06410E+007    5.96680E+005    2.32364E+004    1.06177E+007   -3.75362E+006    1.03071E+007    5.29950E+004    6.41481E+005    1.05664E+007    8.89199E+004    5.07856E+005    7.04214E+005
            4745    1.24059E+007    1.40942E+007    1.40942E+007    2.73923E+006    8.53392E+005    1.32409E+007   -5.89562E+006    1.20771E+007    2.23936E+006    1.97779E+006    1.34697E+007   -6.67530E+005    2.37282E+006    1.47784E+006
            4746    1.11846E+007    1.19401E+007    1.19401E+007    1.78469E+006   -4.74477E+004    1.19875E+007   -4.55911E+006    1.08392E+007    1.56780E+006    5.51748E+005    1.15578E+007   -6.50542E+005    1.74927E+006    1.10501E+006
            4747    9.80444E+006    9.95507E+006    9.95507E+006    1.14661E+006   -6.08323E+005    1.05634E+007   -3.49778E+006    9.44133E+006    1.07826E+006   -3.12387E+005    9.72748E+006   -5.12377E+005    1.26850E+006    7.61828E+005
            4748    8.27980E+006    8.11777E+006    8.11777E+006    7.51021E+005   -8.43227E+005    8.96100E+006   -2.67519E+006    7.92336E+006    7.08098E+005   -6.92137E+005    8.00960E+006   -4.38059E+005    8.80244E+005    2.29779E+005
            4749    3.84020E+006    3.87160E+006    3.87160E+006    7.25412E+004   -8.45729E+003    3.88006E+006   -1.31190E+006    3.83828E+006    4.39413E+004    3.93909E+004    3.85236E+006   -4.56432E+004    9.30965E+004   -2.53992E+005
            4750    3.44785E+006    3.47995E+006    3.47995E+006    1.54636E+005   -7.85871E+004    3.55854E+006   -1.18533E+006    3.43003E+006    5.25214E+004    2.35347E+005    3.26813E+006   -1.39340E+005    7.69806E+004   -8.21776E+005
            4751    3.81649E+006    3.89070E+006    3.89070E+006    5.99304E+005   -2.92842E+005    4.18354E+006   -1.39905E+006    3.57039E+006    4.16514E+005    7.93278E+005    2.98737E+006   -5.40855E+005    1.79779E+005   -1.61332E+006
            4752    3.39682E+006    3.44799E+006    3.44799E+006    9.07464E+004    1.29362E+004    3.43506E+006   -1.18389E+006    3.39481E+006    4.02530E+004    7.53644E+004    3.43606E+006   -4.03439E+004    6.31251E+004   -1.89786E+005
            4753    2.83848E+006    2.97108E+006    2.97108E+006    2.98814E+005   -8.59192E+003    2.97967E+006   -1.08710E+006    2.80066E+006    6.51324E+004    3.48132E+005    2.84803E+006   -1.45017E+005    5.77109E+004   -5.61784E+005
            4754    2.74688E+006    3.02210E+006    3.02210E+006    7.12681E+005   -1.55071E+004    3.03761E+006   -1.23976E+006    2.51562E+006    3.79325E+005    1.08422E+006    2.25573E+006   -4.91383E+005    9.74488E+004   -1.16868E+006
            4755    3.12125E+006    3.17379E+006    3.17379E+006    9.80980E+004    8.88372E+003    3.16490E+006   -1.09359E+006    3.11838E+006    3.49101E+004    7.35718E+004    3.17229E+006   -4.09629E+004    2.38567E+004   -6.36253E+004
            4756    2.43376E+006    2.62614E+006    2.62614E+006    4.24908E+005    1.25420E+004    2.61360E+006   -1.02120E+006    2.35323E+006    6.94348E+004    3.86806E+005    2.60735E+006   -1.44108E+005    1.90516E+004   -2.02909E+005
            4757    1.64386E+006    2.02630E+006    2.02630E+006    1.13676E+006    1.29350E+005    1.89695E+006   -1.09747E+006   -7.81315E+005    3.29125E+005    1.18955E+006    1.77374E+006   -4.44734E+005    3.49269E+004   -4.16735E+005
            4758    9.83186E+006    1.02307E+007    1.02307E+007    6.18068E+005    1.93441E+005    1.00373E+007   -3.68075E+006    9.81120E+006    2.99728E+005    5.23202E+005    1.02193E+007   -1.85937E+005    2.45419E+005   -2.23370E+005
            4759    1.06650E+007    1.10600E+007    1.10600E+007    7.55851E+005    6.75210E+004    1.09925E+007   -3.96113E+006    1.06149E+007    1.00398E+005    8.03569E+005    1.09794E+007   -7.77791E+004    5.77391E+005   -7.13263E+005
            4760    1.26099E+007    1.44124E+007    1.44124E+007    2.89246E+006    9.40202E+005    1.34722E+007   -6.08169E+006    1.22630E+007    2.32482E+006    2.15387E+006    1.37664E+007    6.92391E+005    2.45404E+006   -1.48448E+006
            4761    1.14650E+007    1.19787E+007    1.19787E+007    7.04427E+005    3.31953E+005    1.16467E+007   -4.33835E+006    1.14514E+007    3.97812E+005    6.47369E+005    1.19699E+007   -1.39600E+005    2.81535E+005   -1.45528E+005
            4762    1.21071E+007    1.28009E+007    1.28009E+007    1.26271E+006    1.95485E+005    1.26054E+007   -4.75303E+006    1.20006E+007    2.40216E+005    1.29028E+006    1.27286E+007   -5.52364E+004    7.45078E+005   -5.65457E+005
            4763    1.33718E+007    1.62632E+007    1.62632E+007    4.19421E+006    1.88856E+006    1.43747E+007   -7.44866E+006    1.29131E+007    3.03708E+006    3.91170E+006    1.53972E+007    5.71919E+005    3.08799E+006   -1.47063E+006
            4764    1.26728E+007    1.32761E+007    1.32761E+007    7.56465E+005    4.55574E+005    1.28205E+007   -4.82938E+006    1.26647E+007    4.78946E+005    7.41405E+005    1.32678E+007   -6.86843E+004    3.15553E+005   -7.98763E+004
            4765    1.30978E+007    1.40224E+007    1.40224E+007    1.68476E+006    2.78030E+005    1.37444E+007   -5.32839E+006    1.29262E+007    3.32578E+005    1.69187E+006    1.39607E+007   -3.30627E+004    8.62774E+005   -2.97603E+005
            4766    1.37241E+007    1.75216E+007    1.75216E+007    5.44531E+006    2.59679E+006    1.49248E+007   -8.52123E+006    1.30338E+007    3.62881E+006    5.38926E+006    1.65456E+007    3.29091E+005    3.57671E+006   -9.02371E+005
            4767    1.30493E+007    1.36800E+007    1.36800E+007    7.69829E+005    4.95927E+005    1.31841E+007   -4.98192E+006    1.30428E+007    5.04190E+005    7.69542E+005    1.36720E+007    9.64551E+003    3.23696E+005    1.73348E+004
            4768    1.34197E+007    1.44235E+007    1.44235E+007    1.81357E+006    3.19098E+005    1.41044E+007   -5.51871E+006    1.32305E+007    3.77353E+005    1.81366E+006    1.43651E+007   -4.10237E+003    9.04347E+005    3.96716E+004
            4769    1.38086E+007    1.79349E+007    1.79349E+007    5.94800E+006    2.83590E+006    1.50990E+007   -8.90628E+006    1.29839E+007    3.83380E+006    5.94786E+006    1.69372E+007   -1.82433E+004    3.75059E+006    5.21894E+004
            4770    1.24625E+007    1.30443E+007    1.30443E+007    7.39877E+005    4.29531E+005    1.26148E+007   -4.73792E+006    1.24538E+007    4.62231E+005    7.15329E+005    1.30362E+007    8.70063E+004    3.06712E+005    8.91783E+004
            4771    1.29493E+007    1.38119E+007    1.38119E+007    1.57596E+006    2.51190E+005    1.35608E+007   -5.21303E+006    1.27955E+007    3.01785E+005    1.58689E+006    1.37504E+007    2.27655E+004    8.26434E+005    3.64884E+005
            4772    1.36725E+007    1.73941E+007    1.73941E+007    5.32951E+006    2.54302E+006    1.48511E+007   -8.42221E+006    1.30104E+007    3.57641E+006    5.26455E+006    1.64257E+007   -3.48294E+005    3.53232E+006    9.79604E+005
            4773    1.11065E+007    1.15898E+007    1.15898E+007    6.73953E+005    3.02052E+005    1.12878E+007   -4.18861E+006    1.10925E+007    3.77325E+005    6.08008E+005    1.15805E+007    1.48367E+005    2.73775E+005    1.66756E+005
            4774    1.18060E+007    1.23931E+007    1.23931E+007    1.11085E+006    1.25082E+005    1.22680E+007   -4.54300E+006    1.17129E+007    1.62489E+005    1.13976E+006    1.23268E+007    6.33447E+004    6.66287E+005    5.77723E+005
            4775    1.32610E+007    1.60353E+007    1.60353E+007    4.03534E+006    1.79799E+006    1.42373E+007   -7.28954E+006    1.28260E+007    2.96010E+006    3.71479E+006    1.51937E+007   -5.88472E+005    3.01474E+006    1.47753E+006
            4776    3.81658E+006    3.89050E+006    3.89050E+006    5.98475E+005   -2.92876E+005    4.18338E+006   -1.39870E+006    3.57095E+006    4.16626E+005    7.94377E+005    2.98510E+006   -5.40832E+005   -1.80580E+005    1.61467E+006
            4777    3.44482E+006    3.47595E+006    3.47595E+006    1.52313E+005   -7.84500E+004    3.55440E+006   -1.18327E+006    3.42737E+006    5.09304E+004    2.32511E+005    3.26637E+006   -1.37980E+005   -7.70120E+004    8.17254E+005
            4778    3.83300E+006    3.86358E+006    3.86358E+006    7.16296E+004   -9.19029E+003    3.87277E+006   -1.30867E+006    3.83109E+006    4.32597E+004    3.82592E+004    3.84450E+006   -4.54713E+004   -9.28144E+004    2.52570E+005
            4779    2.74448E+006    3.01932E+006    3.01932E+006    7.12678E+005   -1.59407E+004    3.03526E+006   -1.23869E+006    2.51269E+006    3.79198E+005    1.08391E+006    2.25296E+006   -4.91727E+005   -9.74000E+004    1.16779E+006
            4780    2.84210E+006    2.97359E+006    2.97359E+006    2.96925E+005   -9.16579E+003    2.98276E+006   -1.08712E+006    2.80466E+006    6.45553E+004    3.45149E+005    2.85165E+006   -1.44409E+005   -5.68552E+004    5.59973E+005
            4781    3.39234E+006    3.44378E+006    3.44378E+006    9.08328E+004    1.33782E+004    3.43040E+006   -1.18266E+006    3.39035E+006    4.05653E+004    7.55127E+004    3.43191E+006   -4.01535E+004   -6.28857E+004    1.89132E+005
            4782    1.64070E+006    2.02250E+006    2.02250E+006    1.13854E+006    1.29361E+005    1.89314E+006   -1.09680E+006   -7.96163E+005    3.28603E+005    1.19063E+006    1.77118E+006   -4.44513E+005   -3.45251E+004    4.14319E+005
            4783    2.43904E+006    2.63043E+006    2.63043E+006    4.22617E+005    1.22295E+004    2.61820E+006   -1.02176E+006    2.35949E+006    6.92037E+004    3.85264E+005    2.61081E+006   -1.43786E+005   -1.80274E+004    2.07824E+005
            4784    3.12086E+006    3.17288E+006    3.17288E+006    9.73527E+004    8.59642E+003    3.16429E+006   -1.09294E+006    3.11801E+006    3.45027E+004    7.29583E+004    3.17137E+006   -4.07663E+004   -2.41482E+004    6.37959E+004
            4785    2.99902E+006    2.97172E+006    2.97172E+006   -1.00658E+003   -5.29165E+004    3.02464E+006   -9.72599E+005    2.99801E+006   -1.15568E+004   -1.68244E+004    2.94618E+006   -2.27838E+004    1.84632E+004   -2.75516E+005
            4786    3.57636E+006    3.54432E+006    3.54432E+006    2.47550E+003   -6.55897E+004    3.60990E+006   -1.16040E+006    3.57490E+006    2.66153E+003   -4.89393E+004    3.52748E+006   -5.64762E+003    3.46773E+004   -2.43414E+005
            4787    4.06931E+006    4.05480E+006    4.05480E+006    2.65975E+004   -5.44117E+004    4.10921E+006   -1.34233E+006    4.06750E+006    2.58081E+004   -4.88104E+004    4.04999E+006    9.30713E+003    5.50023E+004   -1.29218E+005
            4788    4.34629E+006    4.34572E+006    4.34572E+006    4.30882E+004   -4.29466E+004    4.38867E+006   -1.44862E+006    4.34437E+006    4.05070E+004   -3.88451E+004    4.34420E+006    1.84937E+004    7.96504E+004    1.39666E+004
            4789    4.28488E+006    4.29926E+006    4.29926E+006    4.94304E+004   -1.98317E+004    4.31909E+006   -1.44295E+006    4.28362E+006    4.46401E+004   -9.07728E+003    4.29329E+006    2.35927E+004    9.43525E+004    1.28629E+005
            4790    3.91830E+006    3.81578E+006    3.81578E+006   -3.38925E+003   -1.94635E+005    4.01042E+006   -1.20592E+006    3.90777E+006   -1.72490E+004   -7.34571E+004    3.70846E+006   -6.58436E+004    7.59759E+004   -6.40107E+005
            4791    4.09470E+006    3.97611E+006    3.97611E+006    1.20445E+004   -2.37778E+005    4.21389E+006   -1.25013E+006    4.07750E+006    1.42961E+004   -1.70203E+005    3.90629E+006   -8.71817E+003    9.50697E+004   -5.28999E+005
            4792    4.20981E+006    4.10358E+006    4.10358E+006    3.71627E+004   -2.36290E+005    4.33987E+006   -1.30149E+006    4.18976E+006    3.18685E+004   -2.16565E+005    4.08915E+006    4.07503E+004    1.08904E+005   -2.24148E+005
            4793    4.18839E+006    4.12002E+006    4.12002E+006    6.87870E+004   -1.93219E+005    4.31324E+006   -1.33186E+006    4.16989E+006    4.87290E+004   -1.63744E+005    4.11061E+006    7.78393E+004    1.01177E+005    1.70001E+005
            4794    3.98567E+006    3.97729E+006    3.97729E+006    9.61006E+004   -1.05229E+005    4.08252E+006   -1.32272E+006    3.97421E+006    6.50395E+004   -2.71830E+004    3.93031E+006    8.53562E+004    9.28090E+004    4.21356E+005
            4795    4.83296E+006    4.71883E+006    4.71883E+006    1.01993E+005   -3.04574E+005    5.02340E+006   -1.50541E+006    4.79426E+006    1.09394E+005   -2.00166E+005    4.60702E+006   -2.62712E+004    1.82836E+005   -7.16105E+005
            4796    4.96588E+006    4.71792E+006    4.71792E+006    8.14936E+004   -5.22217E+005    5.24014E+006   -1.42573E+006    4.88229E+006    8.10157E+004   -4.64321E+005    4.66050E+006    5.39341E+004    2.06047E+005   -5.02470E+005
            4797    4.76686E+006    4.50789E+006    4.50789E+006    1.12425E+005   -5.59132E+005    5.06702E+006   -1.35373E+006    4.65865E+006    8.76971E+004   -5.27568E+005    4.50106E+006    1.42620E+005    1.72871E+005    1.38641E+004
            4798    4.38087E+006    4.21691E+006    4.21691E+006    1.37754E+005   -4.13501E+005    4.63041E+006   -1.31372E+006    4.30180E+006    9.58652E+004   -3.10807E+005    4.15610E+006    1.71981E+005    1.40874E+005    4.97212E+005
            4799    3.96875E+006    3.91047E+006    3.91047E+006    1.77320E+005   -2.57980E+005    4.16845E+006   -1.27660E+006    3.91450E+006    1.08849E+005   -2.81425E+004    3.74910E+006    1.90705E+005    1.17491E+005    7.81348E+005
            4800    6.54251E+006    6.19959E+006    6.19959E+006   -1.13699E+004   -6.30454E+005    6.83005E+006   -1.85259E+006    6.47612E+006    8.69091E+002   -5.74595E+005    6.13149E+006    2.58999E+004    3.28231E+005   -5.87520E+005
            4801    6.29263E+006    5.77102E+006    5.77102E+006    9.30354E+004   -9.94490E+005    6.76551E+006   -1.62319E+006    6.07578E+006    6.23218E+004   -9.46206E+005    5.75345E+006    2.21604E+005    3.15365E+005   -4.37728E+004
            4802    5.63441E+006    5.13805E+006    5.13805E+006    8.50464E+004   -9.37668E+005    6.07572E+006   -1.42848E+006    5.41965E+006    4.58145E+004   -8.31403E+005    5.07102E+006    2.51477E+005    2.44170E+005    5.62031E+005
            4803    4.95805E+006    4.61823E+006    4.61823E+006    1.50754E+005   -7.16069E+005    5.33430E+006   -1.35097E+006    4.78310E+006    8.59507E+004   -4.24650E+005    4.39162E+006    2.99135E+005    2.07236E+005    1.03070E+006
            4804    4.28027E+006    4.09901E+006    4.09901E+006    1.90929E+005   -4.75307E+005    4.57432E+006   -1.27155E+006    4.16121E+006    9.49928E+004    5.03451E+004    3.66930E+006    3.11654E+005    1.57532E+005    1.29327E+006
            4805    5.16674E+006    4.99427E+006    4.99427E+006    7.40811E+005   -7.55477E+005    5.74974E+006   -1.65987E+006    4.64042E+006    6.28157E+005    2.62270E+005    4.08917E+006    6.87692E+005    3.38726E+005    1.96243E+006
            4806    6.16903E+006    5.77057E+006    5.77057E+006    7.50701E+005   -1.11630E+006    6.88688E+006   -1.80166E+006    5.47718E+006    6.47915E+005   -4.15232E+005    5.17229E+006    7.07270E+005    4.45174E+005    1.78432E+006
            4807    7.20056E+006    6.66578E+006    6.66578E+006    7.91011E+005   -1.36704E+006    8.03281E+006   -2.02992E+006    6.41009E+006    6.97262E+005   -9.45410E+005    6.33790E+006    7.15394E+005    5.95198E+005    1.35019E+006
            4808    8.13795E+006    7.57971E+006    7.57971E+006    8.50896E+005   -1.46524E+006    9.04495E+006   -2.32179E+006    7.33965E+006    7.32180E+005   -1.19341E+006    7.42658E+006    7.28901E+005    7.16689E+005    7.47846E+005
            4809    9.14813E+006    8.84561E+006    8.84561E+006    9.89240E+005   -1.19782E+006    1.00434E+007   -2.87901E+006    8.52965E+006    8.66817E+005   -9.52790E+005    8.72301E+006    6.96268E+005    9.84325E+005    2.10546E+004
            4810    1.02098E+007    1.03786E+007    1.03786E+007    1.26593E+006   -6.55261E+005    1.10339E+007   -3.66310E+006    9.79063E+006    1.15312E+006   -3.18412E+005    1.01546E+007    6.20404E+005    1.34271E+006   -6.42464E+005
            4811    1.14720E+007    1.23364E+007    1.23364E+007    1.90140E+006    5.21067E+004    1.22843E+007   -4.76330E+006    1.11292E+007    1.66978E+006    7.06499E+005    1.19136E+007    6.54898E+005    1.85139E+006   -1.19791E+006
            4812    9.19713E+006    9.33179E+006    9.33179E+006    2.57788E+005    1.62903E+004    9.31550E+006   -3.20196E+006    9.18999E+006    4.55244E+004    3.12751E+005    9.24760E+006   -7.95796E+004    4.41800E+005   -7.51039E+005
            4813    8.04164E+006    8.34939E+006    8.34939E+006    5.54899E+005    8.15178E+004    8.26788E+006   -2.99527E+006    8.01020E+006    2.03896E+005    4.43576E+005    8.33834E+006   -2.10034E+005    1.93887E+005   -2.20564E+005
            4814    7.58772E+006    7.51069E+006    7.51069E+006   -1.27230E+004   -1.39740E+005    7.65043E+006   -2.45274E+006    7.58533E+006   -4.43766E+004   -3.69742E+004    7.43958E+006   -8.55153E+004    2.82591E+005   -6.72739E+005
            4815    6.43455E+006    6.68079E+006    6.68079E+006    4.95998E+005    2.26248E+004    6.65816E+006   -2.39980E+006    6.39519E+006    1.35250E+005    4.00277E+005    6.66388E+006   -2.06198E+005    1.67230E+005   -2.76252E+005
            4816    5.24997E+006    5.42731E+006    5.42731E+006    4.24050E+005   -3.87430E+004    5.46605E+006   -1.93754E+006    5.20378E+006    6.44841E+004    3.39881E+005    5.40825E+006   -1.96937E+005    8.93998E+004   -2.95460E+005
            4817    4.19958E+006    4.31183E+006    4.31183E+006    3.34022E+005   -7.89973E+004    4.39083E+006   -1.52229E+006    4.15352E+006    1.64429E+004    2.54141E+005    4.29627E+006   -1.76343E+005    3.69905E+004   -2.46942E+005
            4818    3.28279E+006    3.33453E+006    3.33453E+006    2.00451E+005   -7.90987E+004    3.41362E+006   -1.15196E+006    3.25585E+006   -1.03209E+004    1.44453E+005    3.32175E+006   -1.21945E+005    2.35617E+004   -1.99595E+005
            4819    2.18918E+006    2.18377E+006    2.18377E+006    5.45746E+004   -6.08402E+004    2.24461E+006   -7.25834E+005    2.18232E+006   -4.04577E+004    3.73219E+004    2.18064E+006   -4.40370E+004   -1.42648E+002   -8.19476E+004
            4820    6.00375E+006    5.95684E+006    5.95684E+006    7.95603E+004   -1.65863E+005    6.12270E+006   -1.95684E+006    5.99245E+006    5.44511E+004   -5.44219E+004    5.87050E+006   -1.11759E+005    2.26732E+005   -6.78675E+005
            4821    4.54918E+006    4.54084E+006    4.54084E+006    9.62362E+004   -1.06176E+005    4.64701E+006   -1.51030E+006    4.53904E+006    3.36618E+004    4.22019E+004    4.45503E+006   -1.12950E+005    1.25075E+005   -6.05267E+005
            4822    3.59506E+006    3.57251E+006    3.57251E+006    6.99105E+004   -1.08373E+005    3.68088E+006   -1.17801E+006    3.58509E+006   -7.04260E+003    4.75588E+004    3.49353E+006   -9.72085E+004    5.22274E+004   -5.23468E+005
            4823    2.50165E+006    2.48233E+006    2.48233E+006    2.03296E+004   -5.71715E+004    2.53950E+006   -8.15162E+005    2.49895E+006   -3.10651E+004    1.28985E+004    2.46365E+006   -3.73501E+004    6.86251E+003   -2.14516E+005
            4824    3.46848E+006    3.44541E+006    3.44541E+006    1.19313E+004   -5.70588E+004    3.50247E+006   -1.13343E+006    3.46694E+006    1.24034E+004   -2.57731E+004    3.41365E+006    4.42409E+003   -4.02436E+004   -3.29492E+005
            4825    4.10500E+006    4.05060E+006    4.05060E+006    2.58289E+004   -1.30169E+005    4.18077E+006   -1.31542E+006    4.09832E+006    2.54264E+004   -1.18111E+005    4.03895E+006   -1.23619E+004   -7.12286E+004   -2.08382E+005
            4826    4.40852E+006    4.37790E+006    4.37790E+006    6.10745E+004   -1.16926E+005    4.49482E+006   -1.44068E+006    4.40042E+006    4.83308E+004   -1.01319E+005    4.37503E+006   -5.01025E+004   -8.71364E+004    6.95060E+004
            4827    4.22501E+006    4.25763E+006    4.25763E+006    7.17221E+004   -5.42741E+003    4.26306E+006   -1.44131E+006    4.22343E+006    5.61677E+004    2.68000E+004    4.24096E+006   -3.80167E+004   -9.37680E+004    2.47510E+005
            4828    4.78167E+006    4.51541E+006    4.51541E+006   -2.64511E+004   -4.74537E+005    4.98994E+006   -1.33814E+006    4.73409E+006   -2.46156E+004   -3.86348E+005    4.42538E+006    5.84338E+004   -1.47305E+005   -6.44468E+005
            4829    4.71988E+006    4.42000E+006    4.42000E+006    2.33507E+004   -5.67474E+005    4.98748E+006   -1.29196E+006    4.63559E+006    1.30221E+004   -5.52035E+005    4.41489E+006   -9.10476E+004   -1.42358E+005   -5.34031E+004
            4830    4.30516E+006    4.11572E+006    4.11572E+006    2.72261E+004   -3.77520E+005    4.49324E+006   -1.25514E+006    4.26204E+006    6.70175E+003   -2.92154E+005    4.05088E+006   -1.07266E+005   -9.96904E+004    5.21779E+005
            4831    3.91620E+006    3.85414E+006    3.85414E+006    9.19546E+004   -1.99765E+005    4.05390E+006   -1.24878E+006    3.89164E+006    4.28554E+004    2.28730E+004    3.68060E+006   -1.35492E+005   -9.70739E+004    8.05609E+005
            4832    4.68395E+006    4.56092E+006    4.56092E+006    5.60920E+005   -5.91761E+005    5.15268E+006   -1.51003E+006    4.34732E+006    4.25410E+005    3.01952E+005    3.80272E+006   -5.59254E+005   -2.47395E+005    1.73004E+006
            4833    5.44777E+006    5.13088E+006    5.13088E+006    5.20695E+005   -8.80667E+005    6.01155E+006   -1.59030E+006    5.01765E+006    4.12083E+005   -2.97069E+005    4.65590E+006   -5.51749E+005   -3.29635E+005    1.51839E+006
            4834    6.18963E+006    5.68547E+006    5.68547E+006    4.83570E+005   -1.16009E+006    6.84555E+006   -1.66965E+006    5.66660E+006    3.77634E+005   -8.35666E+005    5.46698E+006   -5.40152E+005   -3.82335E+005    1.07225E+006
            4835    7.03847E+006    6.57614E+006    6.57614E+006    5.08593E+005   -1.14044E+006    7.71658E+006   -1.98143E+006    6.58245E+006    4.04860E+005   -9.62301E+005    6.50174E+006   -5.17466E+005   -5.57984E+005    3.76918E+005
            4836    8.27188E+006    8.10771E+006    8.10771E+006    7.51567E+005   -8.46674E+005    8.95438E+006   -2.67087E+006    7.91324E+006    7.07991E+005   -6.95392E+005    8.00000E+006   -4.39964E+005   -8.78681E+005   -2.24166E+005
            4837    9.80891E+006    9.95860E+006    9.95860E+006    1.14940E+006   -6.11489E+005    1.05701E+007   -3.49884E+006    9.44343E+006    1.07947E+006   -3.13874E+005    9.73092E+006   -5.16093E+005   -1.27071E+006   -7.58983E+005
            4838    1.11966E+007    1.19569E+007    1.19569E+007    1.79194E+006   -4.43086E+004    1.20012E+007   -4.56817E+006    1.08500E+007    1.57239E+006    5.58819E+005    1.15733E+007   -6.53011E+005   -1.75306E+006   -1.10781E+006
            4839    1.24071E+007    1.40898E+007    1.40898E+007    2.73183E+006    8.48836E+005    1.32410E+007   -5.89016E+006    1.20794E+007    2.23279E+006    1.97030E+006    1.34674E+007   -6.67242E+005   -2.36986E+006   -1.47399E+006
            4840    1.03403E+007    1.06428E+007    1.06428E+007    5.99651E+005    2.89847E+004    1.06138E+007   -3.75715E+006    1.03048E+007    5.85622E+004    6.45208E+005    1.05677E+007    8.63636E+004   -5.11268E+005   -7.05912E+005
            4841    9.36889E+006    9.74431E+006    9.74431E+006    6.03556E+005    1.62842E+005    9.58147E+006   -3.50357E+006    9.34553E+006    2.74525E+005    5.01766E+005    9.73442E+006    1.93414E+005   -2.25337E+005   -2.00001E+005
            4842    8.73548E+006    8.80104E+006    8.80104E+006    2.17763E+005   -7.90860E+004    8.88012E+006   -2.97991E+006    8.72412E+006   -4.03813E+004    2.60761E+005    8.71934E+006    1.12608E+005   -3.50210E+005   -7.56586E+005
            4843    7.70623E+006    7.97900E+006    7.97900E+006    5.02139E+005    6.22512E+004    7.91675E+006   -2.84780E+006    7.67791E+006    1.94074E+005    3.85706E+005    7.96361E+006    2.06460E+005   -1.94569E+005   -2.77468E+005
            4844    7.38117E+006    7.26845E+006    7.26845E+006   -1.07945E+004   -2.10589E+005    7.47904E+006   -2.34902E+006    7.37508E+006   -4.19560E+004   -1.00860E+005    7.18988E+006    1.04845E+005   -2.49593E+005   -7.14812E+005
            4845    6.03431E+006    6.25276E+006    6.25276E+006    4.65437E+005   -1.42344E+003    6.25418E+006   -2.23892E+006    5.99348E+006    1.15205E+005    3.59398E+005    6.24217E+006    2.05090E+005   -1.35894E+005   -2.06704E+005
            4846    5.65311E+006    5.45696E+006    5.45696E+006   -6.34389E+004   -3.20112E+005    5.77707E+006   -1.69114E+006    5.63997E+006   -1.21480E+005   -1.94414E+005    5.38930E+006    1.18668E+005   -8.79107E+004   -6.09978E+005
            4847    4.74354E+006    4.92315E+006    4.92315E+006    3.98598E+005   -1.26094E+004    4.93576E+006   -1.76971E+006    4.70319E+006    8.89872E+004    3.22047E+005    4.89811E+006    1.84110E+005   -1.32093E+005   -3.08780E+005
            4848    3.69899E+006    3.78149E+006    3.78149E+006    2.56673E+005   -6.99970E+004    3.85149E+006   -1.32272E+006    3.66633E+006    1.03839E+004    1.99250E+005    3.75853E+006    1.44190E+005   -4.49994E+004   -2.81468E+005
            4849    2.33560E+006    2.33889E+006    2.33889E+006    8.33074E+004   -6.92437E+004    2.40813E+006   -7.84318E+005    2.32435E+006   -3.86233E+004    6.17449E+004    2.32983E+006    6.15746E+004   -6.05823E+003   -1.43289E+005
            4850    4.32931E+006    4.21946E+006    4.21946E+006    2.78733E+004   -2.35543E+005    4.45501E+006   -1.33726E+006    4.31123E+006   -8.62673E+003   -8.30078E+004    4.10343E+006    1.10044E+005   -9.21080E+004   -6.97801E+005
            4851    2.85766E+006    2.82128E+006    2.82128E+006   -2.45309E+003   -6.91405E+004    2.89042E+006   -9.16561E+005    2.85591E+006   -2.12915E+004   -1.56588E+004    2.78663E+006    3.31302E+004   -2.53012E+004   -3.12161E+005
            4852    4.09420E+006    4.14824E+006    4.14824E+006    7.41227E+005   -3.93702E+005    4.54194E+006   -1.49859E+006    3.71482E+006    5.88992E+005    8.57853E+005    3.04892E+006    6.49299E+005    2.19498E+005    1.81577E+006
            4853    3.51106E+006    3.51529E+006    3.51529E+006    2.90163E+005   -2.24820E+005    3.74011E+006   -1.19355E+006    3.42454E+006    1.22920E+005    4.65861E+005    2.99185E+006    3.16313E+005    1.20706E+005    1.24086E+006
            4854    3.44675E+006    3.49021E+006    3.49021E+006    2.26535E+005   -1.14282E+005    3.60450E+006   -1.20082E+006    3.40853E+006    1.13455E+005    2.11525E+005    3.27749E+006    1.89918E+005    8.92688E+004    8.24124E+005
            4855    3.63460E+006    3.66919E+006    3.66919E+006    1.21049E+005   -4.61011E+004    3.71529E+006   -1.24805E+006    3.62594E+006    7.09590E+004    6.92827E+004    3.60390E+006    8.89928E+004    8.11235E+004    4.75830E+005
            4856    3.93431E+006    3.95703E+006    3.95703E+006    4.56470E+004    1.85238E+002    3.95684E+006   -1.33429E+006    3.93372E+006    3.84704E+004    1.58502E+004    3.94854E+006    2.20459E+004    9.12830E+004    1.57831E+005
            4857    2.86123E+006    3.15529E+006    3.15529E+006    7.85574E+005   -2.33006E+004    3.17859E+006   -1.30586E+006    2.58462E+006    5.19425E+005    1.23290E+006    2.16524E+006    5.83067E+005    1.25237E+005    1.30079E+006
            4858    2.62846E+006    2.80694E+006    2.80694E+006    4.93568E+005   -5.12239E+004    2.85816E+006   -1.08309E+006    2.49665E+006    1.25893E+005    7.10410E+005    2.41298E+006    3.03603E+005    7.26589E+004    8.90851E+005
            4859    2.82682E+006    2.97476E+006    2.97476E+006    3.42175E+005   -1.27634E+004    2.98752E+006   -1.10139E+006    2.77602E+006    1.12570E+005    3.58360E+005    2.83324E+006    1.86530E+005    5.86402E+004    6.00678E+005
            4860    3.18328E+006    3.26050E+006    3.26050E+006    1.61344E+005   -7.13317E+002    3.26121E+006   -1.14038E+006    3.17397E+006    7.22764E+004    1.31328E+005    3.21752E+006    8.72821E+004    5.40369E+004    3.61158E+005
            4861    3.51997E+006    3.54400E+006    3.54400E+006    4.58203E+004    2.63057E+003    3.54137E+006   -1.19748E+006    3.51938E+006    3.06763E+004    2.32797E+004    3.53850E+006    2.32869E+004    6.64986E+004    1.21829E+005
            4862    1.61954E+006    2.06502E+006    2.06502E+006    1.18174E+006    1.95870E+005    1.86915E+006   -1.14754E+006   -7.38679E+005    4.51499E+005    1.38841E+006    1.60272E+006    5.24677E+005    3.38901E+004    4.72264E+005
            4863    1.87008E+006    2.15826E+006    2.15826E+006    8.37400E+005    1.84010E+004    2.13986E+006   -1.00469E+006    1.36966E+006    1.29734E+005    8.04231E+005    2.08009E+006    2.90071E+005    2.58338E+004    3.15934E+005
            4864    2.38512E+006    2.59966E+006    2.59966E+006    4.65500E+005    2.49861E+004    2.57467E+006   -1.03005E+006    2.29090E+006    1.08630E+005    4.04276E+005    2.57724E+006    1.75057E+005    1.81032E+004    2.19306E+005
            4865    2.87840E+006    2.98245E+006    2.98245E+006    1.99729E+005    1.70729E+004    2.96538E+006   -1.06642E+006    2.86532E+006    6.99188E+004    1.53226E+005    2.97611E+006    8.37738E+004    2.04106E+004    1.31801E+005
            4866    3.23803E+006    3.26605E+006    3.26605E+006    4.99839E+004    6.50789E+003    3.25955E+006   -1.10752E+006    3.23737E+006    2.61015E+004    3.12347E+004    3.26521E+006    2.19606E+004    2.41544E+004    4.61893E+004
            4867    1.26071E+007    1.44076E+007    1.44076E+007    2.88933E+006    9.38907E+005    1.34687E+007   -6.07861E+006    1.22608E+007    2.32600E+006    2.14837E+006    1.37615E+007    6.91620E+005   -2.45333E+006    1.48504E+006
            4868    1.06789E+007    1.10742E+007    1.10742E+007    7.60316E+005    6.43469E+004    1.10099E+007   -3.96630E+006    1.06277E+007    9.72686E+004    8.06697E+005    1.09949E+007   -8.09230E+004   -5.74260E+005    7.06927E+005
            4869    9.86760E+006    1.02696E+007    1.02696E+007    6.20493E+005    1.97204E+005    1.00724E+007   -3.69578E+006    9.84714E+006    3.01945E+005    5.27194E+005    1.02582E+007   -1.84592E+005   -2.46373E+005    2.23741E+005
            4870    1.33673E+007    1.62654E+007    1.62654E+007    4.19916E+006    1.89612E+006    1.43692E+007   -7.45354E+006    1.29096E+007    3.04664E+006    3.91788E+006    1.53961E+007    5.69531E+005   -3.09284E+006    1.47272E+006
            4871    1.21219E+007    1.28132E+007    1.28132E+007    1.26105E+006    1.92472E+005    1.26208E+007   -4.75559E+006    1.20152E+007    2.36947E+005    1.28834E+006    1.27415E+007   -5.50057E+004   -7.43388E+005    5.63009E+005
            4872    1.14956E+007    1.20125E+007    1.20125E+007    7.06799E+005    3.35902E+005    1.16766E+007   -4.35172E+006    1.14821E+007    4.00664E+005    6.50777E+005    1.20037E+007   -1.38086E+005   -2.82920E+005    1.41441E+005
            4873    1.37326E+007    1.75380E+007    1.75380E+007    5.46027E+006    2.60073E+006    1.49373E+007   -8.53299E+006    1.30373E+007    3.63548E+006    5.40480E+006    1.65587E+007    3.28366E+005   -3.58466E+006    9.01366E+005
            4874    1.31050E+007    1.40319E+007    1.40319E+007    1.68677E+006    2.80469E+005    1.37514E+007   -5.33304E+006    1.29336E+007    3.35324E+005    1.69388E+006    1.39699E+007   -3.13270E+004   -8.65681E+005    2.97132E+005
            4875    1.26877E+007    1.32910E+007    1.32910E+007    7.55653E+005    4.56239E+005    1.28347E+007   -4.83429E+006    1.26797E+007    4.79206E+005    7.41017E+005    1.32827E+007   -6.76502E+004   -3.16145E+005    7.98870E+004
            4876    1.38025E+007    1.79331E+007    1.79331E+007    5.95319E+006    2.83980E+006    1.50933E+007   -8.90870E+006    1.29767E+007    3.84026E+006    5.95293E+006    1.69329E+007   -2.41951E+004   -3.75402E+006   -5.72586E+004
            4877    1.34178E+007    1.44193E+007    1.44193E+007    1.81232E+006    3.16079E+005    1.41032E+007   -5.51588E+006    1.32281E+007    3.74167E+005    1.81243E+006    1.43611E+007   -2.04739E+003   -9.03132E+005   -3.93441E+004
            4878    1.30465E+007    1.36769E+007    1.36769E+007    7.69076E+005    4.95964E+005    1.31809E+007   -4.98065E+006    1.30401E+007    5.04294E+005    7.68736E+005    1.36689E+007    1.04353E+004   -3.23887E+005   -1.79948E+004
            4879    1.36761E+007    1.73915E+007    1.73915E+007    5.32187E+006    2.53745E+006    1.48540E+007   -8.41693E+006    1.30152E+007    3.57160E+006    5.25602E+006    1.64232E+007   -3.50687E+005   -3.52934E+006   -9.90770E+005
            4880    1.29419E+007    1.38079E+007    1.38079E+007    1.58073E+006    2.53502E+005    1.35544E+007   -5.21404E+006    1.27874E+007    3.04375E+005    1.59166E+006    1.37461E+007    2.62215E+004   -8.28410E+005   -3.64639E+005
            4881    1.24406E+007    1.30206E+007    1.30206E+007    7.38218E+005    4.27496E+005    1.25931E+007   -4.72876E+006    1.24319E+007    4.60864E+005    7.12935E+005    1.30125E+007    8.81965E+004   -3.04843E+005   -8.96971E+004
            4882    1.32537E+007    1.60137E+007    1.60137E+007    4.01546E+006    1.78711E+006    1.42266E+007   -7.27209E+006    1.28220E+007    2.94593E+006    3.69389E+006    1.51765E+007   -5.87840E+005   -3.00367E+006   -1.47866E+006
            4883    1.18092E+007    1.24043E+007    1.24043E+007    1.12093E+006    1.31489E+005    1.22728E+007   -4.55223E+006    1.17154E+007    1.69624E+005    1.15064E+006    1.23364E+007    6.29951E+004   -6.73659E+005   -5.84790E+005
            4884    1.10806E+007    1.15601E+007    1.15601E+007    6.70994E+005    2.97476E+005    1.12626E+007   -4.17619E+006    1.10664E+007    3.74635E+005    6.03184E+005    1.15507E+007    1.50343E+005   -2.72552E+005   -1.68573E+005
            4885    3.94044E+006    3.96247E+006    3.96247E+006    4.53483E+004   -8.82874E+002    3.96335E+006   -1.33564E+006    3.93983E+006    3.82336E+004    1.47034E+004    3.95399E+006    2.21962E+004   -9.14612E+004   -1.57684E+005
            4886    3.63438E+006    3.66934E+006    3.66934E+006    1.22188E+005   -4.63884E+004    3.71573E+006   -1.24838E+006    3.62557E+006    7.16268E+004    6.99699E+004    3.60355E+006    8.96869E+004   -8.08915E+004   -4.77712E+005
            4887    3.44477E+006    3.48862E+006    3.48862E+006    2.28568E+005   -1.15101E+005    3.60372E+006   -1.20070E+006    3.40588E+006    1.14031E+005    2.14565E+005    3.27349E+006    1.91673E+005   -8.91698E+004   -8.28192E+005
            4888    3.51075E+006    3.51536E+006    3.51536E+006    2.92674E+005   -2.25791E+005    3.74115E+006   -1.19408E+006    3.42303E+006    1.24858E+005    4.71760E+005    2.98562E+006    3.18890E+005   -1.21359E+005   -1.24689E+006
            4889    4.09449E+006    4.14898E+006    4.14898E+006    7.42133E+005   -3.93426E+005    4.54241E+006   -1.49923E+006    3.71468E+006    5.89859E+005    8.61588E+005    3.04625E+006    6.50148E+005   -2.19359E+005   -1.81771E+006
            4890    3.52170E+006    3.54635E+006    3.54635E+006    4.58602E+004    3.81676E+003    3.54253E+006   -1.19867E+006    3.52113E+006    3.08964E+004    2.42337E+004    3.54089E+006    2.27828E+004   -6.66879E+004   -1.21018E+005
            4891    3.18864E+006    3.26510E+006    3.26510E+006    1.59434E+005   -4.86352E+002    3.26559E+006   -1.14135E+006    3.17960E+006    7.16896E+004    1.29634E+005    3.22273E+006    8.61849E+004   -5.41676E+004   -3.58940E+005
            4892    2.82980E+006    2.97715E+006    2.97715E+006    3.41014E+005   -1.30061E+004    2.99015E+006   -1.10172E+006    2.77932E+006    1.12224E+005    3.57177E+005    2.83575E+006    1.86082E+005   -5.83885E+004   -6.00883E+005
            4893    2.62435E+006    2.80522E+006    2.80522E+006    4.98919E+005   -5.02569E+004    2.85548E+006   -1.08463E+006    2.49009E+006    1.30379E+005    7.17760E+005    2.40575E+006    3.07412E+005   -7.28470E+004   -8.94793E+005
            4894    2.86226E+006    3.15668E+006    3.15668E+006    7.86571E+005   -2.32382E+004    3.17992E+006   -1.30667E+006    2.58507E+006    5.22968E+005    1.23774E+006    2.15930E+006    5.84920E+005   -1.25853E+005   -1.30381E+006
            4895    3.24005E+006    3.26652E+006    3.26652E+006    4.81763E+004    5.19895E+003    3.26132E+006   -1.10663E+006    3.23941E+006    2.51584E+004    2.90671E+004    3.26567E+006    2.17709E+004   -2.43187E+004   -4.63329E+004
            4896    2.88207E+006    2.98542E+006    2.98542E+006    1.98123E+005    1.71230E+004    2.96830E+006   -1.06689E+006    2.86924E+006    7.01409E+004    1.51452E+005    2.97908E+006    8.33277E+004   -2.05216E+004   -1.31933E+005
            4897    2.38418E+006    2.59919E+006    2.59919E+006    4.66263E+005    2.53207E+004    2.57387E+006   -1.03026E+006    2.28973E+006    1.08852E+005    4.04954E+005    2.57696E+006    1.75047E+005   -1.79717E+004   -2.18293E+005
            4898    1.86674E+006    2.15548E+006    2.15548E+006    8.39478E+005    1.90271E+004    2.13645E+006   -1.00466E+006    1.36251E+006    1.29252E+005    8.06097E+005    2.07863E+006    2.89065E+005   -2.61603E+004   -3.12624E+005
            4899    1.62159E+006    2.06885E+006    2.06885E+006    1.18403E+006    1.97317E+005    1.87153E+006   -1.15007E+006   -7.37647E+005    4.53665E+005    1.38969E+006    1.60684E+006    5.25496E+005   -3.45097E+004   -4.72935E+005
            4900    9.14920E+006    8.84841E+006    8.84841E+006    9.88775E+005   -1.19512E+006    1.00435E+007   -2.88069E+006    8.53268E+006    8.67683E+005   -9.51507E+005    8.72589E+006    6.93929E+005   -9.84119E+005   -2.09843E+004
            4901    8.14397E+006    7.58465E+006    7.58465E+006    8.50600E+005   -1.46689E+006    9.05154E+006   -2.32279E+006    7.34535E+006    7.31937E+005   -1.19541E+006    7.43183E+006    7.29118E+005   -7.17920E+005   -7.45416E+005
            4902    7.19459E+006    6.66413E+006    6.66413E+006    7.94072E+005   -1.36196E+006    8.02609E+006   -2.03208E+006    6.40495E+006    6.99237E+005   -9.37978E+005    6.33498E+006    7.17016E+005   -5.94342E+005   -1.35291E+006
            4903    6.16910E+006    5.77157E+006    5.77157E+006    7.50793E+005   -1.11509E+006    6.88665E+006   -1.80242E+006    5.47817E+006    6.46960E+005   -4.12045E+005    5.17236E+006    7.08728E+005   -4.44869E+005   -1.78550E+006
            4904    5.15434E+006    4.98473E+006    4.98473E+006    7.41470E+005   -7.51218E+005    5.73595E+006   -1.65833E+006    4.62930E+006    6.27436E+005    2.68305E+005    4.07924E+006    6.87441E+005   -3.36046E+005   -1.96020E+006
            4905    4.29123E+006    4.10952E+006    4.10952E+006    1.95090E+005   -4.78779E+005    4.58830E+006   -1.27528E+006    4.16969E+006    9.85869E+004    4.87596E+004    3.67848E+006    3.14280E+005   -1.58070E+005   -1.29703E+006
            4906    3.97646E+006    3.91499E+006    3.91499E+006    1.77092E+005   -2.63370E+005    4.17836E+006   -1.27624E+006    3.92102E+006    1.08518E+005   -3.09614E+004    3.75115E+006    1.92521E+005   -1.18587E+005   -7.87944E+005
            4907    3.98540E+006    3.97576E+006    3.97576E+006    9.67846E+004   -1.08151E+005    4.08392E+006   -1.32147E+006    3.97352E+006    6.48577E+004   -2.84622E+004    3.92800E+006    8.71106E+004   -9.32339E+004   -4.24846E+005
            4908    4.28287E+006    4.29830E+006    4.29830E+006    5.04617E+004   -1.87509E+004    4.31705E+006   -1.44334E+006    4.28161E+006    4.54395E+004   -7.80375E+003    4.29238E+006    2.38645E+004   -9.41658E+004   -1.28059E+005
            4909    4.97071E+006    4.62875E+006    4.62875E+006    1.51003E+005   -7.19839E+005    5.34859E+006   -1.35330E+006    4.79456E+006    8.61400E+004   -4.31495E+005    4.40527E+006    2.99828E+005   -2.08739E+005   -1.02454E+006
            4910    4.39359E+006    4.22720E+006    4.22720E+006    1.38656E+005   -4.18324E+005    4.64552E+006   -1.31584E+006    4.31309E+006    9.65471E+004   -3.15881E+005    4.16686E+006    1.73284E+005   -1.41860E+005   -4.95613E+005
            4911    4.18937E+006    4.12122E+006    4.12122E+006    7.02572E+004   -1.94056E+005    4.31527E+006   -1.33247E+006    4.17055E+006    5.01013E+004   -1.64452E+005    4.11177E+006    7.84302E+004   -1.01992E+005   -1.69880E+005
            4912    4.34425E+006    4.34313E+006    4.34313E+006    4.27907E+004   -4.37286E+004    4.38686E+006   -1.44740E+006    4.34231E+006    4.00874E+004   -3.95058E+004    4.34161E+006    1.88084E+004   -7.94733E+004   -1.47241E+004
            4913    5.66678E+006    5.16616E+006    5.16616E+006    8.72781E+004   -9.46252E+005    6.11241E+006   -1.43573E+006    5.44864E+006    4.79625E+004   -8.41854E+005    5.10107E+006    2.53201E+005   -2.47806E+005   -5.51895E+005
            4914    4.78886E+006    4.52487E+006    4.52487E+006    1.11612E+005   -5.67156E+005    5.09203E+006   -1.35644E+006    4.67880E+006    8.73792E+004   -5.35935E+005    4.51789E+006    1.42538E+005   -1.75631E+005   -8.05703E+003
            4915    4.21660E+006    4.10807E+006    4.10807E+006    3.67672E+004   -2.40174E+005    4.34824E+006   -1.30155E+006    4.19606E+006    3.12610E+004   -2.20759E+005    4.09416E+006    4.18010E+004   -1.09239E+005    2.19134E+005
            4916    4.07603E+006    4.06054E+006    4.06054E+006    2.70405E+004   -5.67266E+004    4.11727E+006   -1.34362E+006    4.07409E+006    2.61627E+004   -5.10119E+004    4.05570E+006    9.87000E+003   -5.59964E+004    1.29334E+005
            4917    6.30559E+006    5.78404E+006    5.78404E+006    9.25083E+004   -9.94312E+005    6.77835E+006   -1.62741E+006    6.08949E+006    6.18317E+004   -9.46001E+005    5.76641E+006    2.21311E+005   -3.15999E+005    4.74021E+004
            4918    4.97852E+006    4.72937E+006    4.72937E+006    8.33524E+004   -5.25634E+005    5.25500E+006   -1.42903E+006    4.89367E+006    8.29104E+004   -4.67099E+005    4.67128E+006    5.44234E+004   -2.07990E+005    5.05889E+005
            4919    4.10528E+006    3.98621E+006    3.98621E+006    1.35221E+004   -2.39916E+005    4.22613E+006   -1.25327E+006    4.08763E+006    1.57968E+004   -1.72666E+005    3.91669E+006   -7.78164E+003   -9.64349E+004    5.28397E+005
            4920    3.58907E+006    3.55896E+006    3.55896E+006    3.40142E+003   -6.26952E+004    3.62166E+006   -1.16656E+006    3.58770E+006    3.58860E+003   -4.64243E+004    3.54251E+006   -5.70613E+003   -3.52935E+004    2.40930E+005
            4921    6.54582E+006    6.20347E+006    6.20347E+006   -1.07319E+004   -6.29962E+005    6.83343E+006   -1.85426E+006    6.47943E+006    1.35149E+003   -5.73918E+005    6.13534E+006    2.65558E+004   -3.27979E+005    5.88066E+005
            4922    4.81908E+006    4.70537E+006    4.70537E+006    1.01107E+005   -3.03064E+005    5.00844E+006   -1.50114E+006    4.78072E+006    1.08387E+005   -1.99088E+005    4.59411E+006   -2.67774E+004   -1.80971E+005    7.13574E+005
            4923    3.91831E+006    3.81410E+006    3.81410E+006   -4.78823E+003   -1.96602E+005    4.01070E+006   -1.20424E+006    3.90773E+006   -1.86915E+004   -7.42829E+004    3.70568E+006   -6.59530E+004   -7.54470E+004    6.43422E+005
            4924    3.01688E+006    2.98853E+006    2.98853E+006   -2.11730E+003   -5.39106E+004    3.04244E+006   -9.77501E+005    3.01588E+006   -1.11220E+004   -1.95810E+004    2.96320E+006   -2.15898E+004   -1.91480E+004    2.75196E+005
            4925    2.51679E+006    2.49690E+006    2.49690E+006    1.98083E+004   -5.77967E+004    2.55469E+006   -8.19636E+005    2.51409E+006   -3.04758E+004    1.16889E+004    2.47770E+006   -3.78632E+004   -7.63284E+003    2.18178E+005
            4926    2.19439E+006    2.18935E+006    2.18935E+006    5.53077E+004   -6.07795E+004    2.25013E+006   -7.27958E+005    2.18746E+006   -4.04122E+004    3.82001E+004    2.18609E+006   -4.41739E+004    3.22471E+002    8.37269E+004
            4927    3.58974E+006    3.56663E+006    3.56663E+006    6.94244E+004   -1.08987E+005    3.67562E+006   -1.17569E+006    3.57974E+006   -7.73680E+003    4.76582E+004    3.48715E+006   -9.72474E+004   -5.16736E+004    5.24774E+005
            4928    3.29110E+006    3.34317E+006    3.34317E+006    2.01221E+005   -7.91471E+004    3.42232E+006   -1.15508E+006    3.26407E+006   -9.97247E+003    1.44855E+005    3.33036E+006   -1.22453E+005   -2.43432E+004    1.99972E+005
            4929    4.53919E+006    4.53038E+006    4.53038E+006    9.57007E+004   -1.06562E+005    4.63694E+006   -1.50651E+006    4.52903E+006    3.26537E+004    4.24867E+004    4.44438E+006   -1.12939E+005   -1.23906E+005    6.05505E+005
            4930    4.20364E+006    4.31649E+006    4.31649E+006    3.34732E+005   -7.85069E+004    4.39499E+006   -1.52424E+006    4.15757E+006    1.70675E+004    2.54972E+005    4.30067E+006   -1.76520E+005   -3.71952E+004    2.49096E+005
            4931    6.00518E+006    5.95839E+006    5.95839E+006    7.97180E+004   -1.65764E+005    6.12416E+006   -1.95745E+006    5.99388E+006    5.49747E+004   -5.46235E+004    5.87200E+006   -1.11406E+005   -2.26805E+005    6.79055E+005
            4932    5.24718E+006    5.42522E+006    5.42522E+006    4.25163E+005   -3.83345E+004    5.46355E+006   -1.93735E+006    5.20082E+006    6.43666E+004    3.41430E+005    5.40625E+006   -1.96750E+005   -8.93270E+004    2.94612E+005
            4933    6.44935E+006    6.69652E+006    6.69652E+006    4.97799E+005    2.28033E+004    6.67372E+006   -2.40571E+006    6.40982E+006    1.35613E+005    4.01833E+005    6.67968E+006   -2.06740E+005   -1.67397E+005    2.75893E+005
            4934    8.07899E+006    8.38900E+006    8.38900E+006    5.56953E+005    8.38468E+004    8.30515E+006   -3.00993E+006    8.04774E+006    2.06518E+005    4.45285E+005    8.37799E+006   -2.10096E+005   -1.94662E+005    2.19920E+005
            4935    7.59437E+006    7.51827E+006    7.51827E+006   -1.31724E+004   -1.37504E+005    7.65577E+006   -2.45586E+006    7.59208E+006   -4.50770E+004   -3.47471E+004    7.44742E+006   -8.46134E+004   -2.83107E+005    6.71409E+005
            4936    9.21042E+006    9.34703E+006    9.34703E+006    2.65538E+005    1.28646E+004    9.33416E+006   -3.20848E+006    9.20262E+006    4.24728E+004    3.20411E+005    9.26254E+006   -8.19010E+004   -4.40964E+005    7.53671E+005
            4937    1.14624E+007    1.23229E+007    1.23229E+007    1.89674E+006    4.88392E+004    1.22740E+007   -4.75615E+006    1.11198E+007    1.66833E+006    6.98818E+005    1.19013E+007    6.53057E+005   -1.84751E+006    1.19605E+006
            4938    1.02054E+007    1.03722E+007    1.03722E+007    1.26213E+006   -6.56184E+005    1.10284E+007   -3.65939E+006    9.78733E+006    1.15048E+006   -3.21522E+005    1.01492E+007    6.18412E+005   -1.33962E+006    6.39961E+005
            4939    6.81777E+006    6.18736E+006    6.18736E+006    8.97051E+005   -1.50670E+006    7.69406E+006   -1.85924E+006    5.74116E+006    8.65451E+005   -1.32201E+006    6.03427E+006   -6.57891E+005    8.81961E+005   -1.17810E+005
            4940    6.02200E+006    5.15098E+006    5.15098E+006    7.66092E+005   -1.71522E+006    6.86620E+006   -1.40062E+006    4.64313E+006    7.11847E+005   -1.46127E+006    4.95128E+006   -6.95017E+005    6.09884E+005   -7.72751E+005
            4941    5.25655E+006    4.51780E+006    4.51780E+006    7.55096E+005   -1.48821E+006    6.00601E+006   -1.26156E+006    3.94124E+006    6.94729E+005   -1.07872E+006    4.16868E+006   -6.88323E+005    4.65796E+005   -1.18106E+006
            4942    4.43574E+006    3.91425E+006    3.91425E+006    7.46514E+005   -1.15528E+006    5.06954E+006   -1.16850E+006    3.31254E+006    6.80133E+005   -5.33326E+005    3.35868E+006   -6.55487E+005    3.31795E+005   -1.43285E+006
            4943    3.79225E+006    3.81654E+006    3.81654E+006    5.46090E+005   -3.40447E+005    4.15699E+006   -1.34073E+006    3.54768E+006    3.35066E+005    5.54591E+004    3.63166E+006   -4.60374E+005    2.66178E+005   -7.45059E+005
            4944    4.07999E+006    4.18385E+006    4.18385E+006    2.46005E+005   -2.47952E+004    4.20865E+006   -1.46835E+006    4.05970E+006    2.23990E+005    2.23720E+004    4.15870E+006   -1.03977E+005    2.28598E+005   -2.16969E+005
            4945    4.22849E+006    4.15964E+006    4.15964E+006    4.74907E+005   -4.57096E+005    4.61674E+006   -1.39248E+006    3.98744E+006    2.90728E+005   -1.69413E+005    4.05614E+006   -4.39854E+005    3.14898E+005   -5.41460E+005
            4946    4.34435E+006    4.35526E+006    4.35526E+006    1.82709E+005   -1.42594E+005    4.49786E+006   -1.46513E+006    4.31682E+006    1.67583E+005   -1.12563E+005    4.34035E+006   -9.65136E+004    2.37215E+005   -7.55216E+004
            4947    4.69269E+006    4.52081E+006    4.52081E+006    3.43605E+005   -5.56868E+005    5.07768E+006   -1.43585E+006    4.49210E+006    2.07846E+005   -3.79573E+005    4.47927E+006   -3.65295E+005    4.09391E+005   -7.94680E+004
            4948    4.12502E+006    4.10976E+006    4.10976E+006    9.39610E+004   -1.16415E+005    4.22618E+006   -1.36244E+006    4.11292E+006    9.73181E+004   -1.03034E+005    4.09303E+006   -3.36829E+004    2.18259E+005    1.44995E+005
            4949    4.75649E+006    4.78157E+006    4.78157E+006    2.29419E+005   -1.55836E+005    4.93740E+006   -1.61838E+006    4.72120E+006    1.83089E+005   -3.85087E+004    4.71057E+006   -1.29184E+005    4.57109E+005    3.63696E+005
            4950    3.62839E+006    3.56801E+006    3.56801E+006    1.24233E+004   -1.29042E+005    3.69705E+006   -1.15046E+006    3.62218E+006   -4.20768E+003   -8.70998E+004    3.54270E+006    6.30422E+004    1.47425E+005    2.62458E+005
            4951    3.06016E+006    3.00280E+006    3.00280E+006    3.97564E+004   -1.46002E+005    3.14880E+006   -9.65519E+005    3.04743E+006   -8.77995E+004    3.47228E+003    2.98088E+006    9.23491E+004    9.06185E+004    2.37535E+005
            4952    2.64798E+006    2.59561E+006    2.59561E+006    1.40493E+005   -2.10260E+005    2.80587E+006   -8.41949E+005    2.59494E+006   -1.46224E+005    8.08150E+004    2.59126E+006    1.36523E+005    4.20382E+004    9.44115E+004
            4953    4.55599E+006    4.60969E+006    4.60969E+006    1.97679E+005   -7.77783E+004    4.68747E+006   -1.57653E+006    4.53720E+006    5.01483E+004    1.41479E+005    4.53797E+006    1.67152E+005    3.10807E+005    4.63489E+005
            4954    4.10850E+006    4.22612E+006    4.22612E+006    5.13503E+005   -1.87950E+005    4.41407E+006   -1.51722E+006    3.97041E+006    4.05220E+004    3.00034E+005    4.21111E+006    3.33049E+005    8.10111E+004    2.22453E+005
            4955    5.29908E+006    5.62062E+006    5.62062E+006    8.47325E+005   -8.14427E+004    5.70206E+006   -2.12883E+006    5.11113E+006    1.68155E+005    6.09117E+005    5.60923E+006    4.13509E+005    3.41199E+004    2.33331E+005
            4956    6.84344E+006    7.38905E+006    7.38905E+006    1.11278E+006    9.29100E+004    7.29614E+006   -2.86492E+006    6.66925E+006    3.16335E+005    8.93030E+005    7.38538E+006    4.22547E+005    1.03821E+005    1.11644E+005
            4957    8.80595E+006    9.63126E+006    9.63126E+006    1.37139E+006    3.65604E+005    9.26566E+006   -3.78942E+006    8.67531E+006    5.65134E+005    1.17937E+006    9.62375E+006    4.01601E+005    1.91330E+005    1.62748E+005
            4958    1.08110E+007    1.20002E+007    1.20002E+007    1.70185E+006    7.40737E+005    1.12595E+007   -4.81427E+006    1.07143E+007    8.89788E+005    1.56028E+006    1.19927E+007    3.44347E+005    2.64636E+005    1.02565E+005
            4959    6.12896E+006    6.37454E+006    6.37454E+006    3.29693E+005    1.64794E+005    6.20975E+006   -2.28968E+006    6.12397E+006    2.61285E+005    3.28140E+005    6.27960E+006    8.70529E+004    6.91051E+005    3.09042E+005
            4960    7.96708E+006    8.57543E+006    8.57543E+006    7.08404E+005    5.11940E+005    8.06349E+006   -3.26526E+006    7.96163E+006    6.61111E+005    7.28436E+005    8.40623E+006    4.36790E+004    1.08282E+006    4.00481E+005
            4961    9.54525E+006    1.06823E+007    1.06823E+007    1.39213E+006    9.00847E+005    9.78140E+006   -4.32508E+006    9.51674E+006    1.13233E+006    1.40499E+006    1.04379E+007    6.86830E+003    1.46184E+006    4.35828E+005
            4962    1.13440E+007    1.30626E+007    1.30626E+007    2.07729E+006    1.39109E+006    1.16715E+007   -5.51033E+006    1.12972E+007    1.71750E+006    2.07133E+006    1.27422E+007   -4.99251E+004    1.86495E+006    3.98752E+005
            4963    1.10001E+007    1.30063E+007    1.30063E+007    3.68830E+006    8.71834E+005    1.21345E+007   -5.85549E+006    1.01402E+007    3.74844E+006    1.75677E+006    1.20613E+007   -7.54290E+005    2.58552E+006    1.79023E+006
            4964    1.01521E+007    1.10268E+007    1.10268E+007    2.65718E+006   -2.66197E+005    1.12930E+007   -4.47261E+006    9.13064E+006    2.69974E+006    3.23571E+005    1.03945E+007   -7.66357E+005    2.03864E+006    1.37782E+006
            4965    9.02142E+006    9.23102E+006    9.23102E+006    1.89628E+006   -8.42386E+005    1.00734E+007   -3.42830E+006    8.00281E+006    1.93709E+006   -4.82141E+005    8.82996E+006   -6.66498E+005    1.55785E+006    9.54431E+005
            4966    7.79847E+006    7.62781E+006    7.62781E+006    1.31512E+006   -1.08989E+006    8.71770E+006   -2.61768E+006    6.88689E+006    1.32703E+006   -8.73673E+005    7.39968E+006   -6.04550E+005    1.16791E+006    4.25593E+005
            4967    3.64174E+006    3.73353E+006    3.73353E+006    2.30301E+005   -3.24955E+004    3.76602E+006   -1.31044E+006    3.62032E+006    1.94353E+005    2.88780E+004    3.70810E+006   -1.14228E+005    2.02967E+005   -2.19329E+005
            4968    3.24054E+006    3.35985E+006    3.35985E+006    6.12238E+005   -2.13753E+005    3.57360E+006   -1.25278E+006    2.98962E+006    3.75164E+005    2.24799E+005    3.15837E+006   -4.43939E+005    1.93964E+005   -7.32501E+005
            4969    3.52183E+006    3.23551E+006    3.23551E+006    7.17247E+005   -7.88954E+005    4.02446E+006   -1.05460E+006    2.63575E+006    6.35231E+005   -4.88460E+004    2.57742E+006   -6.00520E+005    2.21216E+005   -1.36699E+006
            4970    3.14791E+006    3.26128E+006    3.26128E+006    2.41906E+005   -1.08847E+003    3.26237E+006   -1.16737E+006    3.12671E+006    1.89131E+005    6.64749E+004    3.24649E+006   -1.11611E+005    1.37127E+005   -1.61313E+005
            4971    2.62945E+006    2.80774E+006    2.80774E+006    6.49348E+005   -1.20778E+005    2.92852E+006   -1.11210E+006    2.35494E+006    3.56001E+005    2.82052E+005    2.69826E+006   -4.09884E+005    1.25034E+005   -4.82437E+005
            4972    2.47034E+006    2.43656E+006    2.43656E+006    6.83503E+005   -3.88728E+005    2.82529E+006   -9.10445E+005    1.82460E+006    5.54448E+005    2.97305E+005    1.87958E+006   -5.18910E+005    1.17865E+005   -1.01493E+006
            4973    2.85395E+006    2.96231E+006    2.96231E+006    2.39613E+005   -6.89853E+003    2.96921E+006   -1.06501E+006    2.82985E+006    1.73175E+005    6.14876E+004    2.96036E+006   -1.10810E+005    4.89090E+004   -5.42583E+004
            4974    2.23956E+006    2.45482E+006    2.45482E+006    6.95797E+005   -6.63341E+004    2.52115E+006   -1.02809E+006    1.91336E+006    3.49166E+005    2.96483E+005    2.43863E+006   -3.84321E+005    3.97887E+004   -1.72264E+005
            4975    1.40604E+006    1.57601E+006    1.57601E+006    8.00845E+005   -4.70024E+004    1.62301E+006   -7.76616E+005   -5.99395E+005    4.66573E+005    4.42000E+005    1.42128E+006   -4.60987E+005    3.68079E+004   -3.65069E+005
            4976    1.13201E+007    1.26084E+007    1.26084E+007    1.77992E+006    8.53561E+005    1.17549E+007   -5.08063E+006    1.12344E+007    9.93065E+005    1.65089E+006    1.25979E+007   -3.25287E+005    3.26861E+005   -1.09138E+005
            4977    1.16665E+007    1.35695E+007    1.35695E+007    2.28249E+006    1.55740E+006    1.20121E+007   -5.80313E+006    1.16156E+007    1.92259E+006    2.26937E+006    1.32174E+007    6.90148E+004    1.97996E+006   -4.29977E+005
            4978    1.11363E+007    1.32726E+007    1.32726E+007    3.82064E+006    9.95942E+005    1.22767E+007   -6.02973E+006    1.02830E+007    3.88631E+006    1.91489E+006    1.22880E+007    7.60498E+005    2.66623E+006   -1.81826E+006
            4979    1.32540E+007    1.49104E+007    1.49104E+007    2.06186E+006    1.28521E+006    1.36252E+007   -6.08583E+006    1.32026E+007    1.36795E+006    1.99206E+006    1.48975E+007   -2.24947E+005    4.11407E+005   -6.86231E+004
            4980    1.32690E+007    1.58244E+007    1.58244E+007    3.01293E+006    2.14078E+006    1.36836E+007   -6.99269E+006    1.32043E+007    2.57623E+006    2.99987E+006    1.54020E+007    7.61067E+004    2.34268E+006   -3.36417E+005
            4981    1.13762E+007    1.49667E+007    1.49667E+007    4.91210E+006    2.61849E+006    1.23482E+007   -7.49910E+006    1.08375E+007    5.00917E+006    3.76214E+006    1.37260E+007    6.12062E+005    3.17290E+006   -1.79659E+006
            4982    1.46664E+007    1.65997E+007    1.65997E+007    2.25078E+006    1.63507E+006    1.49646E+007   -6.82850E+006    1.46373E+007    1.66965E+006    2.23212E+006    1.65837E+007   -1.07043E+005    4.85879E+005   -3.49874E+004
            4983    1.43740E+007    1.74380E+007    1.74380E+007    3.54813E+006    2.62448E+006    1.48136E+007   -7.87022E+006    1.43070E+007    3.09926E+006    3.54423E+006    1.69672E+007    4.28700E+004    2.59295E+006   -1.73559E+005
            4984    1.11698E+007    1.60851E+007    1.60851E+007    5.74802E+006    4.23654E+006    1.18486E+007   -8.68990E+006    1.09362E+007    5.92011E+006    5.38895E+006    1.47606E+007    3.37527E+005    3.53508E+006   -1.12542E+006
            4985    1.51053E+007    1.71224E+007    1.71224E+007    2.30055E+006    1.74884E+006    1.53736E+007   -7.05728E+006    1.50826E+007    1.76564E+006    2.30032E+006    1.71059E+007    1.16126E+004    5.04355E+005    6.67826E+003
            4986    1.47301E+007    1.79428E+007    1.79428E+007    3.69902E+006    2.77049E+006    1.51724E+007   -8.13745E+006    1.46640E+007    3.25454E+006    3.69891E+006    1.74589E+007   -6.95420E+003    2.66585E+006    4.06844E+004
            4987    1.10108E+007    1.64663E+007    1.64663E+007    6.03633E+006    4.95450E+006    1.15118E+007   -9.15238E+006    1.08903E+007    6.27095E+006    6.03590E+006    1.51503E+007   -1.15028E+004    3.66278E+006    3.94986E+004
            4988    1.44174E+007    1.62894E+007    1.62894E+007    2.20110E+006    1.56416E+006    1.47253E+007   -6.68490E+006    1.43857E+007    1.60624E+006    2.17389E+006    1.62746E+007    1.30494E+005    4.64987E+005    4.13079E+004
            4989    1.42292E+007    1.71721E+007    1.71721E+007    3.41244E+006    2.51581E+006    1.46563E+007   -7.70012E+006    1.41654E+007    2.97994E+006    3.40494E+006    1.67155E+007   -5.85644E+004    2.53562E+006    2.33374E+005
            4990    1.11702E+007    1.60033E+007    1.60033E+007    5.69089E+006    4.13800E+006    1.18653E+007   -8.61074E+006    1.09233E+007    5.85160E+006    5.29015E+006    1.46905E+007   -3.58865E+005    3.50378E+006    1.17653E+006
            4991    1.28266E+007    1.43833E+007    1.43833E+007    1.97898E+006    1.17251E+006    1.32108E+007   -5.84493E+006    1.27694E+007    1.26304E+006    1.89977E+006    1.43720E+007    2.43059E+005    3.75742E+005    7.65752E+004
            4992    1.29924E+007    1.53714E+007    1.53714E+007    2.80836E+006    1.98840E+006    1.33830E+007   -6.72271E+006    1.29340E+007    2.39372E+006    2.79804E+006    1.49764E+007   -6.54501E+004    2.23946E+006    3.39197E+005
            4993    1.13316E+007    1.47924E+007    1.47924E+007    4.79812E+006    2.48137E+006    1.23110E+007   -7.35728E+006    1.07793E+007    4.89007E+006    3.60163E+006    1.35801E+007   -6.21919E+005    3.11832E+006    1.79814E+006
            4994    3.51932E+006    3.23410E+006    3.23410E+006    7.16441E+005   -7.87280E+005    4.02138E+006   -1.05442E+006    2.63599E+006    6.34776E+005   -4.57056E+004    2.57419E+006   -5.99788E+005   -2.20938E+005    1.36819E+006
            4995    3.23743E+006    3.35728E+006    3.35728E+006    6.11370E+005   -2.12488E+005    3.56976E+006   -1.25205E+006    2.98762E+006    3.73477E+005    2.24324E+005    3.15836E+006   -4.42937E+005   -1.93783E+005    7.27225E+005
            4996    3.63411E+006    3.72501E+006    3.72501E+006    2.29096E+005   -3.30986E+004    3.75811E+006   -1.30700E+006    3.61274E+006    1.93248E+005    2.79753E+004    3.69979E+006   -1.13852E+005   -2.02211E+005    2.17993E+005
            4997    2.45975E+006    2.42812E+006    2.42812E+006    6.81717E+005   -3.84903E+005    2.81302E+006   -9.08311E+005    1.81836E+006    5.52618E+005    2.99528E+005    1.87279E+006   -5.18128E+005   -1.18318E+005    1.01027E+006
            4998    2.63630E+006    2.81386E+006    2.81386E+006    6.48630E+005   -1.21832E+005    2.93569E+006   -1.11355E+006    2.36237E+006    3.55966E+005    2.79819E+005    2.70487E+006   -4.09805E+005   -1.25498E+005    4.81997E+005
            4999    3.14380E+006    3.25707E+006    3.25707E+006    2.41061E+005   -5.77610E+002    3.25764E+006   -1.16585E+006    3.12280E+006    1.88447E+005    6.66818E+004    3.24242E+006   -1.11018E+005   -1.36339E+005    1.60486E+005
            5000    1.39282E+006    1.56520E+006    1.56520E+006    8.04744E+005   -4.23174E+004    1.60752E+006   -7.75875E+005   -6.31378E+005    4.66202E+005    4.44644E+005    1.41678E+006   -4.60360E+005   -3.75489E+004    3.53731E+005
            5001    2.24576E+006    2.46106E+006    2.46106E+006    6.95680E+005   -6.66275E+004    2.52769E+006   -1.03004E+006    1.92054E+006    3.50047E+005    2.96418E+005    2.44365E+006   -3.84623E+005   -4.06672E+004    1.79221E+005
            5002    2.85337E+006    2.96158E+006    2.96158E+006    2.39230E+005   -6.85970E+003    2.96844E+006   -1.06465E+006    2.82934E+006    1.72991E+005    6.13146E+004    2.95965E+006   -1.10572E+005   -4.88450E+004    5.39809E+004
            5003    3.18631E+006    3.13855E+006    3.13855E+006    1.74704E+004   -1.09214E+005    3.24776E+006   -1.01560E+006    3.18064E+006   -6.93768E+004   -5.92913E+003    3.12211E+006   -6.39887E+004    1.01605E+005   -2.01812E+005
            5004    3.68555E+006    3.67021E+006    3.67021E+006    9.53726E+003   -3.97185E+004    3.70993E+006   -1.21334E+006    3.68481E+006    1.59916E+004   -3.20380E+004    3.65608E+006   -7.14537E+003    1.53415E+005   -1.68476E+005
            5005    4.09230E+006    4.12608E+006    4.12608E+006    1.07769E+005   -3.63947E+004    4.16247E+006   -1.39915E+006    4.08658E+006    1.08198E+005   -2.57360E+004    4.11499E+006    3.18276E+004    1.98169E+005   -7.54260E+004
            5006    4.28366E+006    4.35321E+006    4.35321E+006    1.85140E+005   -3.73668E+004    4.39057E+006   -1.50033E+006    4.27063E+006    1.79231E+005   -1.84810E+004    4.34023E+006    6.34590E+004    2.30045E+005    3.25680E+004
            5007    4.14298E+006    4.23714E+006    4.23714E+006    2.19046E+005   -2.03399E+004    4.25748E+006   -1.47862E+006    4.12738E+006    2.11383E+005    4.70955E+003    4.21976E+006    7.54267E+004    2.34594E+005    1.20999E+005
            5008    4.03644E+006    4.04996E+006    4.04996E+006    8.17793E+004   -5.14275E+004    4.10139E+006   -1.36011E+006    4.03149E+006    7.31070E+004    2.42528E+004    3.98296E+006   -7.98242E+004    2.45006E+005   -4.52146E+005
            5009    4.14654E+006    4.12881E+006    4.12881E+006    1.06084E+005   -1.31342E+005    4.26015E+006   -1.36785E+006    4.13120E+006    1.12514E+005   -8.79851E+004    4.07902E+006    2.97653E+004    2.80785E+005   -3.58676E+005
            5010    4.20307E+006    4.19359E+006    4.19359E+006    2.23637E+005   -2.09126E+005    4.40271E+006   -1.40270E+006    4.15251E+006    1.80873E+005   -1.42664E+005    4.16989E+006    1.45453E+005    2.90849E+005   -1.16996E+005
            5011    4.12135E+006    4.13521E+006    4.13521E+006    3.08302E+005   -2.28061E+005    4.36328E+006   -1.40515E+006    4.04171E+006    2.32233E+005   -1.22586E+005    4.10581E+006    2.18880E+005    2.66593E+005    2.03081E+005
            5012    3.84283E+006    3.92406E+006    3.92406E+006    3.72829E+005   -1.55656E+005    4.07972E+006   -1.38041E+006    3.75976E+006    2.78769E+005   -3.87707E+003    3.86634E+006    2.41702E+005    2.36776E+005    3.91275E+005
            5013    4.97639E+006    4.99159E+006    4.99159E+006    1.37776E+005   -9.89183E+004    5.09051E+006   -1.67682E+006    4.96370E+006    1.49412E+005   -2.17490E+004    4.90279E+006   -1.12750E+005    4.01073E+005   -5.18408E+005
            5014    4.93836E+006    4.84228E+006    4.84228E+006    2.23387E+005   -3.63153E+005    5.20543E+006   -1.56751E+006    4.85907E+006    2.15963E+005   -2.91361E+005    4.77791E+006    1.35954E+005    4.55540E+005   -3.29767E+005
            5015    4.70001E+006    4.49889E+006    4.49889E+006    2.97923E+005   -5.77171E+005    5.07606E+006   -1.40655E+006    4.51123E+006    2.19875E+005   -4.58574E+005    4.45834E+006    3.06751E+005    3.98363E+005    1.02172E+005
            5016    4.27686E+006    4.15093E+006    4.15093E+006    3.96595E+005   -5.04772E+005    4.65571E+006   -1.34759E+006    4.05481E+006    2.74759E+005   -2.91500E+005    4.05950E+006    3.83153E+005    3.30902E+005    4.94844E+005
            5017    3.82411E+006    3.78631E+006    3.78631E+006    4.65152E+005   -3.94443E+005    4.18075E+006   -1.28567E+006    3.59698E+006    3.11954E+005   -7.22386E+004    3.61730E+006    4.11661E+005    2.64636E+005    7.21694E+005
            5018    6.58840E+006    6.69754E+006    6.69754E+006    6.27475E+005   -3.08991E+005    7.00653E+006   -2.33867E+006    6.43611E+006    5.85131E+005   -1.18636E+005    6.54953E+006    3.21741E+005    9.10712E+005   -3.37366E+005
            5019    6.23509E+006    5.86718E+006    5.86718E+006    6.23055E+005   -1.02697E+006    6.89415E+006   -1.82109E+006    5.71210E+006    5.19010E+005   -8.04779E+005    5.74904E+006    5.73115E+005    7.86650E+005    4.26053E+004
            5020    5.51441E+006    5.08554E+006    5.08554E+006    6.61858E+005   -1.09266E+006    6.17820E+006   -1.55158E+006    4.82373E+006    5.28837E+005   -8.13787E+005    4.93968E+006    6.55361E+005    6.05063E+005    5.29662E+005
            5021    4.83707E+006    4.46371E+006    4.46371E+006    6.78922E+005   -9.85905E+005    5.44961E+006   -1.38557E+006    4.11417E+006    5.24180E+005   -5.74274E+005    4.20682E+006    6.89605E+005    4.68474E+005    9.12610E+005
            5022    4.09638E+006    3.87936E+006    3.87936E+006    7.19168E+005   -7.48718E+005    4.62808E+006   -1.28327E+006    3.42487E+006    5.46287E+005   -1.74011E+005    3.47754E+006    6.77261E+005    3.36989E+005    1.13154E+006
            5023    4.82940E+006    4.03610E+006    4.03610E+006    7.80401E+005   -1.51265E+006    5.54875E+006   -1.10128E+006    3.21502E+006    7.40462E+005   -8.58458E+005    3.42184E+006    6.98873E+005    3.64222E+005    1.57334E+006
            5024    5.85294E+006    4.82286E+006    4.82286E+006    8.60610E+005   -1.89982E+006    6.72268E+006   -1.26122E+006    3.93409E+006    8.28346E+005   -1.45870E+006    4.41401E+006    7.53860E+005    5.22612E+005    1.34715E+006
            5025    6.84710E+006    5.70981E+006    5.70981E+006    9.92237E+005   -2.14363E+006    7.85344E+006   -1.51947E+006    4.78056E+006    9.65157E+005   -1.87268E+006    5.46594E+006    8.04360E+005    7.25809E+005    8.71507E+005
            5026    7.69831E+006    6.69033E+006    6.69033E+006    1.19476E+006   -2.10832E+006    8.79865E+006   -1.92559E+006    5.74521E+006    1.18351E+006   -1.89962E+006    6.49288E+006    8.27081E+005    9.69725E+005    3.29657E+005
            5027    8.58098E+006    8.11158E+006    8.11158E+006    1.49077E+006   -1.58294E+006    9.69452E+006   -2.67313E+006    7.17558E+006    1.52687E+006   -1.34684E+006    7.83938E+006    7.66306E+005    1.33173E+006   -3.18680E+005
            5028    9.41591E+006    9.59625E+006    9.59625E+006    2.00342E+006   -9.39678E+005    1.05359E+007   -3.55333E+006    8.28212E+006    2.03557E+006   -5.56510E+005    9.18093E+006    7.53027E+005    1.64862E+006   -9.14315E+005
            5029    1.03766E+007    1.13796E+007    1.13796E+007    2.83374E+006   -1.66522E+005    1.15461E+007   -4.68227E+006    9.32320E+006    2.88387E+006    4.63252E+005    1.06997E+007    7.81397E+005    2.12517E+006   -1.46363E+006
            5030    9.98112E+006    1.12218E+007    1.12218E+007    1.49502E+006    1.00440E+006    1.02174E+007   -4.57373E+006    9.95393E+006    1.28603E+006    1.48459E+006    1.09506E+007    4.73252E+004    1.58340E+006   -4.36060E+005
            5031    9.22340E+006    1.01619E+007    1.01619E+007    1.48905E+006    4.72221E+005    9.68968E+006   -4.04106E+006    9.09601E+006    6.53382E+005    1.31520E+006    1.01546E+007   -3.87005E+005    2.33457E+005   -1.08424E+005
            5032    8.20730E+006    8.91001E+006    8.91001E+006    8.36116E+005    5.75523E+005    8.33449E+006   -3.44055E+006    8.19798E+006    7.74814E+005    8.24750E+005    8.72209E+006    2.73161E+004    1.18095E+006   -3.69125E+005
            5033    7.31888E+006    7.96522E+006    7.96522E+006    1.22791E+006    1.78135E+005    7.78708E+006   -3.12375E+006    7.14655E+006    3.91696E+005    1.02129E+006    7.95827E+006   -4.23574E+005    1.54393E+005   -1.53429E+005
            5034    5.92631E+006    6.37116E+006    6.37116E+006    9.84681E+005    2.27176E+004    6.34844E+006   -2.45952E+006    5.74671E+006    2.65186E+005    7.55795E+005    6.35758E+006   -4.20931E+005    1.83995E+005   -1.99221E+005
            5035    4.69700E+006    4.93010E+006    4.93010E+006    6.86951E+005   -1.16975E+005    5.04707E+006   -1.83336E+006    4.53832E+006    1.09218E+005    4.70986E+005    4.91987E+006   -3.64588E+005    1.26537E+005   -1.65380E+005
            5036    3.63934E+006    3.68368E+006    3.68368E+006    3.75791E+005   -2.14852E+005    3.89854E+006   -1.28154E+006    3.52909E+006   -2.95157E+004    1.98591E+005    3.67555E+006   -2.76111E+005    4.58533E+004   -1.58546E+005
            5037    2.48931E+006    2.41502E+006    2.41502E+006    8.36957E+004   -2.06793E+005    2.62181E+006   -7.63974E+005    2.45075E+006   -1.58480E+005    3.69311E+004    2.41347E+006   -1.08511E+005    2.23429E+004   -5.57671E+004
            5038    6.39889E+006    6.76329E+006    6.76329E+006    4.67823E+005    2.65768E+005    6.49752E+006   -2.49896E+006    6.39170E+006    3.76433E+005    4.53399E+005    6.66705E+006   -1.25202E+005    6.59312E+005   -4.08679E+005
            5039    4.84255E+006    4.98069E+006    4.98069E+006    3.75049E+005   -6.82808E+004    5.04897E+006   -1.76249E+006    4.79657E+006    1.23901E+005    2.43456E+005    4.92010E+006   -2.44171E+005    2.82766E+005   -4.42396E+005
            5040    3.85906E+006    3.88095E+006    3.88095E+006    2.34252E+005   -1.60179E+005    4.04113E+006   -1.31834E+006    3.81331E+006    4.20197E+003    1.18833E+005    3.83199E+006   -2.11058E+005    1.65335E+005   -3.87472E+005
            5041    2.74573E+006    2.68491E+006    2.68491E+006    5.77672E+004   -1.65748E+005    2.85066E+006   -8.58977E+005    2.72515E+006   -1.25266E+005    2.76882E+004    2.67451E+006   -8.84170E+004    5.71774E+004   -1.54810E+005
            5042    3.62669E+006    3.56694E+006    3.56694E+006    1.25074E+004   -1.27935E+005    3.69487E+006   -1.15050E+006    3.62056E+006   -4.39495E+003   -8.56996E+004    3.54160E+006    6.30961E+004   -1.47619E+005   -2.62392E+005
            5043    4.12858E+006    4.11374E+006    4.11374E+006    9.48579E+004   -1.16432E+005    4.23017E+006   -1.36405E+006    4.11639E+006    9.79270E+004   -1.02828E+005    4.09707E+006   -3.46634E+004   -2.18916E+005   -1.43241E+005
            5044    4.34227E+006    4.35478E+006    4.35478E+006    1.84223E+005   -1.40931E+005    4.49571E+006   -1.46602E+006    4.31475E+006    1.68878E+005   -1.10518E+005    4.33971E+006   -9.70495E+004   -2.36734E+005    8.10780E+004
            5045    4.06791E+006    4.17340E+006    4.17340E+006    2.45989E+005   -2.17800E+004    4.19518E+006   -1.46587E+006    4.04801E+006    2.23879E+005    2.56072E+004    4.14812E+006   -1.03469E+005   -2.27553E+005    2.18610E+005
            5046    4.75435E+006    4.77872E+006    4.77872E+006    2.29776E+005   -1.57363E+005    4.93608E+006   -1.61704E+006    4.71869E+006    1.83411E+005   -4.02143E+004    4.70794E+006   -1.29881E+005   -4.57044E+005   -3.62139E+005
            5047    4.68279E+006    4.51195E+006    4.51195E+006    3.44222E+005   -5.55372E+005    5.06733E+006   -1.43360E+006    4.48215E+006    2.07809E+005   -3.77480E+005    4.47047E+006   -3.65745E+005   -4.07694E+005    8.32801E+004
            5048    4.21796E+006    4.15097E+006    4.15097E+006    4.75290E+005   -4.54227E+005    4.60520E+006   -1.39068E+006    3.97761E+006    2.90075E+005   -1.64430E+005    4.04639E+006   -4.39937E+005   -3.12976E+005    5.45594E+005
            5049    3.78164E+006    3.81189E+006    3.81189E+006    5.49066E+005   -3.32738E+005    4.14463E+006   -1.34274E+006    3.53906E+006    3.36581E+005    6.46395E+004    3.62700E+006   -4.59457E+005   -2.65065E+005    7.44111E+005
            5050    4.43734E+006    3.91421E+006    3.91421E+006    7.45593E+005   -1.15720E+006    5.07141E+006   -1.16753E+006    3.31326E+006    6.79597E+005   -5.34501E+005    3.35750E+006   -6.55158E+005   -3.31760E+005    1.43477E+006
            5051    5.26359E+006    4.51918E+006    4.51918E+006    7.52778E+005   -1.49513E+006    6.01431E+006   -1.25894E+006    3.94411E+006    6.92338E+005   -1.08533E+006    4.16981E+006   -6.88542E+005   -4.65221E+005    1.18309E+006
            5052    6.02440E+006    5.15199E+006    5.15199E+006    7.65872E+005   -1.71705E+006    6.86904E+006   -1.40027E+006    4.64411E+006    7.11379E+005   -1.46321E+006    4.95264E+006   -6.95197E+005   -6.09479E+005    7.72209E+005
            5053    6.81182E+006    6.18043E+006    6.18043E+006    8.94764E+005   -1.50692E+006    7.68735E+006   -1.85609E+006    5.73612E+006    8.62455E+005   -1.32170E+006    6.02752E+006   -6.58529E+005   -8.80802E+005    1.19211E+005
            5054    7.79185E+006    7.61656E+006    7.61656E+006    1.31483E+006   -1.09570E+006    8.71226E+006   -2.61190E+006    6.87471E+006    1.32552E+006   -8.79123E+005    7.38930E+006   -6.06905E+005   -1.16533E+006   -4.22515E+005
            5055    9.02998E+006    9.23662E+006    9.23662E+006    1.90287E+006   -8.49177E+005    1.00858E+007   -3.43010E+006    8.00157E+006    1.94234E+006   -4.86543E+005    8.83452E+006   -6.71244E+005   -1.56019E+006   -9.56441E+005
            5056    1.01636E+007    1.10450E+007    1.10450E+007    2.66857E+006   -2.61786E+005    1.13068E+007   -4.48393E+006    9.13815E+006    2.71129E+006    3.31127E+005    1.04094E+007   -7.67570E+005   -2.04343E+006   -1.38503E+006
            5057    1.10025E+007    1.30065E+007    1.30065E+007    3.68457E+006    8.70213E+005    1.21363E+007   -5.85376E+006    1.01441E+007    3.74594E+006    1.75212E+006    1.20632E+007   -7.53880E+005   -2.58488E+006   -1.78594E+006
            5058    1.13376E+007    1.30561E+007    1.30561E+007    2.07671E+006    1.39149E+006    1.16646E+007   -5.50811E+006    1.12908E+007    1.71943E+006    2.06957E+006    1.27353E+007   -5.31693E+004   -1.86458E+006   -4.02607E+005
            5059    1.07928E+007    1.19789E+007    1.19789E+007    1.69817E+006    7.38130E+005    1.12407E+007   -4.80505E+006    1.06961E+007    8.87917E+005    1.55621E+006    1.19710E+007    3.44539E+005   -2.71950E+005   -1.01539E+005
            5060    9.54584E+006    1.06750E+007    1.06750E+007    1.37949E+006    8.97104E+005    9.77788E+006   -4.31719E+006    9.51836E+006    1.13033E+006    1.39113E+006    1.04301E+007    2.73884E+003   -1.46281E+006   -4.37778E+005
            5061    8.81265E+006    9.64172E+006    9.64172E+006    1.37555E+006    3.69029E+005    9.27269E+006   -3.79543E+006    8.68192E+006    5.68118E+005    1.18405E+006    9.63413E+006    4.01450E+005   -1.92288E+005   -1.63824E+005
            5062    7.96848E+006    8.57439E+006    8.57439E+006    7.04893E+005    5.10483E+005    8.06390E+006   -3.26325E+006    7.96314E+006    6.60288E+005    7.24236E+005    8.40524E+006    4.08465E+004   -1.08399E+006   -3.97270E+005
            5063    6.87657E+006    7.42798E+006    7.42798E+006    1.11790E+006    9.86908E+004    7.32929E+006   -2.88152E+006    6.70347E+006    3.22283E+005    8.98168E+005    7.42412E+006    4.22525E+005   -1.06545E+005   -1.14919E+005
            5064    6.13217E+006    6.37869E+006    6.37869E+006    3.30502E+005    1.65850E+005    6.21284E+006   -2.29168E+006    6.12719E+006    2.62546E+005    3.28987E+005    6.28351E+006    8.71395E+004   -6.92027E+005   -3.09672E+005
            5065    5.31787E+006    5.64233E+006    5.64233E+006    8.50152E+005   -7.88317E+004    5.72116E+006   -2.13788E+006    5.13053E+006    1.70102E+005    6.12495E+005    5.63105E+006    4.13265E+005   -3.56838E+004   -2.32262E+005
            5066    4.11799E+006    4.23667E+006    4.23667E+006    5.15805E+005   -1.87782E+005    4.42446E+006   -1.52157E+006    3.97938E+006    4.15492E+004    3.01476E+005    4.22167E+006    3.34105E+005   -8.08860E+004   -2.22779E+005
            5067    2.65116E+006    2.59896E+006    2.59896E+006    1.41447E+005   -2.10667E+005    2.80962E+006   -8.43246E+005    2.59777E+006   -1.45939E+005    8.09420E+004    2.59473E+006    1.37386E+005   -4.15510E+004   -9.29296E+004
            5068    4.55778E+006    4.61208E+006    4.61208E+006    1.98592E+005   -7.74483E+004    4.68953E+006   -1.57774E+006    4.53892E+006    5.07561E+004    1.42239E+005    4.54023E+006    1.67499E+005   -3.11202E+005   -4.63914E+005
            5069    3.05731E+006    3.00017E+006    3.00017E+006    4.04883E+004   -1.46198E+005    3.14637E+006   -9.64821E+005    3.04444E+006   -8.81073E+004    4.08266E+003    2.97849E+006    9.25307E+004   -8.99555E+004   -2.36191E+005
            5070    3.72630E+006    3.24736E+006    3.24736E+006    7.13168E+005   -1.03117E+006    4.27853E+006   -9.76453E+005    2.53054E+006    6.64218E+005   -2.15824E+005    2.48097E+006    6.13781E+005    2.27574E+005    1.51942E+006
            5071    3.30176E+006    3.24337E+006    3.24337E+006    7.32231E+005   -4.96612E+005    3.73998E+006   -1.15966E+006    2.71054E+006    5.30011E+005    1.53287E+005    2.79569E+006    6.27139E+005    2.29454E+005    1.07005E+006
            5072    3.24698E+006    3.31411E+006    3.31411E+006    5.24949E+005   -2.50339E+005    3.56445E+006   -1.19624E+006    3.02805E+006    3.37017E+005    1.35853E+005    3.11585E+006    4.04075E+005    1.97749E+005    7.33567E+005
            5073    3.42971E+006    3.54759E+006    3.54759E+006    3.99372E+005   -1.07246E+005    3.65484E+006   -1.27991E+006    3.34397E+006    2.90520E+005    6.81638E+004    3.48103E+006    2.43088E+005    1.91306E+005    4.23310E+005
            5074    3.73128E+006    3.83233E+006    3.83233E+006    2.17053E+005   -5.03805E+003    3.83737E+006   -1.34811E+006    3.71637E+006    2.03600E+005    2.51784E+004    3.81556E+006    7.81207E+004    2.05075E+005    1.35901E+005
            5075    2.50330E+006    2.35053E+006    2.35053E+006    6.43370E+005   -5.23127E+005    2.87366E+006   -8.23590E+005    1.71033E+006    5.58521E+005    2.32467E+005    1.67978E+006    5.23401E+005    1.19205E+005    1.10648E+006
            5076    2.43761E+006    2.53687E+006    2.53687E+006    7.79033E+005   -2.45851E+005    2.78272E+006   -1.02335E+006    1.85041E+006    4.97183E+005    3.57956E+005    2.21491E+006    5.60110E+005    1.28197E+005    7.62092E+005
            5077    2.62575E+006    2.77358E+006    2.77358E+006    5.83428E+005   -1.37253E+005    2.91084E+006   -1.07325E+006    2.38758E+006    3.30768E+005    2.42410E+005    2.64658E+006    3.82896E+005    1.22154E+005    5.27434E+005
            5078    2.94129E+006    3.08983E+006    3.08983E+006    4.17453E+005   -6.15634E+004    3.15139E+006   -1.14857E+006    2.85154E+006    2.80218E+005    1.16287E+005    3.04921E+006    2.34731E+005    1.24704E+005    3.11493E+005
            5079    3.27355E+006    3.36930E+006    3.36930E+006    2.07191E+005   -5.32277E+003    3.37463E+006   -1.19039E+006    3.25797E+006    1.84042E+005    2.75151E+004    3.35961E+006    7.80685E+004    1.40763E+005    1.04170E+005
            5080    1.28223E+006    1.41438E+006    1.41438E+006    7.31907E+005   -6.47440E+004    1.47913E+006   -6.93848E+005   -6.54862E+005    4.62013E+005    4.50181E+005    1.16935E+006    4.57824E+005    3.42723E+004    4.09452E+005
            5081    1.75203E+006    1.94303E+006    1.94303E+006    9.04043E+005   -7.97889E+004    2.02282E+006   -9.22429E+005    6.33209E+005    4.52290E+005    4.33126E+005    1.88187E+006    5.08519E+005    4.13534E+004    2.69102E+005
            5082    2.19291E+006    2.39836E+006    2.39836E+006    6.44016E+005   -6.01293E+004    2.45848E+006   -9.94081E+005    1.91258E+006    3.19835E+005    2.83812E+005    2.37859E+006    3.56522E+005    4.12891E+004    1.90130E+005
            5083    2.62462E+006    2.78952E+006    2.78952E+006    4.27283E+005   -3.58407E+004    2.82536E+006   -1.06032E+006    2.53023E+006    2.67813E+005    1.29707E+005    2.78344E+006    2.22564E+005    4.38211E+004    1.14603E+005
            5084    2.96840E+006    3.06344E+006    3.06344E+006    2.00820E+005   -4.87383E+002    3.06393E+006   -1.08792E+006    2.95298E+006    1.68629E+005    3.30808E+004    3.06206E+006    7.52575E+004    5.02405E+004    3.77982E+004
            5085    1.11354E+007    1.32624E+007    1.32624E+007    3.81312E+006    9.85822E+005    1.22765E+007   -6.02043E+006    1.02803E+007    3.87812E+006    1.90399E+006    1.22792E+007    7.61019E+005   -2.66318E+006    1.81866E+006
            5086    1.16888E+007    1.36001E+007    1.36001E+007    2.29271E+006    1.56400E+006    1.20361E+007   -5.81894E+006    1.16375E+007    1.92645E+006    2.28151E+006    1.32489E+007    6.46947E+004   -1.98170E+006    4.20849E+005
            5087    1.13628E+007    1.26598E+007    1.26598E+007    1.78662E+006    8.63649E+005    1.17962E+007   -5.10336E+006    1.12780E+007    1.00157E+006    1.65919E+006    1.26493E+007   -3.23013E+005   -3.27215E+005    1.10793E+005
            5088    1.13687E+007    1.49652E+007    1.49652E+007    4.91610E+006    2.62573E+006    1.23395E+007   -7.50236E+006    1.08312E+007    5.01375E+006    3.76992E+006    1.37234E+007    6.10437E+005   -3.17333E+006    1.79634E+006
            5089    1.32890E+007    1.58449E+007    1.58449E+007    3.01130E+006    2.14293E+006    1.37019E+007   -6.99970E+006    1.32250E+007    2.57837E+006    2.99826E+006    1.54225E+007    7.58429E+004   -2.34493E+006    3.32249E+005
            5090    1.32884E+007    1.49525E+007    1.49525E+007    2.06747E+006    1.29448E+006    1.36581E+007   -6.10483E+006    1.32377E+007    1.37608E+006    1.99889E+006    1.49395E+007   -2.22521E+005   -4.13739E+005    6.63066E+004
            5091    1.11673E+007    1.60971E+007    1.60971E+007    5.76083E+006    4.25214E+006    1.18450E+007   -8.70337E+006    1.09345E+007    5.93273E+006    5.40791E+006    1.47694E+007    3.34811E+005   -3.54096E+006    1.11907E+006
            5092    1.43813E+007    1.74446E+007    1.74446E+007    3.54518E+006    2.62552E+006    1.48191E+007   -7.87176E+006    1.43149E+007    3.10154E+006    3.54125E+006    1.69725E+007    4.27551E+004   -2.59652E+006    1.76364E+005
            5093    1.46814E+007    1.66169E+007    1.66169E+007    2.25145E+006    1.63868E+006    1.49782E+007   -6.83566E+006    1.46526E+007    1.67291E+006    2.23319E+006    1.66009E+007   -1.05670E+005   -4.86927E+005    3.49000E+004
            5094    1.09983E+007    1.64523E+007    1.64523E+007    6.03601E+006    4.95229E+006    1.15000E+007   -9.14686E+006    1.08772E+007    6.27074E+006    6.03493E+006    1.51349E+007   -1.89114E+004   -3.66200E+006   -5.85941E+004
            5095    1.47281E+007    1.79400E+007    1.79400E+007    3.69775E+006    2.76989E+006    1.51701E+007   -8.13588E+006    1.46622E+007    3.25478E+006    3.69769E+006    1.74552E+007   -5.46043E+003   -2.66804E+006   -3.66135E+004
            5096    1.51021E+007    1.71176E+007    1.71176E+007    2.29923E+006    1.74693E+006    1.53707E+007   -7.05460E+006    1.50794E+007    1.76379E+006    2.29891E+006    1.71011E+007    1.36835E+004   -5.03860E+005   -7.55450E+003
            5097    1.11756E+007    1.59944E+007    1.59944E+007    5.68553E+006    4.11760E+006    1.18768E+007   -8.59917E+006    1.09240E+007    5.84441E+006    5.27327E+006    1.46798E+007   -3.63850E+005   -3.50101E+006   -1.19565E+006
            5098    1.42189E+007    1.71662E+007    1.71662E+007    3.42054E+006    2.51721E+006    1.46490E+007   -7.70133E+006    1.41541E+007    2.98216E+006    3.41336E+006    1.67085E+007   -5.76427E+004   -2.53855E+006   -2.27877E+005
            5099    1.43943E+007    1.62607E+007    1.62607E+007    2.19729E+006    1.55688E+006    1.47038E+007   -6.67162E+006    1.43622E+007    1.59973E+006    2.16906E+006    1.62461E+007    1.33190E+005   -4.60559E+005   -4.19562E+004
            5100    1.13350E+007    1.47766E+007    1.47766E+007    4.78079E+006    2.46134E+006    1.23153E+007   -7.33958E+006    1.07815E+007    4.87380E+006    3.57664E+006    1.35683E+007   -6.22718E+005   -3.11230E+006   -1.79846E+006
            5101    1.29855E+007    1.53743E+007    1.53743E+007    2.81976E+006    1.99700E+006    1.33773E+007   -6.73036E+006    1.29267E+007    2.40514E+006    2.80957E+006    1.49764E+007   -6.50110E+004   -2.24589E+006   -3.47892E+005
            5102    1.27973E+007    1.43462E+007    1.43462E+007    1.97281E+006    1.16339E+006    1.31828E+007   -5.82746E+006    1.27395E+007    1.25583E+006    1.89179E+006    1.43348E+007    2.46016E+005   -3.76981E+005   -7.71550E+004
            5103    3.73720E+006    3.83811E+006    3.83811E+006    2.17874E+005   -5.99830E+003    3.84410E+006   -1.34999E+006    3.72207E+006    2.04560E+005    2.41052E+004    3.82132E+006    7.83218E+004   -2.05585E+005   -1.35781E+005
            5104    3.43000E+006    3.54753E+006    3.54753E+006    3.99943E+005   -1.08191E+005    3.65572E+006   -1.27976E+006    3.34374E+006    2.90484E+005    6.83220E+004    3.48047E+006    2.44013E+005   -1.91221E+005   -4.25232E+005
            5105    3.24548E+006    3.31091E+006    3.31091E+006    5.26868E+005   -2.53652E+005    3.56456E+006   -1.19471E+006    3.02329E+006    3.38024E+005    1.35419E+005    3.11069E+006    4.06686E+005   -1.97677E+005   -7.36940E+005
            5106    3.29873E+006    3.23736E+006    3.23736E+006    7.32630E+005   -5.00234E+005    3.73760E+006   -1.15659E+006    2.70221E+006    5.31600E+005    1.53187E+005    2.78497E+006    6.28131E+005   -2.28109E+005   -1.07522E+006
            5107    3.72590E+006    3.24561E+006    3.24561E+006    7.13865E+005   -1.03274E+006    4.27835E+006   -9.75579E+005    2.52547E+006    6.65017E+005   -2.15590E+005    2.47731E+006    6.13748E+005   -2.26737E+005   -1.52121E+006
            5108    3.27563E+006    3.37167E+006    3.37167E+006    2.06063E+005   -3.89490E+003    3.37556E+006   -1.19128E+006    3.26044E+006    1.83388E+005    2.84260E+004    3.36202E+006    7.70349E+004   -1.40927E+005   -1.03437E+005
            5109    2.94552E+006    3.09444E+006    3.09444E+006    4.16088E+005   -6.02013E+004    3.15465E+006   -1.15011E+006    2.85696E+006    2.80306E+005    1.15607E+005    3.05442E+006    2.33027E+005   -1.24676E+005   -3.09225E+005
            5110    2.62836E+006    2.77705E+006    2.77705E+006    5.84021E+005   -1.36400E+005    2.91345E+006   -1.07489E+006    2.39065E+006    3.32361E+005    2.42348E+005    2.64996E+006    3.82527E+005   -1.22249E+005   -5.28040E+005
            5111    2.43213E+006    2.52833E+006    2.52833E+006    7.76176E+005   -2.48465E+005    2.77679E+006   -1.01868E+006    1.84325E+006    4.95688E+005    3.56868E+005    2.20349E+006    5.60032E+005   -1.27442E+005   -7.64353E+005
            5112    2.50739E+006    2.34812E+006    2.34812E+006    6.40352E+005   -5.30521E+005    2.87864E+006   -8.19317E+005    1.70836E+006    5.56475E+005    2.29676E+005    1.67180E+006    5.23473E+005   -1.18308E+005   -1.11171E+006
            5113    2.97008E+006    3.06382E+006    3.06382E+006    1.99579E+005   -1.85227E+003    3.06567E+006   -1.08718E+006    2.95466E+006    1.67830E+005    3.12916E+004    3.06242E+006    7.49031E+004   -5.06727E+004   -3.79214E+004
            5114    2.62855E+006    2.79272E+006    2.79272E+006    4.25560E+005   -3.60691E+004    2.82879E+006   -1.06074E+006    2.53494E+006    2.67252E+005    1.28317E+005    2.78664E+006    2.21645E+005   -4.39149E+004   -1.14716E+005
            5115    2.19192E+006    2.39715E+006    2.39715E+006    6.43603E+005   -6.02290E+004    2.45738E+006   -9.93507E+005    1.91172E+006    3.18948E+005    2.83979E+005    2.37760E+006    3.56358E+005   -4.11254E+004   -1.89040E+005
            5116    1.74782E+006    1.94232E+006    1.94232E+006    9.07719E+005   -7.56740E+004    2.01800E+006   -9.24789E+005    6.16744E+005    4.55061E+005    4.36990E+005    1.88232E+006    5.08109E+005   -4.12604E+004   -2.65883E+005
            5117    1.28545E+006    1.42108E+006    1.42108E+006    7.34586E+005   -6.18775E+004    1.48295E+006   -6.97928E+005   -6.47853E+005    4.65844E+005    4.52166E+005    1.17577E+006    4.57201E+005   -3.43170E+004   -4.11443E+005
            5118    8.57574E+006    8.11044E+006    8.11044E+006    1.48968E+006   -1.57704E+006    9.68748E+006   -2.67436E+006    7.17658E+006    1.52849E+006   -1.34337E+006    7.83796E+006    7.61935E+005   -1.33232E+006    3.15970E+005
            5119    7.69578E+006    6.68759E+006    6.68759E+006    1.19513E+006   -2.10840E+006    8.79599E+006   -1.92478E+006    5.74097E+006    1.18492E+006   -1.90030E+006    6.48972E+006    8.26050E+005   -9.70478E+005   -3.29860E+005
            5120    6.82996E+006    5.69772E+006    5.69772E+006    9.92641E+005   -2.13616E+006    7.83388E+006   -1.51806E+006    4.76716E+006    9.66116E+005   -1.86472E+006    5.45280E+006    8.02816E+005   -7.24276E+005   -8.74843E+005
            5121    5.84369E+006    4.81652E+006    4.81652E+006    8.60590E+005   -1.89554E+006    6.71207E+006   -1.26052E+006    3.92774E+006    8.28222E+005   -1.45293E+006    4.40627E+006    7.54240E+005   -5.22076E+005   -1.34861E+006
            5122    4.81448E+006    4.02647E+006    4.02647E+006    7.79931E+005   -1.50502E+006    5.53149E+006   -1.10046E+006    3.20717E+006    7.39958E+005   -8.49558E+005    3.41098E+006    6.98095E+005   -3.63154E+005   -1.57215E+006
            5123    4.10906E+006    3.88737E+006    3.88737E+006    7.19322E+005   -7.55571E+005    4.64294E+006   -1.28371E+006    3.43286E+006    5.47839E+005   -1.81245E+005    3.48452E+006    6.78207E+005   -3.38355E+005   -1.13494E+006
            5124    3.83108E+006    3.78917E+006    3.78917E+006    4.66601E+005   -4.01463E+005    4.19063E+006   -1.28477E+006    3.59970E+006    3.13126E+005   -7.64390E+004    3.61762E+006    4.15157E+005   -2.66018E+005   -7.27799E+005
            5125    3.84260E+006    3.92184E+006    3.92184E+006    3.74795E+005   -1.60238E+005    4.08208E+006   -1.37880E+006    3.75743E+006    2.79339E+005   -6.24899E+003    3.86330E+006    2.44782E+005   -2.37257E+005   -3.94557E+005
            5126    4.14155E+006    4.23667E+006    4.23667E+006    2.20257E+005   -1.95946E+004    4.25627E+006   -1.47911E+006    4.12588E+006    2.12113E+005    5.87672E+003    4.21935E+006    7.61036E+004   -2.34243E+005   -1.20553E+005
            5127    4.84965E+006    4.47293E+006    4.47293E+006    6.78903E+005   -9.91026E+005    5.46396E+006   -1.38694E+006    4.12410E+006    5.24912E+005   -5.82795E+005    4.21869E+006    6.89330E+005   -4.70580E+005   -9.06747E+005
            5128    4.29065E+006    4.16133E+006    4.16133E+006    3.98160E+005   -5.11062E+005    4.67239E+006   -1.34948E+006    4.06534E+006    2.76148E+005   -2.97695E+005    4.06997E+006    3.85522E+005   -3.33449E+005   -4.93549E+005
            5129    4.12227E+006    4.13632E+006    4.13632E+006    3.10035E+005   -2.28906E+005    4.36523E+006   -1.40582E+006    4.04187E+006    2.33637E+005   -1.22833E+005    4.10665E+006    2.20064E+005   -2.68211E+005   -2.03372E+005
            5130    4.28115E+006    4.35049E+006    4.35049E+006    1.85827E+005   -3.83446E+004    4.38884E+006   -1.49932E+006    4.26792E+006    1.79446E+005   -1.89468E+004    4.33747E+006    6.45078E+004   -2.30174E+005   -3.34924E+004
            5131    5.54637E+006    5.11430E+006    5.11430E+006    6.64578E+005   -1.09957E+006    6.21387E+006   -1.55977E+006    4.85217E+006    5.32819E+005   -8.22669E+005    4.96916E+006    6.56583E+005   -6.12694E+005   -5.19877E+005
            5132    4.72023E+006    4.51640E+006    4.51640E+006    2.98490E+005   -5.82118E+005    5.09852E+006   -1.41092E+006    4.52986E+006    2.21135E+005   -4.63721E+005    4.47536E+006    3.07536E+005   -4.02934E+005   -9.79490E+004
            5133    4.20948E+006    4.19807E+006    4.19807E+006    2.25910E+005   -2.14162E+005    4.41223E+006   -1.40327E+006    4.15725E+006    1.82135E+005   -1.46772E+005    4.17445E+006    1.48449E+005   -2.92042E+005    1.12346E+005
            5134    4.09777E+006    4.13086E+006    4.13086E+006    1.08702E+005   -3.85490E+004    4.16941E+006   -1.40034E+006    4.09181E+006    1.08776E+005   -2.74514E+004    4.11969E+006    3.30077E+004   -1.99181E+005    7.53658E+004
            5135    6.24900E+006    5.88295E+006    5.88295E+006    6.26370E+005   -1.02626E+006    6.90921E+006   -1.82769E+006    5.72557E+006    5.22682E+005   -8.03664E+005    5.76404E+006    5.73858E+005   -7.90439E+005   -4.01901E+004
            5136    4.95206E+006    4.85576E+006    4.85576E+006    2.24232E+005   -3.64247E+005    5.22000E+006   -1.57191E+006    4.87246E+006    2.17556E+005   -2.92545E+005    4.79073E+006    1.35316E+005   -4.57888E+005    3.32690E+005
            5137    4.15478E+006    4.13792E+006    4.13792E+006    1.09546E+005   -1.32661E+005    4.27058E+006   -1.37160E+006    4.13885E+006    1.15464E+005   -8.85898E+004    4.08793E+006    3.19533E+004   -2.84011E+005    3.57949E+005
            5138    3.69571E+006    3.68362E+006    3.68362E+006    1.33865E+004   -3.70452E+004    3.72067E+006   -1.21999E+006    3.69494E+006    1.99385E+004   -2.95496E+004    3.66958E+006   -6.37374E+003   -1.54885E+005    1.66607E+005
            5139    6.59392E+006    6.70244E+006    6.70244E+006    6.26751E+005   -3.09614E+005    7.01205E+006   -2.33986E+006    6.44179E+006    5.84828E+005   -1.20000E+005    6.55475E+006    3.21120E+005   -9.09917E+005    3.37702E+005
            5140    4.96366E+006    4.97807E+006    4.97807E+006    1.36607E+005   -9.93830E+004    5.07745E+006   -1.67176E+006    4.95102E+006    1.47225E+005   -2.17261E+004    4.88979E+006   -1.13077E+005   -3.97835E+005    5.17376E+005
            5141    4.03380E+006    4.04656E+006    4.04656E+006    8.04029E+004   -5.16399E+004    4.09820E+006   -1.35844E+006    4.02894E+006    7.34512E+004    2.29519E+004    3.97892E+006   -7.82777E+004   -2.44981E+005    4.54845E+005
            5142    3.20221E+006    3.15419E+006    3.15419E+006    1.46114E+004   -1.07174E+005    3.26136E+006   -1.02054E+006    3.19699E+006   -6.79640E+004   -8.25932E+003    3.13785E+006   -6.21306E+004   -1.03334E+005    2.00928E+005
            5143    2.76012E+006    2.69967E+006    2.69967E+006    5.71318E+004   -1.64646E+005    2.86432E+006   -8.64052E+005    2.73996E+006   -1.23111E+005    2.63385E+004    2.68893E+006   -8.89858E+004   -5.91791E+004    1.57423E+005
            5144    2.49485E+006    2.42125E+006    2.42125E+006    8.50642E+004   -2.06617E+005    2.62787E+006   -7.66566E+005    2.45605E+006   -1.58036E+005    3.81244E+004    2.41961E+006   -1.09037E+005   -2.26399E+004    5.76208E+004
            5145    3.85369E+006    3.87386E+006    3.87386E+006    2.32654E+005   -1.61947E+005    4.03581E+006   -1.31486E+006    3.80784E+006    2.35370E+003    1.17492E+005    3.82472E+006   -2.11117E+005   -1.64668E+005    3.88248E+005
            5146    3.64781E+006    3.69315E+006    3.69315E+006    3.77562E+005   -2.14459E+005    3.90761E+006   -1.28542E+006    3.53730E+006   -2.83744E+004    1.99603E+005    3.68503E+006   -2.76892E+005   -4.64780E+004    1.58417E+005
            5147    4.83110E+006    4.96793E+006    4.96793E+006    3.73651E+005   -6.94637E+004    5.03740E+006   -1.75737E+006    4.78506E+006    1.21922E+005    2.42923E+005    4.90728E+006   -2.43880E+005   -2.80584E+005    4.43373E+005
            5148    4.70152E+006    4.93605E+006    4.93605E+006    6.88591E+005   -1.15763E+005    5.05181E+006   -1.83629E+006    4.54284E+006    1.10918E+005    4.72316E+005    4.92564E+006   -3.65030E+005   -1.26578E+005    1.67718E+005
            5149    6.40156E+006    6.76554E+006    6.76554E+006    4.66593E+005    2.66073E+005    6.49947E+006   -2.49940E+006    6.39449E+006    3.77266E+005    4.51736E+005    6.66920E+006   -1.25294E+005   -6.59239E+005    4.09737E+005
            5150    5.92272E+006    6.36822E+006    6.36822E+006    9.86314E+005    2.28244E+004    6.34539E+006   -2.45912E+006    5.74242E+006    2.64416E+005    7.58262E+005    6.35468E+006   -4.20836E+005   -1.83678E+005    1.98796E+005
            5151    7.33650E+006    7.98681E+006    7.98681E+006    1.23194E+006    1.81838E+005    7.80497E+006   -3.13353E+006    7.16450E+006    3.94633E+005    1.02604E+006    7.97992E+006   -4.23025E+005   -1.55694E+005    1.51535E+005
            5152    9.26815E+006    1.02137E+007    1.02137E+007    1.49558E+006    4.79359E+005    9.73438E+006   -4.06289E+006    9.14155E+006    6.60422E+005    1.32183E+006    1.02064E+007   -3.86725E+005   -2.34843E+005    1.07527E+005
            5153    8.21508E+006    8.91980E+006    8.91980E+006    8.40066E+005    5.75754E+005    8.34405E+006   -3.44521E+006    8.20550E+006    7.75301E+005    8.28814E+005    8.73151E+006    2.77548E+004   -1.18292E+006    3.69240E+005
            5154    9.99912E+006    1.12502E+007    1.12502E+007    1.51012E+006    1.01078E+006    1.02394E+007   -4.59037E+006    9.97101E+006    1.29114E+006    1.50169E+006    1.09783E+007    4.45294E+004   -1.58722E+006    4.37194E+005
            5155    1.03658E+007    1.13566E+007    1.13566E+007    2.81981E+006   -1.77646E+005    1.15343E+007   -4.66626E+006    9.31334E+006    2.87104E+006    4.47131E+005    1.06806E+007    7.79858E+005   -2.11930E+006    1.45572E+006
            5156    9.40640E+006    9.58228E+006    9.58228E+006    1.99513E+006   -9.42318E+005    1.05246E+007   -3.54503E+006    8.27603E+006    2.02736E+006   -5.62003E+005    9.16974E+006    7.51865E+005   -1.64422E+006    9.05812E+005
            5157    6.71550E+006    6.09183E+006    6.09183E+006    8.90337E+005   -1.48952E+006    7.58135E+006   -1.83088E+006    5.64248E+006    9.07934E+005   -1.40481E+006    5.98952E+006   -4.48311E+005    7.21652E+005   -5.49691E+004
            5158    5.92367E+006    5.00208E+006    5.00208E+006    6.48961E+005   -1.74368E+006    6.74576E+006   -1.30245E+006    4.63263E+006    6.39124E+005   -1.58330E+006    4.85153E+006   -4.92822E+005    5.03524E+005   -7.20034E+005
            5159    5.11192E+006    4.29685E+006    4.29685E+006    5.84268E+005   -1.53365E+006    5.83049E+006   -1.11582E+006    3.92526E+006    5.65216E+005   -1.21925E+006    4.00150E+006   -4.95596E+005    3.84718E+005   -1.12939E+006
            5160    4.26333E+006    3.68551E+006    3.68551E+006    5.68410E+005   -1.17285E+006    4.85836E+006   -1.02702E+006    3.30829E+006    5.40805E+005   -6.50462E+005    3.19073E+006   -4.66317E+005    2.66440E+005   -1.37994E+006
            5161    3.67081E+006    3.61535E+006    3.61535E+006    6.65329E+005   -4.95540E+005    4.11089E+006   -1.26171E+006    3.21720E+006    5.89747E+005   -2.83009E+005    3.47840E+006   -3.93833E+005    2.74338E+005   -6.20916E+005
            5162    3.95661E+006    4.17566E+006    4.17566E+006    5.19682E+005   -2.51119E+004    4.20078E+006   -1.55674E+006    3.87088E+006    4.94962E+005    3.43186E+004    4.14095E+006   -1.71543E+005    2.92944E+005   -2.03375E+005
            5163    4.16806E+006    3.99865E+006    3.99865E+006    6.06610E+005   -6.54283E+005    4.65293E+006   -1.31699E+006    3.70105E+006    5.38243E+005   -5.05235E+005    3.91796E+006   -3.96270E+005    3.59812E+005   -3.98011E+005
            5164    4.25550E+006    4.37654E+006    4.37654E+006    4.15188E+005   -1.22080E+005    4.49862E+006   -1.55655E+006    4.17817E+006    3.93504E+005   -6.96456E+004    4.34579E+006   -1.63616E+005    3.42456E+005   -6.20746E+004
            5165    4.68994E+006    4.43597E+006    4.43597E+006    5.34824E+005   -7.67508E+005    5.20347E+006   -1.40109E+006    4.25372E+006    4.77955E+005   -6.57655E+005    4.38298E+006   -3.54451E+005    4.56525E+005    8.15935E+004
            5166    4.10408E+006    4.18372E+006    4.18372E+006    2.42109E+005   -6.55133E+004    4.24923E+006   -1.45344E+006    4.07802E+006    2.24378E+005   -1.21043E+004    4.14804E+006   -1.01630E+005    3.55556E+005    1.34504E+005
            5167    4.78936E+006    4.79826E+006    4.79826E+006    4.56014E+005   -3.38776E+005    5.13704E+006   -1.63850E+006    4.63750E+006    4.51447E+005   -2.18835E+005    4.68289E+006   -1.68577E+005    5.43181E+005    5.08908E+005
            5168    3.66540E+006    3.71157E+006    3.71157E+006    9.37589E+004    3.70400E+002    3.71120E+006   -1.26857E+006    3.66272E+006    2.39917E+004    1.06118E+005    3.67559E+006    1.06252E+004    2.91870E+005    2.14649E+005
            5169    3.24174E+006    3.16828E+006    3.16828E+006    7.44369E+004   -2.03455E+005    3.37174E+006   -1.01309E+006    3.21478E+006   -1.68566E+005    6.68518E+004    3.14098E+006    9.06809E+004    1.92398E+005    2.18907E+005
            5170    2.87205E+006    2.76225E+006    2.76225E+006    1.54209E+005   -3.15824E+005    3.07807E+006   -8.66877E+005    2.78354E+006   -2.65082E+005    1.09556E+005    2.75616E+006    1.46305E+005    7.17211E+004    1.04299E+005
            5171    4.60228E+006    4.80477E+006    4.80477E+006    2.72901E+005    1.35174E+005    4.66959E+006   -1.73761E+006    4.59764E+006    2.71393E+005    2.30090E+005    4.71136E+006    1.09090E+005    4.16895E+005    4.91747E+005
            5172    4.30746E+006    4.53417E+006    4.53417E+006    6.53534E+005   -1.00542E+005    4.63471E+006   -1.69572E+006    4.15505E+006    1.13033E+005    4.54031E+005    4.52009E+006    3.44001E+005    1.43682E+005    1.84049E+005
            5173    5.55410E+006    6.14732E+006    6.14732E+006    1.09772E+006    1.98466E+005    5.94885E+006   -2.48117E+006    5.38665E+006    4.00130E+005    9.15922E+005    6.12745E+006    3.74088E+005    2.80988E+005    1.60365E+005
            5174    7.08486E+006    8.10042E+006    8.10042E+006    1.49367E+006    6.18725E+005    7.48169E+006   -3.40427E+006    6.96175E+006    7.93635E+005    1.34573E+006    8.07345E+006    3.32906E+005    4.36211E+005    5.91568E+004
            5175    8.98587E+006    1.05218E+007    1.05218E+007    1.89221E+006    1.21760E+006    9.30417E+006   -4.54386E+006    8.92863E+006    1.37777E+006    1.77102E+006    1.04828E+007    2.69977E+005    5.77158E+005    1.32175E+005
            5176    1.08923E+007    1.30415E+007    1.30415E+007    2.36631E+006    1.94452E+006    1.10970E+007   -5.78412E+006    1.08739E+007    2.09037E+006    2.26673E+006    1.29953E+007    1.85757E+005    7.04669E+005    8.83097E+004
            5177    5.89852E+006    6.44361E+006    6.44361E+006    7.04292E+005    3.97837E+005    6.04577E+006   -2.51525E+006    5.88057E+006    7.85557E+005    4.35440E+005    6.32474E+006    2.49974E+004    6.88653E+005    4.55851E+005
            5178    7.48326E+006    8.57646E+006    8.57646E+006    1.37506E+006    8.40064E+005    7.73639E+006   -3.59719E+006    7.44005E+006    1.48737E+006    9.01547E+005    8.40267E+006    2.14941E+003    9.35695E+005    6.20978E+005
            5179    8.72804E+006    1.05617E+007    1.05617E+007    2.12636E+006    1.56771E+006    8.99395E+006   -4.75191E+006    8.68768E+006    2.24905E+006    1.65081E+006    1.03559E+007   -3.34463E+004    1.12437E+006    6.96305E+005
            5180    1.01737E+007    1.28011E+007    1.28011E+007    2.99657E+006    2.29459E+006    1.05065E+007   -6.03075E+006    1.01190E+007    3.13463E+006    2.36973E+006    1.25879E+007   -5.77900E+004    1.28022E+006    6.82439E+005
            5181    1.09101E+007    1.33746E+007    1.33746E+007    3.83675E+006    1.47813E+006    1.18964E+007   -6.22982E+006    1.03128E+007    3.90115E+006    1.99505E+006    1.27933E+007   -4.18593E+005    1.72366E+006    1.82014E+006
            5182    1.00829E+007    1.12290E+007    1.12290E+007    2.74422E+006    8.21341E+004    1.11468E+007   -4.68511E+006    9.24136E+006    2.81299E+006    4.26892E+005    1.08155E+007   -4.44689E+005    1.44431E+006    1.41258E+006
            5183    8.97540E+006    9.30431E+006    9.30431E+006    1.93444E+006   -6.91061E+005    9.99537E+006   -3.51590E+006    8.04092E+006    1.99974E+006   -4.73523E+005    9.02147E+006   -4.08738E+005    1.17869E+006    1.01659E+006
            5184    7.75530E+006    7.62535E+006    7.62535E+006    1.34725E+006   -1.04395E+006    8.66930E+006   -2.64289E+006    6.84917E+006    1.40174E+006   -9.29685E+005    7.45661E+006   -3.90439E+005    9.54240E+005    4.97363E+005
            5185    3.51622E+006    3.71751E+006    3.71751E+006    5.11789E+005   -4.32099E+004    3.76072E+006   -1.39536E+006    3.41559E+006    4.81380E+005    1.48118E+004    3.68990E+006   -1.67460E+005    2.23694E+005   -2.00276E+005
            5186    3.12700E+006    3.17289E+006    3.17289E+006    6.59626E+005   -3.28901E+005    3.50179E+006   -1.16787E+006    2.74090E+006    5.83231E+005   -9.55278E+004    3.01591E+006   -3.48021E+005    1.95059E+005   -6.50833E+005
            5187    3.34172E+006    3.02681E+006    3.02681E+006    5.31762E+005   -7.69855E+005    3.79667E+006   -9.29573E+005    2.67498E+006    4.94012E+005   -1.28878E+005    2.42359E+006   -4.18021E+005    1.78017E+005   -1.32094E+006
            5188    3.03875E+006    3.24871E+006    3.24871E+006    4.95076E+005   -1.14979E+004    3.26021E+006   -1.24410E+006    2.94150E+006    4.58015E+005    4.04340E+004    3.23384E+006   -1.51004E+005    1.41455E+005   -1.49331E+005
            5189    2.52707E+006    2.65362E+006    2.65362E+006    6.30990E+005   -1.79175E+005    2.83280E+006   -1.03515E+006    2.20516E+006    5.31167E+005    5.79953E+003    2.56847E+006   -3.03463E+005    1.14071E+005   -4.37346E+005
            5190    2.31061E+006    2.27448E+006    2.27448E+006    4.99623E+005   -3.38154E+005    2.61264E+006   -8.11984E+005    1.92137E+006    4.27350E+005    2.50759E+005    1.75784E+006   -3.58844E+005    9.58613E+004   -9.81276E+005
            5191    2.75545E+006    2.95178E+006    2.95178E+006    4.73477E+005   -1.53719E+004    2.96715E+006   -1.13663E+006    2.65524E+006    4.31224E+005    2.86584E+004    2.95000E+006   -1.39627E+005    4.74131E+004   -4.81932E+004
            5192    2.15547E+006    2.33145E+006    2.33145E+006    6.16158E+005   -8.80398E+004    2.41949E+006   -9.53190E+005    1.86908E+006    4.92546E+005    4.87670E+004    2.31826E+006   -2.73013E+005    3.90872E+004   -1.60696E+005
            5193    1.24821E+006    1.45915E+006    1.45915E+006    6.00989E+005    2.72233E+004    1.43193E+006   -6.95788E+005    8.67637E+005    3.51144E+005    4.14393E+005    1.32183E+006   -3.15875E+005    3.26409E+004   -3.51510E+005
            5194    1.13472E+007    1.36571E+007    1.36571E+007    2.48155E+006    2.14578E+006    1.15113E+007   -6.09481E+006    1.13360E+007    2.30097E+006    2.37544E+006    1.36080E+007   -1.63904E+005    7.37127E+005   -1.07539E+005
            5195    1.04361E+007    1.32723E+007    1.32723E+007    3.22601E+006    2.48581E+006    1.07865E+007   -6.32806E+006    1.03768E+007    3.36321E+006    2.57171E+006    1.30493E+007    7.59040E+004    1.32586E+006   -7.09367E+005
            5196    1.10385E+007    1.36633E+007    1.36633E+007    3.98093E+006    1.64320E+006    1.20201E+007   -6.42915E+006    1.04596E+007    4.04632E+006    2.16710E+006    1.30740E+007    4.17520E+005    1.75261E+006   -1.83618E+006
            5197    1.31531E+007    1.60526E+007    1.60526E+007    3.03929E+006    2.76411E+006    1.32885E+007   -7.28534E+006    1.31466E+007    3.06583E+006    2.79171E+006    1.59985E+007   -8.68289E+004    8.34940E+005   -7.15198E+004
            5198    1.17019E+007    1.53883E+007    1.53883E+007    4.12073E+006    3.29574E+006    1.20926E+007   -7.60159E+006    1.16362E+007    4.27985E+006    3.34499E+006    1.51799E+007    6.39215E+004    1.42122E+006   -5.73581E+005
            5199    1.12301E+007    1.55202E+007    1.55202E+007    5.18023E+006    3.57311E+006    1.19471E+007   -8.09118E+006    1.09669E+007    5.22992E+006    4.17491E+006    1.48687E+007    3.21223E+005    1.98254E+006   -1.80977E+006
            5200    1.44541E+007    1.77838E+007    1.77838E+007    3.60571E+006    3.06869E+006    1.47151E+007   -8.15272E+006    1.44316E+007    3.65977E+006    3.07055E+006    1.77278E+007   -3.31790E+004    8.87820E+005   -4.07813E+004
            5201    1.25764E+007    1.68862E+007    1.68862E+007    4.76743E+006    3.89740E+006    1.29888E+007   -8.51702E+006    1.25084E+007    4.94065E+006    3.91083E+006    1.66996E+007    4.03129E+004    1.46606E+006   -3.00479E+005
            5202    1.09650E+007    1.67502E+007    1.67502E+007    6.20040E+006    5.41249E+006    1.13377E+007   -9.45436E+006    1.09010E+007    6.21682E+006    5.93849E+006    1.62078E+007    1.72189E+005    2.13184E+006   -1.13000E+006
            5203    1.48572E+007    1.83157E+007    1.83157E+007    3.78914E+006    3.14859E+006    1.51671E+007   -8.41781E+006    1.48261E+007    3.84528E+006    3.14861E+006    1.82595E+007    2.93526E+003    9.01397E+005    1.45836E+004
            5204    1.28670E+007    1.73650E+007    1.73650E+007    4.96959E+006    4.07340E+006    1.32916E+007   -8.80267E+006    1.27965E+007    5.14795E+006    4.07378E+006    1.71863E+007   -7.71536E+003    1.47700E+006    4.89820E+004
            5205    1.07704E+007    1.71512E+007    1.71512E+007    6.63840E+006    6.14052E+006    1.10107E+007   -9.97672E+006    1.07445E+007    6.59257E+006    6.63807E+006    1.66995E+007   -6.98198E+003    2.18352E+006    4.37554E+004
            5206    1.42291E+007    1.74681E+007    1.74681E+007    3.48715E+006    3.00315E+006    1.44649E+007   -7.98613E+006    1.42106E+007    3.53968E+006    3.00605E+006    1.74127E+007    3.92993E+004    8.77088E+005    5.04556E+004
            5207    1.24745E+007    1.66425E+007    1.66425E+007    4.63469E+006    3.74857E+006    1.28939E+007   -8.34191E+006    1.24034E+007    4.80394E+006    3.76831E+006    1.64535E+007   -4.32681E+004    1.45218E+006    3.79024E+005
            5208    1.09699E+007    1.66612E+007    1.66612E+007    6.13058E+006    5.29923E+006    1.13620E+007   -9.36367E+006    1.08987E+007    6.15076E+006    5.83204E+006    1.61082E+007   -1.82763E+005    2.12516E+006    1.19230E+006
            5209    1.27688E+007    1.55206E+007    1.55206E+007    2.87052E+006    2.63628E+006    1.28843E+007   -7.00914E+006    1.27640E+007    2.87282E+006    2.68681E+006    1.54678E+007    1.01527E+005    8.12340E+005    8.45551E+004
            5210    1.14831E+007    1.49506E+007    1.49506E+007    3.89694E+006    3.08149E+006    1.18691E+007   -7.30966E+006    1.14177E+007    4.04859E+006    3.13320E+006    1.47472E+007   -6.76853E+004    1.38512E+006    5.77471E+005
            5211    1.11975E+007    1.53378E+007    1.53378E+007    5.06790E+006    3.39987E+006    1.19379E+007   -7.93519E+006    1.09127E+007    5.12137E+006    3.99585E+006    1.46884E+007   -3.31012E+005    1.96652E+006    1.81580E+006
            5212    3.34009E+006    3.02576E+006    3.02576E+006    5.32101E+005   -7.69092E+005    3.79485E+006   -9.29591E+005    2.67342E+006    4.94315E+005   -1.25998E+005    2.42046E+006   -4.18141E+005   -1.77544E+005    1.32256E+006
            5213    3.12414E+006    3.17075E+006    3.17075E+006    6.59673E+005   -3.27802E+005    3.49855E+006   -1.16754E+006    2.73852E+006    5.83075E+005   -9.65976E+004    3.01614E+006   -3.47285E+005   -1.94504E+005    6.45356E+005
            5214    3.50905E+006    3.70945E+006    3.70945E+006    5.10265E+005   -4.35845E+004    3.75304E+006   -1.39204E+006    3.40863E+006    4.79664E+005    1.43683E+004    3.68210E+006   -1.67233E+005   -2.22507E+005    1.99003E+005
            5215    2.30093E+006    2.26657E+006    2.26657E+006    4.99031E+005   -3.35089E+005    2.60166E+006   -8.10171E+005    1.91348E+006    4.26135E+005    2.52735E+005    1.75164E+006   -3.58347E+005   -9.49786E+004    9.77260E+005
            5216    2.53355E+006    2.65936E+006    2.65936E+006    6.31626E+005   -1.80727E+005    2.84009E+006   -1.03675E+006    2.21072E+006    5.32317E+005    2.94419E+003    2.57500E+006   -3.03262E+005   -1.14619E+005    4.35669E+005
            5217    3.03503E+006    3.24490E+006    3.24490E+006    4.94428E+005   -1.11901E+004    3.25609E+006   -1.24271E+006    2.93803E+006    4.57272E+005    4.07574E+004    3.23011E+006   -1.50865E+005   -1.40791E+005    1.49055E+005
            5218    1.23548E+006    1.44916E+006    1.44916E+006    6.05435E+005    3.10421E+004    1.41811E+006   -6.95211E+005    8.46650E+005    3.50797E+005    4.17404E+005    1.31743E+006   -3.15382E+005   -3.14544E+004    3.41867E+005
            5219    2.16108E+006    2.33660E+006    2.33660E+006    6.16765E+005   -8.91718E+004    2.42577E+006   -9.54730E+005    1.87403E+006    4.93838E+005    4.76932E+004    2.32266E+006   -2.73101E+005   -4.00451E+004    1.65474E+005
            5220    2.75505E+006    2.95121E+006    2.95121E+006    4.73144E+005   -1.54601E+004    2.96667E+006   -1.13630E+006    2.65494E+006    4.30849E+005    2.86352E+004    2.94941E+006   -1.39666E+005   -4.74573E+004    4.87596E+004
            5221    3.31065E+006    3.26236E+006    3.26236E+006    2.80625E+004   -1.19698E+005    3.38206E+006   -1.05691E+006    3.30322E+006   -9.81746E+004    3.39725E+004    3.23493E+006   -4.10971E+004    2.31931E+005   -1.89216E+005
            5222    3.73873E+006    3.74894E+006    3.74894E+006    5.67740E+004   -3.46818E+004    3.78362E+006   -1.25701E+006    3.73621E+006    7.07947E+004   -1.67767E+004    3.71701E+006    1.53129E+004    2.99439E+005   -1.69842E+005
            5223    4.06979E+006    4.16034E+006    4.16034E+006    2.47263E+005   -4.98649E+004    4.21021E+006   -1.45258E+006    4.04528E+006    2.59034E+005   -3.08341E+004    4.12954E+006    6.15240E+004    3.35952E+005   -9.38594E+004
            5224    4.20370E+006    4.35370E+006    4.35370E+006    4.00857E+005   -6.24603E+004    4.41616E+006   -1.56403E+006    4.14567E+006    4.09262E+005   -4.23695E+004    4.32521E+006    9.54899E+004    3.34743E+005    1.15650E+004
            5225    4.02677E+006    4.22234E+006    4.22234E+006    4.84687E+005   -4.17538E+004    4.26409E+006   -1.55509E+006    3.94823E+006    4.90508E+005   -2.10745E+004    4.19584E+006    1.03699E+005    2.97018E+005    1.01885E+005
            5226    4.13541E+006    4.17820E+006    4.17820E+006    1.38230E+005   -4.64516E+004    4.22466E+006   -1.42333E+006    4.12611E+006    1.34155E+005    3.87941E+004    4.09703E+006   -1.05425E+005    3.15040E+005   -4.75785E+005
            5227    4.18051E+006    4.20470E+006    4.20470E+006    2.15388E+005   -1.43828E+005    4.34853E+006   -1.42542E+006    4.14558E+006    2.27656E+005   -8.62012E+004    4.13481E+006    4.89803E+004    3.64889E+005   -3.99767E+005
            5228    4.19330E+006    4.20627E+006    4.20627E+006    3.63987E+005   -2.66616E+005    4.47289E+006   -1.43455E+006    4.08457E+006    3.30982E+005   -1.92591E+005    4.16525E+006    1.80955E+005    3.71360E+005   -1.71793E+005
            5229    4.05993E+006    4.09963E+006    4.09963E+006    4.77437E+005   -2.88830E+005    4.38846E+006   -1.42941E+006    3.89221E+006    4.24436E+005   -1.98816E+005    4.06262E+006    2.53226E+005    3.35994E+005    1.41020E+005
            5230    3.74701E+006    3.85539E+006    3.85539E+006    5.53948E+005   -2.17198E+005    4.07259E+006   -1.39738E+006    3.56185E+006    4.91965E+005   -9.84786E+004    3.79865E+006    2.73678E+005    2.84031E+005    3.35721E+005
            5231    4.99841E+006    5.21497E+006    5.21497E+006    3.77824E+005    6.95610E+004    5.14541E+006   -1.88745E+006    4.97696E+006    4.08561E+005    1.51906E+005    5.10189E+006    3.80790E+004    5.51837E+005   -5.06109E+005
            5232    4.95632E+006    4.92527E+006    4.92527E+006    4.95831E+005   -4.27944E+005    5.35322E+006   -1.66439E+006    4.75682E+006    4.62371E+005   -2.98143E+005    4.82893E+006    2.48432E+005    5.68005E+005   -3.85574E+005
            5233    4.69107E+006    4.50060E+006    4.50060E+006    5.55811E+005   -6.86631E+005    5.18723E+006   -1.45659E+006    4.29690E+006    4.82855E+005   -5.55451E+005    4.44237E+006    3.85083E+005    4.80918E+005    1.13661E+004
            5234    4.22584E+006    4.07491E+006    4.07491E+006    6.18314E+005   -6.36126E+005    4.71103E+006   -1.35237E+006    3.77155E+006    5.25882E+005   -4.57770E+005    3.98898E+006    4.37846E+005    3.89337E+005    3.91892E+005
            5235    3.72980E+006    3.66771E+006    3.66771E+006    6.62641E+005   -5.06637E+005    4.17435E+006   -1.27457E+006    3.27773E+006    5.65187E+005   -2.67042E+005    3.52557E+006    4.32979E+005    2.94023E+005    6.24359E+005
            5236    6.45370E+006    6.62746E+006    6.62746E+006    9.57551E+005   -3.95489E+005    7.02295E+006   -2.39651E+006    6.12226E+006    1.01423E+006   -2.75232E+005    6.45053E+006    2.33279E+005    8.70590E+005   -5.73643E+005
            5237    6.10330E+006    5.66333E+006    5.66333E+006    8.13974E+005   -1.19001E+006    6.85334E+006   -1.76243E+006    5.28323E+006    8.17416E+005   -1.08837E+006    5.55826E+006    4.13002E+005    7.05795E+005   -1.83933E+005
            5238    5.39449E+006    4.80062E+006    4.80062E+006    7.02520E+005   -1.31102E+006    6.11165E+006   -1.39737E+006    4.42192E+006    6.84762E+005   -1.19719E+006    4.70455E+006    4.60114E+005    5.35269E+005    3.36871E+005
            5239    4.66662E+006    4.13175E+006    4.13175E+006    6.73617E+005   -1.17620E+006    5.30794E+006   -1.20972E+006    3.69522E+006    6.37856E+005   -9.72792E+005    3.96410E+006    4.71015E+005    3.86965E+005    7.40966E+005
            5240    3.90495E+006    3.54038E+006    3.54038E+006    6.37083E+005   -8.99048E+005    4.43943E+006   -1.09280E+006    3.10701E+006    5.97219E+005   -5.67028E+005    3.24822E+006    4.33689E+005    2.72897E+005    9.98544E+005
            5241    4.66104E+006    3.86731E+006    3.86731E+006    5.43228E+005   -1.46054E+006    5.32785E+006   -9.83332E+005    3.47259E+006    5.23936E+005   -8.63538E+005    3.28960E+006    4.93301E+005    2.81704E+005    1.56481E+006
            5242    5.70965E+006    4.65091E+006    4.65091E+006    6.19250E+005   -1.88260E+006    6.53351E+006   -1.12918E+006    4.17968E+006    6.06664E+005   -1.50871E+006    4.28960E+006    5.33004E+005    4.02340E+005    1.34569E+006
            5243    6.72468E+006    5.55480E+006    5.55480E+006    7.65614E+005   -2.13311E+006    7.68790E+006   -1.39577E+006    4.99807E+006    7.62730E+005   -1.94544E+006    5.37002E+006    5.58706E+005    5.60088E+005    8.76580E+005
            5244    7.60559E+006    6.60013E+006    6.60013E+006    1.02339E+006   -2.06361E+006    8.66374E+006   -1.85330E+006    5.92795E+006    1.03148E+006   -1.95923E+006    6.48766E+006    5.56359E+005    7.24343E+005    3.21556E+005
            5245    8.45560E+006    8.06222E+006    8.06222E+006    1.48202E+006   -1.47471E+006    9.53693E+006   -2.68984E+006    7.14536E+006    1.52523E+006   -1.36218E+006    7.90648E+006    5.03084E+005    9.84602E+005   -3.40000E+005
            5246    9.34679E+006    9.68156E+006    9.68156E+006    2.04838E+006   -7.42859E+005    1.04244E+007   -3.66236E+006    8.32874E+006    2.11759E+006   -5.32110E+005    9.40160E+006    4.50154E+005    1.23591E+006   -9.65061E+005
            5247    1.03019E+007    1.15972E+007    1.15972E+007    2.90416E+006    2.18412E+005    1.13788E+007   -4.90660E+006    9.46503E+006    2.97112E+006    5.92041E+005    1.11566E+007    4.51021E+005    1.48792E+006   -1.49904E+006
            5248    9.12061E+006    1.10849E+007    1.10849E+007    2.33339E+006    1.63535E+006    9.44957E+006   -5.01789E+006    9.06022E+006    2.45858E+006    1.72702E+006    1.08681E+007    6.20508E+004    1.18499E+006   -7.19875E+005
            5249    9.36027E+006    1.10696E+007    1.10696E+007    2.04297E+006    1.40807E+006    9.66156E+006   -4.84022E+006    9.31164E+006    1.55299E+006    1.93924E+006    1.10285E+007   -2.41749E+005    6.17528E+005   -8.48547E+004
            5250    7.69586E+006    8.88736E+006    8.88736E+006    1.50280E+006    9.14013E+005    7.97334E+006   -3.76806E+006    7.64494E+006    1.60808E+006    9.90527E+005    8.70557E+006    5.15791E+004    9.96342E+005   -6.05918E+005
            5251    7.51207E+006    8.71139E+006    8.71139E+006    1.65915E+006    8.11405E+005    7.89998E+006   -3.72732E+006    7.40331E+006    9.75686E+005    1.52614E+006    8.68012E+006   -3.17711E+005    4.73598E+005   -1.08278E+005
            5252    6.08237E+006    6.88268E+006    6.88268E+006    1.29156E+006    4.06111E+005    6.47657E+006   -2.86012E+006    5.93477E+006    6.12701E+005    1.10346E+006    6.86420E+006   -3.74212E+005    2.81785E+005   -1.66213E+005
            5253    4.84569E+006    5.27151E+006    5.27151E+006    8.71004E+005    7.83626E+004    5.19314E+006   -2.07362E+006    4.69651E+006    2.89252E+005    6.71608E+005    5.26001E+006   -3.53552E+005    1.37065E+005   -1.78237E+005
            5254    3.82535E+006    3.92947E+006    3.92947E+006    4.68285E+005   -1.77764E+005    4.10724E+006   -1.40666E+006    3.69961E+006   -5.99055E+003    3.04494E+005    3.92149E+006   -2.87802E+005    7.84775E+004   -1.46332E+005
            5255    2.72112E+006    2.57461E+006    2.57461E+006    1.00916E+005   -3.40057E+005    2.91467E+006   -7.78491E+005    2.63893E+006   -3.01632E+005    6.47484E+004    2.57236E+006   -1.24164E+005    4.90681E+004   -5.75055E+004
            5256    6.31167E+006    7.01262E+006    7.01262E+006    8.06479E+005    6.00478E+005    6.41215E+006   -2.80653E+006    6.30410E+006    8.95185E+005    6.41017E+005    6.88338E+006   -5.61467E+004    7.34672E+005   -5.04439E+005
            5257    4.97319E+006    5.29645E+006    5.29645E+006    5.07162E+005    1.57781E+005    5.13867E+006   -1.98713E+006    4.94547E+006    3.02684E+005    4.31138E+005    5.22757E+006   -1.97744E+005    3.91274E+005   -4.15393E+005
            5258    3.99164E+006    4.07790E+006    4.07790E+006    3.08217E+005   -1.03762E+005    4.18166E+006   -1.42745E+006    3.94339E+006    5.90905E+004    1.98817E+005    4.02444E+006   -2.21139E+005    2.17716E+005   -3.89374E+005
            5259    2.94523E+006    2.83244E+006    2.83244E+006    6.45823E+004   -2.62797E+005    3.09524E+006   -8.78077E+005    2.90387E+006   -2.32451E+005    4.95660E+004    2.81711E+006   -9.16158E+004    1.45797E+005   -1.48408E+005
            5260    3.66419E+006    3.71028E+006    3.71028E+006    9.37899E+004    1.76855E+002    3.71010E+006   -1.26808E+006    3.66150E+006    2.38160E+004    1.06218E+005    3.67421E+006    1.07344E+004   -2.91994E+005   -2.15094E+005
            5261    4.10762E+006    4.18668E+006    4.18668E+006    2.43659E+005   -6.78015E+004    4.25448E+006   -1.45418E+006    4.08092E+006    2.25979E+005   -1.44537E+004    4.15101E+006   -1.02526E+005   -3.55852E+005   -1.33769E+005
            5262    4.25230E+006    4.37513E+006    4.37513E+006    4.17921E+005   -1.20914E+005    4.49604E+006   -1.55738E+006    4.17446E+006    3.96299E+005   -6.85654E+004    4.34440E+006   -1.63936E+005   -3.41003E+005    6.75500E+004
            5263    3.94363E+006    4.16502E+006    4.16502E+006    5.21113E+005   -2.20282E+004    4.18705E+006   -1.55470E+006    3.85814E+006    4.95814E+005    3.79512E+004    4.13034E+006   -1.71835E+005   -2.90870E+005    2.05173E+005
            5264    4.78741E+006    4.79490E+006    4.79490E+006    4.55419E+005   -3.40643E+005    5.13554E+006   -1.63656E+006    4.63498E+006    4.50828E+005   -2.21134E+005    4.67998E+006   -1.68871E+005   -5.42485E+005   -5.07209E+005
            5265    4.67993E+006    4.42672E+006    4.42672E+006    5.34063E+005   -7.65698E+005    5.19242E+006   -1.39836E+006    4.24448E+006    4.76940E+005   -6.55929E+005    4.37408E+006   -3.54558E+005   -4.54876E+005   -7.70670E+004
            5266    4.15708E+006    3.98952E+006    3.98952E+006    6.06929E+005   -6.51325E+005    4.64085E+006   -1.31504E+006    3.69074E+006    5.38240E+005   -5.01100E+005    3.90798E+006   -3.96542E+005   -3.58289E+005    4.02793E+005
            5267    3.65980E+006    3.61029E+006    3.61029E+006    6.68137E+005   -4.87942E+005    4.09823E+006   -1.26349E+006    3.20868E+006    5.92406E+005   -2.75278E+005    3.47336E+006   -3.92875E+005   -2.72999E+005    6.20485E+005
            5268    4.26515E+006    3.68512E+006    3.68512E+006    5.67620E+005   -1.17551E+006    4.86063E+006   -1.02574E+006    3.30818E+006    5.40203E+005   -6.51955E+005    3.18898E+006   -4.66532E+005   -2.66625E+005    1.38206E+006
            5269    5.11889E+006    4.29807E+006    4.29807E+006    5.82201E+005   -1.54073E+006    5.83880E+006   -1.11318E+006    3.92762E+006    5.63177E+005   -1.22590E+006    4.00226E+006   -4.95860E+005   -3.84558E+005    1.13150E+006
            5270    5.92647E+006    5.00277E+006    5.00277E+006    6.47852E+005   -1.74624E+006    6.74901E+006   -1.30146E+006    4.63440E+006    6.38076E+005   -1.58601E+006    4.85231E+006   -4.92914E+005   -5.03901E+005    7.19556E+005
            5271    6.70927E+006    6.08487E+006    6.08487E+006    8.87518E+005   -1.48925E+006    7.57411E+006   -1.82771E+006    5.63815E+006    9.04868E+005   -1.40441E+006    5.98268E+006   -4.48384E+005   -7.20815E+005    5.60267E+004
            5272    7.74785E+006    7.61340E+006    7.61340E+006    1.34638E+006   -1.04935E+006    8.66275E+006   -2.63681E+006    6.83689E+006    1.40019E+006   -9.35208E+005    7.44545E+006   -3.92228E+005   -9.52214E+005   -4.93339E+005
            5273    8.98494E+006    9.31268E+006    9.31268E+006    1.93993E+006   -6.95175E+005    1.00079E+007   -3.51914E+006    8.04418E+006    2.00509E+006   -4.76998E+005    9.02934E+006   -4.10966E+005   -1.18057E+006   -1.01745E+006
            5274    1.00939E+007    1.12485E+007    1.12485E+007    2.75344E+006    8.99060E+004    1.11586E+007   -4.69728E+006    9.25245E+006    2.82260E+006    4.36280E+005    1.08330E+007   -4.44277E+005   -1.44716E+006   -1.41852E+006
            5275    1.09114E+007    1.33737E+007    1.33737E+007    3.83275E+006    1.47674E+006    1.18969E+007   -6.22772E+006    1.03156E+007    3.89804E+006    1.99100E+006    1.27941E+007   -4.17411E+005   -1.72269E+006   -1.81575E+006
            5276    1.01722E+007    1.27972E+007    1.27972E+007    2.99623E+006    2.29053E+006    1.05067E+007   -6.02799E+006    1.01169E+007    3.13372E+006    2.36700E+006    1.25832E+007   -5.91799E+004   -1.28067E+006   -6.87063E+005
            5277    1.08724E+007    1.30159E+007    1.30159E+007    2.36101E+006    1.93825E+006    1.10776E+007   -5.77171E+006    1.08539E+007    2.08443E+006    2.26183E+006    1.29689E+007    1.85866E+005   -7.09615E+005   -8.86429E+004
            5278    8.73231E+006    1.05538E+007    1.05538E+007    2.12113E+006    1.54991E+006    9.00390E+006   -4.74161E+006    8.69013E+006    2.24333E+006    1.63411E+006    1.03474E+007   -3.57023E+004   -1.12481E+006   -6.99930E+005
            5279    8.99163E+006    1.05325E+007    1.05325E+007    1.89699E+006    1.22279E+006    9.30975E+006   -4.55078E+006    8.93449E+006    1.38292E+006    1.77634E+006    1.04931E+007    2.69623E+005   -5.80838E+005   -1.33564E+005
            5280    7.48371E+006    8.57318E+006    8.57318E+006    1.37457E+006    8.33710E+005    7.73947E+006   -3.59382E+006    7.43955E+006    1.48671E+006    8.95216E+005    8.39954E+006    1.11145E+002   -9.36516E+005   -6.18815E+005
            5281    7.11643E+006    8.14142E+006    8.14142E+006    1.50036E+006    6.29721E+005    7.51169E+006   -3.42383E+006    6.99511E+006    8.04831E+005    1.35248E+006    8.11419E+006    3.32126E+005   -4.38713E+005   -6.22250E+004
            5282    5.90235E+006    6.44827E+006    6.44827E+006    7.06181E+005    3.97761E+005    6.05051E+006   -2.51740E+006    5.88418E+006    7.87574E+005    4.35610E+005    6.32903E+006    2.43918E+004   -6.89908E+005   -4.56803E+005
            5283    5.57163E+006    6.17022E+006    6.17022E+006    1.10224E+006    2.04066E+005    5.96616E+006   -2.49218E+006    5.40514E+006    4.05289E+005    9.20784E+005    6.15046E+006    3.73428E+005   -2.81368E+005   -1.59275E+005
            5284    4.31711E+006    4.54620E+006    4.54620E+006    6.56715E+005   -9.87986E+004    4.64500E+006   -1.70137E+006    4.16446E+006    1.15374E+005    4.56632E+005    4.53211E+006    3.44751E+005   -1.43863E+005   -1.84420E+005
            5285    2.87485E+006    2.76566E+006    2.76566E+006    1.55392E+005   -3.15612E+005    3.08127E+006   -8.68478E+005    2.78605E+006   -2.64306E+005    1.10001E+005    2.75974E+006    1.47183E+005   -7.08316E+004   -1.02765E+005
            5286    4.60344E+006    4.80689E+006    4.80689E+006    2.73960E+005    1.36031E+005    4.67085E+006   -1.73896E+006    4.59879E+006    2.72319E+005    2.31162E+005    4.71340E+006    1.09255E+005   -4.16995E+005   -4.92126E+005
            5287    3.23929E+006    3.16608E+006    3.16608E+006    7.57298E+004   -2.04008E+005    3.37009E+006   -1.01260E+006    3.21195E+006   -1.69024E+005    6.77945E+004    3.13903E+006    9.10994E+004   -1.91671E+005   -2.17554E+005
            5288    3.55782E+006    3.10146E+006    3.10146E+006    5.02202E+005   -9.53341E+005    4.05480E+006   -8.83440E+005    2.75751E+006    4.73055E+005   -1.85759E+005    2.36302E+006    4.38175E+005    1.77331E+005    1.49851E+006
            5289    3.09958E+006    2.93813E+006    2.93813E+006    6.09307E+005   -5.79957E+005    3.51809E+006   -9.89161E+005    2.50306E+006    5.57606E+005   -1.84171E+005    2.59405E+006    3.79046E+005    1.74956E+005    9.79218E+005
            5290    3.14164E+006    3.18163E+006    3.18163E+006    6.66369E+005   -3.39857E+005    3.52148E+006   -1.16938E+006    2.74231E+006    5.61736E+005   -7.00097E+004    3.01641E+006    3.93714E+005    2.05541E+005    6.59011E+005
            5291    3.32518E+006    3.47218E+006    3.47218E+006    5.71886E+005   -1.56973E+005    3.62915E+006   -1.29570E+006    3.13781E+006    5.04935E+005   -2.87650E+004    3.41092E+006    2.61424E+005    2.14316E+005    3.80130E+005
            5292    3.61048E+006    3.81634E+006    3.81634E+006    4.95326E+005   -2.67578E+004    3.84310E+006   -1.42830E+006    3.52405E+006    4.94135E+005   -5.25897E+003    3.79603E+006    1.01718E+005    2.29742E+005    1.22886E+005
            5293    2.35475E+006    2.24644E+006    2.24644E+006    4.55922E+005   -4.20928E+005    2.66737E+006   -7.60480E+005    1.93258E+006    3.97306E+005    2.91357E+005    1.59278E+006    3.72948E+005    9.46748E+004    1.08531E+006
            5294    2.25541E+006    2.29444E+006    2.29444E+006    5.67060E+005   -2.57136E+005    2.55158E+006   -8.68123E+005    1.86847E+006    4.85882E+005    7.68585E+004    2.04163E+006    3.19110E+005    9.94454E+004    7.13609E+005
            5295    2.53075E+006    2.65810E+006    2.65810E+006    6.51502E+005   -1.85006E+005    2.84310E+006   -1.04153E+006    2.18559E+006    5.23707E+005    4.77625E+004    2.55312E+006    3.43580E+005    1.19228E+005    4.81999E+005
            5296    2.84753E+006    3.01993E+006    3.01993E+006    5.60538E+005   -9.97227E+004    3.11966E+006   -1.16025E+006    2.66701E+006    4.78962E+005    1.87477E+004    2.98304E+006    2.41669E+005    1.31980E+005    2.86547E+005
            5297    3.16264E+006    3.35936E+006    3.35936E+006    4.71217E+005   -2.02370E+004    3.37959E+006   -1.27011E+006    3.07496E+006    4.61651E+005   -4.46172E+002    3.34913E+006    9.42326E+004    1.44688E+005    9.56413E+004
            5298    1.14005E+006    1.34144E+006    1.34144E+006    5.81214E+005    3.05968E+004    1.31085E+006   -6.51085E+005    7.39287E+005    3.25826E+005    5.20308E+005    1.10712E+006    3.27751E+005    2.86884E+004    3.99456E+005
            5299    1.57552E+006    1.77523E+006    1.77523E+006    6.02117E+005   -1.55271E+004    1.79076E+006   -7.87274E+005    1.25624E+006    4.36023E+005    1.96122E+005    1.72968E+006    2.84932E+005    3.01069E+004    2.54643E+005
            5300    2.11485E+006    2.30637E+006    2.30637E+006    6.51335E+005   -7.62232E+004    2.38259E+006   -9.60493E+005    1.79912E+006    4.89057E+005    1.02356E+005    2.29007E+006    3.08703E+005    3.98170E+004    1.75437E+005
            5301    2.53966E+006    2.72786E+006    2.72786E+006    5.45083E+005   -5.95483E+004    2.78741E+006   -1.07113E+006    2.36946E+006    4.52166E+005    3.88386E+004    2.72239E+006    2.21299E+005    4.53610E+004    1.05947E+005
            5302    2.86723E+006    3.05852E+006    3.05852E+006    4.49690E+005   -1.12546E+004    3.06978E+006   -1.16565E+006    2.78204E+006    4.33741E+005    6.08475E+003    3.05713E+006    8.72809E+004    4.95026E+004    3.56815E+004
            5303    1.10394E+007    1.36540E+007    1.36540E+007    3.97571E+006    1.63036E+006    1.20236E+007   -6.42002E+006    1.04566E+007    4.04017E+006    2.15504E+006    1.30649E+007    4.19701E+005   -1.75167E+006    1.83704E+006
            5304    1.04498E+007    1.33003E+007    1.33003E+007    3.23703E+006    2.50271E+006    1.07976E+007   -6.34667E+006    1.03915E+007    3.37551E+006    2.58577E+006    1.30787E+007    7.37834E+004   -1.32627E+006    6.98863E+005
            5305    1.13885E+007    1.37117E+007    1.37117E+007    2.49195E+006    2.16160E+006    1.15501E+007   -6.12174E+006    1.13777E+007    2.31732E+006    2.38541E+006    1.36625E+007   -1.62278E+005   -7.38903E+005    1.08800E+005
            5306    1.12259E+007    1.55223E+007    1.55223E+007    5.18696E+006    3.57911E+006    1.19432E+007   -8.09612E+006    1.09624E+007    5.23614E+006    4.18289E+006    1.48693E+007    3.21720E+005   -1.98455E+006    1.81127E+006
            5307    1.17171E+007    1.54041E+007    1.54041E+007    4.12408E+006    3.29411E+006    1.21100E+007   -7.60744E+006    1.16507E+007    4.28350E+006    3.34229E+006    1.51965E+007    6.36195E+004   -1.42113E+006    5.68005E+005
            5308    1.31845E+007    1.60952E+007    1.60952E+007    3.05334E+006    2.77257E+006    1.33227E+007   -7.30705E+006    1.31778E+007    3.08077E+006    2.79922E+006    1.60411E+007   -8.63157E+004   -8.35669E+005    6.89859E+004
            5309    1.09635E+007    1.67650E+007    1.67650E+007    6.21540E+006    5.42992E+006    1.13351E+007   -9.47010E+006    1.08999E+007    6.22878E+006    5.95949E+006    1.62221E+007    1.71257E+005   -2.13584E+006    1.12470E+006
            5310    1.25826E+007    1.68907E+007    1.68907E+007    4.76837E+006    3.89350E+006    1.29972E+007   -8.51752E+006    1.25139E+007    4.94196E+006    3.90694E+006    1.67037E+007    4.03595E+004   -1.46765E+006    3.01019E+005
            5311    1.44673E+007    1.78002E+007    1.78002E+007    3.61093E+006    3.07012E+006    1.47301E+007   -8.16043E+006    1.44445E+007    3.66513E+006    3.07192E+006    1.77442E+007   -3.26992E+004   -8.88684E+005    4.07227E+004
            5312    1.07602E+007    1.71398E+007    1.71398E+007    6.63868E+006    6.13806E+006    1.10018E+007   -9.97220E+006    1.07340E+007    6.59126E+006    6.63797E+006    1.66874E+007   -1.04989E+004   -2.18395E+006   -6.08475E+004
            5313    1.28623E+007    1.73582E+007    1.73582E+007    4.96838E+006    4.07039E+006    1.32878E+007   -8.79898E+006    1.27915E+007    5.14679E+006    4.07073E+006    1.71794E+007   -7.66413E+003   -1.47681E+006   -4.58001E+004
            5314    1.48550E+007    1.83119E+007    1.83119E+007    3.78708E+006    3.14740E+006    1.51645E+007   -8.41547E+006    1.48240E+007    3.84333E+006    3.14743E+006    1.82557E+007    3.71762E+003   -9.02202E+005   -1.43687E+004
            5315    1.09767E+007    1.66499E+007    1.66499E+007    6.11870E+006    5.27618E+006    1.13737E+007   -9.34825E+006    1.09036E+007    6.13931E+006    5.81165E+006    1.60938E+007   -1.84742E+005   -2.12310E+006   -1.21139E+006
            5316    1.24617E+007    1.66345E+007    1.66345E+007    4.63612E+006    3.75612E+006    1.28784E+007   -8.34225E+006    1.23915E+007    4.80601E+006    3.77567E+006    1.64451E+007   -4.29802E+004   -1.45403E+006   -3.76270E+005
            5317    1.42100E+007    1.74408E+007    1.74408E+007    3.47659E+006    2.99711E+006    1.44437E+007   -7.97150E+006    1.41918E+007    3.52855E+006    3.00029E+006    1.73857E+007    4.09684E+004   -8.74309E+005   -5.04336E+004
            5318    1.11994E+007    1.53183E+007    1.53183E+007    5.05060E+006    3.37578E+006    1.19425E+007   -7.91488E+006    1.09123E+007    5.10489E+006    3.96909E+006    1.46706E+007   -3.31284E+005   -1.96133E+006   -1.81643E+006
            5319    1.14762E+007    1.49535E+007    1.49535E+007    3.90478E+006    3.09283E+006    1.18607E+007   -7.31703E+006    1.14113E+007    4.05684E+006    3.14587E+006    1.47484E+007   -6.74392E+004   -1.38824E+006   -5.85982E+005
            5320    1.27412E+007    1.54818E+007    1.54818E+007    2.85897E+006    2.62535E+006    1.28564E+007   -6.98870E+006    1.27364E+007    2.85958E+006    2.67763E+006    1.54289E+007    1.02606E+005   -8.11920E+005   -8.50730E+004
            5321    3.61669E+006    3.82210E+006    3.82210E+006    4.95916E+005   -2.79603E+004    3.85006E+006   -1.43002E+006    3.52982E+006    4.94844E+005   -6.53071E+003    3.80175E+006    1.01743E+005   -2.30383E+005   -1.22772E+005
            5322    3.32524E+006    3.47199E+006    3.47199E+006    5.73016E+005   -1.57909E+005    3.62990E+006   -1.29570E+006    3.13676E+006    5.05775E+005   -2.89414E+004    3.41026E+006    2.62378E+005   -2.14460E+005   -3.81958E+005
            5323    3.13992E+006    3.17740E+006    3.17740E+006    6.65834E+005   -3.42921E+005    3.52032E+006   -1.16677E+006    2.73808E+006    5.61550E+005   -7.18267E+004    3.01059E+006    3.94140E+005   -2.05048E+005   -6.62522E+005
            5324    3.09690E+006    2.93265E+006    2.93265E+006    6.06485E+005   -5.82560E+005    3.51521E+006   -9.85525E+005    2.49993E+006    5.55112E+005   -1.82172E+005    2.58363E+006    3.78967E+005   -1.74051E+005   -9.85726E+005
            5325    3.55724E+006    3.10038E+006    3.10038E+006    5.01422E+005   -9.53739E+005    4.05411E+006   -8.82686E+005    2.75726E+006    4.72308E+005   -1.83719E+005    2.35947E+006    4.38270E+005   -1.77022E+005   -1.50044E+006
            5326    3.16395E+006    3.36194E+006    3.36194E+006    4.71543E+005   -1.84092E+004    3.38035E+006   -1.27169E+006    3.07687E+006    4.62260E+005    1.05782E+003    3.35176E+006    9.33240E+004   -1.44716E+005   -9.50566E+004
            5327    2.85204E+006    3.02515E+006    3.02515E+006    5.59726E+005   -9.84189E+004    3.12357E+006   -1.16215E+006    2.67305E+006    4.79107E+005    1.86936E+004    2.98866E+006    2.40108E+005   -1.32232E+005   -2.84851E+005
            5328    2.53272E+006    2.66048E+006    2.66048E+006    6.51016E+005   -1.84415E+005    2.84490E+006   -1.04236E+006    2.18889E+006    5.23856E+005    4.77706E+004    2.55546E+006    3.42737E+005   -1.19268E+005   -4.82465E+005
            5329    2.25011E+006    2.28761E+006    2.28761E+006    5.65106E+005   -2.58197E+005    2.54581E+006   -8.64841E+005    1.86295E+006    4.83598E+005    7.92740E+004    2.03165E+006    3.19861E+005   -9.89191E+004   -7.16672E+005
            5330    2.35842E+006    2.24588E+006    2.24588E+006    4.52912E+005   -4.25745E+005    2.67162E+006   -7.57681E+005    1.93509E+006    3.95125E+005    2.91740E+005    1.58618E+006    3.73531E+005   -9.51227E+004   -1.08995E+006
            5331    2.86935E+006    3.05909E+006    3.05909E+006    4.48423E+005   -1.30077E+004    3.07210E+006   -1.16484E+006    2.78403E+006    4.32629E+005    4.19406E+003    3.05769E+006    8.69887E+004   -4.99070E+004   -3.57987E+004
            5332    2.54310E+006    2.73112E+006    2.73112E+006    5.44944E+005   -5.98687E+004    2.79098E+006   -1.07206E+006    2.37305E+006    4.52510E+005    3.80276E+004    2.72565E+006    2.20871E+005   -4.53508E+004   -1.05975E+005
            5333    2.11372E+006    2.30566E+006    2.30566E+006    6.51358E+005   -7.56137E+004    2.38127E+006   -9.60467E+005    1.79835E+006    4.89041E+005    1.02808E+005    2.28955E+006    3.08505E+005   -3.96053E+004   -1.74313E+005
            5334    1.57029E+006    1.77327E+006    1.77327E+006    6.03635E+005   -1.14526E+004    1.78472E+006   -7.88484E+005    1.25271E+006    4.37078E+005    1.99811E+005    1.72856E+006    2.84189E+005   -2.98522E+004   -2.51785E+005
            5335    1.14350E+006    1.34656E+006    1.34656E+006    5.82814E+005    3.18848E+004    1.31468E+006   -6.53753E+005    7.44464E+005    3.28053E+005    5.21956E+005    1.11125E+006    3.28082E+005   -2.89242E+004   -4.01267E+005
            5336    8.44945E+006    8.05878E+006    8.05878E+006    1.48021E+006   -1.47029E+006    9.52908E+006   -2.68957E+006    7.14429E+006    1.52403E+006   -1.35885E+006    7.90353E+006    5.00739E+005   -9.83415E+005    3.36281E+005
            5337    7.60471E+006    6.59961E+006    6.59961E+006    1.02364E+006   -2.06315E+006    8.66276E+006   -1.85337E+006    5.92707E+006    1.03176E+006   -1.95881E+006    6.48715E+006    5.56079E+005   -7.23884E+005   -3.22695E+005
            5338    6.70776E+006    5.54182E+006    5.54182E+006    7.63750E+005   -2.12657E+006    7.66838E+006   -1.39300E+006    4.98720E+006    7.60692E+005   -1.93788E+006    5.35618E+006    5.58144E+005   -5.58280E+005   -8.79843E+005
            5339    5.70029E+006    4.64501E+006    4.64501E+006    6.18598E+005   -1.87756E+006    6.52257E+006   -1.12868E+006    4.17538E+006    6.05869E+005   -1.50213E+006    4.28230E+006    5.33193E+005   -4.01752E+005   -1.34741E+006
            5340    4.64524E+006    3.85695E+006    3.85695E+006    5.42936E+005   -1.45262E+006    5.30957E+006   -9.82422E+005    3.46299E+006    5.23485E+005   -8.54775E+005    3.27856E+006    4.92373E+005   -2.80344E+005   -1.56289E+006
            5341    3.91680E+006    3.54785E+006    3.54785E+006    6.37347E+005   -9.05408E+005    4.45326E+006   -1.09326E+006    3.11396E+006    5.97679E+005   -5.72799E+005    3.25491E+006    4.34630E+005   -2.73777E+005   -1.00144E+006
            5342    3.73623E+006    3.66874E+006    3.66874E+006    6.62021E+005   -5.14008E+005    4.18275E+006   -1.27225E+006    3.27931E+006    5.65031E+005   -2.73035E+005    3.52476E+006    4.34520E+005   -2.94630E+005   -6.29754E+005
            5343    3.74760E+006    3.85255E+006    3.85255E+006    5.54556E+005   -2.22745E+005    4.07530E+006   -1.39479E+006    3.55939E+006    4.91814E+005   -1.02677E+005    3.79523E+006    2.76104E+005   -2.84255E+005   -3.38426E+005
            5344    4.02533E+006    4.22175E+006    4.22175E+006    4.85962E+005   -4.11922E+004    4.26294E+006   -1.55550E+006    3.94655E+006    4.91483E+005   -2.02514E+004    4.19528E+006    1.04469E+005   -2.96932E+005   -1.01131E+005
            5345    4.68137E+006    4.14405E+006    4.14405E+006    6.73831E+005   -1.18040E+006    5.32445E+006   -1.21250E+006    3.70873E+006    6.38418E+005   -9.78968E+005    3.97804E+006    4.70896E+005   -3.89182E+005   -7.36012E+005
            5346    4.24058E+006    4.08494E+006    4.08494E+006    6.19348E+005   -6.43644E+005    4.72858E+006   -1.35355E+006    3.78138E+006    5.27225E+005   -4.65714E+005    3.99913E+006    4.39364E+005   -3.91688E+005   -3.89719E+005
            5347    4.06038E+006    4.10014E+006    4.10014E+006    4.79871E+005   -2.90088E+005    4.39023E+006   -1.42997E+006    3.89101E+006    4.26328E+005   -1.99334E+005    4.06293E+006    2.54842E+005   -3.37104E+005   -1.40584E+005
            5348    4.20191E+006    4.35107E+006    4.35107E+006    4.00533E+005   -6.36615E+004    4.41473E+006   -1.56265E+006    4.14363E+006    4.08670E+005   -4.32703E+004    4.32254E+006    9.62971E+004   -3.34812E+005   -1.21613E+004
            5349    5.42378E+006    4.82769E+006    4.82769E+006    7.06920E+005   -1.31702E+006    6.14472E+006   -1.40586E+006    4.44653E+006    6.89840E+005   -1.20451E+006    4.73226E+006    4.60413E+005   -5.40346E+005   -3.25541E+005
            5350    4.71068E+006    4.51827E+006    4.51827E+006    5.57930E+005   -6.91036E+005    5.20930E+006   -1.46172E+006    4.31396E+006    4.86025E+005   -5.60174E+005    4.45931E+006    3.85378E+005   -4.85270E+005   -6.57305E+003
            5351    4.19970E+006    4.20995E+006    4.20995E+006    3.66390E+005   -2.72648E+005    4.48260E+006   -1.43456E+006    4.08817E+006    3.32745E+005   -1.98219E+005    4.16917E+006    1.83727E+005   -3.71888E+005    1.67612E+005
            5352    4.07407E+006    4.16475E+006    4.16475E+006    2.50659E+005   -5.23728E+004    4.21712E+006   -1.45435E+006    4.04860E+006    2.61942E+005   -3.27967E+004    4.13389E+006    6.32721E+004   -3.36358E+005    9.40597E+004
            5353    6.11561E+006    5.67869E+006    5.67869E+006    8.18431E+005   -1.18811E+006    6.86680E+006   -1.76967E+006    5.29524E+006    8.22648E+005   -1.08656E+006    5.57292E+006    4.12250E+005   -7.08428E+005    1.87800E+005
            5354    4.96811E+006    4.93746E+006    4.93746E+006    4.98417E+005   -4.29000E+005    5.36646E+006   -1.66896E+006    4.76748E+006    4.64858E+005   -2.98301E+005    4.84032E+006    2.49500E+005   -5.70867E+005    3.87889E+005
            5355    4.18797E+006    4.21313E+006    4.21313E+006    2.20559E+005   -1.46130E+005    4.35926E+006   -1.42919E+006    4.15162E+006    2.32349E+005   -8.75923E+004    4.14280E+006    5.14036E+004   -3.67553E+005    4.00323E+005
            5356    3.74674E+006    3.76106E+006    3.76106E+006    6.28787E+004   -3.24306E+004    3.79349E+006   -1.26384E+006    3.74401E+006    7.67568E+004   -1.44243E+004    3.72917E+006    1.64654E+004   -3.00558E+005    1.68099E+005
            5357    6.46007E+006    6.63431E+006    6.63431E+006    9.57547E+005   -3.94921E+005    7.02923E+006   -2.39898E+006    6.12927E+006    1.01464E+006   -2.75078E+005    6.45737E+006    2.32361E+005   -8.71004E+005    5.73945E+005
            5358    4.98686E+006    5.20066E+006    5.20066E+006    3.72660E+005    6.88383E+004    5.13182E+006   -1.88072E+006    4.96597E+006    4.03337E+005    1.50329E+005    5.08849E+006    3.69388E+004   -5.48238E+005    5.04278E+005
            5359    4.13301E+006    4.17378E+006    4.17378E+006    1.37151E+005   -4.93033E+004    4.22308E+006   -1.42054E+006    4.12353E+006    1.33603E+005    3.62786E+004    4.09175E+006   -1.05615E+005   -3.14863E+005    4.79343E+005
            5360    3.32459E+006    3.27779E+006    3.27779E+006    2.57176E+004   -1.14849E+005    3.39264E+006   -1.06289E+006    3.31789E+006   -9.36493E+004    3.20669E+004    3.25024E+006   -3.88342E+004   -2.34570E+005    1.88192E+005
            5361    2.95862E+006    2.84681E+006    2.84681E+006    6.31087E+004   -2.60164E+005    3.10698E+006   -8.83252E+005    2.91848E+006   -2.29096E+005    4.78930E+004    2.83096E+006   -9.20715E+004   -1.48690E+005    1.51208E+005
            5362    2.72631E+006    2.58131E+006    2.58131E+006    1.02959E+005   -3.38963E+005    2.92028E+006   -7.81770E+005    2.64393E+006   -3.00251E+005    6.66203E+004    2.57894E+006   -1.24747E+005   -4.98433E+004    5.94150E+004
            5363    3.98644E+006    4.07056E+006    4.07056E+006    3.06404E+005   -1.06083E+005    4.17665E+006   -1.42363E+006    3.93800E+006    5.69465E+004    1.96976E+005    4.01696E+006   -2.21387E+005   -2.16484E+005    3.90407E+005
            5364    3.83341E+006    3.93937E+006    3.93937E+006    4.70370E+005   -1.76213E+005    4.11558E+006   -1.41117E+006    3.70774E+006   -3.74743E+003    3.05833E+005    3.93144E+006   -2.88319E+005   -7.88193E+004    1.45729E+005
            5365    4.96250E+006    5.28308E+006    5.28308E+006    5.05447E+005    1.54362E+005    5.12871E+006   -1.98096E+006    4.93444E+006    2.99086E+005    4.29514E+005    5.21429E+006   -1.98347E+005   -3.88247E+005    4.16737E+005
            5366    4.85026E+006    5.27767E+006    5.27767E+006    8.72600E+005    7.98735E+004    5.19779E+006   -2.07671E+006    4.70119E+006    2.91395E+005    6.72813E+005    5.26593E+006   -3.54000E+005   -1.37815E+005    1.80725E+005
            5367    6.31502E+006    7.01516E+006    7.01516E+006    8.06332E+005    5.99059E+005    6.41610E+006   -2.80685E+006    6.30736E+006    8.94939E+005    6.39718E+005    6.88589E+006   -5.66477E+004   -7.34338E+005    5.05420E+005
            5368    6.07811E+006    6.87956E+006    6.87956E+006    1.29381E+006    4.06603E+005    6.47296E+006   -2.85999E+006    5.92980E+006    6.12305E+005    1.10652E+006    6.86115E+006   -3.74084E+005   -2.81049E+005    1.65990E+005
            5369    7.52820E+006    8.73360E+006    8.73360E+006    1.66446E+006    8.17908E+005    7.91569E+006   -3.73865E+006    7.41998E+006    9.81355E+005    1.53222E+006    8.70239E+006   -3.16613E+005   -4.73982E+005    1.07259E+005
            5370    9.40344E+006    1.11250E+007    1.11250E+007    2.05190E+006    1.42281E+006    9.70219E+006   -4.86657E+006    9.35592E+006    1.56823E+006    1.94784E+006    1.10836E+007   -2.40664E+005   -6.20393E+005    8.39459E+004
            5371    7.70097E+006    8.89728E+006    8.89728E+006    1.50639E+006    9.19777E+005    7.97750E+006   -3.77448E+006    7.65046E+006    1.61147E+006    9.96616E+005    8.71535E+006    5.18556E+004   -9.97172E+005    6.06291E+005
            5372    9.12966E+006    1.11109E+007    1.11109E+007    2.34577E+006    1.65582E+006    9.45506E+006   -5.03749E+006    9.07073E+006    2.47103E+006    1.74766E+006    1.08938E+007    6.11679E+004   -1.18647E+006    7.20510E+005
            5373    1.02915E+007    1.15703E+007    1.15703E+007    2.88957E+006    2.01496E+005    1.13688E+007   -4.88713E+006    9.45211E+006    2.95589E+006    5.72703E+005    1.11328E+007    4.51982E+005   -1.48337E+006    1.49144E+006
            5374    9.33690E+006    9.66409E+006    9.66409E+006    2.03772E+006   -7.48827E+005    1.04129E+007   -3.65100E+006    8.32131E+006    2.10658E+006   -5.39710E+005    9.38612E+006    4.49737E+005   -1.23262E+006    9.58204E+005
            5375    6.76546E+006    6.10943E+006    6.10943E+006    9.47812E+005   -1.54974E+006    7.65917E+006   -1.83583E+006    5.57692E+006    9.56238E+005   -1.47886E+006    6.03013E+006   -4.15583E+005    6.38528E+005    1.45311E+004
            5376    5.93160E+006    4.94181E+006    4.94181E+006    6.57275E+005   -1.82819E+006    6.77000E+006   -1.25696E+006    4.51494E+006    6.48042E+005   -1.68982E+006    4.81267E+006   -4.64787E+005    4.67802E+005   -6.66614E+005
            5377    5.08540E+006    4.22379E+006    4.22379E+006    5.98428E+005   -1.58937E+006    5.81317E+006   -1.07762E+006    3.78630E+006    5.81707E+005   -1.30449E+006    3.95563E+006   -4.68737E+005    3.59849E+005   -1.08147E+006
            5378    4.19968E+006    3.59169E+006    3.59169E+006    5.83200E+005   -1.20634E+006    4.79803E+006   -9.89515E+005    3.15291E+006    5.62676E+005   -7.17990E+005    3.12386E+006   -4.46171E+005    2.61793E+005   -1.33600E+006
            5379    3.58845E+006    3.60395E+006    3.60395E+006    6.33780E+005   -3.83245E+005    3.98719E+006   -1.28483E+006    3.23962E+006    6.00378E+005   -2.20982E+005    3.47509E+006   -2.90710E+005    2.54888E+005   -6.13401E+005
            5380    3.92893E+006    4.17565E+006    4.17565E+006    7.38437E+005   -1.07265E+005    4.28291E+006   -1.60227E+006    3.71577E+006    7.49913E+005   -8.65738E+004    4.14348E+006   -1.21370E+005    2.93642E+005   -1.62208E+005
            5381    4.09963E+006    3.98800E+006    3.98800E+006    6.00434E+005   -5.69382E+005    4.55739E+006   -1.33968E+006    3.69521E+006    5.69308E+005   -4.74554E+005    3.92430E+006   -2.97802E+005    3.21582E+005   -3.57235E+005
            5382    4.24944E+006    4.36839E+006    4.36839E+006    6.03466E+005   -2.39278E+005    4.60767E+006   -1.57753E+006    4.05498E+006    6.18283E+005   -2.17888E+005    4.33218E+006   -1.33180E+005    3.68251E+005   -1.33748E+003
            5383    4.67698E+006    4.46923E+006    4.46923E+006    5.53287E+005   -7.09494E+005    5.17872E+006   -1.43767E+006    4.26745E+006    5.37164E+005   -6.47360E+005    4.42322E+006   -2.54583E+005    4.13413E+005    1.40692E+005
            5384    4.12643E+006    4.16958E+006    4.16958E+006    3.72108E+005   -2.21513E+005    4.39109E+006   -1.44006E+006    4.02868E+006    3.88092E+005   -1.83992E+005    4.11607E+006   -1.00669E+005    4.02959E+005    2.25133E+005
            5385    4.79578E+006    4.88493E+006    4.88493E+006    5.62074E+005   -2.73853E+005    5.15879E+006   -1.72438E+006    4.62759E+006    5.80221E+005   -1.72905E+005    4.76584E+006   -1.02234E+005    4.72110E+005    5.94582E+005
            5386    3.72288E+006    3.71222E+006    3.71222E+006    8.62976E+004   -1.00573E+005    3.81280E+006   -1.23265E+006    3.71231E+006    1.02910E+005   -5.79817E+004    3.65302E+006   -2.83216E+004    3.62375E+005    2.96166E+005
            5387    3.31872E+006    3.22553E+006    3.22553E+006    2.47085E+004   -1.99692E+005    3.42522E+006   -1.01685E+006    3.30158E+006   -1.75466E+005    4.02887E+004    3.18572E+006    5.21102E+004    2.55488E+005    2.52291E+005
            5388    2.97582E+006    2.83999E+006    2.83999E+006    1.66640E+005   -3.66278E+005    3.20627E+006   -8.80118E+005    2.86549E+006   -3.35587E+005    1.43389E+005    2.83255E+006    1.22086E+005    9.37700E+004    1.08527E+005
            5389    4.60231E+006    4.89781E+006    4.89781E+006    4.20615E+005    1.79833E+005    4.71798E+006   -1.83275E+006    4.58811E+006    4.47386E+005    2.61060E+005    4.78981E+006    9.52775E+004    3.90531E+005    5.76200E+005
            5390    4.31724E+006    4.68704E+006    4.68704E+006    6.89531E+005    1.08844E+005    4.57819E+006   -1.82847E+006    4.22804E+006    2.67176E+005    5.49851E+005    4.66839E+006    2.64159E+005    1.55462E+005    2.23811E+005
            5391    5.40976E+006    6.30955E+006    6.30955E+006    1.21990E+006    6.28303E+005    5.68124E+006   -2.71925E+006    5.33625E+006    7.83882E+005    1.08564E+006    6.28823E+006    2.66141E+005    2.09810E+005    2.53617E+005
            5392    6.75816E+006    8.23414E+006    8.23414E+006    1.70887E+006    1.26499E+006    6.96916E+006   -3.73600E+006    6.72524E+006    1.41665E+006    1.57116E+006    8.22019E+006    2.13716E+005    2.49843E+005    1.70842E+005
            5393    8.48932E+006    1.06275E+007    1.06275E+007    2.32655E+006    1.96162E+006    8.66590E+006   -4.97190E+006    8.47165E+006    2.26192E+006    2.04179E+006    1.06120E+007    1.53384E+005    2.54438E+005    2.54137E+005
            5394    1.02278E+007    1.31047E+007    1.31047E+007    3.23073E+006    2.55646E+006    1.05482E+007   -6.29728E+006    1.01776E+007    3.22431E+006    2.57190E+006    1.30956E+007    9.21049E+004    2.25176E+005    2.00189E+005
            5395    5.87579E+006    6.57281E+006    6.57281E+006    9.47834E+005    4.74797E+005    6.09801E+006   -2.66515E+006    5.83272E+006    1.00944E+006    5.21031E+005    6.46497E+006    4.80766E+004    5.83565E+005    5.26136E+005
            5396    7.47450E+006    8.81394E+006    8.81394E+006    1.71808E+006    1.01105E+006    7.80289E+006   -3.84769E+006    7.39871E+006    1.79663E+006    1.07025E+006    8.67618E+006    3.22297E+004    7.49512E+005    6.65021E+005
            5397    8.78023E+006    1.09493E+007    1.09493E+007    2.54945E+006    1.83261E+006    9.11667E+006   -5.11045E+006    8.71403E+006    2.63354E+006    1.89520E+006    1.08026E+007    8.85603E+003    8.62876E+005    7.18350E+005
            5398    1.03387E+007    1.33882E+007    1.33882E+007    3.51932E+006    2.63637E+006    1.07519E+007   -6.51464E+006    1.02534E+007    3.60408E+006    2.68631E+006    1.32535E+007   -2.38998E+004    9.55870E+005    6.67311E+005
            5399    1.08984E+007    1.37432E+007    1.37432E+007    4.50144E+006    1.72529E+006    1.20179E+007   -6.65665E+006    1.00556E+007    4.53934E+006    2.19947E+006    1.32312E+007   -3.90197E+005    1.36834E+006    1.94424E+006
            5400    1.01373E+007    1.15196E+007    1.15196E+007    3.22298E+006    2.20102E+005    1.12995E+007   -4.98755E+006    9.05253E+006    3.25871E+006    5.43325E+005    1.11606E+007   -4.10459E+005    1.16415E+006    1.51911E+006
            5401    9.04424E+006    9.51102E+006    9.51102E+006    2.26799E+006   -6.26034E+005    1.01371E+007   -3.71766E+006    7.89703E+006    2.30538E+006   -4.21818E+005    9.26941E+006   -3.71828E+005    9.66145E+005    1.10387E+006
            5402    7.81273E+006    7.74150E+006    7.74150E+006    1.54538E+006   -1.03501E+006    8.77651E+006   -2.75062E+006    6.74903E+006    1.57766E+006   -9.32355E+005    7.60656E+006   -3.51243E+005    7.94644E+005    5.75556E+005
            5403    3.48375E+006    3.73025E+006    3.73025E+006    7.24184E+005   -8.77696E+004    3.81802E+006   -1.45556E+006    3.26050E+006    7.29149E+005   -6.84076E+004    3.70593E+006   -1.02563E+005    2.11239E+005   -1.82242E+005
            5404    3.03696E+006    3.16829E+006    3.16829E+006    6.35988E+005   -1.98756E+005    3.36704E+006   -1.20184E+006    2.76064E+006    5.94394E+005   -2.20758E+003    3.01333E+006   -2.59114E+005    1.74991E+005   -6.53077E+005
            5405    3.26937E+006    2.95438E+006    2.95438E+006    5.72493E+005   -7.73040E+005    3.72742E+006   -9.17946E+005    2.52296E+006    5.42227E+005   -1.65680E+005    2.37729E+006   -3.99900E+005    1.71796E+005   -1.28489E+006
            5406    3.01011E+006    3.27412E+006    3.27412E+006    6.85468E+005   -2.89220E+004    3.30304E+006   -1.31022E+006    2.80972E+006    6.83529E+005   -1.44747E+004    3.26161E+006   -8.16243E+004    1.23827E+005   -1.43253E+005
            5407    2.44014E+006    2.65874E+006    2.65874E+006    5.97135E+005   -3.53874E+004    2.69412E+006   -1.07350E+006    2.24431E+006    5.36038E+005    1.13250E+005    2.57120E+006   -2.22037E+005    1.08069E+005   -4.43582E+005
            5408    2.25247E+006    2.23388E+006    2.23388E+006    5.42407E+005   -3.22933E+005    2.55682E+006   -8.17786E+005    1.81766E+006    4.85232E+005    2.33293E+005    1.73483E+006   -3.40687E+005    9.48471E+004   -9.58927E+005
            5409    2.73098E+006    2.98429E+006    2.98429E+006    6.42216E+005   -1.54697E+004    2.99976E+006   -1.20368E+006    2.54347E+006    6.35625E+005   -7.31792E+003    2.98273E+006   -6.99199E+004    4.16133E+004   -4.83633E+004
            5410    2.06741E+006    2.34027E+006    2.34027E+006    5.87489E+005    6.03136E+004    2.27996E+006   -9.96026E+005    1.90720E+006    5.00025E+005    1.61044E+005    2.32701E+006   -2.00308E+005    3.32678E+004   -1.61676E+005
            5411    1.20194E+006    1.44657E+006    1.44657E+006    6.22785E+005    6.73608E+004    1.37921E+006   -7.12238E+005    8.30039E+005    4.14248E+005    4.07270E+005    1.31520E+006   -2.99156E+005    2.88678E+004   -3.44306E+005
            5412    1.06721E+007    1.37255E+007    1.37255E+007    3.47396E+006    2.67744E+006    1.10480E+007   -6.62562E+006    1.06049E+007    3.47317E+006    2.68794E+006    1.37157E+007   -7.50822E+004    2.35802E+005   -2.15858E+005
            5413    1.06242E+007    1.39070E+007    1.39070E+007    3.76939E+006    2.85520E+006    1.10518E+007   -6.84387E+006    1.05352E+007    3.85519E+006    2.90964E+006    1.37668E+007    3.37544E+004    9.86375E+005   -6.94514E+005
            5414    1.10199E+007    1.40406E+007    1.40406E+007    4.66619E+006    1.90171E+006    1.21389E+007   -6.86950E+006    1.01950E+007    4.70454E+006    2.38474E+006    1.35192E+007    3.94007E+005    1.39841E+006   -1.96438E+006
            5415    1.23754E+007    1.60966E+007    1.60966E+007    4.42818E+006    3.11835E+006    1.29782E+007   -7.88104E+006    1.22180E+007    4.43068E+006    3.12085E+006    1.60916E+007   -3.29523E+004    1.93669E+005   -1.51809E+005
            5416    1.20377E+007    1.62392E+007    1.62392E+007    4.75838E+006    3.71284E+006    1.25264E+007   -8.23681E+006    1.19349E+007    4.84729E+006    3.74322E+006    1.61199E+007    4.04190E+004    1.04816E+006   -5.37943E+005
            5417    1.10554E+007    1.59218E+007    1.59218E+007    6.02652E+006    3.98965E+006    1.19321E+007   -8.64599E+006    1.06208E+007    6.08147E+006    4.49448E+006    1.53620E+007    3.06764E+005    1.55932E+006   -1.93811E+006
            5418    1.36350E+007    1.78246E+007    1.78246E+007    5.13253E+006    3.41030E+006    1.44143E+007   -8.78915E+006    1.33870E+007    5.13464E+006    3.41080E+006    1.78220E+007   -9.07203E+003    1.65047E+005   -8.12959E+004
            5419    1.30276E+007    1.79100E+007    1.79100E+007    5.49125E+006    4.34878E+006    1.35612E+007   -9.25000E+006    1.29141E+007    5.58503E+006    4.35619E+006    1.78088E+007    2.26949E+004    1.08584E+006   -2.75661E+005
            5420    1.05794E+007    1.71162E+007    1.71162E+007    7.07918E+006    6.06715E+006    1.10491E+007   -1.00875E+007    1.04697E+007    7.20640E+006    6.34794E+006    1.67082E+007    1.65019E+005    1.65774E+006   -1.21380E+006
            5421    1.40291E+007    1.83564E+007    1.83564E+007    5.34877E+006    3.49099E+006    1.48654E+007   -9.06539E+006    1.37483E+007    5.35057E+006    3.49100E+006    1.83546E+007   -2.33459E+002    1.53202E+005    1.53029E+004
            5422    1.33576E+007    1.84413E+007    1.84413E+007    5.71652E+006    4.53005E+006    1.39112E+007   -9.56261E+006    1.32382E+007    5.81175E+006    4.53029E+006    1.83458E+007   -3.52875E+003    1.09698E+006    5.23972E+004
            5423    1.02788E+007    1.74929E+007    1.74929E+007    7.34873E+006    7.08454E+006    1.04084E+007   -1.06421E+007    1.02712E+007    7.63747E+006    7.08538E+006    1.72034E+007   -5.43516E+003    1.68878E+006    4.58996E+004
            5424    1.34126E+007    1.75054E+007    1.75054E+007    4.99462E+006    3.34368E+006    1.41617E+007   -8.61455E+006    1.31811E+007    4.99675E+006    3.34437E+006    1.75025E+007    1.18885E+004    1.65809E+005    9.36239E+004
            5425    1.29091E+007    1.76370E+007    1.76370E+007    5.34533E+006    4.18850E+006    1.34486E+007   -9.05696E+006    1.27917E+007    5.43642E+006    4.20142E+006    1.75330E+007   -3.45288E+004    1.07517E+006    3.55812E+005
            5426    1.05970E+007    1.70290E+007    1.70290E+007    7.01150E+006    5.93475E+006    1.10942E+007   -9.99174E+006    1.04728E+007    7.12950E+006    6.23527E+006    1.66104E+007   -1.75932E+005    1.64822E+006    1.27628E+006
            5427    1.19989E+007    1.55594E+007    1.55594E+007    4.20087E+006    3.00906E+006    1.25504E+007   -7.58978E+006    1.18647E+007    4.20301E+006    3.01250E+006    1.55538E+007    4.05619E+004    1.94398E+005    1.67235E+005
            5428    1.17944E+007    1.57637E+007    1.57637E+007    4.51709E+006    3.48899E+006    1.22748E+007   -7.92327E+006    1.16929E+007    4.60404E+006    3.52048E+006    1.56453E+007   -3.61979E+004    1.02446E+006    5.49869E+005
            5429    1.10336E+007    1.57318E+007    1.57318E+007    5.89215E+006    3.80288E+006    1.19289E+007   -8.47561E+006    1.05748E+007    5.94564E+006    4.30713E+006    1.51740E+007   -3.12388E+005    1.54197E+006    1.94478E+006
            5430    3.26759E+006    2.95335E+006    2.95335E+006    5.72363E+005   -7.71960E+005    3.72531E+006   -9.17918E+005    2.52225E+006    5.42205E+005   -1.62668E+005    2.37422E+006   -3.99607E+005   -1.71435E+005    1.28653E+006
            5431    3.03446E+006    3.16648E+006    3.16648E+006    6.35694E+005   -1.97549E+005    3.36403E+006   -1.20154E+006    2.75894E+006    5.94127E+005   -3.24992E+003    3.01375E+006   -2.58111E+005   -1.74465E+005    6.48048E+005
            5432    3.47651E+006    3.72180E+006    3.72180E+006    7.22861E+005   -8.87114E+004    3.81051E+006   -1.45198E+006    3.25297E+006    7.27651E+005   -6.94562E+004    3.69776E+006   -1.02470E+005   -2.09896E+005    1.80820E+005
            5433    2.24284E+006    2.22629E+006    2.22629E+006    5.41318E+005   -3.19424E+005    2.54572E+006   -8.16063E+005    1.81097E+006    4.83974E+005    2.35343E+005    1.72887E+006   -3.39998E+005   -9.45824E+004    9.54919E+005
            5434    2.44654E+006    2.66427E+006    2.66427E+006    5.97711E+005   -3.71080E+004    2.70137E+006   -1.07496E+006    2.24977E+006    5.36954E+005    1.10488E+005    2.57743E+006   -2.21816E+005   -1.08094E+005    4.42448E+005
            5435    3.00639E+006    3.27019E+006    3.27019E+006    6.84861E+005   -2.88167E+004    3.29901E+006   -1.30874E+006    2.80614E+006    6.82906E+005   -1.44790E+004    3.25781E+006   -8.13060E+004   -1.23105E+005    1.42470E+005
            5436    1.18904E+006    1.43690E+006    1.43690E+006    6.26203E+005    7.19208E+004    1.36498E+006   -7.11676E+005    8.11990E+005    4.13872E+005    4.10174E+005    1.31098E+006   -2.98713E+005   -2.88634E+004    3.34414E+005
            5437    2.07337E+006    2.34579E+006    2.34579E+006    5.87979E+005    5.92485E+004    2.28654E+006   -9.97673E+005    1.91267E+006    5.01064E+005    1.60301E+005    2.33165E+006   -2.00347E+005   -3.36118E+004    1.67418E+005
            5438    2.73065E+006    2.98361E+006    2.98361E+006    6.42013E+005   -1.58763E+004    2.99949E+006   -1.20325E+006    2.54300E+006    6.35420E+005   -7.73121E+003    2.98206E+006   -6.99421E+004   -4.16579E+004    4.80546E+004
            5439    3.37546E+006    3.30056E+006    3.30056E+006   -2.05392E+004   -1.26763E+005    3.42732E+006   -1.05109E+006    3.37170E+006   -9.77632E+004   -6.86303E+003    3.25788E+006   -3.95325E+004    2.93681E+005   -2.35742E+005
            5440    3.76175E+006    3.78443E+006    3.78443E+006    1.17583E+005   -6.55456E+004    3.84997E+006   -1.27882E+006    3.75170E+006    1.47054E+005   -4.65201E+004    3.73593E+006    1.36889E+004    3.63814E+005   -2.16737E+005
            5441    4.05398E+006    4.19579E+006    4.19579E+006    3.82307E+005   -6.20673E+004    4.25786E+006   -1.50534E+006    3.99864E+006    4.10905E+005   -4.75828E+004    4.15271E+006    5.58784E+004    3.86469E+005   -1.29656E+005
            5442    4.16432E+006    4.39216E+006    4.39216E+006    5.97950E+005   -6.31771E+004    4.45534E+006   -1.64231E+006    4.04372E+006    6.23585E+005   -5.39007E+004    4.35725E+006    7.65016E+004    3.62636E+005   -1.60931E+004
            5443    3.97711E+006    4.26602E+006    4.26602E+006    7.19760E+005   -3.40536E+004    4.30007E+006   -1.65057E+006    3.81138E+006    7.38851E+005   -2.53048E+004    4.23818E+006    7.87243E+004    3.01914E+005    8.58332E+004
            5444    4.16885E+006    4.29403E+006    4.29403E+006    2.09359E+005    4.58128E+004    4.24822E+006   -1.51640E+006    4.16163E+006    2.39445E+005    1.11837E+005    4.19792E+006   -3.21476E+004    3.53061E+005   -5.20038E+005
            5445    4.20400E+006    4.27197E+006    4.27197E+006    3.51660E+005   -1.67499E+005    4.43946E+006   -1.48538E+006    4.13095E+006    3.50452E+005   -7.75912E+004    4.18326E+006    9.55414E+004    3.98985E+005   -4.67029E+005
            5446    4.19274E+006    4.23857E+006    4.23857E+006    5.00410E+005   -2.94855E+005    4.53342E+006   -1.48137E+006    4.01776E+006    4.78840E+005   -2.20528E+005    4.18581E+006    1.90211E+005    3.93543E+005   -2.46744E+005
            5447    4.02590E+006    4.10260E+006    4.10260E+006    6.10301E+005   -3.00747E+005    4.40335E+006   -1.47072E+006    3.78339E+006    5.84071E+005   -2.37662E+005    4.06575E+006    2.36223E+005    3.47003E+005    8.34132E+004
            5448    3.69146E+006    3.85099E+006    3.85099E+006    6.83027E+005   -2.02787E+005    4.05378E+006   -1.44374E+006    3.43993E+006    6.60102E+005   -1.29384E+005    3.80051E+006    2.28355E+005    2.80753E+005    2.99563E+005
            5449    4.99414E+006    5.25721E+006    5.25721E+006    6.01987E+005   -1.79737E+004    5.27518E+006   -1.94707E+006    4.90645E+006    6.44831E+005    7.73234E+004    5.11906E+006    1.34485E+004    4.97854E+005   -6.62660E+005
            5450    4.96923E+006    4.93275E+006    4.93275E+006    6.23871E+005   -5.03217E+005    5.43596E+006   -1.68447E+006    4.66846E+006    6.34551E+005   -4.06688E+005    4.82554E+006    1.65751E+005    4.95273E+005   -5.36208E+005
            5451    4.67843E+006    4.45550E+006    4.45550E+006    5.96618E+005   -7.48009E+005    5.20351E+006   -1.43470E+006    4.20965E+006    5.84105E+005   -6.88479E+005    4.40848E+006    2.64840E+005    4.21878E+005   -1.01979E+005
            5452    4.16816E+006    4.00343E+006    4.00343E+006    6.22783E+005   -6.53693E+005    4.65713E+006   -1.32418E+006    3.68838E+006    5.99822E+005   -5.71823E+005    3.94453E+006    2.95740E+005    3.36130E+005    3.12824E+005
            5453    3.64992E+006    3.59567E+006    3.59567E+006    6.37492E+005   -4.83191E+005    4.07886E+006   -1.24999E+006    3.22738E+006    6.11074E+005   -3.40385E+005    3.47928E+006    2.86076E+005    2.56971E+005    5.82363E+005
            5454    6.44785E+006    6.75575E+006    6.75575E+006    1.10703E+006   -2.69061E+005    7.02481E+006   -2.53124E+006    6.10421E+006    1.15049E+006   -1.74610E+005    6.61783E+006    1.64203E+005    6.92172E+005   -6.22932E+005
            5455    6.13161E+006    5.73797E+006    5.73797E+006    8.00994E+005   -1.12555E+006    6.86352E+006   -1.80447E+006    5.38473E+006    8.10417E+005   -1.05858E+006    5.66158E+006    3.19863E+005    5.96555E+005   -2.06766E+005
            5456    5.37913E+006    4.82646E+006    4.82646E+006    6.58880E+005   -1.24588E+006    6.07234E+006   -1.41315E+006    4.52120E+006    6.45012E+005   -1.15976E+006    4.75421E+006    3.82475E+005    4.58456E+005    3.19770E+005
            5457    4.63104E+006    4.13780E+006    4.13780E+006    5.96540E+005   -1.10285E+006    5.24066E+006   -1.21050E+006    3.82878E+006    5.70169E+005   -9.19302E+005    3.98062E+006    4.04449E+005    3.54948E+005    7.41234E+005
            5458    3.84057E+006    3.53994E+006    3.53994E+006    5.91968E+005   -8.03206E+005    4.34315E+006   -1.10957E+006    3.19072E+006    5.54780E+005   -4.75003E+005    3.24893E+006    3.92172E+005    2.52317E+005    1.00072E+006
            5459    4.60103E+006    3.75479E+006    3.75479E+006    5.94659E+005   -1.52388E+006    5.27867E+006   -9.41857E+005    3.19158E+006    5.82443E+005   -9.70743E+005    3.21387E+006    4.80785E+005    2.79565E+005    1.50750E+006
            5460    5.68959E+006    4.55993E+006    4.55993E+006    6.62032E+005   -1.96900E+006    6.52893E+006   -1.08432E+006    3.92569E+006    6.55884E+005   -1.62839E+006    4.22547E+006    5.15104E+005    3.95901E+005    1.28988E+006
            5461    6.75639E+006    5.52600E+006    5.52600E+006    8.35813E+005   -2.21821E+006    7.74421E+006   -1.38120E+006    4.78914E+006    8.34820E+005   -2.05478E+006    5.36356E+006    5.31296E+005    5.27485E+005    8.20903E+005
            5462    7.66229E+006    6.61043E+006    6.61043E+006    1.12574E+006   -2.14435E+006    8.75477E+006   -1.86394E+006    5.74487E+006    1.13530E+006   -2.05830E+006    6.51482E+006    5.22456E+005    6.74968E+005    2.62470E+005
            5463    8.54729E+006    8.18474E+006    8.18474E+006    1.66927E+006   -1.49309E+006    9.67783E+006   -2.78697E+006    7.03788E+006    1.70068E+006   -1.39520E+006    8.05544E+006    4.60209E+005    8.67453E+005   -4.17235E+005
            5464    9.41747E+006    9.89297E+006    9.89297E+006    2.38834E+006   -6.74698E+005    1.05677E+007   -3.86887E+006    8.17863E+006    2.42472E+006   -4.78285E+005    9.66017E+006    4.15378E+005    1.01223E+006   -1.05096E+006
            5465    1.03550E+007    1.19025E+007    1.19025E+007    3.41522E+006    3.64996E+005    1.15375E+007   -5.22757E+006    9.26038E+006    3.45065E+006    7.14719E+005    1.15173E+007    4.18036E+005    1.20118E+006   -1.60689E+006
            5466    9.19037E+006    1.15108E+007    1.15108E+007    2.76821E+006    1.93009E+006    9.58072E+006   -5.40304E+006    9.10379E+006    2.85261E+006    1.99537E+006    1.13611E+007    1.81331E+004    9.04126E+005   -7.27034E+005
            5467    8.82685E+006    1.11717E+007    1.11717E+007    2.53542E+006    2.16595E+006    9.00578E+006   -5.29103E+006    8.80942E+006    2.49247E+006    2.22177E+006    1.11589E+007   -1.33611E+005    2.61479E+005   -2.07183E+005
            5468    7.68746E+006    9.14908E+006    9.14908E+006    1.86485E+006    1.11356E+006    8.03552E+006   -4.04250E+006    7.60421E+006    1.94503E+006    1.17326E+006    9.00920E+006    2.60506E+003    7.91116E+005   -6.50468E+005
            5469    7.15928E+006    8.85343E+006    8.85343E+006    1.89891E+006    1.50561E+006    7.34782E+006   -4.08598E+006    7.13491E+006    1.65717E+006    1.76523E+006    8.83556E+006   -1.97528E+005    2.68611E+005   -2.28338E+005
            5470    5.92561E+006    7.07485E+006    7.07485E+006    1.44696E+006    8.90739E+005    6.18411E+006   -3.13752E+006    5.86645E+006    1.04912E+006    1.30887E+006    7.05456E+006   -2.56132E+005    2.40406E+005   -2.37946E+005
            5471    4.82031E+006    5.44657E+006    5.44657E+006    9.63837E+005    3.47883E+005    5.09868E+006   -2.25276E+006    4.73056E+006    5.10731E+005    8.13877E+005    5.43368E+006   -2.75303E+005    1.44995E+005   -1.91514E+005
            5472    3.87301E+006    4.05843E+006    4.05843E+006    4.90780E+005   -6.07896E+004    4.11922E+006   -1.49614E+006    3.78313E+006    7.32622E+004    3.66415E+005    4.04874E+006   -2.39283E+005    8.28655E+004   -1.66157E+005
            5473    2.83514E+006    2.64131E+006    2.64131E+006    1.02515E+005   -4.18035E+005    3.05934E+006   -7.75263E+005    2.72449E+006   -3.95963E+005    8.35343E+004    2.63822E+006   -1.02823E+005    6.76228E+004   -6.13629E+004
            5474    6.22895E+006    7.13302E+006    7.13302E+006    1.14849E+006    6.85498E+005    6.44753E+006   -2.98900E+006    6.19006E+006    1.20861E+006    7.41991E+005    7.01641E+006   -6.55862E+004    5.94251E+005   -5.97003E+005
            5475    4.93693E+006    5.42477E+006    5.42477E+006    5.99577E+005    3.83222E+005    5.04155E+006   -2.13586E+006    4.92625E+006    5.67421E+005    5.00474E+005    5.33968E+006   -1.39412E+005    3.81513E+005   -5.09876E+005
            5476    4.04248E+006    4.20308E+006    4.20308E+006    3.13964E+005    2.29667E+004    4.18012E+006   -1.51334E+006    4.01881E+006    1.36895E+005    2.61787E+005    4.14133E+006   -1.64408E+005    2.40717E+005   -4.22584E+005
            5477    3.03541E+006    2.88944E+006    2.88944E+006    5.26347E+004   -3.11692E+005    3.20113E+006   -8.76795E+005    2.98563E+006   -2.87212E+005    5.07370E+004    2.86686E+006   -7.78835E+004    1.91806E+005   -1.71952E+005
            5478    3.72153E+006    3.71115E+006    3.71115E+006    8.57725E+004   -9.96112E+004    3.81076E+006   -1.23244E+006    3.71112E+006    1.02449E+005   -5.70055E+004    3.65187E+006   -2.79327E+004   -3.62319E+005   -2.96578E+005
            5479    4.12963E+006    4.17330E+006    4.17330E+006    3.74268E+005   -2.22086E+005    4.39538E+006   -1.44183E+006    4.03104E+006    3.90307E+005   -1.84795E+005    4.11997E+006   -1.00940E+005   -4.02909E+005   -2.23764E+005
            5480    4.24569E+006    4.36765E+006    4.36765E+006    6.07697E+005   -2.36839E+005    4.60449E+006   -1.57950E+006    4.05019E+006    6.22474E+005   -2.15674E+005    4.33171E+006   -1.33117E+005   -3.66415E+005    7.75618E+003
            5481    3.91596E+006    4.16488E+006    4.16488E+006    7.40042E+005   -1.04422E+005    4.26930E+006   -1.60017E+006    3.70269E+006    7.51286E+005   -8.36343E+004    4.13285E+006   -1.21004E+005   -2.91131E+005    1.64512E+005
            5482    4.79373E+006    4.88112E+006    4.88112E+006    5.61090E+005   -2.76037E+005    5.15715E+006   -1.72206E+006    4.62497E+006    5.79083E+005   -1.75424E+005    4.76251E+006   -1.02738E+005   -4.71575E+005   -5.92800E+005
            5483    4.66645E+006    4.45911E+006    4.45911E+006    5.51760E+005   -7.07842E+005    5.16696E+006   -1.43434E+006    4.25807E+006    5.35358E+005   -6.45791E+005    4.41346E+006   -2.54925E+005   -4.12161E+005   -1.36251E+005
            5484    4.08767E+006    3.97792E+006    3.97792E+006    5.99588E+005   -5.65930E+005    4.54385E+006   -1.33719E+006    3.68510E+006    5.68300E+005   -4.70133E+005    3.91341E+006   -2.97755E+005   -3.20233E+005    3.62246E+005
            5485    3.57737E+006    3.59952E+006    3.59952E+006    6.36147E+005   -3.74432E+005    3.97395E+006   -1.28708E+006    3.23207E+006    6.02792E+005   -2.12003E+005    3.47045E+006   -2.89440E+005   -2.53716E+005    6.13528E+005
            5486    4.20156E+006    3.59126E+006    3.59126E+006    5.82282E+005   -1.20908E+006    4.80034E+006   -9.88155E+005    3.15281E+006    5.61869E+005   -7.19507E+005    3.12210E+006   -4.46270E+005   -2.61716E+005    1.33826E+006
            5487    5.09290E+006    4.22542E+006    4.22542E+006    5.96355E+005   -1.59661E+006    5.82203E+006   -1.07505E+006    3.78890E+006    5.79649E+005   -1.31118E+006    3.95669E+006   -4.68956E+005   -3.59616E+005    1.08395E+006
            5488    5.93456E+006    4.94324E+006    4.94324E+006    6.56805E+005   -1.83019E+006    6.77343E+006   -1.25662E+006    4.51679E+006    6.47598E+005   -1.69199E+006    4.81424E+006   -4.64777E+005   -4.67944E+005    6.66158E+005
            5489    6.75896E+006    6.10217E+006    6.10217E+006    9.45019E+005   -1.54951E+006    7.65168E+006   -1.83256E+006    5.57226E+006    9.53228E+005   -1.47850E+006    6.02296E+006   -4.15815E+005   -6.37879E+005   -1.33609E+004
            5490    7.80577E+006    7.72902E+006    7.72902E+006    1.54312E+006   -1.04117E+006    8.77019E+006   -2.74366E+006    6.73727E+006    1.57502E+006   -9.38810E+005    7.59476E+006   -3.52630E+005   -7.93248E+005   -5.71560E+005
            5491    9.05365E+006    9.51820E+006    9.51820E+006    2.27240E+006   -6.30988E+005    1.01492E+007   -3.71987E+006    7.89964E+006    2.30959E+006   -4.26275E+005    9.27629E+006   -3.73814E+005   -9.67527E+005   -1.10473E+006
            5492    1.01486E+007    1.15396E+007    1.15396E+007    3.23361E+006    2.27560E+005    1.13121E+007   -5.00026E+006    9.06277E+006    3.26938E+006    5.52765E+005    1.11786E+007   -4.10751E+005   -1.16645E+006   -1.52573E+006
            5493    1.08997E+007    1.37425E+007    1.37425E+007    4.49884E+006    1.72345E+006    1.20191E+007   -6.65494E+006    1.00576E+007    4.53704E+006    2.19549E+006    1.32323E+007   -3.89964E+005   -1.36776E+006   -1.93944E+006
            5494    1.03357E+007    1.33835E+007    1.33835E+007    3.51896E+006    2.63365E+006    1.07498E+007   -6.51203E+006    1.02498E+007    3.60358E+006    2.68444E+006    1.32481E+007   -2.49416E+004   -9.56422E+005   -6.71862E+005
            5495    1.02109E+007    1.30803E+007    1.30803E+007    3.22074E+006    2.55108E+006    1.05292E+007   -6.28404E+006    1.01613E+007    3.21443E+006    2.56662E+006    1.30711E+007    9.21664E+004   -2.28962E+005   -2.00620E+005
            5496    8.78490E+006    1.09423E+007    1.09423E+007    2.54425E+006    1.81587E+006    9.12641E+006   -5.10080E+006    8.71658E+006    2.62818E+006    1.87915E+006    1.07951E+007    6.94059E+003   -8.63556E+005   -7.21268E+005
            5497    8.49415E+006    1.06375E+007    1.06375E+007    2.33162E+006    1.96692E+006    8.67062E+006   -4.97870E+006    8.47651E+006    2.26721E+006    2.04713E+006    1.06218E+007    1.53362E+005   -2.56092E+005   -2.56660E+005
            5498    7.47565E+006    8.81109E+006    8.81109E+006    1.71656E+006    1.00517E+006    7.80591E+006   -3.84427E+006    7.39893E+006    1.79523E+006    1.06400E+006    8.67359E+006    3.10828E+004   -7.50438E+005   -6.62498E+005
            5499    6.78803E+006    8.27538E+006    8.27538E+006    1.71773E+006    1.27833E+006    6.99705E+006   -3.75715E+006    6.75592E+006    1.43159E+006    1.57867E+006    8.26118E+006    2.12888E+005   -2.51245E+005   -1.74736E+005
            5500    5.87941E+006    6.57734E+006    6.57734E+006    9.50129E+005    4.74618E+005    6.10273E+006   -2.66736E+006    5.83591E+006    1.01187E+006    5.21009E+005    6.46921E+006    4.77618E+004   -5.84396E+005   -5.27190E+005
            5501    5.42569E+006    6.33250E+006    6.33250E+006    1.22561E+006    6.36149E+005    5.69635E+006   -2.73142E+006    5.35294E+006    7.91642E+005    1.09125E+006    6.31135E+006    2.65405E+005   -2.10172E+005   -2.52342E+005
            5502    4.32582E+006    4.69918E+006    4.69918E+006    6.93187E+005    1.12238E+005    4.58694E+006   -1.83487E+006    4.23672E+006    2.71191E+005    5.52890E+005    4.68052E+006    2.64575E+005   -1.55382E+005   -2.24243E+005
            5503    2.97841E+006    2.84380E+006    2.84380E+006    1.68070E+005   -3.65241E+005    3.20904E+006   -8.82209E+005    2.86802E+006   -3.34232E+005    1.44301E+005    2.83656E+006    1.22791E+005   -9.28898E+004   -1.06829E+005
            5504    4.60348E+006    4.90014E+006    4.90014E+006    4.21845E+005    1.80933E+005    4.71920E+006   -1.83431E+006    4.58926E+006    4.48591E+005    2.62235E+005    4.79209E+006    9.53497E+004   -3.90533E+005   -5.76499E+005
            5505    3.31622E+006    3.22328E+006    3.22328E+006    2.62121E+004   -2.00466E+005    3.42374E+006   -1.01634E+006    3.29872E+006   -1.76246E+005    4.14687E+004    3.18380E+006    5.25489E+004   -2.54526E+005   -2.50934E+005
            5506    3.48126E+006    2.99723E+006    2.99723E+006    5.55375E+005   -9.89055E+005    3.98628E+006   -8.54517E+005    2.51736E+006    5.36682E+005   -2.73405E+005    2.30027E+006    4.21318E+005    1.77944E+005    1.44874E+006
            5507    3.03734E+006    2.94783E+006    2.94783E+006    5.75615E+005   -4.75443E+005    3.42327E+006   -1.01600E+006    2.57779E+006    5.26169E+005   -7.00974E+004    2.59193E+006    3.53404E+005    1.72852E+005    9.84293E+005
            5508    3.05550E+006    3.12931E+006    3.12931E+006    6.26906E+005   -2.75865E+005    3.40517E+006   -1.16012E+006    2.73038E+006    5.94953E+005   -9.47268E+004    2.98012E+006    2.51148E+005    1.78995E+005    6.43186E+005
            5509    3.26725E+006    3.47332E+006    3.47332E+006    6.88729E+005   -1.23389E+005    3.59671E+006   -1.34622E+006    3.02741E+006    6.65248E+005   -4.43801E+004    3.41779E+006    2.00351E+005    2.02066E+005    3.64525E+005
            5510    3.56289E+006    3.86434E+006    3.86434E+006    7.33127E+005   -1.22792E+004    3.87662E+006   -1.52840E+006    3.38071E+006    7.43628E+005   -3.71883E+003    3.84528E+006    6.82786E+004    2.18848E+005    1.15055E+005
            5511    2.28931E+006    2.17357E+006    2.17357E+006    5.12271E+005   -4.37808E+005    2.61138E+006   -7.49345E+005    1.75564E+006    4.70353E+005    2.21737E+005    1.55594E+006    3.55504E+005    9.37500E+004    1.05281E+006
            5512    2.19371E+006    2.31243E+006    2.31243E+006    5.71361E+005   -1.51492E+005    2.46392E+006   -9.10766E+005    1.89660E+006    4.80691E+005    2.04333E+005    2.04727E+006    3.09766E+005    9.65290E+004    7.14855E+005
            5513    2.44872E+006    2.62851E+006    2.62851E+006    5.92531E+005   -8.87025E+004    2.71721E+006   -1.04411E+006    2.22006E+006    5.42987E+005    6.10520E+004    2.52830E+006    2.15767E+005    1.05224E+005    4.80578E+005
            5514    2.79345E+006    3.02964E+006    3.02964E+006    6.49865E+005   -4.59445E+004    3.07559E+006   -1.21119E+006    2.58748E+006    6.20566E+005    1.72498E+004    2.99575E+006    1.67812E+005    1.19234E+005    2.81528E+005
            5515    3.12353E+006    3.40957E+006    3.40957E+006    6.91453E+005   -2.60897E+003    3.41218E+006   -1.36614E+006    2.94243E+006    6.93475E+005    4.40313E+003    3.40054E+006    5.89656E+004    1.30814E+005    9.36335E+004
            5516    1.08532E+006    1.30324E+006    1.30324E+006    5.88160E+005    5.43951E+004    1.24885E+006   -6.48598E+005    6.82122E+005    3.98073E+005    4.60643E+005    1.08708E+006    3.09026E+005    2.79366E+004    3.88829E+005
            5517    1.51548E+006    1.79020E+006    1.79020E+006    6.33749E+005    7.45894E+004    1.71561E+006   -8.32845E+005    1.24957E+006    4.38029E+005    3.19440E+005    1.74107E+006    2.78353E+005    3.27971E+004    2.54628E+005
            5518    2.03195E+006    2.28983E+006    2.28983E+006    5.80399E+005    4.32714E+004    2.24656E+006   -9.71166E+005    1.86192E+006    5.06286E+005    1.33115E+005    2.27410E+006    1.90178E+005    3.43300E+004    1.75772E+005
            5519    2.49038E+006    2.74499E+006    2.74499E+006    6.17999E+005    5.50894E+003    2.73948E+006   -1.12283E+006    2.31163E+006    5.82691E+005    4.59041E+004    2.73991E+006    1.46275E+005    3.99742E+004    1.05432E+005
            5520    2.83499E+006    3.10981E+006    3.10981E+006    6.51941E+005    8.34738E+003    3.10146E+006   -1.25670E+006    2.66308E+006    6.48799E+005    1.26680E+004    3.10863E+006    5.05946E+004    4.32522E+004    3.50829E+004
            5521    1.10218E+007    1.40305E+007    1.40305E+007    4.65772E+006    1.88808E+006    1.21425E+007   -6.85878E+006    1.01938E+007    4.69594E+006    2.37118E+006    1.35092E+007    3.94606E+005   -1.39775E+006    1.96507E+006
            5522    1.06394E+007    1.39364E+007    1.39364E+007    3.78135E+006    2.87097E+006    1.10654E+007   -6.86289E+006    1.05513E+007    3.86735E+006    2.92343E+006    1.37979E+007    3.19530E+004   -9.85086E+005    6.83891E+005
            5523    1.07103E+007    1.37791E+007    1.37791E+007    3.49519E+006    2.68796E+006    1.10911E+007   -6.65407E+006    1.06416E+007    3.49461E+006    2.69822E+006    1.37694E+007   -7.40880E+004   -2.35042E+005    2.16767E+005
            5524    1.10496E+007    1.59219E+007    1.59219E+007    6.03030E+006    3.99683E+006    1.19251E+007   -8.64969E+006    1.06163E+007    6.08545E+006    4.50237E+006    1.53613E+007    3.05986E+005   -1.56009E+006    1.93913E+006
            5525    1.20555E+007    1.62577E+007    1.62577E+007    4.76209E+006    3.71120E+006    1.25465E+007   -8.24366E+006    1.19518E+007    4.85098E+006    3.74097E+006    1.61390E+007    4.06192E+004   -1.04825E+006    5.32504E+005
            5526    1.24060E+007    1.61395E+007    1.61395E+007    4.44570E+006    3.12660E+006    1.30129E+007   -7.90392E+006    1.22467E+007    4.44821E+006    3.12899E+006    1.61346E+007   -3.26670E+004   -1.93548E+005    1.48033E+005
            5527    1.05744E+007    1.71294E+007    1.71294E+007    7.09193E+006    6.08937E+006    1.10400E+007   -1.01036E+007    1.04667E+007    7.21987E+006    6.36920E+006    1.67216E+007    1.63850E+005   -1.66055E+006    1.20781E+006
            5528    1.30361E+007    1.79163E+007    1.79163E+007    5.49192E+006    4.34434E+006    1.35719E+007   -9.25084E+006    1.29217E+007    5.58595E+006    4.35184E+006    1.78147E+007    2.30050E+004   -1.08761E+006    2.77301E+005
            5529    1.36482E+007    1.78411E+007    1.78411E+007    5.13863E+006    3.41160E+006    1.44295E+007   -8.79711E+006    1.33991E+007    5.14073E+006    3.41209E+006    1.78385E+007   -9.08734E+003   -1.64936E+005    8.07032E+004
            5530    1.02672E+007    1.74789E+007    1.74789E+007    7.34614E+006    7.08236E+006    1.03966E+007   -1.06358E+007    1.02596E+007    7.63443E+006    7.08424E+006    1.71888E+007   -8.96712E+003   -1.68901E+006   -6.50441E+004
            5531    1.33552E+007    1.84359E+007    1.84359E+007    5.71345E+006    4.52712E+006    1.39088E+007   -9.55882E+006    1.32359E+007    5.80887E+006    4.52733E+006    1.83403E+007   -3.11609E+003   -1.09793E+006   -4.83366E+004
            5532    1.40263E+007    1.83519E+007    1.83519E+007    5.34665E+006    3.48948E+006    1.48624E+007   -9.06267E+006    1.37457E+007    5.34844E+006    3.48950E+006    1.83501E+007    2.65746E+002   -1.52915E+005   -1.62552E+004
            5533    1.06070E+007    1.70194E+007    1.70194E+007    7.00202E+006    5.90771E+006    1.11117E+007   -9.97639E+006    1.04789E+007    7.11800E+006    6.21469E+006    1.65965E+007   -1.78266E+005   -1.64797E+006   -1.29698E+006
            5534    1.28965E+007    1.76294E+007    1.76294E+007    5.34566E+006    4.19699E+006    1.34325E+007   -9.05737E+006    1.27807E+007    5.43720E+006    4.20961E+006    1.75253E+007   -3.36110E+004   -1.07677E+006   -3.51688E+005
            5535    1.33931E+007    1.74777E+007    1.74777E+007    4.98325E+006    3.33788E+006    1.41398E+007   -8.59959E+006    1.31628E+007    4.98535E+006    3.33859E+006    1.74748E+007    1.23501E+004   -1.64684E+005   -9.44605E+004
            5536    1.10383E+007    1.57128E+007    1.57128E+007    5.87384E+006    3.77611E+006    1.19367E+007   -8.45425E+006    1.05758E+007    5.92753E+006    4.27933E+006    1.51559E+007   -3.12817E+005   -1.53965E+006   -1.94512E+006
            5537    1.17879E+007    1.57668E+007    1.57668E+007    4.52481E+006    3.50003E+006    1.22668E+007   -7.93055E+006    1.16870E+007    4.61221E+006    3.53256E+006    1.56469E+007   -3.58847E+004   -1.02745E+006   -5.59533E+005
            5538    1.19740E+007    1.55214E+007    1.55214E+007    4.18413E+006    2.99879E+006    1.25226E+007   -7.56810E+006    1.18409E+007    4.18626E+006    3.00230E+006    1.55157E+007    4.10237E+004   -1.95188E+005   -1.68474E+005
            5539    3.56904E+006    3.87019E+006    3.87019E+006    7.34324E+005   -1.35210E+004    3.88371E+006   -1.53033E+006    3.38596E+006    7.44896E+005   -4.96518E+003    3.85106E+006    6.84645E+004   -2.19610E+005   -1.14844E+005
            5540    3.26723E+006    3.47270E+006    3.47270E+006    6.88459E+005   -1.24146E+005    3.59684E+006   -1.34567E+006    3.02709E+006    6.65040E+005   -4.48140E+004    3.41678E+006    2.00469E+005   -2.02171E+005   -3.66191E+005
            5541    3.05370E+006    3.12511E+006    3.12511E+006    6.25538E+005   -2.78554E+005    3.40367E+006   -1.15737E+006    2.72731E+006    5.93339E+005   -9.54372E+004    2.97419E+006    2.52142E+005   -1.78675E+005   -6.47001E+005
            5542    3.03438E+006    2.94229E+006    2.94229E+006    5.74301E+005   -4.78216E+005    3.42050E+006   -1.01279E+006    2.57280E+006    5.25031E+005   -6.82038E+004    2.58154E+006    3.54315E+005   -1.72518E+005   -9.90019E+005
            5543    3.48062E+006    2.99555E+006    2.99555E+006    5.55070E+005   -9.90138E+005    3.98569E+006   -8.53495E+005    2.51512E+006    5.36383E+005   -2.72549E+005    2.29665E+006    4.21638E+005   -1.77648E+005   -1.45027E+006
            5544    3.12496E+006    3.41237E+006    3.41237E+006    6.92254E+005   -1.00719E+003    3.41338E+006   -1.36787E+006    2.94439E+006    6.94409E+005    5.85272E+003    3.40335E+006    5.81433E+004   -1.30978E+005   -9.31374E+004
            5545    2.79788E+006    3.03521E+006    3.03521E+006    6.50995E+005   -4.49538E+004    3.08016E+006   -1.21375E+006    2.59218E+006    6.22137E+005    1.74026E+004    3.00171E+006    1.66826E+005   -1.19425E+005   -2.79729E+005
            5546    2.45097E+006    2.63158E+006    2.63158E+006    5.93606E+005   -8.80707E+004    2.71965E+006   -1.04570E+006    2.22222E+006    5.44174E+005    6.17518E+004    2.53119E+006    2.15735E+005   -1.05388E+005   -4.81238E+005
            5547    2.18796E+006    2.30413E+006    2.30413E+006    5.69524E+005   -1.53944E+005    2.45807E+006   -9.06569E+005    1.88931E+006    4.78712E+005    2.04858E+005    2.03614E+006    3.10489E+005   -9.59709E+004   -7.17232E+005
            5548    2.29267E+006    2.17170E+006    2.17170E+006    5.10120E+005   -4.43936E+005    2.61564E+006   -7.45962E+005    1.75456E+006    4.68666E+005    2.20782E+005    1.54844E+006    3.56008E+005   -9.33193E+004   -1.05751E+006
            5549    2.83689E+006    3.11041E+006    3.11041E+006    6.51482E+005    6.59466E+003    3.10382E+006   -1.25616E+006    2.66438E+006    6.48381E+005    1.08872E+004    3.10922E+006    5.04467E+004   -4.35401E+004   -3.52721E+004
            5550    2.49417E+006    2.74837E+006    2.74837E+006    6.18090E+005    4.74819E+003    2.74362E+006   -1.12374E+006    2.31519E+006    5.83087E+005    4.48355E+004    2.74329E+006    1.45810E+005   -4.00202E+004   -1.05478E+005
            5551    2.03088E+006    2.28889E+006    2.28889E+006    5.80073E+005    4.36486E+004    2.24524E+006   -9.70871E+005    1.86122E+006    5.05883E+005    1.33391E+005    2.27334E+006    1.90065E+005   -3.41620E+004   -1.74712E+005
            5552    1.51120E+006    1.78936E+006    1.78936E+006    6.36334E+005    7.85573E+004    1.71081E+006   -8.34752E+005    1.24583E+006    4.39627E+005    3.23498E+005    1.74113E+006    2.77982E+005   -3.27421E+004   -2.51759E+005
            5553    1.08924E+006    1.30909E+006    1.30909E+006    5.90020E+005    5.58771E+004    1.25321E+006   -6.51661E+005    6.88199E+005    4.00509E+005    4.62090E+005    1.09239E+006    3.09051E+005   -2.81298E+004   -3.90581E+005
            5554    8.54156E+006    8.18214E+006    8.18214E+006    1.66849E+006   -1.48853E+006    9.67068E+006   -2.78737E+006    7.03675E+006    1.70049E+006   -1.39138E+006    8.05299E+006    4.58576E+005   -8.67498E+005    4.14155E+005
            5555    7.66009E+006    6.60765E+006    6.60765E+006    1.12540E+006   -2.14476E+006    8.75242E+006   -1.86276E+006    5.74169E+006    1.13511E+006   -2.05875E+006    6.51193E+006    5.22277E+005   -6.75066E+005   -2.63096E+005
            5556    6.73877E+006    5.51317E+006    5.51317E+006    8.35423E+005   -2.21088E+006    7.72405E+006   -1.37924E+006    4.77623E+006    8.34471E+005   -2.04657E+006    5.34981E+006    5.30850E+005   -5.26410E+005   -8.23959E+005
            5557    5.67887E+006    4.55295E+006    4.55295E+006    6.62140E+005   -1.96364E+006    6.51660E+006   -1.08382E+006    3.91884E+006    6.56006E+005   -1.62201E+006    4.21745E+006    5.15104E+005   -3.95536E+005   -1.29073E+006
            5558    4.58521E+006    3.74531E+006    3.74531E+006    5.94923E+005   -1.51505E+006    5.26036E+006   -9.41730E+005    3.18298E+006    5.82589E+005   -9.60893E+005    3.20350E+006    4.80063E+005   -2.78410E+005   -1.50592E+006
            5559    3.85298E+006    3.54712E+006    3.54712E+006    5.92018E+005   -8.10696E+005    4.35782E+006   -1.10948E+006    3.19773E+006    5.54979E+005   -4.81966E+005    3.25543E+006    3.93165E+005   -2.53035E+005   -1.00361E+006
            5560    3.65636E+006    3.59665E+006    3.59665E+006    6.35993E+005   -4.90377E+005    4.08703E+006   -1.24742E+006    3.22999E+006    6.09526E+005   -3.45856E+005    3.47859E+006    2.87632E+005   -2.57483E+005   -5.87802E+005
            5561    3.69189E+006    3.84750E+006    3.84750E+006    6.82047E+005   -2.08078E+005    4.05558E+006   -1.44049E+006    3.43780E+006    6.58739E+005   -1.33860E+005    3.79659E+006    2.29882E+005   -2.80613E+005   -3.02161E+005
            5562    3.97614E+006    4.26544E+006    4.26544E+006    7.19819E+005   -3.34659E+004    4.29890E+006   -1.65060E+006    3.81061E+006    7.38802E+005   -2.46349E+004    4.23762E+006    7.92322E+004   -3.01939E+005   -8.49714E+004
            5563    4.64578E+006    4.14946E+006    4.14946E+006    5.97774E+005   -1.10811E+006    5.25757E+006   -1.21304E+006    3.83978E+006    5.71655E+005   -9.26656E+005    3.99413E+006    4.04619E+005   -3.56905E+005   -7.35706E+005
            5564    4.18290E+006    4.01321E+006    4.01321E+006    6.23094E+005   -6.61277E+005    4.67449E+006   -1.32501E+006    3.69863E+006    6.00183E+005   -5.79727E+005    3.95458E+006    2.96666E+005   -3.37547E+005   -3.10284E+005
            5565    4.02672E+006    4.10280E+006    4.10280E+006    6.11321E+005   -3.02198E+005    4.40500E+006   -1.47064E+006    3.78289E+006    5.84901E+005   -2.38809E+005    4.06584E+006    2.37086E+005   -3.47731E+005   -8.25553E+004
            5566    4.16226E+006    4.38926E+006    4.38926E+006    5.97680E+005   -6.43206E+004    4.45359E+006   -1.64087E+006    4.04126E+006    6.23117E+005   -5.48628E+004    4.35437E+006    7.73449E+004   -3.62436E+005    1.57414E+004
            5567    5.41125E+006    4.85654E+006    4.85654E+006    6.63906E+005   -1.25201E+006    6.10855E+006   -1.42281E+006    4.54843E+006    6.50516E+005   -1.16708E+006    4.78501E+006    3.82919E+005   -4.62959E+005   -3.08874E+005
            5568    4.69801E+006    4.47321E+006    4.47321E+006    5.99366E+005   -7.52516E+005    5.22573E+006   -1.44002E+006    4.22603E+006    5.87332E+005   -6.92904E+005    4.42563E+006    2.64847E+005   -4.24537E+005    1.07431E+005
            5569    4.19860E+006    4.24167E+006    4.24167E+006    5.03120E+005   -3.00742E+005    4.54242E+006   -1.48135E+006    4.01996E+006    4.81155E+005   -2.26455E+005    4.18935E+006    1.92511E+005   -3.93626E+005    2.42798E+005
            5570    4.05819E+006    4.19995E+006    4.19995E+006    3.86137E+005   -6.49304E+004    4.26488E+006   -1.50705E+006    4.00121E+006    4.14415E+005   -5.01419E+004    4.15688E+006    5.72337E+004   -3.86316E+005    1.30245E+005
            5571    6.14444E+006    5.75463E+006    5.75463E+006    8.05967E+005   -1.12279E+006    6.87742E+006   -1.81260E+006    5.39756E+006    8.15738E+005   -1.05573E+006    5.67780E+006    3.19618E+005   -5.98522E+005    2.09556E+005
            5572    4.98221E+006    4.94616E+006    4.94616E+006    6.27146E+005   -5.04541E+005    5.45070E+006   -1.68959E+006    4.67973E+006    6.38160E+005   -4.07465E+005    4.83807E+006    1.65844E+005   -4.97463E+005    5.39547E+005
            5573    4.21045E+006    4.27911E+006    4.27911E+006    3.56353E+005   -1.69598E+005    4.44871E+006   -1.48862E+006    4.13557E+006    3.54905E+005   -7.91562E+004    4.19012E+006    9.72243E+004   -4.00729E+005    4.67529E+005
            5574    3.76895E+006    3.79663E+006    3.79663E+006    1.26139E+005   -6.35962E+004    3.86023E+006   -1.28639E+006    3.75818E+006    1.55563E+005   -4.45669E+004    3.74818E+006    1.49326E+004   -3.64758E+005    2.15402E+005
            5575    6.45394E+006    6.76247E+006    6.76247E+006    1.10777E+006   -2.68641E+005    7.03111E+006   -2.53387E+006    6.11048E+006    1.15142E+006   -1.74400E+005    6.62458E+006    1.63522E+005   -6.92228E+005    6.23412E+005
            5576    4.98400E+006    5.24469E+006    5.24469E+006    5.96442E+005   -1.80777E+004    5.26277E+006   -1.94102E+006    4.89768E+006    6.39024E+005    7.67771E+004    5.10725E+006    1.31388E+004   -4.95865E+005    6.60473E+005
            5577    4.16518E+006    4.28870E+006    4.28870E+006    2.08331E+005    4.35836E+004    4.24511E+006   -1.51354E+006    4.15784E+006    2.38215E+005    1.10589E+005    4.19181E+006   -3.11379E+004   -3.52940E+005    5.22931E+005
            5578    3.38869E+006    3.31544E+006    3.31544E+006   -2.37060E+004   -1.20712E+005    3.43616E+006   -1.05701E+006    3.38557E+006   -9.17052E+004   -9.84041E+003    3.27257E+006   -3.78327E+004   -2.96141E+005    2.35383E+005
            5579    3.04777E+006    2.90414E+006    2.90414E+006    5.16310E+004   -3.07129E+005    3.21127E+006   -8.82881E+005    2.99971E+006   -2.82160E+005    4.99438E+004    2.88086E+006   -7.79858E+004   -1.95130E+005    1.75005E+005
            5580    2.84000E+006    2.64814E+006    2.64814E+006    1.04381E+005   -4.16102E+005    3.06424E+006   -7.78808E+005    2.72959E+006   -3.93826E+005    8.53209E+004    2.64493E+006   -1.03276E+005   -6.83786E+004    6.32053E+004
            5581    4.03799E+006    4.19605E+006    4.19605E+006    3.11719E+005    2.01985E+004    4.17585E+006   -1.50932E+006    4.01421E+006    1.33775E+005    2.59934E+005    4.13425E+006   -1.64469E+005   -2.40015E+005    4.22815E+005
            5582    3.88104E+006    4.06888E+006    4.06888E+006    4.93014E+005   -5.83610E+004    4.12724E+006   -1.50118E+006    3.79142E+006    7.66343E+004    3.67697E+005    4.05920E+006   -2.39802E+005   -8.33739E+004    1.66063E+005
            5583    4.92716E+006    5.41176E+006    5.41176E+006    5.96298E+005    3.80036E+005    5.03173E+006   -2.12937E+006    4.91646E+006    5.62337E+005    4.99099E+005    5.32666E+006   -1.40009E+005   -3.79580E+005    5.10476E+005
            5584    4.82467E+006    5.45278E+006    5.45278E+006    9.65613E+005    3.49752E+005    5.10303E+006   -2.25605E+006    4.73502E+006    5.13160E+005    8.15354E+005    5.43963E+006   -2.75679E+005   -1.45212E+005    1.94483E+005
            5585    6.23267E+006    7.13558E+006    7.13558E+006    1.14810E+006    6.83690E+005    6.45189E+006   -2.98912E+006    6.19356E+006    1.20816E+006    7.40350E+005    7.01886E+006   -6.57278E+004   -5.94061E+005    5.98075E+005
            5586    5.92091E+006    7.07151E+006    7.07151E+006    1.44931E+006    8.91381E+005    6.18013E+006   -3.13740E+006    5.86133E+006    1.04882E+006    1.31210E+006    7.05129E+006   -2.56133E+005   -2.39714E+005    2.37558E+005
            5587    7.17340E+006    8.87536E+006    8.87536E+006    1.90551E+006    1.51442E+006    7.36095E+006   -4.09843E+006    7.14935E+006    1.66553E+006    1.77212E+006    8.85763E+006   -1.96502E+005   -2.68680E+005    2.26769E+005
            5588    8.86639E+006    1.12263E+007    1.12263E+007    2.55396E+006    2.17790E+006    9.04844E+006   -5.31940E+006    8.84843E+006    2.51316E+006    2.23146E+006    1.12136E+007   -1.32496E+005   -2.61606E+005    2.06162E+005
            5589    7.69270E+006    9.15921E+006    9.15921E+006    1.86831E+006    1.11948E+006    8.03973E+006   -4.04900E+006    7.61005E+006    1.94837E+006    1.17928E+006    9.01935E+006    2.68460E+003   -7.91108E+005    6.51037E+005
            5590    9.20027E+006    1.15388E+007    1.15388E+007    2.78165E+006    1.95163E+006    9.58716E+006   -5.42402E+006    9.11547E+006    2.86590E+006    2.01690E+006    1.13893E+007    1.74269E+004   -9.03866E+005    7.27673E+005
            5591    1.03454E+007    1.18759E+007    1.18759E+007    3.39899E+006    3.48129E+005    1.15278E+007   -5.20768E+006    9.24915E+006    3.43434E+006    6.95311E+005    1.14934E+007    4.18349E+005   -1.19857E+006    1.59883E+006
            5592    9.40725E+006    9.87611E+006    9.87611E+006    2.37808E+006   -6.79596E+005    1.05557E+007   -3.85820E+006    8.17160E+006    2.41434E+006   -4.84941E+005    9.64520E+006    4.15053E+005   -1.00995E+006    1.04310E+006
            5593    6.79181E+006    6.15851E+006    6.15851E+006    1.03026E+006   -1.54414E+006    7.70265E+006   -1.88154E+006    5.52201E+006    1.04332E+006   -1.50741E+006    6.10873E+006   -2.99297E+005    5.03641E+005    6.77494E+004
            5594    5.93853E+006    4.95685E+006    4.95685E+006    6.79227E+005   -1.82336E+006    6.78022E+006   -1.27091E+006    4.49962E+006    6.80794E+005   -1.72554E+006    4.85746E+006   -3.41541E+005    3.76430E+005   -6.33964E+005
            5595    5.04574E+006    4.19324E+006    4.19324E+006    5.89384E+005   -1.57337E+006    5.76661E+006   -1.06975E+006    3.76896E+006    5.86158E+005   -1.32978E+006    3.95288E+006   -3.51910E+005    2.97734E+005   -1.05925E+006
            5596    4.13809E+006    3.56471E+006    3.56471E+006    5.71282E+005   -1.15743E+006    4.72214E+006   -9.92852E+005    3.15730E+006    5.64347E+005   -7.06299E+005    3.12051E+006   -3.30103E+005    2.12125E+005   -1.32482E+006
            5597    3.56670E+006    3.58798E+006    3.58798E+006    6.88716E+005   -3.94844E+005    3.98283E+006   -1.29395E+006    3.16333E+006    6.72172E+005   -2.63206E+005    3.47289E+006   -2.47833E+005    2.35805E+005   -5.86409E+005
            5598    3.89532E+006    4.26559E+006    4.26559E+006    8.73813E+005    1.12984E+004    4.25429E+006   -1.71690E+006    3.67113E+006    8.90803E+005    2.32705E+004    4.23663E+006   -7.49234E+004    2.67736E+005   -1.74999E+005
            5599    4.09467E+006    3.96704E+006    3.96704E+006    6.37270E+005   -6.04871E+005    4.57191E+006   -1.33315E+006    3.63307E+006    6.20489E+005   -5.35214E+005    3.91416E+006   -2.62317E+005    3.05750E+005   -3.10376E+005
            5600    4.22068E+006    4.45922E+006    4.45922E+006    7.33662E+005   -1.24642E+005    4.58386E+006   -1.68941E+006    4.01722E+006    7.57088E+005   -1.16632E+005    4.42778E+006   -8.27270E+004    3.41095E+005    1.10682E+003
            5601    4.71482E+006    4.46775E+006    4.46775E+006    5.95663E+005   -7.82615E+005    5.25036E+006   -1.42693E+006    4.22464E+006    5.80322E+005   -7.23124E+005    4.42360E+006   -2.40934E+005    3.74570E+005    2.27463E+005
            5602    4.09733E+006    4.25145E+006    4.25145E+006    4.80327E+005   -1.08388E+005    4.35984E+006   -1.54113E+006    4.00051E+006    5.07090E+005   -8.35762E+004    4.19988E+006   -5.99245E+004    3.81459E+005    2.40841E+005
            5603    4.84474E+006    4.91227E+006    4.91227E+006    6.49391E+005   -3.56429E+005    5.26870E+006   -1.73508E+006    4.60094E+006    6.55284E+005   -2.31114E+005    4.78106E+006   -1.20626E+005    4.18589E+005    6.92188E+005
            5604    3.70114E+006    3.77469E+006    3.77469E+006    1.61091E+005   -8.18203E+003    3.78287E+006   -1.30920E+006    3.69242E+006    1.85531E+005    3.01342E+004    3.71193E+006   -8.12285E+003    3.50503E+005    3.27632E+005
            5605    3.31801E+006    3.24986E+006    3.24986E+006    3.36050E+004   -1.61325E+005    3.41118E+006   -1.04071E+006    3.30509E+006   -1.40530E+005    5.91321E+004    3.20354E+006    3.89421E+004    2.55091E+005    2.91261E+005
            5606    2.98175E+006    2.84842E+006    2.84842E+006    1.58218E+005   -3.57584E+005    3.20600E+006   -8.83018E+005    2.87880E+006   -3.41653E+005    1.51572E+005    2.83914E+006    8.45326E+004    9.85564E+004    1.27057E+005
            5607    4.61366E+006    4.96769E+006    4.96769E+006    5.42591E+005    1.86142E+005    4.78155E+006   -1.89881E+006    4.58253E+006    5.68157E+005    2.78546E+005    4.84972E+006    5.59792E+004    3.32359E+005    6.55604E+005
            5608    4.25042E+006    4.74055E+006    4.74055E+006    7.01237E+005    3.06554E+005    4.43400E+006   -1.91611E+006    4.20890E+006    4.30007E+005    5.97533E+005    4.72081E+006    1.89201E+005    1.22679E+005    2.53879E+005
            5609    5.26372E+006    6.37479E+006    6.37479E+006    1.30494E+006    9.36539E+005    5.43825E+006   -2.87209E+006    5.23460E+006    1.08484E+006    1.17591E+006    6.35552E+006    1.88080E+005    1.59235E+005    2.68478E+005
            5610    6.55506E+006    8.32110E+006    8.32110E+006    1.92699E+006    1.61615E+006    6.70495E+006   -3.95474E+006    6.53845E+006    1.84577E+006    1.70753E+006    8.31094E+006    1.44698E+005    1.97863E+005    1.60517E+005
            5611    8.28763E+006    1.07677E+007    1.07677E+007    2.80520E+006    2.18939E+006    8.57835E+006   -5.25411E+006    8.23591E+006    2.79919E+006    2.20832E+006    1.07548E+007    9.48332E+004    2.34098E+005    2.24660E+005
            5612    1.00717E+007    1.33293E+007    1.33293E+007    3.84094E+006    2.76130E+006    1.05680E+007   -6.64385E+006    9.94025E+006    3.84674E+006    2.76555E+006    1.33193E+007    4.94225E+004    2.69634E+005    1.57224E+005
            5613    5.83197E+006    6.66684E+006    6.66684E+006    1.21479E+006    5.17631E+005    6.14921E+006   -2.79976E+006    5.73709E+006    1.25232E+006    5.81951E+005    6.56499E+006    1.28133E+004    4.61659E+005    6.15525E+005
            5614    7.38493E+006    8.93059E+006    8.93059E+006    2.12799E+006    1.07613E+006    7.85446E+006   -4.04490E+006    7.21350E+006    2.16761E+006    1.15677E+006    8.81034E+006   -1.95704E+004    5.55171E+005    7.63542E+005
            5615    8.58961E+006    1.10682E+007    1.10682E+007    3.14425E+006    1.93994E+006    9.12822E+006   -5.38411E+006    8.39652E+006    3.18105E+006    2.02308E+006    1.09482E+007   -4.80729E+004    6.06464E+005    8.17966E+005
            5616    1.00333E+007    1.34819E+007    1.34819E+007    4.28600E+006    2.78118E+006    1.07007E+007   -6.84968E+006    9.77454E+006    4.31981E+006    2.84714E+006    1.33821E+007   -7.40160E+004    6.37866E+005    7.72453E+005
            5617    1.09837E+007    1.39817E+007    1.39817E+007    4.71058E+006    1.85114E+006    1.21306E+007   -6.84782E+006    1.00941E+007    4.73870E+006    2.25844E+006    1.35463E+007   -2.44465E+005    9.43495E+005    2.01828E+006
            5618    1.02329E+007    1.17081E+007    1.17081E+007    3.40830E+006    2.74808E+005    1.14333E+007   -5.13039E+006    9.05527E+006    3.43571E+006    5.52411E+005    1.14031E+007   -2.75340E+005    8.45380E+005    1.58919E+006
            5619    9.13616E+006    9.64406E+006    9.64406E+006    2.41418E+006   -6.24156E+005    1.02682E+007   -3.81136E+006    7.87288E+006    2.44016E+006   -4.44906E+005    9.43882E+006   -2.69418E+005    7.31874E+005    1.17591E+006
            5620    7.87836E+006    7.82906E+006    7.82906E+006    1.66219E+006   -1.04626E+006    8.87532E+006   -2.81500E+006    6.70403E+006    1.68574E+006   -9.63456E+005    7.72271E+006   -2.64814E+005    6.23696E+005    6.41598E+005
            5621    3.45569E+006    3.80790E+006    3.80790E+006    8.44725E+005    1.18992E+004    3.79600E+006   -1.55484E+006    3.21807E+006    8.53145E+005    2.56926E+004    3.78569E+006   -6.60290E+004    1.86967E+005   -1.93945E+005
            5622    3.01685E+006    3.16645E+006    3.16645E+006    6.96841E+005   -1.96065E+005    3.36252E+006   -1.22241E+006    2.69462E+006    6.80568E+005   -3.13188E+004    3.01798E+006   -2.06759E+005    1.66872E+005   -6.46879E+005
            5623    3.20519E+006    2.93822E+006    2.93822E+006    5.51012E+005   -7.04712E+005    3.64293E+006   -9.28173E+005    2.55667E+006    5.40028E+005   -1.30036E+005    2.37453E+006   -2.88750E+005    1.43786E+005   -1.28030E+006
            5624    2.98301E+006    3.33689E+006    3.33689E+006    7.86864E+005    5.65453E+004    3.28035E+006   -1.39343E+006    2.77095E+006    7.88382E+005    6.69700E+004    3.32495E+006   -5.47062E+004    1.09244E+005   -1.51703E+005
            5625    2.42159E+006    2.66861E+006    2.66861E+006    6.59779E+005   -2.03060E+004    2.68891E+006   -1.10269E+006    2.19079E+006    6.31037E+005    9.14924E+004    2.58555E+006   -1.71373E+005    9.51302E+004   -4.40850E+005
            5626    2.19518E+006    2.23628E+006    2.23628E+006    5.17313E+005   -2.36479E+005    2.47276E+006   -8.39039E+005    1.86883E+006    4.89884E+005    2.83190E+005    1.74404E+006   -2.37268E+005    7.60796E+004   -9.58764E+005
            5627    2.70920E+006    3.03835E+006    3.03835E+006    7.30143E+005    5.56215E+004    2.98273E+006   -1.27471E+006    2.50963E+006    7.27192E+005    5.99778E+004    3.03695E+006   -4.91326E+004    3.51067E+004   -5.02068E+004
            5628    2.05460E+006    2.35988E+006    2.35988E+006    6.35661E+005    8.64952E+004    2.27338E+006   -1.02734E+006    1.87855E+006    5.94376E+005    1.40804E+005    2.34685E+006   -1.49374E+005    3.28107E+004   -1.62723E+005
            5629    1.12825E+006    1.45640E+006    1.45640E+006    5.59590E+005    1.89610E+005    1.26679E+006   -7.35198E+005    9.77086E+005    4.18977E+005    4.58286E+005    1.32833E+006   -2.01874E+005    2.60804E+004   -3.44443E+005
            5630    1.05279E+007    1.39713E+007    1.39713E+007    4.10824E+006    2.88546E+006    1.10859E+007   -6.98834E+006    1.03663E+007    4.11558E+006    2.88904E+006    1.39604E+007   -3.74418E+004    2.84266E+005   -1.72830E+005
            5631    1.02977E+007    1.39930E+007    1.39930E+007    4.56332E+006    3.00497E+006    1.09880E+007   -7.18710E+006    1.00272E+007    4.59687E+006    3.07427E+006    1.38901E+007    8.21832E+004    6.53518E+005   -7.97327E+005
            5632    1.11011E+007    1.42855E+007    1.42855E+007    4.88148E+006    2.03982E+006    1.22457E+007   -7.06894E+006    1.02337E+007    4.91006E+006    2.44963E+006    1.38471E+007    2.42876E+005    9.53886E+005   -2.03417E+006
            5633    1.23065E+007    1.64400E+007    1.64400E+007    5.11663E+006    3.34289E+006    1.30971E+007   -8.29985E+006    1.20139E+007    5.12590E+006    3.34385E+006    1.64298E+007   -8.14840E+003    3.24061E+005   -1.11036E+005
            5634    1.15731E+007    1.62748E+007    1.62748E+007    5.71358E+006    3.90316E+006    1.23717E+007   -8.63052E+006    1.12479E+007    5.74871E+006    3.94180E+006    1.62010E+007    7.30822E+004    6.65234E+005   -6.30225E+005
            5635    1.11015E+007    1.62001E+007    1.62001E+007    6.26706E+006    4.21608E+006    1.19840E+007   -8.89440E+006    1.06627E+007    6.30194E+006    4.62272E+006    1.57585E+007    1.74861E+005    1.01066E+006   -1.99674E+006
            5636    1.36272E+007    1.82434E+007    1.82434E+007    5.85440E+006    3.64739E+006    1.45960E+007   -9.24839E+006    1.32161E+007    5.86450E+006    3.64762E+006    1.82330E+007    1.19818E+003    3.53738E+005   -5.69575E+004
            5637    1.24503E+007    1.78888E+007    1.78888E+007    6.54687E+006    4.56732E+006    1.33215E+007   -9.66766E+006    1.20886E+007    6.58419E+006    4.57715E+006    1.78416E+007    4.33051E+004    6.66268E+005   -3.26704E+005
            5638    1.05873E+007    1.74079E+007    1.74079E+007    7.37481E+006    6.34219E+006    1.10657E+007   -1.03750E+007    1.04731E+007    7.43533E+006    6.52897E+006    1.71606E+007    8.92770E+004    1.03279E+006   -1.24481E+006
            5639    1.40415E+007    1.87994E+007    1.87994E+007    6.07842E+006    3.73283E+006    1.50666E+007   -9.53689E+006    1.35902E+007    6.08880E+006    3.73285E+006    1.87890E+007   -1.42614E+003    3.63174E+005    1.54221E+004
            5640    1.27432E+007    1.84028E+007    1.84028E+007    6.80693E+006    4.76010E+006    1.36427E+007   -9.98995E+006    1.23652E+007    6.84536E+006    4.76036E+006    1.83641E+007   -6.28027E+003    6.66808E+005    5.50133E+004
            5641    1.02687E+007    1.77822E+007    1.77822E+007    7.75973E+006    7.28374E+006    1.04984E+007   -1.09419E+007    1.02438E+007    7.86826E+006    7.28414E+006    1.76732E+007   -4.35315E+003    1.03814E+006    4.85035E+004
            5642    1.33962E+007    1.79123E+007    1.79123E+007    5.71045E+006    3.57754E+006    1.43347E+007   -9.06675E+006    1.30060E+007    5.72039E+006    3.57790E+006    1.79020E+007   -2.28954E+003    3.48335E+005    7.08287E+004
            5643    1.23492E+007    1.76252E+007    1.76252E+007    6.38624E+006    4.40527E+006    1.32199E+007   -9.47223E+006    1.19839E+007    6.42281E+006    4.42080E+006    1.75731E+007   -4.91243E+004    6.63154E+005    4.14726E+005
            5644    1.06084E+007    1.73199E+007    1.73199E+007    7.29973E+006    6.20775E+006    1.11121E+007   -1.02758E+007    1.04808E+007    7.35717E+006    6.41304E+006    1.70572E+007   -9.57918E+004    1.03253E+006    1.31312E+006
            5645    1.19166E+007    1.58829E+007    1.58829E+007    4.87724E+006    3.22729E+006    1.26556E+007   -7.99582E+006    1.16555E+007    4.88619E+006    3.22862E+006    1.58727E+007    1.32770E+004    3.14588E+005    1.26661E+005
            5646    1.13504E+007    1.58049E+007    1.58049E+007    5.45057E+006    3.66909E+006    1.21358E+007   -8.30817E+006    1.10293E+007    5.48447E+006    3.70991E+006    1.57301E+007   -7.57746E+004    6.53280E+005    6.40052E+005
            5647    1.10863E+007    1.60108E+007    1.60108E+007    6.13478E+006    4.01918E+006    1.19916E+007   -8.72158E+006    1.06178E+007    6.16894E+006    4.42878E+006    1.55670E+007   -1.81515E+005    1.00724E+006    2.00469E+006
            5648    3.20355E+006    2.93731E+006    2.93731E+006    5.51240E+005   -7.03725E+005    3.64103E+006   -9.28275E+005    2.55549E+006    5.40246E+005   -1.26876E+005    2.37145E+006   -2.88792E+005   -1.43442E+005    1.28202E+006
            5649    3.01456E+006    3.16485E+006    3.16485E+006    6.96921E+005   -1.95045E+005    3.35990E+006   -1.22224E+006    2.69278E+006    6.80578E+005   -3.23708E+004    3.01852E+006   -2.06113E+005   -1.66404E+005    6.41864E+005
            5650    3.44825E+006    3.79956E+006    3.79956E+006    8.43232E+005    1.15248E+004    3.78804E+006   -1.55144E+006    3.21073E+006    8.51524E+005    2.51983E+004    3.77760E+006   -6.57788E+004   -1.85675E+005    1.92715E+005
            5651    2.18578E+006    2.22880E+006    2.22880E+006    5.16339E+005   -2.33123E+005    2.46192E+006   -8.37339E+005    1.86192E+006    4.88676E+005    2.85168E+005    1.73817E+006   -2.36843E+005   -7.55742E+004    9.54862E+005
            5652    2.42810E+006    2.67414E+006    2.67414E+006    6.60607E+005   -2.22813E+004    2.69642E+006   -1.10416E+006    2.19597E+006    6.32048E+005    8.85958E+004    2.59183E+006   -1.71264E+005   -9.54709E+004    4.39407E+005
            5653    2.97925E+006    3.33303E+006    3.33303E+006    7.86129E+005    5.68573E+004    3.27617E+006   -1.39201E+006    2.76753E+006    7.87602E+005    6.72366E+004    3.32118E+006   -5.45029E+004   -1.08476E+005    1.51303E+005
            5654    1.11496E+006    1.44680E+006    1.44680E+006    5.63082E+005    1.94120E+005    1.25268E+006   -7.34667E+005    9.62504E+005    4.18676E+005    4.61271E+005    1.32405E+006   -2.01465E+005   -2.54635E+004    3.34903E+005
            5655    2.06033E+006    2.36503E+006    2.36503E+006    6.36621E+005    8.50564E+004    2.27997E+006   -1.02890E+006    1.88319E+006    5.95601E+005    1.39882E+005    2.35122E+006   -1.49512E+005   -3.34443E+004    1.67901E+005
            5656    2.70870E+006    3.03779E+006    3.03779E+006    7.29955E+005    5.56362E+004    2.98216E+006   -1.27446E+006    2.50921E+006    7.27007E+005    5.99988E+004    3.03638E+006   -4.90721E+004   -3.49503E+004    5.06268E+004
            5657    3.36802E+006    3.33704E+006    3.33704E+006    3.32995E+004   -9.17819E+004    3.42882E+006   -1.09285E+006    3.36279E+006   -6.45062E+004    5.16153E+004    3.29145E+006   -1.81516E+004    3.03122E+005   -2.45444E+005
            5658    3.74893E+006    3.82488E+006    3.82488E+006    1.99104E+005   -3.61287E+004    3.86101E+006   -1.32929E+006    3.73227E+006    2.26713E+005   -1.28188E+004    3.77396E+006    2.33927E+004    3.65647E+005   -2.32189E+005
            5659    4.04362E+006    4.24079E+006    4.24079E+006    5.04596E+005   -5.24880E+004    4.29327E+006   -1.56430E+006    3.95590E+006    5.35461E+005   -4.00488E+004    4.19748E+006    4.98138E+004    3.77352E+005   -1.49519E+005
            5660    4.15776E+006    4.44535E+006    4.44535E+006    7.50153E+005   -5.67000E+004    4.50205E+006   -1.71293E+006    3.97585E+006    7.77040E+005   -5.13550E+004    4.41312E+006    6.24076E+004    3.43257E+005   -2.83054E+004
            5661    3.97687E+006    4.32095E+006    4.32095E+006    8.78523E+005   -3.23396E+004    4.35329E+006   -1.72238E+006    3.73119E+006    8.98000E+005   -2.77180E+004    4.29685E+006    5.80498E+004    2.76611E+005    8.24109E+004
            5662    4.19121E+006    4.32502E+006    4.32502E+006    3.25912E+005   -3.49530E+004    4.35997E+006   -1.53866E+006    4.15604E+006    3.50516E+005    5.80704E+004    4.20739E+006   -2.39936E+004    3.21842E+005   -6.23114E+005
            5663    4.22951E+006    4.29923E+006    4.29923E+006    4.37576E+005   -2.20900E+005    4.52013E+006   -1.50530E+006    4.11181E+006    4.50934E+005   -1.29874E+005    4.19484E+006    6.32009E+004    3.59868E+005   -5.65557E+005
            5664    4.19738E+006    4.25643E+006    4.25643E+006    5.64323E+005   -3.08859E+005    4.56529E+006   -1.50397E+006    3.98528E+006    5.69203E+005   -2.58948E+005    4.20164E+006    1.28057E+005    3.54753E+005   -3.17597E+005
            5665    4.01067E+006    4.11671E+006    4.11671E+006    6.70386E+005   -2.85557E+005    4.40227E+006   -1.50051E+006    3.74124E+006    6.75033E+005   -2.61114E+005    4.08762E+006    1.53211E+005    3.12123E+005    4.46468E+004
            5666    3.66612E+006    3.86937E+006    3.86937E+006    7.47774E+005   -1.67760E+005    4.03713E+006   -1.48313E+006    3.39433E+006    7.51955E+005   -1.29323E+005    3.82675E+006    1.45073E+005    2.51559E+005    2.86786E+005
            5667    4.99935E+006    5.34517E+006    5.34517E+006    7.26040E+005    3.70715E+004    5.30810E+006   -2.03609E+006    4.89083E+006    7.53019E+005    1.46176E+005    5.20909E+006    1.79880E+004    4.07417E+005   -7.22404E+005
            5668    4.99605E+006    5.00085E+006    5.00085E+006    6.80629E+005   -4.70191E+005    5.47104E+006   -1.73710E+006    4.68370E+006    6.86177E+005   -3.72395E+005    4.89751E+006    1.45321E+005    4.22777E+005   -5.90778E+005
            5669    4.69130E+006    4.50199E+006    4.50199E+006    6.24760E+005   -7.12852E+005    5.21484E+006   -1.47130E+006    4.22930E+006    6.14236E+005   -6.63760E+005    4.46342E+006    2.31737E+005    3.72457E+005   -1.44121E+005
            5670    4.15226E+006    4.03054E+006    4.03054E+006    6.42484E+005   -6.01530E+005    4.63207E+006   -1.35716E+006    3.69678E+006    6.25077E+005   -5.33837E+005    3.98025E+006    2.62774E+005    3.09843E+005    2.92961E+005
            5671    3.62072E+006    3.62024E+006    3.62024E+006    6.73029E+005   -4.21454E+005    4.04169E+006   -1.29060E+006    3.21571E+006    6.54032E+005   -2.91335E+005    3.50912E+006    2.54632E+005    2.39376E+005    5.77021E+005
            5672    6.46760E+006    6.81254E+006    6.81254E+006    1.31043E+006   -3.11717E+005    7.12426E+006   -2.60375E+006    5.98368E+006    1.33805E+006   -2.05824E+005    6.67903E+006    1.56819E+005    5.76409E+005   -7.31174E+005
            5673    6.16975E+006    5.75658E+006    5.75658E+006    9.27826E+005   -1.19412E+006    6.95069E+006   -1.83010E+006    5.24923E+006    9.33702E+005   -1.13636E+006    5.69294E+006    2.78723E+005    4.99986E+005   -3.13788E+005
            5674    5.39823E+006    4.80493E+006    4.80493E+006    7.29458E+005   -1.31739E+006    6.12232E+006   -1.40566E+006    4.38818E+006    7.25928E+005   -1.26190E+006    4.75297E+006    3.20719E+005    4.03111E+005    2.38935E+005
            5675    4.61100E+006    4.09020E+006    4.09020E+006    6.60900E+005   -1.15166E+006    5.24187E+006   -1.19981E+006    3.67043E+006    6.49257E+005   -1.01499E+006    3.96518E+006    3.32534E+005    3.07018E+005    6.74105E+005
            5676    3.80071E+006    3.48705E+006    3.48705E+006    6.35924E+005   -8.27927E+005    4.31497E+006   -1.09835E+006    3.06256E+006    6.23979E+005   -5.56532E+005    3.22760E+006    3.04825E+005    2.25671E+005    9.60522E+005
            5677    4.54685E+006    3.72007E+006    3.72007E+006    5.27261E+005   -1.48580E+006    5.20588E+006   -9.20510E+005    3.29469E+006    5.22735E+005   -9.59666E+005    3.19846E+006    3.54276E+005    2.19908E+005    1.50872E+006
            5678    5.66766E+006    4.53230E+006    4.53230E+006    6.03284E+005   -1.96481E+006    6.49711E+006   -1.05692E+006    4.00652E+006    6.01389E+005   -1.65711E+006    4.22649E+006    3.81290E+005    3.04224E+005    1.28831E+006
            5679    6.77611E+006    5.51448E+006    5.51448E+006    7.85062E+005   -2.24839E+006    7.76287E+006   -1.35039E+006    4.85403E+006    7.88159E+005   -2.12256E+006    5.38556E+006    3.90838E+005    4.09362E+005    8.09227E+005
            5680    7.72984E+006    6.66167E+006    6.66167E+006    1.12264E+006   -2.16917E+006    8.83085E+006   -1.87171E+006    5.80615E+006    1.13078E+006   -2.12292E+006    6.60729E+006    3.74929E+005    5.04777E+005    2.35681E+005
            5681    8.61039E+006    8.26846E+006    8.26846E+006    1.76234E+006   -1.49549E+006    9.76394E+006   -2.84510E+006    7.00747E+006    1.78315E+006   -1.43434E+006    8.18650E+006    3.26163E+005    6.39453E+005   -4.60109E+005
            5682    9.50784E+006    1.00366E+007    1.00366E+007    2.54528E+006   -6.59582E+005    1.06961E+007   -3.97409E+006    8.15257E+006    2.57239E+006   -4.97510E+005    9.84738E+006    2.92491E+005    7.59716E+005   -1.11469E+006
            5683    1.04491E+007    1.20987E+007    1.20987E+007    3.59959E+006    4.32390E+005    1.16663E+007   -5.37688E+006    9.27326E+006    3.62645E+006    7.33425E+005    1.17708E+007    2.77367E+005    8.63602E+005   -1.67871E+006
            5684    8.99562E+006    1.16314E+007    1.16314E+007    3.38987E+006    2.03532E+006    9.59608E+006   -5.68553E+006    8.76176E+006    3.42594E+006    2.12016E+006    1.15105E+007    6.76051E+004    6.30887E+005   -8.35004E+005
            5685    8.62778E+006    1.13301E+007    1.13301E+007    3.05581E+006    2.38770E+006    8.94241E+006   -5.59121E+006    8.56929E+006    3.05492E+006    2.39946E+006    1.13192E+007   -7.93376E+004    2.47992E+005   -1.72775E+005
            5686    7.58102E+006    9.26224E+006    9.26224E+006    2.29972E+006    1.18593E+006    8.07630E+006   -4.24930E+006    7.39358E+006    2.33846E+006    1.26556E+006    9.14387E+006    4.65979E+004    5.82935E+005   -7.48276E+005
            5687    6.95192E+006    8.95633E+006    8.95633E+006    2.17124E+006    1.84879E+006    7.10754E+006   -4.32545E+006    6.93507E+006    2.12127E+006    1.91256E+006    8.94253E+006   -1.29783E+005    2.14823E+005   -2.18711E+005
            5688    5.75207E+006    7.14529E+006    7.14529E+006    1.56891E+006    1.23230E+006    5.91299E+006   -3.31550E+006    5.72985E+006    1.40372E+006    1.41512E+006    7.12766E+006   -1.76411E+005    1.71782E+005   -2.62125E+005
            5689    4.72265E+006    5.51733E+006    5.51733E+006    1.00333E+006    6.10556E+005    4.90677E+006   -2.37707E+006    4.68569E+006    7.44040E+005    8.84707E+005    5.50247E+006   -1.91057E+005    1.20025E+005   -2.29198E+005
            5690    3.84877E+006    4.11434E+006    4.11434E+006    4.84917E+005    7.84791E+004    4.03586E+006   -1.55925E+006    3.80004E+006    1.69661E+005    4.04711E+005    4.10337E+006   -1.72406E+005    7.99905E+004   -1.82601E+005
            5691    2.85221E+006    2.64367E+006    2.64367E+006    9.45573E+004   -4.36877E+005    3.08055E+006   -7.67117E+005    2.73747E+006   -4.24955E+005    8.63332E+004    2.63997E+006   -7.49014E+004    7.08120E+004   -7.09025E+004
            5692    6.17920E+006    7.24416E+006    7.24416E+006    1.43734E+006    7.50037E+005    6.49412E+006   -3.14385E+006    6.09232E+006    1.47447E+006    8.23013E+005    7.13406E+006   -2.48663E+004    4.68320E+005   -6.78342E+005
            5693    4.89139E+006    5.49075E+006    5.49075E+006    7.44004E+005    4.66541E+005    5.02421E+006   -2.23377E+006    4.87363E+006    7.47839E+005    5.50856E+005    5.40260E+006   -1.03396E+005    3.06396E+005   -5.74285E+005
            5694    4.03714E+006    4.25665E+006    4.25665E+006    3.07627E+005    1.36809E+005    4.11984E+006   -1.56703E+006    4.02900E+006    2.50141E+005    2.68597E+005    4.18235E+006   -1.13019E+005    2.27205E+005   -4.88300E+005
            5695    3.04663E+006    2.90525E+006    2.90525E+006    6.59055E+004   -3.13192E+005    3.21844E+006   -8.85988E+005    2.99288E+006   -2.95950E+005    7.40376E+004    2.87988E+006   -5.34981E+004    2.00657E+005   -1.86956E+005
            5696    3.69992E+006    3.77346E+006    3.77346E+006    1.60453E+005   -7.64374E+003    3.78110E+006   -1.30876E+006    3.69131E+006    1.84881E+005    3.07641E+004    3.71063E+006   -7.93184E+003   -3.50398E+005   -3.28070E+005
            5697    4.10086E+006    4.25504E+006    4.25504E+006    4.82622E+005   -1.09812E+005    4.36486E+006   -1.54262E+006    4.00288E+006    5.09408E+005   -8.52148E+004    4.20366E+006   -6.01686E+004   -3.81388E+005   -2.39482E+005
            5698    4.21699E+006    4.45852E+006    4.45852E+006    7.38265E+005   -1.22405E+005    4.58093E+006   -1.69146E+006    4.01217E+006    7.61558E+005   -1.14539E+005    4.42736E+006   -8.25673E+004   -3.39197E+005    5.60843E+003
            5699    3.88185E+006    4.25488E+006    4.25488E+006    8.75174E+005    1.51328E+004    4.23975E+006   -1.71506E+006    3.65816E+006    8.91919E+005    2.72876E+004    4.22598E+006   -7.46136E+004   -2.65410E+005    1.77437E+005
            5700    4.84265E+006    4.90832E+006    4.90832E+006    6.48121E+005   -3.58537E+005    5.26686E+006   -1.73263E+006    4.59831E+006    6.53946E+005   -2.33660E+005    4.77762E+006   -1.20940E+005   -4.18212E+005   -6.90391E+005
            5701    4.70330E+006    4.45727E+006    4.45727E+006    5.93972E+005   -7.80008E+005    5.23728E+006   -1.42375E+006    4.21504E+006    5.78475E+005   -7.20822E+005    4.41358E+006   -2.41069E+005   -3.73583E+005   -2.22716E+005
            5702    4.08253E+006    3.95739E+006    3.95739E+006    6.36761E+005   -6.00703E+005    4.55809E+006   -1.33115E+006    3.62311E+006    6.19898E+005   -5.30182E+005    3.90373E+006   -2.62249E+005   -3.04556E+005    3.15985E+005
            5703    3.55577E+006    3.58382E+006    3.58382E+006    6.91546E+005   -3.86119E+005    3.96994E+006   -1.29642E+006    3.15574E+006    6.75032E+005   -2.54192E+005    3.46841E+006   -2.46831E+005   -2.34739E+005    5.86898E+005
            5704    4.14002E+006    3.56402E+006    3.56402E+006    5.70093E+005   -1.16049E+006    4.72451E+006   -9.91210E+005    3.15725E+006    5.63235E+005   -7.08026E+005    3.11842E+006   -3.30381E+005   -2.12274E+005    1.32712E+006
            5705    5.05363E+006    4.19473E+006    4.19473E+006    5.87058E+005   -1.58122E+006    5.77595E+006   -1.06686E+006    3.77159E+006    5.83813E+005   -1.33699E+006    3.95374E+006   -3.52303E+005   -2.97670E+005    1.06178E+006
            5706    5.94185E+006    4.95804E+006    4.95804E+006    6.78365E+005   -1.82603E+006    6.78406E+006   -1.27013E+006    4.50154E+006    6.79928E+005   -1.72831E+006    4.85876E+006   -3.41705E+005   -3.76643E+005    6.33469E+005
            5707    6.78527E+006    6.15139E+006    6.15139E+006    1.02755E+006   -1.54372E+006    7.69511E+006   -1.87841E+006    5.51746E+006    1.04052E+006   -1.50696E+006    6.10166E+006   -2.99401E+005   -5.03208E+005   -6.65836E+004
            5708    7.87150E+006    7.81613E+006    7.81613E+006    1.65866E+006   -1.05265E+006    8.86879E+006   -2.80738E+006    6.69303E+006    1.68203E+006   -9.70347E+005    7.71045E+006   -2.65701E+005   -6.22742E+005   -6.37369E+005
            5709    9.14639E+006    9.65212E+006    9.65212E+006    2.41795E+006   -6.28792E+005    1.02809E+007   -3.81376E+006    7.87701E+006    2.44386E+006   -4.49387E+005    9.44681E+006   -2.70584E+005   -7.32663E+005   -1.17659E+006
            5710    1.02442E+007    1.17289E+007    1.17289E+007    3.41894E+006    2.83324E+005    1.14456E+007   -5.14371E+006    9.06639E+006    3.44641E+006    5.62531E+005    1.14222E+007   -2.75047E+005   -8.46330E+005   -1.59549E+006
            5711    1.09846E+007    1.39808E+007    1.39808E+007    4.70831E+006    1.84942E+006    1.21313E+007   -6.84617E+006    1.00954E+007    4.73659E+006    2.25467E+006    1.35472E+007   -2.44081E+005   -9.42843E+005   -2.01329E+006
            5712    1.00318E+007    1.34773E+007    1.34773E+007    4.28406E+006    2.77740E+006    1.06999E+007   -6.84625E+006    9.77237E+006    4.31786E+006    2.84422E+006    1.33767E+007   -7.44787E+004   -6.38714E+005   -7.77363E+005
            5713    1.00541E+007    1.33042E+007    1.33042E+007    3.83101E+006    2.75577E+006    1.05485E+007   -6.63033E+006    9.92346E+006    3.83697E+006    2.76004E+006    1.32940E+007    4.93751E+004   -2.72159E+005   -1.57910E+005
            5714    8.59556E+006    1.10602E+007    1.10602E+007    3.13717E+006    1.92146E+006    9.13870E+006   -5.37293E+006    8.39887E+006    3.17390E+006    2.00529E+006    1.09396E+007   -4.93613E+004   -6.07265E+005   -8.21289E+005
            5715    8.29267E+006    1.07786E+007    1.07786E+007    2.81082E+006    2.19530E+006    8.58328E+006   -5.26156E+006    8.24104E+006    2.80500E+006    2.21426E+006    1.07654E+007    9.46244E+004   -2.35887E+005   -2.26933E+005
            5716    7.38589E+006    8.92719E+006    8.92719E+006    2.12653E+006    1.06987E+006    7.85731E+006   -4.04120E+006    7.21290E+006    2.16615E+006    1.15014E+006    8.80731E+006   -2.06815E+004   -5.55892E+005   -7.61224E+005
            5717    6.58484E+006    8.36302E+006    8.36302E+006    1.94058E+006    1.62699E+006    6.73604E+006   -3.97686E+006    6.56801E+006    1.86242E+006    1.71553E+006    8.35265E+006    1.44156E+005   -1.99049E+005   -1.64259E+005
            5718    5.83581E+006    6.67149E+006    6.67149E+006    1.21709E+006    5.17358E+005    6.15413E+006   -2.80198E+006    5.74029E+006    1.25466E+006    5.81936E+005    6.56933E+006    1.25105E+004   -4.62285E+005   -6.16846E+005
            5719    5.27888E+006    6.39793E+006    6.39793E+006    1.31189E+006    9.45324E+005    5.45261E+006   -2.88505E+006    5.25013E+006    1.09430E+006    1.18198E+006    6.37885E+006    1.87436E+005   -1.59441E+005   -2.67134E+005
            5720    4.25844E+006    4.75292E+006    4.75292E+006    7.05476E+005    3.10936E+005    4.44198E+006   -1.92311E+006    4.21703E+006    4.35168E+005    6.00996E+005    4.73317E+006    1.89485E+005   -1.22660E+005   -2.54244E+005
            5721    2.98409E+006    2.85234E+006    2.85234E+006    1.59470E+005   -3.55859E+005    3.20820E+006   -8.85316E+005    2.88142E+006   -3.39776E+005    1.52432E+005    2.84329E+006    8.50419E+004   -9.76109E+004   -1.25259E+005
            5722    4.61463E+006    4.96996E+006    4.96996E+006    5.44116E+005    1.87261E+005    4.78270E+006   -1.90044E+006    4.58343E+006    5.69660E+005    2.79726E+005    4.85195E+006    5.60059E+004   -3.32249E+005   -6.55894E+005
            5723    3.31549E+006    3.24746E+006    3.24746E+006    3.50427E+004   -1.62304E+005    3.40976E+006   -1.04006E+006    3.30224E+006   -1.41583E+005    6.02766E+004    3.20150E+006    3.91891E+004   -2.54189E+005   -2.89790E+005
            5724    3.41930E+006    2.98108E+006    2.98108E+006    5.05279E+005   -9.20356E+005    3.90143E+006   -8.55333E+005    2.61286E+006    4.95874E+005   -2.23271E+005    2.29340E+006    3.06778E+005    1.37596E+005    1.45046E+006
            5725    2.98826E+006    2.90607E+006    2.90607E+006    6.18606E+005   -4.74926E+005    3.38099E+006   -1.01658E+006    2.47393E+006    6.00672E+005   -1.28998E+005    2.57808E+006    2.61389E+005    1.48362E+005    9.61476E+005
            5726    3.02402E+006    3.15611E+006    3.15611E+006    6.75488E+005   -2.12478E+005    3.36859E+006   -1.20637E+006    2.70655E+006    6.52074E+005   -4.02883E+004    3.00733E+006    2.24761E+005    1.67965E+005    6.45801E+005
            5727    3.24581E+006    3.49964E+006    3.49964E+006    7.53363E+005   -8.22927E+004    3.58193E+006   -1.39024E+006    2.98908E+006    7.53855E+005   -3.11844E+004    3.44804E+006    1.22734E+005    1.80244E+005    3.66373E+005
            5728    3.56409E+006    3.91455E+006    3.91455E+006    8.79319E+005   -9.98685E+003    3.92454E+006   -1.59463E+006    3.30033E+006    8.89923E+005   -4.43483E+003    3.89839E+006    4.87238E+004    1.94388E+005    1.16669E+005
            5729    2.23434E+006    2.17851E+006    2.17851E+006    4.63236E+005   -3.48155E+005    2.52667E+006   -7.64531E+005    1.85658E+006    4.40920E+005    2.91098E+005    1.56158E+006    2.51623E+005    7.44416E+004    1.05507E+006
            5730    2.14922E+006    2.28918E+006    2.28918E+006    5.80582E+005   -1.23859E+005    2.41304E+006   -9.15302E+005    1.86158E+006    5.46485E+005    1.58489E+005    2.04093E+006    2.14206E+005    8.56050E+004    7.06110E+005
            5731    2.42020E+006    2.65865E+006    2.65865E+006    6.48715E+005   -2.78432E+004    2.68649E+006   -1.09317E+006    2.19183E+006    6.11660E+005    1.09557E+005    2.55830E+006    1.91365E+005    9.74295E+004    4.83087E+005
            5732    2.77360E+006    3.05920E+006    3.05920E+006    7.09560E+005   -3.66280E+002    3.05956E+006   -1.25613E+006    2.55692E+006    7.02666E+005    3.93821E+004    3.02634E+006    1.03785E+005    1.05229E+005    2.86733E+005
            5733    3.12645E+006    3.45247E+006    3.45247E+006    8.14451E+005   -8.63508E+002    3.45333E+006   -1.42202E+006    2.87230E+006    8.17797E+005    3.44755E+003    3.44481E+006    3.96238E+004    1.13430E+005    9.60921E+004
            5734    1.01372E+006    1.31406E+006    1.31406E+006    5.29155E+005    1.69571E+005    1.14449E+006   -6.70930E+005    8.51389E+005    3.77929E+005    5.34883E+005    1.09998E+006    2.13570E+005    2.10410E+004    3.90213E+005
            5735    1.46870E+006    1.78781E+006    1.78781E+006    5.91257E+005    1.48733E+005    1.63908E+006   -8.42599E+005    1.30557E+006    5.01504E+005    2.83338E+005    1.74296E+006    1.86648E+005    2.52924E+004    2.52317E+005
            5736    2.00594E+006    2.32189E+006    2.32189E+006    6.33789E+005    1.04328E+005    2.21756E+006   -1.02000E+006    1.83862E+006    5.77524E+005    1.76392E+005    2.30609E+006    1.67931E+005    3.19106E+004    1.76926E+005
            5737    2.47321E+006    2.77556E+006    2.77556E+006    6.71928E+005    5.10767E+004    2.72448E+006   -1.16619E+006    2.28782E+006    6.59883E+005    6.81345E+004    2.77055E+006    8.95650E+004    3.52682E+004    1.07889E+005
            5738    2.83772E+006    3.14799E+006    3.14799E+006    7.60011E+005    1.08483E+004    3.13714E+006   -1.30628E+006    2.60091E+006    7.59089E+005    1.27703E+004    3.14699E+006    3.39857E+004    3.69698E+004    3.61136E+004
            5739    1.11033E+007    1.42758E+007    1.42758E+007    4.87380E+006    2.02605E+006    1.22498E+007   -7.05856E+006    1.02321E+007    4.90216E+006    2.43630E+006    1.38372E+007    2.43940E+005   -9.53785E+005    2.03522E+006
            5740    1.03101E+007    1.40220E+007    1.40220E+007    4.57831E+006    3.02240E+006    1.09996E+007   -7.20759E+006    1.00409E+007    4.61200E+006    3.08971E+006    1.39210E+007    8.11905E+004   -6.52715E+005    7.86113E+005
            5741    1.05673E+007    1.40268E+007    1.40268E+007    4.13102E+006    2.89649E+006    1.11303E+007   -7.01812E+006    1.04032E+007    4.13839E+006    2.90006E+006    1.40159E+007   -3.67660E+004   -2.84532E+005    1.73899E+005
            5742    1.10966E+007    1.62012E+007    1.62012E+007    6.27162E+006    4.22307E+006    1.19781E+007   -8.89863E+006    1.06586E+007    6.30636E+006    4.63074E+006    1.57588E+007    1.75106E+005   -1.01131E+006    1.99829E+006
            5743    1.15891E+007    1.62921E+007    1.62921E+007    5.71920E+006    3.90161E+006    1.23905E+007   -8.63763E+006    1.12617E+007    5.75434E+006    3.93951E+006    1.62190E+007    7.30483E+004   -6.64997E+005    6.24162E+005
            5744    1.23381E+007    1.64840E+007    1.64840E+007    5.13496E+006    3.35115E+006    1.31329E+007   -8.32338E+006    1.20428E+007    5.14423E+006    3.35205E+006    1.64739E+007   -8.04820E+003   -3.24431E+005    1.07781E+005
            5745    1.05828E+007    1.74220E+007    1.74220E+007    7.38727E+006    6.36538E+006    1.10567E+007   -1.03916E+007    1.04709E+007    7.44800E+006    6.55103E+006    1.71757E+007    8.87291E+004   -1.03440E+006    1.23886E+006
            5746    1.24580E+007    1.78942E+007    1.78942E+007    6.54775E+006    4.56300E+006    1.33312E+007   -9.66832E+006    1.20946E+007    6.58519E+006    4.57286E+006    1.78469E+007    4.30702E+004   -6.67205E+005    3.27663E+005
            5747    1.36409E+007    1.82605E+007    1.82605E+007    5.86085E+006    3.64870E+006    1.46118E+007   -9.25669E+006    1.32283E+007    5.87097E+006    3.64893E+006    1.82502E+007    1.14752E+003   -3.54190E+005    5.68196E+004
            5748    1.02579E+007    1.77692E+007    1.77692E+007    7.75617E+006    7.28269E+006    1.04865E+007   -1.09360E+007    1.02333E+007    7.86473E+006    7.28347E+006    1.76598E+007   -5.90712E+003   -1.03859E+006   -6.74762E+004
            5749    1.27399E+007    1.83966E+007    1.83966E+007    6.80444E+006    4.75697E+006    1.36397E+007   -9.98601E+006    1.23616E+007    6.84287E+006    4.75720E+006    1.83580E+007   -6.35218E+003   -6.66769E+005   -5.12668E+004
            5750    1.40389E+007    1.87949E+007    1.87949E+007    6.07607E+006    3.73114E+006    1.50637E+007   -9.53403E+006    1.35878E+007    6.08646E+006    3.73116E+006    1.87845E+007   -1.21374E+003   -3.63420E+005   -1.56446E+004
            5751    1.06193E+007    1.73099E+007    1.73099E+007    7.28783E+006    6.18018E+006    1.11297E+007   -1.02593E+007    1.04882E+007    7.34461E+006    6.39102E+006    1.70423E+007   -9.68476E+004   -1.03257E+006   -1.33433E+006
            5752    1.23366E+007    1.76177E+007    1.76177E+007    6.38679E+006    4.41334E+006    1.32044E+007   -9.47261E+006    1.19737E+007    6.42347E+006    4.42868E+006    1.75657E+007   -4.91519E+004   -6.63910E+005   -4.11368E+005
            5753    1.33762E+007    1.78832E+007    1.78832E+007    5.69769E+006    3.57114E+006    1.43121E+007   -9.05067E+006    1.29877E+007    5.70756E+006    3.57150E+006    1.78730E+007   -1.89256E+003   -3.46899E+005   -7.10210E+004
            5754    1.10910E+007    1.59912E+007    1.59912E+007    6.11732E+006    3.99096E+006    1.20002E+007   -8.69982E+006    1.06177E+007    6.15149E+006    4.40028E+006    1.55477E+007   -1.81927E+005   -1.00567E+006   -2.00550E+006
            5755    1.13444E+007    1.58085E+007    1.58085E+007    5.45701E+006    3.68083E+006    1.21277E+007   -8.31545E+006    1.10250E+007    5.49107E+006    3.72278E+006    1.57325E+007   -7.54724E+004   -6.55055E+005   -6.49770E+005
            5756    1.18901E+007    1.58434E+007    1.58434E+007    4.86021E+006    3.21736E+006    1.26261E+007   -7.97367E+006    1.16306E+007    4.86916E+006    3.21872E+006    1.58331E+007    1.35602E+004   -3.14385E+005   -1.27726E+005
            5757    3.57053E+006    3.92044E+006    3.92044E+006    8.80228E+005   -1.14055E+004    3.93185E+006   -1.59642E+006    3.30584E+006    8.90908E+005   -5.88119E+003    3.90424E+006    4.87326E+004   -1.95106E+005   -1.16384E+005
            5758    3.24556E+006    3.49909E+006    3.49909E+006    7.53323E+005   -8.26840E+004    3.58178E+006   -1.38991E+006    2.98857E+006    7.53700E+005   -3.10722E+004    3.44710E+006    1.23393E+005   -1.80258E+005   -3.68095E+005
            5759    3.02220E+006    3.15165E+006    3.15165E+006    6.74341E+005   -2.15597E+005    3.36725E+006   -1.20346E+006    2.70297E+006    6.50835E+005   -4.16878E+004    3.00125E+006    2.25494E+005   -1.67683E+005   -6.49376E+005
            5760    2.98498E+006    2.89998E+006    2.89998E+006    6.16332E+005   -4.77648E+005    3.37763E+006   -1.01289E+006    2.46940E+006    5.98429E+005   -1.27053E+005    2.56729E+006    2.61653E+005   -1.47483E+005   -9.67534E+005
            5761    3.41845E+006    2.97974E+006    2.97974E+006    5.04837E+005   -9.20791E+005    3.90053E+006   -8.54594E+005    2.61172E+006    4.95402E+005   -2.21490E+005    2.28987E+006    3.06756E+005   -1.37134E+005   -1.45220E+006
            5762    3.12776E+006    3.45537E+006    3.45537E+006    8.15856E+005    7.55465E+002    3.45461E+006   -1.42399E+006    2.87387E+006    8.19250E+005    4.99270E+003    3.44774E+006    3.91528E+004   -1.13572E+005   -9.55030E+004
            5763    2.77850E+006    3.06487E+006    3.06487E+006    7.10872E+005   -6.82166E+000    3.06488E+006   -1.25858E+006    2.56164E+006    7.04257E+005    3.90880E+004    3.03239E+006    1.02744E+005   -1.05478E+005   -2.85050E+005
            5764    2.42229E+006    2.66122E+006    2.66122E+006    6.49292E+005   -2.74734E+004    2.68870E+006   -1.09435E+006    2.19399E+006    6.12592E+005    1.09660E+005    2.56079E+006    1.90772E+005   -9.75306E+004   -4.83576E+005
            5765    2.14379E+006    2.28181E+006    2.28181E+006    5.77909E+005   -1.25261E+005    2.40707E+006   -9.11485E+005    1.85641E+006    5.43644E+005    1.60193E+005    2.03062E+006    2.14708E+005   -8.51766E+004   -7.08865E+005
            5766    2.23792E+006    2.17723E+006    2.17723E+006    4.60232E+005   -3.53758E+005    2.53099E+006   -7.61236E+005    1.85815E+006    4.38273E+005    2.90861E+005    1.55457E+006    2.52160E+005   -7.46887E+004   -1.05962E+006
            5767    2.83994E+006    3.14861E+006    3.14861E+006    7.59307E+005    8.78516E+003    3.13982E+006   -1.30557E+006    2.60243E+006    7.58408E+005    1.06970E+004    3.14760E+006    3.38627E+004   -3.72408E+004   -3.63071E+004
            5768    2.47691E+006    2.77899E+006    2.77899E+006    6.72625E+005    5.02524E+004    2.72874E+006   -1.16729E+006    2.29087E+006    6.60696E+005    6.71931E+004    2.77398E+006    8.92861E+004   -3.53167E+004   -1.07945E+005
            5769    2.00497E+006    2.32124E+006    2.32124E+006    6.33755E+005    1.04837E+005    2.21640E+006   -1.01994E+006    1.83792E+006    5.77487E+005    1.76714E+005    2.30563E+006    1.67795E+005   -3.17978E+004   -1.75795E+005
            5770    1.46352E+006    1.78608E+006    1.78608E+006    5.93158E+005    1.52989E+005    1.63309E+006   -8.44076E+005    1.30162E+006    5.02923E+005    2.87234E+005    1.74207E+006    1.86253E+005   -2.51066E+004   -2.49440E+005
            5771    1.01719E+006    1.31918E+006    1.31918E+006    5.30938E+005    1.70951E+005    1.14823E+006   -6.73690E+005    8.55164E+005    3.80371E+005    5.36450E+005    1.10425E+006    2.13767E+005   -2.11609E+004   -3.91946E+005
            5772    8.60376E+006    8.26524E+006    8.26524E+006    1.76186E+006   -1.49061E+006    9.75585E+006   -2.84550E+006    7.00538E+006    1.78289E+006   -1.43004E+006    8.18365E+006    3.25011E+005   -6.38986E+005    4.56457E+005
            5773    7.72784E+006    6.65951E+006    6.65951E+006    1.12249E+006   -2.16916E+006    8.82867E+006   -1.87094E+006    5.80362E+006    1.13062E+006   -2.12288E+006    6.60510E+006    3.74885E+005   -5.04529E+005   -2.36464E+005
            5774    6.75752E+006    5.50065E+006    5.50065E+006    7.83591E+005   -2.24083E+006    7.74148E+006   -1.34781E+006    4.84192E+006    7.86670E+005   -2.11410E+006    5.37085E+006    3.90369E+005   -4.08283E+005   -8.12401E+005
            5775    5.65699E+006    4.52571E+006    4.52571E+006    6.02960E+005   -1.95900E+006    6.48471E+006   -1.05655E+006    4.00127E+006    6.00955E+005   -1.65018E+006    4.21889E+006    3.81302E+005   -3.03537E+005   -1.28937E+006
            5776    4.53051E+006    3.70998E+006    3.70998E+006    5.27150E+005   -1.47696E+006    5.18693E+006   -9.20056E+005    3.28570E+006    5.22592E+005   -9.50053E+005    3.18763E+006    3.53632E+005   -2.19131E+005   -1.50671E+006
            5777    3.81297E+006    3.49405E+006    3.49405E+006    6.35674E+005   -8.35311E+005    4.32936E+006   -1.09814E+006    3.06953E+006    6.23851E+005   -5.63378E+005    3.23394E+006    3.05570E+005   -2.26451E+005   -9.63317E+005
            5778    3.62716E+006    3.62085E+006    3.62085E+006    6.71375E+005   -4.29113E+005    4.04996E+006   -1.28770E+006    3.21813E+006    6.52306E+005   -2.97351E+005    3.50815E+006    2.56123E+005   -2.39782E+005   -5.82308E+005
            5779    3.66665E+006    3.86580E+006    3.86580E+006    7.45666E+005   -1.72753E+005    4.03856E+006   -1.47957E+006    3.39308E+006    7.49535E+005   -1.33592E+005    3.82277E+006    1.46679E+005   -2.51558E+005   -2.89367E+005
            5780    3.97566E+006    4.32026E+006    4.32026E+006    8.78500E+005   -3.15123E+004    4.35177E+006   -1.72242E+006    3.73037E+006    8.97939E+005   -2.68809E+004    4.29619E+006    5.83703E+004   -2.76650E+005   -8.14014E+004
            5781    4.62648E+006    4.10252E+006    4.10252E+006    6.61672E+005   -1.15694E+006    5.25946E+006   -1.20242E+006    3.68279E+006    6.50144E+005   -1.02212E+006    3.97922E+006    3.32531E+005   -3.08417E+005   -6.68554E+005
            5782    4.16772E+006    4.04066E+006    4.04066E+006    6.42914E+005   -6.09725E+005    4.65038E+006   -1.35795E+006    3.70734E+006    6.25446E+005   -5.42274E+005    3.99067E+006    2.63928E+005   -3.11186E+005   -2.90082E+005
            5783    4.01109E+006    4.11659E+006    4.11659E+006    6.71097E+005   -2.86705E+005    4.40329E+006   -1.50033E+006    3.74059E+006    6.75500E+005   -2.61992E+005    4.08747E+006    1.54172E+005   -3.12402E+005   -4.34364E+004
            5784    4.15588E+006    4.44228E+006    4.44228E+006    7.49138E+005   -5.79469E+004    4.50023E+006   -1.71116E+006    3.97378E+006    7.75935E+005   -5.25399E+004    4.41008E+006    6.28404E+004   -3.43031E+005    2.80487E+004
            5785    5.43029E+006    4.83425E+006    4.83425E+006    7.35183E+005   -1.32457E+006    6.15883E+006   -1.41496E+006    4.41337E+006    7.31972E+005   -1.27008E+006    4.78298E+006    3.20811E+005   -4.06386E+005   -2.27053E+005
            5786    4.71164E+006    4.52057E+006    4.52057E+006    6.28055E+005   -7.17463E+005    5.23803E+006   -1.47705E+006    4.24605E+006    6.17793E+005   -6.68102E+005    4.48147E+006    2.32025E+005   -3.74680E+005    1.49508E+005
            5787    4.20310E+006    4.25904E+006    4.25904E+006    5.66058E+005   -3.14617E+005    4.57366E+006   -1.50350E+006    3.98751E+006    5.70674E+005   -2.65116E+005    4.20493E+006    1.29608E+005   -3.54328E+005    3.13691E+005
            5788    4.04784E+006    4.24513E+006    4.24513E+006    5.08943E+005   -5.51796E+004    4.30031E+006   -1.56630E+006    3.95795E+006    5.39593E+005   -4.25397E+004    4.20184E+006    5.08607E+004   -3.77112E+005    1.50265E+005
            5789    6.18286E+006    5.77384E+006    5.77384E+006    9.33896E+005   -1.19134E+006    6.96518E+006   -1.83880E+006    5.26158E+006    9.39985E+005   -1.13338E+006    5.70979E+006    2.78442E+005   -5.01319E+005    3.17153E+005
            5790    5.00854E+006    5.01385E+006    5.01385E+006    6.83642E+005   -4.71270E+005    5.48512E+006   -1.74207E+006    4.69472E+006    6.89326E+005   -3.72867E+005    4.90976E+006    1.45504E+005   -4.24305E+005    5.94041E+005
            5791    4.23673E+006    4.30694E+006    4.30694E+006    4.42362E+005   -2.23178E+005    4.53012E+006   -1.50871E+006    4.11666E+006    4.55532E+005   -1.31652E+005    4.20224E+006    6.47304E+004   -3.61239E+005    5.66638E+005
            5792    3.75577E+006    3.83741E+006    3.83741E+006    2.08339E+005   -3.33920E+004    3.87080E+006   -1.33745E+006    3.73821E+006    2.36077E+005   -1.03717E+004    3.78665E+006    2.40026E+004   -3.66032E+005    2.30814E+005
            5793    6.47341E+006    6.81925E+006    6.81925E+006    1.31136E+006   -3.11046E+005    7.13029E+006   -2.60652E+006    5.98982E+006    1.33910E+006   -2.05313E+005    6.68577E+006    1.56259E+005   -5.76459E+005    7.31513E+005
            5794    4.98895E+006    5.33166E+006    5.33166E+006    7.20120E+005    3.59230E+004    5.29573E+006   -2.02923E+006    4.88172E+006    7.47007E+005    1.44540E+005    5.19615E+006    1.75146E+004   -4.05894E+005    7.20205E+005
            5795    4.18877E+006    4.32007E+006    4.32007E+006    3.24891E+005   -3.86003E+004    4.35867E+006   -1.53545E+006    4.15306E+006    3.49439E+005    5.55311E+004    4.20139E+006   -2.33616E+004   -3.22127E+005    6.26318E+005
            5796    3.38113E+006    3.35267E+006    3.35267E+006    3.09854E+004   -8.49339E+004    3.43760E+006   -1.09957E+006    3.37666E+006   -5.71919E+004    4.90187E+004    3.30689E+006   -1.68176E+004   -3.05432E+005    2.45153E+005
            5797    3.05850E+006    2.91991E+006    2.91991E+006    6.43836E+004   -3.07537E+005    3.22745E+006   -8.92253E+005    3.00699E+006   -2.89942E+005    7.28843E+004    2.89382E+006   -5.35795E+004   -2.03486E+005    1.90400E+005
            5798    2.85683E+006    2.65072E+006    2.65072E+006    9.63259E+004   -4.34181E+005    3.08490E+006   -7.70955E+005    2.74271E+006   -4.22131E+005    8.81259E+004    2.64687E+006   -7.51826E+004   -7.18890E+004    7.27586E+004
            5799    4.03274E+006    4.24945E+006    4.24945E+006    3.04572E+005    1.34259E+005    4.11519E+006   -1.56276E+006    4.02463E+006    2.47060E+005    2.66355E+005    4.17487E+006   -1.12881E+005   -2.27112E+005    4.89123E+005
            5800    3.85680E+006    4.12521E+006    4.12521E+006    4.87214E+005    8.16688E+004    4.04355E+006   -1.56470E+006    3.80838E+006    1.73761E+005    4.06083E+005    4.11425E+006   -1.72778E+005   -8.03572E+004    1.82538E+005
            5801    4.88179E+006    5.47765E+006    5.47765E+006    7.39221E+005    4.64125E+005    5.01352E+006   -2.22700E+006    4.86431E+006    7.42552E+005    5.49171E+005    5.38927E+006   -1.03761E+005   -3.05120E+005    5.75128E+005
            5802    4.72711E+006    5.52361E+006    5.52361E+006    1.00524E+006    6.12278E+005    4.91133E+006   -2.38037E+006    4.69015E+006    7.46515E+005    8.86135E+005    5.50848E+006   -1.91467E+005   -1.20278E+005    2.31884E+005
            5803    6.18315E+006    7.24697E+006    7.24697E+006    1.43684E+006    7.48427E+005    6.49855E+006   -3.14408E+006    6.09604E+006    1.47395E+006    8.21566E+005    7.13673E+006   -2.51944E+004   -4.68165E+005    6.79442E+005
            5804    5.74727E+006    7.14201E+006    7.14201E+006    1.57046E+006    1.23381E+006    5.90819E+006   -3.31543E+006    5.72502E+006    1.40339E+006    1.41847E+006    7.12442E+006   -1.76370E+005   -1.71310E+005    2.61794E+005
            5805    6.96574E+006    8.97856E+006    8.97856E+006    2.17985E+006    1.85702E+006    7.12155E+006   -4.33848E+006    6.94888E+006    2.13080E+006    1.91973E+006    8.96490E+006   -1.28989E+005   -2.14671E+005    2.17184E+005
            5806    8.66808E+006    1.13859E+007    1.13859E+007    3.07772E+006    2.39791E+006    8.98797E+006   -5.62051E+006    8.60780E+006    3.07715E+006    2.40929E+006    1.13751E+007   -7.85190E+004   -2.48471E+005    1.71628E+005
            5807    7.58605E+006    9.27316E+006    9.27316E+006    2.30455E+006    1.19246E+006    8.08071E+006   -4.25672E+006    7.39932E+006    2.34317E+006    1.27218E+006    9.15482E+006    4.68725E+004   -5.82877E+005    7.48653E+005
            5808    9.00347E+006    1.16593E+007    1.16593E+007    3.40591E+006    2.05781E+006    9.60151E+006   -5.70768E+006    8.77209E+006    3.44191E+006    2.14263E+006    1.15385E+007    6.70882E+004   -6.30570E+005    8.35399E+005
            5809    1.04392E+007    1.20708E+007    1.20708E+007    3.58348E+006    4.14267E+005    1.16565E+007   -5.35617E+006    9.26036E+006    3.61022E+006    7.13013E+005    1.17453E+007    2.77926E+005   -8.61842E+005    1.67074E+006
            5810    9.49724E+006    1.00186E+007    1.00186E+007    2.53511E+006   -6.65427E+005    1.06841E+007   -3.96277E+006    8.14420E+006    2.56215E+006   -5.04896E+005    9.83106E+006    2.92613E+005   -7.58490E+005    1.10710E+006
            5811    6.85114E+006    6.18917E+006    6.18917E+006    1.06626E+006   -1.59291E+006    7.78209E+006   -1.88751E+006    5.49572E+006    1.07002E+006   -1.56389E+006    6.15640E+006   -2.62777E+005    4.02443E+005    1.14433E+005
            5812    5.96477E+006    4.94302E+006    4.94302E+006    6.73447E+005   -1.87221E+006    6.81523E+006   -1.24809E+006    4.47209E+006    6.71269E+005   -1.78864E+006    4.86163E+006   -3.01847E+005    3.14696E+005   -6.02758E+005
            5813    5.04819E+006    4.17999E+006    4.17999E+006    5.81382E+005   -1.59068E+006    5.77067E+006   -1.05690E+006    3.75818E+006    5.77127E+005   -1.36303E+006    3.95660E+006   -3.06663E+005    2.52007E+005   -1.04401E+006
            5814    4.12003E+006    3.54945E+006    3.54945E+006    5.71489E+005   -1.15254E+006    4.70199E+006   -9.89468E+005    3.13941E+006    5.67072E+005   -7.14985E+005    3.11632E+006   -2.86317E+005    1.87275E+005   -1.31819E+006
            5815    3.54720E+006    3.62989E+006    3.62989E+006    7.28684E+005   -3.24691E+005    3.95458E+006   -1.34463E+006    3.16556E+006    7.30340E+005   -2.17355E+005    3.52090E+006   -1.56528E+005    1.96906E+005   -5.95229E+005
            5816    3.93681E+006    4.28427E+006    4.28427E+006    9.59880E+005   -6.30289E+004    4.34730E+006   -1.72704E+006    3.61926E+006    9.73153E+005   -5.36649E+004    4.26163E+006   -6.60505E+004    2.31228E+005   -1.63138E+005
            5817    4.07919E+006    4.00963E+006    4.00963E+006    6.78010E+005   -5.39751E+005    4.54938E+006   -1.38263E+006    3.63521E+006    6.78304E+005   -5.00109E+005    3.96969E+006   -1.72363E+005    2.49725E+005   -2.96091E+005
            5818    4.25598E+006    4.47836E+006    4.47836E+006    8.23125E+005   -1.94043E+005    4.67240E+006   -1.70248E+006    3.96843E+006    8.42035E+005   -1.88703E+005    4.45411E+006   -7.17871E+004    2.96678E+005    2.03220E+004
            5819    4.71307E+006    4.51612E+006    4.51612E+006    6.44980E+005   -7.32115E+005    5.24823E+006   -1.47633E+006    4.22359E+006    6.45396E+005   -6.95887E+005    4.47947E+006   -1.60745E+005    3.08230E+005    2.63770E+005
            5820    4.11918E+006    4.26064E+006    4.26064E+006    5.62802E+005   -1.79064E+005    4.43970E+006   -1.54813E+006    3.96468E+006    5.84476E+005   -1.54181E+005    4.21409E+006   -5.43663E+004    3.32169E+005    2.75129E+005
            5821    4.86103E+006    4.97331E+006    4.97331E+006    7.30338E+005   -3.30558E+005    5.30387E+006   -1.79103E+006    4.58959E+006    7.38448E+005   -2.02389E+005    4.83703E+006   -8.18028E+004    3.35405E+005    7.59923E+005
            5822    3.69530E+006    3.77071E+006    3.77071E+006    2.31540E+005   -6.30761E+004    3.83379E+006   -1.31306E+006    3.66873E+006    2.50769E+005   -2.03564E+004    3.70876E+006   -1.68422E+004    3.09814E+005    3.64076E+005
            5823    3.29000E+006    3.24403E+006    3.24403E+006    2.14056E+004   -1.09439E+005    3.35347E+006   -1.05200E+006    3.28413E+006   -9.38366E+004    5.33327E+004    3.19650E+006    2.29279E+004    2.27048E+005    3.18390E+005
            5824    2.93451E+006    2.82687E+006    2.82687E+006    1.58588E+005   -3.16021E+005    3.14289E+006   -8.89812E+005    2.84624E+006   -3.07712E+005    1.59914E+005    2.81723E+006    5.68336E+004    8.51325E+004    1.38184E+005
            5825    4.59642E+006    5.00490E+006    5.00490E+006    6.69123E+005    1.86000E+005    4.81890E+006   -1.95334E+006    4.53877E+006    6.85343E+005    2.96418E+005    4.87826E+006    2.97616E+004    2.65187E+005    7.19004E+005
            5826    4.18616E+006    4.76316E+006    4.76316E+006    7.01508E+005    4.62730E+005    4.30043E+006   -1.97580E+006    4.17079E+006    5.63663E+005    6.22230E+005    4.74151E+006    1.24637E+005    1.01929E+005    2.78679E+005
            5827    5.15319E+006    6.41451E+006    6.41451E+006    1.38962E+006    1.14196E+006    5.27255E+006   -2.98203E+006    5.13977E+006    1.32419E+006    1.22846E+006    6.39343E+006    1.18644E+005    1.27329E+005    3.01572E+005
            5828    6.40921E+006    8.37214E+006    8.37214E+006    2.18900E+006    1.75856E+006    6.61358E+006   -4.10657E+006    6.37656E+006    2.17931E+006    1.77802E+006    8.36237E+006    7.92392E+004    1.48537E+005    2.00356E+005
            5829    8.12490E+006    1.08402E+007    1.08402E+007    3.22353E+006    2.28797E+006    8.55218E+006   -5.45055E+006    8.00237E+006    3.22549E+006    2.29804E+006    1.08281E+007    3.91347E+004    1.55020E+005    2.74586E+005
            5830    9.88783E+006    1.34146E+007    1.34146E+007    4.35543E+006    2.86692E+006    1.05477E+007   -6.87899E+006    9.63092E+006    4.35780E+006    2.87121E+006    1.34080E+007    5.09734E+003    1.46719E+005    2.12472E+005
            5831    5.78840E+006    6.70410E+006    6.70410E+006    1.41498E+006    5.20537E+005    6.18356E+006   -2.87987E+006    5.62977E+006    1.43471E+006    5.97176E+005    6.60772E+006   -5.37944E+003    3.41525E+005    6.73675E+005
            5832    7.31758E+006    8.99346E+006    8.99346E+006    2.40675E+006    1.11660E+006    7.87686E+006   -4.17227E+006    7.05487E+006    2.42792E+006    1.20335E+006    8.88553E+006   -1.91439E+004    4.01126E+005    8.07305E+005
            5833    8.51879E+006    1.11557E+007    1.11557E+007    3.46056E+006    2.00169E+006    9.15401E+006   -5.53931E+006    8.23068E+006    3.48043E+006    2.08518E+006    1.10523E+007   -3.64547E+004    4.33714E+005    8.47802E+005
            5834    9.99286E+006    1.36242E+007    1.36242E+007    4.62784E+006    2.86854E+006    1.07557E+007   -7.04020E+006    9.63515E+006    4.64734E+006    2.92975E+006    1.35435E+007   -4.56478E+004    4.59609E+005    7.84325E+005
            5835    1.10402E+007    1.41910E+007    1.41910E+007    5.03158E+006    1.93237E+006    1.22586E+007   -7.05164E+006    9.98896E+006    5.04148E+006    2.33393E+006    1.37795E+007   -2.04661E+005    6.71630E+005    2.08685E+006
            5836    1.03253E+007    1.18811E+007    1.18811E+007    3.63884E+006    2.99432E+005    1.15817E+007   -5.27313E+006    8.98403E+006    3.64882E+006    5.71976E+005    1.15986E+007   -2.28991E+005    6.12988E+005    1.65332E+006
            5837    9.23174E+006    9.77694E+006    9.77694E+006    2.57408E+006   -6.29936E+005    1.04069E+007   -3.90703E+006    7.82555E+006    2.58545E+006   -4.55116E+005    9.59076E+006   -2.21290E+005    5.45147E+005    1.23385E+006
            5838    7.95985E+006    7.91911E+006    7.91911E+006    1.76771E+006   -1.07094E+006    8.99005E+006   -2.87196E+006    6.66941E+006    1.77904E+006   -9.93648E+005    7.83049E+006   -2.17821E+005    4.76512E+005    6.94998E+005
            5839    3.49331E+006    3.82291E+006    3.82291E+006    9.21857E+005   -5.47809E+004    3.87769E+006   -1.56333E+006    3.16360E+006    9.28650E+005   -4.30803E+004    3.80441E+006   -5.67765E+004    1.60888E+005   -1.88964E+005
            5840    3.00204E+006    3.20880E+006    3.20880E+006    7.34380E+005   -1.30829E+005    3.33963E+006   -1.27078E+006    2.69942E+006    7.32465E+005    1.69824E+004    3.06290E+006   -1.31312E+005    1.34304E+005   -6.57304E+005
            5841    3.18748E+006    2.94234E+006    2.94234E+006    5.72008E+005   -6.81297E+005    3.62364E+006   -9.44352E+005    2.53688E+006    5.64214E+005   -1.17064E+005    2.38591E+006   -2.46569E+005    1.22714E+005   -1.27915E+006
            5842    3.01837E+006    3.35041E+006    3.35041E+006    8.52902E+005   -3.66788E+003    3.35408E+006   -1.39988E+006    2.72414E+006    8.54364E+005    5.12390E+003    3.34016E+006   -4.66474E+004    9.24057E+004   -1.49440E+005
            5843    2.40771E+006    2.70600E+006    2.70600E+006    6.83825E+005    4.25916E+004    2.66341E+006   -1.14414E+006    2.20298E+006    6.74946E+005    1.34799E+005    2.62267E+006   -1.08446E+005    8.13960E+004   -4.48869E+005
            5844    2.18217E+006    2.25070E+006    2.25070E+006    5.40420E+005   -2.06960E+005    2.45766E+006   -8.61387E+005    1.85967E+006    5.22746E+005    3.00122E+005    1.76129E+006   -1.99726E+005    6.79905E+004   -9.60737E+005
            5845    2.74086E+006    3.05166E+006    3.05166E+006    7.89608E+005    3.70037E+003    3.04796E+006   -1.28166E+006    2.46762E+006    7.87956E+005    6.59756E+003    3.05042E+006   -4.08575E+004    3.03589E+004   -4.99640E+004
            5846    2.04165E+006    2.39487E+006    2.39487E+006    6.51943E+005    1.48635E+005    2.24623E+006   -1.06515E+006    1.89438E+006    6.34057E+005    1.79248E+005    2.38214E+006   -9.66374E+004    2.42573E+004   -1.64171E+005
            5847    1.10685E+006    1.47397E+006    1.47397E+006    5.61420E+005    2.42730E+005    1.23124E+006   -7.59372E+005    9.95515E+005    4.55862E+005    4.73732E+005    1.34852E+006   -1.68029E+005    1.98561E+004   -3.45460E+005
            5848    1.03440E+007    1.40616E+007    1.40616E+007    4.63919E+006    2.99336E+006    1.10683E+007   -7.23139E+006    1.00431E+007    4.64158E+006    2.99815E+006    1.40545E+007    2.28888E+003    1.50792E+005   -2.29714E+005
            5849    1.02683E+007    1.41515E+007    1.41515E+007    4.90341E+006    3.10141E+006    1.10501E+007   -7.38543E+006    9.90318E+006    4.92301E+006    3.16515E+006    1.40681E+007    4.96538E+004    4.70928E+005   -8.09650E+005
            5850    1.11532E+007    1.44977E+007    1.44977E+007    5.21187E+006    2.12665E+006    1.23711E+007   -7.27875E+006    1.01244E+007    5.22180E+006    2.53153E+006    1.40829E+007    2.05276E+005    6.80667E+005   -2.10418E+006
            5851    1.20980E+007    1.65328E+007    1.65328E+007    5.71930E+006    3.46689E+006    1.30659E+007   -8.57300E+006    1.16121E+007    5.72074E+006    3.46901E+006    1.65293E+007    1.61672E+004    1.30996E+005   -1.60941E+005
            5852    1.16039E+007    1.65014E+007    1.65014E+007    6.04512E+006    4.01721E+006    1.24842E+007   -8.85458E+006    1.11948E+007    6.06527E+006    4.05119E+006    1.64473E+007    4.14577E+004    4.85073E+005   -6.29065E+005
            5853    1.10784E+007    1.64205E+007    1.64205E+007    6.68379E+006    4.36691E+006    1.20536E+007   -9.15707E+006    1.05124E+007    6.69800E+006    4.76578E+006    1.60074E+007    1.52711E+005    7.15683E+005   -2.06052E+006
            5854    1.33973E+007    1.83328E+007    1.83328E+007    6.50167E+006    3.78543E+006    1.45473E+007   -9.53995E+006    1.27556E+007    6.50270E+006    3.78602E+006    1.83311E+007    1.27550E+004    1.13839E+005   -8.68281E+004
            5855    1.25381E+007    1.81780E+007    1.81780E+007    6.86879E+006    4.69535E+006    1.34827E+007   -9.91406E+006    1.21033E+007    6.88985E+006    4.70367E+006    1.81487E+007    2.15304E+004    4.94125E+005   -3.24045E+005
            5856    1.04694E+007    1.76103E+007    1.76103E+007    7.86066E+006    6.54544E+006    1.10648E+007   -1.06721E+007    1.02810E+007    7.89248E+006    6.71849E+006    1.74054E+007    7.95594E+004    7.30121E+005   -1.28414E+006
            5857    1.38037E+007    1.88866E+007    1.88866E+007    6.74058E+006    3.87499E+006    1.50116E+007   -9.83406E+006    1.31092E+007    6.74151E+006    3.87501E+006    1.88857E+007   -2.10739E+003    1.06441E+005    1.75007E+004
            5858    1.28520E+007    1.87121E+007    1.87121E+007    7.12181E+006    4.89049E+006    1.38216E+007   -1.02415E+007    1.24050E+007    7.14310E+006    4.89074E+006    1.86905E+007   -3.21044E+003    4.96506E+005    5.77015E+004
            5859    1.01038E+007    1.79727E+007    1.79727E+007    8.29213E+006    7.49311E+006    1.04796E+007   -1.12527E+007    1.00324E+007    8.34795E+006    7.49340E+006    1.79166E+007   -3.06488E+003    7.33309E+005    4.97777E+004
            5860    1.31689E+007    1.80012E+007    1.80012E+007    6.35153E+006    3.71267E+006    1.42885E+007   -9.35514E+006    1.25532E+007    6.35256E+006    3.71348E+006    1.79994E+007   -1.53017E+004    1.15062E+005    1.01300E+005
            5861    1.24292E+007    1.79039E+007    1.79039E+007    6.71128E+006    4.52761E+006    1.33763E+007   -9.71427E+006    1.19862E+007    6.73189E+006    4.54132E+006    1.78696E+007   -2.88168E+004    4.91181E+005    4.13705E+005
            5862    1.04961E+007    1.75236E+007    1.75236E+007    7.78152E+006    6.40861E+006    1.11150E+007   -1.05712E+007    1.02912E+007    7.81127E+006    6.59939E+006    1.73031E+007   -8.51118E+004    7.27633E+005    1.35301E+006
            5863    1.17108E+007    1.59741E+007    1.59741E+007    5.46848E+006    3.34792E+006    1.26262E+007   -8.26351E+006    1.12667E+007    5.47000E+006    3.35057E+006    1.59700E+007   -1.43966E+004    1.31656E+005    1.78319E+005
            5864    1.13704E+007    1.60176E+007    1.60176E+007    5.78190E+006    3.77864E+006    1.22389E+007   -8.52604E+006    1.09628E+007    5.80160E+006    3.81503E+006    1.59615E+007   -4.33156E+004    4.77483E+005    6.44082E+005
            5865    1.10691E+007    1.62279E+007    1.62279E+007    6.54008E+006    4.16363E+006    1.20643E+007   -8.97721E+006    1.04718E+007    6.55375E+006    4.56559E+006    1.58123E+007   -1.56787E+005    7.11096E+005    2.06986E+006
            5866    3.18580E+006    2.94155E+006    2.94155E+006    5.72177E+005   -6.80125E+005    3.62167E+006   -9.44533E+005    2.53598E+006    5.64421E+005   -1.13749E+005    2.38293E+006   -2.46394E+005   -1.22443E+005    1.28090E+006
            5867    2.99986E+006    3.20726E+006    3.20726E+006    7.34360E+005   -1.29851E+005    3.33711E+006   -1.27059E+006    2.69774E+006    7.32451E+005    1.58437E+004    3.06347E+006   -1.30573E+005   -1.33926E+005    6.52334E+005
            5868    3.48593E+006    3.81420E+006    3.81420E+006    9.20105E+005   -5.56330E+004    3.86983E+006   -1.55956E+006    3.15608E+006    9.26789E+005   -4.40433E+004    3.79593E+006   -5.67243E+004   -1.59806E+005    1.87574E+005
            5869    2.17274E+006    2.24328E+006    2.24328E+006    5.39250E+005   -2.03419E+005    2.44670E+006   -8.59703E+005    1.85308E+006    5.21511E+005    3.02141E+005    1.75546E+006   -1.99219E+005   -6.77392E+004    9.56823E+005
            5870    2.41416E+006    2.71151E+006    2.71151E+006    6.84860E+005    4.05686E+004    2.67094E+006   -1.14565E+006    2.20797E+006    6.76053E+005    1.32000E+005    2.62889E+006   -1.08283E+005   -8.14507E+004    4.47624E+005
            5871    3.01462E+006    3.34639E+006    3.34639E+006    8.52177E+005   -3.60737E+003    3.35000E+006   -1.39832E+006    2.72055E+006    8.53603E+005    5.12751E+003    3.33623E+006   -4.64919E+004   -9.17680E+004    1.48819E+005
            5872    1.09329E+006    1.46441E+006    1.46441E+006    5.64208E+005    2.47826E+005    1.21659E+006   -7.58816E+005    9.82098E+005    4.55453E+005    4.76721E+005    1.34428E+006   -1.67719E+005   -1.97796E+004    3.35739E+005
            5873    2.04760E+006    2.40025E+006    2.40025E+006    6.52934E+005    1.47150E+005    2.25310E+006   -1.06678E+006    1.89927E+006    6.35192E+005    1.78446E+005    2.38669E+006   -9.66480E+004   -2.44832E+004    1.69806E+005
            5874    2.74047E+006    3.05097E+006    3.05097E+006    7.89365E+005    3.39150E+003    3.04758E+006   -1.28124E+006    2.46713E+006    7.87708E+005    6.28998E+003    3.04973E+006   -4.08904E+004   -3.02916E+004    4.98970E+004
            5875    3.34990E+006    3.31472E+006    3.31472E+006   -2.08834E+004   -4.92981E+004    3.36402E+006   -1.08151E+006    3.34963E+006   -1.52742E+004   -7.71194E+003    3.26752E+006   -9.54669E+003    2.71382E+005   -2.87877E+005
            5876    3.74266E+006    3.82421E+006    3.82421E+006    2.71920E+005   -8.34720E+004    3.90768E+006   -1.33755E+006    3.70441E+006    2.97005E+005   -6.02415E+004    3.77589E+006    1.48317E+004    3.21967E+005   -2.72496E+005
            5877    4.04569E+006    4.26649E+006    4.26649E+006    5.95243E+005   -7.09385E+004    4.33743E+006   -1.59693E+006    3.91943E+006    6.21546E+005   -6.08475E+004    4.23010E+006    3.18055E+004    3.28589E+005   -1.74046E+005
            5878    4.17199E+006    4.48771E+006    4.48771E+006    8.46877E+005   -6.47006E+004    4.55241E+006   -1.75663E+006    3.93846E+006    8.69167E+005   -6.25226E+004    4.46324E+006    3.82044E+004    2.95718E+005   -4.01236E+004
            5879    3.99403E+006    4.37011E+006    4.37011E+006    9.70877E+005   -2.88046E+004    4.39891E+006   -1.77073E+006    3.69650E+006    9.86447E+005   -2.63376E+004    4.35207E+006    3.63346E+004    2.36330E+005    7.95000E+004
            5880    4.18370E+006    4.37255E+006    4.37255E+006    4.07336E+005    1.28871E+002    4.37242E+006   -1.59334E+006    4.13877E+006    4.23269E+005    1.05289E+005    4.25145E+006   -1.21008E+004    2.68300E+005   -6.61712E+005
            5881    4.23145E+006    4.34389E+006    4.34389E+006    5.01373E+005   -1.91084E+005    4.53497E+006   -1.55139E+006    4.10107E+006    5.10074E+005   -9.47768E+004    4.23888E+006    5.73696E+004    3.06567E+005   -6.02261E+005
            5882    4.20187E+006    4.29630E+006    4.29630E+006    6.22290E+005   -2.85141E+005    4.58144E+006   -1.54448E+006    3.97234E+006    6.27034E+005   -2.39124E+005    4.24554E+006    1.08428E+005    3.06684E+005   -3.46531E+005
            5883    4.00998E+006    4.15390E+006    4.15390E+006    7.32498E+005   -2.58738E+005    4.41264E+006   -1.54255E+006    3.71905E+006    7.37618E+005   -2.41689E+005    4.13173E+006    1.30322E+005    2.72654E+005    3.19636E+004
            5884    3.66914E+006    3.90753E+006    3.90753E+006    8.16461E+005   -1.47292E+005    4.05482E+006   -1.52557E+006    3.36625E+006    8.21208E+005   -1.14729E+005    3.87022E+006    1.23346E+005    2.19433E+005    2.86548E+005
            5885    5.01056E+006    5.37411E+006    5.37411E+006    8.66476E+005   -2.08364E+004    5.39494E+006   -2.07325E+006    4.82903E+006    8.80796E+005    1.14468E+005    5.22448E+006    3.81977E+004    3.33151E+005   -8.13395E+005
            5886    5.03241E+006    5.02795E+006    5.02795E+006    7.76586E+005   -5.28408E+005    5.55636E+006   -1.75871E+006    4.62820E+006    7.80630E+005   -4.21414E+005    4.91691E+006    1.23883E+005    3.46708E+005   -6.81351E+005
            5887    4.71153E+006    4.51280E+006    4.51280E+006    6.88761E+005   -7.50487E+005    5.26329E+006   -1.48369E+006    4.17220E+006    6.87431E+005   -7.16765E+005    4.48041E+006    1.77368E+005    3.10072E+005   -2.09053E+005
            5888    4.15348E+006    4.03218E+006    4.03218E+006    6.95796E+005   -6.19773E+005    4.65195E+006   -1.36940E+006    3.63844E+006    6.93876E+005   -5.82439E+005    3.99676E+006    1.88885E+005    2.57793E+005    2.52602E+005
            5889    3.61211E+006    3.62218E+006    3.62218E+006    7.19658E+005   -4.23095E+005    4.04527E+006   -1.30625E+006    3.16537E+006    7.18663E+005   -3.25115E+005    3.52519E+006    1.72921E+005    2.00182E+005    5.60347E+005
            5890    6.49039E+006    6.88745E+006    6.88745E+006    1.43585E+006   -2.92019E+005    7.17947E+006   -2.67709E+006    5.93898E+006    1.45145E+006   -1.88828E+005    6.76866E+006    1.12878E+005    4.20916E+005   -7.89608E+005
            5891    6.20718E+006    5.80846E+006    5.80846E+006    9.61724E+005   -1.18776E+006    6.99622E+006   -1.86081E+006    5.26651E+006    9.67496E+005   -1.14729E+006    5.76221E+006    2.01445E+005    3.82063E+005   -3.50238E+005
            5892    5.41360E+006    4.83673E+006    4.83673E+006    7.22671E+005   -1.29620E+006    6.13293E+006   -1.42107E+006    4.43964E+006    7.21119E+005   -1.26234E+006    4.80443E+006    2.40097E+005    3.09840E+005    2.15682E+005
            5893    4.60411E+006    4.11210E+006    4.11210E+006    6.31012E+005   -1.10829E+006    5.22039E+006   -1.21161E+006    3.75015E+006    6.26725E+005   -9.92086E+005    4.00018E+006    2.49007E+005    2.48324E+005    6.74551E+005
            5894    3.78037E+006    3.51166E+006    3.51166E+006    6.14995E+005   -7.64772E+005    4.27644E+006   -1.12063E+006    3.13367E+006    6.08505E+005   -5.04347E+005    3.25773E+006    2.33429E+005    1.81036E+005    9.70288E+005
            5895    4.53161E+006    3.71530E+006    3.71530E+006    5.70139E+005   -1.47895E+006    5.19424E+006   -9.35495E+005    3.21090E+006    5.67832E+005   -9.71132E+005    3.20979E+006    3.08299E+005    1.93509E+005    1.49708E+006
            5896    5.67664E+006    4.52894E+006    4.52894E+006    6.32149E+005   -1.98406E+006    6.51299E+006   -1.05901E+006    3.93324E+006    6.32070E+005   -1.69413E+006    4.23909E+006    3.32597E+005    2.69996E+005    1.27297E+006
            5897    6.82435E+006    5.54410E+006    5.54410E+006    8.25897E+005   -2.28087E+006    7.82497E+006   -1.36304E+006    4.79836E+006    8.26807E+005   -2.17077E+006    5.43308E+006    3.38227E+005    3.44886E+005    7.87581E+005
            5898    7.79777E+006    6.69997E+006    6.69997E+006    1.17531E+006   -2.21978E+006    8.91975E+006   -1.88517E+006    5.74290E+006    1.17915E+006   -2.18565E+006    6.66200E+006    3.25186E+005    4.20968E+005    2.03385E+005
            5899    8.70555E+006    8.36021E+006    8.36021E+006    1.86062E+006   -1.53060E+006    9.89081E+006   -2.89674E+006    6.96817E+006    1.87015E+006   -1.47620E+006    8.29628E+006    2.81492E+005    5.08413E+005   -5.08626E+005
            5900    9.60603E+006    1.01749E+007    1.01749E+007    2.71166E+006   -6.63165E+005    1.08380E+007   -4.07445E+006    8.10142E+006    2.72286E+006   -5.07277E+005    1.00078E+007    2.41909E+005    5.64329E+005   -1.17047E+006
            5901    1.05405E+007    1.22799E+007    1.22799E+007    3.84408E+006    4.64004E+005    1.18159E+007   -5.52934E+006    9.19708E+006    3.85377E+006    7.59391E+005    1.19749E+007    2.30752E+005    6.26038E+005   -1.74261E+006
            5902    8.93122E+006    1.17334E+007    1.17334E+007    3.71414E+006    2.10816E+006    9.62525E+006   -5.85190E+006    8.59732E+006    3.73407E+006    2.19037E+006    1.16313E+007    4.68694E+004    4.50205E+005   -8.58783E+005
            5903    8.45961E+006    1.14058E+007    1.14058E+007    3.49806E+006    2.48554E+006    8.92030E+006   -5.79648E+006    8.32165E+006    3.50075E+006    2.49175E+006    1.13970E+007   -2.77057E+004    1.59464E+005   -2.24397E+005
            5904    7.51857E+006    9.33123E+006    9.33123E+006    2.58284E+006    1.22699E+006    8.10424E+006   -4.38036E+006    7.23581E+006    2.60348E+006    1.31042E+006    9.22717E+006    4.01260E+004    4.20397E+005   -7.92410E+005
            5905    6.80045E+006    9.01352E+006    9.01352E+006    2.48312E+006    1.97188E+006    7.04164E+006   -4.48951E+006    6.75701E+006    2.47952E+006    1.98910E+006    8.99990E+006   -6.75149E+004    1.57847E+005   -2.60858E+005
            5906    5.62900E+006    7.19073E+006    7.19073E+006    1.71246E+006    1.42223E+006    5.76851E+006   -3.44181E+006    5.61213E+006    1.67468E+006    1.47825E+006    7.17249E+006   -1.08519E+005    1.35677E+005   -2.89111E+005
            5907    4.63210E+006    5.54569E+006    5.54569E+006    1.04176E+006    7.95261E+005    4.75043E+006   -2.46090E+006    4.61731E+006    9.29594E+005    9.22559E+005    5.53056E+006   -1.27900E+005    8.97973E+004   -2.46175E+005
            5908    3.79596E+006    4.12776E+006    4.12776E+006    4.67900E+005    2.08965E+005    3.91880E+006   -1.60154E+006    3.77601E+006    2.71341E+005    4.17980E+005    4.11531E+006   -1.13733E+005    6.75225E+004   -2.02422E+005
            5909    2.81453E+006    2.62022E+006    2.62022E+006    9.72072E+004   -4.15372E+005    3.03559E+006   -7.67351E+005    2.70651E+006   -4.09344E+005    9.48998E+004    2.61650E+006   -5.02516E+004    6.45502E+004   -7.58641E+004
            5910    6.11830E+006    7.28587E+006    7.28587E+006    1.67241E+006    7.64257E+005    6.52161E+006   -3.24085E+006    5.96383E+006    1.69207E+006    8.49869E+005    7.18060E+006   -4.76490E+003    3.44148E+005   -7.35409E+005
            5911    4.85527E+006    5.53511E+006    5.53511E+006    8.95411E+005    4.89720E+005    5.04539E+006   -2.30675E+006    4.81692E+006    9.07710E+005    5.72257E+005    5.44027E+006   -5.48895E+004    2.46105E+005   -6.33988E+005
            5912    4.00954E+006    4.28211E+006    4.28211E+006    3.50373E+005    1.99046E+005    4.08307E+006   -1.61051E+006    4.00311E+006    3.39515E+005    2.89612E+005    4.20240E+006   -7.70600E+004    1.86570E+005   -5.28216E+005
            5913    3.01311E+006    2.88234E+006    2.88234E+006    4.15974E+004   -2.77704E+005    3.16004E+006   -8.82078E+005    2.97469E+006   -2.65726E+005    5.60947E+004    2.85587E+006   -3.28092E+004    1.82718E+005   -2.09867E+005
            5914    3.69399E+006    3.76948E+006    3.76948E+006    2.30823E+005   -6.23786E+004    3.83186E+006   -1.31264E+006    3.66768E+006    2.50043E+005   -1.95648E+004    3.70744E+006   -1.66638E+004   -3.09680E+005   -3.64508E+005
            5915    4.12279E+006    4.26458E+006    4.26458E+006    5.65164E+005   -1.79955E+005    4.44453E+006   -1.54993E+006    3.96703E+006    5.86844E+005   -1.55327E+005    4.21827E+006   -5.44920E+004   -3.32034E+005   -2.73565E+005
            5916    4.25249E+006    4.47790E+006    4.47790E+006    8.27679E+005   -1.91605E+005    4.66951E+006   -1.70466E+006    3.96342E+006    8.46465E+005   -1.86398E+005    4.45391E+006   -7.17541E+004   -2.95104E+005   -1.31996E+004
            5917    3.92356E+006    4.27330E+006    4.27330E+006    9.61069E+005   -5.97849E+004    4.33308E+006   -1.72486E+006    3.60616E+006    9.74146E+005   -5.02265E+004    4.25066E+006   -6.58380E+004   -2.29189E+005    1.65779E+005
            5918    4.85880E+006    4.96911E+006    4.96911E+006    7.28837E+005   -3.32688E+005    5.30180E+006   -1.78842E+006    4.58688E+006    7.36911E+005   -2.05022E+005    4.83337E+006   -8.20387E+004   -3.35152E+005   -7.58052E+005
            5919    4.70139E+006    4.50544E+006    4.50544E+006    6.43194E+005   -7.29534E+005    5.23497E+006   -1.47303E+006    4.21387E+006    6.43551E+005   -6.93746E+005    4.46929E+006   -1.60823E+005   -3.07497E+005   -2.58881E+005
            5920    4.06675E+006    3.99979E+006    3.99979E+006    6.77541E+005   -5.35429E+005    4.53522E+006   -1.38063E+006    3.62498E+006    6.77864E+005   -4.95033E+005    3.95907E+006   -1.72019E+005   -2.48720E+005    3.01962E+005
            5921    3.53627E+006    3.62610E+006    3.62610E+006    7.31654E+005   -3.15483E+005    3.94158E+006   -1.34742E+006    3.15816E+006    7.33362E+005   -2.07757E+005    3.51667E+006   -1.55511E+005   -1.96013E+005    5.95952E+005
            5922    4.12191E+006    3.54887E+006    3.54887E+006    5.70504E+005   -1.15546E+006    4.70433E+006   -9.87970E+005    3.13920E+006    5.66133E+005   -7.16571E+005    3.11435E+006   -2.86403E+005   -1.87216E+005    1.32055E+006
            5923    5.05631E+006    4.18168E+006    4.18168E+006    5.79011E+005   -1.59858E+006    5.78027E+006   -1.05404E+006    3.76110E+006    5.74778E+005   -1.37026E+006    3.95759E+006   -3.06792E+005   -2.51897E+005    1.04679E+006
            5924    5.96824E+006    4.94451E+006    4.94451E+006    6.72742E+005   -1.87474E+006    6.81925E+006   -1.24751E+006    4.47418E+006    6.70583E+005   -1.79130E+006    4.86324E+006   -3.01829E+005   -3.14821E+005    6.02266E+005
            5925    6.84436E+006    6.18190E+006    6.18190E+006    1.06331E+006   -1.59230E+006    7.77420E+006   -1.88430E+006    5.49141E+006    1.06702E+006   -1.56327E+006    6.14916E+006   -2.62872E+005   -4.02208E+005   -1.13265E+005
            5926    7.95325E+006    7.90612E+006    7.90612E+006    1.76345E+006   -1.07748E+006    8.98360E+006   -2.86403E+006    6.65901E+006    1.77469E+006   -1.00075E+006    7.81817E+006   -2.18505E+005   -4.75924E+005   -6.90728E+005
            5927    9.24224E+006    9.78483E+006    9.78483E+006    2.57715E+006   -6.34875E+005    1.04197E+007   -3.90904E+006    7.83007E+006    2.58848E+006   -4.60004E+005    9.59864E+006   -2.22112E+005   -5.45708E+005   -1.23447E+006
            5928    1.03367E+007    1.19020E+007    1.19020E+007    3.64962E+006    3.07866E+005    1.15942E+007   -5.28651E+006    8.99518E+006    3.65959E+006    5.82121E+005    1.16178E+007   -2.28993E+005   -6.13771E+005   -1.65977E+006
            5929    1.10410E+007    1.41897E+007    1.41897E+007    5.02963E+006    1.93024E+006    1.22595E+007   -7.04987E+006    9.98976E+006    5.03957E+006    2.32982E+006    1.37802E+007   -2.04650E+005   -6.71266E+005   -2.08174E+006
            5930    9.99139E+006    1.36201E+007    1.36201E+007    4.62606E+006    2.86541E+006    1.07547E+007   -7.03719E+006    9.63306E+006    4.64555E+006    2.92743E+006    1.35386E+007   -4.60619E+004   -4.60132E+005   -7.89303E+005
            5931    9.87053E+006    1.33894E+007    1.33894E+007    4.34443E+006    2.86118E+006    1.05282E+007   -6.86500E+006    9.61500E+006    4.34687E+006    2.86551E+006    1.33826E+007    5.12580E+003   -1.48451E+005   -2.13217E+005
            5932    8.52570E+006    1.11485E+007    1.11485E+007    3.45317E+006    1.98350E+006    9.16500E+006   -5.52839E+006    8.23345E+006    3.47300E+006    2.06759E+006    1.10446E+007   -3.74730E+004   -4.34314E+005   -8.51009E+005
            5933    8.12956E+006    1.08507E+007    1.08507E+007    3.22974E+006    2.29365E+006    8.55708E+006   -5.45804E+006    8.00696E+006    3.23175E+006    2.30388E+006    1.08385E+007    3.90583E+004   -1.56008E+005   -2.77289E+005
            5934    7.31893E+006    8.99011E+006    8.99011E+006    2.40475E+006    1.11033E+006    7.87978E+006   -4.16839E+006    7.05447E+006    2.42594E+006    1.19660E+006    8.88264E+006   -1.97955E+004   -4.01700E+005   -8.04909E+005
            5935    6.43884E+006    8.41448E+006    8.41448E+006    2.20651E+006    1.76726E+006    6.64722E+006   -4.12941E+006    6.40500E+006    2.19736E+006    1.78641E+006    8.40447E+006    7.86609E+004   -1.49283E+005   -2.04470E+005
            5936    5.79239E+006    6.70884E+006    6.70884E+006    1.41737E+006    5.20220E+005    6.18862E+006   -2.88214E+006    5.63289E+006    1.43713E+006    5.97153E+005    6.61215E+006   -5.59949E+003   -3.41968E+005   -6.75153E+005
            5937    5.16789E+006    6.43776E+006    6.43776E+006    1.39872E+006    1.14999E+006    5.28777E+006   -2.99549E+006    5.15440E+006    1.33476E+006    1.23479E+006    6.41691E+006    1.18172E+005   -1.27466E+005   -3.00134E+005
            5938    4.19385E+006    4.77562E+006    4.77562E+006    7.06151E+005    4.67578E+005    4.30804E+006   -1.98312E+006    4.17854E+006    5.69596E+005    6.25792E+005    4.75396E+006    1.24731E+005   -1.01811E+005   -2.79082E+005
            5939    2.93680E+006    2.83103E+006    2.83103E+006    1.59958E+005   -3.13887E+005    3.14491E+006   -8.92366E+005    2.84889E+006   -3.05507E+005    1.60961E+005    2.82164E+006    5.71951E+004   -8.43621E+004   -1.36261E+005
            5940    4.59742E+006    5.00723E+006    5.00723E+006    6.70676E+005    1.87176E+005    4.82006E+006   -1.95503E+006    4.53969E+006    6.86885E+005    2.97645E+005    4.88056E+006    2.97687E+004   -2.65109E+005   -7.19257E+005
            5941    3.28728E+006    3.24150E+006    3.24150E+006    2.28649E+004   -1.10377E+005    3.35187E+006   -1.05133E+006    3.28119E+006   -9.48774E+004    5.45264E+004    3.19434E+006    2.31083E+004   -2.26213E+005   -3.16890E+005
            5942    3.39740E+006    2.98131E+006    2.98131E+006    5.48503E+005   -9.00325E+005    3.88163E+006   -8.76496E+005    2.54889E+006    5.44342E+005   -2.21028E+005    2.30617E+006    2.63687E+005    1.25797E+005    1.44314E+006
            5943    2.96938E+006    2.93756E+006    2.93756E+006    6.00571E+005   -4.03745E+005    3.34130E+006   -1.04479E+006    2.54285E+006    5.91275E+005   -6.11595E+004    2.60427E+006    2.01171E+005    1.25876E+005    9.75898E+005
            5944    3.01780E+006    3.16547E+006    3.16547E+006    7.15717E+005   -2.05603E+005    3.37107E+006   -1.22519E+006    2.67280E+006    7.12676E+005   -6.28738E+004    3.02578E+006    1.43571E+005    1.39437E+005    6.43194E+005
            5945    3.25147E+006    3.53678E+006    3.53678E+006    8.23791E+005   -6.73306E+004    3.60411E+006   -1.43108E+006    2.95746E+006    8.24714E+005   -1.95176E+004    3.48805E+006    1.06879E+005    1.55327E+005    3.70062E+005
            5946    3.58129E+006    3.96007E+006    3.96007E+006    9.57825E+005   -3.88748E+003    3.96395E+006   -1.63800E+006    3.27133E+006    9.66387E+005    2.93209E+002    3.94732E+006    3.01734E+004    1.65337E+005    1.17924E+005
            5947    2.21444E+006    2.18725E+006    2.18725E+006    5.08991E+005   -3.22602E+005    2.50986E+006   -7.91214E+005    1.80945E+006    4.95070E+005    2.97857E+005    1.58072E+006    2.12417E+005    6.46240E+004    1.05265E+006
            5948    2.12916E+006    2.32324E+006    2.32324E+006    5.73025E+005   -4.71618E+004    2.37040E+006   -9.49700E+005    1.90952E+006    5.49187E+005    2.30384E+005    2.06953E+006    1.69370E+005    6.95451E+004    7.15307E+005
            5949    2.41575E+006    2.67389E+006    2.67389E+006    6.73374E+005   -9.91702E+003    2.68380E+006   -1.11245E+006    2.18194E+006    6.63495E+005    9.65265E+004    2.57732E+006    1.16875E+005    8.03204E+004    4.85203E+005
            5950    2.78243E+006    3.09346E+006    3.09346E+006    7.74406E+005    8.21421E+003    3.08525E+006   -1.29203E+006    2.52826E+006    7.70003E+005    4.43990E+004    3.06168E+006    8.95444E+004    9.01618E+004    2.90019E+005
            5951    3.14044E+006    3.49145E+006    3.49145E+006    8.80154E+005    6.76727E+003    3.48469E+006   -1.45946E+006    2.84738E+006    8.83103E+005    1.01325E+004    3.48514E+006    2.61568E+004    9.59159E+004    9.75348E+004
            5952    9.82544E+005    1.32636E+006    1.32636E+006    5.34139E+005    2.26910E+005    1.09945E+006   -6.95803E+005    8.64133E+005    4.28732E+005    5.39523E+005    1.11915E+006    1.77892E+005    2.01558E+004    3.90203E+005
            5953    1.44361E+006    1.81788E+006    1.81788E+006    5.80258E+005    2.32002E+005    1.58588E+006   -8.76713E+005    1.34413E+006    5.09155E+005    3.49398E+005    1.77159E+006    1.48159E+005    2.41688E+004    2.55249E+005
            5954    2.00294E+006    2.34125E+006    2.34125E+006    6.43716E+005    1.32130E+005    2.20912E+006   -1.03903E+006    1.84717E+006    6.25205E+005    1.65915E+005    2.32597E+006    9.96880E+004    2.60866E+004    1.78143E+005
            5955    2.48324E+006    2.80837E+006    2.80837E+006    7.32220E+005    5.75017E+004    2.75087E+006   -1.19936E+006    2.26283E+006    7.23825E+005    7.07243E+004    2.80354E+006    7.82520E+004    2.95956E+004    1.08685E+005
            5956    2.85054E+006    3.18260E+006    3.18260E+006    8.17324E+005    1.76176E+004    3.16499E+006   -1.33918E+006    2.57948E+006    8.17123E+005    1.86703E+004    3.18175E+006    2.26745E+004    3.13170E+004    3.68832E+004
            5957    1.11558E+007    1.44878E+007    1.44878E+007    5.20339E+006    2.11245E+006    1.23753E+007   -7.26786E+006    1.01231E+007    5.21332E+006    2.51759E+006    1.40727E+007    2.05553E+005   -6.80706E+005    2.10525E+006
            5958    1.02810E+007    1.41805E+007    1.41805E+007    4.91849E+006    3.11828E+006    1.10623E+007   -7.40577E+006    9.91712E+006    4.93811E+006    3.18017E+006    1.40990E+007    4.88584E+004   -4.70112E+005    7.98446E+005
            5959    1.03831E+007    1.41172E+007    1.41172E+007    4.66337E+006    3.00455E+006    1.11127E+007   -7.26171E+006    1.00785E+007    4.66574E+006    3.00936E+006    1.41100E+007    2.73699E+003   -1.50504E+005    2.30620E+005
            5960    1.10727E+007    1.64210E+007    1.64210E+007    6.68727E+006    4.37448E+006    1.20465E+007   -9.16090E+006    1.05085E+007    6.70154E+006    4.77407E+006    1.60071E+007    1.52295E+005   -7.16061E+005    2.06179E+006
            5961    1.16208E+007    1.65193E+007    1.65193E+007    6.05013E+006    4.01562E+006    1.25037E+007   -8.86168E+006    1.12095E+007    6.07028E+006    4.04893E+006    1.64658E+007    4.15363E+004   -4.85093E+005    6.23115E+005
            5962    1.21292E+007    1.65771E+007    1.65771E+007    5.73868E+006    3.47582E+006    1.31012E+007   -8.59719E+006    1.16400E+007    5.74012E+006    3.47784E+006    1.65736E+007    1.60270E+004   -1.30838E+005    1.56983E+005
            5963    1.04634E+007    1.76239E+007    1.76239E+007    7.87419E+006    6.56938E+006    1.10546E+007   -1.06892E+007    1.02779E+007    7.90621E+006    6.74104E+006    1.74203E+007    7.90024E+004   -7.31173E+005    1.27786E+006
            5964    1.25468E+007    1.81843E+007    1.81843E+007    6.86961E+006    4.69081E+006    1.34935E+007   -9.91490E+006    1.21101E+007    6.89073E+006    4.69919E+006    1.81548E+007    2.17098E+004   -4.95010E+005    3.25396E+005
            5965    1.34109E+007    1.83497E+007    1.83497E+007    6.50841E+006    3.78677E+006    1.45630E+007   -9.54830E+006    1.27672E+007    6.50944E+006    3.78734E+006    1.83481E+007    1.25435E+004   -1.13765E+005    8.62248E+004
            5966    1.00928E+007    1.79589E+007    1.79589E+007    8.28778E+006    7.49167E+006    1.04672E+007   -1.12461E+007    1.00218E+007    8.34361E+006    7.49225E+006    1.79025E+007   -4.62145E+003   -7.33487E+005   -6.95685E+004
            5967    1.28492E+007    1.87059E+007    1.87059E+007    7.11854E+006    4.88718E+006    1.38188E+007   -1.02372E+007    1.24020E+007    7.13988E+006    4.88740E+006    1.86844E+007   -3.15211E+003   -4.96907E+005   -5.36262E+004
            5968    1.38012E+007    1.88821E+007    1.88821E+007    6.73821E+006    3.87328E+006    1.50088E+007   -9.83120E+006    1.31069E+007    6.73914E+006    3.87330E+006    1.88812E+007   -2.24085E+003   -1.06408E+005   -1.83389E+004
            5969    1.05085E+007    1.75147E+007    1.75147E+007    7.76948E+006    6.38103E+006    1.11337E+007   -1.05551E+007    1.02991E+007    7.79880E+006    6.57751E+006    1.72889E+007   -8.62317E+004   -7.27841E+005   -1.37507E+006
            5970    1.24160E+007    1.78961E+007    1.78961E+007    6.71162E+006    4.53605E+006    1.33600E+007   -9.71459E+006    1.19759E+007    6.73233E+006    4.54953E+006    1.78619E+007   -2.84190E+004   -4.91915E+005   -4.09887E+005
            5971    1.31492E+007    1.79725E+007    1.79725E+007    6.33847E+006    3.70638E+006    1.42661E+007   -9.33912E+006    1.25358E+007    6.33950E+006    3.70721E+006    1.79707E+007   -1.52813E+004   -1.14655E+005   -1.01950E+005
            5972    1.10748E+007    1.62083E+007    1.62083E+007    6.52191E+006    4.13446E+006    1.20738E+007   -8.95488E+006    1.04721E+007    6.53560E+006    4.53630E+006    1.57927E+007   -1.57166E+005   -7.10418E+005   -2.07069E+006
            5973    1.13644E+007    1.60213E+007    1.60213E+007    5.78870E+006    3.79025E+006    1.22311E+007   -8.53343E+006    1.09586E+007    5.80849E+006    3.82776E+006    1.59640E+007   -4.31020E+004   -4.78654E+005   -6.54036E+005
            5974    1.16853E+007    1.59346E+007    1.59346E+007    5.45003E+006    3.33702E+006    1.25976E+007   -8.24056E+006    1.12433E+007    5.45156E+006    3.33970E+006    1.59304E+007   -1.43386E+004   -1.31982E+005   -1.79519E+005
            5975    3.58781E+006    3.96608E+006    3.96608E+006    9.58928E+005   -5.30938E+003    3.97139E+006   -1.63990E+006    3.27675E+006    9.67535E+005   -1.14417E+003    3.95331E+006    3.03087E+004   -1.65918E+005   -1.17683E+005
            5976    3.25131E+006    3.53609E+006    3.53609E+006    8.23528E+005   -6.79795E+004    3.60407E+006   -1.43055E+006    2.95702E+006    8.24457E+005   -1.98006E+004    3.48698E+006    1.07031E+005   -1.55385E+005   -3.71743E+005
            5977    3.01574E+006    3.16089E+006    3.16089E+006    7.13792E+005   -2.08240E+005    3.36913E+006   -1.22215E+006    2.66987E+006    7.10659E+005   -6.37361E+004    3.01951E+006    1.44121E+005   -1.39043E+005   -6.47027E+005
            5978    2.96620E+006    2.93183E+006    2.93183E+006    5.98631E+005   -4.06289E+005    3.33812E+006   -1.04139E+006    2.53851E+006    5.89366E+005   -5.89382E+004    2.59374E+006    2.01800E+005   -1.25635E+005   -9.81759E+005
            5979    3.39670E+006    2.97979E+006    2.97979E+006    5.48041E+005   -9.01128E+005    3.88092E+006   -8.75569E+005    2.54739E+006    5.43878E+005   -2.19823E+005    2.30265E+006    2.63909E+005   -1.25621E+005   -1.44471E+006
            5980    3.14179E+006    3.49436E+006    3.49436E+006    8.81405E+005    8.38649E+003    3.48598E+006   -1.46139E+006    2.84915E+006    8.84386E+005    1.16965E+004    3.48807E+006    2.56945E+004   -9.60779E+004   -9.69895E+004
            5981    2.78741E+006    3.09933E+006    3.09933E+006    7.76055E+005    8.58303E+003    3.09075E+006   -1.29466E+006    2.53286E+006    7.71781E+005    4.42437E+004    3.06794E+006    8.89404E+004   -9.03447E+004   -2.88231E+005
            5982    2.41805E+006    2.67685E+006    2.67685E+006    6.74290E+005   -9.45008E+003    2.68630E+006   -1.11390E+006    2.18416E+006    6.64442E+005    9.71211E+004    2.58012E+006    1.16871E+005   -8.04657E+004   -4.85821E+005
            5983    2.12316E+006    2.31504E+006    2.31504E+006    5.70856E+005   -4.90927E+004    2.36413E+006   -9.45601E+005    1.90298E+006    5.46836E+005    2.31454E+005    2.05851E+006    1.70008E+005   -6.91418E+004   -7.17722E+005
            5984    2.21771E+006    2.18550E+006    2.18550E+006    5.06970E+005   -3.28624E+005    2.51412E+006   -7.87949E+005    1.80893E+006    4.93194E+005    2.97272E+005    1.57338E+006    2.12807E+005   -6.43346E+004   -1.05722E+006
            5985    2.85279E+006    3.18328E+006    3.18328E+006    8.16790E+005    1.55434E+004    3.16774E+006   -1.33854E+006    2.58085E+006    8.16602E+005    1.65932E+004    3.18242E+006    2.25678E+004   -3.15519E+004   -3.70878E+004
            5986    2.48701E+006    2.81175E+006    2.81175E+006    7.32786E+005    5.65592E+004    2.75519E+006   -1.20036E+006    2.26593E+006    7.24470E+005    6.97014E+004    2.80692E+006    7.80124E+004   -2.96719E+004   -1.08724E+005
            5987    2.00188E+006    2.34042E+006    2.34042E+006    6.43544E+005    1.32575E+005    2.20784E+006   -1.03885E+006    1.84642E+006    6.25027E+005    1.66185E+005    2.32532E+006    9.96015E+004   -2.59786E+004   -1.77030E+005
            5988    1.43912E+006    1.81683E+006    1.81683E+006    5.82137E+005    2.36311E+005    1.58052E+006   -8.78428E+005    1.34076E+006    5.10461E+005    3.53425E+005    1.77140E+006    1.47845E+005   -2.41222E+004   -2.52396E+005
            5989    9.86624E+005    1.33188E+006    1.33188E+006    5.35867E+005    2.28047E+005    1.10384E+006   -6.98600E+005    8.68304E+005    4.30842E+005    5.40961E+005    1.12400E+006    1.78065E+005   -2.02924E+004   -3.91923E+005
            5990    8.69891E+006    8.35692E+006    8.35692E+006    1.86055E+006   -1.52594E+006    9.88286E+006   -2.89718E+006    6.96550E+006    1.87018E+006   -1.47194E+006    8.29330E+006    2.81009E+005   -5.08349E+005    5.05199E+005
            5991    7.79514E+006    6.69675E+006    6.69675E+006    1.17490E+006   -2.22016E+006    8.91691E+006   -1.88383E+006    5.73918E+006    1.17874E+006   -2.18600E+006    6.65875E+006    3.25242E+005   -4.20788E+005   -2.04083E+005
            5992    6.80543E+006    5.53036E+006    5.53036E+006    8.24922E+005   -2.27286E+006    7.80322E+006   -1.36081E+006    4.78571E+006    8.25803E+005   -2.16183E+006    5.41845E+006    3.38269E+005   -3.44310E+005   -7.90662E+005
            5993    5.66517E+006    4.52176E+006    4.52176E+006    6.32203E+005   -1.97798E+006    6.49974E+006   -1.05866E+006    3.92665E+006    6.32123E+005   -1.68715E+006    4.23101E+006    3.32624E+005   -2.69778E+005   -1.27359E+006
            5994    4.51515E+006    3.70564E+006    3.70564E+006    5.70439E+005   -1.46952E+006    5.17516E+006   -9.35518E+005    3.20219E+006    5.68076E+005   -9.60800E+005    3.19928E+006    3.07802E+005   -1.92719E+005   -1.49527E+006
            5995    3.79273E+006    3.51853E+006    3.51853E+006    6.14861E+005   -7.72554E+005    4.29108E+006   -1.12028E+006    3.14049E+006    6.08377E+005   -5.11568E+005    3.26403E+006    2.34140E+005   -1.81421E+005   -9.73081E+005
            5996    3.61847E+006    3.62261E+006    3.62261E+006    7.17509E+005   -4.30639E+005    4.05324E+006   -1.30316E+006    3.16800E+006    7.16474E+005   -3.31198E+005    3.52420E+006    1.73996E+005   -2.00464E+005   -5.65514E+005
            5997    3.66945E+006    3.90357E+006    3.90357E+006    8.14300E+005   -1.52480E+005    4.05605E+006   -1.52180E+006    3.36456E+006    8.18883E+005   -1.19407E+005    3.86591E+006    1.24428E+005   -2.19336E+005   -2.88870E+005
            5998    3.99274E+006    4.36941E+006    4.36941E+006    9.70628E+005   -2.78031E+004    4.39721E+006   -1.77074E+006    3.69589E+006    9.86185E+005   -2.53497E+004    4.35140E+006    3.66046E+004   -2.36383E+005   -7.84959E+004
            5999    4.61975E+006    4.12419E+006    4.12419E+006    6.32254E+005   -1.11418E+006    5.23837E+006   -1.21409E+006    3.76148E+006    6.28050E+005   -9.99861E+005    4.01408E+006    2.49217E+005   -2.49678E+005   -6.68649E+005
            6000    4.16899E+006    4.04197E+006    4.04197E+006    6.95847E+005   -6.28263E+005    4.67024E+006   -1.36985E+006    3.64886E+006    6.93869E+005   -5.91232E+005    4.00692E+006    1.89641E+005   -2.58593E+005   -2.49377E+005
            6001    4.01064E+006    4.15382E+006    4.15382E+006    7.32905E+005   -2.60020E+005    4.41384E+006   -1.54223E+006    3.71872E+006    7.37898E+005   -2.42820E+005    4.13162E+006    1.30989E+005   -2.72931E+005   -3.06814E+004
            6002    4.16999E+006    4.48443E+006    4.48443E+006    8.45770E+005   -6.60061E+004    4.55044E+006   -1.75473E+006    3.93623E+006    8.67995E+005   -6.37810E+004    4.45998E+006    3.87527E+004   -2.95535E+005    4.00406E+004
            6003    5.44723E+006    4.86769E+006    4.86769E+006    7.28766E+005   -1.30351E+006    6.17120E+006   -1.43098E+006    4.46624E+006    7.27351E+005   -1.27053E+006    4.83613E+006    2.40234E+005   -3.12162E+005   -2.03676E+005
            6004    4.73216E+006    4.53109E+006    4.53109E+006    6.92239E+005   -7.55936E+005    5.28703E+006   -1.48913E+006    4.18831E+006    6.90993E+005   -7.21734E+005    4.49814E+006    1.77626E+005   -3.11435E+005    2.15347E+005
            6005    4.20772E+006    4.29917E+006    4.29917E+006    6.24089E+005   -2.90688E+005    4.58986E+006   -1.54419E+006    3.97465E+006    6.28613E+005   -2.45144E+005    4.24911E+006    1.09881E+005   -3.06437E+005    3.42618E+005
            6006    4.05024E+006    4.27097E+006    4.27097E+006    5.99386E+005   -7.36138E+004    4.34458E+006   -1.59891E+006    3.92147E+006    6.25544E+005   -6.33969E+004    4.23459E+006    3.24626E+004   -3.28180E+005    1.74976E+005
            6007    6.22017E+006    5.82575E+006    5.82575E+006    9.68118E+005   -1.18488E+006    7.01064E+006   -1.86966E+006    5.27851E+006    9.73980E+005   -1.14416E+006    5.77917E+006    2.01356E+005   -3.83004E+005    3.53255E+005
            6008    5.04580E+006    5.04180E+006    5.04180E+006    7.80296E+005   -5.29860E+005    5.57165E+006   -1.76408E+006    4.63940E+006    7.84401E+005   -4.22141E+005    4.92997E+006    1.24138E+005   -3.47871E+005    6.84964E+005
            6009    4.23823E+006    4.35126E+006    4.35126E+006    5.05979E+005   -1.93022E+005    4.54428E+006   -1.55474E+006    4.10553E+006    5.14611E+005   -9.64595E+004    4.24606E+006    5.82680E+004   -3.07313E+005    6.03268E+005
            6010    3.75009E+006    3.83734E+006    3.83734E+006    2.81717E+005   -8.08736E+004    3.91821E+006   -1.34606E+006    3.71034E+006    3.06804E+005   -5.78627E+004    3.78924E+006    1.55707E+004   -3.22389E+005    2.71011E+005
            6011    6.49622E+006    6.89434E+006    6.89434E+006    1.43720E+006   -2.91314E+005    7.18565E+006   -2.68008E+006    5.94494E+006    1.45286E+006   -1.88198E+005    6.77557E+006    1.12563E+005   -4.21024E+005    7.89917E+005
            6012    5.00044E+006    5.36132E+006    5.36132E+006    8.60169E+005   -2.11956E+004    5.38252E+006   -2.06677E+006    4.82102E+006    8.74465E+005    1.13523E+005    5.21231E+006    3.76909E+004   -3.32075E+005    8.10865E+005
            6013    4.18072E+006    4.36730E+006    4.36730E+006    4.05861E+005   -2.70911E+003    4.37000E+006   -1.59015E+006    4.13545E+006    4.21754E+005    1.03621E+005    4.24507E+006   -1.16729E+004   -2.68683E+005    6.64866E+005
            6014    3.36351E+006    3.33051E+006    3.33051E+006   -1.76995E+004   -4.80901E+004    3.37860E+006   -1.08824E+006    3.36320E+006   -7.59748E+003   -1.09248E+004    3.28325E+006   -8.68273E+003   -2.73169E+005    2.87811E+005
            6015    3.02521E+006    2.89761E+006    2.89761E+006    4.03694E+004   -2.71416E+005    3.16903E+006   -8.88856E+005    2.98874E+006   -2.59179E+005    5.53402E+004    2.87041E+006   -3.28229E+004   -1.85276E+005    2.13523E+005
            6016    2.81894E+006    2.62736E+006    2.62736E+006    9.89416E+004   -4.12163E+005    3.03953E+006   -7.71381E+005    2.71174E+006   -4.06068E+005    9.67141E+004    2.62350E+006   -5.04447E+004   -6.52424E+004    7.78704E+004
            6017    4.00540E+006    4.27498E+006    4.27498E+006    3.47067E+005    1.96353E+005    4.07863E+006   -1.60613E+006    3.99901E+006    3.36018E+005    2.87351E+005    4.19503E+006   -7.71850E+004   -1.86449E+005    5.28801E+005
            6018    3.80410E+006    4.13891E+006    4.13891E+006    4.70173E+005    2.12553E+005    3.92636E+006   -1.60721E+006    3.78440E+006    2.75925E+005    4.19267E+005    4.12645E+006   -1.13987E+005   -6.79337E+004    2.02660E+005
            6019    4.84575E+006    5.52179E+006    5.52179E+006    8.89504E+005    4.87611E+005    5.03418E+006   -2.29963E+006    4.80804E+006    9.01663E+005    5.70540E+005    5.42670E+006   -5.53468E+004   -2.45158E+005    6.34510E+005
            6020    4.63661E+006    5.55209E+006    5.55209E+006    1.04392E+006    7.96916E+005    4.75518E+006   -2.46431E+006    4.62177E+006    9.32146E+005    9.24139E+005    5.53664E+006   -1.28177E+005   -9.00488E+004    2.49135E+005
            6021    6.12227E+006    7.28874E+006    7.28874E+006    1.67214E+006    7.62568E+005    6.52617E+006   -3.24115E+006    5.96742E+006    1.69178E+006    8.48353E+005    7.18331E+006   -4.89195E+003   -3.44040E+005    7.36464E+005
            6022    5.62413E+006    7.18752E+006    7.18752E+006    1.71278E+006    1.42505E+006    5.76247E+006   -3.44178E+006    5.60753E+006    1.67446E+006    1.48157E+006    7.16931E+006   -1.08511E+005   -1.35360E+005    2.88712E+005
            6023    6.81429E+006    9.03613E+006    9.03613E+006    2.49325E+006    1.97952E+006    7.05661E+006   -4.50297E+006    6.77051E+006    2.48980E+006    1.99644E+006    9.02266E+006   -6.69625E+004   -1.57826E+005    2.59192E+005
            6024    8.49982E+006    1.14622E+007    1.14622E+007    3.52184E+006    2.49611E+006    8.96613E+006   -5.82673E+006    8.35888E+006    3.52456E+006    2.50220E+006    1.14534E+007   -2.70598E+004   -1.59638E+005    2.23271E+005
            6025    7.52319E+006    9.34197E+006    9.34197E+006    2.58807E+006    1.23354E+006    8.10844E+006   -4.38786E+006    7.24118E+006    2.60867E+006    1.31700E+006    9.23791E+006    4.01277E+004   -4.20262E+005    7.92802E+005
            6026    8.93861E+006    1.17617E+007    1.17617E+007    3.73089E+006    2.13125E+006    9.63043E+006   -5.87461E+006    8.60770E+006    3.75078E+006    2.21346E+006    1.16596E+007    4.64634E+004   -4.49757E+005    8.59186E+005
            6027    1.05307E+007    1.22519E+007    1.22519E+007    3.82746E+006    4.45787E+005    1.18062E+007   -5.50840E+006    9.18437E+006    3.83714E+006    7.38843E+005    1.19492E+007    2.31140E+005   -6.25187E+005    1.73446E+006
            6028    9.59505E+006    1.01567E+007    1.01567E+007    2.70170E+006   -6.68828E+005    1.08255E+007   -4.06319E+006    8.09261E+006    2.71288E+006   -5.14599E+005    9.99130E+006    2.41959E+005   -5.63455E+005    1.16247E+006
            6029    6.88115E+006    6.22432E+006    6.22432E+006    1.11562E+006   -1.60033E+006    7.82465E+006   -1.91320E+006    5.46363E+006    1.11924E+006   -1.58451E+006    6.20487E+006   -1.82104E+005    2.94704E+005    1.48287E+005
            6030    5.98211E+006    4.96736E+006    4.96736E+006    6.96621E+005   -1.86974E+006    6.83710E+006   -1.26475E+006    4.46496E+006    6.98393E+005   -1.80550E+006    4.90134E+006   -2.05358E+005    2.36226E+005   -5.87017E+005
            6031    5.04201E+006    4.19066E+006    4.19066E+006    6.02239E+005   -1.57398E+006    5.76464E+006   -1.07298E+006    3.74309E+006    6.03389E+005   -1.36611E+006    3.98164E+006   -2.07453E+005    1.91159E+005   -1.03894E+006
            6032    4.10827E+006    3.56697E+006    3.56697E+006    5.95820E+005   -1.12128E+006    4.68825E+006   -1.01383E+006    3.13333E+006    5.96267E+005   -7.00054E+005    3.14529E+006   -1.89997E+005    1.38433E+005   -1.32033E+006
            6033    3.56345E+006    3.63609E+006    3.63609E+006    7.58322E+005   -3.49753E+005    3.98585E+006   -1.34822E+006    3.13924E+006    7.57928E+005   -2.48738E+005    3.53547E+006   -1.37519E+005    1.59120E+005   -5.89153E+005
            6034    3.94115E+006    4.34560E+006    4.34560E+006    1.01934E+006   -7.27273E+003    4.35287E+006   -1.78589E+006    3.62155E+006    1.02873E+006    3.34921E+002    4.32860E+006   -3.92334E+004    1.84234E+005   -1.69283E+005
            6035    4.09692E+006    4.01294E+006    4.01294E+006    7.08945E+005   -5.71194E+005    4.58414E+006   -1.38356E+006    3.60396E+006    7.08649E+005   -5.39811E+005    3.98186E+006   -1.45897E+005    2.03513E+005   -2.81429E+005
            6036    4.26027E+006    4.53397E+006    4.53397E+006    8.87512E+005   -1.48865E+005    4.68284E+006   -1.75754E+006    3.96147E+006    9.00717E+005   -1.46708E+005    4.51861E+006   -4.49405E+004    2.35603E+005    2.27093E+004
            6037    4.74747E+006    4.53088E+006    4.53088E+006    6.81871E+005   -7.74054E+005    5.30493E+006   -1.47956E+006    4.19932E+006    6.80716E+005   -7.41184E+005    4.49916E+006   -1.35875E+005    2.43032E+005    3.02250E+005
            6038    4.10866E+006    4.30007E+006    4.30007E+006    6.29278E+005   -1.38214E+005    4.43828E+006   -1.59704E+006    3.94251E+006    6.44479E+005   -1.15969E+005    4.26263E+006   -3.48818E+004    2.64467E+005    2.86882E+005
            6039    4.88477E+006    4.99298E+006    4.99298E+006    7.98055E+005   -3.69900E+005    5.36288E+006   -1.80705E+006    4.55444E+006    8.00614E+005   -2.32114E+005    4.85263E+006   -7.74111E+004    2.59174E+005    8.10653E+005
            6040    3.66851E+006    3.78711E+006    3.78711E+006    2.94258E+005   -3.48842E+004    3.82199E+006   -1.34883E+006    3.63507E+006    3.07580E+005    8.10708E+003    3.73079E+006   -1.05011E+004    2.46797E+005    3.83699E+005
            6041    3.24608E+006    3.23124E+006    3.23124E+006    2.35444E+004   -5.19214E+004    3.28316E+006   -1.06762E+006    3.24411E+006   -4.12669E+004    5.90810E+004    3.18505E+006    1.25526E+004    1.81005E+005    3.38076E+005
            6042    2.87413E+006    2.79733E+006    2.79733E+006    1.57048E+005   -2.64175E+005    3.06150E+006   -8.96733E+005    2.80343E+006   -2.60139E+005    1.62808E+005    2.78753E+006    3.55007E+004    6.92265E+004    1.46422E+005
            6043    4.58639E+006    5.02661E+006    5.02661E+006    7.68066E+005    1.70865E+005    4.85574E+006   -1.98851E+006    4.49767E+006    7.76771E+005    2.95243E+005    4.89352E+006    1.01747E+004    2.02259E+005    7.63791E+005
            6044    4.12469E+006    4.76654E+006    4.76654E+006    7.21180E+005    5.66859E+005    4.19968E+006   -2.01819E+006    4.11818E+006    6.74735E+005    6.36147E+005    4.74370E+006    7.70379E+004    7.51319E+004    2.96278E+005
            6045    5.06766E+006    6.42791E+006    6.42791E+006    1.51675E+006    1.21704E+006    5.21087E+006   -3.05390E+006    5.04767E+006    1.50368E+006    1.25132E+006    6.40671E+006    7.00620E+004    8.49161E+004    3.18368E+005
            6046    6.30295E+006    8.39387E+006    8.39387E+006    2.42055E+006    1.80627E+006    6.58760E+006   -4.20690E+006    6.23507E+006    2.41960E+006    1.81532E+006    8.38578E+006    4.25173E+004    9.63434E+004    2.06769E+005
            6047    8.01954E+006    1.08776E+007    1.08776E+007    3.51061E+006    2.33527E+006    8.54235E+006   -5.57450E+006    7.82224E+006    3.51197E+006    2.34402E+006    1.08675E+007    1.49809E+004    1.03906E+005    2.71477E+005
            6048    9.79353E+006    1.34751E+007    1.34751E+007    4.67335E+006    2.92515E+006    1.05499E+007   -7.02452E+006    9.43286E+006    4.67468E+006    2.92891E+006    1.34700E+007   -4.70337E+003    1.09285E+005    1.98365E+005
            6049    5.76987E+006    6.74341E+006    6.74341E+006    1.56438E+006    5.24201E+005    6.21921E+006   -2.94400E+006    5.55302E+006    1.57430E+006    6.11251E+005    6.64643E+006   -1.75632E+004    2.53430E+005    7.20908E+005
            6050    7.29916E+006    9.04951E+006    9.04951E+006    2.60846E+006    1.12129E+006    7.92822E+006   -4.25975E+006    6.94592E+006    2.61807E+006    1.21748E+006    8.94371E+006   -3.46888E+004    2.89400E+005    8.53985E+005
            6051    8.48341E+006    1.12321E+007    1.12321E+007    3.72166E+006    2.03054E+006    9.20160E+006   -5.66144E+006    8.09103E+006    3.73019E+006    2.12189E+006    1.11322E+007   -4.63196E+004    3.05451E+005    8.94460E+005
            6052    9.93769E+006    1.37103E+007    1.37103E+007    4.94165E+006    2.91571E+006    1.07946E+007   -7.18921E+006    9.45617E+006    4.94901E+006    2.98381E+006    1.36348E+007   -5.74601E+004    3.10509E+005    8.33494E+005
            6053    1.10900E+007    1.42886E+007    1.42886E+007    5.15737E+006    1.94784E+006    1.23408E+007   -7.13127E+006    9.96193E+006    5.16417E+006    2.34218E+006    1.38875E+007   -1.27786E+005    4.57902E+005    2.13177E+006
            6054    1.03848E+007    1.19695E+007    1.19695E+007    3.76307E+006    2.94259E+005    1.16752E+007   -5.34226E+006    8.93455E+006    3.76934E+006    5.60371E+005    1.16971E+007   -1.52625E+005    4.26751E+005    1.69718E+006
            6055    9.29619E+006    9.84720E+006    9.84720E+006    2.68018E+006   -6.56900E+005    1.05041E+007   -3.95683E+006    7.76605E+006    2.68585E+006   -4.85924E+005    9.67055E+006   -1.59306E+005    3.84840E+005    1.27784E+006
            6056    8.01056E+006    7.97166E+006    7.97166E+006    1.84867E+006   -1.09406E+006    9.06573E+006   -2.90876E+006    6.61932E+006    1.85383E+006   -1.02125E+006    7.89369E+006   -1.63915E+005    3.42860E+005    7.35901E+005
            6057    3.49821E+006    3.88027E+006    3.88027E+006    9.70825E+005   -1.13826E+003    3.88141E+006   -1.61665E+006    3.17243E+006    9.75874E+005    9.43665E+003    3.86465E+006   -3.31401E+004    1.28051E+005   -1.95069E+005
            6058    3.01647E+006    3.21738E+006    3.21738E+006    7.64482E+005   -1.50704E+005    3.36808E+006   -1.27705E+006    2.67632E+006    7.62589E+005   -6.83363E+003    3.07540E+006   -1.16634E+005    1.13142E+005   -6.58096E+005
            6059    3.17596E+006    2.95992E+006    2.95992E+006    5.90994E+005   -6.48980E+005    3.60890E+006   -9.67311E+005    2.53869E+006    5.90142E+005   -9.76778E+004    2.40947E+006   -1.60336E+005    9.30283E+004   -1.28443E+006
            6060    3.02003E+006    3.40068E+006    3.40068E+006    8.93974E+005    4.78310E+004    3.35285E+006   -1.44750E+006    2.73366E+006    8.95599E+005    5.55317E+004    3.39135E+006   -2.67757E+004    7.42399E+004   -1.53591E+005
            6061    2.42307E+006    2.71932E+006    2.71932E+006    7.12954E+005    2.73030E+004    2.69202E+006   -1.15319E+006    2.18834E+006    7.05189E+005    1.15508E+005    2.63888E+006   -9.81605E+004    6.38874E+004   -4.48327E+005
            6062    2.17287E+006    2.26929E+006    2.26929E+006    5.50494E+005   -1.73032E+005    2.44233E+006   -8.82252E+005    1.87156E+006    5.44395E+005    3.18481E+005    1.78388E+006   -1.26620E+005    4.82391E+004   -9.65903E+005
            6063    2.74357E+006    3.09749E+006    3.09749E+006    8.25353E+005    4.95683E+004    3.04793E+006   -1.32414E+006    2.47820E+006    8.24903E+005    5.11327E+004    3.09638E+006   -2.38862E+004    2.39925E+004   -5.09734E+004
            6064    2.05900E+006    2.41150E+006    2.41150E+006    6.77247E+005    1.35914E+005    2.27559E+006   -1.07489E+006    1.88869E+006    6.64188E+005    1.61520E+005    2.39895E+006   -8.63936E+004    2.24661E+004   -1.64802E+005
            6065    1.08682E+006    1.48945E+006    1.48945E+006    5.24228E+005    3.12253E+005    1.17719E+006   -7.75309E+005    1.03877E+006    4.71502E+005    4.88496E+005    1.36593E+006   -1.04414E+005    1.66504E+004   -3.47636E+005
            6066    1.02550E+007    1.41293E+007    1.41293E+007    4.96221E+006    3.05438E+006    1.10749E+007   -7.38197E+006    9.84376E+006    4.96358E+006    3.05860E+006    1.41237E+007    9.06651E+003    1.14710E+005   -2.14341E+005
            6067    1.02069E+007    1.42378E+007    1.42378E+007    5.22824E+006    3.15259E+006    1.10852E+007   -7.53953E+006    9.71488E+006    5.23565E+006    3.22275E+006    1.41602E+007    5.82575E+004    3.15829E+005   -8.57810E+005
            6068    1.12009E+007    1.45970E+007    1.45970E+007    5.33785E+006    2.14686E+006    1.24501E+007   -7.36056E+006    1.00998E+007    5.34496E+006    2.54295E+006    1.41938E+007    1.25112E+005    4.61584E+005   -2.14682E+006
            6069    1.20320E+007    1.66286E+007    1.66286E+007    6.05129E+006    3.53871E+006    1.30899E+007   -8.73954E+006    1.14192E+007    6.05264E+006    3.54037E+006    1.66256E+007    1.52349E+004    1.24443E+005   -1.42441E+005
            6070    1.14989E+007    1.65822E+007    1.65822E+007    6.42802E+006    4.09605E+006    1.24862E+007   -9.03544E+006    1.09478E+007    6.43548E+006    4.13436E+006    1.65365E+007    4.95336E+004    3.10901E+005   -6.73092E+005
            6071    1.11097E+007    1.65224E+007    1.65224E+007    6.80057E+006    4.41304E+006    1.21093E+007   -9.24532E+006    1.05089E+007    6.80975E+006    4.79971E+006    1.61265E+007    8.51695E+004    4.73266E+005   -2.09458E+006
            6072    1.33521E+007    1.84521E+007    1.84521E+007    6.83520E+006    3.86505E+006    1.45871E+007   -9.71746E+006    1.25762E+007    6.83671E+006    3.86546E+006    1.84502E+007    9.98149E+003    1.33786E+005   -7.35288E+004
            6073    1.23874E+007    1.82411E+007    1.82411E+007    7.29254E+006    4.79524E+006    1.34458E+007   -1.01096E+007    1.18010E+007    7.30035E+006    4.80477E+006    1.82237E+007    2.74389E+004    3.02405E+005   -3.48238E+005
            6074    1.04888E+007    1.77132E+007    1.77132E+007    7.97384E+006    6.60853E+006    1.11046E+007   -1.07652E+007    1.02861E+007    7.98910E+006    6.77042E+006    1.75360E+007    4.10850E+004    4.71907E+005   -1.30119E+006
            6075    1.37659E+007    1.90136E+007    1.90136E+007    7.07263E+006    3.95690E+006    1.50567E+007   -1.00144E+007    1.29364E+007    7.07421E+006    3.95692E+006    1.90120E+007   -1.92406E+003    1.37331E+005    1.70596E+004
            6076    1.26850E+007    1.87694E+007    1.87694E+007    7.56179E+006    4.99844E+006    1.37709E+007   -1.04432E+007    1.20815E+007    7.56983E+006    4.99870E+006    1.87611E+007   -3.19256E+003    3.00102E+005    5.88360E+004
            6077    1.01190E+007    1.80744E+007    1.80744E+007    8.41678E+006    7.54974E+006    1.05246E+007   -1.13470E+007    1.00349E+007    8.43970E+006    7.55000E+006    1.80512E+007   -1.85360E+003    4.70183E+005    5.10052E+004
            6078    1.31209E+007    1.81168E+007    1.81168E+007    6.68496E+006    3.79035E+006    1.43265E+007   -9.53072E+006    1.23715E+007    6.68642E+006    3.79097E+006    1.81148E+007   -1.26159E+004    1.31913E+005    8.95393E+004
            6079    1.22861E+007    1.79704E+007    1.79704E+007    7.12911E+006    4.62533E+006    1.33451E+007   -9.90829E+006    1.16912E+007    7.13676E+006    4.64075E+006    1.79474E+007   -3.27733E+004    3.02458E+005    4.42266E+005
            6080    1.05164E+007    1.76263E+007    1.76263E+007    7.89451E+006    6.47043E+006    1.11559E+007   -1.06638E+007    1.02961E+007    7.90900E+006    6.65015E+006    1.74321E+007   -4.52566E+004    4.72270E+005    1.37321E+006
            6081    1.16405E+007    1.60633E+007    1.60633E+007    5.79842E+006    3.41585E+006    1.26474E+007   -8.42585E+006    1.10718E+007    5.79974E+006    3.41799E+006    1.60598E+007   -1.51386E+004    1.21634E+005    1.59995E+005
            6082    1.12723E+007    1.60995E+007    1.60995E+007    6.15941E+006    3.85198E+006    1.22475E+007   -8.70363E+006    1.07215E+007    6.16668E+006    3.89272E+006    1.60515E+007   -5.13044E+004    3.07462E+005    6.87076E+005
            6083    1.11024E+007    1.63318E+007    1.63318E+007    6.66086E+006    4.20808E+006    1.21237E+007   -9.06691E+006    1.04665E+007    6.66984E+006    4.59814E+006    1.59328E+007   -8.85973E+004    4.72452E+005    2.10453E+006
            6084    3.17433E+006    2.95912E+006    2.95912E+006    5.91212E+005   -6.47883E+005    3.60700E+006   -9.67482E+005    2.53769E+006    5.90353E+005   -9.43349E+004    2.40643E+006   -1.60367E+005   -9.28101E+004    1.28621E+006
            6085    3.01443E+006    3.21586E+006    3.21586E+006    7.64501E+005   -1.49893E+005    3.36575E+006   -1.27682E+006    2.67464E+006    7.62567E+005   -8.06130E+003    3.07596E+006   -1.16289E+005   -1.12850E+005    6.53089E+005
            6086    3.49073E+006    3.87163E+006    3.87163E+006    9.68958E+005   -1.70892E+003    3.87334E+006   -1.61296E+006    3.16509E+006    9.73943E+005    8.75070E+003    3.85618E+006   -3.30087E+004   -1.27165E+005    1.93746E+005
            6087    2.16347E+006    2.26186E+006    2.26186E+006    5.49279E+005   -1.69524E+005    2.43138E+006   -8.80538E+005    1.86496E+006    5.43122E+005    3.20474E+005    1.77802E+006   -1.26330E+005   -4.79526E+004    9.62004E+005
            6088    2.42964E+006    2.72482E+006    2.72482E+006    7.13952E+005    2.51454E+004    2.69967E+006   -1.15464E+006    2.19330E+006    7.06232E+005    1.12575E+005    2.64511E+006   -9.81282E+004   -6.40600E+004    4.46928E+005
            6089    3.01621E+006    3.39668E+006    3.39668E+006    8.93138E+005    4.80739E+004    3.34861E+006   -1.44597E+006    2.73022E+006    8.94738E+005    5.57349E+004    3.38742E+006   -2.66345E+004   -7.37046E+004    1.53120E+005
            6090    1.07298E+006    1.47987E+006    1.47987E+006    5.26268E+005    3.18044E+005    1.16183E+006   -7.74729E+005    1.02603E+006    4.71125E+005    4.91461E+005    1.36160E+006   -1.04144E+005   -1.63105E+004    3.37985E+005
            6091    2.06485E+006    2.41677E+006    2.41677E+006    6.78426E+005    1.34372E+005    2.28240E+006   -1.07652E+006    1.89326E+006    6.65446E+005    1.60685E+005    2.40344E+006   -8.65113E+004   -2.28244E+004    1.70201E+005
            6092    2.74306E+006    3.09688E+006    3.09688E+006    8.25169E+005    4.95151E+004    3.04737E+006   -1.32385E+006    2.47773E+006    8.24719E+005    5.10860E+004    3.09576E+006   -2.38413E+004   -2.38608E+004    5.12409E+004
            6093    3.30396E+006    3.32100E+006    3.32100E+006    2.88647E+004    5.34137E+003    3.31566E+006   -1.11840E+006    3.30377E+006    3.28869E+004    4.16769E+004    3.28065E+006   -7.67007E+003    2.17936E+005   -2.90999E+005
            6094    3.71389E+006    3.84633E+006    3.84633E+006    3.33909E+005   -4.06484E+004    3.88698E+006   -1.37986E+006    3.67104E+006    3.50458E+005   -1.86700E+004    3.80780E+006    1.20086E+004    2.59365E+005   -2.73899E+005
            6095    4.04037E+006    4.29966E+006    4.29966E+006    6.61829E+005   -4.89310E+004    4.34859E+006   -1.63752E+006    3.89598E+006    6.79043E+005   -3.98225E+004    4.27334E+006    2.56815E+004    2.64104E+005   -1.76875E+005
            6096    4.18369E+006    4.53074E+006    4.53074E+006    9.13160E+005   -5.08048E+004    4.58154E+006   -1.79770E+006    3.92198E+006    9.27579E+005   -4.92080E+004    4.51472E+006    3.23277E+004    2.37739E+005   -4.09588E+004
            6097    4.01682E+006    4.41375E+006    4.41375E+006    1.03131E+006   -2.59664E+004    4.43971E+006   -1.80636E+006    3.68375E+006    1.04135E+006   -2.37483E+004    4.40149E+006    3.13799E+004    1.90062E+005    8.10325E+004
            6098    4.18620E+006    4.37686E+006    4.37686E+006    4.86906E+005   -5.31628E+004    4.43003E+006   -1.60354E+006    4.10673E+006    4.94867E+005    7.02909E+004    4.24545E+006    7.95782E+003    2.15029E+005   -7.17833E+005
            6099    4.24559E+006    4.35411E+006    4.35411E+006    5.68929E+005   -2.36502E+005    4.59061E+006   -1.56218E+006    4.06834E+006    5.74403E+005   -1.30952E+005    4.24309E+006    5.03596E+004    2.44802E+005   -6.56542E+005
            6100    4.21386E+006    4.31243E+006    4.31243E+006    6.81638E+005   -3.08262E+005    4.62069E+006   -1.56193E+006    3.93931E+006    6.87193E+005   -2.66017E+005    4.26463E+006    7.83843E+004    2.43935E+005   -3.84273E+005
            6101    4.02282E+006    4.17423E+006    4.17423E+006    7.87966E+005   -2.72627E+005    4.44686E+006   -1.56319E+006    3.68809E+006    7.94796E+005   -2.65554E+005    4.16033E+006    8.68655E+004    2.16151E+005    1.31468E+004
            6102    3.68203E+006    3.93243E+006    3.93243E+006    8.67531E+005   -1.51909E+005    4.08434E+006   -1.54935E+006    3.34173E+006    8.73665E+005   -1.28192E+005    3.90258E+006    7.79708E+004    1.73249E+005    2.80763E+005
            6103    5.01016E+006    5.41567E+006    5.41567E+006    9.57811E+005   -6.58681E+003    5.42226E+006   -2.12230E+006    4.79461E+006    9.66107E+005    1.36100E+005    5.26469E+006    2.42773E+004    2.41643E+005   -8.54444E+005
            6104    5.04888E+006    5.06934E+006    5.06934E+006    8.24752E+005   -5.13982E+005    5.58333E+006   -1.79337E+006    4.62360E+006    8.28185E+005   -4.09636E+005    4.96157E+006    8.66346E+004    2.58280E+005   -7.15327E+005
            6105    4.72581E+006    4.54665E+006    4.54665E+006    7.10711E+005   -7.32492E+005    5.27914E+006   -1.50829E+006    4.18519E+006    7.11042E+005   -7.08789E+005    4.52261E+006    1.29636E+005    2.37389E+005   -2.29505E+005
            6106    4.15574E+006    4.06026E+006    4.06026E+006    7.08127E+005   -5.89455E+005    4.64971E+006   -1.39298E+006    3.65650E+006    7.07894E+005   -5.62565E+005    4.03360E+006    1.42477E+005    2.02512E+005    2.49448E+005
            6107    3.61391E+006    3.65215E+006    3.65215E+006    7.34655E+005   -3.90496E+005    4.04264E+006   -1.33210E+006    3.18252E+006    7.34293E+005   -2.97810E+005    3.55982E+006    1.35567E+005    1.59436E+005    5.66820E+005
            6108    6.51276E+006    6.91848E+006    6.91848E+006    1.54939E+006   -3.26301E+005    7.24478E+006   -2.71385E+006    5.85726E+006    1.55529E+006   -2.14488E+005    6.80076E+006    1.08837E+005    3.19281E+005   -8.45427E+005
            6109    6.24766E+006    5.83460E+006    5.83460E+006    1.02722E+006   -1.22742E+006    7.06202E+006   -1.87813E+006    5.20661E+006    1.02814E+006   -1.18798E+006    5.79424E+006    1.73060E+005    2.95989E+005   -4.04736E+005
            6110    5.43774E+006    4.84644E+006    4.84644E+006    7.70588E+005   -1.32785E+006    6.17429E+006   -1.42973E+006    4.37672E+006    7.69721E+005   -1.30561E+006    4.82507E+006    1.95735E+005    2.50616E+005    1.79463E+005
            6111    4.61373E+006    4.11633E+006    4.11633E+006    6.78277E+005   -1.12709E+006    5.24342E+006   -1.22251E+006    3.68293E+006    6.76116E+005   -1.02848E+006    4.01988E+006    1.99056E+005    1.99204E+005    6.48684E+005
            6112    3.78085E+006    3.51249E+006    3.51249E+006    6.60056E+005   -7.75980E+005    4.28847E+006   -1.13219E+006    3.07055E+006    6.58934E+005   -5.34390E+005    3.27203E+006    1.79029E+005    1.51136E+005    9.59095E+005
            6113    4.52327E+006    3.71359E+006    3.71359E+006    5.47875E+005   -1.46699E+006    5.18059E+006   -9.31492E+005    3.25722E+006    5.47856E+005   -9.71236E+005    3.21786E+006    2.12014E+005    1.40865E+005    1.50256E+006
            6114    5.68477E+006    4.53177E+006    4.53177E+006    6.16239E+005   -1.98868E+006    6.52045E+006   -1.05311E+006    3.96652E+006    6.16675E+005   -1.71508E+006    4.25774E+006    2.29531E+005    1.90697E+005    1.27345E+006
            6115    6.85369E+006    5.55096E+006    5.55096E+006    8.15785E+005   -2.30814E+006    7.85909E+006   -1.35287E+006    4.81219E+006    8.17620E+005   -2.21631E+006    5.45730E+006    2.32182E+005    2.48547E+005    7.78510E+005
            6116    7.85578E+006    6.74145E+006    6.74145E+006    1.19319E+006   -2.24765E+006    8.98910E+006   -1.89566E+006    5.75297E+006    1.19632E+006   -2.23094E+006    6.72162E+006    2.17358E+005    2.94623E+005    1.82028E+005
            6117    8.76186E+006    8.41462E+006    8.41462E+006    1.93052E+006   -1.55331E+006    9.96793E+006   -2.93061E+006    6.92431E+006    1.93618E+006   -1.51183E+006    8.36747E+006    1.86989E+005    3.50491E+005   -5.38939E+005
            6118    9.66920E+006    1.02495E+007    1.02495E+007    2.82141E+006   -6.83311E+005    1.09328E+007   -4.12921E+006    8.04157E+006    2.82747E+006   -5.34204E+005    1.00944E+007    1.69934E+005    3.97542E+005   -1.21040E+006
            6119    1.06001E+007    1.23693E+007    1.23693E+007    3.96734E+006    4.60123E+005    1.19092E+007   -5.59893E+006    9.15110E+006    3.97346E+006    7.49149E+005    1.20742E+007    1.52656E+005    4.33524E+005   -1.78799E+006
            6120    8.90009E+006    1.18135E+007    1.18135E+007    3.98099E+006    2.13519E+006    9.67827E+006   -5.97654E+006    8.45321E+006    3.98920E+006    2.22542E+006    1.17150E+007    5.62058E+004    3.15684E+005   -9.08769E+005
            6121    8.35482E+006    1.14493E+007    1.14493E+007    3.79515E+006    2.53653E+006    8.91272E+006   -5.92698E+006    8.13743E+006    3.79667E+006    2.54193E+006    1.14423E+007   -7.96303E+003    1.08621E+005   -2.18849E+005
            6122    7.49605E+006    9.39005E+006    9.39005E+006    2.79366E+006    1.23835E+006    8.15170E+006   -4.47402E+006    7.11931E+006    2.80307E+006    1.32945E+006    9.28955E+006    4.64279E+004    3.02008E+005   -8.37873E+005
            6123    6.69359E+006    9.04008E+006    9.04008E+006    2.73326E+006    2.01729E+006    7.02279E+006   -4.59687E+006    6.60661E+006    2.73374E+006    2.02873E+006    9.02815E+006   -3.38272E+004    1.03180E+005   -2.67352E+005
            6124    5.53522E+006    7.20750E+006    7.20750E+006    1.88534E+006    1.48136E+006    5.72615E+006   -3.52473E+006    5.50191E+006    1.87864E+006    1.50622E+006    7.18934E+006   -6.26060E+004    9.14196E+004   -3.06460E+005
            6125    4.56240E+006    5.55813E+006    5.55813E+006    1.10234E+006    8.96114E+005    4.66201E+006   -2.51886E+006    4.55189E+006    1.07424E+006    9.40542E+005    5.54180E+006   -7.61483E+004    6.98501E+004   -2.64044E+005
            6126    3.74197E+006    4.12617E+006    4.12617E+006    4.61558E+005    3.11372E+005    3.81480E+006   -1.63303E+006    3.73518E+006    3.57905E+005    4.28041E+005    4.11316E+006   -7.21885E+004    5.15449E+004   -2.12341E+005
            6127    2.75646E+006    2.58559E+006    2.58559E+006    9.16886E+004   -3.74071E+005    2.95966E+006   -7.67737E+005    2.66576E+006   -3.71261E+005    9.25594E+004    2.58191E+006   -3.10009E+004    5.24260E+004   -8.22535E+004
            6128    6.09580E+006    7.32792E+006    7.32792E+006    1.83790E+006    7.68011E+005    6.55991E+006   -3.31128E+006    5.87897E+006    1.84742E+006    8.64232E+005    7.22218E+006    1.27337E+004    2.51514E+005   -7.80886E+005
            6129    4.81673E+006    5.55349E+006    5.55349E+006    1.02584E+006    4.92150E+005    5.06134E+006   -2.35716E+006    4.74952E+006    1.03304E+006    5.83362E+005    5.45508E+006   -3.19252E+004    1.79104E+005   -6.72410E+005
            6130    3.98286E+006    4.28889E+006    4.28889E+006    4.16049E+005    2.04446E+005    4.08445E+006   -1.63646E+006    3.97019E+006    4.20287E+005    2.85728E+005    4.20337E+006   -4.04931E+004    1.48451E+005   -5.63703E+005
            6131    2.96112E+006    2.86295E+006    2.86295E+006    5.61735E+004   -2.31512E+005    3.09446E+006   -8.95871E+005    2.92943E+006   -2.24023E+005    7.31234E+004    2.83851E+006   -2.23173E+004    1.46653E+005   -2.19714E+005
            6132    3.66718E+006    3.78579E+006    3.78579E+006    2.93543E+005   -3.43083E+004    3.82010E+006   -1.34834E+006    3.63399E+006    3.06850E+005    8.78719E+003    3.72938E+006   -1.04000E+004   -2.46668E+005   -3.84112E+005
            6133    4.11253E+006    4.30405E+006    4.30405E+006    6.31616E+005   -1.39439E+005    4.44348E+006   -1.59874E+006    3.94496E+006    6.46816E+005   -1.17453E+005    4.26686E+006   -3.49762E+004   -2.64358E+005   -2.85238E+005
            6134    4.25701E+006    4.53373E+006    4.53373E+006    8.91993E+005   -1.46427E+005    4.68015E+006   -1.75976E+006    3.95672E+006    9.05108E+005   -1.44374E+005    4.51856E+006   -4.48496E+004   -2.34336E+005   -1.53974E+004
            6135    3.92768E+006    4.33471E+006    4.33471E+006    1.02027E+006   -3.46709E+003    4.33818E+006   -1.78384E+006    3.60874E+006    1.02954E+006    4.36076E+003    4.31761E+006   -3.90119E+004   -1.82647E+005    1.71984E+005
            6136    4.88256E+006    4.98874E+006    4.98874E+006    7.96364E+005   -3.72022E+005    5.36076E+006   -1.80436E+006    4.55181E+006    7.98913E+005   -2.34783E+005    4.84895E+006   -7.75542E+004   -2.59030E+005   -8.08757E+005
            6137    4.73536E+006    4.52001E+006    4.52001E+006    6.79969E+005   -7.71100E+005    5.29111E+006   -1.47629E+006    4.18956E+006    6.78782E+005   -7.38750E+005    4.48884E+006   -1.35930E+005   -2.42521E+005   -2.97157E+005
            6138    4.08450E+006    4.00323E+006    4.00323E+006    7.08417E+005   -5.66731E+005    4.56996E+006   -1.38164E+006    3.59398E+006    7.08109E+005   -5.34534E+005    3.97134E+006   -1.45817E+005   -2.02757E+005    2.87615E+005
            6139    3.55263E+006    3.63234E+006    3.63234E+006    7.61294E+005   -3.40705E+005    3.97305E+006   -1.35098E+006    3.13200E+006    7.60906E+005   -2.39182E+005    3.53121E+006   -1.36913E+005   -1.58435E+005    5.90023E+005
            6140    4.11015E+006    3.56616E+006    3.56616E+006    5.94636E+005   -1.12442E+006    4.69058E+006   -1.01213E+006    3.13309E+006    5.95099E+005   -7.01822E+005    3.14310E+006   -1.90222E+005   -1.38490E+005    1.32267E+006
            6141    5.05031E+006    4.19230E+006    4.19230E+006    5.99904E+005   -1.58216E+006    5.77446E+006   -1.07002E+006    3.74573E+006    6.01052E+005   -1.37359E+006    3.98258E+006   -2.07666E+005   -1.91127E+005    1.04169E+006
            6142    5.98581E+006    4.96882E+006    4.96882E+006    6.95867E+005   -1.87259E+006    6.84141E+006   -1.26403E+006    4.46695E+006    6.97653E+005   -1.80847E+006    4.90292E+006   -2.05349E+005   -2.36350E+005    5.86522E+005
            6143    6.87432E+006    6.21718E+006    6.21718E+006    1.11281E+006   -1.59954E+006    7.81672E+006   -1.91015E+006    5.45935E+006    1.11642E+006   -1.58374E+006    6.19778E+006   -1.82107E+005   -2.94549E+005   -1.47114E+005
            6144    8.00400E+006    7.95846E+006    7.95846E+006    1.84374E+006   -1.10071E+006    9.05916E+006   -2.90050E+006    6.60934E+006    1.84886E+006   -1.02855E+006    7.88117E+006   -1.64297E+005   -3.42497E+005   -7.31539E+005
            6145    9.30700E+006    9.85531E+006    9.85531E+006    2.68284E+006   -6.61804E+005    1.05171E+007   -3.95878E+006    7.77116E+006    2.68849E+006   -4.90852E+005    9.67870E+006   -1.59767E+005   -3.85122E+005   -1.27845E+006
            6146    1.03962E+007    1.19906E+007    1.19906E+007    3.77384E+006    3.03017E+005    1.16876E+007   -5.35582E+006    8.94606E+006    3.78011E+006    5.70771E+005    1.17166E+007   -1.52439E+005   -4.27002E+005   -1.70351E+006
            6147    1.10907E+007    1.42873E+007    1.42873E+007    5.15550E+006    1.94572E+006    1.23416E+007   -7.12952E+006    9.96256E+006    5.16233E+006    2.33806E+006    1.38882E+007   -1.27715E+005   -4.57560E+005   -2.12653E+006
            6148    9.93647E+006    1.37059E+007    1.37059E+007    4.93947E+006    2.91212E+006    1.07938E+007   -7.18584E+006    9.45419E+006    4.94684E+006    2.98105E+006    1.36296E+007   -5.75877E+004   -3.10966E+005   -8.38591E+005
            6149    9.77631E+006    1.34498E+007    1.34498E+007    4.66235E+006    2.91919E+006    1.05306E+007   -7.01046E+006    9.41710E+006    4.66371E+006    2.92299E+006    1.34447E+007   -4.76280E+003   -1.10541E+005   -1.99260E+005
            6150    8.49074E+006    1.12245E+007    1.12245E+007    3.71378E+006    2.01168E+006    9.21286E+006   -5.65000E+006    8.09343E+006    3.72229E+006    2.10364E+006    1.11241E+007   -4.70009E+004   -3.05872E+005   -8.97802E+005
            6151    8.02426E+006    1.08885E+007    1.08885E+007    3.51695E+006    2.34120E+006    8.54727E+006   -5.58220E+006    7.82694E+006    3.51834E+006    2.35011E+006    1.08782E+007    1.48579E+004   -1.04756E+005   -2.74147E+005
            6152    7.30062E+006    9.04611E+006    9.04611E+006    2.60637E+006    1.11493E+006    7.93118E+006   -4.25580E+006    6.94535E+006    2.61598E+006    1.21062E+006    8.94081E+006   -3.52550E+004   -2.89836E+005   -8.51697E+005
            6153    6.33265E+006    8.43648E+006    8.43648E+006    2.43930E+006    1.81464E+006    6.62183E+006   -4.23014E+006    6.26278E+006    2.43845E+006    1.82383E+006    8.42814E+006    4.21973E+004   -9.68516E+004   -2.10872E+005
            6154    5.77401E+006    6.74822E+006    6.74822E+006    1.56669E+006    5.23854E+005    6.22436E+006   -2.94625E+006    5.55618E+006    1.57662E+006    6.11228E+005    6.65091E+006   -1.77176E+004   -2.53756E+005   -7.22500E+005
            6155    5.08215E+006    6.45126E+006    6.45126E+006    1.52769E+006    1.22413E+006    5.22712E+006   -3.06769E+006    5.06169E+006    1.51499E+006    1.25779E+006    6.43030E+006    6.96559E+004   -8.50046E+004   -3.16910E+005
            6156    4.13227E+006    4.77914E+006    4.77914E+006    7.26816E+005    5.71319E+005    4.20782E+006   -2.02576E+006    4.12568E+006    6.81138E+005    6.39842E+005    4.75630E+006    7.70987E+004   -7.50713E+004   -2.96648E+005
            6157    2.87641E+006    2.80159E+006    2.80159E+006    1.58315E+005   -2.61767E+005    3.06336E+006   -8.99379E+005    2.80615E+006   -2.57708E+005    1.63795E+005    2.79205E+006    3.57217E+004   -6.85993E+004   -1.44470E+005
            6158    4.58734E+006    5.02892E+006    5.02892E+006    7.69699E+005    1.72049E+005    4.85687E+006   -1.99022E+006    4.49850E+006    7.78393E+005    2.96482E+005    4.89579E+006    1.01631E+004   -2.02150E+005   -7.64053E+005
            6159    3.24322E+006    3.22859E+006    3.22859E+006    2.49524E+004   -5.28167E+004    3.28141E+006   -1.06691E+006    3.24112E+006   -4.22895E+004    6.02579E+004    3.18276E+006    1.26659E+004   -1.80346E+005   -3.36506E+005
            6160    3.38730E+006    2.98885E+006    2.98885E+006    5.34282E+005   -8.75701E+005    3.86455E+006   -8.82476E+005    2.59170E+006    5.32493E+005   -2.02966E+005    2.31790E+006    1.78422E+005    8.70696E+004    1.45074E+006
            6161    2.96795E+006    2.94174E+006    2.94174E+006    6.47207E+005   -4.10076E+005    3.35182E+006   -1.05962E+006    2.48799E+006    6.43829E+005   -8.55466E+004    2.62059E+006    1.50502E+005    1.00155E+005    9.71132E+005
            6162    3.01948E+006    3.19591E+006    3.19591E+006    7.33995E+005   -1.73143E+005    3.36906E+006   -1.25225E+006    2.68625E+006    7.31399E+005   -3.15186E+004    3.05688E+006    1.18581E+005    1.12123E+005    6.51476E+005
            6163    3.26772E+006    3.56462E+006    3.56462E+006    8.66000E+005   -6.85630E+004    3.63318E+006   -1.45402E+006    2.94377E+006    8.69409E+005   -2.72818E+004    3.51993E+006    6.36939E+004    1.22924E+005    3.71694E+005
            6164    3.60521E+006    3.99898E+006    3.99898E+006    1.01053E+006   -5.10934E+003    4.00409E+006   -1.66813E+006    3.25929E+006    1.01596E+006   -1.01575E+003    3.98945E+006    2.73103E+004    1.32650E+005    1.19204E+005
            6165    2.20678E+006    2.19961E+006    2.19961E+006    4.89226E+005   -2.91385E+005    2.49099E+006   -7.99149E+005    1.85566E+006    4.83681E+005    3.21598E+005    1.59217E+006    1.40517E+005    4.74997E+004    1.05975E+006
            6166    2.12910E+006    2.33025E+006    2.33025E+006    6.05274E+005   -4.92826E+004    2.37953E+006   -9.62079E+005    1.88193E+006    5.96069E+005    2.05943E+005    2.08422E+006    1.20869E+005    5.85011E+004    7.14515E+005
            6167    2.41859E+006    2.70362E+006    2.70362E+006    6.93998E+005    1.93358E+004    2.68429E+006   -1.13899E+006    2.19142E+006    6.85942E+005    1.24167E+005    2.60685E+006    1.01236E+005    6.51402E+004    4.90414E+005
            6168    2.79696E+006    3.12063E+006    3.12063E+006    8.06716E+005    1.24407E+004    3.10819E+006   -1.31326E+006    2.52390E+006    8.06558E+005    4.28298E+004    3.09040E+006    5.25051E+004    7.08358E+004    2.92226E+005
            6169    3.16363E+006    3.52479E+006    3.52479E+006    9.24787E+005    2.51384E+003    3.52228E+006   -1.48403E+006    2.83669E+006    9.26639E+005    5.74926E+003    3.51971E+006    2.30599E+004    7.70992E+004    9.85606E+004
            6170    9.62651E+005    1.33528E+006    1.33528E+006    4.88064E+005    2.88485E+005    1.04680E+006   -7.03943E+005    9.14349E+005    4.18858E+005    5.63430E+005    1.12954E+006    1.14810E+005    1.24276E+004    3.93049E+005
            6171    1.44396E+006    1.83155E+006    1.83155E+006    5.83860E+005    2.49856E+005    1.58170E+006   -8.88423E+005    1.35289E+006    5.51831E+005    3.26051E+005    1.78739E+006    1.03775E+005    1.63870E+004    2.55197E+005
            6172    2.00590E+006    2.36954E+006    2.36954E+006    6.63417E+005    1.59828E+005    2.20971E+006   -1.06426E+006    1.85551E+006    6.48399E+005    1.90114E+005    2.35427E+006    8.89784E+004    2.10791E+004    1.79587E+005
            6173    2.49748E+006    2.83475E+006    2.83475E+006    7.58418E+005    6.33576E+004    2.77139E+006   -1.21884E+006    2.26407E+006    7.55954E+005    7.05009E+004    2.83007E+006    4.47964E+004    2.36213E+004    1.09896E+005
            6174    2.87216E+006    3.21306E+006    3.21306E+006    8.57646E+005    1.33876E+004    3.19967E+006   -1.36136E+006    2.56995E+006    8.57448E+005    1.42812E+004    3.21236E+006    2.01483E+004    2.49582E+004    3.69257E+004
            6175    1.12036E+007    1.45873E+007    1.45873E+007    5.32948E+006    2.13268E+006    1.24546E+007   -7.34981E+006    1.00985E+007    5.33657E+006    2.52914E+006    1.41837E+007    1.25585E+005   -4.61732E+005    2.14809E+006
            6176    1.02186E+007    1.42669E+007    1.42669E+007    5.24424E+006    3.17044E+006    1.10965E+007   -7.56053E+006    9.72814E+006    5.25168E+006    3.23866E+006    1.41913E+007    5.77434E+004   -3.15255E+005    8.46285E+005
            6177    1.02943E+007    1.41854E+007    1.41854E+007    4.98678E+006    3.06604E+006    1.11194E+007   -7.41275E+006    9.87901E+006    4.98814E+006    3.07028E+006    1.41798E+007    9.27946E+003   -1.14626E+005    2.15314E+005
            6178    1.11044E+007    1.65232E+007    1.65232E+007    6.80424E+006    4.42054E+006    1.21027E+007   -9.24934E+006    1.05054E+007    6.81339E+006    4.80803E+006    1.61266E+007    8.53030E+004   -4.73507E+005    2.09603E+006
            6179    1.15151E+007    1.65999E+007    1.65999E+007    6.43393E+006    4.09469E+006    1.25052E+007   -9.04283E+006    1.09613E+007    6.44138E+006    4.13225E+006    1.65548E+007    4.95652E+004   -3.10762E+005    6.66827E+005
            6180    1.20635E+007    1.66731E+007    1.66731E+007    6.07073E+006    3.54761E+006    1.31255E+007   -8.76383E+006    1.14470E+007    6.07208E+006    3.54918E+006    1.66702E+007    1.51860E+004   -1.24536E+005    1.38744E+005
            6181    1.04832E+007    1.77272E+007    1.77272E+007    7.98698E+006    6.63262E+006    1.10945E+007   -1.07822E+007    1.02836E+007    8.00230E+006    6.79315E+006    1.75513E+007    4.08303E+004   -4.72592E+005    1.29491E+006
            6182    1.23959E+007    1.82471E+007    1.82471E+007    7.29342E+006    4.79083E+006    1.34562E+007   -1.01104E+007    1.18072E+007    7.30126E+006    4.80041E+006    1.82296E+007    2.72240E+004   -3.02882E+005    3.49317E+005
            6183    1.33659E+007    1.84694E+007    1.84694E+007    6.84199E+006    3.86648E+006    1.46029E+007   -9.72596E+006    1.25880E+007    6.84350E+006    3.86688E+006    1.84675E+007    9.76250E+003   -1.33988E+005    7.31804E+004
            6184    1.01081E+007    1.80609E+007    1.80609E+007    8.41233E+006    7.54858E+006    1.05123E+007   -1.13406E+007    1.00246E+007    8.43529E+006    7.54909E+006    1.80374E+007   -2.48785E+003   -4.70431E+005   -7.08356E+004
            6185    1.26821E+007    1.87632E+007    1.87632E+007    7.55871E+006    4.99519E+006    1.37680E+007   -1.04390E+007    1.20784E+007    7.56675E+006    4.99541E+006    1.87550E+007   -3.27513E+003   -3.00157E+005   -5.49459E+004
            6186    1.37634E+007    1.90091E+007    1.90091E+007    7.07021E+006    3.95510E+006    1.50540E+007   -1.00115E+007    1.29340E+007    7.07179E+006    3.95512E+006    1.90074E+007   -1.90636E+003   -1.37406E+005   -1.75332E+004
            6187    1.05290E+007    1.76170E+007    1.76170E+007    7.88182E+006    6.44236E+006    1.11747E+007   -1.06471E+007    1.03041E+007    7.89619E+006    6.62762E+006    1.74174E+007   -4.57381E+004   -4.72566E+005   -1.39550E+006
            6188    1.22733E+007    1.79629E+007    1.79629E+007    7.12930E+006    4.63355E+006    1.33294E+007   -9.90859E+006    1.16817E+007    7.13697E+006    4.64875E+006    1.79400E+007   -3.28248E+004   -3.02888E+005   -4.38724E+005
            6189    1.31008E+007    1.80875E+007    1.80875E+007    6.67173E+006    3.78367E+006    1.43038E+007   -9.51431E+006    1.23537E+007    6.67317E+006    3.78430E+006    1.80854E+007   -1.26571E+004   -1.31282E+005   -8.99147E+004
            6190    1.11082E+007    1.63120E+007    1.63120E+007    6.64313E+006    4.17849E+006    1.21335E+007   -9.04455E+006    1.04662E+007    6.65210E+006    4.56858E+006    1.59130E+007   -8.89033E+004   -4.72008E+005   -2.10558E+006
            6191    1.12665E+007    1.61034E+007    1.61034E+007    6.16552E+006    3.86384E+006    1.22396E+007   -8.71093E+006    1.07182E+007    6.17284E+006    3.90576E+006    1.60542E+007   -5.10621E+004   -3.08333E+005   -6.97154E+005
            6192    1.16144E+007    1.60235E+007    1.60235E+007    5.78006E+006    3.40519E+006    1.26183E+007   -8.40292E+006    1.10482E+007    5.78138E+006    3.40737E+006    1.60200E+007   -1.51367E+004   -1.21607E+005   -1.61236E+005
            6193    3.61183E+006    4.00500E+006    4.00500E+006    1.01161E+006   -6.65609E+003    4.01166E+006   -1.66998E+006    3.26472E+006    1.01707E+006   -2.58779E+003    3.99547E+006    2.73166E+004   -1.33110E+005   -1.18907E+005
            6194    3.26740E+006    3.56395E+006    3.56395E+006    8.65629E+005   -6.88953E+004    3.63284E+006   -1.45356E+006    2.94344E+006    8.69014E+005   -2.72216E+004    3.51889E+006    6.40319E+004   -1.22918E+005   -3.73400E+005
            6195    3.01741E+006    3.19126E+006    3.19126E+006    7.32329E+005   -1.75956E+005    3.36722E+006   -1.24921E+006    2.68298E+006    7.29683E+005   -3.26279E+004    3.05058E+006    1.19110E+005   -1.11958E+005   -6.55147E+005
            6196    2.96446E+006    2.93555E+006    2.93555E+006    6.44973E+005   -4.12676E+005    3.34823E+006   -1.05595E+006    2.48338E+006    6.41573E+005   -8.34389E+004    2.60971E+006    1.50731E+005   -9.95182E+004   -9.77068E+005
            6197    3.38652E+006    2.98752E+006    2.98752E+006    5.33865E+005   -8.76193E+005    3.86372E+006   -8.81732E+005    2.59053E+006    5.32053E+005   -2.01312E+005    2.31445E+006    1.78360E+005   -8.67072E+004   -1.45242E+006
            6198    3.16499E+006    3.52779E+006    3.52779E+006    9.26193E+005    4.17116E+003    3.52362E+006   -1.48605E+006    2.83841E+006    9.28061E+005    7.36220E+003    3.52274E+006    2.28337E+004   -7.72433E+004   -9.79573E+004
            6199    2.80212E+006    3.12651E+006    3.12651E+006    8.08469E+005    1.25252E+004    3.11398E+006   -1.31583E+006    2.52841E+006    8.08375E+005    4.24695E+004    3.09666E+006    5.19605E+004   -7.10038E+004   -2.90505E+005
            6200    2.42087E+006    2.70638E+006    2.70638E+006    6.94990E+005    1.95031E+004    2.68687E+006   -1.14029E+006    2.19335E+006    6.87033E+005    1.24342E+005    2.60949E+006    1.00923E+005   -6.52072E+004   -4.90943E+005
            6201    2.12336E+006    2.32248E+006    2.32248E+006    6.02300E+005   -5.06739E+004    2.37316E+006   -9.58037E+005    1.87670E+006    5.93048E+005    2.07485E+005    2.07358E+006    1.21105E+005   -5.81951E+004   -7.17176E+005
            6202    2.21025E+006    2.19800E+006    2.19800E+006    4.86398E+005   -2.97314E+005    2.49532E+006   -7.95695E+005    1.85663E+006    4.80964E+005    3.21197E+005    1.58492E+006    1.40880E+005   -4.76394E+004   -1.06430E+006
            6203    2.87447E+006    3.21369E+006    3.21369E+006    8.56999E+005    1.12219E+004    3.20247E+006   -1.36064E+006    2.57136E+006    8.56809E+005    1.21160E+004    3.21299E+006    2.00872E+004   -2.51520E+004   -3.71261E+004
            6204    2.50135E+006    2.83824E+006    2.83824E+006    7.59174E+005    6.23783E+004    2.77587E+006   -1.21993E+006    2.26710E+006    7.56737E+005    6.94932E+004    2.83357E+006    4.46507E+004   -2.36792E+004   -1.09950E+005
            6205    2.00498E+006    2.36887E+006    2.36887E+006    6.63295E+005    1.60267E+005    2.20860E+006   -1.06414E+006    1.85487E+006    6.48273E+005    1.90373E+005    2.35378E+006    8.89171E+004   -2.10501E+004   -1.78443E+005
            6206    1.43892E+006    1.83002E+006    1.83002E+006    5.85537E+005    2.54389E+005    1.57563E+006   -8.89981E+005    1.34914E+006    5.53242E+005    3.30009E+005    1.78669E+006    1.03578E+005   -1.62823E+004   -2.52284E+005
            6207    9.66348E+005    1.34056E+006    1.34056E+006    4.89955E+005    2.89818E+005    1.05075E+006   -7.06779E+005    9.17965E+005    4.21275E+005    5.65053E+005    1.13401E+006    1.14904E+005   -1.24853E+004   -3.94785E+005
            6208    8.75485E+006    8.41113E+006    8.41113E+006    1.93060E+006   -1.54846E+006    9.95960E+006   -2.93109E+006    6.92131E+006    1.93631E+006   -1.50741E+006    8.36437E+006    1.86545E+005   -3.50303E+005    5.35199E+005
            6209    7.85316E+006    6.73836E+006    6.73836E+006    1.19271E+006   -2.24787E+006    8.98623E+006   -1.89440E+006    5.74962E+006    1.19583E+006   -2.23112E+006    6.71850E+006    2.17445E+005   -2.94505E+005   -1.82753E+005
            6210    6.83410E+006    5.53676E+006    5.53676E+006    8.14508E+005   -2.29978E+006    7.83654E+006   -1.35050E+006    4.79970E+006    8.16345E+005   -2.20708E+006    5.44222E+006    2.31903E+005   -2.47963E+005   -7.81737E+005
            6211    5.67336E+006    4.52494E+006    4.52494E+006    6.16114E+005   -1.98226E+006    6.50720E+006   -1.05293E+006    3.96095E+006    6.16503E+005   -1.70774E+006    4.25003E+006    2.29463E+005   -1.90170E+005   -1.27421E+006
            6212    4.50657E+006    3.70359E+006    3.70359E+006    5.47916E+005   -1.45761E+006    5.16120E+006   -9.31301E+005    3.24839E+006    5.47900E+005   -9.61035E+005    3.20704E+006    2.11579E+005   -1.40439E+005   -1.50059E+006
            6213    3.79333E+006    3.51937E+006    3.51937E+006    6.59678E+005   -7.83793E+005    4.30316E+006   -1.13175E+006    3.07752E+006    6.58606E+005   -5.41656E+005    3.27831E+006    1.79494E+005   -1.51658E+005   -9.61925E+005
            6214    3.62027E+006    3.65248E+006    3.65248E+006    7.32443E+005   -3.98173E+005    4.05065E+006   -1.32892E+006    3.18516E+006    7.32037E+005   -3.04027E+005    3.55874E+006    1.36501E+005   -1.59625E+005   -5.72038E+005
            6215    3.68229E+006    3.92842E+006    3.92842E+006    8.64810E+005   -1.56809E+005    4.08523E+006   -1.54548E+006    3.34045E+006    8.70857E+005   -1.32663E+005    3.89823E+006    7.88476E+004   -1.73156E+005   -2.83200E+005
            6216    4.01550E+006    4.41298E+006    4.41298E+006    1.03117E+006   -2.50551E+004    4.43804E+006   -1.80637E+006    3.68301E+006    1.04120E+006   -2.28631E+004    4.40076E+006    3.15707E+004   -1.90120E+005   -7.99375E+004
            6217    4.62954E+006    4.12844E+006    4.12844E+006    6.79189E+005   -1.13308E+006    5.26153E+006   -1.22485E+006    3.69466E+006    6.77046E+005   -1.03633E+006    4.03383E+006    1.99124E+005   -1.99994E+005   -6.42565E+005
            6218    4.17149E+006    4.07030E+006    4.07030E+006    7.08230E+005   -5.97988E+005    4.66829E+006   -1.39352E+006    3.66719E+006    7.07953E+005   -5.71433E+005    4.04403E+006    1.43177E+005   -2.03246E+005   -2.46016E+005
            6219    4.02326E+006    4.17387E+006    4.17387E+006    7.88155E+005   -2.73850E+005    4.44772E+006   -1.56273E+006    3.68761E+006    7.94903E+005   -2.66691E+005    4.15997E+006    8.74219E+004   -2.16259E+005   -1.15893E+004
            6220    4.18174E+006    4.52743E+006    4.52743E+006    9.11970E+005   -5.21668E+004    4.57960E+006   -1.79575E+006    3.91979E+006    9.26357E+005   -5.05551E+004    4.51144E+006    3.25646E+004   -2.37557E+005    4.08693E+004
            6221    5.47157E+006    4.87695E+006    4.87695E+006    7.76972E+005   -1.33605E+006    6.21300E+006   -1.43929E+006    4.40211E+006    7.76173E+005   -1.31454E+006    4.85624E+006    1.95890E+005   -2.52355E+005   -1.66917E+005
            6222    4.74690E+006    4.56548E+006    4.56548E+006    7.14415E+005   -7.37926E+005    5.30340E+006   -1.51399E+006    4.20164E+006    7.14759E+005   -7.13684E+005    4.54089E+006    1.29950E+005   -2.38340E+005    2.35796E+005
            6223    4.21981E+006    4.31503E+006    4.31503E+006    6.83043E+005   -3.14016E+005    4.62905E+006   -1.56135E+006    3.94149E+006    6.88479E+005   -2.72409E+005    4.26799E+006    7.93062E+004   -2.43496E+005    3.80495E+005
            6224    4.04518E+006    4.30436E+006    4.30436E+006    6.65987E+005   -5.15938E+004    4.35596E+006   -1.63959E+006    3.89811E+006    6.83119E+005   -4.23674E+004    4.27800E+006    2.63102E+004   -2.63931E+005    1.77851E+005
            6225    6.26099E+006    5.85235E+006    5.85235E+006    1.03406E+006   -1.22455E+006    7.07690E+006   -1.88729E+006    5.21862E+006    1.03500E+006   -1.18478E+006    5.81165E+006    1.73048E+005   -2.96461E+005    4.08012E+005
            6226    5.06204E+006    5.08302E+006    5.08302E+006    8.28493E+005   -5.15329E+005    5.59835E+006   -1.79873E+006    4.63457E+006    8.31988E+005   -4.10269E+005    4.97447E+006    8.65707E+004   -2.58949E+005    7.19071E+005
            6227    4.25313E+006    4.36189E+006    4.36189E+006    5.73495E+005   -2.38807E+005    4.60070E+006   -1.56553E+006    4.07308E+006    5.78897E+005   -1.32953E+005    4.25063E+006    5.12337E+004   -2.45478E+005    6.57858E+005
            6228    3.72165E+006    3.85991E+006    3.85991E+006    3.43825E+005   -3.78774E+004    3.89779E+006   -1.38862E+006    3.67723E+006    3.60394E+005   -1.61703E+004    3.82164E+006    1.23633E+004   -2.59563E+005    2.72461E+005
            6229    6.51828E+006    6.92516E+006    6.92516E+006    1.55100E+006   -3.25563E+005    7.25072E+006   -2.71686E+006    5.86277E+006    1.55693E+006   -2.13827E+005    6.80749E+006    1.08575E+005   -3.19212E+005    8.45674E+005
            6230    4.99973E+006    5.40225E+006    5.40225E+006    9.51437E+005   -7.49224E+003    5.40975E+006   -2.11540E+006    4.78623E+006    9.59719E+005    1.34657E+005    5.25182E+006    2.40339E+004   -2.41043E+005    8.51895E+005
            6231    4.18393E+006    4.37177E+006    4.37177E+006    4.85216E+005   -5.67279E+004    4.42849E+006   -1.60008E+006    4.10385E+006    4.93119E+005    6.79651E+004    4.23917E+006    8.40913E+003   -2.15431E+005    7.20999E+005
            6232    3.31808E+006    3.33748E+006    3.33748E+006    3.35383E+004    5.45126E+003    3.33203E+006   -1.12549E+006    3.31781E+006    4.07270E+004    3.86263E+004    3.29712E+006   -7.00347E+003   -2.19457E+005    2.91016E+005
            6233    2.97335E+006    2.87841E+006    2.87841E+006    5.47294E+004   -2.24856E+005    3.10327E+006   -9.02762E+005    2.94356E+006   -2.17219E+005    7.22033E+004    2.85330E+006   -2.23368E+004   -1.48477E+005    2.23604E+005
            6234    2.76090E+006    2.59286E+006    2.59286E+006    9.33117E+004   -3.70609E+005    2.96347E+006   -7.71855E+005    2.67109E+006   -3.67759E+005    9.42933E+004    2.58903E+006   -3.11153E+004   -5.31763E+004    8.42141E+004
            6235    3.97878E+006    4.28161E+006    4.28161E+006    4.12247E+005    2.01754E+005    4.07985E+006   -1.63187E+006    3.96623E+006    4.16518E+005    2.83342E+005    4.19575E+006   -4.04452E+004   -1.48617E+005    5.64491E+005
            6236    3.75028E+006    4.13764E+006    4.13764E+006    4.64201E+005    3.14972E+005    3.82267E+006   -1.63894E+006    3.74359E+006    3.62759E+005    4.29436E+005    4.12462E+006   -7.23919E+004   -5.17802E+004    2.12633E+005
            6237    4.80738E+006    5.54024E+006    5.54024E+006    1.01957E+006    4.90002E+005    5.05024E+006   -2.34994E+006    4.74109E+006    1.02675E+006    5.81599E+005    5.44147E+006   -3.21203E+004   -1.78636E+005    6.73027E+005
            6238    4.56692E+006    5.56452E+006    5.56452E+006    1.10485E+006    8.97430E+005    4.66709E+006   -2.52227E+006    4.55630E+006    1.07683E+006    9.42087E+005    5.54789E+006   -7.63544E+004   -6.99113E+004    2.66859E+005
            6239    6.09995E+006    7.33095E+006    7.33095E+006    1.83764E+006    7.66306E+005    6.56464E+006   -3.31163E+006    5.88267E+006    1.84717E+006    8.62698E+005    7.22503E+006    1.25313E+004   -2.51473E+005    7.81942E+005
            6240    5.53027E+006    7.20431E+006    7.20431E+006    1.88524E+006    1.48462E+006    5.71969E+006   -3.52472E+006    5.49748E+006    1.87845E+006    1.50954E+006    7.18618E+006   -6.26209E+004   -9.11925E+004    3.06040E+005
            6241    6.70736E+006    9.06287E+006    9.06287E+006    2.74403E+006    2.02494E+006    7.03794E+006   -4.61061E+006    6.61981E+006    2.74454E+006    2.03620E+006    9.05110E+006   -3.34363E+004   -1.03113E+005    2.65677E+005
            6242    8.39528E+006    1.15060E+007    1.15060E+007    3.81960E+006    2.54710E+006    8.95888E+006   -5.95756E+006    8.17408E+006    3.82112E+006    2.55241E+006    1.14991E+007   -7.59892E+003   -1.08679E+005    2.17676E+005
            6243    7.50068E+006    9.40117E+006    9.40117E+006    2.79927E+006    1.24517E+006    8.15599E+006   -4.48187E+006    7.12481E+006    2.80865E+006    1.33630E+006    9.30066E+006    4.64962E+004   -3.01937E+005    8.38204E+005
            6244    8.90698E+006    1.18418E+007    1.18418E+007    3.99850E+006    2.15857E+006    9.68325E+006   -5.99963E+006    8.46341E+006    4.00669E+006    2.24880E+006    1.17434E+007    5.59085E+004   -3.15344E+005    9.09061E+005
            6245    1.05903E+007    1.23410E+007    1.23410E+007    3.95074E+006    4.41470E+005    1.18995E+007   -5.57773E+006    9.13776E+006    3.95685E+006    7.28197E+005    1.20481E+007    1.53012E+005   -4.33021E+005    1.77996E+006
            6246    9.65815E+006    1.02312E+007    1.02312E+007    2.81173E+006   -6.89200E+005    1.09204E+007   -4.11791E+006    8.03213E+006    2.81779E+006   -5.41738E+005    1.00777E+007    1.70116E+005   -3.97205E+005    1.20245E+006
            6247    6.91497E+006    6.24260E+006    6.24260E+006    1.14328E+006   -1.62820E+006    7.87080E+006   -1.91923E+006    5.43627E+006    1.14407E+006   -1.61716E+006    6.23076E+006   -1.37742E+005    2.06292E+005    1.71159E+005
            6248    6.00370E+006    4.96856E+006    4.96856E+006    7.03349E+005   -1.89696E+006    6.86551E+006   -1.25832E+006    4.44304E+006    7.03222E+005   -1.84080E+006    4.91253E+006   -1.57875E+005    1.69259E+005   -5.72942E+005
            6249    5.05535E+006    4.19228E+006    4.19228E+006    6.03945E+005   -1.58930E+006    5.78158E+006   -1.06898E+006    3.73546E+006    6.03394E+005   -1.38923E+006    3.99277E+006   -1.62228E+005    1.38701E+005   -1.03405E+006
            6250    4.11333E+006    3.56549E+006    3.56549E+006    5.96361E+005   -1.12964E+006    4.69513E+006   -1.01074E+006    3.12744E+006    5.95775E+005   -7.13789E+005    3.15023E+006   -1.51744E+005    1.03954E+005   -1.32068E+006
            6251    3.56313E+006    3.66611E+006    3.66611E+006    7.87112E+005   -3.18862E+005    3.98497E+006   -1.37812E+006    3.14065E+006    7.89240E+005   -2.24721E+005    3.56984E+006   -7.81160E+004    1.13967E+005   -5.94237E+005
            6252    3.97296E+006    4.36522E+006    4.36522E+006    1.05671E+006   -4.12513E+004    4.40647E+006   -1.79356E+006    3.60722E+006    1.06158E+006   -3.42647E+004    4.35337E+006   -3.31033E+004    1.34607E+005   -1.66023E+005
            6253    4.09903E+006    4.04163E+006    4.04163E+006    7.37155E+005   -5.45304E+005    4.58693E+006   -1.41116E+006    3.60441E+006    7.38966E+005   -5.23703E+005    4.01821E+006   -8.78192E+004    1.43534E+005   -2.76129E+005
            6254    4.28507E+006    4.55224E+006    4.55224E+006    9.31841E+005   -1.78811E+005    4.73105E+006   -1.76842E+006    3.94125E+006    9.38728E+005   -1.77417E+005    4.54396E+006   -3.56425E+004    1.71293E+005    2.93033E+004
            6255    4.75294E+006    4.55740E+006    4.55740E+006    7.16773E+005   -7.58148E+005    5.31555E+006   -1.50534E+006    4.18968E+006    7.17863E+005   -7.32740E+005    4.53090E+006   -8.47835E+004    1.71954E+005    3.19081E+005
            6256    4.11945E+006    4.30853E+006    4.30853E+006    6.77646E+005   -1.68181E+005    4.47671E+006   -1.60600E+006    3.91687E+006    6.85489E+005   -1.45862E+005    4.27837E+006   -2.81599E+004    1.91038E+005    3.00610E+005
            6257    4.89469E+006    5.02000E+006    5.02000E+006    8.49408E+005   -3.68720E+005    5.38872E+006   -1.83356E+006    4.53446E+006    8.51308E+005   -2.27895E+005    4.87728E+006   -5.04294E+004    1.80817E+005    8.43473E+005
            6258    3.65305E+006    3.78146E+006    3.78146E+006    3.45750E+005   -5.57631E+004    3.83722E+006   -1.35715E+006    3.60291E+006    3.52486E+005   -1.12805E+004    3.73024E+006   -1.19131E+004    1.78634E+005    3.99318E+005
            6259    3.20831E+006    3.21583E+006    3.21583E+006    1.98069E+004   -4.63873E+003    3.22047E+006   -1.07700E+006    3.20810E+006    4.66687E+003    5.48293E+004    3.17150E+006    5.50088E+003    1.31137E+005    3.50762E+005
            6260    2.81768E+006    2.77027E+006    2.77027E+006    1.56941E+005   -2.14857E+005    2.98512E+006   -9.04118E+005    2.76169E+006   -2.13168E+005    1.64978E+005    2.76054E+006    2.05680E+004    4.91777E+004    1.52054E+005
            6261    4.57273E+006    5.03855E+006    5.03855E+006    8.44601E+005    1.63454E+005    4.87510E+006   -2.01554E+006    4.45645E+006    8.48396E+005    2.97489E+005    4.90072E+006    1.45760E+002    1.40406E+005    7.94448E+005
            6262    4.07849E+006    4.76402E+006    4.76402E+006    7.67983E+005    6.07786E+005    4.15623E+006   -2.04660E+006    4.07140E+006    7.58161E+005    6.41415E+005    4.74021E+006    4.39510E+004    5.33175E+004    3.07973E+005
            6263    5.01241E+006    6.43637E+006    6.43637E+006    1.63197E+006    1.23907E+006    5.19730E+006   -3.10247E+006    4.97759E+006    1.63005E+006    1.26320E+006    6.41417E+006    3.71832E+004    6.28809E+004    3.32084E+005
            6264    6.24078E+006    8.40931E+006    8.40931E+006    2.58354E+006    1.82319E+006    6.58612E+006   -4.27201E+006    6.13528E+006    2.58412E+006    1.83096E+006    8.40096E+006    1.74015E+004    7.09584E+004    2.21656E+005
            6265    7.95889E+006    1.09053E+007    1.09053E+007    3.70769E+006    2.35776E+006    8.54752E+006   -5.65691E+006    7.69497E+006    3.70845E+006    2.36760E+006    1.08947E+007   -9.53271E+002    7.47532E+004    2.89779E+005
            6266    9.73301E+006    1.35128E+007    1.35128E+007    4.89619E+006    2.95578E+006    1.05570E+007   -7.12160E+006    9.28273E+006    4.89669E+006    2.96051E+006    1.35076E+007   -1.39844E+004    7.34771E+004    2.20554E+005
            6267    5.75423E+006    6.75880E+006    6.75880E+006    1.67212E+006    5.13377E+005    6.24542E+006   -2.98143E+006    5.48244E+006    1.67598E+006    6.06887E+005    6.66142E+006   -1.98544E+004    1.66895E+005    7.52523E+005
            6268    7.27510E+006    9.07557E+006    9.07557E+006    2.75058E+006    1.12528E+006    7.95029E+006   -4.31714E+006    6.84851E+006    2.75440E+006    1.22560E+006    8.97142E+006   -2.71463E+004    1.85921E+005    8.80912E+005
            6269    8.44975E+006    1.12592E+007    1.12592E+007    3.88329E+006    2.03989E+006    9.21927E+006   -5.72745E+006    7.97830E+006    3.88662E+006    2.13308E+006    1.11626E+007   -3.33666E+004    1.92801E+005    9.14526E+005
            6270    9.90129E+006    1.37468E+007    1.37468E+007    5.11409E+006    2.93875E+006    1.08081E+007   -7.26656E+006    9.34066E+006    5.11736E+006    3.00619E+006    1.36761E+007   -3.23926E+004    1.96083E+005    8.44286E+005
            6271    1.11368E+007    1.43840E+007    1.43840E+007    5.27858E+006    1.96698E+006    1.24170E+007   -7.20985E+006    9.93509E+006    5.28060E+006    2.36327E+006    1.39857E+007   -9.35180E+004    2.97106E+005    2.16432E+006
            6272    1.04436E+007    1.20458E+007    1.20458E+007    3.85338E+006    2.85937E+005    1.17599E+007   -5.39505E+006    8.90939E+006    3.85551E+006    5.52893E+005    1.17768E+007   -1.09773E+005    2.83416E+005    1.72991E+006
            6273    9.35249E+006    9.90633E+006    9.90633E+006    2.74784E+006   -6.75491E+005    1.05818E+007   -3.99289E+006    7.74182E+006    2.75014E+006   -5.04694E+005    9.73323E+006   -1.13104E+005    2.61904E+005    1.30876E+006
            6274    8.05682E+006    8.01406E+006    8.01406E+006    1.90185E+006   -1.11601E+006    9.13007E+006   -2.93330E+006    6.59220E+006    1.90417E+006   -1.04568E+006    7.94141E+006   -1.15416E+005    2.36319E+005    7.62893E+005
            6275    3.52954E+006    3.89710E+006    3.89710E+006    1.00179E+006   -3.46121E+004    3.93171E+006   -1.62143E+006    3.15901E+006    1.00435E+006   -2.44709E+004    3.88440E+006   -2.91992E+004    9.39971E+004   -1.93556E+005
            6276    3.02026E+006    3.24984E+006    3.24984E+006    7.88989E+005   -1.20711E+005    3.37055E+006   -1.30604E+006    2.68507E+006    7.89797E+005    1.80500E+004    3.11027E+006   -6.36962E+004    7.76901E+004   -6.63498E+005
            6277    3.18208E+006    2.96622E+006    2.96622E+006    5.94155E+005   -6.49959E+005    3.61618E+006   -9.70139E+005    2.54141E+006    5.92442E+005   -1.01301E+005    2.41928E+006   -1.30430E+005    6.79407E+004   -1.28774E+006
            6278    3.05077E+006    3.41562E+006    3.41562E+006    9.19468E+005    1.48402E+004    3.40078E+006   -1.44998E+006    2.72359E+006    9.20144E+005    2.22610E+004    3.40753E+006   -2.48483E+004    5.43379E+004   -1.52622E+005
            6279    2.42644E+006    2.74811E+006    2.74811E+006    7.30102E+005    5.58499E+004    2.69226E+006   -1.17802E+006    2.20042E+006    7.28951E+005    1.36976E+005    2.66814E+006   -5.10487E+004    4.70903E+004   -4.52522E+005
            6280    2.17876E+006    2.27788E+006    2.27788E+006    5.52097E+005   -1.70337E+005    2.44821E+006   -8.86545E+005    1.87949E+006    5.47595E+005    3.19136E+005    1.79290E+006   -1.04701E+005    3.80469E+004   -9.69925E+005
            6281    2.77279E+006    3.11196E+006    3.11196E+006    8.48376E+005    1.91666E+004    3.09279E+006   -1.32650E+006    2.46985E+006    8.47941E+005    2.05773E+004    3.11098E+006   -2.22108E+004    1.77241E+004   -5.06827E+004
            6282    2.06308E+006    2.43882E+006    2.43882E+006    6.88271E+005    1.64262E+005    2.27456E+006   -1.09712E+006    1.90453E+006    6.84792E+005    1.80043E+005    2.42652E+006   -4.46157E+004    1.34616E+004   -1.65610E+005
            6283    1.08858E+006    1.49804E+006    1.49804E+006    5.16501E+005    3.27227E+005    1.17081E+006   -7.80588E+005    1.05060E+006    4.75637E+005    4.90772E+005    1.37536E+006   -8.72389E+004    1.06469E+004   -3.49161E+005
            6284    1.01951E+007    1.41696E+007    1.41696E+007    5.18963E+006    3.08712E+006    1.10824E+007   -7.48210E+006    9.68915E+006    5.19010E+006    3.09237E+006    1.41638E+007    1.60825E+004    7.52377E+004   -2.37798E+005
            6285    1.01731E+007    1.42778E+007    1.42778E+007    5.39773E+006    3.17830E+006    1.10995E+007   -7.61796E+006    9.60541E+006    5.40096E+006    3.24782E+006    1.42051E+007    3.40500E+004    1.99492E+005   -8.68498E+005
            6286    1.12468E+007    1.46940E+007    1.46940E+007    5.46242E+006    2.16785E+006    1.25262E+007   -7.44143E+006    1.00722E+007    5.46438E+006    2.56636E+006    1.42935E+007    9.37504E+004    2.99294E+005   -2.17990E+006
            6287    1.19668E+007    1.66741E+007    1.66741E+007    6.29850E+006    3.58275E+006    1.30913E+007   -8.85177E+006    1.12417E+007    6.29882E+006    3.58494E+006    1.66715E+007    1.80446E+004    6.84351E+004   -1.64443E+005
            6288    1.14761E+007    1.66354E+007    1.66354E+007    6.58873E+006    4.12891E+006    1.25065E+007   -9.11769E+006    1.08589E+007    6.59209E+006    4.16593E+006    1.65951E+007    2.41460E+004    1.98487E+005   -6.74765E+005
            6289    1.11276E+007    1.66295E+007    1.66295E+007    6.96157E+006    4.46596E+006    1.21635E+007   -9.35233E+006    1.04698E+007    6.96416E+006    4.85464E+006    1.62382E+007    6.74739E+004    3.00862E+005   -2.12265E+006
            6290    1.32796E+007    1.84982E+007    1.84982E+007    7.09527E+006    3.91825E+006    1.45800E+007   -9.83724E+006    1.23805E+007    7.09556E+006    3.91882E+006    1.84974E+007    1.08981E+004    6.14087E+004   -8.78007E+004
            6291    1.23813E+007    1.83108E+007    1.83108E+007    7.44127E+006    4.83319E+006    1.34776E+007   -1.01951E+007    1.17391E+007    7.44477E+006    4.84229E+006    1.82981E+007    1.25086E+004    1.98790E+005   -3.47735E+005
            6292    1.04691E+007    1.78178E+007    1.78178E+007    8.16757E+006    6.68750E+006    1.11303E+007   -1.08910E+007    1.02297E+007    8.17294E+006    6.84935E+006    1.76506E+007    3.52540E+004    2.96395E+005   -1.31797E+006
            6293    1.36902E+007    1.90595E+007    1.90595E+007    7.33750E+006    4.01329E+006    1.50462E+007   -1.01368E+007    1.27338E+007    7.33778E+006    4.01332E+006    1.90592E+007   -1.49018E+003    5.80083E+004    1.82306E+004
            6294    1.26861E+007    1.88444E+007    1.88444E+007    7.70388E+006    5.03673E+006    1.38076E+007   -1.05283E+007    1.20308E+007    7.70741E+006    5.03700E+006    1.88406E+007   -2.26786E+003    1.98603E+005    6.01427E+004
            6295    1.00801E+007    1.81759E+007    1.81759E+007    8.62514E+006    7.63892E+006    1.05370E+007   -1.14800E+007    9.97070E+006    8.63418E+006    7.63918E+006    1.81666E+007   -1.77992E+003    2.93760E+005    5.15882E+004
            6296    1.30496E+007    1.81627E+007    1.81627E+007    6.94340E+006    3.84178E+006    1.43210E+007   -9.64931E+006    1.21781E+007    6.94368E+006    3.84260E+006    1.81616E+007   -1.34241E+004    6.20935E+004    1.03791E+005
            6297    1.22774E+007    1.80369E+007    1.80369E+007    7.28072E+006    4.66111E+006    1.33758E+007   -9.99291E+006    1.16234E+007    7.28417E+006    4.67595E+006    1.80186E+007   -1.53649E+004    1.98291E+005    4.42438E+005
            6298    1.04989E+007    1.77312E+007    1.77312E+007    8.08612E+006    6.54813E+006    1.11831E+007   -1.07885E+007    1.02408E+007    8.09123E+006    6.72745E+006    1.75467E+007   -3.70752E+004    2.96090E+005    1.39017E+006
            6299    1.15761E+007    1.61080E+007    1.61080E+007    6.04281E+006    3.45794E+006    1.26501E+007   -8.53625E+006    1.08981E+007    6.04312E+006    3.46073E+006    1.61049E+007   -1.84433E+004    6.86144E+004    1.82849E+005
            6300    1.12471E+007    1.61488E+007    1.61488E+007    6.32071E+006    3.88258E+006    1.22662E+007   -8.78403E+006    1.06279E+007    6.32397E+006    3.92232E+006    1.61058E+007   -2.74521E+004    1.96792E+005    6.91612E+005
            6301    1.11227E+007    1.64364E+007    1.64364E+007    6.81680E+006    4.25695E+006    1.21795E+007   -9.17006E+006    1.04286E+007    6.81925E+006    4.64929E+006    1.60416E+007   -7.02435E+004    3.00284E+005    2.13353E+006
            6302    3.18044E+006    2.96549E+006    2.96549E+006    5.94388E+005   -6.48763E+005    3.61425E+006   -9.70370E+005    2.54049E+006    5.92686E+005   -9.78621E+004    2.41629E+006   -1.30315E+005   -6.77909E+004    1.28954E+006
            6303    3.01825E+006    3.24837E+006    3.24837E+006    7.88974E+005   -1.19874E+005    3.36824E+006   -1.30582E+006    2.68348E+006    7.89780E+005    1.68245E+004    3.11086E+006   -6.32852E+004   -7.74810E+004    6.58491E+005
            6304    3.52211E+006    3.88828E+006    3.88828E+006    9.99763E+005   -3.54104E+004    3.92369E+006   -1.61755E+006    3.15161E+006    1.00229E+006   -2.53850E+004    3.87573E+006   -2.91764E+004   -9.33644E+004    1.92164E+005
            6305    2.16931E+006    2.27043E+006    2.27043E+006    5.50850E+005   -1.66763E+005    2.43719E+006   -8.84839E+005    1.87291E+006    5.46330E+005    3.21149E+005    1.78704E+006   -1.04408E+005   -3.78976E+004    9.65998E+005
            6306    2.43298E+006    2.75367E+006    2.75367E+006    7.31244E+005    5.37435E+004    2.69993E+006   -1.17955E+006    2.20532E+006    7.30106E+005    1.34142E+005    2.67441E+006   -5.09658E+004   -4.71375E+004    4.51191E+005
            6307    3.04699E+006    3.41155E+006    3.41155E+006    9.18620E+005    1.49485E+004    3.39661E+006   -1.44837E+006    2.72008E+006    9.19283E+005    2.23260E+004    3.40351E+006   -2.47838E+004   -5.39650E+004    1.52065E+005
            6308    1.07463E+006    1.48845E+006    1.48845E+006    5.18138E+005    3.33438E+005    1.15501E+006   -7.80007E+005    1.03801E+006    4.75207E+005    4.93786E+005    1.37103E+006   -8.70706E+004   -1.06047E+004    3.39385E+005
            6309    2.06904E+006    2.44419E+006    2.44419E+006    6.89458E+005    1.62685E+005    2.28151E+006   -1.09878E+006    1.90923E+006    6.86011E+005    1.79238E+005    2.43109E+006   -4.46050E+004   -1.35775E+004    1.71212E+005
            6310    2.77234E+006    3.11127E+006    3.11127E+006    8.48135E+005    1.89449E+004    3.09232E+006   -1.32612E+006    2.46936E+006    8.47698E+005    2.03586E+004    3.11029E+006   -2.22347E+004   -1.76664E+004    5.07317E+004
            6311    3.27710E+006    3.29708E+006    3.29708E+006    7.01473E+004   -2.79747E+004    3.32506E+006   -1.11309E+006    3.27379E+006    7.52564E+004    4.21313E+003    3.25979E+006    1.03700E+003    1.59422E+005   -3.11240E+005
            6312    3.70612E+006    3.83743E+006    3.83743E+006    3.85164E+005   -7.88369E+004    3.91627E+006   -1.38125E+006    3.63991E+006    3.93809E+005   -5.49709E+004    3.80492E+006    1.18000E+004    1.87958E+005   -2.94947E+005
            6313    4.04680E+006    4.31040E+006    4.31040E+006    7.13247E+005   -7.11922E+004    4.38159E+006   -1.65082E+006    3.87016E+006    7.22441E+005   -6.19169E+004    4.29193E+006    1.85202E+004    1.91483E+005   -1.90916E+005
            6314    4.20251E+006    4.55501E+006    4.55501E+006    9.60975E+005   -6.57068E+004    4.62072E+006   -1.81676E+006    3.90511E+006    9.68732E+005   -6.47227E+004    4.54627E+006    2.04072E+004    1.72088E+005   -4.82301E+004
            6315    4.03890E+006    4.44550E+006    4.44550E+006    1.07294E+006   -3.04249E+004    4.47592E+006   -1.82934E+006    3.67623E+006    1.07836E+006   -2.88238E+004    4.43847E+006    1.80573E+004    1.37601E+005    7.85199E+004
            6316    4.17006E+006    4.39555E+006    4.39555E+006    5.45229E+005   -3.37452E+004    4.42929E+006   -1.63568E+006    4.07816E+006    5.49747E+005    9.37175E+004    4.26357E+006    9.53251E+000    1.49111E+005   -7.36808E+005
            6317    4.23992E+006    4.37755E+006    4.37755E+006    6.12999E+005   -2.15450E+005    4.59300E+006   -1.59170E+006    4.05178E+006    6.16707E+005   -1.11141E+005    4.26954E+006    2.94589E+004    1.72229E+005   -6.71742E+005
            6318    4.21683E+006    4.33645E+006    4.33645E+006    7.16442E+005   -2.93714E+005    4.63017E+006   -1.58639E+006    3.93053E+006    7.19853E+005   -2.55357E+005    4.29469E+006    5.23304E+004    1.73823E+005   -3.94183E+005
            6319    4.02909E+006    4.20023E+006    4.20023E+006    8.18021E+005   -2.57481E+005    4.45771E+006   -1.58692E+006    3.68482E+006    8.21642E+005   -2.53865E+005    4.19299E+006    6.24574E+004    1.55899E+005    1.10050E+004
            6320    3.69338E+006    3.96022E+006    3.96022E+006    8.94736E+005   -1.40247E+005    4.10046E+006   -1.57157E+006    3.34304E+006    8.97715E+005   -1.17884E+005    3.93487E+006    6.03834E+004    1.26344E+005    2.83988E+005
            6321    5.01783E+006    5.42616E+006    5.42616E+006    1.03124E+006   -4.11816E+004    5.46734E+006   -2.13874E+006    4.74961E+006    1.03345E+006    1.14585E+005    5.26818E+006    3.72250E+004    1.74437E+005   -8.97176E+005
            6322    5.07117E+006    5.08303E+006    5.08303E+006    8.77598E+005   -5.48502E+005    5.63153E+006   -1.80404E+006    4.58645E+006    8.77781E+005   -4.37211E+005    4.97156E+006    7.59850E+004    1.87744E+005   -7.57679E+005
            6323    4.74272E+006    4.55822E+006    4.55822E+006    7.53004E+005   -7.55203E+005    5.31342E+006   -1.51867E+006    4.14938E+006    7.52915E+005   -7.34968E+005    4.53807E+006    9.83021E+004    1.73723E+005   -2.58700E+005
            6324    4.16825E+006    4.07068E+006    4.07068E+006    7.47522E+005   -6.06158E+005    4.67684E+006   -1.40401E+006    3.62178E+006    7.48095E+005   -5.88024E+005    4.05197E+006    1.01248E+005    1.48474E+005    2.32548E+005
            6325    3.62373E+006    3.66357E+006    3.66357E+006    7.71401E+005   -4.01278E+005    4.06485E+006   -1.34456E+006    3.15239E+006    7.72460E+005   -3.17735E+005    3.57897E+006    9.05872E+004    1.16509E+005    5.60180E+005
            6326    6.53103E+006    6.95468E+006    6.95468E+006    1.62351E+006   -3.30248E+005    7.28493E+006   -2.74931E+006    5.81696E+006    1.62686E+006   -2.18628E+005    6.83971E+006    6.43110E+004    2.08250E+005   -8.77876E+005
            6327    6.27201E+006    5.86236E+006    5.86236E+006    1.06115E+006   -1.23392E+006    7.09628E+006   -1.89653E+006    5.19260E+006    1.06273E+006   -1.20233E+006    5.82918E+006    1.04394E+005    1.95698E+005   -4.26103E+005
            6328    5.45576E+006    4.86762E+006    4.86762E+006    7.77441E+005   -1.32695E+006    6.19457E+006   -1.43937E+006    4.39245E+006    7.77733E+005   -1.31577E+006    4.85615E+006    1.22888E+005    1.65464E+005    1.66837E+005
            6329    4.61989E+006    4.13170E+006    4.13170E+006    6.73372E+005   -1.11504E+006    5.24674E+006   -1.23001E+006    3.71167E+006    6.73399E+005   -1.02641E+006    4.04304E+006    1.26143E+005    1.36063E+005    6.50254E+005
            6330    3.78315E+006    3.53061E+006    3.53061E+006    6.53740E+005   -7.54742E+005    4.28536E+006   -1.14320E+006    3.10519E+006    6.53319E+005   -5.18047E+005    3.29434E+006    1.17050E+005    1.00316E+005    9.66138E+005
            6331    4.52808E+006    3.72466E+006    3.72466E+006    5.72896E+005   -1.46416E+006    5.18882E+006   -9.44463E+005    3.22655E+006    5.72797E+005   -9.76071E+005    3.23666E+006    1.62503E+005    1.06679E+005    1.50211E+006
            6332    5.69818E+006    4.53983E+006    4.53983E+006    6.34048E+005   -1.99869E+006    6.53852E+006   -1.05840E+006    3.93587E+006    6.34485E+005   -1.73354E+006    4.27424E+006    1.76885E+005    1.48024E+005    1.26956E+006
            6333    6.88651E+006    5.57292E+006    5.57292E+006    8.36043E+005   -2.32684E+006    7.89976E+006   -1.36071E+006    4.79168E+006    8.36334E+005   -2.24282E+006    5.48861E+006    1.79979E+005    1.83910E+005    7.69270E+005
            6334    7.89696E+006    6.76124E+006    6.76124E+006    1.21588E+006   -2.28030E+006    9.04154E+006   -1.89894E+006    5.72239E+006    1.21642E+006   -2.26908E+006    6.74947E+006    1.73002E+005    2.16742E+005    1.65756E+005
            6335    8.81496E+006    8.45449E+006    8.45449E+006    1.97314E+006   -1.58307E+006    1.00376E+007   -2.94819E+006    6.89942E+006    1.97464E+006   -1.54373E+006    8.41365E+006    1.49352E+005    2.50304E+005   -5.63916E+005
            6336    9.72797E+006    1.03113E+007    1.03113E+007    2.89131E+006   -7.02214E+005    1.10135E+007   -4.16679E+006    8.01638E+006    2.89364E+006   -5.54323E+005    1.01611E+007    1.21271E+005    2.69271E+005   -1.23962E+006
            6337    1.06585E+007    1.24500E+007    1.24500E+007    4.06162E+006    4.56514E+005    1.19935E+007   -5.65605E+006    9.12732E+006    4.06373E+006    7.46244E+005    1.21582E+007    1.09202E+005    2.87805E+005   -1.82024E+006
            6338    8.86744E+006    1.18450E+007    1.18450E+007    4.14617E+006    2.14948E+006    9.69555E+006   -6.04689E+006    8.33885E+006    4.14958E+006    2.24037E+006    1.17507E+007    3.56305E+004    1.98512E+005   -9.26415E+005
            6339    8.29329E+006    1.14785E+007    1.14785E+007    3.99858E+006    2.56005E+006    8.91845E+006   -6.01238E+006    8.00535E+006    3.99933E+006    2.56643E+006    1.14714E+007    5.56963E+003    7.69489E+004   -2.37673E+005
            6340    7.47367E+006    9.41584E+006    9.41584E+006    2.93649E+006    1.23964E+006    8.17620E+006   -4.53066E+006    7.02036E+006    2.94006E+006    1.33422E+006    9.31770E+006    3.69418E+004    1.93873E+005   -8.64950E+005
            6341    6.63057E+006    9.05839E+006    9.05839E+006    2.90698E+006    2.03496E+006    7.02343E+006   -4.66678E+006    6.49969E+006    2.90781E+006    2.04650E+006    9.04602E+006   -1.19944E+004    7.52331E+004   -2.83270E+005
            6342    5.47624E+006    7.21794E+006    7.21794E+006    2.02009E+006    1.50037E+006    5.71757E+006   -3.57947E+006    5.42033E+006    2.01943E+006    1.51972E+006    7.19925E+006   -3.16538E+004    6.46041E+004   -3.18841E+005
            6343    4.50997E+006    5.56018E+006    5.56018E+006    1.18613E+006    9.25583E+005    4.63460E+006   -2.55730E+006    4.49299E+006    1.18013E+006    9.48383E+005    5.54338E+006   -4.34822E+004    4.53917E+004   -2.73957E+005
            6344    3.69756E+006    4.11859E+006    4.11859E+006    4.60081E+005    3.83177E+005    3.73541E+006   -1.65395E+006    3.69576E+006    4.27219E+005    4.29792E+005    4.10484E+006   -4.04425E+004    3.77183E+004   -2.21628E+005
            6345    2.70058E+006    2.55661E+006    2.55661E+006    9.39245E+004   -3.31391E+005    2.88800E+006   -7.73047E+005    2.62364E+006   -3.30173E+005    9.61158E+004    2.55320E+006   -1.86130E+004    3.78719E+004   -8.44073E+004
            6346    6.07321E+006    7.34544E+006    7.34544E+006    1.95974E+006    7.62924E+005    6.58252E+006   -3.35603E+006    5.79892E+006    1.96368E+006    8.65332E+005    7.23909E+006    1.41835E+004    1.66246E+005   -8.10301E+005
            6347    4.79671E+006    5.56625E+006    5.56625E+006    1.11788E+006    4.84182E+005    5.08206E+006   -2.38944E+006    4.70115E+006    1.12133E+006    5.83185E+005    5.46379E+006   -8.95252E+003    1.25945E+005   -7.01704E+005
            6348    3.95279E+006    4.29085E+006    4.29085E+006    4.82704E+005    2.07765E+005    4.08308E+006   -1.66044E+006    3.93119E+006    4.85296E+005    2.93493E+005    4.20253E+006   -2.53520E+004    1.03614E+005   -5.83907E+005
            6349    2.91491E+006    2.83629E+006    2.83629E+006    4.24164E+004   -1.86186E+005    3.02248E+006   -8.97507E+005    2.89464E+006   -1.82312E+005    6.14956E+004    2.81334E+006   -1.03003E+004    1.07550E+005   -2.29978E+005
            6350    3.65164E+006    3.78012E+006    3.78012E+006    3.45034E+005   -5.51222E+004    3.83524E+006   -1.35668E+006    3.60182E+006    3.51762E+005   -1.05330E+004    3.72880E+006   -1.18305E+004   -1.78522E+005   -3.99723E+005
            6351    4.12342E+006    4.31272E+006    4.31272E+006    6.79962E+005   -1.69170E+005    4.48189E+006   -1.60784E+006    3.91940E+006    6.87806E+005   -1.47121E+005    4.28282E+006   -2.81974E+004   -1.90951E+005   -2.98891E+005
            6352    4.28203E+006    4.55218E+006    4.55218E+006    9.36146E+005   -1.76292E+005    4.72847E+006   -1.77068E+006    3.93675E+006    9.42987E+005   -1.75000E+005    4.54404E+006   -3.56242E+004   -1.70419E+005   -2.17930E+004
            6353    3.95965E+006    4.35424E+006    4.35424E+006    1.05744E+006   -3.77166E+004    4.39196E+006   -1.79132E+006    3.59451E+006    1.06224E+006   -3.05019E+004    4.34223E+006   -3.30083E+004   -1.33472E+005    1.68811E+005
            6354    4.89241E+006    5.01566E+006    5.01566E+006    8.47619E+005   -3.70815E+005    5.38648E+006   -1.83082E+006    4.53179E+006    8.49514E+005   -2.30572E+005    4.87352E+006   -5.05273E+004   -1.80723E+005   -8.41524E+005
            6355    4.74077E+006    4.54648E+006    4.54648E+006    7.14801E+005   -7.55148E+005    5.30163E+006   -1.50204E+006    4.17997E+006    7.15880E+005   -7.30310E+005    4.52056E+006   -8.48252E+004   -1.71619E+005   -3.13886E+005
            6356    4.08652E+006    4.03189E+006    4.03189E+006    7.36652E+005   -5.40750E+005    4.57264E+006   -1.40926E+006    3.59438E+006    7.38476E+005   -5.18348E+005    4.00766E+006   -8.76090E+004   -1.42993E+005    2.82449E+005
            6357    3.55231E+006    3.66256E+006    3.66256E+006    7.90186E+005   -3.09566E+005    3.97213E+006   -1.38106E+006    3.13352E+006    7.92323E+005   -2.14860E+005    3.56571E+006   -7.75693E+004   -1.13479E+005    5.95194E+005
            6358    4.11517E+006    3.56473E+006    3.56473E+006    5.95257E+005   -1.13269E+006    4.69742E+006   -1.00910E+006    3.12715E+006    5.94683E+005   -7.15479E+005    3.14810E+006   -1.51783E+005   -1.03912E+005    1.32304E+006
            6359    5.06375E+006    4.19396E+006    4.19396E+006    6.01534E+005   -1.59755E+006    5.79151E+006   -1.06598E+006    3.73821E+006    6.00989E+005   -1.39676E+006    3.99371E+006   -1.62315E+005   -1.38657E+005    1.03689E+006
            6360    6.00750E+006    4.97011E+006    4.97011E+006    7.02635E+005   -1.89982E+006    6.86994E+006   -1.25764E+006    4.44506E+006    7.02513E+005   -1.84379E+006    4.91420E+006   -1.57872E+005   -1.69340E+005    5.72431E+005
            6361    6.90802E+006    6.23538E+006    6.23538E+006    1.14041E+006   -1.62733E+006    7.86271E+006   -1.91615E+006    5.43205E+006    1.14120E+006   -1.61633E+006    6.22359E+006   -1.37759E+005   -2.06225E+005   -1.69964E+005
            6362    8.05035E+006    8.00084E+006    8.00084E+006    1.89656E+006   -1.12267E+006    9.12351E+006   -2.92491E+006    6.58256E+006    1.89887E+006   -1.05302E+006    7.92889E+006   -1.15683E+005   -2.36114E+005   -7.58509E+005
            6363    9.36345E+006    9.91442E+006    9.91442E+006    2.75017E+006   -6.80501E+005    1.05949E+007   -3.99470E+006    7.74723E+006    2.75246E+006   -5.09759E+005    9.74138E+006   -1.13397E+005   -2.62081E+005   -1.30932E+006
            6364    1.04551E+007    1.20671E+007    1.20671E+007    3.86418E+006    2.94740E+005    1.17723E+007   -5.40867E+006    8.92103E+006    3.86630E+006    5.63364E+005    1.17963E+007   -1.09717E+005   -2.83634E+005   -1.73624E+006
            6365    1.11375E+007    1.43826E+007    1.43826E+007    5.27684E+006    1.96472E+006    1.24179E+007   -7.20804E+006    9.93545E+006    5.27887E+006    2.35900E+006    1.39863E+007   -9.35499E+004   -2.96927E+005   -2.15904E+006
            6366    9.90029E+006    1.37428E+007    1.37428E+007    5.11182E+006    2.93538E+006    1.08074E+007   -7.26334E+006    9.33900E+006    5.11509E+006    3.00365E+006    1.36713E+007   -3.25340E+004   -1.96400E+005   -8.49465E+005
            6367    9.71574E+006    1.34874E+007    1.34874E+007    4.88489E+006    2.94977E+006    1.05377E+007   -7.10737E+006    9.26716E+006    4.88540E+006    2.95455E+006    1.34822E+007   -1.39905E+004   -7.41942E+004   -2.21478E+005
            6368    8.45762E+006    1.12518E+007    1.12518E+007    3.87507E+006    2.02101E+006    9.23084E+006   -5.71598E+006    7.98094E+006    3.87839E+006    2.11478E+006    1.11548E+007   -3.38237E+004   -1.93133E+005   -9.17860E+005
            6369    7.96351E+006    1.09161E+007    1.09161E+007    3.71426E+006    2.36362E+006    8.55246E+006   -5.66465E+006    7.69947E+006    3.71504E+006    2.37365E+006    1.09053E+007   -9.93957E+002   -7.52456E+004   -2.92613E+005
            6370    7.27670E+006    9.07215E+006    9.07215E+006    2.74829E+006    1.11888E+006    7.95327E+006   -4.31311E+006    6.84795E+006    2.75212E+006    1.21865E+006    8.96855E+006   -2.74594E+004   -1.86197E+005   -8.78603E+005
            6371    6.27056E+006    8.45212E+006    8.45212E+006    2.60286E+006    1.83161E+006    6.62052E+006   -4.29553E+006    6.16250E+006    2.60347E+006    1.83960E+006    8.44352E+006    1.71226E+004   -7.13038E+004   -2.25910E+005
            6372    5.75846E+006    6.76367E+006    6.76367E+006    1.67442E+006    5.13035E+005    6.25063E+006   -2.98371E+006    5.48560E+006    1.67828E+006    6.06892E+005    6.66595E+006   -1.99674E+004   -1.67096E+005   -7.54201E+005
            6373    5.02680E+006    6.45978E+006    6.45978E+006    1.64366E+006    1.24593E+006    5.21385E+006   -3.11646E+006    4.99122E+006    1.64181E+006    1.26972E+006    6.43784E+006    3.69366E+004   -6.29283E+004   -3.30582E+005
            6374    4.08605E+006    4.77670E+006    4.77670E+006    7.74488E+005    6.11678E+005    4.16502E+006   -2.05429E+006    4.07874E+006    7.64860E+005    6.45118E+005    4.75289E+006    4.39381E+004   -5.32359E+004   -3.08367E+005
            6375    2.81999E+006    2.77464E+006    2.77464E+006    1.58249E+005   -2.12305E+005    2.98695E+006   -9.06862E+005    2.76442E+006   -2.10608E+005    1.66017E+005    2.76518E+006    2.07095E+004   -4.87371E+004   -1.50035E+005
            6376    4.57371E+006    5.04090E+006    5.04090E+006    8.46226E+005    1.64655E+005    4.87624E+006   -2.01726E+006    4.45730E+006    8.50018E+005    2.98741E+005    4.90302E+006    1.45677E+002   -1.40349E+005   -7.94697E+005
            6377    3.20531E+006    3.21311E+006    3.21311E+006    2.08255E+004   -5.08543E+003    3.21819E+006   -1.07628E+006    3.20508E+006    3.70411E+003    5.60248E+004    3.16912E+006    5.57218E+003   -1.30652E+005   -3.49179E+005
            6378    3.38904E+006    3.00031E+006    3.00031E+006    5.56987E+005   -8.68660E+005    3.86896E+006   -8.96211E+005    2.57158E+006    5.56585E+005   -2.02051E+005    2.33410E+006    1.36757E+005    7.06188E+004    1.45269E+006
            6379    2.97021E+006    2.96176E+006    2.96176E+006    6.38735E+005   -3.84883E+005    3.34665E+006   -1.07187E+006    2.52500E+006    6.37679E+005   -6.12211E+004    2.63916E+006    9.95450E+004    7.07988E+004    9.80506E+005
            6380    3.03130E+006    3.21009E+006    3.21009E+006    7.65418E+005   -1.81691E+005    3.39178E+006   -1.26461E+006    2.66662E+006    7.65672E+005   -4.82001E+004    3.07634E+006    7.40717E+004    8.15129E+004    6.50697E+005
            6381    3.28054E+006    3.59200E+006    3.59200E+006    8.90907E+005   -5.85485E+004    3.65055E+006   -1.47479E+006    2.94682E+006    8.92170E+005   -1.74893E+004    3.54968E+006    5.39107E+004    8.98081E+004    3.74955E+005
            6382    3.62664E+006    4.03097E+006    4.03097E+006    1.04408E+006   -4.40120E+003    4.03537E+006   -1.69022E+006    3.25858E+006    1.04711E+006   -7.28445E+002    4.02428E+006    1.40843E+004    9.64392E+004    1.19637E+005
            6383    2.20742E+006    2.21213E+006    2.21213E+006    5.11599E+005   -2.82472E+005    2.49460E+006   -8.13752E+005    1.84231E+006    5.08307E+005    3.24488E+005    1.60846E+006    1.07420E+005    3.51766E+004    1.06270E+006
            6384    2.12996E+006    2.35078E+006    2.35078E+006    5.96785E+005   -1.93096E+004    2.37009E+006   -9.76086E+005    1.91355E+006    5.91835E+005    2.33420E+005    2.10300E+006    8.28662E+004    3.79997E+004    7.20663E+005
            6385    2.43065E+006    2.71903E+006    2.71903E+006    7.15888E+005    1.49243E+004    2.70410E+006   -1.14995E+006    2.18530E+006    7.13980E+005    1.10990E+005    2.62487E+006    5.91425E+004    4.65467E+004    4.91159E+005
            6386    2.81098E+006    3.14630E+006    3.14630E+006    8.29591E+005    1.91243E+004    3.12718E+006   -1.33167E+006    2.52738E+006    8.28842E+005    4.92696E+004    3.11691E+006    4.66906E+004    5.24053E+004    2.94484E+005
            6387    3.18238E+006    3.55441E+006    3.55441E+006    9.51857E+005    6.45472E+003    3.54796E+006   -1.50424E+006    2.83969E+006    9.52964E+005    9.33674E+003    3.55042E+006    1.16663E+004    5.59133E+004    9.91531E+004
            6388    9.55170E+005    1.34604E+006    1.34604E+006    4.83179E+005    3.19665E+005    1.02637E+006   -7.16294E+005    9.22890E+005    4.40259E+005    5.65560E+005    1.14306E+006    8.84206E+004    1.18111E+004    3.94507E+005
            6389    1.44147E+006    1.84935E+006    1.84935E+006    5.66246E+005    2.89610E+005    1.55974E+006   -9.01736E+005    1.37984E+006    5.48763E+005    3.51825E+005    1.80462E+006    7.16822E+004    1.41228E+004    2.57253E+005
            6390    2.01902E+006    2.38653E+006    2.38653E+006    6.77351E+005    1.58813E+005    2.22772E+006   -1.07423E+006    1.86015E+006    6.72998E+005    1.78076E+005    2.37162E+006    4.98486E+004    1.51664E+004    1.80150E+005
            6391    2.51188E+006    2.85949E+006    2.85949E+006    7.79860E+005    6.87011E+004    2.79079E+006   -1.23602E+006    2.26826E+006    7.77678E+005    7.54208E+004    2.85495E+006    4.15359E+004    1.71333E+004    1.10278E+005
            6392    2.88963E+006    3.24069E+006    3.24069E+006    8.80989E+005    1.78504E+004    3.22284E+006   -1.37984E+006    2.57473E+006    8.81025E+005    1.83925E+004    3.24011E+006    9.85561E+003    1.83245E+004    3.74152E+004
            6393    1.12496E+007    1.46842E+007    1.46842E+007    5.45397E+006    2.15350E+006    1.25307E+007   -7.43054E+006    1.00708E+007    5.45593E+006    2.55234E+006    1.42833E+007    9.38769E+004   -2.99383E+005    2.18119E+006
            6394    1.01847E+007    1.43068E+007    1.43068E+007    5.41388E+006    3.19597E+006    1.11109E+007   -7.63889E+006    9.61853E+006    5.41712E+006    3.26357E+006    1.42360E+007    3.37425E+004   -1.99064E+005    8.56946E+005
            6395    1.02344E+007    1.42258E+007    1.42258E+007    5.21456E+006    3.09890E+006    1.11269E+007   -7.51309E+006    9.72398E+006    5.21503E+006    3.10418E+006    1.42201E+007    1.62070E+004   -7.51392E+004    2.38679E+005
            6396    1.11220E+007    1.66301E+007    1.66301E+007    6.96491E+006    4.47372E+006    1.21564E+007   -9.35624E+006    1.04663E+007    6.96751E+006    4.86314E+006    1.62381E+007    6.72509E+004   -3.01007E+005    2.12399E+006
            6397    1.14925E+007    1.66531E+007    1.66531E+007    6.59432E+006    4.12751E+006    1.25256E+007   -9.12499E+006    1.08727E+007    6.59768E+006    4.16380E+006    1.66135E+007    2.41417E+004   -1.98476E+005    6.68561E+005
            6398    1.19981E+007    1.67187E+007    1.67187E+007    6.31823E+006    3.59207E+006    1.31267E+007   -8.87634E+006    1.12693E+007    6.31855E+006    3.59416E+006    1.67163E+007    1.78761E+004   -6.83651E+004    1.60432E+005
            6399    1.04628E+007    1.78318E+007    1.78318E+007    8.18126E+006    6.71200E+006    1.11198E+007   -1.09084E+007    1.02269E+007    8.18666E+006    6.87242E+006    1.76660E+007    3.50147E+004   -2.96754E+005    1.31152E+006
            6400    1.23901E+007    1.83170E+007    1.83170E+007    7.44209E+006    4.82869E+006    1.34883E+007   -1.01959E+007    1.17457E+007    7.44560E+006    4.83785E+006    1.83043E+007    1.26244E+004   -1.99185E+005    3.48969E+005
            6401    1.32934E+007    1.85154E+007    1.85154E+007    7.10214E+006    3.91969E+006    1.45957E+007   -9.84575E+006    1.23920E+007    7.10243E+006    3.92025E+006    1.85146E+007    1.07612E+004   -6.13677E+004    8.72260E+004
            6402    1.00693E+007    1.81622E+007    1.81622E+007    8.62031E+006    7.63753E+006    1.05246E+007   -1.14733E+007    9.96052E+006    8.62935E+006    7.63804E+006    1.81526E+007   -2.44291E+003   -2.93879E+005   -7.17313E+004
            6403    1.26833E+007    1.88381E+007    1.88381E+007    7.70056E+006    5.03334E+006    1.38048E+007   -1.05240E+007    1.20277E+007    7.70410E+006    5.03357E+006    1.88343E+007   -2.27862E+003   -1.98751E+005   -5.60894E+004
            6404    1.36877E+007    1.90550E+007    1.90550E+007    7.33511E+006    4.01148E+006    1.50435E+007   -1.01338E+007    1.27315E+007    7.33539E+006    4.01151E+006    1.90546E+007   -1.68641E+003   -5.80227E+004   -1.89935E+004
            6405    1.05122E+007    1.77224E+007    1.77224E+007    8.07334E+006    6.52005E+006    1.12024E+007   -1.07719E+007    1.02492E+007    8.07838E+006    6.70500E+006    1.75325E+007   -3.75608E+004   -2.96271E+005   -1.41287E+006
            6406    1.22643E+007    1.80292E+007    1.80292E+007    7.28100E+006    4.66951E+006    1.33597E+007   -9.99323E+006    1.16137E+007    7.28447E+006    4.68412E+006    1.80111E+007   -1.51965E+004   -1.98569E+005   -4.38746E+005
            6407    1.30297E+007    1.81336E+007    1.81336E+007    6.93003E+006    3.83514E+006    1.42985E+007   -9.63292E+006    1.21607E+007    6.93031E+006    3.83596E+006    1.81325E+007   -1.34757E+004   -6.19389E+004   -1.04350E+005
            6408    1.11288E+007    1.64165E+007    1.64165E+007    6.79876E+006    4.22692E+006    1.21896E+007   -9.14740E+006    1.04283E+007    6.80120E+006    4.61931E+006    1.60217E+007   -7.04437E+004   -3.00121E+005   -2.13464E+006
            6409    1.12413E+007    1.61529E+007    1.61529E+007    6.32697E+006    3.89441E+006    1.22585E+007   -8.79142E+006    1.06247E+007    6.33024E+006    3.93535E+006    1.61087E+007   -2.73532E+004   -1.97229E+005   -7.01757E+005
            6410    1.15504E+007    1.60681E+007    1.60681E+007    6.02405E+006    3.44673E+006    1.26213E+007   -8.51295E+006    1.08748E+007    6.02437E+006    3.44957E+006    1.60649E+007   -1.85081E+004   -6.87102E+004   -1.84085E+005
            6411    3.63333E+006    4.03709E+006    4.03709E+006    1.04521E+006   -5.91869E+003    4.04301E+006   -1.69213E+006    3.26405E+006    1.04825E+006   -2.26724E+003    4.03041E+006    1.41600E+004   -9.67799E+004   -1.19367E+005
            6412    3.28029E+006    3.59128E+006    3.59128E+006    8.90617E+005   -5.90813E+004    3.65036E+006   -1.47427E+006    2.94635E+006    8.91880E+005   -1.76525E+004    3.54859E+006    5.40356E+004   -8.98373E+004   -3.76667E+005
            6413    3.02909E+006    3.20534E+006    3.20534E+006    7.63386E+005   -1.84295E+005    3.38963E+006   -1.26148E+006    2.66360E+006    7.63614E+005   -4.90986E+004    3.06991E+006    7.43068E+004   -8.12269E+004   -6.54518E+005
            6414    2.96682E+006    2.95579E+006    2.95579E+006    6.36495E+005   -3.87362E+005    3.34315E+006   -1.06831E+006    2.52072E+006    6.35448E+005   -5.89503E+004    2.62842E+006    9.98784E+004   -7.06847E+004   -9.86417E+005
            6415    3.38833E+006    2.99891E+006    2.99891E+006    5.56506E+005   -8.69324E+005    3.86824E+006   -8.95365E+005    2.57034E+006    5.56104E+005   -2.00654E+005    2.33064E+006    1.36887E+005   -7.05406E+004   -1.45431E+006
            6416    3.18371E+006    3.55741E+006    3.55741E+006    9.53271E+005    8.14132E+003    3.54926E+006   -1.50627E+006    2.84142E+006    9.54386E+005    1.09853E+004    3.55345E+006    1.14031E+004   -5.60057E+004   -9.85860E+004
            6417    2.81621E+006    3.15231E+006    3.15231E+006    8.31384E+005    1.92888E+004    3.13302E+006   -1.33433E+006    2.53198E+006    8.30670E+005    4.90047E+004    3.12331E+006    4.63628E+004   -5.25340E+004   -2.92697E+005
            6418    2.43302E+006    2.72196E+006    2.72196E+006    7.16795E+005    1.52323E+004    2.70672E+006   -1.15133E+006    2.18750E+006    7.14895E+005    1.11431E+005    2.62766E+006    5.91593E+004   -4.66342E+004   -4.91756E+005
            6419    2.12385E+006    2.34262E+006    2.34262E+006    5.94176E+005   -2.08878E+004    2.36350E+006   -9.71968E+005    1.90751E+006    5.89167E+005    2.34742E+005    2.09199E+006    8.32375E+004   -3.77782E+004   -7.23171E+005
            6420    2.21071E+006    2.21036E+006    2.21036E+006    5.09376E+005   -2.88530E+005    2.49889E+006   -8.10403E+005    1.84222E+006    5.06112E+005    3.23992E+005    1.60111E+006    1.07609E+005   -3.49865E+004   -1.06728E+006
            6421    2.89202E+006    3.24139E+006    3.24139E+006    8.80392E+005    1.56386E+004    3.22575E+006   -1.37914E+006    2.57614E+006    8.80432E+005    1.61839E+004    3.24080E+006    9.80444E+003   -1.84724E+004   -3.76248E+004
            6422    2.51572E+006    2.86293E+006    2.86293E+006    7.80579E+005    6.76962E+004    2.79524E+006   -1.23707E+006    2.27126E+006    7.78416E+005    7.43936E+004    2.85840E+006    4.14228E+004   -1.71882E+004   -1.10323E+005
            6423    2.01799E+006    2.38576E+006    2.38576E+006    6.77230E+005    1.59290E+005    2.22647E+006   -1.07409E+006    1.85941E+006    6.72880E+005    1.78372E+005    2.37103E+006    4.97869E+004   -1.51066E+004   -1.79015E+005
            6424    1.43681E+006    1.84814E+006    1.84814E+006    5.67661E+005    2.94291E+005    1.55385E+006   -9.03366E+005    1.37646E+006    5.50014E+005    3.55829E+005    1.80425E+006    7.14887E+004   -1.41051E+004   -2.54365E+005
            6425    9.59238E+005    1.35150E+006    1.35150E+006    4.85024E+005    3.20731E+005    1.03077E+006   -7.19087E+005    9.26788E+005    4.42391E+005    5.67096E+005    1.14777E+006    8.85563E+004   -1.18835E+004   -3.96248E+005
            6426    8.80790E+006    8.45088E+006    8.45088E+006    1.97332E+006   -1.57833E+006    1.00292E+007   -2.94863E+006    6.89615E+006    1.97483E+006   -1.53938E+006    8.41043E+006    1.49316E+005   -2.50251E+005    5.60251E+005
            6427    7.89404E+006    6.75770E+006    6.75770E+006    1.21529E+006   -2.28065E+006    9.03835E+006   -1.89745E+006    5.71853E+006    1.21582E+006   -2.26939E+006    6.74591E+006    1.73099E+005   -2.16560E+005   -1.66503E+005
            6428    6.86679E+006    5.55879E+006    5.55879E+006    8.34843E+005   -2.31827E+006    7.87705E+006   -1.35845E+006    4.77928E+006    8.35118E+005   -2.23336E+006    5.47360E+006    1.80160E+005   -1.83680E+005   -7.72479E+005
            6429    5.68645E+006    4.53272E+006    4.53272E+006    6.34078E+005   -1.99221E+006    6.52493E+006   -1.05820E+006    3.92969E+006    6.34514E+005   -1.72620E+006    4.26628E+006    1.76937E+005   -1.47940E+005   -1.27016E+006
            6430    4.51134E+006    3.71485E+006    3.71485E+006    5.73112E+005   -1.45454E+006    5.16939E+006   -9.44475E+005    3.21787E+006    5.72997E+005   -9.65555E+005    3.22598E+006    1.62252E+005   -1.06265E+005   -1.50024E+006
            6431    3.79563E+006    3.53746E+006    3.53746E+006    6.53496E+005   -7.62648E+005    4.30011E+006   -1.14277E+006    3.11202E+006    6.53067E+005   -5.25404E+005    3.30065E+006    1.17440E+005   -1.00479E+005   -9.68950E+005
            6432    3.63006E+006    3.66378E+006    3.66378E+006    7.69023E+005   -4.08978E+005    4.07276E+006   -1.34128E+006    3.15496E+006    7.70074E+005   -3.24087E+005    3.57784E+006    9.11544E+004   -1.16666E+005   -5.65303E+005
            6433    3.69355E+006    3.95602E+006    3.95602E+006    8.92124E+005   -1.45309E+005    4.10133E+006   -1.56761E+006    3.34143E+006    8.95062E+005   -1.22582E+005    3.93036E+006    6.09831E+004   -1.26310E+005   -2.86269E+005
            6434    4.03745E+006    4.44474E+006    4.44474E+006    1.07276E+006   -2.93169E+004    4.47405E+006   -1.82939E+006    3.67553E+006    1.07818E+006   -2.77484E+004    4.43774E+006    1.81586E+004   -1.37591E+005   -7.74555E+004
            6435    4.63579E+006    4.14375E+006    4.14375E+006    6.74520E+005   -1.12129E+006    5.26504E+006   -1.23233E+006    3.72294E+006    6.74565E+005   -1.03453E+006    4.05695E+006    1.26305E+005   -1.36808E+005   -6.43986E+005
            6436    4.18405E+006    4.08054E+006    4.08054E+006    7.47478E+005   -6.14905E+005    4.69544E+006   -1.40437E+006    3.63228E+006    7.48019E+005   -5.97134E+005    4.06223E+006    1.01693E+005   -1.48844E+005   -2.28960E+005
            6437    4.02963E+006    4.19997E+006    4.19997E+006    8.18170E+005   -2.58696E+005    4.45867E+006   -1.58648E+006    3.68448E+006    8.21754E+005   -2.55044E+005    4.19273E+006    6.28200E+004   -1.55982E+005   -9.46925E+003
            6438    4.20049E+006    4.55155E+006    4.55155E+006    9.59653E+005   -6.71288E+004    4.61868E+006   -1.81469E+006    3.90287E+006    9.67393E+005   -6.61313E+004    4.54281E+006    2.06930E+004   -1.72001E+005    4.82634E+004
            6439    5.49026E+006    4.89887E+006    4.89887E+006    7.84044E+005   -1.33515E+006    6.23403E+006   -1.44925E+006    4.41841E+006    7.84359E+005   -1.32467E+006    4.88807E+006    1.22897E+005   -1.66434E+005   -1.54117E+005
            6440    4.76396E+006    4.57677E+006    4.57677E+006    7.56793E+005   -7.61204E+005    5.33798E+006   -1.52412E+006    4.16530E+006    7.56700E+005   -7.40336E+005    4.55600E+006    9.85390E+004   -1.74292E+005    2.65554E+005
            6441    4.22287E+006    4.33931E+006    4.33931E+006    7.17810E+005   -2.99201E+005    4.63851E+006   -1.58597E+006    3.93292E+006    7.21156E+005   -2.61521E+005    4.29828E+006    5.31014E+004   -1.73668E+005    3.90329E+005
            6442    4.05193E+006    4.31529E+006    4.31529E+006    7.17270E+005   -7.38534E+004    4.38914E+006   -1.65290E+006    3.87240E+006    7.26421E+005   -6.44870E+004    4.29677E+006    1.87970E+004   -1.91227E+005    1.91976E+005
            6443    6.28517E+006    5.87994E+006    5.87994E+006    1.06821E+006   -1.23111E+006    7.11105E+006   -1.90568E+006    5.20413E+006    1.06980E+006   -1.19918E+006    5.84642E+006    1.04372E+005   -1.96080E+005    4.29272E+005
            6444    5.08484E+006    5.09708E+006    5.09708E+006    8.81615E+005   -5.50139E+005    5.64722E+006   -1.80952E+006    4.59748E+006    8.81786E+005   -4.38030E+005    4.98480E+006    7.62706E+004   -1.88241E+005    7.61570E+005
            6445    4.24736E+006    4.38528E+006    4.38528E+006    6.17389E+005   -2.17557E+005    4.60283E+006   -1.59504E+006    4.05651E+006    6.21081E+005   -1.13039E+005    4.27707E+006    2.98729E+004   -1.72545E+005    6.73052E+005
            6446    3.71444E+006    3.85152E+006    3.85152E+006    3.95081E+005   -7.59900E+004    3.92751E+006   -1.39020E+006    3.64633E+006    4.03732E+005   -5.24186E+004    3.81929E+006    1.21630E+004   -1.88204E+005    2.93387E+005
            6447    6.53662E+006    6.96149E+006    6.96149E+006    1.62526E+006   -3.29490E+005    7.29098E+006   -2.75242E+006    5.82249E+006    1.62863E+006   -2.17920E+005    6.84655E+006    6.41832E+004   -2.08350E+005    8.78104E+005
            6448    5.00737E+006    5.41306E+006    5.41306E+006    1.02480E+006   -4.16185E+004    5.45468E+006   -2.13208E+006    4.74167E+006    1.02702E+006    1.13525E+005    5.25569E+006    3.68430E+004   -1.73931E+005    8.94426E+005
            6449    4.16753E+006    4.39041E+006    4.39041E+006    5.43316E+005   -3.67839E+004    4.42719E+006   -1.63231E+006    4.07521E+006    5.47835E+005    9.19004E+004    4.25720E+006    1.48997E+002   -1.49472E+005    7.39996E+005
            6450    3.29177E+006    3.31380E+006    3.31380E+006    7.77575E+004   -3.09957E+004    3.34479E+006   -1.12019E+006    3.28772E+006    8.30968E+004    8.74427E+002    3.27659E+006    1.41052E+003   -1.60395E+005    3.11343E+005
            6451    2.92749E+006    2.85213E+006    2.85213E+006    4.11315E+004   -1.79382E+005    3.03152E+006   -9.04628E+005    2.90872E+006   -1.75419E+005    6.07628E+004    2.82854E+006   -1.02929E+004   -1.08974E+005    2.33960E+005
            6452    2.70503E+006    2.56396E+006    2.56396E+006    9.55709E+004   -3.27780E+005    2.89174E+006   -7.77252E+005    2.62894E+006   -3.26546E+005    9.78934E+004    2.56041E+006   -1.86812E+004   -3.82611E+004    8.64722E+004
            6453    3.94876E+006    4.28361E+006    4.28361E+006    4.78809E+005    2.05134E+005    4.07847E+006   -1.65585E+006    3.92733E+006    4.81398E+005    2.91179E+005    4.19497E+006   -2.54752E+004   -1.03645E+005    5.84603E+005
            6454    3.70603E+006    4.13021E+006    4.13021E+006    4.63597E+005    3.85974E+005    3.74424E+006   -1.65993E+006    3.70420E+006    4.32236E+005    4.31104E+005    4.11644E+006   -4.05222E+004   -3.79452E+004    2.22041E+005
            6455    4.78722E+006    5.55281E+006    5.55281E+006    1.11137E+006    4.82051E+005    5.07076E+006   -2.38207E+006    4.69281E+006    1.11481E+006    5.81412E+005    5.45000E+006   -9.21264E+003   -1.25550E+005    7.02174E+005
            6456    4.51456E+006    5.56667E+006    5.56667E+006    1.18875E+006    9.26868E+005    4.63980E+006   -2.56076E+006    4.49743E+006    1.18275E+006    9.50003E+005    5.54954E+006   -4.36321E+004   -4.55618E+004    2.76887E+005
            6457    6.07735E+006    7.34850E+006    7.34850E+006    1.95959E+006    7.61225E+005    6.58727E+006   -3.35644E+006    5.80253E+006    1.96353E+006    8.63815E+005    7.24196E+006    1.41160E+004   -1.66207E+005    8.11333E+005
            6458    5.47127E+006    7.21480E+006    7.21480E+006    2.01995E+006    1.50370E+006    5.71110E+006   -3.57948E+006    5.41607E+006    2.01927E+006    1.52304E+006    7.19614E+006   -3.16455E+004   -6.44808E+004    3.18405E+005
            6459    6.64441E+006    9.08135E+006    9.08135E+006    2.91805E+006    2.04262E+006    7.03872E+006   -4.68067E+006    6.51276E+006    2.91889E+006    2.05399E+006    9.06914E+006   -1.17856E+004   -7.51936E+004    2.81547E+005
            6460    8.33384E+006    1.15356E+007    1.15356E+007    4.02348E+006    2.57093E+006    8.96463E+006   -6.04332E+006    8.04161E+006    4.02422E+006    2.57722E+006    1.15285E+007    5.81227E+003   -7.70314E+004    2.36483E+005
            6461    7.47814E+006    9.42690E+006    9.42690E+006    2.94238E+006    1.24643E+006    8.18046E+006   -4.53857E+006    7.02563E+006    2.94594E+006    1.34103E+006    9.32874E+006    3.69160E+004   -1.93812E+005    8.65282E+005
            6462    8.87391E+006    1.18735E+007    1.18735E+007    4.16408E+006    2.17322E+006    9.70023E+006   -6.07025E+006    8.34896E+006    4.16748E+006    2.26411E+006    1.17792E+007    3.53919E+004   -1.98208E+005    9.26694E+005
            6463    1.06487E+007    1.24216E+007    1.24216E+007    4.04490E+006    4.37841E+005    1.19837E+007   -5.63476E+006    9.11385E+006    4.04701E+006    7.25237E+005    1.21320E+007    1.09413E+005   -2.87565E+005    1.81215E+006
            6464    9.71679E+006    1.02928E+007    1.02928E+007    2.88175E+006   -7.08155E+005    1.10009E+007   -4.15546E+006    8.00659E+006    2.88408E+006   -5.61963E+005    1.01443E+007    1.21376E+005   -2.69009E+005    1.23155E+006
            6465    6.93213E+006    6.25767E+006    6.25767E+006    1.16595E+006   -1.63704E+006    7.89471E+006   -1.92886E+006    5.41729E+006    1.16651E+006   -1.63052E+006    6.25060E+006   -7.44918E+004    1.18845E+005    1.85896E+005
            6466    6.01586E+006    4.98025E+006    4.98025E+006    7.15233E+005   -1.90071E+006    6.88096E+006   -1.26492E+006    4.43577E+006    7.15682E+005   -1.85161E+006    4.93069E+006   -8.32800E+004    9.85765E+004   -5.66320E+005
            6467    5.05893E+006    4.20103E+006    4.20103E+006    6.14596E+005   -1.58541E+006    5.78644E+006   -1.07674E+006    3.72991E+006    6.15070E+005   -1.39250E+006    4.00765E+006   -8.23416E+004    8.05656E+004   -1.03313E+006
            6468    4.11527E+006    3.57904E+006    3.57904E+006    6.08172E+005   -1.11823E+006    4.69727E+006   -1.02299E+006    3.12950E+006    6.08564E+005   -7.07753E+005    3.16817E+006   -7.37530E+004    5.85296E+004   -1.32354E+006
            6469    3.57657E+006    3.67294E+006    3.67294E+006    8.00100E+005   -3.32917E+005    4.00585E+006   -1.38004E+006    3.13292E+006    8.00210E+005   -2.41035E+005    3.58094E+006   -5.82162E+004    6.92808E+004   -5.93076E+005
            6470    3.98039E+006    4.39514E+006    4.39514E+006    1.08188E+006   -2.01567E+004    4.41530E+006   -1.81896E+006    3.61252E+006    1.08376E+006   -1.36182E+004    4.38673E+006   -1.51680E+004    8.10343E+004   -1.68022E+005
            6471    4.11066E+006    4.04657E+006    4.04657E+006    7.54141E+005   -5.60645E+005    4.60721E+006   -1.41335E+006    3.58975E+006    7.54319E+005   -5.42230E+005    4.02797E+006   -6.13001E+004    8.84099E+004   -2.71135E+005
            6472    4.29073E+006    4.57843E+006    4.57843E+006    9.61159E+005   -1.62246E+005    4.74067E+006   -1.79245E+006    3.93895E+006    9.63784E+005   -1.61753E+005    4.57531E+006   -1.76479E+004    1.02898E+005    3.04036E+004
            6473    4.76914E+006    4.56614E+006    4.56614E+006    7.37690E+005   -7.76196E+005    5.34233E+006   -1.50921E+006    4.17487E+006    7.37613E+005   -7.52566E+005    4.54258E+006   -5.72592E+004    1.03588E+005    3.33741E+005
            6474    4.11544E+006    4.32538E+006    4.32538E+006    7.11207E+005   -1.53808E+005    4.47919E+006   -1.62759E+006    3.90296E+006    7.14199E+005   -1.32262E+005    4.30084E+006   -1.44045E+004    1.14669E+005    3.05661E+005
            6475    4.90432E+006    5.02881E+006    5.02881E+006    8.83897E+005   -3.85376E+005    5.41418E+006   -1.84244E+006    4.51205E+006    8.84144E+005   -2.41455E+005    4.88464E+006   -3.58060E+004    1.07884E+005    8.64041E+005
            6476    3.63690E+006    3.78527E+006    3.78527E+006    3.81642E+005   -4.69288E+004    3.83220E+006   -1.37333E+006    3.57943E+006    3.84218E+005   -2.33956E+003    3.73811E+006   -5.99509E+003    1.06927E+005    4.07507E+005
            6477    3.17889E+006    3.20529E+006    3.20529E+006    3.94470E+004    1.35073E+004    3.19178E+006   -1.08608E+006    3.17865E+006    3.93466E+004    5.64103E+004    3.16249E+006    1.92268E+003    7.83324E+004    3.58669E+005
            6478    2.77660E+006    2.75078E+006    2.75078E+006    1.56316E+005   -1.77719E+005    2.92850E+006   -9.09794E+005    2.73084E+006   -1.77181E+005    1.65420E+005    2.74114E+006    1.04049E+004    2.98515E+004    1.55261E+005
            6479    4.56554E+006    5.04429E+006    5.04429E+006    8.94075E+005    1.53862E+005    4.89042E+006   -2.03074E+006    4.42752E+006    8.95285E+005    2.93455E+005    4.90348E+006   -3.00660E+003    8.31763E+004    8.13084E+005
            6480    4.04656E+006    4.75984E+006    4.75984E+006    8.16012E+005    6.17829E+005    4.14201E+006   -2.06456E+006    4.03562E+006    8.14380E+005    6.43893E+005    4.73541E+006    2.17169E+004    3.07836E+004    3.15370E+005
            6481    4.97668E+006    6.43792E+006    6.43792E+006    1.71187E+006    1.24369E+006    5.19423E+006   -3.13116E+006    4.92677E+006    1.71161E+006    1.26655E+006    6.41532E+006    1.73329E+004    3.19875E+004    3.40090E+005
            6482    6.20026E+006    8.41466E+006    8.41466E+006    2.68786E+006    1.83022E+006    6.58443E+006   -4.31091E+006    6.06466E+006    2.68804E+006    1.83808E+006    8.40662E+006    6.26089E+003    3.47063E+004    2.26802E+005
            6483    7.91864E+006    1.09150E+007    1.09150E+007    3.82873E+006    2.36761E+006    8.54744E+006   -5.70380E+006    7.60643E+006    3.82889E+006    2.37758E+006    1.09049E+007   -3.27863E+003    3.51127E+004    2.91563E+005
            6484    9.69363E+006    1.35278E+007    1.35278E+007    5.02635E+006    2.97145E+006    1.05563E+007   -7.17519E+006    9.18421E+006    5.02644E+006    2.97596E+006    1.35232E+007   -8.73456E+003    3.37464E+004    2.17065E+005
            6485    5.74761E+006    6.77223E+006    6.77223E+006    1.73880E+006    5.09377E+005    6.26285E+006   -3.00680E+006    5.43984E+006    1.74010E+006    6.06748E+005    6.67356E+006   -1.46136E+004    1.00130E+005    7.72340E+005
            6486    7.27070E+006    9.09470E+006    9.09470E+006    2.83423E+006    1.12010E+006    7.97460E+006   -4.34968E+006    6.79339E+006    2.83544E+006    1.22368E+006    8.98991E+006   -2.07622E+004    1.10942E+005    9.00014E+005
            6487    8.44184E+006    1.12874E+007    1.12874E+007    3.98298E+006    2.04518E+006    9.24226E+006   -5.77187E+006    7.91789E+006    3.98408E+006    2.14091E+006    1.11906E+007   -2.32835E+004    1.14982E+005    9.32567E+005
            6488    9.89243E+006    1.37828E+007    1.37828E+007    5.22687E+006    2.95068E+006    1.08321E+007   -7.32012E+006    9.27537E+006    5.22778E+006    3.02037E+006    1.37122E+007   -2.69721E+004    1.14946E+005    8.62397E+005
            6489    1.11574E+007    1.44200E+007    1.44200E+007    5.33624E+006    1.96608E+006    1.24539E+007   -7.24078E+006    9.91136E+006    5.33708E+006    2.36338E+006    1.40219E+007   -4.80380E+004    1.64063E+005    2.18361E+006
            6490    1.04713E+007    1.20810E+007    1.20810E+007    3.90809E+006    2.77636E+005    1.18033E+007   -5.42223E+006    8.88003E+006    3.90882E+006    5.44838E+005    1.18130E+007   -5.97744E+004    1.56844E+005    1.74931E+006
            6491    9.38394E+006    9.93524E+006    9.93524E+006    2.79372E+006   -6.92945E+005    1.06282E+007   -4.01201E+006    7.71021E+006    2.79434E+006   -5.22191E+005    9.76387E+006   -6.49608E+004    1.45318E+005    1.32840E+006
            6492    8.08258E+006    8.03638E+006    8.03638E+006    1.93760E+006   -1.13116E+006    9.16754E+006   -2.94761E+006    6.56549E+006    1.93816E+006   -1.06203E+006    7.96670E+006   -6.87808E+004    1.33290E+005    7.80919E+005
            6493    3.53760E+006    3.92648E+006    3.92648E+006    1.02180E+006   -1.31768E+004    3.93966E+006   -1.64503E+006    3.16917E+006    1.02284E+006   -3.33116E+003    3.91560E+006   -1.24229E+004    5.66443E+004   -1.95784E+005
            6494    3.03275E+006    3.25650E+006    3.25650E+006    7.99725E+005   -1.33072E+005    3.38958E+006   -1.30772E+006    2.68032E+006    7.99485E+005    4.56936E+003    3.11910E+006   -5.03130E+004    4.99336E+004   -6.64846E+005
            6495    3.18335E+006    2.98025E+006    2.98025E+006    6.04978E+005   -6.36852E+005    3.61710E+006   -9.82791E+005    2.54587E+006    6.05199E+005   -9.17922E+004    2.43497E+006   -5.98659E+004    3.95507E+004   -1.29217E+006
            6496    3.05750E+006    3.44284E+006    3.44284E+006    9.35911E+005    3.65155E+004    3.40632E+006   -1.47175E+006    2.73527E+006    9.36279E+005    4.35845E+004    3.43540E+006   -9.59299E+003    3.28553E+004   -1.54203E+005
            6497    2.43934E+006    2.75666E+006    2.75666E+006    7.38111E+005    4.60696E+004    2.71059E+006   -1.18028E+006    2.20170E+006    7.36626E+005    1.26149E+005    2.67806E+006   -4.31082E+004    2.75249E+004   -4.52939E+005
            6498    2.17984E+006    2.29182E+006    2.29182E+006    5.59412E+005   -1.55770E+005    2.44759E+006   -8.98486E+005    1.88745E+006    5.58826E+005    3.28739E+005    1.80789E+006   -4.53817E+004    1.98809E+004   -9.73624E+005
            6499    2.77965E+006    3.13765E+006    3.13765E+006    8.62498E+005    3.94049E+004    3.09825E+006   -1.34652E+006    2.48244E+006    8.62470E+005    4.03297E+004    3.13675E+006   -8.28230E+003    1.06972E+004   -5.11602E+004
            6500    2.07599E+006    2.44820E+006    2.44820E+006    6.94677E+005    1.55947E+005    2.29225E+006   -1.09961E+006    1.90899E+006    6.92170E+005    1.70667E+005    2.43599E+006   -3.82456E+004    1.04376E+004   -1.66090E+005
            6501    1.08398E+006    1.50937E+006    1.50937E+006    4.92856E+005    3.68632E+005    1.14074E+006   -7.90287E+005    1.06779E+006    4.84512E+005    4.99084E+005    1.38727E+006   -3.61101E+004    7.38437E+003   -3.50675E+005
            6502    1.01573E+007    1.41865E+007    1.41865E+007    5.32074E+006    3.10385E+006    1.10827E+007   -7.53704E+006    9.59009E+006    5.32082E+006    3.10882E+006    1.41815E+007    9.72990E+003    3.50984E+004   -2.33505E+005
            6503    1.01628E+007    1.43152E+007    1.43152E+007    5.51399E+006    3.19261E+006    1.11226E+007   -7.67394E+006    9.53848E+006    5.51495E+006    3.26420E+006    1.42427E+007    2.55126E+004    1.16400E+005   -8.86148E+005
            6504    1.12659E+007    1.47304E+007    1.47304E+007    5.52016E+006    2.16911E+006    1.25612E+007   -7.47321E+006    1.00494E+007    5.52108E+006    2.56817E+006    1.43304E+007    4.59522E+004    1.65048E+005   -2.19823E+006
            6505    1.19342E+007    1.66979E+007    1.66979E+007    6.43023E+006    3.60439E+006    1.30935E+007   -8.91083E+006    1.11435E+007    6.43032E+006    3.60632E+006    1.66959E+007    9.30378E+003    3.56899E+004   -1.57712E+005
            6506    1.14555E+007    1.66768E+007    1.66768E+007    6.72184E+006    4.15595E+006    1.25209E+007   -9.18487E+006    1.07801E+007    6.72276E+006    4.19457E+006    1.66373E+007    2.27296E+004    1.12967E+005   -6.91311E+005
            6507    1.11357E+007    1.66617E+007    1.66617E+007    7.01418E+006    4.47602E+006    1.21857E+007   -9.38397E+006    1.04548E+007    7.01540E+006    4.86462E+006    1.62719E+007    3.00676E+004    1.66745E+005   -2.13704E+006
            6508    1.32525E+007    1.85284E+007    1.85284E+007    7.22495E+006    3.94338E+006    1.45850E+007   -9.89891E+006    1.22875E+007    7.22507E+006    3.94386E+006    1.85278E+007    5.26098E+003    3.76132E+004   -8.22346E+004
            6509    1.23466E+007    1.83495E+007    1.83495E+007    7.58838E+006    4.87038E+006    1.34791E+007   -1.02694E+007    1.16446E+007    7.58937E+006    4.87992E+006    1.83390E+007    1.17567E+004    1.07813E+005   -3.56902E+005
            6510    1.04693E+007    1.78462E+007    1.78462E+007    8.21330E+006    6.70414E+006    1.11420E+007   -1.09212E+007    1.02203E+007    8.21532E+006    6.86475E+006    1.76835E+007    1.29983E+004    1.64771E+005   -1.32496E+006
            6511    1.36654E+007    1.90918E+007    1.90918E+007    7.46569E+006    4.03919E+006    1.50526E+007   -1.01989E+007    1.26435E+007    7.46582E+006    4.03921E+006    1.90916E+007   -9.72262E+002    3.87996E+004    1.79604E+004
            6512    1.26458E+007    1.88823E+007    1.88823E+007    7.85724E+006    5.07808E+006    1.38042E+007   -1.06059E+007    1.19293E+007    7.85827E+006    5.07835E+006    1.88810E+007   -7.71988E+002    1.06567E+005    6.05042E+004
            6513    1.00777E+007    1.82023E+007    1.82023E+007    8.67070E+006    7.65527E+006    1.05470E+007   -1.15094E+007    9.96164E+006    8.67352E+006    7.65552E+006    1.81992E+007   -2.77317E+002    1.63894E+005    5.20409E+004
            6514    1.30217E+007    1.81918E+007    1.81918E+007    7.07351E+006    3.86617E+006    1.43256E+007   -9.71049E+006    1.20841E+007    7.07361E+006    3.86687E+006    1.81910E+007   -6.65667E+003    3.70749E+004    9.89575E+004
            6515    1.22453E+007    1.80765E+007    1.80765E+007    7.42568E+006    4.69708E+006    1.33794E+007   -1.00664E+007    1.15311E+007    7.42664E+006    4.71259E+006    1.80600E+007   -1.51676E+004    1.08154E+005    4.53362E+005
            6516    1.04997E+007    1.77597E+007    1.77597E+007    8.13250E+006    6.56409E+006    1.11957E+007   -1.08188E+007    1.02311E+007    8.13438E+006    6.74247E+006    1.75795E+007   -1.54497E+004    1.64939E+005    1.39844E+006
            6517    1.15424E+007    1.61299E+007    1.61299E+007    6.17450E+006    3.47789E+006    1.26520E+007   -8.59408E+006    1.07990E+007    6.17458E+006    3.48039E+006    1.61273E+007   -9.99500E+003    3.52201E+004    1.76266E+005
            6518    1.12282E+007    1.61898E+007    1.61898E+007    6.45284E+006    3.90747E+006    1.22824E+007   -8.85005E+006    1.05493E+007    6.45377E+006    3.94872E+006    1.61477E+007   -2.25002E+004    1.12019E+005    7.07647E+005
            6519    1.11318E+007    1.64702E+007    1.64702E+007    6.87129E+006    4.26711E+006    1.22031E+007   -9.20286E+006    1.04128E+007    6.87251E+006    4.65924E+006    1.60768E+007   -3.08736E+004    1.66502E+005    2.14803E+006
            6520    3.18172E+006    2.97950E+006    2.97950E+006    6.05205E+005   -6.35697E+005    3.61519E+006   -9.83002E+005    2.54493E+006    6.05422E+005   -8.83547E+004    2.43194E+006   -5.99100E+004   -3.94580E+004    1.29399E+006
            6521    3.03080E+006    3.25503E+006    3.25503E+006    7.99700E+005   -1.32313E+005    3.38735E+006   -1.30747E+006    2.67874E+006    7.99450E+005    3.28661E+003    3.11969E+006   -5.02153E+004   -4.98174E+004    6.59812E+005
            6522    3.53014E+006    3.91770E+006    3.91770E+006    1.01971E+006   -1.38602E+004    3.93156E+006   -1.64118E+006    3.16187E+006    1.02074E+006   -4.13171E+003    3.90694E+006   -1.23644E+004   -5.62641E+004    1.94412E+005
            6523    2.17039E+006    2.28435E+006    2.28435E+006    5.58120E+005   -1.52196E+005    2.43655E+006   -8.96758E+005    1.88089E+006    5.57527E+005    3.30750E+005    1.80200E+006   -4.52784E+004   -1.97634E+004    9.69693E+005
            6524    2.44594E+006    2.76220E+006    2.76220E+006    7.39202E+005    4.38750E+004    2.71832E+006   -1.18176E+006    2.20661E+006    7.37725E+005    1.23220E+005    2.68433E+006   -4.31103E+004   -2.75941E+004    4.51548E+005
            6525    3.05367E+006    3.43878E+006    3.43878E+006    9.35018E+005    3.67086E+004    3.40207E+006   -1.47017E+006    2.73181E+006    9.35381E+005    4.37395E+004    3.43138E+006   -9.52490E+003   -3.26120E+004    1.53698E+005
            6526    1.06991E+006    1.49976E+006    1.49976E+006    4.93112E+005    3.76194E+005    1.12356E+006   -7.89687E+005    1.05539E+006    4.84094E+005    5.02074E+005    1.38289E+006   -3.59937E+004   -7.21951E+003    3.40907E+005
            6527    2.08193E+006    2.45355E+006    2.45355E+006    6.95933E+005    1.54352E+005    2.29920E+006   -1.10128E+006    1.91358E+006    6.93438E+005    1.69847E+005    2.44055E+006   -3.83260E+004   -1.06038E+004    1.71608E+005
            6528    2.77916E+006    3.13700E+006    3.13700E+006    8.62286E+005    3.92877E+004    3.09771E+006   -1.34619E+006    2.48196E+006    8.62258E+005    4.02181E+004    3.13610E+006   -8.25629E+003   -1.06338E+004    5.13376E+004
            6529    3.24698E+006    3.29652E+006    3.29652E+006    1.04649E+005   -2.88366E+003    3.29941E+006   -1.13276E+006    3.24297E+006    1.07033E+005    2.74091E+004    3.26385E+006   -2.38684E+003    9.46146E+004   -3.12419E+005
            6530    3.68776E+006    3.84739E+006    3.84739E+006    4.20310E+005   -5.49641E+004    3.90235E+006   -1.40424E+006    3.61789E+006    4.23644E+005   -3.22502E+004    3.82134E+006    4.25942E+003    1.12873E+005   -2.94453E+005
            6531    4.04295E+006    4.32798E+006    4.32798E+006    7.46394E+005   -5.60051E+004    4.38399E+006   -1.67279E+006    3.85765E+006    7.49797E+005   -4.74560E+004    4.31603E+006    9.31109E+003    1.14917E+005   -1.90423E+005
            6532    4.20936E+006    4.57887E+006    4.57887E+006    9.90241E+005   -5.44615E+004    4.63333E+006   -1.83822E+006    3.90136E+006    9.93081E+005   -5.38200E+004    4.57539E+006    1.19748E+004    1.03879E+005   -4.70912E+004
            6533    4.05269E+006    4.47002E+006    4.47002E+006    1.09725E+006   -2.57359E+004    4.49576E+006   -1.84718E+006    3.67746E+006    1.09922E+006   -2.41962E+004    4.46651E+006    1.24150E+004    8.35247E+004    8.02473E+004
            6534    4.16828E+006    4.39342E+006    4.39342E+006    5.85518E+005   -5.99452E+004    4.45336E+006   -1.63966E+006    4.05356E+006    5.86408E+005    7.48466E+004    4.25774E+006    1.18469E+004    9.24051E+004   -7.59406E+005
            6535    4.24589E+006    4.37949E+006    4.37949E+006    6.47297E+005   -2.39910E+005    4.61939E+006   -1.59562E+006    4.02934E+006    6.47879E+005   -1.30839E+005    4.26983E+006    2.76297E+004    1.06086E+005   -6.94287E+005
            6536    4.22441E+006    4.34383E+006    4.34383E+006    7.46734E+005   -3.08017E+005    4.65185E+006   -1.59418E+006    3.91135E+006    7.47683E+005   -2.69526E+005    4.30439E+006    3.66642E+004    1.06762E+005   -4.10128E+005
            6537    4.03923E+006    4.21156E+006    4.21156E+006    8.45831E+005   -2.67614E+005    4.47917E+006   -1.59659E+006    3.66943E+006    8.47234E+005   -2.66308E+005    4.20885E+006    3.81650E+004    9.54129E+004    2.96516E+003
            6538    3.70498E+006    3.97514E+006    3.97514E+006    9.19723E+005   -1.45862E+005    4.12101E+006   -1.58300E+006    3.33318E+006    9.21065E+005   -1.25878E+005    3.95382E+006    3.23438E+004    7.66565E+004    2.81256E+005
            6539    5.01676E+006    5.44294E+006    5.44294E+006    1.07806E+006   -3.77878E+004    5.48073E+006   -2.16107E+006    4.72529E+006    1.07939E+006    1.20301E+005    5.28352E+006    1.13093E+004    9.72120E+004   -9.15144E+005
            6540    5.07860E+006    5.10176E+006    5.10176E+006    9.06204E+005   -5.44287E+005    5.64605E+006   -1.82123E+006    4.57662E+006    9.07043E+005   -4.35119E+005    4.99175E+006    3.29370E+004    1.05334E+005   -7.71814E+005
            6541    4.75136E+006    4.57450E+006    4.57450E+006    7.67830E+005   -7.50444E+005    5.32494E+006   -1.53063E+006    4.15052E+006    7.68340E+005   -7.35133E+005    4.55868E+006    4.91906E+004    9.89252E+004   -2.66506E+005
            6542    4.17305E+006    4.08541E+006    4.08541E+006    7.55114E+005   -5.95727E+005    4.68114E+006   -1.41493E+006    3.62991E+006    7.55579E+005   -5.82297E+005    4.07152E+006    5.44532E+004    8.54301E+004    2.32309E+005
            6543    3.62919E+006    3.67976E+006    3.67976E+006    7.76493E+005   -3.88993E+005    4.06875E+006   -1.35575E+006    3.16513E+006    7.76852E+005   -3.07536E+005    3.59794E+006    5.29170E+004    6.81926E+004    5.64231E+005
            6544    6.54429E+006    6.96663E+006    6.96663E+006    1.67102E+006   -3.49708E+005    7.31634E+006   -2.76265E+006    5.77723E+006    1.67137E+006   -2.34495E+005    6.85106E+006    5.32601E+004    1.26885E+005   -9.01426E+005
            6545    6.29284E+006    5.87415E+006    5.87415E+006    1.08823E+006   -1.25390E+006    7.12805E+006   -1.90283E+006    5.16595E+006    1.08795E+006   -1.22244E+006    5.84298E+006    7.83673E+004    1.22484E+005   -4.48053E+005
            6546    5.46932E+006    4.87455E+006    4.87455E+006    8.00302E+005   -1.34155E+006    6.21610E+006   -1.44443E+006    4.36380E+006    7.99981E+005   -1.33452E+006    4.86784E+006    8.60226E+004    1.07074E+005    1.53305E+005
            6547    4.62982E+006    4.13917E+006    4.13917E+006    6.95694E+005   -1.12405E+006    5.26322E+006   -1.23694E+006    3.68568E+006    6.95363E+005   -1.04154E+006    4.05699E+006    8.57062E+004    8.67694E+004    6.41467E+005
            6548    3.78932E+006    3.53662E+006    3.53662E+006    6.76138E+005   -7.61043E+005    4.29767E+006   -1.15057E+006    3.07986E+006    6.76199E+005   -5.30334E+005    3.30586E+006    7.58078E+004    6.75132E+004    9.63399E+005
            6549    4.53164E+006    3.72773E+006    3.72773E+006    5.64686E+005   -1.46380E+006    5.19153E+006   -9.42870E+005    3.24653E+006    5.64846E+005   -9.79869E+005    3.24363E+006    8.43862E+004    5.83845E+004    1.50601E+006
            6550    5.70841E+006    4.54522E+006    4.54522E+006    6.29644E+005   -2.00464E+006    6.54986E+006   -1.05674E+006    3.94886E+006    6.29826E+005   -1.74595E+006    4.28635E+006    9.10214E+004    7.74558E+004    1.27037E+006
            6551    6.90378E+006    5.57848E+006    5.57848E+006    8.36025E+005   -2.34198E+006    7.92046E+006   -1.35751E+006    4.79045E+006    8.36481E+005   -2.26529E+006    5.50134E+006    9.03785E+004    1.00159E+005    7.65145E+005
            6552    7.92533E+006    6.78084E+006    6.78084E+006    1.22874E+006   -2.29532E+006    9.07616E+006   -1.90475E+006    5.71749E+006    1.22942E+006   -2.29085E+006    6.77569E+006    8.16938E+004    1.16053E+005    1.55513E+005
            6553    8.84344E+006    8.47926E+006    8.47926E+006    2.00621E+006   -1.59693E+006    1.00762E+007   -2.96285E+006    6.87428E+006    2.00715E+006   -1.56197E+006    8.44336E+006    6.98376E+004    1.34114E+005   -5.78161E+005
            6554    9.75863E+006    1.03421E+007    1.03421E+007    2.93879E+006   -7.16472E+005    1.10586E+007   -4.18814E+006    7.98470E+006    2.93950E+006   -5.69473E+005    1.01944E+007    6.82925E+004    1.49623E+005   -1.25779E+006
            6555    1.06863E+007    1.24851E+007    1.24851E+007    4.11641E+006    4.47616E+005    1.20375E+007   -5.68304E+006    9.09837E+006    4.11710E+006    7.37895E+005    1.21941E+007    5.97863E+004    1.58545E+005   -1.84033E+006
            6556    8.86223E+006    1.18751E+007    1.18751E+007    4.24646E+006    2.15379E+006    9.72128E+006   -6.09177E+006    8.27849E+006    4.24746E+006    2.24737E+006    1.17805E+007    2.76579E+004    1.18410E+005   -9.45430E+005
            6557    8.25284E+006    1.14898E+007    1.14898E+007    4.12253E+006    2.57150E+006    8.91831E+006   -6.06128E+006    7.91489E+006    4.12269E+006    2.57792E+006    1.14832E+007    5.28669E+003    3.62856E+004   -2.38623E+005
            6558    7.46850E+006    9.43681E+006    9.43681E+006    3.02272E+006    1.23747E+006    8.19934E+006   -4.56567E+006    6.96373E+006    3.02395E+006    1.33452E+006    9.33853E+006    2.35247E+004    1.15196E+005   -8.83326E+005
            6559    6.58974E+006    9.06467E+006    9.06467E+006    3.01633E+006    2.04202E+006    7.02265E+006   -4.70767E+006    6.42469E+006    3.01655E+006    2.05387E+006    9.05260E+006   -3.11399E+003    3.67529E+004   -2.88210E+005
            6560    5.43855E+006    7.22089E+006    7.22089E+006    2.10995E+006    1.50527E+006    5.71561E+006   -3.61204E+006    5.36214E+006    2.10994E+006    1.52426E+006    7.20191E+006   -1.44423E+004    3.47681E+004   -3.26660E+005
            6561    4.47769E+006    5.56009E+006    5.56009E+006    1.24915E+006    9.32463E+005    4.62762E+006   -2.58057E+006    4.45239E+006    1.24826E+006    9.50684E+005    5.54275E+006   -2.02258E+004    2.82096E+004   -2.81076E+005
            6562    3.66545E+006    4.11152E+006    4.11152E+006    4.81376E+005    4.11760E+005    3.69976E+006   -1.66822E+006    3.66396E+006    4.75395E+005    4.31754E+005    4.09751E+006   -2.10872E+004    2.16409E+004   -2.25893E+005
            6563    2.65888E+006    2.53452E+006    2.53452E+006    9.16505E+004   -2.97487E+005    2.83201E+006   -7.76229E+005    2.59366E+006   -2.97122E+005    9.45769E+004    2.53123E+006   -9.03982E+003    2.29672E+004   -8.69660E+004
            6564    6.06597E+006    7.35908E+006    7.35908E+006    2.03207E+006    7.56894E+005    6.60219E+006   -3.38268E+006    5.75270E+006    2.03321E+006    8.63543E+005    7.25129E+006    1.41774E+004    9.74251E+004   -8.30069E+005
            6565    4.77905E+006    5.57138E+006    5.57138E+006    1.18124E+006    4.80741E+005    5.09064E+006   -2.41112E+006    4.66145E+006    1.18238E+006    5.84239E+005    5.46674E+006   -5.36890E+003    7.18884E+004   -7.18235E+005
            6566    3.93523E+006    4.28832E+006    4.28832E+006    5.27612E+005    1.99154E+005    4.08917E+006   -1.67170E+006    3.90421E+006    5.28682E+005    2.88631E+005    4.19777E+006   -8.34896E+003    6.29854E+004   -5.98138E+005
            6567    2.87812E+006    2.82183E+006    2.82183E+006    4.88072E+004   -1.50984E+005    2.97281E+006   -9.06551E+005    2.86246E+006   -1.49592E+005    6.87116E+004    2.80053E+006   -6.51133E+003    6.38566E+004   -2.34067E+005
            6568    3.63546E+006    3.78389E+006    3.78389E+006    3.80942E+005   -4.63279E+004    3.83022E+006   -1.37283E+006    3.57832E+006    3.83515E+005   -1.62942E+003    3.73662E+006   -5.95876E+003   -1.06862E+005   -4.07901E+005
            6569    4.11955E+006    4.32960E+006    4.32960E+006    7.13493E+005   -1.54922E+005    4.48452E+006   -1.62939E+006    3.90556E+006    7.16483E+005   -1.33646E+005    4.30533E+006   -1.44340E+004   -1.14615E+005   -3.03898E+005
            6570    4.28785E+006    4.57850E+006    4.57850E+006    9.65366E+005   -1.59724E+005    4.73822E+006   -1.79471E+006    3.93467E+006    9.67973E+005   -1.59323E+005    4.57549E+006   -1.76099E+004   -1.02371E+005   -2.28242E+004
            6571    3.96703E+006    4.38423E+006    4.38423E+006    1.08247E+006   -1.63964E+004    4.40062E+006   -1.81676E+006    3.60001E+006    1.08432E+006   -9.62189E+003    4.37560E+006   -1.50664E+004   -8.03535E+004    1.70833E+005
            6572    4.90205E+006    5.02445E+006    5.02445E+006    8.82029E+005   -3.87464E+005    5.41192E+006   -1.83967E+006    4.50943E+006    8.82275E+005   -2.44138E+005    4.88088E+006   -3.58534E+004   -1.07847E+005   -8.62087E+005
            6573    4.75682E+006    4.55515E+006    4.55515E+006    7.35670E+005   -7.73062E+005    5.32822E+006   -1.50592E+006    4.16517E+006    7.35589E+005   -7.50035E+005    4.53221E+006   -5.72799E+004   -1.03395E+005   -3.28461E+005
            6574    4.09819E+006    4.03689E+006    4.03689E+006    7.53580E+005   -5.56053E+005    4.59294E+006   -1.41147E+006    3.57988E+006    7.53756E+005   -5.36812E+005    4.01747E+006   -6.12860E+004   -8.80974E+004    2.77590E+005
            6575    3.56581E+006    3.66940E+006    3.66940E+006    8.03126E+005   -3.23688E+005    3.99308E+006   -1.38295E+006    3.12591E+006    8.03235E+005   -2.31196E+005    3.57680E+006   -5.79862E+004   -6.89873E+004    5.94098E+005
            6576    4.11710E+006    3.57818E+006    3.57818E+006    6.06981E+005   -1.12137E+006    4.69956E+006   -1.02126E+006    3.12919E+006    6.07376E+005   -7.09532E+005    3.16594E+006   -7.38769E+004   -5.85588E+004    1.32589E+006
            6577    5.06740E+006    4.20269E+006    4.20269E+006    6.12195E+005   -1.59378E+006    5.79647E+006   -1.07370E+006    3.73255E+006    6.12668E+005   -1.40014E+006    4.00858E+006   -8.24298E+004   -8.05599E+004    1.03597E+006
            6578    6.01975E+006    4.98179E+006    4.98179E+006    7.14489E+005   -1.90371E+006    6.88549E+006   -1.26419E+006    4.43777E+006    7.14941E+005   -1.85472E+006    4.93235E+006   -8.32554E+004   -9.86257E+004    5.65804E+005
            6579    6.92515E+006    6.25052E+006    6.25052E+006    1.16314E+006   -1.63607E+006    7.88659E+006   -1.92586E+006    5.41309E+006    1.16370E+006   -1.62961E+006    6.24349E+006   -7.44833E+004   -1.18804E+005   -1.84697E+005
            6580    8.07613E+006    8.02307E+006    8.02307E+006    1.93204E+006   -1.13786E+006    9.16093E+006   -2.93908E+006    6.55602E+006    1.93260E+006   -1.06944E+006    7.95410E+006   -6.89036E+004   -1.33178E+005   -7.76495E+005
            6581    9.39500E+006    9.94339E+006    9.94339E+006    2.79587E+006   -6.97950E+005    1.06413E+007   -4.01377E+006    7.71585E+006    2.79650E+006   -5.27268E+005    9.77208E+006   -6.50928E+004   -1.45391E+005   -1.32896E+006
            6582    1.04827E+007    1.21023E+007    1.21023E+007    3.91887E+006    2.86522E+005    1.18157E+007   -5.43589E+006    8.89179E+006    3.91960E+006    5.55386E+005    1.18327E+007   -5.96956E+004   -1.56874E+005   -1.75560E+006
            6583    1.11580E+007    1.44186E+007    1.44186E+007    5.33451E+006    1.96379E+006    1.24548E+007   -7.23895E+006    9.91166E+006    5.33534E+006    2.35907E+006    1.40225E+007   -4.80317E+004   -1.63931E+005   -2.17828E+006
            6584    9.89144E+006    1.37787E+007    1.37787E+007    5.22454E+006    2.94718E+006    1.08315E+007   -7.31680E+006    9.27365E+006    5.22545E+006    3.01772E+006    1.37072E+007   -2.69911E+004   -1.15102E+005   -8.67613E+005
            6585    9.67649E+006    1.35024E+007    1.35024E+007    5.01502E+006    2.96531E+006    1.05371E+007   -7.16092E+006    9.16877E+006    5.01511E+006    2.96987E+006    1.34978E+007   -8.78146E+003   -3.42151E+004   -2.18050E+005
            6586    8.44989E+006    1.12800E+007    1.12800E+007    3.97464E+006    2.02610E+006    9.25395E+006   -5.76026E+006    7.92039E+006    3.97572E+006    2.12241E+006    1.11826E+007   -2.35419E+004   -1.15132E+005   -9.35948E+005
            6587    7.92326E+006    1.09259E+007    1.09259E+007    3.83532E+006    2.37355E+006    8.55236E+006   -5.71159E+006    7.61097E+006    3.83548E+006    2.38372E+006    1.09156E+007   -3.31838E+003   -3.54065E+004   -2.94408E+005
            6588    7.27239E+006    9.09130E+006    9.09130E+006    2.83185E+006    1.11367E+006    7.97763E+006   -4.34561E+006    6.79283E+006    2.83307E+006    1.21669E+006    8.98706E+006   -2.09744E+004   -1.11130E+005   -8.97747E+005
            6589    6.23009E+006    8.45756E+006    8.45756E+006    2.70749E+006    1.83864E+006    6.61891E+006   -4.33456E+006    6.09155E+006    2.70768E+006    1.84675E+006    8.44927E+006    6.14667E+003   -3.48676E+004   -2.31066E+005
            6590    5.75191E+006    6.77712E+006    6.77712E+006    1.74106E+006    5.09025E+005    6.26810E+006   -3.00907E+006    5.44302E+006    1.74236E+006    6.06751E+005    6.67809E+006   -1.46718E+004   -1.00256E+005   -7.74053E+005
            6591    4.99104E+006    6.46138E+006    6.46138E+006    1.72387E+006    1.25053E+006    5.21085E+006   -3.14526E+006    4.94016E+006    1.72363E+006    1.27310E+006    6.43905E+006    1.71629E+004   -3.20177E+004   -3.38588E+005
            6592    4.05413E+006    4.77259E+006    4.77259E+006    8.22845E+005    6.21581E+005    4.15101E+006   -2.07234E+006    4.04287E+006    8.21241E+005    6.47622E+005    4.74816E+006    2.17173E+004   -3.07548E+004   -3.15752E+005
            6593    2.77893E+006    2.75521E+006    2.75521E+006    1.57588E+005   -1.75087E+005    2.93030E+006   -9.12570E+005    2.73360E+006   -1.74549E+005    1.66431E+005    2.74583E+006    1.04718E+004   -2.95896E+004   -1.53234E+005
            6594    4.56651E+006    5.04663E+006    5.04663E+006    8.95722E+005    1.55069E+005    4.89156E+006   -2.03247E+006    4.42834E+006    8.96929E+005    2.94717E+005    4.90577E+006   -3.01377E+003   -8.31207E+004   -8.13339E+005
            6595    3.17580E+006    3.20250E+006    3.20250E+006    3.86775E+004    1.48575E+004    3.18765E+006   -1.08535E+006    3.17560E+006    3.84159E+004    5.75921E+004    3.16003E+006    1.96121E+003   -7.80392E+004   -3.57052E+005
            6596    3.39218E+006    3.00747E+006    3.00747E+006    5.50957E+005   -8.62959E+005    3.87042E+006   -8.98488E+005    2.59272E+006    5.50722E+005   -1.97793E+005    2.34254E+006    7.03482E+004    3.48245E+004    1.45789E+006
            6597    2.97590E+006    2.96936E+006    2.96936E+006    6.60440E+005   -3.89107E+005    3.35847E+006   -1.08023E+006    2.50563E+006    6.60000E+005   -7.09890E+004    2.65168E+006    6.29619E+004    4.39237E+004    9.80011E+005
            6598    3.03677E+006    3.22681E+006    3.22681E+006    7.69351E+005   -1.68170E+005    3.39498E+006   -1.27600E+006    2.68096E+006    7.69198E+005   -3.50152E+004    3.09381E+006    4.73302E+004    4.81722E+004    6.55295E+005
            6599    3.29418E+006    3.60878E+006    3.60878E+006    9.11248E+005   -6.25059E+004    3.67128E+006   -1.48584E+006    2.94329E+006    9.12069E+005   -2.32989E+004    3.56875E+006    2.47043E+004    5.44185E+004    3.75518E+005
            6600    3.64229E+006    4.05324E+006    4.05324E+006    1.06382E+006   -3.46282E+003    4.05670E+006   -1.70453E+006    3.26164E+006    1.06489E+006    2.15723E+002    4.04849E+006    1.17067E+004    5.86106E+004    1.20534E+005
            6601    2.21018E+006    2.22004E+006    2.22004E+006    5.02334E+005   -2.73442E+005    2.49349E+006   -8.16312E+005    1.86473E+006    5.01647E+005    3.32031E+005    1.61526E+006    5.45872E+004    2.00421E+004    1.06724E+006
            6602    2.13546E+006    2.35846E+006    2.35846E+006    6.12632E+005   -2.25125E+004    2.38097E+006   -9.82860E+005    1.90491E+006    6.11275E+005    2.23678E+005    2.11363E+006    4.96122E+004    2.67883E+004    7.21351E+005
            6603    2.43629E+006    2.73549E+006    2.73549E+006    7.19466E+005    2.82847E+004    2.70720E+006   -1.16108E+006    2.19895E+006    7.18282E+005    1.23638E+005    2.64132E+006    4.12979E+004    2.83047E+004    4.94233E+005
            6604    2.82405E+006    3.16281E+006    3.16281E+006    8.44491E+005    1.76120E+004    3.14519E+006   -1.34164E+006    2.52942E+006    8.44647E+005    4.59009E+004    3.13436E+006    1.89695E+004    3.11413E+004    2.95300E+005
            6605    3.19827E+006    3.57397E+006    3.57397E+006    9.68129E+005    4.74495E+003    3.56923E+006   -1.51561E+006    2.84327E+006    9.68493E+005    7.62656E+003    3.57073E+006    1.05367E+004    3.42931E+004    9.96805E+004
            6606    9.52578E+005    1.35156E+006    1.35156E+006    4.50663E+005    3.54575E+005    9.96981E+005   -7.18931E+005    9.41583E+005    4.33962E+005    5.73983E+005    1.14885E+006    4.36500E+004    4.28018E+003    3.96259E+005
            6607    1.44702E+006    1.85909E+006    1.85909E+006    5.71695E+005    2.92992E+005    1.56610E+006   -9.07925E+005    1.38469E+006    5.65819E+005    3.42766E+005    1.81519E+006    4.21518E+004    6.34121E+003    2.57586E+005
            6608    2.02426E+006    2.40213E+006    2.40213E+006    6.80034E+005    1.72361E+005    2.22977E+006   -1.08484E+006    1.87282E+006    6.77588E+005    1.89704E+005    2.38724E+006    3.66147E+004    9.07098E+003    1.81026E+005
            6609    2.52468E+006    2.87555E+006    2.87555E+006    7.91582E+005    6.81088E+004    2.80744E+006   -1.24508E+006    2.27333E+006    7.91331E+005    7.27984E+004    2.87111E+006    1.53733E+004    1.04314E+004    1.10803E+005
            6610    2.90517E+006    3.25895E+006    3.25895E+006    8.95518E+005    1.55162E+004    3.24343E+006   -1.38999E+006    2.57873E+006    8.95469E+005    1.60485E+004    3.25847E+006    9.56833E+003    1.10612E+004    3.73870E+004
            6611    1.12689E+007    1.47206E+007    1.47206E+007    5.51167E+006    2.15476E+006    1.25659E+007   -7.46235E+006    1.00481E+007    5.51259E+006    2.55419E+006    1.43203E+007    4.61188E+004   -1.65172E+005    2.19961E+006
            6612    1.01741E+007    1.43443E+007    1.43443E+007    5.53037E+006    3.21066E+006    1.11336E+007   -7.69511E+006    9.55150E+006    5.53133E+006    3.28030E+006    1.42737E+007    2.52849E+004   -1.16162E+005    8.74465E+005
            6613    1.01966E+007    1.42429E+007    1.42429E+007    5.34576E+006    3.11585E+006    1.11271E+007   -7.56817E+006    9.62483E+006    5.34585E+006    3.12084E+006    1.42378E+007    9.76493E+003   -3.50110E+004    2.34411E+005
            6614    1.11303E+007    1.66625E+007    1.66625E+007    7.01754E+006    4.48376E+006    1.21787E+007   -9.38793E+006    1.04514E+007    7.01876E+006    4.87313E+006    1.62719E+007    3.01717E+004   -1.66829E+005    2.13843E+006
            6615    1.14718E+007    1.66945E+007    1.66945E+007    6.72774E+006    4.15467E+006    1.25398E+007   -9.19230E+006    1.07935E+007    6.72866E+006    4.19253E+006    1.66557E+007    2.27716E+004   -1.12915E+005    6.84974E+005
            6616    1.19656E+007    1.67426E+007    1.67426E+007    6.44995E+006    3.61369E+006    1.31289E+007   -8.93542E+006    1.11711E+007    6.45004E+006    3.61553E+006    1.67407E+007    9.27229E+003   -3.57000E+004    1.53798E+005
            6617    1.04632E+007    1.78602E+007    1.78602E+007    8.22679E+006    6.72865E+006    1.11315E+007   -1.09385E+007    1.02177E+007    8.22882E+006    6.88784E+006    1.76990E+007    1.29116E+004   -1.65015E+005    1.31851E+006
            6618    1.23553E+007    1.83557E+007    1.83557E+007    7.58923E+006    4.86595E+006    1.34898E+007   -1.02703E+007    1.16510E+007    7.59023E+006    4.87554E+006    1.83451E+007    1.16067E+004   -1.07984E+005    3.58040E+005
            6619    1.32664E+007    1.85457E+007    1.85457E+007    7.23181E+006    3.94488E+006    1.46008E+007   -9.90748E+006    1.22992E+007    7.23193E+006    3.94535E+006    1.85451E+007    5.12882E+003   -3.76947E+004    8.17639E+004
            6620    1.00669E+007    1.81886E+007    1.81886E+007    8.66589E+006    7.65400E+006    1.05346E+007   -1.15028E+007    9.95153E+006    8.66871E+006    7.65450E+006    1.81853E+007   -4.36009E+002   -1.63983E+005   -7.22263E+004
            6621    1.26430E+007    1.88761E+007    1.88761E+007    7.85395E+006    5.07474E+006    1.38013E+007   -1.06016E+007    1.19263E+007    7.85498E+006    5.07497E+006    1.88748E+007   -8.17658E+002   -1.06594E+005   -5.65439E+004
            6622    1.36629E+007    1.90872E+007    1.90872E+007    7.46329E+006    4.03734E+006    1.50499E+007   -1.01959E+007    1.26412E+007    7.46342E+006    4.03736E+006    1.90870E+007   -9.43599E+002   -3.88193E+004   -1.85688E+004
            6623    1.05130E+007    1.77509E+007    1.77509E+007    8.11960E+006    6.53579E+006    1.12151E+007   -1.08021E+007    1.02394E+007    8.12147E+006    6.71979E+006    1.75650E+007   -1.55967E+004   -1.65112E+005   -1.42123E+006
            6624    1.22324E+007    1.80689E+007    1.80689E+007    7.42584E+006    4.70536E+006    1.33636E+007   -1.00667E+007    1.15218E+007    7.42680E+006    4.72065E+006    1.80527E+007   -1.52224E+004   -1.08340E+005   -4.49760E+005
            6625    1.30016E+007    1.81624E+007    1.81624E+007    7.06019E+006    3.85936E+006    1.43031E+007   -9.69399E+006    1.20664E+007    7.06029E+006    3.86006E+006    1.81616E+007   -6.74193E+003   -3.68578E+004   -9.94247E+004
            6626    1.11381E+007    1.64503E+007    1.64503E+007    6.85341E+006    4.23694E+006    1.22134E+007   -9.18022E+006    1.04124E+007    6.85463E+006    4.62917E+006    1.60569E+007   -3.10228E+004   -1.66406E+005   -2.14922E+006
            6627    1.12224E+007    1.61939E+007    1.61939E+007    6.45885E+006    3.91940E+006    1.22745E+007   -8.85740E+006    1.05465E+007    6.45978E+006    3.96186E+006    1.61506E+007   -2.23766E+004   -1.12339E+005   -7.17848E+005
            6628    1.15165E+007    1.60899E+007    1.60899E+007    6.15579E+006    3.46679E+006    1.26231E+007   -8.57083E+006    1.07757E+007    6.15587E+006    3.46933E+006    1.60873E+007   -1.00216E+004   -3.52344E+004   -1.77549E+005
            6629    3.64900E+006    4.05935E+006    4.05935E+006    1.06499E+006   -5.04905E+003    4.06439E+006   -1.70643E+006    3.26705E+006    1.06606E+006   -1.39502E+003    4.05462E+006    1.16952E+004   -5.87886E+004   -1.20243E+005
            6630    3.29385E+006    3.60806E+006    3.60806E+006    9.10854E+005   -6.28927E+004    3.67095E+006   -1.48534E+006    2.94293E+006    9.11673E+005   -2.33183E+004    3.56766E+006    2.48164E+004   -5.44084E+004   -3.77237E+005
            6631    3.03455E+006    3.22204E+006    3.22204E+006    7.67426E+005   -1.70829E+005    3.39287E+006   -1.27288E+006    2.67781E+006    7.67263E+005   -3.59924E+004    3.08736E+006    4.75936E+004   -4.81447E+004   -6.59046E+005
            6632    2.97236E+006    2.96316E+006    2.96316E+006    6.58122E+005   -3.91627E+005    3.35479E+006   -1.07655E+006    2.50115E+006    6.57674E+005   -6.87856E+004    2.64077E+006    6.30397E+004   -4.35780E+004   -9.85940E+005
            6633    3.39146E+006    3.00617E+006    3.00617E+006    5.50506E+005   -8.63502E+005    3.86967E+006   -8.97723E+005    2.59162E+006    5.50265E+005   -1.96213E+005    2.33912E+006    7.02834E+004   -3.46318E+004   -1.45957E+006
            6634    3.19964E+006    3.57702E+006    3.57702E+006    9.69563E+005    6.43744E+003    3.57058E+006   -1.51767E+006    2.84503E+006    9.69930E+005    9.28358E+003    3.57380E+006    1.04805E+004   -3.43764E+004   -9.90816E+004
            6635    2.82933E+006    3.16882E+006    3.16882E+006    8.46375E+005    1.76681E+004    3.15115E+006   -1.34429E+006    2.53393E+006    8.46539E+005    4.55610E+004    3.14076E+006    1.87551E+004   -3.12086E+004   -2.93545E+005
            6636    2.43867E+006    2.73835E+006    2.73835E+006    7.20517E+005    2.84362E+004    2.70991E+006   -1.16243E+006    2.20093E+006    7.19351E+005    1.23891E+005    2.64406E+006    4.11446E+004   -2.83309E+004   -4.94797E+005
            6637    2.12949E+006    2.35045E+006    2.35045E+006    6.09629E+005   -2.39080E+004    2.37436E+006   -9.78725E+005    1.89945E+006    6.08270E+005    2.25162E+005    2.10274E+006    4.96488E+004   -2.66425E+004   -7.23977E+005
            6638    2.21356E+006    2.21829E+006    2.21829E+006    4.99688E+005   -2.79503E+005    2.49780E+006   -8.12826E+005    1.86530E+006    4.99022E+005    3.31570E+005    1.60789E+006    5.47586E+004   -2.01481E+004   -1.07181E+006
            6639    2.90755E+006    3.25961E+006    3.25961E+006    8.94895E+005    1.32932E+004    3.24632E+006   -1.38927E+006    2.58012E+006    8.94848E+005    1.38290E+004    3.25912E+006    9.53576E+003   -1.11452E+004   -3.75940E+004
            6640    2.52860E+006    2.87907E+006    2.87907E+006    7.92354E+005    6.70792E+004    2.81199E+006   -1.24617E+006    2.27635E+006    7.92106E+005    7.17628E+004    2.87463E+006    1.53159E+004   -1.04595E+004   -1.10857E+005
            6641    2.02330E+006    2.40143E+006    2.40143E+006    6.79903E+005    1.72812E+005    2.22862E+006   -1.08471E+006    1.87216E+006    6.77455E+005    1.89975E+005    2.38671E+006    3.65984E+004   -9.07747E+003   -1.79877E+005
            6642    1.44210E+006    1.85768E+006    1.85768E+006    5.73114E+005    2.97756E+005    1.55992E+006   -9.09517E+005    1.38108E+006    5.67170E+005    3.46762E+005    1.81462E+006    4.20942E+004   -6.28951E+003   -2.54662E+005
            6643    9.56461E+005    1.35696E+006    1.35696E+006    4.52733E+005    3.55668E+005    1.00129E+006   -7.21787E+005    9.45284E+005    4.36298E+005    5.75619E+005    1.15344E+006    4.36584E+004   -4.29912E+003   -3.98015E+005
            6644    8.83628E+006    8.47562E+006    8.47562E+006    2.00646E+006   -1.59214E+006    1.00678E+007   -2.96331E+006    6.87091E+006    2.00741E+006   -1.55759E+006    8.44012E+006    6.96475E+004   -1.34066E+005    5.74377E+005
            6645    7.92241E+006    6.77734E+006    6.77734E+006    1.22809E+006   -2.29562E+006    9.07295E+006   -1.90327E+006    5.71381E+006    1.22877E+006   -2.29112E+006    6.77216E+006    8.17387E+004   -1.16049E+005   -1.56255E+005
            6646    6.88378E+006    5.56419E+006    5.56419E+006    8.34789E+005   -2.33323E+006    7.89742E+006   -1.35525E+006    4.77802E+006    8.35247E+005   -2.25568E+006    5.48618E+006    9.01668E+004   -9.98810E+004   -7.68440E+005
            6647    5.69672E+006    4.53829E+006    4.53829E+006    6.29605E+005   -1.99800E+006    6.53629E+006   -1.05663E+006    3.94317E+006    6.29776E+005   -1.73845E+006    4.27857E+006    9.09309E+004   -7.71500E+004   -1.27103E+006
            6648    4.51480E+006    3.71777E+006    3.71777E+006    5.64792E+005   -1.45419E+006    5.17196E+006   -9.42792E+005    3.23780E+006    5.64955E+005   -9.69391E+005    3.23281E+006    8.41819E+004   -5.82250E+004   -1.50409E+006
            6649    3.80190E+006    3.54350E+006    3.54350E+006    6.75774E+005   -7.69000E+005    4.31250E+006   -1.15009E+006    3.08678E+006    6.75847E+005   -5.37745E+005    3.31217E+006    7.59867E+004   -6.77760E+004   -9.66249E+005
            6650    3.63553E+006    3.67994E+006    3.67994E+006    7.74080E+005   -3.96743E+005    4.07668E+006   -1.35243E+006    3.16773E+006    7.74429E+005   -3.13933E+005    3.59678E+006    5.33160E+004   -6.82387E+004   -5.69403E+005
            6651    3.70512E+006    3.97091E+006    3.97091E+006    9.16879E+005   -1.50818E+005    4.12173E+006   -1.57899E+006    3.33173E+006    9.18206E+005   -1.30500E+005    3.94927E+006    3.26686E+004   -7.65684E+004   -2.83601E+005
            6652    4.05125E+006    4.46922E+006    4.46922E+006    1.09710E+006   -2.47345E+004    4.49395E+006   -1.84719E+006    3.67670E+006    1.09908E+006   -2.32312E+004    4.46574E+006    1.25267E+004   -8.35809E+004   -7.91287E+004
            6653    4.64573E+006    4.15115E+006    4.15115E+006    6.96710E+005   -1.13036E+006    5.28151E+006   -1.23917E+006    3.69700E+006    6.96379E+005   -1.04973E+006    4.07085E+006    8.57191E+004   -8.70383E+004   -6.35064E+005
            6654    4.18891E+006    4.09538E+006    4.09538E+006    7.55139E+005   -6.04440E+005    4.69982E+006   -1.41536E+006    3.64046E+006    7.55598E+005   -5.91406E+005    4.08189E+006    5.47224E+004   -8.57323E+004   -2.28632E+005
            6655    4.03969E+006    4.21113E+006    4.21113E+006    8.45878E+005   -2.68883E+005    4.48002E+006   -1.59604E+006    3.66899E+006    8.47266E+005   -2.67561E+005    4.20842E+006    3.84019E+004   -9.54543E+004   -1.29555E+003
            6656    4.20736E+006    4.57542E+006    4.57542E+006    9.88931E+005   -5.59052E+004    4.63133E+006   -1.83615E+006    3.89912E+006    9.91765E+005   -5.52611E+004    4.57195E+006    1.20643E+004   -1.03784E+005    4.71008E+004
            6657    5.50391E+006    4.90557E+006    4.90557E+006    8.07013E+005   -1.35018E+006    6.25575E+006   -1.45413E+006    4.38916E+006    8.06697E+005   -1.34378E+006    4.89948E+006    8.61547E+004   -1.07775E+005   -1.40366E+005
            6658    4.77279E+006    4.59329E+006    4.59329E+006    7.71691E+005   -7.56409E+005    5.34970E+006   -1.53619E+006    4.16661E+006    7.72197E+005   -7.40458E+005    4.57684E+006    4.93534E+004   -9.92421E+004    2.73348E+005
            6659    4.23057E+006    4.34658E+006    4.34658E+006    7.47949E+005   -3.13702E+005    4.66028E+006   -1.59361E+006    3.91367E+006    7.48877E+005   -2.75944E+005    4.30790E+006    3.70181E+004   -1.06526E+005    4.06350E+005
            6660    4.04825E+006    4.33299E+006    4.33299E+006    7.50326E+005   -5.86691E+004    4.39166E+006   -1.67488E+006    3.86005E+006    7.53715E+005   -5.00310E+004    4.32096E+006    9.61627E+003   -1.14885E+005    1.91499E+005
            6661    6.30616E+006    5.89193E+006    5.89193E+006    1.09539E+006   -1.25108E+006    7.14301E+006   -1.91208E+006    5.17757E+006    1.09511E+006   -1.21927E+006    5.86040E+006    7.84129E+004   -1.22569E+005    4.51329E+005
            6662    5.09217E+006    5.11577E+006    5.11577E+006    9.10288E+005   -5.45861E+005    5.66163E+006   -1.82673E+006    4.58751E+006    9.11143E+005   -4.35884E+005    5.00494E+006    3.27829E+004   -1.05551E+005    7.75782E+005
            6663    4.25373E+006    4.38741E+006    4.38741E+006    6.51640E+005   -2.42219E+005    4.62963E+006   -1.59894E+006    4.03422E+006    6.52206E+005   -1.32919E+005    4.27754E+006    2.80156E+004   -1.06361E+005    6.95718E+005
            6664    3.69635E+006    3.86172E+006    3.86172E+006    4.30203E+005   -5.21013E+004    3.91382E+006   -1.41327E+006    3.62454E+006    4.33539E+005   -2.96875E+004    3.83597E+006    4.38586E+003   -1.12949E+005    2.92927E+005
            6665    6.54975E+006    6.97334E+006    6.97334E+006    1.67292E+006   -3.48957E+005    7.32230E+006   -2.76577E+006    5.78250E+006    1.67327E+006   -2.33795E+005    6.85782E+006    5.31698E+004   -1.26803E+005    9.01635E+005
            6666    5.00614E+006    5.42954E+006    5.42954E+006    1.07160E+006   -3.84524E+004    5.46799E+006   -2.15423E+006    4.71716E+006    1.07293E+006    1.19045E+005    5.27071E+006    1.12695E+004   -9.70563E+004    9.12382E+005
            6667    4.16606E+006    4.38832E+006    4.38832E+006    5.83459E+005   -6.32920E+004    4.45161E+006   -1.63616E+006    4.05080E+006    5.84330E+005    7.27380E+004    4.25142E+006    1.20819E+004   -9.26022E+004    7.62575E+005
            6668    3.26200E+006    3.31359E+006    3.31359E+006    1.12410E+005   -6.01694E+003    3.31960E+006   -1.13999E+006    3.25716E+006    1.14831E+005    2.41124E+004    3.28104E+006   -2.12329E+003   -9.52890E+004    3.12565E+005
            6669    2.89089E+006    2.83780E+006    2.83780E+006    4.74284E+004   -1.44076E+005    2.98188E+006   -9.13718E+005    2.87656E+006   -1.42657E+005    6.79120E+004    2.81590E+006   -6.51304E+003   -6.45973E+004    2.38163E+005
            6670    2.66339E+006    2.54193E+006    2.54193E+006    9.32290E+004   -2.93812E+005    2.83574E+006   -7.80448E+005    2.59899E+006   -2.93441E+005    9.62939E+004    2.53849E+006   -9.06467E+003   -2.33164E+004    8.90009E+004
            6671    3.93120E+006    4.28099E+006    4.28099E+006    5.23575E+005    1.96440E+005    4.08455E+006   -1.66700E+006    3.90040E+006    5.24650E+005    2.86254E+005    4.19010E+006   -8.30906E+003   -6.31134E+004    5.98891E+005
            6672    3.67405E+006    4.12330E+006    4.12330E+006    4.86205E+005    4.13380E+005    3.70992E+006   -1.67430E+006    3.67243E+006    4.80496E+005    4.33117E+005    4.10927E+006   -2.11711E+004   -2.17333E+004    2.26338E+005
            6673    4.76962E+006    5.55797E+006    5.55797E+006    1.17459E+006    4.78588E+005    5.07938E+006   -2.40372E+006    4.65331E+006    1.17573E+006    5.82470E+005    5.45295E+006   -5.42992E+003   -7.17760E+004    7.18729E+005
            6674    4.48229E+006    5.56657E+006    5.56657E+006    1.25179E+006    9.33729E+005    4.63285E+006   -2.58403E+006    4.45679E+006    1.25090E+006    9.52287E+005    5.54890E+006   -2.02925E+004   -2.81951E+004    2.83960E+005
            6675    6.07021E+006    7.36220E+006    7.36220E+006    2.03196E+006    7.55157E+005    6.60705E+006   -3.38311E+006    5.75634E+006    2.03310E+006    8.61991E+005    7.25422E+006    1.40846E+004   -9.74270E+004    8.31106E+005
            6676    5.43353E+006    7.21775E+006    7.21775E+006    2.10983E+006    1.50861E+006    5.70914E+006   -3.61206E+006    5.35793E+006    2.10981E+006    1.52757E+006    7.19880E+006   -1.44651E+004   -3.46848E+004    3.26202E+005
            6677    6.60357E+006    9.08771E+006    9.08771E+006    3.02758E+006    2.04975E+006    7.03796E+006   -4.72168E+006    6.43766E+006    3.02780E+006    2.06143E+006    9.07581E+006   -2.97659E+003   -3.67450E+004    2.86480E+005
            6678    8.29346E+006    1.15470E+007    1.15470E+007    4.14766E+006    2.58242E+006    8.96455E+006   -6.09235E+006    7.95089E+006    4.14781E+006    2.58873E+006    1.15405E+007    5.38179E+003   -3.62688E+004    2.37423E+005
            6679    7.47294E+006    9.44798E+006    9.44798E+006    3.02872E+006    1.24439E+006    8.20359E+006   -4.57370E+006    6.96905E+006    3.02995E+006    1.34145E+006    9.34969E+006    2.35304E+004   -1.15157E+005    8.83643E+005
            6680    8.86853E+006    1.19035E+007    1.19035E+007    4.26461E+006    2.17762E+006    9.72590E+006   -6.11525E+006    8.28858E+006    4.26561E+006    2.27120E+006    1.18089E+007    2.75420E+004   -1.18257E+005    9.45651E+005
            6681    1.06766E+007    1.24565E+007    1.24565E+007    4.09968E+006    4.28773E+005    1.20277E+007   -5.66166E+006    9.08469E+006    4.10037E+006    7.16723E+005    1.21679E+007    5.99566E+004   -1.58454E+005    1.83230E+006
            6682    9.74742E+006    1.03236E+007    1.03236E+007    2.92937E+006   -7.22446E+005    1.10460E+007   -4.17683E+006    7.97466E+006    2.93008E+006   -5.77160E+005    1.01776E+007    6.83811E+004   -1.49579E+005    1.24971E+006
            6683    6.94297E+006    6.26341E+006    6.26341E+006    1.17511E+006   -1.64607E+006    7.90948E+006   -1.93082E+006    5.40730E+006    1.17509E+006   -1.64105E+006    6.25841E+006   -2.92594E+004    4.02836E+004    1.92643E+005
            6684    6.02366E+006    4.98175E+006    4.98175E+006    7.18176E+005   -1.90933E+006    6.89108E+006   -1.26353E+006    4.42861E+006    7.18118E+005   -1.86274E+006    4.93523E+006   -3.40551E+004    3.37903E+004   -5.62414E+005
            6685    5.06474E+006    4.20298E+006    4.20298E+006    6.15914E+005   -1.59072E+006    5.79370E+006   -1.07606E+006    3.72772E+006    6.15807E+005   -1.40014E+006    4.01250E+006   -3.68298E+004    2.82915E+004   -1.03216E+006
            6686    4.11891E+006    3.58001E+006    3.58001E+006    6.08740E+005   -1.12184E+006    4.70185E+006   -1.02230E+006    3.12843E+006    6.08628E+005   -7.12855E+005    3.17114E+006   -3.59576E+004    2.20155E+004   -1.32426E+006
            6687    3.57804E+006    3.68331E+006    3.68331E+006    8.08983E+005   -3.24073E+005    4.00738E+006   -1.38941E+006    3.13457E+006    8.09145E+005   -2.33703E+005    3.59278E+006   -1.03925E+004    2.28430E+004   -5.94809E+005
            6688    3.99148E+006    4.40293E+006    4.40293E+006    1.09338E+006   -2.98051E+004    4.43273E+006   -1.82217E+006    3.60943E+006    1.09357E+006   -2.34337E+004    4.39637E+006   -7.98128E+003    2.74014E+004   -1.67363E+005
            6689    4.11284E+006    4.05612E+006    4.05612E+006    7.63258E+005   -5.53972E+005    4.61009E+006   -1.42180E+006    3.59011E+006    7.63405E+005   -5.38005E+005    4.04000E+006   -1.34575E+004    2.80655E+004   -2.69938E+005
            6690    4.29911E+006    4.58522E+006    4.58522E+006    9.75539E+005   -1.70885E+005    4.75611E+006   -1.79662E+006    3.93256E+006    9.75808E+005   -1.70606E+005    4.58467E+006   -8.18854E+003    3.46125E+004    3.21649E+004
            6691    4.77177E+006    4.57432E+006    4.57432E+006    7.49571E+005   -7.72921E+005    5.34724E+006   -1.51699E+006    4.17038E+006    7.49677E+005   -7.51222E+005    4.55251E+006   -1.43075E+004    3.38750E+004    3.38539E+005
            6692    4.11849E+006    4.32846E+006    4.32846E+006    7.27839E+005   -1.62313E+005    4.49078E+006   -1.63133E+006    3.89313E+006    7.28143E+005   -1.40792E+005    4.30664E+006   -6.51959E+003    3.84138E+004    3.09440E+005
            6693    4.90741E+006    5.03629E+006    5.03629E+006    9.01027E+005   -3.86546E+005    5.42283E+006   -1.85026E+006    4.50326E+006    9.01125E+005   -2.41772E+005    4.89142E+006   -9.12449E+003    3.51879E+004    8.73611E+005
            6694    3.63054E+006    3.78320E+006    3.78320E+006    4.00386E+005   -5.25503E+004    3.83575E+006   -1.37701E+006    3.56614E+006    4.00639E+005   -7.68263E+003    3.73808E+006   -3.37919E+003    3.58913E+004    4.11866E+005
            6695    3.16424E+006    3.19917E+006    3.19917E+006    5.74137E+004    1.29066E+004    3.18626E+006   -1.08983E+006    3.16354E+006    5.74756E+004    5.48088E+004    3.15720E+006    3.81512E+002    2.63301E+004    3.62290E+005
            6696    2.75498E+006    2.74074E+006    2.74074E+006    1.56231E+005   -1.57796E+005    2.89854E+006   -9.13059E+005    2.71428E+006   -1.57743E+005    1.65772E+005    2.73115E+006    3.10872E+003    9.72434E+003    1.56909E+005
            6697    4.56073E+006    5.04687E+006    5.04687E+006    9.19112E+005    1.50782E+005    4.89609E+006   -2.03892E+006    4.41158E+006    9.19234E+005    2.92978E+005    4.90455E+006   -1.49988E+003    2.72382E+004    8.22029E+005
            6698    4.03089E+006    4.75727E+006    4.75727E+006    8.42544E+005    6.19491E+005    4.13778E+006   -2.07310E+006    4.01697E+006    8.42428E+005    6.44344E+005    4.73254E+006    6.55294E+003    1.04902E+004    3.18767E+005
            6699    4.96019E+006    6.43879E+006    6.43879E+006    1.75103E+006    1.24498E+006    5.19382E+006   -3.14493E+006    4.90161E+006    1.75104E+006    1.26789E+006    6.41587E+006    4.81075E+003    1.36972E+004    3.43984E+005
            6700    6.18278E+006    8.41747E+006    8.41747E+006    2.73736E+006    1.83188E+006    6.58559E+006   -4.32890E+006    6.03090E+006    2.73741E+006    1.83997E+006    8.40934E+006    1.17162E+003    1.54746E+004    2.30668E+005
            6701    7.90235E+006    1.09213E+007    1.09213E+007    3.88557E+006    2.37145E+006    8.54986E+006   -5.72611E+006    7.56559E+006    3.88561E+006    2.38172E+006    1.09110E+007   -2.18602E+003    1.68839E+004    2.96046E+005
            6702    9.67839E+006    1.35373E+007    1.35373E+007    5.08831E+006    2.97784E+006    1.05595E+007   -7.20116E+006    9.13891E+006    5.08833E+006    2.98255E+006    1.35326E+007   -4.49955E+003    1.79269E+004    2.22663E+005
            6703    5.74390E+006    6.77614E+006    6.77614E+006    1.77168E+006    5.04441E+005    6.27170E+006   -3.01742E+006    5.41581E+006    1.77178E+006    6.03552E+005    6.67693E+006   -5.55298E+003    2.99604E+004    7.81880E+005
            6704    7.26541E+006    9.10190E+006    9.10190E+006    2.87618E+006    1.11909E+006    7.98282E+006   -4.36572E+006    6.76212E+006    2.87628E+006    1.22389E+006    8.99700E+006   -6.21534E+003    3.21267E+004    9.08407E+005
            6705    8.43334E+006    1.12942E+007    1.12942E+007    4.03062E+006    2.04537E+006    9.24885E+006   -5.79007E+006    7.88145E+006    4.03069E+006    2.14177E+006    1.11977E+007   -7.54696E+003    3.19560E+004    9.39048E+005
            6706    9.88083E+006    1.37906E+007    1.37906E+007    5.27799E+006    2.95531E+006    1.08353E+007   -7.34129E+006    9.23616E+006    5.27808E+006    3.02502E+006    1.37208E+007   -4.98173E+003    3.15495E+004    8.66176E+005
            6707    1.11728E+007    1.44462E+007    1.44462E+007    5.36713E+006    1.96882E+006    1.24774E+007   -7.26071E+006    9.90591E+006    5.36719E+006    2.36725E+006    1.40477E+007   -1.84506E+004    5.54770E+004    2.19310E+006
            6708    1.04897E+007    1.21018E+007    1.21018E+007    3.93231E+006    2.72516E+005    1.18293E+007   -5.43555E+006    8.87258E+006    3.93238E+006    5.40410E+005    1.18338E+007   -2.14377E+004    5.43440E+004    1.75910E+006
            6709    9.40150E+006    9.95168E+006    9.95168E+006    2.81299E+006   -7.00576E+005    1.06523E+007   -4.02137E+006    7.70154E+006    2.81308E+006   -5.29597E+005    9.78061E+006   -2.21800E+004    5.12148E+004    1.33776E+006
            6710    8.09716E+006    8.04853E+006    8.04853E+006    1.95371E+006   -1.13923E+006    9.18776E+006   -2.95434E+006    6.55532E+006    1.95381E+006   -1.07075E+006    7.97996E+006   -2.24718E+004    4.63375E+004    7.88931E+005
            6711    3.54891E+006    3.93361E+006    3.93361E+006    1.03075E+006   -2.27752E+004    3.95638E+006   -1.64720E+006    3.16735E+006    1.03085E+006   -1.30436E+004    3.92378E+006   -7.37791E+003    1.91776E+004   -1.95580E+005
            6712    3.03555E+006    3.26817E+006    3.26817E+006    8.07057E+005   -1.23813E+005    3.39198E+006   -1.31714E+006    2.68511E+006    8.07140E+005    1.27292E+004    3.13154E+006   -7.06221E+003    1.46317E+004   -6.66661E+005
            6713    3.18734E+006    2.98316E+006    2.98316E+006    6.05240E+005   -6.38549E+005    3.62171E+006   -9.83282E+005    2.54856E+006    6.05018E+005   -9.40944E+004    2.43892E+006   -3.27893E+004    1.39238E+004   -1.29373E+006
            6714    3.06872E+006    3.44930E+006    3.44930E+006    9.42834E+005    2.69057E+004    3.42239E+006   -1.47301E+006    2.73486E+006    9.42844E+005    3.38992E+004    3.44230E+006   -6.68268E+003    1.11541E+004   -1.54087E+005
            6715    2.44184E+006    2.76727E+006    2.76727E+006    7.43607E+005    5.50916E+004    2.71218E+006   -1.18866E+006    2.20709E+006    7.43653E+005    1.33489E+005    2.68882E+006   -4.25819E+003    1.00119E+004   -4.54373E+005
            6716    2.18329E+006    2.29487E+006    2.29487E+006    5.58693E+005   -1.56265E+005    2.45113E+006   -8.99098E+005    1.89168E+006    5.58317E+005    3.27974E+005    1.81100E+006   -2.76499E+004    8.76777E+003   -9.75261E+005
            6717    2.79050E+006    3.14386E+006    3.14386E+006    8.68474E+005    3.03439E+004    3.11352E+006   -1.34756E+006    2.48272E+006    8.68436E+005    3.12272E+004    3.14301E+006   -6.13812E+003    3.60159E+003   -5.11067E+004
            6718    2.07874E+006    2.45843E+006    2.45843E+006    6.98338E+005    1.64977E+005    2.29345E+006   -1.10725E+006    1.91551E+006    6.98322E+005    1.77133E+005    2.44629E+006   -3.21774E+003    1.74956E+003   -1.66405E+005
            6719    1.08623E+006    1.51224E+006    1.51224E+006    4.88284E+005    3.72947E+005    1.13929E+006   -7.91156E+005    1.07232E+006    4.84000E+005    4.99136E+005    1.39033E+006   -2.38862E+004    1.66589E+003   -3.51290E+005
            6720    1.01424E+007    1.41969E+007    1.41969E+007    5.38360E+006    3.11094E+006    1.10860E+007   -7.56381E+006    9.54397E+006    5.38363E+006    3.11613E+006    1.41917E+007    4.71517E+003    1.83458E+004   -2.39548E+005
            6721    1.01515E+007    1.43234E+007    1.43234E+007    5.56414E+006    3.19772E+006    1.11256E+007   -7.69508E+006    9.50067E+006    5.56422E+006    3.26940E+006    1.42516E+007    6.51259E+003    3.20244E+004   -8.89903E+005
            6722    1.12813E+007    1.47570E+007    1.47570E+007    5.55177E+006    2.17218E+006    1.25848E+007   -7.49363E+006    1.00440E+007    5.55180E+006    2.57251E+006    1.43566E+007    1.94456E+004    5.56795E+004   -2.20787E+006
            6723    1.19187E+007    1.67105E+007    1.67105E+007    6.49692E+006    3.61515E+006    1.30953E+007   -8.94085E+006    1.10934E+007    6.49694E+006    3.61720E+006    1.67084E+007    5.03873E+003    1.74382E+004   -1.63668E+005
            6724    1.14443E+007    1.66859E+007    1.66859E+007    6.76969E+006    4.16315E+006    1.25227E+007   -9.20623E+006    1.07455E+007    6.76979E+006    4.20153E+006    1.66474E+007    1.88633E+003    3.11475E+004   -6.92152E+005
            6725    1.11441E+007    1.66920E+007    1.66920E+007    7.05490E+006    4.48853E+006    1.22034E+007   -9.41180E+006    1.04478E+007    7.05494E+006    4.87818E+006    1.63023E+007    1.43846E+004    5.33353E+004   -2.14491E+006
            6726    1.32354E+007    1.85417E+007    1.85417E+007    7.29430E+006    3.95711E+006    1.45846E+007   -9.93105E+006    1.22340E+007    7.29432E+006    3.95763E+006    1.85412E+007    2.96584E+003    1.55759E+004   -8.63360E+004
            6727    1.23380E+007    1.83610E+007    1.83610E+007    7.63221E+006    4.87893E+006    1.34820E+007   -1.02907E+007    1.16162E+007    7.63231E+006    4.88838E+006    1.83514E+007    1.33362E+003    3.21479E+004   -3.56916E+005
            6728    1.04682E+007    1.78768E+007    1.78768E+007    8.26290E+006    6.72452E+006    1.11523E+007   -1.09547E+007    1.02092E+007    8.26301E+006    6.88550E+006    1.77157E+007    8.84171E+003    5.03093E+004   -1.32958E+006
            6729    1.36474E+007    1.91052E+007    1.91052E+007    7.53613E+006    4.05405E+006    1.50511E+007   -1.02318E+007    1.25885E+007    7.53615E+006    4.05408E+006    1.91052E+007   -2.94654E+002    1.43092E+004    1.83182E+004
            6730    1.26387E+007    1.88945E+007    1.88945E+007    7.89885E+006    5.08655E+006    1.38080E+007   -1.06266E+007    1.19038E+007    7.89894E+006    5.08682E+006    1.88941E+007   -9.79613E+002    3.21614E+004    6.08938E+004
            6731    1.00717E+007    1.82324E+007    1.82324E+007    8.72395E+006    7.67905E+006    1.05534E+007   -1.15451E+007    9.94862E+006    8.72419E+006    7.67931E+006    1.82319E+007   -8.01577E+002    4.87481E+004    5.22061E+004
            6732    1.30049E+007    1.82051E+007    1.82051E+007    7.14254E+006    3.87933E+006    1.43257E+007   -9.74231E+006    1.20310E+007    7.14256E+006    3.88008E+006    1.82043E+007   -3.63888E+003    1.58832E+004    1.03006E+005
            6733    1.22362E+007    1.80874E+007    1.80874E+007    7.47049E+006    4.70511E+006    1.33823E+007   -1.00877E+007    1.15012E+007    7.47058E+006    4.72050E+006    1.80719E+007   -6.59006E+002    3.20024E+004    4.53560E+005
            6734    1.04991E+007    1.77903E+007    1.77903E+007    8.18148E+006    6.58410E+006    1.12062E+007   -1.08520E+007    1.02203E+007    8.18159E+006    6.76276E+006    1.76115E+007   -8.22592E+003    5.03504E+004    1.40309E+006
            6735    1.15270E+007    1.61422E+007    1.61422E+007    6.24068E+006    3.48806E+006    1.26541E+007   -8.62364E+006    1.07496E+007    6.24070E+006    3.49070E+006    1.61395E+007   -5.10986E+003    1.73779E+004    1.82439E+005
            6736    1.12168E+007    1.61982E+007    1.61982E+007    6.50088E+006    3.91394E+006    1.22843E+007   -8.87101E+006    1.05137E+007    6.50097E+006    3.95506E+006    1.61570E+007   -4.12639E+003    3.11903E+004    7.09348E+005
            6737    1.11408E+007    1.64996E+007    1.64996E+007    6.91071E+006    4.27828E+006    1.22213E+007   -9.22952E+006    1.04060E+007    6.91073E+006    4.67159E+006    1.61062E+007   -1.55718E+004    5.35203E+004    2.15621E+006
            6738    3.18571E+006    2.98243E+006    2.98243E+006    6.05474E+005   -6.37364E+005    3.61979E+006   -9.83512E+005    2.54764E+006    6.05254E+005   -9.06249E+004    2.43591E+006   -3.27182E+004   -1.38951E+004    1.29557E+006
            6739    3.03361E+006    3.26672E+006    3.26672E+006    8.07021E+005   -1.23040E+005    3.38976E+006   -1.31690E+006    2.68357E+006    8.07105E+005    1.14547E+004    3.13214E+006   -6.91895E+003   -1.45833E+004    6.61627E+005
            6740    3.54145E+006    3.92477E+006    3.92477E+006    1.02861E+006   -2.35251E+004    3.94830E+006   -1.64329E+006    3.16005E+006    1.02870E+006   -1.39112E+004    3.91507E+006   -7.38896E+003   -1.90454E+004    1.94189E+005
            6741    2.17382E+006    2.28739E+006    2.28739E+006    5.57401E+005   -1.52670E+005    2.44006E+006   -8.97374E+005    1.88511E+006    5.57024E+005    3.29994E+005    1.80511E+006   -2.75597E+004   -8.74365E+003    9.71319E+005
            6742    2.44843E+006    2.77283E+006    2.77283E+006    7.44744E+005    5.29257E+004    2.71991E+006   -1.19017E+006    2.21199E+006    7.44791E+005    1.30600E+005    2.69511E+006   -4.22286E+003   -1.00134E+004    4.52997E+005
            6743    3.06491E+006    3.44522E+006    3.44522E+006    9.41932E+005    2.70582E+004    3.41816E+006   -1.47140E+006    2.73140E+006    9.41942E+005    3.40127E+004    3.43826E+006   -6.68410E+003   -1.10877E+004    1.53560E+005
            6744    1.07212E+006    1.50261E+006    1.50261E+006    4.88207E+005    3.80856E+005    1.12175E+006   -7.90558E+005    1.05992E+006    4.83565E+005    5.02147E+005    1.38596E+006   -2.38576E+004   -1.70830E+003    3.41479E+005
            6745    2.08471E+006    2.46381E+006    2.46381E+006    6.99593E+005    1.63371E+005    2.30044E+006   -1.10892E+006    1.92014E+006    6.99578E+005    1.76319E+005    2.45088E+006   -3.17557E+003   -1.73735E+003    1.71982E+005
            6746    2.79003E+006    3.14318E+006    3.14318E+006    8.68244E+005    3.01775E+004    3.11300E+006   -1.34720E+006    2.48223E+006    8.68206E+005    3.10650E+004    3.14233E+006   -6.15785E+003   -3.59651E+003    5.12237E+004
            6747    3.23628E+006    3.28793E+006    3.28793E+006    1.23479E+005   -1.56979E+004    3.30363E+006   -1.13190E+006    3.22954E+006    1.23583E+005    1.54649E+004    3.25666E+006    2.44249E+003    3.26387E+004   -3.18172E+005
            6748    3.68469E+006    3.84378E+006    3.84378E+006    4.38822E+005   -6.81303E+004    3.91191E+006   -1.40482E+006    3.60497E+006    4.39129E+005   -4.47671E+004    3.82011E+006    4.40166E+003    3.79596E+004   -3.00714E+005
            6749    4.04564E+006    4.33101E+006    4.33101E+006    7.63730E+005   -6.47388E+004    4.39575E+006   -1.67667E+006    3.84778E+006    7.64092E+005   -5.60258E+004    4.32193E+006    5.17125E+003    3.89087E+004   -1.94856E+005
            6750    4.21674E+006    4.58663E+006    4.58663E+006    1.00554E+006   -6.09550E+004    4.64759E+006   -1.84374E+006    3.89558E+006    1.00585E+006   -6.04011E+004    4.58577E+006    4.85506E+003    3.48980E+004   -4.95488E+004
            6751    4.06150E+006    4.48072E+006    4.48072E+006    1.11004E+006   -2.85731E+004    4.50929E+006   -1.85406E+006    3.67589E+006    1.11026E+006   -2.71730E+004    4.47909E+006    3.37837E+003    2.78863E+004    7.92350E+004
            6752    4.16171E+006    4.39842E+006    4.39842E+006    6.05925E+005   -5.37094E+004    4.45213E+006   -1.65021E+006    4.04158E+006    6.06133E+005    8.18721E+004    4.26263E+006   -3.43418E+003    2.81783E+004   -7.64984E+005
            6753    4.24311E+006    4.38680E+006    4.38680E+006    6.62980E+005   -2.32615E+005    4.61941E+006   -1.60572E+006    4.02212E+006    6.63217E+005   -1.24448E+005    4.27840E+006    1.33361E+003    3.30067E+004   -6.98377E+005
            6754    4.22519E+006    4.35183E+006    4.35183E+006    7.58836E+005   -3.02992E+005    4.65482E+006   -1.60256E+006    3.90772E+006    7.59052E+005   -2.66065E+005    4.31468E+006    6.44812E+003    3.35022E+004   -4.12467E+005
            6755    4.04198E+006    4.22067E+006    4.22067E+006    8.55460E+005   -2.62670E+005    4.48334E+006   -1.60449E+006    3.66911E+006    8.55649E+005   -2.62583E+005    4.22040E+006    9.74188E+003    3.03362E+004    2.89086E+003
            6756    3.70981E+006    3.98500E+006    3.98500E+006    9.27400E+005   -1.42061E+005    4.12706E+006   -1.59011E+006    3.33564E+006    9.27526E+005   -1.22515E+005    3.96533E+006    1.15858E+004    2.50083E+004    2.82688E+005
            6757    5.01943E+006    5.44520E+006    5.44520E+006    1.10066E+006   -4.94777E+004    5.49468E+006   -2.16546E+006    4.70906E+006    1.10054E+006    1.12193E+005    5.28366E+006    1.48163E+004    3.58408E+004   -9.27448E+005
            6758    5.08578E+006    5.10540E+006    5.10540E+006    9.22554E+005   -5.55753E+005    5.66116E+006   -1.82407E+006    4.56353E+006    9.22344E+005   -4.44480E+005    4.99434E+006    2.23628E+004    3.93575E+004   -7.83995E+005
            6759    4.75725E+006    4.57845E+006    4.57845E+006    7.81437E+005   -7.57845E+005    5.33630E+006   -1.53401E+006    4.13866E+006    7.81301E+005   -7.43189E+005    4.56393E+006    2.49607E+004    3.68656E+004   -2.74775E+005
            6760    4.17828E+006    4.08978E+006    4.08978E+006    7.68000E+005   -6.01362E+005    4.69114E+006   -1.41880E+006    3.61921E+006    7.67973E+005   -5.89925E+005    4.07837E+006    2.36730E+004    3.19856E+004    2.27705E+005
            6761    3.63411E+006    3.68488E+006    3.68488E+006    7.88676E+005   -3.93001E+005    4.07788E+006   -1.36018E+006    3.15634E+006    7.88732E+005   -3.13652E+005    3.60547E+006    1.90500E+004    2.48447E+004    5.62546E+005
            6762    6.55053E+006    6.97724E+006    6.97724E+006    1.69479E+006   -3.52393E+005    7.32964E+006   -2.77321E+006    5.76201E+006    1.69497E+006   -2.37224E+005    6.86189E+006    6.86179E+003    3.70480E+004   -9.11260E+005
            6763    6.30111E+006    5.88292E+006    5.88292E+006    1.10093E+006   -1.25712E+006    7.14005E+006   -1.90891E+006    5.15814E+006    1.10107E+006   -1.22796E+006    5.85362E+006    1.26711E+004    3.43397E+004   -4.54630E+005
            6764    5.47642E+006    4.88170E+006    4.88170E+006    8.04059E+005   -1.34291E+006    6.22460E+006   -1.44762E+006    4.36655E+006    8.04136E+005   -1.33918E+006    4.87789E+006    1.72924E+004    2.85366E+004    1.49578E+005
            6765    4.63330E+006    4.14448E+006    4.14448E+006    6.95483E+005   -1.12202E+006    5.26650E+006   -1.23931E+006    3.69296E+006    6.95547E+005   -1.04238E+006    4.06477E+006    1.89872E+004    2.42682E+004    6.42168E+005
            6766    3.79204E+006    3.54314E+006    3.54314E+006    6.74245E+005   -7.56033E+005    4.29918E+006   -1.15379E+006    3.09132E+006    6.74240E+005   -5.26644E+005    3.31376E+006    1.90802E+004    1.66107E+004    9.65873E+005
            6767    4.53528E+006    3.73307E+006    3.73307E+006    5.72444E+005   -1.46340E+006    5.19647E+006   -9.47373E+005    3.23935E+006    5.72422E+005   -9.81516E+005    3.25121E+006    3.63765E+004    2.33459E+004    1.50664E+006
            6768    5.71409E+006    4.54900E+006    4.54900E+006    6.35392E+005   -2.00820E+006    6.55719E+006   -1.05873E+006    3.94029E+006    6.35411E+005   -1.75189E+006    4.29267E+006    4.02724E+004    3.36044E+004    1.26975E+006
            6769    6.91504E+006    5.58581E+006    5.58581E+006    8.41843E+005   -2.34844E+006    7.93425E+006   -1.35974E+006    4.78511E+006    8.41783E+005   -2.27398E+006    5.51141E+006    4.23222E+004    3.96639E+004    7.62621E+005
            6770    7.93882E+006    6.78655E+006    6.78655E+006    1.23454E+006   -2.30659E+006    9.09314E+006   -1.90483E+006    5.70866E+006    1.23442E+006   -2.30358E+006    6.78366E+006    4.32700E+004    4.62905E+004    1.50648E+005
            6771    8.86001E+006    8.48999E+006    8.48999E+006    2.01776E+006   -1.60779E+006    1.00978E+007   -2.96665E+006    6.86589E+006    2.01769E+006   -1.57325E+006    8.45552E+006    3.75887E+004    5.15613E+004   -5.85694E+005
            6772    9.77704E+006    1.03592E+007    1.03592E+007    2.95848E+006   -7.24435E+005    1.10836E+007   -4.19774E+006    7.97590E+006    2.95856E+006   -5.77500E+005    1.02122E+007    2.39458E+004    5.23349E+004   -1.26661E+006
            6773    1.07046E+007    1.25072E+007    1.25072E+007    4.14139E+006    4.44003E+005    1.20632E+007   -5.69753E+006    9.09186E+006    4.14147E+006    7.34955E+005    1.22161E+007    2.08002E+004    5.52773E+004   -1.84996E+006
            6774    8.85375E+006    1.18829E+007    1.18829E+007    4.29520E+006    2.15539E+006    9.72755E+006   -6.11118E+006    8.24128E+006    4.29529E+006    2.24937E+006    1.17889E+007    6.08267E+003    3.26037E+004   -9.51275E+005
            6775    8.23648E+006    1.14965E+007    1.14965E+007    4.18067E+006    2.57564E+006    8.92086E+006   -6.08427E+006    7.87302E+006    4.18070E+006    2.58228E+006    1.14898E+007    3.05521E+003    1.74331E+004   -2.43153E+005
            6776    7.46370E+006    9.44363E+006    9.44363E+006    3.06455E+006    1.23538E+006    8.20824E+006   -4.58119E+006    6.93197E+006    3.06462E+006    1.33355E+006    9.34539E+006    9.40186E+003    3.34991E+004   -8.91823E+005
            6777    6.57228E+006    9.06828E+006    9.06828E+006    3.06813E+006    2.04409E+006    7.02419E+006   -4.72683E+006    6.38908E+006    3.06818E+006    2.05628E+006    9.05604E+006   -3.09108E+002    1.63269E+004   -2.92390E+005
            6778    5.42149E+006    7.22227E+006    7.22227E+006    2.15306E+006    1.50649E+006    5.71578E+006   -3.62727E+006    5.33371E+006    2.15308E+006    1.52566E+006    7.20308E+006   -3.57314E+003    1.27724E+004   -3.30313E+005
            6779    4.46126E+006    5.55913E+006    5.55913E+006    1.28241E+006    9.33774E+005    4.62535E+006   -2.59177E+006    4.43046E+006    1.28232E+006    9.51398E+005    5.54159E+006   -6.54403E+003    8.14836E+003   -2.84126E+005
            6780    3.64953E+006    4.10731E+006    4.10731E+006    5.00080E+005    4.16891E+005    3.69042E+006   -1.67476E+006    3.64740E+006    4.99765E+005    4.31428E+005    4.09309E+006   -5.74329E+003    7.71971E+003   -2.28502E+005
            6781    2.63676E+006    2.52370E+006    2.52370E+006    9.22785E+004   -2.79028E+005    2.80273E+006   -7.78984E+005    2.57695E+006   -2.78987E+005    9.54193E+004    2.52052E+006   -3.02051E+003    7.52926E+003   -8.76125E+004
            6782    6.06040E+006    7.36377E+006    7.36377E+006    2.06884E+006    7.53825E+005    6.60994E+006   -3.39548E+006    5.72605E+006    2.06898E+006    8.62103E+005    7.25536E+006    3.01964E+003    3.05540E+004   -8.38885E+005
            6783    4.77275E+006    5.57370E+006    5.57370E+006    1.21072E+006    4.76314E+005    5.09739E+006   -2.42024E+006    4.64307E+006    1.21081E+006    5.82180E+005    5.46774E+006    1.79718E+003    2.48282E+004   -7.26789E+005
            6784    3.92405E+006    4.28755E+006    4.28755E+006    5.51559E+005    1.99200E+005    4.08835E+006   -1.67944E+006    3.88822E+006    5.51663E+005    2.90504E+005    4.19614E+006   -4.77027E+003    2.00327E+004   -6.04071E+005
            6785    2.85999E+006    2.81204E+006    2.81204E+006    4.45397E+004   -1.32248E+005    2.94429E+006   -9.08111E+005    2.84766E+006   -1.32077E+005    6.49761E+004    2.79143E+006   -7.19290E+002    2.19442E+004   -2.36977E+005
            6786    3.62907E+006    3.78181E+006    3.78181E+006    3.99691E+005   -5.19324E+004    3.83374E+006   -1.37652E+006    3.56502E+006    3.99944E+005   -6.95475E+003    3.73658E+006   -3.36019E+003   -3.58617E+004   -4.12257E+005
            6787    4.12264E+006    4.33275E+006    4.33275E+006    7.30113E+005   -1.63362E+005    4.49611E+006   -1.63317E+006    3.89577E+006    7.30417E+005   -1.42114E+005    4.31120E+006   -6.52144E+003   -3.83982E+004   -3.07659E+005
            6788    4.29631E+006    4.58536E+006    4.58536E+006    9.79675E+005   -1.68339E+005    4.75370E+006   -1.79890E+006    3.92839E+006    9.79942E+005   -1.68151E+005    4.58490E+006   -8.19241E+003   -3.44410E+004   -2.45238E+004
            6789    3.97817E+006    4.39199E+006    4.39199E+006    1.09388E+006   -2.61185E+004    4.41811E+006   -1.81992E+006    3.59699E+006    1.09407E+006   -1.95087E+004    4.38520E+006   -7.98158E+003   -2.71813E+004    1.70201E+005
            6790    4.90512E+006    5.03191E+006    5.03191E+006    8.99130E+005   -3.88623E+005    5.42053E+006   -1.84747E+006    4.50064E+006    8.99228E+005   -2.44454E+005    4.88764E+006   -9.14237E+003   -3.51668E+004   -8.71640E+005
            6791    4.75943E+006    4.56333E+006    4.56333E+006    7.47522E+005   -7.69765E+005    5.33309E+006   -1.51369E+006    4.16071E+006    7.47627E+005   -7.48683E+005    4.54214E+006   -1.43159E+004   -3.38165E+004   -3.33225E+005
            6792    4.10035E+006    4.04644E+006    4.04644E+006    7.62694E+005   -5.49350E+005    4.59579E+006   -1.41993E+006    3.58025E+006    7.62841E+005   -5.32557E+005    4.02950E+006   -1.33713E+004   -2.79564E+004    2.76435E+005
            6793    3.56727E+006    3.67983E+006    3.67983E+006    8.12035E+005   -3.14765E+005    3.99460E+006   -1.39237E+006    3.12760E+006    8.12196E+005   -2.23768E+005    3.58867E+006   -1.02500E+004   -2.27519E+004    5.95854E+005
            6794    4.12073E+006    3.57916E+006    3.57916E+006    6.07567E+005   -1.12496E+006    4.70413E+006   -1.02059E+006    3.12811E+006    6.07456E+005   -7.14611E+005    3.16893E+006   -3.59248E+004   -2.19860E+004    1.32661E+006
            6795    5.07324E+006    4.20465E+006    4.20465E+006    6.13488E+005   -1.59911E+006    5.80376E+006   -1.07301E+006    3.73040E+006    6.13382E+005   -1.40779E+006    4.01343E+006   -3.68367E+004   -2.82772E+004    1.03502E+006
            6796    6.02759E+006    4.98333E+006    4.98333E+006    7.17442E+005   -1.91233E+006    6.89566E+006   -1.26281E+006    4.43061E+006    7.17384E+005   -1.86586E+006    4.93691E+006   -3.40646E+004   -3.38094E+004    5.61892E+005
            6797    6.93595E+006    6.25623E+006    6.25623E+006    1.17229E+006   -1.64508E+006    7.90131E+006   -1.92781E+006    5.40311E+006    1.17227E+006   -1.64012E+006    6.25128E+006   -2.92660E+004   -4.02761E+004   -1.91434E+005
            6798    8.09072E+006    8.03522E+006    8.03522E+006    1.94805E+006   -1.14592E+006    9.18114E+006   -2.94578E+006    6.54597E+006    1.94814E+006   -1.07816E+006    7.96736E+006   -2.25219E+004   -4.63107E+004   -7.84502E+005
            6799    9.41260E+006    9.95982E+006    9.95982E+006    2.81505E+006   -7.05609E+005    1.06654E+007   -4.02309E+006    7.70728E+006    2.81514E+006   -5.34707E+005    9.78883E+006   -2.22345E+004   -5.12443E+004   -1.33830E+006
            6800    1.05011E+007    1.21231E+007    1.21231E+007    3.94309E+006    2.81428E+005    1.18417E+007   -5.44922E+006    8.88439E+006    3.94317E+006    5.50987E+005    1.18535E+007   -2.14279E+004   -5.43941E+004   -1.76538E+006
            6801    1.11734E+007    1.44447E+007    1.44447E+007    5.36544E+006    1.96650E+006    1.24782E+007   -7.25887E+006    9.90612E+006    5.36549E+006    2.36290E+006    1.40482E+007   -1.84694E+004   -5.54512E+004   -2.18776E+006
            6802    9.87993E+006    1.37865E+007    1.37865E+007    5.27562E+006    2.95185E+006    1.08347E+007   -7.33800E+006    9.23455E+006    5.27571E+006    3.02242E+006    1.37159E+007   -5.01875E+003   -3.16354E+004   -8.71423E+005
            6803    9.66122E+006    1.35119E+007    1.35119E+007    5.07692E+006    2.97170E+006    1.05402E+007   -7.18685E+006    9.12349E+006    5.07694E+006    2.97646E+006    1.35072E+007   -4.48744E+003   -1.80299E+004   -2.23658E+005
            6804    8.44154E+006    1.12869E+007    1.12869E+007    4.02216E+006    2.02625E+006    9.26063E+006   -5.77843E+006    7.88399E+006    4.02223E+006    2.12324E+006    1.11898E+007   -7.62774E+003   -3.20380E+004   -9.42432E+005
            6805    7.90695E+006    1.09322E+007    1.09322E+007    3.89221E+006    2.37738E+006    8.55478E+006   -5.73392E+006    7.57008E+006    3.89225E+006    2.38785E+006    1.09217E+007   -2.19191E+003   -1.69869E+004   -2.98931E+005
            6806    7.26714E+006    9.09849E+006    9.09849E+006    2.87375E+006    1.11265E+006    7.98584E+006   -4.36163E+006    6.76155E+006    2.87385E+006    1.21688E+006    8.99415E+006   -6.26581E+003   -3.21636E+004   -9.06136E+005
            6807    6.21265E+006    8.46043E+006    8.46043E+006    2.75711E+006    1.84033E+006    6.62010E+006   -4.35262E+006    6.05766E+006    2.75715E+006    1.84868E+006    8.45203E+006    1.11190E+003   -1.55532E+004   -2.34971E+005
            6808    5.74822E+006    6.78105E+006    6.78105E+006    1.77392E+006    5.04093E+005    6.27696E+006   -3.01969E+006    5.41900E+006    1.77402E+006    6.03566E+005    6.68148E+006   -5.57519E+003   -2.99923E+004   -7.83618E+005
            6809    4.97454E+006    6.46227E+006    6.46227E+006    1.76316E+006    1.25181E+006    5.21046E+006   -3.15908E+006    4.91489E+006    1.76317E+006    1.27445E+006    6.43962E+006    4.77196E+003   -1.37025E+004   -3.42468E+005
            6810    4.03846E+006    4.77005E+006    4.77005E+006    8.49477E+005    6.23212E+005    4.14684E+006   -2.08091E+006    4.02416E+006    8.49363E+005    6.48068E+005    4.74531E+006    6.53968E+003   -1.04657E+004   -3.19156E+005
            6811    2.75734E+006    2.74520E+006    2.74520E+006    1.57510E+005   -1.55135E+005    2.90033E+006   -9.15858E+005    2.71703E+006   -1.55081E+005    1.66791E+005    2.73586E+006    3.13341E+003   -9.63361E+003   -1.54863E+005
            6812    4.56170E+006    5.04922E+006    5.04922E+006    9.20754E+005    1.51990E+005    4.89723E+006   -2.04066E+006    4.41241E+006    9.20876E+005    2.94241E+005    4.90685E+006   -1.49938E+003   -2.72339E+004   -8.22282E+005
            6813    3.16111E+006    3.19636E+006    3.19636E+006    5.65129E+004    1.44101E+004    3.18195E+006   -1.08909E+006    3.16048E+006    5.65686E+004    5.59975E+004    3.15472E+006    3.94044E+002   -2.62348E+004   -3.60671E+005
            6814    3.39459E+006    3.01265E+006    3.01265E+006    5.57818E+005   -8.61198E+005    3.87385E+006   -9.03089E+005    2.58872E+006    5.57846E+005   -1.97478E+005    2.34890E+006    3.05563E+004    1.73068E+004    1.45926E+006
            6815    2.97845E+006    2.97634E+006    2.97634E+006    6.57465E+005   -3.82698E+005    3.35904E+006   -1.08370E+006    2.51827E+006    6.57470E+005   -6.46249E+004    2.65826E+006    1.67503E+004    1.34624E+004    9.83260E+005
            6816    3.04247E+006    3.23283E+006    3.23283E+006    7.79793E+005   -1.71664E+005    3.40449E+006   -1.28032E+006    2.67571E+006    7.79845E+005   -4.03663E+004    3.10148E+006    1.36694E+004    1.73004E+004    6.55284E+005
            6817    3.29965E+006    3.61860E+006    3.61860E+006    9.17395E+005   -5.90843E+004    3.67768E+006   -1.49230E+006    2.94731E+006    9.17415E+005   -1.99526E+004    3.57945E+006    1.25219E+004    1.79360E+004    3.76773E+005
            6818    3.65094E+006    4.06452E+006    4.06452E+006    1.07390E+006   -4.01988E+003    4.06854E+006   -1.71147E+006    3.26307E+006    1.07403E+006   -4.42504E+002    4.06082E+006    1.57872E+003    1.96021E+004    1.20572E+005
            6819    2.21190E+006    2.22534E+006    2.22534E+006    5.08954E+005   -2.70853E+005    2.49619E+006   -8.21146E+005    1.86266E+006    5.08764E+005    3.33241E+005    1.62143E+006    2.39022E+004    7.28838E+003    1.06872E+006
            6820    2.13742E+006    2.36561E+006    2.36561E+006    6.09115E+005   -1.41739E+004    2.37978E+006   -9.86849E+005    1.91639E+006    6.08931E+005    2.31357E+005    2.12026E+006    1.48745E+004    5.62095E+003    7.23528E+005
            6821    2.44201E+006    2.74173E+006    2.74173E+006    7.26918E+005    2.58695E+004    2.71586E+006   -1.16484E+006    2.19793E+006    7.26902E+005    1.19216E+005    2.64840E+006    9.23965E+003    9.47779E+003    4.94568E+005
            6822    2.82983E+006    3.17214E+006    3.17214E+006    8.49789E+005    2.02403E+004    3.15190E+006   -1.34739E+006    2.53384E+006    8.49697E+005    4.84742E+004    3.14399E+006    1.23563E+004    1.08100E+004    2.96162E+005
            6823    3.20611E+006    3.58486E+006    3.58486E+006    9.75993E+005    5.67520E+003    3.57919E+006   -1.52218E+006    2.84653E+006    9.76042E+005    8.46271E+003    3.58202E+006    6.51702E+002    1.12534E+004    9.98433E+004
            6824    9.51431E+005    1.35587E+006    1.35587E+006    4.43570E+005    3.69618E+005    9.86249E+005   -7.23019E+005    9.44933E+005    4.40024E+005    5.75149E+005    1.15388E+006    2.00081E+004    3.71507E+003    3.96899E+005
            6825    1.44776E+006    1.86526E+006    1.86526E+006    5.64380E+005    3.05532E+005    1.55973E+006   -9.11725E+005    1.39427E+006    5.63832E+005    3.50158E+005    1.82118E+006    1.30353E+004    3.87642E+003    2.58337E+005
            6826    2.03026E+006    2.40877E+006    2.40877E+006    6.85121E+005    1.70805E+005    2.23796E+006   -1.08823E+006    1.87511E+006    6.85043E+005    1.85669E+005    2.39398E+006    6.95205E+003    3.17731E+003    1.81251E+005
            6827    2.53054E+006    2.88460E+006    2.88460E+006    7.96377E+005    7.04228E+004    2.81418E+006   -1.25047E+006    2.27800E+006    7.96196E+005    7.49941E+004    2.88021E+006    1.18256E+004    3.44151E+003    1.10974E+005
            6828    2.91253E+006    3.26934E+006    3.26934E+006    9.02154E+005    1.68867E+004    3.25245E+006   -1.39613E+006    2.58278E+006    9.02160E+005    1.73203E+004    3.26890E+006    9.14713E+001    3.77403E+003    3.75525E+004
            6829    1.12842E+007    1.47472E+007    1.47472E+007    5.54329E+006    2.15778E+006    1.25894E+007   -7.48276E+006    1.00426E+007    5.54333E+006    2.55848E+006    1.43465E+007    1.94489E+004   -5.56689E+004    2.20926E+006
            6830    1.01627E+007    1.43523E+007    1.43523E+007    5.58059E+006    3.21574E+006    1.11366E+007   -7.71623E+006    9.51360E+006    5.58067E+006    3.28546E+006    1.42825E+007    6.49570E+003   -3.19357E+004    8.78207E+005
            6831    1.01817E+007    1.42533E+007    1.42533E+007    5.40870E+006    3.12298E+006    1.11303E+007   -7.59500E+006    9.57863E+006    5.40872E+006    3.12819E+006    1.42481E+007    4.73364E+003   -1.83544E+004    2.40425E+005
            6832    1.11386E+007    1.66927E+007    1.66927E+007    7.05819E+006    4.49634E+006    1.21963E+007   -9.41574E+006    1.04444E+007    7.05823E+006    4.88675E+006    1.63022E+007    1.42524E+004   -5.33511E+004    2.14627E+006
            6833    1.14606E+007    1.67035E+007    1.67035E+007    6.77551E+006    4.16185E+006    1.25417E+007   -9.21363E+006    1.07589E+007    6.77560E+006    4.19948E+006    1.66658E+007    1.85200E+003   -3.11510E+004    6.85835E+005
            6834    1.19500E+007    1.67552E+007    1.67552E+007    6.51669E+006    3.62458E+006    1.31307E+007   -8.96551E+006    1.11210E+007    6.51671E+006    3.62654E+006    1.67533E+007    4.96971E+003   -1.74224E+004    1.59668E+005
            6835    1.04619E+007    1.78908E+007    1.78908E+007    8.27655E+006    6.74915E+006    1.11417E+007   -1.09722E+007    1.02066E+007    8.27665E+006    6.90870E+006    1.77312E+007    8.78827E+003   -5.03386E+004    1.32308E+006
            6836    1.23468E+007    1.83672E+007    1.83672E+007    7.63304E+006    4.87447E+006    1.34928E+007   -1.02916E+007    1.16227E+007    7.63314E+006    4.88398E+006    1.83576E+007    1.44387E+003   -3.22352E+004    3.58094E+005
            6837    1.32492E+007    1.85591E+007    1.85591E+007    7.30118E+006    3.95862E+006    1.46004E+007   -9.93962E+006    1.22455E+007    7.30120E+006    3.95912E+006    1.85585E+007    2.95851E+003   -1.55385E+004    8.57992E+004
            6838    1.00609E+007    1.82188E+007    1.82188E+007    8.71901E+006    7.67771E+006    1.05410E+007   -1.15385E+007    9.93857E+006    8.71926E+006    7.67821E+006    1.82180E+007   -9.96433E+002   -4.87748E+004   -7.24724E+004
            6839    1.26359E+007    1.88883E+007    1.88883E+007    7.89551E+006    5.08316E+006    1.38051E+007   -1.06223E+007    1.19007E+007    7.89560E+006    5.08340E+006    1.88879E+007   -9.73642E+002   -3.21980E+004   -5.68834E+004
            6840    1.36450E+007    1.91007E+007    1.91007E+007    7.53374E+006    4.05220E+006    1.50485E+007   -1.02289E+007    1.25862E+007    7.53376E+006    4.05223E+006    1.91006E+007   -4.05563E+002   -1.43129E+004   -1.90116E+004
            6841    1.05126E+007    1.77816E+007    1.77816E+007    8.16855E+006    6.55579E+006    1.12258E+007   -1.08353E+007    1.02287E+007    8.16866E+006    6.74010E+006    1.75972E+007   -8.35306E+003   -5.03676E+004   -1.42600E+006
            6842    1.22232E+007    1.80797E+007    1.80797E+007    7.47069E+006    4.71345E+006    1.33663E+007   -1.00880E+007    1.14918E+007    7.47079E+006    4.72861E+006    1.80645E+007   -5.79474E+002   -3.20273E+004   -4.49922E+005
            6843    1.29849E+007    1.81758E+007    1.81758E+007    7.12918E+006    3.87253E+006    1.43032E+007   -9.72582E+006    1.20134E+007    7.12920E+006    3.87328E+006    1.81750E+007   -3.62850E+003   -1.58830E+004   -1.03519E+005
            6844    1.11471E+007    1.64797E+007    1.64797E+007    6.89275E+006    4.24798E+006    1.22317E+007   -9.20680E+006    1.04055E+007    6.89278E+006    4.64139E+006    1.60862E+007   -1.55933E+004   -5.35059E+004   -2.15743E+006
            6845    1.12111E+007    1.62024E+007    1.62024E+007    6.50692E+006    3.92586E+006    1.22765E+007   -8.87839E+006    1.05109E+007    6.50700E+006    3.96820E+006    1.61600E+007   -4.13608E+003   -3.12375E+004   -7.19567E+005
            6846    1.15012E+007    1.61022E+007    1.61022E+007    6.22189E+006    3.47679E+006    1.26254E+007   -8.60029E+006    1.07264E+007    6.22191E+006    3.47947E+006    1.60995E+007   -5.14314E+003   -1.73872E+004   -1.83712E+005
            6847    3.65768E+006    4.07067E+006    4.07067E+006    1.07507E+006   -5.59124E+003    4.07626E+006   -1.71338E+006    3.26850E+006    1.07520E+006   -2.03743E+003    4.06699E+006    1.61599E+003   -1.96906E+004   -1.20288E+005
            6848    3.29935E+006    3.61787E+006    3.61787E+006    9.17047E+005   -5.95356E+004    3.67740E+006   -1.49179E+006    2.94689E+006    9.17068E+005   -2.00385E+004    3.57835E+006    1.25573E+004   -1.79519E+004   -3.78497E+005
            6849    3.04021E+006    3.22802E+006    3.22802E+006    7.77763E+005   -1.74269E+005    3.40229E+006   -1.27717E+006    2.67263E+006    7.77814E+005   -4.12884E+004    3.09499E+006    1.36525E+004   -1.71731E+004   -6.59084E+005
            6850    2.97494E+006    2.97021E+006    2.97021E+006    6.55127E+005   -3.85182E+005    3.35540E+006   -1.08005E+006    2.51392E+006    6.55134E+005   -6.23709E+004    2.64740E+006    1.68577E+004   -1.35511E+004   -9.89191E+005
            6851    3.39389E+006    3.01133E+006    3.01133E+006    5.57347E+005   -8.61788E+005    3.87312E+006   -9.02296E+005    2.58760E+006    5.57376E+005   -1.95967E+005    2.34548E+006    3.06386E+004   -1.73487E+004   -1.46092E+006
            6852    3.20746E+006    3.58790E+006    3.58790E+006    9.77451E+005    7.38183E+003    3.58052E+006   -1.52424E+006    2.84826E+006    9.77500E+005    1.01356E+004    3.58510E+006    5.53143E+002   -1.12556E+004   -9.92580E+004
            6853    2.83514E+006    3.17819E+006    3.17819E+006    8.51672E+005    2.03217E+004    3.15787E+006   -1.35006E+006    2.53839E+006    8.51582E+005    4.81613E+004    3.15044E+006    1.22940E+004   -1.08467E+004   -2.94385E+005
            6854    2.44442E+006    2.74464E+006    2.74464E+006    7.27906E+005    2.60722E+004    2.71856E+006   -1.16620E+006    2.20003E+006    7.27889E+005    1.19549E+005    2.65118E+006    9.30213E+003   -9.50330E+003   -4.95151E+005
            6855    2.13133E+006    2.35748E+006    2.35748E+006    6.06240E+005   -1.56104E+004    2.37309E+006   -9.82704E+005    1.91067E+006    6.06051E+005    2.32791E+005    2.10927E+006    1.50270E+004   -5.58798E+003   -7.26110E+005
            6856    2.21523E+006    2.22355E+006    2.22355E+006    5.06509E+005   -2.76943E+005    2.50049E+006   -8.17706E+005    1.86292E+006    5.06318E+005    3.32761E+005    1.61404E+006    2.39112E+004   -7.16273E+003   -1.07331E+006
            6857    2.91495E+006    3.27002E+006    3.27002E+006    9.01539E+005    1.46403E+004    3.25538E+006   -1.39540E+006    2.58419E+006    9.01545E+005    1.50785E+004    3.26958E+006    8.94517E+001   -3.80917E+003   -3.77630E+004
            6858    2.53445E+006    2.88810E+006    2.88810E+006    7.97147E+005    6.93877E+004    2.81871E+006   -1.25155E+006    2.28100E+006    7.96968E+005    7.39547E+004    2.88371E+006    1.18039E+004   -3.45571E+003   -1.11025E+005
            6859    2.02926E+006    2.40803E+006    2.40803E+006    6.85005E+005    1.71279E+005    2.23675E+006   -1.08811E+006    1.87440E+006    6.84926E+005    1.85963E+005    2.39343E+006    6.92794E+003   -3.14685E+003   -1.80105E+005
            6860    1.44296E+006    1.86395E+006    1.86395E+006    5.65671E+005    3.10371E+005    1.55357E+006   -9.13329E+005    1.39078E+006    5.65121E+005    3.54162E+005    1.82071E+006    1.29685E+004   -3.88946E+003   -2.55422E+005
            6861    9.55432E+005    1.36132E+006    1.36132E+006    4.45756E+005    3.70477E+005    9.90844E+005   -7.25852E+005    9.48725E+005    4.42258E+005    5.76754E+005    1.15854E+006    2.00754E+004   -3.73653E+003   -3.98658E+005
            6862    8.85283E+006    8.48630E+006    8.48630E+006    2.01802E+006   -1.60303E+006    1.00893E+007   -2.96710E+006    6.86245E+006    2.01794E+006   -1.56889E+006    8.45224E+006    3.76910E+004   -5.15413E+004    5.81927E+005
            6863    7.93582E+006    6.78293E+006    6.78293E+006    1.23385E+006   -2.30691E+006    9.08984E+006   -1.90329E+006    5.70485E+006    1.23374E+006   -2.30388E+006    6.78001E+006    4.33098E+004   -4.61914E+004   -1.51405E+005
            6864    6.89502E+006    5.57154E+006    5.57154E+006    8.40596E+005   -2.33964E+006    7.91118E+006   -1.35750E+006    4.77276E+006    8.40533E+005   -2.26430E+006    5.49627E+006    4.25241E+004   -3.96974E+004   -7.65915E+005
            6865    5.70231E+006    4.54199E+006    4.54199E+006    6.35396E+005   -2.00154E+006    6.54353E+006   -1.05861E+006    3.93442E+006    6.35417E+005   -1.74439E+006    4.28482E+006    4.03527E+004   -3.36987E+004   -1.27038E+006
            6866    4.51842E+006    3.72318E+006    3.72318E+006    5.72596E+005   -1.45372E+006    5.17689E+006   -9.47352E+005    3.23067E+006    5.72572E+005   -9.70949E+005    3.24043E+006    3.63574E+004   -2.32412E+004   -1.50474E+006
            6867    3.80462E+006    3.55002E+006    3.55002E+006    6.73931E+005   -7.64003E+005    4.31402E+006   -1.15331E+006    3.09819E+006    6.73925E+005   -5.34070E+005    3.32009E+006    1.91781E+004   -1.65702E+004   -9.68714E+005
            6868    3.64044E+006    3.68502E+006    3.68502E+006    7.86223E+005   -4.00770E+005    4.08579E+006   -1.35682E+006    3.15889E+006    7.86280E+005   -3.20100E+005    3.60429E+006    1.91384E+004   -2.48987E+004   -5.67686E+005
            6869    3.70992E+006    3.98072E+006    3.98072E+006    9.24591E+005   -1.47066E+005    4.12778E+006   -1.58608E+006    3.33409E+006    9.24716E+005   -1.27202E+005    3.96073E+006    1.17336E+004   -2.50406E+004   -2.84986E+005
            6870    4.06001E+006    4.47992E+006    4.47992E+006    1.10990E+006   -2.74918E+004    4.50741E+006   -1.85411E+006    3.67514E+006    1.11012E+006   -2.61297E+004    4.47833E+006    3.35906E+003   -2.78433E+004   -7.81319E+004
            6871    4.64924E+006    4.15645E+006    4.15645E+006    6.96575E+005   -1.12840E+006    5.28485E+006   -1.24154E+006    3.70415E+006    6.96640E+005   -1.05065E+006    4.07863E+006    1.90623E+004   -2.44855E+004   -6.35724E+005
            6872    4.19417E+006    4.09968E+006    4.09968E+006    7.67978E+005   -6.10157E+005    4.70984E+006   -1.41917E+006    3.62970E+006    7.67948E+005   -5.99121E+005    4.08867E+006    2.37747E+004   -3.20206E+004   -2.23984E+005
            6873    4.04247E+006    4.22029E+006    4.22029E+006    8.55499E+005   -2.63916E+005    4.48421E+006   -1.60396E+006    3.66872E+006    8.55687E+005   -2.63830E+005    4.22002E+006    9.80629E+003   -3.03416E+004   -1.23541E+003
            6874    4.21472E+006    4.58313E+006    4.58313E+006    1.00417E+006   -6.24188E+004    4.64555E+006   -1.84163E+006    3.89333E+006    1.00449E+006   -6.18627E+004    4.58226E+006    4.93410E+003   -3.49020E+004    4.96017E+004
            6875    5.51119E+006    4.91293E+006    4.91293E+006    8.10843E+005   -1.35153E+006    6.26446E+006   -1.45741E+006    4.39206E+006    8.10921E+005   -1.34843E+006    4.90974E+006    1.72178E+004   -2.86313E+004   -1.36574E+005
            6876    4.77872E+006    4.59714E+006    4.59714E+006    7.85328E+005   -7.64008E+005    5.36115E+006   -1.53949E+006    4.15455E+006    7.85193E+005   -7.48685E+005    4.58195E+006    2.50073E+004   -3.69617E+004    2.81795E+005
            6877    4.23137E+006    4.35466E+006    4.35466E+006    7.60024E+005   -3.08574E+005    4.66323E+006   -1.60204E+006    3.91012E+006    7.60238E+005   -2.72393E+005    4.31826E+006    6.64319E+003   -3.35283E+004    4.08658E+005
            6878    4.05106E+006    4.33610E+006    4.33610E+006    7.67610E+005   -6.74051E+004    4.40350E+006   -1.67877E+006    3.85023E+006    7.67970E+005   -5.86100E+004    4.32694E+006    5.15601E+003   -3.88105E+004    1.95957E+005
            6879    6.31438E+006    5.90063E+006    5.90063E+006    1.10817E+006   -1.25434E+006    7.15497E+006   -1.91815E+006    5.16958E+006    1.10831E+006   -1.22482E+006    5.87097E+006    1.26398E+004   -3.44655E+004    4.57880E+005
            6880    5.09951E+006    5.11951E+006    5.11951E+006    9.26699E+005   -5.57433E+005    5.67694E+006   -1.82959E+006    4.57443E+006    9.26482E+005   -4.45318E+005    5.00761E+006    2.25887E+004   -3.94623E+004    7.88001E+005
            6881    4.25094E+006    4.39472E+006    4.39472E+006    6.67253E+005   -2.34865E+005    4.62959E+006   -1.60904E+006    4.02703E+006    6.67490E+005   -1.26493E+005    4.28611E+006    1.35134E+003   -3.30268E+004    6.99813E+005
            6882    3.69348E+006    3.85829E+006    3.85829E+006    4.48681E+005   -6.52271E+004    3.92352E+006   -1.41392E+006    3.61173E+006    4.48989E+005   -4.21756E+004    3.83493E+006    4.49973E+003   -3.80430E+004    2.99144E+005
            6883    6.55601E+006    6.98400E+006    6.98400E+006    1.69672E+006   -3.51636E+005    7.33563E+006   -2.77636E+006    5.76730E+006    1.69690E+006   -2.36511E+005    6.86869E+006    6.84486E+003   -3.71351E+004    9.11466E+005
            6884    5.00877E+006    5.43189E+006    5.43189E+006    1.09421E+006   -4.99882E+004    5.48188E+006   -2.15870E+006    4.70104E+006    1.09408E+006    1.11063E+005    5.27096E+006    1.46480E+004   -3.56906E+004    9.24621E+005
            6885    4.15941E+006    4.39333E+006    4.39333E+006    6.03804E+005   -5.68826E+004    4.45021E+006   -1.64675E+006    4.03882E+006    6.04015E+005    7.99285E+004    4.25630E+006   -3.48525E+003   -2.82788E+004    7.68164E+005
            6886    3.25152E+006    3.30509E+006    3.30509E+006    1.31238E+005   -1.89054E+004    3.32399E+006   -1.13914E+006    3.24371E+006    1.31357E+005    1.20840E+004    3.27398E+006    2.48789E+003   -3.27919E+004    3.18342E+005
            6887    2.87290E+006    2.82813E+006    2.82813E+006    4.32057E+004   -1.25314E+005    2.95345E+006   -9.15342E+005    2.86174E+006   -1.25137E+005    6.42287E+004    2.80693E+006   -7.11403E+002   -2.22681E+004    2.41095E+005
            6888    2.64129E+006    2.53114E+006    2.53114E+006    9.38705E+004   -2.75325E+005    2.80646E+006   -7.83228E+005    2.58228E+006   -2.75284E+005    9.71544E+004    2.52781E+006   -3.03569E+003   -7.56128E+003    8.96819E+004
            6889    3.92002E+006    4.28023E+006    4.28023E+006    5.47492E+005    1.96526E+005    4.08370E+006   -1.67475E+006    3.88444E+006    5.47596E+005    2.88166E+005    4.18849E+006   -4.84856E+003   -2.00110E+004    6.04801E+005
            6890    3.65820E+006    4.11914E+006    4.11914E+006    5.05201E+005    4.18221E+005    3.70091E+006   -1.68085E+006    3.65587E+006    5.04902E+005    4.32761E+005    4.10489E+006   -5.73229E+003   -7.77969E+003    2.28978E+005
            6891    4.76327E+006    5.56024E+006    5.56024E+006    1.20402E+006    4.74167E+005    5.08607E+006   -2.41281E+006    4.63496E+006    1.20412E+006    5.80413E+005    5.45390E+006    1.71117E+003   -2.47192E+004    7.27244E+005
            6892    4.46589E+006    5.56564E+006    5.56564E+006    1.28505E+006    9.35055E+005    4.63059E+006   -2.59525E+006    4.43487E+006    1.28497E+006    9.53023E+005    5.54776E+006   -6.58464E+003   -8.23337E+003    2.87039E+005
            6893    6.06463E+006    7.36690E+006    7.36690E+006    2.06877E+006    7.52098E+005    6.61480E+006   -3.39592E+006    5.72965E+006    2.06890E+006    8.60563E+005    7.25830E+006    3.02599E+003   -3.05390E+004    8.39914E+005
            6894    5.41647E+006    7.21914E+006    7.21914E+006    2.15294E+006    1.50983E+006    5.70931E+006   -3.62731E+006    5.32956E+006    2.15296E+006    1.52896E+006    7.19999E+006   -3.55846E+003   -1.27571E+004    3.29854E+005
            6895    6.58612E+006    9.09136E+006    9.09136E+006    3.07945E+006    2.05183E+006    7.03953E+006   -4.74088E+006    6.40202E+006    3.07950E+006    2.06385E+006    9.07929E+006   -2.89851E+002   -1.63039E+004    2.90648E+005
            6896    8.27714E+006    1.15538E+007    1.15538E+007    4.20588E+006    2.58665E+006    8.96710E+006   -6.11543E+006    7.90893E+006    4.20592E+006    2.59319E+006    1.15472E+007    3.10138E+003   -1.74696E+004    2.41943E+005
            6897    7.46811E+006    9.45478E+006    9.45478E+006    3.07065E+006    1.24228E+006    8.21250E+006   -4.58924E+006    6.93722E+006    3.07072E+006    1.34047E+006    9.35653E+006    9.38780E+003   -3.34958E+004    8.92138E+005
            6898    8.85992E+006    1.19114E+007    1.19114E+007    4.31346E+006    2.17933E+006    9.73206E+006   -6.13473E+006    8.25135E+006    4.31356E+006    2.27331E+006    1.18173E+007    6.01692E+003   -3.25229E+004    9.51491E+005
            6899    1.06948E+007    1.24786E+007    1.24786E+007    4.12464E+006    4.25160E+005    1.20534E+007   -5.67613E+006    9.07811E+006    4.12473E+006    7.13772E+005    1.21899E+007    2.08171E+004   -5.52323E+004    1.84192E+006
            6900    9.76581E+006    1.03406E+007    1.03406E+007    2.94910E+006   -7.30443E+005    1.10711E+007   -4.18643E+006    7.96573E+006    2.94919E+006   -5.85235E+005    1.01953E+007    2.39753E+004   -5.22706E+004    1.25851E+006
            6901    6.94297E+006    6.26341E+006    6.26341E+006    1.17511E+006   -1.64607E+006    7.90948E+006   -1.93082E+006    5.40730E+006    1.17509E+006   -1.64105E+006    6.25841E+006    2.92594E+004   -4.02836E+004    1.92643E+005
            6902    6.02366E+006    4.98175E+006    4.98175E+006    7.18176E+005   -1.90933E+006    6.89108E+006   -1.26353E+006    4.42861E+006    7.18118E+005   -1.86274E+006    4.93523E+006    3.40551E+004   -3.37903E+004   -5.62414E+005
            6903    5.06474E+006    4.20298E+006    4.20298E+006    6.15914E+005   -1.59072E+006    5.79370E+006   -1.07606E+006    3.72772E+006    6.15807E+005   -1.40014E+006    4.01250E+006    3.68298E+004   -2.82915E+004   -1.03216E+006
            6904    4.11891E+006    3.58001E+006    3.58001E+006    6.08740E+005   -1.12184E+006    4.70185E+006   -1.02230E+006    3.12843E+006    6.08628E+005   -7.12855E+005    3.17114E+006    3.59576E+004   -2.20155E+004   -1.32426E+006
            6905    3.57804E+006    3.68331E+006    3.68331E+006    8.08983E+005   -3.24073E+005    4.00738E+006   -1.38941E+006    3.13457E+006    8.09145E+005   -2.33703E+005    3.59278E+006    1.03925E+004   -2.28430E+004   -5.94809E+005
            6906    3.99148E+006    4.40293E+006    4.40293E+006    1.09338E+006   -2.98051E+004    4.43273E+006   -1.82217E+006    3.60943E+006    1.09357E+006   -2.34337E+004    4.39637E+006    7.98128E+003   -2.74014E+004   -1.67363E+005
            6907    4.11284E+006    4.05612E+006    4.05612E+006    7.63258E+005   -5.53972E+005    4.61009E+006   -1.42180E+006    3.59011E+006    7.63405E+005   -5.38005E+005    4.04000E+006    1.34575E+004   -2.80655E+004   -2.69938E+005
            6908    4.29911E+006    4.58522E+006    4.58522E+006    9.75539E+005   -1.70885E+005    4.75611E+006   -1.79662E+006    3.93256E+006    9.75808E+005   -1.70606E+005    4.58467E+006    8.18854E+003   -3.46125E+004    3.21649E+004
            6909    4.77177E+006    4.57432E+006    4.57432E+006    7.49571E+005   -7.72921E+005    5.34724E+006   -1.51699E+006    4.17038E+006    7.49677E+005   -7.51222E+005    4.55251E+006    1.43075E+004   -3.38750E+004    3.38539E+005
            6910    4.11849E+006    4.32846E+006    4.32846E+006    7.27839E+005   -1.62313E+005    4.49078E+006   -1.63133E+006    3.89313E+006    7.28143E+005   -1.40792E+005    4.30664E+006    6.51959E+003   -3.84138E+004    3.09440E+005
            6911    4.90741E+006    5.03629E+006    5.03629E+006    9.01027E+005   -3.86546E+005    5.42283E+006   -1.85026E+006    4.50326E+006    9.01125E+005   -2.41772E+005    4.89142E+006    9.12449E+003   -3.51879E+004    8.73611E+005
            6912    3.63054E+006    3.78320E+006    3.78320E+006    4.00386E+005   -5.25503E+004    3.83575E+006   -1.37701E+006    3.56614E+006    4.00639E+005   -7.68263E+003    3.73808E+006    3.37919E+003   -3.58913E+004    4.11866E+005
            6913    3.16424E+006    3.19917E+006    3.19917E+006    5.74137E+004    1.29066E+004    3.18626E+006   -1.08983E+006    3.16354E+006    5.74756E+004    5.48088E+004    3.15720E+006   -3.81512E+002   -2.63301E+004    3.62290E+005
            6914    2.75498E+006    2.74074E+006    2.74074E+006    1.56231E+005   -1.57796E+005    2.89854E+006   -9.13059E+005    2.71428E+006   -1.57743E+005    1.65772E+005    2.73115E+006   -3.10872E+003   -9.72434E+003    1.56909E+005
            6915    4.56073E+006    5.04687E+006    5.04687E+006    9.19112E+005    1.50782E+005    4.89609E+006   -2.03892E+006    4.41158E+006    9.19234E+005    2.92978E+005    4.90455E+006    1.49988E+003   -2.72382E+004    8.22029E+005
            6916    4.03089E+006    4.75727E+006    4.75727E+006    8.42544E+005    6.19491E+005    4.13778E+006   -2.07310E+006    4.01697E+006    8.42428E+005    6.44344E+005    4.73254E+006   -6.55294E+003   -1.04902E+004    3.18767E+005
            6917    4.96019E+006    6.43879E+006    6.43879E+006    1.75103E+006    1.24498E+006    5.19382E+006   -3.14493E+006    4.90161E+006    1.75104E+006    1.26789E+006    6.41587E+006   -4.81075E+003   -1.36972E+004    3.43984E+005
            6918    6.18278E+006    8.41747E+006    8.41747E+006    2.73736E+006    1.83188E+006    6.58559E+006   -4.32890E+006    6.03090E+006    2.73741E+006    1.83997E+006    8.40934E+006   -1.17162E+003   -1.54746E+004    2.30668E+005
            6919    7.90235E+006    1.09213E+007    1.09213E+007    3.88557E+006    2.37145E+006    8.54986E+006   -5.72611E+006    7.56559E+006    3.88561E+006    2.38172E+006    1.09110E+007    2.18602E+003   -1.68839E+004    2.96046E+005
            6920    9.67839E+006    1.35373E+007    1.35373E+007    5.08831E+006    2.97784E+006    1.05595E+007   -7.20116E+006    9.13891E+006    5.08833E+006    2.98255E+006    1.35326E+007    4.49955E+003   -1.79269E+004    2.22663E+005
            6921    5.74390E+006    6.77614E+006    6.77614E+006    1.77168E+006    5.04441E+005    6.27170E+006   -3.01742E+006    5.41581E+006    1.77178E+006    6.03552E+005    6.67693E+006    5.55298E+003   -2.99604E+004    7.81880E+005
            6922    7.26541E+006    9.10190E+006    9.10190E+006    2.87618E+006    1.11909E+006    7.98282E+006   -4.36572E+006    6.76212E+006    2.87628E+006    1.22389E+006    8.99700E+006    6.21534E+003   -3.21267E+004    9.08407E+005
            6923    8.43334E+006    1.12942E+007    1.12942E+007    4.03062E+006    2.04537E+006    9.24885E+006   -5.79007E+006    7.88145E+006    4.03069E+006    2.14177E+006    1.11977E+007    7.54696E+003   -3.19560E+004    9.39048E+005
            6924    9.88083E+006    1.37906E+007    1.37906E+007    5.27799E+006    2.95531E+006    1.08353E+007   -7.34129E+006    9.23616E+006    5.27808E+006    3.02502E+006    1.37208E+007    4.98173E+003   -3.15495E+004    8.66176E+005
            6925    1.11728E+007    1.44462E+007    1.44462E+007    5.36713E+006    1.96882E+006    1.24774E+007   -7.26071E+006    9.90591E+006    5.36719E+006    2.36725E+006    1.40477E+007    1.84506E+004   -5.54770E+004    2.19310E+006
            6926    1.04897E+007    1.21018E+007    1.21018E+007    3.93231E+006    2.72516E+005    1.18293E+007   -5.43555E+006    8.87258E+006    3.93238E+006    5.40410E+005    1.18338E+007    2.14377E+004   -5.43440E+004    1.75910E+006
            6927    9.40150E+006    9.95168E+006    9.95168E+006    2.81299E+006   -7.00576E+005    1.06523E+007   -4.02137E+006    7.70154E+006    2.81308E+006   -5.29597E+005    9.78061E+006    2.21800E+004   -5.12148E+004    1.33776E+006
            6928    8.09716E+006    8.04853E+006    8.04853E+006    1.95371E+006   -1.13923E+006    9.18776E+006   -2.95434E+006    6.55532E+006    1.95381E+006   -1.07075E+006    7.97996E+006    2.24718E+004   -4.63375E+004    7.88931E+005
            6929    3.54891E+006    3.93361E+006    3.93361E+006    1.03075E+006   -2.27752E+004    3.95638E+006   -1.64720E+006    3.16735E+006    1.03085E+006   -1.30436E+004    3.92378E+006    7.37791E+003   -1.91776E+004   -1.95580E+005
            6930    3.03555E+006    3.26817E+006    3.26817E+006    8.07057E+005   -1.23813E+005    3.39198E+006   -1.31714E+006    2.68511E+006    8.07140E+005    1.27292E+004    3.13154E+006    7.06221E+003   -1.46317E+004   -6.66661E+005
            6931    3.18734E+006    2.98316E+006    2.98316E+006    6.05240E+005   -6.38549E+005    3.62171E+006   -9.83282E+005    2.54856E+006    6.05018E+005   -9.40944E+004    2.43892E+006    3.27893E+004   -1.39238E+004   -1.29373E+006
            6932    3.06872E+006    3.44930E+006    3.44930E+006    9.42834E+005    2.69057E+004    3.42239E+006   -1.47301E+006    2.73486E+006    9.42844E+005    3.38992E+004    3.44230E+006    6.68268E+003   -1.11541E+004   -1.54087E+005
            6933    2.44184E+006    2.76727E+006    2.76727E+006    7.43607E+005    5.50916E+004    2.71218E+006   -1.18866E+006    2.20709E+006    7.43653E+005    1.33489E+005    2.68882E+006    4.25819E+003   -1.00119E+004   -4.54373E+005
            6934    2.18329E+006    2.29487E+006    2.29487E+006    5.58693E+005   -1.56265E+005    2.45113E+006   -8.99098E+005    1.89168E+006    5.58317E+005    3.27974E+005    1.81100E+006    2.76499E+004   -8.76777E+003   -9.75261E+005
            6935    2.79050E+006    3.14386E+006    3.14386E+006    8.68474E+005    3.03439E+004    3.11352E+006   -1.34756E+006    2.48272E+006    8.68436E+005    3.12272E+004    3.14301E+006    6.13812E+003   -3.60159E+003   -5.11067E+004
            6936    2.07874E+006    2.45843E+006    2.45843E+006    6.98338E+005    1.64977E+005    2.29345E+006   -1.10725E+006    1.91551E+006    6.98322E+005    1.77133E+005    2.44629E+006    3.21774E+003   -1.74956E+003   -1.66405E+005
            6937    1.08623E+006    1.51224E+006    1.51224E+006    4.88284E+005    3.72947E+005    1.13929E+006   -7.91156E+005    1.07232E+006    4.84000E+005    4.99136E+005    1.39033E+006    2.38862E+004   -1.66589E+003   -3.51290E+005
            6938    1.01424E+007    1.41969E+007    1.41969E+007    5.38360E+006    3.11094E+006    1.10860E+007   -7.56381E+006    9.54397E+006    5.38363E+006    3.11613E+006    1.41917E+007   -4.71517E+003   -1.83458E+004   -2.39548E+005
            6939    1.01515E+007    1.43234E+007    1.43234E+007    5.56414E+006    3.19772E+006    1.11256E+007   -7.69508E+006    9.50067E+006    5.56422E+006    3.26940E+006    1.42516E+007   -6.51259E+003   -3.20244E+004   -8.89903E+005
            6940    1.12813E+007    1.47570E+007    1.47570E+007    5.55177E+006    2.17218E+006    1.25848E+007   -7.49363E+006    1.00440E+007    5.55180E+006    2.57251E+006    1.43566E+007   -1.94456E+004   -5.56795E+004   -2.20787E+006
            6941    1.19187E+007    1.67105E+007    1.67105E+007    6.49692E+006    3.61515E+006    1.30953E+007   -8.94085E+006    1.10934E+007    6.49694E+006    3.61720E+006    1.67084E+007   -5.03873E+003   -1.74382E+004   -1.63668E+005
            6942    1.14443E+007    1.66859E+007    1.66859E+007    6.76969E+006    4.16315E+006    1.25227E+007   -9.20623E+006    1.07455E+007    6.76979E+006    4.20153E+006    1.66474E+007   -1.88633E+003   -3.11475E+004   -6.92152E+005
            6943    1.11441E+007    1.66920E+007    1.66920E+007    7.05490E+006    4.48853E+006    1.22034E+007   -9.41180E+006    1.04478E+007    7.05494E+006    4.87818E+006    1.63023E+007   -1.43846E+004   -5.33353E+004   -2.14491E+006
            6944    1.32354E+007    1.85417E+007    1.85417E+007    7.29430E+006    3.95711E+006    1.45846E+007   -9.93105E+006    1.22340E+007    7.29432E+006    3.95763E+006    1.85412E+007   -2.96584E+003   -1.55759E+004   -8.63360E+004
            6945    1.23380E+007    1.83610E+007    1.83610E+007    7.63221E+006    4.87893E+006    1.34820E+007   -1.02907E+007    1.16162E+007    7.63231E+006    4.88838E+006    1.83514E+007   -1.33362E+003   -3.21479E+004   -3.56916E+005
            6946    1.04682E+007    1.78768E+007    1.78768E+007    8.26290E+006    6.72452E+006    1.11523E+007   -1.09547E+007    1.02092E+007    8.26301E+006    6.88550E+006    1.77157E+007   -8.84171E+003   -5.03093E+004   -1.32958E+006
            6947    1.36474E+007    1.91052E+007    1.91052E+007    7.53613E+006    4.05405E+006    1.50511E+007   -1.02318E+007    1.25885E+007    7.53615E+006    4.05408E+006    1.91052E+007    2.94654E+002   -1.43092E+004    1.83182E+004
            6948    1.26387E+007    1.88945E+007    1.88945E+007    7.89885E+006    5.08655E+006    1.38080E+007   -1.06266E+007    1.19038E+007    7.89894E+006    5.08682E+006    1.88941E+007    9.79613E+002   -3.21614E+004    6.08938E+004
            6949    1.00717E+007    1.82324E+007    1.82324E+007    8.72395E+006    7.67905E+006    1.05534E+007   -1.15451E+007    9.94862E+006    8.72419E+006    7.67931E+006    1.82319E+007    8.01577E+002   -4.87481E+004    5.22061E+004
            6950    1.30049E+007    1.82051E+007    1.82051E+007    7.14254E+006    3.87933E+006    1.43257E+007   -9.74231E+006    1.20310E+007    7.14256E+006    3.88008E+006    1.82043E+007    3.63888E+003   -1.58832E+004    1.03006E+005
            6951    1.22362E+007    1.80874E+007    1.80874E+007    7.47049E+006    4.70511E+006    1.33823E+007   -1.00877E+007    1.15012E+007    7.47058E+006    4.72050E+006    1.80719E+007    6.59006E+002   -3.20024E+004    4.53560E+005
            6952    1.04991E+007    1.77903E+007    1.77903E+007    8.18148E+006    6.58410E+006    1.12062E+007   -1.08520E+007    1.02203E+007    8.18159E+006    6.76276E+006    1.76115E+007    8.22592E+003   -5.03504E+004    1.40309E+006
            6953    1.15270E+007    1.61422E+007    1.61422E+007    6.24068E+006    3.48806E+006    1.26541E+007   -8.62364E+006    1.07496E+007    6.24070E+006    3.49070E+006    1.61395E+007    5.10986E+003   -1.73779E+004    1.82439E+005
            6954    1.12168E+007    1.61982E+007    1.61982E+007    6.50088E+006    3.91394E+006    1.22843E+007   -8.87101E+006    1.05137E+007    6.50097E+006    3.95506E+006    1.61570E+007    4.12639E+003   -3.11903E+004    7.09348E+005
            6955    1.11408E+007    1.64996E+007    1.64996E+007    6.91071E+006    4.27828E+006    1.22213E+007   -9.22952E+006    1.04060E+007    6.91073E+006    4.67159E+006    1.61062E+007    1.55718E+004   -5.35203E+004    2.15621E+006
            6956    3.18571E+006    2.98243E+006    2.98243E+006    6.05474E+005   -6.37364E+005    3.61979E+006   -9.83512E+005    2.54764E+006    6.05254E+005   -9.06249E+004    2.43591E+006    3.27182E+004    1.38951E+004    1.29557E+006
            6957    3.03361E+006    3.26672E+006    3.26672E+006    8.07021E+005   -1.23040E+005    3.38976E+006   -1.31690E+006    2.68357E+006    8.07105E+005    1.14547E+004    3.13214E+006    6.91895E+003    1.45833E+004    6.61627E+005
            6958    3.54145E+006    3.92477E+006    3.92477E+006    1.02861E+006   -2.35251E+004    3.94830E+006   -1.64329E+006    3.16005E+006    1.02870E+006   -1.39112E+004    3.91507E+006    7.38896E+003    1.90454E+004    1.94189E+005
            6959    2.17382E+006    2.28739E+006    2.28739E+006    5.57401E+005   -1.52670E+005    2.44006E+006   -8.97374E+005    1.88511E+006    5.57024E+005    3.29994E+005    1.80511E+006    2.75597E+004    8.74365E+003    9.71319E+005
            6960    2.44843E+006    2.77283E+006    2.77283E+006    7.44744E+005    5.29257E+004    2.71991E+006   -1.19017E+006    2.21199E+006    7.44791E+005    1.30600E+005    2.69511E+006    4.22286E+003    1.00134E+004    4.52997E+005
            6961    3.06491E+006    3.44522E+006    3.44522E+006    9.41932E+005    2.70582E+004    3.41816E+006   -1.47140E+006    2.73140E+006    9.41942E+005    3.40127E+004    3.43826E+006    6.68410E+003    1.10877E+004    1.53560E+005
            6962    1.07212E+006    1.50261E+006    1.50261E+006    4.88207E+005    3.80856E+005    1.12175E+006   -7.90558E+005    1.05992E+006    4.83565E+005    5.02147E+005    1.38596E+006    2.38576E+004    1.70830E+003    3.41479E+005
            6963    2.08471E+006    2.46381E+006    2.46381E+006    6.99593E+005    1.63371E+005    2.30044E+006   -1.10892E+006    1.92014E+006    6.99578E+005    1.76319E+005    2.45088E+006    3.17557E+003    1.73735E+003    1.71982E+005
            6964    2.79003E+006    3.14318E+006    3.14318E+006    8.68244E+005    3.01775E+004    3.11300E+006   -1.34720E+006    2.48223E+006    8.68206E+005    3.10650E+004    3.14233E+006    6.15785E+003    3.59651E+003    5.12237E+004
            6965    3.23628E+006    3.28793E+006    3.28793E+006    1.23479E+005   -1.56979E+004    3.30363E+006   -1.13190E+006    3.22954E+006    1.23583E+005    1.54649E+004    3.25666E+006   -2.44249E+003   -3.26387E+004   -3.18172E+005
            6966    3.68469E+006    3.84378E+006    3.84378E+006    4.38822E+005   -6.81303E+004    3.91191E+006   -1.40482E+006    3.60497E+006    4.39129E+005   -4.47671E+004    3.82011E+006   -4.40166E+003   -3.79596E+004   -3.00714E+005
            6967    4.04564E+006    4.33101E+006    4.33101E+006    7.63730E+005   -6.47388E+004    4.39575E+006   -1.67667E+006    3.84778E+006    7.64092E+005   -5.60258E+004    4.32193E+006   -5.17125E+003   -3.89087E+004   -1.94856E+005
            6968    4.21674E+006    4.58663E+006    4.58663E+006    1.00554E+006   -6.09550E+004    4.64759E+006   -1.84374E+006    3.89558E+006    1.00585E+006   -6.04011E+004    4.58577E+006   -4.85506E+003   -3.48980E+004   -4.95488E+004
            6969    4.06150E+006    4.48072E+006    4.48072E+006    1.11004E+006   -2.85731E+004    4.50929E+006   -1.85406E+006    3.67589E+006    1.11026E+006   -2.71730E+004    4.47909E+006   -3.37837E+003   -2.78863E+004    7.92350E+004
            6970    4.16171E+006    4.39842E+006    4.39842E+006    6.05925E+005   -5.37094E+004    4.45213E+006   -1.65021E+006    4.04158E+006    6.06133E+005    8.18721E+004    4.26263E+006    3.43418E+003   -2.81783E+004   -7.64984E+005
            6971    4.24311E+006    4.38680E+006    4.38680E+006    6.62980E+005   -2.32615E+005    4.61941E+006   -1.60572E+006    4.02212E+006    6.63217E+005   -1.24448E+005    4.27840E+006   -1.33361E+003   -3.30067E+004   -6.98377E+005
            6972    4.22519E+006    4.35183E+006    4.35183E+006    7.58836E+005   -3.02992E+005    4.65482E+006   -1.60256E+006    3.90772E+006    7.59052E+005   -2.66065E+005    4.31468E+006   -6.44812E+003   -3.35022E+004   -4.12467E+005
            6973    4.04198E+006    4.22067E+006    4.22067E+006    8.55460E+005   -2.62670E+005    4.48334E+006   -1.60449E+006    3.66911E+006    8.55649E+005   -2.62583E+005    4.22040E+006   -9.74188E+003   -3.03362E+004    2.89086E+003
            6974    3.70981E+006    3.98500E+006    3.98500E+006    9.27400E+005   -1.42061E+005    4.12706E+006   -1.59011E+006    3.33564E+006    9.27526E+005   -1.22515E+005    3.96533E+006   -1.15858E+004   -2.50083E+004    2.82688E+005
            6975    5.01943E+006    5.44520E+006    5.44520E+006    1.10066E+006   -4.94777E+004    5.49468E+006   -2.16546E+006    4.70906E+006    1.10054E+006    1.12193E+005    5.28366E+006   -1.48163E+004   -3.58408E+004   -9.27448E+005
            6976    5.08578E+006    5.10540E+006    5.10540E+006    9.22554E+005   -5.55753E+005    5.66116E+006   -1.82407E+006    4.56353E+006    9.22344E+005   -4.44480E+005    4.99434E+006   -2.23628E+004   -3.93575E+004   -7.83995E+005
            6977    4.75725E+006    4.57845E+006    4.57845E+006    7.81437E+005   -7.57845E+005    5.33630E+006   -1.53401E+006    4.13866E+006    7.81301E+005   -7.43189E+005    4.56393E+006   -2.49607E+004   -3.68656E+004   -2.74775E+005
            6978    4.17828E+006    4.08978E+006    4.08978E+006    7.68000E+005   -6.01362E+005    4.69114E+006   -1.41880E+006    3.61921E+006    7.67973E+005   -5.89925E+005    4.07837E+006   -2.36730E+004   -3.19856E+004    2.27705E+005
            6979    3.63411E+006    3.68488E+006    3.68488E+006    7.88676E+005   -3.93001E+005    4.07788E+006   -1.36018E+006    3.15634E+006    7.88732E+005   -3.13652E+005    3.60547E+006   -1.90500E+004   -2.48447E+004    5.62546E+005
            6980    6.55053E+006    6.97724E+006    6.97724E+006    1.69479E+006   -3.52393E+005    7.32964E+006   -2.77321E+006    5.76201E+006    1.69497E+006   -2.37224E+005    6.86189E+006   -6.86179E+003   -3.70480E+004   -9.11260E+005
            6981    6.30111E+006    5.88292E+006    5.88292E+006    1.10093E+006   -1.25712E+006    7.14005E+006   -1.90891E+006    5.15814E+006    1.10107E+006   -1.22796E+006    5.85362E+006   -1.26711E+004   -3.43397E+004   -4.54630E+005
            6982    5.47642E+006    4.88170E+006    4.88170E+006    8.04059E+005   -1.34291E+006    6.22460E+006   -1.44762E+006    4.36655E+006    8.04136E+005   -1.33918E+006    4.87789E+006   -1.72924E+004   -2.85366E+004    1.49578E+005
            6983    4.63330E+006    4.14448E+006    4.14448E+006    6.95483E+005   -1.12202E+006    5.26650E+006   -1.23931E+006    3.69296E+006    6.95547E+005   -1.04238E+006    4.06477E+006   -1.89872E+004   -2.42682E+004    6.42168E+005
            6984    3.79204E+006    3.54314E+006    3.54314E+006    6.74245E+005   -7.56033E+005    4.29918E+006   -1.15379E+006    3.09132E+006    6.74240E+005   -5.26644E+005    3.31376E+006   -1.90802E+004   -1.66107E+004    9.65873E+005
            6985    4.53528E+006    3.73307E+006    3.73307E+006    5.72444E+005   -1.46340E+006    5.19647E+006   -9.47373E+005    3.23935E+006    5.72422E+005   -9.81516E+005    3.25121E+006   -3.63765E+004   -2.33459E+004    1.50664E+006
            6986    5.71409E+006    4.54900E+006    4.54900E+006    6.35392E+005   -2.00820E+006    6.55719E+006   -1.05873E+006    3.94029E+006    6.35411E+005   -1.75189E+006    4.29267E+006   -4.02724E+004   -3.36044E+004    1.26975E+006
            6987    6.91504E+006    5.58581E+006    5.58581E+006    8.41843E+005   -2.34844E+006    7.93425E+006   -1.35974E+006    4.78511E+006    8.41783E+005   -2.27398E+006    5.51141E+006   -4.23222E+004   -3.96639E+004    7.62621E+005
            6988    7.93882E+006    6.78655E+006    6.78655E+006    1.23454E+006   -2.30659E+006    9.09314E+006   -1.90483E+006    5.70866E+006    1.23442E+006   -2.30358E+006    6.78366E+006   -4.32700E+004   -4.62905E+004    1.50648E+005
            6989    8.86001E+006    8.48999E+006    8.48999E+006    2.01776E+006   -1.60779E+006    1.00978E+007   -2.96665E+006    6.86589E+006    2.01769E+006   -1.57325E+006    8.45552E+006   -3.75887E+004   -5.15613E+004   -5.85694E+005
            6990    9.77704E+006    1.03592E+007    1.03592E+007    2.95848E+006   -7.24435E+005    1.10836E+007   -4.19774E+006    7.97590E+006    2.95856E+006   -5.77500E+005    1.02122E+007   -2.39458E+004   -5.23349E+004   -1.26661E+006
            6991    1.07046E+007    1.25072E+007    1.25072E+007    4.14139E+006    4.44003E+005    1.20632E+007   -5.69753E+006    9.09186E+006    4.14147E+006    7.34955E+005    1.22161E+007   -2.08002E+004   -5.52773E+004   -1.84996E+006
            6992    8.85375E+006    1.18829E+007    1.18829E+007    4.29520E+006    2.15539E+006    9.72755E+006   -6.11118E+006    8.24128E+006    4.29529E+006    2.24937E+006    1.17889E+007   -6.08267E+003   -3.26037E+004   -9.51275E+005
            6993    8.23648E+006    1.14965E+007    1.14965E+007    4.18067E+006    2.57564E+006    8.92086E+006   -6.08427E+006    7.87302E+006    4.18070E+006    2.58228E+006    1.14898E+007   -3.05521E+003   -1.74331E+004   -2.43153E+005
            6994    7.46370E+006    9.44363E+006    9.44363E+006    3.06455E+006    1.23538E+006    8.20824E+006   -4.58119E+006    6.93197E+006    3.06462E+006    1.33355E+006    9.34539E+006   -9.40186E+003   -3.34991E+004   -8.91823E+005
            6995    6.57228E+006    9.06828E+006    9.06828E+006    3.06813E+006    2.04409E+006    7.02419E+006   -4.72683E+006    6.38908E+006    3.06818E+006    2.05628E+006    9.05604E+006    3.09108E+002   -1.63269E+004   -2.92390E+005
            6996    5.42149E+006    7.22227E+006    7.22227E+006    2.15306E+006    1.50649E+006    5.71578E+006   -3.62727E+006    5.33371E+006    2.15308E+006    1.52566E+006    7.20308E+006    3.57314E+003   -1.27724E+004   -3.30313E+005
            6997    4.46126E+006    5.55913E+006    5.55913E+006    1.28241E+006    9.33774E+005    4.62535E+006   -2.59177E+006    4.43046E+006    1.28232E+006    9.51398E+005    5.54159E+006    6.54403E+003   -8.14836E+003   -2.84126E+005
            6998    3.64953E+006    4.10731E+006    4.10731E+006    5.00080E+005    4.16891E+005    3.69042E+006   -1.67476E+006    3.64740E+006    4.99765E+005    4.31428E+005    4.09309E+006    5.74329E+003   -7.71971E+003   -2.28502E+005
            6999    2.63676E+006    2.52370E+006    2.52370E+006    9.22785E+004   -2.79028E+005    2.80273E+006   -7.78984E+005    2.57695E+006   -2.78987E+005    9.54193E+004    2.52052E+006    3.02051E+003   -7.52926E+003   -8.76125E+004
            7000    6.06040E+006    7.36377E+006    7.36377E+006    2.06884E+006    7.53825E+005    6.60994E+006   -3.39548E+006    5.72605E+006    2.06898E+006    8.62103E+005    7.25536E+006   -3.01964E+003   -3.05540E+004   -8.38885E+005
            7001    4.77275E+006    5.57370E+006    5.57370E+006    1.21072E+006    4.76314E+005    5.09739E+006   -2.42024E+006    4.64307E+006    1.21081E+006    5.82180E+005    5.46774E+006   -1.79718E+003   -2.48282E+004   -7.26789E+005
            7002    3.92405E+006    4.28755E+006    4.28755E+006    5.51559E+005    1.99200E+005    4.08835E+006   -1.67944E+006    3.88822E+006    5.51663E+005    2.90504E+005    4.19614E+006    4.77027E+003   -2.00327E+004   -6.04071E+005
            7003    2.85999E+006    2.81204E+006    2.81204E+006    4.45397E+004   -1.32248E+005    2.94429E+006   -9.08111E+005    2.84766E+006   -1.32077E+005    6.49761E+004    2.79143E+006    7.19290E+002   -2.19442E+004   -2.36977E+005
            7004    3.62907E+006    3.78181E+006    3.78181E+006    3.99691E+005   -5.19324E+004    3.83374E+006   -1.37652E+006    3.56502E+006    3.99944E+005   -6.95475E+003    3.73658E+006    3.36019E+003    3.58617E+004   -4.12257E+005
            7005    4.12264E+006    4.33275E+006    4.33275E+006    7.30113E+005   -1.63362E+005    4.49611E+006   -1.63317E+006    3.89577E+006    7.30417E+005   -1.42114E+005    4.31120E+006    6.52144E+003    3.83982E+004   -3.07659E+005
            7006    4.29631E+006    4.58536E+006    4.58536E+006    9.79675E+005   -1.68339E+005    4.75370E+006   -1.79890E+006    3.92839E+006    9.79942E+005   -1.68151E+005    4.58490E+006    8.19241E+003    3.44410E+004   -2.45238E+004
            7007    3.97817E+006    4.39199E+006    4.39199E+006    1.09388E+006   -2.61185E+004    4.41811E+006   -1.81992E+006    3.59699E+006    1.09407E+006   -1.95087E+004    4.38520E+006    7.98158E+003    2.71813E+004    1.70201E+005
            7008    4.90512E+006    5.03191E+006    5.03191E+006    8.99130E+005   -3.88623E+005    5.42053E+006   -1.84747E+006    4.50064E+006    8.99228E+005   -2.44454E+005    4.88764E+006    9.14237E+003    3.51668E+004   -8.71640E+005
            7009    4.75943E+006    4.56333E+006    4.56333E+006    7.47522E+005   -7.69765E+005    5.33309E+006   -1.51369E+006    4.16071E+006    7.47627E+005   -7.48683E+005    4.54214E+006    1.43159E+004    3.38165E+004   -3.33225E+005
            7010    4.10035E+006    4.04644E+006    4.04644E+006    7.62694E+005   -5.49350E+005    4.59579E+006   -1.41993E+006    3.58025E+006    7.62841E+005   -5.32557E+005    4.02950E+006    1.33713E+004    2.79564E+004    2.76435E+005
            7011    3.56727E+006    3.67983E+006    3.67983E+006    8.12035E+005   -3.14765E+005    3.99460E+006   -1.39237E+006    3.12760E+006    8.12196E+005   -2.23768E+005    3.58867E+006    1.02500E+004    2.27519E+004    5.95854E+005
            7012    4.12073E+006    3.57916E+006    3.57916E+006    6.07567E+005   -1.12496E+006    4.70413E+006   -1.02059E+006    3.12811E+006    6.07456E+005   -7.14611E+005    3.16893E+006    3.59248E+004    2.19860E+004    1.32661E+006
            7013    5.07324E+006    4.20465E+006    4.20465E+006    6.13488E+005   -1.59911E+006    5.80376E+006   -1.07301E+006    3.73040E+006    6.13382E+005   -1.40779E+006    4.01343E+006    3.68367E+004    2.82772E+004    1.03502E+006
            7014    6.02759E+006    4.98333E+006    4.98333E+006    7.17442E+005   -1.91233E+006    6.89566E+006   -1.26281E+006    4.43061E+006    7.17384E+005   -1.86586E+006    4.93691E+006    3.40646E+004    3.38094E+004    5.61892E+005
            7015    6.93595E+006    6.25623E+006    6.25623E+006    1.17229E+006   -1.64508E+006    7.90131E+006   -1.92781E+006    5.40311E+006    1.17227E+006   -1.64012E+006    6.25128E+006    2.92660E+004    4.02761E+004   -1.91434E+005
            7016    8.09072E+006    8.03522E+006    8.03522E+006    1.94805E+006   -1.14592E+006    9.18114E+006   -2.94578E+006    6.54597E+006    1.94814E+006   -1.07816E+006    7.96736E+006    2.25219E+004    4.63107E+004   -7.84502E+005
            7017    9.41260E+006    9.95982E+006    9.95982E+006    2.81505E+006   -7.05609E+005    1.06654E+007   -4.02309E+006    7.70728E+006    2.81514E+006   -5.34707E+005    9.78883E+006    2.22345E+004    5.12443E+004   -1.33830E+006
            7018    1.05011E+007    1.21231E+007    1.21231E+007    3.94309E+006    2.81428E+005    1.18417E+007   -5.44922E+006    8.88439E+006    3.94317E+006    5.50987E+005    1.18535E+007    2.14279E+004    5.43941E+004   -1.76538E+006
            7019    1.11734E+007    1.44447E+007    1.44447E+007    5.36544E+006    1.96650E+006    1.24782E+007   -7.25887E+006    9.90612E+006    5.36549E+006    2.36290E+006    1.40482E+007    1.84694E+004    5.54512E+004   -2.18776E+006
            7020    9.87993E+006    1.37865E+007    1.37865E+007    5.27562E+006    2.95185E+006    1.08347E+007   -7.33800E+006    9.23455E+006    5.27571E+006    3.02242E+006    1.37159E+007    5.01875E+003    3.16354E+004   -8.71423E+005
            7021    9.66122E+006    1.35119E+007    1.35119E+007    5.07692E+006    2.97170E+006    1.05402E+007   -7.18685E+006    9.12349E+006    5.07694E+006    2.97646E+006    1.35072E+007    4.48744E+003    1.80299E+004   -2.23658E+005
            7022    8.44154E+006    1.12869E+007    1.12869E+007    4.02216E+006    2.02625E+006    9.26063E+006   -5.77843E+006    7.88399E+006    4.02223E+006    2.12324E+006    1.11898E+007    7.62774E+003    3.20380E+004   -9.42432E+005
            7023    7.90695E+006    1.09322E+007    1.09322E+007    3.89221E+006    2.37738E+006    8.55478E+006   -5.73392E+006    7.57008E+006    3.89225E+006    2.38785E+006    1.09217E+007    2.19191E+003    1.69869E+004   -2.98931E+005
            7024    7.26714E+006    9.09849E+006    9.09849E+006    2.87375E+006    1.11265E+006    7.98584E+006   -4.36163E+006    6.76155E+006    2.87385E+006    1.21688E+006    8.99415E+006    6.26581E+003    3.21636E+004   -9.06136E+005
            7025    6.21265E+006    8.46043E+006    8.46043E+006    2.75711E+006    1.84033E+006    6.62010E+006   -4.35262E+006    6.05766E+006    2.75715E+006    1.84868E+006    8.45203E+006   -1.11190E+003    1.55532E+004   -2.34971E+005
            7026    5.74822E+006    6.78105E+006    6.78105E+006    1.77392E+006    5.04093E+005    6.27696E+006   -3.01969E+006    5.41900E+006    1.77402E+006    6.03566E+005    6.68148E+006    5.57519E+003    2.99923E+004   -7.83618E+005
            7027    4.97454E+006    6.46227E+006    6.46227E+006    1.76316E+006    1.25181E+006    5.21046E+006   -3.15908E+006    4.91489E+006    1.76317E+006    1.27445E+006    6.43962E+006   -4.77196E+003    1.37025E+004   -3.42468E+005
            7028    4.03846E+006    4.77005E+006    4.77005E+006    8.49477E+005    6.23212E+005    4.14684E+006   -2.08091E+006    4.02416E+006    8.49363E+005    6.48068E+005    4.74531E+006   -6.53968E+003    1.04657E+004   -3.19156E+005
            7029    2.75734E+006    2.74520E+006    2.74520E+006    1.57510E+005   -1.55135E+005    2.90033E+006   -9.15858E+005    2.71703E+006   -1.55081E+005    1.66791E+005    2.73586E+006   -3.13341E+003    9.63361E+003   -1.54863E+005
            7030    4.56170E+006    5.04922E+006    5.04922E+006    9.20754E+005    1.51990E+005    4.89723E+006   -2.04066E+006    4.41241E+006    9.20876E+005    2.94241E+005    4.90685E+006    1.49938E+003    2.72339E+004   -8.22282E+005
            7031    3.16111E+006    3.19636E+006    3.19636E+006    5.65129E+004    1.44101E+004    3.18195E+006   -1.08909E+006    3.16048E+006    5.65686E+004    5.59975E+004    3.15472E+006   -3.94044E+002    2.62348E+004   -3.60671E+005
            7032    3.39459E+006    3.01265E+006    3.01265E+006    5.57818E+005   -8.61198E+005    3.87385E+006   -9.03089E+005    2.58872E+006    5.57846E+005   -1.97478E+005    2.34890E+006   -3.05563E+004   -1.73068E+004    1.45926E+006
            7033    2.97845E+006    2.97634E+006    2.97634E+006    6.57465E+005   -3.82698E+005    3.35904E+006   -1.08370E+006    2.51827E+006    6.57470E+005   -6.46249E+004    2.65826E+006   -1.67503E+004   -1.34624E+004    9.83260E+005
            7034    3.04247E+006    3.23283E+006    3.23283E+006    7.79793E+005   -1.71664E+005    3.40449E+006   -1.28032E+006    2.67571E+006    7.79845E+005   -4.03663E+004    3.10148E+006   -1.36694E+004   -1.73004E+004    6.55284E+005
            7035    3.29965E+006    3.61860E+006    3.61860E+006    9.17395E+005   -5.90843E+004    3.67768E+006   -1.49230E+006    2.94731E+006    9.17415E+005   -1.99526E+004    3.57945E+006   -1.25219E+004   -1.79360E+004    3.76773E+005
            7036    3.65094E+006    4.06452E+006    4.06452E+006    1.07390E+006   -4.01988E+003    4.06854E+006   -1.71147E+006    3.26307E+006    1.07403E+006   -4.42504E+002    4.06082E+006   -1.57872E+003   -1.96021E+004    1.20572E+005
            7037    2.21190E+006    2.22534E+006    2.22534E+006    5.08954E+005   -2.70853E+005    2.49619E+006   -8.21146E+005    1.86266E+006    5.08764E+005    3.33241E+005    1.62143E+006   -2.39022E+004   -7.28838E+003    1.06872E+006
            7038    2.13742E+006    2.36561E+006    2.36561E+006    6.09115E+005   -1.41739E+004    2.37978E+006   -9.86849E+005    1.91639E+006    6.08931E+005    2.31357E+005    2.12026E+006   -1.48745E+004   -5.62095E+003    7.23528E+005
            7039    2.44201E+006    2.74173E+006    2.74173E+006    7.26918E+005    2.58695E+004    2.71586E+006   -1.16484E+006    2.19793E+006    7.26902E+005    1.19216E+005    2.64840E+006   -9.23965E+003   -9.47779E+003    4.94568E+005
            7040    2.82983E+006    3.17214E+006    3.17214E+006    8.49789E+005    2.02403E+004    3.15190E+006   -1.34739E+006    2.53384E+006    8.49697E+005    4.84742E+004    3.14399E+006   -1.23563E+004   -1.08100E+004    2.96162E+005
            7041    3.20611E+006    3.58486E+006    3.58486E+006    9.75993E+005    5.67520E+003    3.57919E+006   -1.52218E+006    2.84653E+006    9.76042E+005    8.46271E+003    3.58202E+006   -6.51702E+002   -1.12534E+004    9.98433E+004
            7042    9.51431E+005    1.35587E+006    1.35587E+006    4.43570E+005    3.69618E+005    9.86249E+005   -7.23019E+005    9.44933E+005    4.40024E+005    5.75149E+005    1.15388E+006   -2.00081E+004   -3.71507E+003    3.96899E+005
            7043    1.44776E+006    1.86526E+006    1.86526E+006    5.64380E+005    3.05532E+005    1.55973E+006   -9.11725E+005    1.39427E+006    5.63832E+005    3.50158E+005    1.82118E+006   -1.30353E+004   -3.87642E+003    2.58337E+005
            7044    2.03026E+006    2.40877E+006    2.40877E+006    6.85121E+005    1.70805E+005    2.23796E+006   -1.08823E+006    1.87511E+006    6.85043E+005    1.85669E+005    2.39398E+006   -6.95205E+003   -3.17731E+003    1.81251E+005
            7045    2.53054E+006    2.88460E+006    2.88460E+006    7.96377E+005    7.04228E+004    2.81418E+006   -1.25047E+006    2.27800E+006    7.96196E+005    7.49941E+004    2.88021E+006   -1.18256E+004   -3.44151E+003    1.10974E+005
            7046    2.91253E+006    3.26934E+006    3.26934E+006    9.02154E+005    1.68867E+004    3.25245E+006   -1.39613E+006    2.58278E+006    9.02160E+005    1.73203E+004    3.26890E+006   -9.14713E+001   -3.77403E+003    3.75525E+004
            7047    1.12842E+007    1.47472E+007    1.47472E+007    5.54329E+006    2.15778E+006    1.25894E+007   -7.48276E+006    1.00426E+007    5.54333E+006    2.55848E+006    1.43465E+007   -1.94489E+004    5.56689E+004    2.20926E+006
            7048    1.01627E+007    1.43523E+007    1.43523E+007    5.58059E+006    3.21574E+006    1.11366E+007   -7.71623E+006    9.51360E+006    5.58067E+006    3.28546E+006    1.42825E+007   -6.49570E+003    3.19357E+004    8.78207E+005
            7049    1.01817E+007    1.42533E+007    1.42533E+007    5.40870E+006    3.12298E+006    1.11303E+007   -7.59500E+006    9.57863E+006    5.40872E+006    3.12819E+006    1.42481E+007   -4.73364E+003    1.83544E+004    2.40425E+005
            7050    1.11386E+007    1.66927E+007    1.66927E+007    7.05819E+006    4.49634E+006    1.21963E+007   -9.41574E+006    1.04444E+007    7.05823E+006    4.88675E+006    1.63022E+007   -1.42524E+004    5.33511E+004    2.14627E+006
            7051    1.14606E+007    1.67035E+007    1.67035E+007    6.77551E+006    4.16185E+006    1.25417E+007   -9.21363E+006    1.07589E+007    6.77560E+006    4.19948E+006    1.66658E+007   -1.85200E+003    3.11510E+004    6.85835E+005
            7052    1.19500E+007    1.67552E+007    1.67552E+007    6.51669E+006    3.62458E+006    1.31307E+007   -8.96551E+006    1.11210E+007    6.51671E+006    3.62654E+006    1.67533E+007   -4.96971E+003    1.74224E+004    1.59668E+005
            7053    1.04619E+007    1.78908E+007    1.78908E+007    8.27655E+006    6.74915E+006    1.11417E+007   -1.09722E+007    1.02066E+007    8.27665E+006    6.90870E+006    1.77312E+007   -8.78827E+003    5.03386E+004    1.32308E+006
            7054    1.23468E+007    1.83672E+007    1.83672E+007    7.63304E+006    4.87447E+006    1.34928E+007   -1.02916E+007    1.16227E+007    7.63314E+006    4.88398E+006    1.83576E+007   -1.44387E+003    3.22352E+004    3.58094E+005
            7055    1.32492E+007    1.85591E+007    1.85591E+007    7.30118E+006    3.95862E+006    1.46004E+007   -9.93962E+006    1.22455E+007    7.30120E+006    3.95912E+006    1.85585E+007   -2.95851E+003    1.55385E+004    8.57992E+004
            7056    1.00609E+007    1.82188E+007    1.82188E+007    8.71901E+006    7.67771E+006    1.05410E+007   -1.15385E+007    9.93857E+006    8.71926E+006    7.67821E+006    1.82180E+007    9.96433E+002    4.87748E+004   -7.24724E+004
            7057    1.26359E+007    1.88883E+007    1.88883E+007    7.89551E+006    5.08316E+006    1.38051E+007   -1.06223E+007    1.19007E+007    7.89560E+006    5.08340E+006    1.88879E+007    9.73642E+002    3.21980E+004   -5.68834E+004
            7058    1.36450E+007    1.91007E+007    1.91007E+007    7.53374E+006    4.05220E+006    1.50485E+007   -1.02289E+007    1.25862E+007    7.53376E+006    4.05223E+006    1.91006E+007    4.05563E+002    1.43129E+004   -1.90116E+004
            7059    1.05126E+007    1.77816E+007    1.77816E+007    8.16855E+006    6.55579E+006    1.12258E+007   -1.08353E+007    1.02287E+007    8.16866E+006    6.74010E+006    1.75972E+007    8.35306E+003    5.03676E+004   -1.42600E+006
            7060    1.22232E+007    1.80797E+007    1.80797E+007    7.47069E+006    4.71345E+006    1.33663E+007   -1.00880E+007    1.14918E+007    7.47079E+006    4.72861E+006    1.80645E+007    5.79474E+002    3.20273E+004   -4.49922E+005
            7061    1.29849E+007    1.81758E+007    1.81758E+007    7.12918E+006    3.87253E+006    1.43032E+007   -9.72582E+006    1.20134E+007    7.12920E+006    3.87328E+006    1.81750E+007    3.62850E+003    1.58830E+004   -1.03519E+005
            7062    1.11471E+007    1.64797E+007    1.64797E+007    6.89275E+006    4.24798E+006    1.22317E+007   -9.20680E+006    1.04055E+007    6.89278E+006    4.64139E+006    1.60862E+007    1.55933E+004    5.35059E+004   -2.15743E+006
            7063    1.12111E+007    1.62024E+007    1.62024E+007    6.50692E+006    3.92586E+006    1.22765E+007   -8.87839E+006    1.05109E+007    6.50700E+006    3.96820E+006    1.61600E+007    4.13608E+003    3.12375E+004   -7.19567E+005
            7064    1.15012E+007    1.61022E+007    1.61022E+007    6.22189E+006    3.47679E+006    1.26254E+007   -8.60029E+006    1.07264E+007    6.22191E+006    3.47947E+006    1.60995E+007    5.14314E+003    1.73872E+004   -1.83712E+005
            7065    3.65768E+006    4.07067E+006    4.07067E+006    1.07507E+006   -5.59124E+003    4.07626E+006   -1.71338E+006    3.26850E+006    1.07520E+006   -2.03743E+003    4.06699E+006   -1.61599E+003    1.96906E+004   -1.20288E+005
            7066    3.29935E+006    3.61787E+006    3.61787E+006    9.17047E+005   -5.95356E+004    3.67740E+006   -1.49179E+006    2.94689E+006    9.17068E+005   -2.00385E+004    3.57835E+006   -1.25573E+004    1.79519E+004   -3.78497E+005
            7067    3.04021E+006    3.22802E+006    3.22802E+006    7.77763E+005   -1.74269E+005    3.40229E+006   -1.27717E+006    2.67263E+006    7.77814E+005   -4.12884E+004    3.09499E+006   -1.36525E+004    1.71731E+004   -6.59084E+005
            7068    2.97494E+006    2.97021E+006    2.97021E+006    6.55127E+005   -3.85182E+005    3.35540E+006   -1.08005E+006    2.51392E+006    6.55134E+005   -6.23709E+004    2.64740E+006   -1.68577E+004    1.35511E+004   -9.89191E+005
            7069    3.39389E+006    3.01133E+006    3.01133E+006    5.57347E+005   -8.61788E+005    3.87312E+006   -9.02296E+005    2.58760E+006    5.57376E+005   -1.95967E+005    2.34548E+006   -3.06386E+004    1.73487E+004   -1.46092E+006
            7070    3.20746E+006    3.58790E+006    3.58790E+006    9.77451E+005    7.38183E+003    3.58052E+006   -1.52424E+006    2.84826E+006    9.77500E+005    1.01356E+004    3.58510E+006   -5.53143E+002    1.12556E+004   -9.92580E+004
            7071    2.83514E+006    3.17819E+006    3.17819E+006    8.51672E+005    2.03217E+004    3.15787E+006   -1.35006E+006    2.53839E+006    8.51582E+005    4.81613E+004    3.15044E+006   -1.22940E+004    1.08467E+004   -2.94385E+005
            7072    2.44442E+006    2.74464E+006    2.74464E+006    7.27906E+005    2.60722E+004    2.71856E+006   -1.16620E+006    2.20003E+006    7.27889E+005    1.19549E+005    2.65118E+006   -9.30213E+003    9.50330E+003   -4.95151E+005
            7073    2.13133E+006    2.35748E+006    2.35748E+006    6.06240E+005   -1.56104E+004    2.37309E+006   -9.82704E+005    1.91067E+006    6.06051E+005    2.32791E+005    2.10927E+006   -1.50270E+004    5.58798E+003   -7.26110E+005
            7074    2.21523E+006    2.22355E+006    2.22355E+006    5.06509E+005   -2.76943E+005    2.50049E+006   -8.17706E+005    1.86292E+006    5.06318E+005    3.32761E+005    1.61404E+006   -2.39112E+004    7.16273E+003   -1.07331E+006
            7075    2.91495E+006    3.27002E+006    3.27002E+006    9.01539E+005    1.46403E+004    3.25538E+006   -1.39540E+006    2.58419E+006    9.01545E+005    1.50785E+004    3.26958E+006   -8.94517E+001    3.80917E+003   -3.77630E+004
            7076    2.53445E+006    2.88810E+006    2.88810E+006    7.97147E+005    6.93877E+004    2.81871E+006   -1.25155E+006    2.28100E+006    7.96968E+005    7.39547E+004    2.88371E+006   -1.18039E+004    3.45571E+003   -1.11025E+005
            7077    2.02926E+006    2.40803E+006    2.40803E+006    6.85005E+005    1.71279E+005    2.23675E+006   -1.08811E+006    1.87440E+006    6.84926E+005    1.85963E+005    2.39343E+006   -6.92794E+003    3.14685E+003   -1.80105E+005
            7078    1.44296E+006    1.86395E+006    1.86395E+006    5.65671E+005    3.10371E+005    1.55357E+006   -9.13329E+005    1.39078E+006    5.65121E+005    3.54162E+005    1.82071E+006   -1.29685E+004    3.88946E+003   -2.55422E+005
            7079    9.55432E+005    1.36132E+006    1.36132E+006    4.45756E+005    3.70477E+005    9.90844E+005   -7.25852E+005    9.48725E+005    4.42258E+005    5.76754E+005    1.15854E+006   -2.00754E+004    3.73653E+003   -3.98658E+005
            7080    8.85283E+006    8.48630E+006    8.48630E+006    2.01802E+006   -1.60303E+006    1.00893E+007   -2.96710E+006    6.86245E+006    2.01794E+006   -1.56889E+006    8.45224E+006   -3.76910E+004    5.15413E+004    5.81927E+005
            7081    7.93582E+006    6.78293E+006    6.78293E+006    1.23385E+006   -2.30691E+006    9.08984E+006   -1.90329E+006    5.70485E+006    1.23374E+006   -2.30388E+006    6.78001E+006   -4.33098E+004    4.61914E+004   -1.51405E+005
            7082    6.89502E+006    5.57154E+006    5.57154E+006    8.40596E+005   -2.33964E+006    7.91118E+006   -1.35750E+006    4.77276E+006    8.40533E+005   -2.26430E+006    5.49627E+006   -4.25241E+004    3.96974E+004   -7.65915E+005
            7083    5.70231E+006    4.54199E+006    4.54199E+006    6.35396E+005   -2.00154E+006    6.54353E+006   -1.05861E+006    3.93442E+006    6.35417E+005   -1.74439E+006    4.28482E+006   -4.03527E+004    3.36987E+004   -1.27038E+006
            7084    4.51842E+006    3.72318E+006    3.72318E+006    5.72596E+005   -1.45372E+006    5.17689E+006   -9.47352E+005    3.23067E+006    5.72572E+005   -9.70949E+005    3.24043E+006   -3.63574E+004    2.32412E+004   -1.50474E+006
            7085    3.80462E+006    3.55002E+006    3.55002E+006    6.73931E+005   -7.64003E+005    4.31402E+006   -1.15331E+006    3.09819E+006    6.73925E+005   -5.34070E+005    3.32009E+006   -1.91781E+004    1.65702E+004   -9.68714E+005
            7086    3.64044E+006    3.68502E+006    3.68502E+006    7.86223E+005   -4.00770E+005    4.08579E+006   -1.35682E+006    3.15889E+006    7.86280E+005   -3.20100E+005    3.60429E+006   -1.91384E+004    2.48987E+004   -5.67686E+005
            7087    3.70992E+006    3.98072E+006    3.98072E+006    9.24591E+005   -1.47066E+005    4.12778E+006   -1.58608E+006    3.33409E+006    9.24716E+005   -1.27202E+005    3.96073E+006   -1.17336E+004    2.50406E+004   -2.84986E+005
            7088    4.06001E+006    4.47992E+006    4.47992E+006    1.10990E+006   -2.74918E+004    4.50741E+006   -1.85411E+006    3.67514E+006    1.11012E+006   -2.61297E+004    4.47833E+006   -3.35906E+003    2.78433E+004   -7.81319E+004
            7089    4.64924E+006    4.15645E+006    4.15645E+006    6.96575E+005   -1.12840E+006    5.28485E+006   -1.24154E+006    3.70415E+006    6.96640E+005   -1.05065E+006    4.07863E+006   -1.90623E+004    2.44855E+004   -6.35724E+005
            7090    4.19417E+006    4.09968E+006    4.09968E+006    7.67978E+005   -6.10157E+005    4.70984E+006   -1.41917E+006    3.62970E+006    7.67948E+005   -5.99121E+005    4.08867E+006   -2.37747E+004    3.20206E+004   -2.23984E+005
            7091    4.04247E+006    4.22029E+006    4.22029E+006    8.55499E+005   -2.63916E+005    4.48421E+006   -1.60396E+006    3.66872E+006    8.55687E+005   -2.63830E+005    4.22002E+006   -9.80629E+003    3.03416E+004   -1.23541E+003
            7092    4.21472E+006    4.58313E+006    4.58313E+006    1.00417E+006   -6.24188E+004    4.64555E+006   -1.84163E+006    3.89333E+006    1.00449E+006   -6.18627E+004    4.58226E+006   -4.93410E+003    3.49020E+004    4.96017E+004
            7093    5.51119E+006    4.91293E+006    4.91293E+006    8.10843E+005   -1.35153E+006    6.26446E+006   -1.45741E+006    4.39206E+006    8.10921E+005   -1.34843E+006    4.90974E+006   -1.72178E+004    2.86313E+004   -1.36574E+005
            7094    4.77872E+006    4.59714E+006    4.59714E+006    7.85328E+005   -7.64008E+005    5.36115E+006   -1.53949E+006    4.15455E+006    7.85193E+005   -7.48685E+005    4.58195E+006   -2.50073E+004    3.69617E+004    2.81795E+005
            7095    4.23137E+006    4.35466E+006    4.35466E+006    7.60024E+005   -3.08574E+005    4.66323E+006   -1.60204E+006    3.91012E+006    7.60238E+005   -2.72393E+005    4.31826E+006   -6.64319E+003    3.35283E+004    4.08658E+005
            7096    4.05106E+006    4.33610E+006    4.33610E+006    7.67610E+005   -6.74051E+004    4.40350E+006   -1.67877E+006    3.85023E+006    7.67970E+005   -5.86100E+004    4.32694E+006   -5.15601E+003    3.88105E+004    1.95957E+005
            7097    6.31438E+006    5.90063E+006    5.90063E+006    1.10817E+006   -1.25434E+006    7.15497E+006   -1.91815E+006    5.16958E+006    1.10831E+006   -1.22482E+006    5.87097E+006   -1.26398E+004    3.44655E+004    4.57880E+005
            7098    5.09951E+006    5.11951E+006    5.11951E+006    9.26699E+005   -5.57433E+005    5.67694E+006   -1.82959E+006    4.57443E+006    9.26482E+005   -4.45318E+005    5.00761E+006   -2.25887E+004    3.94623E+004    7.88001E+005
            7099    4.25094E+006    4.39472E+006    4.39472E+006    6.67253E+005   -2.34865E+005    4.62959E+006   -1.60904E+006    4.02703E+006    6.67490E+005   -1.26493E+005    4.28611E+006   -1.35134E+003    3.30268E+004    6.99813E+005
            7100    3.69348E+006    3.85829E+006    3.85829E+006    4.48681E+005   -6.52271E+004    3.92352E+006   -1.41392E+006    3.61173E+006    4.48989E+005   -4.21756E+004    3.83493E+006   -4.49973E+003    3.80430E+004    2.99144E+005
            7101    6.55601E+006    6.98400E+006    6.98400E+006    1.69672E+006   -3.51636E+005    7.33563E+006   -2.77636E+006    5.76730E+006    1.69690E+006   -2.36511E+005    6.86869E+006   -6.84486E+003    3.71351E+004    9.11466E+005
            7102    5.00877E+006    5.43189E+006    5.43189E+006    1.09421E+006   -4.99882E+004    5.48188E+006   -2.15870E+006    4.70104E+006    1.09408E+006    1.11063E+005    5.27096E+006   -1.46480E+004    3.56906E+004    9.24621E+005
            7103    4.15941E+006    4.39333E+006    4.39333E+006    6.03804E+005   -5.68826E+004    4.45021E+006   -1.64675E+006    4.03882E+006    6.04015E+005    7.99285E+004    4.25630E+006    3.48525E+003    2.82788E+004    7.68164E+005
            7104    3.25152E+006    3.30509E+006    3.30509E+006    1.31238E+005   -1.89054E+004    3.32399E+006   -1.13914E+006    3.24371E+006    1.31357E+005    1.20840E+004    3.27398E+006   -2.48789E+003    3.27919E+004    3.18342E+005
            7105    2.87290E+006    2.82813E+006    2.82813E+006    4.32057E+004   -1.25314E+005    2.95345E+006   -9.15342E+005    2.86174E+006   -1.25137E+005    6.42287E+004    2.80693E+006    7.11403E+002    2.22681E+004    2.41095E+005
            7106    2.64129E+006    2.53114E+006    2.53114E+006    9.38705E+004   -2.75325E+005    2.80646E+006   -7.83228E+005    2.58228E+006   -2.75284E+005    9.71544E+004    2.52781E+006    3.03569E+003    7.56128E+003    8.96819E+004
            7107    3.92002E+006    4.28023E+006    4.28023E+006    5.47492E+005    1.96526E+005    4.08370E+006   -1.67475E+006    3.88444E+006    5.47596E+005    2.88166E+005    4.18849E+006    4.84856E+003    2.00110E+004    6.04801E+005
            7108    3.65820E+006    4.11914E+006    4.11914E+006    5.05201E+005    4.18221E+005    3.70091E+006   -1.68085E+006    3.65587E+006    5.04902E+005    4.32761E+005    4.10489E+006    5.73229E+003    7.77969E+003    2.28978E+005
            7109    4.76327E+006    5.56024E+006    5.56024E+006    1.20402E+006    4.74167E+005    5.08607E+006   -2.41281E+006    4.63496E+006    1.20412E+006    5.80413E+005    5.45390E+006   -1.71117E+003    2.47192E+004    7.27244E+005
            7110    4.46589E+006    5.56564E+006    5.56564E+006    1.28505E+006    9.35055E+005    4.63059E+006   -2.59525E+006    4.43487E+006    1.28497E+006    9.53023E+005    5.54776E+006    6.58464E+003    8.23337E+003    2.87039E+005
            7111    6.06463E+006    7.36690E+006    7.36690E+006    2.06877E+006    7.52098E+005    6.61480E+006   -3.39592E+006    5.72965E+006    2.06890E+006    8.60563E+005    7.25830E+006   -3.02599E+003    3.05390E+004    8.39914E+005
            7112    5.41647E+006    7.21914E+006    7.21914E+006    2.15294E+006    1.50983E+006    5.70931E+006   -3.62731E+006    5.32956E+006    2.15296E+006    1.52896E+006    7.19999E+006    3.55846E+003    1.27571E+004    3.29854E+005
            7113    6.58612E+006    9.09136E+006    9.09136E+006    3.07945E+006    2.05183E+006    7.03953E+006   -4.74088E+006    6.40202E+006    3.07950E+006    2.06385E+006    9.07929E+006    2.89851E+002    1.63039E+004    2.90648E+005
            7114    8.27714E+006    1.15538E+007    1.15538E+007    4.20588E+006    2.58665E+006    8.96710E+006   -6.11543E+006    7.90893E+006    4.20592E+006    2.59319E+006    1.15472E+007   -3.10138E+003    1.74696E+004    2.41943E+005
            7115    7.46811E+006    9.45478E+006    9.45478E+006    3.07065E+006    1.24228E+006    8.21250E+006   -4.58924E+006    6.93722E+006    3.07072E+006    1.34047E+006    9.35653E+006   -9.38780E+003    3.34958E+004    8.92138E+005
            7116    8.85992E+006    1.19114E+007    1.19114E+007    4.31346E+006    2.17933E+006    9.73206E+006   -6.13473E+006    8.25135E+006    4.31356E+006    2.27331E+006    1.18173E+007   -6.01692E+003    3.25229E+004    9.51491E+005
            7117    1.06948E+007    1.24786E+007    1.24786E+007    4.12464E+006    4.25160E+005    1.20534E+007   -5.67613E+006    9.07811E+006    4.12473E+006    7.13772E+005    1.21899E+007   -2.08171E+004    5.52323E+004    1.84192E+006
            7118    9.76581E+006    1.03406E+007    1.03406E+007    2.94910E+006   -7.30443E+005    1.10711E+007   -4.18643E+006    7.96573E+006    2.94919E+006   -5.85235E+005    1.01953E+007   -2.39753E+004    5.22706E+004    1.25851E+006
            7119    6.93213E+006    6.25767E+006    6.25767E+006    1.16595E+006   -1.63704E+006    7.89471E+006   -1.92886E+006    5.41729E+006    1.16651E+006   -1.63052E+006    6.25060E+006    7.44918E+004   -1.18845E+005    1.85896E+005
            7120    6.01586E+006    4.98025E+006    4.98025E+006    7.15233E+005   -1.90071E+006    6.88096E+006   -1.26492E+006    4.43577E+006    7.15682E+005   -1.85161E+006    4.93069E+006    8.32800E+004   -9.85765E+004   -5.66320E+005
            7121    5.05893E+006    4.20103E+006    4.20103E+006    6.14596E+005   -1.58541E+006    5.78644E+006   -1.07674E+006    3.72991E+006    6.15070E+005   -1.39250E+006    4.00765E+006    8.23416E+004   -8.05656E+004   -1.03313E+006
            7122    4.11527E+006    3.57904E+006    3.57904E+006    6.08172E+005   -1.11823E+006    4.69727E+006   -1.02299E+006    3.12950E+006    6.08564E+005   -7.07753E+005    3.16817E+006    7.37530E+004   -5.85296E+004   -1.32354E+006
            7123    3.57657E+006    3.67294E+006    3.67294E+006    8.00100E+005   -3.32917E+005    4.00585E+006   -1.38004E+006    3.13292E+006    8.00210E+005   -2.41035E+005    3.58094E+006    5.82162E+004   -6.92808E+004   -5.93076E+005
            7124    3.98039E+006    4.39514E+006    4.39514E+006    1.08188E+006   -2.01567E+004    4.41530E+006   -1.81896E+006    3.61252E+006    1.08376E+006   -1.36182E+004    4.38673E+006    1.51680E+004   -8.10343E+004   -1.68022E+005
            7125    4.11066E+006    4.04657E+006    4.04657E+006    7.54141E+005   -5.60645E+005    4.60721E+006   -1.41335E+006    3.58975E+006    7.54319E+005   -5.42230E+005    4.02797E+006    6.13001E+004   -8.84099E+004   -2.71135E+005
            7126    4.29073E+006    4.57843E+006    4.57843E+006    9.61159E+005   -1.62246E+005    4.74067E+006   -1.79245E+006    3.93895E+006    9.63784E+005   -1.61753E+005    4.57531E+006    1.76479E+004   -1.02898E+005    3.04036E+004
            7127    4.76914E+006    4.56614E+006    4.56614E+006    7.37690E+005   -7.76196E+005    5.34233E+006   -1.50921E+006    4.17487E+006    7.37613E+005   -7.52566E+005    4.54258E+006    5.72592E+004   -1.03588E+005    3.33741E+005
            7128    4.11544E+006    4.32538E+006    4.32538E+006    7.11207E+005   -1.53808E+005    4.47919E+006   -1.62759E+006    3.90296E+006    7.14199E+005   -1.32262E+005    4.30084E+006    1.44045E+004   -1.14669E+005    3.05661E+005
            7129    4.90432E+006    5.02881E+006    5.02881E+006    8.83897E+005   -3.85376E+005    5.41418E+006   -1.84244E+006    4.51205E+006    8.84144E+005   -2.41455E+005    4.88464E+006    3.58060E+004   -1.07884E+005    8.64041E+005
            7130    3.63690E+006    3.78527E+006    3.78527E+006    3.81642E+005   -4.69288E+004    3.83220E+006   -1.37333E+006    3.57943E+006    3.84218E+005   -2.33956E+003    3.73811E+006    5.99509E+003   -1.06927E+005    4.07507E+005
            7131    3.17889E+006    3.20529E+006    3.20529E+006    3.94470E+004    1.35073E+004    3.19178E+006   -1.08608E+006    3.17865E+006    3.93466E+004    5.64103E+004    3.16249E+006   -1.92268E+003   -7.83324E+004    3.58669E+005
            7132    2.77660E+006    2.75078E+006    2.75078E+006    1.56316E+005   -1.77719E+005    2.92850E+006   -9.09794E+005    2.73084E+006   -1.77181E+005    1.65420E+005    2.74114E+006   -1.04049E+004   -2.98515E+004    1.55261E+005
            7133    4.56554E+006    5.04429E+006    5.04429E+006    8.94075E+005    1.53862E+005    4.89042E+006   -2.03074E+006    4.42752E+006    8.95285E+005    2.93455E+005    4.90348E+006    3.00660E+003   -8.31763E+004    8.13084E+005
            7134    4.04656E+006    4.75984E+006    4.75984E+006    8.16012E+005    6.17829E+005    4.14201E+006   -2.06456E+006    4.03562E+006    8.14380E+005    6.43893E+005    4.73541E+006   -2.17169E+004   -3.07836E+004    3.15370E+005
            7135    4.97668E+006    6.43792E+006    6.43792E+006    1.71187E+006    1.24369E+006    5.19423E+006   -3.13116E+006    4.92677E+006    1.71161E+006    1.26655E+006    6.41532E+006   -1.73329E+004   -3.19875E+004    3.40090E+005
            7136    6.20026E+006    8.41466E+006    8.41466E+006    2.68786E+006    1.83022E+006    6.58443E+006   -4.31091E+006    6.06466E+006    2.68804E+006    1.83808E+006    8.40662E+006   -6.26089E+003   -3.47063E+004    2.26802E+005
            7137    7.91864E+006    1.09150E+007    1.09150E+007    3.82873E+006    2.36761E+006    8.54744E+006   -5.70380E+006    7.60643E+006    3.82889E+006    2.37758E+006    1.09049E+007    3.27863E+003   -3.51127E+004    2.91563E+005
            7138    9.69363E+006    1.35278E+007    1.35278E+007    5.02635E+006    2.97145E+006    1.05563E+007   -7.17519E+006    9.18421E+006    5.02644E+006    2.97596E+006    1.35232E+007    8.73456E+003   -3.37464E+004    2.17065E+005
            7139    5.74761E+006    6.77223E+006    6.77223E+006    1.73880E+006    5.09377E+005    6.26285E+006   -3.00680E+006    5.43984E+006    1.74010E+006    6.06748E+005    6.67356E+006    1.46136E+004   -1.00130E+005    7.72340E+005
            7140    7.27070E+006    9.09470E+006    9.09470E+006    2.83423E+006    1.12010E+006    7.97460E+006   -4.34968E+006    6.79339E+006    2.83544E+006    1.22368E+006    8.98991E+006    2.07622E+004   -1.10942E+005    9.00014E+005
            7141    8.44184E+006    1.12874E+007    1.12874E+007    3.98298E+006    2.04518E+006    9.24226E+006   -5.77187E+006    7.91789E+006    3.98408E+006    2.14091E+006    1.11906E+007    2.32835E+004   -1.14982E+005    9.32567E+005
            7142    9.89243E+006    1.37828E+007    1.37828E+007    5.22687E+006    2.95068E+006    1.08321E+007   -7.32012E+006    9.27537E+006    5.22778E+006    3.02037E+006    1.37122E+007    2.69721E+004   -1.14946E+005    8.62397E+005
            7143    1.11574E+007    1.44200E+007    1.44200E+007    5.33624E+006    1.96608E+006    1.24539E+007   -7.24078E+006    9.91136E+006    5.33708E+006    2.36338E+006    1.40219E+007    4.80380E+004   -1.64063E+005    2.18361E+006
            7144    1.04713E+007    1.20810E+007    1.20810E+007    3.90809E+006    2.77636E+005    1.18033E+007   -5.42223E+006    8.88003E+006    3.90882E+006    5.44838E+005    1.18130E+007    5.97744E+004   -1.56844E+005    1.74931E+006
            7145    9.38394E+006    9.93524E+006    9.93524E+006    2.79372E+006   -6.92945E+005    1.06282E+007   -4.01201E+006    7.71021E+006    2.79434E+006   -5.22191E+005    9.76387E+006    6.49608E+004   -1.45318E+005    1.32840E+006
            7146    8.08258E+006    8.03638E+006    8.03638E+006    1.93760E+006   -1.13116E+006    9.16754E+006   -2.94761E+006    6.56549E+006    1.93816E+006   -1.06203E+006    7.96670E+006    6.87808E+004   -1.33290E+005    7.80919E+005
            7147    3.53760E+006    3.92648E+006    3.92648E+006    1.02180E+006   -1.31768E+004    3.93966E+006   -1.64503E+006    3.16917E+006    1.02284E+006   -3.33116E+003    3.91560E+006    1.24229E+004   -5.66443E+004   -1.95784E+005
            7148    3.03275E+006    3.25650E+006    3.25650E+006    7.99725E+005   -1.33072E+005    3.38958E+006   -1.30772E+006    2.68032E+006    7.99485E+005    4.56936E+003    3.11910E+006    5.03130E+004   -4.99336E+004   -6.64846E+005
            7149    3.18335E+006    2.98025E+006    2.98025E+006    6.04978E+005   -6.36852E+005    3.61710E+006   -9.82791E+005    2.54587E+006    6.05199E+005   -9.17922E+004    2.43497E+006    5.98659E+004   -3.95507E+004   -1.29217E+006
            7150    3.05750E+006    3.44284E+006    3.44284E+006    9.35911E+005    3.65155E+004    3.40632E+006   -1.47175E+006    2.73527E+006    9.36279E+005    4.35845E+004    3.43540E+006    9.59299E+003   -3.28553E+004   -1.54203E+005
            7151    2.43934E+006    2.75666E+006    2.75666E+006    7.38111E+005    4.60696E+004    2.71059E+006   -1.18028E+006    2.20170E+006    7.36626E+005    1.26149E+005    2.67806E+006    4.31082E+004   -2.75249E+004   -4.52939E+005
            7152    2.17984E+006    2.29182E+006    2.29182E+006    5.59412E+005   -1.55770E+005    2.44759E+006   -8.98486E+005    1.88745E+006    5.58826E+005    3.28739E+005    1.80789E+006    4.53817E+004   -1.98809E+004   -9.73624E+005
            7153    2.77965E+006    3.13765E+006    3.13765E+006    8.62498E+005    3.94049E+004    3.09825E+006   -1.34652E+006    2.48244E+006    8.62470E+005    4.03297E+004    3.13675E+006    8.28230E+003   -1.06972E+004   -5.11602E+004
            7154    2.07599E+006    2.44820E+006    2.44820E+006    6.94677E+005    1.55947E+005    2.29225E+006   -1.09961E+006    1.90899E+006    6.92170E+005    1.70667E+005    2.43599E+006    3.82456E+004   -1.04376E+004   -1.66090E+005
            7155    1.08398E+006    1.50937E+006    1.50937E+006    4.92856E+005    3.68632E+005    1.14074E+006   -7.90287E+005    1.06779E+006    4.84512E+005    4.99084E+005    1.38727E+006    3.61101E+004   -7.38437E+003   -3.50675E+005
            7156    1.01573E+007    1.41865E+007    1.41865E+007    5.32074E+006    3.10385E+006    1.10827E+007   -7.53704E+006    9.59009E+006    5.32082E+006    3.10882E+006    1.41815E+007   -9.72990E+003   -3.50984E+004   -2.33505E+005
            7157    1.01628E+007    1.43152E+007    1.43152E+007    5.51399E+006    3.19261E+006    1.11226E+007   -7.67394E+006    9.53848E+006    5.51495E+006    3.26420E+006    1.42427E+007   -2.55126E+004   -1.16400E+005   -8.86148E+005
            7158    1.12659E+007    1.47304E+007    1.47304E+007    5.52016E+006    2.16911E+006    1.25612E+007   -7.47321E+006    1.00494E+007    5.52108E+006    2.56817E+006    1.43304E+007   -4.59522E+004   -1.65048E+005   -2.19823E+006
            7159    1.19342E+007    1.66979E+007    1.66979E+007    6.43023E+006    3.60439E+006    1.30935E+007   -8.91083E+006    1.11435E+007    6.43032E+006    3.60632E+006    1.66959E+007   -9.30378E+003   -3.56899E+004   -1.57712E+005
            7160    1.14555E+007    1.66768E+007    1.66768E+007    6.72184E+006    4.15595E+006    1.25209E+007   -9.18487E+006    1.07801E+007    6.72276E+006    4.19457E+006    1.66373E+007   -2.27296E+004   -1.12967E+005   -6.91311E+005
            7161    1.11357E+007    1.66617E+007    1.66617E+007    7.01418E+006    4.47602E+006    1.21857E+007   -9.38397E+006    1.04548E+007    7.01540E+006    4.86462E+006    1.62719E+007   -3.00676E+004   -1.66745E+005   -2.13704E+006
            7162    1.32525E+007    1.85284E+007    1.85284E+007    7.22495E+006    3.94338E+006    1.45850E+007   -9.89891E+006    1.22875E+007    7.22507E+006    3.94386E+006    1.85278E+007   -5.26098E+003   -3.76132E+004   -8.22346E+004
            7163    1.23466E+007    1.83495E+007    1.83495E+007    7.58838E+006    4.87038E+006    1.34791E+007   -1.02694E+007    1.16446E+007    7.58937E+006    4.87992E+006    1.83390E+007   -1.17567E+004   -1.07813E+005   -3.56902E+005
            7164    1.04693E+007    1.78462E+007    1.78462E+007    8.21330E+006    6.70414E+006    1.11420E+007   -1.09212E+007    1.02203E+007    8.21532E+006    6.86475E+006    1.76835E+007   -1.29983E+004   -1.64771E+005   -1.32496E+006
            7165    1.36654E+007    1.90918E+007    1.90918E+007    7.46569E+006    4.03919E+006    1.50526E+007   -1.01989E+007    1.26435E+007    7.46582E+006    4.03921E+006    1.90916E+007    9.72262E+002   -3.87996E+004    1.79604E+004
            7166    1.26458E+007    1.88823E+007    1.88823E+007    7.85724E+006    5.07808E+006    1.38042E+007   -1.06059E+007    1.19293E+007    7.85827E+006    5.07835E+006    1.88810E+007    7.71988E+002   -1.06567E+005    6.05042E+004
            7167    1.00777E+007    1.82023E+007    1.82023E+007    8.67070E+006    7.65527E+006    1.05470E+007   -1.15094E+007    9.96164E+006    8.67352E+006    7.65552E+006    1.81992E+007    2.77317E+002   -1.63894E+005    5.20409E+004
            7168    1.30217E+007    1.81918E+007    1.81918E+007    7.07351E+006    3.86617E+006    1.43256E+007   -9.71049E+006    1.20841E+007    7.07361E+006    3.86687E+006    1.81910E+007    6.65667E+003   -3.70749E+004    9.89575E+004
            7169    1.22453E+007    1.80765E+007    1.80765E+007    7.42568E+006    4.69708E+006    1.33794E+007   -1.00664E+007    1.15311E+007    7.42664E+006    4.71259E+006    1.80600E+007    1.51676E+004   -1.08154E+005    4.53362E+005
            7170    1.04997E+007    1.77597E+007    1.77597E+007    8.13250E+006    6.56409E+006    1.11957E+007   -1.08188E+007    1.02311E+007    8.13438E+006    6.74247E+006    1.75795E+007    1.54497E+004   -1.64939E+005    1.39844E+006
            7171    1.15424E+007    1.61299E+007    1.61299E+007    6.17450E+006    3.47789E+006    1.26520E+007   -8.59408E+006    1.07990E+007    6.17458E+006    3.48039E+006    1.61273E+007    9.99500E+003   -3.52201E+004    1.76266E+005
            7172    1.12282E+007    1.61898E+007    1.61898E+007    6.45284E+006    3.90747E+006    1.22824E+007   -8.85005E+006    1.05493E+007    6.45377E+006    3.94872E+006    1.61477E+007    2.25002E+004   -1.12019E+005    7.07647E+005
            7173    1.11318E+007    1.64702E+007    1.64702E+007    6.87129E+006    4.26711E+006    1.22031E+007   -9.20286E+006    1.04128E+007    6.87251E+006    4.65924E+006    1.60768E+007    3.08736E+004   -1.66502E+005    2.14803E+006
            7174    3.18172E+006    2.97950E+006    2.97950E+006    6.05205E+005   -6.35697E+005    3.61519E+006   -9.83002E+005    2.54493E+006    6.05422E+005   -8.83547E+004    2.43194E+006    5.99100E+004    3.94580E+004    1.29399E+006
            7175    3.03080E+006    3.25503E+006    3.25503E+006    7.99700E+005   -1.32313E+005    3.38735E+006   -1.30747E+006    2.67874E+006    7.99450E+005    3.28661E+003    3.11969E+006    5.02153E+004    4.98174E+004    6.59812E+005
            7176    3.53014E+006    3.91770E+006    3.91770E+006    1.01971E+006   -1.38602E+004    3.93156E+006   -1.64118E+006    3.16187E+006    1.02074E+006   -4.13171E+003    3.90694E+006    1.23644E+004    5.62641E+004    1.94412E+005
            7177    2.17039E+006    2.28435E+006    2.28435E+006    5.58120E+005   -1.52196E+005    2.43655E+006   -8.96758E+005    1.88089E+006    5.57527E+005    3.30750E+005    1.80200E+006    4.52784E+004    1.97634E+004    9.69693E+005
            7178    2.44594E+006    2.76220E+006    2.76220E+006    7.39202E+005    4.38750E+004    2.71832E+006   -1.18176E+006    2.20661E+006    7.37725E+005    1.23220E+005    2.68433E+006    4.31103E+004    2.75941E+004    4.51548E+005
            7179    3.05367E+006    3.43878E+006    3.43878E+006    9.35018E+005    3.67086E+004    3.40207E+006   -1.47017E+006    2.73181E+006    9.35381E+005    4.37395E+004    3.43138E+006    9.52490E+003    3.26120E+004    1.53698E+005
            7180    1.06991E+006    1.49976E+006    1.49976E+006    4.93112E+005    3.76194E+005    1.12356E+006   -7.89687E+005    1.05539E+006    4.84094E+005    5.02074E+005    1.38289E+006    3.59937E+004    7.21951E+003    3.40907E+005
            7181    2.08193E+006    2.45355E+006    2.45355E+006    6.95933E+005    1.54352E+005    2.29920E+006   -1.10128E+006    1.91358E+006    6.93438E+005    1.69847E+005    2.44055E+006    3.83260E+004    1.06038E+004    1.71608E+005
            7182    2.77916E+006    3.13700E+006    3.13700E+006    8.62286E+005    3.92877E+004    3.09771E+006   -1.34619E+006    2.48196E+006    8.62258E+005    4.02181E+004    3.13610E+006    8.25629E+003    1.06338E+004    5.13376E+004
            7183    3.24698E+006    3.29652E+006    3.29652E+006    1.04649E+005   -2.88366E+003    3.29941E+006   -1.13276E+006    3.24297E+006    1.07033E+005    2.74091E+004    3.26385E+006    2.38684E+003   -9.46146E+004   -3.12419E+005
            7184    3.68776E+006    3.84739E+006    3.84739E+006    4.20310E+005   -5.49641E+004    3.90235E+006   -1.40424E+006    3.61789E+006    4.23644E+005   -3.22502E+004    3.82134E+006   -4.25942E+003   -1.12873E+005   -2.94453E+005
            7185    4.04295E+006    4.32798E+006    4.32798E+006    7.46394E+005   -5.60051E+004    4.38399E+006   -1.67279E+006    3.85765E+006    7.49797E+005   -4.74560E+004    4.31603E+006   -9.31109E+003   -1.14917E+005   -1.90423E+005
            7186    4.20936E+006    4.57887E+006    4.57887E+006    9.90241E+005   -5.44615E+004    4.63333E+006   -1.83822E+006    3.90136E+006    9.93081E+005   -5.38200E+004    4.57539E+006   -1.19748E+004   -1.03879E+005   -4.70912E+004
            7187    4.05269E+006    4.47002E+006    4.47002E+006    1.09725E+006   -2.57359E+004    4.49576E+006   -1.84718E+006    3.67746E+006    1.09922E+006   -2.41962E+004    4.46651E+006   -1.24150E+004   -8.35247E+004    8.02473E+004
            7188    4.16828E+006    4.39342E+006    4.39342E+006    5.85518E+005   -5.99452E+004    4.45336E+006   -1.63966E+006    4.05356E+006    5.86408E+005    7.48466E+004    4.25774E+006   -1.18469E+004   -9.24051E+004   -7.59406E+005
            7189    4.24589E+006    4.37949E+006    4.37949E+006    6.47297E+005   -2.39910E+005    4.61939E+006   -1.59562E+006    4.02934E+006    6.47879E+005   -1.30839E+005    4.26983E+006   -2.76297E+004   -1.06086E+005   -6.94287E+005
            7190    4.22441E+006    4.34383E+006    4.34383E+006    7.46734E+005   -3.08017E+005    4.65185E+006   -1.59418E+006    3.91135E+006    7.47683E+005   -2.69526E+005    4.30439E+006   -3.66642E+004   -1.06762E+005   -4.10128E+005
            7191    4.03923E+006    4.21156E+006    4.21156E+006    8.45831E+005   -2.67614E+005    4.47917E+006   -1.59659E+006    3.66943E+006    8.47234E+005   -2.66308E+005    4.20885E+006   -3.81650E+004   -9.54129E+004    2.96516E+003
            7192    3.70498E+006    3.97514E+006    3.97514E+006    9.19723E+005   -1.45862E+005    4.12101E+006   -1.58300E+006    3.33318E+006    9.21065E+005   -1.25878E+005    3.95382E+006   -3.23438E+004   -7.66565E+004    2.81256E+005
            7193    5.01676E+006    5.44294E+006    5.44294E+006    1.07806E+006   -3.77878E+004    5.48073E+006   -2.16107E+006    4.72529E+006    1.07939E+006    1.20301E+005    5.28352E+006   -1.13093E+004   -9.72120E+004   -9.15144E+005
            7194    5.07860E+006    5.10176E+006    5.10176E+006    9.06204E+005   -5.44287E+005    5.64605E+006   -1.82123E+006    4.57662E+006    9.07043E+005   -4.35119E+005    4.99175E+006   -3.29370E+004   -1.05334E+005   -7.71814E+005
            7195    4.75136E+006    4.57450E+006    4.57450E+006    7.67830E+005   -7.50444E+005    5.32494E+006   -1.53063E+006    4.15052E+006    7.68340E+005   -7.35133E+005    4.55868E+006   -4.91906E+004   -9.89252E+004   -2.66506E+005
            7196    4.17305E+006    4.08541E+006    4.08541E+006    7.55114E+005   -5.95727E+005    4.68114E+006   -1.41493E+006    3.62991E+006    7.55579E+005   -5.82297E+005    4.07152E+006   -5.44532E+004   -8.54301E+004    2.32309E+005
            7197    3.62919E+006    3.67976E+006    3.67976E+006    7.76493E+005   -3.88993E+005    4.06875E+006   -1.35575E+006    3.16513E+006    7.76852E+005   -3.07536E+005    3.59794E+006   -5.29170E+004   -6.81926E+004    5.64231E+005
            7198    6.54429E+006    6.96663E+006    6.96663E+006    1.67102E+006   -3.49708E+005    7.31634E+006   -2.76265E+006    5.77723E+006    1.67137E+006   -2.34495E+005    6.85106E+006   -5.32601E+004   -1.26885E+005   -9.01426E+005
            7199    6.29284E+006    5.87415E+006    5.87415E+006    1.08823E+006   -1.25390E+006    7.12805E+006   -1.90283E+006    5.16595E+006    1.08795E+006   -1.22244E+006    5.84298E+006   -7.83673E+004   -1.22484E+005   -4.48053E+005
            7200    5.46932E+006    4.87455E+006    4.87455E+006    8.00302E+005   -1.34155E+006    6.21610E+006   -1.44443E+006    4.36380E+006    7.99981E+005   -1.33452E+006    4.86784E+006   -8.60226E+004   -1.07074E+005    1.53305E+005
            7201    4.62982E+006    4.13917E+006    4.13917E+006    6.95694E+005   -1.12405E+006    5.26322E+006   -1.23694E+006    3.68568E+006    6.95363E+005   -1.04154E+006    4.05699E+006   -8.57062E+004   -8.67694E+004    6.41467E+005
            7202    3.78932E+006    3.53662E+006    3.53662E+006    6.76138E+005   -7.61043E+005    4.29767E+006   -1.15057E+006    3.07986E+006    6.76199E+005   -5.30334E+005    3.30586E+006   -7.58078E+004   -6.75132E+004    9.63399E+005
            7203    4.53164E+006    3.72773E+006    3.72773E+006    5.64686E+005   -1.46380E+006    5.19153E+006   -9.42870E+005    3.24653E+006    5.64846E+005   -9.79869E+005    3.24363E+006   -8.43862E+004   -5.83845E+004    1.50601E+006
            7204    5.70841E+006    4.54522E+006    4.54522E+006    6.29644E+005   -2.00464E+006    6.54986E+006   -1.05674E+006    3.94886E+006    6.29826E+005   -1.74595E+006    4.28635E+006   -9.10214E+004   -7.74558E+004    1.27037E+006
            7205    6.90378E+006    5.57848E+006    5.57848E+006    8.36025E+005   -2.34198E+006    7.92046E+006   -1.35751E+006    4.79045E+006    8.36481E+005   -2.26529E+006    5.50134E+006   -9.03785E+004   -1.00159E+005    7.65145E+005
            7206    7.92533E+006    6.78084E+006    6.78084E+006    1.22874E+006   -2.29532E+006    9.07616E+006   -1.90475E+006    5.71749E+006    1.22942E+006   -2.29085E+006    6.77569E+006   -8.16938E+004   -1.16053E+005    1.55513E+005
            7207    8.84344E+006    8.47926E+006    8.47926E+006    2.00621E+006   -1.59693E+006    1.00762E+007   -2.96285E+006    6.87428E+006    2.00715E+006   -1.56197E+006    8.44336E+006   -6.98376E+004   -1.34114E+005   -5.78161E+005
            7208    9.75863E+006    1.03421E+007    1.03421E+007    2.93879E+006   -7.16472E+005    1.10586E+007   -4.18814E+006    7.98470E+006    2.93950E+006   -5.69473E+005    1.01944E+007   -6.82925E+004   -1.49623E+005   -1.25779E+006
            7209    1.06863E+007    1.24851E+007    1.24851E+007    4.11641E+006    4.47616E+005    1.20375E+007   -5.68304E+006    9.09837E+006    4.11710E+006    7.37895E+005    1.21941E+007   -5.97863E+004   -1.58545E+005   -1.84033E+006
            7210    8.86223E+006    1.18751E+007    1.18751E+007    4.24646E+006    2.15379E+006    9.72128E+006   -6.09177E+006    8.27849E+006    4.24746E+006    2.24737E+006    1.17805E+007   -2.76579E+004   -1.18410E+005   -9.45430E+005
            7211    8.25284E+006    1.14898E+007    1.14898E+007    4.12253E+006    2.57150E+006    8.91831E+006   -6.06128E+006    7.91489E+006    4.12269E+006    2.57792E+006    1.14832E+007   -5.28669E+003   -3.62856E+004   -2.38623E+005
            7212    7.46850E+006    9.43681E+006    9.43681E+006    3.02272E+006    1.23747E+006    8.19934E+006   -4.56567E+006    6.96373E+006    3.02395E+006    1.33452E+006    9.33853E+006   -2.35247E+004   -1.15196E+005   -8.83326E+005
            7213    6.58974E+006    9.06467E+006    9.06467E+006    3.01633E+006    2.04202E+006    7.02265E+006   -4.70767E+006    6.42469E+006    3.01655E+006    2.05387E+006    9.05260E+006    3.11399E+003   -3.67529E+004   -2.88210E+005
            7214    5.43855E+006    7.22089E+006    7.22089E+006    2.10995E+006    1.50527E+006    5.71561E+006   -3.61204E+006    5.36214E+006    2.10994E+006    1.52426E+006    7.20191E+006    1.44423E+004   -3.47681E+004   -3.26660E+005
            7215    4.47769E+006    5.56009E+006    5.56009E+006    1.24915E+006    9.32463E+005    4.62762E+006   -2.58057E+006    4.45239E+006    1.24826E+006    9.50684E+005    5.54275E+006    2.02258E+004   -2.82096E+004   -2.81076E+005
            7216    3.66545E+006    4.11152E+006    4.11152E+006    4.81376E+005    4.11760E+005    3.69976E+006   -1.66822E+006    3.66396E+006    4.75395E+005    4.31754E+005    4.09751E+006    2.10872E+004   -2.16409E+004   -2.25893E+005
            7217    2.65888E+006    2.53452E+006    2.53452E+006    9.16505E+004   -2.97487E+005    2.83201E+006   -7.76229E+005    2.59366E+006   -2.97122E+005    9.45769E+004    2.53123E+006    9.03982E+003   -2.29672E+004   -8.69660E+004
            7218    6.06597E+006    7.35908E+006    7.35908E+006    2.03207E+006    7.56894E+005    6.60219E+006   -3.38268E+006    5.75270E+006    2.03321E+006    8.63543E+005    7.25129E+006   -1.41774E+004   -9.74251E+004   -8.30069E+005
            7219    4.77905E+006    5.57138E+006    5.57138E+006    1.18124E+006    4.80741E+005    5.09064E+006   -2.41112E+006    4.66145E+006    1.18238E+006    5.84239E+005    5.46674E+006    5.36890E+003   -7.18884E+004   -7.18235E+005
            7220    3.93523E+006    4.28832E+006    4.28832E+006    5.27612E+005    1.99154E+005    4.08917E+006   -1.67170E+006    3.90421E+006    5.28682E+005    2.88631E+005    4.19777E+006    8.34896E+003   -6.29854E+004   -5.98138E+005
            7221    2.87812E+006    2.82183E+006    2.82183E+006    4.88072E+004   -1.50984E+005    2.97281E+006   -9.06551E+005    2.86246E+006   -1.49592E+005    6.87116E+004    2.80053E+006    6.51133E+003   -6.38566E+004   -2.34067E+005
            7222    3.63546E+006    3.78389E+006    3.78389E+006    3.80942E+005   -4.63279E+004    3.83022E+006   -1.37283E+006    3.57832E+006    3.83515E+005   -1.62942E+003    3.73662E+006    5.95876E+003    1.06862E+005   -4.07901E+005
            7223    4.11955E+006    4.32960E+006    4.32960E+006    7.13493E+005   -1.54922E+005    4.48452E+006   -1.62939E+006    3.90556E+006    7.16483E+005   -1.33646E+005    4.30533E+006    1.44340E+004    1.14615E+005   -3.03898E+005
            7224    4.28785E+006    4.57850E+006    4.57850E+006    9.65366E+005   -1.59724E+005    4.73822E+006   -1.79471E+006    3.93467E+006    9.67973E+005   -1.59323E+005    4.57549E+006    1.76099E+004    1.02371E+005   -2.28242E+004
            7225    3.96703E+006    4.38423E+006    4.38423E+006    1.08247E+006   -1.63964E+004    4.40062E+006   -1.81676E+006    3.60001E+006    1.08432E+006   -9.62189E+003    4.37560E+006    1.50664E+004    8.03535E+004    1.70833E+005
            7226    4.90205E+006    5.02445E+006    5.02445E+006    8.82029E+005   -3.87464E+005    5.41192E+006   -1.83967E+006    4.50943E+006    8.82275E+005   -2.44138E+005    4.88088E+006    3.58534E+004    1.07847E+005   -8.62087E+005
            7227    4.75682E+006    4.55515E+006    4.55515E+006    7.35670E+005   -7.73062E+005    5.32822E+006   -1.50592E+006    4.16517E+006    7.35589E+005   -7.50035E+005    4.53221E+006    5.72799E+004    1.03395E+005   -3.28461E+005
            7228    4.09819E+006    4.03689E+006    4.03689E+006    7.53580E+005   -5.56053E+005    4.59294E+006   -1.41147E+006    3.57988E+006    7.53756E+005   -5.36812E+005    4.01747E+006    6.12860E+004    8.80974E+004    2.77590E+005
            7229    3.56581E+006    3.66940E+006    3.66940E+006    8.03126E+005   -3.23688E+005    3.99308E+006   -1.38295E+006    3.12591E+006    8.03235E+005   -2.31196E+005    3.57680E+006    5.79862E+004    6.89873E+004    5.94098E+005
            7230    4.11710E+006    3.57818E+006    3.57818E+006    6.06981E+005   -1.12137E+006    4.69956E+006   -1.02126E+006    3.12919E+006    6.07376E+005   -7.09532E+005    3.16594E+006    7.38769E+004    5.85588E+004    1.32589E+006
            7231    5.06740E+006    4.20269E+006    4.20269E+006    6.12195E+005   -1.59378E+006    5.79647E+006   -1.07370E+006    3.73255E+006    6.12668E+005   -1.40014E+006    4.00858E+006    8.24298E+004    8.05599E+004    1.03597E+006
            7232    6.01975E+006    4.98179E+006    4.98179E+006    7.14489E+005   -1.90371E+006    6.88549E+006   -1.26419E+006    4.43777E+006    7.14941E+005   -1.85472E+006    4.93235E+006    8.32554E+004    9.86257E+004    5.65804E+005
            7233    6.92515E+006    6.25052E+006    6.25052E+006    1.16314E+006   -1.63607E+006    7.88659E+006   -1.92586E+006    5.41309E+006    1.16370E+006   -1.62961E+006    6.24349E+006    7.44833E+004    1.18804E+005   -1.84697E+005
            7234    8.07613E+006    8.02307E+006    8.02307E+006    1.93204E+006   -1.13786E+006    9.16093E+006   -2.93908E+006    6.55602E+006    1.93260E+006   -1.06944E+006    7.95410E+006    6.89036E+004    1.33178E+005   -7.76495E+005
            7235    9.39500E+006    9.94339E+006    9.94339E+006    2.79587E+006   -6.97950E+005    1.06413E+007   -4.01377E+006    7.71585E+006    2.79650E+006   -5.27268E+005    9.77208E+006    6.50928E+004    1.45391E+005   -1.32896E+006
            7236    1.04827E+007    1.21023E+007    1.21023E+007    3.91887E+006    2.86522E+005    1.18157E+007   -5.43589E+006    8.89179E+006    3.91960E+006    5.55386E+005    1.18327E+007    5.96956E+004    1.56874E+005   -1.75560E+006
            7237    1.11580E+007    1.44186E+007    1.44186E+007    5.33451E+006    1.96379E+006    1.24548E+007   -7.23895E+006    9.91166E+006    5.33534E+006    2.35907E+006    1.40225E+007    4.80317E+004    1.63931E+005   -2.17828E+006
            7238    9.89144E+006    1.37787E+007    1.37787E+007    5.22454E+006    2.94718E+006    1.08315E+007   -7.31680E+006    9.27365E+006    5.22545E+006    3.01772E+006    1.37072E+007    2.69911E+004    1.15102E+005   -8.67613E+005
            7239    9.67649E+006    1.35024E+007    1.35024E+007    5.01502E+006    2.96531E+006    1.05371E+007   -7.16092E+006    9.16877E+006    5.01511E+006    2.96987E+006    1.34978E+007    8.78146E+003    3.42151E+004   -2.18050E+005
            7240    8.44989E+006    1.12800E+007    1.12800E+007    3.97464E+006    2.02610E+006    9.25395E+006   -5.76026E+006    7.92039E+006    3.97572E+006    2.12241E+006    1.11826E+007    2.35419E+004    1.15132E+005   -9.35948E+005
            7241    7.92326E+006    1.09259E+007    1.09259E+007    3.83532E+006    2.37355E+006    8.55236E+006   -5.71159E+006    7.61097E+006    3.83548E+006    2.38372E+006    1.09156E+007    3.31838E+003    3.54065E+004   -2.94408E+005
            7242    7.27239E+006    9.09130E+006    9.09130E+006    2.83185E+006    1.11367E+006    7.97763E+006   -4.34561E+006    6.79283E+006    2.83307E+006    1.21669E+006    8.98706E+006    2.09744E+004    1.11130E+005   -8.97747E+005
            7243    6.23009E+006    8.45756E+006    8.45756E+006    2.70749E+006    1.83864E+006    6.61891E+006   -4.33456E+006    6.09155E+006    2.70768E+006    1.84675E+006    8.44927E+006   -6.14667E+003    3.48676E+004   -2.31066E+005
            7244    5.75191E+006    6.77712E+006    6.77712E+006    1.74106E+006    5.09025E+005    6.26810E+006   -3.00907E+006    5.44302E+006    1.74236E+006    6.06751E+005    6.67809E+006    1.46718E+004    1.00256E+005   -7.74053E+005
            7245    4.99104E+006    6.46138E+006    6.46138E+006    1.72387E+006    1.25053E+006    5.21085E+006   -3.14526E+006    4.94016E+006    1.72363E+006    1.27310E+006    6.43905E+006   -1.71629E+004    3.20177E+004   -3.38588E+005
            7246    4.05413E+006    4.77259E+006    4.77259E+006    8.22845E+005    6.21581E+005    4.15101E+006   -2.07234E+006    4.04287E+006    8.21241E+005    6.47622E+005    4.74816E+006   -2.17173E+004    3.07548E+004   -3.15752E+005
            7247    2.77893E+006    2.75521E+006    2.75521E+006    1.57588E+005   -1.75087E+005    2.93030E+006   -9.12570E+005    2.73360E+006   -1.74549E+005    1.66431E+005    2.74583E+006   -1.04718E+004    2.95896E+004   -1.53234E+005
            7248    4.56651E+006    5.04663E+006    5.04663E+006    8.95722E+005    1.55069E+005    4.89156E+006   -2.03247E+006    4.42834E+006    8.96929E+005    2.94717E+005    4.90577E+006    3.01377E+003    8.31207E+004   -8.13339E+005
            7249    3.17580E+006    3.20250E+006    3.20250E+006    3.86775E+004    1.48575E+004    3.18765E+006   -1.08535E+006    3.17560E+006    3.84159E+004    5.75921E+004    3.16003E+006   -1.96121E+003    7.80392E+004   -3.57052E+005
            7250    3.39218E+006    3.00747E+006    3.00747E+006    5.50957E+005   -8.62959E+005    3.87042E+006   -8.98488E+005    2.59272E+006    5.50722E+005   -1.97793E+005    2.34254E+006   -7.03482E+004   -3.48245E+004    1.45789E+006
            7251    2.97590E+006    2.96936E+006    2.96936E+006    6.60440E+005   -3.89107E+005    3.35847E+006   -1.08023E+006    2.50563E+006    6.60000E+005   -7.09890E+004    2.65168E+006   -6.29619E+004   -4.39237E+004    9.80011E+005
            7252    3.03677E+006    3.22681E+006    3.22681E+006    7.69351E+005   -1.68170E+005    3.39498E+006   -1.27600E+006    2.68096E+006    7.69198E+005   -3.50152E+004    3.09381E+006   -4.73302E+004   -4.81722E+004    6.55295E+005
            7253    3.29418E+006    3.60878E+006    3.60878E+006    9.11248E+005   -6.25059E+004    3.67128E+006   -1.48584E+006    2.94329E+006    9.12069E+005   -2.32989E+004    3.56875E+006   -2.47043E+004   -5.44185E+004    3.75518E+005
            7254    3.64229E+006    4.05324E+006    4.05324E+006    1.06382E+006   -3.46282E+003    4.05670E+006   -1.70453E+006    3.26164E+006    1.06489E+006    2.15723E+002    4.04849E+006   -1.17067E+004   -5.86106E+004    1.20534E+005
            7255    2.21018E+006    2.22004E+006    2.22004E+006    5.02334E+005   -2.73442E+005    2.49349E+006   -8.16312E+005    1.86473E+006    5.01647E+005    3.32031E+005    1.61526E+006   -5.45872E+004   -2.00421E+004    1.06724E+006
            7256    2.13546E+006    2.35846E+006    2.35846E+006    6.12632E+005   -2.25125E+004    2.38097E+006   -9.82860E+005    1.90491E+006    6.11275E+005    2.23678E+005    2.11363E+006   -4.96122E+004   -2.67883E+004    7.21351E+005
            7257    2.43629E+006    2.73549E+006    2.73549E+006    7.19466E+005    2.82847E+004    2.70720E+006   -1.16108E+006    2.19895E+006    7.18282E+005    1.23638E+005    2.64132E+006   -4.12979E+004   -2.83047E+004    4.94233E+005
            7258    2.82405E+006    3.16281E+006    3.16281E+006    8.44491E+005    1.76120E+004    3.14519E+006   -1.34164E+006    2.52942E+006    8.44647E+005    4.59009E+004    3.13436E+006   -1.89695E+004   -3.11413E+004    2.95300E+005
            7259    3.19827E+006    3.57397E+006    3.57397E+006    9.68129E+005    4.74495E+003    3.56923E+006   -1.51561E+006    2.84327E+006    9.68493E+005    7.62656E+003    3.57073E+006   -1.05367E+004   -3.42931E+004    9.96805E+004
            7260    9.52578E+005    1.35156E+006    1.35156E+006    4.50663E+005    3.54575E+005    9.96981E+005   -7.18931E+005    9.41583E+005    4.33962E+005    5.73983E+005    1.14885E+006   -4.36500E+004   -4.28018E+003    3.96259E+005
            7261    1.44702E+006    1.85909E+006    1.85909E+006    5.71695E+005    2.92992E+005    1.56610E+006   -9.07925E+005    1.38469E+006    5.65819E+005    3.42766E+005    1.81519E+006   -4.21518E+004   -6.34121E+003    2.57586E+005
            7262    2.02426E+006    2.40213E+006    2.40213E+006    6.80034E+005    1.72361E+005    2.22977E+006   -1.08484E+006    1.87282E+006    6.77588E+005    1.89704E+005    2.38724E+006   -3.66147E+004   -9.07098E+003    1.81026E+005
            7263    2.52468E+006    2.87555E+006    2.87555E+006    7.91582E+005    6.81088E+004    2.80744E+006   -1.24508E+006    2.27333E+006    7.91331E+005    7.27984E+004    2.87111E+006   -1.53733E+004   -1.04314E+004    1.10803E+005
            7264    2.90517E+006    3.25895E+006    3.25895E+006    8.95518E+005    1.55162E+004    3.24343E+006   -1.38999E+006    2.57873E+006    8.95469E+005    1.60485E+004    3.25847E+006   -9.56833E+003   -1.10612E+004    3.73870E+004
            7265    1.12689E+007    1.47206E+007    1.47206E+007    5.51167E+006    2.15476E+006    1.25659E+007   -7.46235E+006    1.00481E+007    5.51259E+006    2.55419E+006    1.43203E+007   -4.61188E+004    1.65172E+005    2.19961E+006
            7266    1.01741E+007    1.43443E+007    1.43443E+007    5.53037E+006    3.21066E+006    1.11336E+007   -7.69511E+006    9.55150E+006    5.53133E+006    3.28030E+006    1.42737E+007   -2.52849E+004    1.16162E+005    8.74465E+005
            7267    1.01966E+007    1.42429E+007    1.42429E+007    5.34576E+006    3.11585E+006    1.11271E+007   -7.56817E+006    9.62483E+006    5.34585E+006    3.12084E+006    1.42378E+007   -9.76493E+003    3.50110E+004    2.34411E+005
            7268    1.11303E+007    1.66625E+007    1.66625E+007    7.01754E+006    4.48376E+006    1.21787E+007   -9.38793E+006    1.04514E+007    7.01876E+006    4.87313E+006    1.62719E+007   -3.01717E+004    1.66829E+005    2.13843E+006
            7269    1.14718E+007    1.66945E+007    1.66945E+007    6.72774E+006    4.15467E+006    1.25398E+007   -9.19230E+006    1.07935E+007    6.72866E+006    4.19253E+006    1.66557E+007   -2.27716E+004    1.12915E+005    6.84974E+005
            7270    1.19656E+007    1.67426E+007    1.67426E+007    6.44995E+006    3.61369E+006    1.31289E+007   -8.93542E+006    1.11711E+007    6.45004E+006    3.61553E+006    1.67407E+007   -9.27229E+003    3.57000E+004    1.53798E+005
            7271    1.04632E+007    1.78602E+007    1.78602E+007    8.22679E+006    6.72865E+006    1.11315E+007   -1.09385E+007    1.02177E+007    8.22882E+006    6.88784E+006    1.76990E+007   -1.29116E+004    1.65015E+005    1.31851E+006
            7272    1.23553E+007    1.83557E+007    1.83557E+007    7.58923E+006    4.86595E+006    1.34898E+007   -1.02703E+007    1.16510E+007    7.59023E+006    4.87554E+006    1.83451E+007   -1.16067E+004    1.07984E+005    3.58040E+005
            7273    1.32664E+007    1.85457E+007    1.85457E+007    7.23181E+006    3.94488E+006    1.46008E+007   -9.90748E+006    1.22992E+007    7.23193E+006    3.94535E+006    1.85451E+007   -5.12882E+003    3.76947E+004    8.17639E+004
            7274    1.00669E+007    1.81886E+007    1.81886E+007    8.66589E+006    7.65400E+006    1.05346E+007   -1.15028E+007    9.95153E+006    8.66871E+006    7.65450E+006    1.81853E+007    4.36009E+002    1.63983E+005   -7.22263E+004
            7275    1.26430E+007    1.88761E+007    1.88761E+007    7.85395E+006    5.07474E+006    1.38013E+007   -1.06016E+007    1.19263E+007    7.85498E+006    5.07497E+006    1.88748E+007    8.17658E+002    1.06594E+005   -5.65439E+004
            7276    1.36629E+007    1.90872E+007    1.90872E+007    7.46329E+006    4.03734E+006    1.50499E+007   -1.01959E+007    1.26412E+007    7.46342E+006    4.03736E+006    1.90870E+007    9.43599E+002    3.88193E+004   -1.85688E+004
            7277    1.05130E+007    1.77509E+007    1.77509E+007    8.11960E+006    6.53579E+006    1.12151E+007   -1.08021E+007    1.02394E+007    8.12147E+006    6.71979E+006    1.75650E+007    1.55967E+004    1.65112E+005   -1.42123E+006
            7278    1.22324E+007    1.80689E+007    1.80689E+007    7.42584E+006    4.70536E+006    1.33636E+007   -1.00667E+007    1.15218E+007    7.42680E+006    4.72065E+006    1.80527E+007    1.52224E+004    1.08340E+005   -4.49760E+005
            7279    1.30016E+007    1.81624E+007    1.81624E+007    7.06019E+006    3.85936E+006    1.43031E+007   -9.69399E+006    1.20664E+007    7.06029E+006    3.86006E+006    1.81616E+007    6.74193E+003    3.68578E+004   -9.94247E+004
            7280    1.11381E+007    1.64503E+007    1.64503E+007    6.85341E+006    4.23694E+006    1.22134E+007   -9.18022E+006    1.04124E+007    6.85463E+006    4.62917E+006    1.60569E+007    3.10228E+004    1.66406E+005   -2.14922E+006
            7281    1.12224E+007    1.61939E+007    1.61939E+007    6.45885E+006    3.91940E+006    1.22745E+007   -8.85740E+006    1.05465E+007    6.45978E+006    3.96186E+006    1.61506E+007    2.23766E+004    1.12339E+005   -7.17848E+005
            7282    1.15165E+007    1.60899E+007    1.60899E+007    6.15579E+006    3.46679E+006    1.26231E+007   -8.57083E+006    1.07757E+007    6.15587E+006    3.46933E+006    1.60873E+007    1.00216E+004    3.52344E+004   -1.77549E+005
            7283    3.64900E+006    4.05935E+006    4.05935E+006    1.06499E+006   -5.04905E+003    4.06439E+006   -1.70643E+006    3.26705E+006    1.06606E+006   -1.39502E+003    4.05462E+006   -1.16952E+004    5.87886E+004   -1.20243E+005
            7284    3.29385E+006    3.60806E+006    3.60806E+006    9.10854E+005   -6.28927E+004    3.67095E+006   -1.48534E+006    2.94293E+006    9.11673E+005   -2.33183E+004    3.56766E+006   -2.48164E+004    5.44084E+004   -3.77237E+005
            7285    3.03455E+006    3.22204E+006    3.22204E+006    7.67426E+005   -1.70829E+005    3.39287E+006   -1.27288E+006    2.67781E+006    7.67263E+005   -3.59924E+004    3.08736E+006   -4.75936E+004    4.81447E+004   -6.59046E+005
            7286    2.97236E+006    2.96316E+006    2.96316E+006    6.58122E+005   -3.91627E+005    3.35479E+006   -1.07655E+006    2.50115E+006    6.57674E+005   -6.87856E+004    2.64077E+006   -6.30397E+004    4.35780E+004   -9.85940E+005
            7287    3.39146E+006    3.00617E+006    3.00617E+006    5.50506E+005   -8.63502E+005    3.86967E+006   -8.97723E+005    2.59162E+006    5.50265E+005   -1.96213E+005    2.33912E+006   -7.02834E+004    3.46318E+004   -1.45957E+006
            7288    3.19964E+006    3.57702E+006    3.57702E+006    9.69563E+005    6.43744E+003    3.57058E+006   -1.51767E+006    2.84503E+006    9.69930E+005    9.28358E+003    3.57380E+006   -1.04805E+004    3.43764E+004   -9.90816E+004
            7289    2.82933E+006    3.16882E+006    3.16882E+006    8.46375E+005    1.76681E+004    3.15115E+006   -1.34429E+006    2.53393E+006    8.46539E+005    4.55610E+004    3.14076E+006   -1.87551E+004    3.12086E+004   -2.93545E+005
            7290    2.43867E+006    2.73835E+006    2.73835E+006    7.20517E+005    2.84362E+004    2.70991E+006   -1.16243E+006    2.20093E+006    7.19351E+005    1.23891E+005    2.64406E+006   -4.11446E+004    2.83309E+004   -4.94797E+005
            7291    2.12949E+006    2.35045E+006    2.35045E+006    6.09629E+005   -2.39080E+004    2.37436E+006   -9.78725E+005    1.89945E+006    6.08270E+005    2.25162E+005    2.10274E+006   -4.96488E+004    2.66425E+004   -7.23977E+005
            7292    2.21356E+006    2.21829E+006    2.21829E+006    4.99688E+005   -2.79503E+005    2.49780E+006   -8.12826E+005    1.86530E+006    4.99022E+005    3.31570E+005    1.60789E+006   -5.47586E+004    2.01481E+004   -1.07181E+006
            7293    2.90755E+006    3.25961E+006    3.25961E+006    8.94895E+005    1.32932E+004    3.24632E+006   -1.38927E+006    2.58012E+006    8.94848E+005    1.38290E+004    3.25912E+006   -9.53576E+003    1.11452E+004   -3.75940E+004
            7294    2.52860E+006    2.87907E+006    2.87907E+006    7.92354E+005    6.70792E+004    2.81199E+006   -1.24617E+006    2.27635E+006    7.92106E+005    7.17628E+004    2.87463E+006   -1.53159E+004    1.04595E+004   -1.10857E+005
            7295    2.02330E+006    2.40143E+006    2.40143E+006    6.79903E+005    1.72812E+005    2.22862E+006   -1.08471E+006    1.87216E+006    6.77455E+005    1.89975E+005    2.38671E+006   -3.65984E+004    9.07747E+003   -1.79877E+005
            7296    1.44210E+006    1.85768E+006    1.85768E+006    5.73114E+005    2.97756E+005    1.55992E+006   -9.09517E+005    1.38108E+006    5.67170E+005    3.46762E+005    1.81462E+006   -4.20942E+004    6.28951E+003   -2.54662E+005
            7297    9.56461E+005    1.35696E+006    1.35696E+006    4.52733E+005    3.55668E+005    1.00129E+006   -7.21787E+005    9.45284E+005    4.36298E+005    5.75619E+005    1.15344E+006   -4.36584E+004    4.29912E+003   -3.98015E+005
            7298    8.83628E+006    8.47562E+006    8.47562E+006    2.00646E+006   -1.59214E+006    1.00678E+007   -2.96331E+006    6.87091E+006    2.00741E+006   -1.55759E+006    8.44012E+006   -6.96475E+004    1.34066E+005    5.74377E+005
            7299    7.92241E+006    6.77734E+006    6.77734E+006    1.22809E+006   -2.29562E+006    9.07295E+006   -1.90327E+006    5.71381E+006    1.22877E+006   -2.29112E+006    6.77216E+006   -8.17387E+004    1.16049E+005   -1.56255E+005
            7300    6.88378E+006    5.56419E+006    5.56419E+006    8.34789E+005   -2.33323E+006    7.89742E+006   -1.35525E+006    4.77802E+006    8.35247E+005   -2.25568E+006    5.48618E+006   -9.01668E+004    9.98810E+004   -7.68440E+005
            7301    5.69672E+006    4.53829E+006    4.53829E+006    6.29605E+005   -1.99800E+006    6.53629E+006   -1.05663E+006    3.94317E+006    6.29776E+005   -1.73845E+006    4.27857E+006   -9.09309E+004    7.71500E+004   -1.27103E+006
            7302    4.51480E+006    3.71777E+006    3.71777E+006    5.64792E+005   -1.45419E+006    5.17196E+006   -9.42792E+005    3.23780E+006    5.64955E+005   -9.69391E+005    3.23281E+006   -8.41819E+004    5.82250E+004   -1.50409E+006
            7303    3.80190E+006    3.54350E+006    3.54350E+006    6.75774E+005   -7.69000E+005    4.31250E+006   -1.15009E+006    3.08678E+006    6.75847E+005   -5.37745E+005    3.31217E+006   -7.59867E+004    6.77760E+004   -9.66249E+005
            7304    3.63553E+006    3.67994E+006    3.67994E+006    7.74080E+005   -3.96743E+005    4.07668E+006   -1.35243E+006    3.16773E+006    7.74429E+005   -3.13933E+005    3.59678E+006   -5.33160E+004    6.82387E+004   -5.69403E+005
            7305    3.70512E+006    3.97091E+006    3.97091E+006    9.16879E+005   -1.50818E+005    4.12173E+006   -1.57899E+006    3.33173E+006    9.18206E+005   -1.30500E+005    3.94927E+006   -3.26686E+004    7.65684E+004   -2.83601E+005
            7306    4.05125E+006    4.46922E+006    4.46922E+006    1.09710E+006   -2.47345E+004    4.49395E+006   -1.84719E+006    3.67670E+006    1.09908E+006   -2.32312E+004    4.46574E+006   -1.25267E+004    8.35809E+004   -7.91287E+004
            7307    4.64573E+006    4.15115E+006    4.15115E+006    6.96710E+005   -1.13036E+006    5.28151E+006   -1.23917E+006    3.69700E+006    6.96379E+005   -1.04973E+006    4.07085E+006   -8.57191E+004    8.70383E+004   -6.35064E+005
            7308    4.18891E+006    4.09538E+006    4.09538E+006    7.55139E+005   -6.04440E+005    4.69982E+006   -1.41536E+006    3.64046E+006    7.55598E+005   -5.91406E+005    4.08189E+006   -5.47224E+004    8.57323E+004   -2.28632E+005
            7309    4.03969E+006    4.21113E+006    4.21113E+006    8.45878E+005   -2.68883E+005    4.48002E+006   -1.59604E+006    3.66899E+006    8.47266E+005   -2.67561E+005    4.20842E+006   -3.84019E+004    9.54543E+004   -1.29555E+003
            7310    4.20736E+006    4.57542E+006    4.57542E+006    9.88931E+005   -5.59052E+004    4.63133E+006   -1.83615E+006    3.89912E+006    9.91765E+005   -5.52611E+004    4.57195E+006   -1.20643E+004    1.03784E+005    4.71008E+004
            7311    5.50391E+006    4.90557E+006    4.90557E+006    8.07013E+005   -1.35018E+006    6.25575E+006   -1.45413E+006    4.38916E+006    8.06697E+005   -1.34378E+006    4.89948E+006   -8.61547E+004    1.07775E+005   -1.40366E+005
            7312    4.77279E+006    4.59329E+006    4.59329E+006    7.71691E+005   -7.56409E+005    5.34970E+006   -1.53619E+006    4.16661E+006    7.72197E+005   -7.40458E+005    4.57684E+006   -4.93534E+004    9.92421E+004    2.73348E+005
            7313    4.23057E+006    4.34658E+006    4.34658E+006    7.47949E+005   -3.13702E+005    4.66028E+006   -1.59361E+006    3.91367E+006    7.48877E+005   -2.75944E+005    4.30790E+006   -3.70181E+004    1.06526E+005    4.06350E+005
            7314    4.04825E+006    4.33299E+006    4.33299E+006    7.50326E+005   -5.86691E+004    4.39166E+006   -1.67488E+006    3.86005E+006    7.53715E+005   -5.00310E+004    4.32096E+006   -9.61627E+003    1.14885E+005    1.91499E+005
            7315    6.30616E+006    5.89193E+006    5.89193E+006    1.09539E+006   -1.25108E+006    7.14301E+006   -1.91208E+006    5.17757E+006    1.09511E+006   -1.21927E+006    5.86040E+006   -7.84129E+004    1.22569E+005    4.51329E+005
            7316    5.09217E+006    5.11577E+006    5.11577E+006    9.10288E+005   -5.45861E+005    5.66163E+006   -1.82673E+006    4.58751E+006    9.11143E+005   -4.35884E+005    5.00494E+006   -3.27829E+004    1.05551E+005    7.75782E+005
            7317    4.25373E+006    4.38741E+006    4.38741E+006    6.51640E+005   -2.42219E+005    4.62963E+006   -1.59894E+006    4.03422E+006    6.52206E+005   -1.32919E+005    4.27754E+006   -2.80156E+004    1.06361E+005    6.95718E+005
            7318    3.69635E+006    3.86172E+006    3.86172E+006    4.30203E+005   -5.21013E+004    3.91382E+006   -1.41327E+006    3.62454E+006    4.33539E+005   -2.96875E+004    3.83597E+006   -4.38586E+003    1.12949E+005    2.92927E+005
            7319    6.54975E+006    6.97334E+006    6.97334E+006    1.67292E+006   -3.48957E+005    7.32230E+006   -2.76577E+006    5.78250E+006    1.67327E+006   -2.33795E+005    6.85782E+006   -5.31698E+004    1.26803E+005    9.01635E+005
            7320    5.00614E+006    5.42954E+006    5.42954E+006    1.07160E+006   -3.84524E+004    5.46799E+006   -2.15423E+006    4.71716E+006    1.07293E+006    1.19045E+005    5.27071E+006   -1.12695E+004    9.70563E+004    9.12382E+005
            7321    4.16606E+006    4.38832E+006    4.38832E+006    5.83459E+005   -6.32920E+004    4.45161E+006   -1.63616E+006    4.05080E+006    5.84330E+005    7.27380E+004    4.25142E+006   -1.20819E+004    9.26022E+004    7.62575E+005
            7322    3.26200E+006    3.31359E+006    3.31359E+006    1.12410E+005   -6.01694E+003    3.31960E+006   -1.13999E+006    3.25716E+006    1.14831E+005    2.41124E+004    3.28104E+006    2.12329E+003    9.52890E+004    3.12565E+005
            7323    2.89089E+006    2.83780E+006    2.83780E+006    4.74284E+004   -1.44076E+005    2.98188E+006   -9.13718E+005    2.87656E+006   -1.42657E+005    6.79120E+004    2.81590E+006    6.51304E+003    6.45973E+004    2.38163E+005
            7324    2.66339E+006    2.54193E+006    2.54193E+006    9.32290E+004   -2.93812E+005    2.83574E+006   -7.80448E+005    2.59899E+006   -2.93441E+005    9.62939E+004    2.53849E+006    9.06467E+003    2.33164E+004    8.90009E+004
            7325    3.93120E+006    4.28099E+006    4.28099E+006    5.23575E+005    1.96440E+005    4.08455E+006   -1.66700E+006    3.90040E+006    5.24650E+005    2.86254E+005    4.19010E+006    8.30906E+003    6.31134E+004    5.98891E+005
            7326    3.67405E+006    4.12330E+006    4.12330E+006    4.86205E+005    4.13380E+005    3.70992E+006   -1.67430E+006    3.67243E+006    4.80496E+005    4.33117E+005    4.10927E+006    2.11711E+004    2.17333E+004    2.26338E+005
            7327    4.76962E+006    5.55797E+006    5.55797E+006    1.17459E+006    4.78588E+005    5.07938E+006   -2.40372E+006    4.65331E+006    1.17573E+006    5.82470E+005    5.45295E+006    5.42992E+003    7.17760E+004    7.18729E+005
            7328    4.48229E+006    5.56657E+006    5.56657E+006    1.25179E+006    9.33729E+005    4.63285E+006   -2.58403E+006    4.45679E+006    1.25090E+006    9.52287E+005    5.54890E+006    2.02925E+004    2.81951E+004    2.83960E+005
            7329    6.07021E+006    7.36220E+006    7.36220E+006    2.03196E+006    7.55157E+005    6.60705E+006   -3.38311E+006    5.75634E+006    2.03310E+006    8.61991E+005    7.25422E+006   -1.40846E+004    9.74270E+004    8.31106E+005
            7330    5.43353E+006    7.21775E+006    7.21775E+006    2.10983E+006    1.50861E+006    5.70914E+006   -3.61206E+006    5.35793E+006    2.10981E+006    1.52757E+006    7.19880E+006    1.44651E+004    3.46848E+004    3.26202E+005
            7331    6.60357E+006    9.08771E+006    9.08771E+006    3.02758E+006    2.04975E+006    7.03796E+006   -4.72168E+006    6.43766E+006    3.02780E+006    2.06143E+006    9.07581E+006    2.97659E+003    3.67450E+004    2.86480E+005
            7332    8.29346E+006    1.15470E+007    1.15470E+007    4.14766E+006    2.58242E+006    8.96455E+006   -6.09235E+006    7.95089E+006    4.14781E+006    2.58873E+006    1.15405E+007   -5.38179E+003    3.62688E+004    2.37423E+005
            7333    7.47294E+006    9.44798E+006    9.44798E+006    3.02872E+006    1.24439E+006    8.20359E+006   -4.57370E+006    6.96905E+006    3.02995E+006    1.34145E+006    9.34969E+006   -2.35304E+004    1.15157E+005    8.83643E+005
            7334    8.86853E+006    1.19035E+007    1.19035E+007    4.26461E+006    2.17762E+006    9.72590E+006   -6.11525E+006    8.28858E+006    4.26561E+006    2.27120E+006    1.18089E+007   -2.75420E+004    1.18257E+005    9.45651E+005
            7335    1.06766E+007    1.24565E+007    1.24565E+007    4.09968E+006    4.28773E+005    1.20277E+007   -5.66166E+006    9.08469E+006    4.10037E+006    7.16723E+005    1.21679E+007   -5.99566E+004    1.58454E+005    1.83230E+006
            7336    9.74742E+006    1.03236E+007    1.03236E+007    2.92937E+006   -7.22446E+005    1.10460E+007   -4.17683E+006    7.97466E+006    2.93008E+006   -5.77160E+005    1.01776E+007   -6.83811E+004    1.49579E+005    1.24971E+006
            7337    6.91497E+006    6.24260E+006    6.24260E+006    1.14328E+006   -1.62820E+006    7.87080E+006   -1.91923E+006    5.43627E+006    1.14407E+006   -1.61716E+006    6.23076E+006    1.37742E+005   -2.06292E+005    1.71159E+005
            7338    6.00370E+006    4.96856E+006    4.96856E+006    7.03349E+005   -1.89696E+006    6.86551E+006   -1.25832E+006    4.44304E+006    7.03222E+005   -1.84080E+006    4.91253E+006    1.57875E+005   -1.69259E+005   -5.72942E+005
            7339    5.05535E+006    4.19228E+006    4.19228E+006    6.03945E+005   -1.58930E+006    5.78158E+006   -1.06898E+006    3.73546E+006    6.03394E+005   -1.38923E+006    3.99277E+006    1.62228E+005   -1.38701E+005   -1.03405E+006
            7340    4.11333E+006    3.56549E+006    3.56549E+006    5.96361E+005   -1.12964E+006    4.69513E+006   -1.01074E+006    3.12744E+006    5.95775E+005   -7.13789E+005    3.15023E+006    1.51744E+005   -1.03954E+005   -1.32068E+006
            7341    3.56313E+006    3.66611E+006    3.66611E+006    7.87112E+005   -3.18862E+005    3.98497E+006   -1.37812E+006    3.14065E+006    7.89240E+005   -2.24721E+005    3.56984E+006    7.81160E+004   -1.13967E+005   -5.94237E+005
            7342    3.97296E+006    4.36522E+006    4.36522E+006    1.05671E+006   -4.12513E+004    4.40647E+006   -1.79356E+006    3.60722E+006    1.06158E+006   -3.42647E+004    4.35337E+006    3.31033E+004   -1.34607E+005   -1.66023E+005
            7343    4.09903E+006    4.04163E+006    4.04163E+006    7.37155E+005   -5.45304E+005    4.58693E+006   -1.41116E+006    3.60441E+006    7.38966E+005   -5.23703E+005    4.01821E+006    8.78192E+004   -1.43534E+005   -2.76129E+005
            7344    4.28507E+006    4.55224E+006    4.55224E+006    9.31841E+005   -1.78811E+005    4.73105E+006   -1.76842E+006    3.94125E+006    9.38728E+005   -1.77417E+005    4.54396E+006    3.56425E+004   -1.71293E+005    2.93033E+004
            7345    4.75294E+006    4.55740E+006    4.55740E+006    7.16773E+005   -7.58148E+005    5.31555E+006   -1.50534E+006    4.18968E+006    7.17863E+005   -7.32740E+005    4.53090E+006    8.47835E+004   -1.71954E+005    3.19081E+005
            7346    4.11945E+006    4.30853E+006    4.30853E+006    6.77646E+005   -1.68181E+005    4.47671E+006   -1.60600E+006    3.91687E+006    6.85489E+005   -1.45862E+005    4.27837E+006    2.81599E+004   -1.91038E+005    3.00610E+005
            7347    4.89469E+006    5.02000E+006    5.02000E+006    8.49408E+005   -3.68720E+005    5.38872E+006   -1.83356E+006    4.53446E+006    8.51308E+005   -2.27895E+005    4.87728E+006    5.04294E+004   -1.80817E+005    8.43473E+005
            7348    3.65305E+006    3.78146E+006    3.78146E+006    3.45750E+005   -5.57631E+004    3.83722E+006   -1.35715E+006    3.60291E+006    3.52486E+005   -1.12805E+004    3.73024E+006    1.19131E+004   -1.78634E+005    3.99318E+005
            7349    3.20831E+006    3.21583E+006    3.21583E+006    1.98069E+004   -4.63873E+003    3.22047E+006   -1.07700E+006    3.20810E+006    4.66687E+003    5.48293E+004    3.17150E+006   -5.50088E+003   -1.31137E+005    3.50762E+005
            7350    2.81768E+006    2.77027E+006    2.77027E+006    1.56941E+005   -2.14857E+005    2.98512E+006   -9.04118E+005    2.76169E+006   -2.13168E+005    1.64978E+005    2.76054E+006   -2.05680E+004   -4.91777E+004    1.52054E+005
            7351    4.57273E+006    5.03855E+006    5.03855E+006    8.44601E+005    1.63454E+005    4.87510E+006   -2.01554E+006    4.45645E+006    8.48396E+005    2.97489E+005    4.90072E+006   -1.45760E+002   -1.40406E+005    7.94448E+005
            7352    4.07849E+006    4.76402E+006    4.76402E+006    7.67983E+005    6.07786E+005    4.15623E+006   -2.04660E+006    4.07140E+006    7.58161E+005    6.41415E+005    4.74021E+006   -4.39510E+004   -5.33175E+004    3.07973E+005
            7353    5.01241E+006    6.43637E+006    6.43637E+006    1.63197E+006    1.23907E+006    5.19730E+006   -3.10247E+006    4.97759E+006    1.63005E+006    1.26320E+006    6.41417E+006   -3.71832E+004   -6.28809E+004    3.32084E+005
            7354    6.24078E+006    8.40931E+006    8.40931E+006    2.58354E+006    1.82319E+006    6.58612E+006   -4.27201E+006    6.13528E+006    2.58412E+006    1.83096E+006    8.40096E+006   -1.74015E+004   -7.09584E+004    2.21656E+005
            7355    7.95889E+006    1.09053E+007    1.09053E+007    3.70769E+006    2.35776E+006    8.54752E+006   -5.65691E+006    7.69497E+006    3.70845E+006    2.36760E+006    1.08947E+007    9.53271E+002   -7.47532E+004    2.89779E+005
            7356    9.73301E+006    1.35128E+007    1.35128E+007    4.89619E+006    2.95578E+006    1.05570E+007   -7.12160E+006    9.28273E+006    4.89669E+006    2.96051E+006    1.35076E+007    1.39844E+004   -7.34771E+004    2.20554E+005
            7357    5.75423E+006    6.75880E+006    6.75880E+006    1.67212E+006    5.13377E+005    6.24542E+006   -2.98143E+006    5.48244E+006    1.67598E+006    6.06887E+005    6.66142E+006    1.98544E+004   -1.66895E+005    7.52523E+005
            7358    7.27510E+006    9.07557E+006    9.07557E+006    2.75058E+006    1.12528E+006    7.95029E+006   -4.31714E+006    6.84851E+006    2.75440E+006    1.22560E+006    8.97142E+006    2.71463E+004   -1.85921E+005    8.80912E+005
            7359    8.44975E+006    1.12592E+007    1.12592E+007    3.88329E+006    2.03989E+006    9.21927E+006   -5.72745E+006    7.97830E+006    3.88662E+006    2.13308E+006    1.11626E+007    3.33666E+004   -1.92801E+005    9.14526E+005
            7360    9.90129E+006    1.37468E+007    1.37468E+007    5.11409E+006    2.93875E+006    1.08081E+007   -7.26656E+006    9.34066E+006    5.11736E+006    3.00619E+006    1.36761E+007    3.23926E+004   -1.96083E+005    8.44286E+005
            7361    1.11368E+007    1.43840E+007    1.43840E+007    5.27858E+006    1.96698E+006    1.24170E+007   -7.20985E+006    9.93509E+006    5.28060E+006    2.36327E+006    1.39857E+007    9.35180E+004   -2.97106E+005    2.16432E+006
            7362    1.04436E+007    1.20458E+007    1.20458E+007    3.85338E+006    2.85937E+005    1.17599E+007   -5.39505E+006    8.90939E+006    3.85551E+006    5.52893E+005    1.17768E+007    1.09773E+005   -2.83416E+005    1.72991E+006
            7363    9.35249E+006    9.90633E+006    9.90633E+006    2.74784E+006   -6.75491E+005    1.05818E+007   -3.99289E+006    7.74182E+006    2.75014E+006   -5.04694E+005    9.73323E+006    1.13104E+005   -2.61904E+005    1.30876E+006
            7364    8.05682E+006    8.01406E+006    8.01406E+006    1.90185E+006   -1.11601E+006    9.13007E+006   -2.93330E+006    6.59220E+006    1.90417E+006   -1.04568E+006    7.94141E+006    1.15416E+005   -2.36319E+005    7.62893E+005
            7365    3.52954E+006    3.89710E+006    3.89710E+006    1.00179E+006   -3.46121E+004    3.93171E+006   -1.62143E+006    3.15901E+006    1.00435E+006   -2.44709E+004    3.88440E+006    2.91992E+004   -9.39971E+004   -1.93556E+005
            7366    3.02026E+006    3.24984E+006    3.24984E+006    7.88989E+005   -1.20711E+005    3.37055E+006   -1.30604E+006    2.68507E+006    7.89797E+005    1.80500E+004    3.11027E+006    6.36962E+004   -7.76901E+004   -6.63498E+005
            7367    3.18208E+006    2.96622E+006    2.96622E+006    5.94155E+005   -6.49959E+005    3.61618E+006   -9.70139E+005    2.54141E+006    5.92442E+005   -1.01301E+005    2.41928E+006    1.30430E+005   -6.79407E+004   -1.28774E+006
            7368    3.05077E+006    3.41562E+006    3.41562E+006    9.19468E+005    1.48402E+004    3.40078E+006   -1.44998E+006    2.72359E+006    9.20144E+005    2.22610E+004    3.40753E+006    2.48483E+004   -5.43379E+004   -1.52622E+005
            7369    2.42644E+006    2.74811E+006    2.74811E+006    7.30102E+005    5.58499E+004    2.69226E+006   -1.17802E+006    2.20042E+006    7.28951E+005    1.36976E+005    2.66814E+006    5.10487E+004   -4.70903E+004   -4.52522E+005
            7370    2.17876E+006    2.27788E+006    2.27788E+006    5.52097E+005   -1.70337E+005    2.44821E+006   -8.86545E+005    1.87949E+006    5.47595E+005    3.19136E+005    1.79290E+006    1.04701E+005   -3.80469E+004   -9.69925E+005
            7371    2.77279E+006    3.11196E+006    3.11196E+006    8.48376E+005    1.91666E+004    3.09279E+006   -1.32650E+006    2.46985E+006    8.47941E+005    2.05773E+004    3.11098E+006    2.22108E+004   -1.77241E+004   -5.06827E+004
            7372    2.06308E+006    2.43882E+006    2.43882E+006    6.88271E+005    1.64262E+005    2.27456E+006   -1.09712E+006    1.90453E+006    6.84792E+005    1.80043E+005    2.42652E+006    4.46157E+004   -1.34616E+004   -1.65610E+005
            7373    1.08858E+006    1.49804E+006    1.49804E+006    5.16501E+005    3.27227E+005    1.17081E+006   -7.80588E+005    1.05060E+006    4.75637E+005    4.90772E+005    1.37536E+006    8.72389E+004   -1.06469E+004   -3.49161E+005
            7374    1.01951E+007    1.41696E+007    1.41696E+007    5.18963E+006    3.08712E+006    1.10824E+007   -7.48210E+006    9.68915E+006    5.19010E+006    3.09237E+006    1.41638E+007   -1.60825E+004   -7.52377E+004   -2.37798E+005
            7375    1.01731E+007    1.42778E+007    1.42778E+007    5.39773E+006    3.17830E+006    1.10995E+007   -7.61796E+006    9.60541E+006    5.40096E+006    3.24782E+006    1.42051E+007   -3.40500E+004   -1.99492E+005   -8.68498E+005
            7376    1.12468E+007    1.46940E+007    1.46940E+007    5.46242E+006    2.16785E+006    1.25262E+007   -7.44143E+006    1.00722E+007    5.46438E+006    2.56636E+006    1.42935E+007   -9.37504E+004   -2.99294E+005   -2.17990E+006
            7377    1.19668E+007    1.66741E+007    1.66741E+007    6.29850E+006    3.58275E+006    1.30913E+007   -8.85177E+006    1.12417E+007    6.29882E+006    3.58494E+006    1.66715E+007   -1.80446E+004   -6.84351E+004   -1.64443E+005
            7378    1.14761E+007    1.66354E+007    1.66354E+007    6.58873E+006    4.12891E+006    1.25065E+007   -9.11769E+006    1.08589E+007    6.59209E+006    4.16593E+006    1.65951E+007   -2.41460E+004   -1.98487E+005   -6.74765E+005
            7379    1.11276E+007    1.66295E+007    1.66295E+007    6.96157E+006    4.46596E+006    1.21635E+007   -9.35233E+006    1.04698E+007    6.96416E+006    4.85464E+006    1.62382E+007   -6.74739E+004   -3.00862E+005   -2.12265E+006
            7380    1.32796E+007    1.84982E+007    1.84982E+007    7.09527E+006    3.91825E+006    1.45800E+007   -9.83724E+006    1.23805E+007    7.09556E+006    3.91882E+006    1.84974E+007   -1.08981E+004   -6.14087E+004   -8.78007E+004
            7381    1.23813E+007    1.83108E+007    1.83108E+007    7.44127E+006    4.83319E+006    1.34776E+007   -1.01951E+007    1.17391E+007    7.44477E+006    4.84229E+006    1.82981E+007   -1.25086E+004   -1.98790E+005   -3.47735E+005
            7382    1.04691E+007    1.78178E+007    1.78178E+007    8.16757E+006    6.68750E+006    1.11303E+007   -1.08910E+007    1.02297E+007    8.17294E+006    6.84935E+006    1.76506E+007   -3.52540E+004   -2.96395E+005   -1.31797E+006
            7383    1.36902E+007    1.90595E+007    1.90595E+007    7.33750E+006    4.01329E+006    1.50462E+007   -1.01368E+007    1.27338E+007    7.33778E+006    4.01332E+006    1.90592E+007    1.49018E+003   -5.80083E+004    1.82306E+004
            7384    1.26861E+007    1.88444E+007    1.88444E+007    7.70388E+006    5.03673E+006    1.38076E+007   -1.05283E+007    1.20308E+007    7.70741E+006    5.03700E+006    1.88406E+007    2.26786E+003   -1.98603E+005    6.01427E+004
            7385    1.00801E+007    1.81759E+007    1.81759E+007    8.62514E+006    7.63892E+006    1.05370E+007   -1.14800E+007    9.97070E+006    8.63418E+006    7.63918E+006    1.81666E+007    1.77992E+003   -2.93760E+005    5.15882E+004
            7386    1.30496E+007    1.81627E+007    1.81627E+007    6.94340E+006    3.84178E+006    1.43210E+007   -9.64931E+006    1.21781E+007    6.94368E+006    3.84260E+006    1.81616E+007    1.34241E+004   -6.20935E+004    1.03791E+005
            7387    1.22774E+007    1.80369E+007    1.80369E+007    7.28072E+006    4.66111E+006    1.33758E+007   -9.99291E+006    1.16234E+007    7.28417E+006    4.67595E+006    1.80186E+007    1.53649E+004   -1.98291E+005    4.42438E+005
            7388    1.04989E+007    1.77312E+007    1.77312E+007    8.08612E+006    6.54813E+006    1.11831E+007   -1.07885E+007    1.02408E+007    8.09123E+006    6.72745E+006    1.75467E+007    3.70752E+004   -2.96090E+005    1.39017E+006
            7389    1.15761E+007    1.61080E+007    1.61080E+007    6.04281E+006    3.45794E+006    1.26501E+007   -8.53625E+006    1.08981E+007    6.04312E+006    3.46073E+006    1.61049E+007    1.84433E+004   -6.86144E+004    1.82849E+005
            7390    1.12471E+007    1.61488E+007    1.61488E+007    6.32071E+006    3.88258E+006    1.22662E+007   -8.78403E+006    1.06279E+007    6.32397E+006    3.92232E+006    1.61058E+007    2.74521E+004   -1.96792E+005    6.91612E+005
            7391    1.11227E+007    1.64364E+007    1.64364E+007    6.81680E+006    4.25695E+006    1.21795E+007   -9.17006E+006    1.04286E+007    6.81925E+006    4.64929E+006    1.60416E+007    7.02435E+004   -3.00284E+005    2.13353E+006
            7392    3.18044E+006    2.96549E+006    2.96549E+006    5.94388E+005   -6.48763E+005    3.61425E+006   -9.70370E+005    2.54049E+006    5.92686E+005   -9.78621E+004    2.41629E+006    1.30315E+005    6.77909E+004    1.28954E+006
            7393    3.01825E+006    3.24837E+006    3.24837E+006    7.88974E+005   -1.19874E+005    3.36824E+006   -1.30582E+006    2.68348E+006    7.89780E+005    1.68245E+004    3.11086E+006    6.32852E+004    7.74810E+004    6.58491E+005
            7394    3.52211E+006    3.88828E+006    3.88828E+006    9.99763E+005   -3.54104E+004    3.92369E+006   -1.61755E+006    3.15161E+006    1.00229E+006   -2.53850E+004    3.87573E+006    2.91764E+004    9.33644E+004    1.92164E+005
            7395    2.16931E+006    2.27043E+006    2.27043E+006    5.50850E+005   -1.66763E+005    2.43719E+006   -8.84839E+005    1.87291E+006    5.46330E+005    3.21149E+005    1.78704E+006    1.04408E+005    3.78976E+004    9.65998E+005
            7396    2.43298E+006    2.75367E+006    2.75367E+006    7.31244E+005    5.37435E+004    2.69993E+006   -1.17955E+006    2.20532E+006    7.30106E+005    1.34142E+005    2.67441E+006    5.09658E+004    4.71375E+004    4.51191E+005
            7397    3.04699E+006    3.41155E+006    3.41155E+006    9.18620E+005    1.49485E+004    3.39661E+006   -1.44837E+006    2.72008E+006    9.19283E+005    2.23260E+004    3.40351E+006    2.47838E+004    5.39650E+004    1.52065E+005
            7398    1.07463E+006    1.48845E+006    1.48845E+006    5.18138E+005    3.33438E+005    1.15501E+006   -7.80007E+005    1.03801E+006    4.75207E+005    4.93786E+005    1.37103E+006    8.70706E+004    1.06047E+004    3.39385E+005
            7399    2.06904E+006    2.44419E+006    2.44419E+006    6.89458E+005    1.62685E+005    2.28151E+006   -1.09878E+006    1.90923E+006    6.86011E+005    1.79238E+005    2.43109E+006    4.46050E+004    1.35775E+004    1.71212E+005
            7400    2.77234E+006    3.11127E+006    3.11127E+006    8.48135E+005    1.89449E+004    3.09232E+006   -1.32612E+006    2.46936E+006    8.47698E+005    2.03586E+004    3.11029E+006    2.22347E+004    1.76664E+004    5.07317E+004
            7401    3.27710E+006    3.29708E+006    3.29708E+006    7.01473E+004   -2.79747E+004    3.32506E+006   -1.11309E+006    3.27379E+006    7.52564E+004    4.21313E+003    3.25979E+006   -1.03700E+003   -1.59422E+005   -3.11240E+005
            7402    3.70612E+006    3.83743E+006    3.83743E+006    3.85164E+005   -7.88369E+004    3.91627E+006   -1.38125E+006    3.63991E+006    3.93809E+005   -5.49709E+004    3.80492E+006   -1.18000E+004   -1.87958E+005   -2.94947E+005
            7403    4.04680E+006    4.31040E+006    4.31040E+006    7.13247E+005   -7.11922E+004    4.38159E+006   -1.65082E+006    3.87016E+006    7.22441E+005   -6.19169E+004    4.29193E+006   -1.85202E+004   -1.91483E+005   -1.90916E+005
            7404    4.20251E+006    4.55501E+006    4.55501E+006    9.60975E+005   -6.57068E+004    4.62072E+006   -1.81676E+006    3.90511E+006    9.68732E+005   -6.47227E+004    4.54627E+006   -2.04072E+004   -1.72088E+005   -4.82301E+004
            7405    4.03890E+006    4.44550E+006    4.44550E+006    1.07294E+006   -3.04249E+004    4.47592E+006   -1.82934E+006    3.67623E+006    1.07836E+006   -2.88238E+004    4.43847E+006   -1.80573E+004   -1.37601E+005    7.85199E+004
            7406    4.17006E+006    4.39555E+006    4.39555E+006    5.45229E+005   -3.37452E+004    4.42929E+006   -1.63568E+006    4.07816E+006    5.49747E+005    9.37175E+004    4.26357E+006   -9.53251E+000   -1.49111E+005   -7.36808E+005
            7407    4.23992E+006    4.37755E+006    4.37755E+006    6.12999E+005   -2.15450E+005    4.59300E+006   -1.59170E+006    4.05178E+006    6.16707E+005   -1.11141E+005    4.26954E+006   -2.94589E+004   -1.72229E+005   -6.71742E+005
            7408    4.21683E+006    4.33645E+006    4.33645E+006    7.16442E+005   -2.93714E+005    4.63017E+006   -1.58639E+006    3.93053E+006    7.19853E+005   -2.55357E+005    4.29469E+006   -5.23304E+004   -1.73823E+005   -3.94183E+005
            7409    4.02909E+006    4.20023E+006    4.20023E+006    8.18021E+005   -2.57481E+005    4.45771E+006   -1.58692E+006    3.68482E+006    8.21642E+005   -2.53865E+005    4.19299E+006   -6.24574E+004   -1.55899E+005    1.10050E+004
            7410    3.69338E+006    3.96022E+006    3.96022E+006    8.94736E+005   -1.40247E+005    4.10046E+006   -1.57157E+006    3.34304E+006    8.97715E+005   -1.17884E+005    3.93487E+006   -6.03834E+004   -1.26344E+005    2.83988E+005
            7411    5.01783E+006    5.42616E+006    5.42616E+006    1.03124E+006   -4.11816E+004    5.46734E+006   -2.13874E+006    4.74961E+006    1.03345E+006    1.14585E+005    5.26818E+006   -3.72250E+004   -1.74437E+005   -8.97176E+005
            7412    5.07117E+006    5.08303E+006    5.08303E+006    8.77598E+005   -5.48502E+005    5.63153E+006   -1.80404E+006    4.58645E+006    8.77781E+005   -4.37211E+005    4.97156E+006   -7.59850E+004   -1.87744E+005   -7.57679E+005
            7413    4.74272E+006    4.55822E+006    4.55822E+006    7.53004E+005   -7.55203E+005    5.31342E+006   -1.51867E+006    4.14938E+006    7.52915E+005   -7.34968E+005    4.53807E+006   -9.83021E+004   -1.73723E+005   -2.58700E+005
            7414    4.16825E+006    4.07068E+006    4.07068E+006    7.47522E+005   -6.06158E+005    4.67684E+006   -1.40401E+006    3.62178E+006    7.48095E+005   -5.88024E+005    4.05197E+006   -1.01248E+005   -1.48474E+005    2.32548E+005
            7415    3.62373E+006    3.66357E+006    3.66357E+006    7.71401E+005   -4.01278E+005    4.06485E+006   -1.34456E+006    3.15239E+006    7.72460E+005   -3.17735E+005    3.57897E+006   -9.05872E+004   -1.16509E+005    5.60180E+005
            7416    6.53103E+006    6.95468E+006    6.95468E+006    1.62351E+006   -3.30248E+005    7.28493E+006   -2.74931E+006    5.81696E+006    1.62686E+006   -2.18628E+005    6.83971E+006   -6.43110E+004   -2.08250E+005   -8.77876E+005
            7417    6.27201E+006    5.86236E+006    5.86236E+006    1.06115E+006   -1.23392E+006    7.09628E+006   -1.89653E+006    5.19260E+006    1.06273E+006   -1.20233E+006    5.82918E+006   -1.04394E+005   -1.95698E+005   -4.26103E+005
            7418    5.45576E+006    4.86762E+006    4.86762E+006    7.77441E+005   -1.32695E+006    6.19457E+006   -1.43937E+006    4.39245E+006    7.77733E+005   -1.31577E+006    4.85615E+006   -1.22888E+005   -1.65464E+005    1.66837E+005
            7419    4.61989E+006    4.13170E+006    4.13170E+006    6.73372E+005   -1.11504E+006    5.24674E+006   -1.23001E+006    3.71167E+006    6.73399E+005   -1.02641E+006    4.04304E+006   -1.26143E+005   -1.36063E+005    6.50254E+005
            7420    3.78315E+006    3.53061E+006    3.53061E+006    6.53740E+005   -7.54742E+005    4.28536E+006   -1.14320E+006    3.10519E+006    6.53319E+005   -5.18047E+005    3.29434E+006   -1.17050E+005   -1.00316E+005    9.66138E+005
            7421    4.52808E+006    3.72466E+006    3.72466E+006    5.72896E+005   -1.46416E+006    5.18882E+006   -9.44463E+005    3.22655E+006    5.72797E+005   -9.76071E+005    3.23666E+006   -1.62503E+005   -1.06679E+005    1.50211E+006
            7422    5.69818E+006    4.53983E+006    4.53983E+006    6.34048E+005   -1.99869E+006    6.53852E+006   -1.05840E+006    3.93587E+006    6.34485E+005   -1.73354E+006    4.27424E+006   -1.76885E+005   -1.48024E+005    1.26956E+006
            7423    6.88651E+006    5.57292E+006    5.57292E+006    8.36043E+005   -2.32684E+006    7.89976E+006   -1.36071E+006    4.79168E+006    8.36334E+005   -2.24282E+006    5.48861E+006   -1.79979E+005   -1.83910E+005    7.69270E+005
            7424    7.89696E+006    6.76124E+006    6.76124E+006    1.21588E+006   -2.28030E+006    9.04154E+006   -1.89894E+006    5.72239E+006    1.21642E+006   -2.26908E+006    6.74947E+006   -1.73002E+005   -2.16742E+005    1.65756E+005
            7425    8.81496E+006    8.45449E+006    8.45449E+006    1.97314E+006   -1.58307E+006    1.00376E+007   -2.94819E+006    6.89942E+006    1.97464E+006   -1.54373E+006    8.41365E+006   -1.49352E+005   -2.50304E+005   -5.63916E+005
            7426    9.72797E+006    1.03113E+007    1.03113E+007    2.89131E+006   -7.02214E+005    1.10135E+007   -4.16679E+006    8.01638E+006    2.89364E+006   -5.54323E+005    1.01611E+007   -1.21271E+005   -2.69271E+005   -1.23962E+006
            7427    1.06585E+007    1.24500E+007    1.24500E+007    4.06162E+006    4.56514E+005    1.19935E+007   -5.65605E+006    9.12732E+006    4.06373E+006    7.46244E+005    1.21582E+007   -1.09202E+005   -2.87805E+005   -1.82024E+006
            7428    8.86744E+006    1.18450E+007    1.18450E+007    4.14617E+006    2.14948E+006    9.69555E+006   -6.04689E+006    8.33885E+006    4.14958E+006    2.24037E+006    1.17507E+007   -3.56305E+004   -1.98512E+005   -9.26415E+005
            7429    8.29329E+006    1.14785E+007    1.14785E+007    3.99858E+006    2.56005E+006    8.91845E+006   -6.01238E+006    8.00535E+006    3.99933E+006    2.56643E+006    1.14714E+007   -5.56963E+003   -7.69489E+004   -2.37673E+005
            7430    7.47367E+006    9.41584E+006    9.41584E+006    2.93649E+006    1.23964E+006    8.17620E+006   -4.53066E+006    7.02036E+006    2.94006E+006    1.33422E+006    9.31770E+006   -3.69418E+004   -1.93873E+005   -8.64950E+005
            7431    6.63057E+006    9.05839E+006    9.05839E+006    2.90698E+006    2.03496E+006    7.02343E+006   -4.66678E+006    6.49969E+006    2.90781E+006    2.04650E+006    9.04602E+006    1.19944E+004   -7.52331E+004   -2.83270E+005
            7432    5.47624E+006    7.21794E+006    7.21794E+006    2.02009E+006    1.50037E+006    5.71757E+006   -3.57947E+006    5.42033E+006    2.01943E+006    1.51972E+006    7.19925E+006    3.16538E+004   -6.46041E+004   -3.18841E+005
            7433    4.50997E+006    5.56018E+006    5.56018E+006    1.18613E+006    9.25583E+005    4.63460E+006   -2.55730E+006    4.49299E+006    1.18013E+006    9.48383E+005    5.54338E+006    4.34822E+004   -4.53917E+004   -2.73957E+005
            7434    3.69756E+006    4.11859E+006    4.11859E+006    4.60081E+005    3.83177E+005    3.73541E+006   -1.65395E+006    3.69576E+006    4.27219E+005    4.29792E+005    4.10484E+006    4.04425E+004   -3.77183E+004   -2.21628E+005
            7435    2.70058E+006    2.55661E+006    2.55661E+006    9.39245E+004   -3.31391E+005    2.88800E+006   -7.73047E+005    2.62364E+006   -3.30173E+005    9.61158E+004    2.55320E+006    1.86130E+004   -3.78719E+004   -8.44073E+004
            7436    6.07321E+006    7.34544E+006    7.34544E+006    1.95974E+006    7.62924E+005    6.58252E+006   -3.35603E+006    5.79892E+006    1.96368E+006    8.65332E+005    7.23909E+006   -1.41835E+004   -1.66246E+005   -8.10301E+005
            7437    4.79671E+006    5.56625E+006    5.56625E+006    1.11788E+006    4.84182E+005    5.08206E+006   -2.38944E+006    4.70115E+006    1.12133E+006    5.83185E+005    5.46379E+006    8.95252E+003   -1.25945E+005   -7.01704E+005
            7438    3.95279E+006    4.29085E+006    4.29085E+006    4.82704E+005    2.07765E+005    4.08308E+006   -1.66044E+006    3.93119E+006    4.85296E+005    2.93493E+005    4.20253E+006    2.53520E+004   -1.03614E+005   -5.83907E+005
            7439    2.91491E+006    2.83629E+006    2.83629E+006    4.24164E+004   -1.86186E+005    3.02248E+006   -8.97507E+005    2.89464E+006   -1.82312E+005    6.14956E+004    2.81334E+006    1.03003E+004   -1.07550E+005   -2.29978E+005
            7440    3.65164E+006    3.78012E+006    3.78012E+006    3.45034E+005   -5.51222E+004    3.83524E+006   -1.35668E+006    3.60182E+006    3.51762E+005   -1.05330E+004    3.72880E+006    1.18305E+004    1.78522E+005   -3.99723E+005
            7441    4.12342E+006    4.31272E+006    4.31272E+006    6.79962E+005   -1.69170E+005    4.48189E+006   -1.60784E+006    3.91940E+006    6.87806E+005   -1.47121E+005    4.28282E+006    2.81974E+004    1.90951E+005   -2.98891E+005
            7442    4.28203E+006    4.55218E+006    4.55218E+006    9.36146E+005   -1.76292E+005    4.72847E+006   -1.77068E+006    3.93675E+006    9.42987E+005   -1.75000E+005    4.54404E+006    3.56242E+004    1.70419E+005   -2.17930E+004
            7443    3.95965E+006    4.35424E+006    4.35424E+006    1.05744E+006   -3.77166E+004    4.39196E+006   -1.79132E+006    3.59451E+006    1.06224E+006   -3.05019E+004    4.34223E+006    3.30083E+004    1.33472E+005    1.68811E+005
            7444    4.89241E+006    5.01566E+006    5.01566E+006    8.47619E+005   -3.70815E+005    5.38648E+006   -1.83082E+006    4.53179E+006    8.49514E+005   -2.30572E+005    4.87352E+006    5.05273E+004    1.80723E+005   -8.41524E+005
            7445    4.74077E+006    4.54648E+006    4.54648E+006    7.14801E+005   -7.55148E+005    5.30163E+006   -1.50204E+006    4.17997E+006    7.15880E+005   -7.30310E+005    4.52056E+006    8.48252E+004    1.71619E+005   -3.13886E+005
            7446    4.08652E+006    4.03189E+006    4.03189E+006    7.36652E+005   -5.40750E+005    4.57264E+006   -1.40926E+006    3.59438E+006    7.38476E+005   -5.18348E+005    4.00766E+006    8.76090E+004    1.42993E+005    2.82449E+005
            7447    3.55231E+006    3.66256E+006    3.66256E+006    7.90186E+005   -3.09566E+005    3.97213E+006   -1.38106E+006    3.13352E+006    7.92323E+005   -2.14860E+005    3.56571E+006    7.75693E+004    1.13479E+005    5.95194E+005
            7448    4.11517E+006    3.56473E+006    3.56473E+006    5.95257E+005   -1.13269E+006    4.69742E+006   -1.00910E+006    3.12715E+006    5.94683E+005   -7.15479E+005    3.14810E+006    1.51783E+005    1.03912E+005    1.32304E+006
            7449    5.06375E+006    4.19396E+006    4.19396E+006    6.01534E+005   -1.59755E+006    5.79151E+006   -1.06598E+006    3.73821E+006    6.00989E+005   -1.39676E+006    3.99371E+006    1.62315E+005    1.38657E+005    1.03689E+006
            7450    6.00750E+006    4.97011E+006    4.97011E+006    7.02635E+005   -1.89982E+006    6.86994E+006   -1.25764E+006    4.44506E+006    7.02513E+005   -1.84379E+006    4.91420E+006    1.57872E+005    1.69340E+005    5.72431E+005
            7451    6.90802E+006    6.23538E+006    6.23538E+006    1.14041E+006   -1.62733E+006    7.86271E+006   -1.91615E+006    5.43205E+006    1.14120E+006   -1.61633E+006    6.22359E+006    1.37759E+005    2.06225E+005   -1.69964E+005
            7452    8.05035E+006    8.00084E+006    8.00084E+006    1.89656E+006   -1.12267E+006    9.12351E+006   -2.92491E+006    6.58256E+006    1.89887E+006   -1.05302E+006    7.92889E+006    1.15683E+005    2.36114E+005   -7.58509E+005
            7453    9.36345E+006    9.91442E+006    9.91442E+006    2.75017E+006   -6.80501E+005    1.05949E+007   -3.99470E+006    7.74723E+006    2.75246E+006   -5.09759E+005    9.74138E+006    1.13397E+005    2.62081E+005   -1.30932E+006
            7454    1.04551E+007    1.20671E+007    1.20671E+007    3.86418E+006    2.94740E+005    1.17723E+007   -5.40867E+006    8.92103E+006    3.86630E+006    5.63364E+005    1.17963E+007    1.09717E+005    2.83634E+005   -1.73624E+006
            7455    1.11375E+007    1.43826E+007    1.43826E+007    5.27684E+006    1.96472E+006    1.24179E+007   -7.20804E+006    9.93545E+006    5.27887E+006    2.35900E+006    1.39863E+007    9.35499E+004    2.96927E+005   -2.15904E+006
            7456    9.90029E+006    1.37428E+007    1.37428E+007    5.11182E+006    2.93538E+006    1.08074E+007   -7.26334E+006    9.33900E+006    5.11509E+006    3.00365E+006    1.36713E+007    3.25340E+004    1.96400E+005   -8.49465E+005
            7457    9.71574E+006    1.34874E+007    1.34874E+007    4.88489E+006    2.94977E+006    1.05377E+007   -7.10737E+006    9.26716E+006    4.88540E+006    2.95455E+006    1.34822E+007    1.39905E+004    7.41942E+004   -2.21478E+005
            7458    8.45762E+006    1.12518E+007    1.12518E+007    3.87507E+006    2.02101E+006    9.23084E+006   -5.71598E+006    7.98094E+006    3.87839E+006    2.11478E+006    1.11548E+007    3.38237E+004    1.93133E+005   -9.17860E+005
            7459    7.96351E+006    1.09161E+007    1.09161E+007    3.71426E+006    2.36362E+006    8.55246E+006   -5.66465E+006    7.69947E+006    3.71504E+006    2.37365E+006    1.09053E+007    9.93957E+002    7.52456E+004   -2.92613E+005
            7460    7.27670E+006    9.07215E+006    9.07215E+006    2.74829E+006    1.11888E+006    7.95327E+006   -4.31311E+006    6.84795E+006    2.75212E+006    1.21865E+006    8.96855E+006    2.74594E+004    1.86197E+005   -8.78603E+005
            7461    6.27056E+006    8.45212E+006    8.45212E+006    2.60286E+006    1.83161E+006    6.62052E+006   -4.29553E+006    6.16250E+006    2.60347E+006    1.83960E+006    8.44352E+006   -1.71226E+004    7.13038E+004   -2.25910E+005
            7462    5.75846E+006    6.76367E+006    6.76367E+006    1.67442E+006    5.13035E+005    6.25063E+006   -2.98371E+006    5.48560E+006    1.67828E+006    6.06892E+005    6.66595E+006    1.99674E+004    1.67096E+005   -7.54201E+005
            7463    5.02680E+006    6.45978E+006    6.45978E+006    1.64366E+006    1.24593E+006    5.21385E+006   -3.11646E+006    4.99122E+006    1.64181E+006    1.26972E+006    6.43784E+006   -3.69366E+004    6.29283E+004   -3.30582E+005
            7464    4.08605E+006    4.77670E+006    4.77670E+006    7.74488E+005    6.11678E+005    4.16502E+006   -2.05429E+006    4.07874E+006    7.64860E+005    6.45118E+005    4.75289E+006   -4.39381E+004    5.32359E+004   -3.08367E+005
            7465    2.81999E+006    2.77464E+006    2.77464E+006    1.58249E+005   -2.12305E+005    2.98695E+006   -9.06862E+005    2.76442E+006   -2.10608E+005    1.66017E+005    2.76518E+006   -2.07095E+004    4.87371E+004   -1.50035E+005
            7466    4.57371E+006    5.04090E+006    5.04090E+006    8.46226E+005    1.64655E+005    4.87624E+006   -2.01726E+006    4.45730E+006    8.50018E+005    2.98741E+005    4.90302E+006   -1.45677E+002    1.40349E+005   -7.94697E+005
            7467    3.20531E+006    3.21311E+006    3.21311E+006    2.08255E+004   -5.08543E+003    3.21819E+006   -1.07628E+006    3.20508E+006    3.70411E+003    5.60248E+004    3.16912E+006   -5.57218E+003    1.30652E+005   -3.49179E+005
            7468    3.38904E+006    3.00031E+006    3.00031E+006    5.56987E+005   -8.68660E+005    3.86896E+006   -8.96211E+005    2.57158E+006    5.56585E+005   -2.02051E+005    2.33410E+006   -1.36757E+005   -7.06188E+004    1.45269E+006
            7469    2.97021E+006    2.96176E+006    2.96176E+006    6.38735E+005   -3.84883E+005    3.34665E+006   -1.07187E+006    2.52500E+006    6.37679E+005   -6.12211E+004    2.63916E+006   -9.95450E+004   -7.07988E+004    9.80506E+005
            7470    3.03130E+006    3.21009E+006    3.21009E+006    7.65418E+005   -1.81691E+005    3.39178E+006   -1.26461E+006    2.66662E+006    7.65672E+005   -4.82001E+004    3.07634E+006   -7.40717E+004   -8.15129E+004    6.50697E+005
            7471    3.28054E+006    3.59200E+006    3.59200E+006    8.90907E+005   -5.85485E+004    3.65055E+006   -1.47479E+006    2.94682E+006    8.92170E+005   -1.74893E+004    3.54968E+006   -5.39107E+004   -8.98081E+004    3.74955E+005
            7472    3.62664E+006    4.03097E+006    4.03097E+006    1.04408E+006   -4.40120E+003    4.03537E+006   -1.69022E+006    3.25858E+006    1.04711E+006   -7.28445E+002    4.02428E+006   -1.40843E+004   -9.64392E+004    1.19637E+005
            7473    2.20742E+006    2.21213E+006    2.21213E+006    5.11599E+005   -2.82472E+005    2.49460E+006   -8.13752E+005    1.84231E+006    5.08307E+005    3.24488E+005    1.60846E+006   -1.07420E+005   -3.51766E+004    1.06270E+006
            7474    2.12996E+006    2.35078E+006    2.35078E+006    5.96785E+005   -1.93096E+004    2.37009E+006   -9.76086E+005    1.91355E+006    5.91835E+005    2.33420E+005    2.10300E+006   -8.28662E+004   -3.79997E+004    7.20663E+005
            7475    2.43065E+006    2.71903E+006    2.71903E+006    7.15888E+005    1.49243E+004    2.70410E+006   -1.14995E+006    2.18530E+006    7.13980E+005    1.10990E+005    2.62487E+006   -5.91425E+004   -4.65467E+004    4.91159E+005
            7476    2.81098E+006    3.14630E+006    3.14630E+006    8.29591E+005    1.91243E+004    3.12718E+006   -1.33167E+006    2.52738E+006    8.28842E+005    4.92696E+004    3.11691E+006   -4.66906E+004   -5.24053E+004    2.94484E+005
            7477    3.18238E+006    3.55441E+006    3.55441E+006    9.51857E+005    6.45472E+003    3.54796E+006   -1.50424E+006    2.83969E+006    9.52964E+005    9.33674E+003    3.55042E+006   -1.16663E+004   -5.59133E+004    9.91531E+004
            7478    9.55170E+005    1.34604E+006    1.34604E+006    4.83179E+005    3.19665E+005    1.02637E+006   -7.16294E+005    9.22890E+005    4.40259E+005    5.65560E+005    1.14306E+006   -8.84206E+004   -1.18111E+004    3.94507E+005
            7479    1.44147E+006    1.84935E+006    1.84935E+006    5.66246E+005    2.89610E+005    1.55974E+006   -9.01736E+005    1.37984E+006    5.48763E+005    3.51825E+005    1.80462E+006   -7.16822E+004   -1.41228E+004    2.57253E+005
            7480    2.01902E+006    2.38653E+006    2.38653E+006    6.77351E+005    1.58813E+005    2.22772E+006   -1.07423E+006    1.86015E+006    6.72998E+005    1.78076E+005    2.37162E+006   -4.98486E+004   -1.51664E+004    1.80150E+005
            7481    2.51188E+006    2.85949E+006    2.85949E+006    7.79860E+005    6.87011E+004    2.79079E+006   -1.23602E+006    2.26826E+006    7.77678E+005    7.54208E+004    2.85495E+006   -4.15359E+004   -1.71333E+004    1.10278E+005
            7482    2.88963E+006    3.24069E+006    3.24069E+006    8.80989E+005    1.78504E+004    3.22284E+006   -1.37984E+006    2.57473E+006    8.81025E+005    1.83925E+004    3.24011E+006   -9.85561E+003   -1.83245E+004    3.74152E+004
            7483    1.12496E+007    1.46842E+007    1.46842E+007    5.45397E+006    2.15350E+006    1.25307E+007   -7.43054E+006    1.00708E+007    5.45593E+006    2.55234E+006    1.42833E+007   -9.38769E+004    2.99383E+005    2.18119E+006
            7484    1.01847E+007    1.43068E+007    1.43068E+007    5.41388E+006    3.19597E+006    1.11109E+007   -7.63889E+006    9.61853E+006    5.41712E+006    3.26357E+006    1.42360E+007   -3.37425E+004    1.99064E+005    8.56946E+005
            7485    1.02344E+007    1.42258E+007    1.42258E+007    5.21456E+006    3.09890E+006    1.11269E+007   -7.51309E+006    9.72398E+006    5.21503E+006    3.10418E+006    1.42201E+007   -1.62070E+004    7.51392E+004    2.38679E+005
            7486    1.11220E+007    1.66301E+007    1.66301E+007    6.96491E+006    4.47372E+006    1.21564E+007   -9.35624E+006    1.04663E+007    6.96751E+006    4.86314E+006    1.62381E+007   -6.72509E+004    3.01007E+005    2.12399E+006
            7487    1.14925E+007    1.66531E+007    1.66531E+007    6.59432E+006    4.12751E+006    1.25256E+007   -9.12499E+006    1.08727E+007    6.59768E+006    4.16380E+006    1.66135E+007   -2.41417E+004    1.98476E+005    6.68561E+005
            7488    1.19981E+007    1.67187E+007    1.67187E+007    6.31823E+006    3.59207E+006    1.31267E+007   -8.87634E+006    1.12693E+007    6.31855E+006    3.59416E+006    1.67163E+007   -1.78761E+004    6.83651E+004    1.60432E+005
            7489    1.04628E+007    1.78318E+007    1.78318E+007    8.18126E+006    6.71200E+006    1.11198E+007   -1.09084E+007    1.02269E+007    8.18666E+006    6.87242E+006    1.76660E+007   -3.50147E+004    2.96754E+005    1.31152E+006
            7490    1.23901E+007    1.83170E+007    1.83170E+007    7.44209E+006    4.82869E+006    1.34883E+007   -1.01959E+007    1.17457E+007    7.44560E+006    4.83785E+006    1.83043E+007   -1.26244E+004    1.99185E+005    3.48969E+005
            7491    1.32934E+007    1.85154E+007    1.85154E+007    7.10214E+006    3.91969E+006    1.45957E+007   -9.84575E+006    1.23920E+007    7.10243E+006    3.92025E+006    1.85146E+007   -1.07612E+004    6.13677E+004    8.72260E+004
            7492    1.00693E+007    1.81622E+007    1.81622E+007    8.62031E+006    7.63753E+006    1.05246E+007   -1.14733E+007    9.96052E+006    8.62935E+006    7.63804E+006    1.81526E+007    2.44291E+003    2.93879E+005   -7.17313E+004
            7493    1.26833E+007    1.88381E+007    1.88381E+007    7.70056E+006    5.03334E+006    1.38048E+007   -1.05240E+007    1.20277E+007    7.70410E+006    5.03357E+006    1.88343E+007    2.27862E+003    1.98751E+005   -5.60894E+004
            7494    1.36877E+007    1.90550E+007    1.90550E+007    7.33511E+006    4.01148E+006    1.50435E+007   -1.01338E+007    1.27315E+007    7.33539E+006    4.01151E+006    1.90546E+007    1.68641E+003    5.80227E+004   -1.89935E+004
            7495    1.05122E+007    1.77224E+007    1.77224E+007    8.07334E+006    6.52005E+006    1.12024E+007   -1.07719E+007    1.02492E+007    8.07838E+006    6.70500E+006    1.75325E+007    3.75608E+004    2.96271E+005   -1.41287E+006
            7496    1.22643E+007    1.80292E+007    1.80292E+007    7.28100E+006    4.66951E+006    1.33597E+007   -9.99323E+006    1.16137E+007    7.28447E+006    4.68412E+006    1.80111E+007    1.51965E+004    1.98569E+005   -4.38746E+005
            7497    1.30297E+007    1.81336E+007    1.81336E+007    6.93003E+006    3.83514E+006    1.42985E+007   -9.63292E+006    1.21607E+007    6.93031E+006    3.83596E+006    1.81325E+007    1.34757E+004    6.19389E+004   -1.04350E+005
            7498    1.11288E+007    1.64165E+007    1.64165E+007    6.79876E+006    4.22692E+006    1.21896E+007   -9.14740E+006    1.04283E+007    6.80120E+006    4.61931E+006    1.60217E+007    7.04437E+004    3.00121E+005   -2.13464E+006
            7499    1.12413E+007    1.61529E+007    1.61529E+007    6.32697E+006    3.89441E+006    1.22585E+007   -8.79142E+006    1.06247E+007    6.33024E+006    3.93535E+006    1.61087E+007    2.73532E+004    1.97229E+005   -7.01757E+005
            7500    1.15504E+007    1.60681E+007    1.60681E+007    6.02405E+006    3.44673E+006    1.26213E+007   -8.51295E+006    1.08748E+007    6.02437E+006    3.44957E+006    1.60649E+007    1.85081E+004    6.87102E+004   -1.84085E+005
            7501    3.63333E+006    4.03709E+006    4.03709E+006    1.04521E+006   -5.91869E+003    4.04301E+006   -1.69213E+006    3.26405E+006    1.04825E+006   -2.26724E+003    4.03041E+006   -1.41600E+004    9.67799E+004   -1.19367E+005
            7502    3.28029E+006    3.59128E+006    3.59128E+006    8.90617E+005   -5.90813E+004    3.65036E+006   -1.47427E+006    2.94635E+006    8.91880E+005   -1.76525E+004    3.54859E+006   -5.40356E+004    8.98373E+004   -3.76667E+005
            7503    3.02909E+006    3.20534E+006    3.20534E+006    7.63386E+005   -1.84295E+005    3.38963E+006   -1.26148E+006    2.66360E+006    7.63614E+005   -4.90986E+004    3.06991E+006   -7.43068E+004    8.12269E+004   -6.54518E+005
            7504    2.96682E+006    2.95579E+006    2.95579E+006    6.36495E+005   -3.87362E+005    3.34315E+006   -1.06831E+006    2.52072E+006    6.35448E+005   -5.89503E+004    2.62842E+006   -9.98784E+004    7.06847E+004   -9.86417E+005
            7505    3.38833E+006    2.99891E+006    2.99891E+006    5.56506E+005   -8.69324E+005    3.86824E+006   -8.95365E+005    2.57034E+006    5.56104E+005   -2.00654E+005    2.33064E+006   -1.36887E+005    7.05406E+004   -1.45431E+006
            7506    3.18371E+006    3.55741E+006    3.55741E+006    9.53271E+005    8.14132E+003    3.54926E+006   -1.50627E+006    2.84142E+006    9.54386E+005    1.09853E+004    3.55345E+006   -1.14031E+004    5.60057E+004   -9.85860E+004
            7507    2.81621E+006    3.15231E+006    3.15231E+006    8.31384E+005    1.92888E+004    3.13302E+006   -1.33433E+006    2.53198E+006    8.30670E+005    4.90047E+004    3.12331E+006   -4.63628E+004    5.25340E+004   -2.92697E+005
            7508    2.43302E+006    2.72196E+006    2.72196E+006    7.16795E+005    1.52323E+004    2.70672E+006   -1.15133E+006    2.18750E+006    7.14895E+005    1.11431E+005    2.62766E+006   -5.91593E+004    4.66342E+004   -4.91756E+005
            7509    2.12385E+006    2.34262E+006    2.34262E+006    5.94176E+005   -2.08878E+004    2.36350E+006   -9.71968E+005    1.90751E+006    5.89167E+005    2.34742E+005    2.09199E+006   -8.32375E+004    3.77782E+004   -7.23171E+005
            7510    2.21071E+006    2.21036E+006    2.21036E+006    5.09376E+005   -2.88530E+005    2.49889E+006   -8.10403E+005    1.84222E+006    5.06112E+005    3.23992E+005    1.60111E+006   -1.07609E+005    3.49865E+004   -1.06728E+006
            7511    2.89202E+006    3.24139E+006    3.24139E+006    8.80392E+005    1.56386E+004    3.22575E+006   -1.37914E+006    2.57614E+006    8.80432E+005    1.61839E+004    3.24080E+006   -9.80444E+003    1.84724E+004   -3.76248E+004
            7512    2.51572E+006    2.86293E+006    2.86293E+006    7.80579E+005    6.76962E+004    2.79524E+006   -1.23707E+006    2.27126E+006    7.78416E+005    7.43936E+004    2.85840E+006   -4.14228E+004    1.71882E+004   -1.10323E+005
            7513    2.01799E+006    2.38576E+006    2.38576E+006    6.77230E+005    1.59290E+005    2.22647E+006   -1.07409E+006    1.85941E+006    6.72880E+005    1.78372E+005    2.37103E+006   -4.97869E+004    1.51066E+004   -1.79015E+005
            7514    1.43681E+006    1.84814E+006    1.84814E+006    5.67661E+005    2.94291E+005    1.55385E+006   -9.03366E+005    1.37646E+006    5.50014E+005    3.55829E+005    1.80425E+006   -7.14887E+004    1.41051E+004   -2.54365E+005
            7515    9.59238E+005    1.35150E+006    1.35150E+006    4.85024E+005    3.20731E+005    1.03077E+006   -7.19087E+005    9.26788E+005    4.42391E+005    5.67096E+005    1.14777E+006   -8.85563E+004    1.18835E+004   -3.96248E+005
            7516    8.80790E+006    8.45088E+006    8.45088E+006    1.97332E+006   -1.57833E+006    1.00292E+007   -2.94863E+006    6.89615E+006    1.97483E+006   -1.53938E+006    8.41043E+006   -1.49316E+005    2.50251E+005    5.60251E+005
            7517    7.89404E+006    6.75770E+006    6.75770E+006    1.21529E+006   -2.28065E+006    9.03835E+006   -1.89745E+006    5.71853E+006    1.21582E+006   -2.26939E+006    6.74591E+006   -1.73099E+005    2.16560E+005   -1.66503E+005
            7518    6.86679E+006    5.55879E+006    5.55879E+006    8.34843E+005   -2.31827E+006    7.87705E+006   -1.35845E+006    4.77928E+006    8.35118E+005   -2.23336E+006    5.47360E+006   -1.80160E+005    1.83680E+005   -7.72479E+005
            7519    5.68645E+006    4.53272E+006    4.53272E+006    6.34078E+005   -1.99221E+006    6.52493E+006   -1.05820E+006    3.92969E+006    6.34514E+005   -1.72620E+006    4.26628E+006   -1.76937E+005    1.47940E+005   -1.27016E+006
            7520    4.51134E+006    3.71485E+006    3.71485E+006    5.73112E+005   -1.45454E+006    5.16939E+006   -9.44475E+005    3.21787E+006    5.72997E+005   -9.65555E+005    3.22598E+006   -1.62252E+005    1.06265E+005   -1.50024E+006
            7521    3.79563E+006    3.53746E+006    3.53746E+006    6.53496E+005   -7.62648E+005    4.30011E+006   -1.14277E+006    3.11202E+006    6.53067E+005   -5.25404E+005    3.30065E+006   -1.17440E+005    1.00479E+005   -9.68950E+005
            7522    3.63006E+006    3.66378E+006    3.66378E+006    7.69023E+005   -4.08978E+005    4.07276E+006   -1.34128E+006    3.15496E+006    7.70074E+005   -3.24087E+005    3.57784E+006   -9.11544E+004    1.16666E+005   -5.65303E+005
            7523    3.69355E+006    3.95602E+006    3.95602E+006    8.92124E+005   -1.45309E+005    4.10133E+006   -1.56761E+006    3.34143E+006    8.95062E+005   -1.22582E+005    3.93036E+006   -6.09831E+004    1.26310E+005   -2.86269E+005
            7524    4.03745E+006    4.44474E+006    4.44474E+006    1.07276E+006   -2.93169E+004    4.47405E+006   -1.82939E+006    3.67553E+006    1.07818E+006   -2.77484E+004    4.43774E+006   -1.81586E+004    1.37591E+005   -7.74555E+004
            7525    4.63579E+006    4.14375E+006    4.14375E+006    6.74520E+005   -1.12129E+006    5.26504E+006   -1.23233E+006    3.72294E+006    6.74565E+005   -1.03453E+006    4.05695E+006   -1.26305E+005    1.36808E+005   -6.43986E+005
            7526    4.18405E+006    4.08054E+006    4.08054E+006    7.47478E+005   -6.14905E+005    4.69544E+006   -1.40437E+006    3.63228E+006    7.48019E+005   -5.97134E+005    4.06223E+006   -1.01693E+005    1.48844E+005   -2.28960E+005
            7527    4.02963E+006    4.19997E+006    4.19997E+006    8.18170E+005   -2.58696E+005    4.45867E+006   -1.58648E+006    3.68448E+006    8.21754E+005   -2.55044E+005    4.19273E+006   -6.28200E+004    1.55982E+005   -9.46925E+003
            7528    4.20049E+006    4.55155E+006    4.55155E+006    9.59653E+005   -6.71288E+004    4.61868E+006   -1.81469E+006    3.90287E+006    9.67393E+005   -6.61313E+004    4.54281E+006   -2.06930E+004    1.72001E+005    4.82634E+004
            7529    5.49026E+006    4.89887E+006    4.89887E+006    7.84044E+005   -1.33515E+006    6.23403E+006   -1.44925E+006    4.41841E+006    7.84359E+005   -1.32467E+006    4.88807E+006   -1.22897E+005    1.66434E+005   -1.54117E+005
            7530    4.76396E+006    4.57677E+006    4.57677E+006    7.56793E+005   -7.61204E+005    5.33798E+006   -1.52412E+006    4.16530E+006    7.56700E+005   -7.40336E+005    4.55600E+006   -9.85390E+004    1.74292E+005    2.65554E+005
            7531    4.22287E+006    4.33931E+006    4.33931E+006    7.17810E+005   -2.99201E+005    4.63851E+006   -1.58597E+006    3.93292E+006    7.21156E+005   -2.61521E+005    4.29828E+006   -5.31014E+004    1.73668E+005    3.90329E+005
            7532    4.05193E+006    4.31529E+006    4.31529E+006    7.17270E+005   -7.38534E+004    4.38914E+006   -1.65290E+006    3.87240E+006    7.26421E+005   -6.44870E+004    4.29677E+006   -1.87970E+004    1.91227E+005    1.91976E+005
            7533    6.28517E+006    5.87994E+006    5.87994E+006    1.06821E+006   -1.23111E+006    7.11105E+006   -1.90568E+006    5.20413E+006    1.06980E+006   -1.19918E+006    5.84642E+006   -1.04372E+005    1.96080E+005    4.29272E+005
            7534    5.08484E+006    5.09708E+006    5.09708E+006    8.81615E+005   -5.50139E+005    5.64722E+006   -1.80952E+006    4.59748E+006    8.81786E+005   -4.38030E+005    4.98480E+006   -7.62706E+004    1.88241E+005    7.61570E+005
            7535    4.24736E+006    4.38528E+006    4.38528E+006    6.17389E+005   -2.17557E+005    4.60283E+006   -1.59504E+006    4.05651E+006    6.21081E+005   -1.13039E+005    4.27707E+006   -2.98729E+004    1.72545E+005    6.73052E+005
            7536    3.71444E+006    3.85152E+006    3.85152E+006    3.95081E+005   -7.59900E+004    3.92751E+006   -1.39020E+006    3.64633E+006    4.03732E+005   -5.24186E+004    3.81929E+006   -1.21630E+004    1.88204E+005    2.93387E+005
            7537    6.53662E+006    6.96149E+006    6.96149E+006    1.62526E+006   -3.29490E+005    7.29098E+006   -2.75242E+006    5.82249E+006    1.62863E+006   -2.17920E+005    6.84655E+006   -6.41832E+004    2.08350E+005    8.78104E+005
            7538    5.00737E+006    5.41306E+006    5.41306E+006    1.02480E+006   -4.16185E+004    5.45468E+006   -2.13208E+006    4.74167E+006    1.02702E+006    1.13525E+005    5.25569E+006   -3.68430E+004    1.73931E+005    8.94426E+005
            7539    4.16753E+006    4.39041E+006    4.39041E+006    5.43316E+005   -3.67839E+004    4.42719E+006   -1.63231E+006    4.07521E+006    5.47835E+005    9.19004E+004    4.25720E+006   -1.48997E+002    1.49472E+005    7.39996E+005
            7540    3.29177E+006    3.31380E+006    3.31380E+006    7.77575E+004   -3.09957E+004    3.34479E+006   -1.12019E+006    3.28772E+006    8.30968E+004    8.74427E+002    3.27659E+006   -1.41052E+003    1.60395E+005    3.11343E+005
            7541    2.92749E+006    2.85213E+006    2.85213E+006    4.11315E+004   -1.79382E+005    3.03152E+006   -9.04628E+005    2.90872E+006   -1.75419E+005    6.07628E+004    2.82854E+006    1.02929E+004    1.08974E+005    2.33960E+005
            7542    2.70503E+006    2.56396E+006    2.56396E+006    9.55709E+004   -3.27780E+005    2.89174E+006   -7.77252E+005    2.62894E+006   -3.26546E+005    9.78934E+004    2.56041E+006    1.86812E+004    3.82611E+004    8.64722E+004
            7543    3.94876E+006    4.28361E+006    4.28361E+006    4.78809E+005    2.05134E+005    4.07847E+006   -1.65585E+006    3.92733E+006    4.81398E+005    2.91179E+005    4.19497E+006    2.54752E+004    1.03645E+005    5.84603E+005
            7544    3.70603E+006    4.13021E+006    4.13021E+006    4.63597E+005    3.85974E+005    3.74424E+006   -1.65993E+006    3.70420E+006    4.32236E+005    4.31104E+005    4.11644E+006    4.05222E+004    3.79452E+004    2.22041E+005
            7545    4.78722E+006    5.55281E+006    5.55281E+006    1.11137E+006    4.82051E+005    5.07076E+006   -2.38207E+006    4.69281E+006    1.11481E+006    5.81412E+005    5.45000E+006    9.21264E+003    1.25550E+005    7.02174E+005
            7546    4.51456E+006    5.56667E+006    5.56667E+006    1.18875E+006    9.26868E+005    4.63980E+006   -2.56076E+006    4.49743E+006    1.18275E+006    9.50003E+005    5.54954E+006    4.36321E+004    4.55618E+004    2.76887E+005
            7547    6.07735E+006    7.34850E+006    7.34850E+006    1.95959E+006    7.61225E+005    6.58727E+006   -3.35644E+006    5.80253E+006    1.96353E+006    8.63815E+005    7.24196E+006   -1.41160E+004    1.66207E+005    8.11333E+005
            7548    5.47127E+006    7.21480E+006    7.21480E+006    2.01995E+006    1.50370E+006    5.71110E+006   -3.57948E+006    5.41607E+006    2.01927E+006    1.52304E+006    7.19614E+006    3.16455E+004    6.44808E+004    3.18405E+005
            7549    6.64441E+006    9.08135E+006    9.08135E+006    2.91805E+006    2.04262E+006    7.03872E+006   -4.68067E+006    6.51276E+006    2.91889E+006    2.05399E+006    9.06914E+006    1.17856E+004    7.51936E+004    2.81547E+005
            7550    8.33384E+006    1.15356E+007    1.15356E+007    4.02348E+006    2.57093E+006    8.96463E+006   -6.04332E+006    8.04161E+006    4.02422E+006    2.57722E+006    1.15285E+007   -5.81227E+003    7.70314E+004    2.36483E+005
            7551    7.47814E+006    9.42690E+006    9.42690E+006    2.94238E+006    1.24643E+006    8.18046E+006   -4.53857E+006    7.02563E+006    2.94594E+006    1.34103E+006    9.32874E+006   -3.69160E+004    1.93812E+005    8.65282E+005
            7552    8.87391E+006    1.18735E+007    1.18735E+007    4.16408E+006    2.17322E+006    9.70023E+006   -6.07025E+006    8.34896E+006    4.16748E+006    2.26411E+006    1.17792E+007   -3.53919E+004    1.98208E+005    9.26694E+005
            7553    1.06487E+007    1.24216E+007    1.24216E+007    4.04490E+006    4.37841E+005    1.19837E+007   -5.63476E+006    9.11385E+006    4.04701E+006    7.25237E+005    1.21320E+007   -1.09413E+005    2.87565E+005    1.81215E+006
            7554    9.71679E+006    1.02928E+007    1.02928E+007    2.88175E+006   -7.08155E+005    1.10009E+007   -4.15546E+006    8.00659E+006    2.88408E+006   -5.61963E+005    1.01443E+007   -1.21376E+005    2.69009E+005    1.23155E+006
            7555    6.88115E+006    6.22432E+006    6.22432E+006    1.11562E+006   -1.60033E+006    7.82465E+006   -1.91320E+006    5.46363E+006    1.11924E+006   -1.58451E+006    6.20487E+006    1.82104E+005   -2.94704E+005    1.48287E+005
            7556    5.98211E+006    4.96736E+006    4.96736E+006    6.96621E+005   -1.86974E+006    6.83710E+006   -1.26475E+006    4.46496E+006    6.98393E+005   -1.80550E+006    4.90134E+006    2.05358E+005   -2.36226E+005   -5.87017E+005
            7557    5.04201E+006    4.19066E+006    4.19066E+006    6.02239E+005   -1.57398E+006    5.76464E+006   -1.07298E+006    3.74309E+006    6.03389E+005   -1.36611E+006    3.98164E+006    2.07453E+005   -1.91159E+005   -1.03894E+006
            7558    4.10827E+006    3.56697E+006    3.56697E+006    5.95820E+005   -1.12128E+006    4.68825E+006   -1.01383E+006    3.13333E+006    5.96267E+005   -7.00054E+005    3.14529E+006    1.89997E+005   -1.38433E+005   -1.32033E+006
            7559    3.56345E+006    3.63609E+006    3.63609E+006    7.58322E+005   -3.49753E+005    3.98585E+006   -1.34822E+006    3.13924E+006    7.57928E+005   -2.48738E+005    3.53547E+006    1.37519E+005   -1.59120E+005   -5.89153E+005
            7560    3.94115E+006    4.34560E+006    4.34560E+006    1.01934E+006   -7.27273E+003    4.35287E+006   -1.78589E+006    3.62155E+006    1.02873E+006    3.34921E+002    4.32860E+006    3.92334E+004   -1.84234E+005   -1.69283E+005
            7561    4.09692E+006    4.01294E+006    4.01294E+006    7.08945E+005   -5.71194E+005    4.58414E+006   -1.38356E+006    3.60396E+006    7.08649E+005   -5.39811E+005    3.98186E+006    1.45897E+005   -2.03513E+005   -2.81429E+005
            7562    4.26027E+006    4.53397E+006    4.53397E+006    8.87512E+005   -1.48865E+005    4.68284E+006   -1.75754E+006    3.96147E+006    9.00717E+005   -1.46708E+005    4.51861E+006    4.49405E+004   -2.35603E+005    2.27093E+004
            7563    4.74747E+006    4.53088E+006    4.53088E+006    6.81871E+005   -7.74054E+005    5.30493E+006   -1.47956E+006    4.19932E+006    6.80716E+005   -7.41184E+005    4.49916E+006    1.35875E+005   -2.43032E+005    3.02250E+005
            7564    4.10866E+006    4.30007E+006    4.30007E+006    6.29278E+005   -1.38214E+005    4.43828E+006   -1.59704E+006    3.94251E+006    6.44479E+005   -1.15969E+005    4.26263E+006    3.48818E+004   -2.64467E+005    2.86882E+005
            7565    4.88477E+006    4.99298E+006    4.99298E+006    7.98055E+005   -3.69900E+005    5.36288E+006   -1.80705E+006    4.55444E+006    8.00614E+005   -2.32114E+005    4.85263E+006    7.74111E+004   -2.59174E+005    8.10653E+005
            7566    3.66851E+006    3.78711E+006    3.78711E+006    2.94258E+005   -3.48842E+004    3.82199E+006   -1.34883E+006    3.63507E+006    3.07580E+005    8.10708E+003    3.73079E+006    1.05011E+004   -2.46797E+005    3.83699E+005
            7567    3.24608E+006    3.23124E+006    3.23124E+006    2.35444E+004   -5.19214E+004    3.28316E+006   -1.06762E+006    3.24411E+006   -4.12669E+004    5.90810E+004    3.18505E+006   -1.25526E+004   -1.81005E+005    3.38076E+005
            7568    2.87413E+006    2.79733E+006    2.79733E+006    1.57048E+005   -2.64175E+005    3.06150E+006   -8.96733E+005    2.80343E+006   -2.60139E+005    1.62808E+005    2.78753E+006   -3.55007E+004   -6.92265E+004    1.46422E+005
            7569    4.58639E+006    5.02661E+006    5.02661E+006    7.68066E+005    1.70865E+005    4.85574E+006   -1.98851E+006    4.49767E+006    7.76771E+005    2.95243E+005    4.89352E+006   -1.01747E+004   -2.02259E+005    7.63791E+005
            7570    4.12469E+006    4.76654E+006    4.76654E+006    7.21180E+005    5.66859E+005    4.19968E+006   -2.01819E+006    4.11818E+006    6.74735E+005    6.36147E+005    4.74370E+006   -7.70379E+004   -7.51319E+004    2.96278E+005
            7571    5.06766E+006    6.42791E+006    6.42791E+006    1.51675E+006    1.21704E+006    5.21087E+006   -3.05390E+006    5.04767E+006    1.50368E+006    1.25132E+006    6.40671E+006   -7.00620E+004   -8.49161E+004    3.18368E+005
            7572    6.30295E+006    8.39387E+006    8.39387E+006    2.42055E+006    1.80627E+006    6.58760E+006   -4.20690E+006    6.23507E+006    2.41960E+006    1.81532E+006    8.38578E+006   -4.25173E+004   -9.63434E+004    2.06769E+005
            7573    8.01954E+006    1.08776E+007    1.08776E+007    3.51061E+006    2.33527E+006    8.54235E+006   -5.57450E+006    7.82224E+006    3.51197E+006    2.34402E+006    1.08675E+007   -1.49809E+004   -1.03906E+005    2.71477E+005
            7574    9.79353E+006    1.34751E+007    1.34751E+007    4.67335E+006    2.92515E+006    1.05499E+007   -7.02452E+006    9.43286E+006    4.67468E+006    2.92891E+006    1.34700E+007    4.70337E+003   -1.09285E+005    1.98365E+005
            7575    5.76987E+006    6.74341E+006    6.74341E+006    1.56438E+006    5.24201E+005    6.21921E+006   -2.94400E+006    5.55302E+006    1.57430E+006    6.11251E+005    6.64643E+006    1.75632E+004   -2.53430E+005    7.20908E+005
            7576    7.29916E+006    9.04951E+006    9.04951E+006    2.60846E+006    1.12129E+006    7.92822E+006   -4.25975E+006    6.94592E+006    2.61807E+006    1.21748E+006    8.94371E+006    3.46888E+004   -2.89400E+005    8.53985E+005
            7577    8.48341E+006    1.12321E+007    1.12321E+007    3.72166E+006    2.03054E+006    9.20160E+006   -5.66144E+006    8.09103E+006    3.73019E+006    2.12189E+006    1.11322E+007    4.63196E+004   -3.05451E+005    8.94460E+005
            7578    9.93769E+006    1.37103E+007    1.37103E+007    4.94165E+006    2.91571E+006    1.07946E+007   -7.18921E+006    9.45617E+006    4.94901E+006    2.98381E+006    1.36348E+007    5.74601E+004   -3.10509E+005    8.33494E+005
            7579    1.10900E+007    1.42886E+007    1.42886E+007    5.15737E+006    1.94784E+006    1.23408E+007   -7.13127E+006    9.96193E+006    5.16417E+006    2.34218E+006    1.38875E+007    1.27786E+005   -4.57902E+005    2.13177E+006
            7580    1.03848E+007    1.19695E+007    1.19695E+007    3.76307E+006    2.94259E+005    1.16752E+007   -5.34226E+006    8.93455E+006    3.76934E+006    5.60371E+005    1.16971E+007    1.52625E+005   -4.26751E+005    1.69718E+006
            7581    9.29619E+006    9.84720E+006    9.84720E+006    2.68018E+006   -6.56900E+005    1.05041E+007   -3.95683E+006    7.76605E+006    2.68585E+006   -4.85924E+005    9.67055E+006    1.59306E+005   -3.84840E+005    1.27784E+006
            7582    8.01056E+006    7.97166E+006    7.97166E+006    1.84867E+006   -1.09406E+006    9.06573E+006   -2.90876E+006    6.61932E+006    1.85383E+006   -1.02125E+006    7.89369E+006    1.63915E+005   -3.42860E+005    7.35901E+005
            7583    3.49821E+006    3.88027E+006    3.88027E+006    9.70825E+005   -1.13826E+003    3.88141E+006   -1.61665E+006    3.17243E+006    9.75874E+005    9.43665E+003    3.86465E+006    3.31401E+004   -1.28051E+005   -1.95069E+005
            7584    3.01647E+006    3.21738E+006    3.21738E+006    7.64482E+005   -1.50704E+005    3.36808E+006   -1.27705E+006    2.67632E+006    7.62589E+005   -6.83363E+003    3.07540E+006    1.16634E+005   -1.13142E+005   -6.58096E+005
            7585    3.17596E+006    2.95992E+006    2.95992E+006    5.90994E+005   -6.48980E+005    3.60890E+006   -9.67311E+005    2.53869E+006    5.90142E+005   -9.76778E+004    2.40947E+006    1.60336E+005   -9.30283E+004   -1.28443E+006
            7586    3.02003E+006    3.40068E+006    3.40068E+006    8.93974E+005    4.78310E+004    3.35285E+006   -1.44750E+006    2.73366E+006    8.95599E+005    5.55317E+004    3.39135E+006    2.67757E+004   -7.42399E+004   -1.53591E+005
            7587    2.42307E+006    2.71932E+006    2.71932E+006    7.12954E+005    2.73030E+004    2.69202E+006   -1.15319E+006    2.18834E+006    7.05189E+005    1.15508E+005    2.63888E+006    9.81605E+004   -6.38874E+004   -4.48327E+005
            7588    2.17287E+006    2.26929E+006    2.26929E+006    5.50494E+005   -1.73032E+005    2.44233E+006   -8.82252E+005    1.87156E+006    5.44395E+005    3.18481E+005    1.78388E+006    1.26620E+005   -4.82391E+004   -9.65903E+005
            7589    2.74357E+006    3.09749E+006    3.09749E+006    8.25353E+005    4.95683E+004    3.04793E+006   -1.32414E+006    2.47820E+006    8.24903E+005    5.11327E+004    3.09638E+006    2.38862E+004   -2.39925E+004   -5.09734E+004
            7590    2.05900E+006    2.41150E+006    2.41150E+006    6.77247E+005    1.35914E+005    2.27559E+006   -1.07489E+006    1.88869E+006    6.64188E+005    1.61520E+005    2.39895E+006    8.63936E+004   -2.24661E+004   -1.64802E+005
            7591    1.08682E+006    1.48945E+006    1.48945E+006    5.24228E+005    3.12253E+005    1.17719E+006   -7.75309E+005    1.03877E+006    4.71502E+005    4.88496E+005    1.36593E+006    1.04414E+005   -1.66504E+004   -3.47636E+005
            7592    1.02550E+007    1.41293E+007    1.41293E+007    4.96221E+006    3.05438E+006    1.10749E+007   -7.38197E+006    9.84376E+006    4.96358E+006    3.05860E+006    1.41237E+007   -9.06651E+003   -1.14710E+005   -2.14341E+005
            7593    1.02069E+007    1.42378E+007    1.42378E+007    5.22824E+006    3.15259E+006    1.10852E+007   -7.53953E+006    9.71488E+006    5.23565E+006    3.22275E+006    1.41602E+007   -5.82575E+004   -3.15829E+005   -8.57810E+005
            7594    1.12009E+007    1.45970E+007    1.45970E+007    5.33785E+006    2.14686E+006    1.24501E+007   -7.36056E+006    1.00998E+007    5.34496E+006    2.54295E+006    1.41938E+007   -1.25112E+005   -4.61584E+005   -2.14682E+006
            7595    1.20320E+007    1.66286E+007    1.66286E+007    6.05129E+006    3.53871E+006    1.30899E+007   -8.73954E+006    1.14192E+007    6.05264E+006    3.54037E+006    1.66256E+007   -1.52349E+004   -1.24443E+005   -1.42441E+005
            7596    1.14989E+007    1.65822E+007    1.65822E+007    6.42802E+006    4.09605E+006    1.24862E+007   -9.03544E+006    1.09478E+007    6.43548E+006    4.13436E+006    1.65365E+007   -4.95336E+004   -3.10901E+005   -6.73092E+005
            7597    1.11097E+007    1.65224E+007    1.65224E+007    6.80057E+006    4.41304E+006    1.21093E+007   -9.24532E+006    1.05089E+007    6.80975E+006    4.79971E+006    1.61265E+007   -8.51695E+004   -4.73266E+005   -2.09458E+006
            7598    1.33521E+007    1.84521E+007    1.84521E+007    6.83520E+006    3.86505E+006    1.45871E+007   -9.71746E+006    1.25762E+007    6.83671E+006    3.86546E+006    1.84502E+007   -9.98149E+003   -1.33786E+005   -7.35288E+004
            7599    1.23874E+007    1.82411E+007    1.82411E+007    7.29254E+006    4.79524E+006    1.34458E+007   -1.01096E+007    1.18010E+007    7.30035E+006    4.80477E+006    1.82237E+007   -2.74389E+004   -3.02405E+005   -3.48238E+005
            7600    1.04888E+007    1.77132E+007    1.77132E+007    7.97384E+006    6.60853E+006    1.11046E+007   -1.07652E+007    1.02861E+007    7.98910E+006    6.77042E+006    1.75360E+007   -4.10850E+004   -4.71907E+005   -1.30119E+006
            7601    1.37659E+007    1.90136E+007    1.90136E+007    7.07263E+006    3.95690E+006    1.50567E+007   -1.00144E+007    1.29364E+007    7.07421E+006    3.95692E+006    1.90120E+007    1.92406E+003   -1.37331E+005    1.70596E+004
            7602    1.26850E+007    1.87694E+007    1.87694E+007    7.56179E+006    4.99844E+006    1.37709E+007   -1.04432E+007    1.20815E+007    7.56983E+006    4.99870E+006    1.87611E+007    3.19256E+003   -3.00102E+005    5.88360E+004
            7603    1.01190E+007    1.80744E+007    1.80744E+007    8.41678E+006    7.54974E+006    1.05246E+007   -1.13470E+007    1.00349E+007    8.43970E+006    7.55000E+006    1.80512E+007    1.85360E+003   -4.70183E+005    5.10052E+004
            7604    1.31209E+007    1.81168E+007    1.81168E+007    6.68496E+006    3.79035E+006    1.43265E+007   -9.53072E+006    1.23715E+007    6.68642E+006    3.79097E+006    1.81148E+007    1.26159E+004   -1.31913E+005    8.95393E+004
            7605    1.22861E+007    1.79704E+007    1.79704E+007    7.12911E+006    4.62533E+006    1.33451E+007   -9.90829E+006    1.16912E+007    7.13676E+006    4.64075E+006    1.79474E+007    3.27733E+004   -3.02458E+005    4.42266E+005
            7606    1.05164E+007    1.76263E+007    1.76263E+007    7.89451E+006    6.47043E+006    1.11559E+007   -1.06638E+007    1.02961E+007    7.90900E+006    6.65015E+006    1.74321E+007    4.52566E+004   -4.72270E+005    1.37321E+006
            7607    1.16405E+007    1.60633E+007    1.60633E+007    5.79842E+006    3.41585E+006    1.26474E+007   -8.42585E+006    1.10718E+007    5.79974E+006    3.41799E+006    1.60598E+007    1.51386E+004   -1.21634E+005    1.59995E+005
            7608    1.12723E+007    1.60995E+007    1.60995E+007    6.15941E+006    3.85198E+006    1.22475E+007   -8.70363E+006    1.07215E+007    6.16668E+006    3.89272E+006    1.60515E+007    5.13044E+004   -3.07462E+005    6.87076E+005
            7609    1.11024E+007    1.63318E+007    1.63318E+007    6.66086E+006    4.20808E+006    1.21237E+007   -9.06691E+006    1.04665E+007    6.66984E+006    4.59814E+006    1.59328E+007    8.85973E+004   -4.72452E+005    2.10453E+006
            7610    3.17433E+006    2.95912E+006    2.95912E+006    5.91212E+005   -6.47883E+005    3.60700E+006   -9.67482E+005    2.53769E+006    5.90353E+005   -9.43349E+004    2.40643E+006    1.60367E+005    9.28101E+004    1.28621E+006
            7611    3.01443E+006    3.21586E+006    3.21586E+006    7.64501E+005   -1.49893E+005    3.36575E+006   -1.27682E+006    2.67464E+006    7.62567E+005   -8.06130E+003    3.07596E+006    1.16289E+005    1.12850E+005    6.53089E+005
            7612    3.49073E+006    3.87163E+006    3.87163E+006    9.68958E+005   -1.70892E+003    3.87334E+006   -1.61296E+006    3.16509E+006    9.73943E+005    8.75070E+003    3.85618E+006    3.30087E+004    1.27165E+005    1.93746E+005
            7613    2.16347E+006    2.26186E+006    2.26186E+006    5.49279E+005   -1.69524E+005    2.43138E+006   -8.80538E+005    1.86496E+006    5.43122E+005    3.20474E+005    1.77802E+006    1.26330E+005    4.79526E+004    9.62004E+005
            7614    2.42964E+006    2.72482E+006    2.72482E+006    7.13952E+005    2.51454E+004    2.69967E+006   -1.15464E+006    2.19330E+006    7.06232E+005    1.12575E+005    2.64511E+006    9.81282E+004    6.40600E+004    4.46928E+005
            7615    3.01621E+006    3.39668E+006    3.39668E+006    8.93138E+005    4.80739E+004    3.34861E+006   -1.44597E+006    2.73022E+006    8.94738E+005    5.57349E+004    3.38742E+006    2.66345E+004    7.37046E+004    1.53120E+005
            7616    1.07298E+006    1.47987E+006    1.47987E+006    5.26268E+005    3.18044E+005    1.16183E+006   -7.74729E+005    1.02603E+006    4.71125E+005    4.91461E+005    1.36160E+006    1.04144E+005    1.63105E+004    3.37985E+005
            7617    2.06485E+006    2.41677E+006    2.41677E+006    6.78426E+005    1.34372E+005    2.28240E+006   -1.07652E+006    1.89326E+006    6.65446E+005    1.60685E+005    2.40344E+006    8.65113E+004    2.28244E+004    1.70201E+005
            7618    2.74306E+006    3.09688E+006    3.09688E+006    8.25169E+005    4.95151E+004    3.04737E+006   -1.32385E+006    2.47773E+006    8.24719E+005    5.10860E+004    3.09576E+006    2.38413E+004    2.38608E+004    5.12409E+004
            7619    3.30396E+006    3.32100E+006    3.32100E+006    2.88647E+004    5.34137E+003    3.31566E+006   -1.11840E+006    3.30377E+006    3.28869E+004    4.16769E+004    3.28065E+006    7.67007E+003   -2.17936E+005   -2.90999E+005
            7620    3.71389E+006    3.84633E+006    3.84633E+006    3.33909E+005   -4.06484E+004    3.88698E+006   -1.37986E+006    3.67104E+006    3.50458E+005   -1.86700E+004    3.80780E+006   -1.20086E+004   -2.59365E+005   -2.73899E+005
            7621    4.04037E+006    4.29966E+006    4.29966E+006    6.61829E+005   -4.89310E+004    4.34859E+006   -1.63752E+006    3.89598E+006    6.79043E+005   -3.98225E+004    4.27334E+006   -2.56815E+004   -2.64104E+005   -1.76875E+005
            7622    4.18369E+006    4.53074E+006    4.53074E+006    9.13160E+005   -5.08048E+004    4.58154E+006   -1.79770E+006    3.92198E+006    9.27579E+005   -4.92080E+004    4.51472E+006   -3.23277E+004   -2.37739E+005   -4.09588E+004
            7623    4.01682E+006    4.41375E+006    4.41375E+006    1.03131E+006   -2.59664E+004    4.43971E+006   -1.80636E+006    3.68375E+006    1.04135E+006   -2.37483E+004    4.40149E+006   -3.13799E+004   -1.90062E+005    8.10325E+004
            7624    4.18620E+006    4.37686E+006    4.37686E+006    4.86906E+005   -5.31628E+004    4.43003E+006   -1.60354E+006    4.10673E+006    4.94867E+005    7.02909E+004    4.24545E+006   -7.95782E+003   -2.15029E+005   -7.17833E+005
            7625    4.24559E+006    4.35411E+006    4.35411E+006    5.68929E+005   -2.36502E+005    4.59061E+006   -1.56218E+006    4.06834E+006    5.74403E+005   -1.30952E+005    4.24309E+006   -5.03596E+004   -2.44802E+005   -6.56542E+005
            7626    4.21386E+006    4.31243E+006    4.31243E+006    6.81638E+005   -3.08262E+005    4.62069E+006   -1.56193E+006    3.93931E+006    6.87193E+005   -2.66017E+005    4.26463E+006   -7.83843E+004   -2.43935E+005   -3.84273E+005
            7627    4.02282E+006    4.17423E+006    4.17423E+006    7.87966E+005   -2.72627E+005    4.44686E+006   -1.56319E+006    3.68809E+006    7.94796E+005   -2.65554E+005    4.16033E+006   -8.68655E+004   -2.16151E+005    1.31468E+004
            7628    3.68203E+006    3.93243E+006    3.93243E+006    8.67531E+005   -1.51909E+005    4.08434E+006   -1.54935E+006    3.34173E+006    8.73665E+005   -1.28192E+005    3.90258E+006   -7.79708E+004   -1.73249E+005    2.80763E+005
            7629    5.01016E+006    5.41567E+006    5.41567E+006    9.57811E+005   -6.58681E+003    5.42226E+006   -2.12230E+006    4.79461E+006    9.66107E+005    1.36100E+005    5.26469E+006   -2.42773E+004   -2.41643E+005   -8.54444E+005
            7630    5.04888E+006    5.06934E+006    5.06934E+006    8.24752E+005   -5.13982E+005    5.58333E+006   -1.79337E+006    4.62360E+006    8.28185E+005   -4.09636E+005    4.96157E+006   -8.66346E+004   -2.58280E+005   -7.15327E+005
            7631    4.72581E+006    4.54665E+006    4.54665E+006    7.10711E+005   -7.32492E+005    5.27914E+006   -1.50829E+006    4.18519E+006    7.11042E+005   -7.08789E+005    4.52261E+006   -1.29636E+005   -2.37389E+005   -2.29505E+005
            7632    4.15574E+006    4.06026E+006    4.06026E+006    7.08127E+005   -5.89455E+005    4.64971E+006   -1.39298E+006    3.65650E+006    7.07894E+005   -5.62565E+005    4.03360E+006   -1.42477E+005   -2.02512E+005    2.49448E+005
            7633    3.61391E+006    3.65215E+006    3.65215E+006    7.34655E+005   -3.90496E+005    4.04264E+006   -1.33210E+006    3.18252E+006    7.34293E+005   -2.97810E+005    3.55982E+006   -1.35567E+005   -1.59436E+005    5.66820E+005
            7634    6.51276E+006    6.91848E+006    6.91848E+006    1.54939E+006   -3.26301E+005    7.24478E+006   -2.71385E+006    5.85726E+006    1.55529E+006   -2.14488E+005    6.80076E+006   -1.08837E+005   -3.19281E+005   -8.45427E+005
            7635    6.24766E+006    5.83460E+006    5.83460E+006    1.02722E+006   -1.22742E+006    7.06202E+006   -1.87813E+006    5.20661E+006    1.02814E+006   -1.18798E+006    5.79424E+006   -1.73060E+005   -2.95989E+005   -4.04736E+005
            7636    5.43774E+006    4.84644E+006    4.84644E+006    7.70588E+005   -1.32785E+006    6.17429E+006   -1.42973E+006    4.37672E+006    7.69721E+005   -1.30561E+006    4.82507E+006   -1.95735E+005   -2.50616E+005    1.79463E+005
            7637    4.61373E+006    4.11633E+006    4.11633E+006    6.78277E+005   -1.12709E+006    5.24342E+006   -1.22251E+006    3.68293E+006    6.76116E+005   -1.02848E+006    4.01988E+006   -1.99056E+005   -1.99204E+005    6.48684E+005
            7638    3.78085E+006    3.51249E+006    3.51249E+006    6.60056E+005   -7.75980E+005    4.28847E+006   -1.13219E+006    3.07055E+006    6.58934E+005   -5.34390E+005    3.27203E+006   -1.79029E+005   -1.51136E+005    9.59095E+005
            7639    4.52327E+006    3.71359E+006    3.71359E+006    5.47875E+005   -1.46699E+006    5.18059E+006   -9.31492E+005    3.25722E+006    5.47856E+005   -9.71236E+005    3.21786E+006   -2.12014E+005   -1.40865E+005    1.50256E+006
            7640    5.68477E+006    4.53177E+006    4.53177E+006    6.16239E+005   -1.98868E+006    6.52045E+006   -1.05311E+006    3.96652E+006    6.16675E+005   -1.71508E+006    4.25774E+006   -2.29531E+005   -1.90697E+005    1.27345E+006
            7641    6.85369E+006    5.55096E+006    5.55096E+006    8.15785E+005   -2.30814E+006    7.85909E+006   -1.35287E+006    4.81219E+006    8.17620E+005   -2.21631E+006    5.45730E+006   -2.32182E+005   -2.48547E+005    7.78510E+005
            7642    7.85578E+006    6.74145E+006    6.74145E+006    1.19319E+006   -2.24765E+006    8.98910E+006   -1.89566E+006    5.75297E+006    1.19632E+006   -2.23094E+006    6.72162E+006   -2.17358E+005   -2.94623E+005    1.82028E+005
            7643    8.76186E+006    8.41462E+006    8.41462E+006    1.93052E+006   -1.55331E+006    9.96793E+006   -2.93061E+006    6.92431E+006    1.93618E+006   -1.51183E+006    8.36747E+006   -1.86989E+005   -3.50491E+005   -5.38939E+005
            7644    9.66920E+006    1.02495E+007    1.02495E+007    2.82141E+006   -6.83311E+005    1.09328E+007   -4.12921E+006    8.04157E+006    2.82747E+006   -5.34204E+005    1.00944E+007   -1.69934E+005   -3.97542E+005   -1.21040E+006
            7645    1.06001E+007    1.23693E+007    1.23693E+007    3.96734E+006    4.60123E+005    1.19092E+007   -5.59893E+006    9.15110E+006    3.97346E+006    7.49149E+005    1.20742E+007   -1.52656E+005   -4.33524E+005   -1.78799E+006
            7646    8.90009E+006    1.18135E+007    1.18135E+007    3.98099E+006    2.13519E+006    9.67827E+006   -5.97654E+006    8.45321E+006    3.98920E+006    2.22542E+006    1.17150E+007   -5.62058E+004   -3.15684E+005   -9.08769E+005
            7647    8.35482E+006    1.14493E+007    1.14493E+007    3.79515E+006    2.53653E+006    8.91272E+006   -5.92698E+006    8.13743E+006    3.79667E+006    2.54193E+006    1.14423E+007    7.96303E+003   -1.08621E+005   -2.18849E+005
            7648    7.49605E+006    9.39005E+006    9.39005E+006    2.79366E+006    1.23835E+006    8.15170E+006   -4.47402E+006    7.11931E+006    2.80307E+006    1.32945E+006    9.28955E+006   -4.64279E+004   -3.02008E+005   -8.37873E+005
            7649    6.69359E+006    9.04008E+006    9.04008E+006    2.73326E+006    2.01729E+006    7.02279E+006   -4.59687E+006    6.60661E+006    2.73374E+006    2.02873E+006    9.02815E+006    3.38272E+004   -1.03180E+005   -2.67352E+005
            7650    5.53522E+006    7.20750E+006    7.20750E+006    1.88534E+006    1.48136E+006    5.72615E+006   -3.52473E+006    5.50191E+006    1.87864E+006    1.50622E+006    7.18934E+006    6.26060E+004   -9.14196E+004   -3.06460E+005
            7651    4.56240E+006    5.55813E+006    5.55813E+006    1.10234E+006    8.96114E+005    4.66201E+006   -2.51886E+006    4.55189E+006    1.07424E+006    9.40542E+005    5.54180E+006    7.61483E+004   -6.98501E+004   -2.64044E+005
            7652    3.74197E+006    4.12617E+006    4.12617E+006    4.61558E+005    3.11372E+005    3.81480E+006   -1.63303E+006    3.73518E+006    3.57905E+005    4.28041E+005    4.11316E+006    7.21885E+004   -5.15449E+004   -2.12341E+005
            7653    2.75646E+006    2.58559E+006    2.58559E+006    9.16886E+004   -3.74071E+005    2.95966E+006   -7.67737E+005    2.66576E+006   -3.71261E+005    9.25594E+004    2.58191E+006    3.10009E+004   -5.24260E+004   -8.22535E+004
            7654    6.09580E+006    7.32792E+006    7.32792E+006    1.83790E+006    7.68011E+005    6.55991E+006   -3.31128E+006    5.87897E+006    1.84742E+006    8.64232E+005    7.22218E+006   -1.27337E+004   -2.51514E+005   -7.80886E+005
            7655    4.81673E+006    5.55349E+006    5.55349E+006    1.02584E+006    4.92150E+005    5.06134E+006   -2.35716E+006    4.74952E+006    1.03304E+006    5.83362E+005    5.45508E+006    3.19252E+004   -1.79104E+005   -6.72410E+005
            7656    3.98286E+006    4.28889E+006    4.28889E+006    4.16049E+005    2.04446E+005    4.08445E+006   -1.63646E+006    3.97019E+006    4.20287E+005    2.85728E+005    4.20337E+006    4.04931E+004   -1.48451E+005   -5.63703E+005
            7657    2.96112E+006    2.86295E+006    2.86295E+006    5.61735E+004   -2.31512E+005    3.09446E+006   -8.95871E+005    2.92943E+006   -2.24023E+005    7.31234E+004    2.83851E+006    2.23173E+004   -1.46653E+005   -2.19714E+005
            7658    3.66718E+006    3.78579E+006    3.78579E+006    2.93543E+005   -3.43083E+004    3.82010E+006   -1.34834E+006    3.63399E+006    3.06850E+005    8.78719E+003    3.72938E+006    1.04000E+004    2.46668E+005   -3.84112E+005
            7659    4.11253E+006    4.30405E+006    4.30405E+006    6.31616E+005   -1.39439E+005    4.44348E+006   -1.59874E+006    3.94496E+006    6.46816E+005   -1.17453E+005    4.26686E+006    3.49762E+004    2.64358E+005   -2.85238E+005
            7660    4.25701E+006    4.53373E+006    4.53373E+006    8.91993E+005   -1.46427E+005    4.68015E+006   -1.75976E+006    3.95672E+006    9.05108E+005   -1.44374E+005    4.51856E+006    4.48496E+004    2.34336E+005   -1.53974E+004
            7661    3.92768E+006    4.33471E+006    4.33471E+006    1.02027E+006   -3.46709E+003    4.33818E+006   -1.78384E+006    3.60874E+006    1.02954E+006    4.36076E+003    4.31761E+006    3.90119E+004    1.82647E+005    1.71984E+005
            7662    4.88256E+006    4.98874E+006    4.98874E+006    7.96364E+005   -3.72022E+005    5.36076E+006   -1.80436E+006    4.55181E+006    7.98913E+005   -2.34783E+005    4.84895E+006    7.75542E+004    2.59030E+005   -8.08757E+005
            7663    4.73536E+006    4.52001E+006    4.52001E+006    6.79969E+005   -7.71100E+005    5.29111E+006   -1.47629E+006    4.18956E+006    6.78782E+005   -7.38750E+005    4.48884E+006    1.35930E+005    2.42521E+005   -2.97157E+005
            7664    4.08450E+006    4.00323E+006    4.00323E+006    7.08417E+005   -5.66731E+005    4.56996E+006   -1.38164E+006    3.59398E+006    7.08109E+005   -5.34534E+005    3.97134E+006    1.45817E+005    2.02757E+005    2.87615E+005
            7665    3.55263E+006    3.63234E+006    3.63234E+006    7.61294E+005   -3.40705E+005    3.97305E+006   -1.35098E+006    3.13200E+006    7.60906E+005   -2.39182E+005    3.53121E+006    1.36913E+005    1.58435E+005    5.90023E+005
            7666    4.11015E+006    3.56616E+006    3.56616E+006    5.94636E+005   -1.12442E+006    4.69058E+006   -1.01213E+006    3.13309E+006    5.95099E+005   -7.01822E+005    3.14310E+006    1.90222E+005    1.38490E+005    1.32267E+006
            7667    5.05031E+006    4.19230E+006    4.19230E+006    5.99904E+005   -1.58216E+006    5.77446E+006   -1.07002E+006    3.74573E+006    6.01052E+005   -1.37359E+006    3.98258E+006    2.07666E+005    1.91127E+005    1.04169E+006
            7668    5.98581E+006    4.96882E+006    4.96882E+006    6.95867E+005   -1.87259E+006    6.84141E+006   -1.26403E+006    4.46695E+006    6.97653E+005   -1.80847E+006    4.90292E+006    2.05349E+005    2.36350E+005    5.86522E+005
            7669    6.87432E+006    6.21718E+006    6.21718E+006    1.11281E+006   -1.59954E+006    7.81672E+006   -1.91015E+006    5.45935E+006    1.11642E+006   -1.58374E+006    6.19778E+006    1.82107E+005    2.94549E+005   -1.47114E+005
            7670    8.00400E+006    7.95846E+006    7.95846E+006    1.84374E+006   -1.10071E+006    9.05916E+006   -2.90050E+006    6.60934E+006    1.84886E+006   -1.02855E+006    7.88117E+006    1.64297E+005    3.42497E+005   -7.31539E+005
            7671    9.30700E+006    9.85531E+006    9.85531E+006    2.68284E+006   -6.61804E+005    1.05171E+007   -3.95878E+006    7.77116E+006    2.68849E+006   -4.90852E+005    9.67870E+006    1.59767E+005    3.85122E+005   -1.27845E+006
            7672    1.03962E+007    1.19906E+007    1.19906E+007    3.77384E+006    3.03017E+005    1.16876E+007   -5.35582E+006    8.94606E+006    3.78011E+006    5.70771E+005    1.17166E+007    1.52439E+005    4.27002E+005   -1.70351E+006
            7673    1.10907E+007    1.42873E+007    1.42873E+007    5.15550E+006    1.94572E+006    1.23416E+007   -7.12952E+006    9.96256E+006    5.16233E+006    2.33806E+006    1.38882E+007    1.27715E+005    4.57560E+005   -2.12653E+006
            7674    9.93647E+006    1.37059E+007    1.37059E+007    4.93947E+006    2.91212E+006    1.07938E+007   -7.18584E+006    9.45419E+006    4.94684E+006    2.98105E+006    1.36296E+007    5.75877E+004    3.10966E+005   -8.38591E+005
            7675    9.77631E+006    1.34498E+007    1.34498E+007    4.66235E+006    2.91919E+006    1.05306E+007   -7.01046E+006    9.41710E+006    4.66371E+006    2.92299E+006    1.34447E+007    4.76280E+003    1.10541E+005   -1.99260E+005
            7676    8.49074E+006    1.12245E+007    1.12245E+007    3.71378E+006    2.01168E+006    9.21286E+006   -5.65000E+006    8.09343E+006    3.72229E+006    2.10364E+006    1.11241E+007    4.70009E+004    3.05872E+005   -8.97802E+005
            7677    8.02426E+006    1.08885E+007    1.08885E+007    3.51695E+006    2.34120E+006    8.54727E+006   -5.58220E+006    7.82694E+006    3.51834E+006    2.35011E+006    1.08782E+007   -1.48579E+004    1.04756E+005   -2.74147E+005
            7678    7.30062E+006    9.04611E+006    9.04611E+006    2.60637E+006    1.11493E+006    7.93118E+006   -4.25580E+006    6.94535E+006    2.61598E+006    1.21062E+006    8.94081E+006    3.52550E+004    2.89836E+005   -8.51697E+005
            7679    6.33265E+006    8.43648E+006    8.43648E+006    2.43930E+006    1.81464E+006    6.62183E+006   -4.23014E+006    6.26278E+006    2.43845E+006    1.82383E+006    8.42814E+006   -4.21973E+004    9.68516E+004   -2.10872E+005
            7680    5.77401E+006    6.74822E+006    6.74822E+006    1.56669E+006    5.23854E+005    6.22436E+006   -2.94625E+006    5.55618E+006    1.57662E+006    6.11228E+005    6.65091E+006    1.77176E+004    2.53756E+005   -7.22500E+005
            7681    5.08215E+006    6.45126E+006    6.45126E+006    1.52769E+006    1.22413E+006    5.22712E+006   -3.06769E+006    5.06169E+006    1.51499E+006    1.25779E+006    6.43030E+006   -6.96559E+004    8.50046E+004   -3.16910E+005
            7682    4.13227E+006    4.77914E+006    4.77914E+006    7.26816E+005    5.71319E+005    4.20782E+006   -2.02576E+006    4.12568E+006    6.81138E+005    6.39842E+005    4.75630E+006   -7.70987E+004    7.50713E+004   -2.96648E+005
            7683    2.87641E+006    2.80159E+006    2.80159E+006    1.58315E+005   -2.61767E+005    3.06336E+006   -8.99379E+005    2.80615E+006   -2.57708E+005    1.63795E+005    2.79205E+006   -3.57217E+004    6.85993E+004   -1.44470E+005
            7684    4.58734E+006    5.02892E+006    5.02892E+006    7.69699E+005    1.72049E+005    4.85687E+006   -1.99022E+006    4.49850E+006    7.78393E+005    2.96482E+005    4.89579E+006   -1.01631E+004    2.02150E+005   -7.64053E+005
            7685    3.24322E+006    3.22859E+006    3.22859E+006    2.49524E+004   -5.28167E+004    3.28141E+006   -1.06691E+006    3.24112E+006   -4.22895E+004    6.02579E+004    3.18276E+006   -1.26659E+004    1.80346E+005   -3.36506E+005
            7686    3.38730E+006    2.98885E+006    2.98885E+006    5.34282E+005   -8.75701E+005    3.86455E+006   -8.82476E+005    2.59170E+006    5.32493E+005   -2.02966E+005    2.31790E+006   -1.78422E+005   -8.70696E+004    1.45074E+006
            7687    2.96795E+006    2.94174E+006    2.94174E+006    6.47207E+005   -4.10076E+005    3.35182E+006   -1.05962E+006    2.48799E+006    6.43829E+005   -8.55466E+004    2.62059E+006   -1.50502E+005   -1.00155E+005    9.71132E+005
            7688    3.01948E+006    3.19591E+006    3.19591E+006    7.33995E+005   -1.73143E+005    3.36906E+006   -1.25225E+006    2.68625E+006    7.31399E+005   -3.15186E+004    3.05688E+006   -1.18581E+005   -1.12123E+005    6.51476E+005
            7689    3.26772E+006    3.56462E+006    3.56462E+006    8.66000E+005   -6.85630E+004    3.63318E+006   -1.45402E+006    2.94377E+006    8.69409E+005   -2.72818E+004    3.51993E+006   -6.36939E+004   -1.22924E+005    3.71694E+005
            7690    3.60521E+006    3.99898E+006    3.99898E+006    1.01053E+006   -5.10934E+003    4.00409E+006   -1.66813E+006    3.25929E+006    1.01596E+006   -1.01575E+003    3.98945E+006   -2.73103E+004   -1.32650E+005    1.19204E+005
            7691    2.20678E+006    2.19961E+006    2.19961E+006    4.89226E+005   -2.91385E+005    2.49099E+006   -7.99149E+005    1.85566E+006    4.83681E+005    3.21598E+005    1.59217E+006   -1.40517E+005   -4.74997E+004    1.05975E+006
            7692    2.12910E+006    2.33025E+006    2.33025E+006    6.05274E+005   -4.92826E+004    2.37953E+006   -9.62079E+005    1.88193E+006    5.96069E+005    2.05943E+005    2.08422E+006   -1.20869E+005   -5.85011E+004    7.14515E+005
            7693    2.41859E+006    2.70362E+006    2.70362E+006    6.93998E+005    1.93358E+004    2.68429E+006   -1.13899E+006    2.19142E+006    6.85942E+005    1.24167E+005    2.60685E+006   -1.01236E+005   -6.51402E+004    4.90414E+005
            7694    2.79696E+006    3.12063E+006    3.12063E+006    8.06716E+005    1.24407E+004    3.10819E+006   -1.31326E+006    2.52390E+006    8.06558E+005    4.28298E+004    3.09040E+006   -5.25051E+004   -7.08358E+004    2.92226E+005
            7695    3.16363E+006    3.52479E+006    3.52479E+006    9.24787E+005    2.51384E+003    3.52228E+006   -1.48403E+006    2.83669E+006    9.26639E+005    5.74926E+003    3.51971E+006   -2.30599E+004   -7.70992E+004    9.85606E+004
            7696    9.62651E+005    1.33528E+006    1.33528E+006    4.88064E+005    2.88485E+005    1.04680E+006   -7.03943E+005    9.14349E+005    4.18858E+005    5.63430E+005    1.12954E+006   -1.14810E+005   -1.24276E+004    3.93049E+005
            7697    1.44396E+006    1.83155E+006    1.83155E+006    5.83860E+005    2.49856E+005    1.58170E+006   -8.88423E+005    1.35289E+006    5.51831E+005    3.26051E+005    1.78739E+006   -1.03775E+005   -1.63870E+004    2.55197E+005
            7698    2.00590E+006    2.36954E+006    2.36954E+006    6.63417E+005    1.59828E+005    2.20971E+006   -1.06426E+006    1.85551E+006    6.48399E+005    1.90114E+005    2.35427E+006   -8.89784E+004   -2.10791E+004    1.79587E+005
            7699    2.49748E+006    2.83475E+006    2.83475E+006    7.58418E+005    6.33576E+004    2.77139E+006   -1.21884E+006    2.26407E+006    7.55954E+005    7.05009E+004    2.83007E+006   -4.47964E+004   -2.36213E+004    1.09896E+005
            7700    2.87216E+006    3.21306E+006    3.21306E+006    8.57646E+005    1.33876E+004    3.19967E+006   -1.36136E+006    2.56995E+006    8.57448E+005    1.42812E+004    3.21236E+006   -2.01483E+004   -2.49582E+004    3.69257E+004
            7701    1.12036E+007    1.45873E+007    1.45873E+007    5.32948E+006    2.13268E+006    1.24546E+007   -7.34981E+006    1.00985E+007    5.33657E+006    2.52914E+006    1.41837E+007   -1.25585E+005    4.61732E+005    2.14809E+006
            7702    1.02186E+007    1.42669E+007    1.42669E+007    5.24424E+006    3.17044E+006    1.10965E+007   -7.56053E+006    9.72814E+006    5.25168E+006    3.23866E+006    1.41913E+007   -5.77434E+004    3.15255E+005    8.46285E+005
            7703    1.02943E+007    1.41854E+007    1.41854E+007    4.98678E+006    3.06604E+006    1.11194E+007   -7.41275E+006    9.87901E+006    4.98814E+006    3.07028E+006    1.41798E+007   -9.27946E+003    1.14626E+005    2.15314E+005
            7704    1.11044E+007    1.65232E+007    1.65232E+007    6.80424E+006    4.42054E+006    1.21027E+007   -9.24934E+006    1.05054E+007    6.81339E+006    4.80803E+006    1.61266E+007   -8.53030E+004    4.73507E+005    2.09603E+006
            7705    1.15151E+007    1.65999E+007    1.65999E+007    6.43393E+006    4.09469E+006    1.25052E+007   -9.04283E+006    1.09613E+007    6.44138E+006    4.13225E+006    1.65548E+007   -4.95652E+004    3.10762E+005    6.66827E+005
            7706    1.20635E+007    1.66731E+007    1.66731E+007    6.07073E+006    3.54761E+006    1.31255E+007   -8.76383E+006    1.14470E+007    6.07208E+006    3.54918E+006    1.66702E+007   -1.51860E+004    1.24536E+005    1.38744E+005
            7707    1.04832E+007    1.77272E+007    1.77272E+007    7.98698E+006    6.63262E+006    1.10945E+007   -1.07822E+007    1.02836E+007    8.00230E+006    6.79315E+006    1.75513E+007   -4.08303E+004    4.72592E+005    1.29491E+006
            7708    1.23959E+007    1.82471E+007    1.82471E+007    7.29342E+006    4.79083E+006    1.34562E+007   -1.01104E+007    1.18072E+007    7.30126E+006    4.80041E+006    1.82296E+007   -2.72240E+004    3.02882E+005    3.49317E+005
            7709    1.33659E+007    1.84694E+007    1.84694E+007    6.84199E+006    3.86648E+006    1.46029E+007   -9.72596E+006    1.25880E+007    6.84350E+006    3.86688E+006    1.84675E+007   -9.76250E+003    1.33988E+005    7.31804E+004
            7710    1.01081E+007    1.80609E+007    1.80609E+007    8.41233E+006    7.54858E+006    1.05123E+007   -1.13406E+007    1.00246E+007    8.43529E+006    7.54909E+006    1.80374E+007    2.48785E+003    4.70431E+005   -7.08356E+004
            7711    1.26821E+007    1.87632E+007    1.87632E+007    7.55871E+006    4.99519E+006    1.37680E+007   -1.04390E+007    1.20784E+007    7.56675E+006    4.99541E+006    1.87550E+007    3.27513E+003    3.00157E+005   -5.49459E+004
            7712    1.37634E+007    1.90091E+007    1.90091E+007    7.07021E+006    3.95510E+006    1.50540E+007   -1.00115E+007    1.29340E+007    7.07179E+006    3.95512E+006    1.90074E+007    1.90636E+003    1.37406E+005   -1.75332E+004
            7713    1.05290E+007    1.76170E+007    1.76170E+007    7.88182E+006    6.44236E+006    1.11747E+007   -1.06471E+007    1.03041E+007    7.89619E+006    6.62762E+006    1.74174E+007    4.57381E+004    4.72566E+005   -1.39550E+006
            7714    1.22733E+007    1.79629E+007    1.79629E+007    7.12930E+006    4.63355E+006    1.33294E+007   -9.90859E+006    1.16817E+007    7.13697E+006    4.64875E+006    1.79400E+007    3.28248E+004    3.02888E+005   -4.38724E+005
            7715    1.31008E+007    1.80875E+007    1.80875E+007    6.67173E+006    3.78367E+006    1.43038E+007   -9.51431E+006    1.23537E+007    6.67317E+006    3.78430E+006    1.80854E+007    1.26571E+004    1.31282E+005   -8.99147E+004
            7716    1.11082E+007    1.63120E+007    1.63120E+007    6.64313E+006    4.17849E+006    1.21335E+007   -9.04455E+006    1.04662E+007    6.65210E+006    4.56858E+006    1.59130E+007    8.89033E+004    4.72008E+005   -2.10558E+006
            7717    1.12665E+007    1.61034E+007    1.61034E+007    6.16552E+006    3.86384E+006    1.22396E+007   -8.71093E+006    1.07182E+007    6.17284E+006    3.90576E+006    1.60542E+007    5.10621E+004    3.08333E+005   -6.97154E+005
            7718    1.16144E+007    1.60235E+007    1.60235E+007    5.78006E+006    3.40519E+006    1.26183E+007   -8.40292E+006    1.10482E+007    5.78138E+006    3.40737E+006    1.60200E+007    1.51367E+004    1.21607E+005   -1.61236E+005
            7719    3.61183E+006    4.00500E+006    4.00500E+006    1.01161E+006   -6.65609E+003    4.01166E+006   -1.66998E+006    3.26472E+006    1.01707E+006   -2.58779E+003    3.99547E+006   -2.73166E+004    1.33110E+005   -1.18907E+005
            7720    3.26740E+006    3.56395E+006    3.56395E+006    8.65629E+005   -6.88953E+004    3.63284E+006   -1.45356E+006    2.94344E+006    8.69014E+005   -2.72216E+004    3.51889E+006   -6.40319E+004    1.22918E+005   -3.73400E+005
            7721    3.01741E+006    3.19126E+006    3.19126E+006    7.32329E+005   -1.75956E+005    3.36722E+006   -1.24921E+006    2.68298E+006    7.29683E+005   -3.26279E+004    3.05058E+006   -1.19110E+005    1.11958E+005   -6.55147E+005
            7722    2.96446E+006    2.93555E+006    2.93555E+006    6.44973E+005   -4.12676E+005    3.34823E+006   -1.05595E+006    2.48338E+006    6.41573E+005   -8.34389E+004    2.60971E+006   -1.50731E+005    9.95182E+004   -9.77068E+005
            7723    3.38652E+006    2.98752E+006    2.98752E+006    5.33865E+005   -8.76193E+005    3.86372E+006   -8.81732E+005    2.59053E+006    5.32053E+005   -2.01312E+005    2.31445E+006   -1.78360E+005    8.67072E+004   -1.45242E+006
            7724    3.16499E+006    3.52779E+006    3.52779E+006    9.26193E+005    4.17116E+003    3.52362E+006   -1.48605E+006    2.83841E+006    9.28061E+005    7.36220E+003    3.52274E+006   -2.28337E+004    7.72433E+004   -9.79573E+004
            7725    2.80212E+006    3.12651E+006    3.12651E+006    8.08469E+005    1.25252E+004    3.11398E+006   -1.31583E+006    2.52841E+006    8.08375E+005    4.24695E+004    3.09666E+006   -5.19605E+004    7.10038E+004   -2.90505E+005
            7726    2.42087E+006    2.70638E+006    2.70638E+006    6.94990E+005    1.95031E+004    2.68687E+006   -1.14029E+006    2.19335E+006    6.87033E+005    1.24342E+005    2.60949E+006   -1.00923E+005    6.52072E+004   -4.90943E+005
            7727    2.12336E+006    2.32248E+006    2.32248E+006    6.02300E+005   -5.06739E+004    2.37316E+006   -9.58037E+005    1.87670E+006    5.93048E+005    2.07485E+005    2.07358E+006   -1.21105E+005    5.81951E+004   -7.17176E+005
            7728    2.21025E+006    2.19800E+006    2.19800E+006    4.86398E+005   -2.97314E+005    2.49532E+006   -7.95695E+005    1.85663E+006    4.80964E+005    3.21197E+005    1.58492E+006   -1.40880E+005    4.76394E+004   -1.06430E+006
            7729    2.87447E+006    3.21369E+006    3.21369E+006    8.56999E+005    1.12219E+004    3.20247E+006   -1.36064E+006    2.57136E+006    8.56809E+005    1.21160E+004    3.21299E+006   -2.00872E+004    2.51520E+004   -3.71261E+004
            7730    2.50135E+006    2.83824E+006    2.83824E+006    7.59174E+005    6.23783E+004    2.77587E+006   -1.21993E+006    2.26710E+006    7.56737E+005    6.94932E+004    2.83357E+006   -4.46507E+004    2.36792E+004   -1.09950E+005
            7731    2.00498E+006    2.36887E+006    2.36887E+006    6.63295E+005    1.60267E+005    2.20860E+006   -1.06414E+006    1.85487E+006    6.48273E+005    1.90373E+005    2.35378E+006   -8.89171E+004    2.10501E+004   -1.78443E+005
            7732    1.43892E+006    1.83002E+006    1.83002E+006    5.85537E+005    2.54389E+005    1.57563E+006   -8.89981E+005    1.34914E+006    5.53242E+005    3.30009E+005    1.78669E+006   -1.03578E+005    1.62823E+004   -2.52284E+005
            7733    9.66348E+005    1.34056E+006    1.34056E+006    4.89955E+005    2.89818E+005    1.05075E+006   -7.06779E+005    9.17965E+005    4.21275E+005    5.65053E+005    1.13401E+006   -1.14904E+005    1.24853E+004   -3.94785E+005
            7734    8.75485E+006    8.41113E+006    8.41113E+006    1.93060E+006   -1.54846E+006    9.95960E+006   -2.93109E+006    6.92131E+006    1.93631E+006   -1.50741E+006    8.36437E+006   -1.86545E+005    3.50303E+005    5.35199E+005
            7735    7.85316E+006    6.73836E+006    6.73836E+006    1.19271E+006   -2.24787E+006    8.98623E+006   -1.89440E+006    5.74962E+006    1.19583E+006   -2.23112E+006    6.71850E+006   -2.17445E+005    2.94505E+005   -1.82753E+005
            7736    6.83410E+006    5.53676E+006    5.53676E+006    8.14508E+005   -2.29978E+006    7.83654E+006   -1.35050E+006    4.79970E+006    8.16345E+005   -2.20708E+006    5.44222E+006   -2.31903E+005    2.47963E+005   -7.81737E+005
            7737    5.67336E+006    4.52494E+006    4.52494E+006    6.16114E+005   -1.98226E+006    6.50720E+006   -1.05293E+006    3.96095E+006    6.16503E+005   -1.70774E+006    4.25003E+006   -2.29463E+005    1.90170E+005   -1.27421E+006
            7738    4.50657E+006    3.70359E+006    3.70359E+006    5.47916E+005   -1.45761E+006    5.16120E+006   -9.31301E+005    3.24839E+006    5.47900E+005   -9.61035E+005    3.20704E+006   -2.11579E+005    1.40439E+005   -1.50059E+006
            7739    3.79333E+006    3.51937E+006    3.51937E+006    6.59678E+005   -7.83793E+005    4.30316E+006   -1.13175E+006    3.07752E+006    6.58606E+005   -5.41656E+005    3.27831E+006   -1.79494E+005    1.51658E+005   -9.61925E+005
            7740    3.62027E+006    3.65248E+006    3.65248E+006    7.32443E+005   -3.98173E+005    4.05065E+006   -1.32892E+006    3.18516E+006    7.32037E+005   -3.04027E+005    3.55874E+006   -1.36501E+005    1.59625E+005   -5.72038E+005
            7741    3.68229E+006    3.92842E+006    3.92842E+006    8.64810E+005   -1.56809E+005    4.08523E+006   -1.54548E+006    3.34045E+006    8.70857E+005   -1.32663E+005    3.89823E+006   -7.88476E+004    1.73156E+005   -2.83200E+005
            7742    4.01550E+006    4.41298E+006    4.41298E+006    1.03117E+006   -2.50551E+004    4.43804E+006   -1.80637E+006    3.68301E+006    1.04120E+006   -2.28631E+004    4.40076E+006   -3.15707E+004    1.90120E+005   -7.99375E+004
            7743    4.62954E+006    4.12844E+006    4.12844E+006    6.79189E+005   -1.13308E+006    5.26153E+006   -1.22485E+006    3.69466E+006    6.77046E+005   -1.03633E+006    4.03383E+006   -1.99124E+005    1.99994E+005   -6.42565E+005
            7744    4.17149E+006    4.07030E+006    4.07030E+006    7.08230E+005   -5.97988E+005    4.66829E+006   -1.39352E+006    3.66719E+006    7.07953E+005   -5.71433E+005    4.04403E+006   -1.43177E+005    2.03246E+005   -2.46016E+005
            7745    4.02326E+006    4.17387E+006    4.17387E+006    7.88155E+005   -2.73850E+005    4.44772E+006   -1.56273E+006    3.68761E+006    7.94903E+005   -2.66691E+005    4.15997E+006   -8.74219E+004    2.16259E+005   -1.15893E+004
            7746    4.18174E+006    4.52743E+006    4.52743E+006    9.11970E+005   -5.21668E+004    4.57960E+006   -1.79575E+006    3.91979E+006    9.26357E+005   -5.05551E+004    4.51144E+006   -3.25646E+004    2.37557E+005    4.08693E+004
            7747    5.47157E+006    4.87695E+006    4.87695E+006    7.76972E+005   -1.33605E+006    6.21300E+006   -1.43929E+006    4.40211E+006    7.76173E+005   -1.31454E+006    4.85624E+006   -1.95890E+005    2.52355E+005   -1.66917E+005
            7748    4.74690E+006    4.56548E+006    4.56548E+006    7.14415E+005   -7.37926E+005    5.30340E+006   -1.51399E+006    4.20164E+006    7.14759E+005   -7.13684E+005    4.54089E+006   -1.29950E+005    2.38340E+005    2.35796E+005
            7749    4.21981E+006    4.31503E+006    4.31503E+006    6.83043E+005   -3.14016E+005    4.62905E+006   -1.56135E+006    3.94149E+006    6.88479E+005   -2.72409E+005    4.26799E+006   -7.93062E+004    2.43496E+005    3.80495E+005
            7750    4.04518E+006    4.30436E+006    4.30436E+006    6.65987E+005   -5.15938E+004    4.35596E+006   -1.63959E+006    3.89811E+006    6.83119E+005   -4.23674E+004    4.27800E+006   -2.63102E+004    2.63931E+005    1.77851E+005
            7751    6.26099E+006    5.85235E+006    5.85235E+006    1.03406E+006   -1.22455E+006    7.07690E+006   -1.88729E+006    5.21862E+006    1.03500E+006   -1.18478E+006    5.81165E+006   -1.73048E+005    2.96461E+005    4.08012E+005
            7752    5.06204E+006    5.08302E+006    5.08302E+006    8.28493E+005   -5.15329E+005    5.59835E+006   -1.79873E+006    4.63457E+006    8.31988E+005   -4.10269E+005    4.97447E+006   -8.65707E+004    2.58949E+005    7.19071E+005
            7753    4.25313E+006    4.36189E+006    4.36189E+006    5.73495E+005   -2.38807E+005    4.60070E+006   -1.56553E+006    4.07308E+006    5.78897E+005   -1.32953E+005    4.25063E+006   -5.12337E+004    2.45478E+005    6.57858E+005
            7754    3.72165E+006    3.85991E+006    3.85991E+006    3.43825E+005   -3.78774E+004    3.89779E+006   -1.38862E+006    3.67723E+006    3.60394E+005   -1.61703E+004    3.82164E+006   -1.23633E+004    2.59563E+005    2.72461E+005
            7755    6.51828E+006    6.92516E+006    6.92516E+006    1.55100E+006   -3.25563E+005    7.25072E+006   -2.71686E+006    5.86277E+006    1.55693E+006   -2.13827E+005    6.80749E+006   -1.08575E+005    3.19212E+005    8.45674E+005
            7756    4.99973E+006    5.40225E+006    5.40225E+006    9.51437E+005   -7.49224E+003    5.40975E+006   -2.11540E+006    4.78623E+006    9.59719E+005    1.34657E+005    5.25182E+006   -2.40339E+004    2.41043E+005    8.51895E+005
            7757    4.18393E+006    4.37177E+006    4.37177E+006    4.85216E+005   -5.67279E+004    4.42849E+006   -1.60008E+006    4.10385E+006    4.93119E+005    6.79651E+004    4.23917E+006   -8.40913E+003    2.15431E+005    7.20999E+005
            7758    3.31808E+006    3.33748E+006    3.33748E+006    3.35383E+004    5.45126E+003    3.33203E+006   -1.12549E+006    3.31781E+006    4.07270E+004    3.86263E+004    3.29712E+006    7.00347E+003    2.19457E+005    2.91016E+005
            7759    2.97335E+006    2.87841E+006    2.87841E+006    5.47294E+004   -2.24856E+005    3.10327E+006   -9.02762E+005    2.94356E+006   -2.17219E+005    7.22033E+004    2.85330E+006    2.23368E+004    1.48477E+005    2.23604E+005
            7760    2.76090E+006    2.59286E+006    2.59286E+006    9.33117E+004   -3.70609E+005    2.96347E+006   -7.71855E+005    2.67109E+006   -3.67759E+005    9.42933E+004    2.58903E+006    3.11153E+004    5.31763E+004    8.42141E+004
            7761    3.97878E+006    4.28161E+006    4.28161E+006    4.12247E+005    2.01754E+005    4.07985E+006   -1.63187E+006    3.96623E+006    4.16518E+005    2.83342E+005    4.19575E+006    4.04452E+004    1.48617E+005    5.64491E+005
            7762    3.75028E+006    4.13764E+006    4.13764E+006    4.64201E+005    3.14972E+005    3.82267E+006   -1.63894E+006    3.74359E+006    3.62759E+005    4.29436E+005    4.12462E+006    7.23919E+004    5.17802E+004    2.12633E+005
            7763    4.80738E+006    5.54024E+006    5.54024E+006    1.01957E+006    4.90002E+005    5.05024E+006   -2.34994E+006    4.74109E+006    1.02675E+006    5.81599E+005    5.44147E+006    3.21203E+004    1.78636E+005    6.73027E+005
            7764    4.56692E+006    5.56452E+006    5.56452E+006    1.10485E+006    8.97430E+005    4.66709E+006   -2.52227E+006    4.55630E+006    1.07683E+006    9.42087E+005    5.54789E+006    7.63544E+004    6.99113E+004    2.66859E+005
            7765    6.09995E+006    7.33095E+006    7.33095E+006    1.83764E+006    7.66306E+005    6.56464E+006   -3.31163E+006    5.88267E+006    1.84717E+006    8.62698E+005    7.22503E+006   -1.25313E+004    2.51473E+005    7.81942E+005
            7766    5.53027E+006    7.20431E+006    7.20431E+006    1.88524E+006    1.48462E+006    5.71969E+006   -3.52472E+006    5.49748E+006    1.87845E+006    1.50954E+006    7.18618E+006    6.26209E+004    9.11925E+004    3.06040E+005
            7767    6.70736E+006    9.06287E+006    9.06287E+006    2.74403E+006    2.02494E+006    7.03794E+006   -4.61061E+006    6.61981E+006    2.74454E+006    2.03620E+006    9.05110E+006    3.34363E+004    1.03113E+005    2.65677E+005
            7768    8.39528E+006    1.15060E+007    1.15060E+007    3.81960E+006    2.54710E+006    8.95888E+006   -5.95756E+006    8.17408E+006    3.82112E+006    2.55241E+006    1.14991E+007    7.59892E+003    1.08679E+005    2.17676E+005
            7769    7.50068E+006    9.40117E+006    9.40117E+006    2.79927E+006    1.24517E+006    8.15599E+006   -4.48187E+006    7.12481E+006    2.80865E+006    1.33630E+006    9.30066E+006   -4.64962E+004    3.01937E+005    8.38204E+005
            7770    8.90698E+006    1.18418E+007    1.18418E+007    3.99850E+006    2.15857E+006    9.68325E+006   -5.99963E+006    8.46341E+006    4.00669E+006    2.24880E+006    1.17434E+007   -5.59085E+004    3.15344E+005    9.09061E+005
            7771    1.05903E+007    1.23410E+007    1.23410E+007    3.95074E+006    4.41470E+005    1.18995E+007   -5.57773E+006    9.13776E+006    3.95685E+006    7.28197E+005    1.20481E+007   -1.53012E+005    4.33021E+005    1.77996E+006
            7772    9.65815E+006    1.02312E+007    1.02312E+007    2.81173E+006   -6.89200E+005    1.09204E+007   -4.11791E+006    8.03213E+006    2.81779E+006   -5.41738E+005    1.00777E+007   -1.70116E+005    3.97205E+005    1.20245E+006
            7773    6.85114E+006    6.18917E+006    6.18917E+006    1.06626E+006   -1.59291E+006    7.78209E+006   -1.88751E+006    5.49572E+006    1.07002E+006   -1.56389E+006    6.15640E+006    2.62777E+005   -4.02443E+005    1.14433E+005
            7774    5.96477E+006    4.94302E+006    4.94302E+006    6.73447E+005   -1.87221E+006    6.81523E+006   -1.24809E+006    4.47209E+006    6.71269E+005   -1.78864E+006    4.86163E+006    3.01847E+005   -3.14696E+005   -6.02758E+005
            7775    5.04819E+006    4.17999E+006    4.17999E+006    5.81382E+005   -1.59068E+006    5.77067E+006   -1.05690E+006    3.75818E+006    5.77127E+005   -1.36303E+006    3.95660E+006    3.06663E+005   -2.52007E+005   -1.04401E+006
            7776    4.12003E+006    3.54945E+006    3.54945E+006    5.71489E+005   -1.15254E+006    4.70199E+006   -9.89468E+005    3.13941E+006    5.67072E+005   -7.14985E+005    3.11632E+006    2.86317E+005   -1.87275E+005   -1.31819E+006
            7777    3.54720E+006    3.62989E+006    3.62989E+006    7.28684E+005   -3.24691E+005    3.95458E+006   -1.34463E+006    3.16556E+006    7.30340E+005   -2.17355E+005    3.52090E+006    1.56528E+005   -1.96906E+005   -5.95229E+005
            7778    3.93681E+006    4.28427E+006    4.28427E+006    9.59880E+005   -6.30289E+004    4.34730E+006   -1.72704E+006    3.61926E+006    9.73153E+005   -5.36649E+004    4.26163E+006    6.60505E+004   -2.31228E+005   -1.63138E+005
            7779    4.07919E+006    4.00963E+006    4.00963E+006    6.78010E+005   -5.39751E+005    4.54938E+006   -1.38263E+006    3.63521E+006    6.78304E+005   -5.00109E+005    3.96969E+006    1.72363E+005   -2.49725E+005   -2.96091E+005
            7780    4.25598E+006    4.47836E+006    4.47836E+006    8.23125E+005   -1.94043E+005    4.67240E+006   -1.70248E+006    3.96843E+006    8.42035E+005   -1.88703E+005    4.45411E+006    7.17871E+004   -2.96678E+005    2.03220E+004
            7781    4.71307E+006    4.51612E+006    4.51612E+006    6.44980E+005   -7.32115E+005    5.24823E+006   -1.47633E+006    4.22359E+006    6.45396E+005   -6.95887E+005    4.47947E+006    1.60745E+005   -3.08230E+005    2.63770E+005
            7782    4.11918E+006    4.26064E+006    4.26064E+006    5.62802E+005   -1.79064E+005    4.43970E+006   -1.54813E+006    3.96468E+006    5.84476E+005   -1.54181E+005    4.21409E+006    5.43663E+004   -3.32169E+005    2.75129E+005
            7783    4.86103E+006    4.97331E+006    4.97331E+006    7.30338E+005   -3.30558E+005    5.30387E+006   -1.79103E+006    4.58959E+006    7.38448E+005   -2.02389E+005    4.83703E+006    8.18028E+004   -3.35405E+005    7.59923E+005
            7784    3.69530E+006    3.77071E+006    3.77071E+006    2.31540E+005   -6.30761E+004    3.83379E+006   -1.31306E+006    3.66873E+006    2.50769E+005   -2.03564E+004    3.70876E+006    1.68422E+004   -3.09814E+005    3.64076E+005
            7785    3.29000E+006    3.24403E+006    3.24403E+006    2.14056E+004   -1.09439E+005    3.35347E+006   -1.05200E+006    3.28413E+006   -9.38366E+004    5.33327E+004    3.19650E+006   -2.29279E+004   -2.27048E+005    3.18390E+005
            7786    2.93451E+006    2.82687E+006    2.82687E+006    1.58588E+005   -3.16021E+005    3.14289E+006   -8.89812E+005    2.84624E+006   -3.07712E+005    1.59914E+005    2.81723E+006   -5.68336E+004   -8.51325E+004    1.38184E+005
            7787    4.59642E+006    5.00490E+006    5.00490E+006    6.69123E+005    1.86000E+005    4.81890E+006   -1.95334E+006    4.53877E+006    6.85343E+005    2.96418E+005    4.87826E+006   -2.97616E+004   -2.65187E+005    7.19004E+005
            7788    4.18616E+006    4.76316E+006    4.76316E+006    7.01508E+005    4.62730E+005    4.30043E+006   -1.97580E+006    4.17079E+006    5.63663E+005    6.22230E+005    4.74151E+006   -1.24637E+005   -1.01929E+005    2.78679E+005
            7789    5.15319E+006    6.41451E+006    6.41451E+006    1.38962E+006    1.14196E+006    5.27255E+006   -2.98203E+006    5.13977E+006    1.32419E+006    1.22846E+006    6.39343E+006   -1.18644E+005   -1.27329E+005    3.01572E+005
            7790    6.40921E+006    8.37214E+006    8.37214E+006    2.18900E+006    1.75856E+006    6.61358E+006   -4.10657E+006    6.37656E+006    2.17931E+006    1.77802E+006    8.36237E+006   -7.92392E+004   -1.48537E+005    2.00356E+005
            7791    8.12490E+006    1.08402E+007    1.08402E+007    3.22353E+006    2.28797E+006    8.55218E+006   -5.45055E+006    8.00237E+006    3.22549E+006    2.29804E+006    1.08281E+007   -3.91347E+004   -1.55020E+005    2.74586E+005
            7792    9.88783E+006    1.34146E+007    1.34146E+007    4.35543E+006    2.86692E+006    1.05477E+007   -6.87899E+006    9.63092E+006    4.35780E+006    2.87121E+006    1.34080E+007   -5.09734E+003   -1.46719E+005    2.12472E+005
            7793    5.78840E+006    6.70410E+006    6.70410E+006    1.41498E+006    5.20537E+005    6.18356E+006   -2.87987E+006    5.62977E+006    1.43471E+006    5.97176E+005    6.60772E+006    5.37944E+003   -3.41525E+005    6.73675E+005
            7794    7.31758E+006    8.99346E+006    8.99346E+006    2.40675E+006    1.11660E+006    7.87686E+006   -4.17227E+006    7.05487E+006    2.42792E+006    1.20335E+006    8.88553E+006    1.91439E+004   -4.01126E+005    8.07305E+005
            7795    8.51879E+006    1.11557E+007    1.11557E+007    3.46056E+006    2.00169E+006    9.15401E+006   -5.53931E+006    8.23068E+006    3.48043E+006    2.08518E+006    1.10523E+007    3.64547E+004   -4.33714E+005    8.47802E+005
            7796    9.99286E+006    1.36242E+007    1.36242E+007    4.62784E+006    2.86854E+006    1.07557E+007   -7.04020E+006    9.63515E+006    4.64734E+006    2.92975E+006    1.35435E+007    4.56478E+004   -4.59609E+005    7.84325E+005
            7797    1.10402E+007    1.41910E+007    1.41910E+007    5.03158E+006    1.93237E+006    1.22586E+007   -7.05164E+006    9.98896E+006    5.04148E+006    2.33393E+006    1.37795E+007    2.04661E+005   -6.71630E+005    2.08685E+006
            7798    1.03253E+007    1.18811E+007    1.18811E+007    3.63884E+006    2.99432E+005    1.15817E+007   -5.27313E+006    8.98403E+006    3.64882E+006    5.71976E+005    1.15986E+007    2.28991E+005   -6.12988E+005    1.65332E+006
            7799    9.23174E+006    9.77694E+006    9.77694E+006    2.57408E+006   -6.29936E+005    1.04069E+007   -3.90703E+006    7.82555E+006    2.58545E+006   -4.55116E+005    9.59076E+006    2.21290E+005   -5.45147E+005    1.23385E+006
            7800    7.95985E+006    7.91911E+006    7.91911E+006    1.76771E+006   -1.07094E+006    8.99005E+006   -2.87196E+006    6.66941E+006    1.77904E+006   -9.93648E+005    7.83049E+006    2.17821E+005   -4.76512E+005    6.94998E+005
            7801    3.49331E+006    3.82291E+006    3.82291E+006    9.21857E+005   -5.47809E+004    3.87769E+006   -1.56333E+006    3.16360E+006    9.28650E+005   -4.30803E+004    3.80441E+006    5.67765E+004   -1.60888E+005   -1.88964E+005
            7802    3.00204E+006    3.20880E+006    3.20880E+006    7.34380E+005   -1.30829E+005    3.33963E+006   -1.27078E+006    2.69942E+006    7.32465E+005    1.69824E+004    3.06290E+006    1.31312E+005   -1.34304E+005   -6.57304E+005
            7803    3.18748E+006    2.94234E+006    2.94234E+006    5.72008E+005   -6.81297E+005    3.62364E+006   -9.44352E+005    2.53688E+006    5.64214E+005   -1.17064E+005    2.38591E+006    2.46569E+005   -1.22714E+005   -1.27915E+006
            7804    3.01837E+006    3.35041E+006    3.35041E+006    8.52902E+005   -3.66788E+003    3.35408E+006   -1.39988E+006    2.72414E+006    8.54364E+005    5.12390E+003    3.34016E+006    4.66474E+004   -9.24057E+004   -1.49440E+005
            7805    2.40771E+006    2.70600E+006    2.70600E+006    6.83825E+005    4.25916E+004    2.66341E+006   -1.14414E+006    2.20298E+006    6.74946E+005    1.34799E+005    2.62267E+006    1.08446E+005   -8.13960E+004   -4.48869E+005
            7806    2.18217E+006    2.25070E+006    2.25070E+006    5.40420E+005   -2.06960E+005    2.45766E+006   -8.61387E+005    1.85967E+006    5.22746E+005    3.00122E+005    1.76129E+006    1.99726E+005   -6.79905E+004   -9.60737E+005
            7807    2.74086E+006    3.05166E+006    3.05166E+006    7.89608E+005    3.70037E+003    3.04796E+006   -1.28166E+006    2.46762E+006    7.87956E+005    6.59756E+003    3.05042E+006    4.08575E+004   -3.03589E+004   -4.99640E+004
            7808    2.04165E+006    2.39487E+006    2.39487E+006    6.51943E+005    1.48635E+005    2.24623E+006   -1.06515E+006    1.89438E+006    6.34057E+005    1.79248E+005    2.38214E+006    9.66374E+004   -2.42573E+004   -1.64171E+005
            7809    1.10685E+006    1.47397E+006    1.47397E+006    5.61420E+005    2.42730E+005    1.23124E+006   -7.59372E+005    9.95515E+005    4.55862E+005    4.73732E+005    1.34852E+006    1.68029E+005   -1.98561E+004   -3.45460E+005
            7810    1.03440E+007    1.40616E+007    1.40616E+007    4.63919E+006    2.99336E+006    1.10683E+007   -7.23139E+006    1.00431E+007    4.64158E+006    2.99815E+006    1.40545E+007   -2.28888E+003   -1.50792E+005   -2.29714E+005
            7811    1.02683E+007    1.41515E+007    1.41515E+007    4.90341E+006    3.10141E+006    1.10501E+007   -7.38543E+006    9.90318E+006    4.92301E+006    3.16515E+006    1.40681E+007   -4.96538E+004   -4.70928E+005   -8.09650E+005
            7812    1.11532E+007    1.44977E+007    1.44977E+007    5.21187E+006    2.12665E+006    1.23711E+007   -7.27875E+006    1.01244E+007    5.22180E+006    2.53153E+006    1.40829E+007   -2.05276E+005   -6.80667E+005   -2.10418E+006
            7813    1.20980E+007    1.65328E+007    1.65328E+007    5.71930E+006    3.46689E+006    1.30659E+007   -8.57300E+006    1.16121E+007    5.72074E+006    3.46901E+006    1.65293E+007   -1.61672E+004   -1.30996E+005   -1.60941E+005
            7814    1.16039E+007    1.65014E+007    1.65014E+007    6.04512E+006    4.01721E+006    1.24842E+007   -8.85458E+006    1.11948E+007    6.06527E+006    4.05119E+006    1.64473E+007   -4.14577E+004   -4.85073E+005   -6.29065E+005
            7815    1.10784E+007    1.64205E+007    1.64205E+007    6.68379E+006    4.36691E+006    1.20536E+007   -9.15707E+006    1.05124E+007    6.69800E+006    4.76578E+006    1.60074E+007   -1.52711E+005   -7.15683E+005   -2.06052E+006
            7816    1.33973E+007    1.83328E+007    1.83328E+007    6.50167E+006    3.78543E+006    1.45473E+007   -9.53995E+006    1.27556E+007    6.50270E+006    3.78602E+006    1.83311E+007   -1.27550E+004   -1.13839E+005   -8.68281E+004
            7817    1.25381E+007    1.81780E+007    1.81780E+007    6.86879E+006    4.69535E+006    1.34827E+007   -9.91406E+006    1.21033E+007    6.88985E+006    4.70367E+006    1.81487E+007   -2.15304E+004   -4.94125E+005   -3.24045E+005
            7818    1.04694E+007    1.76103E+007    1.76103E+007    7.86066E+006    6.54544E+006    1.10648E+007   -1.06721E+007    1.02810E+007    7.89248E+006    6.71849E+006    1.74054E+007   -7.95594E+004   -7.30121E+005   -1.28414E+006
            7819    1.38037E+007    1.88866E+007    1.88866E+007    6.74058E+006    3.87499E+006    1.50116E+007   -9.83406E+006    1.31092E+007    6.74151E+006    3.87501E+006    1.88857E+007    2.10739E+003   -1.06441E+005    1.75007E+004
            7820    1.28520E+007    1.87121E+007    1.87121E+007    7.12181E+006    4.89049E+006    1.38216E+007   -1.02415E+007    1.24050E+007    7.14310E+006    4.89074E+006    1.86905E+007    3.21044E+003   -4.96506E+005    5.77015E+004
            7821    1.01038E+007    1.79727E+007    1.79727E+007    8.29213E+006    7.49311E+006    1.04796E+007   -1.12527E+007    1.00324E+007    8.34795E+006    7.49340E+006    1.79166E+007    3.06488E+003   -7.33309E+005    4.97777E+004
            7822    1.31689E+007    1.80012E+007    1.80012E+007    6.35153E+006    3.71267E+006    1.42885E+007   -9.35514E+006    1.25532E+007    6.35256E+006    3.71348E+006    1.79994E+007    1.53017E+004   -1.15062E+005    1.01300E+005
            7823    1.24292E+007    1.79039E+007    1.79039E+007    6.71128E+006    4.52761E+006    1.33763E+007   -9.71427E+006    1.19862E+007    6.73189E+006    4.54132E+006    1.78696E+007    2.88168E+004   -4.91181E+005    4.13705E+005
            7824    1.04961E+007    1.75236E+007    1.75236E+007    7.78152E+006    6.40861E+006    1.11150E+007   -1.05712E+007    1.02912E+007    7.81127E+006    6.59939E+006    1.73031E+007    8.51118E+004   -7.27633E+005    1.35301E+006
            7825    1.17108E+007    1.59741E+007    1.59741E+007    5.46848E+006    3.34792E+006    1.26262E+007   -8.26351E+006    1.12667E+007    5.47000E+006    3.35057E+006    1.59700E+007    1.43966E+004   -1.31656E+005    1.78319E+005
            7826    1.13704E+007    1.60176E+007    1.60176E+007    5.78190E+006    3.77864E+006    1.22389E+007   -8.52604E+006    1.09628E+007    5.80160E+006    3.81503E+006    1.59615E+007    4.33156E+004   -4.77483E+005    6.44082E+005
            7827    1.10691E+007    1.62279E+007    1.62279E+007    6.54008E+006    4.16363E+006    1.20643E+007   -8.97721E+006    1.04718E+007    6.55375E+006    4.56559E+006    1.58123E+007    1.56787E+005   -7.11096E+005    2.06986E+006
            7828    3.18580E+006    2.94155E+006    2.94155E+006    5.72177E+005   -6.80125E+005    3.62167E+006   -9.44533E+005    2.53598E+006    5.64421E+005   -1.13749E+005    2.38293E+006    2.46394E+005    1.22443E+005    1.28090E+006
            7829    2.99986E+006    3.20726E+006    3.20726E+006    7.34360E+005   -1.29851E+005    3.33711E+006   -1.27059E+006    2.69774E+006    7.32451E+005    1.58437E+004    3.06347E+006    1.30573E+005    1.33926E+005    6.52334E+005
            7830    3.48593E+006    3.81420E+006    3.81420E+006    9.20105E+005   -5.56330E+004    3.86983E+006   -1.55956E+006    3.15608E+006    9.26789E+005   -4.40433E+004    3.79593E+006    5.67243E+004    1.59806E+005    1.87574E+005
            7831    2.17274E+006    2.24328E+006    2.24328E+006    5.39250E+005   -2.03419E+005    2.44670E+006   -8.59703E+005    1.85308E+006    5.21511E+005    3.02141E+005    1.75546E+006    1.99219E+005    6.77392E+004    9.56823E+005
            7832    2.41416E+006    2.71151E+006    2.71151E+006    6.84860E+005    4.05686E+004    2.67094E+006   -1.14565E+006    2.20797E+006    6.76053E+005    1.32000E+005    2.62889E+006    1.08283E+005    8.14507E+004    4.47624E+005
            7833    3.01462E+006    3.34639E+006    3.34639E+006    8.52177E+005   -3.60737E+003    3.35000E+006   -1.39832E+006    2.72055E+006    8.53603E+005    5.12751E+003    3.33623E+006    4.64919E+004    9.17680E+004    1.48819E+005
            7834    1.09329E+006    1.46441E+006    1.46441E+006    5.64208E+005    2.47826E+005    1.21659E+006   -7.58816E+005    9.82098E+005    4.55453E+005    4.76721E+005    1.34428E+006    1.67719E+005    1.97796E+004    3.35739E+005
            7835    2.04760E+006    2.40025E+006    2.40025E+006    6.52934E+005    1.47150E+005    2.25310E+006   -1.06678E+006    1.89927E+006    6.35192E+005    1.78446E+005    2.38669E+006    9.66480E+004    2.44832E+004    1.69806E+005
            7836    2.74047E+006    3.05097E+006    3.05097E+006    7.89365E+005    3.39150E+003    3.04758E+006   -1.28124E+006    2.46713E+006    7.87708E+005    6.28998E+003    3.04973E+006    4.08904E+004    3.02916E+004    4.98970E+004
            7837    3.34990E+006    3.31472E+006    3.31472E+006   -2.08834E+004   -4.92981E+004    3.36402E+006   -1.08151E+006    3.34963E+006   -1.52742E+004   -7.71194E+003    3.26752E+006    9.54669E+003   -2.71382E+005   -2.87877E+005
            7838    3.74266E+006    3.82421E+006    3.82421E+006    2.71920E+005   -8.34720E+004    3.90768E+006   -1.33755E+006    3.70441E+006    2.97005E+005   -6.02415E+004    3.77589E+006   -1.48317E+004   -3.21967E+005   -2.72496E+005
            7839    4.04569E+006    4.26649E+006    4.26649E+006    5.95243E+005   -7.09385E+004    4.33743E+006   -1.59693E+006    3.91943E+006    6.21546E+005   -6.08475E+004    4.23010E+006   -3.18055E+004   -3.28589E+005   -1.74046E+005
            7840    4.17199E+006    4.48771E+006    4.48771E+006    8.46877E+005   -6.47006E+004    4.55241E+006   -1.75663E+006    3.93846E+006    8.69167E+005   -6.25226E+004    4.46324E+006   -3.82044E+004   -2.95718E+005   -4.01236E+004
            7841    3.99403E+006    4.37011E+006    4.37011E+006    9.70877E+005   -2.88046E+004    4.39891E+006   -1.77073E+006    3.69650E+006    9.86447E+005   -2.63376E+004    4.35207E+006   -3.63346E+004   -2.36330E+005    7.95000E+004
            7842    4.18370E+006    4.37255E+006    4.37255E+006    4.07336E+005    1.28871E+002    4.37242E+006   -1.59334E+006    4.13877E+006    4.23269E+005    1.05289E+005    4.25145E+006    1.21008E+004   -2.68300E+005   -6.61712E+005
            7843    4.23145E+006    4.34389E+006    4.34389E+006    5.01373E+005   -1.91084E+005    4.53497E+006   -1.55139E+006    4.10107E+006    5.10074E+005   -9.47768E+004    4.23888E+006   -5.73696E+004   -3.06567E+005   -6.02261E+005
            7844    4.20187E+006    4.29630E+006    4.29630E+006    6.22290E+005   -2.85141E+005    4.58144E+006   -1.54448E+006    3.97234E+006    6.27034E+005   -2.39124E+005    4.24554E+006   -1.08428E+005   -3.06684E+005   -3.46531E+005
            7845    4.00998E+006    4.15390E+006    4.15390E+006    7.32498E+005   -2.58738E+005    4.41264E+006   -1.54255E+006    3.71905E+006    7.37618E+005   -2.41689E+005    4.13173E+006   -1.30322E+005   -2.72654E+005    3.19636E+004
            7846    3.66914E+006    3.90753E+006    3.90753E+006    8.16461E+005   -1.47292E+005    4.05482E+006   -1.52557E+006    3.36625E+006    8.21208E+005   -1.14729E+005    3.87022E+006   -1.23346E+005   -2.19433E+005    2.86548E+005
            7847    5.01056E+006    5.37411E+006    5.37411E+006    8.66476E+005   -2.08364E+004    5.39494E+006   -2.07325E+006    4.82903E+006    8.80796E+005    1.14468E+005    5.22448E+006   -3.81977E+004   -3.33151E+005   -8.13395E+005
            7848    5.03241E+006    5.02795E+006    5.02795E+006    7.76586E+005   -5.28408E+005    5.55636E+006   -1.75871E+006    4.62820E+006    7.80630E+005   -4.21414E+005    4.91691E+006   -1.23883E+005   -3.46708E+005   -6.81351E+005
            7849    4.71153E+006    4.51280E+006    4.51280E+006    6.88761E+005   -7.50487E+005    5.26329E+006   -1.48369E+006    4.17220E+006    6.87431E+005   -7.16765E+005    4.48041E+006   -1.77368E+005   -3.10072E+005   -2.09053E+005
            7850    4.15348E+006    4.03218E+006    4.03218E+006    6.95796E+005   -6.19773E+005    4.65195E+006   -1.36940E+006    3.63844E+006    6.93876E+005   -5.82439E+005    3.99676E+006   -1.88885E+005   -2.57793E+005    2.52602E+005
            7851    3.61211E+006    3.62218E+006    3.62218E+006    7.19658E+005   -4.23095E+005    4.04527E+006   -1.30625E+006    3.16537E+006    7.18663E+005   -3.25115E+005    3.52519E+006   -1.72921E+005   -2.00182E+005    5.60347E+005
            7852    6.49039E+006    6.88745E+006    6.88745E+006    1.43585E+006   -2.92019E+005    7.17947E+006   -2.67709E+006    5.93898E+006    1.45145E+006   -1.88828E+005    6.76866E+006   -1.12878E+005   -4.20916E+005   -7.89608E+005
            7853    6.20718E+006    5.80846E+006    5.80846E+006    9.61724E+005   -1.18776E+006    6.99622E+006   -1.86081E+006    5.26651E+006    9.67496E+005   -1.14729E+006    5.76221E+006   -2.01445E+005   -3.82063E+005   -3.50238E+005
            7854    5.41360E+006    4.83673E+006    4.83673E+006    7.22671E+005   -1.29620E+006    6.13293E+006   -1.42107E+006    4.43964E+006    7.21119E+005   -1.26234E+006    4.80443E+006   -2.40097E+005   -3.09840E+005    2.15682E+005
            7855    4.60411E+006    4.11210E+006    4.11210E+006    6.31012E+005   -1.10829E+006    5.22039E+006   -1.21161E+006    3.75015E+006    6.26725E+005   -9.92086E+005    4.00018E+006   -2.49007E+005   -2.48324E+005    6.74551E+005
            7856    3.78037E+006    3.51166E+006    3.51166E+006    6.14995E+005   -7.64772E+005    4.27644E+006   -1.12063E+006    3.13367E+006    6.08505E+005   -5.04347E+005    3.25773E+006   -2.33429E+005   -1.81036E+005    9.70288E+005
            7857    4.53161E+006    3.71530E+006    3.71530E+006    5.70139E+005   -1.47895E+006    5.19424E+006   -9.35495E+005    3.21090E+006    5.67832E+005   -9.71132E+005    3.20979E+006   -3.08299E+005   -1.93509E+005    1.49708E+006
            7858    5.67664E+006    4.52894E+006    4.52894E+006    6.32149E+005   -1.98406E+006    6.51299E+006   -1.05901E+006    3.93324E+006    6.32070E+005   -1.69413E+006    4.23909E+006   -3.32597E+005   -2.69996E+005    1.27297E+006
            7859    6.82435E+006    5.54410E+006    5.54410E+006    8.25897E+005   -2.28087E+006    7.82497E+006   -1.36304E+006    4.79836E+006    8.26807E+005   -2.17077E+006    5.43308E+006   -3.38227E+005   -3.44886E+005    7.87581E+005
            7860    7.79777E+006    6.69997E+006    6.69997E+006    1.17531E+006   -2.21978E+006    8.91975E+006   -1.88517E+006    5.74290E+006    1.17915E+006   -2.18565E+006    6.66200E+006   -3.25186E+005   -4.20968E+005    2.03385E+005
            7861    8.70555E+006    8.36021E+006    8.36021E+006    1.86062E+006   -1.53060E+006    9.89081E+006   -2.89674E+006    6.96817E+006    1.87015E+006   -1.47620E+006    8.29628E+006   -2.81492E+005   -5.08413E+005   -5.08626E+005
            7862    9.60603E+006    1.01749E+007    1.01749E+007    2.71166E+006   -6.63165E+005    1.08380E+007   -4.07445E+006    8.10142E+006    2.72286E+006   -5.07277E+005    1.00078E+007   -2.41909E+005   -5.64329E+005   -1.17047E+006
            7863    1.05405E+007    1.22799E+007    1.22799E+007    3.84408E+006    4.64004E+005    1.18159E+007   -5.52934E+006    9.19708E+006    3.85377E+006    7.59391E+005    1.19749E+007   -2.30752E+005   -6.26038E+005   -1.74261E+006
            7864    8.93122E+006    1.17334E+007    1.17334E+007    3.71414E+006    2.10816E+006    9.62525E+006   -5.85190E+006    8.59732E+006    3.73407E+006    2.19037E+006    1.16313E+007   -4.68694E+004   -4.50205E+005   -8.58783E+005
            7865    8.45961E+006    1.14058E+007    1.14058E+007    3.49806E+006    2.48554E+006    8.92030E+006   -5.79648E+006    8.32165E+006    3.50075E+006    2.49175E+006    1.13970E+007    2.77057E+004   -1.59464E+005   -2.24397E+005
            7866    7.51857E+006    9.33123E+006    9.33123E+006    2.58284E+006    1.22699E+006    8.10424E+006   -4.38036E+006    7.23581E+006    2.60348E+006    1.31042E+006    9.22717E+006   -4.01260E+004   -4.20397E+005   -7.92410E+005
            7867    6.80045E+006    9.01352E+006    9.01352E+006    2.48312E+006    1.97188E+006    7.04164E+006   -4.48951E+006    6.75701E+006    2.47952E+006    1.98910E+006    8.99990E+006    6.75149E+004   -1.57847E+005   -2.60858E+005
            7868    5.62900E+006    7.19073E+006    7.19073E+006    1.71246E+006    1.42223E+006    5.76851E+006   -3.44181E+006    5.61213E+006    1.67468E+006    1.47825E+006    7.17249E+006    1.08519E+005   -1.35677E+005   -2.89111E+005
            7869    4.63210E+006    5.54569E+006    5.54569E+006    1.04176E+006    7.95261E+005    4.75043E+006   -2.46090E+006    4.61731E+006    9.29594E+005    9.22559E+005    5.53056E+006    1.27900E+005   -8.97973E+004   -2.46175E+005
            7870    3.79596E+006    4.12776E+006    4.12776E+006    4.67900E+005    2.08965E+005    3.91880E+006   -1.60154E+006    3.77601E+006    2.71341E+005    4.17980E+005    4.11531E+006    1.13733E+005   -6.75225E+004   -2.02422E+005
            7871    2.81453E+006    2.62022E+006    2.62022E+006    9.72072E+004   -4.15372E+005    3.03559E+006   -7.67351E+005    2.70651E+006   -4.09344E+005    9.48998E+004    2.61650E+006    5.02516E+004   -6.45502E+004   -7.58641E+004
            7872    6.11830E+006    7.28587E+006    7.28587E+006    1.67241E+006    7.64257E+005    6.52161E+006   -3.24085E+006    5.96383E+006    1.69207E+006    8.49869E+005    7.18060E+006    4.76490E+003   -3.44148E+005   -7.35409E+005
            7873    4.85527E+006    5.53511E+006    5.53511E+006    8.95411E+005    4.89720E+005    5.04539E+006   -2.30675E+006    4.81692E+006    9.07710E+005    5.72257E+005    5.44027E+006    5.48895E+004   -2.46105E+005   -6.33988E+005
            7874    4.00954E+006    4.28211E+006    4.28211E+006    3.50373E+005    1.99046E+005    4.08307E+006   -1.61051E+006    4.00311E+006    3.39515E+005    2.89612E+005    4.20240E+006    7.70600E+004   -1.86570E+005   -5.28216E+005
            7875    3.01311E+006    2.88234E+006    2.88234E+006    4.15974E+004   -2.77704E+005    3.16004E+006   -8.82078E+005    2.97469E+006   -2.65726E+005    5.60947E+004    2.85587E+006    3.28092E+004   -1.82718E+005   -2.09867E+005
            7876    3.69399E+006    3.76948E+006    3.76948E+006    2.30823E+005   -6.23786E+004    3.83186E+006   -1.31264E+006    3.66768E+006    2.50043E+005   -1.95648E+004    3.70744E+006    1.66638E+004    3.09680E+005   -3.64508E+005
            7877    4.12279E+006    4.26458E+006    4.26458E+006    5.65164E+005   -1.79955E+005    4.44453E+006   -1.54993E+006    3.96703E+006    5.86844E+005   -1.55327E+005    4.21827E+006    5.44920E+004    3.32034E+005   -2.73565E+005
            7878    4.25249E+006    4.47790E+006    4.47790E+006    8.27679E+005   -1.91605E+005    4.66951E+006   -1.70466E+006    3.96342E+006    8.46465E+005   -1.86398E+005    4.45391E+006    7.17541E+004    2.95104E+005   -1.31996E+004
            7879    3.92356E+006    4.27330E+006    4.27330E+006    9.61069E+005   -5.97849E+004    4.33308E+006   -1.72486E+006    3.60616E+006    9.74146E+005   -5.02265E+004    4.25066E+006    6.58380E+004    2.29189E+005    1.65779E+005
            7880    4.85880E+006    4.96911E+006    4.96911E+006    7.28837E+005   -3.32688E+005    5.30180E+006   -1.78842E+006    4.58688E+006    7.36911E+005   -2.05022E+005    4.83337E+006    8.20387E+004    3.35152E+005   -7.58052E+005
            7881    4.70139E+006    4.50544E+006    4.50544E+006    6.43194E+005   -7.29534E+005    5.23497E+006   -1.47303E+006    4.21387E+006    6.43551E+005   -6.93746E+005    4.46929E+006    1.60823E+005    3.07497E+005   -2.58881E+005
            7882    4.06675E+006    3.99979E+006    3.99979E+006    6.77541E+005   -5.35429E+005    4.53522E+006   -1.38063E+006    3.62498E+006    6.77864E+005   -4.95033E+005    3.95907E+006    1.72019E+005    2.48720E+005    3.01962E+005
            7883    3.53627E+006    3.62610E+006    3.62610E+006    7.31654E+005   -3.15483E+005    3.94158E+006   -1.34742E+006    3.15816E+006    7.33362E+005   -2.07757E+005    3.51667E+006    1.55511E+005    1.96013E+005    5.95952E+005
            7884    4.12191E+006    3.54887E+006    3.54887E+006    5.70504E+005   -1.15546E+006    4.70433E+006   -9.87970E+005    3.13920E+006    5.66133E+005   -7.16571E+005    3.11435E+006    2.86403E+005    1.87216E+005    1.32055E+006
            7885    5.05631E+006    4.18168E+006    4.18168E+006    5.79011E+005   -1.59858E+006    5.78027E+006   -1.05404E+006    3.76110E+006    5.74778E+005   -1.37026E+006    3.95759E+006    3.06792E+005    2.51897E+005    1.04679E+006
            7886    5.96824E+006    4.94451E+006    4.94451E+006    6.72742E+005   -1.87474E+006    6.81925E+006   -1.24751E+006    4.47418E+006    6.70583E+005   -1.79130E+006    4.86324E+006    3.01829E+005    3.14821E+005    6.02266E+005
            7887    6.84436E+006    6.18190E+006    6.18190E+006    1.06331E+006   -1.59230E+006    7.77420E+006   -1.88430E+006    5.49141E+006    1.06702E+006   -1.56327E+006    6.14916E+006    2.62872E+005    4.02208E+005   -1.13265E+005
            7888    7.95325E+006    7.90612E+006    7.90612E+006    1.76345E+006   -1.07748E+006    8.98360E+006   -2.86403E+006    6.65901E+006    1.77469E+006   -1.00075E+006    7.81817E+006    2.18505E+005    4.75924E+005   -6.90728E+005
            7889    9.24224E+006    9.78483E+006    9.78483E+006    2.57715E+006   -6.34875E+005    1.04197E+007   -3.90904E+006    7.83007E+006    2.58848E+006   -4.60004E+005    9.59864E+006    2.22112E+005    5.45708E+005   -1.23447E+006
            7890    1.03367E+007    1.19020E+007    1.19020E+007    3.64962E+006    3.07866E+005    1.15942E+007   -5.28651E+006    8.99518E+006    3.65959E+006    5.82121E+005    1.16178E+007    2.28993E+005    6.13771E+005   -1.65977E+006
            7891    1.10410E+007    1.41897E+007    1.41897E+007    5.02963E+006    1.93024E+006    1.22595E+007   -7.04987E+006    9.98976E+006    5.03957E+006    2.32982E+006    1.37802E+007    2.04650E+005    6.71266E+005   -2.08174E+006
            7892    9.99139E+006    1.36201E+007    1.36201E+007    4.62606E+006    2.86541E+006    1.07547E+007   -7.03719E+006    9.63306E+006    4.64555E+006    2.92743E+006    1.35386E+007    4.60619E+004    4.60132E+005   -7.89303E+005
            7893    9.87053E+006    1.33894E+007    1.33894E+007    4.34443E+006    2.86118E+006    1.05282E+007   -6.86500E+006    9.61500E+006    4.34687E+006    2.86551E+006    1.33826E+007   -5.12580E+003    1.48451E+005   -2.13217E+005
            7894    8.52570E+006    1.11485E+007    1.11485E+007    3.45317E+006    1.98350E+006    9.16500E+006   -5.52839E+006    8.23345E+006    3.47300E+006    2.06759E+006    1.10446E+007    3.74730E+004    4.34314E+005   -8.51009E+005
            7895    8.12956E+006    1.08507E+007    1.08507E+007    3.22974E+006    2.29365E+006    8.55708E+006   -5.45804E+006    8.00696E+006    3.23175E+006    2.30388E+006    1.08385E+007   -3.90583E+004    1.56008E+005   -2.77289E+005
            7896    7.31893E+006    8.99011E+006    8.99011E+006    2.40475E+006    1.11033E+006    7.87978E+006   -4.16839E+006    7.05447E+006    2.42594E+006    1.19660E+006    8.88264E+006    1.97955E+004    4.01700E+005   -8.04909E+005
            7897    6.43884E+006    8.41448E+006    8.41448E+006    2.20651E+006    1.76726E+006    6.64722E+006   -4.12941E+006    6.40500E+006    2.19736E+006    1.78641E+006    8.40447E+006   -7.86609E+004    1.49283E+005   -2.04470E+005
            7898    5.79239E+006    6.70884E+006    6.70884E+006    1.41737E+006    5.20220E+005    6.18862E+006   -2.88214E+006    5.63289E+006    1.43713E+006    5.97153E+005    6.61215E+006    5.59949E+003    3.41968E+005   -6.75153E+005
            7899    5.16789E+006    6.43776E+006    6.43776E+006    1.39872E+006    1.14999E+006    5.28777E+006   -2.99549E+006    5.15440E+006    1.33476E+006    1.23479E+006    6.41691E+006   -1.18172E+005    1.27466E+005   -3.00134E+005
            7900    4.19385E+006    4.77562E+006    4.77562E+006    7.06151E+005    4.67578E+005    4.30804E+006   -1.98312E+006    4.17854E+006    5.69596E+005    6.25792E+005    4.75396E+006   -1.24731E+005    1.01811E+005   -2.79082E+005
            7901    2.93680E+006    2.83103E+006    2.83103E+006    1.59958E+005   -3.13887E+005    3.14491E+006   -8.92366E+005    2.84889E+006   -3.05507E+005    1.60961E+005    2.82164E+006   -5.71951E+004    8.43621E+004   -1.36261E+005
            7902    4.59742E+006    5.00723E+006    5.00723E+006    6.70676E+005    1.87176E+005    4.82006E+006   -1.95503E+006    4.53969E+006    6.86885E+005    2.97645E+005    4.88056E+006   -2.97687E+004    2.65109E+005   -7.19257E+005
            7903    3.28728E+006    3.24150E+006    3.24150E+006    2.28649E+004   -1.10377E+005    3.35187E+006   -1.05133E+006    3.28119E+006   -9.48774E+004    5.45264E+004    3.19434E+006   -2.31083E+004    2.26213E+005   -3.16890E+005
            7904    3.39740E+006    2.98131E+006    2.98131E+006    5.48503E+005   -9.00325E+005    3.88163E+006   -8.76496E+005    2.54889E+006    5.44342E+005   -2.21028E+005    2.30617E+006   -2.63687E+005   -1.25797E+005    1.44314E+006
            7905    2.96938E+006    2.93756E+006    2.93756E+006    6.00571E+005   -4.03745E+005    3.34130E+006   -1.04479E+006    2.54285E+006    5.91275E+005   -6.11595E+004    2.60427E+006   -2.01171E+005   -1.25876E+005    9.75898E+005
            7906    3.01780E+006    3.16547E+006    3.16547E+006    7.15717E+005   -2.05603E+005    3.37107E+006   -1.22519E+006    2.67280E+006    7.12676E+005   -6.28738E+004    3.02578E+006   -1.43571E+005   -1.39437E+005    6.43194E+005
            7907    3.25147E+006    3.53678E+006    3.53678E+006    8.23791E+005   -6.73306E+004    3.60411E+006   -1.43108E+006    2.95746E+006    8.24714E+005   -1.95176E+004    3.48805E+006   -1.06879E+005   -1.55327E+005    3.70062E+005
            7908    3.58129E+006    3.96007E+006    3.96007E+006    9.57825E+005   -3.88748E+003    3.96395E+006   -1.63800E+006    3.27133E+006    9.66387E+005    2.93209E+002    3.94732E+006   -3.01734E+004   -1.65337E+005    1.17924E+005
            7909    2.21444E+006    2.18725E+006    2.18725E+006    5.08991E+005   -3.22602E+005    2.50986E+006   -7.91214E+005    1.80945E+006    4.95070E+005    2.97857E+005    1.58072E+006   -2.12417E+005   -6.46240E+004    1.05265E+006
            7910    2.12916E+006    2.32324E+006    2.32324E+006    5.73025E+005   -4.71618E+004    2.37040E+006   -9.49700E+005    1.90952E+006    5.49187E+005    2.30384E+005    2.06953E+006   -1.69370E+005   -6.95451E+004    7.15307E+005
            7911    2.41575E+006    2.67389E+006    2.67389E+006    6.73374E+005   -9.91702E+003    2.68380E+006   -1.11245E+006    2.18194E+006    6.63495E+005    9.65265E+004    2.57732E+006   -1.16875E+005   -8.03204E+004    4.85203E+005
            7912    2.78243E+006    3.09346E+006    3.09346E+006    7.74406E+005    8.21421E+003    3.08525E+006   -1.29203E+006    2.52826E+006    7.70003E+005    4.43990E+004    3.06168E+006   -8.95444E+004   -9.01618E+004    2.90019E+005
            7913    3.14044E+006    3.49145E+006    3.49145E+006    8.80154E+005    6.76727E+003    3.48469E+006   -1.45946E+006    2.84738E+006    8.83103E+005    1.01325E+004    3.48514E+006   -2.61568E+004   -9.59159E+004    9.75348E+004
            7914    9.82544E+005    1.32636E+006    1.32636E+006    5.34139E+005    2.26910E+005    1.09945E+006   -6.95803E+005    8.64133E+005    4.28732E+005    5.39523E+005    1.11915E+006   -1.77892E+005   -2.01558E+004    3.90203E+005
            7915    1.44361E+006    1.81788E+006    1.81788E+006    5.80258E+005    2.32002E+005    1.58588E+006   -8.76713E+005    1.34413E+006    5.09155E+005    3.49398E+005    1.77159E+006   -1.48159E+005   -2.41688E+004    2.55249E+005
            7916    2.00294E+006    2.34125E+006    2.34125E+006    6.43716E+005    1.32130E+005    2.20912E+006   -1.03903E+006    1.84717E+006    6.25205E+005    1.65915E+005    2.32597E+006   -9.96880E+004   -2.60866E+004    1.78143E+005
            7917    2.48324E+006    2.80837E+006    2.80837E+006    7.32220E+005    5.75017E+004    2.75087E+006   -1.19936E+006    2.26283E+006    7.23825E+005    7.07243E+004    2.80354E+006   -7.82520E+004   -2.95956E+004    1.08685E+005
            7918    2.85054E+006    3.18260E+006    3.18260E+006    8.17324E+005    1.76176E+004    3.16499E+006   -1.33918E+006    2.57948E+006    8.17123E+005    1.86703E+004    3.18175E+006   -2.26745E+004   -3.13170E+004    3.68832E+004
            7919    1.11558E+007    1.44878E+007    1.44878E+007    5.20339E+006    2.11245E+006    1.23753E+007   -7.26786E+006    1.01231E+007    5.21332E+006    2.51759E+006    1.40727E+007   -2.05553E+005    6.80706E+005    2.10525E+006
            7920    1.02810E+007    1.41805E+007    1.41805E+007    4.91849E+006    3.11828E+006    1.10623E+007   -7.40577E+006    9.91712E+006    4.93811E+006    3.18017E+006    1.40990E+007   -4.88584E+004    4.70112E+005    7.98446E+005
            7921    1.03831E+007    1.41172E+007    1.41172E+007    4.66337E+006    3.00455E+006    1.11127E+007   -7.26171E+006    1.00785E+007    4.66574E+006    3.00936E+006    1.41100E+007   -2.73699E+003    1.50504E+005    2.30620E+005
            7922    1.10727E+007    1.64210E+007    1.64210E+007    6.68727E+006    4.37448E+006    1.20465E+007   -9.16090E+006    1.05085E+007    6.70154E+006    4.77407E+006    1.60071E+007   -1.52295E+005    7.16061E+005    2.06179E+006
            7923    1.16208E+007    1.65193E+007    1.65193E+007    6.05013E+006    4.01562E+006    1.25037E+007   -8.86168E+006    1.12095E+007    6.07028E+006    4.04893E+006    1.64658E+007   -4.15363E+004    4.85093E+005    6.23115E+005
            7924    1.21292E+007    1.65771E+007    1.65771E+007    5.73868E+006    3.47582E+006    1.31012E+007   -8.59719E+006    1.16400E+007    5.74012E+006    3.47784E+006    1.65736E+007   -1.60270E+004    1.30838E+005    1.56983E+005
            7925    1.04634E+007    1.76239E+007    1.76239E+007    7.87419E+006    6.56938E+006    1.10546E+007   -1.06892E+007    1.02779E+007    7.90621E+006    6.74104E+006    1.74203E+007   -7.90024E+004    7.31173E+005    1.27786E+006
            7926    1.25468E+007    1.81843E+007    1.81843E+007    6.86961E+006    4.69081E+006    1.34935E+007   -9.91490E+006    1.21101E+007    6.89073E+006    4.69919E+006    1.81548E+007   -2.17098E+004    4.95010E+005    3.25396E+005
            7927    1.34109E+007    1.83497E+007    1.83497E+007    6.50841E+006    3.78677E+006    1.45630E+007   -9.54830E+006    1.27672E+007    6.50944E+006    3.78734E+006    1.83481E+007   -1.25435E+004    1.13765E+005    8.62248E+004
            7928    1.00928E+007    1.79589E+007    1.79589E+007    8.28778E+006    7.49167E+006    1.04672E+007   -1.12461E+007    1.00218E+007    8.34361E+006    7.49225E+006    1.79025E+007    4.62145E+003    7.33487E+005   -6.95685E+004
            7929    1.28492E+007    1.87059E+007    1.87059E+007    7.11854E+006    4.88718E+006    1.38188E+007   -1.02372E+007    1.24020E+007    7.13988E+006    4.88740E+006    1.86844E+007    3.15211E+003    4.96907E+005   -5.36262E+004
            7930    1.38012E+007    1.88821E+007    1.88821E+007    6.73821E+006    3.87328E+006    1.50088E+007   -9.83120E+006    1.31069E+007    6.73914E+006    3.87330E+006    1.88812E+007    2.24085E+003    1.06408E+005   -1.83389E+004
            7931    1.05085E+007    1.75147E+007    1.75147E+007    7.76948E+006    6.38103E+006    1.11337E+007   -1.05551E+007    1.02991E+007    7.79880E+006    6.57751E+006    1.72889E+007    8.62317E+004    7.27841E+005   -1.37507E+006
            7932    1.24160E+007    1.78961E+007    1.78961E+007    6.71162E+006    4.53605E+006    1.33600E+007   -9.71459E+006    1.19759E+007    6.73233E+006    4.54953E+006    1.78619E+007    2.84190E+004    4.91915E+005   -4.09887E+005
            7933    1.31492E+007    1.79725E+007    1.79725E+007    6.33847E+006    3.70638E+006    1.42661E+007   -9.33912E+006    1.25358E+007    6.33950E+006    3.70721E+006    1.79707E+007    1.52813E+004    1.14655E+005   -1.01950E+005
            7934    1.10748E+007    1.62083E+007    1.62083E+007    6.52191E+006    4.13446E+006    1.20738E+007   -8.95488E+006    1.04721E+007    6.53560E+006    4.53630E+006    1.57927E+007    1.57166E+005    7.10418E+005   -2.07069E+006
            7935    1.13644E+007    1.60213E+007    1.60213E+007    5.78870E+006    3.79025E+006    1.22311E+007   -8.53343E+006    1.09586E+007    5.80849E+006    3.82776E+006    1.59640E+007    4.31020E+004    4.78654E+005   -6.54036E+005
            7936    1.16853E+007    1.59346E+007    1.59346E+007    5.45003E+006    3.33702E+006    1.25976E+007   -8.24056E+006    1.12433E+007    5.45156E+006    3.33970E+006    1.59304E+007    1.43386E+004    1.31982E+005   -1.79519E+005
            7937    3.58781E+006    3.96608E+006    3.96608E+006    9.58928E+005   -5.30938E+003    3.97139E+006   -1.63990E+006    3.27675E+006    9.67535E+005   -1.14417E+003    3.95331E+006   -3.03087E+004    1.65918E+005   -1.17683E+005
            7938    3.25131E+006    3.53609E+006    3.53609E+006    8.23528E+005   -6.79795E+004    3.60407E+006   -1.43055E+006    2.95702E+006    8.24457E+005   -1.98006E+004    3.48698E+006   -1.07031E+005    1.55385E+005   -3.71743E+005
            7939    3.01574E+006    3.16089E+006    3.16089E+006    7.13792E+005   -2.08240E+005    3.36913E+006   -1.22215E+006    2.66987E+006    7.10659E+005   -6.37361E+004    3.01951E+006   -1.44121E+005    1.39043E+005   -6.47027E+005
            7940    2.96620E+006    2.93183E+006    2.93183E+006    5.98631E+005   -4.06289E+005    3.33812E+006   -1.04139E+006    2.53851E+006    5.89366E+005   -5.89382E+004    2.59374E+006   -2.01800E+005    1.25635E+005   -9.81759E+005
            7941    3.39670E+006    2.97979E+006    2.97979E+006    5.48041E+005   -9.01128E+005    3.88092E+006   -8.75569E+005    2.54739E+006    5.43878E+005   -2.19823E+005    2.30265E+006   -2.63909E+005    1.25621E+005   -1.44471E+006
            7942    3.14179E+006    3.49436E+006    3.49436E+006    8.81405E+005    8.38649E+003    3.48598E+006   -1.46139E+006    2.84915E+006    8.84386E+005    1.16965E+004    3.48807E+006   -2.56945E+004    9.60779E+004   -9.69895E+004
            7943    2.78741E+006    3.09933E+006    3.09933E+006    7.76055E+005    8.58303E+003    3.09075E+006   -1.29466E+006    2.53286E+006    7.71781E+005    4.42437E+004    3.06794E+006   -8.89404E+004    9.03447E+004   -2.88231E+005
            7944    2.41805E+006    2.67685E+006    2.67685E+006    6.74290E+005   -9.45008E+003    2.68630E+006   -1.11390E+006    2.18416E+006    6.64442E+005    9.71211E+004    2.58012E+006   -1.16871E+005    8.04657E+004   -4.85821E+005
            7945    2.12316E+006    2.31504E+006    2.31504E+006    5.70856E+005   -4.90927E+004    2.36413E+006   -9.45601E+005    1.90298E+006    5.46836E+005    2.31454E+005    2.05851E+006   -1.70008E+005    6.91418E+004   -7.17722E+005
            7946    2.21771E+006    2.18550E+006    2.18550E+006    5.06970E+005   -3.28624E+005    2.51412E+006   -7.87949E+005    1.80893E+006    4.93194E+005    2.97272E+005    1.57338E+006   -2.12807E+005    6.43346E+004   -1.05722E+006
            7947    2.85279E+006    3.18328E+006    3.18328E+006    8.16790E+005    1.55434E+004    3.16774E+006   -1.33854E+006    2.58085E+006    8.16602E+005    1.65932E+004    3.18242E+006   -2.25678E+004    3.15519E+004   -3.70878E+004
            7948    2.48701E+006    2.81175E+006    2.81175E+006    7.32786E+005    5.65592E+004    2.75519E+006   -1.20036E+006    2.26593E+006    7.24470E+005    6.97014E+004    2.80692E+006   -7.80124E+004    2.96719E+004   -1.08724E+005
            7949    2.00188E+006    2.34042E+006    2.34042E+006    6.43544E+005    1.32575E+005    2.20784E+006   -1.03885E+006    1.84642E+006    6.25027E+005    1.66185E+005    2.32532E+006   -9.96015E+004    2.59786E+004   -1.77030E+005
            7950    1.43912E+006    1.81683E+006    1.81683E+006    5.82137E+005    2.36311E+005    1.58052E+006   -8.78428E+005    1.34076E+006    5.10461E+005    3.53425E+005    1.77140E+006   -1.47845E+005    2.41222E+004   -2.52396E+005
            7951    9.86624E+005    1.33188E+006    1.33188E+006    5.35867E+005    2.28047E+005    1.10384E+006   -6.98600E+005    8.68304E+005    4.30842E+005    5.40961E+005    1.12400E+006   -1.78065E+005    2.02924E+004   -3.91923E+005
            7952    8.69891E+006    8.35692E+006    8.35692E+006    1.86055E+006   -1.52594E+006    9.88286E+006   -2.89718E+006    6.96550E+006    1.87018E+006   -1.47194E+006    8.29330E+006   -2.81009E+005    5.08349E+005    5.05199E+005
            7953    7.79514E+006    6.69675E+006    6.69675E+006    1.17490E+006   -2.22016E+006    8.91691E+006   -1.88383E+006    5.73918E+006    1.17874E+006   -2.18600E+006    6.65875E+006   -3.25242E+005    4.20788E+005   -2.04083E+005
            7954    6.80543E+006    5.53036E+006    5.53036E+006    8.24922E+005   -2.27286E+006    7.80322E+006   -1.36081E+006    4.78571E+006    8.25803E+005   -2.16183E+006    5.41845E+006   -3.38269E+005    3.44310E+005   -7.90662E+005
            7955    5.66517E+006    4.52176E+006    4.52176E+006    6.32203E+005   -1.97798E+006    6.49974E+006   -1.05866E+006    3.92665E+006    6.32123E+005   -1.68715E+006    4.23101E+006   -3.32624E+005    2.69778E+005   -1.27359E+006
            7956    4.51515E+006    3.70564E+006    3.70564E+006    5.70439E+005   -1.46952E+006    5.17516E+006   -9.35518E+005    3.20219E+006    5.68076E+005   -9.60800E+005    3.19928E+006   -3.07802E+005    1.92719E+005   -1.49527E+006
            7957    3.79273E+006    3.51853E+006    3.51853E+006    6.14861E+005   -7.72554E+005    4.29108E+006   -1.12028E+006    3.14049E+006    6.08377E+005   -5.11568E+005    3.26403E+006   -2.34140E+005    1.81421E+005   -9.73081E+005
            7958    3.61847E+006    3.62261E+006    3.62261E+006    7.17509E+005   -4.30639E+005    4.05324E+006   -1.30316E+006    3.16800E+006    7.16474E+005   -3.31198E+005    3.52420E+006   -1.73996E+005    2.00464E+005   -5.65514E+005
            7959    3.66945E+006    3.90357E+006    3.90357E+006    8.14300E+005   -1.52480E+005    4.05605E+006   -1.52180E+006    3.36456E+006    8.18883E+005   -1.19407E+005    3.86591E+006   -1.24428E+005    2.19336E+005   -2.88870E+005
            7960    3.99274E+006    4.36941E+006    4.36941E+006    9.70628E+005   -2.78031E+004    4.39721E+006   -1.77074E+006    3.69589E+006    9.86185E+005   -2.53497E+004    4.35140E+006   -3.66046E+004    2.36383E+005   -7.84959E+004
            7961    4.61975E+006    4.12419E+006    4.12419E+006    6.32254E+005   -1.11418E+006    5.23837E+006   -1.21409E+006    3.76148E+006    6.28050E+005   -9.99861E+005    4.01408E+006   -2.49217E+005    2.49678E+005   -6.68649E+005
            7962    4.16899E+006    4.04197E+006    4.04197E+006    6.95847E+005   -6.28263E+005    4.67024E+006   -1.36985E+006    3.64886E+006    6.93869E+005   -5.91232E+005    4.00692E+006   -1.89641E+005    2.58593E+005   -2.49377E+005
            7963    4.01064E+006    4.15382E+006    4.15382E+006    7.32905E+005   -2.60020E+005    4.41384E+006   -1.54223E+006    3.71872E+006    7.37898E+005   -2.42820E+005    4.13162E+006   -1.30989E+005    2.72931E+005   -3.06814E+004
            7964    4.16999E+006    4.48443E+006    4.48443E+006    8.45770E+005   -6.60061E+004    4.55044E+006   -1.75473E+006    3.93623E+006    8.67995E+005   -6.37810E+004    4.45998E+006   -3.87527E+004    2.95535E+005    4.00406E+004
            7965    5.44723E+006    4.86769E+006    4.86769E+006    7.28766E+005   -1.30351E+006    6.17120E+006   -1.43098E+006    4.46624E+006    7.27351E+005   -1.27053E+006    4.83613E+006   -2.40234E+005    3.12162E+005   -2.03676E+005
            7966    4.73216E+006    4.53109E+006    4.53109E+006    6.92239E+005   -7.55936E+005    5.28703E+006   -1.48913E+006    4.18831E+006    6.90993E+005   -7.21734E+005    4.49814E+006   -1.77626E+005    3.11435E+005    2.15347E+005
            7967    4.20772E+006    4.29917E+006    4.29917E+006    6.24089E+005   -2.90688E+005    4.58986E+006   -1.54419E+006    3.97465E+006    6.28613E+005   -2.45144E+005    4.24911E+006   -1.09881E+005    3.06437E+005    3.42618E+005
            7968    4.05024E+006    4.27097E+006    4.27097E+006    5.99386E+005   -7.36138E+004    4.34458E+006   -1.59891E+006    3.92147E+006    6.25544E+005   -6.33969E+004    4.23459E+006   -3.24626E+004    3.28180E+005    1.74976E+005
            7969    6.22017E+006    5.82575E+006    5.82575E+006    9.68118E+005   -1.18488E+006    7.01064E+006   -1.86966E+006    5.27851E+006    9.73980E+005   -1.14416E+006    5.77917E+006   -2.01356E+005    3.83004E+005    3.53255E+005
            7970    5.04580E+006    5.04180E+006    5.04180E+006    7.80296E+005   -5.29860E+005    5.57165E+006   -1.76408E+006    4.63940E+006    7.84401E+005   -4.22141E+005    4.92997E+006   -1.24138E+005    3.47871E+005    6.84964E+005
            7971    4.23823E+006    4.35126E+006    4.35126E+006    5.05979E+005   -1.93022E+005    4.54428E+006   -1.55474E+006    4.10553E+006    5.14611E+005   -9.64595E+004    4.24606E+006   -5.82680E+004    3.07313E+005    6.03268E+005
            7972    3.75009E+006    3.83734E+006    3.83734E+006    2.81717E+005   -8.08736E+004    3.91821E+006   -1.34606E+006    3.71034E+006    3.06804E+005   -5.78627E+004    3.78924E+006   -1.55707E+004    3.22389E+005    2.71011E+005
            7973    6.49622E+006    6.89434E+006    6.89434E+006    1.43720E+006   -2.91314E+005    7.18565E+006   -2.68008E+006    5.94494E+006    1.45286E+006   -1.88198E+005    6.77557E+006   -1.12563E+005    4.21024E+005    7.89917E+005
            7974    5.00044E+006    5.36132E+006    5.36132E+006    8.60169E+005   -2.11956E+004    5.38252E+006   -2.06677E+006    4.82102E+006    8.74465E+005    1.13523E+005    5.21231E+006   -3.76909E+004    3.32075E+005    8.10865E+005
            7975    4.18072E+006    4.36730E+006    4.36730E+006    4.05861E+005   -2.70911E+003    4.37000E+006   -1.59015E+006    4.13545E+006    4.21754E+005    1.03621E+005    4.24507E+006    1.16729E+004    2.68683E+005    6.64866E+005
            7976    3.36351E+006    3.33051E+006    3.33051E+006   -1.76995E+004   -4.80901E+004    3.37860E+006   -1.08824E+006    3.36320E+006   -7.59748E+003   -1.09248E+004    3.28325E+006    8.68273E+003    2.73169E+005    2.87811E+005
            7977    3.02521E+006    2.89761E+006    2.89761E+006    4.03694E+004   -2.71416E+005    3.16903E+006   -8.88856E+005    2.98874E+006   -2.59179E+005    5.53402E+004    2.87041E+006    3.28229E+004    1.85276E+005    2.13523E+005
            7978    2.81894E+006    2.62736E+006    2.62736E+006    9.89416E+004   -4.12163E+005    3.03953E+006   -7.71381E+005    2.71174E+006   -4.06068E+005    9.67141E+004    2.62350E+006    5.04447E+004    6.52424E+004    7.78704E+004
            7979    4.00540E+006    4.27498E+006    4.27498E+006    3.47067E+005    1.96353E+005    4.07863E+006   -1.60613E+006    3.99901E+006    3.36018E+005    2.87351E+005    4.19503E+006    7.71850E+004    1.86449E+005    5.28801E+005
            7980    3.80410E+006    4.13891E+006    4.13891E+006    4.70173E+005    2.12553E+005    3.92636E+006   -1.60721E+006    3.78440E+006    2.75925E+005    4.19267E+005    4.12645E+006    1.13987E+005    6.79337E+004    2.02660E+005
            7981    4.84575E+006    5.52179E+006    5.52179E+006    8.89504E+005    4.87611E+005    5.03418E+006   -2.29963E+006    4.80804E+006    9.01663E+005    5.70540E+005    5.42670E+006    5.53468E+004    2.45158E+005    6.34510E+005
            7982    4.63661E+006    5.55209E+006    5.55209E+006    1.04392E+006    7.96916E+005    4.75518E+006   -2.46431E+006    4.62177E+006    9.32146E+005    9.24139E+005    5.53664E+006    1.28177E+005    9.00488E+004    2.49135E+005
            7983    6.12227E+006    7.28874E+006    7.28874E+006    1.67214E+006    7.62568E+005    6.52617E+006   -3.24115E+006    5.96742E+006    1.69178E+006    8.48353E+005    7.18331E+006    4.89195E+003    3.44040E+005    7.36464E+005
            7984    5.62413E+006    7.18752E+006    7.18752E+006    1.71278E+006    1.42505E+006    5.76247E+006   -3.44178E+006    5.60753E+006    1.67446E+006    1.48157E+006    7.16931E+006    1.08511E+005    1.35360E+005    2.88712E+005
            7985    6.81429E+006    9.03613E+006    9.03613E+006    2.49325E+006    1.97952E+006    7.05661E+006   -4.50297E+006    6.77051E+006    2.48980E+006    1.99644E+006    9.02266E+006    6.69625E+004    1.57826E+005    2.59192E+005
            7986    8.49982E+006    1.14622E+007    1.14622E+007    3.52184E+006    2.49611E+006    8.96613E+006   -5.82673E+006    8.35888E+006    3.52456E+006    2.50220E+006    1.14534E+007    2.70598E+004    1.59638E+005    2.23271E+005
            7987    7.52319E+006    9.34197E+006    9.34197E+006    2.58807E+006    1.23354E+006    8.10844E+006   -4.38786E+006    7.24118E+006    2.60867E+006    1.31700E+006    9.23791E+006   -4.01277E+004    4.20262E+005    7.92802E+005
            7988    8.93861E+006    1.17617E+007    1.17617E+007    3.73089E+006    2.13125E+006    9.63043E+006   -5.87461E+006    8.60770E+006    3.75078E+006    2.21346E+006    1.16596E+007   -4.64634E+004    4.49757E+005    8.59186E+005
            7989    1.05307E+007    1.22519E+007    1.22519E+007    3.82746E+006    4.45787E+005    1.18062E+007   -5.50840E+006    9.18437E+006    3.83714E+006    7.38843E+005    1.19492E+007   -2.31140E+005    6.25187E+005    1.73446E+006
            7990    9.59505E+006    1.01567E+007    1.01567E+007    2.70170E+006   -6.68828E+005    1.08255E+007   -4.06319E+006    8.09261E+006    2.71288E+006   -5.14599E+005    9.99130E+006   -2.41959E+005    5.63455E+005    1.16247E+006
            7991    6.79181E+006    6.15851E+006    6.15851E+006    1.03026E+006   -1.54414E+006    7.70265E+006   -1.88154E+006    5.52201E+006    1.04332E+006   -1.50741E+006    6.10873E+006    2.99297E+005   -5.03641E+005    6.77494E+004
            7992    5.93853E+006    4.95685E+006    4.95685E+006    6.79227E+005   -1.82336E+006    6.78022E+006   -1.27091E+006    4.49962E+006    6.80794E+005   -1.72554E+006    4.85746E+006    3.41541E+005   -3.76430E+005   -6.33964E+005
            7993    5.04574E+006    4.19324E+006    4.19324E+006    5.89384E+005   -1.57337E+006    5.76661E+006   -1.06975E+006    3.76896E+006    5.86158E+005   -1.32978E+006    3.95288E+006    3.51910E+005   -2.97734E+005   -1.05925E+006
            7994    4.13809E+006    3.56471E+006    3.56471E+006    5.71282E+005   -1.15743E+006    4.72214E+006   -9.92852E+005    3.15730E+006    5.64347E+005   -7.06299E+005    3.12051E+006    3.30103E+005   -2.12125E+005   -1.32482E+006
            7995    3.56670E+006    3.58798E+006    3.58798E+006    6.88716E+005   -3.94844E+005    3.98283E+006   -1.29395E+006    3.16333E+006    6.72172E+005   -2.63206E+005    3.47289E+006    2.47833E+005   -2.35805E+005   -5.86409E+005
            7996    3.89532E+006    4.26559E+006    4.26559E+006    8.73813E+005    1.12984E+004    4.25429E+006   -1.71690E+006    3.67113E+006    8.90803E+005    2.32705E+004    4.23663E+006    7.49234E+004   -2.67736E+005   -1.74999E+005
            7997    4.09467E+006    3.96704E+006    3.96704E+006    6.37270E+005   -6.04871E+005    4.57191E+006   -1.33315E+006    3.63307E+006    6.20489E+005   -5.35214E+005    3.91416E+006    2.62317E+005   -3.05750E+005   -3.10376E+005
            7998    4.22068E+006    4.45922E+006    4.45922E+006    7.33662E+005   -1.24642E+005    4.58386E+006   -1.68941E+006    4.01722E+006    7.57088E+005   -1.16632E+005    4.42778E+006    8.27270E+004   -3.41095E+005    1.10682E+003
            7999    4.71482E+006    4.46775E+006    4.46775E+006    5.95663E+005   -7.82615E+005    5.25036E+006   -1.42693E+006    4.22464E+006    5.80322E+005   -7.23124E+005    4.42360E+006    2.40934E+005   -3.74570E+005    2.27463E+005
            8000    4.09733E+006    4.25145E+006    4.25145E+006    4.80327E+005   -1.08388E+005    4.35984E+006   -1.54113E+006    4.00051E+006    5.07090E+005   -8.35762E+004    4.19988E+006    5.99245E+004   -3.81459E+005    2.40841E+005
            8001    4.84474E+006    4.91227E+006    4.91227E+006    6.49391E+005   -3.56429E+005    5.26870E+006   -1.73508E+006    4.60094E+006    6.55284E+005   -2.31114E+005    4.78106E+006    1.20626E+005   -4.18589E+005    6.92188E+005
            8002    3.70114E+006    3.77469E+006    3.77469E+006    1.61091E+005   -8.18203E+003    3.78287E+006   -1.30920E+006    3.69242E+006    1.85531E+005    3.01342E+004    3.71193E+006    8.12285E+003   -3.50503E+005    3.27632E+005
            8003    3.31801E+006    3.24986E+006    3.24986E+006    3.36050E+004   -1.61325E+005    3.41118E+006   -1.04071E+006    3.30509E+006   -1.40530E+005    5.91321E+004    3.20354E+006   -3.89421E+004   -2.55091E+005    2.91261E+005
            8004    2.98175E+006    2.84842E+006    2.84842E+006    1.58218E+005   -3.57584E+005    3.20600E+006   -8.83018E+005    2.87880E+006   -3.41653E+005    1.51572E+005    2.83914E+006   -8.45326E+004   -9.85564E+004    1.27057E+005
            8005    4.61366E+006    4.96769E+006    4.96769E+006    5.42591E+005    1.86142E+005    4.78155E+006   -1.89881E+006    4.58253E+006    5.68157E+005    2.78546E+005    4.84972E+006   -5.59792E+004   -3.32359E+005    6.55604E+005
            8006    4.25042E+006    4.74055E+006    4.74055E+006    7.01237E+005    3.06554E+005    4.43400E+006   -1.91611E+006    4.20890E+006    4.30007E+005    5.97533E+005    4.72081E+006   -1.89201E+005   -1.22679E+005    2.53879E+005
            8007    5.26372E+006    6.37479E+006    6.37479E+006    1.30494E+006    9.36539E+005    5.43825E+006   -2.87209E+006    5.23460E+006    1.08484E+006    1.17591E+006    6.35552E+006   -1.88080E+005   -1.59235E+005    2.68478E+005
            8008    6.55506E+006    8.32110E+006    8.32110E+006    1.92699E+006    1.61615E+006    6.70495E+006   -3.95474E+006    6.53845E+006    1.84577E+006    1.70753E+006    8.31094E+006   -1.44698E+005   -1.97863E+005    1.60517E+005
            8009    8.28763E+006    1.07677E+007    1.07677E+007    2.80520E+006    2.18939E+006    8.57835E+006   -5.25411E+006    8.23591E+006    2.79919E+006    2.20832E+006    1.07548E+007   -9.48332E+004   -2.34098E+005    2.24660E+005
            8010    1.00717E+007    1.33293E+007    1.33293E+007    3.84094E+006    2.76130E+006    1.05680E+007   -6.64385E+006    9.94025E+006    3.84674E+006    2.76555E+006    1.33193E+007   -4.94225E+004   -2.69634E+005    1.57224E+005
            8011    5.83197E+006    6.66684E+006    6.66684E+006    1.21479E+006    5.17631E+005    6.14921E+006   -2.79976E+006    5.73709E+006    1.25232E+006    5.81951E+005    6.56499E+006   -1.28133E+004   -4.61659E+005    6.15525E+005
            8012    7.38493E+006    8.93059E+006    8.93059E+006    2.12799E+006    1.07613E+006    7.85446E+006   -4.04490E+006    7.21350E+006    2.16761E+006    1.15677E+006    8.81034E+006    1.95704E+004   -5.55171E+005    7.63542E+005
            8013    8.58961E+006    1.10682E+007    1.10682E+007    3.14425E+006    1.93994E+006    9.12822E+006   -5.38411E+006    8.39652E+006    3.18105E+006    2.02308E+006    1.09482E+007    4.80729E+004   -6.06464E+005    8.17966E+005
            8014    1.00333E+007    1.34819E+007    1.34819E+007    4.28600E+006    2.78118E+006    1.07007E+007   -6.84968E+006    9.77454E+006    4.31981E+006    2.84714E+006    1.33821E+007    7.40160E+004   -6.37866E+005    7.72453E+005
            8015    1.09837E+007    1.39817E+007    1.39817E+007    4.71058E+006    1.85114E+006    1.21306E+007   -6.84782E+006    1.00941E+007    4.73870E+006    2.25844E+006    1.35463E+007    2.44465E+005   -9.43495E+005    2.01828E+006
            8016    1.02329E+007    1.17081E+007    1.17081E+007    3.40830E+006    2.74808E+005    1.14333E+007   -5.13039E+006    9.05527E+006    3.43571E+006    5.52411E+005    1.14031E+007    2.75340E+005   -8.45380E+005    1.58919E+006
            8017    9.13616E+006    9.64406E+006    9.64406E+006    2.41418E+006   -6.24156E+005    1.02682E+007   -3.81136E+006    7.87288E+006    2.44016E+006   -4.44906E+005    9.43882E+006    2.69418E+005   -7.31874E+005    1.17591E+006
            8018    7.87836E+006    7.82906E+006    7.82906E+006    1.66219E+006   -1.04626E+006    8.87532E+006   -2.81500E+006    6.70403E+006    1.68574E+006   -9.63456E+005    7.72271E+006    2.64814E+005   -6.23696E+005    6.41598E+005
            8019    3.45569E+006    3.80790E+006    3.80790E+006    8.44725E+005    1.18992E+004    3.79600E+006   -1.55484E+006    3.21807E+006    8.53145E+005    2.56926E+004    3.78569E+006    6.60290E+004   -1.86967E+005   -1.93945E+005
            8020    3.01685E+006    3.16645E+006    3.16645E+006    6.96841E+005   -1.96065E+005    3.36252E+006   -1.22241E+006    2.69462E+006    6.80568E+005   -3.13188E+004    3.01798E+006    2.06759E+005   -1.66872E+005   -6.46879E+005
            8021    3.20519E+006    2.93822E+006    2.93822E+006    5.51012E+005   -7.04712E+005    3.64293E+006   -9.28173E+005    2.55667E+006    5.40028E+005   -1.30036E+005    2.37453E+006    2.88750E+005   -1.43786E+005   -1.28030E+006
            8022    2.98301E+006    3.33689E+006    3.33689E+006    7.86864E+005    5.65453E+004    3.28035E+006   -1.39343E+006    2.77095E+006    7.88382E+005    6.69700E+004    3.32495E+006    5.47062E+004   -1.09244E+005   -1.51703E+005
            8023    2.42159E+006    2.66861E+006    2.66861E+006    6.59779E+005   -2.03060E+004    2.68891E+006   -1.10269E+006    2.19079E+006    6.31037E+005    9.14924E+004    2.58555E+006    1.71373E+005   -9.51302E+004   -4.40850E+005
            8024    2.19518E+006    2.23628E+006    2.23628E+006    5.17313E+005   -2.36479E+005    2.47276E+006   -8.39039E+005    1.86883E+006    4.89884E+005    2.83190E+005    1.74404E+006    2.37268E+005   -7.60796E+004   -9.58764E+005
            8025    2.70920E+006    3.03835E+006    3.03835E+006    7.30143E+005    5.56215E+004    2.98273E+006   -1.27471E+006    2.50963E+006    7.27192E+005    5.99778E+004    3.03695E+006    4.91326E+004   -3.51067E+004   -5.02068E+004
            8026    2.05460E+006    2.35988E+006    2.35988E+006    6.35661E+005    8.64952E+004    2.27338E+006   -1.02734E+006    1.87855E+006    5.94376E+005    1.40804E+005    2.34685E+006    1.49374E+005   -3.28107E+004   -1.62723E+005
            8027    1.12825E+006    1.45640E+006    1.45640E+006    5.59590E+005    1.89610E+005    1.26679E+006   -7.35198E+005    9.77086E+005    4.18977E+005    4.58286E+005    1.32833E+006    2.01874E+005   -2.60804E+004   -3.44443E+005
            8028    1.05279E+007    1.39713E+007    1.39713E+007    4.10824E+006    2.88546E+006    1.10859E+007   -6.98834E+006    1.03663E+007    4.11558E+006    2.88904E+006    1.39604E+007    3.74418E+004   -2.84266E+005   -1.72830E+005
            8029    1.02977E+007    1.39930E+007    1.39930E+007    4.56332E+006    3.00497E+006    1.09880E+007   -7.18710E+006    1.00272E+007    4.59687E+006    3.07427E+006    1.38901E+007   -8.21832E+004   -6.53518E+005   -7.97327E+005
            8030    1.11011E+007    1.42855E+007    1.42855E+007    4.88148E+006    2.03982E+006    1.22457E+007   -7.06894E+006    1.02337E+007    4.91006E+006    2.44963E+006    1.38471E+007   -2.42876E+005   -9.53886E+005   -2.03417E+006
            8031    1.23065E+007    1.64400E+007    1.64400E+007    5.11663E+006    3.34289E+006    1.30971E+007   -8.29985E+006    1.20139E+007    5.12590E+006    3.34385E+006    1.64298E+007    8.14840E+003   -3.24061E+005   -1.11036E+005
            8032    1.15731E+007    1.62748E+007    1.62748E+007    5.71358E+006    3.90316E+006    1.23717E+007   -8.63052E+006    1.12479E+007    5.74871E+006    3.94180E+006    1.62010E+007   -7.30822E+004   -6.65234E+005   -6.30225E+005
            8033    1.11015E+007    1.62001E+007    1.62001E+007    6.26706E+006    4.21608E+006    1.19840E+007   -8.89440E+006    1.06627E+007    6.30194E+006    4.62272E+006    1.57585E+007   -1.74861E+005   -1.01066E+006   -1.99674E+006
            8034    1.36272E+007    1.82434E+007    1.82434E+007    5.85440E+006    3.64739E+006    1.45960E+007   -9.24839E+006    1.32161E+007    5.86450E+006    3.64762E+006    1.82330E+007   -1.19818E+003   -3.53738E+005   -5.69575E+004
            8035    1.24503E+007    1.78888E+007    1.78888E+007    6.54687E+006    4.56732E+006    1.33215E+007   -9.66766E+006    1.20886E+007    6.58419E+006    4.57715E+006    1.78416E+007   -4.33051E+004   -6.66268E+005   -3.26704E+005
            8036    1.05873E+007    1.74079E+007    1.74079E+007    7.37481E+006    6.34219E+006    1.10657E+007   -1.03750E+007    1.04731E+007    7.43533E+006    6.52897E+006    1.71606E+007   -8.92770E+004   -1.03279E+006   -1.24481E+006
            8037    1.40415E+007    1.87994E+007    1.87994E+007    6.07842E+006    3.73283E+006    1.50666E+007   -9.53689E+006    1.35902E+007    6.08880E+006    3.73285E+006    1.87890E+007    1.42614E+003   -3.63174E+005    1.54221E+004
            8038    1.27432E+007    1.84028E+007    1.84028E+007    6.80693E+006    4.76010E+006    1.36427E+007   -9.98995E+006    1.23652E+007    6.84536E+006    4.76036E+006    1.83641E+007    6.28027E+003   -6.66808E+005    5.50133E+004
            8039    1.02687E+007    1.77822E+007    1.77822E+007    7.75973E+006    7.28374E+006    1.04984E+007   -1.09419E+007    1.02438E+007    7.86826E+006    7.28414E+006    1.76732E+007    4.35315E+003   -1.03814E+006    4.85035E+004
            8040    1.33962E+007    1.79123E+007    1.79123E+007    5.71045E+006    3.57754E+006    1.43347E+007   -9.06675E+006    1.30060E+007    5.72039E+006    3.57790E+006    1.79020E+007    2.28954E+003   -3.48335E+005    7.08287E+004
            8041    1.23492E+007    1.76252E+007    1.76252E+007    6.38624E+006    4.40527E+006    1.32199E+007   -9.47223E+006    1.19839E+007    6.42281E+006    4.42080E+006    1.75731E+007    4.91243E+004   -6.63154E+005    4.14726E+005
            8042    1.06084E+007    1.73199E+007    1.73199E+007    7.29973E+006    6.20775E+006    1.11121E+007   -1.02758E+007    1.04808E+007    7.35717E+006    6.41304E+006    1.70572E+007    9.57918E+004   -1.03253E+006    1.31312E+006
            8043    1.19166E+007    1.58829E+007    1.58829E+007    4.87724E+006    3.22729E+006    1.26556E+007   -7.99582E+006    1.16555E+007    4.88619E+006    3.22862E+006    1.58727E+007   -1.32770E+004   -3.14588E+005    1.26661E+005
            8044    1.13504E+007    1.58049E+007    1.58049E+007    5.45057E+006    3.66909E+006    1.21358E+007   -8.30817E+006    1.10293E+007    5.48447E+006    3.70991E+006    1.57301E+007    7.57746E+004   -6.53280E+005    6.40052E+005
            8045    1.10863E+007    1.60108E+007    1.60108E+007    6.13478E+006    4.01918E+006    1.19916E+007   -8.72158E+006    1.06178E+007    6.16894E+006    4.42878E+006    1.55670E+007    1.81515E+005   -1.00724E+006    2.00469E+006
            8046    3.20355E+006    2.93731E+006    2.93731E+006    5.51240E+005   -7.03725E+005    3.64103E+006   -9.28275E+005    2.55549E+006    5.40246E+005   -1.26876E+005    2.37145E+006    2.88792E+005    1.43442E+005    1.28202E+006
            8047    3.01456E+006    3.16485E+006    3.16485E+006    6.96921E+005   -1.95045E+005    3.35990E+006   -1.22224E+006    2.69278E+006    6.80578E+005   -3.23708E+004    3.01852E+006    2.06113E+005    1.66404E+005    6.41864E+005
            8048    3.44825E+006    3.79956E+006    3.79956E+006    8.43232E+005    1.15248E+004    3.78804E+006   -1.55144E+006    3.21073E+006    8.51524E+005    2.51983E+004    3.77760E+006    6.57788E+004    1.85675E+005    1.92715E+005
            8049    2.18578E+006    2.22880E+006    2.22880E+006    5.16339E+005   -2.33123E+005    2.46192E+006   -8.37339E+005    1.86192E+006    4.88676E+005    2.85168E+005    1.73817E+006    2.36843E+005    7.55742E+004    9.54862E+005
            8050    2.42810E+006    2.67414E+006    2.67414E+006    6.60607E+005   -2.22813E+004    2.69642E+006   -1.10416E+006    2.19597E+006    6.32048E+005    8.85958E+004    2.59183E+006    1.71264E+005    9.54709E+004    4.39407E+005
            8051    2.97925E+006    3.33303E+006    3.33303E+006    7.86129E+005    5.68573E+004    3.27617E+006   -1.39201E+006    2.76753E+006    7.87602E+005    6.72366E+004    3.32118E+006    5.45029E+004    1.08476E+005    1.51303E+005
            8052    1.11496E+006    1.44680E+006    1.44680E+006    5.63082E+005    1.94120E+005    1.25268E+006   -7.34667E+005    9.62504E+005    4.18676E+005    4.61271E+005    1.32405E+006    2.01465E+005    2.54635E+004    3.34903E+005
            8053    2.06033E+006    2.36503E+006    2.36503E+006    6.36621E+005    8.50564E+004    2.27997E+006   -1.02890E+006    1.88319E+006    5.95601E+005    1.39882E+005    2.35122E+006    1.49512E+005    3.34443E+004    1.67901E+005
            8054    2.70870E+006    3.03779E+006    3.03779E+006    7.29955E+005    5.56362E+004    2.98216E+006   -1.27446E+006    2.50921E+006    7.27007E+005    5.99988E+004    3.03638E+006    4.90721E+004    3.49503E+004    5.06268E+004
            8055    3.36802E+006    3.33704E+006    3.33704E+006    3.32995E+004   -9.17819E+004    3.42882E+006   -1.09285E+006    3.36279E+006   -6.45062E+004    5.16153E+004    3.29145E+006    1.81516E+004   -3.03122E+005   -2.45444E+005
            8056    3.74893E+006    3.82488E+006    3.82488E+006    1.99104E+005   -3.61287E+004    3.86101E+006   -1.32929E+006    3.73227E+006    2.26713E+005   -1.28188E+004    3.77396E+006   -2.33927E+004   -3.65647E+005   -2.32189E+005
            8057    4.04362E+006    4.24079E+006    4.24079E+006    5.04596E+005   -5.24880E+004    4.29327E+006   -1.56430E+006    3.95590E+006    5.35461E+005   -4.00488E+004    4.19748E+006   -4.98138E+004   -3.77352E+005   -1.49519E+005
            8058    4.15776E+006    4.44535E+006    4.44535E+006    7.50153E+005   -5.67000E+004    4.50205E+006   -1.71293E+006    3.97585E+006    7.77040E+005   -5.13550E+004    4.41312E+006   -6.24076E+004   -3.43257E+005   -2.83054E+004
            8059    3.97687E+006    4.32095E+006    4.32095E+006    8.78523E+005   -3.23396E+004    4.35329E+006   -1.72238E+006    3.73119E+006    8.98000E+005   -2.77180E+004    4.29685E+006   -5.80498E+004   -2.76611E+005    8.24109E+004
            8060    4.19121E+006    4.32502E+006    4.32502E+006    3.25912E+005   -3.49530E+004    4.35997E+006   -1.53866E+006    4.15604E+006    3.50516E+005    5.80704E+004    4.20739E+006    2.39936E+004   -3.21842E+005   -6.23114E+005
            8061    4.22951E+006    4.29923E+006    4.29923E+006    4.37576E+005   -2.20900E+005    4.52013E+006   -1.50530E+006    4.11181E+006    4.50934E+005   -1.29874E+005    4.19484E+006   -6.32009E+004   -3.59868E+005   -5.65557E+005
            8062    4.19738E+006    4.25643E+006    4.25643E+006    5.64323E+005   -3.08859E+005    4.56529E+006   -1.50397E+006    3.98528E+006    5.69203E+005   -2.58948E+005    4.20164E+006   -1.28057E+005   -3.54753E+005   -3.17597E+005
            8063    4.01067E+006    4.11671E+006    4.11671E+006    6.70386E+005   -2.85557E+005    4.40227E+006   -1.50051E+006    3.74124E+006    6.75033E+005   -2.61114E+005    4.08762E+006   -1.53211E+005   -3.12123E+005    4.46468E+004
            8064    3.66612E+006    3.86937E+006    3.86937E+006    7.47774E+005   -1.67760E+005    4.03713E+006   -1.48313E+006    3.39433E+006    7.51955E+005   -1.29323E+005    3.82675E+006   -1.45073E+005   -2.51559E+005    2.86786E+005
            8065    4.99935E+006    5.34517E+006    5.34517E+006    7.26040E+005    3.70715E+004    5.30810E+006   -2.03609E+006    4.89083E+006    7.53019E+005    1.46176E+005    5.20909E+006   -1.79880E+004   -4.07417E+005   -7.22404E+005
            8066    4.99605E+006    5.00085E+006    5.00085E+006    6.80629E+005   -4.70191E+005    5.47104E+006   -1.73710E+006    4.68370E+006    6.86177E+005   -3.72395E+005    4.89751E+006   -1.45321E+005   -4.22777E+005   -5.90778E+005
            8067    4.69130E+006    4.50199E+006    4.50199E+006    6.24760E+005   -7.12852E+005    5.21484E+006   -1.47130E+006    4.22930E+006    6.14236E+005   -6.63760E+005    4.46342E+006   -2.31737E+005   -3.72457E+005   -1.44121E+005
            8068    4.15226E+006    4.03054E+006    4.03054E+006    6.42484E+005   -6.01530E+005    4.63207E+006   -1.35716E+006    3.69678E+006    6.25077E+005   -5.33837E+005    3.98025E+006   -2.62774E+005   -3.09843E+005    2.92961E+005
            8069    3.62072E+006    3.62024E+006    3.62024E+006    6.73029E+005   -4.21454E+005    4.04169E+006   -1.29060E+006    3.21571E+006    6.54032E+005   -2.91335E+005    3.50912E+006   -2.54632E+005   -2.39376E+005    5.77021E+005
            8070    6.46760E+006    6.81254E+006    6.81254E+006    1.31043E+006   -3.11717E+005    7.12426E+006   -2.60375E+006    5.98368E+006    1.33805E+006   -2.05824E+005    6.67903E+006   -1.56819E+005   -5.76409E+005   -7.31174E+005
            8071    6.16975E+006    5.75658E+006    5.75658E+006    9.27826E+005   -1.19412E+006    6.95069E+006   -1.83010E+006    5.24923E+006    9.33702E+005   -1.13636E+006    5.69294E+006   -2.78723E+005   -4.99986E+005   -3.13788E+005
            8072    5.39823E+006    4.80493E+006    4.80493E+006    7.29458E+005   -1.31739E+006    6.12232E+006   -1.40566E+006    4.38818E+006    7.25928E+005   -1.26190E+006    4.75297E+006   -3.20719E+005   -4.03111E+005    2.38935E+005
            8073    4.61100E+006    4.09020E+006    4.09020E+006    6.60900E+005   -1.15166E+006    5.24187E+006   -1.19981E+006    3.67043E+006    6.49257E+005   -1.01499E+006    3.96518E+006   -3.32534E+005   -3.07018E+005    6.74105E+005
            8074    3.80071E+006    3.48705E+006    3.48705E+006    6.35924E+005   -8.27927E+005    4.31497E+006   -1.09835E+006    3.06256E+006    6.23979E+005   -5.56532E+005    3.22760E+006   -3.04825E+005   -2.25671E+005    9.60522E+005
            8075    4.54685E+006    3.72007E+006    3.72007E+006    5.27261E+005   -1.48580E+006    5.20588E+006   -9.20510E+005    3.29469E+006    5.22735E+005   -9.59666E+005    3.19846E+006   -3.54276E+005   -2.19908E+005    1.50872E+006
            8076    5.66766E+006    4.53230E+006    4.53230E+006    6.03284E+005   -1.96481E+006    6.49711E+006   -1.05692E+006    4.00652E+006    6.01389E+005   -1.65711E+006    4.22649E+006   -3.81290E+005   -3.04224E+005    1.28831E+006
            8077    6.77611E+006    5.51448E+006    5.51448E+006    7.85062E+005   -2.24839E+006    7.76287E+006   -1.35039E+006    4.85403E+006    7.88159E+005   -2.12256E+006    5.38556E+006   -3.90838E+005   -4.09362E+005    8.09227E+005
            8078    7.72984E+006    6.66167E+006    6.66167E+006    1.12264E+006   -2.16917E+006    8.83085E+006   -1.87171E+006    5.80615E+006    1.13078E+006   -2.12292E+006    6.60729E+006   -3.74929E+005   -5.04777E+005    2.35681E+005
            8079    8.61039E+006    8.26846E+006    8.26846E+006    1.76234E+006   -1.49549E+006    9.76394E+006   -2.84510E+006    7.00747E+006    1.78315E+006   -1.43434E+006    8.18650E+006   -3.26163E+005   -6.39453E+005   -4.60109E+005
            8080    9.50784E+006    1.00366E+007    1.00366E+007    2.54528E+006   -6.59582E+005    1.06961E+007   -3.97409E+006    8.15257E+006    2.57239E+006   -4.97510E+005    9.84738E+006   -2.92491E+005   -7.59716E+005   -1.11469E+006
            8081    1.04491E+007    1.20987E+007    1.20987E+007    3.59959E+006    4.32390E+005    1.16663E+007   -5.37688E+006    9.27326E+006    3.62645E+006    7.33425E+005    1.17708E+007   -2.77367E+005   -8.63602E+005   -1.67871E+006
            8082    8.99562E+006    1.16314E+007    1.16314E+007    3.38987E+006    2.03532E+006    9.59608E+006   -5.68553E+006    8.76176E+006    3.42594E+006    2.12016E+006    1.15105E+007   -6.76051E+004   -6.30887E+005   -8.35004E+005
            8083    8.62778E+006    1.13301E+007    1.13301E+007    3.05581E+006    2.38770E+006    8.94241E+006   -5.59121E+006    8.56929E+006    3.05492E+006    2.39946E+006    1.13192E+007    7.93376E+004   -2.47992E+005   -1.72775E+005
            8084    7.58102E+006    9.26224E+006    9.26224E+006    2.29972E+006    1.18593E+006    8.07630E+006   -4.24930E+006    7.39358E+006    2.33846E+006    1.26556E+006    9.14387E+006   -4.65979E+004   -5.82935E+005   -7.48276E+005
            8085    6.95192E+006    8.95633E+006    8.95633E+006    2.17124E+006    1.84879E+006    7.10754E+006   -4.32545E+006    6.93507E+006    2.12127E+006    1.91256E+006    8.94253E+006    1.29783E+005   -2.14823E+005   -2.18711E+005
            8086    5.75207E+006    7.14529E+006    7.14529E+006    1.56891E+006    1.23230E+006    5.91299E+006   -3.31550E+006    5.72985E+006    1.40372E+006    1.41512E+006    7.12766E+006    1.76411E+005   -1.71782E+005   -2.62125E+005
            8087    4.72265E+006    5.51733E+006    5.51733E+006    1.00333E+006    6.10556E+005    4.90677E+006   -2.37707E+006    4.68569E+006    7.44040E+005    8.84707E+005    5.50247E+006    1.91057E+005   -1.20025E+005   -2.29198E+005
            8088    3.84877E+006    4.11434E+006    4.11434E+006    4.84917E+005    7.84791E+004    4.03586E+006   -1.55925E+006    3.80004E+006    1.69661E+005    4.04711E+005    4.10337E+006    1.72406E+005   -7.99905E+004   -1.82601E+005
            8089    2.85221E+006    2.64367E+006    2.64367E+006    9.45573E+004   -4.36877E+005    3.08055E+006   -7.67117E+005    2.73747E+006   -4.24955E+005    8.63332E+004    2.63997E+006    7.49014E+004   -7.08120E+004   -7.09025E+004
            8090    6.17920E+006    7.24416E+006    7.24416E+006    1.43734E+006    7.50037E+005    6.49412E+006   -3.14385E+006    6.09232E+006    1.47447E+006    8.23013E+005    7.13406E+006    2.48663E+004   -4.68320E+005   -6.78342E+005
            8091    4.89139E+006    5.49075E+006    5.49075E+006    7.44004E+005    4.66541E+005    5.02421E+006   -2.23377E+006    4.87363E+006    7.47839E+005    5.50856E+005    5.40260E+006    1.03396E+005   -3.06396E+005   -5.74285E+005
            8092    4.03714E+006    4.25665E+006    4.25665E+006    3.07627E+005    1.36809E+005    4.11984E+006   -1.56703E+006    4.02900E+006    2.50141E+005    2.68597E+005    4.18235E+006    1.13019E+005   -2.27205E+005   -4.88300E+005
            8093    3.04663E+006    2.90525E+006    2.90525E+006    6.59055E+004   -3.13192E+005    3.21844E+006   -8.85988E+005    2.99288E+006   -2.95950E+005    7.40376E+004    2.87988E+006    5.34981E+004   -2.00657E+005   -1.86956E+005
            8094    3.69992E+006    3.77346E+006    3.77346E+006    1.60453E+005   -7.64374E+003    3.78110E+006   -1.30876E+006    3.69131E+006    1.84881E+005    3.07641E+004    3.71063E+006    7.93184E+003    3.50398E+005   -3.28070E+005
            8095    4.10086E+006    4.25504E+006    4.25504E+006    4.82622E+005   -1.09812E+005    4.36486E+006   -1.54262E+006    4.00288E+006    5.09408E+005   -8.52148E+004    4.20366E+006    6.01686E+004    3.81388E+005   -2.39482E+005
            8096    4.21699E+006    4.45852E+006    4.45852E+006    7.38265E+005   -1.22405E+005    4.58093E+006   -1.69146E+006    4.01217E+006    7.61558E+005   -1.14539E+005    4.42736E+006    8.25673E+004    3.39197E+005    5.60843E+003
            8097    3.88185E+006    4.25488E+006    4.25488E+006    8.75174E+005    1.51328E+004    4.23975E+006   -1.71506E+006    3.65816E+006    8.91919E+005    2.72876E+004    4.22598E+006    7.46136E+004    2.65410E+005    1.77437E+005
            8098    4.84265E+006    4.90832E+006    4.90832E+006    6.48121E+005   -3.58537E+005    5.26686E+006   -1.73263E+006    4.59831E+006    6.53946E+005   -2.33660E+005    4.77762E+006    1.20940E+005    4.18212E+005   -6.90391E+005
            8099    4.70330E+006    4.45727E+006    4.45727E+006    5.93972E+005   -7.80008E+005    5.23728E+006   -1.42375E+006    4.21504E+006    5.78475E+005   -7.20822E+005    4.41358E+006    2.41069E+005    3.73583E+005   -2.22716E+005
            8100    4.08253E+006    3.95739E+006    3.95739E+006    6.36761E+005   -6.00703E+005    4.55809E+006   -1.33115E+006    3.62311E+006    6.19898E+005   -5.30182E+005    3.90373E+006    2.62249E+005    3.04556E+005    3.15985E+005
            8101    3.55577E+006    3.58382E+006    3.58382E+006    6.91546E+005   -3.86119E+005    3.96994E+006   -1.29642E+006    3.15574E+006    6.75032E+005   -2.54192E+005    3.46841E+006    2.46831E+005    2.34739E+005    5.86898E+005
            8102    4.14002E+006    3.56402E+006    3.56402E+006    5.70093E+005   -1.16049E+006    4.72451E+006   -9.91210E+005    3.15725E+006    5.63235E+005   -7.08026E+005    3.11842E+006    3.30381E+005    2.12274E+005    1.32712E+006
            8103    5.05363E+006    4.19473E+006    4.19473E+006    5.87058E+005   -1.58122E+006    5.77595E+006   -1.06686E+006    3.77159E+006    5.83813E+005   -1.33699E+006    3.95374E+006    3.52303E+005    2.97670E+005    1.06178E+006
            8104    5.94185E+006    4.95804E+006    4.95804E+006    6.78365E+005   -1.82603E+006    6.78406E+006   -1.27013E+006    4.50154E+006    6.79928E+005   -1.72831E+006    4.85876E+006    3.41705E+005    3.76643E+005    6.33469E+005
            8105    6.78527E+006    6.15139E+006    6.15139E+006    1.02755E+006   -1.54372E+006    7.69511E+006   -1.87841E+006    5.51746E+006    1.04052E+006   -1.50696E+006    6.10166E+006    2.99401E+005    5.03208E+005   -6.65836E+004
            8106    7.87150E+006    7.81613E+006    7.81613E+006    1.65866E+006   -1.05265E+006    8.86879E+006   -2.80738E+006    6.69303E+006    1.68203E+006   -9.70347E+005    7.71045E+006    2.65701E+005    6.22742E+005   -6.37369E+005
            8107    9.14639E+006    9.65212E+006    9.65212E+006    2.41795E+006   -6.28792E+005    1.02809E+007   -3.81376E+006    7.87701E+006    2.44386E+006   -4.49387E+005    9.44681E+006    2.70584E+005    7.32663E+005   -1.17659E+006
            8108    1.02442E+007    1.17289E+007    1.17289E+007    3.41894E+006    2.83324E+005    1.14456E+007   -5.14371E+006    9.06639E+006    3.44641E+006    5.62531E+005    1.14222E+007    2.75047E+005    8.46330E+005   -1.59549E+006
            8109    1.09846E+007    1.39808E+007    1.39808E+007    4.70831E+006    1.84942E+006    1.21313E+007   -6.84617E+006    1.00954E+007    4.73659E+006    2.25467E+006    1.35472E+007    2.44081E+005    9.42843E+005   -2.01329E+006
            8110    1.00318E+007    1.34773E+007    1.34773E+007    4.28406E+006    2.77740E+006    1.06999E+007   -6.84625E+006    9.77237E+006    4.31786E+006    2.84422E+006    1.33767E+007    7.44787E+004    6.38714E+005   -7.77363E+005
            8111    1.00541E+007    1.33042E+007    1.33042E+007    3.83101E+006    2.75577E+006    1.05485E+007   -6.63033E+006    9.92346E+006    3.83697E+006    2.76004E+006    1.32940E+007   -4.93751E+004    2.72159E+005   -1.57910E+005
            8112    8.59556E+006    1.10602E+007    1.10602E+007    3.13717E+006    1.92146E+006    9.13870E+006   -5.37293E+006    8.39887E+006    3.17390E+006    2.00529E+006    1.09396E+007    4.93613E+004    6.07265E+005   -8.21289E+005
            8113    8.29267E+006    1.07786E+007    1.07786E+007    2.81082E+006    2.19530E+006    8.58328E+006   -5.26156E+006    8.24104E+006    2.80500E+006    2.21426E+006    1.07654E+007   -9.46244E+004    2.35887E+005   -2.26933E+005
            8114    7.38589E+006    8.92719E+006    8.92719E+006    2.12653E+006    1.06987E+006    7.85731E+006   -4.04120E+006    7.21290E+006    2.16615E+006    1.15014E+006    8.80731E+006    2.06815E+004    5.55892E+005   -7.61224E+005
            8115    6.58484E+006    8.36302E+006    8.36302E+006    1.94058E+006    1.62699E+006    6.73604E+006   -3.97686E+006    6.56801E+006    1.86242E+006    1.71553E+006    8.35265E+006   -1.44156E+005    1.99049E+005   -1.64259E+005
            8116    5.83581E+006    6.67149E+006    6.67149E+006    1.21709E+006    5.17358E+005    6.15413E+006   -2.80198E+006    5.74029E+006    1.25466E+006    5.81936E+005    6.56933E+006   -1.25105E+004    4.62285E+005   -6.16846E+005
            8117    5.27888E+006    6.39793E+006    6.39793E+006    1.31189E+006    9.45324E+005    5.45261E+006   -2.88505E+006    5.25013E+006    1.09430E+006    1.18198E+006    6.37885E+006   -1.87436E+005    1.59441E+005   -2.67134E+005
            8118    4.25844E+006    4.75292E+006    4.75292E+006    7.05476E+005    3.10936E+005    4.44198E+006   -1.92311E+006    4.21703E+006    4.35168E+005    6.00996E+005    4.73317E+006   -1.89485E+005    1.22660E+005   -2.54244E+005
            8119    2.98409E+006    2.85234E+006    2.85234E+006    1.59470E+005   -3.55859E+005    3.20820E+006   -8.85316E+005    2.88142E+006   -3.39776E+005    1.52432E+005    2.84329E+006   -8.50419E+004    9.76109E+004   -1.25259E+005
            8120    4.61463E+006    4.96996E+006    4.96996E+006    5.44116E+005    1.87261E+005    4.78270E+006   -1.90044E+006    4.58343E+006    5.69660E+005    2.79726E+005    4.85195E+006   -5.60059E+004    3.32249E+005   -6.55894E+005
            8121    3.31549E+006    3.24746E+006    3.24746E+006    3.50427E+004   -1.62304E+005    3.40976E+006   -1.04006E+006    3.30224E+006   -1.41583E+005    6.02766E+004    3.20150E+006   -3.91891E+004    2.54189E+005   -2.89790E+005
            8122    3.41930E+006    2.98108E+006    2.98108E+006    5.05279E+005   -9.20356E+005    3.90143E+006   -8.55333E+005    2.61286E+006    4.95874E+005   -2.23271E+005    2.29340E+006   -3.06778E+005   -1.37596E+005    1.45046E+006
            8123    2.98826E+006    2.90607E+006    2.90607E+006    6.18606E+005   -4.74926E+005    3.38099E+006   -1.01658E+006    2.47393E+006    6.00672E+005   -1.28998E+005    2.57808E+006   -2.61389E+005   -1.48362E+005    9.61476E+005
            8124    3.02402E+006    3.15611E+006    3.15611E+006    6.75488E+005   -2.12478E+005    3.36859E+006   -1.20637E+006    2.70655E+006    6.52074E+005   -4.02883E+004    3.00733E+006   -2.24761E+005   -1.67965E+005    6.45801E+005
            8125    3.24581E+006    3.49964E+006    3.49964E+006    7.53363E+005   -8.22927E+004    3.58193E+006   -1.39024E+006    2.98908E+006    7.53855E+005   -3.11844E+004    3.44804E+006   -1.22734E+005   -1.80244E+005    3.66373E+005
            8126    3.56409E+006    3.91455E+006    3.91455E+006    8.79319E+005   -9.98685E+003    3.92454E+006   -1.59463E+006    3.30033E+006    8.89923E+005   -4.43483E+003    3.89839E+006   -4.87238E+004   -1.94388E+005    1.16669E+005
            8127    2.23434E+006    2.17851E+006    2.17851E+006    4.63236E+005   -3.48155E+005    2.52667E+006   -7.64531E+005    1.85658E+006    4.40920E+005    2.91098E+005    1.56158E+006   -2.51623E+005   -7.44416E+004    1.05507E+006
            8128    2.14922E+006    2.28918E+006    2.28918E+006    5.80582E+005   -1.23859E+005    2.41304E+006   -9.15302E+005    1.86158E+006    5.46485E+005    1.58489E+005    2.04093E+006   -2.14206E+005   -8.56050E+004    7.06110E+005
            8129    2.42020E+006    2.65865E+006    2.65865E+006    6.48715E+005   -2.78432E+004    2.68649E+006   -1.09317E+006    2.19183E+006    6.11660E+005    1.09557E+005    2.55830E+006   -1.91365E+005   -9.74295E+004    4.83087E+005
            8130    2.77360E+006    3.05920E+006    3.05920E+006    7.09560E+005   -3.66280E+002    3.05956E+006   -1.25613E+006    2.55692E+006    7.02666E+005    3.93821E+004    3.02634E+006   -1.03785E+005   -1.05229E+005    2.86733E+005
            8131    3.12645E+006    3.45247E+006    3.45247E+006    8.14451E+005   -8.63508E+002    3.45333E+006   -1.42202E+006    2.87230E+006    8.17797E+005    3.44755E+003    3.44481E+006   -3.96238E+004   -1.13430E+005    9.60921E+004
            8132    1.01372E+006    1.31406E+006    1.31406E+006    5.29155E+005    1.69571E+005    1.14449E+006   -6.70930E+005    8.51389E+005    3.77929E+005    5.34883E+005    1.09998E+006   -2.13570E+005   -2.10410E+004    3.90213E+005
            8133    1.46870E+006    1.78781E+006    1.78781E+006    5.91257E+005    1.48733E+005    1.63908E+006   -8.42599E+005    1.30557E+006    5.01504E+005    2.83338E+005    1.74296E+006   -1.86648E+005   -2.52924E+004    2.52317E+005
            8134    2.00594E+006    2.32189E+006    2.32189E+006    6.33789E+005    1.04328E+005    2.21756E+006   -1.02000E+006    1.83862E+006    5.77524E+005    1.76392E+005    2.30609E+006   -1.67931E+005   -3.19106E+004    1.76926E+005
            8135    2.47321E+006    2.77556E+006    2.77556E+006    6.71928E+005    5.10767E+004    2.72448E+006   -1.16619E+006    2.28782E+006    6.59883E+005    6.81345E+004    2.77055E+006   -8.95650E+004   -3.52682E+004    1.07889E+005
            8136    2.83772E+006    3.14799E+006    3.14799E+006    7.60011E+005    1.08483E+004    3.13714E+006   -1.30628E+006    2.60091E+006    7.59089E+005    1.27703E+004    3.14699E+006   -3.39857E+004   -3.69698E+004    3.61136E+004
            8137    1.11033E+007    1.42758E+007    1.42758E+007    4.87380E+006    2.02605E+006    1.22498E+007   -7.05856E+006    1.02321E+007    4.90216E+006    2.43630E+006    1.38372E+007   -2.43940E+005    9.53785E+005    2.03522E+006
            8138    1.03101E+007    1.40220E+007    1.40220E+007    4.57831E+006    3.02240E+006    1.09996E+007   -7.20759E+006    1.00409E+007    4.61200E+006    3.08971E+006    1.39210E+007   -8.11905E+004    6.52715E+005    7.86113E+005
            8139    1.05673E+007    1.40268E+007    1.40268E+007    4.13102E+006    2.89649E+006    1.11303E+007   -7.01812E+006    1.04032E+007    4.13839E+006    2.90006E+006    1.40159E+007    3.67660E+004    2.84532E+005    1.73899E+005
            8140    1.10966E+007    1.62012E+007    1.62012E+007    6.27162E+006    4.22307E+006    1.19781E+007   -8.89863E+006    1.06586E+007    6.30636E+006    4.63074E+006    1.57588E+007   -1.75106E+005    1.01131E+006    1.99829E+006
            8141    1.15891E+007    1.62921E+007    1.62921E+007    5.71920E+006    3.90161E+006    1.23905E+007   -8.63763E+006    1.12617E+007    5.75434E+006    3.93951E+006    1.62190E+007   -7.30483E+004    6.64997E+005    6.24162E+005
            8142    1.23381E+007    1.64840E+007    1.64840E+007    5.13496E+006    3.35115E+006    1.31329E+007   -8.32338E+006    1.20428E+007    5.14423E+006    3.35205E+006    1.64739E+007    8.04820E+003    3.24431E+005    1.07781E+005
            8143    1.05828E+007    1.74220E+007    1.74220E+007    7.38727E+006    6.36538E+006    1.10567E+007   -1.03916E+007    1.04709E+007    7.44800E+006    6.55103E+006    1.71757E+007   -8.87291E+004    1.03440E+006    1.23886E+006
            8144    1.24580E+007    1.78942E+007    1.78942E+007    6.54775E+006    4.56300E+006    1.33312E+007   -9.66832E+006    1.20946E+007    6.58519E+006    4.57286E+006    1.78469E+007   -4.30702E+004    6.67205E+005    3.27663E+005
            8145    1.36409E+007    1.82605E+007    1.82605E+007    5.86085E+006    3.64870E+006    1.46118E+007   -9.25669E+006    1.32283E+007    5.87097E+006    3.64893E+006    1.82502E+007   -1.14752E+003    3.54190E+005    5.68196E+004
            8146    1.02579E+007    1.77692E+007    1.77692E+007    7.75617E+006    7.28269E+006    1.04865E+007   -1.09360E+007    1.02333E+007    7.86473E+006    7.28347E+006    1.76598E+007    5.90712E+003    1.03859E+006   -6.74762E+004
            8147    1.27399E+007    1.83966E+007    1.83966E+007    6.80444E+006    4.75697E+006    1.36397E+007   -9.98601E+006    1.23616E+007    6.84287E+006    4.75720E+006    1.83580E+007    6.35218E+003    6.66769E+005   -5.12668E+004
            8148    1.40389E+007    1.87949E+007    1.87949E+007    6.07607E+006    3.73114E+006    1.50637E+007   -9.53403E+006    1.35878E+007    6.08646E+006    3.73116E+006    1.87845E+007    1.21374E+003    3.63420E+005   -1.56446E+004
            8149    1.06193E+007    1.73099E+007    1.73099E+007    7.28783E+006    6.18018E+006    1.11297E+007   -1.02593E+007    1.04882E+007    7.34461E+006    6.39102E+006    1.70423E+007    9.68476E+004    1.03257E+006   -1.33433E+006
            8150    1.23366E+007    1.76177E+007    1.76177E+007    6.38679E+006    4.41334E+006    1.32044E+007   -9.47261E+006    1.19737E+007    6.42347E+006    4.42868E+006    1.75657E+007    4.91519E+004    6.63910E+005   -4.11368E+005
            8151    1.33762E+007    1.78832E+007    1.78832E+007    5.69769E+006    3.57114E+006    1.43121E+007   -9.05067E+006    1.29877E+007    5.70756E+006    3.57150E+006    1.78730E+007    1.89256E+003    3.46899E+005   -7.10210E+004
            8152    1.10910E+007    1.59912E+007    1.59912E+007    6.11732E+006    3.99096E+006    1.20002E+007   -8.69982E+006    1.06177E+007    6.15149E+006    4.40028E+006    1.55477E+007    1.81927E+005    1.00567E+006   -2.00550E+006
            8153    1.13444E+007    1.58085E+007    1.58085E+007    5.45701E+006    3.68083E+006    1.21277E+007   -8.31545E+006    1.10250E+007    5.49107E+006    3.72278E+006    1.57325E+007    7.54724E+004    6.55055E+005   -6.49770E+005
            8154    1.18901E+007    1.58434E+007    1.58434E+007    4.86021E+006    3.21736E+006    1.26261E+007   -7.97367E+006    1.16306E+007    4.86916E+006    3.21872E+006    1.58331E+007   -1.35602E+004    3.14385E+005   -1.27726E+005
            8155    3.57053E+006    3.92044E+006    3.92044E+006    8.80228E+005   -1.14055E+004    3.93185E+006   -1.59642E+006    3.30584E+006    8.90908E+005   -5.88119E+003    3.90424E+006   -4.87326E+004    1.95106E+005   -1.16384E+005
            8156    3.24556E+006    3.49909E+006    3.49909E+006    7.53323E+005   -8.26840E+004    3.58178E+006   -1.38991E+006    2.98857E+006    7.53700E+005   -3.10722E+004    3.44710E+006   -1.23393E+005    1.80258E+005   -3.68095E+005
            8157    3.02220E+006    3.15165E+006    3.15165E+006    6.74341E+005   -2.15597E+005    3.36725E+006   -1.20346E+006    2.70297E+006    6.50835E+005   -4.16878E+004    3.00125E+006   -2.25494E+005    1.67683E+005   -6.49376E+005
            8158    2.98498E+006    2.89998E+006    2.89998E+006    6.16332E+005   -4.77648E+005    3.37763E+006   -1.01289E+006    2.46940E+006    5.98429E+005   -1.27053E+005    2.56729E+006   -2.61653E+005    1.47483E+005   -9.67534E+005
            8159    3.41845E+006    2.97974E+006    2.97974E+006    5.04837E+005   -9.20791E+005    3.90053E+006   -8.54594E+005    2.61172E+006    4.95402E+005   -2.21490E+005    2.28987E+006   -3.06756E+005    1.37134E+005   -1.45220E+006
            8160    3.12776E+006    3.45537E+006    3.45537E+006    8.15856E+005    7.55465E+002    3.45461E+006   -1.42399E+006    2.87387E+006    8.19250E+005    4.99270E+003    3.44774E+006   -3.91528E+004    1.13572E+005   -9.55030E+004
            8161    2.77850E+006    3.06487E+006    3.06487E+006    7.10872E+005   -6.82166E+000    3.06488E+006   -1.25858E+006    2.56164E+006    7.04257E+005    3.90880E+004    3.03239E+006   -1.02744E+005    1.05478E+005   -2.85050E+005
            8162    2.42229E+006    2.66122E+006    2.66122E+006    6.49292E+005   -2.74734E+004    2.68870E+006   -1.09435E+006    2.19399E+006    6.12592E+005    1.09660E+005    2.56079E+006   -1.90772E+005    9.75306E+004   -4.83576E+005
            8163    2.14379E+006    2.28181E+006    2.28181E+006    5.77909E+005   -1.25261E+005    2.40707E+006   -9.11485E+005    1.85641E+006    5.43644E+005    1.60193E+005    2.03062E+006   -2.14708E+005    8.51766E+004   -7.08865E+005
            8164    2.23792E+006    2.17723E+006    2.17723E+006    4.60232E+005   -3.53758E+005    2.53099E+006   -7.61236E+005    1.85815E+006    4.38273E+005    2.90861E+005    1.55457E+006   -2.52160E+005    7.46887E+004   -1.05962E+006
            8165    2.83994E+006    3.14861E+006    3.14861E+006    7.59307E+005    8.78516E+003    3.13982E+006   -1.30557E+006    2.60243E+006    7.58408E+005    1.06970E+004    3.14760E+006   -3.38627E+004    3.72408E+004   -3.63071E+004
            8166    2.47691E+006    2.77899E+006    2.77899E+006    6.72625E+005    5.02524E+004    2.72874E+006   -1.16729E+006    2.29087E+006    6.60696E+005    6.71931E+004    2.77398E+006   -8.92861E+004    3.53167E+004   -1.07945E+005
            8167    2.00497E+006    2.32124E+006    2.32124E+006    6.33755E+005    1.04837E+005    2.21640E+006   -1.01994E+006    1.83792E+006    5.77487E+005    1.76714E+005    2.30563E+006   -1.67795E+005    3.17978E+004   -1.75795E+005
            8168    1.46352E+006    1.78608E+006    1.78608E+006    5.93158E+005    1.52989E+005    1.63309E+006   -8.44076E+005    1.30162E+006    5.02923E+005    2.87234E+005    1.74207E+006   -1.86253E+005    2.51066E+004   -2.49440E+005
            8169    1.01719E+006    1.31918E+006    1.31918E+006    5.30938E+005    1.70951E+005    1.14823E+006   -6.73690E+005    8.55164E+005    3.80371E+005    5.36450E+005    1.10425E+006   -2.13767E+005    2.11609E+004   -3.91946E+005
            8170    8.60376E+006    8.26524E+006    8.26524E+006    1.76186E+006   -1.49061E+006    9.75585E+006   -2.84550E+006    7.00538E+006    1.78289E+006   -1.43004E+006    8.18365E+006   -3.25011E+005    6.38986E+005    4.56457E+005
            8171    7.72784E+006    6.65951E+006    6.65951E+006    1.12249E+006   -2.16916E+006    8.82867E+006   -1.87094E+006    5.80362E+006    1.13062E+006   -2.12288E+006    6.60510E+006   -3.74885E+005    5.04529E+005   -2.36464E+005
            8172    6.75752E+006    5.50065E+006    5.50065E+006    7.83591E+005   -2.24083E+006    7.74148E+006   -1.34781E+006    4.84192E+006    7.86670E+005   -2.11410E+006    5.37085E+006   -3.90369E+005    4.08283E+005   -8.12401E+005
            8173    5.65699E+006    4.52571E+006    4.52571E+006    6.02960E+005   -1.95900E+006    6.48471E+006   -1.05655E+006    4.00127E+006    6.00955E+005   -1.65018E+006    4.21889E+006   -3.81302E+005    3.03537E+005   -1.28937E+006
            8174    4.53051E+006    3.70998E+006    3.70998E+006    5.27150E+005   -1.47696E+006    5.18693E+006   -9.20056E+005    3.28570E+006    5.22592E+005   -9.50053E+005    3.18763E+006   -3.53632E+005    2.19131E+005   -1.50671E+006
            8175    3.81297E+006    3.49405E+006    3.49405E+006    6.35674E+005   -8.35311E+005    4.32936E+006   -1.09814E+006    3.06953E+006    6.23851E+005   -5.63378E+005    3.23394E+006   -3.05570E+005    2.26451E+005   -9.63317E+005
            8176    3.62716E+006    3.62085E+006    3.62085E+006    6.71375E+005   -4.29113E+005    4.04996E+006   -1.28770E+006    3.21813E+006    6.52306E+005   -2.97351E+005    3.50815E+006   -2.56123E+005    2.39782E+005   -5.82308E+005
            8177    3.66665E+006    3.86580E+006    3.86580E+006    7.45666E+005   -1.72753E+005    4.03856E+006   -1.47957E+006    3.39308E+006    7.49535E+005   -1.33592E+005    3.82277E+006   -1.46679E+005    2.51558E+005   -2.89367E+005
            8178    3.97566E+006    4.32026E+006    4.32026E+006    8.78500E+005   -3.15123E+004    4.35177E+006   -1.72242E+006    3.73037E+006    8.97939E+005   -2.68809E+004    4.29619E+006   -5.83703E+004    2.76650E+005   -8.14014E+004
            8179    4.62648E+006    4.10252E+006    4.10252E+006    6.61672E+005   -1.15694E+006    5.25946E+006   -1.20242E+006    3.68279E+006    6.50144E+005   -1.02212E+006    3.97922E+006   -3.32531E+005    3.08417E+005   -6.68554E+005
            8180    4.16772E+006    4.04066E+006    4.04066E+006    6.42914E+005   -6.09725E+005    4.65038E+006   -1.35795E+006    3.70734E+006    6.25446E+005   -5.42274E+005    3.99067E+006   -2.63928E+005    3.11186E+005   -2.90082E+005
            8181    4.01109E+006    4.11659E+006    4.11659E+006    6.71097E+005   -2.86705E+005    4.40329E+006   -1.50033E+006    3.74059E+006    6.75500E+005   -2.61992E+005    4.08747E+006   -1.54172E+005    3.12402E+005   -4.34364E+004
            8182    4.15588E+006    4.44228E+006    4.44228E+006    7.49138E+005   -5.79469E+004    4.50023E+006   -1.71116E+006    3.97378E+006    7.75935E+005   -5.25399E+004    4.41008E+006   -6.28404E+004    3.43031E+005    2.80487E+004
            8183    5.43029E+006    4.83425E+006    4.83425E+006    7.35183E+005   -1.32457E+006    6.15883E+006   -1.41496E+006    4.41337E+006    7.31972E+005   -1.27008E+006    4.78298E+006   -3.20811E+005    4.06386E+005   -2.27053E+005
            8184    4.71164E+006    4.52057E+006    4.52057E+006    6.28055E+005   -7.17463E+005    5.23803E+006   -1.47705E+006    4.24605E+006    6.17793E+005   -6.68102E+005    4.48147E+006   -2.32025E+005    3.74680E+005    1.49508E+005
            8185    4.20310E+006    4.25904E+006    4.25904E+006    5.66058E+005   -3.14617E+005    4.57366E+006   -1.50350E+006    3.98751E+006    5.70674E+005   -2.65116E+005    4.20493E+006   -1.29608E+005    3.54328E+005    3.13691E+005
            8186    4.04784E+006    4.24513E+006    4.24513E+006    5.08943E+005   -5.51796E+004    4.30031E+006   -1.56630E+006    3.95795E+006    5.39593E+005   -4.25397E+004    4.20184E+006   -5.08607E+004    3.77112E+005    1.50265E+005
            8187    6.18286E+006    5.77384E+006    5.77384E+006    9.33896E+005   -1.19134E+006    6.96518E+006   -1.83880E+006    5.26158E+006    9.39985E+005   -1.13338E+006    5.70979E+006   -2.78442E+005    5.01319E+005    3.17153E+005
            8188    5.00854E+006    5.01385E+006    5.01385E+006    6.83642E+005   -4.71270E+005    5.48512E+006   -1.74207E+006    4.69472E+006    6.89326E+005   -3.72867E+005    4.90976E+006   -1.45504E+005    4.24305E+005    5.94041E+005
            8189    4.23673E+006    4.30694E+006    4.30694E+006    4.42362E+005   -2.23178E+005    4.53012E+006   -1.50871E+006    4.11666E+006    4.55532E+005   -1.31652E+005    4.20224E+006   -6.47304E+004    3.61239E+005    5.66638E+005
            8190    3.75577E+006    3.83741E+006    3.83741E+006    2.08339E+005   -3.33920E+004    3.87080E+006   -1.33745E+006    3.73821E+006    2.36077E+005   -1.03717E+004    3.78665E+006   -2.40026E+004    3.66032E+005    2.30814E+005
            8191    6.47341E+006    6.81925E+006    6.81925E+006    1.31136E+006   -3.11046E+005    7.13029E+006   -2.60652E+006    5.98982E+006    1.33910E+006   -2.05313E+005    6.68577E+006   -1.56259E+005    5.76459E+005    7.31513E+005
            8192    4.98895E+006    5.33166E+006    5.33166E+006    7.20120E+005    3.59230E+004    5.29573E+006   -2.02923E+006    4.88172E+006    7.47007E+005    1.44540E+005    5.19615E+006   -1.75146E+004    4.05894E+005    7.20205E+005
            8193    4.18877E+006    4.32007E+006    4.32007E+006    3.24891E+005   -3.86003E+004    4.35867E+006   -1.53545E+006    4.15306E+006    3.49439E+005    5.55311E+004    4.20139E+006    2.33616E+004    3.22127E+005    6.26318E+005
            8194    3.38113E+006    3.35267E+006    3.35267E+006    3.09854E+004   -8.49339E+004    3.43760E+006   -1.09957E+006    3.37666E+006   -5.71919E+004    4.90187E+004    3.30689E+006    1.68176E+004    3.05432E+005    2.45153E+005
            8195    3.05850E+006    2.91991E+006    2.91991E+006    6.43836E+004   -3.07537E+005    3.22745E+006   -8.92253E+005    3.00699E+006   -2.89942E+005    7.28843E+004    2.89382E+006    5.35795E+004    2.03486E+005    1.90400E+005
            8196    2.85683E+006    2.65072E+006    2.65072E+006    9.63259E+004   -4.34181E+005    3.08490E+006   -7.70955E+005    2.74271E+006   -4.22131E+005    8.81259E+004    2.64687E+006    7.51826E+004    7.18890E+004    7.27586E+004
            8197    4.03274E+006    4.24945E+006    4.24945E+006    3.04572E+005    1.34259E+005    4.11519E+006   -1.56276E+006    4.02463E+006    2.47060E+005    2.66355E+005    4.17487E+006    1.12881E+005    2.27112E+005    4.89123E+005
            8198    3.85680E+006    4.12521E+006    4.12521E+006    4.87214E+005    8.16688E+004    4.04355E+006   -1.56470E+006    3.80838E+006    1.73761E+005    4.06083E+005    4.11425E+006    1.72778E+005    8.03572E+004    1.82538E+005
            8199    4.88179E+006    5.47765E+006    5.47765E+006    7.39221E+005    4.64125E+005    5.01352E+006   -2.22700E+006    4.86431E+006    7.42552E+005    5.49171E+005    5.38927E+006    1.03761E+005    3.05120E+005    5.75128E+005
            8200    4.72711E+006    5.52361E+006    5.52361E+006    1.00524E+006    6.12278E+005    4.91133E+006   -2.38037E+006    4.69015E+006    7.46515E+005    8.86135E+005    5.50848E+006    1.91467E+005    1.20278E+005    2.31884E+005
            8201    6.18315E+006    7.24697E+006    7.24697E+006    1.43684E+006    7.48427E+005    6.49855E+006   -3.14408E+006    6.09604E+006    1.47395E+006    8.21566E+005    7.13673E+006    2.51944E+004    4.68165E+005    6.79442E+005
            8202    5.74727E+006    7.14201E+006    7.14201E+006    1.57046E+006    1.23381E+006    5.90819E+006   -3.31543E+006    5.72502E+006    1.40339E+006    1.41847E+006    7.12442E+006    1.76370E+005    1.71310E+005    2.61794E+005
            8203    6.96574E+006    8.97856E+006    8.97856E+006    2.17985E+006    1.85702E+006    7.12155E+006   -4.33848E+006    6.94888E+006    2.13080E+006    1.91973E+006    8.96490E+006    1.28989E+005    2.14671E+005    2.17184E+005
            8204    8.66808E+006    1.13859E+007    1.13859E+007    3.07772E+006    2.39791E+006    8.98797E+006   -5.62051E+006    8.60780E+006    3.07715E+006    2.40929E+006    1.13751E+007    7.85190E+004    2.48471E+005    1.71628E+005
            8205    7.58605E+006    9.27316E+006    9.27316E+006    2.30455E+006    1.19246E+006    8.08071E+006   -4.25672E+006    7.39932E+006    2.34317E+006    1.27218E+006    9.15482E+006   -4.68725E+004    5.82877E+005    7.48653E+005
            8206    9.00347E+006    1.16593E+007    1.16593E+007    3.40591E+006    2.05781E+006    9.60151E+006   -5.70768E+006    8.77209E+006    3.44191E+006    2.14263E+006    1.15385E+007   -6.70882E+004    6.30570E+005    8.35399E+005
            8207    1.04392E+007    1.20708E+007    1.20708E+007    3.58348E+006    4.14267E+005    1.16565E+007   -5.35617E+006    9.26036E+006    3.61022E+006    7.13013E+005    1.17453E+007   -2.77926E+005    8.61842E+005    1.67074E+006
            8208    9.49724E+006    1.00186E+007    1.00186E+007    2.53511E+006   -6.65427E+005    1.06841E+007   -3.96277E+006    8.14420E+006    2.56215E+006   -5.04896E+005    9.83106E+006   -2.92613E+005    7.58490E+005    1.10710E+006
            8209    6.76546E+006    6.10943E+006    6.10943E+006    9.47812E+005   -1.54974E+006    7.65917E+006   -1.83583E+006    5.57692E+006    9.56238E+005   -1.47886E+006    6.03013E+006    4.15583E+005   -6.38528E+005    1.45311E+004
            8210    5.93160E+006    4.94181E+006    4.94181E+006    6.57275E+005   -1.82819E+006    6.77000E+006   -1.25696E+006    4.51494E+006    6.48042E+005   -1.68982E+006    4.81267E+006    4.64787E+005   -4.67802E+005   -6.66614E+005
            8211    5.08540E+006    4.22379E+006    4.22379E+006    5.98428E+005   -1.58937E+006    5.81317E+006   -1.07762E+006    3.78630E+006    5.81707E+005   -1.30449E+006    3.95563E+006    4.68737E+005   -3.59849E+005   -1.08147E+006
            8212    4.19968E+006    3.59169E+006    3.59169E+006    5.83200E+005   -1.20634E+006    4.79803E+006   -9.89515E+005    3.15291E+006    5.62676E+005   -7.17990E+005    3.12386E+006    4.46171E+005   -2.61793E+005   -1.33600E+006
            8213    3.58845E+006    3.60395E+006    3.60395E+006    6.33780E+005   -3.83245E+005    3.98719E+006   -1.28483E+006    3.23962E+006    6.00378E+005   -2.20982E+005    3.47509E+006    2.90710E+005   -2.54888E+005   -6.13401E+005
            8214    3.92893E+006    4.17565E+006    4.17565E+006    7.38437E+005   -1.07265E+005    4.28291E+006   -1.60227E+006    3.71577E+006    7.49913E+005   -8.65738E+004    4.14348E+006    1.21370E+005   -2.93642E+005   -1.62208E+005
            8215    4.09963E+006    3.98800E+006    3.98800E+006    6.00434E+005   -5.69382E+005    4.55739E+006   -1.33968E+006    3.69521E+006    5.69308E+005   -4.74554E+005    3.92430E+006    2.97802E+005   -3.21582E+005   -3.57235E+005
            8216    4.24944E+006    4.36839E+006    4.36839E+006    6.03466E+005   -2.39278E+005    4.60767E+006   -1.57753E+006    4.05498E+006    6.18283E+005   -2.17888E+005    4.33218E+006    1.33180E+005   -3.68251E+005   -1.33748E+003
            8217    4.67698E+006    4.46923E+006    4.46923E+006    5.53287E+005   -7.09494E+005    5.17872E+006   -1.43767E+006    4.26745E+006    5.37164E+005   -6.47360E+005    4.42322E+006    2.54583E+005   -4.13413E+005    1.40692E+005
            8218    4.12643E+006    4.16958E+006    4.16958E+006    3.72108E+005   -2.21513E+005    4.39109E+006   -1.44006E+006    4.02868E+006    3.88092E+005   -1.83992E+005    4.11607E+006    1.00669E+005   -4.02959E+005    2.25133E+005
            8219    4.79578E+006    4.88493E+006    4.88493E+006    5.62074E+005   -2.73853E+005    5.15879E+006   -1.72438E+006    4.62759E+006    5.80221E+005   -1.72905E+005    4.76584E+006    1.02234E+005   -4.72110E+005    5.94582E+005
            8220    3.72288E+006    3.71222E+006    3.71222E+006    8.62976E+004   -1.00573E+005    3.81280E+006   -1.23265E+006    3.71231E+006    1.02910E+005   -5.79817E+004    3.65302E+006    2.83216E+004   -3.62375E+005    2.96166E+005
            8221    3.31872E+006    3.22553E+006    3.22553E+006    2.47085E+004   -1.99692E+005    3.42522E+006   -1.01685E+006    3.30158E+006   -1.75466E+005    4.02887E+004    3.18572E+006   -5.21102E+004   -2.55488E+005    2.52291E+005
            8222    2.97582E+006    2.83999E+006    2.83999E+006    1.66640E+005   -3.66278E+005    3.20627E+006   -8.80118E+005    2.86549E+006   -3.35587E+005    1.43389E+005    2.83255E+006   -1.22086E+005   -9.37700E+004    1.08527E+005
            8223    4.60231E+006    4.89781E+006    4.89781E+006    4.20615E+005    1.79833E+005    4.71798E+006   -1.83275E+006    4.58811E+006    4.47386E+005    2.61060E+005    4.78981E+006   -9.52775E+004   -3.90531E+005    5.76200E+005
            8224    4.31724E+006    4.68704E+006    4.68704E+006    6.89531E+005    1.08844E+005    4.57819E+006   -1.82847E+006    4.22804E+006    2.67176E+005    5.49851E+005    4.66839E+006   -2.64159E+005   -1.55462E+005    2.23811E+005
            8225    5.40976E+006    6.30955E+006    6.30955E+006    1.21990E+006    6.28303E+005    5.68124E+006   -2.71925E+006    5.33625E+006    7.83882E+005    1.08564E+006    6.28823E+006   -2.66141E+005   -2.09810E+005    2.53617E+005
            8226    6.75816E+006    8.23414E+006    8.23414E+006    1.70887E+006    1.26499E+006    6.96916E+006   -3.73600E+006    6.72524E+006    1.41665E+006    1.57116E+006    8.22019E+006   -2.13716E+005   -2.49843E+005    1.70842E+005
            8227    8.48932E+006    1.06275E+007    1.06275E+007    2.32655E+006    1.96162E+006    8.66590E+006   -4.97190E+006    8.47165E+006    2.26192E+006    2.04179E+006    1.06120E+007   -1.53384E+005   -2.54438E+005    2.54137E+005
            8228    1.02278E+007    1.31047E+007    1.31047E+007    3.23073E+006    2.55646E+006    1.05482E+007   -6.29728E+006    1.01776E+007    3.22431E+006    2.57190E+006    1.30956E+007   -9.21049E+004   -2.25176E+005    2.00189E+005
            8229    5.87579E+006    6.57281E+006    6.57281E+006    9.47834E+005    4.74797E+005    6.09801E+006   -2.66515E+006    5.83272E+006    1.00944E+006    5.21031E+005    6.46497E+006   -4.80766E+004   -5.83565E+005    5.26136E+005
            8230    7.47450E+006    8.81394E+006    8.81394E+006    1.71808E+006    1.01105E+006    7.80289E+006   -3.84769E+006    7.39871E+006    1.79663E+006    1.07025E+006    8.67618E+006   -3.22297E+004   -7.49512E+005    6.65021E+005
            8231    8.78023E+006    1.09493E+007    1.09493E+007    2.54945E+006    1.83261E+006    9.11667E+006   -5.11045E+006    8.71403E+006    2.63354E+006    1.89520E+006    1.08026E+007   -8.85603E+003   -8.62876E+005    7.18350E+005
            8232    1.03387E+007    1.33882E+007    1.33882E+007    3.51932E+006    2.63637E+006    1.07519E+007   -6.51464E+006    1.02534E+007    3.60408E+006    2.68631E+006    1.32535E+007    2.38998E+004   -9.55870E+005    6.67311E+005
            8233    1.08984E+007    1.37432E+007    1.37432E+007    4.50144E+006    1.72529E+006    1.20179E+007   -6.65665E+006    1.00556E+007    4.53934E+006    2.19947E+006    1.32312E+007    3.90197E+005   -1.36834E+006    1.94424E+006
            8234    1.01373E+007    1.15196E+007    1.15196E+007    3.22298E+006    2.20102E+005    1.12995E+007   -4.98755E+006    9.05253E+006    3.25871E+006    5.43325E+005    1.11606E+007    4.10459E+005   -1.16415E+006    1.51911E+006
            8235    9.04424E+006    9.51102E+006    9.51102E+006    2.26799E+006   -6.26034E+005    1.01371E+007   -3.71766E+006    7.89703E+006    2.30538E+006   -4.21818E+005    9.26941E+006    3.71828E+005   -9.66145E+005    1.10387E+006
            8236    7.81273E+006    7.74150E+006    7.74150E+006    1.54538E+006   -1.03501E+006    8.77651E+006   -2.75062E+006    6.74903E+006    1.57766E+006   -9.32355E+005    7.60656E+006    3.51243E+005   -7.94644E+005    5.75556E+005
            8237    3.48375E+006    3.73025E+006    3.73025E+006    7.24184E+005   -8.77696E+004    3.81802E+006   -1.45556E+006    3.26050E+006    7.29149E+005   -6.84076E+004    3.70593E+006    1.02563E+005   -2.11239E+005   -1.82242E+005
            8238    3.03696E+006    3.16829E+006    3.16829E+006    6.35988E+005   -1.98756E+005    3.36704E+006   -1.20184E+006    2.76064E+006    5.94394E+005   -2.20758E+003    3.01333E+006    2.59114E+005   -1.74991E+005   -6.53077E+005
            8239    3.26937E+006    2.95438E+006    2.95438E+006    5.72493E+005   -7.73040E+005    3.72742E+006   -9.17946E+005    2.52296E+006    5.42227E+005   -1.65680E+005    2.37729E+006    3.99900E+005   -1.71796E+005   -1.28489E+006
            8240    3.01011E+006    3.27412E+006    3.27412E+006    6.85468E+005   -2.89220E+004    3.30304E+006   -1.31022E+006    2.80972E+006    6.83529E+005   -1.44747E+004    3.26161E+006    8.16243E+004   -1.23827E+005   -1.43253E+005
            8241    2.44014E+006    2.65874E+006    2.65874E+006    5.97135E+005   -3.53874E+004    2.69412E+006   -1.07350E+006    2.24431E+006    5.36038E+005    1.13250E+005    2.57120E+006    2.22037E+005   -1.08069E+005   -4.43582E+005
            8242    2.25247E+006    2.23388E+006    2.23388E+006    5.42407E+005   -3.22933E+005    2.55682E+006   -8.17786E+005    1.81766E+006    4.85232E+005    2.33293E+005    1.73483E+006    3.40687E+005   -9.48471E+004   -9.58927E+005
            8243    2.73098E+006    2.98429E+006    2.98429E+006    6.42216E+005   -1.54697E+004    2.99976E+006   -1.20368E+006    2.54347E+006    6.35625E+005   -7.31792E+003    2.98273E+006    6.99199E+004   -4.16133E+004   -4.83633E+004
            8244    2.06741E+006    2.34027E+006    2.34027E+006    5.87489E+005    6.03136E+004    2.27996E+006   -9.96026E+005    1.90720E+006    5.00025E+005    1.61044E+005    2.32701E+006    2.00308E+005   -3.32678E+004   -1.61676E+005
            8245    1.20194E+006    1.44657E+006    1.44657E+006    6.22785E+005    6.73608E+004    1.37921E+006   -7.12238E+005    8.30039E+005    4.14248E+005    4.07270E+005    1.31520E+006    2.99156E+005   -2.88678E+004   -3.44306E+005
            8246    1.06721E+007    1.37255E+007    1.37255E+007    3.47396E+006    2.67744E+006    1.10480E+007   -6.62562E+006    1.06049E+007    3.47317E+006    2.68794E+006    1.37157E+007    7.50822E+004   -2.35802E+005   -2.15858E+005
            8247    1.06242E+007    1.39070E+007    1.39070E+007    3.76939E+006    2.85520E+006    1.10518E+007   -6.84387E+006    1.05352E+007    3.85519E+006    2.90964E+006    1.37668E+007   -3.37544E+004   -9.86375E+005   -6.94514E+005
            8248    1.10199E+007    1.40406E+007    1.40406E+007    4.66619E+006    1.90171E+006    1.21389E+007   -6.86950E+006    1.01950E+007    4.70454E+006    2.38474E+006    1.35192E+007   -3.94007E+005   -1.39841E+006   -1.96438E+006
            8249    1.23754E+007    1.60966E+007    1.60966E+007    4.42818E+006    3.11835E+006    1.29782E+007   -7.88104E+006    1.22180E+007    4.43068E+006    3.12085E+006    1.60916E+007    3.29523E+004   -1.93669E+005   -1.51809E+005
            8250    1.20377E+007    1.62392E+007    1.62392E+007    4.75838E+006    3.71284E+006    1.25264E+007   -8.23681E+006    1.19349E+007    4.84729E+006    3.74322E+006    1.61199E+007   -4.04190E+004   -1.04816E+006   -5.37943E+005
            8251    1.10554E+007    1.59218E+007    1.59218E+007    6.02652E+006    3.98965E+006    1.19321E+007   -8.64599E+006    1.06208E+007    6.08147E+006    4.49448E+006    1.53620E+007   -3.06764E+005   -1.55932E+006   -1.93811E+006
            8252    1.36350E+007    1.78246E+007    1.78246E+007    5.13253E+006    3.41030E+006    1.44143E+007   -8.78915E+006    1.33870E+007    5.13464E+006    3.41080E+006    1.78220E+007    9.07203E+003   -1.65047E+005   -8.12959E+004
            8253    1.30276E+007    1.79100E+007    1.79100E+007    5.49125E+006    4.34878E+006    1.35612E+007   -9.25000E+006    1.29141E+007    5.58503E+006    4.35619E+006    1.78088E+007   -2.26949E+004   -1.08584E+006   -2.75661E+005
            8254    1.05794E+007    1.71162E+007    1.71162E+007    7.07918E+006    6.06715E+006    1.10491E+007   -1.00875E+007    1.04697E+007    7.20640E+006    6.34794E+006    1.67082E+007   -1.65019E+005   -1.65774E+006   -1.21380E+006
            8255    1.40291E+007    1.83564E+007    1.83564E+007    5.34877E+006    3.49099E+006    1.48654E+007   -9.06539E+006    1.37483E+007    5.35057E+006    3.49100E+006    1.83546E+007    2.33459E+002   -1.53202E+005    1.53029E+004
            8256    1.33576E+007    1.84413E+007    1.84413E+007    5.71652E+006    4.53005E+006    1.39112E+007   -9.56261E+006    1.32382E+007    5.81175E+006    4.53029E+006    1.83458E+007    3.52875E+003   -1.09698E+006    5.23972E+004
            8257    1.02788E+007    1.74929E+007    1.74929E+007    7.34873E+006    7.08454E+006    1.04084E+007   -1.06421E+007    1.02712E+007    7.63747E+006    7.08538E+006    1.72034E+007    5.43516E+003   -1.68878E+006    4.58996E+004
            8258    1.34126E+007    1.75054E+007    1.75054E+007    4.99462E+006    3.34368E+006    1.41617E+007   -8.61455E+006    1.31811E+007    4.99675E+006    3.34437E+006    1.75025E+007   -1.18885E+004   -1.65809E+005    9.36239E+004
            8259    1.29091E+007    1.76370E+007    1.76370E+007    5.34533E+006    4.18850E+006    1.34486E+007   -9.05696E+006    1.27917E+007    5.43642E+006    4.20142E+006    1.75330E+007    3.45288E+004   -1.07517E+006    3.55812E+005
            8260    1.05970E+007    1.70290E+007    1.70290E+007    7.01150E+006    5.93475E+006    1.10942E+007   -9.99174E+006    1.04728E+007    7.12950E+006    6.23527E+006    1.66104E+007    1.75932E+005   -1.64822E+006    1.27628E+006
            8261    1.19989E+007    1.55594E+007    1.55594E+007    4.20087E+006    3.00906E+006    1.25504E+007   -7.58978E+006    1.18647E+007    4.20301E+006    3.01250E+006    1.55538E+007   -4.05619E+004   -1.94398E+005    1.67235E+005
            8262    1.17944E+007    1.57637E+007    1.57637E+007    4.51709E+006    3.48899E+006    1.22748E+007   -7.92327E+006    1.16929E+007    4.60404E+006    3.52048E+006    1.56453E+007    3.61979E+004   -1.02446E+006    5.49869E+005
            8263    1.10336E+007    1.57318E+007    1.57318E+007    5.89215E+006    3.80288E+006    1.19289E+007   -8.47561E+006    1.05748E+007    5.94564E+006    4.30713E+006    1.51740E+007    3.12388E+005   -1.54197E+006    1.94478E+006
            8264    3.26759E+006    2.95335E+006    2.95335E+006    5.72363E+005   -7.71960E+005    3.72531E+006   -9.17918E+005    2.52225E+006    5.42205E+005   -1.62668E+005    2.37422E+006    3.99607E+005    1.71435E+005    1.28653E+006
            8265    3.03446E+006    3.16648E+006    3.16648E+006    6.35694E+005   -1.97549E+005    3.36403E+006   -1.20154E+006    2.75894E+006    5.94127E+005   -3.24992E+003    3.01375E+006    2.58111E+005    1.74465E+005    6.48048E+005
            8266    3.47651E+006    3.72180E+006    3.72180E+006    7.22861E+005   -8.87114E+004    3.81051E+006   -1.45198E+006    3.25297E+006    7.27651E+005   -6.94562E+004    3.69776E+006    1.02470E+005    2.09896E+005    1.80820E+005
            8267    2.24284E+006    2.22629E+006    2.22629E+006    5.41318E+005   -3.19424E+005    2.54572E+006   -8.16063E+005    1.81097E+006    4.83974E+005    2.35343E+005    1.72887E+006    3.39998E+005    9.45824E+004    9.54919E+005
            8268    2.44654E+006    2.66427E+006    2.66427E+006    5.97711E+005   -3.71080E+004    2.70137E+006   -1.07496E+006    2.24977E+006    5.36954E+005    1.10488E+005    2.57743E+006    2.21816E+005    1.08094E+005    4.42448E+005
            8269    3.00639E+006    3.27019E+006    3.27019E+006    6.84861E+005   -2.88167E+004    3.29901E+006   -1.30874E+006    2.80614E+006    6.82906E+005   -1.44790E+004    3.25781E+006    8.13060E+004    1.23105E+005    1.42470E+005
            8270    1.18904E+006    1.43690E+006    1.43690E+006    6.26203E+005    7.19208E+004    1.36498E+006   -7.11676E+005    8.11990E+005    4.13872E+005    4.10174E+005    1.31098E+006    2.98713E+005    2.88634E+004    3.34414E+005
            8271    2.07337E+006    2.34579E+006    2.34579E+006    5.87979E+005    5.92485E+004    2.28654E+006   -9.97673E+005    1.91267E+006    5.01064E+005    1.60301E+005    2.33165E+006    2.00347E+005    3.36118E+004    1.67418E+005
            8272    2.73065E+006    2.98361E+006    2.98361E+006    6.42013E+005   -1.58763E+004    2.99949E+006   -1.20325E+006    2.54300E+006    6.35420E+005   -7.73121E+003    2.98206E+006    6.99421E+004    4.16579E+004    4.80546E+004
            8273    3.37546E+006    3.30056E+006    3.30056E+006   -2.05392E+004   -1.26763E+005    3.42732E+006   -1.05109E+006    3.37170E+006   -9.77632E+004   -6.86303E+003    3.25788E+006    3.95325E+004   -2.93681E+005   -2.35742E+005
            8274    3.76175E+006    3.78443E+006    3.78443E+006    1.17583E+005   -6.55456E+004    3.84997E+006   -1.27882E+006    3.75170E+006    1.47054E+005   -4.65201E+004    3.73593E+006   -1.36889E+004   -3.63814E+005   -2.16737E+005
            8275    4.05398E+006    4.19579E+006    4.19579E+006    3.82307E+005   -6.20673E+004    4.25786E+006   -1.50534E+006    3.99864E+006    4.10905E+005   -4.75828E+004    4.15271E+006   -5.58784E+004   -3.86469E+005   -1.29656E+005
            8276    4.16432E+006    4.39216E+006    4.39216E+006    5.97950E+005   -6.31771E+004    4.45534E+006   -1.64231E+006    4.04372E+006    6.23585E+005   -5.39007E+004    4.35725E+006   -7.65016E+004   -3.62636E+005   -1.60931E+004
            8277    3.97711E+006    4.26602E+006    4.26602E+006    7.19760E+005   -3.40536E+004    4.30007E+006   -1.65057E+006    3.81138E+006    7.38851E+005   -2.53048E+004    4.23818E+006   -7.87243E+004   -3.01914E+005    8.58332E+004
            8278    4.16885E+006    4.29403E+006    4.29403E+006    2.09359E+005    4.58128E+004    4.24822E+006   -1.51640E+006    4.16163E+006    2.39445E+005    1.11837E+005    4.19792E+006    3.21476E+004   -3.53061E+005   -5.20038E+005
            8279    4.20400E+006    4.27197E+006    4.27197E+006    3.51660E+005   -1.67499E+005    4.43946E+006   -1.48538E+006    4.13095E+006    3.50452E+005   -7.75912E+004    4.18326E+006   -9.55414E+004   -3.98985E+005   -4.67029E+005
            8280    4.19274E+006    4.23857E+006    4.23857E+006    5.00410E+005   -2.94855E+005    4.53342E+006   -1.48137E+006    4.01776E+006    4.78840E+005   -2.20528E+005    4.18581E+006   -1.90211E+005   -3.93543E+005   -2.46744E+005
            8281    4.02590E+006    4.10260E+006    4.10260E+006    6.10301E+005   -3.00747E+005    4.40335E+006   -1.47072E+006    3.78339E+006    5.84071E+005   -2.37662E+005    4.06575E+006   -2.36223E+005   -3.47003E+005    8.34132E+004
            8282    3.69146E+006    3.85099E+006    3.85099E+006    6.83027E+005   -2.02787E+005    4.05378E+006   -1.44374E+006    3.43993E+006    6.60102E+005   -1.29384E+005    3.80051E+006   -2.28355E+005   -2.80753E+005    2.99563E+005
            8283    4.99414E+006    5.25721E+006    5.25721E+006    6.01987E+005   -1.79737E+004    5.27518E+006   -1.94707E+006    4.90645E+006    6.44831E+005    7.73234E+004    5.11906E+006   -1.34485E+004   -4.97854E+005   -6.62660E+005
            8284    4.96923E+006    4.93275E+006    4.93275E+006    6.23871E+005   -5.03217E+005    5.43596E+006   -1.68447E+006    4.66846E+006    6.34551E+005   -4.06688E+005    4.82554E+006   -1.65751E+005   -4.95273E+005   -5.36208E+005
            8285    4.67843E+006    4.45550E+006    4.45550E+006    5.96618E+005   -7.48009E+005    5.20351E+006   -1.43470E+006    4.20965E+006    5.84105E+005   -6.88479E+005    4.40848E+006   -2.64840E+005   -4.21878E+005   -1.01979E+005
            8286    4.16816E+006    4.00343E+006    4.00343E+006    6.22783E+005   -6.53693E+005    4.65713E+006   -1.32418E+006    3.68838E+006    5.99822E+005   -5.71823E+005    3.94453E+006   -2.95740E+005   -3.36130E+005    3.12824E+005
            8287    3.64992E+006    3.59567E+006    3.59567E+006    6.37492E+005   -4.83191E+005    4.07886E+006   -1.24999E+006    3.22738E+006    6.11074E+005   -3.40385E+005    3.47928E+006   -2.86076E+005   -2.56971E+005    5.82363E+005
            8288    6.44785E+006    6.75575E+006    6.75575E+006    1.10703E+006   -2.69061E+005    7.02481E+006   -2.53124E+006    6.10421E+006    1.15049E+006   -1.74610E+005    6.61783E+006   -1.64203E+005   -6.92172E+005   -6.22932E+005
            8289    6.13161E+006    5.73797E+006    5.73797E+006    8.00994E+005   -1.12555E+006    6.86352E+006   -1.80447E+006    5.38473E+006    8.10417E+005   -1.05858E+006    5.66158E+006   -3.19863E+005   -5.96555E+005   -2.06766E+005
            8290    5.37913E+006    4.82646E+006    4.82646E+006    6.58880E+005   -1.24588E+006    6.07234E+006   -1.41315E+006    4.52120E+006    6.45012E+005   -1.15976E+006    4.75421E+006   -3.82475E+005   -4.58456E+005    3.19770E+005
            8291    4.63104E+006    4.13780E+006    4.13780E+006    5.96540E+005   -1.10285E+006    5.24066E+006   -1.21050E+006    3.82878E+006    5.70169E+005   -9.19302E+005    3.98062E+006   -4.04449E+005   -3.54948E+005    7.41234E+005
            8292    3.84057E+006    3.53994E+006    3.53994E+006    5.91968E+005   -8.03206E+005    4.34315E+006   -1.10957E+006    3.19072E+006    5.54780E+005   -4.75003E+005    3.24893E+006   -3.92172E+005   -2.52317E+005    1.00072E+006
            8293    4.60103E+006    3.75479E+006    3.75479E+006    5.94659E+005   -1.52388E+006    5.27867E+006   -9.41857E+005    3.19158E+006    5.82443E+005   -9.70743E+005    3.21387E+006   -4.80785E+005   -2.79565E+005    1.50750E+006
            8294    5.68959E+006    4.55993E+006    4.55993E+006    6.62032E+005   -1.96900E+006    6.52893E+006   -1.08432E+006    3.92569E+006    6.55884E+005   -1.62839E+006    4.22547E+006   -5.15104E+005   -3.95901E+005    1.28988E+006
            8295    6.75639E+006    5.52600E+006    5.52600E+006    8.35813E+005   -2.21821E+006    7.74421E+006   -1.38120E+006    4.78914E+006    8.34820E+005   -2.05478E+006    5.36356E+006   -5.31296E+005   -5.27485E+005    8.20903E+005
            8296    7.66229E+006    6.61043E+006    6.61043E+006    1.12574E+006   -2.14435E+006    8.75477E+006   -1.86394E+006    5.74487E+006    1.13530E+006   -2.05830E+006    6.51482E+006   -5.22456E+005   -6.74968E+005    2.62470E+005
            8297    8.54729E+006    8.18474E+006    8.18474E+006    1.66927E+006   -1.49309E+006    9.67783E+006   -2.78697E+006    7.03788E+006    1.70068E+006   -1.39520E+006    8.05544E+006   -4.60209E+005   -8.67453E+005   -4.17235E+005
            8298    9.41747E+006    9.89297E+006    9.89297E+006    2.38834E+006   -6.74698E+005    1.05677E+007   -3.86887E+006    8.17863E+006    2.42472E+006   -4.78285E+005    9.66017E+006   -4.15378E+005   -1.01223E+006   -1.05096E+006
            8299    1.03550E+007    1.19025E+007    1.19025E+007    3.41522E+006    3.64996E+005    1.15375E+007   -5.22757E+006    9.26038E+006    3.45065E+006    7.14719E+005    1.15173E+007   -4.18036E+005   -1.20118E+006   -1.60689E+006
            8300    9.19037E+006    1.15108E+007    1.15108E+007    2.76821E+006    1.93009E+006    9.58072E+006   -5.40304E+006    9.10379E+006    2.85261E+006    1.99537E+006    1.13611E+007   -1.81331E+004   -9.04126E+005   -7.27034E+005
            8301    8.82685E+006    1.11717E+007    1.11717E+007    2.53542E+006    2.16595E+006    9.00578E+006   -5.29103E+006    8.80942E+006    2.49247E+006    2.22177E+006    1.11589E+007    1.33611E+005   -2.61479E+005   -2.07183E+005
            8302    7.68746E+006    9.14908E+006    9.14908E+006    1.86485E+006    1.11356E+006    8.03552E+006   -4.04250E+006    7.60421E+006    1.94503E+006    1.17326E+006    9.00920E+006   -2.60506E+003   -7.91116E+005   -6.50468E+005
            8303    7.15928E+006    8.85343E+006    8.85343E+006    1.89891E+006    1.50561E+006    7.34782E+006   -4.08598E+006    7.13491E+006    1.65717E+006    1.76523E+006    8.83556E+006    1.97528E+005   -2.68611E+005   -2.28338E+005
            8304    5.92561E+006    7.07485E+006    7.07485E+006    1.44696E+006    8.90739E+005    6.18411E+006   -3.13752E+006    5.86645E+006    1.04912E+006    1.30887E+006    7.05456E+006    2.56132E+005   -2.40406E+005   -2.37946E+005
            8305    4.82031E+006    5.44657E+006    5.44657E+006    9.63837E+005    3.47883E+005    5.09868E+006   -2.25276E+006    4.73056E+006    5.10731E+005    8.13877E+005    5.43368E+006    2.75303E+005   -1.44995E+005   -1.91514E+005
            8306    3.87301E+006    4.05843E+006    4.05843E+006    4.90780E+005   -6.07896E+004    4.11922E+006   -1.49614E+006    3.78313E+006    7.32622E+004    3.66415E+005    4.04874E+006    2.39283E+005   -8.28655E+004   -1.66157E+005
            8307    2.83514E+006    2.64131E+006    2.64131E+006    1.02515E+005   -4.18035E+005    3.05934E+006   -7.75263E+005    2.72449E+006   -3.95963E+005    8.35343E+004    2.63822E+006    1.02823E+005   -6.76228E+004   -6.13629E+004
            8308    6.22895E+006    7.13302E+006    7.13302E+006    1.14849E+006    6.85498E+005    6.44753E+006   -2.98900E+006    6.19006E+006    1.20861E+006    7.41991E+005    7.01641E+006    6.55862E+004   -5.94251E+005   -5.97003E+005
            8309    4.93693E+006    5.42477E+006    5.42477E+006    5.99577E+005    3.83222E+005    5.04155E+006   -2.13586E+006    4.92625E+006    5.67421E+005    5.00474E+005    5.33968E+006    1.39412E+005   -3.81513E+005   -5.09876E+005
            8310    4.04248E+006    4.20308E+006    4.20308E+006    3.13964E+005    2.29667E+004    4.18012E+006   -1.51334E+006    4.01881E+006    1.36895E+005    2.61787E+005    4.14133E+006    1.64408E+005   -2.40717E+005   -4.22584E+005
            8311    3.03541E+006    2.88944E+006    2.88944E+006    5.26347E+004   -3.11692E+005    3.20113E+006   -8.76795E+005    2.98563E+006   -2.87212E+005    5.07370E+004    2.86686E+006    7.78835E+004   -1.91806E+005   -1.71952E+005
            8312    3.72153E+006    3.71115E+006    3.71115E+006    8.57725E+004   -9.96112E+004    3.81076E+006   -1.23244E+006    3.71112E+006    1.02449E+005   -5.70055E+004    3.65187E+006    2.79327E+004    3.62319E+005   -2.96578E+005
            8313    4.12963E+006    4.17330E+006    4.17330E+006    3.74268E+005   -2.22086E+005    4.39538E+006   -1.44183E+006    4.03104E+006    3.90307E+005   -1.84795E+005    4.11997E+006    1.00940E+005    4.02909E+005   -2.23764E+005
            8314    4.24569E+006    4.36765E+006    4.36765E+006    6.07697E+005   -2.36839E+005    4.60449E+006   -1.57950E+006    4.05019E+006    6.22474E+005   -2.15674E+005    4.33171E+006    1.33117E+005    3.66415E+005    7.75618E+003
            8315    3.91596E+006    4.16488E+006    4.16488E+006    7.40042E+005   -1.04422E+005    4.26930E+006   -1.60017E+006    3.70269E+006    7.51286E+005   -8.36343E+004    4.13285E+006    1.21004E+005    2.91131E+005    1.64512E+005
            8316    4.79373E+006    4.88112E+006    4.88112E+006    5.61090E+005   -2.76037E+005    5.15715E+006   -1.72206E+006    4.62497E+006    5.79083E+005   -1.75424E+005    4.76251E+006    1.02738E+005    4.71575E+005   -5.92800E+005
            8317    4.66645E+006    4.45911E+006    4.45911E+006    5.51760E+005   -7.07842E+005    5.16696E+006   -1.43434E+006    4.25807E+006    5.35358E+005   -6.45791E+005    4.41346E+006    2.54925E+005    4.12161E+005   -1.36251E+005
            8318    4.08767E+006    3.97792E+006    3.97792E+006    5.99588E+005   -5.65930E+005    4.54385E+006   -1.33719E+006    3.68510E+006    5.68300E+005   -4.70133E+005    3.91341E+006    2.97755E+005    3.20233E+005    3.62246E+005
            8319    3.57737E+006    3.59952E+006    3.59952E+006    6.36147E+005   -3.74432E+005    3.97395E+006   -1.28708E+006    3.23207E+006    6.02792E+005   -2.12003E+005    3.47045E+006    2.89440E+005    2.53716E+005    6.13528E+005
            8320    4.20156E+006    3.59126E+006    3.59126E+006    5.82282E+005   -1.20908E+006    4.80034E+006   -9.88155E+005    3.15281E+006    5.61869E+005   -7.19507E+005    3.12210E+006    4.46270E+005    2.61716E+005    1.33826E+006
            8321    5.09290E+006    4.22542E+006    4.22542E+006    5.96355E+005   -1.59661E+006    5.82203E+006   -1.07505E+006    3.78890E+006    5.79649E+005   -1.31118E+006    3.95669E+006    4.68956E+005    3.59616E+005    1.08395E+006
            8322    5.93456E+006    4.94324E+006    4.94324E+006    6.56805E+005   -1.83019E+006    6.77343E+006   -1.25662E+006    4.51679E+006    6.47598E+005   -1.69199E+006    4.81424E+006    4.64777E+005    4.67944E+005    6.66158E+005
            8323    6.75896E+006    6.10217E+006    6.10217E+006    9.45019E+005   -1.54951E+006    7.65168E+006   -1.83256E+006    5.57226E+006    9.53228E+005   -1.47850E+006    6.02296E+006    4.15815E+005    6.37879E+005   -1.33609E+004
            8324    7.80577E+006    7.72902E+006    7.72902E+006    1.54312E+006   -1.04117E+006    8.77019E+006   -2.74366E+006    6.73727E+006    1.57502E+006   -9.38810E+005    7.59476E+006    3.52630E+005    7.93248E+005   -5.71560E+005
            8325    9.05365E+006    9.51820E+006    9.51820E+006    2.27240E+006   -6.30988E+005    1.01492E+007   -3.71987E+006    7.89964E+006    2.30959E+006   -4.26275E+005    9.27629E+006    3.73814E+005    9.67527E+005   -1.10473E+006
            8326    1.01486E+007    1.15396E+007    1.15396E+007    3.23361E+006    2.27560E+005    1.13121E+007   -5.00026E+006    9.06277E+006    3.26938E+006    5.52765E+005    1.11786E+007    4.10751E+005    1.16645E+006   -1.52573E+006
            8327    1.08997E+007    1.37425E+007    1.37425E+007    4.49884E+006    1.72345E+006    1.20191E+007   -6.65494E+006    1.00576E+007    4.53704E+006    2.19549E+006    1.32323E+007    3.89964E+005    1.36776E+006   -1.93944E+006
            8328    1.03357E+007    1.33835E+007    1.33835E+007    3.51896E+006    2.63365E+006    1.07498E+007   -6.51203E+006    1.02498E+007    3.60358E+006    2.68444E+006    1.32481E+007    2.49416E+004    9.56422E+005   -6.71862E+005
            8329    1.02109E+007    1.30803E+007    1.30803E+007    3.22074E+006    2.55108E+006    1.05292E+007   -6.28404E+006    1.01613E+007    3.21443E+006    2.56662E+006    1.30711E+007   -9.21664E+004    2.28962E+005   -2.00620E+005
            8330    8.78490E+006    1.09423E+007    1.09423E+007    2.54425E+006    1.81587E+006    9.12641E+006   -5.10080E+006    8.71658E+006    2.62818E+006    1.87915E+006    1.07951E+007   -6.94059E+003    8.63556E+005   -7.21268E+005
            8331    8.49415E+006    1.06375E+007    1.06375E+007    2.33162E+006    1.96692E+006    8.67062E+006   -4.97870E+006    8.47651E+006    2.26721E+006    2.04713E+006    1.06218E+007   -1.53362E+005    2.56092E+005   -2.56660E+005
            8332    7.47565E+006    8.81109E+006    8.81109E+006    1.71656E+006    1.00517E+006    7.80591E+006   -3.84427E+006    7.39893E+006    1.79523E+006    1.06400E+006    8.67359E+006   -3.10828E+004    7.50438E+005   -6.62498E+005
            8333    6.78803E+006    8.27538E+006    8.27538E+006    1.71773E+006    1.27833E+006    6.99705E+006   -3.75715E+006    6.75592E+006    1.43159E+006    1.57867E+006    8.26118E+006   -2.12888E+005    2.51245E+005   -1.74736E+005
            8334    5.87941E+006    6.57734E+006    6.57734E+006    9.50129E+005    4.74618E+005    6.10273E+006   -2.66736E+006    5.83591E+006    1.01187E+006    5.21009E+005    6.46921E+006   -4.77618E+004    5.84396E+005   -5.27190E+005
            8335    5.42569E+006    6.33250E+006    6.33250E+006    1.22561E+006    6.36149E+005    5.69635E+006   -2.73142E+006    5.35294E+006    7.91642E+005    1.09125E+006    6.31135E+006   -2.65405E+005    2.10172E+005   -2.52342E+005
            8336    4.32582E+006    4.69918E+006    4.69918E+006    6.93187E+005    1.12238E+005    4.58694E+006   -1.83487E+006    4.23672E+006    2.71191E+005    5.52890E+005    4.68052E+006   -2.64575E+005    1.55382E+005   -2.24243E+005
            8337    2.97841E+006    2.84380E+006    2.84380E+006    1.68070E+005   -3.65241E+005    3.20904E+006   -8.82209E+005    2.86802E+006   -3.34232E+005    1.44301E+005    2.83656E+006   -1.22791E+005    9.28898E+004   -1.06829E+005
            8338    4.60348E+006    4.90014E+006    4.90014E+006    4.21845E+005    1.80933E+005    4.71920E+006   -1.83431E+006    4.58926E+006    4.48591E+005    2.62235E+005    4.79209E+006   -9.53497E+004    3.90533E+005   -5.76499E+005
            8339    3.31622E+006    3.22328E+006    3.22328E+006    2.62121E+004   -2.00466E+005    3.42374E+006   -1.01634E+006    3.29872E+006   -1.76246E+005    4.14687E+004    3.18380E+006   -5.25489E+004    2.54526E+005   -2.50934E+005
            8340    3.48126E+006    2.99723E+006    2.99723E+006    5.55375E+005   -9.89055E+005    3.98628E+006   -8.54517E+005    2.51736E+006    5.36682E+005   -2.73405E+005    2.30027E+006   -4.21318E+005   -1.77944E+005    1.44874E+006
            8341    3.03734E+006    2.94783E+006    2.94783E+006    5.75615E+005   -4.75443E+005    3.42327E+006   -1.01600E+006    2.57779E+006    5.26169E+005   -7.00974E+004    2.59193E+006   -3.53404E+005   -1.72852E+005    9.84293E+005
            8342    3.05550E+006    3.12931E+006    3.12931E+006    6.26906E+005   -2.75865E+005    3.40517E+006   -1.16012E+006    2.73038E+006    5.94953E+005   -9.47268E+004    2.98012E+006   -2.51148E+005   -1.78995E+005    6.43186E+005
            8343    3.26725E+006    3.47332E+006    3.47332E+006    6.88729E+005   -1.23389E+005    3.59671E+006   -1.34622E+006    3.02741E+006    6.65248E+005   -4.43801E+004    3.41779E+006   -2.00351E+005   -2.02066E+005    3.64525E+005
            8344    3.56289E+006    3.86434E+006    3.86434E+006    7.33127E+005   -1.22792E+004    3.87662E+006   -1.52840E+006    3.38071E+006    7.43628E+005   -3.71883E+003    3.84528E+006   -6.82786E+004   -2.18848E+005    1.15055E+005
            8345    2.28931E+006    2.17357E+006    2.17357E+006    5.12271E+005   -4.37808E+005    2.61138E+006   -7.49345E+005    1.75564E+006    4.70353E+005    2.21737E+005    1.55594E+006   -3.55504E+005   -9.37500E+004    1.05281E+006
            8346    2.19371E+006    2.31243E+006    2.31243E+006    5.71361E+005   -1.51492E+005    2.46392E+006   -9.10766E+005    1.89660E+006    4.80691E+005    2.04333E+005    2.04727E+006   -3.09766E+005   -9.65290E+004    7.14855E+005
            8347    2.44872E+006    2.62851E+006    2.62851E+006    5.92531E+005   -8.87025E+004    2.71721E+006   -1.04411E+006    2.22006E+006    5.42987E+005    6.10520E+004    2.52830E+006   -2.15767E+005   -1.05224E+005    4.80578E+005
            8348    2.79345E+006    3.02964E+006    3.02964E+006    6.49865E+005   -4.59445E+004    3.07559E+006   -1.21119E+006    2.58748E+006    6.20566E+005    1.72498E+004    2.99575E+006   -1.67812E+005   -1.19234E+005    2.81528E+005
            8349    3.12353E+006    3.40957E+006    3.40957E+006    6.91453E+005   -2.60897E+003    3.41218E+006   -1.36614E+006    2.94243E+006    6.93475E+005    4.40313E+003    3.40054E+006   -5.89656E+004   -1.30814E+005    9.36335E+004
            8350    1.08532E+006    1.30324E+006    1.30324E+006    5.88160E+005    5.43951E+004    1.24885E+006   -6.48598E+005    6.82122E+005    3.98073E+005    4.60643E+005    1.08708E+006   -3.09026E+005   -2.79366E+004    3.88829E+005
            8351    1.51548E+006    1.79020E+006    1.79020E+006    6.33749E+005    7.45894E+004    1.71561E+006   -8.32845E+005    1.24957E+006    4.38029E+005    3.19440E+005    1.74107E+006   -2.78353E+005   -3.27971E+004    2.54628E+005
            8352    2.03195E+006    2.28983E+006    2.28983E+006    5.80399E+005    4.32714E+004    2.24656E+006   -9.71166E+005    1.86192E+006    5.06286E+005    1.33115E+005    2.27410E+006   -1.90178E+005   -3.43300E+004    1.75772E+005
            8353    2.49038E+006    2.74499E+006    2.74499E+006    6.17999E+005    5.50894E+003    2.73948E+006   -1.12283E+006    2.31163E+006    5.82691E+005    4.59041E+004    2.73991E+006   -1.46275E+005   -3.99742E+004    1.05432E+005
            8354    2.83499E+006    3.10981E+006    3.10981E+006    6.51941E+005    8.34738E+003    3.10146E+006   -1.25670E+006    2.66308E+006    6.48799E+005    1.26680E+004    3.10863E+006   -5.05946E+004   -4.32522E+004    3.50829E+004
            8355    1.10218E+007    1.40305E+007    1.40305E+007    4.65772E+006    1.88808E+006    1.21425E+007   -6.85878E+006    1.01938E+007    4.69594E+006    2.37118E+006    1.35092E+007   -3.94606E+005    1.39775E+006    1.96507E+006
            8356    1.06394E+007    1.39364E+007    1.39364E+007    3.78135E+006    2.87097E+006    1.10654E+007   -6.86289E+006    1.05513E+007    3.86735E+006    2.92343E+006    1.37979E+007   -3.19530E+004    9.85086E+005    6.83891E+005
            8357    1.07103E+007    1.37791E+007    1.37791E+007    3.49519E+006    2.68796E+006    1.10911E+007   -6.65407E+006    1.06416E+007    3.49461E+006    2.69822E+006    1.37694E+007    7.40880E+004    2.35042E+005    2.16767E+005
            8358    1.10496E+007    1.59219E+007    1.59219E+007    6.03030E+006    3.99683E+006    1.19251E+007   -8.64969E+006    1.06163E+007    6.08545E+006    4.50237E+006    1.53613E+007   -3.05986E+005    1.56009E+006    1.93913E+006
            8359    1.20555E+007    1.62577E+007    1.62577E+007    4.76209E+006    3.71120E+006    1.25465E+007   -8.24366E+006    1.19518E+007    4.85098E+006    3.74097E+006    1.61390E+007   -4.06192E+004    1.04825E+006    5.32504E+005
            8360    1.24060E+007    1.61395E+007    1.61395E+007    4.44570E+006    3.12660E+006    1.30129E+007   -7.90392E+006    1.22467E+007    4.44821E+006    3.12899E+006    1.61346E+007    3.26670E+004    1.93548E+005    1.48033E+005
            8361    1.05744E+007    1.71294E+007    1.71294E+007    7.09193E+006    6.08937E+006    1.10400E+007   -1.01036E+007    1.04667E+007    7.21987E+006    6.36920E+006    1.67216E+007   -1.63850E+005    1.66055E+006    1.20781E+006
            8362    1.30361E+007    1.79163E+007    1.79163E+007    5.49192E+006    4.34434E+006    1.35719E+007   -9.25084E+006    1.29217E+007    5.58595E+006    4.35184E+006    1.78147E+007   -2.30050E+004    1.08761E+006    2.77301E+005
            8363    1.36482E+007    1.78411E+007    1.78411E+007    5.13863E+006    3.41160E+006    1.44295E+007   -8.79711E+006    1.33991E+007    5.14073E+006    3.41209E+006    1.78385E+007    9.08734E+003    1.64936E+005    8.07032E+004
            8364    1.02672E+007    1.74789E+007    1.74789E+007    7.34614E+006    7.08236E+006    1.03966E+007   -1.06358E+007    1.02596E+007    7.63443E+006    7.08424E+006    1.71888E+007    8.96712E+003    1.68901E+006   -6.50441E+004
            8365    1.33552E+007    1.84359E+007    1.84359E+007    5.71345E+006    4.52712E+006    1.39088E+007   -9.55882E+006    1.32359E+007    5.80887E+006    4.52733E+006    1.83403E+007    3.11609E+003    1.09793E+006   -4.83366E+004
            8366    1.40263E+007    1.83519E+007    1.83519E+007    5.34665E+006    3.48948E+006    1.48624E+007   -9.06267E+006    1.37457E+007    5.34844E+006    3.48950E+006    1.83501E+007   -2.65746E+002    1.52915E+005   -1.62552E+004
            8367    1.06070E+007    1.70194E+007    1.70194E+007    7.00202E+006    5.90771E+006    1.11117E+007   -9.97639E+006    1.04789E+007    7.11800E+006    6.21469E+006    1.65965E+007    1.78266E+005    1.64797E+006   -1.29698E+006
            8368    1.28965E+007    1.76294E+007    1.76294E+007    5.34566E+006    4.19699E+006    1.34325E+007   -9.05737E+006    1.27807E+007    5.43720E+006    4.20961E+006    1.75253E+007    3.36110E+004    1.07677E+006   -3.51688E+005
            8369    1.33931E+007    1.74777E+007    1.74777E+007    4.98325E+006    3.33788E+006    1.41398E+007   -8.59959E+006    1.31628E+007    4.98535E+006    3.33859E+006    1.74748E+007   -1.23501E+004    1.64684E+005   -9.44605E+004
            8370    1.10383E+007    1.57128E+007    1.57128E+007    5.87384E+006    3.77611E+006    1.19367E+007   -8.45425E+006    1.05758E+007    5.92753E+006    4.27933E+006    1.51559E+007    3.12817E+005    1.53965E+006   -1.94512E+006
            8371    1.17879E+007    1.57668E+007    1.57668E+007    4.52481E+006    3.50003E+006    1.22668E+007   -7.93055E+006    1.16870E+007    4.61221E+006    3.53256E+006    1.56469E+007    3.58847E+004    1.02745E+006   -5.59533E+005
            8372    1.19740E+007    1.55214E+007    1.55214E+007    4.18413E+006    2.99879E+006    1.25226E+007   -7.56810E+006    1.18409E+007    4.18626E+006    3.00230E+006    1.55157E+007   -4.10237E+004    1.95188E+005   -1.68474E+005
            8373    3.56904E+006    3.87019E+006    3.87019E+006    7.34324E+005   -1.35210E+004    3.88371E+006   -1.53033E+006    3.38596E+006    7.44896E+005   -4.96518E+003    3.85106E+006   -6.84645E+004    2.19610E+005   -1.14844E+005
            8374    3.26723E+006    3.47270E+006    3.47270E+006    6.88459E+005   -1.24146E+005    3.59684E+006   -1.34567E+006    3.02709E+006    6.65040E+005   -4.48140E+004    3.41678E+006   -2.00469E+005    2.02171E+005   -3.66191E+005
            8375    3.05370E+006    3.12511E+006    3.12511E+006    6.25538E+005   -2.78554E+005    3.40367E+006   -1.15737E+006    2.72731E+006    5.93339E+005   -9.54372E+004    2.97419E+006   -2.52142E+005    1.78675E+005   -6.47001E+005
            8376    3.03438E+006    2.94229E+006    2.94229E+006    5.74301E+005   -4.78216E+005    3.42050E+006   -1.01279E+006    2.57280E+006    5.25031E+005   -6.82038E+004    2.58154E+006   -3.54315E+005    1.72518E+005   -9.90019E+005
            8377    3.48062E+006    2.99555E+006    2.99555E+006    5.55070E+005   -9.90138E+005    3.98569E+006   -8.53495E+005    2.51512E+006    5.36383E+005   -2.72549E+005    2.29665E+006   -4.21638E+005    1.77648E+005   -1.45027E+006
            8378    3.12496E+006    3.41237E+006    3.41237E+006    6.92254E+005   -1.00719E+003    3.41338E+006   -1.36787E+006    2.94439E+006    6.94409E+005    5.85272E+003    3.40335E+006   -5.81433E+004    1.30978E+005   -9.31374E+004
            8379    2.79788E+006    3.03521E+006    3.03521E+006    6.50995E+005   -4.49538E+004    3.08016E+006   -1.21375E+006    2.59218E+006    6.22137E+005    1.74026E+004    3.00171E+006   -1.66826E+005    1.19425E+005   -2.79729E+005
            8380    2.45097E+006    2.63158E+006    2.63158E+006    5.93606E+005   -8.80707E+004    2.71965E+006   -1.04570E+006    2.22222E+006    5.44174E+005    6.17518E+004    2.53119E+006   -2.15735E+005    1.05388E+005   -4.81238E+005
            8381    2.18796E+006    2.30413E+006    2.30413E+006    5.69524E+005   -1.53944E+005    2.45807E+006   -9.06569E+005    1.88931E+006    4.78712E+005    2.04858E+005    2.03614E+006   -3.10489E+005    9.59709E+004   -7.17232E+005
            8382    2.29267E+006    2.17170E+006    2.17170E+006    5.10120E+005   -4.43936E+005    2.61564E+006   -7.45962E+005    1.75456E+006    4.68666E+005    2.20782E+005    1.54844E+006   -3.56008E+005    9.33193E+004   -1.05751E+006
            8383    2.83689E+006    3.11041E+006    3.11041E+006    6.51482E+005    6.59466E+003    3.10382E+006   -1.25616E+006    2.66438E+006    6.48381E+005    1.08872E+004    3.10922E+006   -5.04467E+004    4.35401E+004   -3.52721E+004
            8384    2.49417E+006    2.74837E+006    2.74837E+006    6.18090E+005    4.74819E+003    2.74362E+006   -1.12374E+006    2.31519E+006    5.83087E+005    4.48355E+004    2.74329E+006   -1.45810E+005    4.00202E+004   -1.05478E+005
            8385    2.03088E+006    2.28889E+006    2.28889E+006    5.80073E+005    4.36486E+004    2.24524E+006   -9.70871E+005    1.86122E+006    5.05883E+005    1.33391E+005    2.27334E+006   -1.90065E+005    3.41620E+004   -1.74712E+005
            8386    1.51120E+006    1.78936E+006    1.78936E+006    6.36334E+005    7.85573E+004    1.71081E+006   -8.34752E+005    1.24583E+006    4.39627E+005    3.23498E+005    1.74113E+006   -2.77982E+005    3.27421E+004   -2.51759E+005
            8387    1.08924E+006    1.30909E+006    1.30909E+006    5.90020E+005    5.58771E+004    1.25321E+006   -6.51661E+005    6.88199E+005    4.00509E+005    4.62090E+005    1.09239E+006   -3.09051E+005    2.81298E+004   -3.90581E+005
            8388    8.54156E+006    8.18214E+006    8.18214E+006    1.66849E+006   -1.48853E+006    9.67068E+006   -2.78737E+006    7.03675E+006    1.70049E+006   -1.39138E+006    8.05299E+006   -4.58576E+005    8.67498E+005    4.14155E+005
            8389    7.66009E+006    6.60765E+006    6.60765E+006    1.12540E+006   -2.14476E+006    8.75242E+006   -1.86276E+006    5.74169E+006    1.13511E+006   -2.05875E+006    6.51193E+006   -5.22277E+005    6.75066E+005   -2.63096E+005
            8390    6.73877E+006    5.51317E+006    5.51317E+006    8.35423E+005   -2.21088E+006    7.72405E+006   -1.37924E+006    4.77623E+006    8.34471E+005   -2.04657E+006    5.34981E+006   -5.30850E+005    5.26410E+005   -8.23959E+005
            8391    5.67887E+006    4.55295E+006    4.55295E+006    6.62140E+005   -1.96364E+006    6.51660E+006   -1.08382E+006    3.91884E+006    6.56006E+005   -1.62201E+006    4.21745E+006   -5.15104E+005    3.95536E+005   -1.29073E+006
            8392    4.58521E+006    3.74531E+006    3.74531E+006    5.94923E+005   -1.51505E+006    5.26036E+006   -9.41730E+005    3.18298E+006    5.82589E+005   -9.60893E+005    3.20350E+006   -4.80063E+005    2.78410E+005   -1.50592E+006
            8393    3.85298E+006    3.54712E+006    3.54712E+006    5.92018E+005   -8.10696E+005    4.35782E+006   -1.10948E+006    3.19773E+006    5.54979E+005   -4.81966E+005    3.25543E+006   -3.93165E+005    2.53035E+005   -1.00361E+006
            8394    3.65636E+006    3.59665E+006    3.59665E+006    6.35993E+005   -4.90377E+005    4.08703E+006   -1.24742E+006    3.22999E+006    6.09526E+005   -3.45856E+005    3.47859E+006   -2.87632E+005    2.57483E+005   -5.87802E+005
            8395    3.69189E+006    3.84750E+006    3.84750E+006    6.82047E+005   -2.08078E+005    4.05558E+006   -1.44049E+006    3.43780E+006    6.58739E+005   -1.33860E+005    3.79659E+006   -2.29882E+005    2.80613E+005   -3.02161E+005
            8396    3.97614E+006    4.26544E+006    4.26544E+006    7.19819E+005   -3.34659E+004    4.29890E+006   -1.65060E+006    3.81061E+006    7.38802E+005   -2.46349E+004    4.23762E+006   -7.92322E+004    3.01939E+005   -8.49714E+004
            8397    4.64578E+006    4.14946E+006    4.14946E+006    5.97774E+005   -1.10811E+006    5.25757E+006   -1.21304E+006    3.83978E+006    5.71655E+005   -9.26656E+005    3.99413E+006   -4.04619E+005    3.56905E+005   -7.35706E+005
            8398    4.18290E+006    4.01321E+006    4.01321E+006    6.23094E+005   -6.61277E+005    4.67449E+006   -1.32501E+006    3.69863E+006    6.00183E+005   -5.79727E+005    3.95458E+006   -2.96666E+005    3.37547E+005   -3.10284E+005
            8399    4.02672E+006    4.10280E+006    4.10280E+006    6.11321E+005   -3.02198E+005    4.40500E+006   -1.47064E+006    3.78289E+006    5.84901E+005   -2.38809E+005    4.06584E+006   -2.37086E+005    3.47731E+005   -8.25553E+004
            8400    4.16226E+006    4.38926E+006    4.38926E+006    5.97680E+005   -6.43206E+004    4.45359E+006   -1.64087E+006    4.04126E+006    6.23117E+005   -5.48628E+004    4.35437E+006   -7.73449E+004    3.62436E+005    1.57414E+004
            8401    5.41125E+006    4.85654E+006    4.85654E+006    6.63906E+005   -1.25201E+006    6.10855E+006   -1.42281E+006    4.54843E+006    6.50516E+005   -1.16708E+006    4.78501E+006   -3.82919E+005    4.62959E+005   -3.08874E+005
            8402    4.69801E+006    4.47321E+006    4.47321E+006    5.99366E+005   -7.52516E+005    5.22573E+006   -1.44002E+006    4.22603E+006    5.87332E+005   -6.92904E+005    4.42563E+006   -2.64847E+005    4.24537E+005    1.07431E+005
            8403    4.19860E+006    4.24167E+006    4.24167E+006    5.03120E+005   -3.00742E+005    4.54242E+006   -1.48135E+006    4.01996E+006    4.81155E+005   -2.26455E+005    4.18935E+006   -1.92511E+005    3.93626E+005    2.42798E+005
            8404    4.05819E+006    4.19995E+006    4.19995E+006    3.86137E+005   -6.49304E+004    4.26488E+006   -1.50705E+006    4.00121E+006    4.14415E+005   -5.01419E+004    4.15688E+006   -5.72337E+004    3.86316E+005    1.30245E+005
            8405    6.14444E+006    5.75463E+006    5.75463E+006    8.05967E+005   -1.12279E+006    6.87742E+006   -1.81260E+006    5.39756E+006    8.15738E+005   -1.05573E+006    5.67780E+006   -3.19618E+005    5.98522E+005    2.09556E+005
            8406    4.98221E+006    4.94616E+006    4.94616E+006    6.27146E+005   -5.04541E+005    5.45070E+006   -1.68959E+006    4.67973E+006    6.38160E+005   -4.07465E+005    4.83807E+006   -1.65844E+005    4.97463E+005    5.39547E+005
            8407    4.21045E+006    4.27911E+006    4.27911E+006    3.56353E+005   -1.69598E+005    4.44871E+006   -1.48862E+006    4.13557E+006    3.54905E+005   -7.91562E+004    4.19012E+006   -9.72243E+004    4.00729E+005    4.67529E+005
            8408    3.76895E+006    3.79663E+006    3.79663E+006    1.26139E+005   -6.35962E+004    3.86023E+006   -1.28639E+006    3.75818E+006    1.55563E+005   -4.45669E+004    3.74818E+006   -1.49326E+004    3.64758E+005    2.15402E+005
            8409    6.45394E+006    6.76247E+006    6.76247E+006    1.10777E+006   -2.68641E+005    7.03111E+006   -2.53387E+006    6.11048E+006    1.15142E+006   -1.74400E+005    6.62458E+006   -1.63522E+005    6.92228E+005    6.23412E+005
            8410    4.98400E+006    5.24469E+006    5.24469E+006    5.96442E+005   -1.80777E+004    5.26277E+006   -1.94102E+006    4.89768E+006    6.39024E+005    7.67771E+004    5.10725E+006   -1.31388E+004    4.95865E+005    6.60473E+005
            8411    4.16518E+006    4.28870E+006    4.28870E+006    2.08331E+005    4.35836E+004    4.24511E+006   -1.51354E+006    4.15784E+006    2.38215E+005    1.10589E+005    4.19181E+006    3.11379E+004    3.52940E+005    5.22931E+005
            8412    3.38869E+006    3.31544E+006    3.31544E+006   -2.37060E+004   -1.20712E+005    3.43616E+006   -1.05701E+006    3.38557E+006   -9.17052E+004   -9.84041E+003    3.27257E+006    3.78327E+004    2.96141E+005    2.35383E+005
            8413    3.04777E+006    2.90414E+006    2.90414E+006    5.16310E+004   -3.07129E+005    3.21127E+006   -8.82881E+005    2.99971E+006   -2.82160E+005    4.99438E+004    2.88086E+006    7.79858E+004    1.95130E+005    1.75005E+005
            8414    2.84000E+006    2.64814E+006    2.64814E+006    1.04381E+005   -4.16102E+005    3.06424E+006   -7.78808E+005    2.72959E+006   -3.93826E+005    8.53209E+004    2.64493E+006    1.03276E+005    6.83786E+004    6.32053E+004
            8415    4.03799E+006    4.19605E+006    4.19605E+006    3.11719E+005    2.01985E+004    4.17585E+006   -1.50932E+006    4.01421E+006    1.33775E+005    2.59934E+005    4.13425E+006    1.64469E+005    2.40015E+005    4.22815E+005
            8416    3.88104E+006    4.06888E+006    4.06888E+006    4.93014E+005   -5.83610E+004    4.12724E+006   -1.50118E+006    3.79142E+006    7.66343E+004    3.67697E+005    4.05920E+006    2.39802E+005    8.33739E+004    1.66063E+005
            8417    4.92716E+006    5.41176E+006    5.41176E+006    5.96298E+005    3.80036E+005    5.03173E+006   -2.12937E+006    4.91646E+006    5.62337E+005    4.99099E+005    5.32666E+006    1.40009E+005    3.79580E+005    5.10476E+005
            8418    4.82467E+006    5.45278E+006    5.45278E+006    9.65613E+005    3.49752E+005    5.10303E+006   -2.25605E+006    4.73502E+006    5.13160E+005    8.15354E+005    5.43963E+006    2.75679E+005    1.45212E+005    1.94483E+005
            8419    6.23267E+006    7.13558E+006    7.13558E+006    1.14810E+006    6.83690E+005    6.45189E+006   -2.98912E+006    6.19356E+006    1.20816E+006    7.40350E+005    7.01886E+006    6.57278E+004    5.94061E+005    5.98075E+005
            8420    5.92091E+006    7.07151E+006    7.07151E+006    1.44931E+006    8.91381E+005    6.18013E+006   -3.13740E+006    5.86133E+006    1.04882E+006    1.31210E+006    7.05129E+006    2.56133E+005    2.39714E+005    2.37558E+005
            8421    7.17340E+006    8.87536E+006    8.87536E+006    1.90551E+006    1.51442E+006    7.36095E+006   -4.09843E+006    7.14935E+006    1.66553E+006    1.77212E+006    8.85763E+006    1.96502E+005    2.68680E+005    2.26769E+005
            8422    8.86639E+006    1.12263E+007    1.12263E+007    2.55396E+006    2.17790E+006    9.04844E+006   -5.31940E+006    8.84843E+006    2.51316E+006    2.23146E+006    1.12136E+007    1.32496E+005    2.61606E+005    2.06162E+005
            8423    7.69270E+006    9.15921E+006    9.15921E+006    1.86831E+006    1.11948E+006    8.03973E+006   -4.04900E+006    7.61005E+006    1.94837E+006    1.17928E+006    9.01935E+006   -2.68460E+003    7.91108E+005    6.51037E+005
            8424    9.20027E+006    1.15388E+007    1.15388E+007    2.78165E+006    1.95163E+006    9.58716E+006   -5.42402E+006    9.11547E+006    2.86590E+006    2.01690E+006    1.13893E+007   -1.74269E+004    9.03866E+005    7.27673E+005
            8425    1.03454E+007    1.18759E+007    1.18759E+007    3.39899E+006    3.48129E+005    1.15278E+007   -5.20768E+006    9.24915E+006    3.43434E+006    6.95311E+005    1.14934E+007   -4.18349E+005    1.19857E+006    1.59883E+006
            8426    9.40725E+006    9.87611E+006    9.87611E+006    2.37808E+006   -6.79596E+005    1.05557E+007   -3.85820E+006    8.17160E+006    2.41434E+006   -4.84941E+005    9.64520E+006   -4.15053E+005    1.00995E+006    1.04310E+006
            8427    6.71550E+006    6.09183E+006    6.09183E+006    8.90337E+005   -1.48952E+006    7.58135E+006   -1.83088E+006    5.64248E+006    9.07934E+005   -1.40481E+006    5.98952E+006    4.48311E+005   -7.21652E+005   -5.49691E+004
            8428    5.92367E+006    5.00208E+006    5.00208E+006    6.48961E+005   -1.74368E+006    6.74576E+006   -1.30245E+006    4.63263E+006    6.39124E+005   -1.58330E+006    4.85153E+006    4.92822E+005   -5.03524E+005   -7.20034E+005
            8429    5.11192E+006    4.29685E+006    4.29685E+006    5.84268E+005   -1.53365E+006    5.83049E+006   -1.11582E+006    3.92526E+006    5.65216E+005   -1.21925E+006    4.00150E+006    4.95596E+005   -3.84718E+005   -1.12939E+006
            8430    4.26333E+006    3.68551E+006    3.68551E+006    5.68410E+005   -1.17285E+006    4.85836E+006   -1.02702E+006    3.30829E+006    5.40805E+005   -6.50462E+005    3.19073E+006    4.66317E+005   -2.66440E+005   -1.37994E+006
            8431    3.67081E+006    3.61535E+006    3.61535E+006    6.65329E+005   -4.95540E+005    4.11089E+006   -1.26171E+006    3.21720E+006    5.89747E+005   -2.83009E+005    3.47840E+006    3.93833E+005   -2.74338E+005   -6.20916E+005
            8432    3.95661E+006    4.17566E+006    4.17566E+006    5.19682E+005   -2.51119E+004    4.20078E+006   -1.55674E+006    3.87088E+006    4.94962E+005    3.43186E+004    4.14095E+006    1.71543E+005   -2.92944E+005   -2.03375E+005
            8433    4.16806E+006    3.99865E+006    3.99865E+006    6.06610E+005   -6.54283E+005    4.65293E+006   -1.31699E+006    3.70105E+006    5.38243E+005   -5.05235E+005    3.91796E+006    3.96270E+005   -3.59812E+005   -3.98011E+005
            8434    4.25550E+006    4.37654E+006    4.37654E+006    4.15188E+005   -1.22080E+005    4.49862E+006   -1.55655E+006    4.17817E+006    3.93504E+005   -6.96456E+004    4.34579E+006    1.63616E+005   -3.42456E+005   -6.20746E+004
            8435    4.68994E+006    4.43597E+006    4.43597E+006    5.34824E+005   -7.67508E+005    5.20347E+006   -1.40109E+006    4.25372E+006    4.77955E+005   -6.57655E+005    4.38298E+006    3.54451E+005   -4.56525E+005    8.15935E+004
            8436    4.10408E+006    4.18372E+006    4.18372E+006    2.42109E+005   -6.55133E+004    4.24923E+006   -1.45344E+006    4.07802E+006    2.24378E+005   -1.21043E+004    4.14804E+006    1.01630E+005   -3.55556E+005    1.34504E+005
            8437    4.78936E+006    4.79826E+006    4.79826E+006    4.56014E+005   -3.38776E+005    5.13704E+006   -1.63850E+006    4.63750E+006    4.51447E+005   -2.18835E+005    4.68289E+006    1.68577E+005   -5.43181E+005    5.08908E+005
            8438    3.66540E+006    3.71157E+006    3.71157E+006    9.37589E+004    3.70400E+002    3.71120E+006   -1.26857E+006    3.66272E+006    2.39917E+004    1.06118E+005    3.67559E+006   -1.06252E+004   -2.91870E+005    2.14649E+005
            8439    3.24174E+006    3.16828E+006    3.16828E+006    7.44369E+004   -2.03455E+005    3.37174E+006   -1.01309E+006    3.21478E+006   -1.68566E+005    6.68518E+004    3.14098E+006   -9.06809E+004   -1.92398E+005    2.18907E+005
            8440    2.87205E+006    2.76225E+006    2.76225E+006    1.54209E+005   -3.15824E+005    3.07807E+006   -8.66877E+005    2.78354E+006   -2.65082E+005    1.09556E+005    2.75616E+006   -1.46305E+005   -7.17211E+004    1.04299E+005
            8441    4.60228E+006    4.80477E+006    4.80477E+006    2.72901E+005    1.35174E+005    4.66959E+006   -1.73761E+006    4.59764E+006    2.71393E+005    2.30090E+005    4.71136E+006   -1.09090E+005   -4.16895E+005    4.91747E+005
            8442    4.30746E+006    4.53417E+006    4.53417E+006    6.53534E+005   -1.00542E+005    4.63471E+006   -1.69572E+006    4.15505E+006    1.13033E+005    4.54031E+005    4.52009E+006   -3.44001E+005   -1.43682E+005    1.84049E+005
            8443    5.55410E+006    6.14732E+006    6.14732E+006    1.09772E+006    1.98466E+005    5.94885E+006   -2.48117E+006    5.38665E+006    4.00130E+005    9.15922E+005    6.12745E+006   -3.74088E+005   -2.80988E+005    1.60365E+005
            8444    7.08486E+006    8.10042E+006    8.10042E+006    1.49367E+006    6.18725E+005    7.48169E+006   -3.40427E+006    6.96175E+006    7.93635E+005    1.34573E+006    8.07345E+006   -3.32906E+005   -4.36211E+005    5.91568E+004
            8445    8.98587E+006    1.05218E+007    1.05218E+007    1.89221E+006    1.21760E+006    9.30417E+006   -4.54386E+006    8.92863E+006    1.37777E+006    1.77102E+006    1.04828E+007   -2.69977E+005   -5.77158E+005    1.32175E+005
            8446    1.08923E+007    1.30415E+007    1.30415E+007    2.36631E+006    1.94452E+006    1.10970E+007   -5.78412E+006    1.08739E+007    2.09037E+006    2.26673E+006    1.29953E+007   -1.85757E+005   -7.04669E+005    8.83097E+004
            8447    5.89852E+006    6.44361E+006    6.44361E+006    7.04292E+005    3.97837E+005    6.04577E+006   -2.51525E+006    5.88057E+006    7.85557E+005    4.35440E+005    6.32474E+006   -2.49974E+004   -6.88653E+005    4.55851E+005
            8448    7.48326E+006    8.57646E+006    8.57646E+006    1.37506E+006    8.40064E+005    7.73639E+006   -3.59719E+006    7.44005E+006    1.48737E+006    9.01547E+005    8.40267E+006   -2.14941E+003   -9.35695E+005    6.20978E+005
            8449    8.72804E+006    1.05617E+007    1.05617E+007    2.12636E+006    1.56771E+006    8.99395E+006   -4.75191E+006    8.68768E+006    2.24905E+006    1.65081E+006    1.03559E+007    3.34463E+004   -1.12437E+006    6.96305E+005
            8450    1.01737E+007    1.28011E+007    1.28011E+007    2.99657E+006    2.29459E+006    1.05065E+007   -6.03075E+006    1.01190E+007    3.13463E+006    2.36973E+006    1.25879E+007    5.77900E+004   -1.28022E+006    6.82439E+005
            8451    1.09101E+007    1.33746E+007    1.33746E+007    3.83675E+006    1.47813E+006    1.18964E+007   -6.22982E+006    1.03128E+007    3.90115E+006    1.99505E+006    1.27933E+007    4.18593E+005   -1.72366E+006    1.82014E+006
            8452    1.00829E+007    1.12290E+007    1.12290E+007    2.74422E+006    8.21341E+004    1.11468E+007   -4.68511E+006    9.24136E+006    2.81299E+006    4.26892E+005    1.08155E+007    4.44689E+005   -1.44431E+006    1.41258E+006
            8453    8.97540E+006    9.30431E+006    9.30431E+006    1.93444E+006   -6.91061E+005    9.99537E+006   -3.51590E+006    8.04092E+006    1.99974E+006   -4.73523E+005    9.02147E+006    4.08738E+005   -1.17869E+006    1.01659E+006
            8454    7.75530E+006    7.62535E+006    7.62535E+006    1.34725E+006   -1.04395E+006    8.66930E+006   -2.64289E+006    6.84917E+006    1.40174E+006   -9.29685E+005    7.45661E+006    3.90439E+005   -9.54240E+005    4.97363E+005
            8455    3.51622E+006    3.71751E+006    3.71751E+006    5.11789E+005   -4.32099E+004    3.76072E+006   -1.39536E+006    3.41559E+006    4.81380E+005    1.48118E+004    3.68990E+006    1.67460E+005   -2.23694E+005   -2.00276E+005
            8456    3.12700E+006    3.17289E+006    3.17289E+006    6.59626E+005   -3.28901E+005    3.50179E+006   -1.16787E+006    2.74090E+006    5.83231E+005   -9.55278E+004    3.01591E+006    3.48021E+005   -1.95059E+005   -6.50833E+005
            8457    3.34172E+006    3.02681E+006    3.02681E+006    5.31762E+005   -7.69855E+005    3.79667E+006   -9.29573E+005    2.67498E+006    4.94012E+005   -1.28878E+005    2.42359E+006    4.18021E+005   -1.78017E+005   -1.32094E+006
            8458    3.03875E+006    3.24871E+006    3.24871E+006    4.95076E+005   -1.14979E+004    3.26021E+006   -1.24410E+006    2.94150E+006    4.58015E+005    4.04340E+004    3.23384E+006    1.51004E+005   -1.41455E+005   -1.49331E+005
            8459    2.52707E+006    2.65362E+006    2.65362E+006    6.30990E+005   -1.79175E+005    2.83280E+006   -1.03515E+006    2.20516E+006    5.31167E+005    5.79953E+003    2.56847E+006    3.03463E+005   -1.14071E+005   -4.37346E+005
            8460    2.31061E+006    2.27448E+006    2.27448E+006    4.99623E+005   -3.38154E+005    2.61264E+006   -8.11984E+005    1.92137E+006    4.27350E+005    2.50759E+005    1.75784E+006    3.58844E+005   -9.58613E+004   -9.81276E+005
            8461    2.75545E+006    2.95178E+006    2.95178E+006    4.73477E+005   -1.53719E+004    2.96715E+006   -1.13663E+006    2.65524E+006    4.31224E+005    2.86584E+004    2.95000E+006    1.39627E+005   -4.74131E+004   -4.81932E+004
            8462    2.15547E+006    2.33145E+006    2.33145E+006    6.16158E+005   -8.80398E+004    2.41949E+006   -9.53190E+005    1.86908E+006    4.92546E+005    4.87670E+004    2.31826E+006    2.73013E+005   -3.90872E+004   -1.60696E+005
            8463    1.24821E+006    1.45915E+006    1.45915E+006    6.00989E+005    2.72233E+004    1.43193E+006   -6.95788E+005    8.67637E+005    3.51144E+005    4.14393E+005    1.32183E+006    3.15875E+005   -3.26409E+004   -3.51510E+005
            8464    1.13472E+007    1.36571E+007    1.36571E+007    2.48155E+006    2.14578E+006    1.15113E+007   -6.09481E+006    1.13360E+007    2.30097E+006    2.37544E+006    1.36080E+007    1.63904E+005   -7.37127E+005   -1.07539E+005
            8465    1.04361E+007    1.32723E+007    1.32723E+007    3.22601E+006    2.48581E+006    1.07865E+007   -6.32806E+006    1.03768E+007    3.36321E+006    2.57171E+006    1.30493E+007   -7.59040E+004   -1.32586E+006   -7.09367E+005
            8466    1.10385E+007    1.36633E+007    1.36633E+007    3.98093E+006    1.64320E+006    1.20201E+007   -6.42915E+006    1.04596E+007    4.04632E+006    2.16710E+006    1.30740E+007   -4.17520E+005   -1.75261E+006   -1.83618E+006
            8467    1.31531E+007    1.60526E+007    1.60526E+007    3.03929E+006    2.76411E+006    1.32885E+007   -7.28534E+006    1.31466E+007    3.06583E+006    2.79171E+006    1.59985E+007    8.68289E+004   -8.34940E+005   -7.15198E+004
            8468    1.17019E+007    1.53883E+007    1.53883E+007    4.12073E+006    3.29574E+006    1.20926E+007   -7.60159E+006    1.16362E+007    4.27985E+006    3.34499E+006    1.51799E+007   -6.39215E+004   -1.42122E+006   -5.73581E+005
            8469    1.12301E+007    1.55202E+007    1.55202E+007    5.18023E+006    3.57311E+006    1.19471E+007   -8.09118E+006    1.09669E+007    5.22992E+006    4.17491E+006    1.48687E+007   -3.21223E+005   -1.98254E+006   -1.80977E+006
            8470    1.44541E+007    1.77838E+007    1.77838E+007    3.60571E+006    3.06869E+006    1.47151E+007   -8.15272E+006    1.44316E+007    3.65977E+006    3.07055E+006    1.77278E+007    3.31790E+004   -8.87820E+005   -4.07813E+004
            8471    1.25764E+007    1.68862E+007    1.68862E+007    4.76743E+006    3.89740E+006    1.29888E+007   -8.51702E+006    1.25084E+007    4.94065E+006    3.91083E+006    1.66996E+007   -4.03129E+004   -1.46606E+006   -3.00479E+005
            8472    1.09650E+007    1.67502E+007    1.67502E+007    6.20040E+006    5.41249E+006    1.13377E+007   -9.45436E+006    1.09010E+007    6.21682E+006    5.93849E+006    1.62078E+007   -1.72189E+005   -2.13184E+006   -1.13000E+006
            8473    1.48572E+007    1.83157E+007    1.83157E+007    3.78914E+006    3.14859E+006    1.51671E+007   -8.41781E+006    1.48261E+007    3.84528E+006    3.14861E+006    1.82595E+007   -2.93526E+003   -9.01397E+005    1.45836E+004
            8474    1.28670E+007    1.73650E+007    1.73650E+007    4.96959E+006    4.07340E+006    1.32916E+007   -8.80267E+006    1.27965E+007    5.14795E+006    4.07378E+006    1.71863E+007    7.71536E+003   -1.47700E+006    4.89820E+004
            8475    1.07704E+007    1.71512E+007    1.71512E+007    6.63840E+006    6.14052E+006    1.10107E+007   -9.97672E+006    1.07445E+007    6.59257E+006    6.63807E+006    1.66995E+007    6.98198E+003   -2.18352E+006    4.37554E+004
            8476    1.42291E+007    1.74681E+007    1.74681E+007    3.48715E+006    3.00315E+006    1.44649E+007   -7.98613E+006    1.42106E+007    3.53968E+006    3.00605E+006    1.74127E+007   -3.92993E+004   -8.77088E+005    5.04556E+004
            8477    1.24745E+007    1.66425E+007    1.66425E+007    4.63469E+006    3.74857E+006    1.28939E+007   -8.34191E+006    1.24034E+007    4.80394E+006    3.76831E+006    1.64535E+007    4.32681E+004   -1.45218E+006    3.79024E+005
            8478    1.09699E+007    1.66612E+007    1.66612E+007    6.13058E+006    5.29923E+006    1.13620E+007   -9.36367E+006    1.08987E+007    6.15076E+006    5.83204E+006    1.61082E+007    1.82763E+005   -2.12516E+006    1.19230E+006
            8479    1.27688E+007    1.55206E+007    1.55206E+007    2.87052E+006    2.63628E+006    1.28843E+007   -7.00914E+006    1.27640E+007    2.87282E+006    2.68681E+006    1.54678E+007   -1.01527E+005   -8.12340E+005    8.45551E+004
            8480    1.14831E+007    1.49506E+007    1.49506E+007    3.89694E+006    3.08149E+006    1.18691E+007   -7.30966E+006    1.14177E+007    4.04859E+006    3.13320E+006    1.47472E+007    6.76853E+004   -1.38512E+006    5.77471E+005
            8481    1.11975E+007    1.53378E+007    1.53378E+007    5.06790E+006    3.39987E+006    1.19379E+007   -7.93519E+006    1.09127E+007    5.12137E+006    3.99585E+006    1.46884E+007    3.31012E+005   -1.96652E+006    1.81580E+006
            8482    3.34009E+006    3.02576E+006    3.02576E+006    5.32101E+005   -7.69092E+005    3.79485E+006   -9.29591E+005    2.67342E+006    4.94315E+005   -1.25998E+005    2.42046E+006    4.18141E+005    1.77544E+005    1.32256E+006
            8483    3.12414E+006    3.17075E+006    3.17075E+006    6.59673E+005   -3.27802E+005    3.49855E+006   -1.16754E+006    2.73852E+006    5.83075E+005   -9.65976E+004    3.01614E+006    3.47285E+005    1.94504E+005    6.45356E+005
            8484    3.50905E+006    3.70945E+006    3.70945E+006    5.10265E+005   -4.35845E+004    3.75304E+006   -1.39204E+006    3.40863E+006    4.79664E+005    1.43683E+004    3.68210E+006    1.67233E+005    2.22507E+005    1.99003E+005
            8485    2.30093E+006    2.26657E+006    2.26657E+006    4.99031E+005   -3.35089E+005    2.60166E+006   -8.10171E+005    1.91348E+006    4.26135E+005    2.52735E+005    1.75164E+006    3.58347E+005    9.49786E+004    9.77260E+005
            8486    2.53355E+006    2.65936E+006    2.65936E+006    6.31626E+005   -1.80727E+005    2.84009E+006   -1.03675E+006    2.21072E+006    5.32317E+005    2.94419E+003    2.57500E+006    3.03262E+005    1.14619E+005    4.35669E+005
            8487    3.03503E+006    3.24490E+006    3.24490E+006    4.94428E+005   -1.11901E+004    3.25609E+006   -1.24271E+006    2.93803E+006    4.57272E+005    4.07574E+004    3.23011E+006    1.50865E+005    1.40791E+005    1.49055E+005
            8488    1.23548E+006    1.44916E+006    1.44916E+006    6.05435E+005    3.10421E+004    1.41811E+006   -6.95211E+005    8.46650E+005    3.50797E+005    4.17404E+005    1.31743E+006    3.15382E+005    3.14544E+004    3.41867E+005
            8489    2.16108E+006    2.33660E+006    2.33660E+006    6.16765E+005   -8.91718E+004    2.42577E+006   -9.54730E+005    1.87403E+006    4.93838E+005    4.76932E+004    2.32266E+006    2.73101E+005    4.00451E+004    1.65474E+005
            8490    2.75505E+006    2.95121E+006    2.95121E+006    4.73144E+005   -1.54601E+004    2.96667E+006   -1.13630E+006    2.65494E+006    4.30849E+005    2.86352E+004    2.94941E+006    1.39666E+005    4.74573E+004    4.87596E+004
            8491    3.31065E+006    3.26236E+006    3.26236E+006    2.80625E+004   -1.19698E+005    3.38206E+006   -1.05691E+006    3.30322E+006   -9.81746E+004    3.39725E+004    3.23493E+006    4.10971E+004   -2.31931E+005   -1.89216E+005
            8492    3.73873E+006    3.74894E+006    3.74894E+006    5.67740E+004   -3.46818E+004    3.78362E+006   -1.25701E+006    3.73621E+006    7.07947E+004   -1.67767E+004    3.71701E+006   -1.53129E+004   -2.99439E+005   -1.69842E+005
            8493    4.06979E+006    4.16034E+006    4.16034E+006    2.47263E+005   -4.98649E+004    4.21021E+006   -1.45258E+006    4.04528E+006    2.59034E+005   -3.08341E+004    4.12954E+006   -6.15240E+004   -3.35952E+005   -9.38594E+004
            8494    4.20370E+006    4.35370E+006    4.35370E+006    4.00857E+005   -6.24603E+004    4.41616E+006   -1.56403E+006    4.14567E+006    4.09262E+005   -4.23695E+004    4.32521E+006   -9.54899E+004   -3.34743E+005    1.15650E+004
            8495    4.02677E+006    4.22234E+006    4.22234E+006    4.84687E+005   -4.17538E+004    4.26409E+006   -1.55509E+006    3.94823E+006    4.90508E+005   -2.10745E+004    4.19584E+006   -1.03699E+005   -2.97018E+005    1.01885E+005
            8496    4.13541E+006    4.17820E+006    4.17820E+006    1.38230E+005   -4.64516E+004    4.22466E+006   -1.42333E+006    4.12611E+006    1.34155E+005    3.87941E+004    4.09703E+006    1.05425E+005   -3.15040E+005   -4.75785E+005
            8497    4.18051E+006    4.20470E+006    4.20470E+006    2.15388E+005   -1.43828E+005    4.34853E+006   -1.42542E+006    4.14558E+006    2.27656E+005   -8.62012E+004    4.13481E+006   -4.89803E+004   -3.64889E+005   -3.99767E+005
            8498    4.19330E+006    4.20627E+006    4.20627E+006    3.63987E+005   -2.66616E+005    4.47289E+006   -1.43455E+006    4.08457E+006    3.30982E+005   -1.92591E+005    4.16525E+006   -1.80955E+005   -3.71360E+005   -1.71793E+005
            8499    4.05993E+006    4.09963E+006    4.09963E+006    4.77437E+005   -2.88830E+005    4.38846E+006   -1.42941E+006    3.89221E+006    4.24436E+005   -1.98816E+005    4.06262E+006   -2.53226E+005   -3.35994E+005    1.41020E+005
            8500    3.74701E+006    3.85539E+006    3.85539E+006    5.53948E+005   -2.17198E+005    4.07259E+006   -1.39738E+006    3.56185E+006    4.91965E+005   -9.84786E+004    3.79865E+006   -2.73678E+005   -2.84031E+005    3.35721E+005
            8501    4.99841E+006    5.21497E+006    5.21497E+006    3.77824E+005    6.95610E+004    5.14541E+006   -1.88745E+006    4.97696E+006    4.08561E+005    1.51906E+005    5.10189E+006   -3.80790E+004   -5.51837E+005   -5.06109E+005
            8502    4.95632E+006    4.92527E+006    4.92527E+006    4.95831E+005   -4.27944E+005    5.35322E+006   -1.66439E+006    4.75682E+006    4.62371E+005   -2.98143E+005    4.82893E+006   -2.48432E+005   -5.68005E+005   -3.85574E+005
            8503    4.69107E+006    4.50060E+006    4.50060E+006    5.55811E+005   -6.86631E+005    5.18723E+006   -1.45659E+006    4.29690E+006    4.82855E+005   -5.55451E+005    4.44237E+006   -3.85083E+005   -4.80918E+005    1.13661E+004
            8504    4.22584E+006    4.07491E+006    4.07491E+006    6.18314E+005   -6.36126E+005    4.71103E+006   -1.35237E+006    3.77155E+006    5.25882E+005   -4.57770E+005    3.98898E+006   -4.37846E+005   -3.89337E+005    3.91892E+005
            8505    3.72980E+006    3.66771E+006    3.66771E+006    6.62641E+005   -5.06637E+005    4.17435E+006   -1.27457E+006    3.27773E+006    5.65187E+005   -2.67042E+005    3.52557E+006   -4.32979E+005   -2.94023E+005    6.24359E+005
            8506    6.45370E+006    6.62746E+006    6.62746E+006    9.57551E+005   -3.95489E+005    7.02295E+006   -2.39651E+006    6.12226E+006    1.01423E+006   -2.75232E+005    6.45053E+006   -2.33279E+005   -8.70590E+005   -5.73643E+005
            8507    6.10330E+006    5.66333E+006    5.66333E+006    8.13974E+005   -1.19001E+006    6.85334E+006   -1.76243E+006    5.28323E+006    8.17416E+005   -1.08837E+006    5.55826E+006   -4.13002E+005   -7.05795E+005   -1.83933E+005
            8508    5.39449E+006    4.80062E+006    4.80062E+006    7.02520E+005   -1.31102E+006    6.11165E+006   -1.39737E+006    4.42192E+006    6.84762E+005   -1.19719E+006    4.70455E+006   -4.60114E+005   -5.35269E+005    3.36871E+005
            8509    4.66662E+006    4.13175E+006    4.13175E+006    6.73617E+005   -1.17620E+006    5.30794E+006   -1.20972E+006    3.69522E+006    6.37856E+005   -9.72792E+005    3.96410E+006   -4.71015E+005   -3.86965E+005    7.40966E+005
            8510    3.90495E+006    3.54038E+006    3.54038E+006    6.37083E+005   -8.99048E+005    4.43943E+006   -1.09280E+006    3.10701E+006    5.97219E+005   -5.67028E+005    3.24822E+006   -4.33689E+005   -2.72897E+005    9.98544E+005
            8511    4.66104E+006    3.86731E+006    3.86731E+006    5.43228E+005   -1.46054E+006    5.32785E+006   -9.83332E+005    3.47259E+006    5.23936E+005   -8.63538E+005    3.28960E+006   -4.93301E+005   -2.81704E+005    1.56481E+006
            8512    5.70965E+006    4.65091E+006    4.65091E+006    6.19250E+005   -1.88260E+006    6.53351E+006   -1.12918E+006    4.17968E+006    6.06664E+005   -1.50871E+006    4.28960E+006   -5.33004E+005   -4.02340E+005    1.34569E+006
            8513    6.72468E+006    5.55480E+006    5.55480E+006    7.65614E+005   -2.13311E+006    7.68790E+006   -1.39577E+006    4.99807E+006    7.62730E+005   -1.94544E+006    5.37002E+006   -5.58706E+005   -5.60088E+005    8.76580E+005
            8514    7.60559E+006    6.60013E+006    6.60013E+006    1.02339E+006   -2.06361E+006    8.66374E+006   -1.85330E+006    5.92795E+006    1.03148E+006   -1.95923E+006    6.48766E+006   -5.56359E+005   -7.24343E+005    3.21556E+005
            8515    8.45560E+006    8.06222E+006    8.06222E+006    1.48202E+006   -1.47471E+006    9.53693E+006   -2.68984E+006    7.14536E+006    1.52523E+006   -1.36218E+006    7.90648E+006   -5.03084E+005   -9.84602E+005   -3.40000E+005
            8516    9.34679E+006    9.68156E+006    9.68156E+006    2.04838E+006   -7.42859E+005    1.04244E+007   -3.66236E+006    8.32874E+006    2.11759E+006   -5.32110E+005    9.40160E+006   -4.50154E+005   -1.23591E+006   -9.65061E+005
            8517    1.03019E+007    1.15972E+007    1.15972E+007    2.90416E+006    2.18412E+005    1.13788E+007   -4.90660E+006    9.46503E+006    2.97112E+006    5.92041E+005    1.11566E+007   -4.51021E+005   -1.48792E+006   -1.49904E+006
            8518    9.12061E+006    1.10849E+007    1.10849E+007    2.33339E+006    1.63535E+006    9.44957E+006   -5.01789E+006    9.06022E+006    2.45858E+006    1.72702E+006    1.08681E+007   -6.20508E+004   -1.18499E+006   -7.19875E+005
            8519    9.36027E+006    1.10696E+007    1.10696E+007    2.04297E+006    1.40807E+006    9.66156E+006   -4.84022E+006    9.31164E+006    1.55299E+006    1.93924E+006    1.10285E+007    2.41749E+005   -6.17528E+005   -8.48547E+004
            8520    7.69586E+006    8.88736E+006    8.88736E+006    1.50280E+006    9.14013E+005    7.97334E+006   -3.76806E+006    7.64494E+006    1.60808E+006    9.90527E+005    8.70557E+006   -5.15791E+004   -9.96342E+005   -6.05918E+005
            8521    7.51207E+006    8.71139E+006    8.71139E+006    1.65915E+006    8.11405E+005    7.89998E+006   -3.72732E+006    7.40331E+006    9.75686E+005    1.52614E+006    8.68012E+006    3.17711E+005   -4.73598E+005   -1.08278E+005
            8522    6.08237E+006    6.88268E+006    6.88268E+006    1.29156E+006    4.06111E+005    6.47657E+006   -2.86012E+006    5.93477E+006    6.12701E+005    1.10346E+006    6.86420E+006    3.74212E+005   -2.81785E+005   -1.66213E+005
            8523    4.84569E+006    5.27151E+006    5.27151E+006    8.71004E+005    7.83626E+004    5.19314E+006   -2.07362E+006    4.69651E+006    2.89252E+005    6.71608E+005    5.26001E+006    3.53552E+005   -1.37065E+005   -1.78237E+005
            8524    3.82535E+006    3.92947E+006    3.92947E+006    4.68285E+005   -1.77764E+005    4.10724E+006   -1.40666E+006    3.69961E+006   -5.99055E+003    3.04494E+005    3.92149E+006    2.87802E+005   -7.84775E+004   -1.46332E+005
            8525    2.72112E+006    2.57461E+006    2.57461E+006    1.00916E+005   -3.40057E+005    2.91467E+006   -7.78491E+005    2.63893E+006   -3.01632E+005    6.47484E+004    2.57236E+006    1.24164E+005   -4.90681E+004   -5.75055E+004
            8526    6.31167E+006    7.01262E+006    7.01262E+006    8.06479E+005    6.00478E+005    6.41215E+006   -2.80653E+006    6.30410E+006    8.95185E+005    6.41017E+005    6.88338E+006    5.61467E+004   -7.34672E+005   -5.04439E+005
            8527    4.97319E+006    5.29645E+006    5.29645E+006    5.07162E+005    1.57781E+005    5.13867E+006   -1.98713E+006    4.94547E+006    3.02684E+005    4.31138E+005    5.22757E+006    1.97744E+005   -3.91274E+005   -4.15393E+005
            8528    3.99164E+006    4.07790E+006    4.07790E+006    3.08217E+005   -1.03762E+005    4.18166E+006   -1.42745E+006    3.94339E+006    5.90905E+004    1.98817E+005    4.02444E+006    2.21139E+005   -2.17716E+005   -3.89374E+005
            8529    2.94523E+006    2.83244E+006    2.83244E+006    6.45823E+004   -2.62797E+005    3.09524E+006   -8.78077E+005    2.90387E+006   -2.32451E+005    4.95660E+004    2.81711E+006    9.16158E+004   -1.45797E+005   -1.48408E+005
            8530    3.66419E+006    3.71028E+006    3.71028E+006    9.37899E+004    1.76855E+002    3.71010E+006   -1.26808E+006    3.66150E+006    2.38160E+004    1.06218E+005    3.67421E+006   -1.07344E+004    2.91994E+005   -2.15094E+005
            8531    4.10762E+006    4.18668E+006    4.18668E+006    2.43659E+005   -6.78015E+004    4.25448E+006   -1.45418E+006    4.08092E+006    2.25979E+005   -1.44537E+004    4.15101E+006    1.02526E+005    3.55852E+005   -1.33769E+005
            8532    4.25230E+006    4.37513E+006    4.37513E+006    4.17921E+005   -1.20914E+005    4.49604E+006   -1.55738E+006    4.17446E+006    3.96299E+005   -6.85654E+004    4.34440E+006    1.63936E+005    3.41003E+005    6.75500E+004
            8533    3.94363E+006    4.16502E+006    4.16502E+006    5.21113E+005   -2.20282E+004    4.18705E+006   -1.55470E+006    3.85814E+006    4.95814E+005    3.79512E+004    4.13034E+006    1.71835E+005    2.90870E+005    2.05173E+005
            8534    4.78741E+006    4.79490E+006    4.79490E+006    4.55419E+005   -3.40643E+005    5.13554E+006   -1.63656E+006    4.63498E+006    4.50828E+005   -2.21134E+005    4.67998E+006    1.68871E+005    5.42485E+005   -5.07209E+005
            8535    4.67993E+006    4.42672E+006    4.42672E+006    5.34063E+005   -7.65698E+005    5.19242E+006   -1.39836E+006    4.24448E+006    4.76940E+005   -6.55929E+005    4.37408E+006    3.54558E+005    4.54876E+005   -7.70670E+004
            8536    4.15708E+006    3.98952E+006    3.98952E+006    6.06929E+005   -6.51325E+005    4.64085E+006   -1.31504E+006    3.69074E+006    5.38240E+005   -5.01100E+005    3.90798E+006    3.96542E+005    3.58289E+005    4.02793E+005
            8537    3.65980E+006    3.61029E+006    3.61029E+006    6.68137E+005   -4.87942E+005    4.09823E+006   -1.26349E+006    3.20868E+006    5.92406E+005   -2.75278E+005    3.47336E+006    3.92875E+005    2.72999E+005    6.20485E+005
            8538    4.26515E+006    3.68512E+006    3.68512E+006    5.67620E+005   -1.17551E+006    4.86063E+006   -1.02574E+006    3.30818E+006    5.40203E+005   -6.51955E+005    3.18898E+006    4.66532E+005    2.66625E+005    1.38206E+006
            8539    5.11889E+006    4.29807E+006    4.29807E+006    5.82201E+005   -1.54073E+006    5.83880E+006   -1.11318E+006    3.92762E+006    5.63177E+005   -1.22590E+006    4.00226E+006    4.95860E+005    3.84558E+005    1.13150E+006
            8540    5.92647E+006    5.00277E+006    5.00277E+006    6.47852E+005   -1.74624E+006    6.74901E+006   -1.30146E+006    4.63440E+006    6.38076E+005   -1.58601E+006    4.85231E+006    4.92914E+005    5.03901E+005    7.19556E+005
            8541    6.70927E+006    6.08487E+006    6.08487E+006    8.87518E+005   -1.48925E+006    7.57411E+006   -1.82771E+006    5.63815E+006    9.04868E+005   -1.40441E+006    5.98268E+006    4.48384E+005    7.20815E+005    5.60267E+004
            8542    7.74785E+006    7.61340E+006    7.61340E+006    1.34638E+006   -1.04935E+006    8.66275E+006   -2.63681E+006    6.83689E+006    1.40019E+006   -9.35208E+005    7.44545E+006    3.92228E+005    9.52214E+005   -4.93339E+005
            8543    8.98494E+006    9.31268E+006    9.31268E+006    1.93993E+006   -6.95175E+005    1.00079E+007   -3.51914E+006    8.04418E+006    2.00509E+006   -4.76998E+005    9.02934E+006    4.10966E+005    1.18057E+006   -1.01745E+006
            8544    1.00939E+007    1.12485E+007    1.12485E+007    2.75344E+006    8.99060E+004    1.11586E+007   -4.69728E+006    9.25245E+006    2.82260E+006    4.36280E+005    1.08330E+007    4.44277E+005    1.44716E+006   -1.41852E+006
            8545    1.09114E+007    1.33737E+007    1.33737E+007    3.83275E+006    1.47674E+006    1.18969E+007   -6.22772E+006    1.03156E+007    3.89804E+006    1.99100E+006    1.27941E+007    4.17411E+005    1.72269E+006   -1.81575E+006
            8546    1.01722E+007    1.27972E+007    1.27972E+007    2.99623E+006    2.29053E+006    1.05067E+007   -6.02799E+006    1.01169E+007    3.13372E+006    2.36700E+006    1.25832E+007    5.91799E+004    1.28067E+006   -6.87063E+005
            8547    1.08724E+007    1.30159E+007    1.30159E+007    2.36101E+006    1.93825E+006    1.10776E+007   -5.77171E+006    1.08539E+007    2.08443E+006    2.26183E+006    1.29689E+007   -1.85866E+005    7.09615E+005   -8.86429E+004
            8548    8.73231E+006    1.05538E+007    1.05538E+007    2.12113E+006    1.54991E+006    9.00390E+006   -4.74161E+006    8.69013E+006    2.24333E+006    1.63411E+006    1.03474E+007    3.57023E+004    1.12481E+006   -6.99930E+005
            8549    8.99163E+006    1.05325E+007    1.05325E+007    1.89699E+006    1.22279E+006    9.30975E+006   -4.55078E+006    8.93449E+006    1.38292E+006    1.77634E+006    1.04931E+007   -2.69623E+005    5.80838E+005   -1.33564E+005
            8550    7.48371E+006    8.57318E+006    8.57318E+006    1.37457E+006    8.33710E+005    7.73947E+006   -3.59382E+006    7.43955E+006    1.48671E+006    8.95216E+005    8.39954E+006   -1.11145E+002    9.36516E+005   -6.18815E+005
            8551    7.11643E+006    8.14142E+006    8.14142E+006    1.50036E+006    6.29721E+005    7.51169E+006   -3.42383E+006    6.99511E+006    8.04831E+005    1.35248E+006    8.11419E+006   -3.32126E+005    4.38713E+005   -6.22250E+004
            8552    5.90235E+006    6.44827E+006    6.44827E+006    7.06181E+005    3.97761E+005    6.05051E+006   -2.51740E+006    5.88418E+006    7.87574E+005    4.35610E+005    6.32903E+006   -2.43918E+004    6.89908E+005   -4.56803E+005
            8553    5.57163E+006    6.17022E+006    6.17022E+006    1.10224E+006    2.04066E+005    5.96616E+006   -2.49218E+006    5.40514E+006    4.05289E+005    9.20784E+005    6.15046E+006   -3.73428E+005    2.81368E+005   -1.59275E+005
            8554    4.31711E+006    4.54620E+006    4.54620E+006    6.56715E+005   -9.87986E+004    4.64500E+006   -1.70137E+006    4.16446E+006    1.15374E+005    4.56632E+005    4.53211E+006   -3.44751E+005    1.43863E+005   -1.84420E+005
            8555    2.87485E+006    2.76566E+006    2.76566E+006    1.55392E+005   -3.15612E+005    3.08127E+006   -8.68478E+005    2.78605E+006   -2.64306E+005    1.10001E+005    2.75974E+006   -1.47183E+005    7.08316E+004   -1.02765E+005
            8556    4.60344E+006    4.80689E+006    4.80689E+006    2.73960E+005    1.36031E+005    4.67085E+006   -1.73896E+006    4.59879E+006    2.72319E+005    2.31162E+005    4.71340E+006   -1.09255E+005    4.16995E+005   -4.92126E+005
            8557    3.23929E+006    3.16608E+006    3.16608E+006    7.57298E+004   -2.04008E+005    3.37009E+006   -1.01260E+006    3.21195E+006   -1.69024E+005    6.77945E+004    3.13903E+006   -9.10994E+004    1.91671E+005   -2.17554E+005
            8558    3.55782E+006    3.10146E+006    3.10146E+006    5.02202E+005   -9.53341E+005    4.05480E+006   -8.83440E+005    2.75751E+006    4.73055E+005   -1.85759E+005    2.36302E+006   -4.38175E+005   -1.77331E+005    1.49851E+006
            8559    3.09958E+006    2.93813E+006    2.93813E+006    6.09307E+005   -5.79957E+005    3.51809E+006   -9.89161E+005    2.50306E+006    5.57606E+005   -1.84171E+005    2.59405E+006   -3.79046E+005   -1.74956E+005    9.79218E+005
            8560    3.14164E+006    3.18163E+006    3.18163E+006    6.66369E+005   -3.39857E+005    3.52148E+006   -1.16938E+006    2.74231E+006    5.61736E+005   -7.00097E+004    3.01641E+006   -3.93714E+005   -2.05541E+005    6.59011E+005
            8561    3.32518E+006    3.47218E+006    3.47218E+006    5.71886E+005   -1.56973E+005    3.62915E+006   -1.29570E+006    3.13781E+006    5.04935E+005   -2.87650E+004    3.41092E+006   -2.61424E+005   -2.14316E+005    3.80130E+005
            8562    3.61048E+006    3.81634E+006    3.81634E+006    4.95326E+005   -2.67578E+004    3.84310E+006   -1.42830E+006    3.52405E+006    4.94135E+005   -5.25897E+003    3.79603E+006   -1.01718E+005   -2.29742E+005    1.22886E+005
            8563    2.35475E+006    2.24644E+006    2.24644E+006    4.55922E+005   -4.20928E+005    2.66737E+006   -7.60480E+005    1.93258E+006    3.97306E+005    2.91357E+005    1.59278E+006   -3.72948E+005   -9.46748E+004    1.08531E+006
            8564    2.25541E+006    2.29444E+006    2.29444E+006    5.67060E+005   -2.57136E+005    2.55158E+006   -8.68123E+005    1.86847E+006    4.85882E+005    7.68585E+004    2.04163E+006   -3.19110E+005   -9.94454E+004    7.13609E+005
            8565    2.53075E+006    2.65810E+006    2.65810E+006    6.51502E+005   -1.85006E+005    2.84310E+006   -1.04153E+006    2.18559E+006    5.23707E+005    4.77625E+004    2.55312E+006   -3.43580E+005   -1.19228E+005    4.81999E+005
            8566    2.84753E+006    3.01993E+006    3.01993E+006    5.60538E+005   -9.97227E+004    3.11966E+006   -1.16025E+006    2.66701E+006    4.78962E+005    1.87477E+004    2.98304E+006   -2.41669E+005   -1.31980E+005    2.86547E+005
            8567    3.16264E+006    3.35936E+006    3.35936E+006    4.71217E+005   -2.02370E+004    3.37959E+006   -1.27011E+006    3.07496E+006    4.61651E+005   -4.46172E+002    3.34913E+006   -9.42326E+004   -1.44688E+005    9.56413E+004
            8568    1.14005E+006    1.34144E+006    1.34144E+006    5.81214E+005    3.05968E+004    1.31085E+006   -6.51085E+005    7.39287E+005    3.25826E+005    5.20308E+005    1.10712E+006   -3.27751E+005   -2.86884E+004    3.99456E+005
            8569    1.57552E+006    1.77523E+006    1.77523E+006    6.02117E+005   -1.55271E+004    1.79076E+006   -7.87274E+005    1.25624E+006    4.36023E+005    1.96122E+005    1.72968E+006   -2.84932E+005   -3.01069E+004    2.54643E+005
            8570    2.11485E+006    2.30637E+006    2.30637E+006    6.51335E+005   -7.62232E+004    2.38259E+006   -9.60493E+005    1.79912E+006    4.89057E+005    1.02356E+005    2.29007E+006   -3.08703E+005   -3.98170E+004    1.75437E+005
            8571    2.53966E+006    2.72786E+006    2.72786E+006    5.45083E+005   -5.95483E+004    2.78741E+006   -1.07113E+006    2.36946E+006    4.52166E+005    3.88386E+004    2.72239E+006   -2.21299E+005   -4.53610E+004    1.05947E+005
            8572    2.86723E+006    3.05852E+006    3.05852E+006    4.49690E+005   -1.12546E+004    3.06978E+006   -1.16565E+006    2.78204E+006    4.33741E+005    6.08475E+003    3.05713E+006   -8.72809E+004   -4.95026E+004    3.56815E+004
            8573    1.10394E+007    1.36540E+007    1.36540E+007    3.97571E+006    1.63036E+006    1.20236E+007   -6.42002E+006    1.04566E+007    4.04017E+006    2.15504E+006    1.30649E+007   -4.19701E+005    1.75167E+006    1.83704E+006
            8574    1.04498E+007    1.33003E+007    1.33003E+007    3.23703E+006    2.50271E+006    1.07976E+007   -6.34667E+006    1.03915E+007    3.37551E+006    2.58577E+006    1.30787E+007   -7.37834E+004    1.32627E+006    6.98863E+005
            8575    1.13885E+007    1.37117E+007    1.37117E+007    2.49195E+006    2.16160E+006    1.15501E+007   -6.12174E+006    1.13777E+007    2.31732E+006    2.38541E+006    1.36625E+007    1.62278E+005    7.38903E+005    1.08800E+005
            8576    1.12259E+007    1.55223E+007    1.55223E+007    5.18696E+006    3.57911E+006    1.19432E+007   -8.09612E+006    1.09624E+007    5.23614E+006    4.18289E+006    1.48693E+007   -3.21720E+005    1.98455E+006    1.81127E+006
            8577    1.17171E+007    1.54041E+007    1.54041E+007    4.12408E+006    3.29411E+006    1.21100E+007   -7.60744E+006    1.16507E+007    4.28350E+006    3.34229E+006    1.51965E+007   -6.36195E+004    1.42113E+006    5.68005E+005
            8578    1.31845E+007    1.60952E+007    1.60952E+007    3.05334E+006    2.77257E+006    1.33227E+007   -7.30705E+006    1.31778E+007    3.08077E+006    2.79922E+006    1.60411E+007    8.63157E+004    8.35669E+005    6.89859E+004
            8579    1.09635E+007    1.67650E+007    1.67650E+007    6.21540E+006    5.42992E+006    1.13351E+007   -9.47010E+006    1.08999E+007    6.22878E+006    5.95949E+006    1.62221E+007   -1.71257E+005    2.13584E+006    1.12470E+006
            8580    1.25826E+007    1.68907E+007    1.68907E+007    4.76837E+006    3.89350E+006    1.29972E+007   -8.51752E+006    1.25139E+007    4.94196E+006    3.90694E+006    1.67037E+007   -4.03595E+004    1.46765E+006    3.01019E+005
            8581    1.44673E+007    1.78002E+007    1.78002E+007    3.61093E+006    3.07012E+006    1.47301E+007   -8.16043E+006    1.44445E+007    3.66513E+006    3.07192E+006    1.77442E+007    3.26992E+004    8.88684E+005    4.07227E+004
            8582    1.07602E+007    1.71398E+007    1.71398E+007    6.63868E+006    6.13806E+006    1.10018E+007   -9.97220E+006    1.07340E+007    6.59126E+006    6.63797E+006    1.66874E+007    1.04989E+004    2.18395E+006   -6.08475E+004
            8583    1.28623E+007    1.73582E+007    1.73582E+007    4.96838E+006    4.07039E+006    1.32878E+007   -8.79898E+006    1.27915E+007    5.14679E+006    4.07073E+006    1.71794E+007    7.66413E+003    1.47681E+006   -4.58001E+004
            8584    1.48550E+007    1.83119E+007    1.83119E+007    3.78708E+006    3.14740E+006    1.51645E+007   -8.41547E+006    1.48240E+007    3.84333E+006    3.14743E+006    1.82557E+007   -3.71762E+003    9.02202E+005   -1.43687E+004
            8585    1.09767E+007    1.66499E+007    1.66499E+007    6.11870E+006    5.27618E+006    1.13737E+007   -9.34825E+006    1.09036E+007    6.13931E+006    5.81165E+006    1.60938E+007    1.84742E+005    2.12310E+006   -1.21139E+006
            8586    1.24617E+007    1.66345E+007    1.66345E+007    4.63612E+006    3.75612E+006    1.28784E+007   -8.34225E+006    1.23915E+007    4.80601E+006    3.77567E+006    1.64451E+007    4.29802E+004    1.45403E+006   -3.76270E+005
            8587    1.42100E+007    1.74408E+007    1.74408E+007    3.47659E+006    2.99711E+006    1.44437E+007   -7.97150E+006    1.41918E+007    3.52855E+006    3.00029E+006    1.73857E+007   -4.09684E+004    8.74309E+005   -5.04336E+004
            8588    1.11994E+007    1.53183E+007    1.53183E+007    5.05060E+006    3.37578E+006    1.19425E+007   -7.91488E+006    1.09123E+007    5.10489E+006    3.96909E+006    1.46706E+007    3.31284E+005    1.96133E+006   -1.81643E+006
            8589    1.14762E+007    1.49535E+007    1.49535E+007    3.90478E+006    3.09283E+006    1.18607E+007   -7.31703E+006    1.14113E+007    4.05684E+006    3.14587E+006    1.47484E+007    6.74392E+004    1.38824E+006   -5.85982E+005
            8590    1.27412E+007    1.54818E+007    1.54818E+007    2.85897E+006    2.62535E+006    1.28564E+007   -6.98870E+006    1.27364E+007    2.85958E+006    2.67763E+006    1.54289E+007   -1.02606E+005    8.11920E+005   -8.50730E+004
            8591    3.61669E+006    3.82210E+006    3.82210E+006    4.95916E+005   -2.79603E+004    3.85006E+006   -1.43002E+006    3.52982E+006    4.94844E+005   -6.53071E+003    3.80175E+006   -1.01743E+005    2.30383E+005   -1.22772E+005
            8592    3.32524E+006    3.47199E+006    3.47199E+006    5.73016E+005   -1.57909E+005    3.62990E+006   -1.29570E+006    3.13676E+006    5.05775E+005   -2.89414E+004    3.41026E+006   -2.62378E+005    2.14460E+005   -3.81958E+005
            8593    3.13992E+006    3.17740E+006    3.17740E+006    6.65834E+005   -3.42921E+005    3.52032E+006   -1.16677E+006    2.73808E+006    5.61550E+005   -7.18267E+004    3.01059E+006   -3.94140E+005    2.05048E+005   -6.62522E+005
            8594    3.09690E+006    2.93265E+006    2.93265E+006    6.06485E+005   -5.82560E+005    3.51521E+006   -9.85525E+005    2.49993E+006    5.55112E+005   -1.82172E+005    2.58363E+006   -3.78967E+005    1.74051E+005   -9.85726E+005
            8595    3.55724E+006    3.10038E+006    3.10038E+006    5.01422E+005   -9.53739E+005    4.05411E+006   -8.82686E+005    2.75726E+006    4.72308E+005   -1.83719E+005    2.35947E+006   -4.38270E+005    1.77022E+005   -1.50044E+006
            8596    3.16395E+006    3.36194E+006    3.36194E+006    4.71543E+005   -1.84092E+004    3.38035E+006   -1.27169E+006    3.07687E+006    4.62260E+005    1.05782E+003    3.35176E+006   -9.33240E+004    1.44716E+005   -9.50566E+004
            8597    2.85204E+006    3.02515E+006    3.02515E+006    5.59726E+005   -9.84189E+004    3.12357E+006   -1.16215E+006    2.67305E+006    4.79107E+005    1.86936E+004    2.98866E+006   -2.40108E+005    1.32232E+005   -2.84851E+005
            8598    2.53272E+006    2.66048E+006    2.66048E+006    6.51016E+005   -1.84415E+005    2.84490E+006   -1.04236E+006    2.18889E+006    5.23856E+005    4.77706E+004    2.55546E+006   -3.42737E+005    1.19268E+005   -4.82465E+005
            8599    2.25011E+006    2.28761E+006    2.28761E+006    5.65106E+005   -2.58197E+005    2.54581E+006   -8.64841E+005    1.86295E+006    4.83598E+005    7.92740E+004    2.03165E+006   -3.19861E+005    9.89191E+004   -7.16672E+005
            8600    2.35842E+006    2.24588E+006    2.24588E+006    4.52912E+005   -4.25745E+005    2.67162E+006   -7.57681E+005    1.93509E+006    3.95125E+005    2.91740E+005    1.58618E+006   -3.73531E+005    9.51227E+004   -1.08995E+006
            8601    2.86935E+006    3.05909E+006    3.05909E+006    4.48423E+005   -1.30077E+004    3.07210E+006   -1.16484E+006    2.78403E+006    4.32629E+005    4.19406E+003    3.05769E+006   -8.69887E+004    4.99070E+004   -3.57987E+004
            8602    2.54310E+006    2.73112E+006    2.73112E+006    5.44944E+005   -5.98687E+004    2.79098E+006   -1.07206E+006    2.37305E+006    4.52510E+005    3.80276E+004    2.72565E+006   -2.20871E+005    4.53508E+004   -1.05975E+005
            8603    2.11372E+006    2.30566E+006    2.30566E+006    6.51358E+005   -7.56137E+004    2.38127E+006   -9.60467E+005    1.79835E+006    4.89041E+005    1.02808E+005    2.28955E+006   -3.08505E+005    3.96053E+004   -1.74313E+005
            8604    1.57029E+006    1.77327E+006    1.77327E+006    6.03635E+005   -1.14526E+004    1.78472E+006   -7.88484E+005    1.25271E+006    4.37078E+005    1.99811E+005    1.72856E+006   -2.84189E+005    2.98522E+004   -2.51785E+005
            8605    1.14350E+006    1.34656E+006    1.34656E+006    5.82814E+005    3.18848E+004    1.31468E+006   -6.53753E+005    7.44464E+005    3.28053E+005    5.21956E+005    1.11125E+006   -3.28082E+005    2.89242E+004   -4.01267E+005
            8606    8.44945E+006    8.05878E+006    8.05878E+006    1.48021E+006   -1.47029E+006    9.52908E+006   -2.68957E+006    7.14429E+006    1.52403E+006   -1.35885E+006    7.90353E+006   -5.00739E+005    9.83415E+005    3.36281E+005
            8607    7.60471E+006    6.59961E+006    6.59961E+006    1.02364E+006   -2.06315E+006    8.66276E+006   -1.85337E+006    5.92707E+006    1.03176E+006   -1.95881E+006    6.48715E+006   -5.56079E+005    7.23884E+005   -3.22695E+005
            8608    6.70776E+006    5.54182E+006    5.54182E+006    7.63750E+005   -2.12657E+006    7.66838E+006   -1.39300E+006    4.98720E+006    7.60692E+005   -1.93788E+006    5.35618E+006   -5.58144E+005    5.58280E+005   -8.79843E+005
            8609    5.70029E+006    4.64501E+006    4.64501E+006    6.18598E+005   -1.87756E+006    6.52257E+006   -1.12868E+006    4.17538E+006    6.05869E+005   -1.50213E+006    4.28230E+006   -5.33193E+005    4.01752E+005   -1.34741E+006
            8610    4.64524E+006    3.85695E+006    3.85695E+006    5.42936E+005   -1.45262E+006    5.30957E+006   -9.82422E+005    3.46299E+006    5.23485E+005   -8.54775E+005    3.27856E+006   -4.92373E+005    2.80344E+005   -1.56289E+006
            8611    3.91680E+006    3.54785E+006    3.54785E+006    6.37347E+005   -9.05408E+005    4.45326E+006   -1.09326E+006    3.11396E+006    5.97679E+005   -5.72799E+005    3.25491E+006   -4.34630E+005    2.73777E+005   -1.00144E+006
            8612    3.73623E+006    3.66874E+006    3.66874E+006    6.62021E+005   -5.14008E+005    4.18275E+006   -1.27225E+006    3.27931E+006    5.65031E+005   -2.73035E+005    3.52476E+006   -4.34520E+005    2.94630E+005   -6.29754E+005
            8613    3.74760E+006    3.85255E+006    3.85255E+006    5.54556E+005   -2.22745E+005    4.07530E+006   -1.39479E+006    3.55939E+006    4.91814E+005   -1.02677E+005    3.79523E+006   -2.76104E+005    2.84255E+005   -3.38426E+005
            8614    4.02533E+006    4.22175E+006    4.22175E+006    4.85962E+005   -4.11922E+004    4.26294E+006   -1.55550E+006    3.94655E+006    4.91483E+005   -2.02514E+004    4.19528E+006   -1.04469E+005    2.96932E+005   -1.01131E+005
            8615    4.68137E+006    4.14405E+006    4.14405E+006    6.73831E+005   -1.18040E+006    5.32445E+006   -1.21250E+006    3.70873E+006    6.38418E+005   -9.78968E+005    3.97804E+006   -4.70896E+005    3.89182E+005   -7.36012E+005
            8616    4.24058E+006    4.08494E+006    4.08494E+006    6.19348E+005   -6.43644E+005    4.72858E+006   -1.35355E+006    3.78138E+006    5.27225E+005   -4.65714E+005    3.99913E+006   -4.39364E+005    3.91688E+005   -3.89719E+005
            8617    4.06038E+006    4.10014E+006    4.10014E+006    4.79871E+005   -2.90088E+005    4.39023E+006   -1.42997E+006    3.89101E+006    4.26328E+005   -1.99334E+005    4.06293E+006   -2.54842E+005    3.37104E+005   -1.40584E+005
            8618    4.20191E+006    4.35107E+006    4.35107E+006    4.00533E+005   -6.36615E+004    4.41473E+006   -1.56265E+006    4.14363E+006    4.08670E+005   -4.32703E+004    4.32254E+006   -9.62971E+004    3.34812E+005   -1.21613E+004
            8619    5.42378E+006    4.82769E+006    4.82769E+006    7.06920E+005   -1.31702E+006    6.14472E+006   -1.40586E+006    4.44653E+006    6.89840E+005   -1.20451E+006    4.73226E+006   -4.60413E+005    5.40346E+005   -3.25541E+005
            8620    4.71068E+006    4.51827E+006    4.51827E+006    5.57930E+005   -6.91036E+005    5.20930E+006   -1.46172E+006    4.31396E+006    4.86025E+005   -5.60174E+005    4.45931E+006   -3.85378E+005    4.85270E+005   -6.57305E+003
            8621    4.19970E+006    4.20995E+006    4.20995E+006    3.66390E+005   -2.72648E+005    4.48260E+006   -1.43456E+006    4.08817E+006    3.32745E+005   -1.98219E+005    4.16917E+006   -1.83727E+005    3.71888E+005    1.67612E+005
            8622    4.07407E+006    4.16475E+006    4.16475E+006    2.50659E+005   -5.23728E+004    4.21712E+006   -1.45435E+006    4.04860E+006    2.61942E+005   -3.27967E+004    4.13389E+006   -6.32721E+004    3.36358E+005    9.40597E+004
            8623    6.11561E+006    5.67869E+006    5.67869E+006    8.18431E+005   -1.18811E+006    6.86680E+006   -1.76967E+006    5.29524E+006    8.22648E+005   -1.08656E+006    5.57292E+006   -4.12250E+005    7.08428E+005    1.87800E+005
            8624    4.96811E+006    4.93746E+006    4.93746E+006    4.98417E+005   -4.29000E+005    5.36646E+006   -1.66896E+006    4.76748E+006    4.64858E+005   -2.98301E+005    4.84032E+006   -2.49500E+005    5.70867E+005    3.87889E+005
            8625    4.18797E+006    4.21313E+006    4.21313E+006    2.20559E+005   -1.46130E+005    4.35926E+006   -1.42919E+006    4.15162E+006    2.32349E+005   -8.75923E+004    4.14280E+006   -5.14036E+004    3.67553E+005    4.00323E+005
            8626    3.74674E+006    3.76106E+006    3.76106E+006    6.28787E+004   -3.24306E+004    3.79349E+006   -1.26384E+006    3.74401E+006    7.67568E+004   -1.44243E+004    3.72917E+006   -1.64654E+004    3.00558E+005    1.68099E+005
            8627    6.46007E+006    6.63431E+006    6.63431E+006    9.57547E+005   -3.94921E+005    7.02923E+006   -2.39898E+006    6.12927E+006    1.01464E+006   -2.75078E+005    6.45737E+006   -2.32361E+005    8.71004E+005    5.73945E+005
            8628    4.98686E+006    5.20066E+006    5.20066E+006    3.72660E+005    6.88383E+004    5.13182E+006   -1.88072E+006    4.96597E+006    4.03337E+005    1.50329E+005    5.08849E+006   -3.69388E+004    5.48238E+005    5.04278E+005
            8629    4.13301E+006    4.17378E+006    4.17378E+006    1.37151E+005   -4.93033E+004    4.22308E+006   -1.42054E+006    4.12353E+006    1.33603E+005    3.62786E+004    4.09175E+006    1.05615E+005    3.14863E+005    4.79343E+005
            8630    3.32459E+006    3.27779E+006    3.27779E+006    2.57176E+004   -1.14849E+005    3.39264E+006   -1.06289E+006    3.31789E+006   -9.36493E+004    3.20669E+004    3.25024E+006    3.88342E+004    2.34570E+005    1.88192E+005
            8631    2.95862E+006    2.84681E+006    2.84681E+006    6.31087E+004   -2.60164E+005    3.10698E+006   -8.83252E+005    2.91848E+006   -2.29096E+005    4.78930E+004    2.83096E+006    9.20715E+004    1.48690E+005    1.51208E+005
            8632    2.72631E+006    2.58131E+006    2.58131E+006    1.02959E+005   -3.38963E+005    2.92028E+006   -7.81770E+005    2.64393E+006   -3.00251E+005    6.66203E+004    2.57894E+006    1.24747E+005    4.98433E+004    5.94150E+004
            8633    3.98644E+006    4.07056E+006    4.07056E+006    3.06404E+005   -1.06083E+005    4.17665E+006   -1.42363E+006    3.93800E+006    5.69465E+004    1.96976E+005    4.01696E+006    2.21387E+005    2.16484E+005    3.90407E+005
            8634    3.83341E+006    3.93937E+006    3.93937E+006    4.70370E+005   -1.76213E+005    4.11558E+006   -1.41117E+006    3.70774E+006   -3.74743E+003    3.05833E+005    3.93144E+006    2.88319E+005    7.88193E+004    1.45729E+005
            8635    4.96250E+006    5.28308E+006    5.28308E+006    5.05447E+005    1.54362E+005    5.12871E+006   -1.98096E+006    4.93444E+006    2.99086E+005    4.29514E+005    5.21429E+006    1.98347E+005    3.88247E+005    4.16737E+005
            8636    4.85026E+006    5.27767E+006    5.27767E+006    8.72600E+005    7.98735E+004    5.19779E+006   -2.07671E+006    4.70119E+006    2.91395E+005    6.72813E+005    5.26593E+006    3.54000E+005    1.37815E+005    1.80725E+005
            8637    6.31502E+006    7.01516E+006    7.01516E+006    8.06332E+005    5.99059E+005    6.41610E+006   -2.80685E+006    6.30736E+006    8.94939E+005    6.39718E+005    6.88589E+006    5.66477E+004    7.34338E+005    5.05420E+005
            8638    6.07811E+006    6.87956E+006    6.87956E+006    1.29381E+006    4.06603E+005    6.47296E+006   -2.85999E+006    5.92980E+006    6.12305E+005    1.10652E+006    6.86115E+006    3.74084E+005    2.81049E+005    1.65990E+005
            8639    7.52820E+006    8.73360E+006    8.73360E+006    1.66446E+006    8.17908E+005    7.91569E+006   -3.73865E+006    7.41998E+006    9.81355E+005    1.53222E+006    8.70239E+006    3.16613E+005    4.73982E+005    1.07259E+005
            8640    9.40344E+006    1.11250E+007    1.11250E+007    2.05190E+006    1.42281E+006    9.70219E+006   -4.86657E+006    9.35592E+006    1.56823E+006    1.94784E+006    1.10836E+007    2.40664E+005    6.20393E+005    8.39459E+004
            8641    7.70097E+006    8.89728E+006    8.89728E+006    1.50639E+006    9.19777E+005    7.97750E+006   -3.77448E+006    7.65046E+006    1.61147E+006    9.96616E+005    8.71535E+006   -5.18556E+004    9.97172E+005    6.06291E+005
            8642    9.12966E+006    1.11109E+007    1.11109E+007    2.34577E+006    1.65582E+006    9.45506E+006   -5.03749E+006    9.07073E+006    2.47103E+006    1.74766E+006    1.08938E+007   -6.11679E+004    1.18647E+006    7.20510E+005
            8643    1.02915E+007    1.15703E+007    1.15703E+007    2.88957E+006    2.01496E+005    1.13688E+007   -4.88713E+006    9.45211E+006    2.95589E+006    5.72703E+005    1.11328E+007   -4.51982E+005    1.48337E+006    1.49144E+006
            8644    9.33690E+006    9.66409E+006    9.66409E+006    2.03772E+006   -7.48827E+005    1.04129E+007   -3.65100E+006    8.32131E+006    2.10658E+006   -5.39710E+005    9.38612E+006   -4.49737E+005    1.23262E+006    9.58204E+005
            8645    6.81777E+006    6.18736E+006    6.18736E+006    8.97051E+005   -1.50670E+006    7.69406E+006   -1.85924E+006    5.74116E+006    8.65451E+005   -1.32201E+006    6.03427E+006    6.57891E+005   -8.81961E+005   -1.17810E+005
            8646    6.02200E+006    5.15098E+006    5.15098E+006    7.66092E+005   -1.71522E+006    6.86620E+006   -1.40062E+006    4.64313E+006    7.11847E+005   -1.46127E+006    4.95128E+006    6.95017E+005   -6.09884E+005   -7.72751E+005
            8647    5.25655E+006    4.51780E+006    4.51780E+006    7.55096E+005   -1.48821E+006    6.00601E+006   -1.26156E+006    3.94124E+006    6.94729E+005   -1.07872E+006    4.16868E+006    6.88323E+005   -4.65796E+005   -1.18106E+006
            8648    4.43574E+006    3.91425E+006    3.91425E+006    7.46514E+005   -1.15528E+006    5.06954E+006   -1.16850E+006    3.31254E+006    6.80133E+005   -5.33326E+005    3.35868E+006    6.55487E+005   -3.31795E+005   -1.43285E+006
            8649    3.79225E+006    3.81654E+006    3.81654E+006    5.46090E+005   -3.40447E+005    4.15699E+006   -1.34073E+006    3.54768E+006    3.35066E+005    5.54591E+004    3.63166E+006    4.60374E+005   -2.66178E+005   -7.45059E+005
            8650    4.07999E+006    4.18385E+006    4.18385E+006    2.46005E+005   -2.47952E+004    4.20865E+006   -1.46835E+006    4.05970E+006    2.23990E+005    2.23720E+004    4.15870E+006    1.03977E+005   -2.28598E+005   -2.16969E+005
            8651    4.22849E+006    4.15964E+006    4.15964E+006    4.74907E+005   -4.57096E+005    4.61674E+006   -1.39248E+006    3.98744E+006    2.90728E+005   -1.69413E+005    4.05614E+006    4.39854E+005   -3.14898E+005   -5.41460E+005
            8652    4.34435E+006    4.35526E+006    4.35526E+006    1.82709E+005   -1.42594E+005    4.49786E+006   -1.46513E+006    4.31682E+006    1.67583E+005   -1.12563E+005    4.34035E+006    9.65136E+004   -2.37215E+005   -7.55216E+004
            8653    4.69269E+006    4.52081E+006    4.52081E+006    3.43605E+005   -5.56868E+005    5.07768E+006   -1.43585E+006    4.49210E+006    2.07846E+005   -3.79573E+005    4.47927E+006    3.65295E+005   -4.09391E+005   -7.94680E+004
            8654    4.12502E+006    4.10976E+006    4.10976E+006    9.39610E+004   -1.16415E+005    4.22618E+006   -1.36244E+006    4.11292E+006    9.73181E+004   -1.03034E+005    4.09303E+006    3.36829E+004   -2.18259E+005    1.44995E+005
            8655    4.75649E+006    4.78157E+006    4.78157E+006    2.29419E+005   -1.55836E+005    4.93740E+006   -1.61838E+006    4.72120E+006    1.83089E+005   -3.85087E+004    4.71057E+006    1.29184E+005   -4.57109E+005    3.63696E+005
            8656    3.62839E+006    3.56801E+006    3.56801E+006    1.24233E+004   -1.29042E+005    3.69705E+006   -1.15046E+006    3.62218E+006   -4.20768E+003   -8.70998E+004    3.54270E+006   -6.30422E+004   -1.47425E+005    2.62458E+005
            8657    3.06016E+006    3.00280E+006    3.00280E+006    3.97564E+004   -1.46002E+005    3.14880E+006   -9.65519E+005    3.04743E+006   -8.77995E+004    3.47228E+003    2.98088E+006   -9.23491E+004   -9.06185E+004    2.37535E+005
            8658    2.64798E+006    2.59561E+006    2.59561E+006    1.40493E+005   -2.10260E+005    2.80587E+006   -8.41949E+005    2.59494E+006   -1.46224E+005    8.08150E+004    2.59126E+006   -1.36523E+005   -4.20382E+004    9.44115E+004
            8659    4.55599E+006    4.60969E+006    4.60969E+006    1.97679E+005   -7.77783E+004    4.68747E+006   -1.57653E+006    4.53720E+006    5.01483E+004    1.41479E+005    4.53797E+006   -1.67152E+005   -3.10807E+005    4.63489E+005
            8660    4.10850E+006    4.22612E+006    4.22612E+006    5.13503E+005   -1.87950E+005    4.41407E+006   -1.51722E+006    3.97041E+006    4.05220E+004    3.00034E+005    4.21111E+006   -3.33049E+005   -8.10111E+004    2.22453E+005
            8661    5.29908E+006    5.62062E+006    5.62062E+006    8.47325E+005   -8.14427E+004    5.70206E+006   -2.12883E+006    5.11113E+006    1.68155E+005    6.09117E+005    5.60923E+006   -4.13509E+005   -3.41199E+004    2.33331E+005
            8662    6.84344E+006    7.38905E+006    7.38905E+006    1.11278E+006    9.29100E+004    7.29614E+006   -2.86492E+006    6.66925E+006    3.16335E+005    8.93030E+005    7.38538E+006   -4.22547E+005   -1.03821E+005    1.11644E+005
            8663    8.80595E+006    9.63126E+006    9.63126E+006    1.37139E+006    3.65604E+005    9.26566E+006   -3.78942E+006    8.67531E+006    5.65134E+005    1.17937E+006    9.62375E+006   -4.01601E+005   -1.91330E+005    1.62748E+005
            8664    1.08110E+007    1.20002E+007    1.20002E+007    1.70185E+006    7.40737E+005    1.12595E+007   -4.81427E+006    1.07143E+007    8.89788E+005    1.56028E+006    1.19927E+007   -3.44347E+005   -2.64636E+005    1.02565E+005
            8665    6.12896E+006    6.37454E+006    6.37454E+006    3.29693E+005    1.64794E+005    6.20975E+006   -2.28968E+006    6.12397E+006    2.61285E+005    3.28140E+005    6.27960E+006   -8.70529E+004   -6.91051E+005    3.09042E+005
            8666    7.96708E+006    8.57543E+006    8.57543E+006    7.08404E+005    5.11940E+005    8.06349E+006   -3.26526E+006    7.96163E+006    6.61111E+005    7.28436E+005    8.40623E+006   -4.36790E+004   -1.08282E+006    4.00481E+005
            8667    9.54525E+006    1.06823E+007    1.06823E+007    1.39213E+006    9.00847E+005    9.78140E+006   -4.32508E+006    9.51674E+006    1.13233E+006    1.40499E+006    1.04379E+007   -6.86830E+003   -1.46184E+006    4.35828E+005
            8668    1.13440E+007    1.30626E+007    1.30626E+007    2.07729E+006    1.39109E+006    1.16715E+007   -5.51033E+006    1.12972E+007    1.71750E+006    2.07133E+006    1.27422E+007    4.99251E+004   -1.86495E+006    3.98752E+005
            8669    1.10001E+007    1.30063E+007    1.30063E+007    3.68830E+006    8.71834E+005    1.21345E+007   -5.85549E+006    1.01402E+007    3.74844E+006    1.75677E+006    1.20613E+007    7.54290E+005   -2.58552E+006    1.79023E+006
            8670    1.01521E+007    1.10268E+007    1.10268E+007    2.65718E+006   -2.66197E+005    1.12930E+007   -4.47261E+006    9.13064E+006    2.69974E+006    3.23571E+005    1.03945E+007    7.66357E+005   -2.03864E+006    1.37782E+006
            8671    9.02142E+006    9.23102E+006    9.23102E+006    1.89628E+006   -8.42386E+005    1.00734E+007   -3.42830E+006    8.00281E+006    1.93709E+006   -4.82141E+005    8.82996E+006    6.66498E+005   -1.55785E+006    9.54431E+005
            8672    7.79847E+006    7.62781E+006    7.62781E+006    1.31512E+006   -1.08989E+006    8.71770E+006   -2.61768E+006    6.88689E+006    1.32703E+006   -8.73673E+005    7.39968E+006    6.04550E+005   -1.16791E+006    4.25593E+005
            8673    3.64174E+006    3.73353E+006    3.73353E+006    2.30301E+005   -3.24955E+004    3.76602E+006   -1.31044E+006    3.62032E+006    1.94353E+005    2.88780E+004    3.70810E+006    1.14228E+005   -2.02967E+005   -2.19329E+005
            8674    3.24054E+006    3.35985E+006    3.35985E+006    6.12238E+005   -2.13753E+005    3.57360E+006   -1.25278E+006    2.98962E+006    3.75164E+005    2.24799E+005    3.15837E+006    4.43939E+005   -1.93964E+005   -7.32501E+005
            8675    3.52183E+006    3.23551E+006    3.23551E+006    7.17247E+005   -7.88954E+005    4.02446E+006   -1.05460E+006    2.63575E+006    6.35231E+005   -4.88460E+004    2.57742E+006    6.00520E+005   -2.21216E+005   -1.36699E+006
            8676    3.14791E+006    3.26128E+006    3.26128E+006    2.41906E+005   -1.08847E+003    3.26237E+006   -1.16737E+006    3.12671E+006    1.89131E+005    6.64749E+004    3.24649E+006    1.11611E+005   -1.37127E+005   -1.61313E+005
            8677    2.62945E+006    2.80774E+006    2.80774E+006    6.49348E+005   -1.20778E+005    2.92852E+006   -1.11210E+006    2.35494E+006    3.56001E+005    2.82052E+005    2.69826E+006    4.09884E+005   -1.25034E+005   -4.82437E+005
            8678    2.47034E+006    2.43656E+006    2.43656E+006    6.83503E+005   -3.88728E+005    2.82529E+006   -9.10445E+005    1.82460E+006    5.54448E+005    2.97305E+005    1.87958E+006    5.18910E+005   -1.17865E+005   -1.01493E+006
            8679    2.85395E+006    2.96231E+006    2.96231E+006    2.39613E+005   -6.89853E+003    2.96921E+006   -1.06501E+006    2.82985E+006    1.73175E+005    6.14876E+004    2.96036E+006    1.10810E+005   -4.89090E+004   -5.42583E+004
            8680    2.23956E+006    2.45482E+006    2.45482E+006    6.95797E+005   -6.63341E+004    2.52115E+006   -1.02809E+006    1.91336E+006    3.49166E+005    2.96483E+005    2.43863E+006    3.84321E+005   -3.97887E+004   -1.72264E+005
            8681    1.40604E+006    1.57601E+006    1.57601E+006    8.00845E+005   -4.70024E+004    1.62301E+006   -7.76616E+005   -5.99395E+005    4.66573E+005    4.42000E+005    1.42128E+006    4.60987E+005   -3.68079E+004   -3.65069E+005
            8682    1.13201E+007    1.26084E+007    1.26084E+007    1.77992E+006    8.53561E+005    1.17549E+007   -5.08063E+006    1.12344E+007    9.93065E+005    1.65089E+006    1.25979E+007    3.25287E+005   -3.26861E+005   -1.09138E+005
            8683    1.16665E+007    1.35695E+007    1.35695E+007    2.28249E+006    1.55740E+006    1.20121E+007   -5.80313E+006    1.16156E+007    1.92259E+006    2.26937E+006    1.32174E+007   -6.90148E+004   -1.97996E+006   -4.29977E+005
            8684    1.11363E+007    1.32726E+007    1.32726E+007    3.82064E+006    9.95942E+005    1.22767E+007   -6.02973E+006    1.02830E+007    3.88631E+006    1.91489E+006    1.22880E+007   -7.60498E+005   -2.66623E+006   -1.81826E+006
            8685    1.32540E+007    1.49104E+007    1.49104E+007    2.06186E+006    1.28521E+006    1.36252E+007   -6.08583E+006    1.32026E+007    1.36795E+006    1.99206E+006    1.48975E+007    2.24947E+005   -4.11407E+005   -6.86231E+004
            8686    1.32690E+007    1.58244E+007    1.58244E+007    3.01293E+006    2.14078E+006    1.36836E+007   -6.99269E+006    1.32043E+007    2.57623E+006    2.99987E+006    1.54020E+007   -7.61067E+004   -2.34268E+006   -3.36417E+005
            8687    1.13762E+007    1.49667E+007    1.49667E+007    4.91210E+006    2.61849E+006    1.23482E+007   -7.49910E+006    1.08375E+007    5.00917E+006    3.76214E+006    1.37260E+007   -6.12062E+005   -3.17290E+006   -1.79659E+006
            8688    1.46664E+007    1.65997E+007    1.65997E+007    2.25078E+006    1.63507E+006    1.49646E+007   -6.82850E+006    1.46373E+007    1.66965E+006    2.23212E+006    1.65837E+007    1.07043E+005   -4.85879E+005   -3.49874E+004
            8689    1.43740E+007    1.74380E+007    1.74380E+007    3.54813E+006    2.62448E+006    1.48136E+007   -7.87022E+006    1.43070E+007    3.09926E+006    3.54423E+006    1.69672E+007   -4.28700E+004   -2.59295E+006   -1.73559E+005
            8690    1.11698E+007    1.60851E+007    1.60851E+007    5.74802E+006    4.23654E+006    1.18486E+007   -8.68990E+006    1.09362E+007    5.92011E+006    5.38895E+006    1.47606E+007   -3.37527E+005   -3.53508E+006   -1.12542E+006
            8691    1.51053E+007    1.71224E+007    1.71224E+007    2.30055E+006    1.74884E+006    1.53736E+007   -7.05728E+006    1.50826E+007    1.76564E+006    2.30032E+006    1.71059E+007   -1.16126E+004   -5.04355E+005    6.67826E+003
            8692    1.47301E+007    1.79428E+007    1.79428E+007    3.69902E+006    2.77049E+006    1.51724E+007   -8.13745E+006    1.46640E+007    3.25454E+006    3.69891E+006    1.74589E+007    6.95420E+003   -2.66585E+006    4.06844E+004
            8693    1.10108E+007    1.64663E+007    1.64663E+007    6.03633E+006    4.95450E+006    1.15118E+007   -9.15238E+006    1.08903E+007    6.27095E+006    6.03590E+006    1.51503E+007    1.15028E+004   -3.66278E+006    3.94986E+004
            8694    1.44174E+007    1.62894E+007    1.62894E+007    2.20110E+006    1.56416E+006    1.47253E+007   -6.68490E+006    1.43857E+007    1.60624E+006    2.17389E+006    1.62746E+007   -1.30494E+005   -4.64987E+005    4.13079E+004
            8695    1.42292E+007    1.71721E+007    1.71721E+007    3.41244E+006    2.51581E+006    1.46563E+007   -7.70012E+006    1.41654E+007    2.97994E+006    3.40494E+006    1.67155E+007    5.85644E+004   -2.53562E+006    2.33374E+005
            8696    1.11702E+007    1.60033E+007    1.60033E+007    5.69089E+006    4.13800E+006    1.18653E+007   -8.61074E+006    1.09233E+007    5.85160E+006    5.29015E+006    1.46905E+007    3.58865E+005   -3.50378E+006    1.17653E+006
            8697    1.28266E+007    1.43833E+007    1.43833E+007    1.97898E+006    1.17251E+006    1.32108E+007   -5.84493E+006    1.27694E+007    1.26304E+006    1.89977E+006    1.43720E+007   -2.43059E+005   -3.75742E+005    7.65752E+004
            8698    1.29924E+007    1.53714E+007    1.53714E+007    2.80836E+006    1.98840E+006    1.33830E+007   -6.72271E+006    1.29340E+007    2.39372E+006    2.79804E+006    1.49764E+007    6.54501E+004   -2.23946E+006    3.39197E+005
            8699    1.13316E+007    1.47924E+007    1.47924E+007    4.79812E+006    2.48137E+006    1.23110E+007   -7.35728E+006    1.07793E+007    4.89007E+006    3.60163E+006    1.35801E+007    6.21919E+005   -3.11832E+006    1.79814E+006
            8700    3.51932E+006    3.23410E+006    3.23410E+006    7.16441E+005   -7.87280E+005    4.02138E+006   -1.05442E+006    2.63599E+006    6.34776E+005   -4.57056E+004    2.57419E+006    5.99788E+005    2.20938E+005    1.36819E+006
            8701    3.23743E+006    3.35728E+006    3.35728E+006    6.11370E+005   -2.12488E+005    3.56976E+006   -1.25205E+006    2.98762E+006    3.73477E+005    2.24324E+005    3.15836E+006    4.42937E+005    1.93783E+005    7.27225E+005
            8702    3.63411E+006    3.72501E+006    3.72501E+006    2.29096E+005   -3.30986E+004    3.75811E+006   -1.30700E+006    3.61274E+006    1.93248E+005    2.79753E+004    3.69979E+006    1.13852E+005    2.02211E+005    2.17993E+005
            8703    2.45975E+006    2.42812E+006    2.42812E+006    6.81717E+005   -3.84903E+005    2.81302E+006   -9.08311E+005    1.81836E+006    5.52618E+005    2.99528E+005    1.87279E+006    5.18128E+005    1.18318E+005    1.01027E+006
            8704    2.63630E+006    2.81386E+006    2.81386E+006    6.48630E+005   -1.21832E+005    2.93569E+006   -1.11355E+006    2.36237E+006    3.55966E+005    2.79819E+005    2.70487E+006    4.09805E+005    1.25498E+005    4.81997E+005
            8705    3.14380E+006    3.25707E+006    3.25707E+006    2.41061E+005   -5.77610E+002    3.25764E+006   -1.16585E+006    3.12280E+006    1.88447E+005    6.66818E+004    3.24242E+006    1.11018E+005    1.36339E+005    1.60486E+005
            8706    1.39282E+006    1.56520E+006    1.56520E+006    8.04744E+005   -4.23174E+004    1.60752E+006   -7.75875E+005   -6.31378E+005    4.66202E+005    4.44644E+005    1.41678E+006    4.60360E+005    3.75489E+004    3.53731E+005
            8707    2.24576E+006    2.46106E+006    2.46106E+006    6.95680E+005   -6.66275E+004    2.52769E+006   -1.03004E+006    1.92054E+006    3.50047E+005    2.96418E+005    2.44365E+006    3.84623E+005    4.06672E+004    1.79221E+005
            8708    2.85337E+006    2.96158E+006    2.96158E+006    2.39230E+005   -6.85970E+003    2.96844E+006   -1.06465E+006    2.82934E+006    1.72991E+005    6.13146E+004    2.95965E+006    1.10572E+005    4.88450E+004    5.39809E+004
            8709    3.18631E+006    3.13855E+006    3.13855E+006    1.74704E+004   -1.09214E+005    3.24776E+006   -1.01560E+006    3.18064E+006   -6.93768E+004   -5.92913E+003    3.12211E+006    6.39887E+004   -1.01605E+005   -2.01812E+005
            8710    3.68555E+006    3.67021E+006    3.67021E+006    9.53726E+003   -3.97185E+004    3.70993E+006   -1.21334E+006    3.68481E+006    1.59916E+004   -3.20380E+004    3.65608E+006    7.14537E+003   -1.53415E+005   -1.68476E+005
            8711    4.09230E+006    4.12608E+006    4.12608E+006    1.07769E+005   -3.63947E+004    4.16247E+006   -1.39915E+006    4.08658E+006    1.08198E+005   -2.57360E+004    4.11499E+006   -3.18276E+004   -1.98169E+005   -7.54260E+004
            8712    4.28366E+006    4.35321E+006    4.35321E+006    1.85140E+005   -3.73668E+004    4.39057E+006   -1.50033E+006    4.27063E+006    1.79231E+005   -1.84810E+004    4.34023E+006   -6.34590E+004   -2.30045E+005    3.25680E+004
            8713    4.14298E+006    4.23714E+006    4.23714E+006    2.19046E+005   -2.03399E+004    4.25748E+006   -1.47862E+006    4.12738E+006    2.11383E+005    4.70955E+003    4.21976E+006   -7.54267E+004   -2.34594E+005    1.20999E+005
            8714    4.03644E+006    4.04996E+006    4.04996E+006    8.17793E+004   -5.14275E+004    4.10139E+006   -1.36011E+006    4.03149E+006    7.31070E+004    2.42528E+004    3.98296E+006    7.98242E+004   -2.45006E+005   -4.52146E+005
            8715    4.14654E+006    4.12881E+006    4.12881E+006    1.06084E+005   -1.31342E+005    4.26015E+006   -1.36785E+006    4.13120E+006    1.12514E+005   -8.79851E+004    4.07902E+006   -2.97653E+004   -2.80785E+005   -3.58676E+005
            8716    4.20307E+006    4.19359E+006    4.19359E+006    2.23637E+005   -2.09126E+005    4.40271E+006   -1.40270E+006    4.15251E+006    1.80873E+005   -1.42664E+005    4.16989E+006   -1.45453E+005   -2.90849E+005   -1.16996E+005
            8717    4.12135E+006    4.13521E+006    4.13521E+006    3.08302E+005   -2.28061E+005    4.36328E+006   -1.40515E+006    4.04171E+006    2.32233E+005   -1.22586E+005    4.10581E+006   -2.18880E+005   -2.66593E+005    2.03081E+005
            8718    3.84283E+006    3.92406E+006    3.92406E+006    3.72829E+005   -1.55656E+005    4.07972E+006   -1.38041E+006    3.75976E+006    2.78769E+005   -3.87707E+003    3.86634E+006   -2.41702E+005   -2.36776E+005    3.91275E+005
            8719    4.97639E+006    4.99159E+006    4.99159E+006    1.37776E+005   -9.89183E+004    5.09051E+006   -1.67682E+006    4.96370E+006    1.49412E+005   -2.17490E+004    4.90279E+006    1.12750E+005   -4.01073E+005   -5.18408E+005
            8720    4.93836E+006    4.84228E+006    4.84228E+006    2.23387E+005   -3.63153E+005    5.20543E+006   -1.56751E+006    4.85907E+006    2.15963E+005   -2.91361E+005    4.77791E+006   -1.35954E+005   -4.55540E+005   -3.29767E+005
            8721    4.70001E+006    4.49889E+006    4.49889E+006    2.97923E+005   -5.77171E+005    5.07606E+006   -1.40655E+006    4.51123E+006    2.19875E+005   -4.58574E+005    4.45834E+006   -3.06751E+005   -3.98363E+005    1.02172E+005
            8722    4.27686E+006    4.15093E+006    4.15093E+006    3.96595E+005   -5.04772E+005    4.65571E+006   -1.34759E+006    4.05481E+006    2.74759E+005   -2.91500E+005    4.05950E+006   -3.83153E+005   -3.30902E+005    4.94844E+005
            8723    3.82411E+006    3.78631E+006    3.78631E+006    4.65152E+005   -3.94443E+005    4.18075E+006   -1.28567E+006    3.59698E+006    3.11954E+005   -7.22386E+004    3.61730E+006   -4.11661E+005   -2.64636E+005    7.21694E+005
            8724    6.58840E+006    6.69754E+006    6.69754E+006    6.27475E+005   -3.08991E+005    7.00653E+006   -2.33867E+006    6.43611E+006    5.85131E+005   -1.18636E+005    6.54953E+006   -3.21741E+005   -9.10712E+005   -3.37366E+005
            8725    6.23509E+006    5.86718E+006    5.86718E+006    6.23055E+005   -1.02697E+006    6.89415E+006   -1.82109E+006    5.71210E+006    5.19010E+005   -8.04779E+005    5.74904E+006   -5.73115E+005   -7.86650E+005    4.26053E+004
            8726    5.51441E+006    5.08554E+006    5.08554E+006    6.61858E+005   -1.09266E+006    6.17820E+006   -1.55158E+006    4.82373E+006    5.28837E+005   -8.13787E+005    4.93968E+006   -6.55361E+005   -6.05063E+005    5.29662E+005
            8727    4.83707E+006    4.46371E+006    4.46371E+006    6.78922E+005   -9.85905E+005    5.44961E+006   -1.38557E+006    4.11417E+006    5.24180E+005   -5.74274E+005    4.20682E+006   -6.89605E+005   -4.68474E+005    9.12610E+005
            8728    4.09638E+006    3.87936E+006    3.87936E+006    7.19168E+005   -7.48718E+005    4.62808E+006   -1.28327E+006    3.42487E+006    5.46287E+005   -1.74011E+005    3.47754E+006   -6.77261E+005   -3.36989E+005    1.13154E+006
            8729    4.82940E+006    4.03610E+006    4.03610E+006    7.80401E+005   -1.51265E+006    5.54875E+006   -1.10128E+006    3.21502E+006    7.40462E+005   -8.58458E+005    3.42184E+006   -6.98873E+005   -3.64222E+005    1.57334E+006
            8730    5.85294E+006    4.82286E+006    4.82286E+006    8.60610E+005   -1.89982E+006    6.72268E+006   -1.26122E+006    3.93409E+006    8.28346E+005   -1.45870E+006    4.41401E+006   -7.53860E+005   -5.22612E+005    1.34715E+006
            8731    6.84710E+006    5.70981E+006    5.70981E+006    9.92237E+005   -2.14363E+006    7.85344E+006   -1.51947E+006    4.78056E+006    9.65157E+005   -1.87268E+006    5.46594E+006   -8.04360E+005   -7.25809E+005    8.71507E+005
            8732    7.69831E+006    6.69033E+006    6.69033E+006    1.19476E+006   -2.10832E+006    8.79865E+006   -1.92559E+006    5.74521E+006    1.18351E+006   -1.89962E+006    6.49288E+006   -8.27081E+005   -9.69725E+005    3.29657E+005
            8733    8.58098E+006    8.11158E+006    8.11158E+006    1.49077E+006   -1.58294E+006    9.69452E+006   -2.67313E+006    7.17558E+006    1.52687E+006   -1.34684E+006    7.83938E+006   -7.66306E+005   -1.33173E+006   -3.18680E+005
            8734    9.41591E+006    9.59625E+006    9.59625E+006    2.00342E+006   -9.39678E+005    1.05359E+007   -3.55333E+006    8.28212E+006    2.03557E+006   -5.56510E+005    9.18093E+006   -7.53027E+005   -1.64862E+006   -9.14315E+005
            8735    1.03766E+007    1.13796E+007    1.13796E+007    2.83374E+006   -1.66522E+005    1.15461E+007   -4.68227E+006    9.32320E+006    2.88387E+006    4.63252E+005    1.06997E+007   -7.81397E+005   -2.12517E+006   -1.46363E+006
            8736    9.98112E+006    1.12218E+007    1.12218E+007    1.49502E+006    1.00440E+006    1.02174E+007   -4.57373E+006    9.95393E+006    1.28603E+006    1.48459E+006    1.09506E+007   -4.73252E+004   -1.58340E+006   -4.36060E+005
            8737    9.22340E+006    1.01619E+007    1.01619E+007    1.48905E+006    4.72221E+005    9.68968E+006   -4.04106E+006    9.09601E+006    6.53382E+005    1.31520E+006    1.01546E+007    3.87005E+005   -2.33457E+005   -1.08424E+005
            8738    8.20730E+006    8.91001E+006    8.91001E+006    8.36116E+005    5.75523E+005    8.33449E+006   -3.44055E+006    8.19798E+006    7.74814E+005    8.24750E+005    8.72209E+006   -2.73161E+004   -1.18095E+006   -3.69125E+005
            8739    7.31888E+006    7.96522E+006    7.96522E+006    1.22791E+006    1.78135E+005    7.78708E+006   -3.12375E+006    7.14655E+006    3.91696E+005    1.02129E+006    7.95827E+006    4.23574E+005   -1.54393E+005   -1.53429E+005
            8740    5.92631E+006    6.37116E+006    6.37116E+006    9.84681E+005    2.27176E+004    6.34844E+006   -2.45952E+006    5.74671E+006    2.65186E+005    7.55795E+005    6.35758E+006    4.20931E+005   -1.83995E+005   -1.99221E+005
            8741    4.69700E+006    4.93010E+006    4.93010E+006    6.86951E+005   -1.16975E+005    5.04707E+006   -1.83336E+006    4.53832E+006    1.09218E+005    4.70986E+005    4.91987E+006    3.64588E+005   -1.26537E+005   -1.65380E+005
            8742    3.63934E+006    3.68368E+006    3.68368E+006    3.75791E+005   -2.14852E+005    3.89854E+006   -1.28154E+006    3.52909E+006   -2.95157E+004    1.98591E+005    3.67555E+006    2.76111E+005   -4.58533E+004   -1.58546E+005
            8743    2.48931E+006    2.41502E+006    2.41502E+006    8.36957E+004   -2.06793E+005    2.62181E+006   -7.63974E+005    2.45075E+006   -1.58480E+005    3.69311E+004    2.41347E+006    1.08511E+005   -2.23429E+004   -5.57671E+004
            8744    6.39889E+006    6.76329E+006    6.76329E+006    4.67823E+005    2.65768E+005    6.49752E+006   -2.49896E+006    6.39170E+006    3.76433E+005    4.53399E+005    6.66705E+006    1.25202E+005   -6.59312E+005   -4.08679E+005
            8745    4.84255E+006    4.98069E+006    4.98069E+006    3.75049E+005   -6.82808E+004    5.04897E+006   -1.76249E+006    4.79657E+006    1.23901E+005    2.43456E+005    4.92010E+006    2.44171E+005   -2.82766E+005   -4.42396E+005
            8746    3.85906E+006    3.88095E+006    3.88095E+006    2.34252E+005   -1.60179E+005    4.04113E+006   -1.31834E+006    3.81331E+006    4.20197E+003    1.18833E+005    3.83199E+006    2.11058E+005   -1.65335E+005   -3.87472E+005
            8747    2.74573E+006    2.68491E+006    2.68491E+006    5.77672E+004   -1.65748E+005    2.85066E+006   -8.58977E+005    2.72515E+006   -1.25266E+005    2.76882E+004    2.67451E+006    8.84170E+004   -5.71774E+004   -1.54810E+005
            8748    3.62669E+006    3.56694E+006    3.56694E+006    1.25074E+004   -1.27935E+005    3.69487E+006   -1.15050E+006    3.62056E+006   -4.39495E+003   -8.56996E+004    3.54160E+006   -6.30961E+004    1.47619E+005   -2.62392E+005
            8749    4.12858E+006    4.11374E+006    4.11374E+006    9.48579E+004   -1.16432E+005    4.23017E+006   -1.36405E+006    4.11639E+006    9.79270E+004   -1.02828E+005    4.09707E+006    3.46634E+004    2.18916E+005   -1.43241E+005
            8750    4.34227E+006    4.35478E+006    4.35478E+006    1.84223E+005   -1.40931E+005    4.49571E+006   -1.46602E+006    4.31475E+006    1.68878E+005   -1.10518E+005    4.33971E+006    9.70495E+004    2.36734E+005    8.10780E+004
            8751    4.06791E+006    4.17340E+006    4.17340E+006    2.45989E+005   -2.17800E+004    4.19518E+006   -1.46587E+006    4.04801E+006    2.23879E+005    2.56072E+004    4.14812E+006    1.03469E+005    2.27553E+005    2.18610E+005
            8752    4.75435E+006    4.77872E+006    4.77872E+006    2.29776E+005   -1.57363E+005    4.93608E+006   -1.61704E+006    4.71869E+006    1.83411E+005   -4.02143E+004    4.70794E+006    1.29881E+005    4.57044E+005   -3.62139E+005
            8753    4.68279E+006    4.51195E+006    4.51195E+006    3.44222E+005   -5.55372E+005    5.06733E+006   -1.43360E+006    4.48215E+006    2.07809E+005   -3.77480E+005    4.47047E+006    3.65745E+005    4.07694E+005    8.32801E+004
            8754    4.21796E+006    4.15097E+006    4.15097E+006    4.75290E+005   -4.54227E+005    4.60520E+006   -1.39068E+006    3.97761E+006    2.90075E+005   -1.64430E+005    4.04639E+006    4.39937E+005    3.12976E+005    5.45594E+005
            8755    3.78164E+006    3.81189E+006    3.81189E+006    5.49066E+005   -3.32738E+005    4.14463E+006   -1.34274E+006    3.53906E+006    3.36581E+005    6.46395E+004    3.62700E+006    4.59457E+005    2.65065E+005    7.44111E+005
            8756    4.43734E+006    3.91421E+006    3.91421E+006    7.45593E+005   -1.15720E+006    5.07141E+006   -1.16753E+006    3.31326E+006    6.79597E+005   -5.34501E+005    3.35750E+006    6.55158E+005    3.31760E+005    1.43477E+006
            8757    5.26359E+006    4.51918E+006    4.51918E+006    7.52778E+005   -1.49513E+006    6.01431E+006   -1.25894E+006    3.94411E+006    6.92338E+005   -1.08533E+006    4.16981E+006    6.88542E+005    4.65221E+005    1.18309E+006
            8758    6.02440E+006    5.15199E+006    5.15199E+006    7.65872E+005   -1.71705E+006    6.86904E+006   -1.40027E+006    4.64411E+006    7.11379E+005   -1.46321E+006    4.95264E+006    6.95197E+005    6.09479E+005    7.72209E+005
            8759    6.81182E+006    6.18043E+006    6.18043E+006    8.94764E+005   -1.50692E+006    7.68735E+006   -1.85609E+006    5.73612E+006    8.62455E+005   -1.32170E+006    6.02752E+006    6.58529E+005    8.80802E+005    1.19211E+005
            8760    7.79185E+006    7.61656E+006    7.61656E+006    1.31483E+006   -1.09570E+006    8.71226E+006   -2.61190E+006    6.87471E+006    1.32552E+006   -8.79123E+005    7.38930E+006    6.06905E+005    1.16533E+006   -4.22515E+005
            8761    9.02998E+006    9.23662E+006    9.23662E+006    1.90287E+006   -8.49177E+005    1.00858E+007   -3.43010E+006    8.00157E+006    1.94234E+006   -4.86543E+005    8.83452E+006    6.71244E+005    1.56019E+006   -9.56441E+005
            8762    1.01636E+007    1.10450E+007    1.10450E+007    2.66857E+006   -2.61786E+005    1.13068E+007   -4.48393E+006    9.13815E+006    2.71129E+006    3.31127E+005    1.04094E+007    7.67570E+005    2.04343E+006   -1.38503E+006
            8763    1.10025E+007    1.30065E+007    1.30065E+007    3.68457E+006    8.70213E+005    1.21363E+007   -5.85376E+006    1.01441E+007    3.74594E+006    1.75212E+006    1.20632E+007    7.53880E+005    2.58488E+006   -1.78594E+006
            8764    1.13376E+007    1.30561E+007    1.30561E+007    2.07671E+006    1.39149E+006    1.16646E+007   -5.50811E+006    1.12908E+007    1.71943E+006    2.06957E+006    1.27353E+007    5.31693E+004    1.86458E+006   -4.02607E+005
            8765    1.07928E+007    1.19789E+007    1.19789E+007    1.69817E+006    7.38130E+005    1.12407E+007   -4.80505E+006    1.06961E+007    8.87917E+005    1.55621E+006    1.19710E+007   -3.44539E+005    2.71950E+005   -1.01539E+005
            8766    9.54584E+006    1.06750E+007    1.06750E+007    1.37949E+006    8.97104E+005    9.77788E+006   -4.31719E+006    9.51836E+006    1.13033E+006    1.39113E+006    1.04301E+007   -2.73884E+003    1.46281E+006   -4.37778E+005
            8767    8.81265E+006    9.64172E+006    9.64172E+006    1.37555E+006    3.69029E+005    9.27269E+006   -3.79543E+006    8.68192E+006    5.68118E+005    1.18405E+006    9.63413E+006   -4.01450E+005    1.92288E+005   -1.63824E+005
            8768    7.96848E+006    8.57439E+006    8.57439E+006    7.04893E+005    5.10483E+005    8.06390E+006   -3.26325E+006    7.96314E+006    6.60288E+005    7.24236E+005    8.40524E+006   -4.08465E+004    1.08399E+006   -3.97270E+005
            8769    6.87657E+006    7.42798E+006    7.42798E+006    1.11790E+006    9.86908E+004    7.32929E+006   -2.88152E+006    6.70347E+006    3.22283E+005    8.98168E+005    7.42412E+006   -4.22525E+005    1.06545E+005   -1.14919E+005
            8770    6.13217E+006    6.37869E+006    6.37869E+006    3.30502E+005    1.65850E+005    6.21284E+006   -2.29168E+006    6.12719E+006    2.62546E+005    3.28987E+005    6.28351E+006   -8.71395E+004    6.92027E+005   -3.09672E+005
            8771    5.31787E+006    5.64233E+006    5.64233E+006    8.50152E+005   -7.88317E+004    5.72116E+006   -2.13788E+006    5.13053E+006    1.70102E+005    6.12495E+005    5.63105E+006   -4.13265E+005    3.56838E+004   -2.32262E+005
            8772    4.11799E+006    4.23667E+006    4.23667E+006    5.15805E+005   -1.87782E+005    4.42446E+006   -1.52157E+006    3.97938E+006    4.15492E+004    3.01476E+005    4.22167E+006   -3.34105E+005    8.08860E+004   -2.22779E+005
            8773    2.65116E+006    2.59896E+006    2.59896E+006    1.41447E+005   -2.10667E+005    2.80962E+006   -8.43246E+005    2.59777E+006   -1.45939E+005    8.09420E+004    2.59473E+006   -1.37386E+005    4.15510E+004   -9.29296E+004
            8774    4.55778E+006    4.61208E+006    4.61208E+006    1.98592E+005   -7.74483E+004    4.68953E+006   -1.57774E+006    4.53892E+006    5.07561E+004    1.42239E+005    4.54023E+006   -1.67499E+005    3.11202E+005   -4.63914E+005
            8775    3.05731E+006    3.00017E+006    3.00017E+006    4.04883E+004   -1.46198E+005    3.14637E+006   -9.64821E+005    3.04444E+006   -8.81073E+004    4.08266E+003    2.97849E+006   -9.25307E+004    8.99555E+004   -2.36191E+005
            8776    3.72630E+006    3.24736E+006    3.24736E+006    7.13168E+005   -1.03117E+006    4.27853E+006   -9.76453E+005    2.53054E+006    6.64218E+005   -2.15824E+005    2.48097E+006   -6.13781E+005   -2.27574E+005    1.51942E+006
            8777    3.30176E+006    3.24337E+006    3.24337E+006    7.32231E+005   -4.96612E+005    3.73998E+006   -1.15966E+006    2.71054E+006    5.30011E+005    1.53287E+005    2.79569E+006   -6.27139E+005   -2.29454E+005    1.07005E+006
            8778    3.24698E+006    3.31411E+006    3.31411E+006    5.24949E+005   -2.50339E+005    3.56445E+006   -1.19624E+006    3.02805E+006    3.37017E+005    1.35853E+005    3.11585E+006   -4.04075E+005   -1.97749E+005    7.33567E+005
            8779    3.42971E+006    3.54759E+006    3.54759E+006    3.99372E+005   -1.07246E+005    3.65484E+006   -1.27991E+006    3.34397E+006    2.90520E+005    6.81638E+004    3.48103E+006   -2.43088E+005   -1.91306E+005    4.23310E+005
            8780    3.73128E+006    3.83233E+006    3.83233E+006    2.17053E+005   -5.03805E+003    3.83737E+006   -1.34811E+006    3.71637E+006    2.03600E+005    2.51784E+004    3.81556E+006   -7.81207E+004   -2.05075E+005    1.35901E+005
            8781    2.50330E+006    2.35053E+006    2.35053E+006    6.43370E+005   -5.23127E+005    2.87366E+006   -8.23590E+005    1.71033E+006    5.58521E+005    2.32467E+005    1.67978E+006   -5.23401E+005   -1.19205E+005    1.10648E+006
            8782    2.43761E+006    2.53687E+006    2.53687E+006    7.79033E+005   -2.45851E+005    2.78272E+006   -1.02335E+006    1.85041E+006    4.97183E+005    3.57956E+005    2.21491E+006   -5.60110E+005   -1.28197E+005    7.62092E+005
            8783    2.62575E+006    2.77358E+006    2.77358E+006    5.83428E+005   -1.37253E+005    2.91084E+006   -1.07325E+006    2.38758E+006    3.30768E+005    2.42410E+005    2.64658E+006   -3.82896E+005   -1.22154E+005    5.27434E+005
            8784    2.94129E+006    3.08983E+006    3.08983E+006    4.17453E+005   -6.15634E+004    3.15139E+006   -1.14857E+006    2.85154E+006    2.80218E+005    1.16287E+005    3.04921E+006   -2.34731E+005   -1.24704E+005    3.11493E+005
            8785    3.27355E+006    3.36930E+006    3.36930E+006    2.07191E+005   -5.32277E+003    3.37463E+006   -1.19039E+006    3.25797E+006    1.84042E+005    2.75151E+004    3.35961E+006   -7.80685E+004   -1.40763E+005    1.04170E+005
            8786    1.28223E+006    1.41438E+006    1.41438E+006    7.31907E+005   -6.47440E+004    1.47913E+006   -6.93848E+005   -6.54862E+005    4.62013E+005    4.50181E+005    1.16935E+006   -4.57824E+005   -3.42723E+004    4.09452E+005
            8787    1.75203E+006    1.94303E+006    1.94303E+006    9.04043E+005   -7.97889E+004    2.02282E+006   -9.22429E+005    6.33209E+005    4.52290E+005    4.33126E+005    1.88187E+006   -5.08519E+005   -4.13534E+004    2.69102E+005
            8788    2.19291E+006    2.39836E+006    2.39836E+006    6.44016E+005   -6.01293E+004    2.45848E+006   -9.94081E+005    1.91258E+006    3.19835E+005    2.83812E+005    2.37859E+006   -3.56522E+005   -4.12891E+004    1.90130E+005
            8789    2.62462E+006    2.78952E+006    2.78952E+006    4.27283E+005   -3.58407E+004    2.82536E+006   -1.06032E+006    2.53023E+006    2.67813E+005    1.29707E+005    2.78344E+006   -2.22564E+005   -4.38211E+004    1.14603E+005
            8790    2.96840E+006    3.06344E+006    3.06344E+006    2.00820E+005   -4.87383E+002    3.06393E+006   -1.08792E+006    2.95298E+006    1.68629E+005    3.30808E+004    3.06206E+006   -7.52575E+004   -5.02405E+004    3.77982E+004
            8791    1.11354E+007    1.32624E+007    1.32624E+007    3.81312E+006    9.85822E+005    1.22765E+007   -6.02043E+006    1.02803E+007    3.87812E+006    1.90399E+006    1.22792E+007   -7.61019E+005    2.66318E+006    1.81866E+006
            8792    1.16888E+007    1.36001E+007    1.36001E+007    2.29271E+006    1.56400E+006    1.20361E+007   -5.81894E+006    1.16375E+007    1.92645E+006    2.28151E+006    1.32489E+007   -6.46947E+004    1.98170E+006    4.20849E+005
            8793    1.13628E+007    1.26598E+007    1.26598E+007    1.78662E+006    8.63649E+005    1.17962E+007   -5.10336E+006    1.12780E+007    1.00157E+006    1.65919E+006    1.26493E+007    3.23013E+005    3.27215E+005    1.10793E+005
            8794    1.13687E+007    1.49652E+007    1.49652E+007    4.91610E+006    2.62573E+006    1.23395E+007   -7.50236E+006    1.08312E+007    5.01375E+006    3.76992E+006    1.37234E+007   -6.10437E+005    3.17333E+006    1.79634E+006
            8795    1.32890E+007    1.58449E+007    1.58449E+007    3.01130E+006    2.14293E+006    1.37019E+007   -6.99970E+006    1.32250E+007    2.57837E+006    2.99826E+006    1.54225E+007   -7.58429E+004    2.34493E+006    3.32249E+005
            8796    1.32884E+007    1.49525E+007    1.49525E+007    2.06747E+006    1.29448E+006    1.36581E+007   -6.10483E+006    1.32377E+007    1.37608E+006    1.99889E+006    1.49395E+007    2.22521E+005    4.13739E+005    6.63066E+004
            8797    1.11673E+007    1.60971E+007    1.60971E+007    5.76083E+006    4.25214E+006    1.18450E+007   -8.70337E+006    1.09345E+007    5.93273E+006    5.40791E+006    1.47694E+007   -3.34811E+005    3.54096E+006    1.11907E+006
            8798    1.43813E+007    1.74446E+007    1.74446E+007    3.54518E+006    2.62552E+006    1.48191E+007   -7.87176E+006    1.43149E+007    3.10154E+006    3.54125E+006    1.69725E+007   -4.27551E+004    2.59652E+006    1.76364E+005
            8799    1.46814E+007    1.66169E+007    1.66169E+007    2.25145E+006    1.63868E+006    1.49782E+007   -6.83566E+006    1.46526E+007    1.67291E+006    2.23319E+006    1.66009E+007    1.05670E+005    4.86927E+005    3.49000E+004
            8800    1.09983E+007    1.64523E+007    1.64523E+007    6.03601E+006    4.95229E+006    1.15000E+007   -9.14686E+006    1.08772E+007    6.27074E+006    6.03493E+006    1.51349E+007    1.89114E+004    3.66200E+006   -5.85941E+004
            8801    1.47281E+007    1.79400E+007    1.79400E+007    3.69775E+006    2.76989E+006    1.51701E+007   -8.13588E+006    1.46622E+007    3.25478E+006    3.69769E+006    1.74552E+007    5.46043E+003    2.66804E+006   -3.66135E+004
            8802    1.51021E+007    1.71176E+007    1.71176E+007    2.29923E+006    1.74693E+006    1.53707E+007   -7.05460E+006    1.50794E+007    1.76379E+006    2.29891E+006    1.71011E+007   -1.36835E+004    5.03860E+005   -7.55450E+003
            8803    1.11756E+007    1.59944E+007    1.59944E+007    5.68553E+006    4.11760E+006    1.18768E+007   -8.59917E+006    1.09240E+007    5.84441E+006    5.27327E+006    1.46798E+007    3.63850E+005    3.50101E+006   -1.19565E+006
            8804    1.42189E+007    1.71662E+007    1.71662E+007    3.42054E+006    2.51721E+006    1.46490E+007   -7.70133E+006    1.41541E+007    2.98216E+006    3.41336E+006    1.67085E+007    5.76427E+004    2.53855E+006   -2.27877E+005
            8805    1.43943E+007    1.62607E+007    1.62607E+007    2.19729E+006    1.55688E+006    1.47038E+007   -6.67162E+006    1.43622E+007    1.59973E+006    2.16906E+006    1.62461E+007   -1.33190E+005    4.60559E+005   -4.19562E+004
            8806    1.13350E+007    1.47766E+007    1.47766E+007    4.78079E+006    2.46134E+006    1.23153E+007   -7.33958E+006    1.07815E+007    4.87380E+006    3.57664E+006    1.35683E+007    6.22718E+005    3.11230E+006   -1.79846E+006
            8807    1.29855E+007    1.53743E+007    1.53743E+007    2.81976E+006    1.99700E+006    1.33773E+007   -6.73036E+006    1.29267E+007    2.40514E+006    2.80957E+006    1.49764E+007    6.50110E+004    2.24589E+006   -3.47892E+005
            8808    1.27973E+007    1.43462E+007    1.43462E+007    1.97281E+006    1.16339E+006    1.31828E+007   -5.82746E+006    1.27395E+007    1.25583E+006    1.89179E+006    1.43348E+007   -2.46016E+005    3.76981E+005   -7.71550E+004
            8809    3.73720E+006    3.83811E+006    3.83811E+006    2.17874E+005   -5.99830E+003    3.84410E+006   -1.34999E+006    3.72207E+006    2.04560E+005    2.41052E+004    3.82132E+006   -7.83218E+004    2.05585E+005   -1.35781E+005
            8810    3.43000E+006    3.54753E+006    3.54753E+006    3.99943E+005   -1.08191E+005    3.65572E+006   -1.27976E+006    3.34374E+006    2.90484E+005    6.83220E+004    3.48047E+006   -2.44013E+005    1.91221E+005   -4.25232E+005
            8811    3.24548E+006    3.31091E+006    3.31091E+006    5.26868E+005   -2.53652E+005    3.56456E+006   -1.19471E+006    3.02329E+006    3.38024E+005    1.35419E+005    3.11069E+006   -4.06686E+005    1.97677E+005   -7.36940E+005
            8812    3.29873E+006    3.23736E+006    3.23736E+006    7.32630E+005   -5.00234E+005    3.73760E+006   -1.15659E+006    2.70221E+006    5.31600E+005    1.53187E+005    2.78497E+006   -6.28131E+005    2.28109E+005   -1.07522E+006
            8813    3.72590E+006    3.24561E+006    3.24561E+006    7.13865E+005   -1.03274E+006    4.27835E+006   -9.75579E+005    2.52547E+006    6.65017E+005   -2.15590E+005    2.47731E+006   -6.13748E+005    2.26737E+005   -1.52121E+006
            8814    3.27563E+006    3.37167E+006    3.37167E+006    2.06063E+005   -3.89490E+003    3.37556E+006   -1.19128E+006    3.26044E+006    1.83388E+005    2.84260E+004    3.36202E+006   -7.70349E+004    1.40927E+005   -1.03437E+005
            8815    2.94552E+006    3.09444E+006    3.09444E+006    4.16088E+005   -6.02013E+004    3.15465E+006   -1.15011E+006    2.85696E+006    2.80306E+005    1.15607E+005    3.05442E+006   -2.33027E+005    1.24676E+005   -3.09225E+005
            8816    2.62836E+006    2.77705E+006    2.77705E+006    5.84021E+005   -1.36400E+005    2.91345E+006   -1.07489E+006    2.39065E+006    3.32361E+005    2.42348E+005    2.64996E+006   -3.82527E+005    1.22249E+005   -5.28040E+005
            8817    2.43213E+006    2.52833E+006    2.52833E+006    7.76176E+005   -2.48465E+005    2.77679E+006   -1.01868E+006    1.84325E+006    4.95688E+005    3.56868E+005    2.20349E+006   -5.60032E+005    1.27442E+005   -7.64353E+005
            8818    2.50739E+006    2.34812E+006    2.34812E+006    6.40352E+005   -5.30521E+005    2.87864E+006   -8.19317E+005    1.70836E+006    5.56475E+005    2.29676E+005    1.67180E+006   -5.23473E+005    1.18308E+005   -1.11171E+006
            8819    2.97008E+006    3.06382E+006    3.06382E+006    1.99579E+005   -1.85227E+003    3.06567E+006   -1.08718E+006    2.95466E+006    1.67830E+005    3.12916E+004    3.06242E+006   -7.49031E+004    5.06727E+004   -3.79214E+004
            8820    2.62855E+006    2.79272E+006    2.79272E+006    4.25560E+005   -3.60691E+004    2.82879E+006   -1.06074E+006    2.53494E+006    2.67252E+005    1.28317E+005    2.78664E+006   -2.21645E+005    4.39149E+004   -1.14716E+005
            8821    2.19192E+006    2.39715E+006    2.39715E+006    6.43603E+005   -6.02290E+004    2.45738E+006   -9.93507E+005    1.91172E+006    3.18948E+005    2.83979E+005    2.37760E+006   -3.56358E+005    4.11254E+004   -1.89040E+005
            8822    1.74782E+006    1.94232E+006    1.94232E+006    9.07719E+005   -7.56740E+004    2.01800E+006   -9.24789E+005    6.16744E+005    4.55061E+005    4.36990E+005    1.88232E+006   -5.08109E+005    4.12604E+004   -2.65883E+005
            8823    1.28545E+006    1.42108E+006    1.42108E+006    7.34586E+005   -6.18775E+004    1.48295E+006   -6.97928E+005   -6.47853E+005    4.65844E+005    4.52166E+005    1.17577E+006   -4.57201E+005    3.43170E+004   -4.11443E+005
            8824    8.57574E+006    8.11044E+006    8.11044E+006    1.48968E+006   -1.57704E+006    9.68748E+006   -2.67436E+006    7.17658E+006    1.52849E+006   -1.34337E+006    7.83796E+006   -7.61935E+005    1.33232E+006    3.15970E+005
            8825    7.69578E+006    6.68759E+006    6.68759E+006    1.19513E+006   -2.10840E+006    8.79599E+006   -1.92478E+006    5.74097E+006    1.18492E+006   -1.90030E+006    6.48972E+006   -8.26050E+005    9.70478E+005   -3.29860E+005
            8826    6.82996E+006    5.69772E+006    5.69772E+006    9.92641E+005   -2.13616E+006    7.83388E+006   -1.51806E+006    4.76716E+006    9.66116E+005   -1.86472E+006    5.45280E+006   -8.02816E+005    7.24276E+005   -8.74843E+005
            8827    5.84369E+006    4.81652E+006    4.81652E+006    8.60590E+005   -1.89554E+006    6.71207E+006   -1.26052E+006    3.92774E+006    8.28222E+005   -1.45293E+006    4.40627E+006   -7.54240E+005    5.22076E+005   -1.34861E+006
            8828    4.81448E+006    4.02647E+006    4.02647E+006    7.79931E+005   -1.50502E+006    5.53149E+006   -1.10046E+006    3.20717E+006    7.39958E+005   -8.49558E+005    3.41098E+006   -6.98095E+005    3.63154E+005   -1.57215E+006
            8829    4.10906E+006    3.88737E+006    3.88737E+006    7.19322E+005   -7.55571E+005    4.64294E+006   -1.28371E+006    3.43286E+006    5.47839E+005   -1.81245E+005    3.48452E+006   -6.78207E+005    3.38355E+005   -1.13494E+006
            8830    3.83108E+006    3.78917E+006    3.78917E+006    4.66601E+005   -4.01463E+005    4.19063E+006   -1.28477E+006    3.59970E+006    3.13126E+005   -7.64390E+004    3.61762E+006   -4.15157E+005    2.66018E+005   -7.27799E+005
            8831    3.84260E+006    3.92184E+006    3.92184E+006    3.74795E+005   -1.60238E+005    4.08208E+006   -1.37880E+006    3.75743E+006    2.79339E+005   -6.24899E+003    3.86330E+006   -2.44782E+005    2.37257E+005   -3.94557E+005
            8832    4.14155E+006    4.23667E+006    4.23667E+006    2.20257E+005   -1.95946E+004    4.25627E+006   -1.47911E+006    4.12588E+006    2.12113E+005    5.87672E+003    4.21935E+006   -7.61036E+004    2.34243E+005   -1.20553E+005
            8833    4.84965E+006    4.47293E+006    4.47293E+006    6.78903E+005   -9.91026E+005    5.46396E+006   -1.38694E+006    4.12410E+006    5.24912E+005   -5.82795E+005    4.21869E+006   -6.89330E+005    4.70580E+005   -9.06747E+005
            8834    4.29065E+006    4.16133E+006    4.16133E+006    3.98160E+005   -5.11062E+005    4.67239E+006   -1.34948E+006    4.06534E+006    2.76148E+005   -2.97695E+005    4.06997E+006   -3.85522E+005    3.33449E+005   -4.93549E+005
            8835    4.12227E+006    4.13632E+006    4.13632E+006    3.10035E+005   -2.28906E+005    4.36523E+006   -1.40582E+006    4.04187E+006    2.33637E+005   -1.22833E+005    4.10665E+006   -2.20064E+005    2.68211E+005   -2.03372E+005
            8836    4.28115E+006    4.35049E+006    4.35049E+006    1.85827E+005   -3.83446E+004    4.38884E+006   -1.49932E+006    4.26792E+006    1.79446E+005   -1.89468E+004    4.33747E+006   -6.45078E+004    2.30174E+005   -3.34924E+004
            8837    5.54637E+006    5.11430E+006    5.11430E+006    6.64578E+005   -1.09957E+006    6.21387E+006   -1.55977E+006    4.85217E+006    5.32819E+005   -8.22669E+005    4.96916E+006   -6.56583E+005    6.12694E+005   -5.19877E+005
            8838    4.72023E+006    4.51640E+006    4.51640E+006    2.98490E+005   -5.82118E+005    5.09852E+006   -1.41092E+006    4.52986E+006    2.21135E+005   -4.63721E+005    4.47536E+006   -3.07536E+005    4.02934E+005   -9.79490E+004
            8839    4.20948E+006    4.19807E+006    4.19807E+006    2.25910E+005   -2.14162E+005    4.41223E+006   -1.40327E+006    4.15725E+006    1.82135E+005   -1.46772E+005    4.17445E+006   -1.48449E+005    2.92042E+005    1.12346E+005
            8840    4.09777E+006    4.13086E+006    4.13086E+006    1.08702E+005   -3.85490E+004    4.16941E+006   -1.40034E+006    4.09181E+006    1.08776E+005   -2.74514E+004    4.11969E+006   -3.30077E+004    1.99181E+005    7.53658E+004
            8841    6.24900E+006    5.88295E+006    5.88295E+006    6.26370E+005   -1.02626E+006    6.90921E+006   -1.82769E+006    5.72557E+006    5.22682E+005   -8.03664E+005    5.76404E+006   -5.73858E+005    7.90439E+005   -4.01901E+004
            8842    4.95206E+006    4.85576E+006    4.85576E+006    2.24232E+005   -3.64247E+005    5.22000E+006   -1.57191E+006    4.87246E+006    2.17556E+005   -2.92545E+005    4.79073E+006   -1.35316E+005    4.57888E+005    3.32690E+005
            8843    4.15478E+006    4.13792E+006    4.13792E+006    1.09546E+005   -1.32661E+005    4.27058E+006   -1.37160E+006    4.13885E+006    1.15464E+005   -8.85898E+004    4.08793E+006   -3.19533E+004    2.84011E+005    3.57949E+005
            8844    3.69571E+006    3.68362E+006    3.68362E+006    1.33865E+004   -3.70452E+004    3.72067E+006   -1.21999E+006    3.69494E+006    1.99385E+004   -2.95496E+004    3.66958E+006    6.37374E+003    1.54885E+005    1.66607E+005
            8845    6.59392E+006    6.70244E+006    6.70244E+006    6.26751E+005   -3.09614E+005    7.01205E+006   -2.33986E+006    6.44179E+006    5.84828E+005   -1.20000E+005    6.55475E+006   -3.21120E+005    9.09917E+005    3.37702E+005
            8846    4.96366E+006    4.97807E+006    4.97807E+006    1.36607E+005   -9.93830E+004    5.07745E+006   -1.67176E+006    4.95102E+006    1.47225E+005   -2.17261E+004    4.88979E+006    1.13077E+005    3.97835E+005    5.17376E+005
            8847    4.03380E+006    4.04656E+006    4.04656E+006    8.04029E+004   -5.16399E+004    4.09820E+006   -1.35844E+006    4.02894E+006    7.34512E+004    2.29519E+004    3.97892E+006    7.82777E+004    2.44981E+005    4.54845E+005
            8848    3.20221E+006    3.15419E+006    3.15419E+006    1.46114E+004   -1.07174E+005    3.26136E+006   -1.02054E+006    3.19699E+006   -6.79640E+004   -8.25932E+003    3.13785E+006    6.21306E+004    1.03334E+005    2.00928E+005
            8849    2.76012E+006    2.69967E+006    2.69967E+006    5.71318E+004   -1.64646E+005    2.86432E+006   -8.64052E+005    2.73996E+006   -1.23111E+005    2.63385E+004    2.68893E+006    8.89858E+004    5.91791E+004    1.57423E+005
            8850    2.49485E+006    2.42125E+006    2.42125E+006    8.50642E+004   -2.06617E+005    2.62787E+006   -7.66566E+005    2.45605E+006   -1.58036E+005    3.81244E+004    2.41961E+006    1.09037E+005    2.26399E+004    5.76208E+004
            8851    3.85369E+006    3.87386E+006    3.87386E+006    2.32654E+005   -1.61947E+005    4.03581E+006   -1.31486E+006    3.80784E+006    2.35370E+003    1.17492E+005    3.82472E+006    2.11117E+005    1.64668E+005    3.88248E+005
            8852    3.64781E+006    3.69315E+006    3.69315E+006    3.77562E+005   -2.14459E+005    3.90761E+006   -1.28542E+006    3.53730E+006   -2.83744E+004    1.99603E+005    3.68503E+006    2.76892E+005    4.64780E+004    1.58417E+005
            8853    4.83110E+006    4.96793E+006    4.96793E+006    3.73651E+005   -6.94637E+004    5.03740E+006   -1.75737E+006    4.78506E+006    1.21922E+005    2.42923E+005    4.90728E+006    2.43880E+005    2.80584E+005    4.43373E+005
            8854    4.70152E+006    4.93605E+006    4.93605E+006    6.88591E+005   -1.15763E+005    5.05181E+006   -1.83629E+006    4.54284E+006    1.10918E+005    4.72316E+005    4.92564E+006    3.65030E+005    1.26578E+005    1.67718E+005
            8855    6.40156E+006    6.76554E+006    6.76554E+006    4.66593E+005    2.66073E+005    6.49947E+006   -2.49940E+006    6.39449E+006    3.77266E+005    4.51736E+005    6.66920E+006    1.25294E+005    6.59239E+005    4.09737E+005
            8856    5.92272E+006    6.36822E+006    6.36822E+006    9.86314E+005    2.28244E+004    6.34539E+006   -2.45912E+006    5.74242E+006    2.64416E+005    7.58262E+005    6.35468E+006    4.20836E+005    1.83678E+005    1.98796E+005
            8857    7.33650E+006    7.98681E+006    7.98681E+006    1.23194E+006    1.81838E+005    7.80497E+006   -3.13353E+006    7.16450E+006    3.94633E+005    1.02604E+006    7.97992E+006    4.23025E+005    1.55694E+005    1.51535E+005
            8858    9.26815E+006    1.02137E+007    1.02137E+007    1.49558E+006    4.79359E+005    9.73438E+006   -4.06289E+006    9.14155E+006    6.60422E+005    1.32183E+006    1.02064E+007    3.86725E+005    2.34843E+005    1.07527E+005
            8859    8.21508E+006    8.91980E+006    8.91980E+006    8.40066E+005    5.75754E+005    8.34405E+006   -3.44521E+006    8.20550E+006    7.75301E+005    8.28814E+005    8.73151E+006   -2.77548E+004    1.18292E+006    3.69240E+005
            8860    9.99912E+006    1.12502E+007    1.12502E+007    1.51012E+006    1.01078E+006    1.02394E+007   -4.59037E+006    9.97101E+006    1.29114E+006    1.50169E+006    1.09783E+007   -4.45294E+004    1.58722E+006    4.37194E+005
            8861    1.03658E+007    1.13566E+007    1.13566E+007    2.81981E+006   -1.77646E+005    1.15343E+007   -4.66626E+006    9.31334E+006    2.87104E+006    4.47131E+005    1.06806E+007   -7.79858E+005    2.11930E+006    1.45572E+006
            8862    9.40640E+006    9.58228E+006    9.58228E+006    1.99513E+006   -9.42318E+005    1.05246E+007   -3.54503E+006    8.27603E+006    2.02736E+006   -5.62003E+005    9.16974E+006   -7.51865E+005    1.64422E+006    9.05812E+005
            8863    7.04551E+006    6.58291E+006    6.58291E+006    5.10624E+005   -1.14203E+006    7.72494E+006   -1.98383E+006    6.58789E+006    4.07351E+005   -9.64544E+005    6.50869E+006    5.17451E+005   -5.59404E+005   -3.73449E+005
            8864    6.19483E+006    5.68973E+006    5.68973E+006    4.82430E+005   -1.16116E+006    6.85088E+006   -1.67033E+006    5.67235E+006    3.76224E+005   -8.36812E+005    5.47159E+006    5.40635E+005   -3.83036E+005   -1.07143E+006
            8865    5.44871E+006    5.13447E+006    5.13447E+006    5.22804E+005   -8.77813E+005    6.01229E+006   -1.59315E+006    5.01916E+006    4.13388E+005   -2.94431E+005    4.66051E+006    5.52601E+005   -3.29872E+005   -1.51665E+006
            8866    4.68768E+006    4.56340E+006    4.56340E+006    5.59772E+005   -5.93178E+005    5.15658E+006   -1.51000E+006    4.35118E+006    4.23496E+005    2.99571E+005    3.80693E+006    5.59373E+005   -2.46848E+005   -1.72922E+006
            8867    3.92418E+006    3.85929E+006    3.85929E+006    9.23512E+004   -2.05185E+005    4.06448E+006   -1.24882E+006    3.89868E+006    4.29220E+004    1.73850E+004    3.68615E+006    1.37252E+005   -9.75998E+004   -8.05662E+005
            8868    4.23566E+006    4.26655E+006    4.26655E+006    7.11086E+004   -8.20396E+003    4.27476E+006   -1.44315E+006    4.23398E+006    5.58933E+004    2.33528E+004    4.25021E+006    3.83058E+004   -9.38321E+004   -2.45038E+005
            8869    4.31466E+006    4.12428E+006    4.12428E+006    2.79974E+004   -3.79803E+005    4.50408E+006   -1.25749E+006    4.27098E+006    7.44696E+003   -2.95741E+005    4.06076E+006    1.07727E+005   -1.00659E+005   -5.16668E+005
            8870    4.40734E+006    4.37601E+006    4.37601E+006    6.12131E+004   -1.18389E+005    4.49440E+006   -1.43961E+006    4.39910E+006    4.84821E+004   -1.02990E+005    4.37334E+006    5.01918E+004   -8.71891E+004   -6.28649E+004
            8871    4.72927E+006    4.42731E+006    4.42731E+006    2.30691E+004   -5.70882E+005    4.99819E+006   -1.29317E+006    4.64425E+006    1.29508E+004   -5.55529E+005    4.42208E+006    9.05198E+004   -1.42645E+005    5.87351E+004
            8872    4.10052E+006    4.04619E+006    4.04619E+006    2.54087E+004   -1.29668E+005    4.17586E+006   -1.31398E+006    4.09392E+006    2.50591E+004   -1.17517E+005    4.03439E+006    1.20016E+004   -7.09208E+004    2.09803E+005
            8873    4.78384E+006    4.51708E+006    4.51708E+006   -2.67861E+004   -4.75158E+005    4.99224E+006   -1.33838E+006    4.73622E+006   -2.51040E+004   -3.86329E+005    4.42657E+006   -5.92011E+004   -1.46904E+005    6.46508E+005
            8874    3.47053E+006    3.44751E+006    3.44751E+006    1.23391E+004   -5.73370E+004    3.50485E+006   -1.13417E+006    3.46896E+006    1.28189E+004   -2.61561E+004    3.41585E+006   -3.92836E+003   -4.04088E+004    3.29085E+005
            8875    2.86158E+006    2.82472E+006    2.82472E+006   -2.72915E+003   -6.98180E+004    2.89454E+006   -9.17390E+005    2.85981E+006   -2.12781E+004   -1.64119E+004    2.78986E+006   -3.31581E+004   -2.55776E+004    3.13338E+005
            8876    2.33225E+006    2.33560E+006    2.33560E+006    8.29639E+004   -6.88423E+004    2.40444E+006   -7.83240E+005    2.32109E+006   -3.86041E+004    6.19900E+004    2.32633E+006   -6.11178E+004   -6.23175E+003    1.44794E+005
            8877    4.32760E+006    4.21755E+006    4.21755E+006    2.75540E+004   -2.35638E+005    4.45319E+006   -1.33649E+006    4.30954E+006   -8.78313E+003   -8.33948E+004    4.10164E+006   -1.09762E+005   -9.18030E+004    6.97332E+005
            8878    3.69046E+006    3.77259E+006    3.77259E+006    2.55899E+005   -7.00048E+004    3.84260E+006   -1.31950E+006    3.65787E+006    9.99958E+003    1.98844E+005    3.74965E+006   -1.43765E+005   -4.52612E+004    2.81017E+005
            8879    4.72796E+006    4.90724E+006    4.90724E+006    3.97865E+005   -1.25548E+004    4.91979E+006   -1.76418E+006    4.68763E+006    8.89365E+004    3.21711E+005    4.88190E+006   -1.83900E+005   -1.32409E+005    3.10139E+005
            8880    6.00452E+006    6.22206E+006    6.22206E+006    4.65171E+005   -2.70661E+003    6.22477E+006   -2.22818E+006    5.96330E+006    1.13554E+005    3.59257E+005    6.21172E+006   -2.05091E+005   -1.33757E+005    2.03914E+005
            8881    7.69941E+006    7.97046E+006    7.97046E+006    5.00332E+005    6.06149E+004    7.90985E+006   -2.84380E+006    7.67109E+006    1.92910E+005    3.83222E+005    7.95528E+006   -2.06561E+005   -1.93295E+005    2.75421E+005
            8882    9.38212E+006    9.75979E+006    9.75979E+006    6.05673E+005    1.65187E+005    9.59460E+006   -3.51022E+006    9.35881E+006    2.76611E+005    5.03959E+005    9.75008E+006   -1.93194E+005   -2.22465E+005    1.99316E+005
            8883    5.64852E+006    5.45289E+006    5.45289E+006   -6.38009E+004   -3.18818E+005    5.77171E+006   -1.69009E+006    5.63555E+006   -1.22001E+005   -1.93318E+005    5.38559E+006   -1.18174E+005   -8.70582E+004    6.08197E+005
            8884    7.37806E+006    7.26739E+006    7.26739E+006   -9.04002E+003   -2.08257E+005    7.47565E+006   -2.35003E+006    7.37200E+006   -4.14867E+004   -9.68923E+004    7.18847E+006   -1.05741E+005   -2.49771E+005    7.16252E+005
            8885    8.73223E+006    8.80157E+006    8.80157E+006    2.26661E+005   -7.99007E+004    8.88147E+006   -2.98278E+006    8.72011E+006   -4.07236E+004    2.68945E+005    8.72011E+006   -1.14817E+005   -3.48378E+005    7.55648E+005
            8886    1.03429E+007    1.06410E+007    1.06410E+007    5.96680E+005    2.32364E+004    1.06177E+007   -3.75362E+006    1.03071E+007    5.29950E+004    6.41481E+005    1.05664E+007   -8.89199E+004   -5.07856E+005    7.04214E+005
            8887    1.24059E+007    1.40942E+007    1.40942E+007    2.73923E+006    8.53392E+005    1.32409E+007   -5.89562E+006    1.20771E+007    2.23936E+006    1.97779E+006    1.34697E+007    6.67530E+005   -2.37282E+006    1.47784E+006
            8888    1.11846E+007    1.19401E+007    1.19401E+007    1.78469E+006   -4.74477E+004    1.19875E+007   -4.55911E+006    1.08392E+007    1.56780E+006    5.51748E+005    1.15578E+007    6.50542E+005   -1.74927E+006    1.10501E+006
            8889    9.80444E+006    9.95507E+006    9.95507E+006    1.14661E+006   -6.08323E+005    1.05634E+007   -3.49778E+006    9.44133E+006    1.07826E+006   -3.12387E+005    9.72748E+006    5.12377E+005   -1.26850E+006    7.61828E+005
            8890    8.27980E+006    8.11777E+006    8.11777E+006    7.51021E+005   -8.43227E+005    8.96100E+006   -2.67519E+006    7.92336E+006    7.08098E+005   -6.92137E+005    8.00960E+006    4.38059E+005   -8.80244E+005    2.29779E+005
            8891    3.84020E+006    3.87160E+006    3.87160E+006    7.25412E+004   -8.45729E+003    3.88006E+006   -1.31190E+006    3.83828E+006    4.39413E+004    3.93909E+004    3.85236E+006    4.56432E+004   -9.30965E+004   -2.53992E+005
            8892    3.44785E+006    3.47995E+006    3.47995E+006    1.54636E+005   -7.85871E+004    3.55854E+006   -1.18533E+006    3.43003E+006    5.25214E+004    2.35347E+005    3.26813E+006    1.39340E+005   -7.69806E+004   -8.21776E+005
            8893    3.81649E+006    3.89070E+006    3.89070E+006    5.99304E+005   -2.92842E+005    4.18354E+006   -1.39905E+006    3.57039E+006    4.16514E+005    7.93278E+005    2.98737E+006    5.40855E+005   -1.79779E+005   -1.61332E+006
            8894    3.39682E+006    3.44799E+006    3.44799E+006    9.07464E+004    1.29362E+004    3.43506E+006   -1.18389E+006    3.39481E+006    4.02530E+004    7.53644E+004    3.43606E+006    4.03439E+004   -6.31251E+004   -1.89786E+005
            8895    2.83848E+006    2.97108E+006    2.97108E+006    2.98814E+005   -8.59192E+003    2.97967E+006   -1.08710E+006    2.80066E+006    6.51324E+004    3.48132E+005    2.84803E+006    1.45017E+005   -5.77109E+004   -5.61784E+005
            8896    2.74688E+006    3.02210E+006    3.02210E+006    7.12681E+005   -1.55071E+004    3.03761E+006   -1.23976E+006    2.51562E+006    3.79325E+005    1.08422E+006    2.25573E+006    4.91383E+005   -9.74488E+004   -1.16868E+006
            8897    3.12125E+006    3.17379E+006    3.17379E+006    9.80980E+004    8.88372E+003    3.16490E+006   -1.09359E+006    3.11838E+006    3.49101E+004    7.35718E+004    3.17229E+006    4.09629E+004   -2.38567E+004   -6.36253E+004
            8898    2.43376E+006    2.62614E+006    2.62614E+006    4.24908E+005    1.25420E+004    2.61360E+006   -1.02120E+006    2.35323E+006    6.94348E+004    3.86806E+005    2.60735E+006    1.44108E+005   -1.90516E+004   -2.02909E+005
            8899    1.64386E+006    2.02630E+006    2.02630E+006    1.13676E+006    1.29350E+005    1.89695E+006   -1.09747E+006   -7.81315E+005    3.29125E+005    1.18955E+006    1.77374E+006    4.44734E+005   -3.49269E+004   -4.16735E+005
            8900    9.83186E+006    1.02307E+007    1.02307E+007    6.18068E+005    1.93441E+005    1.00373E+007   -3.68075E+006    9.81120E+006    2.99728E+005    5.23202E+005    1.02193E+007    1.85937E+005   -2.45419E+005   -2.23370E+005
            8901    1.06650E+007    1.10600E+007    1.10600E+007    7.55851E+005    6.75210E+004    1.09925E+007   -3.96113E+006    1.06149E+007    1.00398E+005    8.03569E+005    1.09794E+007    7.77791E+004   -5.77391E+005   -7.13263E+005
            8902    1.26099E+007    1.44124E+007    1.44124E+007    2.89246E+006    9.40202E+005    1.34722E+007   -6.08169E+006    1.22630E+007    2.32482E+006    2.15387E+006    1.37664E+007   -6.92391E+005   -2.45404E+006   -1.48448E+006
            8903    1.14650E+007    1.19787E+007    1.19787E+007    7.04427E+005    3.31953E+005    1.16467E+007   -4.33835E+006    1.14514E+007    3.97812E+005    6.47369E+005    1.19699E+007    1.39600E+005   -2.81535E+005   -1.45528E+005
            8904    1.21071E+007    1.28009E+007    1.28009E+007    1.26271E+006    1.95485E+005    1.26054E+007   -4.75303E+006    1.20006E+007    2.40216E+005    1.29028E+006    1.27286E+007    5.52364E+004   -7.45078E+005   -5.65457E+005
            8905    1.33718E+007    1.62632E+007    1.62632E+007    4.19421E+006    1.88856E+006    1.43747E+007   -7.44866E+006    1.29131E+007    3.03708E+006    3.91170E+006    1.53972E+007   -5.71919E+005   -3.08799E+006   -1.47063E+006
            8906    1.26728E+007    1.32761E+007    1.32761E+007    7.56465E+005    4.55574E+005    1.28205E+007   -4.82938E+006    1.26647E+007    4.78946E+005    7.41405E+005    1.32678E+007    6.86843E+004   -3.15553E+005   -7.98763E+004
            8907    1.30978E+007    1.40224E+007    1.40224E+007    1.68476E+006    2.78030E+005    1.37444E+007   -5.32839E+006    1.29262E+007    3.32578E+005    1.69187E+006    1.39607E+007    3.30627E+004   -8.62774E+005   -2.97603E+005
            8908    1.37241E+007    1.75216E+007    1.75216E+007    5.44531E+006    2.59679E+006    1.49248E+007   -8.52123E+006    1.30338E+007    3.62881E+006    5.38926E+006    1.65456E+007   -3.29091E+005   -3.57671E+006   -9.02371E+005
            8909    1.30493E+007    1.36800E+007    1.36800E+007    7.69829E+005    4.95927E+005    1.31841E+007   -4.98192E+006    1.30428E+007    5.04190E+005    7.69542E+005    1.36720E+007   -9.64551E+003   -3.23696E+005    1.73348E+004
            8910    1.34197E+007    1.44235E+007    1.44235E+007    1.81357E+006    3.19098E+005    1.41044E+007   -5.51871E+006    1.32305E+007    3.77353E+005    1.81366E+006    1.43651E+007    4.10237E+003   -9.04347E+005    3.96716E+004
            8911    1.38086E+007    1.79349E+007    1.79349E+007    5.94800E+006    2.83590E+006    1.50990E+007   -8.90628E+006    1.29839E+007    3.83380E+006    5.94786E+006    1.69372E+007    1.82433E+004   -3.75059E+006    5.21894E+004
            8912    1.24625E+007    1.30443E+007    1.30443E+007    7.39877E+005    4.29531E+005    1.26148E+007   -4.73792E+006    1.24538E+007    4.62231E+005    7.15329E+005    1.30362E+007   -8.70063E+004   -3.06712E+005    8.91783E+004
            8913    1.29493E+007    1.38119E+007    1.38119E+007    1.57596E+006    2.51190E+005    1.35608E+007   -5.21303E+006    1.27955E+007    3.01785E+005    1.58689E+006    1.37504E+007   -2.27655E+004   -8.26434E+005    3.64884E+005
            8914    1.36725E+007    1.73941E+007    1.73941E+007    5.32951E+006    2.54302E+006    1.48511E+007   -8.42221E+006    1.30104E+007    3.57641E+006    5.26455E+006    1.64257E+007    3.48294E+005   -3.53232E+006    9.79604E+005
            8915    1.11065E+007    1.15898E+007    1.15898E+007    6.73953E+005    3.02052E+005    1.12878E+007   -4.18861E+006    1.10925E+007    3.77325E+005    6.08008E+005    1.15805E+007   -1.48367E+005   -2.73775E+005    1.66756E+005
            8916    1.18060E+007    1.23931E+007    1.23931E+007    1.11085E+006    1.25082E+005    1.22680E+007   -4.54300E+006    1.17129E+007    1.62489E+005    1.13976E+006    1.23268E+007   -6.33447E+004   -6.66287E+005    5.77723E+005
            8917    1.32610E+007    1.60353E+007    1.60353E+007    4.03534E+006    1.79799E+006    1.42373E+007   -7.28954E+006    1.28260E+007    2.96010E+006    3.71479E+006    1.51937E+007    5.88472E+005   -3.01474E+006    1.47753E+006
            8918    3.81658E+006    3.89050E+006    3.89050E+006    5.98475E+005   -2.92876E+005    4.18338E+006   -1.39870E+006    3.57095E+006    4.16626E+005    7.94377E+005    2.98510E+006    5.40832E+005    1.80580E+005    1.61467E+006
            8919    3.44482E+006    3.47595E+006    3.47595E+006    1.52313E+005   -7.84500E+004    3.55440E+006   -1.18327E+006    3.42737E+006    5.09304E+004    2.32511E+005    3.26637E+006    1.37980E+005    7.70120E+004    8.17254E+005
            8920    3.83300E+006    3.86358E+006    3.86358E+006    7.16296E+004   -9.19029E+003    3.87277E+006   -1.30867E+006    3.83109E+006    4.32597E+004    3.82592E+004    3.84450E+006    4.54713E+004    9.28144E+004    2.52570E+005
            8921    2.74448E+006    3.01932E+006    3.01932E+006    7.12678E+005   -1.59407E+004    3.03526E+006   -1.23869E+006    2.51269E+006    3.79198E+005    1.08391E+006    2.25296E+006    4.91727E+005    9.74000E+004    1.16779E+006
            8922    2.84210E+006    2.97359E+006    2.97359E+006    2.96925E+005   -9.16579E+003    2.98276E+006   -1.08712E+006    2.80466E+006    6.45553E+004    3.45149E+005    2.85165E+006    1.44409E+005    5.68552E+004    5.59973E+005
            8923    3.39234E+006    3.44378E+006    3.44378E+006    9.08328E+004    1.33782E+004    3.43040E+006   -1.18266E+006    3.39035E+006    4.05653E+004    7.55127E+004    3.43191E+006    4.01535E+004    6.28857E+004    1.89132E+005
            8924    1.64070E+006    2.02250E+006    2.02250E+006    1.13854E+006    1.29361E+005    1.89314E+006   -1.09680E+006   -7.96163E+005    3.28603E+005    1.19063E+006    1.77118E+006    4.44513E+005    3.45251E+004    4.14319E+005
            8925    2.43904E+006    2.63043E+006    2.63043E+006    4.22617E+005    1.22295E+004    2.61820E+006   -1.02176E+006    2.35949E+006    6.92037E+004    3.85264E+005    2.61081E+006    1.43786E+005    1.80274E+004    2.07824E+005
            8926    3.12086E+006    3.17288E+006    3.17288E+006    9.73527E+004    8.59642E+003    3.16429E+006   -1.09294E+006    3.11801E+006    3.45027E+004    7.29583E+004    3.17137E+006    4.07663E+004    2.41482E+004    6.37959E+004
            8927    2.99902E+006    2.97172E+006    2.97172E+006   -1.00658E+003   -5.29165E+004    3.02464E+006   -9.72599E+005    2.99801E+006   -1.15568E+004   -1.68244E+004    2.94618E+006    2.27838E+004   -1.84632E+004   -2.75516E+005
            8928    3.57636E+006    3.54432E+006    3.54432E+006    2.47550E+003   -6.55897E+004    3.60990E+006   -1.16040E+006    3.57490E+006    2.66153E+003   -4.89393E+004    3.52748E+006    5.64762E+003   -3.46773E+004   -2.43414E+005
            8929    4.06931E+006    4.05480E+006    4.05480E+006    2.65975E+004   -5.44117E+004    4.10921E+006   -1.34233E+006    4.06750E+006    2.58081E+004   -4.88104E+004    4.04999E+006   -9.30713E+003   -5.50023E+004   -1.29218E+005
            8930    4.34629E+006    4.34572E+006    4.34572E+006    4.30882E+004   -4.29466E+004    4.38867E+006   -1.44862E+006    4.34437E+006    4.05070E+004   -3.88451E+004    4.34420E+006   -1.84937E+004   -7.96504E+004    1.39666E+004
            8931    4.28488E+006    4.29926E+006    4.29926E+006    4.94304E+004   -1.98317E+004    4.31909E+006   -1.44295E+006    4.28362E+006    4.46401E+004   -9.07728E+003    4.29329E+006   -2.35927E+004   -9.43525E+004    1.28629E+005
            8932    3.91830E+006    3.81578E+006    3.81578E+006   -3.38925E+003   -1.94635E+005    4.01042E+006   -1.20592E+006    3.90777E+006   -1.72490E+004   -7.34571E+004    3.70846E+006    6.58436E+004   -7.59759E+004   -6.40107E+005
            8933    4.09470E+006    3.97611E+006    3.97611E+006    1.20445E+004   -2.37778E+005    4.21389E+006   -1.25013E+006    4.07750E+006    1.42961E+004   -1.70203E+005    3.90629E+006    8.71817E+003   -9.50697E+004   -5.28999E+005
            8934    4.20981E+006    4.10358E+006    4.10358E+006    3.71627E+004   -2.36290E+005    4.33987E+006   -1.30149E+006    4.18976E+006    3.18685E+004   -2.16565E+005    4.08915E+006   -4.07503E+004   -1.08904E+005   -2.24148E+005
            8935    4.18839E+006    4.12002E+006    4.12002E+006    6.87870E+004   -1.93219E+005    4.31324E+006   -1.33186E+006    4.16989E+006    4.87290E+004   -1.63744E+005    4.11061E+006   -7.78393E+004   -1.01177E+005    1.70001E+005
            8936    3.98567E+006    3.97729E+006    3.97729E+006    9.61006E+004   -1.05229E+005    4.08252E+006   -1.32272E+006    3.97421E+006    6.50395E+004   -2.71830E+004    3.93031E+006   -8.53562E+004   -9.28090E+004    4.21356E+005
            8937    4.83296E+006    4.71883E+006    4.71883E+006    1.01993E+005   -3.04574E+005    5.02340E+006   -1.50541E+006    4.79426E+006    1.09394E+005   -2.00166E+005    4.60702E+006    2.62712E+004   -1.82836E+005   -7.16105E+005
            8938    4.96588E+006    4.71792E+006    4.71792E+006    8.14936E+004   -5.22217E+005    5.24014E+006   -1.42573E+006    4.88229E+006    8.10157E+004   -4.64321E+005    4.66050E+006   -5.39341E+004   -2.06047E+005   -5.02470E+005
            8939    4.76686E+006    4.50789E+006    4.50789E+006    1.12425E+005   -5.59132E+005    5.06702E+006   -1.35373E+006    4.65865E+006    8.76971E+004   -5.27568E+005    4.50106E+006   -1.42620E+005   -1.72871E+005    1.38641E+004
            8940    4.38087E+006    4.21691E+006    4.21691E+006    1.37754E+005   -4.13501E+005    4.63041E+006   -1.31372E+006    4.30180E+006    9.58652E+004   -3.10807E+005    4.15610E+006   -1.71981E+005   -1.40874E+005    4.97212E+005
            8941    3.96875E+006    3.91047E+006    3.91047E+006    1.77320E+005   -2.57980E+005    4.16845E+006   -1.27660E+006    3.91450E+006    1.08849E+005   -2.81425E+004    3.74910E+006   -1.90705E+005   -1.17491E+005    7.81348E+005
            8942    6.54251E+006    6.19959E+006    6.19959E+006   -1.13699E+004   -6.30454E+005    6.83005E+006   -1.85259E+006    6.47612E+006    8.69091E+002   -5.74595E+005    6.13149E+006   -2.58999E+004   -3.28231E+005   -5.87520E+005
            8943    6.29263E+006    5.77102E+006    5.77102E+006    9.30354E+004   -9.94490E+005    6.76551E+006   -1.62319E+006    6.07578E+006    6.23218E+004   -9.46206E+005    5.75345E+006   -2.21604E+005   -3.15365E+005   -4.37728E+004
            8944    5.63441E+006    5.13805E+006    5.13805E+006    8.50464E+004   -9.37668E+005    6.07572E+006   -1.42848E+006    5.41965E+006    4.58145E+004   -8.31403E+005    5.07102E+006   -2.51477E+005   -2.44170E+005    5.62031E+005
            8945    4.95805E+006    4.61823E+006    4.61823E+006    1.50754E+005   -7.16069E+005    5.33430E+006   -1.35097E+006    4.78310E+006    8.59507E+004   -4.24650E+005    4.39162E+006   -2.99135E+005   -2.07236E+005    1.03070E+006
            8946    4.28027E+006    4.09901E+006    4.09901E+006    1.90929E+005   -4.75307E+005    4.57432E+006   -1.27155E+006    4.16121E+006    9.49928E+004    5.03451E+004    3.66930E+006   -3.11654E+005   -1.57532E+005    1.29327E+006
            8947    5.16674E+006    4.99427E+006    4.99427E+006    7.40811E+005   -7.55477E+005    5.74974E+006   -1.65987E+006    4.64042E+006    6.28157E+005    2.62270E+005    4.08917E+006   -6.87692E+005   -3.38726E+005    1.96243E+006
            8948    6.16903E+006    5.77057E+006    5.77057E+006    7.50701E+005   -1.11630E+006    6.88688E+006   -1.80166E+006    5.47718E+006    6.47915E+005   -4.15232E+005    5.17229E+006   -7.07270E+005   -4.45174E+005    1.78432E+006
            8949    7.20056E+006    6.66578E+006    6.66578E+006    7.91011E+005   -1.36704E+006    8.03281E+006   -2.02992E+006    6.41009E+006    6.97262E+005   -9.45410E+005    6.33790E+006   -7.15394E+005   -5.95198E+005    1.35019E+006
            8950    8.13795E+006    7.57971E+006    7.57971E+006    8.50896E+005   -1.46524E+006    9.04495E+006   -2.32179E+006    7.33965E+006    7.32180E+005   -1.19341E+006    7.42658E+006   -7.28901E+005   -7.16689E+005    7.47846E+005
            8951    9.14813E+006    8.84561E+006    8.84561E+006    9.89240E+005   -1.19782E+006    1.00434E+007   -2.87901E+006    8.52965E+006    8.66817E+005   -9.52790E+005    8.72301E+006   -6.96268E+005   -9.84325E+005    2.10546E+004
            8952    1.02098E+007    1.03786E+007    1.03786E+007    1.26593E+006   -6.55261E+005    1.10339E+007   -3.66310E+006    9.79063E+006    1.15312E+006   -3.18412E+005    1.01546E+007   -6.20404E+005   -1.34271E+006   -6.42464E+005
            8953    1.14720E+007    1.23364E+007    1.23364E+007    1.90140E+006    5.21067E+004    1.22843E+007   -4.76330E+006    1.11292E+007    1.66978E+006    7.06499E+005    1.19136E+007   -6.54898E+005   -1.85139E+006   -1.19791E+006
            8954    9.19713E+006    9.33179E+006    9.33179E+006    2.57788E+005    1.62903E+004    9.31550E+006   -3.20196E+006    9.18999E+006    4.55244E+004    3.12751E+005    9.24760E+006    7.95796E+004   -4.41800E+005   -7.51039E+005
            8955    8.04164E+006    8.34939E+006    8.34939E+006    5.54899E+005    8.15178E+004    8.26788E+006   -2.99527E+006    8.01020E+006    2.03896E+005    4.43576E+005    8.33834E+006    2.10034E+005   -1.93887E+005   -2.20564E+005
            8956    7.58772E+006    7.51069E+006    7.51069E+006   -1.27230E+004   -1.39740E+005    7.65043E+006   -2.45274E+006    7.58533E+006   -4.43766E+004   -3.69742E+004    7.43958E+006    8.55153E+004   -2.82591E+005   -6.72739E+005
            8957    6.43455E+006    6.68079E+006    6.68079E+006    4.95998E+005    2.26248E+004    6.65816E+006   -2.39980E+006    6.39519E+006    1.35250E+005    4.00277E+005    6.66388E+006    2.06198E+005   -1.67230E+005   -2.76252E+005
            8958    5.24997E+006    5.42731E+006    5.42731E+006    4.24050E+005   -3.87430E+004    5.46605E+006   -1.93754E+006    5.20378E+006    6.44841E+004    3.39881E+005    5.40825E+006    1.96937E+005   -8.93998E+004   -2.95460E+005
            8959    4.19958E+006    4.31183E+006    4.31183E+006    3.34022E+005   -7.89973E+004    4.39083E+006   -1.52229E+006    4.15352E+006    1.64429E+004    2.54141E+005    4.29627E+006    1.76343E+005   -3.69905E+004   -2.46942E+005
            8960    3.28279E+006    3.33453E+006    3.33453E+006    2.00451E+005   -7.90987E+004    3.41362E+006   -1.15196E+006    3.25585E+006   -1.03209E+004    1.44453E+005    3.32175E+006    1.21945E+005   -2.35617E+004   -1.99595E+005
            8961    2.18918E+006    2.18377E+006    2.18377E+006    5.45746E+004   -6.08402E+004    2.24461E+006   -7.25834E+005    2.18232E+006   -4.04577E+004    3.73219E+004    2.18064E+006    4.40370E+004    1.42648E+002   -8.19476E+004
            8962    6.00375E+006    5.95684E+006    5.95684E+006    7.95603E+004   -1.65863E+005    6.12270E+006   -1.95684E+006    5.99245E+006    5.44511E+004   -5.44219E+004    5.87050E+006    1.11759E+005   -2.26732E+005   -6.78675E+005
            8963    4.54918E+006    4.54084E+006    4.54084E+006    9.62362E+004   -1.06176E+005    4.64701E+006   -1.51030E+006    4.53904E+006    3.36618E+004    4.22019E+004    4.45503E+006    1.12950E+005   -1.25075E+005   -6.05267E+005
            8964    3.59506E+006    3.57251E+006    3.57251E+006    6.99105E+004   -1.08373E+005    3.68088E+006   -1.17801E+006    3.58509E+006   -7.04260E+003    4.75588E+004    3.49353E+006    9.72085E+004   -5.22274E+004   -5.23468E+005
            8965    2.50165E+006    2.48233E+006    2.48233E+006    2.03296E+004   -5.71715E+004    2.53950E+006   -8.15162E+005    2.49895E+006   -3.10651E+004    1.28985E+004    2.46365E+006    3.73501E+004   -6.86251E+003   -2.14516E+005
            8966    3.46848E+006    3.44541E+006    3.44541E+006    1.19313E+004   -5.70588E+004    3.50247E+006   -1.13343E+006    3.46694E+006    1.24034E+004   -2.57731E+004    3.41365E+006   -4.42409E+003    4.02436E+004   -3.29492E+005
            8967    4.10500E+006    4.05060E+006    4.05060E+006    2.58289E+004   -1.30169E+005    4.18077E+006   -1.31542E+006    4.09832E+006    2.54264E+004   -1.18111E+005    4.03895E+006    1.23619E+004    7.12286E+004   -2.08382E+005
            8968    4.40852E+006    4.37790E+006    4.37790E+006    6.10745E+004   -1.16926E+005    4.49482E+006   -1.44068E+006    4.40042E+006    4.83308E+004   -1.01319E+005    4.37503E+006    5.01025E+004    8.71364E+004    6.95060E+004
            8969    4.22501E+006    4.25763E+006    4.25763E+006    7.17221E+004   -5.42741E+003    4.26306E+006   -1.44131E+006    4.22343E+006    5.61677E+004    2.68000E+004    4.24096E+006    3.80167E+004    9.37680E+004    2.47510E+005
            8970    4.78167E+006    4.51541E+006    4.51541E+006   -2.64511E+004   -4.74537E+005    4.98994E+006   -1.33814E+006    4.73409E+006   -2.46156E+004   -3.86348E+005    4.42538E+006   -5.84338E+004    1.47305E+005   -6.44468E+005
            8971    4.71988E+006    4.42000E+006    4.42000E+006    2.33507E+004   -5.67474E+005    4.98748E+006   -1.29196E+006    4.63559E+006    1.30221E+004   -5.52035E+005    4.41489E+006    9.10476E+004    1.42358E+005   -5.34031E+004
            8972    4.30516E+006    4.11572E+006    4.11572E+006    2.72261E+004   -3.77520E+005    4.49324E+006   -1.25514E+006    4.26204E+006    6.70175E+003   -2.92154E+005    4.05088E+006    1.07266E+005    9.96904E+004    5.21779E+005
            8973    3.91620E+006    3.85414E+006    3.85414E+006    9.19546E+004   -1.99765E+005    4.05390E+006   -1.24878E+006    3.89164E+006    4.28554E+004    2.28730E+004    3.68060E+006    1.35492E+005    9.70739E+004    8.05609E+005
            8974    4.68395E+006    4.56092E+006    4.56092E+006    5.60920E+005   -5.91761E+005    5.15268E+006   -1.51003E+006    4.34732E+006    4.25410E+005    3.01952E+005    3.80272E+006    5.59254E+005    2.47395E+005    1.73004E+006
            8975    5.44777E+006    5.13088E+006    5.13088E+006    5.20695E+005   -8.80667E+005    6.01155E+006   -1.59030E+006    5.01765E+006    4.12083E+005   -2.97069E+005    4.65590E+006    5.51749E+005    3.29635E+005    1.51839E+006
            8976    6.18963E+006    5.68547E+006    5.68547E+006    4.83570E+005   -1.16009E+006    6.84555E+006   -1.66965E+006    5.66660E+006    3.77634E+005   -8.35666E+005    5.46698E+006    5.40152E+005    3.82335E+005    1.07225E+006
            8977    7.03847E+006    6.57614E+006    6.57614E+006    5.08593E+005   -1.14044E+006    7.71658E+006   -1.98143E+006    6.58245E+006    4.04860E+005   -9.62301E+005    6.50174E+006    5.17466E+005    5.57984E+005    3.76918E+005
            8978    8.27188E+006    8.10771E+006    8.10771E+006    7.51567E+005   -8.46674E+005    8.95438E+006   -2.67087E+006    7.91324E+006    7.07991E+005   -6.95392E+005    8.00000E+006    4.39964E+005    8.78681E+005   -2.24166E+005
            8979    9.80891E+006    9.95860E+006    9.95860E+006    1.14940E+006   -6.11489E+005    1.05701E+007   -3.49884E+006    9.44343E+006    1.07947E+006   -3.13874E+005    9.73092E+006    5.16093E+005    1.27071E+006   -7.58983E+005
            8980    1.11966E+007    1.19569E+007    1.19569E+007    1.79194E+006   -4.43086E+004    1.20012E+007   -4.56817E+006    1.08500E+007    1.57239E+006    5.58819E+005    1.15733E+007    6.53011E+005    1.75306E+006   -1.10781E+006
            8981    1.24071E+007    1.40898E+007    1.40898E+007    2.73183E+006    8.48836E+005    1.32410E+007   -5.89016E+006    1.20794E+007    2.23279E+006    1.97030E+006    1.34674E+007    6.67242E+005    2.36986E+006   -1.47399E+006
            8982    1.03403E+007    1.06428E+007    1.06428E+007    5.99651E+005    2.89847E+004    1.06138E+007   -3.75715E+006    1.03048E+007    5.85622E+004    6.45208E+005    1.05677E+007   -8.63636E+004    5.11268E+005   -7.05912E+005
            8983    9.36889E+006    9.74431E+006    9.74431E+006    6.03556E+005    1.62842E+005    9.58147E+006   -3.50357E+006    9.34553E+006    2.74525E+005    5.01766E+005    9.73442E+006   -1.93414E+005    2.25337E+005   -2.00001E+005
            8984    8.73548E+006    8.80104E+006    8.80104E+006    2.17763E+005   -7.90860E+004    8.88012E+006   -2.97991E+006    8.72412E+006   -4.03813E+004    2.60761E+005    8.71934E+006   -1.12608E+005    3.50210E+005   -7.56586E+005
            8985    7.70623E+006    7.97900E+006    7.97900E+006    5.02139E+005    6.22512E+004    7.91675E+006   -2.84780E+006    7.67791E+006    1.94074E+005    3.85706E+005    7.96361E+006   -2.06460E+005    1.94569E+005   -2.77468E+005
            8986    7.38117E+006    7.26845E+006    7.26845E+006   -1.07945E+004   -2.10589E+005    7.47904E+006   -2.34902E+006    7.37508E+006   -4.19560E+004   -1.00860E+005    7.18988E+006   -1.04845E+005    2.49593E+005   -7.14812E+005
            8987    6.03431E+006    6.25276E+006    6.25276E+006    4.65437E+005   -1.42344E+003    6.25418E+006   -2.23892E+006    5.99348E+006    1.15205E+005    3.59398E+005    6.24217E+006   -2.05090E+005    1.35894E+005   -2.06704E+005
            8988    5.65311E+006    5.45696E+006    5.45696E+006   -6.34389E+004   -3.20112E+005    5.77707E+006   -1.69114E+006    5.63997E+006   -1.21480E+005   -1.94414E+005    5.38930E+006   -1.18668E+005    8.79107E+004   -6.09978E+005
            8989    4.74354E+006    4.92315E+006    4.92315E+006    3.98598E+005   -1.26094E+004    4.93576E+006   -1.76971E+006    4.70319E+006    8.89872E+004    3.22047E+005    4.89811E+006   -1.84110E+005    1.32093E+005   -3.08780E+005
            8990    3.69899E+006    3.78149E+006    3.78149E+006    2.56673E+005   -6.99970E+004    3.85149E+006   -1.32272E+006    3.66633E+006    1.03839E+004    1.99250E+005    3.75853E+006   -1.44190E+005    4.49994E+004   -2.81468E+005
            8991    2.33560E+006    2.33889E+006    2.33889E+006    8.33074E+004   -6.92437E+004    2.40813E+006   -7.84318E+005    2.32435E+006   -3.86233E+004    6.17449E+004    2.32983E+006   -6.15746E+004    6.05823E+003   -1.43289E+005
            8992    4.32931E+006    4.21946E+006    4.21946E+006    2.78733E+004   -2.35543E+005    4.45501E+006   -1.33726E+006    4.31123E+006   -8.62673E+003   -8.30078E+004    4.10343E+006   -1.10044E+005    9.21080E+004   -6.97801E+005
            8993    2.85766E+006    2.82128E+006    2.82128E+006   -2.45309E+003   -6.91405E+004    2.89042E+006   -9.16561E+005    2.85591E+006   -2.12915E+004   -1.56588E+004    2.78663E+006   -3.31302E+004    2.53012E+004   -3.12161E+005
            8994    4.09420E+006    4.14824E+006    4.14824E+006    7.41227E+005   -3.93702E+005    4.54194E+006   -1.49859E+006    3.71482E+006    5.88992E+005    8.57853E+005    3.04892E+006   -6.49299E+005   -2.19498E+005    1.81577E+006
            8995    3.51106E+006    3.51529E+006    3.51529E+006    2.90163E+005   -2.24820E+005    3.74011E+006   -1.19355E+006    3.42454E+006    1.22920E+005    4.65861E+005    2.99185E+006   -3.16313E+005   -1.20706E+005    1.24086E+006
            8996    3.44675E+006    3.49021E+006    3.49021E+006    2.26535E+005   -1.14282E+005    3.60450E+006   -1.20082E+006    3.40853E+006    1.13455E+005    2.11525E+005    3.27749E+006   -1.89918E+005   -8.92688E+004    8.24124E+005
            8997    3.63460E+006    3.66919E+006    3.66919E+006    1.21049E+005   -4.61011E+004    3.71529E+006   -1.24805E+006    3.62594E+006    7.09590E+004    6.92827E+004    3.60390E+006   -8.89928E+004   -8.11235E+004    4.75830E+005
            8998    3.93431E+006    3.95703E+006    3.95703E+006    4.56470E+004    1.85238E+002    3.95684E+006   -1.33429E+006    3.93372E+006    3.84704E+004    1.58502E+004    3.94854E+006   -2.20459E+004   -9.12830E+004    1.57831E+005
            8999    2.86123E+006    3.15529E+006    3.15529E+006    7.85574E+005   -2.33006E+004    3.17859E+006   -1.30586E+006    2.58462E+006    5.19425E+005    1.23290E+006    2.16524E+006   -5.83067E+005   -1.25237E+005    1.30079E+006
            9000    2.62846E+006    2.80694E+006    2.80694E+006    4.93568E+005   -5.12239E+004    2.85816E+006   -1.08309E+006    2.49665E+006    1.25893E+005    7.10410E+005    2.41298E+006   -3.03603E+005   -7.26589E+004    8.90851E+005
            9001    2.82682E+006    2.97476E+006    2.97476E+006    3.42175E+005   -1.27634E+004    2.98752E+006   -1.10139E+006    2.77602E+006    1.12570E+005    3.58360E+005    2.83324E+006   -1.86530E+005   -5.86402E+004    6.00678E+005
            9002    3.18328E+006    3.26050E+006    3.26050E+006    1.61344E+005   -7.13317E+002    3.26121E+006   -1.14038E+006    3.17397E+006    7.22764E+004    1.31328E+005    3.21752E+006   -8.72821E+004   -5.40369E+004    3.61158E+005
            9003    3.51997E+006    3.54400E+006    3.54400E+006    4.58203E+004    2.63057E+003    3.54137E+006   -1.19748E+006    3.51938E+006    3.06763E+004    2.32797E+004    3.53850E+006   -2.32869E+004   -6.64986E+004    1.21829E+005
            9004    1.61954E+006    2.06502E+006    2.06502E+006    1.18174E+006    1.95870E+005    1.86915E+006   -1.14754E+006   -7.38679E+005    4.51499E+005    1.38841E+006    1.60272E+006   -5.24677E+005   -3.38901E+004    4.72264E+005
            9005    1.87008E+006    2.15826E+006    2.15826E+006    8.37400E+005    1.84010E+004    2.13986E+006   -1.00469E+006    1.36966E+006    1.29734E+005    8.04231E+005    2.08009E+006   -2.90071E+005   -2.58338E+004    3.15934E+005
            9006    2.38512E+006    2.59966E+006    2.59966E+006    4.65500E+005    2.49861E+004    2.57467E+006   -1.03005E+006    2.29090E+006    1.08630E+005    4.04276E+005    2.57724E+006   -1.75057E+005   -1.81032E+004    2.19306E+005
            9007    2.87840E+006    2.98245E+006    2.98245E+006    1.99729E+005    1.70729E+004    2.96538E+006   -1.06642E+006    2.86532E+006    6.99188E+004    1.53226E+005    2.97611E+006   -8.37738E+004   -2.04106E+004    1.31801E+005
            9008    3.23803E+006    3.26605E+006    3.26605E+006    4.99839E+004    6.50789E+003    3.25955E+006   -1.10752E+006    3.23737E+006    2.61015E+004    3.12347E+004    3.26521E+006   -2.19606E+004   -2.41544E+004    4.61893E+004
            9009    1.26071E+007    1.44076E+007    1.44076E+007    2.88933E+006    9.38907E+005    1.34687E+007   -6.07861E+006    1.22608E+007    2.32600E+006    2.14837E+006    1.37615E+007   -6.91620E+005    2.45333E+006    1.48504E+006
            9010    1.06789E+007    1.10742E+007    1.10742E+007    7.60316E+005    6.43469E+004    1.10099E+007   -3.96630E+006    1.06277E+007    9.72686E+004    8.06697E+005    1.09949E+007    8.09230E+004    5.74260E+005    7.06927E+005
            9011    9.86760E+006    1.02696E+007    1.02696E+007    6.20493E+005    1.97204E+005    1.00724E+007   -3.69578E+006    9.84714E+006    3.01945E+005    5.27194E+005    1.02582E+007    1.84592E+005    2.46373E+005    2.23741E+005
            9012    1.33673E+007    1.62654E+007    1.62654E+007    4.19916E+006    1.89612E+006    1.43692E+007   -7.45354E+006    1.29096E+007    3.04664E+006    3.91788E+006    1.53961E+007   -5.69531E+005    3.09284E+006    1.47272E+006
            9013    1.21219E+007    1.28132E+007    1.28132E+007    1.26105E+006    1.92472E+005    1.26208E+007   -4.75559E+006    1.20152E+007    2.36947E+005    1.28834E+006    1.27415E+007    5.50057E+004    7.43388E+005    5.63009E+005
            9014    1.14956E+007    1.20125E+007    1.20125E+007    7.06799E+005    3.35902E+005    1.16766E+007   -4.35172E+006    1.14821E+007    4.00664E+005    6.50777E+005    1.20037E+007    1.38086E+005    2.82920E+005    1.41441E+005
            9015    1.37326E+007    1.75380E+007    1.75380E+007    5.46027E+006    2.60073E+006    1.49373E+007   -8.53299E+006    1.30373E+007    3.63548E+006    5.40480E+006    1.65587E+007   -3.28366E+005    3.58466E+006    9.01366E+005
            9016    1.31050E+007    1.40319E+007    1.40319E+007    1.68677E+006    2.80469E+005    1.37514E+007   -5.33304E+006    1.29336E+007    3.35324E+005    1.69388E+006    1.39699E+007    3.13270E+004    8.65681E+005    2.97132E+005
            9017    1.26877E+007    1.32910E+007    1.32910E+007    7.55653E+005    4.56239E+005    1.28347E+007   -4.83429E+006    1.26797E+007    4.79206E+005    7.41017E+005    1.32827E+007    6.76502E+004    3.16145E+005    7.98870E+004
            9018    1.38025E+007    1.79331E+007    1.79331E+007    5.95319E+006    2.83980E+006    1.50933E+007   -8.90870E+006    1.29767E+007    3.84026E+006    5.95293E+006    1.69329E+007    2.41951E+004    3.75402E+006   -5.72586E+004
            9019    1.34178E+007    1.44193E+007    1.44193E+007    1.81232E+006    3.16079E+005    1.41032E+007   -5.51588E+006    1.32281E+007    3.74167E+005    1.81243E+006    1.43611E+007    2.04739E+003    9.03132E+005   -3.93441E+004
            9020    1.30465E+007    1.36769E+007    1.36769E+007    7.69076E+005    4.95964E+005    1.31809E+007   -4.98065E+006    1.30401E+007    5.04294E+005    7.68736E+005    1.36689E+007   -1.04353E+004    3.23887E+005   -1.79948E+004
            9021    1.36761E+007    1.73915E+007    1.73915E+007    5.32187E+006    2.53745E+006    1.48540E+007   -8.41693E+006    1.30152E+007    3.57160E+006    5.25602E+006    1.64232E+007    3.50687E+005    3.52934E+006   -9.90770E+005
            9022    1.29419E+007    1.38079E+007    1.38079E+007    1.58073E+006    2.53502E+005    1.35544E+007   -5.21404E+006    1.27874E+007    3.04375E+005    1.59166E+006    1.37461E+007   -2.62215E+004    8.28410E+005   -3.64639E+005
            9023    1.24406E+007    1.30206E+007    1.30206E+007    7.38218E+005    4.27496E+005    1.25931E+007   -4.72876E+006    1.24319E+007    4.60864E+005    7.12935E+005    1.30125E+007   -8.81965E+004    3.04843E+005   -8.96971E+004
            9024    1.32537E+007    1.60137E+007    1.60137E+007    4.01546E+006    1.78711E+006    1.42266E+007   -7.27209E+006    1.28220E+007    2.94593E+006    3.69389E+006    1.51765E+007    5.87840E+005    3.00367E+006   -1.47866E+006
            9025    1.18092E+007    1.24043E+007    1.24043E+007    1.12093E+006    1.31489E+005    1.22728E+007   -4.55223E+006    1.17154E+007    1.69624E+005    1.15064E+006    1.23364E+007   -6.29951E+004    6.73659E+005   -5.84790E+005
            9026    1.10806E+007    1.15601E+007    1.15601E+007    6.70994E+005    2.97476E+005    1.12626E+007   -4.17619E+006    1.10664E+007    3.74635E+005    6.03184E+005    1.15507E+007   -1.50343E+005    2.72552E+005   -1.68573E+005
            9027    3.94044E+006    3.96247E+006    3.96247E+006    4.53483E+004   -8.82874E+002    3.96335E+006   -1.33564E+006    3.93983E+006    3.82336E+004    1.47034E+004    3.95399E+006   -2.21962E+004    9.14612E+004   -1.57684E+005
            9028    3.63438E+006    3.66934E+006    3.66934E+006    1.22188E+005   -4.63884E+004    3.71573E+006   -1.24838E+006    3.62557E+006    7.16268E+004    6.99699E+004    3.60355E+006   -8.96869E+004    8.08915E+004   -4.77712E+005
            9029    3.44477E+006    3.48862E+006    3.48862E+006    2.28568E+005   -1.15101E+005    3.60372E+006   -1.20070E+006    3.40588E+006    1.14031E+005    2.14565E+005    3.27349E+006   -1.91673E+005    8.91698E+004   -8.28192E+005
            9030    3.51075E+006    3.51536E+006    3.51536E+006    2.92674E+005   -2.25791E+005    3.74115E+006   -1.19408E+006    3.42303E+006    1.24858E+005    4.71760E+005    2.98562E+006   -3.18890E+005    1.21359E+005   -1.24689E+006
            9031    4.09449E+006    4.14898E+006    4.14898E+006    7.42133E+005   -3.93426E+005    4.54241E+006   -1.49923E+006    3.71468E+006    5.89859E+005    8.61588E+005    3.04625E+006   -6.50148E+005    2.19359E+005   -1.81771E+006
            9032    3.52170E+006    3.54635E+006    3.54635E+006    4.58602E+004    3.81676E+003    3.54253E+006   -1.19867E+006    3.52113E+006    3.08964E+004    2.42337E+004    3.54089E+006   -2.27828E+004    6.66879E+004   -1.21018E+005
            9033    3.18864E+006    3.26510E+006    3.26510E+006    1.59434E+005   -4.86352E+002    3.26559E+006   -1.14135E+006    3.17960E+006    7.16896E+004    1.29634E+005    3.22273E+006   -8.61849E+004    5.41676E+004   -3.58940E+005
            9034    2.82980E+006    2.97715E+006    2.97715E+006    3.41014E+005   -1.30061E+004    2.99015E+006   -1.10172E+006    2.77932E+006    1.12224E+005    3.57177E+005    2.83575E+006   -1.86082E+005    5.83885E+004   -6.00883E+005
            9035    2.62435E+006    2.80522E+006    2.80522E+006    4.98919E+005   -5.02569E+004    2.85548E+006   -1.08463E+006    2.49009E+006    1.30379E+005    7.17760E+005    2.40575E+006   -3.07412E+005    7.28470E+004   -8.94793E+005
            9036    2.86226E+006    3.15668E+006    3.15668E+006    7.86571E+005   -2.32382E+004    3.17992E+006   -1.30667E+006    2.58507E+006    5.22968E+005    1.23774E+006    2.15930E+006   -5.84920E+005    1.25853E+005   -1.30381E+006
            9037    3.24005E+006    3.26652E+006    3.26652E+006    4.81763E+004    5.19895E+003    3.26132E+006   -1.10663E+006    3.23941E+006    2.51584E+004    2.90671E+004    3.26567E+006   -2.17709E+004    2.43187E+004   -4.63329E+004
            9038    2.88207E+006    2.98542E+006    2.98542E+006    1.98123E+005    1.71230E+004    2.96830E+006   -1.06689E+006    2.86924E+006    7.01409E+004    1.51452E+005    2.97908E+006   -8.33277E+004    2.05216E+004   -1.31933E+005
            9039    2.38418E+006    2.59919E+006    2.59919E+006    4.66263E+005    2.53207E+004    2.57387E+006   -1.03026E+006    2.28973E+006    1.08852E+005    4.04954E+005    2.57696E+006   -1.75047E+005    1.79717E+004   -2.18293E+005
            9040    1.86674E+006    2.15548E+006    2.15548E+006    8.39478E+005    1.90271E+004    2.13645E+006   -1.00466E+006    1.36251E+006    1.29252E+005    8.06097E+005    2.07863E+006   -2.89065E+005    2.61603E+004   -3.12624E+005
            9041    1.62159E+006    2.06885E+006    2.06885E+006    1.18403E+006    1.97317E+005    1.87153E+006   -1.15007E+006   -7.37647E+005    4.53665E+005    1.38969E+006    1.60684E+006   -5.25496E+005    3.45097E+004   -4.72935E+005
            9042    9.14920E+006    8.84841E+006    8.84841E+006    9.88775E+005   -1.19512E+006    1.00435E+007   -2.88069E+006    8.53268E+006    8.67683E+005   -9.51507E+005    8.72589E+006   -6.93929E+005    9.84119E+005   -2.09843E+004
            9043    8.14397E+006    7.58465E+006    7.58465E+006    8.50600E+005   -1.46689E+006    9.05154E+006   -2.32279E+006    7.34535E+006    7.31937E+005   -1.19541E+006    7.43183E+006   -7.29118E+005    7.17920E+005   -7.45416E+005
            9044    7.19459E+006    6.66413E+006    6.66413E+006    7.94072E+005   -1.36196E+006    8.02609E+006   -2.03208E+006    6.40495E+006    6.99237E+005   -9.37978E+005    6.33498E+006   -7.17016E+005    5.94342E+005   -1.35291E+006
            9045    6.16910E+006    5.77157E+006    5.77157E+006    7.50793E+005   -1.11509E+006    6.88665E+006   -1.80242E+006    5.47817E+006    6.46960E+005   -4.12045E+005    5.17236E+006   -7.08728E+005    4.44869E+005   -1.78550E+006
            9046    5.15434E+006    4.98473E+006    4.98473E+006    7.41470E+005   -7.51218E+005    5.73595E+006   -1.65833E+006    4.62930E+006    6.27436E+005    2.68305E+005    4.07924E+006   -6.87441E+005    3.36046E+005   -1.96020E+006
            9047    4.29123E+006    4.10952E+006    4.10952E+006    1.95090E+005   -4.78779E+005    4.58830E+006   -1.27528E+006    4.16969E+006    9.85869E+004    4.87596E+004    3.67848E+006   -3.14280E+005    1.58070E+005   -1.29703E+006
            9048    3.97646E+006    3.91499E+006    3.91499E+006    1.77092E+005   -2.63370E+005    4.17836E+006   -1.27624E+006    3.92102E+006    1.08518E+005   -3.09614E+004    3.75115E+006   -1.92521E+005    1.18587E+005   -7.87944E+005
            9049    3.98540E+006    3.97576E+006    3.97576E+006    9.67846E+004   -1.08151E+005    4.08392E+006   -1.32147E+006    3.97352E+006    6.48577E+004   -2.84622E+004    3.92800E+006   -8.71106E+004    9.32339E+004   -4.24846E+005
            9050    4.28287E+006    4.29830E+006    4.29830E+006    5.04617E+004   -1.87509E+004    4.31705E+006   -1.44334E+006    4.28161E+006    4.54395E+004   -7.80375E+003    4.29238E+006   -2.38645E+004    9.41658E+004   -1.28059E+005
            9051    4.97071E+006    4.62875E+006    4.62875E+006    1.51003E+005   -7.19839E+005    5.34859E+006   -1.35330E+006    4.79456E+006    8.61400E+004   -4.31495E+005    4.40527E+006   -2.99828E+005    2.08739E+005   -1.02454E+006
            9052    4.39359E+006    4.22720E+006    4.22720E+006    1.38656E+005   -4.18324E+005    4.64552E+006   -1.31584E+006    4.31309E+006    9.65471E+004   -3.15881E+005    4.16686E+006   -1.73284E+005    1.41860E+005   -4.95613E+005
            9053    4.18937E+006    4.12122E+006    4.12122E+006    7.02572E+004   -1.94056E+005    4.31527E+006   -1.33247E+006    4.17055E+006    5.01013E+004   -1.64452E+005    4.11177E+006   -7.84302E+004    1.01992E+005   -1.69880E+005
            9054    4.34425E+006    4.34313E+006    4.34313E+006    4.27907E+004   -4.37286E+004    4.38686E+006   -1.44740E+006    4.34231E+006    4.00874E+004   -3.95058E+004    4.34161E+006   -1.88084E+004    7.94733E+004   -1.47241E+004
            9055    5.66678E+006    5.16616E+006    5.16616E+006    8.72781E+004   -9.46252E+005    6.11241E+006   -1.43573E+006    5.44864E+006    4.79625E+004   -8.41854E+005    5.10107E+006   -2.53201E+005    2.47806E+005   -5.51895E+005
            9056    4.78886E+006    4.52487E+006    4.52487E+006    1.11612E+005   -5.67156E+005    5.09203E+006   -1.35644E+006    4.67880E+006    8.73792E+004   -5.35935E+005    4.51789E+006   -1.42538E+005    1.75631E+005   -8.05703E+003
            9057    4.21660E+006    4.10807E+006    4.10807E+006    3.67672E+004   -2.40174E+005    4.34824E+006   -1.30155E+006    4.19606E+006    3.12610E+004   -2.20759E+005    4.09416E+006   -4.18010E+004    1.09239E+005    2.19134E+005
            9058    4.07603E+006    4.06054E+006    4.06054E+006    2.70405E+004   -5.67266E+004    4.11727E+006   -1.34362E+006    4.07409E+006    2.61627E+004   -5.10119E+004    4.05570E+006   -9.87000E+003    5.59964E+004    1.29334E+005
            9059    6.30559E+006    5.78404E+006    5.78404E+006    9.25083E+004   -9.94312E+005    6.77835E+006   -1.62741E+006    6.08949E+006    6.18317E+004   -9.46001E+005    5.76641E+006   -2.21311E+005    3.15999E+005    4.74021E+004
            9060    4.97852E+006    4.72937E+006    4.72937E+006    8.33524E+004   -5.25634E+005    5.25500E+006   -1.42903E+006    4.89367E+006    8.29104E+004   -4.67099E+005    4.67128E+006   -5.44234E+004    2.07990E+005    5.05889E+005
            9061    4.10528E+006    3.98621E+006    3.98621E+006    1.35221E+004   -2.39916E+005    4.22613E+006   -1.25327E+006    4.08763E+006    1.57968E+004   -1.72666E+005    3.91669E+006    7.78164E+003    9.64349E+004    5.28397E+005
            9062    3.58907E+006    3.55896E+006    3.55896E+006    3.40142E+003   -6.26952E+004    3.62166E+006   -1.16656E+006    3.58770E+006    3.58860E+003   -4.64243E+004    3.54251E+006    5.70613E+003    3.52935E+004    2.40930E+005
            9063    6.54582E+006    6.20347E+006    6.20347E+006   -1.07319E+004   -6.29962E+005    6.83343E+006   -1.85426E+006    6.47943E+006    1.35149E+003   -5.73918E+005    6.13534E+006   -2.65558E+004    3.27979E+005    5.88066E+005
            9064    4.81908E+006    4.70537E+006    4.70537E+006    1.01107E+005   -3.03064E+005    5.00844E+006   -1.50114E+006    4.78072E+006    1.08387E+005   -1.99088E+005    4.59411E+006    2.67774E+004    1.80971E+005    7.13574E+005
            9065    3.91831E+006    3.81410E+006    3.81410E+006   -4.78823E+003   -1.96602E+005    4.01070E+006   -1.20424E+006    3.90773E+006   -1.86915E+004   -7.42829E+004    3.70568E+006    6.59530E+004    7.54470E+004    6.43422E+005
            9066    3.01688E+006    2.98853E+006    2.98853E+006   -2.11730E+003   -5.39106E+004    3.04244E+006   -9.77501E+005    3.01588E+006   -1.11220E+004   -1.95810E+004    2.96320E+006    2.15898E+004    1.91480E+004    2.75196E+005
            9067    2.51679E+006    2.49690E+006    2.49690E+006    1.98083E+004   -5.77967E+004    2.55469E+006   -8.19636E+005    2.51409E+006   -3.04758E+004    1.16889E+004    2.47770E+006    3.78632E+004    7.63284E+003    2.18178E+005
            9068    2.19439E+006    2.18935E+006    2.18935E+006    5.53077E+004   -6.07795E+004    2.25013E+006   -7.27958E+005    2.18746E+006   -4.04122E+004    3.82001E+004    2.18609E+006    4.41739E+004   -3.22471E+002    8.37269E+004
            9069    3.58974E+006    3.56663E+006    3.56663E+006    6.94244E+004   -1.08987E+005    3.67562E+006   -1.17569E+006    3.57974E+006   -7.73680E+003    4.76582E+004    3.48715E+006    9.72474E+004    5.16736E+004    5.24774E+005
            9070    3.29110E+006    3.34317E+006    3.34317E+006    2.01221E+005   -7.91471E+004    3.42232E+006   -1.15508E+006    3.26407E+006   -9.97247E+003    1.44855E+005    3.33036E+006    1.22453E+005    2.43432E+004    1.99972E+005
            9071    4.53919E+006    4.53038E+006    4.53038E+006    9.57007E+004   -1.06562E+005    4.63694E+006   -1.50651E+006    4.52903E+006    3.26537E+004    4.24867E+004    4.44438E+006    1.12939E+005    1.23906E+005    6.05505E+005
            9072    4.20364E+006    4.31649E+006    4.31649E+006    3.34732E+005   -7.85069E+004    4.39499E+006   -1.52424E+006    4.15757E+006    1.70675E+004    2.54972E+005    4.30067E+006    1.76520E+005    3.71952E+004    2.49096E+005
            9073    6.00518E+006    5.95839E+006    5.95839E+006    7.97180E+004   -1.65764E+005    6.12416E+006   -1.95745E+006    5.99388E+006    5.49747E+004   -5.46235E+004    5.87200E+006    1.11406E+005    2.26805E+005    6.79055E+005
            9074    5.24718E+006    5.42522E+006    5.42522E+006    4.25163E+005   -3.83345E+004    5.46355E+006   -1.93735E+006    5.20082E+006    6.43666E+004    3.41430E+005    5.40625E+006    1.96750E+005    8.93270E+004    2.94612E+005
            9075    6.44935E+006    6.69652E+006    6.69652E+006    4.97799E+005    2.28033E+004    6.67372E+006   -2.40571E+006    6.40982E+006    1.35613E+005    4.01833E+005    6.67968E+006    2.06740E+005    1.67397E+005    2.75893E+005
            9076    8.07899E+006    8.38900E+006    8.38900E+006    5.56953E+005    8.38468E+004    8.30515E+006   -3.00993E+006    8.04774E+006    2.06518E+005    4.45285E+005    8.37799E+006    2.10096E+005    1.94662E+005    2.19920E+005
            9077    7.59437E+006    7.51827E+006    7.51827E+006   -1.31724E+004   -1.37504E+005    7.65577E+006   -2.45586E+006    7.59208E+006   -4.50770E+004   -3.47471E+004    7.44742E+006    8.46134E+004    2.83107E+005    6.71409E+005
            9078    9.21042E+006    9.34703E+006    9.34703E+006    2.65538E+005    1.28646E+004    9.33416E+006   -3.20848E+006    9.20262E+006    4.24728E+004    3.20411E+005    9.26254E+006    8.19010E+004    4.40964E+005    7.53671E+005
            9079    1.14624E+007    1.23229E+007    1.23229E+007    1.89674E+006    4.88392E+004    1.22740E+007   -4.75615E+006    1.11198E+007    1.66833E+006    6.98818E+005    1.19013E+007   -6.53057E+005    1.84751E+006    1.19605E+006
            9080    1.02054E+007    1.03722E+007    1.03722E+007    1.26213E+006   -6.56184E+005    1.10284E+007   -3.65939E+006    9.78733E+006    1.15048E+006   -3.21522E+005    1.01492E+007   -6.18412E+005    1.33962E+006    6.39961E+005


  Minimum           9.51431E+005    1.30324E+006    1.30324E+006   -6.38009E+004   -2.34844E+006    9.86249E+005   -1.15451E+007   -7.96163E+005   -4.24955E+005   -2.30388E+006    1.08708E+006   -8.27081E+005   -3.75402E+006   -2.20787E+006
      At Element            7042            8350            8350            8883            6987            7042            6949            8924            8089            7081            8350            8732            4876            6940

  Maximum           1.51053E+007    1.91052E+007    1.91052E+007    8.72395E+006    7.67905E+006    1.53736E+007   -6.48598E+005    1.50826E+007    8.72419E+006    7.67931E+006    1.91052E+007    8.27081E+005    3.75402E+006    2.20926E+006
      At Element            8691            6947            6947            6949            6949            8691            8350            8691            6949            6949            6947            5026            9018            7047

           Total    2.63621E+010    3.08134E+010    3.08134E+010    7.73085E+009    2.30534E+009    2.85081E+010   -1.36165E+010    2.44734E+010    7.44587E+009    3.19109E+009    3.02126E+010    0.00000E+000    0.00000E+000   -1.29322E+006


