********************************************************************************
Field Output Report, written Sun Apr 16 11:13:06 2023

Source 1
---------

   ODB: C:/Temp/13_shear.odb
   Step: Loading_step
   Frame: Increment      1: Step Time =    1.000

Loc 1 : Centroidal values from source 1

Output sorted by column "Element Label".

Field Output reported at element centroid for region: PART-1-1.Region_1

         Element         S.Mises     S.Max. Prin  S.Max. Prin(a)     S.Mid. Prin     S.Min. Prin        S.Tresca      S.Pressure     S.Third Inv           S.S11           S.S22           S.S33           S.S12           S.S13           S.S23
           Label          @Loc 1          @Loc 1          @Loc 1          @Loc 1          @Loc 1          @Loc 1          @Loc 1          @Loc 1          @Loc 1          @Loc 1          @Loc 1          @Loc 1          @Loc 1          @Loc 1
-------------------------------------------------------------------------------------------------------------------------------------------------------------------------------------------------------------------------------------------------
               1    4.74227E+004    3.58898E+004    3.58898E+004    2.98840E+003   -1.84692E+004    5.43590E+004   -6.80299E+003    3.35769E+004    7.41807E+003    4.53917E+002    1.25370E+004   -8.84470E+002    1.94717E+004   -1.82462E+004
               2    6.82929E+004    4.66811E+004    4.66811E+004    2.01436E+003   -3.19335E+004    7.86146E+004   -5.58733E+003    4.20537E+004    7.69561E+003   -8.15787E+003    1.72243E+004   -1.26904E+003    2.12259E+004   -3.06283E+004
               3    6.99208E+004    5.36824E+004    5.36824E+004    5.84792E+003   -2.65625E+004    8.02450E+004   -1.09893E+004    4.80987E+004    9.84430E+003   -4.07163E+002    2.35306E+004   -7.66830E+002    2.27406E+004   -3.11075E+004
               4    6.73005E+004    5.18529E+004    5.18529E+004    2.46412E+003   -2.48022E+004    7.66551E+004   -9.83827E+003    5.25223E+004    9.57326E+003   -6.08050E+003    2.60220E+004   -8.66281E+002    2.43248E+004   -2.56836E+004
               5    7.94754E+004    5.23481E+004    5.23481E+004   -1.57221E+004   -3.49897E+004    8.73378E+004   -5.45461E+002    7.39415E+004   -1.02720E+004   -2.41976E+004    3.61060E+004   -4.71406E+003    1.84121E+004   -2.73373E+004
               6    9.60691E+004    7.32569E+004    7.32569E+004   -1.22677E+004   -3.06891E+004    1.03946E+005   -1.01000E+004    9.19687E+004   -8.24454E+003   -1.62357E+004    5.47804E+004   -3.27212E+003    2.08463E+004   -3.34355E+004
               7    1.10650E+005    8.34153E+004    8.34153E+004   -1.61208E+004   -3.57275E+004    1.19143E+005   -1.05223E+004    1.06636E+005   -1.20844E+004   -2.27762E+004    6.64276E+004   -3.10915E+003    2.18830E+004   -3.49283E+004
               8    1.12653E+005    9.27938E+004    9.27938E+004   -1.41119E+004   -2.48390E+004    1.17633E+005   -1.79476E+004    1.11495E+005   -1.07965E+004   -1.59084E+004    8.05479E+004   -1.79707E+003    2.35532E+004   -2.69559E+004
               9    1.10694E+005    8.44511E+004    8.44511E+004    2.06711E+003   -4.13743E+004    1.25825E+005   -1.50479E+004    8.82041E+004    6.77318E+003   -2.93015E+004    6.76721E+004   -7.00801E+003    1.78663E+004   -3.62457E+004
              10    1.35507E+005    1.06566E+005    1.06566E+005    5.49882E+003   -4.74150E+004    1.53981E+005   -2.15498E+004    1.08306E+005    1.03517E+004   -3.43132E+004    8.86110E+004   -5.57201E+003    2.09278E+004   -4.21910E+004
              11    1.44442E+005    1.26827E+005    1.26827E+005    6.37147E+003   -3.33085E+004    1.60135E+005   -3.32965E+004    1.31316E+005    1.05916E+004   -2.33491E+004    1.12647E+005   -4.71483E+003    2.17152E+004   -3.80839E+004
              12    1.58419E+005    1.41062E+005    1.41062E+005    6.92936E+003   -3.37211E+004    1.74783E+005   -3.80902E+004    1.45977E+005    1.12960E+004   -2.70979E+004    1.30072E+005   -3.63041E+003    2.36286E+004   -3.28634E+004
              13    1.73008E+005    1.14501E+005    1.14501E+005   -2.09804E+004   -8.03831E+004    1.94884E+005   -4.37914E+003    1.47294E+005   -1.88750E+004   -6.51908E+004    9.72033E+004   -1.08465E+004    1.65425E+004   -5.08669E+004
              14    1.82275E+005    1.43438E+005    1.43438E+005   -1.27704E+004   -5.68269E+004    2.00265E+005   -2.46136E+004    1.69664E+005   -1.00590E+004   -4.55079E+004    1.29408E+005   -6.67728E+003    1.96437E+004   -4.57571E+004
              15    2.05356E+005    1.63522E+005    1.63522E+005   -2.07336E+004   -5.78674E+004    2.21390E+005   -2.83071E+004    1.97590E+005   -1.85987E+004   -4.73569E+004    1.50877E+005   -6.78072E+003    1.94050E+004   -4.64790E+004
              16    2.22645E+005    1.90782E+005    1.90782E+005   -1.71388E+004   -4.41280E+004    2.34910E+005   -4.31717E+004    2.18920E+005   -1.48905E+004   -3.82725E+004    1.82678E+005   -4.11661E+003    2.12069E+004   -3.63842E+004
              17    2.06347E+005    1.55431E+005    1.55431E+005    1.04219E+004   -8.08061E+004    2.36237E+005   -2.83488E+004    1.49734E+005    1.29164E+004   -6.92329E+004    1.41363E+005   -1.14037E+004    1.87488E+004   -4.94485E+004
              18    2.17785E+005    1.73046E+005    1.73046E+005    1.57249E+004   -7.55196E+004    2.48565E+005   -3.77504E+004    1.65788E+005    1.86904E+004   -6.22144E+004    1.56775E+005   -9.48143E+003    2.05260E+004   -5.51113E+004
              19    2.38656E+005    2.09401E+005    2.09401E+005    1.51361E+004   -5.70026E+004    2.66404E+005   -5.58448E+004    2.11963E+005    1.76188E+004   -4.61976E+004    1.96113E+005   -8.22142E+003    2.14390E+004   -5.18057E+004
              20    2.63715E+005    2.38234E+005    2.38234E+005    1.62902E+004   -5.32955E+004    2.91530E+005   -6.70763E+004    2.41731E+005    1.86681E+004   -4.61409E+004    2.28702E+005   -6.41399E+003    2.26554E+004   -4.45565E+004
              21    2.53589E+005    1.65874E+005    1.65874E+005   -3.95606E+004   -1.17551E+005    2.83424E+005   -2.92077E+003    2.24126E+005   -3.91525E+004   -1.06714E+005    1.54628E+005   -1.26066E+004    1.58245E+004   -5.12247E+004
              22    2.68532E+005    2.06079E+005    2.06079E+005   -2.52771E+004   -8.83874E+004    2.94467E+005   -3.08049E+004    2.51020E+005   -2.39249E+004   -7.63438E+004    1.92683E+005   -7.87325E+003    1.80682E+004   -5.75125E+004
              23    3.03744E+005    2.41441E+005    2.41441E+005   -3.05145E+004   -8.63464E+004    3.27787E+005   -4.15266E+004    2.91863E+005   -2.96879E+004   -7.61248E+004    2.30393E+005   -7.98375E+003    1.73001E+004   -5.56657E+004
              24    3.29057E+005    2.82885E+005    2.82885E+005   -2.66462E+004   -6.27236E+004    3.45609E+005   -6.45052E+004    3.24563E+005   -2.58521E+004   -5.66410E+004    2.76009E+005   -5.82734E+003    1.80368E+004   -4.41161E+004
              25    2.61680E+005    2.04957E+005    2.04957E+005    5.71902E+004   -9.71808E+004    3.02138E+005   -5.49889E+004   -8.78584E+004    6.53123E+004   -8.28026E+004    1.82457E+005   -1.96369E+004    3.20793E+004   -6.11572E+004
              26    3.03486E+005    2.37823E+005    2.37823E+005    4.23422E+004   -1.11799E+005    3.49622E+005   -5.61221E+004    1.78381E+005    4.69226E+004   -1.00852E+005    2.22295E+005   -1.26834E+004    2.88982E+004   -5.94628E+004
              27    3.13750E+005    2.80799E+005    2.80799E+005    3.72683E+004   -7.32563E+004    3.54055E+005   -8.16036E+004    2.64302E+005    4.05797E+004   -6.53991E+004    2.69630E+005   -1.00270E+004    2.82749E+004   -5.08880E+004
              28    3.46342E+005    3.29031E+005    3.29031E+005    3.49202E+004   -5.27096E+004    3.81740E+005   -1.03747E+005    3.19942E+005    3.77174E+004   -4.69882E+004    3.20512E+005   -7.79505E+003    2.88436E+004   -4.53595E+004
              29    4.09124E+005    3.64731E+005    3.64731E+005   -3.59015E+004   -5.23864E+004    4.17118E+005   -9.21478E+004    4.08376E+005   -4.52785E+004   -3.95561E+004    3.61278E+005   -9.54964E+003    2.20742E+004   -2.97368E+004
              30    3.66385E+005    2.98489E+005    2.98489E+005   -4.53847E+004   -8.68753E+004    3.85364E+005   -5.54097E+004    3.61043E+005   -4.49499E+004   -8.34963E+004    2.94675E+005   -6.83420E+003    1.89250E+004   -3.21518E+004
              31    3.21921E+005    2.34521E+005    2.34521E+005   -5.38544E+004   -1.12799E+005    3.47321E+005   -2.26226E+004    3.09429E+005   -5.33278E+004   -1.10980E+005    2.32176E+005    1.38028E+003    1.34738E+004   -2.44052E+004
              32    3.36627E+005    1.86931E+005    1.86931E+005   -9.92954E+004   -1.83940E+005    3.70871E+005    3.21016E+004    3.11304E+005   -1.00169E+005   -1.81269E+005    1.85133E+005    8.56623E+003    1.82393E+002   -2.57224E+004
              33    4.16514E+004    2.73773E+004    2.73773E+004   -6.91719E+003   -1.89720E+004    4.63493E+004   -4.96024E+002    3.74143E+004   -3.76191E+002   -8.03267E+003    9.89693E+003   -9.32434E+002    2.16677E+004    5.19462E+003
              34    5.61975E+004    4.68698E+004    4.68698E+004   -7.71584E+003   -1.08116E+004    5.76814E+004   -9.44747E+003    5.60052E+004    6.50350E+003   -1.02487E+004    3.20876E+004   -2.83058E+003    2.41095E+004   -2.97460E+003
              35    1.01752E+005    7.04238E+004    7.04238E+004   -4.04334E+003   -4.55149E+004    1.15939E+005   -6.95520E+003    7.90763E+004    8.75112E+003   -4.09986E+004    5.31131E+004   -3.54973E+003    2.80805E+004   -2.08178E+004
              36    1.49126E+005    1.05628E+005    1.05628E+005    1.07247E+004   -6.62575E+004    1.71885E+005   -1.66983E+004    8.41044E+004    2.19744E+004   -5.82707E+004    8.63911E+004   -2.18696E+003    3.13061E+004   -3.42838E+004
              37    2.14974E+005    1.39513E+005    1.39513E+005    1.00026E+004   -1.08638E+005    2.48151E+005   -1.36260E+004    9.09719E+004    1.82228E+004   -9.71279E+004    1.19783E+005   -1.76466E+003    3.23879E+004   -5.07349E+004
              38    2.59942E+005    1.93790E+005    1.93790E+005    3.50395E+004   -1.06195E+005    2.99985E+005   -4.08781E+004    1.21024E+005    4.04902E+004   -9.72901E+004    1.79434E+005    5.47231E+003    3.22954E+004   -4.80223E+004
              39    2.80284E+005    1.87872E+005    1.87872E+005    1.07640E+002   -1.34303E+005    3.22175E+005   -1.78924E+004    1.83820E+005    8.43462E+002   -1.28653E+005    1.81486E+005    3.34418E+003    1.37355E+004   -4.14971E+004
              40    4.62583E+005    4.30458E+005    4.30458E+005   -7.97773E+003   -5.29833E+004    4.83441E+005   -1.23166E+005    4.57619E+005   -5.05421E+004   -7.56284E+003    4.27602E+005   -8.76168E+003    2.38275E+004   -2.66531E+004
              41    5.03113E+005    4.80253E+005    4.80253E+005    1.91540E+004   -5.63406E+004    5.36594E+005   -1.47689E+005    4.90126E+005   -5.48597E+004    1.93215E+004    4.78605E+005   -5.46718E+003    2.50863E+004   -1.44981E+004
              42    5.20687E+005    5.01228E+005    5.01228E+005    2.93369E+004   -5.73699E+004    5.58598E+005   -1.57732E+005    5.04060E+005   -5.61699E+004    2.93375E+004    5.00027E+005    5.47411E-001    2.58628E+004   -5.37167E+002
              43    5.04714E+005    4.81211E+005    4.81211E+005    1.83762E+004   -5.69220E+004    5.38133E+005   -1.47555E+005    4.91839E+005   -5.54828E+004    1.86583E+004    4.79490E+005    5.44352E+003    2.47828E+004    1.60839E+004
              44    4.65216E+005    4.32720E+005    4.32720E+005   -7.27702E+003   -5.41645E+004    4.86885E+005   -1.23760E+005    4.59855E+005   -5.16354E+004   -7.09406E+003    4.30008E+005    9.05220E+003    2.41282E+004    2.53159E+004
              45    4.16391E+005    3.65593E+005    3.65593E+005   -4.19487E+004   -5.91177E+004    4.24710E+005   -8.81754E+004    4.15594E+005   -4.92912E+004   -4.80907E+004    3.61908E+005    1.02557E+004    2.06679E+004    3.26194E+004
              46    3.69073E+005    2.99933E+005    2.99933E+005   -4.81958E+004   -8.70166E+004    3.86949E+005   -5.49068E+004    3.64438E+005   -4.74028E+004   -8.41446E+004    2.96268E+005    5.19930E+003    1.94492E+004    3.11590E+004
              47    3.48454E+005    2.42003E+005    2.42003E+005   -6.81531E+004   -1.35050E+005    3.77052E+005   -1.29332E+004    3.33544E+005   -6.78444E+004   -1.32145E+005    2.38789E+005    5.48352E+002    9.79250E+003    3.29445E+004
              48    3.14154E+005    2.32931E+005    2.32931E+005    3.54434E+003   -1.25133E+005    3.58064E+005   -3.71143E+004    2.43279E+005    4.42187E+003   -1.17670E+005    2.24591E+005   -7.18333E+003    2.05615E+004    4.83328E+004
              49    3.73088E+005    3.76248E+005    3.76248E+005    3.77277E+004   -2.37667E+004    4.00015E+005   -1.30070E+005    3.61422E+005    4.07241E+004   -2.10438E+004    3.70529E+005   -4.96006E+003    3.18761E+004   -3.22229E+004
              50    3.57197E+005    3.14838E+005    3.14838E+005   -2.99059E+004   -5.36310E+004    3.68469E+005   -7.71003E+004    3.55418E+005   -2.93226E+004   -5.03276E+004    3.10951E+005   -4.74196E+003    1.81763E+004   -3.24379E+004
              51    2.80262E+005    2.64683E+005    2.64683E+005    1.67236E+004   -3.93904E+004    3.04074E+005   -8.06721E+004    2.67181E+005    1.89990E+004   -3.65864E+004    2.59604E+005   -3.99614E+003    2.36404E+004   -2.86807E+004
              52    2.39198E+005    2.06099E+005    2.06099E+005   -2.15193E+004   -4.32019E+004    2.49301E+005   -4.71259E+004    2.36972E+005   -1.94810E+004   -4.05616E+004    2.01420E+005   -3.16107E+003    2.14458E+004   -2.52142E+004
              53    1.63909E+005    1.53842E+005    1.53842E+005    8.42660E+003   -2.37796E+004    1.77622E+005   -4.61630E+004    1.56551E+005    1.26433E+004   -2.15200E+004    1.47366E+005   -2.03449E+003    2.43767E+004   -1.95896E+004
              54    1.16599E+005    9.53627E+004    9.53627E+004   -1.79532E+004   -2.42626E+004    1.19625E+005   -1.77157E+004    1.16214E+005   -1.37224E+004   -2.03167E+004    8.71861E+004   -1.36994E+003    2.42629E+004   -1.76269E+004
              55    5.79263E+004    5.10445E+004    5.10445E+004    3.33074E+003   -1.34080E+004    6.44525E+004   -1.36558E+004    5.20536E+004    1.16531E+004   -9.40647E+002    3.02548E+004   -2.82430E+002    2.52009E+004   -1.53956E+004
              56    3.96051E+005    4.09205E+005    4.09205E+005    4.03253E+004   -9.33437E+003    4.18539E+005   -1.46732E+005    3.88954E+005    4.35004E+004   -8.52143E+003    4.05217E+005   -2.23363E+003    3.40679E+004   -1.82353E+004
              57    3.74279E+005    3.38188E+005    3.38188E+005   -2.98160E+004   -4.20644E+004    3.80253E+005   -8.87693E+004    3.73827E+005   -2.90557E+004   -4.13945E+004    3.36758E+005   -2.10224E+003    1.84121E+004   -1.37687E+004
              58    2.91888E+005    2.79076E+005    2.79076E+005    1.82356E+004   -3.61974E+004    3.15273E+005   -8.70379E+004    2.80126E+005    2.05320E+004   -3.56314E+004    2.76213E+005   -1.88006E+003    2.43790E+004   -1.31399E+004
              59    2.47535E+005    2.18583E+005    2.18583E+005   -1.99415E+004   -3.70729E+004    2.55656E+005   -5.38561E+004    2.46196E+005   -1.78791E+004   -3.68092E+004    2.16257E+005   -7.98997E+002    2.20714E+004   -8.16645E+003
              60    1.68558E+005    1.58521E+005    1.58521E+005    9.09063E+003   -2.41977E+004    1.82719E+005   -4.78048E+004    1.60912E+005    1.34514E+004   -2.39147E+004    1.53878E+005   -9.05457E+002    2.51364E+004   -7.09597E+003
              61    1.16852E+005    9.88415E+004    9.88415E+004   -1.69083E+004   -1.90814E+004    1.17923E+005   -2.09506E+004    1.16806E+005   -1.31989E+004   -1.71319E+004    9.31826E+004   -1.36173E+002    2.47878E+004   -4.47345E+003
              62    5.42187E+004    4.87009E+004    4.87009E+004   -3.03902E+003   -7.69616E+003    5.63971E+004   -1.26552E+004    5.37659E+004    1.16553E+004   -4.16073E+003    3.04712E+004   -3.20703E+002    2.57258E+004   -4.16877E+003
              63    4.04486E+005    4.21206E+005    4.21206E+005    4.08953E+004   -3.75016E+003    4.24957E+005   -1.52784E+005    3.98886E+005    4.41191E+004   -3.73680E+003    4.17969E+005    2.75708E+002    3.48657E+004    2.36043E+003
              64    3.80325E+005    3.44306E+005    3.44306E+005   -3.16294E+004   -4.02615E+004    3.84567E+005   -9.08049E+004    3.80104E+005   -3.07203E+004   -4.02249E+004    3.43360E+005    3.71841E+002    1.85101E+004    3.49397E+003
              65    2.95807E+005    2.84069E+005    2.84069E+005    1.75958E+004   -3.42230E+004    3.18292E+005   -8.91474E+004    2.85326E+005    1.98382E+004   -3.40805E+004    2.81685E+005    8.67802E+002    2.43413E+004    6.65241E+003
              66    2.49901E+005    2.19344E+005    2.19344E+005   -2.20347E+004   -3.82859E+004    2.57630E+005   -5.30077E+004    2.48708E+005   -2.00395E+004   -3.81035E+004    2.17166E+005    6.17486E+002    2.18464E+004    6.82377E+003
              67    1.69668E+005    1.60480E+005    1.60480E+005    9.13735E+003   -2.29346E+004    1.83415E+005   -4.88943E+004    1.62637E+005    1.33561E+004   -2.25618E+004    1.55889E+005    8.80454E+002    2.49049E+004    8.14356E+003
              68    1.17900E+005    9.82838E+004    9.82838E+004   -1.83050E+004   -2.08846E+004    1.19168E+005   -1.96980E+004    1.17836E+005   -1.43107E+004   -1.89954E+004    9.24003E+004    3.36488E+002    2.46384E+004    7.52236E+003
              69    5.46839E+004    4.98546E+004    4.98546E+004    2.96303E+001   -8.65010E+003    5.85047E+004   -1.37447E+004    5.31009E+004    1.23019E+004   -2.23850E+003    3.11707E+004    3.15073E+002    2.56041E+004    7.77836E+003
              70    3.95731E+005    4.08948E+005    4.08948E+005    4.06914E+004   -9.47365E+003    4.18421E+005   -1.46722E+005    3.88481E+005    4.39085E+004   -8.47252E+003    4.04729E+005    2.51559E+003    3.42618E+004    2.02199E+004
              71    3.73745E+005    3.35245E+005    3.35245E+005   -3.01068E+004   -4.63625E+004    3.81608E+005   -8.62586E+004    3.72948E+005   -2.95022E+004   -4.46079E+004    3.32886E+005    3.38174E+003    1.81831E+004    2.33215E+004
              72    2.89344E+005    2.75887E+005    2.75887E+005    1.88729E+004   -3.74920E+004    3.13379E+005   -8.57559E+004    2.76584E+005    2.11750E+004   -3.57058E+004    2.71798E+005    2.81548E+003    2.41613E+004    2.33908E+004
              73    2.45815E+005    2.14167E+005    2.14167E+005   -2.03283E+004   -4.15855E+004    2.55753E+005   -5.07512E+004    2.43734E+005   -1.83217E+004   -3.94289E+004    2.10004E+005    2.85587E+003    2.16165E+004    2.31011E+004
              74    1.66980E+005    1.56053E+005    1.56053E+005    9.66678E+003   -2.58174E+004    1.81870E+005   -4.66341E+004    1.58160E+005    1.39257E+004   -2.33163E+004    1.49293E+005    1.89697E+003    2.46338E+004    2.08050E+004
              75    1.18414E+005    9.76866E+004    9.76866E+004   -1.74670E+004   -2.37392E+004    1.21426E+005   -1.88268E+004    1.18040E+005   -1.36303E+004   -1.89665E+004    8.90771E+004    1.50126E+003    2.42522E+004    1.93678E+004
              76    6.06943E+004    5.16198E+004    5.16198E+004    3.55747E+003   -1.65849E+004    6.82047E+004   -1.28641E+004    5.23413E+004    1.21090E+004   -2.81332E+003    2.92968E+004    2.65640E+002    2.51664E+004    1.83390E+004
              77    3.74281E+005    3.73272E+005    3.73272E+005    3.76400E+004   -3.03399E+004    4.03612E+005   -1.26857E+005    3.59997E+005    4.05939E+004   -2.67023E+004    3.66681E+005    5.74033E+003    3.15315E+004    3.74131E+004
              78    3.53633E+005    3.10660E+005    3.10660E+005   -2.95048E+004   -5.50540E+004    3.65714E+005   -7.53672E+004    3.51547E+005   -2.88589E+004   -5.05617E+004    3.05522E+005    5.11878E+003    1.83317E+004    3.84300E+004
              79    2.77710E+005    2.56623E+005    2.56623E+005    1.61881E+004   -4.73502E+004    3.03973E+005   -7.51536E+004    2.60592E+005    1.83920E+004   -4.20065E+004    2.49075E+005    5.74236E+003    2.29297E+004    3.93742E+004
              80    2.33598E+005    1.99469E+005    1.99469E+005   -2.10797E+004   -4.52916E+004    2.44761E+005   -4.43659E+004    2.30749E+005   -1.90666E+004   -4.00498E+004    1.92214E+005    4.15269E+003    2.08298E+004    3.51253E+004
              81    1.62419E+005    1.46882E+005    1.46882E+005    8.12436E+003   -3.17661E+004    1.78648E+005   -4.10801E+004    1.50796E+005    1.23019E+004   -2.57515E+004    1.36690E+005    3.69244E+003    2.34698E+004    3.17955E+004
              82    1.16801E+005    9.40880E+004    9.40880E+004   -1.67220E+004   -2.78994E+004    1.21987E+005   -1.64889E+004    1.15588E+005   -1.34744E+004   -1.87210E+004    8.16620E+004    1.91229E+003    2.33174E+004    2.84177E+004
              83    6.75842E+004    5.33145E+004    5.33145E+004    4.73154E+003   -2.38674E+004    7.71819E+004   -1.13929E+004    5.10356E+004    1.14625E+004   -3.62793E+003    2.63441E+004    8.75255E+002    2.41951E+004    2.66794E+004
              84    3.43713E+005    3.27495E+005    3.27495E+005    3.82738E+004   -5.24927E+004    3.79987E+005   -1.04425E+005    3.15013E+005    4.13706E+004   -4.62572E+004    3.18163E+005    7.38943E+003    2.97211E+004    4.75325E+004
              85    3.27736E+005    2.75135E+005    2.75135E+005   -2.79791E+004   -7.26423E+004    3.47777E+005   -5.81712E+004    3.20782E+005   -2.72828E+004   -6.44639E+004    2.66260E+005    7.28229E+003    1.78440E+004    5.10960E+004
              86    2.55912E+005    2.30608E+005    2.30608E+005    1.86436E+004   -5.36840E+004    2.84292E+005   -6.51892E+004    2.31185E+005    2.10862E+004   -4.46116E+004    2.19093E+005    6.88631E+003    2.22447E+004    4.94394E+004
              87    2.18389E+005    1.79658E+005    1.79658E+005   -1.87098E+004   -5.43628E+004    2.34021E+005   -3.55286E+004    2.11692E+005   -1.65701E+004   -4.56993E+004    1.68855E+005    5.91975E+003    2.02163E+004    4.37033E+004
              88    1.53268E+005    1.35005E+005    1.35005E+005    9.11248E+003   -3.56643E+004    1.70669E+005   -3.61510E+004    1.37355E+005    1.34006E+004   -2.58776E+004    1.20930E+005    4.29956E+003    2.25613E+004    3.90706E+004
              89    1.12751E+005    8.69626E+004    8.69626E+004   -1.62873E+004   -3.33455E+004    1.20308E+005   -1.24433E+004    1.09791E+005   -1.24494E+004   -2.09880E+004    7.07672E+004    2.89457E+003    2.23446E+004    3.40652E+004
              90    7.18027E+004    5.44608E+004    5.44608E+004    6.17629E+003   -2.80517E+004    8.25124E+004   -1.08618E+004    4.75214E+004    1.11537E+004   -2.63489E+003    2.40666E+004    7.67504E+002    2.30639E+004    3.17443E+004
              91    3.19460E+005    2.77506E+005    2.77506E+005    3.63405E+004   -8.48081E+004    3.62314E+005   -7.63461E+004    2.59664E+005    3.96862E+004   -7.51663E+004    2.64518E+005    1.14768E+004    2.82682E+004    5.68596E+004
              92    2.94680E+005    2.36579E+005    2.36579E+005   -2.91311E+004   -8.03546E+004    3.16934E+005   -4.23646E+004    2.84404E+005   -2.81643E+004   -6.96834E+004    2.24941E+005    7.72976E+003    1.77613E+004    5.60233E+004
              93    2.36874E+005    1.98860E+005    1.98860E+005    1.37412E+004   -6.80769E+004    2.66937E+005   -4.81747E+004    2.01184E+005    1.61454E+004   -5.63283E+004    1.84707E+005    9.77126E+003    2.07788E+004    5.36832E+004
              94    2.00663E+005    1.57980E+005    1.57980E+005   -2.02629E+004   -5.93500E+004    2.17330E+005   -2.61225E+004    1.91815E+005   -1.81637E+004   -4.75717E+004    1.44103E+005    7.06947E+003    1.88143E+004    4.86017E+004
              95    1.41820E+005    1.16622E+005    1.16622E+005    5.88125E+003   -4.32241E+004    1.59846E+005   -2.64264E+004    1.20333E+005    1.02747E+004   -3.10739E+004    1.00078E+005    5.95383E+003    2.07802E+004    4.17269E+004
              96    1.05602E+005    7.91194E+004    7.91194E+004   -1.57559E+004   -3.46568E+004    1.13776E+005   -9.56888E+003    1.01692E+005   -1.21161E+004   -1.99073E+004    6.07301E+004    3.26077E+003    2.08131E+004    3.59886E+004
              97    6.99106E+004    4.94838E+004    4.94838E+004    4.55388E+003   -3.10628E+004    8.05465E+004   -7.65829E+003    4.07912E+004    9.86372E+003   -4.90716E+003    1.80183E+004    1.26756E+003    2.15672E+004    3.20527E+004
              98    2.86817E+005    2.40050E+005    2.40050E+005    4.78174E+004   -8.96234E+004    3.29673E+005   -6.60813E+004    1.88321E+005    5.26788E+004   -7.82385E+004    2.23804E+005    1.18059E+004    2.93297E+004    5.89882E+004
              99    2.72370E+005    2.02219E+005    2.02219E+005   -2.63697E+004   -9.91479E+004    3.01367E+005   -2.55670E+004    2.49047E+005   -2.50631E+004   -8.88085E+004    1.90573E+005    8.74852E+003    1.82905E+004    5.36790E+004
             100    2.20054E+005    1.75853E+005    1.75853E+005    1.98955E+004   -7.58539E+004    2.51707E+005   -3.99650E+004    1.62160E+005    2.29828E+004   -6.24298E+004    1.59342E+005    9.23774E+003    2.07762E+004    5.57876E+004
             101    1.82524E+005    1.34112E+005    1.34112E+005   -1.41674E+004   -6.97386E+004    2.03850E+005   -1.67353E+004    1.61783E+005   -1.14399E+004   -5.68705E+004    1.18516E+005    7.90656E+003    1.90678E+004    4.89222E+004
             102    1.29527E+005    1.02454E+005    1.02454E+005    7.58668E+003   -4.51173E+004    1.47571E+005   -2.16410E+004    1.00781E+005    1.24832E+004   -3.19245E+004    8.43644E+004    5.68636E+003    2.02391E+004    4.13136E+004
             103    9.15728E+004    6.43865E+004    6.43865E+004   -1.40454E+004   -3.62453E+004    1.00632E+005   -4.69862E+003    8.51969E+004   -9.16238E+003   -2.26833E+004    4.59415E+004    3.94740E+003    2.00578E+004    3.24940E+004
             104    6.09570E+004    4.44730E+004    4.44730E+004    3.87050E+003   -2.56212E+004    7.00942E+004   -7.57411E+003    3.94170E+004    8.81181E+003   -3.02946E+003    1.69400E+004    1.06447E+003    2.03668E+004    2.68664E+004
             105    2.77981E+005    2.03687E+005    2.03687E+005    3.74479E+002   -1.13078E+005    3.16765E+005   -3.03277E+004    2.15823E+005    2.94321E+003   -1.05644E+005    1.93684E+005    1.13036E+004    2.34645E+004    4.60203E+004
             106    2.57431E+005    1.85828E+005    1.85828E+005   -6.60811E+003   -1.06596E+005    2.92424E+005   -2.42081E+004    2.06416E+005   -4.03628E+003   -9.50340E+004    1.71694E+005    1.08706E+004    2.20310E+004    5.56990E+004
             107    2.12103E+005    1.44688E+005    1.44688E+005   -9.00636E+003   -9.72983E+004    2.41987E+005   -1.27945E+004    1.62279E+005   -6.97003E+003   -8.44356E+004    1.29789E+005    1.26454E+004    1.82042E+004    5.23306E+004
             108    1.67392E+005    1.14677E+005    1.14677E+005   -9.50510E+003   -7.56877E+004    1.90365E+005   -9.82822E+003    1.32765E+005   -6.65142E+003   -6.18529E+004    9.79890E+004    1.01376E+004    1.77103E+004    4.82968E+004
             109    1.12883E+005    7.63466E+004    7.63466E+004   -7.95042E+003   -5.19011E+004    1.28248E+005   -5.49835E+003    9.03825E+004   -3.34604E+003   -4.01766E+004    6.00177E+004    7.95585E+003    1.77712E+004    3.60558E+004
             110    7.04340E+004    5.11661E+004    5.11661E+004   -8.69025E+003   -2.64471E+004    7.76131E+004   -5.34291E+003    6.51061E+004   -2.33331E+003   -1.78742E+004    3.62363E+004    4.17440E+003    1.85618E+004    2.27046E+004
             111    4.35763E+004    2.86407E+004    2.86407E+004   -5.57667E+003   -2.04176E+004    4.90583E+004   -8.82115E+002    3.72179E+004    4.18385E+002   -6.88152E+003    9.10948E+003    1.56689E+003    1.92391E+004    1.40100E+004
             112    4.15687E+004    3.05002E+004    3.05002E+004   -6.50740E+002   -1.67007E+004    4.72009E+004   -4.38291E+003    3.34475E+004    2.68321E+003   -1.74237E+003    1.22079E+004    9.13010E+002    2.17380E+004   -7.19652E+003
             113    6.05092E+004    4.53006E+004    4.53006E+004   -1.03208E+004   -1.91306E+004    6.44313E+004   -5.28308E+003    5.90405E+004    4.48233E+003   -1.88052E+004    3.01720E+004    2.75469E+003    2.45480E+004    3.17682E+003
             114    1.01957E+005    7.47060E+004    7.47060E+004    1.78169E+003   -4.17980E+004    1.16504E+005   -1.15632E+004    7.63420E+004    1.49538E+004   -3.83502E+004    5.80861E+004    2.54014E+003    2.81842E+004    1.81836E+004
             115    1.56030E+005    1.01527E+005    1.01527E+005    8.00145E+003   -7.85956E+004    1.80123E+005   -1.03111E+004    6.32356E+004    1.97023E+004   -7.06384E+004    8.18693E+004    2.61853E+003    3.13427E+004    3.52855E+004
             116    2.13573E+005    1.42940E+005    1.42940E+005    2.42497E+004   -1.03616E+005    2.46556E+005   -2.11912E+004   -8.56084E+004    3.30818E+004   -9.39325E+004    1.24424E+005   -1.26363E+003    3.27919E+004    4.58430E+004
             117    2.46673E+005    1.69022E+005    1.69022E+005    2.00124E+004   -1.15708E+005    2.84730E+005   -2.44421E+004    1.06612E+005    2.63276E+004   -1.07445E+005    1.54444E+005   -1.73126E+002    3.09931E+004    4.66123E+004
             118    2.87961E+005    2.18002E+005    2.18002E+005    4.58132E+004   -1.14436E+005    3.32438E+005   -4.97930E+004    1.14067E+005    5.02619E+004   -1.03706E+005    2.02823E+005   -9.41843E+003    3.32778E+004    5.43544E+004
             119    3.37417E+005    1.85593E+005   -1.86375E+005    1.00008E+005   -1.86375E+005    3.71968E+005   -3.30752E+004   -3.11561E+005    1.00784E+005    1.82958E+005   -1.84517E+005   -8.15925E+003   -1.76353E+002   -2.61844E+004
             120    3.21283E+005    1.14003E+005   -2.32913E+005    5.43846E+004   -2.32913E+005    3.46916E+005    2.15087E+004   -3.08467E+005    5.38784E+004    1.12227E+005   -2.30632E+005   -1.39667E+003    1.32030E+004   -2.40991E+004
             121    3.65696E+005    8.80200E+004   -2.97362E+005    4.48090E+004   -2.97362E+005    3.85382E+005    5.48442E+004   -3.59885E+005    4.43920E+004    8.45924E+004   -2.93517E+005    7.14605E+003    1.91157E+004   -3.21530E+004
             122    4.08238E+005    5.24529E+004   -3.63875E+005    3.57597E+004   -3.63875E+005    4.16328E+005    9.18876E+004   -4.07469E+005    4.51152E+004    3.96351E+004   -3.60413E+005    9.69809E+003    2.23111E+004   -2.95620E+004
             123    3.45640E+005    5.32534E+004   -3.27937E+005   -3.49314E+004   -3.27937E+005    3.81190E+005    1.03205E+005   -3.18823E+005   -3.77212E+004    4.74649E+004   -3.19358E+005    7.71058E+003    2.87061E+004   -4.56400E+004
             124    3.27141E+005    6.30576E+004   -2.80840E+005    2.64679E+004   -2.80840E+005    3.43898E+005    6.37715E+004   -3.22489E+005    2.56705E+004    5.69104E+004   -2.73895E+005    5.86189E+003    1.79830E+004   -4.42493E+004
             125    2.61789E+005    5.30741E+004   -2.36465E+005   -1.64700E+004   -2.36465E+005    2.89539E+005    6.66203E+004   -2.39650E+005   -1.88866E+004    4.58854E+004   -2.26860E+005    6.38651E+003    2.27102E+004   -4.45152E+004
             126    2.21029E+005    4.38414E+004   -1.89239E+005    1.73510E+004   -1.89239E+005    2.33081E+005    4.26822E+004   -2.17415E+005    1.50906E+004    3.80770E+004   -1.81214E+005    4.05932E+003    2.11941E+004   -3.59655E+004
             127    1.56880E+005    3.34029E+004   -1.39793E+005   -7.21917E+003   -1.39793E+005    1.73196E+005    3.78696E+004   -1.44318E+005   -1.16494E+004    2.67687E+004   -1.28728E+005    3.60870E+003    2.36639E+004   -3.27157E+004
             128    1.11613E+005    2.47811E+004   -9.17572E+004    1.41740E+004   -9.17572E+004    1.16538E+005    1.76007E+004   -1.10471E+005    1.09628E+004    1.56239E+004   -7.93888E+004    1.78050E+003    2.35494E+004   -2.69447E+004
             129    6.70402E+004    2.49436E+004   -5.14712E+004   -2.54184E+003   -5.14712E+004    7.64149E+004    9.68981E+003   -5.18798E+004   -9.63240E+003    5.91829E+003   -2.53553E+004    8.53418E+002    2.43247E+004   -2.57137E+004
             130    3.12436E+005    7.38853E+004   -2.78859E+005   -3.69536E+004   -2.78859E+005    3.52744E+005    8.06425E+004   -2.62392E+005   -4.02571E+004    6.59052E+004   -2.67576E+005    9.93701E+003    2.80967E+004   -5.12339E+004
             131    3.01817E+005    8.62828E+004   -2.39496E+005    3.06080E+004   -2.39496E+005    3.25779E+005    4.08683E+004   -2.89925E+005    2.97901E+004    7.58928E+004   -2.28288E+005    8.02687E+003    1.71950E+004   -5.59335E+004
             132    2.36024E+005    5.66649E+004   -2.06895E+005   -1.50346E+004   -2.06895E+005    2.63560E+005    5.50882E+004   -2.09335E+005   -1.75555E+004    4.58240E+004   -1.93533E+005    8.16658E+003    2.14273E+004   -5.16124E+004
             133    2.03578E+005    5.75367E+004   -1.61868E+005    2.09086E+004   -1.61868E+005    2.19405E+005    2.78077E+004   -1.95957E+005    1.87449E+004    4.69913E+004   -1.49159E+005    6.73716E+003    1.94204E+004   -4.63458E+004
             134    1.43206E+005    3.29640E+004   -1.25824E+005   -6.45612E+003   -1.25824E+005    1.58787E+005    3.31052E+004   -1.30135E+005   -1.07265E+004    2.30609E+004   -1.11650E+005    4.67057E+003    2.17574E+004   -3.77945E+004
             135    1.09873E+005    3.55857E+004   -8.26960E+004    1.61843E+004   -8.26960E+004    1.18282E+005    1.03087E+004   -1.05916E+005    1.21669E+004    2.25669E+004   -6.56598E+004    3.07953E+003    2.18708E+004   -3.48049E+004
             136    6.96623E+004    2.66477E+004   -5.33337E+004   -5.92285E+003   -5.33337E+004    7.99814E+004    1.08696E+004   -4.73845E+004   -9.87068E+003    2.18727E+002   -2.29569E+004    7.43687E+002    2.27510E+004   -3.10552E+004
             137    3.03426E+005    1.12506E+005   -2.37145E+005   -4.29351E+004   -2.37145E+005    3.49651E+005    5.58578E+004   -1.74623E+005   -4.75558E+004    1.01369E+005   -2.21387E+005    1.28093E+004    2.88961E+004   -5.99626E+004
             138    2.65866E+005    8.78969E+004   -2.03967E+005    2.44033E+004   -2.03967E+005    2.91864E+005    3.05557E+004   -2.47931E+005    2.30112E+004    7.58260E+004   -1.90504E+005    7.85782E+003    1.81271E+004   -5.73250E+004
             139    2.15675E+005    7.51176E+004   -1.71127E+005   -1.57793E+004   -1.71127E+005    2.46245E+005    3.72630E+004   -1.63405E+005   -1.87784E+004    6.18082E+004   -1.54819E+005    9.44065E+003    2.04837E+004   -5.48499E+004
             140    1.80744E+005    5.63160E+004   -1.42148E+005    1.30081E+004   -1.42148E+005    1.98464E+005    2.42746E+004   -1.68466E+005    1.02838E+004    4.51089E+004   -1.28216E+005    6.59148E+003    1.96212E+004   -4.53310E+004
             141    1.34938E+005    4.73182E+004   -1.06072E+005   -5.67153E+003   -1.06072E+005    1.53390E+005    2.14751E+004   -1.07481E+005   -1.05521E+004    3.41305E+004   -8.80037E+004    5.51107E+003    2.09379E+004   -4.22139E+004
             142    9.57169E+004    3.05889E+004   -7.29607E+004    1.22781E+004   -7.29607E+004    1.03550E+005    1.00312E+004   -9.16513E+004    8.25732E+003    1.60970E+004   -5.44480E+004    3.26769E+003    2.08654E+004   -3.33596E+004
             143    6.81765E+004    3.19790E+004   -4.65135E+004   -2.04902E+003   -4.65135E+004    7.84925E+004    5.52785E+003   -4.16393E+004   -7.71808E+003    8.10058E+003   -1.69660E+004    1.25893E+003    2.12019E+004   -3.06196E+004
             144    2.59820E+005    9.60283E+004   -2.03953E+005   -5.78198E+004   -2.03953E+005    2.99981E+005    5.52482E+004    9.20905E+004   -6.59987E+004    8.16541E+004   -1.81400E+005    1.94299E+004    3.19460E+004   -6.09758E+004
             145    2.52795E+005    1.16658E+005   -1.66127E+005    3.79547E+004   -1.66127E+005    2.82784E+005    3.83811E+003   -2.22621E+005    3.74456E+004    1.06033E+005   -1.54993E+005    1.24899E+004    1.61133E+004   -5.07364E+004
             146    2.05169E+005    8.03391E+004   -1.54566E+005   -1.04871E+004   -1.54566E+005    2.34906E+005    2.82381E+004   -1.48684E+005   -1.30365E+004    6.88290E+004   -1.40507E+005    1.13368E+004    1.88412E+004   -4.91859E+004
             147    1.72114E+005    8.01995E+004   -1.13705E+005    2.09829E+004   -1.13705E+005    1.93904E+005    4.17417E+003   -1.46413E+005    1.88154E+004    6.49612E+004   -9.62991E+004    1.08110E+004    1.66491E+004   -5.08203E+004
             148    1.09680E+005    4.08455E+004   -8.37792E+004   -1.93957E+003   -8.37792E+004    1.24625E+005    1.49577E+004   -8.77180E+004   -6.70712E+003    2.87986E+004   -6.69647E+004    7.00595E+003    1.79136E+004   -3.60034E+004
             149    7.91764E+004    3.48811E+004   -5.20747E+004    1.58556E+004   -5.20747E+004    8.69558E+004    4.45983E+002   -7.37657E+004    1.04134E+004    2.41736E+004   -3.59250E+004    4.73714E+003    1.83514E+004   -2.71848E+004
             150    4.73784E+004    1.83633E+004   -3.59236E+004   -2.91402E+003   -3.59236E+004    5.42869E+004    6.82478E+003   -3.38238E+004   -7.41582E+003   -3.75204E+002   -1.26833E+004    9.09938E+002    1.94698E+004   -1.81715E+004
             151    4.16901E+004    1.88915E+004   -2.74534E+004    6.99615E+003   -2.74534E+004    4.63449E+004    5.21920E+002   -3.75781E+004    3.58625E+002    8.13266E+003   -1.00570E+004    9.81421E+002    2.16611E+004    5.08825E+003
             152    5.58860E+004    1.05322E+004   -4.67887E+004    7.54254E+003   -4.67887E+004    5.73209E+004    9.57130E+003   -5.57057E+004   -6.63456E+003    9.95503E+003   -3.20344E+004    2.72373E+003    2.40665E+004   -2.68700E+003
             153    1.01171E+005    4.53080E+004   -6.99581E+004    4.13395E+003   -6.99581E+004    1.15266E+005    6.83873E+003   -7.87068E+004   -8.57725E+003    4.08054E+004   -5.27443E+004    3.62543E+003    2.78952E+004   -2.07468E+004
             154    1.48190E+005    6.59121E+004   -1.04905E+005   -1.07409E+004   -1.04905E+005    1.70817E+005    1.65778E+004   -8.31133E+004   -2.18764E+004    5.80111E+004   -8.58681E+004    2.04643E+003    3.10690E+004   -3.39751E+004
             155    2.13928E+005    1.08542E+005   -1.38413E+005   -9.88427E+003   -1.38413E+005    2.46954E+005    1.32519E+004   -8.84943E+004   -1.80444E+004    9.70057E+004   -1.18717E+005    1.72858E+003    3.21615E+004   -5.06605E+004
             156    2.59386E+005    1.05864E+005   -1.93476E+005   -3.49752E+004   -1.93476E+005    2.99340E+005    4.08626E+004   -1.21186E+005   -4.05300E+004    9.69498E+004   -1.79007E+005   -5.24100E+003    3.24214E+004   -4.80653E+004
             157    2.80929E+005    1.33425E+005   -1.89401E+005   -4.42726E+002   -1.89401E+005    3.22826E+005    1.88065E+004   -1.86032E+005   -1.21371E+003    1.27856E+005   -1.83062E+005   -3.72119E+003    1.43097E+004   -4.10951E+004
             158    4.36687E+004    2.02809E+004   -2.88122E+004    5.70185E+003   -2.88122E+004    4.90932E+004    9.43152E+002   -3.75774E+004   -4.41520E+002    7.02111E+003   -9.40904E+003   -1.61519E+003    1.92575E+004    1.39469E+004
             159    6.12421E+004    2.54435E+004   -4.49285E+004   -3.70704E+003   -4.49285E+004    7.03721E+004    7.73069E+003   -4.06217E+004   -8.72835E+003    3.34044E+003   -1.78042E+004   -1.12556E+003    2.03382E+004    2.68844E+004
             160    7.05390E+004    3.09033E+004   -5.03113E+004   -4.32914E+003   -5.03113E+004    8.12147E+004    7.91237E+003   -4.30187E+004   -9.68189E+003    5.33822E+003   -1.93934E+004   -1.34810E+003    2.15465E+004    3.22064E+004
             161    7.25469E+004    2.76996E+004   -5.55585E+004   -5.92257E+003   -5.55585E+004    8.32581E+004    1.12605E+004   -4.99156E+004   -1.09919E+004    3.16346E+003   -2.59530E+004   -8.42509E+002    2.30449E+004    3.17895E+004
             162    6.84089E+004    2.35536E+004   -5.44281E+004   -4.53250E+003   -5.44281E+004    7.79817E+004    1.18023E+004   -5.28848E+004   -1.12941E+004    4.05987E+003   -2.81727E+004   -9.26720E+002    2.41841E+004    2.67258E+004
             163    6.13392E+004    1.62860E+004   -5.24863E+004   -3.42773E+003   -5.24863E+004    6.87723E+004    1.32094E+004   -5.34825E+004   -1.20238E+004    3.11662E+003   -3.07209E+004   -2.89622E+002    2.51570E+004    1.82732E+004
             164    5.50973E+004    8.51916E+003   -5.03283E+004    3.46810E+001   -5.03283E+004    5.88474E+004    1.39248E+004   -5.35980E+004   -1.22356E+004    2.37744E+003   -3.19163E+004   -3.23011E+002    2.55968E+004    7.77491E+003
             165    5.42622E+004    7.71722E+003   -4.87509E+004    2.99714E+003   -4.87509E+004    5.64681E+004    1.26788E+004   -5.37974E+004   -1.15919E+004    4.12905E+003   -3.05736E+004    3.20867E+002    2.57203E+004   -4.22762E+003
             166    5.77839E+004    1.35043E+004   -5.08486E+004   -3.40749E+003   -5.08486E+004    6.43529E+004    1.35839E+004   -5.17610E+004   -1.16742E+004    8.22373E+002   -2.98999E+004    2.77163E+002    2.52056E+004   -1.54562E+004
             167    7.10975E+004    2.67053E+004   -5.16815E+004    8.64228E+003   -5.16815E+004    7.83868E+004    5.44462E+003   -6.56305E+004    2.29839E+003    1.81513E+004   -3.67835E+004   -4.19320E+003    1.85952E+004    2.28509E+004
             168    9.26737E+004    3.65394E+004   -6.53635E+004    1.38768E+004   -6.53635E+004    1.01903E+005    4.98244E+003   -8.61017E+004    8.96326E+003    2.31906E+004   -4.71012E+004   -4.04192E+003    2.00258E+004    3.26242E+004
             169    1.07685E+005    3.50173E+004   -8.10721E+004    1.55527E+004   -8.10721E+004    1.16089E+005    1.01674E+004   -1.03615E+005    1.18336E+004    2.05460E+004   -6.28817E+004   -3.37072E+003    2.07981E+004    3.63089E+004
             170    1.15182E+005    3.35808E+004   -8.93214E+004    1.61550E+004   -8.93214E+004    1.22902E+005    1.31952E+004   -1.12159E+005    1.22524E+004    2.15525E+004   -7.33904E+004   -2.99748E+003    2.23248E+004    3.42886E+004
             171    1.19119E+005    2.79798E+004   -9.63626E+004    1.67351E+004   -9.63626E+004    1.24342E+005    1.72159E+004   -1.17916E+005    1.33699E+004    1.91862E+004   -8.42038E+004   -1.96800E+003    2.33223E+004    2.84248E+004
             172    1.20133E+005    2.37779E+004   -9.93547E+004    1.75363E+004   -9.93547E+004    1.23133E+005    1.93468E+004   -1.19768E+005    1.36173E+004    1.92468E+004   -9.09047E+004   -1.53170E+003    2.42519E+004    1.92838E+004
             173    1.18707E+005    2.08716E+004   -9.90600E+004    1.83835E+004   -9.90600E+004    1.19932E+005    1.99350E+004   -1.18648E+005    1.43283E+004    1.90993E+004   -9.32325E+004   -3.37952E+002    2.46460E+004    7.38276E+003
             174    1.16736E+005    1.90373E+004   -9.87952E+004    1.68132E+004   -9.87952E+004    1.17833E+005    2.09816E+004   -1.16689E+005    1.31174E+004    1.70555E+004   -9.31176E+004    1.33041E+002    2.47890E+004   -4.62278E+003
             175    1.15907E+005    2.43044E+004   -9.46241E+004    1.80049E+004   -9.46241E+004    1.18929E+005    1.74383E+004   -1.15521E+005    1.38393E+004    2.01740E+004   -8.63281E+004    1.37392E+003    2.42589E+004   -1.78435E+004
             176    1.14480E+005    5.27567E+004   -7.73548E+004    7.92175E+003   -7.73548E+004    1.30111E+005    5.55878E+003   -9.13359E+004    3.37339E+003    4.09918E+004   -6.10415E+004   -8.01945E+003    1.77802E+004    3.64082E+004
             177    1.32241E+005    4.61263E+004   -1.04472E+005   -7.31660E+003   -1.04472E+005    1.50599E+005    2.18876E+004   -1.03381E+005   -1.20921E+004    3.28770E+004   -8.64476E+004   -5.82916E+003    2.01972E+004    4.19019E+004
             178    1.45403E+005    4.40670E+004   -1.19668E+005   -5.62497E+003   -1.19668E+005    1.63735E+005    2.70753E+004   -1.24020E+005   -9.86823E+003    3.20173E+004   -1.03375E+005   -6.05329E+003    2.07199E+004    4.21495E+004
             179    1.56939E+005    3.61391E+004   -1.38425E+005   -9.00998E+003   -1.38425E+005    1.74565E+005    3.70988E+004   -1.41181E+005   -1.31827E+004    2.65732E+004   -1.24687E+005   -4.35160E+003    2.25428E+004    3.91654E+004
             180    1.65364E+005    3.19320E+004   -1.49774E+005   -8.10095E+003   -1.49774E+005    1.81706E+005    4.19808E+004   -1.53884E+005   -1.21847E+004    2.61465E+004   -1.39904E+005   -3.68248E+003    2.34504E+004    3.15051E+004
             181    1.68698E+005    2.58276E+004   -1.57848E+005   -9.82808E+003   -1.57848E+005    1.83675E+005    4.72828E+004   -1.59887E+005   -1.40423E+004    2.34801E+004   -1.51286E+005   -1.84598E+003    2.46421E+004    2.02768E+004
             182    1.70163E+005    2.28644E+004   -1.61047E+005   -9.19337E+003   -1.61047E+005    1.83912E+005    4.91254E+004   -1.63160E+005   -1.33966E+004    2.25401E+004   -1.56520E+005   -8.29532E+002    2.49038E+004    7.60922E+003
             183    1.67942E+005    2.40720E+004   -1.57992E+005   -9.13219E+003   -1.57992E+005    1.82064E+005    4.76841E+004   -1.60306E+005   -1.35109E+004    2.37499E+004   -1.53291E+005    9.65295E+002    2.51349E+004   -7.55444E+003
             184    1.62443E+005    2.35848E+004   -1.52561E+005   -8.65693E+003   -1.52561E+005    1.76146E+005    4.58777E+004   -1.54997E+005   -1.29270E+004    2.12347E+004   -1.45941E+005    2.05179E+003    2.44007E+004   -1.98757E+004
             185    1.69621E+005    7.63854E+004   -1.16503E+005    9.38623E+003   -1.16503E+005    1.92888E+005    1.02437E+004   -1.34615E+005    6.57942E+003    6.25651E+004   -9.98756E+004   -1.01341E+004    1.77215E+004    4.86282E+004
             186    1.85890E+005    7.05190E+004   -1.37142E+005    1.37291E+004   -1.37142E+005    2.07661E+005    1.76314E+004   -1.64607E+005    1.10605E+004    5.76878E+004   -1.21642E+005   -8.03748E+003    1.90745E+004    4.93225E+004
             187    2.05189E+005    5.98696E+004   -1.62361E+005    1.99061E+004   -1.62361E+005    2.22231E+005    2.75286E+004   -1.96144E+005    1.78588E+004    4.81809E+004   -1.48625E+005   -7.15082E+003    1.88690E+004    4.89777E+004
             188    2.22835E+005    5.45338E+004   -1.84080E+005    1.86119E+004   -1.84080E+005    2.38614E+005    3.69781E+004   -2.16177E+005    1.65227E+004    4.60511E+004   -1.73508E+005   -5.93196E+003    2.02590E+004    4.36796E+004
             189    2.36880E+005    4.52075E+004   -2.02756E+005    2.12146E+004   -2.02756E+005    2.47963E+005    4.54446E+004   -2.34123E+005    1.92333E+004    4.01777E+004   -1.95745E+005   -4.10200E+003    2.08600E+004    3.46380E+004
             190    2.47442E+005    4.14500E+004   -2.15737E+005    2.06452E+004   -2.15737E+005    2.57187E+005    5.12141E+004   -2.45462E+005    1.86567E+004    3.94286E+004   -2.11727E+005   -2.78564E+003    2.16218E+004    2.24187E+004
             191    2.49979E+005    3.82172E+004   -2.19340E+005    2.23001E+004   -2.19340E+005    2.57557E+005    5.29408E+004   -2.48835E+005    2.03097E+004    3.80639E+004   -2.17196E+005   -5.49015E+002    2.18333E+004    6.25747E+003
             192    2.46419E+005    3.70742E+004   -2.17344E+005    2.02088E+004   -2.17344E+005    2.54418E+005    5.33537E+004   -2.45115E+005    1.81408E+004    3.67809E+004   -2.14983E+005    8.37790E+002    2.20541E+004   -8.59180E+003
             193    2.37689E+005    4.31257E+004   -2.04416E+005    2.20108E+004   -2.04416E+005    2.47542E+005    4.64264E+004   -2.35565E+005    1.99696E+004    4.04670E+004   -1.99716E+005    3.18602E+003    2.14123E+004   -2.51996E+004
             194    2.14328E+005    9.77556E+004   -1.46717E+005    8.85495E+003   -1.46717E+005    2.44472E+005    1.33687E+004   -1.64430E+005    6.87591E+003    8.49317E+004   -1.31914E+005   -1.27023E+004    1.81718E+004    5.25133E+004
             195    2.23728E+005    7.62065E+004   -1.79455E+005   -1.94982E+004   -1.79455E+005    2.55662E+005    4.09157E+004   -1.67406E+005   -2.25029E+004    6.28228E+004   -1.63067E+005   -9.27155E+003    2.08122E+004    5.61682E+004
             196    2.41233E+005    6.79444E+004   -2.03542E+005   -1.38095E+004   -2.03542E+005    2.71486E+005    4.98023E+004   -2.06424E+005   -1.61308E+004    5.63794E+004   -1.89655E+005   -9.72456E+003    2.07689E+004    5.37425E+004
             197    2.59576E+005    5.30270E+004   -2.34964E+005   -1.90257E+004   -2.34964E+005    2.87991E+005    6.69875E+004   -2.35453E+005   -2.14290E+004    4.42525E+004   -2.23786E+005   -6.79589E+003    2.23140E+004    4.89692E+004
             198    2.79676E+005    4.66155E+004   -2.59291E+005   -1.67016E+004   -2.59291E+005    3.05906E+005    7.64589E+004   -2.62814E+005   -1.88980E+004    4.15452E+004   -2.52024E+005   -5.62954E+003    2.30125E+004    3.84828E+004
             199    2.89393E+005    3.69166E+004   -2.76539E+005   -1.95230E+004   -2.76539E+005    3.13455E+005    8.63817E+004   -2.76601E+005   -2.18438E+004    3.52693E+004   -2.72571E+005   -2.66132E+003    2.42572E+004    2.24816E+004
             200    2.94627E+005    3.40310E+004   -2.83185E+005   -1.81088E+004   -2.83185E+005    3.17216E+005    8.90876E+004   -2.83967E+005   -2.03802E+004    3.39115E+004   -2.80794E+005   -7.71631E+002    2.44308E+004    6.08943E+003
             201    2.90088E+005    3.62712E+004   -2.77350E+005   -1.86467E+004   -2.77350E+005    3.13621E+005    8.65751E+004   -2.78029E+005   -2.09756E+004    3.56735E+004   -2.74423E+005    1.97517E+003    2.44520E+004   -1.34532E+004
             202    2.78255E+005    3.93681E+004   -2.62772E+005   -1.70472E+004   -2.62772E+005    3.02140E+005    8.01503E+004   -2.64925E+005   -1.93542E+004    3.65733E+004   -2.57670E+005    3.97636E+003    2.36823E+004   -2.85493E+004
             203    2.58750E+005    1.06331E+005   -1.87457E+005    6.53272E+003   -1.87457E+005    2.93788E+005    2.48645E+004   -2.08328E+005    3.97201E+003    9.47775E+004   -1.73343E+005   -1.09209E+004    2.21075E+004    5.57975E+004
             204    2.75243E+005    9.87767E+004   -2.05500E+005    2.61403E+004   -2.05500E+005    3.04277E+005    2.68610E+004   -2.52293E+005    2.48362E+004    8.84940E+004   -1.93913E+005   -8.67698E+003    1.83822E+004    5.38221E+004
             205    2.98546E+005    7.96716E+004   -2.40667E+005    2.98065E+004   -2.40667E+005    3.20338E+005    4.37296E+004   -2.88953E+005    2.88680E+004    6.91446E+004   -2.29201E+005   -7.65791E+003    1.77885E+004    5.59411E+004
             206    3.30706E+005    7.18713E+004   -2.78295E+005    2.87116E+004   -2.78295E+005    3.50166E+005    5.92374E+004   -3.24279E+005    2.80164E+004    6.38931E+004   -2.69622E+005   -7.09480E+003    1.78776E+004    5.06705E+004
             207    3.54923E+005    5.45130E+004   -3.11771E+005    3.05808E+004   -3.11771E+005    3.66284E+005    7.55590E+004   -3.53101E+005    2.99492E+004    5.01410E+004   -3.06767E+005   -4.92635E+003    1.81811E+004    3.79541E+004
             208    3.73474E+005    4.67146E+004   -3.34342E+005    3.10574E+004   -3.34342E+005    3.81056E+005    8.55233E+004   -3.72735E+005    3.04702E+004    4.49924E+004   -3.32032E+005   -3.30196E+003    1.79766E+004    2.30745E+004
             209    3.79021E+005    4.09466E+004   -3.42172E+005    3.26133E+004   -3.42172E+005    3.83119E+005    8.95374E+004   -3.78815E+005    3.17293E+004    4.09128E+004   -3.41254E+005   -3.33324E+002    1.82140E+004    3.40762E+003
             210    3.72588E+005    4.26638E+004   -3.36136E+005    2.99115E+004   -3.36136E+005    3.78800E+005    8.78536E+004   -3.72096E+005    2.91318E+004    4.20177E+004   -3.34710E+005    2.00469E+003    1.82772E+004   -1.38050E+004
             211    3.55648E+005    5.38090E+004   -3.13162E+005    2.99612E+004   -3.13162E+005    3.66971E+005    7.64641E+004   -3.53842E+005    2.93840E+004    5.04775E+004   -3.09254E+005    4.76584E+003    1.81018E+004   -3.25095E+004
             212    2.78850E+005    1.13070E+005   -2.04643E+005   -4.92614E+002   -2.04643E+005    3.17712E+005    3.06885E+004   -2.16828E+005   -3.09901E+003    1.05535E+005   -1.94502E+005   -1.10844E+004    2.35497E+004    4.65319E+004
             213    2.88655E+005    8.92005E+004   -2.42468E+005   -4.80160E+004   -2.42468E+005    3.31668E+005    6.70944E+004   -1.91835E+005   -5.27672E+004    7.78412E+004   -2.26357E+005   -1.19878E+004    2.92216E+004    5.90614E+004
             214    3.21059E+005    8.34685E+004   -2.80335E+005   -3.66781E+004   -2.80335E+005    3.63804E+005    7.78483E+004   -2.62824E+005   -4.00634E+004    7.39573E+004   -2.67439E+005   -1.15308E+004    2.86185E+004    5.65596E+004
             215    3.44421E+005    5.12809E+004   -3.29291E+005   -3.90086E+004   -3.29291E+005    3.80572E+005    1.05673E+005   -3.16108E+005   -4.21370E+004    4.51277E+004   -3.20010E+005   -7.38075E+003    2.99317E+004    4.72503E+004
             216    3.74138E+005    3.03056E+004   -3.73172E+005   -3.77022E+004   -3.73172E+005    4.03477E+005    1.26856E+005   -3.59836E+005   -4.06645E+004    2.66965E+004   -3.66601E+005   -5.73001E+003    3.15678E+004    3.72569E+004
             217    3.94556E+005    1.02011E+004   -4.07420E+005   -4.09106E+004   -4.07420E+005    4.17621E+005    1.46043E+005   -3.87002E+005   -4.41266E+004    9.20555E+003   -4.03208E+005   -2.43156E+003    3.41631E+004    2.01711E+004
             218    4.03211E+005    4.88465E+003   -4.18980E+005   -4.02149E+004   -4.18980E+005    4.23865E+005    1.51437E+005   -3.97477E+005   -4.34008E+004    4.86973E+003   -4.15780E+005   -2.08908E+002    3.45907E+004    2.50555E+003
             219    3.95014E+005    1.00509E+004   -4.07715E+005   -4.02759E+004   -4.07715E+005    4.17766E+005    1.45980E+005   -3.87703E+005   -4.34495E+004    9.25464E+003   -4.03745E+005    2.30568E+003    3.40039E+004   -1.79981E+004
             220    3.72123E+005    2.43983E+004   -3.74854E+005   -3.76665E+004   -3.74854E+005    3.99253E+005    1.29374E+005   -3.60201E+005   -4.06632E+004    2.16881E+004   -3.69148E+005    4.96810E+003    3.18156E+004   -3.21116E+004
             221    4.62016E+005    5.18301E+004   -4.30829E+005    7.32458E+003   -4.30829E+005    4.82659E+005    1.23891E+005   -4.57156E+005    4.93732E+004    6.87731E+003   -4.27924E+005    8.70365E+003    2.41058E+004   -2.67890E+004
             222    5.02369E+005    5.54820E+004   -4.80043E+005   -1.91908E+004   -4.80043E+005    5.35525E+005    1.47917E+005   -4.89649E+005    5.40193E+004   -1.93919E+004   -4.78380E+005    5.18466E+003    2.52156E+004   -1.45199E+004
             223    5.19722E+005    5.64174E+004   -5.00726E+005   -2.90094E+004   -5.00726E+005    5.57143E+005    1.57773E+005   -5.03562E+005    5.52066E+004   -2.90096E+004   -4.99515E+005   -1.31632E+002    2.59418E+004   -4.85553E+002
             224    5.03569E+005    5.63884E+004   -4.80147E+005   -1.77666E+004   -4.80147E+005    5.36535E+005    1.47175E+005   -4.91060E+005    5.49271E+004   -1.80271E+004   -4.78425E+005   -5.60195E+003    2.47148E+004    1.61147E+004
             225    4.64960E+005    5.37294E+004   -4.32560E+005    7.63751E+003   -4.32560E+005    4.86290E+005    1.23731E+005   -4.59778E+005    5.12503E+004    7.43016E+003   -4.29874E+005   -8.88996E+003    2.39014E+004    2.52940E+004
             226    4.17273E+005    5.90389E+004   -3.66318E+005    4.23712E+004   -3.66318E+005    4.25357E+005    8.83026E+004   -4.16523E+005    4.98350E+004    4.79628E+004   -3.62706E+005   -9.96882E+003    2.04340E+004    3.23777E+004
             227    3.70648E+005    8.61395E+004   -3.01840E+005    4.86237E+004   -3.01840E+005    3.87979E+005    5.56922E+004   -3.66340E+005    4.78029E+004    8.33263E+004   -2.98206E+005   -4.86125E+003    1.93624E+004    3.11401E+004
             228    3.49323E+005    1.33694E+005   -2.43913E+005    6.77181E+004   -2.43913E+005    3.77607E+005    1.41669E+004   -3.34873E+005    6.73770E+004    1.30754E+005   -2.40632E+005   -6.78806E+002    1.02960E+004    3.31667E+004
             229    3.13276E+005    1.24219E+005   -2.32875E+005   -4.28234E+003   -2.32875E+005    3.57094E+005    3.76463E+004   -2.42346E+005   -5.28274E+003    1.16761E+005   -2.24417E+005    6.54316E+003    2.06386E+004    4.85697E+004
             230    4.14805E+004    1.66060E+004   -3.04774E+004    6.79458E+002   -3.04774E+004    4.70834E+004    4.39732E+003   -3.34842E+004   -2.66151E+003    1.75754E+003   -1.22880E+004   -9.30712E+002    2.17140E+004   -7.04274E+003
             231    6.07634E+004    1.93252E+004   -4.54604E+004    1.02628E+004   -4.54604E+004    6.47856E+004    5.29080E+003   -5.92143E+004   -4.50018E+003    1.90052E+004   -3.03774E+004   -2.74950E+003    2.45656E+004    3.09422E+003
             232    1.02551E+005    4.19892E+004   -7.52002E+004   -1.88604E+003   -7.52002E+004    1.17189E+005    1.16990E+004   -7.67241E+004   -1.51396E+004    3.84575E+004   -5.84150E+004   -2.59872E+003    2.83407E+004    1.84569E+004
             233    1.57750E+005    7.94832E+004   -1.02630E+005   -8.22403E+003   -1.02630E+005    1.82113E+005    1.04569E+004   -6.29872E+004   -2.00338E+004    7.14481E+004   -8.27851E+004   -2.64105E+003    3.16349E+004    3.56585E+004
             234    2.14924E+005    1.03659E+005   -1.44471E+005   -2.43885E+004   -1.44471E+005    2.48130E+005    2.17335E+004    8.20120E+004   -3.32468E+004    9.39899E+004   -1.25944E+005    1.29837E+003    3.30508E+004    4.59481E+004
             235    2.47703E+005    1.15872E+005   -1.70024E+005   -1.97099E+004   -1.70024E+005    2.85896E+005    2.46205E+004   -1.10637E+005   -2.59996E+004    1.07608E+005   -1.55470E+005   -5.60347E+001    3.09950E+004    4.67723E+004
             236    2.88145E+005    1.14459E+005   -2.18211E+005   -4.68403E+004   -2.18211E+005    3.32670E+005    5.01973E+004   -1.07830E+005   -5.14595E+004    1.03670E+005   -2.02802E+005    9.84302E+003    3.39421E+004    5.42620E+004
             237    1.18796E+005    7.53257E+004    7.53257E+004   -1.13573E+003   -6.15338E+004    1.36860E+005   -4.21870E+003    6.96558E+004   -6.12013E+003   -3.23460E+002    1.90997E+004   -2.94564E+003    6.66531E+004   -8.85121E+003
             238    1.29081E+005    8.03361E+004    8.03361E+004   -1.03118E+004   -6.74530E+004    1.47789E+005   -8.57117E+002    9.35465E+004   -1.02373E+004   -8.39159E+003    2.12002E+004   -2.88570E+003    6.84189E+004   -2.35215E+004
             239    1.36965E+005    8.80423E+004    8.80423E+004   -5.37644E+003   -6.91841E+004    1.57226E+005   -4.49394E+003    9.36084E+004   -9.48502E+003   -3.20093E+003    2.61678E+004   -2.36783E+003    7.21017E+004   -2.62041E+004
             240    1.41337E+005    8.94902E+004    8.94902E+004   -9.60836E+003   -7.23569E+004    1.61847E+005   -2.50833E+003    1.02127E+005   -1.19268E+004   -8.39826E+003    2.78500E+004   -1.72999E+003    7.52347E+004   -2.25988E+004
             241    1.34604E+005    1.06262E+005    1.06262E+005   -1.13545E+004   -4.05406E+004    1.46803E+005   -1.81222E+004    1.27189E+005    6.34314E+003   -9.34838E+003    5.73720E+004   -7.52587E+003    6.76595E+004   -1.37111E+004
             242    1.44197E+005    1.18087E+005    1.18087E+005   -9.49004E+003   -3.83607E+004    1.56448E+005   -2.34121E+004    1.37467E+005    8.55188E+003   -5.81760E+003    6.75021E+004   -8.44065E+003    6.87361E+004   -2.50087E+004
             243    1.57758E+005    1.27561E+005    1.27561E+005   -1.39954E+004   -4.25098E+004    1.70071E+005   -2.36852E+004    1.51797E+005    6.94187E+003   -1.20912E+004    7.62050E+004   -6.64554E+003    7.25546E+004   -2.87790E+004
             244    1.63431E+005    1.37038E+005    1.37038E+005   -9.32215E+003   -3.93100E+004    1.76348E+005   -2.94687E+004    1.57061E+005    8.50988E+003   -7.79471E+003    8.76909E+004   -5.23418E+003    7.55669E+004   -2.35930E+004
             245    1.67418E+005    1.37859E+005    1.37859E+005   -1.51671E+004   -4.09579E+004    1.78817E+005   -2.72447E+004    1.62859E+005   -8.01062E+003   -1.29158E+004    1.02661E+005   -1.22883E+004    6.80614E+004   -1.69683E+004
             246    1.83448E+005    1.46212E+005    1.46212E+005   -3.02640E+004   -4.34913E+004    1.89703E+005   -2.41522E+004    1.82370E+005   -1.42927E+004   -2.37752E+004    1.10525E+005   -1.35758E+004    6.70486E+004   -3.03355E+004
             247    1.96913E+005    1.63289E+005    1.63289E+005   -2.33838E+004   -4.24747E+004    2.05763E+005   -3.24767E+004    1.94815E+005   -1.39736E+004   -1.79421E+004    1.29346E+005   -1.08012E+004    6.98733E+004   -2.97376E+004
             248    2.11560E+005    1.74603E+005    1.74603E+005   -2.73353E+004   -4.54193E+004    2.20022E+005   -3.39494E+004    2.09811E+005   -1.73815E+004   -2.33847E+004    1.42614E+005   -8.57591E+003    7.23368E+004   -2.73504E+004
             249    2.07063E+005    1.83479E+005    1.83479E+005   -1.88576E+004   -2.80072E+004    2.11486E+005   -4.55380E+004    2.06607E+005    1.28059E+004   -2.34876E+004    1.47296E+005   -1.35097E+004    7.40274E+004   -2.31047E+004
             250    2.16478E+005    1.96139E+005    1.96139E+005   -1.28564E+004   -2.71157E+004    2.23255E+005   -5.20558E+004    2.15418E+005    1.20410E+004   -1.87840E+004    1.62910E+005   -1.80201E+004    7.00234E+004   -3.06401E+004
             251    2.35581E+005    2.12225E+005    2.12225E+005   -1.75279E+004   -2.87797E+004    2.41005E+005   -5.53058E+004    2.34975E+005    9.76219E+003   -2.25703E+004    1.78726E+005   -1.39950E+004    7.32565E+004   -3.53743E+004
             252    2.55258E+005    2.35173E+005    2.35173E+005   -1.58981E+004   -2.40763E+004    2.59249E+005   -6.50662E+004    2.54963E+005    9.42826E+003   -1.95924E+004    2.05363E+005   -1.19560E+004    7.53212E+004   -3.04932E+004
             253    2.59360E+005    2.30081E+005    2.30081E+005   -2.11065E+004   -3.67452E+004    2.66826E+005   -5.74097E+004    2.58297E+005   -7.24990E+003   -2.55900E+004    2.05069E+005   -1.34444E+004    7.42254E+004   -1.72017E+004
             254    2.66475E+005    2.26876E+005    2.26876E+005   -2.91729E+004   -4.89262E+004    2.75802E+005   -4.95923E+004    2.64820E+005   -1.98722E+004   -3.38640E+004    2.02513E+005   -1.96318E+004    6.78968E+004   -3.29665E+004
             255    2.92021E+005    2.57142E+005    2.57142E+005   -2.73207E+004   -4.18929E+004    2.99035E+005   -6.26427E+004    2.91202E+005   -1.86951E+004   -2.78524E+004    2.34476E+005   -1.67360E+004    6.80221E+004   -3.67765E+004
             256    3.19725E+005    2.82217E+005    2.82217E+005   -3.08919E+004   -4.37369E+004    3.25954E+005   -6.91961E+004    3.19144E+005   -2.29022E+004   -3.14568E+004    2.61947E+005   -1.42024E+004    6.96580E+004   -3.37299E+004
             257    2.79351E+005    2.70922E+005    2.70922E+005    8.50127E+003   -2.27344E+004    2.93657E+005   -8.55630E+004    2.75382E+005    4.28560E+004   -2.13248E+004    2.35158E+005   -9.61549E+003    8.90914E+004   -1.29982E+004
             258    2.98678E+005    2.87473E+005    2.87473E+005    7.15919E+003   -2.66854E+004    3.14159E+005   -8.93157E+004    2.94317E+005    3.22505E+004   -1.92786E+004    2.54975E+005   -2.03861E+004    8.22643E+004   -3.61532E+004
             259    3.34563E+005    3.18528E+005    3.18528E+005    2.71782E+003   -3.20686E+004    3.50597E+005   -9.63925E+004    3.30457E+005    2.52715E+004   -2.56601E+004    2.89566E+005   -1.75380E+004    8.23788E+004   -3.97664E+004
             260    3.67744E+005    3.57096E+005    3.57096E+005    2.05074E+003   -2.21505E+004    3.79247E+005   -1.12332E+005    3.65946E+005    2.12637E+004   -1.64222E+004    3.32155E+005   -1.55845E+004    8.36965E+004   -3.51271E+004
             261    3.07368E+005    2.70820E+005    2.70820E+005   -2.17248E+004   -4.94866E+004    3.20307E+005   -6.65363E+004    3.04528E+005   -3.35450E+004   -2.12575E+004    2.54411E+005   -4.15218E+003    6.94418E+004   -1.19031E+004
             262    3.53520E+005    3.09515E+005    3.09515E+005   -3.38943E+004   -5.33152E+004    3.62830E+005   -7.41018E+004    3.52317E+005   -2.31788E+004   -4.50711E+004    2.90555E+005   -1.50437E+004    7.41106E+004   -2.60997E+004
             263    3.84689E+005    3.55279E+005    3.55279E+005   -1.86880E+004   -3.93032E+004    3.94582E+005   -9.90959E+004    3.83443E+005   -1.48827E+004   -2.53889E+004    3.37559E+005   -1.63174E+004    7.45961E+004   -2.86619E+004
             264    4.29561E+005    4.09117E+005    4.09117E+005   -7.48753E+003   -3.23233E+004    4.41440E+005   -1.23102E+005    4.27941E+005   -1.04335E+004   -1.17955E+004    3.91535E+005   -1.68774E+004    7.94755E+004   -2.93889E+004
             265    4.80873E+005    5.02109E+005    5.02109E+005    3.90706E+004    5.19430E+003    4.96915E+005   -1.82125E+005    4.78177E+005    4.18141E+004    3.68689E+004    4.67691E+005   -1.37405E+004    1.24541E+005   -1.45937E+004
             266    4.22148E+005    4.32852E+005    4.32852E+005    2.47768E+004   -2.08674E+003    4.34938E+005   -1.51847E+005    4.20219E+005    5.99750E+004    7.90162E+002    3.94777E+005   -1.19315E+004    1.18163E+005   -1.27064E+004
             267    3.79810E+005    3.82849E+005    3.82849E+005    4.02263E+004   -2.55554E+004    4.08404E+005   -1.32507E+005    3.66664E+005    8.90830E+004   -2.53973E+004    3.33834E+005   -4.25215E+003    1.19892E+005   -4.12649E+003
             268    4.08841E+005    3.87180E+005    3.87180E+005    5.88799E+004   -7.07644E+004    4.57945E+005   -1.25099E+005    3.58015E+005    1.29596E+005   -6.99367E+004    3.15636E+005    1.07601E+004    1.35712E+005   -1.28871E+003
             269    1.24525E+005    8.25012E+004    8.25012E+004   -2.47932E+003   -6.04386E+004    1.42940E+005   -6.52776E+003    8.52077E+004    4.09641E+003   -3.61380E+003    1.91007E+004   -2.45750E+003    6.98343E+004    1.23488E+004
             270    1.42322E+005    1.15295E+005    1.15295E+005    2.29824E+003   -4.45439E+004    1.59839E+005   -2.43497E+004    1.23096E+005    1.29387E+004    1.54478E+002    5.99560E+004   -6.23065E+003    7.51770E+004    8.34815E+003
             271    1.75607E+005    1.53979E+005    1.53979E+005   -1.22061E+004   -2.97352E+004    1.83714E+005   -3.73458E+004    1.73622E+005    2.75633E+004   -1.31465E+004    9.76208E+004   -7.62372E+003    8.40884E+004   -3.34253E+003
             272    2.13654E+005    2.00548E+005    2.00548E+005   -1.03653E+004   -1.57438E+004    2.16292E+005   -5.81464E+004    2.13501E+005    4.07776E+004   -1.49103E+004    1.48572E+005   -6.10142E+003    9.05960E+004   -7.95225E+003
             273    2.66562E+005    2.52303E+005    2.52303E+005    6.78021E+003   -3.12188E+004    2.83522E+005   -7.59550E+004    2.60364E+005    5.77602E+004   -2.84455E+004    1.98550E+005   -2.36526E+003    1.00664E+005   -2.03984E+004
             274    3.19231E+005    3.21253E+005    3.21253E+005    2.64026E+004   -1.77588E+004    3.39012E+005   -1.09966E+005    3.12247E+005    6.30997E+004   -1.65109E+004    2.83308E+005    4.88080E+003    9.88657E+004   -7.13849E+003
             275    3.65146E+005    3.66670E+005    3.66670E+005    3.62492E+004   -2.53628E+004    3.92033E+005   -1.25852E+005    3.53167E+005    8.26309E+004   -2.37400E+004    3.18665E+005    1.05277E+004    1.16712E+005   -2.35750E+001
             276    5.51210E+005    5.78486E+005    5.78486E+005    6.44780E+004   -3.60086E+003    5.82087E+005   -2.13121E+005    5.41630E+005    3.09026E+004    6.39463E+004    5.44514E+005   -1.27899E+004    1.35070E+005   -1.51956E+004
             277    6.06397E+005    6.40592E+005    6.40592E+005    8.82702E+004   -8.29199E+003    6.48884E+005   -2.40190E+005    5.88726E+005    2.63219E+004    8.81971E+004    6.06051E+005   -7.42147E+003    1.45214E+005   -9.06597E+003
             278    6.29511E+005    6.66362E+005    6.66362E+005    9.71552E+004   -9.76113E+003    6.76123E+005   -2.51252E+005    6.08580E+005    2.50142E+004    9.71548E+004    6.31587E+005   -3.14118E+002    1.49341E+005   -2.77185E+002
             279    6.08403E+005    6.42369E+005    6.42369E+005    8.82692E+004   -8.69100E+003    6.51060E+005   -2.40649E+005    5.90644E+005    2.61972E+004    8.81989E+004    6.07551E+005    7.58741E+003    1.45999E+005    9.34693E+003
             280    5.53615E+005    5.81679E+005    5.81679E+005    6.54768E+004   -2.98200E+003    5.84661E+005   -2.14724E+005    5.43970E+005    3.19416E+004    6.49132E+004    5.47319E+005    1.24587E+004    1.36267E+005    1.42559E+004
             281    4.85385E+005    5.05355E+005    5.05355E+005    3.57214E+004    5.61950E+003    4.99735E+005   -1.82232E+005    4.83278E+005    4.39161E+004    3.30006E+004    4.69779E+005    1.40173E+004    1.26772E+005    1.49308E+004
             282    4.26546E+005    4.36094E+005    4.36094E+005    2.71996E+004   -6.14651E+003    4.42241E+005   -1.52382E+005    4.23599E+005    6.37598E+004   -3.67732E+003    3.97065E+005    1.22984E+004    1.19507E+005    1.32281E+004
             283    3.96228E+005    3.98213E+005    3.98213E+005    4.43349E+004   -2.98709E+004    4.28084E+005   -1.37559E+005    3.80120E+005    9.53333E+004   -2.92241E+004    3.46568E+005   -1.97510E+003    1.24804E+005    1.04875E+004
             284    3.86762E+005    3.90982E+005    3.90982E+005    3.62132E+004   -2.13262E+004    4.12309E+005   -1.35290E+005    3.76952E+005    7.95891E+004   -2.04007E+004    3.46681E+005   -4.57744E+003    1.17343E+005    7.57078E+003
             285    4.66596E+005    4.58447E+005    4.58447E+005    7.72248E+003   -2.25482E+004    4.80995E+005   -1.47874E+005    4.64379E+005   -5.26648E+003    6.90561E+003    4.41982E+005   -1.24254E+004    8.32788E+004   -2.38594E+004
             286    3.98829E+005    3.90843E+005    3.90843E+005    1.83402E+001   -1.55342E+004    4.06377E+005   -1.25109E+005    3.98145E+005    1.88472E+004   -1.21510E+004    3.68631E+005   -1.07680E+004    8.67240E+004   -2.58257E+004
             287    3.40880E+005    3.08105E+005    3.08105E+005   -2.67630E+004   -3.84843E+004    3.46589E+005   -8.09526E+004    3.40426E+005   -2.12835E+004   -2.67485E+004    2.90890E+005   -9.30895E+003    7.10863E+004   -2.30313E+004
             288    2.70401E+005    2.50243E+005    2.50243E+005   -1.61364E+004   -2.40075E+004    2.74251E+005   -7.00331E+004    2.70143E+005    9.39522E+003   -2.21606E+004    2.22865E+005   -7.12625E+003    7.81222E+004   -2.12446E+004
             289    2.21043E+005    1.87006E+005    1.87006E+005   -2.20899E+004   -4.43061E+004    2.31312E+005   -4.02034E+004    2.18510E+005   -1.68353E+004   -2.06685E+004    1.58114E+005   -5.02637E+003    7.44885E+004   -1.67933E+004
             290    1.68593E+005    1.41410E+005    1.41410E+005   -1.19415E+004   -3.91221E+004    1.80532E+005   -3.01155E+004    1.63554E+005    8.40504E+003   -1.15707E+004    9.35121E+004   -3.03025E+003    7.81531E+004   -1.55999E+004
             291    1.42255E+005    9.18169E+004    9.18169E+004   -5.40173E+003   -7.14573E+004    1.63274E+005   -4.98595E+003    9.76387E+004   -1.16842E+004   -4.87515E+003    3.15172E+004   -9.87171E+002    7.75455E+004   -1.38470E+004
             292    4.94897E+005    4.92824E+005    4.92824E+005    1.56759E+004   -1.80908E+004    5.10915E+005   -1.63470E+005    4.92295E+005   -2.45507E+003    1.55684E+004    4.77296E+005   -6.85957E+003    8.63325E+004   -1.39317E+004
             293    4.19690E+005    4.15545E+005    4.15545E+005   -1.13534E+003   -7.09006E+003    4.22635E+005   -1.35773E+005    4.19595E+005    1.76836E+004   -5.47871E+003    3.95115E+005   -5.12475E+003    8.92736E+004   -1.18060E+004
             294    3.54937E+005    3.21643E+005    3.21643E+005   -2.73290E+004   -3.89725E+004    3.60615E+005   -8.51137E+004    3.54507E+005   -2.36098E+004   -2.73600E+004    3.06311E+005   -4.19672E+003    7.19210E+004   -1.01690E+004
             295    2.79556E+005    2.61493E+005    2.61493E+005   -1.57110E+004   -2.03575E+004    2.81850E+005   -7.51414E+004    2.79469E+005    9.15476E+003   -2.00732E+004    2.36343E+005   -2.89247E+003    7.92574E+004   -7.57993E+003
             296    2.26396E+005    1.90669E+005    1.90669E+005   -2.37684E+004   -4.60398E+004    2.36709E+005   -4.02869E+004    2.23912E+005   -1.90642E+004   -2.35977E+004    1.63523E+005   -1.77451E+003    7.51801E+004   -5.87239E+003
             297    1.69843E+005    1.45164E+005    1.45164E+005   -9.13123E+003   -3.68235E+004    1.81987E+005   -3.30698E+004    1.64649E+005    9.48305E+003   -9.08010E+003    9.88063E+004   -9.75758E+002    7.91811E+004   -4.22330E+003
             298    1.42530E+005    9.08606E+004    9.08606E+004   -7.99331E+003   -7.25216E+004    1.63382E+005   -3.44857E+003    1.00851E+005   -1.32538E+004   -7.95590E+003    3.15553E+004   -2.85290E+002    7.84730E+004   -3.74443E+003
             299    5.04793E+005    5.05787E+005    5.05787E+005    1.96707E+004   -1.58103E+004    5.21597E+005   -1.69883E+005    5.01976E+005   -7.05380E+002    1.96757E+004    4.90677E+005    4.27299E+002    8.74650E+004    1.60515E+003
             300    4.26411E+005    4.23172E+005    4.23172E+005   -1.89556E+003   -4.56987E+003    4.27742E+005   -1.38902E+005    4.26392E+005    1.80685E+004   -4.45146E+003    4.03089E+005    1.19821E+003    9.01362E+004    3.13300E+003
             301    3.59079E+005    3.27460E+005    3.27460E+005   -2.58602E+004   -3.71140E+004    3.64574E+005   -8.81620E+004    3.58682E+005   -2.21702E+004   -2.57993E+004    3.12455E+005    1.63327E+003    7.22135E+004    5.28658E+003
             302    2.81567E+005    2.63358E+005    2.63358E+005   -1.50964E+004   -2.12204E+004    2.84579E+005   -7.56804E+004    2.81417E+005    9.88757E+003   -2.10764E+004    2.38230E+005    2.00049E+003    7.95584E+004    6.04267E+003
             303    2.27532E+005    1.92929E+005    1.92929E+005   -2.24443E+004   -4.50702E+004    2.38000E+005   -4.18049E+004    2.24980E+005   -1.81453E+004   -2.22246E+004    1.65785E+005    1.78455E+003    7.53162E+004    6.98685E+003
             304    1.70510E+005    1.45030E+005    1.45030E+005   -1.07488E+004   -3.71349E+004    1.82165E+005   -3.23821E+004    1.65823E+005    9.39663E+003   -1.06913E+004    9.84410E+004    1.23800E+003    7.91811E+004    6.80499E+003
             305    1.42690E+005    9.15682E+004    9.15682E+004   -6.34275E+003   -7.21505E+004    1.63719E+005   -4.35831E+003    9.87823E+004   -1.28624E+004   -6.21860E+003    3.21559E+004    4.39619E+002    7.84034E+004    6.99834E+003
             306    4.95241E+005    4.93462E+005    4.93462E+005    1.61499E+004   -1.79462E+004    5.11408E+005   -1.63889E+005    4.92590E+005   -2.16300E+003    1.61504E+004    4.77678E+005    7.49082E+003    8.66194E+004    1.62399E+004
             307    4.18586E+005    4.13826E+005    4.13826E+005   -5.06161E+002   -8.88887E+003    4.22714E+005   -1.34810E+005    4.18397E+005    1.81370E+004   -6.45146E+003    3.92745E+005    7.45944E+003    8.92538E+004    1.82747E+004
             308    3.52806E+005    3.19560E+005    3.19560E+005   -2.69871E+004   -3.91892E+004    3.58749E+005   -8.44611E+004    3.52331E+005   -2.32354E+004   -2.68300E+004    3.03449E+005    7.53311E+003    7.13533E+004    1.93067E+004
             309    2.76899E+005    2.57793E+005    2.57793E+005   -1.57554E+004   -2.23380E+004    2.80131E+005   -7.32332E+004    2.76722E+005    9.05855E+003   -2.08137E+004    2.31455E+005    6.61616E+003    7.83834E+004    1.92678E+004
             310    2.24090E+005    1.88442E+005    1.88442E+005   -2.43143E+004   -4.54797E+004    2.33922E+005   -3.95495E+004    2.21825E+005   -1.87534E+004   -2.27069E+004    1.60109E+005    5.31036E+003    7.40348E+004    1.80186E+004
             311    1.69028E+005    1.43144E+005    1.43144E+005   -1.04169E+004   -3.79677E+004    1.81111E+005   -3.15863E+004    1.63862E+005    9.27278E+003   -9.93967E+003    9.54258E+004    3.30882E+003    7.79206E+004    1.70900E+004
             312    1.42599E+005    9.09009E+004    9.09009E+004   -7.60790E+003   -7.26179E+004    1.63519E+005   -3.55838E+003    1.00099E+005   -1.30056E+004   -6.90462E+003    3.05854E+004    1.15030E+003    7.71302E+004    1.64493E+004
             313    4.67844E+005    4.58238E+005    4.58238E+005    5.68202E+003   -2.35237E+004    4.81762E+005   -1.46799E+005    4.65786E+005   -5.51236E+003    4.77716E+003    4.41132E+005    1.34058E+004    8.41467E+004    2.64266E+004
             314    3.95828E+005    3.88988E+005    3.88988E+005    2.37511E+003   -1.54521E+004    4.04441E+005   -1.25304E+005    3.94923E+005    2.12848E+004   -1.11290E+004    3.65756E+005    1.25898E+004    8.65354E+004    3.08916E+004
             315    3.36608E+005    3.02256E+005    3.02256E+005   -2.83149E+004   -4.00807E+004    3.42336E+005   -7.79533E+004    3.36145E+005   -2.15407E+004   -2.81695E+004    2.83570E+005    1.19702E+004    7.05765E+004    3.04012E+004
             316    2.64911E+005    2.45512E+005    2.45512E+005   -1.42481E+004   -2.42656E+004    2.69778E+005   -6.89995E+004    2.64485E+005    1.09789E+004   -2.05605E+004    2.16580E+005    1.06020E+004    7.64390E+004    2.92166E+004
             317    2.16628E+005    1.80511E+005    1.80511E+005   -2.60964E+004   -4.49112E+004    2.25422E+005   -3.65011E+004    2.14778E+005   -1.76482E+004   -2.24951E+004    1.49646E+005    8.05651E+003    7.25953E+004    2.64638E+004
             318    1.65686E+005    1.39070E+005    1.39070E+005   -1.08529E+004   -3.88202E+004    1.77890E+005   -2.97989E+004    1.60246E+005    9.64727E+003   -9.69722E+003    8.94466E+004    5.20689E+003    7.58254E+004    2.47406E+004
             319    1.41587E+005    8.95729E+004    8.95729E+004   -8.13348E+003   -7.28006E+004    1.62373E+005   -2.87959E+003    9.91752E+004   -1.27163E+004   -6.70131E+003    2.80564E+004    1.67678E+003    7.51367E+004    2.34408E+004
             320    4.30428E+005    4.09721E+005    4.09721E+005   -8.08063E+003   -3.23101E+004    4.42031E+005   -1.23110E+005    4.28890E+005   -1.07442E+004   -1.16309E+004    3.91705E+005    1.68802E+004    7.98217E+004    3.14947E+004
             321    3.63783E+005    3.52803E+005    3.52803E+005    2.56266E+003   -2.31572E+004    3.75960E+005   -1.10736E+005    3.61728E+005    2.27150E+004   -1.68382E+004    3.26331E+005    1.66175E+004    8.44104E+004    3.81993E+004
             322    3.13893E+005    2.77771E+005    2.77771E+005   -2.76648E+004   -4.39462E+004    3.21717E+005   -6.87200E+004    3.12941E+005   -2.19656E+004   -2.86305E+004    2.56756E+005    1.65873E+004    6.86952E+004    3.63256E+004
             323    2.48770E+005    2.26708E+005    2.26708E+005   -1.58973E+004   -2.78000E+004    2.54508E+005   -6.10036E+004    2.48129E+005    9.55447E+003   -2.18828E+004    1.95339E+005    1.42280E+004    7.39284E+004    3.43431E+004
             324    2.05706E+005    1.69432E+005    1.69432E+005   -2.73386E+004   -4.41735E+004    2.13606E+005   -3.26401E+004    2.04147E+005   -1.70680E+004   -2.16123E+004    1.36601E+005    1.11411E+004    6.99294E+004    3.13003E+004
             325    1.59300E+005    1.31039E+005    1.31039E+005   -1.22751E+004   -4.04794E+004    1.71518E+005   -2.60947E+004    1.53531E+005    8.46687E+003   -1.01988E+004    8.00161E+004    6.77566E+003    7.29903E+004    2.85930E+004
             326    1.38381E+005    8.78027E+004    8.78027E+004   -7.98281E+003   -7.08512E+004    1.58654E+005   -2.98956E+003    9.75284E+004   -1.15520E+004   -5.83520E+003    2.63559E+004    2.32665E+003    7.23291E+004    2.69906E+004
             327    3.86409E+005    3.56625E+005    3.56625E+005   -2.09311E+004   -3.80655E+004    3.94691E+005   -9.92096E+004    3.85553E+005   -1.48580E+004   -2.48166E+004    3.37303E+005    1.51224E+004    7.77496E+004    3.09131E+004
             328    3.28581E+005    3.18914E+005    3.18914E+005    7.30757E+003   -2.43502E+004    3.43264E+005   -1.00624E+005    3.25124E+005    3.01405E+004   -1.77721E+004    2.89503E+005    1.81055E+004    8.30495E+004    3.78561E+004
             329    2.88433E+005    2.51835E+005    2.51835E+005   -2.86021E+004   -4.39785E+004    2.95814E+005   -5.97515E+004    2.87509E+005   -1.86035E+004   -3.09653E+004    2.28823E+005    1.70839E+004    6.88503E+004    3.49544E+004
             330    2.31473E+005    2.10794E+005    2.10794E+005   -1.30901E+004   -2.75861E+004    2.38380E+005   -5.67060E+004    2.30448E+005    1.37632E+004   -2.08386E+004    1.77193E+005    1.58712E+004    7.21386E+004    3.48829E+004
             331    1.91921E+005    1.55350E+005    1.55350E+005   -2.82825E+004   -4.39048E+004    1.99255E+005   -2.77209E+004    1.90483E+005   -1.55436E+004   -2.21176E+004    1.20824E+005    1.20177E+004    6.83025E+004    3.09244E+004
             332    1.51034E+005    1.24203E+005    1.24203E+005   -1.14655E+004   -3.85354E+004    1.62738E+005   -2.47340E+004    1.45425E+005    9.94230E+003   -8.60311E+003    7.28628E+004    7.87176E+003    7.02477E+004    2.79959E+004
             333    1.32030E+005    8.18206E+004    8.18206E+004   -8.73583E+003   -6.96724E+004    1.51493E+005   -1.13747E+003    9.13183E+004   -1.16914E+004   -6.52475E+003    2.16286E+004    2.57846E+003    6.94999E+004    2.55376E+004
             334    3.50281E+005    3.18082E+005    3.18082E+005   -2.24647E+004   -4.11832E+004    3.59265E+005   -8.48113E+004    3.49153E+005   -2.00136E+004   -2.44912E+004    2.98939E+005    1.23709E+004    7.69010E+004    2.09582E+004
             335    3.02758E+005    2.91408E+005    2.91408E+005    7.46341E+003   -2.71825E+004    3.18590E+005   -9.05629E+004    2.98249E+005    3.43355E+004   -2.18229E+004    2.59176E+005    1.80691E+004    8.55961E+004    2.81011E+004
             336    2.71880E+005    2.35033E+005    2.35033E+005   -2.49636E+004   -4.73470E+004    2.82380E+005   -5.42408E+004    2.69795E+005   -1.63432E+004   -3.20223E+004    2.11088E+005    2.02501E+004    6.92147E+004    3.04409E+004
             337    2.15196E+005    1.91390E+005    1.91390E+005   -1.50668E+004   -3.15916E+004    2.22982E+005   -4.82440E+004    2.13762E+005    1.13785E+004   -2.38362E+004    1.57190E+005    1.82531E+004    7.05152E+004    3.03149E+004
             338    1.78826E+005    1.44905E+005    1.44905E+005   -2.54819E+004   -4.13093E+004    1.86214E+005   -2.60378E+004    1.77240E+005   -1.18660E+004   -2.02339E+004    1.10213E+005    1.45412E+004    6.62611E+004    2.69443E+004
             339    1.39832E+005    1.11797E+005    1.11797E+005   -1.28975E+004   -3.93838E+004    1.51181E+005   -1.98384E+004    1.34012E+005    7.11031E+003   -9.42101E+003    6.18260E+004    8.76879E+003    6.75394E+004    2.21048E+004
             340    1.23544E+005    7.84177E+004    7.84177E+004   -5.94884E+003   -6.33895E+004    1.41807E+005   -3.02645E+003    8.46561E+004   -8.28921E+003   -4.14684E+003    2.15154E+004    3.08531E+003    6.68956E+004    1.85074E+004
             341    3.33935E+005    3.23343E+005    3.23343E+005    3.12716E+003   -2.27999E+004    3.46142E+005   -1.01223E+005    3.31659E+005    3.58480E+004   -2.20749E+004    2.89897E+005   -2.95579E+003    9.80120E+004    4.32153E+003
             342    2.99767E+005    2.86767E+005    2.86767E+005   -1.11163E+003   -2.36212E+004    3.10388E+005   -8.73446E+004    2.97857E+005    2.80121E+004   -2.18012E+004    2.55823E+005    9.69242E+003    8.76808E+004    1.62047E+004
             343    2.56163E+005    2.32447E+005    2.32447E+005   -1.69441E+004   -2.99901E+004    2.62437E+005   -6.18374E+004    2.55414E+005    1.23448E+004   -2.72638E+004    2.00431E+005    1.07129E+004    8.11264E+004    1.94549E+004
             344    2.10037E+005    1.86687E+005    1.86687E+005   -1.84321E+004   -2.79442E+004    2.14631E+005   -4.67702E+004    2.09551E+005    9.01950E+003   -2.13247E+004    1.52616E+005    1.32241E+004    7.44090E+004    1.89974E+004
             345    1.65931E+005    1.38479E+005    1.38479E+005   -1.74047E+004   -3.59416E+004    1.74421E+005   -2.83777E+004    1.63577E+005    1.06283E+003   -1.56123E+004    9.96826E+004    1.07218E+004    7.03961E+004    1.49779E+004
             346    1.33861E+005    1.05863E+005    1.05863E+005   -6.92974E+003   -4.20601E+004    1.47924E+005   -1.89578E+004    1.22832E+005    3.25956E+003   -5.94835E+003    5.95623E+004    7.80210E+003    6.77413E+004    8.09166E+003
             347    1.17465E+005    7.54383E+004    7.54383E+004   -3.75065E+003   -5.95226E+004    1.34961E+005   -4.05501E+003    7.82015E+004   -1.64514E+003   -3.48642E+003    1.72966E+004    2.41894E+003    6.66658E+004    4.09626E+003
             348    1.25906E+005    8.45804E+004    8.45804E+004    1.84938E+003   -6.03179E+004    1.44898E+005   -8.70397E+003    7.85482E+004    3.91301E+003    6.17961E+002    2.15809E+004    2.63462E+003    7.02416E+004   -1.47044E+004
             349    1.44942E+005    1.17080E+005    1.17080E+005   -2.60688E+003   -4.40775E+004    1.61157E+005   -2.34652E+004    1.30560E+005    1.58538E+004   -4.88917E+003    5.94308E+004    5.61447E+003    7.62877E+004   -8.58363E+003
             350    1.78125E+005    1.59382E+005    1.59382E+005   -7.70675E+003   -2.80349E+004    1.87417E+005   -4.12134E+004    1.75487E+005    2.88859E+004   -1.03313E+004    1.05086E+005    7.30983E+003    8.41230E+004   -1.34001E+003
             351    2.16889E+005    2.02161E+005    2.02161E+005   -8.49094E+003   -2.04679E+004    2.22629E+005   -5.77341E+004    2.16143E+005    4.71196E+004   -2.00888E+004    1.46171E+005    4.69268E+003    9.27409E+004    7.88781E+003
             352    2.63638E+005    2.53393E+005    2.53393E+005    9.72239E+003   -2.64718E+004    2.79865E+005   -7.88812E+004    2.57959E+005    5.70782E+004   -2.58884E+004    2.05454E+005    3.10653E+003    9.64321E+004    1.10981E+004
             353    3.05073E+005    3.04322E+005    3.04322E+005    2.38205E+004   -2.04776E+004    3.24800E+005   -1.02555E+005    2.97708E+005    7.29656E+004   -1.96464E+004    2.54346E+005   -1.54641E+003    1.07285E+005    9.27721E+003
             354    3.55594E+005    3.60011E+005    3.60011E+005    3.34484E+004   -1.88274E+004    3.78838E+005   -1.24877E+005    3.46791E+005    6.96671E+004   -1.64312E+004    3.21396E+005   -5.00128E+003    1.05212E+005    1.53773E+004
             355    4.09654E+005    7.24647E+004   -3.86707E+005   -5.86981E+004   -3.86707E+005    4.59172E+005    1.24313E+005   -3.57621E+005   -1.29299E+005    7.15812E+004   -3.15222E+005   -1.10869E+004    1.35611E+005   -1.56655E+003
             356    3.78151E+005    2.69740E+004   -3.80389E+005   -4.05490E+004   -3.80389E+005    4.07363E+005    1.31321E+005   -3.64215E+005   -8.95847E+004    2.68062E+004   -3.31186E+005    4.37817E+003    1.19531E+005   -3.60387E+003
             357    4.20556E+005    3.06455E+003   -4.30734E+005   -2.48088E+004   -4.30734E+005    4.33799E+005    1.50826E+005   -4.18470E+005   -5.99897E+004    1.55025E+002   -3.92644E+005    1.21127E+004    1.17859E+005   -1.25311E+004
             358    4.80040E+005   -5.08027E+003   -5.01328E+005   -3.93302E+004   -5.01328E+005    4.96248E+005    1.81913E+005   -4.77279E+005   -4.18873E+004   -3.70015E+004   -4.66850E+005    1.38964E+004    1.24570E+005   -1.42949E+004
             359    4.28433E+005    3.25063E+004   -4.07619E+005    8.07618E+003   -4.07619E+005    4.40125E+005    1.22345E+005   -4.26861E+005    1.05202E+004    1.25001E+004   -3.90057E+005    1.68984E+004    7.91351E+004   -2.97324E+004
             360    3.65572E+005    2.27238E+004   -3.54333E+005   -1.44573E+003   -3.54333E+005    3.77057E+005    1.11018E+005   -3.63768E+005   -2.06525E+004    1.69770E+004   -3.29379E+005    1.55893E+004    8.33617E+004   -3.52164E+004
             361    3.17524E+005    4.38451E+004   -2.79859E+005    3.11021E+004   -2.79859E+005    3.23704E+005    6.83038E+004   -3.16948E+005    2.30610E+004    3.15472E+004   -2.59520E+005    1.41708E+004    6.94965E+004   -3.37042E+004
             362    2.53574E+005    2.39342E+004   -2.33520E+005    1.59870E+004   -2.33520E+005    2.57454E+005    6.45330E+004   -2.53294E+005   -9.60084E+003    1.95342E+004   -2.03532E+005    1.18408E+004    7.53629E+004   -3.01776E+004
             363    2.10305E+005    4.58676E+004   -1.73133E+005    2.72366E+004   -1.73133E+005    2.19001E+005    3.33429E+004   -2.08436E+005    1.77053E+004    2.33006E+004   -1.41035E+005    8.52195E+003    7.22723E+004   -2.72188E+004
             364    1.62650E+005    3.95568E+004   -1.36198E+005    9.01695E+003   -1.36198E+005    1.75755E+005    2.92082E+004   -1.56002E+005   -8.70534E+003    7.50345E+003   -8.64227E+004    5.19495E+003    7.55853E+004   -2.36093E+004
             365    1.41126E+005    7.26449E+004   -8.90305E+004    9.48358E+003   -8.90305E+004    1.61675E+005    2.30069E+003   -1.01123E+005    1.19569E+004    8.27379E+003   -2.71328E+004    1.70309E+003    7.52227E+004   -2.26201E+004
             366    3.82971E+005    3.96111E+004   -3.53180E+005    1.91516E+004   -3.53180E+005    3.92791E+005    9.81390E+004   -3.81739E+005    1.49477E+004    2.60514E+004   -3.35416E+005    1.63582E+004    7.43077E+004   -2.90456E+004
             367    3.32384E+005    3.22260E+004   -3.16201E+005   -2.60146E+003   -3.16201E+005    3.48427E+005    9.55254E+004   -3.28241E+005   -2.52629E+004    2.57760E+004   -2.87089E+005    1.75361E+004    8.21449E+004   -3.99668E+004
             368    2.89009E+005    4.18559E+004   -2.54088E+005    2.74470E+004   -2.54088E+005    2.95944E+005    6.15952E+004   -2.88200E+005    1.87526E+004    2.77830E+004   -2.31321E+005    1.66758E+004    6.77948E+004   -3.66383E+004
             369    2.33808E+005    2.86311E+004   -2.10443E+005    1.77152E+004   -2.10443E+005    2.39074E+005    5.46990E+004   -2.33233E+005   -9.87321E+003    2.24162E+004   -1.76640E+005    1.38912E+004    7.32643E+004   -3.53345E+004
             370    1.95861E+005    4.27049E+004   -1.62161E+005    2.32429E+004   -1.62161E+005    2.04866E+005    3.20711E+004   -1.93668E+005    1.40540E+004    1.78519E+004   -1.28119E+005    1.06940E+004    6.98406E+004   -2.95405E+004
             371    1.57171E+005    4.26725E+004   -1.26941E+005    1.37774E+004   -1.26941E+005    1.69614E+005    2.34970E+004   -1.51021E+005   -7.07680E+003    1.19096E+004   -7.53239E+004    6.57191E+003    7.25705E+004   -2.86342E+004
             372    1.36733E+005    6.94046E+004   -8.76119E+004    5.22223E+003   -8.76119E+004    1.57016E+005    4.32835E+003   -9.25113E+004    9.48687E+003    3.06738E+003   -2.55393E+004    2.31161E+003    7.20701E+004   -2.61684E+004
             373    3.53221E+005    5.38047E+004   -3.08609E+005    3.46396E+004   -3.08609E+005    3.62413E+005    7.33881E+004   -3.52048E+005    2.39813E+004    4.54934E+004   -2.89639E+005    1.50570E+004    7.39078E+004   -2.66502E+004
             374    2.96048E+005    2.65294E+004   -2.84581E+005   -6.33793E+003   -2.84581E+005    3.11110E+005    8.81298E+004   -2.91901E+005   -3.12164E+004    1.91073E+004   -2.52280E+005    2.02840E+004    8.17794E+004   -3.56843E+004
             375    2.64450E+005    4.89818E+004   -2.24723E+005    2.93794E+004   -2.24723E+005    2.73705E+005    4.87874E+004   -2.62807E+005    2.00247E+004    3.38969E+004   -2.00284E+005    1.95602E+004    6.77791E+004   -3.27582E+004
             376    2.14923E+005    2.68413E+004   -1.94758E+005    1.27999E+004   -1.94758E+005    2.21599E+005    5.17056E+004   -2.13887E+005   -1.23779E+004    1.86064E+004   -1.61345E+005    1.79219E+004    7.00152E+004   -3.03035E+004
             377    1.82975E+005    4.37711E+004   -1.45562E+005    3.03123E+004   -1.45562E+005    1.89333E+005    2.38262E+004   -1.81857E+005    1.44856E+004    2.37736E+004   -1.09738E+005    1.35118E+004    6.70449E+004   -3.04177E+004
             378    1.43925E+005    3.84302E+004   -1.17803E+005    9.38518E+003   -1.17803E+005    1.56233E+005    2.33291E+004   -1.37097E+005   -8.58465E+003    5.71527E+003   -6.71179E+004    8.43317E+003    6.87242E+004   -2.49298E+004
             379    1.28991E+005    6.75905E+004   -8.01237E+004    1.02901E+004   -8.01237E+004    1.47714E+005    7.47722E+002   -9.31515E+004    1.02793E+004    8.36645E+003   -2.08889E+004    2.87853E+003    6.84054E+004   -2.35264E+004
             380    3.05850E+005    4.98598E+004   -2.69260E+005    2.13195E+004   -2.69260E+005    3.19120E+005    6.60270E+004   -3.02833E+005    3.39869E+004    2.08868E+004   -2.52955E+005    4.00945E+003    6.91788E+004   -1.14162E+004
             381    2.79664E+005    2.30727E+004   -2.70763E+005   -7.83999E+003   -2.70763E+005    2.93836E+005    8.51768E+004   -2.75781E+005   -4.18897E+004    2.16820E+004   -2.35323E+005    9.50386E+003    8.88722E+004   -1.27990E+004
             382    2.58119E+005    3.67160E+004   -2.28813E+005    2.11961E+004   -2.28813E+005    2.65529E+005    5.69669E+004   -2.57066E+005    7.28348E+003    2.55485E+004   -2.03733E+005    1.33741E+004    7.41397E+004   -1.71568E+004
             383    2.06083E+005    2.79860E+004   -1.82354E+005    1.91896E+004   -1.82354E+005    2.10340E+005    4.50595E+004   -2.05660E+005   -1.26952E+004    2.34963E+004   -1.45980E+005    1.34476E+004    7.39901E+004   -2.31347E+004
             384    1.66527E+005    4.10837E+004   -1.36996E+005    1.48707E+004   -1.36996E+005    1.78079E+005    2.70137E+004   -1.61788E+005    7.99803E+003    1.26173E+004   -1.01656E+005    1.22565E+004    6.80151E+004   -1.68380E+004
             385    1.34327E+005    4.05157E+004   -1.06016E+005    1.12961E+004   -1.06016E+005    1.46532E+005    1.80682E+004   -1.26878E+005   -6.36174E+003    9.30836E+003   -5.71512E+004    7.51968E+003    6.75769E+004   -1.35804E+004
             386    1.18802E+005    6.14804E+004   -7.53814E+004    1.14877E+003   -7.53814E+004    1.36862E+005    4.25075E+003   -6.98509E+004    6.20906E+003    3.39818E+002   -1.93011E+004    2.95305E+003    6.66336E+004   -8.79747E+003
             387    1.24772E+005    6.01075E+004   -8.30655E+004    2.45860E+003   -8.30655E+004    1.43173E+005    6.83314E+003   -8.61827E+004   -4.24146E+003    3.61445E+003   -1.98724E+004    2.53145E+003    6.99304E+004    1.22381E+004
             388    1.42541E+005    4.44583E+004   -1.15624E+005   -2.44246E+003   -1.15624E+005    1.60082E+005    2.45359E+004   -1.23298E+005   -1.31051E+004   -2.74789E+002   -6.02278E+004    6.18859E+003    7.52652E+004    8.53782E+003
             389    1.75362E+005    2.98782E+004   -1.53663E+005    1.21769E+004   -1.53663E+005    1.83542E+005    3.72027E+004   -1.73335E+005   -2.74282E+004    1.31370E+004   -9.73170E+004    7.62636E+003    8.40249E+004   -3.25617E+003
             390    2.12975E+005    1.58353E+004   -1.99776E+005    1.04598E+004   -1.99776E+005    2.15612E+005    5.78271E+004   -2.12822E+005   -4.04888E+004    1.49335E+004   -1.47926E+005    6.03080E+003    9.03919E+004   -7.49065E+003
             391    2.65021E+005    3.11984E+004   -2.50679E+005   -6.56651E+003   -2.50679E+005    2.81878E+005    7.53491E+004   -2.58863E+005   -5.76958E+004    2.84540E+004   -1.96805E+005    2.35826E+003    1.00396E+005   -2.01957E+004
             392    3.17430E+005    1.77822E+004   -3.19227E+005   -2.58988E+004   -3.19227E+005    3.37009E+005    1.09114E+005   -3.10561E+005   -6.28397E+004    1.65980E+004   -2.81101E+005   -4.51779E+003    9.87463E+004   -7.33791E+003
             393    3.66054E+005    2.53738E+004   -3.67941E+005   -3.72196E+004   -3.67941E+005    3.93315E+005    1.26596E+005   -3.53712E+005   -8.35300E+004    2.36951E+004   -3.19952E+005   -1.06543E+004    1.16778E+005   -4.10009E+002
             394    1.17614E+005    5.93086E+004   -7.57871E+004    3.80335E+003   -7.57871E+004    1.35096E+005    4.22507E+003   -7.89860E+004    1.59371E+003    3.53722E+003   -1.78061E+004   -2.51653E+003    6.67040E+004    4.00228E+003
             395    1.23786E+005    6.28415E+004   -7.91392E+004    6.13286E+003   -7.91392E+004    1.41981E+005    3.38827E+003   -8.63949E+004    8.19083E+003    4.30147E+003   -2.26571E+004   -3.21222E+003    6.69076E+004    1.83963E+004
             396    1.32459E+005    6.88890E+004   -8.29322E+004    9.04743E+003   -8.29322E+004    1.51821E+005    1.66525E+003   -9.39485E+004    1.15717E+004    6.75111E+003   -2.33185E+004   -2.77033E+003    6.94757E+004    2.56220E+004
             397    1.38983E+005    6.99448E+004   -8.91872E+004    8.37863E+003   -8.91872E+004    1.59132E+005    3.62127E+003   -1.00654E+005    1.14847E+004    6.16053E+003   -2.85090E+004   -2.51416E+003    7.23264E+004    2.70128E+004
             398    1.42197E+005    7.19842E+004   -9.09013E+004    8.46211E+003   -9.09013E+004    1.62885E+005    3.48500E+003   -1.02091E+005    1.26405E+004    6.98121E+003   -3.00767E+004   -1.81325E+003    7.51311E+004    2.35298E+004
             399    1.43088E+005    7.20477E+004   -9.18983E+004    7.83311E+003   -9.18983E+004    1.63946E+005    4.00585E+003   -1.02229E+005    1.29823E+004    7.11451E+003   -3.21144E+004   -1.21814E+003    7.71463E+004    1.64463E+004
             400    1.42954E+005    7.18507E+004   -9.21070E+004    6.43262E+003   -9.21070E+004    1.63958E+005    4.60788E+003   -9.99043E+004    1.28231E+004    6.30411E+003   -3.29508E+004   -4.65811E+002    7.84159E+004    7.04036E+003
             401    1.42574E+005    7.24556E+004   -9.09724E+004    7.93727E+003   -9.09724E+004    1.63428E+005    3.52652E+003   -1.00934E+005    1.31958E+004    7.90029E+003   -3.16757E+004    2.79411E+002    7.84875E+004   -3.75249E+003
             402    1.42135E+005    7.15915E+004   -9.15795E+004    5.29969E+003   -9.15795E+004    1.63171E+005    4.89609E+003   -9.69975E+004    1.16748E+004    4.77426E+003   -3.11374E+004    9.70871E+002    7.75398E+004   -1.38722E+004
             403    1.34471E+005    4.17748E+004   -1.06667E+005    7.00445E+003   -1.06667E+005    1.48442E+005    1.92959E+004   -1.23737E+005   -3.42602E+003    6.02882E+003   -6.04905E+004   -7.87143E+003    6.78566E+004    8.12100E+003
             404    1.40722E+005    3.89086E+004   -1.12853E+005    1.33180E+004   -1.12853E+005    1.51762E+005    2.02088E+004   -1.35338E+005   -6.90671E+003    9.75245E+003   -6.34722E+004   -8.96290E+003    6.75054E+004    2.21460E+004
             405    1.52574E+005    3.78745E+004   -1.25945E+005    1.21001E+004   -1.25945E+005    1.63820E+005    2.53236E+004   -1.47557E+005   -9.59391E+003    9.08678E+003   -7.54636E+004   -8.12069E+003    7.01859E+004    2.81936E+004
             406    1.61054E+005    3.97348E+004   -1.33069E+005    1.28512E+004   -1.33069E+005    1.72804E+005    2.68276E+004   -1.55885E+005   -8.16153E+003    1.06474E+004   -8.29688E+004   -6.99453E+003    7.29437E+004    2.87067E+004
             407    1.67329E+005    3.81218E+004   -1.41003E+005    1.12863E+004   -1.41003E+005    1.79125E+005    3.05316E+004   -1.62381E+005   -9.45732E+003    1.00739E+004   -9.22115E+004   -5.32543E+003    7.58184E+004    2.46480E+004
             408    1.70164E+005    3.74496E+004   -1.44527E+005    1.06415E+004   -1.44527E+005    1.81977E+005    3.21454E+004   -1.65313E+005   -9.21142E+003    1.01478E+004   -9.73725E+004   -3.35050E+003    7.79097E+004    1.69162E+004
             409    1.71035E+005    3.68926E+004   -1.45678E+005    1.08289E+004   -1.45678E+005    1.82570E+005    3.26521E+004   -1.66479E+005   -9.38504E+003    1.07720E+004   -9.93432E+004   -1.21996E+003    7.91737E+004    6.60391E+003
             410    1.69778E+005    3.68913E+004   -1.45074E+005    9.08213E+003   -1.45074E+005    1.81965E+005    3.30336E+004   -1.64536E+005   -9.40572E+003    9.02806E+003   -9.87231E+004    1.00064E+003    7.91598E+004   -4.42748E+003
             411    1.68083E+005    3.93052E+004   -1.40841E+005    1.17815E+004   -1.40841E+005    1.80146E+005    2.99179E+004   -1.62897E+005   -8.53666E+003    1.14103E+004   -9.26275E+004    3.04906E+003    7.81543E+004   -1.58443E+004
             412    1.67320E+005    3.55930E+004   -1.39928E+005    1.77643E+004   -1.39928E+005    1.75521E+005    2.88568E+004   -1.65163E+005   -1.31814E+003    1.59965E+004   -1.01249E+005   -1.08198E+004    7.05772E+004    1.51133E+004
             413    1.81042E+005    4.07510E+004   -1.47358E+005    2.56741E+004   -1.47358E+005    1.88109E+005    2.69775E+004   -1.79621E+005    1.14922E+004    2.05134E+004   -1.12938E+005   -1.47099E+004    6.63983E+004    2.71658E+004
             414    1.95156E+005    4.31310E+004   -1.58832E+005    2.87161E+004   -1.58832E+005    2.01963E+005    2.89951E+004   -1.93952E+005    1.52283E+004    2.25156E+004   -1.24729E+005   -1.23078E+004    6.84233E+004    3.12244E+004
             415    2.09204E+005    4.36170E+004   -1.73119E+005    2.76370E+004   -1.73119E+005    2.16736E+005    3.39549E+004   -2.07824E+005    1.69805E+004    2.19553E+004   -1.40800E+005   -1.12678E+004    7.00519E+004    3.14062E+004
             416    2.19535E+005    4.45159E+004   -1.83572E+005    2.62717E+004   -1.83572E+005    2.28088E+005    3.75949E+004   -2.17820E+005    1.76404E+004    2.27370E+004   -1.53162E+005   -8.06745E+003    7.26963E+004    2.63074E+004
             417    2.25907E+005    4.54294E+004   -1.90262E+005    2.43887E+004   -1.90262E+005    2.35691E+005    4.01479E+004   -2.23686E+005    1.89414E+004    2.28561E+004   -1.62241E+005   -5.20755E+003    7.40891E+004    1.76381E+004
             418    2.28077E+005    4.50581E+004   -1.93500E+005    2.24064E+004   -1.93500E+005    2.38558E+005    4.20118E+004   -2.25526E+005    1.82033E+004    2.22113E+004   -1.66450E+005   -1.68154E+003    7.53384E+004    6.58601E+003
             419    2.25868E+005    4.61509E+004   -1.90117E+005    2.36701E+004   -1.90117E+005    2.36268E+005    4.00986E+004   -2.23330E+005    1.91183E+004    2.34776E+004   -1.62892E+005    1.89495E+003    7.51658E+004   -6.21169E+003
             420    2.19785E+005    4.46479E+004   -1.85578E+005    2.20136E+004   -1.85578E+005    2.30226E+005    3.96389E+004   -2.17139E+005    1.70570E+004    2.05472E+004   -1.56521E+005    5.07204E+003    7.44115E+004   -1.70257E+004
             421    2.12339E+005    2.78835E+004   -1.89083E+005    1.83042E+004   -1.89083E+005    2.16966E+005    4.76317E+004   -2.11852E+005   -9.28744E+003    2.15235E+004   -1.55131E+005   -1.32432E+004    7.46902E+004    1.92570E+004
             422    2.18637E+005    3.21123E+004   -1.94682E+005    1.47630E+004   -1.94682E+005    2.26794E+005    4.92689E+004   -2.17080E+005   -1.09842E+004    2.42374E+004   -1.61060E+005   -1.84193E+004    7.05385E+004    3.05935E+004
             423    2.35975E+005    2.78949E+004   -2.15314E+005    1.26935E+004   -2.15314E+005    2.43209E+005    5.82418E+004   -2.34870E+005   -1.34788E+004    2.10929E+004   -1.82339E+005   -1.59917E+004    7.22570E+004    3.51522E+004
             424    2.53049E+005    2.78830E+004   -2.31189E+005    1.53716E+004   -2.31189E+005    2.59072E+005    6.26448E+004   -2.52351E+005   -9.50476E+003    2.19970E+004   -2.00427E+005   -1.42663E+004    7.40347E+004    3.42622E+004
             425    2.67983E+005    2.40797E+004   -2.48881E+005    1.38308E+004   -2.48881E+005    2.72960E+005    7.03234E+004   -2.67541E+005   -1.11108E+004    2.05188E+004   -2.20378E+005   -1.04583E+004    7.66024E+004    2.86975E+004
             426    2.78237E+005    2.20942E+004   -2.59440E+005    1.53788E+004   -2.59440E+005    2.81534E+005    7.39889E+004   -2.78054E+005   -9.35761E+003    2.06711E+004   -2.33280E+005   -6.43820E+003    7.85063E+004    1.85706E+004
             427    2.81471E+005    2.11030E+004   -2.63409E+005    1.49187E+004   -2.63409E+005    2.84512E+005    7.57958E+004   -2.81318E+005   -1.01205E+004    2.09870E+004   -2.38254E+005   -1.78836E+003    7.96211E+004    5.43402E+003
             428    2.78258E+005    2.02867E+004   -2.60247E+005    1.56788E+004   -2.60247E+005    2.80534E+005    7.47605E+004   -2.78172E+005   -9.36176E+003    1.99834E+004   -2.34903E+005    2.99840E+003    7.92842E+004   -8.04399E+003
             429    2.68659E+005    2.38924E+004   -2.48624E+005    1.60049E+004   -2.48624E+005    2.72516E+005    6.95755E+004   -2.68399E+005   -9.80981E+003    2.20291E+004   -2.20946E+005    7.16326E+003    7.82139E+004   -2.12698E+004
             430    2.58561E+005    3.00899E+004   -2.34987E+005    1.65249E+004   -2.34987E+005    2.65076E+005    6.27906E+004   -2.57758E+005   -1.24985E+004    2.72991E+004   -2.03172E+005   -1.08631E+004    8.13046E+004    1.94911E+004
             431    2.75722E+005    4.68981E+004   -2.39359E+005    2.44558E+004   -2.39359E+005    2.86257E+005    5.60017E+004   -2.73656E+005    1.57921E+004    3.16897E+004   -2.15487E+005   -2.02658E+004    6.96116E+004    3.07329E+004
             432    2.93618E+005    4.38378E+004   -2.57223E+005    2.83383E+004   -2.57223E+005    3.01061E+005    6.16824E+004   -2.92696E+005    1.86438E+004    3.07546E+004   -2.34446E+005   -1.70626E+004    6.91639E+004    3.52200E+004
             433    3.18644E+005    4.38602E+004   -2.82638E+005    2.75222E+004   -2.82638E+005    3.26499E+005    7.04187E+004   -3.17699E+005    2.23026E+004    2.83677E+004   -2.61926E+005   -1.63728E+004    6.89285E+004    3.61919E+004
             434    3.39470E+005    4.01376E+004   -3.05092E+005    2.83083E+004   -3.05092E+005    3.45230E+005    7.88821E+004   -3.39006E+005    2.20236E+004    2.80101E+004   -2.86680E+005   -1.16174E+004    7.06629E+004    2.98512E+004
             435    3.53411E+005    3.95292E+004   -3.19974E+005    2.70123E+004   -3.19974E+005    3.59503E+005    8.44774E+004   -3.52911E+005    2.38151E+004    2.67884E+004   -3.04036E+005   -7.18306E+003    7.12526E+004    1.86520E+004
             436    3.57982E+005    3.75049E+004   -3.26096E+005    2.59903E+004   -3.26096E+005    3.63601E+005    8.75335E+004   -3.57565E+005    2.26078E+004    2.59278E+004   -3.11136E+005   -1.39097E+003    7.20383E+004    4.92627E+003
             437    3.52949E+005    3.93592E+004   -3.19282E+005    2.76857E+004   -3.19282E+005    3.58641E+005    8.40789E+004   -3.52514E+005    2.39579E+004    2.77526E+004   -3.03947E+005    4.39218E+003    7.16729E+004   -1.03854E+004
             438    3.38642E+005    3.87879E+004   -3.05530E+005    2.71365E+004   -3.05530E+005    3.44318E+005    7.98684E+004   -3.38191E+005    2.16210E+004    2.71212E+004   -2.88347E+005    9.26449E+003    7.07920E+004   -2.28838E+004
             439    3.01412E+005    2.32725E+004   -2.88665E+005    9.84167E+002   -2.88665E+005    3.11937E+005    8.81360E+004   -2.99549E+005   -2.80912E+004    2.14235E+004   -2.57740E+005   -9.74146E+003    8.79605E+004    1.62456E+004
             440    3.05786E+005    2.67339E+004   -2.94845E+005   -7.78072E+003   -2.94845E+005    3.21579E+005    9.19639E+004   -3.01357E+005   -3.42886E+004    2.12993E+004   -2.62902E+005   -1.81165E+004    8.56704E+004    2.85169E+004
             441    3.32375E+005    2.34277E+004   -3.23596E+005   -8.11975E+003   -3.23596E+005    3.47024E+005    1.02763E+005   -3.28981E+005   -3.09005E+004    1.68673E+004   -2.94255E+005   -1.80511E+004    8.35261E+004    3.80724E+004
             442    3.66636E+005    2.23605E+004   -3.56353E+005   -3.12464E+003   -3.56353E+005    3.78713E+005    1.12372E+005   -3.64635E+005   -2.33127E+004    1.61173E+004   -3.29922E+005   -1.65062E+004    8.48778E+004    3.80276E+004
             443    3.96598E+005    1.48479E+004   -3.90283E+005   -2.80910E+003   -3.90283E+005    4.05131E+005    1.26082E+005   -3.95712E+005   -2.18877E+004    1.06787E+004   -3.67036E+005   -1.23626E+004    8.68304E+004    3.04672E+004
             444    4.17546E+005    9.02255E+003   -4.12651E+005    6.40436E+002   -4.12651E+005    4.21674E+005    1.34329E+005   -4.17356E+005   -1.82298E+004    6.75504E+003   -3.91513E+005   -7.28573E+003    8.92972E+004    1.79986E+004
             445    4.24203E+005    5.35523E+003   -4.20551E+005    1.92973E+003   -4.20551E+005    4.25906E+005    1.37755E+005   -4.24172E+005   -1.81229E+004    5.26375E+003   -4.00406E+005   -1.15067E+003    8.99824E+004    2.94840E+003
             446    4.17603E+005    7.78970E+003   -4.12761E+005    1.83047E+003   -4.12761E+005    4.20551E+005    1.34380E+005   -4.17508E+005   -1.71161E+004    6.31230E+003   -3.92337E+005    5.03168E+003    8.90052E+004   -1.18323E+004
             447    3.97084E+005    1.60218E+004   -3.88699E+005    2.81933E+002   -3.88699E+005    4.04720E+005    1.24132E+005   -3.96382E+005   -1.86058E+004    1.26500E+004   -3.66439E+005    1.07939E+004    8.65612E+004   -2.58927E+004
             448    3.34345E+005    2.20137E+004   -3.24294E+005   -3.35890E+003   -3.24294E+005    3.46308E+005    1.01880E+005   -3.32168E+005   -3.57307E+004    2.12436E+004   -2.91153E+005    2.73277E+003    9.77187E+004    5.10735E+003
             449    3.53049E+005    4.14040E+004   -3.20987E+005    2.19115E+004   -3.20987E+005    3.62391E+005    8.58906E+004   -3.51835E+005    2.03056E+004    2.39497E+004   -3.01927E+005   -1.25530E+004    7.70774E+004    2.10280E+004
             450    3.88883E+005    3.79357E+004   -3.59368E+005    2.05081E+004   -3.59368E+005    3.97304E+005    1.00308E+005   -3.88003E+005    1.50143E+004    2.41946E+004   -3.40133E+005   -1.51452E+004    7.78962E+004    3.08972E+004
             451    4.31747E+005    3.21554E+004   -4.11259E+005    7.79003E+003   -4.11259E+005    4.43414E+005    1.23771E+005   -4.30196E+005    1.11072E+004    1.08855E+004   -3.93306E+005   -1.66253E+004    7.98656E+004    3.15202E+004
             452    4.67491E+005    2.32557E+004   -4.57848E+005   -5.27735E+003   -4.57848E+005    4.81104E+005    1.46623E+005   -4.65525E+005    5.44011E+003   -4.51044E+003   -4.40799E+005   -1.31320E+004    8.39124E+004    2.65710E+004
             453    4.93386E+005    1.80294E+004   -4.91066E+005   -1.50543E+004   -4.91066E+005    5.09095E+005    1.62697E+005   -4.90881E+005    2.41103E+003   -1.50960E+004   -4.75406E+005   -7.31932E+003    8.60516E+004    1.63726E+004
             454    5.02248E+005    1.54692E+004   -5.02849E+005   -1.83839E+004   -5.02849E+005    5.18319E+005    1.68588E+005   -4.99672E+005    4.54624E+002   -1.83915E+004   -4.87827E+005   -4.30357E+002    8.69290E+004    1.91152E+003
             455    4.92700E+005    1.80013E+004   -4.90213E+005   -1.46508E+004   -4.90213E+005    5.08214E+005    1.62287E+005   -4.90257E+005    2.40859E+003   -1.44706E+004   -4.74800E+005    7.01120E+003    8.57806E+004   -1.38190E+004
             456    4.64688E+005    2.23648E+004   -4.56230E+005   -6.82574E+003   -4.56230E+005    4.78595E+005    1.46897E+005   -4.62618E+005    5.16714E+003   -5.96037E+003   -4.39898E+005    1.22975E+004    8.27360E+004   -2.37428E+004
             457    5.51600E+005    3.88275E+003   -5.78886E+005   -6.49074E+004   -5.78886E+005    5.82768E+005    2.13303E+005   -5.41823E+005   -3.05325E+004   -6.43830E+004   -5.44995E+005    1.28337E+004    1.34991E+005   -1.52561E+004
             458    6.06255E+005    8.48874E+003   -6.40253E+005   -8.80761E+004   -6.40253E+005    6.48742E+005    2.39947E+005   -5.88579E+005   -2.59128E+004   -8.80196E+004   -6.05908E+005    7.28977E+003    1.44804E+005   -9.14888E+003
             459    6.28583E+005    9.81561E+003   -6.65130E+005   -9.64585E+004   -6.65130E+005    6.74945E+005    2.50591E+005   -6.07876E+005   -2.47792E+004   -9.64587E+004   -6.30535E+005    1.06326E+002    1.48838E+005   -3.37250E+002
             460    6.06696E+005    8.75469E+003   -6.40147E+005   -8.70571E+004   -6.40147E+005    6.48901E+005    2.39483E+005   -5.89314E+005   -2.59163E+004   -8.69624E+004   -6.05570E+005   -7.74927E+003    1.45261E+005    9.27273E+003
             461    5.53015E+005    3.03807E+003   -5.80672E+005   -6.45678E+004   -5.80672E+005    5.83710E+005    2.14067E+005   -5.43601E+005   -3.17578E+004   -6.39552E+004   -5.46489E+005   -1.25929E+004    1.35804E+005    1.42586E+004
             462    4.86434E+005   -5.43595E+003   -5.06169E+005   -3.54224E+004   -5.06169E+005    5.00733E+005    1.82343E+005   -4.84348E+005   -4.36685E+004   -3.26869E+004   -4.70672E+005   -1.40591E+004    1.26754E+005    1.50880E+004
             463    4.29162E+005    5.27502E+003   -4.39083E+005   -2.69303E+004   -4.39083E+005    4.44358E+005    1.53579E+005   -4.26431E+005   -6.34372E+004    2.82180E+003   -4.00122E+005   -1.21434E+004    1.19918E+005    1.34321E+004
             464    3.98101E+005    2.84068E+004   -4.00677E+005   -4.33081E+004   -4.00677E+005    4.29084E+005    1.38526E+005   -3.83161E+005   -9.37728E+004    2.77481E+004   -3.49553E+005    1.65207E+003    1.24959E+005    1.09275E+004
             465    3.86164E+005    2.01242E+004   -3.90712E+005   -3.51858E+004   -3.90712E+005    4.10836E+005    1.35258E+005   -3.77098E+005   -7.77104E+004    1.91499E+004   -3.47213E+005    4.63121E+003    1.16571E+005    7.61488E+003
             466    1.25863E+005    6.02334E+004   -8.46098E+004   -1.84818E+003   -8.46098E+004    1.44843E+005    8.74154E+003   -7.86754E+004   -3.89337E+003   -6.19005E+002   -2.17122E+004   -2.64357E+003    7.02173E+004   -1.46359E+004
             467    1.45059E+005    4.40804E+004   -1.17189E+005    2.64055E+003   -1.17189E+005    1.61269E+005    2.34893E+004   -1.30713E+005   -1.58883E+004    4.97568E+003   -5.95551E+004   -5.65995E+003    7.63019E+004   -8.69551E+003
             468    1.78454E+005    2.78353E+004   -1.59861E+005    7.62906E+003   -1.59861E+005    1.87697E+005    4.14656E+004   -1.75852E+005   -2.91593E+004    1.02063E+004   -1.05444E+005   -7.32038E+003    8.42785E+004   -1.19406E+003
             469    2.18013E+005    2.09474E+004   -2.03223E+005    8.06132E+003   -2.03223E+005    2.24171E+005    5.80715E+004   -2.17154E+005   -4.75854E+004    2.05414E+004   -1.47170E+005   -4.78107E+003    9.29430E+004    8.22969E+003
             470    2.65375E+005    2.63030E+004   -2.55423E+005   -1.01720E+004   -2.55423E+005    2.81726E+005    7.97640E+004   -2.59646E+005   -5.74419E+004    2.56973E+004   -2.07547E+005   -3.09727E+003    9.67597E+004    1.13214E+004
             471    3.06697E+005    2.00617E+004   -3.06325E+005   -2.41072E+004   -3.06325E+005    3.26387E+005    1.03457E+005   -2.99416E+005   -7.31768E+004    1.92028E+004   -2.56397E+005    1.55848E+003    1.07639E+005    9.45979E+003
             472    3.56141E+005    1.86830E+004   -3.60540E+005   -3.31641E+004   -3.60540E+005    3.79223E+005    1.25007E+005   -3.47498E+005   -6.92322E+004    1.62336E+004   -3.22023E+005    5.17399E+003    1.05270E+005    1.52619E+004
             473    2.17909E+005    1.41766E+005    1.41766E+005    3.92809E+003   -1.09457E+005    2.51223E+005   -1.20792E+004    1.20148E+005    8.53186E+003    3.97835E+003    2.37274E+004   -2.79475E+003    1.25345E+005   -1.35332E+003
             474    2.21131E+005    1.43748E+005    1.43748E+005   -3.00515E+003   -1.10589E+005    2.54337E+005   -1.00514E+004    1.41664E+005    7.21836E+003   -2.38712E+003    2.53230E+004   -3.20333E+003    1.25935E+005   -1.52239E+004
             475    2.27992E+005    1.50188E+005    1.50188E+005    1.51451E+003   -1.12304E+005    2.62492E+005   -1.31327E+004    1.39187E+005    8.03274E+003    2.21866E+003    2.91468E+004   -2.81946E+003    1.29334E+005   -1.97713E+004
             476    2.34336E+005    1.54037E+005    1.54037E+005   -2.70677E+003   -1.15350E+005    2.69387E+005   -1.19935E+004    1.53115E+005    7.45730E+003   -2.32167E+003    3.08448E+004   -2.11467E+003    1.32988E+005   -1.79921E+004
             477    2.33144E+005    1.65838E+005    1.65838E+005   -7.09271E+003   -9.93099E+004    2.65148E+005   -1.98119E+004    1.84868E+005   -3.02080E+003   -6.70915E+003    6.91656E+004   -8.58215E+003    1.27222E+005   -5.41523E+003
             478    2.35633E+005    1.67899E+005    1.67899E+005   -5.14199E+003   -1.00460E+005    2.68359E+005   -2.07657E+004    1.84087E+005   -1.06716E+004   -3.24964E+003    7.62183E+004   -9.42634E+003    1.25932E+005   -1.54856E+004
             479    2.45066E+005    1.74299E+005    1.74299E+005   -1.28761E+004   -1.03085E+005    2.77384E+005   -1.94457E+004    2.02301E+005   -1.37490E+004   -1.04056E+004    8.24918E+004   -8.57844E+003    1.28435E+005   -2.15882E+004
             480    2.52852E+005    1.82781E+005    1.82781E+005   -8.75411E+003   -1.03827E+005    2.86608E+005   -2.34002E+004    2.06473E+005   -1.46451E+004   -7.15892E+003    9.20045E+004   -6.43104E+003    1.31887E+005   -1.82191E+004
             481    2.59730E+005    2.15656E+005    2.15656E+005    2.97505E+002   -7.27869E+004    2.88442E+005   -4.77221E+004    2.34872E+005    2.07806E+004    6.92309E+002    1.21693E+005   -1.15679E+004    1.34501E+005   -7.57812E+003
             482    2.63423E+005    2.14246E+005    2.14246E+005   -9.34408E+003   -7.61468E+004    2.90393E+005   -4.29184E+004    2.43246E+005    7.65698E+003   -6.83546E+003    1.27934E+005   -1.43963E+004    1.30721E+005   -1.90285E+004
             483    2.73830E+005    2.26666E+005    2.26666E+005   -6.58225E+003   -7.48340E+004    3.01501E+005   -4.84167E+004    2.53612E+005    6.33759E+003   -3.71066E+003    1.42623E+005   -1.33166E+004    1.32858E+005   -2.20061E+004
             484    2.86319E+005    2.36708E+005    2.36708E+005   -1.11058E+004   -7.67248E+004    3.13433E+005   -4.96258E+004    2.68608E+005    3.28405E+003   -8.87284E+003    1.54466E+005   -1.02021E+004    1.35925E+005   -2.15884E+004
             485    2.98239E+005    2.51206E+005    2.51206E+005   -1.48651E+004   -7.11742E+004    3.22380E+005   -5.50555E+004    2.85910E+005    9.05213E+003   -1.38616E+004    1.69976E+005   -1.34505E+004    1.38667E+005   -1.42498E+004
             486    3.01044E+005    2.52299E+005    2.52299E+005   -6.55199E+003   -7.80610E+004    3.30360E+005   -5.58954E+004    2.80966E+005   -1.07838E+004   -5.40197E+003    1.83872E+005   -1.71622E+004    1.31693E+005   -1.67623E+004
             487    3.13423E+005    2.60673E+005    2.60673E+005   -1.63264E+004   -7.95377E+004    3.40211E+005   -5.49364E+004    2.98572E+005   -1.69536E+004   -1.32605E+004    1.95023E+005   -1.75771E+004    1.30607E+005   -2.56114E+004
             488    3.31976E+005    2.80957E+005    2.80957E+005   -1.30208E+004   -7.90831E+004    3.60040E+005   -6.29510E+004    3.16676E+005   -1.90795E+004   -1.08251E+004    2.18757E+005   -1.38863E+004    1.33448E+005   -2.26059E+004
             489    3.44476E+005    3.23486E+005    3.23486E+005   -2.01811E+001   -3.86952E+004    3.62182E+005   -9.49237E+004    3.39540E+005    5.09294E+004   -4.98471E+001    2.33892E+005   -1.05617E+004    1.55648E+005   -9.11171E+003
             490    3.39268E+005    3.09485E+005    3.09485E+005   -2.75604E+003   -5.15307E+004    3.61015E+005   -8.50659E+004    3.31242E+005    2.38403E+004   -1.29220E+003    2.32650E+005   -1.73102E+004    1.45434E+005   -2.05747E+004
             491    3.61981E+005    3.32706E+005    3.32706E+005   -2.39808E+003   -5.12000E+004    3.83906E+005   -9.30359E+004    3.54466E+005    1.71603E+004    1.42259E+002    2.61805E+005   -1.94672E+004    1.45288E+005   -2.74680E+004
             492    3.86278E+005    3.54378E+005    3.54378E+005   -6.62571E+003   -5.29885E+004    4.07367E+005   -9.82547E+004    3.79943E+005    1.08265E+004   -4.26982E+003    2.88208E+005   -1.59149E+004    1.47100E+005   -2.69562E+004
             493    3.65982E+005    3.31433E+005    3.31433E+005   -1.49137E+004   -5.14442E+004    3.82877E+005   -8.83585E+004    3.61846E+005    2.12261E+004   -1.50711E+004    2.58920E+005   -6.73912E+003    1.49736E+005   -5.78453E+003
             494    3.76481E+005    3.43578E+005    3.43578E+005    1.84147E+003   -5.99926E+004    4.03570E+005   -9.51422E+004    3.64794E+005    1.34525E+003    2.82986E+003    2.81251E+005   -1.66037E+004    1.43440E+005   -2.04260E+004
             495    4.08817E+005    3.71312E+005    3.71312E+005   -7.75145E+003   -6.18678E+004    4.33180E+005   -1.00564E+005    4.00640E+005   -5.55281E+003   -6.25909E+003    3.13505E+005   -2.01720E+004    1.43211E+005   -2.80395E+004
             496    4.42376E+005    4.10204E+005    4.10204E+005    1.26059E+003   -5.93529E+004    4.69557E+005   -1.17371E+005    4.32886E+005   -5.53026E+003    2.28186E+003    3.55360E+005   -1.85206E+004    1.47385E+005   -2.59256E+004
             497    4.20689E+005    4.27607E+005    4.27607E+005    2.15411E+004   -6.32048E+003    4.33928E+005   -1.47609E+005    4.18606E+005    1.17715E+005    1.98315E+004    3.05281E+005   -3.26600E+003    1.93706E+005   -2.04960E+004
             498    4.39680E+005    4.29429E+005    4.29429E+005   -1.82347E+003   -1.82210E+004    4.47650E+005   -1.36461E+005    4.38991E+005    7.25684E+004   -1.64836E+003    3.38464E+005   -7.15536E+003    1.78431E+005   -2.38701E+004
             499    4.69246E+005    4.65592E+005    4.65592E+005    1.58793E+004   -2.10108E+004    4.86603E+005   -1.53487E+005    4.65967E+005    5.88267E+004    1.64359E+004    3.85198E+005   -1.69736E+004    1.78546E+005   -2.26659E+004
             500    5.11449E+005    5.10875E+005    5.10875E+005    2.90577E+004   -2.57851E+004    5.36660E+005   -1.71383E+005    5.04770E+005    4.65986E+004    2.96329E+004    4.37916E+005   -1.63956E+004    1.81853E+005   -2.24059E+004
             501    5.83203E+005    6.07964E+005    6.07964E+005    7.45015E+004   -1.47017E+004    6.22666E+005   -2.22588E+005    5.67550E+005    8.06210E+004    7.42745E+004    5.12869E+005   -1.10263E+004    2.23541E+005   -8.72833E+003
             502    5.08933E+005    5.13722E+005    5.13722E+005    3.15545E+004   -1.83066E+004    5.32028E+005   -1.75656E+005    5.03394E+005    6.75247E+004    3.00127E+004    4.29432E+005   -1.23701E+004    1.93652E+005   -5.46966E+003
             503    4.31629E+005    4.18883E+005    4.18883E+005    2.85609E+003   -2.68174E+004    4.45701E+005   -1.31641E+005    4.29326E+005    5.58564E+004   -7.72744E+003    3.46793E+005   -1.61577E+004    1.61586E+005   -1.23730E+003
             504    3.92883E+005    3.41525E+005    3.41525E+005   -2.32865E+004   -7.44234E+004    4.15948E+005   -8.12715E+004    3.85289E+005    2.93995E+004   -7.34067E+004    2.87822E+005   -8.75714E+003    1.29323E+005   -3.42856E+003
             505    2.23710E+005    1.42203E+005    1.42203E+005   -2.19201E+003   -1.15491E+005    2.57694E+005   -8.17353E+003    1.32370E+005    4.94295E+003   -3.34121E+003    2.29188E+004   -3.67037E+003    1.27263E+005    1.71059E+004
             506    2.40379E+005    1.81536E+005    1.81536E+005    4.16044E+003   -9.20455E+004    2.73582E+005   -3.12170E+004    1.89155E+005    2.27337E+004    1.45075E+003    6.94666E+004   -1.01123E+004    1.33337E+005    1.30045E+004
             507    2.68877E+005    2.19857E+005    2.19857E+005   -1.02206E+004   -7.57171E+004    2.95574E+005   -4.46397E+004    2.49965E+005    3.44787E+004   -1.25378E+004    1.11978E+005   -1.45268E+004    1.41175E+005    1.84922E+003
             508    3.07455E+005    2.72574E+005    2.72574E+005   -1.09583E+004   -5.42208E+004    3.26795E+005   -6.91316E+004    3.00492E+005    5.66990E+004   -1.27850E+004    1.63481E+005   -1.56102E+004    1.52838E+005   -4.81218E+003
             509    3.50439E+005    3.17316E+005    3.17316E+005   -2.84875E+004   -3.75814E+004    3.54898E+005   -8.37492E+004    3.50174E+005    6.60765E+004   -2.79578E+004    2.13129E+005   -1.51685E+004    1.60029E+005   -1.82146E+004
             510    4.17758E+005    4.05700E+005    4.05700E+005   -1.12274E+004   -1.28827E+004    4.18583E+005   -1.27197E+005    4.17750E+005    9.35921E+004   -1.06839E+004    2.98682E+005   -7.73978E+003    1.82128E+005   -1.30205E+004
             511    4.06694E+005    3.93131E+005    3.93131E+005    9.92910E+002   -2.67025E+004    4.19834E+005   -1.22474E+005    4.04564E+005    8.61218E+004   -2.38160E+004    3.05116E+005    6.15473E+003    1.64361E+005   -6.38441E+003
             512    6.62188E+005    7.01811E+005    7.01811E+005    1.07753E+005   -1.21291E+004    7.13940E+005   -2.65812E+005    6.37083E+005    9.45309E+004    1.07943E+005    5.94961E+005   -8.42469E+003    2.54315E+005   -1.08552E+004
             513    7.19358E+005    7.72478E+005    7.72478E+005    1.35116E+005   -7.50859E+003    7.79987E+005   -3.00029E+005    6.86457E+005    1.08425E+005    1.35190E+005    6.56470E+005   -5.34162E+003    2.77397E+005   -6.86155E+003
             514    7.42991E+005    8.01829E+005    8.01829E+005    1.45766E+005   -4.97266E+003    8.06802E+005   -3.14207E+005    7.07350E+005    1.14886E+005    1.45766E+005    6.81971E+005   -8.26989E+000    2.86942E+005   -2.24028E+002
             515    7.21929E+005    7.75370E+005    7.75370E+005    1.35565E+005   -7.31573E+003    7.82686E+005   -3.01206E+005    6.89032E+005    1.09778E+005    1.35673E+005    6.58169E+005    4.89120E+003    2.79125E+005    7.64592E+003
             516    6.64853E+005    7.06023E+005    7.06023E+005    1.09305E+005   -1.06364E+004    7.16660E+005   -2.68231E+005    6.39830E+005    9.73798E+004    1.09434E+005    5.97878E+005    8.47894E+003    2.56195E+005    9.93185E+003
             517    5.90203E+005    6.12911E+005    6.12911E+005    7.06233E+004   -1.57005E+004    6.28611E+005   -2.22611E+005    5.75743E+005    8.13540E+004    7.05155E+004    5.15964E+005    1.02863E+004    2.26608E+005    9.22668E+003
             518    5.12171E+005    5.16875E+005    5.16875E+005    3.11389E+004   -1.81660E+004    5.35041E+005   -1.76616E+005    5.06791E+005    6.74663E+004    2.92606E+004    4.33121E+005    1.32887E+004    1.93702E+005    5.65297E+003
             519    4.46662E+005    4.27052E+005    4.27052E+005   -1.37967E+004   -2.52051E+004    4.52257E+005   -1.29350E+005    4.46334E+005    5.07912E+004   -1.89546E+004    3.56214E+005    9.68567E+003    1.62874E+005    8.01926E+003
             520    4.48164E+005    4.40230E+005    4.40230E+005    6.00176E+003   -2.06791E+004    4.60909E+005   -1.41851E+005    4.46372E+005    9.35382E+004   -1.29985E+004    3.45013E+005   -6.38408E+003    1.81465E+005    1.36639E+004
             521    5.52102E+005    5.58129E+005    5.58129E+005    4.56827E+004   -2.65234E+004    5.84652E+005   -1.92429E+005    5.41326E+005    4.23007E+004    4.59197E+004    4.89068E+005   -1.42040E+004    1.87276E+005   -1.82326E+004
             522    4.73522E+005    4.43156E+005    4.43156E+005    4.23501E+003   -5.86785E+004    5.01834E+005   -1.29571E+005    4.63980E+005   -6.00580E+003    4.84522E+003    3.89873E+005   -1.37469E+004    1.52617E+005   -2.03217E+004
             523    4.08825E+005    3.78276E+005    3.78276E+005   -3.03532E+003   -5.33964E+004    4.31673E+005   -1.07282E+005    4.01758E+005    7.79910E+003   -2.06081E+003    3.16106E+005   -1.16024E+004    1.49985E+005   -1.87715E+004
             524    3.46339E+005    2.93519E+005    2.93519E+005   -1.65567E+004   -8.02434E+004    3.73763E+005   -6.55731E+004    3.32781E+005   -2.18461E+004   -1.54274E+004    2.33993E+005   -9.46381E+003    1.35375E+005   -1.68340E+004
             525    2.95857E+005    2.48183E+005    2.48183E+005   -8.38686E+003   -7.54490E+004    3.23632E+005   -5.47823E+004    2.77974E+005    3.45117E+003   -7.48974E+003    1.68386E+005   -6.70566E+003    1.38687E+005   -1.37436E+004
             526    2.58527E+005    1.86479E+005    1.86479E+005   -1.22465E+004   -1.05801E+005    2.92280E+005   -2.28107E+004    2.15172E+005   -1.66912E+004   -1.15732E+004    9.66964E+004   -3.95908E+003    1.34172E+005   -1.26533E+004
             527    2.37728E+005    1.58205E+005    1.58205E+005    7.75253E+002   -1.15256E+005    2.73462E+005   -1.45748E+004    1.51452E+005    8.70211E+003    9.47889E+002    3.40745E+004   -1.37079E+003    1.35676E+005   -1.13199E+004
             528    5.84079E+005    5.92799E+005    5.92799E+005    5.32680E+004   -2.74336E+004    6.20233E+005   -2.06211E+005    5.71333E+005    3.89806E+004    5.34118E+004    5.26241E+005   -7.56027E+003    1.91503E+005   -1.09071E+004
             529    4.93436E+005    4.67316E+005    4.67316E+005    1.05675E+004   -5.60406E+004    5.23357E+005   -1.40614E+005    4.83166E+005   -3.85166E+003    1.06570E+004    4.15038E+005   -6.72296E+003    1.56502E+005   -9.37496E+003
             530    4.22950E+005    3.92374E+005    3.92374E+005   -2.76266E+003   -5.37637E+004    4.46138E+005   -1.11949E+005    4.15948E+005    6.18262E+003   -2.56465E+003    3.32230E+005   -4.83872E+003    1.52059E+005   -8.47454E+003
             531    3.55452E+005    3.04392E+005    3.04392E+005   -1.39682E+004   -7.91346E+004    3.83526E+005   -7.04296E+004    3.41622E+005   -2.14035E+004   -1.38438E+004    2.46536E+005   -3.62442E+003    1.37092E+005   -5.78747E+003
             532    3.01142E+005    2.52758E+005    2.52758E+005   -9.97789E+003   -7.58760E+004    3.28634E+005   -5.56347E+004    2.84232E+005    2.83525E+003   -9.87586E+003    1.73945E+005   -2.08407E+003    1.40221E+005   -4.91809E+003
             533    2.61289E+005    1.90168E+005    1.90168E+005   -9.79571E+003   -1.05475E+005    2.95642E+005   -2.49658E+004    2.16248E+005   -1.66671E+004   -9.74242E+003    1.01307E+005   -1.25908E+003    1.35506E+005   -3.28605E+003
             534    2.39470E+005    1.59077E+005    1.59077E+005   -1.56095E+003   -1.16159E+005    2.75236E+005   -1.37857E+004    1.57561E+005    8.52400E+003   -1.55150E+003    3.43845E+004   -3.23939E+002    1.36975E+005   -3.07739E+003
             535    5.96398E+005    6.06338E+005    6.06338E+005    5.64950E+004   -2.76733E+004    6.34011E+005   -2.11720E+005    5.82811E+005    3.84246E+004    5.64979E+004    5.40237E+005    2.38048E+002    1.93746E+005    1.37712E+003
             536    5.00238E+005    4.74681E+005    4.74681E+005    1.15767E+004   -5.58496E+004    5.30531E+005   -1.43469E+005    4.89858E+005   -3.73108E+003    1.15874E+004    4.22552E+005    1.47018E+003    1.57894E+005    2.43672E+003
             537    4.27845E+005    3.97708E+005    3.97708E+005   -1.51477E+003   -5.39286E+004    4.51637E+005   -1.14088E+005    4.20531E+005    5.56336E+003   -1.45953E+003    3.38161E+005    2.09813E+003    1.52725E+005    4.34483E+003
             538    3.57412E+005    3.05586E+005    3.05586E+005   -1.51036E+004   -7.97293E+004    3.85315E+005   -7.02511E+004    3.43896E+005   -2.24529E+004   -1.50146E+004    2.48221E+005    2.52405E+003    1.37049E+005    4.83954E+003
             539    3.01962E+005    2.54322E+005    2.54322E+005   -8.99591E+003   -7.52732E+004    3.29595E+005   -5.66844E+004    2.84899E+005    2.90843E+003   -8.86621E+003    1.76011E+005    2.22582E+003    1.40151E+005    5.71852E+003
             540    2.61324E+005    1.89603E+005    1.89603E+005   -1.13217E+004   -1.05827E+005    2.95430E+005   -2.41514E+004    2.17566E+005   -1.73105E+004   -1.11962E+004    1.00961E+005    1.66265E+003    1.35261E+005    5.56985E+003
             541    2.39210E+005    1.59503E+005    1.59503E+005   -8.00343E+001   -1.15536E+005    2.75039E+005   -1.46287E+004    1.55286E+005    9.01881E+003   -5.48622E+001    3.49221E+004    4.89666E+002    1.36786E+005    5.81695E+003
             542    5.84843E+005    5.94740E+005    5.94740E+005    5.45388E+004   -2.63290E+004    6.21069E+005   -2.07650E+005    5.72062E+005    4.09495E+004    5.47264E+004    5.27274E+005    8.55534E+003    1.92669E+005    1.23466E+004
             543    4.92532E+005    4.66311E+005    4.66311E+005    9.85571E+003   -5.57268E+004    5.22037E+005   -1.40147E+005    4.82562E+005   -3.13511E+003    1.02613E+004    4.13313E+005    8.92871E+003    1.56697E+005    1.47973E+004
             544    4.20763E+005    3.91245E+005    3.91245E+005   -1.77232E+003   -5.26400E+004    4.43885E+005   -1.12277E+005    4.13761E+005    7.62140E+003   -1.10505E+003    3.30316E+005    8.86743E+003    1.51727E+005    1.54753E+004
             545    3.52620E+005    3.01409E+005    3.01409E+005   -1.48590E+004   -7.88102E+004    3.80220E+005   -6.92467E+004    3.39203E+005   -2.10654E+004   -1.39348E+004    2.42740E+005    8.04329E+003    1.36222E+005    1.54311E+004
             546    2.98344E+005    2.50737E+005    2.50737E+005   -9.41886E+003   -7.49126E+004    3.25649E+005   -5.54684E+004    2.81479E+005    3.54037E+003   -8.48178E+003    1.71347E+005    6.55602E+003    1.38960E+005    1.44822E+004
             547    2.59052E+005    1.87820E+005    1.87820E+005   -1.10708E+004   -1.05119E+005    2.92939E+005   -2.38766E+004    2.15281E+005   -1.67093E+004   -1.02821E+004    9.86212E+004    4.15897E+003    1.34012E+005    1.38734E+004
             548    2.37551E+005    1.57859E+005    1.57859E+005   -6.42591E+002   -1.15269E+005    2.73129E+005   -1.39825E+004    1.54272E+005    8.90463E+003   -4.42968E+002    3.34859E+004    1.48110E+003    1.35350E+005    1.34598E+004
             549    5.53903E+005    5.60224E+005    5.60224E+005    4.47986E+004   -2.54528E+004    5.85677E+005   -1.93190E+005    5.43745E+005    4.50650E+004    4.53476E+004    4.89158E+005    1.42311E+004    1.89620E+005    2.03412E+004
             550    4.71596E+005    4.42813E+005    4.42813E+005    6.33703E+003   -5.74179E+004    5.00231E+005   -1.30577E+005    4.61751E+005   -4.00058E+003    7.23679E+003    3.88495E+005    1.59665E+004    1.52940E+005    2.37875E+004
             551    4.04117E+005    3.74025E+005    3.74025E+005   -3.51210E+003   -5.22513E+004    4.26276E+005   -1.06087E+005    3.97424E+005    9.77054E+003   -1.75708E+003    3.10248E+005    1.45909E+004    1.49438E+005    2.44482E+004
             552    3.41525E+005    2.89940E+005    2.89940E+005   -1.46362E+004   -7.92912E+004    3.69232E+005   -6.53376E+004    3.27329E+005   -2.08127E+004   -1.26191E+004    2.29445E+005    1.34515E+004    1.34116E+005    2.22886E+004
             553    2.90463E+005    2.42682E+005    2.42682E+005   -1.02295E+004   -7.45493E+004    3.17232E+005   -5.26345E+004    2.73743E+005    4.26959E+003   -8.08252E+003    1.61716E+005    1.03054E+004    1.36416E+005    2.10962E+004
             554    2.54158E+005    1.83246E+005    1.83246E+005   -1.11429E+004   -1.04358E+005    2.87604E+005   -2.25819E+004    2.10184E+005   -1.63301E+004   -9.38372E+003    9.34595E+004    6.67007E+003    1.31643E+005    1.94370E+004
             555    2.34031E+005    1.54881E+005    1.54881E+005   -8.52717E+002   -1.14247E+005    2.69128E+005   -1.32606E+004    1.50965E+005    8.96430E+003   -4.43819E+002    3.12612E+004    2.14418E+003    1.32797E+005    1.87658E+004
             556    5.12746E+005    5.16117E+005    5.16117E+005    3.20128E+004   -2.11313E+004    5.37248E+005   -1.75666E+005    5.06494E+005    5.40163E+004    3.27759E+004    4.40206E+005    1.69549E+004    1.84892E+005    2.37658E+004
             557    4.39681E+005    4.08150E+005    4.08150E+005    1.15318E+003   -5.81886E+004    4.66338E+005   -1.17038E+005    4.30533E+005   -3.10014E+003    2.85019E+003    3.51364E+005    1.83408E+004    1.48699E+005    2.83154E+004
             558    3.81542E+005    3.53410E+005    3.53410E+005   -1.66840E+003   -4.99913E+004    4.03402E+005   -1.00584E+005    3.74565E+005    1.56299E+004    7.37869E+002    2.85383E+005    1.75800E+004    1.47638E+005    2.73932E+004
             559    3.26310E+005    2.74936E+005    2.74936E+005   -1.48770E+004   -7.85001E+004    3.53436E+005   -6.05195E+004    3.11893E+005   -1.78413E+004   -1.21511E+004    2.11551E+005    1.61007E+004    1.32264E+005    2.49736E+004
             560    2.80539E+005    2.33531E+005    2.33531E+005   -8.63618E+003   -7.38810E+004    3.07412E+005   -5.03381E+004    2.62642E+005    6.22653E+003   -5.69756E+003    1.50485E+005    1.26977E+004    1.34044E+005    2.33957E+004
             561    2.47247E+005    1.76771E+005    1.76771E+005   -1.15209E+004   -1.03226E+005    2.79998E+005   -2.06747E+004    2.03329E+005   -1.49409E+004   -9.13783E+003    8.61027E+004    8.20439E+003    1.28957E+005    2.14655E+004
             562    2.29120E+005    1.51302E+005    1.51302E+005   -1.07417E+002   -1.12291E+005    2.63594E+005   -1.29680E+004    1.45159E+005    8.88675E+003    5.36013E+002    2.94811E+004    2.75162E+003    1.29790E+005    2.05841E+004
             563    4.71266E+005    4.69435E+005    4.69435E+005    1.57823E+004   -1.76635E+004    4.87098E+005   -1.55851E+005    4.68585E+005    6.47409E+004    1.75529E+004    3.85260E+005    1.32754E+004    1.82123E+005    2.56479E+004
             564    4.07781E+005    3.75912E+005    3.75912E+005    2.28146E+003   -5.90666E+004    4.34979E+005   -1.06376E+005    3.97199E+005    9.15159E+001    3.28641E+003    3.15749E+005    1.95184E+004    1.46855E+005    2.45029E+004
             565    3.59577E+005    3.30926E+005    3.30926E+005   -3.69703E+003   -4.92606E+004    3.80187E+005   -9.26562E+004    3.52994E+005    2.17553E+004   -1.80779E+003    2.58021E+005    1.96418E+004    1.46384E+005    2.52269E+004
             566    3.12038E+005    2.61408E+005    2.61408E+005   -1.26926E+004   -7.81746E+004    3.39583E+005   -5.68469E+004    2.95981E+005   -1.44673E+004   -1.02853E+004    1.95293E+005    1.86445E+004    1.31104E+005    2.32387E+004
             567    2.69224E+005    2.22115E+005    2.22115E+005   -9.35838E+003   -7.33344E+004    2.95449E+005   -4.64740E+004    2.51253E+005    8.94165E+003   -6.32694E+003    1.36807E+005    1.48163E+004    1.31474E+005    2.18464E+004
             568    2.39724E+005    1.70665E+005    1.70665E+005   -9.41500E+003   -1.01436E+005    2.72101E+005   -1.99381E+004    1.93539E+005   -1.32601E+004   -6.95336E+003    8.00277E+004    9.55841E+003    1.26372E+005    1.94064E+004
             569    2.22851E+005    1.45912E+005    1.45912E+005   -9.47919E+002   -1.10512E+005    2.56424E+005   -1.14840E+004    1.40142E+005    9.02322E+003   -2.65504E+002    2.56942E+004    3.14185E+003    1.26698E+005    1.78550E+004
             570    4.42977E+005    4.47696E+005    4.47696E+005    1.97634E+004   -8.92916E+003    4.56626E+005   -1.52844E+005    4.40879E+005    9.13938E+004    2.01486E+004    3.46988E+005    6.08912E+003    1.88164E+005    2.06997E+004
             571    3.84901E+005    3.52484E+005    3.52484E+005   -3.25565E+003   -5.61152E+004    4.08599E+005   -9.77043E+004    3.76605E+005    9.34914E+003   -3.07368E+003    2.86837E+005    1.36518E+004    1.48693E+005    1.48266E+004
             572    3.47245E+005    3.22283E+005    3.22283E+005    5.54658E+002   -4.58192E+004    3.68102E+005   -9.23394E+004    3.40174E+005    3.32188E+004    1.58126E+003    2.42218E+005    1.57331E+004    1.50064E+005    1.81191E+004
             573    3.01266E+005    2.52149E+005    2.52149E+005   -1.12448E+004   -7.63451E+004    3.28494E+005   -5.48530E+004    2.84788E+005   -6.07985E+003   -1.00732E+004    1.80712E+005    1.66674E+004    1.33459E+005    1.67413E+004
             574    2.62036E+005    2.16079E+005    2.16079E+005   -4.36369E+003   -7.36333E+004    2.89712E+005   -4.60273E+004    2.40108E+005    1.18397E+004   -2.68430E+003    1.28926E+005    1.40086E+004    1.31377E+005    1.49842E+004
             575    2.33129E+005    1.65239E+005    1.65239E+005   -7.64050E+003   -9.99001E+004    2.65139E+005   -1.92329E+004    1.84793E+005   -8.82031E+003   -6.26225E+003    7.27812E+004    9.43634E+003    1.25408E+005    1.21655E+004
             576    2.18006E+005    1.42605E+005    1.42605E+005    1.02633E+003   -1.08443E+005    2.51048E+005   -1.17293E+004    1.31472E+005    8.14382E+003    1.47679E+003    2.55674E+004    3.20250E+003    1.24820E+005    9.86071E+003
             577    4.18238E+005    4.08917E+005    4.08917E+005   -1.93101E+003   -1.63379E+004    4.25255E+005   -1.30216E+005    4.17679E+005    7.99059E+004   -2.76991E+003    3.13512E+005    9.09402E+003    1.76761E+005    8.56503E+003
             578    3.89728E+005    3.71100E+005    3.71100E+005   -6.20925E+003   -2.99612E+004    4.01061E+005   -1.11643E+005    3.88095E+005    5.82963E+004   -5.66549E+003    2.82299E+005    7.10584E+003    1.66002E+005    1.25292E+004
             579    3.42526E+005    3.13843E+005    3.13843E+005   -1.04099E+004   -4.44178E+004    3.58261E+005   -8.63385E+004    3.38696E+005    4.36022E+004   -1.02391E+004    2.25652E+005    1.30487E+004    1.53284E+005    1.26760E+004
             580    3.01463E+005    2.63094E+005    2.63094E+005   -9.16283E+003   -6.08818E+004    3.23976E+005   -6.43499E+004    2.91229E+005    2.65248E+004   -8.68035E+003    1.75205E+005    1.21546E+004    1.43171E+005    1.09951E+004
             581    2.61366E+005    2.12967E+005    2.12967E+005   -6.07922E+003   -7.63511E+004    2.89318E+005   -4.35122E+004    2.38686E+005    1.74479E+004   -6.00102E+003    1.19090E+005    1.20323E+004    1.34780E+005    6.23622E+003
             582    2.33570E+005    1.71854E+005    1.71854E+005   -1.26359E+003   -9.38075E+004    2.65661E+005   -2.55942E+004    1.85003E+005    6.84507E+003   -1.50654E+003    7.14442E+004    7.99121E+003    1.28557E+005    3.75866E+002
             583    2.18158E+005    1.38425E+005    1.38425E+005   -1.09397E+003   -1.12977E+005    2.51402E+005   -8.11803E+003    1.25197E+005    3.42921E+003   -1.27063E+003    2.21955E+004    3.18780E+003    1.25262E+005   -3.09695E+003
             584    2.24901E+005    1.45762E+005    1.45762E+005    2.45394E+003   -1.13448E+005    2.59210E+005   -1.15894E+004    1.27426E+005    8.79940E+003    1.24120E+003    2.47276E+004    3.47368E+003    1.27813E+005   -1.91853E+004
             585    2.41841E+005    1.81006E+005    1.81006E+005   -1.73320E+003   -9.32354E+004    2.74241E+005   -2.86790E+004    1.96821E+005    2.12509E+004   -4.70325E+003    6.94893E+004    1.03967E+004    1.33411E+005   -1.31051E+004
             586    2.72423E+005    2.27481E+005    2.27481E+005   -6.57711E+003   -7.15559E+004    2.99037E+005   -4.97826E+004    2.54094E+005    4.13947E+004   -9.71388E+003    1.17667E+005    1.36332E+004    1.42878E+005   -5.35699E+003
             587    3.06984E+005    2.68541E+005    2.68541E+005   -1.87079E+004   -5.49589E+004    3.23500E+005   -6.49580E+004    3.02112E+005    5.48266E+004   -2.09452E+004    1.60993E+005    1.58794E+004    1.50927E+005    5.44344E+003
             588    3.54694E+005    3.26619E+005    3.26619E+005   -2.15630E+004   -3.42458E+004    3.60865E+005   -9.02701E+004    3.54183E+005    7.63085E+004   -2.44034E+004    2.18905E+005    1.39264E+004    1.63338E+005    1.07951E+004
             589    3.87217E+005    3.68226E+005    3.68226E+005   -1.41510E+004   -2.36569E+004    3.91883E+005   -1.10139E+005    3.86955E+005    8.54231E+004   -1.90594E+004    2.64054E+005    1.34263E+004    1.70669E+005    1.32037E+004
             590    4.51837E+005    4.46441E+005    4.46441E+005    1.77597E+003   -1.22421E+004    4.58683E+005   -1.45325E+005    4.51347E+005    1.10716E+005   -7.15165E+003    3.32411E+005    4.94605E+003    1.94557E+005    2.12435E+004
             591    3.93053E+005    7.56717E+004   -3.40775E+005    2.37151E+004   -3.40775E+005    4.16447E+005    8.04629E+004   -3.85213E+005   -2.87856E+004    7.48288E+004   -2.87432E+005    8.18108E+003    1.28862E+005   -3.66713E+003
             592    4.29458E+005    2.80979E+004   -4.15512E+005   -1.76459E+003   -4.15512E+005    4.43610E+005    1.29726E+005   -4.27113E+005   -5.44869E+004    9.59172E+003   -3.44283E+005    1.62633E+004    1.60188E+005   -8.25451E+002
             593    5.07204E+005    1.84487E+004   -5.11431E+005   -3.04451E+004   -5.11431E+005    5.29880E+005    1.74476E+005   -5.01860E+005   -6.71996E+004   -2.87671E+004   -4.27461E+005    1.25581E+004    1.92862E+005   -5.30974E+003
             594    5.82148E+005    1.47538E+004   -6.06869E+005   -7.45038E+004   -6.06869E+005    6.21622E+005    2.22206E+005   -5.66446E+005   -8.06094E+004   -7.42303E+004   -5.11779E+005    1.11676E+004    2.23317E+005   -8.43314E+003
             595    5.09966E+005    2.60381E+004   -5.08844E+005   -2.81142E+004   -5.08844E+005    5.34882E+005    1.70307E+005   -5.03437E+005   -4.60281E+004   -2.87215E+004   -4.36170E+005    1.64021E+004    1.81164E+005   -2.26219E+004
             596    4.39841E+005    5.94961E+004   -4.07278E+005   -5.36538E+002   -4.07278E+005    4.66774E+005    1.16106E+005   -4.30479E+005    5.73952E+003   -1.58334E+003   -3.52474E+005    1.85262E+004    1.46805E+005   -2.59992E+004
             597    3.84207E+005    5.33415E+004   -3.51971E+005    6.90875E+003   -3.51971E+005    4.05313E+005    9.72404E+004   -3.77817E+005   -1.06496E+004    4.52158E+003   -2.85593E+005    1.58416E+004    1.46843E+005   -2.69469E+004
             598    3.30254E+005    7.93853E+004   -2.78960E+005    1.31693E+004   -2.78960E+005    3.58345E+005    6.21351E+004   -3.14795E+005    1.92775E+004    1.10095E+004   -2.16692E+005    1.37757E+004    1.33172E+005   -2.23252E+004
             599    2.85326E+005    7.69377E+004   -2.35586E+005    1.09950E+004   -2.35586E+005    3.12523E+005    4.92177E+004   -2.67362E+005   -3.58543E+003    8.78425E+003   -1.52852E+005    1.01173E+004    1.35942E+005   -2.14737E+004
             600    2.52124E+005    1.04235E+005   -1.81715E+005    8.59919E+003   -1.81715E+005    2.85950E+005    2.29602E+004   -2.04905E+005    1.47509E+004    7.00470E+003   -9.06363E+004    6.38077E+003    1.31779E+005   -1.82307E+004
             601    2.34276E+005    1.15678E+005   -1.53690E+005    2.57600E+003   -1.53690E+005    2.69368E+005    1.18119E+004   -1.52022E+005   -7.54633E+003    2.19976E+003   -3.00890E+004    2.07816E+003    1.33012E+005   -1.80084E+004
             602    4.67191E+005    2.15217E+004   -4.62920E+005   -1.51388E+004   -4.62920E+005    4.84441E+005    1.52179E+005   -4.63938E+005   -5.80614E+004   -1.57588E+004   -3.82716E+005    1.70458E+004    1.77847E+005   -2.29725E+004
             603    4.06406E+005    6.22551E+004   -3.68554E+005    7.99894E+003   -3.68554E+005    4.30809E+005    9.94333E+004   -3.98136E+005    6.02064E+003    6.45159E+003   -3.10772E+005    2.02190E+004    1.42675E+005   -2.81491E+004
             604    3.59289E+005    5.17667E+004   -3.29557E+005    2.64186E+003   -3.29557E+005    3.81324E+005    9.17162E+004   -3.51614E+005   -1.67603E+004    9.35405E+001   -2.58482E+005    1.93891E+004    1.44849E+005   -2.72647E+004
             605    3.11686E+005    7.99173E+004   -2.58610E+005    1.64742E+004   -2.58610E+005    3.38527E+005    5.40728E+004   -2.96632E+005    1.71516E+004    1.33786E+004   -1.92748E+005    1.74685E+004    1.30373E+005   -2.55673E+004
             606    2.72993E+005    7.51094E+004   -2.25631E+005    6.54006E+003   -2.25631E+005    3.00741E+005    4.79940E+004   -2.52504E+005   -6.43972E+003    3.69693E+003   -1.41239E+005    1.32016E+004    1.32827E+005   -2.18604E+004
             607    2.44542E+005    1.03396E+005   -1.73522E+005    1.27737E+004   -1.73522E+005    2.76918E+005    1.91175E+004   -2.01195E+005    1.38128E+004    1.03316E+004   -8.14970E+004    8.49747E+003    1.28373E+005   -2.14568E+004
             608    2.27885E+005    1.12578E+005   -1.49828E+005   -1.62762E+003   -1.49828E+005    2.62405E+005    1.29592E+004   -1.38007E+005   -8.08875E+003   -2.31354E+003   -2.84753E+004    2.75883E+003    1.29326E+005   -1.97164E+004
             609    4.39128E+005    1.81604E+004   -4.28935E+005    1.76701E+003   -4.28935E+005    4.47095E+005    1.36336E+005   -4.38439E+005   -7.31103E+004    1.71546E+003   -3.37613E+005    7.11929E+003    1.78473E+005   -2.43033E+004
             610    3.74303E+005    5.97431E+004   -3.41530E+005   -1.83263E+003   -3.41530E+005    4.01273E+005    9.45398E+004   -3.62645E+005   -1.90578E+003   -2.81057E+003   -2.78903E+005    1.63819E+004    1.43302E+005   -2.01164E+004
             611    3.37453E+005    5.19416E+004   -3.07323E+005    2.96589E+003   -3.07323E+005    3.59265E+005    8.41385E+004   -3.29315E+005   -2.37277E+004    1.52131E+003   -2.30209E+005    1.72658E+004    1.45204E+005   -2.03486E+004
             612    2.99576E+005    7.84632E+004   -2.50494E+005    6.64642E+003   -2.50494E+005    3.28957E+005    5.51280E+004   -2.79205E+005    1.11545E+004    5.52376E+003   -1.82062E+005    1.70953E+004    1.31368E+005   -1.65305E+004
             613    2.62909E+005    7.62358E+004   -2.13671E+005    9.29924E+003   -2.13671E+005    2.89906E+005    4.27119E+004   -2.42601E+005   -7.82646E+003    6.77228E+003   -1.27081E+005    1.43292E+004    1.30685E+005   -1.90907E+004
             614    2.35414E+005    1.00569E+005   -1.67591E+005    5.05563E+003   -1.67591E+005    2.68160E+005    2.06556E+004   -1.83537E+005    1.06922E+004    3.17026E+003   -7.58291E+004    9.38929E+003    1.25894E+005   -1.54504E+004
             615    2.21057E+005    1.10735E+005   -1.43539E+005    2.96011E+003   -1.43539E+005    2.54274E+005    9.94793E+003   -1.41104E+005   -7.21116E+003    2.34819E+003   -2.49808E+004    3.17776E+003    1.25919E+005   -1.51923E+004
             616    4.19421E+005    6.03846E+003   -4.26756E+005   -2.21302E+004   -4.26756E+005    4.32795E+005    1.47616E+005   -4.17284E+005   -1.18112E+005   -2.05856E+004   -3.04151E+005    3.32408E+003    1.93564E+005   -2.01128E+004
             617    3.66327E+005    5.07579E+004   -3.32245E+005    1.47454E+004   -3.32245E+005    3.83003E+005    8.89140E+004   -3.62312E+005   -2.23890E+004    1.49174E+004   -2.59270E+005    6.76392E+003    1.50131E+005   -5.72452E+003
             618    3.43401E+005    3.88958E+004   -3.22247E+005    1.21189E+002   -3.22247E+005    3.61142E+005    9.44099E+004   -3.38423E+005   -5.09192E+004    1.67860E+002   -2.32478E+005    1.06187E+004    1.55448E+005   -9.03187E+003
             619    2.97310E+005    7.14917E+004   -2.50019E+005    1.49768E+004   -2.50019E+005    3.21511E+005    5.45169E+004   -2.84846E+005   -8.88389E+003    1.39522E+004   -1.68619E+005    1.34103E+004    1.38513E+005   -1.42805E+004
             620    2.58997E+005    7.32076E+004   -2.14643E+005   -4.59506E+002   -2.14643E+005    2.87850E+005    4.72982E+004   -2.33625E+005   -2.05165E+004   -8.43141E+002   -1.20535E+005    1.15247E+004    1.34358E+005   -7.44687E+003
             621    2.32949E+005    9.94734E+004   -1.65491E+005    7.12129E+003   -1.65491E+005    2.64964E+005    1.96321E+004   -1.84442E+005    3.23583E+003    6.75745E+003   -6.88897E+004    8.55574E+003    1.27140E+005   -5.26090E+003
             622    2.17891E+005    1.09310E+005   -1.41884E+005   -3.94569E+003   -1.41884E+005    2.51194E+005    1.21733E+004   -1.20513E+005   -8.53733E+003   -3.99315E+003   -2.39894E+004    2.77497E+003    1.25324E+005   -1.29840E+003
             623    2.23909E+005    1.14980E+005   -1.42898E+005    2.14053E+003   -1.42898E+005    2.57878E+005    8.59250E+003   -1.33975E+005   -5.23073E+003    3.32382E+003   -2.38706E+004    3.80666E+003    1.27341E+005    1.69775E+004
             624    2.40598E+005    9.19696E+004   -1.81858E+005   -4.30595E+003   -1.81858E+005    2.73827E+005    3.13980E+004   -1.89350E+005   -2.29398E+004   -1.55500E+003   -6.96993E+004    1.01395E+004    1.33434E+005    1.31812E+004
             625    2.68610E+005    7.58476E+004   -2.19496E+005    1.02145E+004   -2.19496E+005    2.95343E+005    4.44779E+004   -2.49594E+005   -3.43056E+004    1.25133E+004   -1.11641E+005    1.44296E+004    1.41093E+005    1.90512E+003
             626    3.06809E+005    5.45094E+004   -2.71771E+005    1.09013E+004   -2.71771E+005    3.26280E+005    6.87866E+004   -2.99718E+005   -5.64000E+004    1.27954E+004   -1.62755E+005    1.54611E+004    1.52641E+005   -4.41297E+003
             627    3.48869E+005    3.80380E+004   -3.15424E+005    2.86623E+004   -3.15424E+005    3.53462E+005    8.29079E+004   -3.48585E+005   -6.55705E+004    2.81773E+004   -2.11330E+005    1.51295E+004    1.59536E+005   -1.79643E+004
             628    4.16163E+005    1.32264E+004   -4.03938E+005    1.12158E+004   -4.03938E+005    4.17164E+005    1.26499E+005   -4.16152E+005   -9.33578E+004    1.07217E+004   -2.96860E+005    8.01720E+003    1.81721E+005   -1.29675E+004
             629    4.08027E+005    2.65827E+004   -3.94582E+005   -1.10100E+003   -3.94582E+005    4.21164E+005    1.23033E+005   -4.05906E+005   -8.63076E+004    2.37021E+004   -3.06494E+005   -6.07318E+003    1.64764E+005   -6.51475E+003
             630    2.18289E+005    1.12680E+005   -1.38847E+005    1.09073E+003   -1.38847E+005    2.51527E+005    8.35867E+003   -1.26302E+005   -3.55018E+003    1.27775E+003   -2.28036E+004   -3.30937E+003    1.25301E+005   -3.14450E+003
             631    2.18124E+005    1.07819E+005   -1.43296E+005   -8.89609E+002   -1.43296E+005    2.51115E+005    1.21224E+004   -1.33622E+005   -8.14020E+003   -1.35951E+003   -2.68675E+004   -3.36384E+003    1.24810E+005    9.78967E+003
             632    2.23031E+005    1.09688E+005   -1.46833E+005    1.19109E+003   -1.46833E+005    2.56521E+005    1.19848E+004   -1.42906E+005   -8.80855E+003    4.43971E+002   -2.75899E+004   -3.37164E+003    1.26665E+005    1.79282E+004
             633    2.29422E+005    1.11303E+005   -1.52496E+005    4.28781E+002   -1.52496E+005    2.63799E+005    1.35881E+004   -1.48621E+005   -8.64725E+003   -2.84387E+002   -3.18327E+004   -2.98486E+003    1.29793E+005    2.05573E+004
             634    2.34309E+005    1.13374E+005   -1.55942E+005    1.12218E+003   -1.55942E+005    2.69317E+005    1.38154E+004   -1.53903E+005   -8.70848E+003    6.64216E+002   -3.34019E+004   -2.31975E+003    1.32786E+005    1.87914E+004
             635    2.37778E+005    1.14613E+005   -1.58678E+005    8.25066E+002   -1.58678E+005    2.73291E+005    1.44132E+004   -1.56448E+005   -8.76139E+003    6.09327E+002   -3.50874E+004   -1.56863E+003    1.35359E+005    1.33870E+004
             636    2.39275E+005    1.15183E+005   -1.59883E+005    1.51269E+002   -1.59883E+005    2.75066E+005    1.48495E+004   -1.56311E+005   -8.93264E+003    1.23674E+002   -3.57395E+004   -5.18257E+002    1.36757E+005    5.80487E+003
             637    2.39482E+005    1.16138E+005   -1.59112E+005    1.52969E+003   -1.59112E+005    2.75250E+005    1.38146E+004   -1.57558E+005   -8.46325E+003    1.52032E+003   -3.45009E+004    3.19771E+002    1.36973E+005   -3.12407E+003
             638    2.37647E+005    1.15400E+005   -1.57996E+005   -8.67021E+002   -1.57996E+005    2.73395E+005    1.44876E+004   -1.50773E+005   -8.75430E+003   -1.03808E+003   -3.36704E+004    1.35532E+003    1.35658E+005   -1.13842E+004
             639    2.34140E+005    9.33691E+004   -1.72814E+005    1.28440E+003   -1.72814E+005    2.66183E+005    2.60535E+004   -1.86322E+005   -7.16575E+003    1.54038E+003   -7.25353E+004   -8.10754E+003    1.28719E+005    3.69838E+002
             640    2.34055E+005    9.91908E+004   -1.66782E+005    7.74180E+003   -1.66782E+005    2.65973E+005    1.99499E+004   -1.87006E+005    8.48066E+003    6.36206E+003   -7.46923E+004   -9.65493E+003    1.25584E+005    1.21319E+004
             641    2.41132E+005    1.00440E+005   -1.72918E+005    9.59548E+003   -1.72918E+005    2.73359E+005    2.09608E+004   -1.96695E+005    1.30213E+004    7.09028E+003   -8.29941E+004   -9.83418E+003    1.26528E+005    1.95096E+004
             642    2.48820E+005    1.02251E+005   -1.79158E+005    1.17297E+004   -1.79158E+005    2.81409E+005    2.17258E+004   -2.06575E+005    1.48749E+004    9.29303E+003   -8.93454E+004   -8.46079E+003    1.29084E+005    2.15843E+004
             643    2.55658E+005    1.03575E+005   -1.85404E+005    1.13315E+004   -1.85404E+005    2.88979E+005    2.34991E+004   -2.13077E+005    1.63626E+004    9.56412E+003   -9.64240E+004   -6.79342E+003    1.31775E+005    1.93967E+004
             644    2.60091E+005    1.04618E+005   -1.89284E+005    1.11751E+004   -1.89284E+005    2.93903E+005    2.44969E+004   -2.17197E+005    1.67912E+004    1.03903E+004   -1.00672E+005   -4.19163E+003    1.34086E+005    1.37896E+004
             645    2.61855E+005    1.05648E+005   -1.90293E+005    1.13618E+004   -1.90293E+005    2.95941E+005    2.44276E+004   -2.18447E+005    1.73804E+004    1.12423E+004   -1.01906E+005   -1.62147E+003    1.35322E+005    5.44602E+003
             646    2.61219E+005    1.05438E+005   -1.90139E+005    9.71946E+003   -1.90139E+005    2.95577E+005    2.49939E+004   -2.16119E+005    1.65909E+004    9.66186E+003   -1.01235E+005    1.30551E+003    1.35500E+005   -3.42022E+003
             647    2.58080E+005    1.06101E+005   -1.85787E+005    1.21788E+004   -1.85787E+005    2.91888E+005    2.25026E+004   -2.14228E+005    1.67716E+004    1.14873E+004   -9.57665E+004    4.00035E+003    1.34122E+005   -1.28189E+004
             648    2.62535E+005    7.58064E+004   -2.14470E+005    6.35972E+003   -2.14470E+005    2.90277E+005    4.41014E+004   -2.40534E+005   -1.78293E+004    6.26813E+003   -1.20743E+005   -1.21580E+004    1.35036E+005    6.45131E+003
             649    2.64020E+005    7.29933E+004   -2.18489E+005    4.61722E+003   -2.18489E+005    2.91482E+005    4.69595E+004   -2.42873E+005   -1.17798E+004    2.92149E+003   -1.32020E+005   -1.41869E+004    1.31612E+005    1.52312E+004
             650    2.71823E+005    7.26001E+004   -2.25204E+005    9.55888E+003   -2.25204E+005    2.97804E+005    4.76817E+004   -2.54584E+005   -8.57480E+003    6.50680E+003   -1.40977E+005   -1.50953E+004    1.31642E+005    2.20640E+004
             651    2.83416E+005    7.30931E+004   -2.36952E+005    8.78405E+003   -2.36952E+005    3.10045E+005    5.16915E+004   -2.66247E+005   -5.99929E+003    5.85028E+003   -1.54925E+005   -1.28779E+004    1.34281E+005    2.34416E+004
             652    2.92802E+005    7.39100E+004   -2.45480E+005    1.02649E+004   -2.45480E+005    3.19390E+005    5.37683E+004   -2.76589E+005   -4.11471E+003    8.15494E+003   -1.65345E+005   -1.03552E+004    1.36596E+005    2.09124E+004
             653    2.99808E+005    7.44560E+004   -2.52537E+005    9.40410E+003   -2.52537E+005    3.26993E+005    5.62257E+004   -2.83269E+005   -3.60714E+003    8.51461E+003   -1.73585E+005   -6.45721E+003    1.39122E+005    1.40871E+004
             654    3.02335E+005    7.51054E+004   -2.54845E+005    8.90251E+003   -2.54845E+005    3.29950E+005    5.69457E+004   -2.85335E+005   -2.93647E+003    8.78910E+003   -1.76690E+005   -2.10451E+003    1.40171E+005    5.31416E+003
             655    3.00719E+005    7.59613E+004   -2.52299E+005    9.89101E+003   -2.52299E+005    3.28260E+005    5.54823E+004   -2.83691E+005   -2.89998E+003    9.77463E+003   -1.73321E+005    2.22250E+003    1.40203E+005   -5.25118E+003
             656    2.94760E+005    7.56215E+004   -2.46993E+005    8.24893E+003   -2.46993E+005    3.22614E+005    5.43741E+004   -2.76629E+005   -3.69280E+003    7.32235E+003   -1.66752E+005    6.75990E+003    1.38630E+005   -1.39797E+004
             657    3.03478E+005    6.01133E+004   -2.65602E+005    9.19718E+003   -2.65602E+005    3.25716E+005    6.54306E+004   -2.93637E+005   -2.71290E+004    8.70404E+003   -1.77867E+005   -1.22690E+004    1.43599E+005    1.12253E+004
             658    3.04625E+005    7.55005E+004   -2.56186E+005    1.10692E+004   -2.56186E+005    3.31687E+005    5.65389E+004   -2.88691E+005    5.41843E+003    9.92213E+003   -1.84957E+005   -1.68276E+004    1.34120E+005    1.69465E+004
             659    3.16442E+005    7.74015E+004   -2.66478E+005    1.24456E+004   -2.66478E+005    3.43880E+005    5.88770E+004   -3.00889E+005    1.41614E+004    1.00544E+004   -2.00847E+005   -1.87606E+004    1.31720E+005    2.35679E+004
             660    3.30671E+005    7.80246E+004   -2.79736E+005    1.46812E+004   -2.79736E+005    3.57761E+005    6.23435E+004   -3.16587E+005    1.79027E+004    1.20115E+004   -2.16945E+005   -1.60794E+004    1.32768E+005    2.50413E+004
             661    3.44747E+005    7.90979E+004   -2.93391E+005    1.44670E+004   -2.93391E+005    3.72489E+005    6.66086E+004   -3.30702E+005    2.10164E+004    1.25394E+004   -2.33381E+005   -1.32199E+004    1.34467E+005    2.19774E+004
             662    3.54099E+005    7.88759E+004   -3.02910E+005    1.47323E+004   -3.02910E+005    3.81786E+005    6.97674E+004   -3.40658E+005    2.13771E+004    1.38712E+004   -2.44550E+005   -7.72686E+003    1.36332E+005    1.49437E+004
             663    3.57418E+005    7.99105E+004   -3.05465E+005    1.51367E+004   -3.05465E+005    3.85376E+005    7.01393E+004   -3.43839E+005    2.26844E+004    1.50631E+004   -2.48165E+005   -2.23060E+003    1.37017E+005    4.40260E+003
             664    3.54118E+005    7.93830E+004   -3.02863E+005    1.40189E+004   -3.02863E+005    3.82246E+005    6.98205E+004   -3.40146E+005    2.15818E+004    1.38769E+004   -2.44920E+005    3.82226E+003    1.36885E+005   -6.14895E+003
             665    3.44606E+005    8.07022E+004   -2.91413E+005    1.67149E+004   -2.91413E+005    3.72115E+005    6.46653E+004   -3.30842E+005    2.22013E+004    1.55806E+004   -2.31778E+005    9.51323E+003    1.35114E+005   -1.68021E+004
             666    3.44716E+005    4.39175E+004   -3.16422E+005    1.01919E+004   -3.16422E+005    3.60340E+005    8.74375E+004   -3.40975E+005   -4.38886E+004    1.00299E+004   -2.28454E+005   -1.30536E+004    1.53739E+005    1.27574E+004
             667    3.50722E+005    4.52223E+004   -3.26326E+005   -1.01792E+003   -3.26326E+005    3.71548E+005    9.40406E+004   -3.43764E+005   -3.32073E+004   -2.08170E+003   -2.46833E+005   -1.57709E+004    1.50531E+005    1.85015E+004
             668    3.64137E+005    4.84612E+004   -3.36247E+005    3.06215E+003   -3.36247E+005    3.84708E+005    9.49078E+004   -3.57687E+005   -2.20421E+004    1.18275E+003   -2.63864E+005   -1.97286E+004    1.47007E+005    2.55722E+004
             669    3.85868E+005    4.93344E+004   -3.58424E+005    9.99643E+002   -3.58424E+005    4.07758E+005    1.02697E+005   -3.78967E+005   -1.60236E+004   -1.35223E+003   -2.90714E+005   -1.74440E+004    1.48365E+005    2.73554E+004
             670    4.06715E+005    5.18112E+004   -3.77084E+005    3.05491E+003   -3.77084E+005    4.28895E+005    1.07406E+005   -4.00061E+005   -1.01247E+004    1.38397E+003   -3.13477E+005   -1.43650E+004    1.49910E+005    2.40336E+004
             671    4.21295E+005    5.24576E+004   -3.91974E+005    1.55847E+003   -3.91974E+005    4.44432E+005    1.12653E+005   -4.14292E+005   -7.89020E+003    9.43157E+002   -3.31011E+005   -8.52063E+003    1.51952E+005    1.48711E+004
             672    4.26687E+005    5.39636E+004   -3.96518E+005    1.52926E+003   -3.96518E+005    4.50481E+005    1.13675E+005   -4.19347E+005   -5.64967E+003    1.48200E+003   -3.36857E+005   -1.88282E+003    1.52635E+005    4.00328E+003
             673    4.21066E+005    5.39955E+004   -3.90161E+005    3.20722E+003   -3.90161E+005    4.44156E+005    1.10986E+005   -4.14091E+005   -6.09890E+003    3.00151E+003   -3.29861E+005    5.02137E+003    1.51817E+005   -8.65702E+003
             674    4.06697E+005    5.36674E+004   -3.75789E+005    3.49233E+003   -3.75789E+005    4.29457E+005    1.06210E+005   -3.99645E+005   -7.64944E+003    2.52103E+003   -3.13501E+005    1.15603E+004    1.49664E+005   -1.86597E+004
             675    3.91138E+005    2.97232E+004   -3.72963E+005    5.50143E+003   -3.72963E+005    4.02686E+005    1.12579E+005   -3.89445E+005   -5.83678E+004    4.94548E+003   -2.84316E+005   -7.13917E+003    1.66319E+005    1.27016E+004
             676    3.88377E+005    5.57798E+004   -3.56520E+005    2.41544E+003   -3.56520E+005    4.12299E+005    9.94414E+004   -3.79997E+005   -9.51373E+003    2.20851E+003   -2.91019E+005   -1.37988E+004    1.49323E+005    1.51678E+004
             677    4.11865E+005    5.90879E+004   -3.80319E+005   -3.05706E+003   -3.80319E+005    4.39406E+005    1.08096E+005   -4.01114E+005    3.13234E+002   -4.09817E+003   -3.20503E+005   -1.94658E+004    1.47346E+005    2.47436E+004
             678    4.42626E+005    5.82950E+004   -4.11249E+005   -1.65275E+003   -4.11249E+005    4.69544E+005    1.18202E+005   -4.33351E+005    3.55231E+003   -3.34811E+003   -3.54811E+005   -1.81608E+004    1.48916E+005    2.82912E+004
             679    4.72434E+005    5.78259E+004   -4.43438E+005   -6.40739E+003   -4.43438E+005    5.01264E+005    1.30673E+005   -4.62456E+005    4.70715E+003   -7.31744E+003   -3.89409E+005   -1.55895E+004    1.52831E+005    2.35178E+004
             680    4.91121E+005    5.60985E+004   -4.64401E+005   -9.18934E+003   -4.64401E+005    5.20500E+005    1.39164E+005   -4.81213E+005    3.76861E+003   -9.60479E+003   -4.11656E+005   -8.64198E+003    1.56131E+005    1.46619E+004
             681    4.97615E+005    5.64896E+004   -4.71165E+005   -1.03458E+004   -4.71165E+005    5.27655E+005    1.41674E+005   -4.87363E+005    4.62853E+003   -1.03565E+004   -4.19293E+005   -1.30709E+003    1.57075E+005    2.31146E+003
             682    4.90713E+005    5.62072E+004   -4.64096E+005   -9.61981E+003   -4.64096E+005    5.20304E+005    1.39170E+005   -4.80629E+005    4.12494E+003   -9.72143E+003   -4.11913E+005    6.61697E+003    1.55867E+005   -9.41752E+003
             683    4.71375E+005    5.89753E+004   -4.40588E+005   -3.66579E+003   -4.40588E+005    4.99563E+005    1.28426E+005   -4.61871E+005    6.34757E+003   -4.27490E+003   -3.87351E+005    1.38129E+004    1.52152E+005   -2.03419E+004
             684    4.20253E+005    1.63775E+004   -4.11137E+005    1.45635E+003   -4.11137E+005    4.27515E+005    1.31101E+005   -4.19656E+005   -7.99855E+004    2.12826E+003   -3.15446E+005   -9.27170E+003    1.77559E+005    9.20117E+003
             685    4.45489E+005    8.71715E+003   -4.50730E+005   -2.06532E+004   -4.50730E+005    4.59447E+005    1.54222E+005   -4.43303E+005   -9.14204E+004   -2.10305E+004   -3.50215E+005   -5.98977E+003    1.88783E+005    2.07294E+004
             686    4.73877E+005    1.76375E+004   -4.72555E+005   -1.68825E+004   -4.72555E+005    4.90193E+005    1.57267E+005   -4.71036E+005   -6.47392E+004   -1.86467E+004   -3.88414E+005   -1.34568E+004    1.82778E+005    2.57143E+004
             687    5.14249E+005    2.10416E+004   -5.17967E+005   -3.26984E+004   -5.17967E+005    5.39008E+005    1.76541E+005   -5.07874E+005   -5.40684E+004   -3.35085E+004   -4.42047E+005   -1.68596E+004    1.85256E+005    2.38965E+004
             688    5.53352E+005    2.58062E+004   -5.59241E+005   -4.42569E+004   -5.59241E+005    5.85047E+005    1.92564E+005   -5.43239E+005   -4.42912E+004   -4.48330E+004   -4.88567E+005   -1.41455E+004    1.89033E+005    2.04742E+004
             689    5.82547E+005    2.68131E+004   -5.91592E+005   -5.31673E+004   -5.91592E+005    6.18405E+005    2.05982E+005   -5.69998E+005   -3.98965E+004   -5.33577E+004   -5.24692E+005   -8.57896E+003    1.91481E+005    1.24260E+004
             690    5.93420E+005    2.85487E+004   -6.02104E+005   -5.47089E+004   -6.02104E+005    6.30652E+005    2.09421E+005   -5.80062E+005   -3.68010E+004   -5.47126E+004   -5.36750E+005   -2.56297E+002    1.92202E+005    1.57591E+003
             691    5.81575E+005    2.81259E+004   -5.89232E+005   -5.16847E+004   -5.89232E+005    6.17358E+005    2.04264E+005   -5.69058E+005   -3.75707E+004   -5.18075E+004   -5.23413E+005    7.64685E+003    1.90070E+005   -1.07370E+004
             692    5.50077E+005    2.71780E+004   -5.55230E+005   -4.45136E+004   -5.55230E+005    5.82408E+005    1.90855E+005   -5.39416E+005   -4.10293E+004   -4.47364E+004   -4.86800E+005    1.42149E+004    1.86112E+005   -1.81963E+004
             693    6.62084E+005    1.19290E+004   -7.01973E+005   -1.08140E+005   -7.01973E+005    7.13902E+005    2.66062E+005   -6.36895E+005   -9.47856E+004   -1.08329E+005   -5.95070E+005    8.59525E+003    2.54351E+005   -1.09398E+004
             694    7.18921E+005    7.62029E+003   -7.71895E+005   -1.34922E+005   -7.71895E+005    7.79515E+005    2.99732E+005   -6.86039E+005   -1.08055E+005   -1.34999E+005   -6.56141E+005    5.35455E+003    2.77044E+005   -6.97204E+003
             695    7.41842E+005    5.25643E+003   -8.00180E+005   -1.44907E+005   -8.00180E+005    8.05436E+005    3.13277E+005   -7.06424E+005   -1.14035E+005   -1.44906E+005   -6.80889E+005   -1.78262E+002    2.86096E+005   -2.37177E+002
             696    7.20112E+005    7.56635E+003   -7.72909E+005   -1.34266E+005   -7.72909E+005    7.80475E+005    2.99870E+005   -6.87625E+005   -1.08890E+005   -1.34371E+005   -6.56348E+005   -5.03204E+003    2.78030E+005    7.59176E+003
             697    6.64501E+005    1.09486E+004   -7.05142E+005   -1.08407E+005   -7.05142E+005    7.16090E+005    2.67533E+005   -6.39715E+005   -9.66225E+004   -1.08528E+005   -5.97450E+005   -8.55115E+003    2.55631E+005    9.88238E+003
             698    5.91262E+005    1.59414E+004   -6.13783E+005   -7.05002E+004   -6.13783E+005    6.29724E+005    2.22781E+005   -5.76789E+005   -8.09316E+004   -7.03884E+004   -5.17022E+005   -1.03924E+004    2.26659E+005    9.32068E+003
             699    5.14934E+005    1.80578E+004   -5.20065E+005   -3.19723E+004   -5.20065E+005    5.38123E+005    1.77993E+005   -5.09423E+005   -6.77463E+004   -3.02777E+004   -4.35956E+005   -1.30429E+004    1.94732E+005    5.94959E+003
             700    4.49369E+005    2.36699E+004   -4.31167E+005    1.25265E+004   -4.31167E+005    4.54837E+005    1.31657E+005   -4.49058E+005   -5.22227E+004    1.66945E+004   -3.59442E+005   -9.59438E+003    1.64458E+005    8.37896E+003
             701    4.50134E+005    1.90014E+004   -4.43260E+005   -6.32303E+003   -4.43260E+005    4.62261E+005    1.43527E+005   -4.48527E+005   -9.48096E+004    1.10997E+004   -3.46872E+005    5.88368E+003    1.83024E+005    1.38528E+004
             702    2.24783E+005    1.13317E+005   -1.45754E+005   -2.47194E+003   -1.45754E+005    2.59071E+005    1.16366E+004   -1.27515E+005   -8.80962E+003   -1.26721E+003   -2.48330E+004   -3.46501E+003    1.27753E+005   -1.91008E+004
             703    2.41916E+005    9.32040E+004   -1.81094E+005    1.81403E+003   -1.81094E+005    2.74298E+005    2.86919E+004   -1.97045E+005   -2.12781E+004    4.82456E+003   -6.96222E+004   -1.04533E+004    1.33408E+005   -1.31907E+004
             704    2.72724E+005    7.13175E+004   -2.27981E+005    6.48402E+003   -2.27981E+005    2.99299E+005    5.00599E+004   -2.54504E+005   -4.17336E+004    9.60908E+003   -1.18055E+005   -1.37058E+004    1.43008E+005   -5.21424E+003
             705    3.07940E+005    5.45502E+004   -2.69580E+005    1.91020E+004   -2.69580E+005    3.24130E+005    6.53092E+004   -3.03299E+005   -5.52474E+004    2.13322E+004   -1.62013E+005   -1.60540E+004    1.51121E+005    5.83421E+003
             706    3.56549E+005    3.37281E+004   -3.28999E+005    2.10338E+004   -3.28999E+005    3.62727E+005    9.14123E+004   -3.56040E+005   -7.70641E+004    2.39894E+004   -2.21162E+005   -1.40680E+004    1.63948E+005    1.09347E+004
             707    3.88418E+005    2.27921E+004   -3.69942E+005    1.40117E+004   -3.69942E+005    3.92734E+005    1.11046E+005   -3.88195E+005   -8.58792E+004    1.84594E+004   -2.65718E+005   -1.31859E+004    1.71081E+005    1.35189E+004
             708    4.53172E+005    1.17330E+004   -4.48070E+005   -1.83422E+003   -4.48070E+005    4.59803E+005    1.46057E+005   -4.52714E+005   -1.11436E+005    6.79152E+003   -3.33527E+005   -5.37950E+003    1.95217E+005    2.15155E+004
             709    3.24090E+005    1.97387E+005    1.97387E+005    1.40966E+003   -1.76698E+005    3.74085E+005   -7.36643E+003    1.41158E+005   -2.62081E+003    1.28282E+003    2.34373E+004   -3.98718E+003    1.86522E+005    2.75964E+003
             710    3.26317E+005    1.96603E+005    1.96603E+005   -4.92288E+003   -1.79883E+005    3.76486E+005   -3.93232E+003    1.61774E+005   -8.66070E+003   -4.57905E+003    2.50367E+004   -3.52614E+003    1.87240E+005   -9.20043E+003
             711    3.31578E+005    2.01081E+005    2.01081E+005   -8.48711E+002   -1.81597E+005    3.82678E+005   -6.21191E+003    1.51663E+005   -8.97213E+003   -3.48361E+002    2.79562E+004   -3.21465E+003    1.89928E+005   -1.38453E+004
             712    3.37632E+005    2.03916E+005    2.03916E+005   -5.19776E+003   -1.85595E+005    3.89511E+005   -4.37451E+003    1.69833E+005   -1.12646E+004   -4.83864E+003    2.92268E+004   -2.41353E+003    1.93228E+005   -1.34876E+004
             713    3.37681E+005    2.37410E+005    2.37410E+005   -1.72318E+003   -1.48877E+005    3.86287E+005   -2.89366E+004    2.48488E+005    1.57582E+004   -1.85334E+003    7.29050E+004   -1.10483E+004    1.90680E+005   -1.08399E+003
             714    3.39825E+005    2.40502E+005    2.40502E+005    3.03139E+003   -1.48763E+005    3.89266E+005   -3.15901E+004    2.43998E+005    1.03435E+004    3.81434E+003    8.06125E+004   -9.64609E+003    1.91029E+005   -9.78074E+003
             715    3.46712E+005    2.44251E+005    2.44251E+005   -2.92962E+003   -1.52076E+005    3.96327E+005   -2.97486E+004    2.58162E+005    4.27252E+003   -1.72923E+003    8.67025E+004   -8.90507E+003    1.93165E+005   -1.53535E+004
             716    3.53807E+005    2.52252E+005    2.52252E+005    2.66493E+002   -1.52231E+005    4.04483E+005   -3.34292E+004    2.62985E+005    3.95442E+003    1.11166E+003    9.52214E+004   -6.87380E+003    1.96521E+005   -1.38962E+004
             717    3.58234E+005    2.69902E+005    2.69902E+005   -1.19077E+003   -1.36224E+005    4.06126E+005   -4.41625E+004    2.92136E+005    1.16825E+004   -1.38961E+003    1.22194E+005   -1.74685E+004    1.94531E+005   -4.51785E+003
             718    3.62426E+005    2.68294E+005    2.68294E+005   -6.56635E+003   -1.42433E+005    4.10727E+005   -3.97651E+004    2.96414E+005   -5.61254E+003   -5.39104E+003    1.30299E+005   -1.49645E+004    1.92994E+005   -1.28859E+004
             719    3.69370E+005    2.75610E+005    2.75610E+005   -2.19250E+003   -1.43566E+005    4.19176E+005   -4.32840E+004    2.98701E+005   -1.23479E+004   -7.15111E+002    1.42915E+005   -1.43939E+004    1.93800E+005   -1.52987E+004
             720    3.79975E+005    2.83821E+005    2.83821E+005   -7.70678E+003   -1.45914E+005    4.29735E+005   -4.34003E+004    3.15493E+005   -1.69662E+004   -6.34468E+003    1.53512E+005   -1.13352E+004    1.96492E+005   -1.63563E+004
             721    3.96187E+005    3.26328E+005    3.26328E+005   -6.00438E+003   -1.12107E+005    4.38435E+005   -6.94056E+004    3.62096E+005    3.99659E+004   -5.79128E+003    1.74042E+005   -2.14870E+004    2.07386E+005   -1.07543E+004
             722    3.99318E+005    3.30812E+005    3.30812E+005    5.85658E+003   -1.14964E+005    4.45776E+005   -7.39016E+004    3.54559E+005    2.51428E+004    6.74392E+003    1.89818E+005   -1.77281E+004    2.06165E+005   -1.30904E+004
             723    4.09226E+005    3.35358E+005    3.35358E+005    1.34713E+003   -1.21119E+005    4.56477E+005   -7.18620E+004    3.64447E+005    9.96884E+003    3.12400E+003    2.02493E+005   -1.76438E+004    2.05767E+005   -1.89887E+004
             724    4.24480E+005    3.52188E+005    3.52188E+005    2.71921E+003   -1.20182E+005    4.72370E+005   -7.82419E+004    3.81262E+005    6.41581E+003    4.20170E+003    2.24108E+005   -1.49443E+004    2.08673E+005   -1.82814E+004
             725    4.27153E+005    3.65775E+005    3.65775E+005   -1.87360E+003   -1.02805E+005    4.68580E+005   -8.70323E+004    3.98979E+005    3.66516E+004   -2.91623E+003    2.27362E+005   -2.28062E+004    2.12281E+005   -8.71450E+003
             726    4.26008E+005    3.57721E+005    3.57721E+005   -5.94577E+002   -1.13311E+005    4.71031E+005   -8.12718E+004    3.90289E+005    1.13160E+004    2.48308E+002    2.32251E+005   -1.97041E+004    2.06728E+005   -1.55866E+004
             727    4.43360E+005    3.75476E+005    3.75476E+005    6.00616E+003   -1.16159E+005    4.91635E+005   -8.84412E+004    4.02805E+005   -1.86629E+002    7.60613E+003    2.57904E+005   -2.14722E+004    2.07552E+005   -2.07438E+004
             728    4.67001E+005    3.96829E+005    3.96829E+005    1.24731E+003   -1.18335E+005    5.15164E+005   -9.32472E+004    4.30486E+005   -6.83760E+003    2.82251E+003    2.83757E+005   -1.82920E+004    2.11338E+005   -2.13159E+004
             729    4.71952E+005    4.30925E+005    4.30925E+005    4.32731E+003   -7.60561E+004    5.06981E+005   -1.19732E+005    4.56168E+005    8.62018E+004    3.35772E+003    2.69637E+005   -1.90065E+004    2.35069E+005   -7.61878E+003
             730    4.78417E+005    4.38501E+005    4.38501E+005    1.83273E+004   -8.21868E+004    5.20688E+005   -1.24881E+005    4.53738E+005    6.63228E+004    1.99134E+004    2.88406E+005   -1.96912E+004    2.34264E+005   -2.08100E+004
             731    5.03210E+005    4.58375E+005    4.58375E+005    1.48741E+004   -8.84906E+004    5.46866E+005   -1.28253E+005    4.78442E+005    4.55111E+004    1.68251E+004    3.22423E+005   -2.00018E+004    2.34352E+005   -2.45648E+004
             732    5.30899E+005    4.88577E+005    4.88577E+005    2.28736E+004   -8.95188E+004    5.78096E+005   -1.40644E+005    5.03076E+005    3.73988E+004    2.42850E+004    3.60248E+005   -1.98334E+004    2.38403E+005   -2.25668E+004
             733    4.40217E+005    4.00094E+005    4.00094E+005    1.26081E+004   -7.85730E+004    4.78667E+005   -1.11376E+005    4.18171E+005    5.17392E+004    1.11885E+004    2.71202E+005   -2.64076E+004    2.10180E+005   -1.24349E+004
             734    4.91137E+005    4.49997E+005    4.49997E+005   -1.73460E+003   -7.28032E+004    5.22800E+005   -1.25153E+005    4.79364E+005    5.95135E+004   -9.58335E+002    3.16904E+005   -2.36214E+004    2.25582E+005   -2.16656E+004
             735    5.29677E+005    4.96683E+005    4.96683E+005    2.42843E+004   -7.59496E+004    5.72633E+005   -1.48339E+005    5.07678E+005    5.59894E+004    2.48465E+004    3.64182E+005   -2.44524E+004    2.39388E+005   -2.07611E+004
             736    5.83679E+005    5.56044E+005    5.56044E+005    3.91491E+004   -7.69650E+004    6.33009E+005   -1.72743E+005    5.56797E+005    5.77106E+004    3.99633E+004    4.20554E+005   -2.09712E+004    2.57983E+005   -2.07133E+004
             737    6.44798E+005    6.70528E+005    6.70528E+005    8.83454E+004   -2.25112E+004    6.93039E+005   -2.45454E+005    6.22814E+005    1.80835E+005    8.88981E+004    4.66628E+005   -1.90067E+004    3.14887E+005   -1.64772E+004
             738    6.02737E+005    6.05659E+005    6.05659E+005    4.74948E+004   -3.34656E+004    6.39125E+005   -2.06563E+005    5.90318E+005    1.60628E+005    4.69371E+004    4.12124E+005   -2.02205E+004    2.92618E+005   -1.18495E+004
             739    5.62358E+005    5.47438E+005    5.47438E+005    2.00630E+004   -4.43543E+004    5.91793E+005   -1.74382E+005    5.53966E+005    1.43334E+005    1.56327E+004    3.64181E+005   -2.01240E+004    2.71875E+005    1.63179E+001
             740    5.74820E+005    5.35847E+005    5.35847E+005   -3.23875E+004   -4.53395E+004    5.81186E+005   -1.52707E+005    5.74491E+005    1.35119E+005   -3.28986E+004    3.55899E+005   -1.33484E+003    2.68529E+005    2.55202E+003
             741    3.26420E+005    2.03734E+005    2.03734E+005   -9.58472E+002   -1.72703E+005    3.76437E+005   -1.00244E+004    1.73781E+005    8.68468E+003   -2.15889E+003    2.35473E+004   -5.29386E+003    1.86983E+005    1.89589E+004
             742    3.39529E+005    2.41439E+005    2.41439E+005    5.32561E+003   -1.47668E+005    3.89107E+005   -3.30322E+004    2.41506E+005    2.59806E+004    2.31034E+003    7.08055E+004   -1.51201E+004    1.91734E+005    1.50282E+004
             743    3.66408E+005    2.84678E+005    2.84678E+005   -3.67322E+003   -1.27630E+005    4.12308E+005   -5.11249E+004    3.13748E+005    4.47995E+004   -6.67838E+003    1.15254E+005   -2.22775E+004    2.01207E+005    4.92378E+003
             744    3.95392E+005    3.31378E+005    3.31378E+005   -1.51998E+003   -1.05661E+005    4.37039E+005   -7.47325E+004    3.62560E+005    6.40051E+004   -4.57012E+003    1.64762E+005   -2.64129E+004    2.10137E+005   -1.32126E+003
             745    4.42266E+005    3.87989E+005    3.87989E+005   -1.13722E+004   -8.73401E+004    4.75329E+005   -9.64255E+004    4.27215E+005    8.48705E+004   -1.21323E+004    2.16538E+005   -2.79607E+004    2.25953E+005   -1.38001E+004
             746    4.83382E+005    4.52683E+005    4.52683E+005    7.47547E+003   -6.14698E+004    5.14153E+005   -1.32896E+005    4.72130E+005    1.07933E+005    5.61445E+003    2.85141E+005   -2.36155E+004    2.39234E+005   -9.71073E+003
             747    5.34207E+005    5.08226E+005    5.08226E+005    2.05920E+003   -5.01818E+004    5.58408E+005   -1.53368E+005    5.28414E+005    1.18295E+005    2.22032E+003    3.39589E+005   -4.35961E+003    2.56225E+005   -8.87162E+003
             748    6.93539E+005    7.38490E+005    7.38490E+005    1.19560E+005   -1.10784E+004    7.49568E+005   -2.82324E+005    6.65006E+005    2.03302E+005    1.20392E+005    5.23278E+005   -1.54092E+004    3.38373E+005   -1.83190E+004
             749    7.27676E+005    7.88792E+005    7.88792E+005    1.46441E+005   -1.47875E+003    7.90271E+005   -3.11251E+005    6.92628E+005    2.20936E+005    1.46737E+005    5.66081E+005   -9.13618E+003    3.55269E+005   -1.11550E+004
             750    7.42144E+005    8.09767E+005    8.09767E+005    1.56359E+005    2.88432E+003    8.06882E+005   -3.23003E+005    7.05101E+005    2.28441E+005    1.56360E+005    5.84210E+005   -3.17154E+002    3.62107E+005   -3.91616E+002
             751    7.28545E+005    7.90295E+005    7.90295E+005    1.46581E+005   -6.05133E+002    7.90900E+005   -3.12090E+005    6.93900E+005    2.23144E+005    1.46909E+005    5.66218E+005    8.92710E+003    3.56115E+005    1.18250E+004
             752    6.93878E+005    7.40723E+005    7.40723E+005    1.21222E+005   -9.06316E+003    7.49786E+005   -2.84294E+005    6.65519E+005    2.07410E+005    1.21986E+005    5.23485E+005    1.52784E+004    3.39432E+005    1.75416E+004
             753    6.49827E+005    6.75725E+005    6.75725E+005    8.51256E+004   -2.04102E+004    6.96135E+005   -2.46813E+005    6.30112E+005    1.87408E+005    8.59222E+004    4.67110E+005    1.86424E+004    3.17971E+005    1.82349E+004
             754    6.06216E+005    6.11634E+005    6.11634E+005    4.90292E+004   -3.03686E+004    6.42003E+005   -2.10098E+005    5.94350E+005    1.67144E+005    4.85596E+004    4.14591E+005    1.96386E+004    2.95120E+005    1.18035E+004
             755    5.84550E+005    5.71226E+005    5.71226E+005    1.36296E+004   -3.69864E+004    6.08212E+005   -1.82623E+005    5.79589E+005    1.54451E+005    1.35969E+004    3.79822E+005    1.13421E+004    2.82072E+005    9.00309E+003
             756    5.53476E+005    5.40619E+005    5.40619E+005    1.76488E+004   -3.90044E+004    5.79624E+005   -1.73088E+005    5.46896E+005    1.41419E+005    1.84450E+004    3.59400E+005    1.64772E+004    2.67809E+005    1.74267E+004
             757    6.28646E+005    6.08123E+005    6.08123E+005    5.90095E+004   -7.75931E+004    6.85716E+005   -1.96513E+005    5.93860E+005    5.89363E+004    5.95803E+004    4.71023E+005   -1.54512E+004    2.73309E+005   -1.66935E+004
             758    5.58794E+005    5.17178E+005    5.17178E+005    2.63922E+004   -9.09776E+004    6.08156E+005   -1.50864E+005    5.29985E+005    3.15144E+004    2.71612E+004    3.93917E+005   -1.43592E+004    2.43443E+005   -1.73717E+004
             759    4.87424E+005    4.19250E+005    4.19250E+005    5.64415E+003   -1.18128E+005    5.37378E+005   -1.02255E+005    4.49984E+005   -8.58682E+003    6.36629E+003    3.08987E+005   -1.31317E+004    2.16063E+005   -1.51340E+004
             760    4.38038E+005    3.64079E+005    3.64079E+005    2.61916E+002   -1.22140E+005    4.86219E+005   -8.07337E+004    3.96740E+005    1.63300E+003    9.97145E+002    2.39571E+005   -9.67840E+003    2.11567E+005   -1.35119E+004
             761    3.88787E+005    2.93549E+005    2.93549E+005   -5.30009E+003   -1.46001E+005    4.39549E+005   -4.74159E+004    3.23579E+005   -1.85228E+004   -4.75903E+003    1.65530E+005   -7.33510E+003    1.99279E+005   -1.04206E+004
             762    3.59724E+005    2.56563E+005    2.56563E+005   -2.82294E+003   -1.54093E+005    4.10656E+005   -3.32158E+004    2.73032E+005    2.06820E+003   -2.46268E+003    1.00042E+005   -4.19602E+003    1.99162E+005   -9.80626E+003
             763    3.41811E+005    2.07522E+005    2.07522E+005   -2.26726E+003   -1.86900E+005    3.94421E+005   -6.11825E+003    1.63874E+005   -1.11881E+004   -2.11990E+003    3.16628E+004   -1.51292E+003    1.95852E+005   -8.62459E+003
             764    6.64730E+005    6.47723E+005    6.47723E+005    6.80100E+004   -7.78114E+004    7.25535E+005   -2.12641E+005    6.27211E+005    6.18155E+004    6.82228E+004    5.07884E+005   -8.08726E+003    2.85897E+005   -9.97601E+003
             765    5.77008E+005    5.37727E+005    5.37727E+005    3.19256E+004   -9.07553E+004    6.28482E+005   -1.59632E+005    5.46496E+005    2.95579E+004    3.20539E+004    4.17285E+005   -7.40286E+003    2.47127E+005   -7.90638E+003
             766    5.01558E+005    4.32957E+005    4.32957E+005    5.04082E+003   -1.18975E+005    5.51932E+005   -1.06341E+005    4.65148E+005   -1.00882E+004    5.19047E+003    3.23921E+005   -5.62906E+003    2.19565E+005   -6.99858E+003
             767    4.46395E+005    3.73518E+005    3.73518E+005    1.57132E+003   -1.21503E+005    4.95021E+005   -8.45287E+004    4.05510E+005    6.20201E+002    1.66253E+003    2.51303E+005   -3.96631E+003    2.13363E+005   -4.77454E+003
             768    3.93524E+005    2.97266E+005    2.97266E+005   -7.73957E+003   -1.46939E+005    4.44205E+005   -4.75290E+004    3.30913E+005   -2.00957E+004   -7.67105E+003    1.70354E+005   -2.45324E+003    2.00615E+005   -3.85687E+003
             769    3.62459E+005    2.60351E+005    2.60351E+005   -9.49690E+002   -1.53439E+005    4.13790E+005   -3.53209E+004    2.75008E+005    2.51599E+003   -9.19727E+002    1.04366E+005   -1.35209E+003    2.00512E+005   -2.59985E+003
             770    3.43680E+005    2.07968E+005    2.07968E+005   -4.62498E+003   -1.88533E+005    3.96502E+005   -4.93671E+003    1.71797E+005   -1.22981E+004   -4.61433E+003    3.17225E+004   -4.06264E+002    1.97011E+005   -2.36862E+003
             771    6.76978E+005    6.61955E+005    6.61955E+005    7.23355E+004   -7.73333E+004    7.39288E+005   -2.18986E+005    6.38141E+005    6.37335E+004    7.23390E+004    5.20885E+005    4.65235E+002    2.90497E+005    1.43750E+003
             772    5.83391E+005    5.44970E+005    5.44970E+005    3.33368E+004   -9.03444E+004    6.35314E+005   -1.62654E+005    5.52726E+005    2.95868E+004    3.33470E+004    4.25028E+005    1.45689E+003    2.48613E+005    2.01518E+003
             773    5.05725E+005    4.38420E+005    4.38420E+005    6.86005E+003   -1.18057E+005    5.56477E+005   -1.09074E+005    4.69092E+005   -9.13957E+003    6.89973E+003    3.29463E+005    2.05436E+003    2.20777E+005    3.62722E+003
             774    4.48409E+005    3.75521E+005    3.75521E+005    1.34510E+003   -1.21511E+005    4.97031E+005   -8.51183E+004    4.07890E+005    3.76955E+002    1.40294E+003    2.53575E+005    2.71631E+003    2.13817E+005    3.87835E+003
             775    3.94438E+005    2.99001E+005    2.99001E+005   -6.51828E+003   -1.46291E+005    4.45292E+005   -4.87304E+004    3.31423E+005   -1.97117E+004   -6.43324E+003    1.72336E+005    2.35983E+003    2.00826E+005    4.58811E+003
             776    3.62599E+005    2.60190E+005    2.60190E+005   -1.97875E+003   -1.53611E+005    4.13801E+005   -3.48668E+004    2.76436E+005    2.16277E+003   -1.91071E+003    1.04348E+005    1.77224E+003    2.00446E+005    4.38771E+003
             777    3.43503E+005    2.08252E+005    2.08252E+005   -3.39977E+003   -1.88085E+005    3.96337E+005   -5.58930E+003    1.68254E+005   -1.19802E+004   -3.36924E+003    3.21174E+004    5.68618E+002    1.96885E+005    4.57654E+003
             778    6.64623E+005    6.48928E+005    6.48928E+005    6.92845E+004   -7.64794E+004    7.25407E+005   -2.13911E+005    6.27128E+005    6.45167E+004    6.95770E+004    5.07639E+005    9.01655E+003    2.86903E+005    1.15371E+004
             779    5.76352E+005    5.37689E+005    5.37689E+005    3.16039E+004   -8.96392E+004    6.27328E+005   -1.59885E+005    5.46543E+005    3.16766E+004    3.20010E+004    4.15976E+005    9.88863E+003    2.47552E+005    1.26474E+004
             780    4.99340E+005    4.31939E+005    4.31939E+005    6.36492E+003   -1.17754E+005    5.49693E+005   -1.06850E+005    4.62684E+005   -8.34232E+003    6.86509E+003    3.22027E+005    1.01827E+004    2.19237E+005    1.27035E+004
             781    4.43663E+005    3.71177E+005    3.71177E+005    1.25249E+003   -1.20712E+005    4.91888E+005   -8.39058E+004    4.03283E+005    1.65337E+003    1.86008E+003    2.48204E+005    8.82781E+003    2.12448E+005    1.24423E+004
             782    3.90715E+005    2.95422E+005    2.95422E+005   -6.76221E+003   -1.45794E+005    4.41216E+005   -4.76222E+004    3.27693E+005   -1.91030E+004   -6.16004E+003    1.68130E+005    7.31239E+003    1.99427E+005    1.13210E+004
             783    3.59792E+005    2.58028E+005    2.58028E+005   -1.74444E+003   -1.52641E+005    4.10669E+005   -3.45475E+004    2.73666E+005    2.77257E+003   -1.31010E+003    1.02180E+005    4.57081E+003    1.98940E+005    1.08249E+004
             784    3.41143E+005    2.06368E+005    2.06368E+005   -3.76155E+003   -1.87249E+005    3.93617E+005   -5.11928E+003    1.66809E+005   -1.19309E+004   -3.56946E+003    3.08582E+004    1.62409E+003    1.95366E+005    1.03925E+004
             785    6.29637E+005    6.10225E+005    6.10225E+005    5.77185E+004   -7.52889E+004    6.85514E+005   -1.97552E+005    5.96788E+005    6.40823E+004    5.85533E+004    4.70019E+005    1.60530E+004    2.75381E+005    1.91952E+004
             786    5.56559E+005    5.17992E+005    5.17992E+005    2.92149E+004   -8.77569E+004    6.05749E+005   -1.53150E+005    5.27830E+005    3.70625E+004    3.03049E+004    3.92083E+005    1.63138E+004    2.44432E+005    2.02903E+004
             787    4.83970E+005    4.16482E+005    4.16482E+005    5.26332E+003   -1.16848E+005    5.33330E+005   -1.01632E+005    4.47297E+005   -6.12772E+003    6.52546E+003    3.04500E+005    1.57762E+004    2.15726E+005    1.95627E+004
             788    4.33148E+005    3.61798E+005    3.61798E+005    2.80584E+003   -1.19294E+005    4.81092E+005   -8.17702E+004    3.91532E+005    5.60338E+003    4.12307E+003    2.35584E+005    1.36986E+004    2.10460E+005    1.76975E+004
             789    3.83911E+005    2.88802E+005    2.88802E+005   -6.66647E+003   -1.45135E+005    4.33936E+005   -4.56668E+004    3.20022E+005   -1.77569E+004   -5.40044E+003    1.60158E+005    1.09750E+004    1.97196E+005    1.59089E+004
             790    3.54813E+005    2.53852E+005    2.53852E+005   -9.82788E+002   -1.51391E+005    4.05243E+005   -3.38260E+004    2.67542E+005    4.19657E+003   -7.32331E+001    9.73545E+004    6.97435E+003    1.96633E+005    1.48112E+004
             791    3.37255E+005    2.03462E+005    2.03462E+005   -4.00478E+003   -1.85682E+005    3.89144E+005   -4.59168E+003    1.63757E+005   -1.17906E+004   -3.62246E+003    2.91881E+004    2.38820E+003    1.92975E+005    1.40835E+004
             792    5.82297E+005    5.57634E+005    5.57634E+005    4.21757E+004   -7.39885E+004    6.31623E+005   -1.75274E+005    5.55322E+005    6.30651E+004    4.32299E+004    4.19526E+005    2.13180E+004    2.59302E+005    2.20934E+004
             793    5.29813E+005    4.89726E+005    4.89726E+005    2.31799E+004   -8.62609E+004    5.75987E+005   -1.42215E+005    5.03431E+005    4.43249E+004    2.49490E+004    3.57372E+005    2.00285E+004    2.40312E+005    2.45666E+004
             794    4.62919E+005    3.96103E+005    3.96103E+005    5.59220E+003   -1.15253E+005    5.11357E+005   -9.54807E+004    4.25205E+005   -1.25500E+003    7.23238E+003    2.80465E+005    2.05088E+004    2.11790E+005    2.17598E+004
             795    4.19963E+005    3.48531E+005    3.48531E+005    1.45464E+003   -1.18303E+005    4.66834E+005   -7.72274E+004    3.78593E+005    1.00988E+004    3.20545E+003    2.18378E+005    1.73895E+004    2.07728E+005    1.95393E+004
             796    3.74678E+005    2.80857E+005    2.80857E+005   -5.29528E+003   -1.43237E+005    4.24094E+005   -4.41083E+004    3.09272E+005   -1.39654E+004   -3.58064E+003    1.49871E+005    1.41633E+004    1.94617E+005    1.73705E+004
             797    3.48355E+005    2.47557E+005    2.47557E+005   -1.67413E+003   -1.50488E+005    3.98046E+005   -3.17984E+004    2.60965E+005    5.40047E+003   -4.57067E+002    9.04517E+004    8.81093E+003    1.93741E+005    1.57579E+004
             798    3.32084E+005    2.00550E+005    2.00550E+005   -2.86954E+003   -1.82664E+005    3.83215E+005   -5.00549E+003    1.57426E+005   -1.04251E+004   -2.35690E+003    2.77985E+004    3.06386E+003    1.90065E+005    1.48243E+004
             799    5.33634E+005    5.02822E+005    5.02822E+005    2.31585E+004   -7.19840E+004    5.74806E+005   -1.51332E+005    5.14030E+005    6.41692E+004    2.44643E+004    3.65363E+005    2.24138E+004    2.43167E+005    2.31980E+004
             800    5.02649E+005    4.64453E+005    4.64453E+005    2.29741E+004   -8.25965E+004    5.47049E+005   -1.34944E+005    4.76738E+005    5.79401E+004    2.46781E+004    3.22212E+005    1.98345E+004    2.38182E+005    2.27127E+004
             801    4.43610E+005    3.76320E+005    3.76320E+005    3.19174E+003   -1.14172E+005    4.90491E+005   -8.84465E+004    4.06422E+005    5.08454E+003    4.38453E+003    2.55870E+005    2.10444E+004    2.09244E+005    1.86463E+004
             802    4.07830E+005    3.38662E+005    3.38662E+005    4.34361E+003   -1.15724E+005    4.54386E+005   -7.57605E+004    3.64771E+005    1.90333E+004    5.89343E+003    2.02355E+005    1.86543E+004    2.06698E+005    1.75218E+004
             803    3.66217E+005    2.72031E+005    2.72031E+005   -5.33984E+003   -1.43085E+005    4.15116E+005   -4.12019E+004    2.98988E+005   -1.07088E+004   -3.91773E+003    1.38232E+005    1.54863E+004    1.92819E+005    1.46105E+004
             804    3.42135E+005    2.43219E+005    2.43219E+005    7.99114E+002   -1.48141E+005    3.91360E+005   -3.19589E+004    2.52011E+005    9.19421E+003    1.90094E+003    8.47815E+004    9.84615E+003    1.91431E+005    1.30436E+004
             805    3.26999E+005    1.96138E+005    1.96138E+005   -3.69661E+003   -1.81228E+005    3.77367E+005   -3.73793E+003    1.52861E+005   -1.03569E+004   -3.25718E+003    2.48279E+004    3.47014E+003    1.87488E+005    1.15199E+004
             806    4.92303E+005    4.59204E+005    4.59204E+005    1.67148E+004   -7.10938E+004    5.30298E+005   -1.34942E+005    4.74202E+005    6.71077E+004    1.69113E+004    3.20806E+005    2.47928E+004    2.30850E+005    1.84855E+004
             807    4.86248E+005    4.47882E+005    4.47882E+005    1.26565E+004   -7.69296E+004    5.24811E+005   -1.27870E+005    4.67136E+005    7.65669E+004    1.34478E+004    2.93594E+005    1.98762E+004    2.37775E+005    1.69042E+004
             808    4.31587E+005    3.68304E+005    3.68304E+005    3.62906E+002   -1.06754E+005    4.75058E+005   -8.73043E+004    4.00005E+005    2.31006E+004    1.03850E+003    2.37774E+005    2.14989E+004    2.10427E+005    1.56463E+004
             809    3.99625E+005    3.31072E+005    3.31072E+005    6.57749E+001   -1.12867E+005    4.43938E+005   -7.27569E+004    3.61021E+005    3.08685E+004    9.28018E+002    1.86474E+005    1.90988E+004    2.06804E+005    1.33434E+004
             810    3.61211E+005    2.71217E+005    2.71217E+005   -3.31880E+003   -1.37982E+005    4.09198E+005   -4.33054E+004    2.96273E+005    1.96648E+003   -2.55565E+003    1.30505E+005    1.57614E+004    1.93474E+005    1.01355E+004
             811    3.38132E+005    2.38372E+005    2.38372E+005   -3.52531E+002   -1.48556E+005    3.86927E+005   -2.98211E+004    2.47459E+005    1.18845E+004    1.47920E+002    7.74309E+004    1.02944E+004    1.90329E+005    6.75062E+003
             812    3.23835E+005    1.96626E+005    1.96626E+005   -1.18188E+003   -1.77092E+005    3.73719E+005   -6.11743E+003    1.50948E+005   -5.82170E+003   -1.01813E+003    2.51921E+004    3.58280E+003    1.86132E+005    4.45325E+003
             813    4.99415E+005    4.69526E+005    4.69526E+005    8.25385E+003   -6.08361E+004    5.30362E+005   -1.38981E+005    4.88489E+005    1.00638E+005    7.07623E+003    3.09230E+005    1.71704E+004    2.42633E+005    6.76672E+003
             814    4.71353E+005    4.30647E+005    4.30647E+005    5.12421E+003   -7.60033E+004    5.06651E+005   -1.19923E+005    4.55246E+005    8.07799E+004    4.13375E+003    2.74855E+005    2.59226E+004    2.31803E+005    1.34793E+004
             815    4.31174E+005    3.73099E+005    3.73099E+005   -5.68745E+003   -9.61192E+004    4.69218E+005   -9.04307E+004    4.09013E+005    5.35243E+004   -6.37503E+003    2.24143E+005    2.39005E+004    2.16721E+005    1.11724E+004
             816    3.94323E+005    3.25857E+005    3.25857E+005   -4.24437E+003   -1.10792E+005    4.36649E+005   -7.02737E+004    3.59739E+005    4.02927E+004   -4.75579E+003    1.75284E+005    2.32503E+004    2.06003E+005    8.63940E+003
             817    3.60427E+005    2.74766E+005    2.74766E+005   -4.36792E+003   -1.32142E+005    4.06907E+005   -4.60855E+004    3.02791E+005    2.20331E+004   -4.88413E+003    1.21108E+005    1.79278E+004    1.96389E+005    3.18056E+003
             818    3.36683E+005    2.36674E+005    2.36674E+005    8.97666E+002   -1.48912E+005    3.85586E+005   -2.95533E+004    2.42721E+005    1.49762E+004    2.04209E+002    7.34797E+004    1.20189E+004    1.90079E+005   -3.00583E+003
             819    3.24049E+005    1.99326E+005    1.99326E+005   -1.18927E+003   -1.74524E+005    3.73850E+005   -7.87082E+003    1.62249E+005    2.19521E+003   -1.48224E+003    2.28995E+004    3.85128E+003    1.86467E+005   -6.72045E+003
             820    3.26698E+005    2.04656E+005    2.04656E+005    2.44965E+003   -1.72248E+005    3.76903E+005   -1.16193E+004    1.63786E+005    8.78773E+003    1.07352E+003    2.49966E+004    5.72801E+003    1.86988E+005   -2.07505E+004
             821    3.41791E+005    2.43871E+005    2.43871E+005    1.05498E+003   -1.46983E+005    3.90854E+005   -3.26478E+004    2.52939E+005    2.86397E+004   -2.14242E+003    7.14463E+004    1.50687E+004    1.92634E+005   -1.54766E+004
             822    3.66155E+005    2.87446E+005    2.87446E+005   -6.08573E+002   -1.24607E+005    4.12053E+005   -5.40767E+004    3.13409E+005    4.69467E+004   -4.55029E+003    1.19834E+005    2.24154E+004    2.00541E+005   -8.04748E+003
             823    3.99606E+005    3.35017E+005    3.35017E+005   -6.67844E+003   -1.04380E+005    4.39397E+005   -7.46529E+004    3.71280E+005    6.86881E+004   -9.94445E+003    1.65215E+005    2.57792E+004    2.11816E+005    9.22695E+002
             824    4.34742E+005    3.85623E+005    3.85623E+005   -5.33850E+003   -8.25527E+004    4.68176E+005   -9.92439E+004    4.18896E+005    8.83938E+004   -8.80528E+003    2.18143E+005    2.77509E+004    2.21868E+005    6.31919E+003
             825    4.76006E+005    4.41424E+005    4.41424E+005    3.51670E+003   -6.52090E+004    5.06633E+005   -1.26577E+005    4.64647E+005    1.13486E+005    8.41521E+002    2.65404E+005    2.59335E+004    2.39063E+005    8.77013E+003
             826    5.08787E+005    4.90805E+005    4.90805E+005    1.30191E+004   -4.41538E+004    5.34959E+005   -1.53223E+005    5.01484E+005    1.31297E+005    1.29713E+004    3.15403E+005    2.39380E+004    2.49370E+005    1.74106E+004
             827    5.75994E+005    4.55509E+004   -5.36260E+005    3.37352E+004   -5.36260E+005    5.81811E+005    1.52325E+005   -5.75721E+005   -1.34718E+005    3.40472E+004   -3.56303E+005    8.08785E+002    2.68809E+005    2.21525E+003
             828    5.61025E+005    4.47579E+004   -5.45426E+005   -1.90096E+004   -5.45426E+005    5.90184E+005    1.73226E+005   -5.52784E+005   -1.42640E+005   -1.43757E+004   -3.62663E+005    1.99431E+004    2.71092E+005    6.42068E+002
             829    6.01403E+005    3.39739E+004   -6.03566E+005   -4.63781E+004   -6.03566E+005    6.37540E+005    2.05323E+005   -5.89145E+005   -1.59654E+005   -4.57116E+004   -4.10605E+005    2.04350E+004    2.91821E+005   -1.15710E+004
             830    6.43896E+005    2.27137E+004   -6.69444E+005   -8.82258E+004   -6.69444E+005    6.92157E+005    2.44985E+005   -6.21846E+005   -1.80437E+005   -8.87229E+004   -4.65796E+005    1.91365E+004    3.14489E+005   -1.61272E+004
             831    5.82338E+005    7.75086E+004   -5.54045E+005   -3.83395E+004   -5.54045E+005    6.31554E+005    1.71625E+005   -5.55517E+005   -5.65446E+004   -3.91783E+004   -4.19153E+005    2.10806E+004    2.57155E+005   -2.09239E+004
             832    5.28551E+005    9.02897E+004   -4.85413E+005   -2.20883E+004   -4.85413E+005    5.75703E+005    1.39071E+005   -5.00602E+005   -3.62159E+004   -2.35102E+004   -3.57486E+005    1.98719E+004    2.37483E+005   -2.25777E+004
             833    4.64850E+005    1.18804E+005   -3.94177E+005   -8.54930E+002   -3.94177E+005    5.12982E+005    9.20760E+004   -4.28094E+005    7.35037E+003   -2.43602E+003   -2.81142E+005    1.82449E+004    2.10738E+005   -2.12551E+004
             834    4.23135E+005    1.20580E+005   -3.50456E+005   -2.52327E+003   -3.50456E+005    4.71035E+005    7.74663E+004   -3.79600E+005   -6.29102E+003   -3.97355E+003   -2.22134E+005    1.47851E+004    2.08422E+005   -1.80153E+004
             835    3.78906E+005    1.46389E+005   -2.82296E+005    7.81923E+003   -2.82296E+005    4.28685E+005    4.26958E+004   -3.13786E+005    1.72404E+004    6.47033E+003   -1.51798E+005    1.12518E+004    1.96239E+005   -1.62358E+004
             836    3.53317E+005    1.52587E+005   -2.51445E+005   -4.26532E+002   -2.51445E+005    4.04032E+005    3.30947E+004   -2.61493E+005   -4.12453E+003   -1.27013E+003   -9.38896E+004    6.83521E+003    1.96460E+005   -1.39072E+004
             837    3.37476E+005    1.85901E+005   -2.03453E+005    5.11911E+003   -2.03453E+005    3.89354E+005    4.14438E+003   -1.67944E+005    1.12557E+004    4.76397E+003   -2.84528E+004    2.37789E+003    1.93189E+005   -1.34960E+004
             838    5.27763E+005    7.62703E+004   -4.94250E+005   -2.34786E+004   -4.94250E+005    5.70520E+005    1.47153E+005   -5.05899E+005   -5.52479E+004   -2.40876E+004   -3.62122E+005    2.44139E+004    2.38555E+005   -2.09371E+004
             839    5.01113E+005    8.90045E+004   -4.55783E+005   -1.45143E+004   -4.55783E+005    5.44788E+005    1.27098E+005   -4.76156E+005   -4.49323E+004   -1.64806E+004   -3.19880E+005    1.99284E+004    2.33727E+005   -2.45573E+004
             840    4.40754E+005    1.16634E+005   -3.72354E+005   -5.66354E+003   -3.72354E+005    4.88988E+005    8.71278E+004   -3.99826E+005    6.03352E+002   -7.25451E+003   -2.54732E+005    2.13942E+004    2.06859E+005   -2.05528E+004
             841    4.07863E+005    1.21634E+005   -3.33511E+005   -1.13256E+003   -3.33511E+005    4.55145E+005    7.10034E+004   -3.62664E+005   -9.81875E+003   -2.91864E+003   -2.00273E+005    1.75324E+004    2.05520E+005   -1.89674E+004
             842    3.68451E+005    1.43879E+005   -2.74369E+005    2.26210E+003   -2.74369E+005    4.18248E+005    4.27428E+004   -2.97245E+005    1.24707E+004    7.97727E+002   -1.41497E+005    1.42894E+004    1.93568E+005   -1.51874E+004
             843    3.46383E+005    1.52384E+005   -2.43650E+005    2.83155E+003   -2.43650E+005    3.96034E+005    2.94782E+004   -2.57074E+005   -4.37311E+003    1.65482E+003   -8.57163E+004    8.78909E+003    1.93142E+005   -1.52143E+004
             844    3.31387E+005    1.81841E+005   -2.00631E+005    7.80422E+002   -2.00631E+005    3.82472E+005    6.00307E+003   -1.49599E+005    8.96880E+003    2.89760E+002   -2.72678E+004    3.15278E+003    1.89862E+005   -1.37986E+004
             845    4.90351E+005    7.31876E+004   -4.48792E+005    2.18931E+003   -4.48792E+005    5.21980E+005    1.24472E+005   -4.78582E+005   -5.87347E+004    1.33443E+003   -3.16015E+005    2.35884E+004    2.25147E+005   -2.19527E+004
             846    4.76162E+005    8.29021E+004   -4.35659E+005   -1.81043E+004   -4.35659E+005    5.18561E+005    1.23620E+005   -4.51103E+005   -6.53043E+004   -1.96334E+004   -2.85924E+005    1.98157E+004    2.33429E+005   -2.04097E+004
             847    4.24223E+005    1.13820E+005   -3.55412E+005    9.86240E+002   -3.55412E+005    4.69232E+005    8.02020E+004   -3.88252E+005   -1.08573E+004    1.65350E+002   -2.29914E+005    1.96163E+004    2.06220E+005   -1.53650E+004
             848    3.98146E+005    1.15276E+005   -3.29359E+005   -5.82236E+003   -3.29359E+005    4.44635E+005    7.33017E+004   -3.53002E+005   -2.51459E+004   -6.67449E+003   -1.88085E+005    1.76649E+004    2.05906E+005   -1.28077E+004
             849    3.61914E+005    1.42752E+005   -2.67484E+005    6.63895E+003   -2.67484E+005    4.10236E+005    3.93644E+004   -2.95492E+005    5.87928E+003    5.45310E+003   -1.29426E+005    1.48585E+004    1.92845E+005   -1.29380E+004
             850    3.39633E+005    1.48854E+005   -2.40225E+005   -3.09393E+003   -2.40225E+005    3.89078E+005    3.14883E+004   -2.43456E+005   -1.03790E+004   -3.87184E+003   -8.02142E+004    9.62916E+003    1.90975E+005   -9.72698E+003
             851    3.26242E+005    1.80047E+005   -1.96363E+005    4.90060E+003   -1.96363E+005    3.76410E+005    3.80516E+003   -1.60838E+005    8.70735E+003    4.56130E+003   -2.46841E+004    3.47298E+003    1.87216E+005   -9.20129E+003
             852    4.39048E+005    7.87710E+004   -3.98864E+005   -1.28683E+004   -3.98864E+005    4.77635E+005    1.10987E+005   -4.16707E+005   -5.13477E+004   -1.13666E+004   -2.70247E+005    2.63064E+004    2.09752E+005   -1.20031E+004
             853    4.71521E+005    7.63114E+004   -4.30214E+005   -4.01764E+003   -4.30214E+005    5.06526E+005    1.19307E+005   -4.55744E+005   -8.54304E+004   -3.01385E+003   -2.69476E+005    1.89908E+004    2.34697E+005   -7.48216E+003
             854    4.25975E+005    1.03108E+005   -3.64299E+005    2.07973E+003   -3.64299E+005    4.67407E+005    8.63703E+004   -3.97657E+005   -3.63439E+004    3.13523E+003   -2.25902E+005    2.28749E+004    2.11884E+005   -8.66978E+003
             855    3.95361E+005    1.12536E+005   -3.25136E+005    6.13974E+003   -3.25136E+005    4.37672E+005    6.88203E+004   -3.60986E+005   -3.96528E+004    5.90354E+003   -1.72712E+005    2.14230E+004    2.07158E+005   -1.07704E+004
             856    3.57550E+005    1.36546E+005   -2.68955E+005    1.01687E+003   -2.68955E+005    4.05501E+005    4.37972E+004   -2.90700E+005   -1.15384E+004    1.21938E+003   -1.21073E+005    1.73624E+004    1.94355E+005   -4.40193E+003
             857    3.37485E+005    1.48949E+005   -2.37141E+005    1.69686E+003   -2.37141E+005    3.86090E+005    2.88317E+004   -2.48053E+005   -1.57037E+004    1.84055E+003   -7.26318E+004    1.09572E+004    1.90601E+005   -9.34913E+002
             858    3.24107E+005    1.76597E+005   -1.97504E+005   -1.41802E+003   -1.97504E+005    3.74101E+005    7.44197E+003   -1.41690E+005    2.66339E+003   -1.28978E+003   -2.36995E+004    3.96857E+003    1.86519E+005    2.80630E+003
             859    3.26579E+005    1.72127E+005   -2.04459E+005    8.93185E+002   -2.04459E+005    3.76586E+005    1.04795E+004   -1.75856E+005   -9.07667E+003    2.13586E+003   -2.44978E+004    5.50785E+003    1.87047E+005    1.88541E+004
             860    3.39657E+005    1.47538E+005   -2.41704E+005   -5.43895E+003   -2.41704E+005    3.89243E+005    3.32018E+004   -2.41725E+005   -2.61600E+004   -2.38870E+003   -7.10567E+004    1.51583E+004    1.91780E+005    1.51691E+004
             861    3.66271E+005    1.27812E+005   -2.84388E+005    3.70348E+003   -2.84388E+005    4.12200E+005    5.09575E+004   -3.13440E+005   -4.46379E+004    6.69317E+003   -1.14928E+005    2.21324E+004    2.01185E+005    5.00188E+003
             862    3.94740E+005    1.05970E+005   -3.30472E+005    1.58206E+003   -3.30472E+005    4.36442E+005    7.43066E+004   -3.61679E+005   -6.35641E+004    4.70210E+003   -1.64058E+005    2.62170E+004    2.09869E+005   -9.22369E+002
             863    4.40989E+005    8.77486E+004   -3.86379E+005    1.15359E+004   -3.86379E+005    4.74128E+005    9.56983E+004   -4.25793E+005   -8.44725E+004    1.23431E+004   -2.14965E+005    2.78646E+004    2.25505E+005   -1.35211E+004
             864    4.81792E+005    6.19751E+004   -4.50700E+005   -7.28928E+003   -4.50700E+005    5.12675E+005    1.32005E+005   -4.70394E+005   -1.07414E+005   -5.35962E+003   -2.83241E+005    2.39582E+004    2.38637E+005   -9.73435E+003
             865    5.35015E+005    4.97650E+004   -5.09334E+005   -2.19437E+003   -5.09334E+005    5.59099E+005    1.53921E+005   -5.29294E+005   -1.18910E+005   -2.38160E+003   -3.40472E+005    4.74683E+003    2.56533E+005   -9.28771E+003
             866    3.24139E+005    1.74178E+005   -1.99758E+005    1.17314E+003   -1.99758E+005    3.73936E+005    8.13565E+003   -1.63743E+005   -2.36531E+003    1.48108E+003   -2.35227E+004   -4.01212E+003    1.86491E+005   -6.76494E+003
             867    3.24089E+005    1.76453E+005   -1.97526E+005    1.22891E+003   -1.97526E+005    3.73979E+005    6.61459E+003   -1.54678E+005    5.63256E+003    1.06158E+003   -2.65379E+004   -3.78739E+003    1.86212E+005    4.35124E+003
             868    3.27295E+005    1.80289E+005   -1.97372E+005    3.76847E+003   -1.97372E+005    3.77661E+005    4.43832E+003   -1.58058E+005    1.02071E+004    3.29861E+003   -2.68206E+004   -3.72652E+003    1.87542E+005    1.15759E+004
             869    3.32483E+005    1.81617E+005   -2.01999E+005    3.00087E+003   -2.01999E+005    3.83616E+005    5.79393E+003   -1.63439E+005    1.04128E+004    2.45374E+003   -3.02484E+004   -3.31386E+003    1.90141E+005    1.48042E+004
             870    3.37593E+005    1.84736E+005   -2.04742E+005    4.10396E+003   -2.04742E+005    3.89478E+005    5.30052E+003   -1.68826E+005    1.18038E+004    3.69605E+003   -3.14014E+004   -2.56480E+003    1.93017E+005    1.41420E+004
             871    3.41446E+005    1.86609E+005   -2.07318E+005    3.83929E+003   -2.07318E+005    3.93927E+005    5.62300E+003   -1.70458E+005    1.19792E+004    3.63966E+003   -3.24879E+004   -1.70678E+003    1.95430E+005    1.03652E+004
             872    3.43647E+005    1.87744E+005   -2.08740E+005    3.41190E+003   -2.08740E+005    3.96484E+005    5.86149E+003   -1.70050E+005    1.19836E+004    3.38044E+003   -3.29486E+004   -5.85585E+002    1.96912E+005    4.59895E+003
             873    3.43749E+005    1.88485E+005   -2.08095E+005    4.57207E+003   -2.08095E+005    3.96580E+005    5.01239E+003   -1.71956E+005    1.22568E+004    4.56123E+003   -3.18553E+004    4.12328E+002    1.97045E+005   -2.37866E+003
             874    3.41711E+005    1.87041E+005   -2.07277E+005    2.19473E+003   -2.07277E+005    3.94317E+005    6.01371E+003   -1.62684E+005    1.11600E+004    2.04699E+003   -3.12481E+004    1.50853E+003    1.95823E+005   -8.65566E+003
             875    3.37123E+005    1.48389E+005   -2.37599E+005   -8.80688E+002   -2.37599E+005    3.85988E+005    3.00303E+004   -2.44262E+005   -1.53396E+004   -1.71722E+002   -7.45795E+004   -1.22157E+004    1.90210E+005   -2.96320E+003
             876    3.38728E+005    1.47816E+005   -2.39626E+005    4.93861E+002   -2.39626E+005    3.87442E+005    3.04385E+004   -2.49713E+005   -1.19766E+004   -1.31742E+001   -7.93256E+004   -1.05707E+004    1.90419E+005    6.80020E+003
             877    3.43180E+005    1.47207E+005   -2.45114E+005   -6.23867E+002   -2.45114E+005    3.92321E+005    3.28438E+004   -2.55220E+005   -9.01945E+003   -1.75636E+003   -8.77556E+004   -1.01615E+004    1.91590E+005    1.31469E+004
             878    3.49523E+005    1.49535E+005   -2.49598E+005    1.79103E+003   -2.49598E+005    3.99133E+005    3.27575E+004   -2.64175E+005   -5.14179E+003    5.39192E+002   -9.36699E+004   -9.09404E+003    1.93901E+005    1.58427E+004
             879    3.55961E+005    1.50558E+005   -2.55767E+005    1.08943E+003   -2.55767E+005    4.06325E+005    3.47067E+004   -2.70494E+005   -3.99141E+003    1.69892E+002   -1.00299E+005   -7.13869E+003    1.96817E+005    1.47389E+004
             880    3.60540E+005    1.52025E+005   -2.59343E+005    1.76552E+003   -2.59343E+005    4.11367E+005    3.51842E+004   -2.75598E+005   -2.67569E+003    1.33290E+003   -1.04210E+005   -4.62046E+003    1.99038E+005    1.07147E+004
             881    3.62956E+005    1.53319E+005   -2.60816E+005    1.98289E+003   -2.60816E+005    4.14136E+005    3.51714E+004   -2.77344E+005   -2.14124E+003    1.91824E+003   -1.05291E+005   -1.74531E+003    2.00498E+005    4.24580E+003
             882    3.62357E+005    1.53465E+005   -2.60228E+005    8.98997E+002   -2.60228E+005    4.13693E+005    3.52878E+004   -2.74757E+005   -2.45402E+003    8.66046E+002   -1.04275E+005    1.40740E+003    2.00464E+005   -2.73990E+003
             883    3.59398E+005    1.54312E+005   -2.56042E+005    2.74282E+003   -2.56042E+005    4.10354E+005    3.29960E+004   -2.72150E+005   -2.20382E+003    2.37398E+003   -9.91582E+004    4.21914E+003    1.99123E+005   -9.96525E+003
             884    3.61410E+005    1.31462E+005   -2.76284E+005    4.56000E+003   -2.76284E+005    4.07746E+005    4.67539E+004   -3.04872E+005   -2.26079E+004    5.07977E+003   -1.22734E+005   -1.82031E+004    1.96659E+005    3.37789E+003
             885    3.63205E+005    1.37026E+005   -2.74082E+005    3.31018E+003   -2.74082E+005    4.11108E+005    4.45818E+004   -2.99805E+005   -2.65355E+003    2.53206E+003   -1.33624E+005   -1.60530E+004    1.94047E+005    1.03679E+004
             886    3.68857E+005    1.41994E+005   -2.75711E+005    5.23169E+003   -2.75711E+005    4.17705E+005    4.28285E+004   -3.03392E+005    1.02561E+004    3.79111E+003   -1.42533E+005   -1.57660E+004    1.93433E+005    1.48527E+004
             887    3.77467E+005    1.42344E+005   -2.84527E+005    5.18329E+003   -2.84527E+005    4.26870E+005    4.56667E+004   -3.13557E+005    1.38925E+004    3.47111E+003   -1.54364E+005   -1.43109E+004    1.95180E+005    1.74748E+004
             888    3.86188E+005    1.44488E+005   -2.91726E+005    6.56353E+003   -2.91726E+005    4.36214E+005    4.68915E+004   -3.23368E+005    1.78041E+004    5.32156E+003   -1.63800E+005   -1.09625E+004    1.97620E+005    1.58194E+004
             889    3.92135E+005    1.45534E+005   -2.97124E+005    6.72872E+003   -2.97124E+005    4.42658E+005    4.82873E+004   -3.29645E+005    1.92954E+004    6.15762E+003   -1.70315E+005   -7.15465E+003    1.99680E+005    1.10490E+004
             890    3.94839E+005    1.46211E+005   -2.99501E+005    6.44142E+003   -2.99501E+005    4.45712E+005    4.89493E+004   -3.31910E+005    1.97814E+004    6.36776E+003   -1.72997E+005   -2.18095E+003    2.00890E+005    4.28796E+003
             891    3.93133E+005    1.47095E+005   -2.96746E+005    7.67949E+003   -2.96746E+005    4.43841E+005    4.73237E+004   -3.30216E+005    2.01361E+004    7.60190E+003   -1.69709E+005    2.62715E+003    2.00552E+005   -4.08858E+003
             892    3.87664E+005    1.46367E+005   -2.92078E+005    5.29754E+003   -2.92078E+005    4.38445E+005    4.68046E+004   -3.21806E+005    1.86732E+004    4.73742E+003   -1.63824E+005    7.42420E+003    1.99019E+005   -1.05837E+004
             893    3.96121E+005    1.10003E+005   -3.28273E+005    4.20964E+003   -3.28273E+005    4.38276E+005    7.13536E+004   -3.62236E+005   -4.09238E+004    4.70604E+003   -1.77843E+005   -2.33984E+004    2.06522E+005    8.91559E+003
             894    4.02183E+005    1.11929E+005   -3.34418E+005   -1.95882E+002   -3.34418E+005    4.46347E+005    7.42281E+004   -3.64453E+005   -3.11315E+004   -1.07519E+003   -1.90478E+005   -1.92974E+004    2.07357E+005    1.36521E+004
             895    4.11472E+005    1.14754E+005   -3.43231E+005   -4.71116E+003   -3.43231E+005    4.57985E+005    7.77293E+004   -3.69325E+005   -1.91625E+004   -6.27592E+003   -2.07750E+005   -1.88163E+004    2.07470E+005    1.78344E+004
             896    4.23610E+005    1.17447E+005   -3.53022E+005   -1.85524E+003   -3.53022E+005    4.70469E+005    7.91434E+004   -3.82991E+005   -1.02568E+004   -3.59149E+003   -2.23582E+005   -1.74515E+004    2.08486E+005    1.96524E+004
             897    4.35980E+005    1.18748E+005   -3.65206E+005   -3.14190E+003   -3.65206E+005    4.83953E+005    8.32000E+004   -3.94832E+005   -5.75242E+003   -4.40739E+003   -2.39440E+005   -1.35226E+004    2.11101E+005    1.74486E+004
             898    4.44976E+005    1.20379E+005   -3.72840E+005   -1.50952E+003   -3.72840E+005    4.93219E+005    8.46569E+004   -4.04787E+005   -1.86136E+003   -2.07538E+003   -2.50034E+005   -8.57423E+003    2.12770E+005    1.20288E+004
             899    4.48452E+005    1.21477E+005   -3.75603E+005   -1.39169E+003   -3.75603E+005    4.97080E+005    8.51726E+004   -4.07929E+005   -4.74909E+002   -1.43845E+003   -2.53604E+005   -2.43335E+003    2.13872E+005    3.48915E+003
             900    4.45260E+005    1.21656E+005   -3.72232E+005   -1.54462E+003   -3.72232E+005    4.93888E+005    8.40403E+004   -4.04164E+005   -6.44255E+002   -1.64887E+003   -2.49828E+005    4.13677E+003    2.13139E+005   -5.09519E+003
             901    4.36666E+005    1.22409E+005   -3.62448E+005   -1.76654E+002   -3.62448E+005    4.84858E+005    8.00719E+004   -3.95084E+005   -1.72448E+003   -9.14359E+002   -2.37577E+005    9.69360E+003    2.11370E+005   -1.34891E+004
             902    4.33218E+005    9.54122E+004   -3.75772E+005    5.30880E+003   -3.75772E+005    4.71184E+005    9.16837E+004   -4.11336E+005   -5.42297E+004    6.01263E+003   -2.26834E+005   -2.39844E+004    2.17372E+005    1.12768E+004
             903    4.35274E+005    1.05879E+005   -3.72948E+005   -1.21937E+003   -3.72948E+005    4.78826E+005    8.94295E+004   -4.04003E+005   -2.39323E+004   -1.94173E+003   -2.42414E+005   -2.15369E+004    2.11564E+005    1.60309E+004
             904    4.48091E+005    1.13491E+005   -3.81637E+005   -3.98810E+003   -3.81637E+005    4.95128E+005    9.07114E+004   -4.11248E+005   -5.38092E+003   -5.20798E+003   -2.61545E+005   -2.10601E+004    2.10324E+005    1.89935E+004
             905    4.66969E+005    1.14850E+005   -4.00734E+005   -6.23120E+003   -4.00734E+005    5.15584E+005    9.73715E+004   -4.29469E+005    1.26862E+003   -7.85367E+003   -2.85529E+005   -2.03112E+004    2.12662E+005    2.18119E+004
             906    4.86347E+005    1.16830E+005   -4.19034E+005   -5.60272E+003   -4.19034E+005    5.35864E+005    1.02602E+005   -4.49671E+005    6.43987E+003   -6.81198E+003   -3.07434E+005   -1.54090E+004    2.16162E+005    1.92311E+004
             907    4.99750E+005    1.18024E+005   -4.32180E+005   -6.39006E+003   -4.32180E+005    5.50204E+005    1.06849E+005   -4.62943E+005    8.81537E+003   -6.85422E+003   -3.22508E+005   -9.75993E+003    2.19231E+005    1.22388E+004
             908    5.04518E+005    1.18424E+005   -4.36870E+005   -6.66221E+003   -4.36870E+005    5.55294E+005    1.08370E+005   -4.67682E+005    9.62661E+003   -6.69549E+003   -3.28040E+005   -1.74943E+003    2.20395E+005    3.35920E+003
             909    4.99606E+005    1.19449E+005   -4.30454E+005   -4.47078E+003   -4.30454E+005    5.49903E+005    1.05159E+005   -4.63096E+005    1.06193E+004   -4.62514E+003   -3.21470E+005    5.83233E+003    2.19012E+005   -7.10956E+003
             910    4.85218E+005    1.18594E+005   -4.16485E+005   -5.05439E+003   -4.16485E+005    5.35079E+005    1.00982E+005   -4.47667E+005    9.16509E+003   -5.76775E+003   -3.06342E+005    1.30985E+004    2.15399E+005   -1.50007E+004
             911    4.72963E+005    7.55266E+004   -4.32831E+005   -5.81229E+003   -4.32831E+005    5.08358E+005    1.21039E+005   -4.56828E+005   -8.13186E+004   -4.89454E+003   -2.76904E+005   -2.58118E+004    2.32447E+005    1.36585E+004
             912    4.89137E+005    7.62153E+004   -4.51615E+005   -1.36250E+004   -4.51615E+005    5.27830E+005    1.29675E+005   -4.70034E+005   -7.71314E+004   -1.44767E+004   -2.97416E+005   -1.98438E+004    2.38693E+005    1.73065E+004
             913    5.06521E+005    8.18701E+004   -4.69306E+005   -2.42583E+004   -4.69306E+005    5.51177E+005    1.37232E+005   -4.80541E+005   -5.87392E+004   -2.59910E+004   -3.26964E+005   -1.97762E+004    2.39444E+005    2.30083E+004
             914    5.32793E+005    8.59752E+004   -4.93231E+005   -2.40216E+004   -4.93231E+005    5.79206E+005    1.43759E+005   -5.06291E+005   -4.46080E+004   -2.57828E+004   -3.60886E+005   -1.98774E+004    2.41197E+005    2.45906E+004
             915    5.57480E+005    8.77318E+004   -5.19041E+005   -2.94984E+004   -5.19041E+005    6.06773E+005    1.53603E+005   -5.28670E+005   -3.69805E+004   -3.05696E+004   -3.93258E+005   -1.59962E+004    2.44640E+005    2.00974E+004
             916    5.75029E+005    9.00265E+004   -5.35878E+005   -3.09853E+004   -5.35878E+005    6.25904E+005    1.58946E+005   -5.45265E+005   -3.08721E+004   -3.13751E+004   -4.14589E+005   -9.61338E+003    2.46893E+005    1.24737E+004
             917    5.80811E+005    9.08580E+004   -5.41614E+005   -3.21817E+004   -5.41614E+005    6.32473E+005    1.60979E+005   -5.50331E+005   -2.85634E+004   -3.21905E+004   -4.22184E+005   -1.37103E+003    2.47522E+005    1.87883E+003
             918    5.74360E+005    9.14727E+004   -5.34183E+005   -3.08145E+004   -5.34183E+005    6.25656E+005    1.57842E+005   -5.43901E+005   -2.82568E+004   -3.09492E+004   -4.14319E+005    7.38438E+003    2.45983E+005   -7.99159E+003
             919    5.56716E+005    9.14754E+004   -5.14484E+005   -2.56482E+004   -5.14484E+005    6.05959E+005    1.49552E+005   -5.27917E+005   -3.06735E+004   -2.64203E+004   -3.91563E+005    1.43540E+004    2.42635E+005   -1.73634E+004
             920    4.99988E+005    6.04648E+004   -4.70590E+005   -8.91425E+003   -4.70590E+005    5.31055E+005    1.39680E+005   -4.88983E+005   -1.01232E+005   -7.79440E+003   -3.10013E+005   -1.76150E+004    2.42943E+005    7.42498E+003
             921    4.94831E+005    7.06798E+004   -4.62381E+005   -1.76884E+004   -4.62381E+005    5.33061E+005    1.36463E+005   -4.76591E+005   -6.77584E+004   -1.79433E+004   -3.23688E+005   -2.46532E+004    2.31848E+005    1.86494E+004
             922    5.35948E+005    7.18062E+004   -5.05662E+005   -2.42136E+004   -5.05662E+005    5.77468E+005    1.52690E+005   -5.16061E+005   -6.44424E+004   -2.55312E+004   -3.68095E+005   -2.23396E+004    2.43984E+005    2.32633E+004
             923    5.83739E+005    7.42122E+004   -5.59165E+005   -4.27867E+004   -5.59165E+005    6.33377E+005    1.75913E+005   -5.56434E+005   -6.26994E+004   -4.38652E+004   -4.21175E+005   -2.11601E+004    2.59692E+005    2.21865E+004
             924    6.29479E+005    7.57808E+004   -6.09604E+005   -5.73172E+004   -6.09604E+005    6.85385E+005    1.97047E+005   -5.96575E+005   -6.29981E+004   -5.81617E+004   -4.69981E+005   -1.60046E+004    2.74914E+005    1.92802E+004
             925    6.63146E+005    7.75351E+004   -6.46288E+005   -6.79897E+004   -6.46288E+005    7.23823E+005    2.12247E+005   -6.25689E+005   -6.24859E+004   -6.82861E+004   -5.05970E+005   -8.99104E+003    2.85760E+005    1.15967E+004
             926    6.74758E+005    7.83296E+004   -6.58490E+005   -7.07149E+004   -6.58490E+005    7.36820E+005    2.16959E+005   -6.36121E+005   -6.16288E+004   -7.07192E+004   -5.18528E+005   -4.81625E+002    2.89024E+005    1.65803E+003
             927    6.63123E+005    7.89405E+004   -6.44866E+005   -6.66073E+004   -6.44866E+005    7.23807E+005    2.10844E+005   -6.25652E+005   -5.96646E+004   -6.68064E+004   -5.06062E+005    8.12972E+003    2.84672E+005   -9.74907E+003
             928    6.27345E+005    7.83812E+004   -6.05918E+005   -5.79469E+004   -6.05918E+005    6.84299E+005    1.95161E+005   -5.92627E+005   -5.73979E+004   -5.85053E+004   -4.69581E+005    1.54631E+004    2.72384E+005   -1.65993E+004
             929    6.93213E+005    1.13226E+004   -7.38106E+005   -1.19852E+005   -7.38106E+005    7.49429E+005    2.82212E+005   -6.64424E+005   -2.02476E+005   -1.20677E+005   -5.23483E+005    1.54796E+004    3.38049E+005   -1.82449E+004
             930    7.27566E+005    2.05198E+003   -7.88233E+005   -1.46231E+005   -7.88233E+005    7.90285E+005    3.10804E+005   -6.92333E+005   -2.19649E+005   -1.46522E+005   -5.66241E+005    9.00983E+003    3.54928E+005   -1.10575E+004
             931    7.41732E+005   -2.10887E+003   -8.08573E+005   -1.55587E+005   -8.08573E+005    8.06464E+005    3.22090E+005   -7.04665E+005   -2.26790E+005   -1.55587E+005   -5.83892E+005    4.21138E+001    3.61546E+005   -3.45160E+002
             932    7.27429E+005    1.24118E+003   -7.88336E+005   -1.45396E+005   -7.88336E+005    7.89577E+005    3.10830E+005   -6.92995E+005   -2.21668E+005   -1.45721E+005   -5.65102E+005   -9.01904E+003    3.55292E+005    1.17398E+004
             933    6.93711E+005    9.48446E+003   -7.40016E+005   -1.20477E+005   -7.40016E+005    7.49500E+005    2.83669E+005   -6.65490E+005   -2.06494E+005   -1.21230E+005   -5.23284E+005   -1.52046E+004    3.39113E+005    1.74357E+004
             934    6.50928E+005    2.04579E+004   -6.76837E+005   -8.52046E+004   -6.76837E+005    6.97295E+005    2.47195E+005   -6.31200E+005   -1.87360E+005   -8.60063E+004   -4.68218E+005   -1.85524E+004    3.18357E+005    1.82693E+004
             935    6.08114E+005    2.98918E+004   -6.14217E+005   -4.99928E+004   -6.14217E+005    6.44109E+005    2.11439E+005   -5.96138E+005   -1.67838E+005   -4.96413E+004   -4.16838E+005   -1.94883E+004    2.95979E+005    1.22606E+004
             936    5.85626E+005    3.66462E+004   -5.73197E+005   -1.52402E+004   -5.73197E+005    6.09843E+005    1.83930E+005   -5.80421E+005   -1.54973E+005   -1.52690E+004   -3.81548E+005   -1.15836E+004    2.82708E+005    9.59551E+003
             937    5.52345E+005    3.87307E+004   -5.40052E+005   -1.86205E+004   -5.40052E+005    5.78783E+005    1.73314E+005   -5.45586E+005   -1.41513E+005   -1.94170E+004   -3.59012E+005   -1.67891E+004    2.67426E+005    1.75175E+004
             938    3.26582E+005    1.72121E+005   -2.04646E+005   -2.45523E+003   -2.04646E+005    3.76767E+005    1.16602E+004   -1.63956E+005   -8.78442E+003   -1.08263E+003   -2.51136E+004   -5.72213E+003    1.86921E+005   -2.07109E+004
             939    3.41819E+005    1.46923E+005   -2.43948E+005   -1.02296E+003   -2.43948E+005    3.90871E+005    3.26828E+004   -2.53122E+005   -2.87134E+004    2.20927E+003   -7.15443E+004   -1.51542E+004    1.92624E+005   -1.55415E+004
             940    3.66396E+005    1.24334E+005   -2.87932E+005    5.00708E+002   -2.87932E+005    4.12266E+005    5.43658E+004   -3.13852E+005   -4.72649E+004    4.43905E+003   -1.20272E+005   -2.25205E+004    2.00631E+005   -7.91911E+003
             941    4.00414E+005    1.03894E+005   -3.36108E+005    6.89944E+003   -3.36108E+005    4.40001E+005    7.51049E+004   -3.72582E+005   -6.92634E+004    1.01619E+004   -1.66213E+005   -2.60451E+004    2.12041E+005    1.25663E+003
             942    4.36313E+005    8.18834E+004   -3.87795E+005    4.90656E+003   -3.87795E+005    4.69679E+005    1.00335E+005   -4.20627E+005   -8.93125E+004    8.36438E+003   -2.20057E+005   -2.79174E+004    2.22483E+005    6.56278E+003
             943    4.77506E+005    6.46576E+004   -4.43481E+005   -4.05067E+003   -4.43481E+005    5.08139E+005    1.27625E+005   -4.66190E+005   -1.14130E+005   -1.49961E+003   -2.67245E+005   -2.58788E+004    2.39709E+005    9.08114E+003
             944    5.08666E+005    4.40611E+004   -4.90831E+005   -1.32451E+004   -4.90831E+005    5.34892E+005    1.53338E+005   -5.01326E+005   -1.31632E+005   -1.31621E+004   -3.15221E+005   -2.39823E+004    2.49419E+005    1.72943E+004
             945    4.27392E+005    2.63637E+005    2.63637E+005    4.11154E+003   -2.29649E+005    4.93286E+005   -1.27000E+004    1.91757E+005    1.01387E+004    3.91888E+003    2.40425E+004   -4.97567E+003    2.46448E+005    4.51048E+003
             946    4.31601E+005    2.66243E+005    2.66243E+005   -2.08037E+002   -2.31718E+005    4.97961E+005   -1.14389E+004    2.13573E+005    7.98700E+003   -4.34336E+001    2.63733E+004   -3.85746E+003    2.48723E+005   -5.62946E+003
             947    4.37292E+005    2.70582E+005    2.70582E+005    3.41560E+003   -2.34068E+005    5.04650E+005   -1.33097E+004    2.04090E+005    6.74016E+003    3.66072E+003    2.95281E+004   -3.28974E+003    2.51865E+005   -9.73129E+003
             948    4.43252E+005    2.74070E+005    2.74070E+005    2.79990E+002   -2.37327E+005    5.11397E+005   -1.23411E+004    2.19944E+005    5.42800E+003    4.48207E+002    3.11471E+004   -2.30111E+003    2.55179E+005   -9.87059E+003
             949    4.36217E+005    2.87606E+005    2.87606E+005   -2.74078E+003   -2.14021E+005    5.01627E+005   -2.36148E+004    2.81559E+005    6.66032E+003   -3.06969E+003    6.72537E+004   -1.45634E+004    2.48523E+005    7.24997E+002
             950    4.40354E+005    2.88968E+005    2.88968E+005    3.32290E+002   -2.17881E+005    5.06849E+005   -2.38065E+004    2.72833E+005   -3.33228E+003    7.79108E+002    7.39727E+004   -1.21504E+004    2.50114E+005   -6.38281E+003
             951    4.47156E+005    2.92833E+005    2.92833E+005   -3.48426E+003   -2.21517E+005    5.14349E+005   -2.26106E+004    2.85370E+005   -9.10539E+003   -2.75240E+003    7.96896E+004   -9.66680E+003    2.52942E+005   -1.10929E+004
             952    4.54102E+005    2.98988E+005    2.98988E+005   -7.99201E+002   -2.23470E+005    5.22458E+005   -2.49062E+004    2.86935E+005   -1.20069E+004   -2.52196E+002    8.69776E+004   -7.76554E+003    2.56218E+005   -1.01966E+004
             953    4.58919E+005    3.36776E+005    3.36776E+005    4.96225E+003   -1.86945E+005    5.23721E+005   -5.15979E+004    3.49874E+005    3.23002E+004    4.49011E+003    1.18003E+005   -2.28054E+004    2.57246E+005   -2.48655E+003
             954    4.65014E+005    3.37724E+005    3.37724E+005    6.70935E+002   -1.92789E+005    5.30513E+005   -4.85351E+004    3.55939E+005    1.78120E+004    1.44569E+003    1.26347E+005   -1.85510E+004    2.58899E+005   -9.91036E+003
             955    4.73353E+005    3.45268E+005    3.45268E+005    5.62234E+003   -1.95423E+005    5.40692E+005   -5.18224E+004    3.56351E+005    9.51508E+003    6.54571E+003    1.39406E+005   -1.51847E+004    2.61842E+005   -1.18486E+004
             956    4.82802E+005    3.52130E+005    3.52130E+005    2.45008E+003   -1.98731E+005    5.50860E+005   -5.19497E+004    3.69102E+005    2.94349E+003    3.28163E+003    1.49624E+005   -1.18614E+004    2.65038E+005   -1.25864E+004
             957    4.80773E+005    3.66680E+005    3.66680E+005   -4.58809E+003   -1.76393E+005    5.43073E+005   -6.18998E+004    4.02462E+005    3.09860E+004   -4.67278E+003    1.59386E+005   -2.88459E+004    2.62091E+005   -8.85604E+003
             958    4.85445E+005    3.68325E+005    3.68325E+005    3.32107E+003   -1.82600E+005    5.50925E+005   -6.30154E+004    3.92423E+005    1.16011E+004    3.76109E+003    1.73684E+005   -2.51029E+004    2.61937E+005   -1.04811E+004
             959    4.95901E+005    3.74877E+005    3.74877E+005    1.76937E+003   -1.87856E+005    5.62733E+005   -6.29302E+004    4.01234E+005   -1.47786E+002    3.02354E+003    1.85915E+005   -2.01118E+004    2.64555E+005   -1.52481E+004
             960    5.10498E+005    3.89182E+005    3.89182E+005    4.81912E+003   -1.90049E+005    5.79231E+005   -6.79839E+004    4.13446E+005   -7.23982E+003    5.84989E+003    2.05342E+005   -1.72980E+004    2.68641E+005   -1.44570E+004
             961    5.24609E+005    4.36491E+005    4.36491E+005    9.52758E+003   -1.49134E+005    5.85626E+005   -9.89615E+004    4.65860E+005    7.19489E+004    8.50160E+003    2.16434E+005   -3.21157E+004    2.81571E+005   -8.27097E+003
             962    5.27058E+005    4.31066E+005    4.31066E+005    9.72590E+003   -1.59925E+005    5.90991E+005   -9.36226E+004    4.59317E+005    4.80180E+004    1.04513E+004    2.22398E+005   -2.69282E+004    2.80861E+005   -1.40900E+004
             963    5.41923E+005    4.45762E+005    4.45762E+005    1.58935E+004   -1.62988E+005    6.08750E+005   -9.95557E+004    4.68238E+005    3.43872E+004    1.73676E+004    2.46912E+005   -2.40844E+004    2.83926E+005   -1.84890E+004
             964    5.61675E+005    4.62823E+005    4.62823E+005    1.46471E+004   -1.67261E+005    6.30083E+005   -1.03403E+005    4.88488E+005    2.36591E+004    1.59289E+004    2.70621E+005   -1.98277E+004    2.88880E+005   -1.81224E+004
             965    5.28630E+005    4.43432E+005    4.43432E+005    2.32966E+003   -1.42524E+005    5.85956E+005   -1.01079E+005    4.80849E+005    6.60248E+004    5.88634E+002    2.36625E+005   -3.00240E+004    2.78135E+005   -6.28805E+003
             966    5.33452E+005    4.49678E+005    4.49678E+005    1.53290E+004   -1.45752E+005    5.95429E+005   -1.06418E+005    4.73921E+005    5.03972E+004    1.61098E+004    2.52748E+005   -3.41754E+004    2.77507E+005   -1.80489E+004
             967    5.64237E+005    4.78194E+005    4.78194E+005    1.38033E+004   -1.49753E+005    6.27947E+005   -1.14081E+005    5.06643E+005    4.16337E+004    1.55477E+004    2.85063E+005   -2.87098E+004    2.87581E+005   -2.23191E+004
             968    5.94414E+005    5.10599E+005    5.10599E+005    2.46639E+004   -1.52164E+005    6.62763E+005   -1.27700E+005    5.30214E+005    3.56819E+004    2.60069E+004    3.21411E+005   -2.53718E+004    2.97563E+005   -2.05434E+004
             969    5.89691E+005    5.32231E+005    5.32231E+005    3.15642E+004   -1.17772E+005    6.50003E+005   -1.48674E+005    5.44656E+005    1.34967E+005    3.14972E+004    2.79559E+005   -2.74436E+004    3.15448E+005   -1.12590E+004
             970    5.95210E+005    5.32195E+005    5.32195E+005    1.73699E+004   -1.19541E+005    6.51736E+005   -1.43341E+005    5.58108E+005    1.09124E+005    1.83989E+004    3.02501E+005   -2.86876E+004    3.09590E+005   -1.91397E+004
             971    6.15976E+005    5.61691E+005    5.61691E+005    3.45451E+004   -1.15420E+005    6.77111E+005   -1.60272E+005    5.72702E+005    1.09964E+005    3.56223E+004    3.35230E+005   -3.20005E+004    3.17292E+005   -2.09267E+004
             972    6.52361E+005    6.02747E+005    6.02747E+005    4.81566E+004   -1.16020E+005    7.18767E+005   -1.78294E+005    6.03197E+005    1.09087E+005    4.94956E+004    3.76301E+005   -2.74362E+004    3.32173E+005   -2.17735E+004
             973    6.42393E+005    6.39942E+005    6.39942E+005    8.11671E+004   -6.19342E+004    7.01876E+005   -2.19725E+005    6.04951E+005    1.89225E+005    8.11429E+004    3.88807E+005   -3.50775E+004    3.34153E+005   -1.74736E+004
             974    6.05568E+005    5.79879E+005    5.79879E+005    4.55268E+004   -7.78897E+004    6.57769E+005   -1.82505E+005    5.76244E+005    1.67742E+005    4.37559E+004    3.36018E+005   -4.01551E+004    3.14444E+005   -1.52261E+004
             975    5.60530E+005    5.18575E+005    5.18575E+005    2.01938E+004   -8.82554E+004    6.06830E+005   -1.50171E+005    5.36158E+005    1.50004E+005    1.53021E+004    2.85207E+005   -4.20323E+004    2.90965E+005   -9.57710E+003
             976    5.43579E+005    4.81316E+005    4.81316E+005   -2.80520E+004   -9.09939E+004    5.72310E+005   -1.20757E+005    5.35288E+005    1.33625E+005   -3.01535E+004    2.58798E+005   -2.68919E+004    2.76861E+005   -1.09636E+004
             977    4.24039E+005    2.59155E+005    2.59155E+005   -1.04688E+003   -2.30154E+005    4.89308E+005   -9.31814E+003    2.03051E+005    8.41332E+003   -2.22480E+003    2.17659E+004   -7.21635E+003    2.43712E+005    1.85546E+004
             978    4.36558E+005    2.97490E+005    2.97490E+005    4.92350E+003   -2.04303E+005    5.01793E+005   -3.27035E+004    2.86577E+005    2.97069E+004    1.87055E+003    6.65331E+004   -2.08466E+004    2.48649E+005    1.46609E+004
             979    4.56257E+005    3.34567E+005    3.34567E+005   -3.92421E+003   -1.84304E+005    5.18871E+005   -4.87794E+004    3.61890E+005    4.72442E+004   -7.14535E+003    1.06239E+005   -3.16193E+004    2.55245E+005    4.97442E+003
             980    4.86430E+005    3.83468E+005    3.83468E+005   -1.83578E+003   -1.63119E+005    5.46587E+005   -7.28377E+004    4.19623E+005    7.09188E+004   -5.12026E+003    1.52714E+005   -3.92426E+004    2.66640E+005   -1.99302E+003
             981    5.16954E+005    4.26357E+005    4.26357E+005   -1.10750E+004   -1.44113E+005    5.70471E+005   -9.03897E+004    4.76100E+005    9.08262E+004   -1.24434E+004    1.92786E+005   -4.34120E+004    2.76551E+005   -1.36125E+004
             982    5.68005E+005    4.99445E+005    4.99445E+005    6.39296E+003   -1.21654E+005    6.21098E+005   -1.28061E+005    5.34063E+005    1.20944E+005    4.56831E+003    2.58672E+005   -4.27662E+004    2.98861E+005   -1.47067E+004
             983    5.84497E+005    5.26222E+005    5.26222E+005   -2.27375E+002   -1.02755E+005    6.28977E+005   -1.41080E+005    5.63731E+005    1.43493E+005    8.00226E+001    2.79668E+005   -2.49649E+004    3.05777E+005   -1.44694E+004
             984    6.83837E+005    7.00487E+005    7.00487E+005    1.09673E+005   -4.86129E+004    7.49100E+005   -2.53849E+005    6.40645E+005    2.09224E+005    1.10276E+005    4.42048E+005   -2.65418E+004    3.54789E+005   -1.69150E+004
             985    7.13710E+005    7.45802E+005    7.45802E+005    1.33734E+005   -3.81570E+004    7.83959E+005   -2.80460E+005    6.64702E+005    2.24936E+005    1.33950E+005    4.82493E+005   -1.49557E+004    3.69851E+005   -9.90607E+003
             986    7.26935E+005    7.65095E+005    7.65095E+005    1.42927E+005   -3.39590E+004    7.99054E+005   -2.91355E+005    6.75922E+005    2.31511E+005    1.42928E+005    4.99625E+005   -3.55320E+002    3.76365E+005   -2.14031E+002
             987    7.14371E+005    7.46970E+005    7.46970E+005    1.33821E+005   -3.74779E+004    7.84448E+005   -2.81104E+005    6.65768E+005    2.26181E+005    1.34100E+005    4.83032E+005    1.44345E+004    3.70256E+005    1.05022E+004
             988    6.82345E+005    7.01091E+005    7.01091E+005    1.10849E+005   -4.60307E+004    7.47122E+005   -2.55303E+005    6.39853E+005    2.12098E+005    1.11387E+005    4.42425E+005    2.64990E+004    3.54157E+005    1.65078E+004
             989    6.42831E+005    6.40427E+005    6.40427E+005    7.81007E+004   -6.03475E+004    7.00774E+005   -2.19393E+005    6.07913E+005    1.91581E+005    7.83028E+004    3.88296E+005    3.50114E+004    3.34018E+005    1.85946E+004
             990    5.99837E+005    5.77980E+005    5.77980E+005    4.65268E+004   -7.24181E+004    6.50398E+005   -1.84030E+005    5.72394E+005    1.71926E+005    4.50964E+004    3.35066E+005    3.95271E+004    3.11420E+005    1.60989E+004
             991    5.72021E+005    5.30530E+005    5.30530E+005    1.20624E+004   -8.31080E+004    6.13638E+005   -1.53161E+005    5.53788E+005    1.54152E+005    1.10345E+004    2.94298E+005    3.43776E+004    2.95940E+005    1.57200E+004
             992    5.92535E+005    5.46364E+005    5.46364E+005    9.93385E+003   -8.96541E+004    6.36018E+005   -1.55548E+005    5.73251E+005    1.62770E+005    1.08034E+004    2.93071E+005    3.25738E+004    3.09195E+005    2.03000E+004
             993    6.84135E+005    6.42978E+005    6.42978E+005    6.53357E+004   -1.12521E+005    7.55499E+005   -1.98597E+005    6.28888E+005    1.15401E+005    6.62045E+004    4.14187E+005   -2.08565E+004    3.46120E+005   -1.77628E+004
             994    6.26233E+005    5.42488E+005    5.42488E+005    2.88935E+004   -1.55142E+005    6.97629E+005   -1.38747E+005    5.60373E+005    3.30440E+004    2.96316E+004    3.53564E+005   -1.76011E+004    3.09116E+005   -1.57271E+004
             995    5.78458E+005    4.80814E+005    4.80814E+005    1.77532E+004   -1.67604E+005    6.48418E+005   -1.10321E+005    5.04855E+005    1.92551E+004    1.83660E+004    2.93341E+005   -1.41785E+004    2.93335E+005   -1.29986E+004
             996    5.23722E+005    4.01018E+005    4.01018E+005    2.28378E+003   -1.92103E+005    5.93122E+005   -7.03995E+004    4.30541E+005   -1.09127E+004    2.81123E+003    2.19300E+005   -1.08903E+004    2.72973E+005   -1.09283E+004
             997    4.90955E+005    3.61122E+005    3.61122E+005    3.94863E+003   -1.98722E+005    5.59844E+005   -5.54497E+004    3.78017E+005    1.04996E+003    4.29767E+003    1.61001E+005   -7.66751E+003    2.68065E+005   -8.33708E+003
             998    4.59685E+005    3.02737E+005    3.02737E+005   -3.62292E+003   -2.25833E+005    5.28570E+005   -2.44269E+004    2.97665E+005   -1.42685E+004   -3.39045E+003    9.09397E+004   -4.46650E+003    2.58871E+005   -7.40161E+003
             999    4.47635E+005    2.78009E+005    2.78009E+005    2.70041E+003   -2.38500E+005    5.16510E+005   -1.40697E+004    2.17095E+005    5.71454E+003    2.77725E+003    3.37172E+004   -1.58995E+003    2.57791E+005   -6.46994E+003
            1000    7.08611E+005    6.71931E+005    6.71931E+005    7.45531E+004   -1.10994E+005    7.82925E+005   -2.11830E+005    6.50505E+005    1.19316E+005    7.48617E+004    4.41312E+005   -1.07986E+004    3.56589E+005   -1.06502E+004
            1001    6.46024E+005    5.64267E+005    5.64267E+005    3.56415E+004   -1.55856E+005    7.20123E+005   -1.48017E+005    5.76790E+005    3.26051E+004    3.57812E+004    3.75666E+005   -8.69091E+003    3.16413E+005   -7.20918E+003
            1002    5.90290E+005    4.92441E+005    4.92441E+005    1.82892E+004   -1.68696E+005    6.61137E+005   -1.14011E+005    5.17078E+005    1.65310E+004    1.84098E+004    3.07094E+005   -6.14426E+003    2.96839E+005   -5.90009E+003
            1003    5.32055E+005    4.09935E+005    4.09935E+005    4.34056E+003   -1.92490E+005    6.02425E+005   -7.39284E+004    4.38120E+005   -1.23093E+004    4.40804E+003    2.29687E+005   -4.60228E+003    2.75788E+005   -3.90207E+003
            1004    4.95498E+005    3.64861E+005    3.64861E+005    2.57195E+003   -1.99791E+005    5.64652E+005   -5.58809E+004    3.84517E+005   -9.09724E+002    2.61210E+003    1.65940E+005   -2.45004E+003    2.69698E+005   -2.94626E+003
            1005    4.62586E+005    3.05805E+005    3.05805E+005   -2.07701E+003   -2.26147E+005    5.31952E+005   -2.58602E+004    2.98539E+005   -1.48232E+004   -2.05610E+003    9.44599E+004   -1.63618E+003    2.60292E+005   -1.94042E+003
            1006    4.49713E+005    2.79130E+005    2.79130E+005    9.64327E+002   -2.39702E+005    5.18832E+005   -1.34643E+004    2.24730E+005    5.23911E+003    9.67766E+002    3.41861E+004   -2.75439E+002    2.59006E+005   -1.71953E+003
            1007    7.16582E+005    6.82318E+005    6.82318E+005    7.82544E+004   -1.09428E+005    7.91746E+005   -2.17048E+005    6.57789E+005    1.22250E+005    7.82574E+004    4.50636E+005    5.99283E+002    3.60215E+005    1.24545E+003
            1008    6.53365E+005    5.72020E+005    5.72020E+005    3.66971E+004   -1.56030E+005    7.28050E+005   -1.50896E+005    5.84090E+005    3.33517E+004    3.67079E+004    3.82628E+005    1.78568E+003    3.19391E+005    1.93431E+003
            1009    5.93476E+005    4.96632E+005    4.96632E+005    1.92309E+004   -1.67839E+005    6.64470E+005   -1.16008E+005    5.20669E+005    1.69068E+004    1.92614E+004    3.11856E+005    2.44430E+003    2.97692E+005    3.06236E+003
            1010    5.34029E+005    4.11834E+005    4.11834E+005    3.42594E+003   -1.92481E+005    6.04315E+005   -7.42599E+004    4.41582E+005   -1.23034E+004    3.46939E+003    2.31614E+005    3.03894E+003    2.76424E+005    3.22588E+003
            1011    4.95895E+005    3.66161E+005    3.66161E+005    3.20650E+003   -1.98865E+005    5.65027E+005   -5.68342E+004    3.85440E+005   -4.86395E+002    3.25937E+003    1.67730E+005    2.52781E+003    2.69675E+005    3.58030E+003
            1012    4.62561E+005    3.05650E+005    3.05650E+005   -3.17941E+003   -2.26165E+005    5.31815E+005   -2.54354E+004    3.00868E+005   -1.49944E+004   -3.13140E+003    9.44320E+004    1.98837E+003    2.60192E+005    3.43293E+003
            1013    4.49357E+005    2.79299E+005    2.79299E+005    2.01342E+003   -2.39155E+005    5.18454E+005   -1.40525E+004    2.21829E+005    5.58306E+003    2.02672E+003    3.45477E+004    5.20007E+002    2.58799E+005    3.49761E+003
            1014    7.07066E+005    6.72281E+005    6.72281E+005    7.55147E+004   -1.08641E+005    7.80922E+005   -2.13052E+005    6.49743E+005    1.22857E+005    7.59130E+004    4.40385E+005    1.22148E+004    3.56429E+005    1.20638E+004
            1015    6.44917E+005    5.63971E+005    5.63971E+005    3.52302E+004   -1.54538E+005    7.18509E+005   -1.48221E+005    5.76902E+005    3.51976E+004    3.56160E+004    3.73849E+005    1.14416E+004    3.16537E+005    1.14572E+004
            1016    5.87853E+005    4.91666E+005    4.91666E+005    1.94331E+004   -1.66729E+005    6.58394E+005   -1.14790E+005    5.14988E+005    1.92714E+004    1.98423E+004    3.05256E+005    1.08288E+004    2.96223E+005    1.08206E+004
            1017    5.29497E+005    4.08069E+005    4.08069E+005    4.12051E+003   -1.91381E+005    5.99450E+005   -7.36026E+004    4.36442E+005   -1.07141E+004    4.54687E+003    2.26975E+005    9.49016E+003    2.74891E+005    1.00072E+004
            1018    4.92527E+005    3.63181E+005    3.63181E+005    3.40689E+003   -1.98157E+005    5.61338E+005   -5.61435E+004    3.81647E+005    6.44226E+002    3.78791E+003    1.63998E+005    7.66838E+003    2.68319E+005    8.94806E+003
            1019    4.59824E+005    3.03661E+005    3.03661E+005   -2.62006E+003   -2.25089E+005    5.28750E+005   -2.53174E+004    2.97337E+005   -1.42804E+004   -2.34258E+003    9.25752E+004    4.77342E+003    2.58768E+005    8.20589E+003
            1020    4.46883E+005    2.77435E+005    2.77435E+005    1.66735E+003   -2.38163E+005    5.15598E+005   -1.36465E+004    2.20646E+005    5.75054E+003    1.77020E+003    3.34187E+004    1.76539E+003    2.57305E+005    7.86768E+003
            1021    6.83257E+005    6.43732E+005    6.43732E+005    6.45450E+004   -1.09808E+005    7.53540E+005   -1.99490E+005    6.30225E+005    1.20852E+005    6.56949E+004    4.11923E+005    2.18900E+004    3.46590E+005    2.00889E+004
            1022    6.22356E+005    5.41632E+005    5.41632E+005    3.07073E+004   -1.51487E+005    6.93120E+005   -1.40284E+005    5.57450E+005    3.84995E+004    3.17807E+004    3.50572E+005    2.06017E+004    3.08475E+005    1.87218E+004
            1023    5.75123E+005    4.79352E+005    4.79352E+005    1.76382E+004   -1.64883E+005    6.44235E+005   -1.10702E+005    5.03495E+005    2.43667E+004    1.86708E+004    2.89069E+005    1.76867E+004    2.92904E+005    1.67457E+004
            1024    5.18899E+005    3.98371E+005    3.98371E+005    3.88865E+003   -1.89439E+005    5.87810E+005   -7.09404E+004    4.25752E+005   -7.53883E+003    4.86007E+003    2.15500E+005    1.58964E+004    2.71253E+005    1.44831E+004
            1025    4.85857E+005    3.57428E+005    3.57428E+005    3.16737E+003   -1.96440E+005    5.53868E+005   -5.47183E+004    3.75418E+005    3.93567E+003    3.96987E+003    1.56249E+005    1.16715E+004    2.65823E+005    1.25034E+004
            1026    4.54679E+005    2.99581E+005    2.99581E+005   -2.45090E+003   -2.23343E+005    5.22924E+005   -2.45954E+004    2.91988E+005   -1.28656E+004   -1.84386E+003    8.84957E+004    7.79700E+003    2.56188E+005    1.11751E+004
            1027    4.42670E+005    2.74470E+005    2.74470E+005    1.64233E+003   -2.36284E+005    5.10754E+005   -1.32762E+004    2.17136E+005    6.44987E+003    1.82364E+003    3.15551E+004    2.33802E+003    2.54850E+005    1.04367E+004
            1028    6.49598E+005    6.05250E+005    6.05250E+005    5.08112E+004   -1.09492E+005    7.14742E+005   -1.82190E+005    6.02638E+005    1.19787E+005    5.24206E+004    3.74362E+005    2.84323E+004    3.32377E+005    2.33320E+004
            1029    5.92696E+005    5.11013E+005    5.11013E+005    2.43943E+004   -1.49058E+005    6.60071E+005   -1.28783E+005    5.30929E+005    4.27844E+004    2.60393E+004    3.17526E+005    2.59603E+004    2.98564E+005    2.22172E+004
            1030    5.57553E+005    4.62984E+005    4.62984E+005    1.76764E+004   -1.62338E+005    6.25321E+005   -1.06107E+005    4.85405E+005    3.18387E+004    1.90926E+004    2.67391E+005    2.27126E+004    2.88447E+005    1.88253E+004
            1031    5.06054E+005    3.86242E+005    3.86242E+005    3.29113E+003   -1.87466E+005    5.73709E+005   -6.73557E+004    4.12675E+005   -2.45086E+003    4.50867E+003    2.00009E+005    1.97478E+004    2.67439E+005    1.55067E+004
            1032    4.77568E+005    3.50254E+005    3.50254E+005    4.23158E+003   -1.94607E+005    5.44862E+005   -5.32927E+004    3.65328E+005    8.06309E+003    5.30179E+003    1.46513E+005    1.52235E+004    2.62857E+005    1.33722E+004
            1033    4.48362E+005    2.94294E+005    2.94294E+005   -2.52814E+003   -2.21473E+005    5.15767E+005   -2.34310E+004    2.85402E+005   -1.04551E+004   -1.77648E+003    8.25247E+004    9.62630E+003    2.53276E+005    1.13975E+004
            1034    4.37543E+005    2.71117E+005    2.71117E+005    2.19030E+003   -2.33755E+005    5.04872E+005   -1.31838E+004    2.11441E+005    7.12621E+003    2.45087E+003    2.99744E+004    3.25724E+003    2.51943E+005    1.05715E+004
            1035    6.20144E+005    5.68144E+005    5.68144E+005    3.53850E+004   -1.12607E+005    6.80751E+005   -1.63641E+005    5.78376E+005    1.19116E+005    3.70084E+004    3.34798E+005    2.98578E+004    3.21131E+005    2.27959E+004
            1036    5.61893E+005    4.81011E+005    4.81011E+005    1.91209E+004   -1.44544E+005    6.25555E+005   -1.18529E+005    5.03933E+005    5.09921E+004    2.05249E+004    2.84071E+005    3.15842E+004    2.88124E+005    2.10505E+004
            1037    5.41574E+005    4.48201E+005    4.48201E+005    1.29846E+004   -1.58306E+005    6.06507E+005   -1.00960E+005    4.74632E+005    4.45998E+004    1.42553E+004    2.44024E+005    2.56498E+004    2.84997E+005    1.74822E+004
            1038    4.93388E+005    3.75807E+005    3.75807E+005    2.21866E+003   -1.83486E+005    5.59293E+005   -6.48465E+004    4.02668E+005    6.32889E+003    3.36529E+003    1.84845E+005    2.35086E+004    2.63774E+005    1.45720E+004
            1039    4.69428E+005    3.43655E+005    3.43655E+005    2.89609E+003   -1.91794E+005    5.35449E+005   -5.15858E+004    3.60175E+005    1.60096E+004    3.84536E+003    1.34903E+005    1.72403E+004    2.60347E+005    1.15501E+004
            1040    4.42360E+005    2.90214E+005    2.90214E+005   -1.66812E+003   -2.18751E+005    5.08964E+005   -2.32650E+004    2.79122E+005   -6.67221E+003   -9.93293E+002    7.74605E+004    1.15315E+004    2.50600E+005    9.12723E+003
            1041    4.32430E+005    2.67346E+005    2.67346E+005    1.56530E+003   -2.31627E+005    4.98972E+005   -1.24280E+004    2.08955E+005    8.65844E+003    1.76929E+003    2.68564E+004    3.52722E+003    2.49186E+005    7.59669E+003
            1042    6.01190E+005    5.47931E+005    5.47931E+005    3.20335E+004   -1.12281E+005    6.60213E+005   -1.55894E+005    5.60194E+005    1.29107E+005    3.27382E+004    3.05838E+005    3.10200E+004    3.16260E+005    1.75979E+004
            1043    5.41340E+005    4.59029E+005    4.59029E+005    1.07847E+004   -1.42395E+005    6.01424E+005   -1.09140E+005    4.88900E+005    5.98303E+004    1.06928E+004    2.56896E+005    3.39870E+004    2.81641E+005    1.51123E+004
            1044    5.28541E+005    4.37690E+005    4.37690E+005    1.04396E+004   -1.53359E+005    5.91048E+005   -9.82569E+004    4.66089E+005    5.80042E+004    1.09672E+004    2.25799E+005    3.09715E+004    2.81416E+005    1.45127E+004
            1045    4.84157E+005    3.68638E+005    3.68638E+005   -1.06062E+003   -1.79392E+005    5.48030E+005   -6.27285E+004    3.99547E+005    1.87930E+004   -6.44999E+002    1.70038E+005    2.70142E+004    2.61833E+005    1.09077E+004
            1046    4.62423E+005    3.38662E+005    3.38662E+005    2.76132E+003   -1.88751E+005    5.27413E+005   -5.08909E+004    3.55183E+005    2.36068E+004    3.18033E+003    1.25886E+005    2.10365E+004    2.57790E+005    7.60300E+003
            1047    4.37504E+005    2.87533E+005    2.87533E+005   -2.24504E+003   -2.15729E+005    5.03262E+005   -2.31861E+004    2.78851E+005    5.38113E+002   -2.03293E+003    7.10530E+004    1.31140E+004    2.48788E+005    3.94380E+003
            1048    4.28367E+005    2.64824E+005    2.64824E+005    2.36867E+003   -2.29496E+005    4.94320E+005   -1.25654E+004    2.03324E+005    9.11840E+003    2.41746E+003    2.61604E+004    4.54165E+003    2.46968E+005    1.54922E+003
            1049    5.75351E+005    5.15257E+005    5.15257E+005    1.43657E+004   -1.13157E+005    6.28413E+005   -1.38822E+005    5.42169E+005    1.25885E+005    1.26946E+004    2.77886E+005    3.71443E+004    3.01832E+005    1.23771E+004
            1050    5.45721E+005    4.71908E+005    4.71908E+005    9.32102E+003   -1.29954E+005    6.01863E+005   -1.17092E+005    5.03352E+005    9.37652E+004    8.44493E+003    2.49064E+005    3.53598E+004    2.88057E+005    1.26836E+004
            1051    5.16121E+005    4.25524E+005    4.25524E+005    2.32589E+003   -1.49473E+005    5.74997E+005   -9.27922E+004    4.61745E+005    6.99135E+004    1.40226E+003    2.07061E+005    3.50969E+004    2.76564E+005    1.03856E+004
            1052    4.83659E+005    3.76932E+005    3.76932E+005   -2.29164E+001   -1.68414E+005    5.45346E+005   -6.94982E+004    4.09455E+005    4.57553E+004   -7.59249E+002    1.63499E+005    3.04650E+004    2.64262E+005    6.70209E+003
            1053    4.56397E+005    3.32710E+005    3.32710E+005   -1.33410E+002   -1.87561E+005    5.20271E+005   -4.83384E+004    3.52760E+005    3.13719E+004   -9.46049E+002    1.14589E+005    2.45266E+004    2.55491E+005    1.51408E+003
            1054    4.36035E+005    2.92558E+005    2.92558E+005    1.48404E+003   -2.08766E+005    5.01323E+005   -2.84253E+004    2.83503E+005    1.54469E+004    6.48672E+002    6.91805E+004    1.54629E+004    2.48628E+005   -4.47182E+003
            1055    4.25753E+005    2.59808E+005    2.59808E+005    4.30426E+001   -2.31539E+005    4.91347E+005   -9.43738E+003    1.97054E+005    6.42477E+003   -3.29546E+002    2.22169E+004    5.50425E+003    2.45347E+005   -7.88863E+003
            1056    4.24370E+005    2.61626E+005    2.61626E+005    2.52488E+003   -2.28119E+005    4.89745E+005   -1.20107E+004    1.97261E+005    1.11947E+004    1.21626E+003    2.36211E+004    7.40901E+003    2.43808E+005   -2.01684E+004
            1057    4.36324E+005    2.96660E+005    2.96660E+005    3.03935E+002   -2.04376E+005    5.01036E+005   -3.08627E+004    2.95467E+005    2.93407E+004   -2.94747E+003    6.61949E+004    2.13891E+004    2.48164E+005   -1.48345E+004
            1058    4.58856E+005    3.40620E+005    3.40620E+005   -1.00419E+003   -1.80932E+005    5.21552E+005   -5.28945E+004    3.65815E+005    5.22497E+004   -5.06759E+003    1.11501E+005    3.17062E+004    2.56359E+005   -7.77433E+003
            1059    4.83461E+005    3.79717E+005    3.79717E+005   -7.90468E+003   -1.62010E+005    5.41728E+005   -6.99341E+004    4.22659E+005    7.14626E+004   -1.14279E+004    1.49768E+005    3.92553E+004    2.64327E+005    1.98579E+003
            1060    5.17550E+005    4.31296E+005    4.31296E+005   -6.61584E+003   -1.39843E+005    5.71139E+005   -9.49460E+004    4.76626E+005    9.76874E+004   -1.01556E+004    1.97306E+005    4.34194E+004    2.76711E+005    8.14050E+003
            1061    5.40943E+005    4.69095E+005    4.69095E+005    2.57696E+002   -1.22763E+005    5.91858E+005   -1.15530E+005    5.08019E+005    1.18988E+005   -2.92162E+003    2.30523E+005    4.52470E+004    2.85849E+005    1.22281E+004
            1062    5.84365E+005    5.29154E+005    5.29154E+005    8.59894E+003   -1.02943E+005    6.32097E+005   -1.44937E+005    5.59658E+005    1.48766E+005    9.07845E+003    2.76965E+005    4.39612E+004    3.05632E+005    2.30730E+004
            1063    5.44343E+005    9.11213E+004   -4.81520E+005    2.92351E+004   -4.81520E+005    5.72642E+005    1.20388E+005   -5.36343E+005   -1.33383E+005    3.11367E+004   -2.58918E+005    2.62303E+004    2.77127E+005   -1.10984E+004
            1064    5.58904E+005    8.85772E+004   -5.16283E+005   -1.89647E+004   -5.16283E+005    6.04860E+005    1.48890E+005   -5.34878E+005   -1.49034E+005   -1.39313E+004   -2.83706E+005    4.17014E+004    2.90013E+005   -9.14700E+003
            1065    6.04510E+005    7.83515E+004   -5.78180E+005   -4.45911E+004   -5.78180E+005    6.56531E+005    1.81473E+005   -5.75365E+005   -1.66963E+005   -4.27181E+004   -3.34738E+005    4.03008E+004    3.13820E+005   -1.50650E+004
            1066    6.41731E+005    6.22497E+004   -6.39021E+005   -8.10608E+004   -6.39021E+005    7.01271E+005    2.19277E+005   -6.04133E+005   -1.88787E+005   -8.09611E+004   -3.88084E+005    3.51704E+004    3.33859E+005   -1.71951E+004
            1067    6.51500E+005    1.16688E+005   -6.01172E+005   -4.74074E+004   -6.01172E+005    7.17860E+005    1.77297E+005   -6.02315E+005   -1.07827E+005   -4.87675E+004   -3.75298E+005    2.74747E+004    3.31624E+005   -2.19030E+004
            1068    5.92577E+005    1.52763E+005   -5.08082E+005   -2.40049E+004   -5.08082E+005    6.60845E+005    1.26441E+005   -5.28188E+005   -3.47017E+004   -2.53500E+004   -3.19273E+005    2.52788E+004    2.96784E+005   -2.04866E+004
            1069    5.60055E+005    1.67911E+005   -4.60548E+005   -1.42547E+004   -4.60548E+005    6.28459E+005    1.02297E+005   -4.86375E+005   -2.29480E+004   -1.55328E+004   -2.68411E+005    1.97029E+004    2.88325E+005   -1.80358E+004
            1070    5.09105E+005    1.90469E+005   -3.87316E+005   -4.55551E+003   -3.87316E+005    5.77785E+005    6.71341E+004   -4.11499E+005    7.63435E+003   -5.56097E+003   -2.03476E+005    1.71456E+004    2.68169E+005   -1.42192E+004
            1071    4.82127E+005    1.99074E+005   -3.51111E+005   -2.40844E+003   -3.51111E+005    5.50186E+005    5.14817E+004   -3.67753E+005   -3.04185E+003   -3.22813E+003   -1.48175E+005    1.17506E+004    2.64908E+005   -1.24763E+004
            1072    4.53488E+005    2.23855E+005   -2.97966E+005    7.37587E+002   -2.97966E+005    5.21821E+005    2.44577E+004   -2.84801E+005    1.20938E+004    1.91498E+002   -8.56585E+004    7.72076E+003    2.56013E+005   -1.01937E+004
            1073    4.43224E+005    2.37643E+005   -2.73741E+005   -3.58549E+002   -2.73741E+005    5.11384E+005    1.21519E+004   -2.18302E+005   -5.50063E+003   -5.24142E+002   -3.04311E+004    2.26502E+003    2.55193E+005   -9.87331E+003
            1074    6.14551E+005    1.16150E+005   -5.59544E+005   -3.39440E+004   -5.59544E+005    6.75694E+005    1.59112E+005   -5.71086E+005   -1.08642E+005   -3.50505E+004   -3.33644E+005    3.19808E+004    3.16585E+005   -2.10211E+004
            1075    5.62431E+005    1.50414E+005   -4.75742E+005   -1.34128E+004   -4.75742E+005    6.26156E+005    1.12914E+005   -5.04412E+005   -4.06351E+004   -1.51718E+004   -2.82934E+005    2.87703E+004    2.86836E+005   -2.23254E+004
            1076    5.39867E+005    1.63814E+005   -4.42893E+005   -1.54958E+004   -4.42893E+005    6.06707E+005    9.81916E+004   -4.65433E+005   -3.35085E+004   -1.69470E+004   -2.44119E+005    2.39801E+004    2.83204E+005   -1.82504E+004
            1077    4.94490E+005    1.88399E+005   -3.72892E+005   -1.50096E+003   -3.72892E+005    5.61291E+005    6.19980E+004   -3.99120E+005    6.09211E+002   -2.75535E+003   -1.83848E+005    1.99837E+004    2.64080E+005   -1.51872E+004
            1078    4.72719E+005    1.95802E+005   -3.44260E+005   -5.57597E+003   -3.44260E+005    5.40061E+005    5.13447E+004   -3.54976E+005   -9.43086E+003   -6.48483E+003   -1.38118E+005    1.50420E+004    2.61676E+005   -1.17233E+004
            1079    4.46738E+005    2.21833E+005   -2.92087E+005    3.47183E+003   -2.92087E+005    5.13919E+005    2.22608E+004   -2.83891E+005    9.18879E+003    2.75502E+003   -7.87261E+004    9.55043E+003    2.52808E+005   -1.09672E+004
            1080    4.37228E+005    2.34349E+005   -2.70241E+005   -3.46775E+003   -2.70241E+005    5.04590E+005    1.31197E+004   -2.02397E+005   -6.77349E+003   -3.70641E+003   -2.88793E+004    3.21791E+003    2.51853E+005   -9.68073E+003
            1081    5.95177E+005    1.19770E+005   -5.31956E+005   -1.72145E+004   -5.31956E+005    6.51726E+005    1.43134E+005   -5.58030E+005   -1.09096E+005   -1.82829E+004   -3.02022E+005    2.86067E+004    3.09664E+005   -1.92898E+004
            1082    5.32243E+005    1.46050E+005   -4.48181E+005   -1.52354E+004   -4.48181E+005    5.94231E+005    1.05789E+005   -4.72384E+005   -5.03528E+004   -1.59563E+004   -2.51057E+005    3.39128E+004    2.77206E+005   -1.76344E+004
            1083    5.25818E+005    1.60623E+005   -4.29156E+005   -9.34341E+003   -4.29156E+005    5.89779E+005    9.26253E+004   -4.57599E+005   -4.74476E+004   -1.00401E+004   -2.20388E+005    2.68548E+004    2.80457E+005   -1.38558E+004
            1084    4.84134E+005    1.83042E+005   -3.66544E+005   -3.13698E+003   -3.66544E+005    5.49585E+005    6.22130E+004   -3.90453E+005   -1.10838E+004   -3.55133E+003   -1.72004E+005    2.49748E+004    2.61428E+005   -1.02562E+004
            1085    4.64713E+005    1.92997E+005   -3.37231E+005   -6.85554E+002   -3.37231E+005    5.30228E+005    4.83065E+004   -3.55216E+005   -1.78433E+004   -1.46603E+003   -1.25610E+005    1.84460E+004    2.58840E+005   -9.92921E+003
            1086    4.40129E+005    2.17969E+005   -2.88643E+005   -3.73195E+002   -2.88643E+005    5.06612E+005    2.36822E+004   -2.72109E+005    3.37061E+003   -8.18490E+002   -7.35989E+004    1.21091E+004    2.50022E+005   -6.36545E+003
            1087    4.31510E+005    2.31845E+005   -2.66021E+005    1.79342E+002   -2.66021E+005    4.97866E+005    1.13321E+004   -2.12715E+005   -7.97282E+003    1.78695E+001   -2.60413E+004    3.79250E+003    2.48683E+005   -5.61180E+003
            1088    5.89295E+005    1.17757E+005   -5.31968E+005   -3.20009E+004   -5.31968E+005    6.49726E+005    1.48737E+005   -5.43955E+005   -1.35272E+005   -3.18770E+004   -2.79064E+005    2.75097E+004    3.15386E+005   -1.09621E+004
            1089    5.29313E+005    1.42440E+005   -4.44221E+005   -2.42067E+003   -4.44221E+005    5.86662E+005    1.01401E+005   -4.81598E+005   -6.66067E+004   -6.71046E+002   -2.36924E+005    3.01034E+004    2.78537E+005   -6.30012E+003
            1090    5.23648E+005    1.49513E+005   -4.35164E+005   -9.32580E+003   -4.35164E+005    5.84677E+005    9.83257E+004   -4.64627E+005   -7.15390E+004   -8.28502E+003   -2.15153E+005    3.22194E+004    2.81176E+005   -8.21873E+003
            1091    4.79999E+005    1.76748E+005   -3.65560E+005    4.71782E+003   -3.65560E+005    5.42308E+005    6.13649E+004   -4.01284E+005   -3.06638E+004    4.78815E+003   -1.58219E+005    2.87554E+004    2.61811E+005   -8.83822E+003
            1092    4.58299E+005    1.87363E+005   -3.35774E+005   -5.03635E+003   -3.35774E+005    5.23136E+005    5.11491E+004   -3.48321E+005   -3.19548E+004   -4.56084E+003   -1.16932E+005    2.26616E+004    2.57022E+005   -2.37231E+003
            1093    4.36020E+005    2.14178E+005   -2.87245E+005    2.76239E+003   -2.87245E+005    5.01424E+005    2.34349E+004   -2.80921E+005   -6.43734E+003    3.10227E+003   -6.69696E+004    1.44259E+004    2.48431E+005    8.70606E+002
            1094    4.27390E+005    2.29495E+005   -2.63784E+005   -4.13541E+003   -2.63784E+005    4.93279E+005    1.28079E+004   -1.92378E+005   -1.01775E+004   -3.94159E+003   -2.43045E+004    4.95192E+003    2.46441E+005    4.55922E+003
            1095    4.24141E+005    2.29571E+005   -2.59831E+005    9.88120E+002   -2.59831E+005    4.89402E+005    9.75722E+003   -2.05529E+005   -8.83301E+003    2.21066E+003   -2.26493E+004    7.52270E+003    2.43748E+005    1.84522E+004
            1096    4.36710E+005    2.04187E+005   -2.97771E+005   -5.02950E+003   -2.97771E+005    5.01958E+005    3.28711E+004   -2.86850E+005   -2.99144E+004   -1.94162E+003   -6.67574E+004    2.09291E+004    2.48714E+005    1.47732E+004
            1097    4.56092E+005    1.84475E+005   -3.34249E+005    3.93802E+003   -3.34249E+005    5.18724E+005    4.86121E+004   -3.61477E+005   -4.70272E+004    7.14055E+003   -1.05950E+005    3.13956E+004    2.55205E+005    5.05631E+003
            1098    4.85977E+005    1.63434E+005   -3.82753E+005    1.84861E+003   -3.82753E+005    5.46187E+005    7.24901E+004   -4.18810E+005   -7.05440E+004    5.19341E+003   -1.52120E+005    3.89798E+004    2.66482E+005   -1.63144E+003
            1099    5.15605E+005    1.44479E+005   -4.24668E+005    1.12410E+004   -4.24668E+005    5.69147E+005    8.96494E+004   -4.74499E+005   -9.02326E+004    1.26467E+004   -1.91362E+005    4.32243E+004    2.75979E+005   -1.33476E+004
            1100    5.66646E+005    1.21954E+005   -4.97808E+005   -6.24120E+003   -4.97808E+005    6.19762E+005    1.27365E+005   -5.32533E+005   -1.20450E+005   -4.34962E+003   -2.57296E+005    4.29901E+004    2.98223E+005   -1.45988E+004
            1101    5.85247E+005    1.02666E+005   -5.27040E+005    2.20820E+002   -5.27040E+005    6.29706E+005    1.41384E+005   -5.64544E+005   -1.43574E+005   -1.01571E+002   -2.80478E+005    2.53798E+004    3.06028E+005   -1.47631E+004
            1102    4.25775E+005    2.31157E+005   -2.60203E+005   -6.59582E+001   -2.60203E+005    4.91360E+005    9.70410E+003   -1.98747E+005   -6.62263E+003    3.23373E+002   -2.28130E+004   -5.72210E+003    2.45340E+005   -7.91426E+003
            1103    4.28416E+005    2.28823E+005   -2.65522E+005   -2.31612E+003   -2.65522E+005    4.94346E+005    1.30050E+004   -2.06548E+005   -9.24081E+003   -2.36469E+003   -2.74096E+004   -4.78405E+003    2.46956E+005    1.49970E+003
            1104    4.32523E+005    2.30759E+005   -2.68276E+005   -1.47730E+003   -2.68276E+005    4.99036E+005    1.29981E+004   -2.13106E+005   -8.58857E+003   -1.70096E+003   -2.87047E+004   -3.84050E+003    2.49175E+005    7.66079E+003
            1105    4.37832E+005    2.32810E+005   -2.72342E+005   -2.07960E+003   -2.72342E+005    5.05152E+005    1.38708E+004   -2.16511E+005   -6.98669E+003   -2.36222E+003   -3.22635E+004   -3.54090E+003    2.52024E+005    1.05524E+004
            1106    4.42882E+005    2.35446E+005   -2.75505E+005   -1.56068E+003   -2.75505E+005    5.10951E+005    1.38730E+004   -2.21330E+005   -6.24549E+003   -1.75860E+003   -3.36150E+004   -2.53892E+003    2.54888E+005    1.04683E+004
            1107    4.47094E+005    2.37570E+005   -2.78237E+005   -1.61831E+003   -2.78237E+005    5.15807E+005    1.40950E+004   -2.23716E+005   -5.62236E+003   -1.72595E+003   -3.49367E+004   -1.85628E+003    2.57365E+005    7.82318E+003
            1108    4.49386E+005    2.38817E+005   -2.79653E+005   -2.00678E+003   -2.79653E+005    5.18470E+005    1.42808E+004   -2.23266E+005   -5.50941E+003   -2.02053E+003   -3.53126E+004   -5.36693E+002    2.58783E+005    3.49805E+003
            1109    4.49729E+005    2.39682E+005   -2.79169E+005   -9.94948E+002   -2.79169E+005    5.18850E+005    1.34941E+004   -2.24730E+005   -5.19204E+003   -9.98592E+002   -3.42916E+004    2.86755E+002    2.59011E+005   -1.74735E+003
            1110    4.47552E+005    2.38625E+005   -2.77798E+005   -2.76358E+003   -2.77798E+005    5.16423E+005    1.39787E+004   -2.16086E+005   -5.76722E+003   -2.84071E+003   -3.33280E+004    1.58598E+003    2.57759E+005   -6.50856E+003
            1111    4.36397E+005    2.08221E+005   -2.93445E+005   -1.49011E+003   -2.93445E+005    5.01666E+005    2.89047E+004   -2.85274E+005   -1.58747E+004   -6.35209E+002   -7.02042E+004   -1.57432E+004    2.48749E+005   -4.43540E+003
            1112    4.38188E+005    2.14899E+005   -2.89035E+005    2.26234E+003   -2.89035E+005    5.03933E+005    2.39579E+004   -2.81942E+005   -1.03302E+003    2.05173E+003   -7.28923E+004   -1.35063E+004    2.49011E+005    3.97958E+003
            1113    4.43496E+005    2.17673E+005   -2.92444E+005    1.65276E+003   -2.92444E+005    5.10118E+005    2.43728E+004   -2.83549E+005    6.27206E+003    9.58359E+002   -8.03489E+004   -1.18983E+004    2.50956E+005    9.24492E+003
            1114    4.49548E+005    2.20431E+005   -2.96548E+005    2.48516E+003   -2.96548E+005    5.16978E+005    2.45440E+004   -2.89704E+005    1.03152E+004    1.71291E+003   -8.56601E+004   -9.92203E+003    2.53602E+005    1.14939E+004
            1115    4.55819E+005    2.22528E+005   -3.01574E+005    2.42127E+003   -3.01574E+005    5.24102E+005    2.55415E+004   -2.95676E+005    1.28807E+004    1.81073E+003   -9.13159E+004   -7.93718E+003    2.56504E+005    1.11438E+004
            1116    4.60566E+005    2.24545E+005   -3.04970E+005    2.58936E+003   -3.04970E+005    5.29515E+005    2.59454E+004   -2.99719E+005    1.43540E+004    2.31429E+003   -9.45044E+004   -4.79762E+003    2.58953E+005    8.13608E+003
            1117    4.62958E+005    2.25969E+005   -3.06265E+005    3.15912E+003   -3.06265E+005    5.32234E+005    2.57120E+004   -3.01917E+005    1.50641E+004    3.11388E+003   -9.53140E+004   -1.93184E+003    2.60307E+005    3.33403E+003
            1118    4.62540E+005    2.26124E+005   -3.05782E+005    2.01072E+003   -3.05782E+005    5.31906E+005    2.58821E+004   -2.98364E+005    1.47628E+004    1.98784E+003   -9.43971E+004    1.70458E+003    2.60281E+005   -2.03474E+003
            1119    4.59330E+005    2.26110E+005   -3.02099E+005    3.60974E+003   -3.02099E+005    5.28209E+005    2.41265E+004   -2.96423E+005    1.43165E+004    3.37025E+003   -9.00662E+004    4.52112E+003    2.58767E+005   -7.51631E+003
            1120    4.57155E+005    1.86881E+005   -3.34060E+005    2.76293E+002   -3.34060E+005    5.20941E+005    4.89676E+004   -3.54896E+005   -3.19165E+004    1.09185E+003   -1.16078E+005   -2.48723E+004    2.55718E+005    1.71371E+003
            1121    4.63770E+005    1.87805E+005   -3.40881E+005   -2.70561E+003   -3.40881E+005    5.28686E+005    5.19270E+004   -3.58383E+005   -2.39901E+004   -3.14355E+003   -1.28647E+005   -2.13978E+004    2.58169E+005    7.87431E+003
            1122    4.71361E+005    1.90774E+005   -3.46582E+005   -2.95521E+003   -3.46582E+005    5.37356E+005    5.29213E+004   -3.64111E+005   -1.60895E+004   -3.93066E+003   -1.38744E+005   -1.76280E+004    2.60862E+005    1.18157E+004
            1123    4.79852E+005    1.93698E+005   -3.53486E+005   -4.39137E+003   -3.53486E+005    5.47184E+005    5.47266E+004   -3.69466E+005   -8.09726E+003   -5.46818E+003   -1.50614E+005   -1.54335E+004    2.63506E+005    1.34858E+004
            1124    4.87724E+005    1.95745E+005   -3.60030E+005   -3.33462E+003   -3.60030E+005    5.55775E+005    5.58733E+004   -3.78632E+005   -3.90977E+003   -4.12728E+003   -1.59583E+005   -1.17119E+004    2.66332E+005    1.24510E+004
            1125    4.93760E+005    1.97730E+005   -3.64874E+005   -3.53420E+003   -3.64874E+005    5.62604E+005    5.68928E+004   -3.83695E+005   -7.23099E+002   -3.89640E+003   -1.66059E+005   -7.54368E+003    2.68687E+005    8.71993E+003
            1126    4.96193E+005    1.98694E+005   -3.66639E+005   -3.31306E+003   -3.66639E+005    5.65334E+005    5.70860E+004   -3.85923E+005    4.60185E+002   -3.35886E+003   -1.68359E+005   -2.35857E+003    2.69745E+005    3.33018E+003
            1127    4.95168E+005    1.99884E+005   -3.64440E+005   -2.62130E+003   -3.64440E+005    5.64324E+005    5.57254E+004   -3.83883E+005    8.72082E+002   -2.66714E+003   -1.65381E+005    2.61087E+003    2.69615E+005   -3.14881E+003
            1128    4.90086E+005    1.98958E+005   -3.60003E+005   -3.99878E+003   -3.60003E+005    5.58962E+005    5.50147E+004   -3.76447E+005   -1.16483E+003   -4.35898E+003   -1.59520E+005    7.73811E+003    2.67836E+005   -8.46956E+003
            1129    4.85257E+005    1.67585E+005   -3.79272E+005   -8.35771E+001   -3.79272E+005    5.46857E+005    7.05901E+004   -4.12088E+005   -4.66479E+004    6.40917E+002   -1.65763E+005   -3.07520E+004    2.64848E+005    6.98133E+003
            1130    4.86875E+005    1.78349E+005   -3.72400E+005    7.18606E+002   -3.72400E+005    5.50749E+005    6.44444E+004   -4.03664E+005   -1.97875E+004    2.89180E+002   -1.73835E+005   -2.73376E+004    2.62806E+005    1.12153E+004
            1131    4.96957E+005    1.82449E+005   -3.80518E+005   -2.76720E+003   -3.80518E+005    5.62967E+005    6.69453E+004   -4.07676E+005   -7.03662E+003   -3.93931E+003   -1.89860E+005   -2.36557E+004    2.64965E+005    1.49171E+004
            1132    5.09408E+005    1.86701E+005   -3.90495E+005   -3.76959E+003   -3.90495E+005    5.77197E+005    6.91879E+004   -4.17191E+005    2.20655E+003   -4.98123E+003   -2.04789E+005   -1.97338E+004    2.68443E+005    1.56294E+004
            1133    5.21433E+005    1.89050E+005   -4.01426E+005   -4.22830E+003   -4.01426E+005    5.90476E+005    7.22014E+004   -4.28951E+005    7.52610E+003   -5.16515E+003   -2.18965E+005   -1.56525E+004    2.72003E+005    1.43136E+004
            1134    5.30612E+005    1.91310E+005   -4.09336E+005   -4.28857E+003   -4.09336E+005    6.00646E+005    7.41047E+004   -4.37710E+005    1.09059E+004   -4.68429E+003   -2.28536E+005   -9.13577E+003    2.75182E+005    9.66794E+003
            1135    5.34026E+005    1.92625E+005   -4.11712E+005   -3.39978E+003   -4.11712E+005    6.04336E+005    7.41622E+004   -4.41448E+005    1.25057E+004   -3.43526E+003   -2.31557E+005   -2.72356E+003    2.76409E+005    2.92023E+003
            1136    5.30976E+005    1.92773E+005   -4.08550E+005   -4.23884E+003   -4.08550E+005    6.01324E+005    7.33387E+004   -4.36581E+005    1.25578E+004   -4.31561E+003   -2.28258E+005    4.83095E+003    2.75439E+005   -4.15271E+003
            1137    5.22332E+005    1.92593E+005   -3.99108E+005   -2.02944E+003   -3.99108E+005    5.91702E+005    6.95148E+004   -4.28550E+005    1.13451E+004   -2.55609E+003   -2.17334E+005    1.09046E+004    2.72526E+005   -1.08774E+004
            1138    5.17809E+005    1.48728E+005   -4.27895E+005   -2.63353E+003   -4.27895E+005    5.76623E+005    9.39334E+004   -4.63981E+005   -7.07165E+004   -1.71314E+003   -2.09371E+005   -3.51986E+004    2.77201E+005    1.05539E+004
            1139    5.31293E+005    1.52303E+005   -4.41515E+005   -1.11597E+004   -4.41515E+005    5.93817E+005    1.00124E+005   -4.69510E+005   -5.89121E+004   -1.17442E+004   -2.29715E+005   -3.10070E+004    2.82409E+005    1.49185E+004
            1140    5.45266E+005    1.57244E+005   -4.53067E+005   -1.39124E+004   -4.53067E+005    6.10311E+005    1.03245E+005   -4.78990E+005   -4.54723E+004   -1.52228E+004   -2.49040E+005   -2.56878E+004    2.86277E+005    1.78752E+004
            1141    5.61263E+005    1.61681E+005   -4.67554E+005   -1.85356E+004   -4.67554E+005    6.29235E+005    1.08136E+005   -4.89520E+005   -3.24445E+004   -1.99439E+004   -2.72020E+005   -2.25252E+004    2.89755E+005    1.89114E+004
            1142    5.77388E+005    1.64555E+005   -4.82082E+005   -1.81510E+004   -4.82082E+005    6.46637E+005    1.11893E+005   -5.05943E+005   -2.46605E+004   -1.91460E+004   -2.91872E+005   -1.73356E+004    2.93684E+005    1.65065E+004
            1143    5.88468E+005    1.66763E+005   -4.92325E+005   -1.96126E+004   -4.92325E+005    6.59087E+005    1.15058E+005   -5.15510E+005   -1.92641E+004   -1.99910E+004   -3.05919E+005   -1.03891E+004    2.96469E+005    1.04153E+004
            1144    5.92530E+005    1.68048E+005   -4.95459E+005   -1.90986E+004   -4.95459E+005    6.63507E+005    1.15503E+005   -5.19515E+005   -1.66189E+004   -1.91241E+004   -3.10766E+005   -2.14192E+003    2.97356E+005    2.82288E+003
            1145    5.88666E+005    1.69101E+005   -4.90324E+005   -1.77931E+004   -4.90324E+005    6.59425E+005    1.13005E+005   -5.15287E+005   -1.60167E+004   -1.79195E+004   -3.05080E+005    6.32139E+003    2.96248E+005   -6.02603E+003
            1146    5.76677E+005    1.68090E+005   -4.78463E+005   -1.72278E+004   -4.78463E+005    6.46553E+005    1.09200E+005   -5.02829E+005   -1.86262E+004   -1.78315E+004   -2.91143E+005    1.41163E+004    2.92677E+005   -1.28643E+004
            1147    5.47007E+005    1.29439E+005   -4.73791E+005   -9.99651E+003   -4.73791E+005    6.03230E+005    1.18116E+005   -5.04647E+005   -9.44964E+004   -9.16811E+003   -2.50683E+005   -3.53833E+004    2.88652E+005    1.28843E+004
            1148    5.43902E+005    1.41583E+005   -4.62520E+005   -1.17291E+004   -4.62520E+005    6.04104E+005    1.10889E+005   -4.91651E+005   -6.07943E+004   -1.17061E+004   -2.60166E+005   -3.40541E+004    2.82657E+005    1.54969E+004
            1149    5.64944E+005    1.44023E+005   -4.84825E+005   -2.01499E+004   -4.84825E+005    6.28847E+005    1.20317E+005   -5.06963E+005   -5.14654E+004   -2.16013E+004   -2.87885E+005   -3.13899E+004    2.89249E+005    2.13293E+004
            1150    5.95004E+005    1.48933E+005   -5.13681E+005   -2.50918E+004   -5.13681E+005    6.62614E+005    1.29947E+005   -5.33077E+005   -4.27285E+004   -2.67356E+004   -3.20376E+005   -2.57173E+004    2.99319E+005    2.22630E+004
            1151    6.23270E+005    1.51986E+005   -5.42244E+005   -3.08179E+004   -5.42244E+005    6.94230E+005    1.40359E+005   -5.58002E+005   -3.75902E+004   -3.18701E+004   -3.51616E+005   -2.01864E+004    3.08637E+005    1.85383E+004
            1152    6.44048E+005    1.55326E+005   -5.62338E+005   -3.46368E+004   -5.62338E+005    7.17664E+005    1.47216E+005   -5.75773E+005   -3.36870E+004   -3.50144E+004   -3.72947E+005   -1.11546E+004    3.15907E+005    1.13205E+004
            1153    6.51590E+005    1.57169E+005   -5.69049E+005   -3.55712E+004   -5.69049E+005    7.26218E+005    1.49150E+005   -5.82082E+005   -3.13426E+004   -3.55808E+004   -3.80528E+005   -1.61328E+003    3.18373E+005    1.82101E+003
            1154    6.44161E+005    1.56676E+005   -5.61483E+005   -3.46867E+004   -5.61483E+005    7.18159E+005    1.46498E+005   -5.74797E+005   -3.11416E+004   -3.48285E+004   -3.73524E+005    8.68540E+003    3.15480E+005   -7.23691E+003
            1155    6.24671E+005    1.55863E+005   -5.40173E+005   -2.82519E+004   -5.40173E+005    6.96036E+005    1.37521E+005   -5.58554E+005   -3.18339E+004   -2.89895E+004   -3.51738E+005    1.76423E+004    3.08374E+005   -1.57022E+004
            1156    5.75962E+005    1.12943E+005   -5.16168E+005   -1.48063E+004   -5.16168E+005    6.29111E+005    1.39344E+005   -5.42695E+005   -1.26018E+005   -1.32466E+004   -2.78767E+005   -3.73562E+004    3.02090E+005    1.28573E+004
            1157    6.02975E+005    1.11685E+005   -5.50415E+005   -3.28256E+004   -5.50415E+005    6.62100E+005    1.57185E+005   -5.61997E+005   -1.29885E+005   -3.35818E+004   -3.08090E+005   -3.09433E+004    3.17047E+005    1.78538E+004
            1158    6.22099E+005    1.12187E+005   -5.70745E+005   -3.63810E+004   -5.70745E+005    6.82932E+005    1.64980E+005   -5.80135E+005   -1.19829E+005   -3.80250E+004   -3.37084E+005   -2.98078E+004    3.22025E+005    2.29350E+004
            1159    6.51007E+005    1.09555E+005   -6.06876E+005   -5.15459E+004   -6.06876E+005    7.16432E+005    1.82956E+005   -6.03665E+005   -1.19823E+005   -5.31669E+004   -3.75877E+005   -2.82055E+004    3.33021E+005    2.33803E+004
            1160    6.83425E+005    1.10542E+005   -6.43310E+005   -6.42691E+004   -6.43310E+005    7.53852E+005    1.99012E+005   -6.30111E+005   -1.19654E+005   -6.54166E+004   -4.11966E+005   -2.17195E+004    3.46509E+005    2.00637E+004
            1161    7.06392E+005    1.09933E+005   -6.70373E+005   -7.44735E+004   -6.70373E+005    7.80306E+005    2.11638E+005   -6.48840E+005   -1.20805E+005   -7.48707E+004   -4.39238E+005   -1.21295E+004    3.55891E+005    1.20439E+004
            1162    7.15325E+005    1.11074E+005   -6.79430E+005   -7.67695E+004   -6.79430E+005    7.90504E+005    2.15042E+005   -6.56308E+005   -1.19423E+005   -7.67730E+004   -4.48929E+005   -6.11115E+002    3.59275E+005    1.41126E+003
            1163    7.07696E+005    1.12388E+005   -6.69640E+005   -7.33042E+004   -6.69640E+005    7.82028E+005    2.10186E+005   -6.49406E+005   -1.16944E+005   -7.35997E+004   -4.40013E+005    1.06564E+004    3.55861E+005   -1.04260E+004
            1164    6.83401E+005    1.13628E+005   -6.41167E+005   -6.43954E+004   -6.41167E+005    7.54795E+005    1.97312E+005   -6.27976E+005   -1.13596E+005   -6.52540E+004   -4.13085E+005    2.08764E+004    3.45583E+005   -1.76837E+004
            1165    6.84260E+005    4.88636E+004   -7.00854E+005   -1.09999E+005   -7.00854E+005    7.49717E+005    2.53996E+005   -6.40767E+005   -2.08945E+005   -1.10596E+005   -4.42448E+005    2.65178E+004    3.55006E+005   -1.68642E+004
            1166    7.14327E+005    3.87993E+004   -7.45962E+005   -1.33638E+005   -7.45962E+005    7.84762E+005    2.80267E+005   -6.65037E+005   -2.24180E+005   -1.33854E+005   -4.82767E+005    1.46702E+004    3.70110E+005   -9.82050E+003
            1167    7.27072E+005    3.47706E+004   -7.64485E+005   -1.42314E+005   -7.64485E+005    7.99256E+005    2.90676E+005   -6.75948E+005   -2.30353E+005   -1.42314E+005   -4.99362E+005    5.25636E+000    3.76312E+005   -1.28278E+002
            1168    7.13717E+005    3.80848E+004   -7.45575E+005   -1.32840E+005   -7.45575E+005    7.83660E+005    2.80110E+005   -6.65288E+005   -2.25101E+005   -1.33118E+005   -4.82111E+005   -1.45635E+004    3.69805E+005    1.05276E+004
            1169    6.82318E+005    4.64216E+004   -7.00592E+005   -1.10205E+005   -7.00592E+005    7.47013E+005    2.54792E+005   -6.39969E+005   -2.11353E+005   -1.10739E+005   -4.42284E+005   -2.63394E+004    3.54014E+005    1.64483E+004
            1170    6.43610E+005    6.02242E+004   -6.41316E+005   -7.81409E+004   -6.41316E+005    7.01540E+005    2.19744E+005   -6.08783E+005   -1.91642E+005   -7.83711E+004   -3.89219E+005   -3.47919E+004    3.34322E+005    1.86379E+004
            1171    6.01522E+005    7.18478E+004   -5.80348E+005   -4.73466E+004   -5.80348E+005    6.52196E+005    1.85282E+005   -5.74043E+005   -1.72723E+005   -4.60667E+004   -3.37057E+005   -3.92452E+004    3.12272E+005    1.63825E+004
            1172    5.73789E+005    8.24412E+004   -5.33324E+005   -1.36437E+004   -5.33324E+005    6.15766E+005    1.54842E+005   -5.55255E+005   -1.55354E+005   -1.27418E+004   -2.96431E+005   -3.44996E+004    2.96943E+005    1.61039E+004
            1173    5.93170E+005    8.98026E+004   -5.47391E+005   -1.12189E+004   -5.47391E+005    6.37193E+005    1.56269E+005   -5.73335E+005   -1.62848E+005   -1.20841E+004   -2.93874E+005   -3.31321E+004    3.09651E+005    2.04472E+004
            1174    4.24241E+005    2.27978E+005   -2.61616E+005   -2.54061E+003   -2.61616E+005    4.89594E+005    1.20594E+004   -1.97449E+005   -1.12134E+004   -1.23812E+003   -2.37265E+004   -7.39106E+003    2.43736E+005   -2.01146E+004
            1175    4.36296E+005    2.04291E+005   -2.96698E+005   -2.52662E+002   -2.96698E+005    5.00989E+005    3.08864E+004   -2.95688E+005   -2.93962E+004    3.03307E+003   -6.62960E+004   -2.14995E+004    2.48121E+005   -1.48994E+004
            1176    4.59088E+005    1.80669E+005   -3.41095E+005    9.24846E+002   -3.41095E+005    5.21764E+005    5.31671E+004   -3.66343E+005   -5.26080E+004    4.98572E+003   -1.11879E+005   -3.18684E+004    2.56448E+005   -7.63871E+003
            1177    4.83990E+005    1.61458E+005   -3.80629E+005    8.11062E+003   -3.80629E+005    5.42087E+005    7.03537E+004   -4.23932E+005   -7.20756E+004    1.16222E+004   -1.50608E+005   -3.95951E+004    2.64437E+005    2.31139E+003
            1178    5.18940E+005    1.39248E+005   -4.33257E+005    6.21759E+003   -4.33257E+005    5.72505E+005    9.59305E+004   -4.78267E+005   -9.85890E+004    9.76982E+003   -1.98972E+005   -4.37758E+004    2.77274E+005    8.39923E+003
            1179    5.42175E+005    1.22214E+005   -4.70858E+005   -6.77662E+002   -4.70858E+005    5.93072E+005    1.16441E+005   -5.09404E+005   -1.19895E+005    2.36953E+003   -2.31796E+005   -4.51092E+004    2.86490E+005    1.24865E+004
            1180    5.84336E+005    1.02567E+005   -5.29524E+005   -9.04135E+003   -5.29524E+005    6.32091E+005    1.45333E+005   -5.59597E+005   -1.49241E+005   -9.50017E+003   -2.77257E+005   -4.41975E+004    3.05604E+005    2.31159E+004
            1181    5.19383E+005    3.09144E+005    3.09144E+005    1.04451E+003   -2.90512E+005    5.99656E+005   -6.55859E+003    1.88439E+005    9.50144E+001    8.36683E+002    1.87441E+004   -6.41478E+003    2.99575E+005    4.66958E+003
            1182    5.26352E+005    3.11335E+005    3.11335E+005   -3.04204E+003   -2.96322E+005    6.07657E+005   -3.99051E+003    2.06165E+005   -5.15235E+003   -2.92961E+003    2.00535E+004   -4.96410E+003    3.03507E+005   -3.61854E+003
            1183    5.33755E+005    3.16514E+005    3.16514E+005    7.26295E+001   -2.99739E+005    6.16253E+005   -5.61591E+003    1.92239E+005   -5.82662E+003    2.52988E+002    2.24214E+004   -4.01581E+003    3.07700E+005   -6.94988E+003
            1184    5.40404E+005    3.19776E+005    3.19776E+005   -2.62964E+003   -3.04112E+005    6.23888E+005   -4.34496E+003    2.09243E+005   -7.93974E+003   -2.50053E+003    2.34752E+004   -2.75931E+003    3.11454E+005   -7.24989E+003
            1185    5.29170E+005    3.45237E+005    3.45237E+005    5.57216E+002   -2.64044E+005    6.09281E+005   -2.72498E+004    3.21975E+005    1.97320E+004    1.62932E+002    6.18545E+004   -1.86090E+004    3.03312E+005    1.28901E+003
            1186    5.37248E+005    3.51020E+005    3.51020E+005    4.72172E+003   -2.67880E+005    6.18900E+005   -2.92873E+004    3.16509E+005    1.36677E+004    4.99922E+003    6.91948E+004   -1.41066E+004    3.07862E+005   -4.50775E+003
            1187    5.45527E+005    3.55204E+005    3.55204E+005    1.59596E+003   -2.73065E+005    6.28269E+005   -2.79117E+004    3.27094E+005    6.78204E+003    2.09307E+003    7.48601E+004   -1.10551E+004    3.12009E+005   -8.33784E+003
            1188    5.53386E+005    3.61996E+005    3.61996E+005    4.46331E+003   -2.75425E+005    6.37421E+005   -3.03448E+004    3.28448E+005    4.34765E+003    4.80410E+003    8.18825E+004   -8.07100E+003    3.16169E+005   -7.66241E+003
            1189    5.41213E+005    3.70891E+005    3.70891E+005    1.03422E+003   -2.50290E+005    6.21181E+005   -4.05449E+004    3.71439E+005    2.16986E+004    5.10003E+002    9.94262E+004   -2.98057E+004    3.06646E+005   -2.14873E+003
            1190    5.48810E+005    3.71982E+005    3.71982E+005   -1.32629E+003   -2.58151E+005    6.30133E+005   -3.75014E+004    3.72857E+005    6.24902E+003   -7.65501E+002    1.07021E+005   -2.29941E+004    3.10114E+005   -7.79846E+003
            1191    5.58896E+005    3.79918E+005    3.79918E+005    2.99601E+003   -2.62207E+005    6.42126E+005   -4.02357E+004    3.72408E+005   -1.07512E+003    3.69051E+003    1.18092E+005   -1.87715E+004    3.14852E+005   -9.25340E+003
            1192    5.69134E+005    3.87073E+005    3.87073E+005    9.72600E+002   -2.66530E+005    6.53603E+005   -4.05054E+004    3.84376E+005   -7.22556E+003    1.59074E+003    1.27151E+005   -1.34829E+004    3.19437E+005   -9.96507E+003
            1193    5.68988E+005    4.19601E+005    4.19601E+005   -4.43735E+002   -2.27936E+005    6.47537E+005   -6.37405E+004    4.48037E+005    4.95074E+004   -6.17902E+002    1.42332E+005   -3.87631E+004    3.17940E+005   -8.17514E+003
            1194    5.79502E+005    4.27185E+005    4.27185E+005    9.52096E+003   -2.34406E+005    6.61591E+005   -6.74333E+004    4.39502E+005    3.48991E+004    9.90842E+003    1.57492E+005   -2.97371E+004    3.23632E+005   -8.93627E+003
            1195    5.89939E+005    4.32176E+005    4.32176E+005    8.09472E+003   -2.41540E+005    6.73716E+005   -6.62436E+004    4.45492E+005    2.09183E+004    9.08477E+003    1.68728E+005   -2.43394E+004    3.27635E+005   -1.26306E+004
            1196    6.03820E+005    4.45573E+005    4.45573E+005    1.12992E+004   -2.43955E+005    6.89528E+005   -7.09721E+004    4.56349E+005    1.47421E+004    1.20850E+004    1.86089E+005   -1.86957E+004    3.33318E+005   -1.19077E+004
            1197    5.84643E+005    4.47742E+005    4.47742E+005    2.95098E+003   -2.14458E+005    6.62200E+005   -7.87450E+004    4.80161E+005    5.65754E+004    1.72977E+003    1.77930E+005   -4.52767E+004    3.21999E+005   -8.48487E+003
            1198    5.87632E+005    4.44207E+005    4.44207E+005    6.02839E+003   -2.23559E+005    6.67766E+005   -7.55585E+004    4.69520E+005    3.59709E+004    6.58898E+003    1.84116E+005   -3.58844E+004    3.23428E+005   -1.24778E+004
            1199    6.05438E+005    4.60681E+005    4.60681E+005    1.21627E+004   -2.27990E+005    6.88671E+005   -8.16179E+004    4.79204E+005    2.58924E+004    1.34410E+004    2.05520E+005   -3.22850E+004    3.30657E+005   -1.59913E+004
            1200    6.26402E+005    4.79025E+005    4.79025E+005    1.19774E+004   -2.32809E+005    7.11833E+005   -8.60645E+004    5.00435E+005    1.81494E+004    1.31401E+004    2.26904E+005   -2.44341E+004    3.39210E+005   -1.58116E+004
            1201    6.19262E+005    5.02655E+005    5.02655E+005    9.29388E+003   -1.92280E+005    6.94935E+005   -1.06556E+005    5.37657E+005    9.95834E+004    7.71820E+003    2.12367E+005   -4.38763E+004    3.39602E+005   -8.19339E+003
            1202    6.27462E+005    5.09284E+005    5.09284E+005    2.23478E+004   -1.98811E+005    7.08095E+005   -1.10941E+005    5.28446E+005    8.16501E+004    2.31441E+004    2.28027E+005   -3.99670E+004    3.43889E+005   -1.55459E+004
            1203    6.45439E+005    5.24866E+005    5.24866E+005    2.12048E+004   -2.02712E+005    7.27578E+005   -1.14453E+005    5.47218E+005    6.86587E+004    2.27582E+004    2.51942E+005   -3.56109E+004    3.50021E+005   -1.94066E+004
            1204    6.69284E+005    5.50290E+005    5.50290E+005    2.91426E+004   -2.04494E+005    7.54785E+005   -1.24980E+005    5.65976E+005    6.46331E+004    3.04301E+004    2.79875E+005   -3.02786E+004    3.60247E+005   -1.82101E+004
            1205    5.81527E+005    4.76006E+005    4.76006E+005    1.36716E+004   -1.76895E+005    6.52901E+005   -1.04261E+005    5.03733E+005    1.00135E+005    1.36458E+004    1.99001E+005   -5.38791E+004    3.17732E+005   -1.63225E+004
            1206    6.12114E+005    5.09958E+005    5.09958E+005    8.86351E+003   -1.72287E+005    6.82244E+005   -1.15512E+005    5.46748E+005    1.03287E+005    1.01683E+004    2.33079E+005   -4.58990E+004    3.31402E+005   -2.06533E+004
            1207    6.37400E+005    5.41039E+005    5.41039E+005    2.79816E+004   -1.72500E+005    7.13539E+005   -1.32174E+005    5.59578E+005    1.01163E+005    2.91210E+004    2.66236E+005   -4.63656E+004    3.43617E+005   -2.06525E+004
            1208    6.74409E+005    5.83538E+005    5.83538E+005    4.05739E+004   -1.71390E+005    7.54927E+005   -1.50907E+005    5.92204E+005    1.06272E+005    4.17835E+004    3.04667E+005   -3.83894E+004    3.61896E+005   -1.98888E+004
            1209    6.84547E+005    6.43026E+005    6.43026E+005    7.44131E+004   -1.16796E+005    7.59822E+005   -2.00214E+005    6.20064E+005    1.95871E+005    7.41494E+004    3.30622E+005   -4.58901E+004    3.70652E+005   -1.59445E+004
            1210    6.56417E+005    5.95759E+005    5.95759E+005    4.46839E+004   -1.30467E+005    7.26226E+005   -1.69992E+005    6.00376E+005    1.75327E+005    4.26046E+004    2.92044E+005   -5.24672E+004    3.53706E+005   -1.38200E+004
            1211    6.24724E+005    5.50125E+005    5.50125E+005    2.41932E+004   -1.40423E+005    6.90548E+005   -1.44632E+005    5.72801E+005    1.57597E+005    1.83161E+004    2.57982E+005   -5.49682E+004    3.35478E+005   -6.33385E+003
            1212    6.28583E+005    5.39126E+005    5.39126E+005   -1.31766E+004   -1.44871E+005    6.83997E+005   -1.27026E+005    5.96347E+005    1.44663E+005   -1.69686E+004    2.53383E+005   -3.73785E+004    3.34339E+005   -4.44952E+003
            1213    5.12295E+005    3.09468E+005    3.09468E+005   -3.81629E+002   -2.81852E+005    5.91320E+005   -9.07817E+003    2.23476E+005    9.15475E+003   -1.45921E+003    1.95390E+004   -9.13041E+003    2.94981E+005    1.65743E+004
            1214    5.21552E+005    3.41841E+005    3.41841E+005    4.27895E+003   -2.58860E+005    6.00701E+005   -2.90867E+004    3.11276E+005    2.86108E+004    1.44107E+003    5.72083E+004   -2.66954E+004    2.98350E+005    1.30026E+004
            1215    5.39334E+005    3.77591E+005    3.77591E+005   -1.67671E+003   -2.39825E+005    6.17417E+005   -4.53630E+004    3.91852E+005    4.75713E+004   -4.77487E+003    9.32926E+004   -4.10884E+004    3.04703E+005    4.46658E+003
            1216    5.59439E+005    4.15863E+005    4.15863E+005    2.22528E+002   -2.20215E+005    6.36078E+005   -6.52899E+004    4.44662E+005    6.91531E+004   -3.16532E+003    1.29882E+005   -5.18187E+004    3.11769E+005   -1.52577E+003
            1217    5.87929E+005    4.58522E+005    4.58522E+005   -5.15498E+003   -2.02750E+005    6.61272E+005   -8.35388E+004    5.04678E+005    9.07256E+004   -6.90773E+003    1.66799E+005   -5.87544E+004    3.22556E+005   -1.19748E+004
            1218    6.18619E+005    5.10364E+005    5.10364E+005    9.67162E+003   -1.81197E+005    6.91560E+005   -1.12946E+005    5.46232E+005    1.19755E+005    6.71160E+003    2.12372E+005   -6.05487E+004    3.36368E+005   -1.20348E+004
            1219    6.32880E+005    5.39297E+005    5.39297E+005    6.86540E+003   -1.60420E+005    6.99718E+005   -1.28581E+005    5.79927E+005    1.35627E+005    6.15898E+003    2.43956E+005   -4.07684E+004    3.42807E+005   -1.26350E+004
            1220    7.17103E+005    6.92172E+005    6.92172E+005    9.86091E+004   -1.04608E+005    7.96780E+005   -2.28724E+005    6.47411E+005    2.16366E+005    9.91890E+004    3.70617E+005   -3.41646E+004    3.89189E+005   -1.56246E+004
            1221    7.40213E+005    7.28187E+005    7.28187E+005    1.19530E+005   -9.58214E+004    8.24008E+005   -2.50632E+005    6.64055E+005    2.31806E+005    1.19749E+005    4.00340E+005   -1.89818E+004    4.02798E+005   -9.09939E+003
            1222    7.50378E+005    7.43292E+005    7.43292E+005    1.27334E+005   -9.24311E+004    8.35723E+005   -2.59398E+005    6.72049E+005    2.38029E+005    1.27334E+005    4.12832E+005   -4.15975E+002    4.08619E+005   -2.84470E+002
            1223    7.40594E+005    7.29194E+005    7.29194E+005    1.19660E+005   -9.50250E+004    8.24219E+005   -2.51276E+005    6.64993E+005    2.33382E+005    1.19950E+005    4.00497E+005    1.83389E+004    4.03088E+005    9.67129E+003
            1224    7.16060E+005    6.92927E+005    6.92927E+005    9.97613E+004   -1.02512E+005    7.95439E+005   -2.30059E+005    6.46949E+005    2.19191E+005    1.00263E+005    3.70723E+005    3.41171E+004    3.88772E+005    1.51713E+004
            1225    6.85807E+005    6.45525E+005    6.45525E+005    7.23257E+004   -1.14269E+005    7.59794E+005   -2.01194E+005    6.24757E+005    2.00171E+005    7.24212E+004    3.30989E+005    4.53018E+004    3.71097E+005    1.72121E+004
            1226    6.54196E+005    5.97220E+005    5.97220E+005    4.57121E+004   -1.25581E+005    7.22801E+005   -1.72450E+005    6.00554E+005    1.80223E+005    4.37648E+004    2.93364E+005    5.13523E+004    3.52431E+005    1.38671E+004
            1227    6.40017E+005    5.67608E+005    5.67608E+005    1.95153E+004   -1.35760E+005    7.03369E+005   -1.50454E+005    5.95384E+005    1.65312E+005    1.73392E+004    2.68712E+005    4.63407E+004    3.43934E+005    1.18336E+004
            1228    6.36124E+005    5.57950E+005    5.57950E+005    2.14301E+004   -1.44779E+005    7.02729E+005   -1.44867E+005    5.84200E+005    1.57403E+005    2.07554E+004    2.56443E+005    5.21097E+004    3.43312E+005    1.73614E+004
            1229    7.03474E+005    6.18946E+005    6.18946E+005    5.65428E+004   -1.69851E+005    7.88797E+005   -1.68546E+005    6.13098E+005    1.09999E+005    5.73180E+004    3.38321E+005   -2.83275E+004    3.76290E+005   -1.58360E+004
            1230    6.92878E+005    5.74143E+005    5.74143E+005    3.38078E+004   -2.07012E+005    7.81155E+005   -1.33646E+005    5.86991E+005    6.21071E+004    3.45455E+004    3.04287E+005   -2.11742E+004    3.70606E+005   -1.41863E+004
            1231    6.45167E+005    4.97575E+005    4.97575E+005    1.64419E+004   -2.35560E+005    7.33135E+005   -9.28190E+004    5.15571E+005    1.41276E+004    1.69887E+004    2.47341E+005   -1.72932E+004    3.47004E+005   -1.12399E+004
            1232    6.15219E+005    4.55004E+005    4.55004E+005    1.02957E+004   -2.47111E+005    7.02115E+005   -7.27295E+004    4.68836E+005    9.21975E+003    1.06897E+004    1.98279E+005   -1.21098E+004    3.37812E+005   -8.86371E+003
            1233    5.77829E+005    3.95163E+005    3.95163E+005    2.82531E+003   -2.68381E+005    6.63544E+005   -4.32025E+004    3.91003E+005   -1.01877E+004    3.08105E+003    1.36714E+005   -8.88170E+003    3.23376E+005   -6.47694E+003
            1234    5.59015E+005    3.65741E+005    3.65741E+005    2.49397E+003   -2.77982E+005    6.43723E+005   -3.00844E+004    3.37710E+005    1.76974E+003    2.64299E+003    8.58405E+004   -4.78104E+003    3.19030E+005   -5.59198E+003
            1235    5.45235E+005    3.23323E+005    3.23323E+005   -6.65185E+002   -3.06169E+005    6.29492E+005   -5.49627E+003    2.01976E+005   -8.16993E+003   -6.08519E+002    2.52673E+004   -1.85268E+003    3.14261E+005   -4.74671E+003
            1236    7.26562E+005    6.46098E+005    6.46098E+005    6.45459E+004   -1.68358E+005    8.14456E+005   -1.80762E+005    6.34036E+005    1.14767E+005    6.48053E+004    3.62713E+005   -1.44855E+004    3.87580E+005   -9.06472E+003
            1237    7.07897E+005    5.91084E+005    5.91084E+005    3.89345E+004   -2.06974E+005    7.98058E+005   -1.41015E+005    5.99847E+005    6.30533E+004    3.90834E+004    3.20907E+005   -1.04050E+004    3.77456E+005   -6.59140E+003
            1238    6.58077E+005    5.09716E+005    5.09716E+005    1.68049E+004   -2.37582E+005    7.47299E+005   -9.63129E+004    5.29147E+005    1.23262E+004    1.69124E+004    2.59700E+005   -7.13305E+003    3.52493E+005   -5.11512E+003
            1239    6.22007E+005    4.62525E+005    4.62525E+005    1.14439E+004   -2.47048E+005    7.09573E+005   -7.56405E+004    4.76508E+005    8.14107E+003    1.14934E+004    2.07287E+005   -4.78190E+003    3.40486E+005   -3.13811E+003
            1240    5.82594E+005    3.98960E+005    3.98960E+005    1.34670E+003   -2.69787E+005    6.68747E+005   -4.35063E+004    3.98708E+005   -1.17394E+004    1.37722E+003    1.40881E+005   -2.74753E+003    3.25532E+005   -2.38644E+003
            1241    5.61815E+005    3.68885E+005    3.68885E+005    3.76111E+003   -2.78058E+005    6.46943E+005   -3.15296E+004    3.39562E+005    1.60248E+003    3.77304E+003    8.92132E+004   -1.56783E+003    3.20485E+005   -1.42597E+003
            1242    5.47403E+005    3.24202E+005    3.24202E+005   -2.24510E+003   -3.07769E+005    6.31972E+005   -4.72918E+003    2.11043E+005   -8.97272E+003   -2.24191E+003    2.54022E+004   -3.88943E+002    3.15515E+005   -1.26862E+003
            1243    7.33609E+005    6.55134E+005    6.55134E+005    6.82483E+004   -1.67322E+005    8.22456E+005   -1.85354E+005    6.39824E+005    1.16694E+005    6.82511E+004    3.71116E+005    7.21531E+002    3.91056E+005    1.07948E+003
            1244    7.12711E+005    5.96681E+005    5.96681E+005    4.06165E+004   -2.06758E+005    8.03438E+005   -1.43513E+005    6.04133E+005    6.38945E+004    4.06256E+004    3.26019E+005    2.04675E+003    3.79731E+005    1.61215E+003
            1245    6.61620E+005    5.13948E+005    5.13948E+005    1.84565E+004   -2.37392E+005    7.51340E+005   -9.83374E+004    5.31885E+005    1.26034E+004    1.84813E+004    2.63927E+005    2.60731E+003    3.54015E+005    2.58635E+003
            1246    6.23453E+005    4.63978E+005    4.63978E+005    1.14831E+004   -2.47172E+005    7.11150E+005   -7.60961E+004    4.78232E+005    7.76417E+003    1.15149E+004    2.09009E+005    3.23787E+003    3.41020E+005    2.61280E+003
            1247    5.83276E+005    4.00124E+005    4.00124E+005    2.30457E+003   -2.69440E+005    6.69564E+005   -4.43294E+004    3.98612E+005   -1.17313E+004    2.34234E+003    1.42377E+005    2.68387E+003    3.25774E+005    2.84679E+003
            1248    5.61666E+005    3.68669E+005    3.68669E+005    3.07518E+003   -2.78052E+005    6.46720E+005   -3.12307E+004    3.41048E+005    1.27279E+003    3.10591E+003    8.93133E+004    2.08649E+003    3.20334E+005    2.63367E+003
            1249    5.47098E+005    3.24245E+005    3.24245E+005   -1.39153E+003   -3.07388E+005    6.31633E+005   -5.15511E+003    2.06566E+005   -8.76019E+003   -1.38147E+003    2.56070E+004    5.72169E+002    3.15337E+005    2.65784E+003
            1250    7.24694E+005    6.45746E+005    6.45746E+005    6.52379E+004   -1.66464E+005    8.12210E+005   -1.81507E+005    6.32937E+005    1.16994E+005    6.55913E+004    3.61935E+005    1.63323E+004    3.86792E+005    1.04683E+004
            1251    7.05769E+005    5.90378E+005    5.90378E+005    3.85594E+004   -2.04888E+005    7.95266E+005   -1.41350E+005    5.99762E+005    6.60409E+004    3.89420E+004    3.19067E+005    1.41800E+004    3.76639E+005    1.03623E+004
            1252    6.55314E+005    5.08629E+005    5.08629E+005    1.74925E+004   -2.35462E+005    7.44091E+005   -9.68867E+004    5.27368E+005    1.50249E+004    1.78579E+004    2.57777E+005    1.30468E+004    3.51384E+005    9.38112E+003
            1253    6.18997E+005    4.60677E+005    4.60677E+005    1.11453E+004   -2.45336E+005    7.06013E+005   -7.54955E+004    4.75272E+005    1.02137E+004    1.14754E+004    2.04798E+005    1.07246E+004    3.39111E+005    8.27950E+003
            1254    5.79523E+005    3.97274E+005    3.97274E+005    1.90723E+003   -2.67968E+005    6.65241E+005   -4.37378E+004    3.96280E+005   -1.01441E+004    2.18882E+003    1.39169E+005    8.64174E+003    3.23969E+005    7.08400E+003
            1255    5.58629E+005    3.66713E+005    3.66713E+005    3.25673E+003   -2.76525E+005    6.43237E+005   -3.11483E+004    3.38759E+005    2.45753E+003    3.44032E+003    8.75470E+004    5.19642E+003    3.18699E+005    6.31132E+003
            1256    5.44305E+005    3.22311E+005    3.22311E+005   -1.69382E+003   -3.06096E+005    6.28407E+005   -4.84058E+003    2.05733E+005   -8.57795E+003   -1.61976E+003    2.47195E+004    1.94017E+003    3.13702E+005    5.88386E+003
            1257    7.00857E+005    6.18563E+005    6.18563E+005    5.54554E+004   -1.66362E+005    7.84925E+005   -1.69219E+005    6.14098E+005    1.14863E+005    5.64995E+004    3.36294E+005    2.97217E+004    3.75162E+005    1.77743E+004
            1258    6.88590E+005    5.73491E+005    5.73491E+005    3.53699E+004   -2.02497E+005    7.75988E+005   -1.35455E+005    5.84820E+005    6.85072E+004    3.64057E+004    3.01451E+005    2.47869E+004    3.69103E+005    1.66492E+004
            1259    6.40548E+005    4.94914E+005    4.94914E+005    1.57739E+004   -2.32632E+005    7.27546E+005   -9.26851E+004    5.14085E+005    1.83802E+004    1.66980E+004    2.42977E+005    2.13963E+004    3.45193E+005    1.44958E+004
            1260    6.10175E+005    4.53143E+005    4.53143E+005    1.16189E+004   -2.43125E+005    6.96268E+005   -7.38789E+004    4.65782E+005    1.42896E+004    1.23479E+004    1.94999E+005    1.76022E+004    3.35638E+005    1.17594E+004
            1261    5.72142E+005    3.90965E+005    3.90965E+005    1.69124E+003   -2.65945E+005    6.56910E+005   -4.22372E+004    3.88918E+005   -7.97659E+003    2.29060E+003    1.32398E+005    1.34270E+004    3.20492E+005    9.86967E+003
            1262    5.53491E+005    3.63002E+005    3.63002E+005    3.61706E+003   -2.74385E+005    6.37387E+005   -3.07444E+004    3.33606E+005    4.45712E+003    4.00612E+003    8.37700E+004    8.34417E+003    3.16019E+005    8.43202E+003
            1263    5.39657E+005    3.19087E+005    3.19087E+005   -1.84561E+003   -3.03960E+005    6.23047E+005   -4.42727E+003    2.01796E+005   -8.28531E+003   -1.70578E+003    2.32729E+004    2.78450E+003    3.11018E+005    7.71352E+003
            1264    6.68514E+005    5.81469E+005    5.81469E+005    4.22618E+004   -1.66519E+005    7.47989E+005   -1.52404E+005    5.88165E+005    1.11579E+005    4.37134E+004    3.01919E+005    4.03044E+004    3.59135E+005    2.12124E+004
            1265    6.65855E+005    5.50365E+005    5.50365E+005    2.87975E+004   -1.99641E+005    7.50006E+005   -1.26507E+005    5.67068E+005    7.30882E+004    3.03754E+004    2.76058E+005    3.24715E+004    3.59314E+005    1.99147E+004
            1266    6.21574E+005    4.78138E+005    4.78138E+005    1.36007E+004   -2.27953E+005    7.06091E+005   -8.79284E+004    4.98236E+005    2.54487E+004    1.49014E+004    2.23435E+005    2.91085E+004    3.37435E+005    1.65909E+004
            1267    5.98141E+005    4.42716E+005    4.42716E+005    9.38953E+003   -2.39721E+005    6.82436E+005   -7.07948E+004    4.57465E+005    2.08336E+004    1.03881E+004    1.81163E+005    2.29732E+004    3.30747E+005    1.31552E+004
            1268    5.63024E+005    3.84293E+005    3.84293E+005    1.69955E+003   -2.62210E+005    6.46503E+005   -4.12609E+004    3.81668E+005   -2.66696E+003    2.51768E+003    1.23932E+005    1.78837E+004    3.16384E+005    1.06861E+004
            1269    5.46703E+005    3.57654E+005    3.57654E+005    2.81762E+003   -2.71928E+005    6.29582E+005   -2.95146E+004    3.29119E+005    7.16124E+003    3.32232E+003    7.80602E+004    1.07444E+004    3.12516E+005    8.65731E+003
            1270    5.33814E+005    3.15877E+005    3.15877E+005   -1.25504E+003   -3.00431E+005    6.16308E+005   -4.73031E+003    1.97230E+005   -6.93683E+003   -1.06691E+003    2.21947E+004    3.77633E+003    3.07693E+005    7.67525E+003
            1271    6.36757E+005    5.43821E+005    5.43821E+005    2.72524E+004   -1.67595E+005    7.11415E+005   -1.34493E+005    5.63593E+005    1.09976E+005    2.89280E+004    2.64574E+005    4.50373E+004    3.43947E+005    2.21891E+004
            1272    6.44960E+005    5.29599E+005    5.29599E+005    2.60644E+004   -1.97367E+005    7.26966E+005   -1.19432E+005    5.47132E+005    7.99404E+004    2.73309E+004    2.51025E+005    3.85248E+004    3.50946E+005    1.82090E+004
            1273    6.01667E+005    4.59188E+005    4.59188E+005    8.92574E+003   -2.24148E+005    6.83336E+005   -8.13219E+004    4.83191E+005    3.18828E+004    9.99368E+003    2.02089E+005    3.53092E+004    3.28826E+005    1.53734E+004
            1274    5.86586E+005    4.33984E+005    4.33984E+005    9.07035E+003   -2.35275E+005    6.69260E+005   -6.92598E+004    4.48558E+005    3.01460E+004    9.98884E+003    1.67644E+005    2.85225E+004    3.26146E+005    1.21885E+004
            1275    5.52904E+005    3.75575E+005    3.75575E+005   -1.69869E+002   -2.59304E+005    6.34879E+005   -3.87004E+004    3.74870E+005    2.04756E+003    5.56430E+002    1.13497E+005    2.20771E+004    3.11662E+005    9.15267E+003
            1276    5.39758E+005    3.53616E+005    3.53616E+005    3.59251E+003   -2.67997E+005    6.21612E+005   -2.97372E+004    3.24072E+005    1.21443E+004    4.04460E+003    7.30226E+004    1.33820E+004    3.08977E+005    6.73716E+003
            1277    5.27481E+005    3.11162E+005    3.11162E+005   -2.15720E+003   -2.97835E+005    6.08997E+005   -3.72319E+003    1.94517E+005   -6.55377E+003   -2.00269E+003    1.97260E+004    4.63650E+003    3.04137E+005    5.19744E+003
            1278    6.13065E+005    5.15438E+005    5.15438E+005    2.00485E+004   -1.70196E+005    6.85634E+005   -1.21763E+005    5.40413E+005    1.10203E+005    2.06341E+004    2.34453E+005    5.14340E+004    3.32781E+005    1.90925E+004
            1279    6.28428E+005    5.14142E+005    5.14142E+005    1.74304E+004   -1.92341E+005    7.06483E+005   -1.13077E+005    5.40801E+005    9.23817E+004    1.76112E+004    2.29238E+005    4.30136E+004    3.43606E+005    1.44087E+004
            1280    5.89057E+005    4.50823E+005    4.50823E+005    6.41528E+003   -2.17323E+005    6.68146E+005   -7.99717E+004    4.78388E+005    4.61894E+004    6.81457E+003    1.86911E+005    4.04791E+004    3.23867E+005    1.30251E+004
            1281    5.74931E+005    4.25011E+005    4.25011E+005    5.15455E+003   -2.30267E+005    6.55277E+005   -6.66328E+004    4.45316E+005    4.09882E+004    5.53791E+003    1.53372E+005    3.35141E+004    3.20950E+005    9.63416E+003
            1282    5.45581E+005    3.73249E+005    3.73249E+005    5.83170E+002   -2.52968E+005    6.26218E+005   -4.02881E+004    3.74059E+005    1.34563E+004    8.32706E+002    1.06575E+005    2.58113E+004    3.08517E+005    5.93216E+003
            1283    5.32634E+005    3.47696E+005    3.47696E+005    1.98177E+003   -2.65684E+005    6.13380E+005   -2.79981E+004    3.20675E+005    1.57610E+004    2.06939E+003    6.61639E+004    1.61476E+004    3.05221E+005    2.52689E+003
            1284    5.21742E+005    3.09951E+005    3.09951E+005   -5.78656E+002   -2.92408E+005    6.02359E+005   -5.65463E+003    1.96888E+005   -2.51089E+003   -5.75667E+002    2.00504E+004    5.46624E+003    3.00919E+005    2.69624E+002
            1285    6.16035E+005    5.17738E+005    5.17738E+005    1.33279E+004   -1.68836E+005    6.86574E+005   -1.20743E+005    5.50365E+005    1.24576E+005    1.07832E+004    2.26871E+005    5.14365E+004    3.34761E+005    1.02175E+004
            1286    6.10304E+005    4.96154E+005    4.96154E+005    8.75219E+003   -1.88343E+005    6.84497E+005   -1.05521E+005    5.31285E+005    9.84464E+004    7.55476E+003    2.10562E+005    5.40487E+004    3.32724E+005    1.37819E+004
            1287    5.84164E+005    4.51369E+005    4.51369E+005    3.55490E+002   -2.08520E+005    6.59889E+005   -8.10681E+004    4.88882E+005    6.89354E+004   -6.99003E+002    1.74968E+005    4.81747E+004    3.21714E+005    1.01897E+004
            1288    5.63905E+005    4.16530E+005    4.16530E+005    1.25000E+002   -2.25197E+005    6.41728E+005   -6.38194E+004    4.44214E+005    5.10013E+004   -6.80584E+002    1.41137E+005    4.20968E+004    3.14687E+005    6.72588E+003
            1289    5.40726E+005    3.74110E+005    3.74110E+005   -1.09089E+003   -2.45696E+005    6.19807E+005   -4.24410E+004    3.82956E+005    3.02237E+004   -1.95156E+003    9.90509E+004    3.19092E+004    3.06234E+005    1.22786E+003
            1290    5.25847E+005    3.42655E+005    3.42655E+005    1.89852E+003   -2.62957E+005    6.05612E+005   -2.71986E+004    3.15023E+005    1.95134E+004    1.04152E+003    6.10409E+004    2.03696E+004    3.01321E+005   -4.24103E+003
            1291    5.17060E+005    3.09814E+005    3.09814E+005   -5.44921E+002   -2.87078E+005    5.96891E+005   -7.39706E+003    2.12148E+005    4.08811E+003   -8.98925E+002    1.90020E+004    6.73304E+003    2.98174E+005   -7.54420E+003
            1292    5.11676E+005    3.09552E+005    3.09552E+005    1.83756E+003   -2.81108E+005    5.90660E+005   -1.00941E+004    2.13413E+005    9.70863E+003    6.09801E+002    1.99638E+004    9.69356E+003    2.94556E+005   -1.78840E+004
            1293    5.22155E+005    3.43365E+005    3.43365E+005    1.34402E+003   -2.57660E+005    6.01024E+005   -2.90163E+004    3.22894E+005    3.03086E+004   -1.67780E+003    5.84180E+004    2.71805E+004    2.98430E+005   -1.33633E+004
            1294    5.38407E+005    3.79190E+005    3.79190E+005    2.73981E+002   -2.37117E+005    6.16307E+005   -4.74490E+004    3.91750E+005    5.01525E+004   -3.60266E+003    9.57970E+004    4.15023E+004    3.03945E+005   -6.84893E+003
            1295    5.59321E+005    4.17113E+005    4.17113E+005   -2.99920E+003   -2.17761E+005    6.34874E+005   -6.54510E+004    4.51490E+005    7.23234E+004   -6.68423E+003    1.30714E+005    5.17118E+004    3.11207E+005    1.17714E+003
            1296    5.80231E+005    4.55455E+005    4.55455E+005   -8.70671E+002   -1.97552E+005    6.53008E+005   -8.56775E+004    4.96467E+005    9.48712E+004   -4.88471E+003    1.67046E+005    5.85414E+004    3.18279E+005    6.36659E+003
            1297    6.02662E+005    4.94499E+005    4.94499E+005    7.50688E+003   -1.79498E+005    6.73997E+005   -1.07502E+005    5.31253E+005    1.20859E+005    3.79107E+003    1.97858E+005    6.12650E+004    3.28120E+005    1.01022E+004
            1298    6.21299E+005    5.31339E+005    5.31339E+005    1.64746E+004   -1.58757E+005    6.90096E+005   -1.29685E+005    5.61536E+005    1.44596E+005    1.47470E+004    2.29714E+005    6.23508E+004    3.35811E+005    1.71734E+004
            1299    6.29359E+005    1.44995E+005   -5.39519E+005    1.41006E+004   -5.39519E+005    6.84514E+005    1.26808E+005   -5.97572E+005   -1.44450E+005    1.76994E+004   -2.53672E+005    3.66555E+004    3.34697E+005   -4.59645E+003
            1300    6.23524E+005    1.40622E+005   -5.48523E+005   -2.34186E+004   -5.48523E+005    6.89145E+005    1.43773E+005   -5.71876E+005   -1.56931E+005   -1.73990E+004   -2.56990E+005    5.46614E+004    3.34799E+005   -5.88730E+003
            1301    6.55420E+005    1.30908E+005   -5.94184E+005   -4.38703E+004   -5.94184E+005    7.25091E+005    1.69049E+005   -5.99537E+005   -1.74492E+005   -4.16758E+004   -2.90979E+005    5.26420E+004    3.53093E+005   -1.36177E+004
            1302    6.83909E+005    1.17023E+005   -6.42187E+005   -7.43464E+004   -6.42187E+005    7.59209E+005    1.99837E+005   -6.19240E+005   -1.95442E+005   -7.40110E+004   -3.30058E+005    4.59851E+004    3.70331E+005   -1.57077E+004
            1303    6.73887E+005    1.72094E+005   -5.82317E+005   -3.99696E+004   -5.82317E+005    7.54411E+005    1.50064E+005   -5.91520E+005   -1.05112E+005   -4.12075E+004   -3.03874E+005    3.85163E+004    3.61560E+005   -2.00419E+004
            1304    6.67976E+005    2.05422E+005   -5.48057E+005   -2.85119E+004   -5.48057E+005    7.53479E+005    1.23716E+005   -5.64105E+005   -6.32040E+004   -2.98009E+004   -2.78142E+005    3.02175E+004    3.59615E+005   -1.81710E+004
            1305    6.25032E+005    2.33459E+005   -4.76971E+005   -1.16094E+004   -4.76971E+005    7.10430E+005    8.50403E+004   -4.98322E+005   -1.72685E+004   -1.27671E+004   -2.25085E+005    2.43128E+004    3.38628E+005   -1.57261E+004
            1306    6.02908E+005    2.44442E+005   -4.44150E+005   -1.10934E+004   -4.44150E+005    6.88592E+005    7.02669E+004   -4.54676E+005   -1.43320E+004   -1.18544E+004   -1.84614E+005    1.84669E+004    3.32987E+005   -1.16736E+004
            1307    5.68320E+005    2.66953E+005   -3.85790E+005   -8.22474E+002   -3.85790E+005    6.52743E+005    3.98864E+004   -3.82524E+005    7.53166E+003   -1.43048E+003   -1.25760E+005    1.33579E+004    3.19118E+005   -9.85672E+003
            1308    5.52997E+005    2.75731E+005   -3.61287E+005   -4.54752E+003   -3.61287E+005    6.37018E+005    3.00347E+004   -3.26639E+005   -4.41974E+003   -4.88672E+003   -8.07976E+004    8.01798E+003    3.16038E+005   -7.65141E+003
            1309    5.40281E+005    3.04374E+005   -3.19380E+005    2.58753E+003   -3.19380E+005    6.23754E+005    4.13945E+003   -2.06708E+005    7.93975E+003    2.46005E+003   -2.28181E+004    2.72051E+003    3.11403E+005   -7.25123E+003
            1310    6.36416E+005    1.73056E+005   -5.39458E+005   -2.74191E+004   -5.39458E+005    7.12514E+005    1.31274E+005   -5.58454E+005   -1.00278E+005   -2.85937E+004   -2.64950E+005    4.61949E+004    3.43161E+005   -2.06935E+004
            1311    6.44364E+005    2.03535E+005   -5.23029E+005   -2.08794E+004   -5.23029E+005    7.26564E+005    1.13458E+005   -5.45432E+005   -6.76325E+004   -2.24282E+004   -2.50313E+005    3.55199E+004    3.49585E+005   -1.93104E+004
            1312    6.03753E+005    2.28631E+005   -4.58300E+005   -1.18151E+004   -4.58300E+005    6.86930E+005    8.04947E+004   -4.76637E+005   -2.51363E+004   -1.30733E+004   -2.03275E+005    3.21146E+004    3.29974E+005   -1.57862E+004
            1313    5.89055E+005    2.42155E+005   -4.30674E+005   -7.88022E+003   -4.30674E+005    6.72830E+005    6.54664E+004   -4.43680E+005   -2.04673E+004   -8.86647E+003   -1.67065E+005    2.41284E+004    3.27333E+005   -1.25574E+004
            1314    5.58192E+005    2.62531E+005   -3.78850E+005   -2.91943E+003   -3.78850E+005    6.41381E+005    3.97462E+004   -3.70748E+005    1.29536E+003   -3.60411E+003   -1.16930E+005    1.86048E+004    3.14572E+005   -9.15772E+003
            1315    5.45311E+005    2.73358E+005   -3.54698E+005   -1.63252E+003   -3.54698E+005    6.28055E+005    2.76576E+004   -3.25816E+005   -6.79802E+003   -2.11673E+003   -7.40582E+004    1.08992E+004    3.11953E+005   -8.21926E+003
            1316    5.33575E+005    2.99945E+005   -3.16106E+005   -1.02453E+002   -3.16106E+005    6.16051E+005    5.42130E+003   -1.89568E+005    5.84662E+003   -2.78629E+002   -2.18319E+004    3.93758E+003    3.07614E+005   -6.91277E+003
            1317    6.11650E+005    1.72572E+005   -5.09192E+005   -8.57770E+003   -5.09192E+005    6.81764E+005    1.15066E+005   -5.46226E+005   -1.02805E+005   -9.94422E+003   -2.32448E+005    4.57916E+004    3.31188E+005   -2.08138E+004
            1318    6.25986E+005    1.99432E+005   -5.07177E+005   -2.20103E+004   -5.07177E+005    7.06608E+005    1.09918E+005   -5.26375E+005   -8.06996E+004   -2.27615E+004   -2.26294E+005    4.01104E+004    3.43190E+005   -1.53251E+004
            1319    5.86442E+005    2.24145E+005   -4.42398E+005   -5.66008E+003   -4.42398E+005    6.66543E+005    7.46378E+004   -4.67722E+005   -3.53086E+004   -6.19800E+003   -1.82407E+005    3.57046E+004    3.22940E+005   -1.22748E+004
            1320    5.78718E+005    2.34809E+005   -4.25989E+005   -9.43014E+003   -4.25989E+005    6.60798E+005    6.68704E+004   -4.37970E+005   -3.46153E+004   -9.79054E+003   -1.56205E+005    2.96037E+004    3.23336E+005   -8.71773E+003
            1321    5.48420E+005    2.58441E+005   -3.71290E+005    1.39620E+003   -3.71290E+005    6.29731E+005    3.71507E+004   -3.71804E+005   -5.97255E+003    8.30985E+002   -1.06311E+005    2.28324E+004    3.09957E+005   -7.80352E+003
            1322    5.37055E+005    2.67938E+005   -3.50753E+005   -4.75586E+003   -3.50753E+005    6.18691E+005    2.91901E+004   -3.15874E+005   -1.36619E+004   -5.03185E+003   -6.88765E+004    1.40828E+004    3.07773E+005   -4.48534E+003
            1323    5.26240E+005    2.96433E+005   -3.11098E+005    3.02627E+003   -3.11098E+005    6.07532E+005    3.87957E+003   -2.04891E+005    5.20059E+003    2.91587E+003   -1.97552E+004    4.87266E+003    3.03451E+005   -3.61264E+003
            1324    5.80808E+005    1.76985E+005   -4.75228E+005   -1.38402E+004   -4.75228E+005    6.52214E+005    1.04028E+005   -5.02657E+005   -1.00005E+005   -1.37143E+004   -1.98364E+005    5.38515E+004    3.17419E+005   -1.59840E+004
            1325    6.18752E+005    1.92448E+005   -5.01928E+005   -9.01667E+003   -5.01928E+005    6.94377E+005    1.06166E+005   -5.37162E+005   -9.90307E+004   -7.41448E+003   -2.12052E+005    4.38989E+004    3.39290E+005   -8.12576E+003
            1326    5.83782E+005    2.14789E+005   -4.46533E+005   -2.77089E+003   -4.46533E+005    6.61322E+005    7.81714E+004   -4.78921E+005   -5.61090E+004   -1.53513E+003   -1.76870E+005    4.53270E+004    3.21597E+005   -8.40813E+003
            1327    5.68362E+005    2.28317E+005   -4.18600E+005    5.64007E+002   -4.18600E+005    6.46917E+005    6.32395E+004   -4.46879E+005   -4.91011E+004    7.21534E+002   -1.41339E+005    3.86377E+004    3.17685E+005   -8.16168E+003
            1328    5.40696E+005    2.50579E+005   -3.70085E+005   -1.14437E+003   -3.70085E+005    6.20663E+005    4.02169E+004   -3.69866E+005   -2.14825E+004   -6.19216E+002   -9.85489E+004    2.95966E+004    3.06447E+005   -2.04692E+003
            1329    5.29004E+005    2.64100E+005   -3.45004E+005   -5.86152E+002   -3.45004E+005    6.09104E+005    2.71634E+004   -3.21450E+005   -1.96614E+004   -1.82559E+002   -6.16461E+004    1.84208E+004    3.03239E+005    1.42181E+003
            1330    5.19414E+005    2.90426E+005   -3.09264E+005   -1.05127E+003   -3.09264E+005    5.99690E+005    6.63001E+003   -1.89180E+005   -8.43971E+001   -8.42259E+002   -1.89634E+004    6.39638E+003    2.99588E+005    4.70995E+003
            1331    5.12392E+005    2.81327E+005   -3.10088E+005    3.25753E+002   -3.10088E+005    5.91416E+005    9.47843E+003   -2.26178E+005   -9.57630E+003    1.44593E+003   -2.03049E+004    9.53006E+003    2.95016E+005    1.64858E+004
            1332    5.21627E+005    2.58742E+005   -3.42040E+005   -4.35407E+003   -3.42040E+005    6.00782E+005    2.92172E+004   -3.11535E+005   -2.87792E+004   -1.48481E+003   -5.73875E+004    2.68005E+004    2.98374E+005    1.30959E+004
            1333    5.39294E+005    2.40012E+005   -3.77384E+005    1.70426E+003   -3.77384E+005    6.17395E+005    4.52226E+004   -3.91533E+005   -4.74012E+004    4.78670E+003   -9.30532E+004    4.08168E+004    3.04734E+005    4.54322E+003
            1334    5.58958E+005    2.20484E+005   -4.15121E+005   -1.63627E+002   -4.15121E+005    6.35605E+005    6.49337E+004   -4.43775E+005   -6.87270E+004    3.27788E+003   -1.29352E+005    5.14959E+004    3.11581E+005   -1.21713E+003
            1335    5.86985E+005    2.03085E+005   -4.57252E+005    5.27331E+003   -4.57252E+005    6.60337E+005    8.29645E+004   -5.03359E+005   -9.01963E+004    7.06708E+003   -1.65764E+005    5.85809E+004    3.22140E+005   -1.17445E+004
            1336    6.17453E+005    1.81532E+005   -5.08873E+005   -9.54562E+003   -5.08873E+005    6.90404E+005    1.12296E+005   -5.44726E+005   -1.19196E+005   -6.56642E+003   -2.11125E+005    6.07521E+004    3.35784E+005   -1.20035E+004
            1337    6.33760E+005    1.60352E+005   -5.40268E+005   -6.92664E+003   -5.40268E+005    7.00620E+005    1.28948E+005   -5.80897E+005   -1.36039E+005   -6.22832E+003   -2.44576E+005    4.13893E+004    3.43166E+005   -1.29534E+004
            1338    5.17072E+005    2.86727E+005   -3.10169E+005    5.22446E+002   -3.10169E+005    5.96896E+005    7.63988E+003   -2.14093E+005   -4.28860E+003    8.92349E+002   -1.95234E+004   -7.00030E+003    2.98165E+005   -7.56780E+003
            1339    5.21881E+005    2.91794E+005   -3.10711E+005    5.89349E+002   -3.10711E+005    6.02505E+005    6.10939E+003   -2.01703E+005    2.26240E+003    5.88955E+002   -2.11795E+004   -5.77981E+003    3.00969E+005    2.19269E+002
            1340    5.27661E+005    2.96954E+005   -3.12232E+005    2.15259E+003   -3.12232E+005    6.09186E+005    4.37513E+003   -2.01447E+005    6.31932E+003    1.98545E+003   -2.14302E+004   -4.99658E+003    3.04193E+005    5.24921E+003
            1341    5.34115E+005    2.99489E+005   -3.17143E+005    1.27392E+003   -3.17143E+005    6.16633E+005    5.46009E+003   -2.05203E+005    6.83452E+003    1.07107E+003   -2.42859E+004   -4.10156E+003    3.07804E+005    7.66393E+003
            1342    5.39890E+005    3.03115E+005   -3.20182E+005    1.83721E+003   -3.20182E+005    6.23296E+005    5.07658E+003   -2.08501E+005    8.25005E+003    1.68696E+003   -2.51667E+004   -2.99428E+003    3.11092E+005    7.74291E+003
            1343    5.44536E+005    3.05541E+005   -3.23119E+005    1.68825E+003   -3.23119E+005    6.28660E+005    5.29659E+003   -2.10411E+005    8.59835E+003    1.61144E+003   -2.60996E+004   -2.03043E+003    3.13791E+005    5.85131E+003
            1344    5.47194E+005    3.07089E+005   -3.24648E+005    1.36563E+003   -3.24648E+005    6.31737E+005    5.39789E+003   -2.08845E+005    8.75979E+003    1.35543E+003   -2.63089E+004   -5.79061E+002    3.15370E+005    2.66384E+003
            1345    5.47473E+005    3.07737E+005   -3.24315E+005    2.19965E+003   -3.24315E+005    6.32052E+005    4.79288E+003   -2.11245E+005    8.94323E+003    2.19628E+003   -2.55182E+004    4.07211E+002    3.15553E+005   -1.28299E+003
            1346    5.45142E+005    3.06287E+005   -3.23103E+005    6.18201E+002   -3.23103E+005    6.29390E+005    5.39943E+003   -2.00370E+005    8.15159E+003    5.61012E+002   -2.49109E+004    1.85807E+003    3.14220E+005   -4.77358E+003
            1347    5.26039E+005    2.62409E+005   -3.43372E+005   -1.88980E+003   -3.43372E+005    6.05781E+005    2.76174E+004   -3.16840E+005   -1.99153E+004   -1.01500E+003   -6.19218E+004   -2.07372E+004    3.01363E+005   -4.19004E+003
            1348    5.32919E+005    2.64912E+005   -3.48715E+005   -1.91694E+003   -3.48715E+005    6.13627E+005    2.85732E+004   -3.23361E+005   -1.60337E+004   -2.00300E+003   -6.76829E+004   -1.66062E+004    3.05268E+005    2.58113E+003
            1349    5.40466E+005    2.67090E+005   -3.55229E+005   -3.53348E+003   -3.55229E+005    6.22318E+005    3.05575E+004   -3.27901E+005   -1.22378E+004   -4.00341E+003   -7.54312E+004   -1.38596E+004    3.09195E+005    6.86672E+003
            1350    5.47602E+005    2.71068E+005   -3.59443E+005   -2.83414E+003   -3.59443E+005    6.30511E+005    3.04029E+004   -3.32978E+005   -7.13208E+003   -3.35653E+003   -8.07201E+004   -1.11100E+004    3.12815E+005    8.75972E+003
            1351    5.54411E+005    2.73679E+005   -3.64674E+005   -3.64767E+003   -3.64674E+005    6.38353E+005    3.15477E+004   -3.37073E+005   -4.39918E+003   -4.04175E+003   -8.62023E+004   -8.53639E+003    3.16343E+005    8.42117E+003
            1352    5.59220E+005    2.76006E+005   -3.67848E+005   -3.31724E+003   -3.67848E+005    6.43854E+005    3.17197E+004   -3.41025E+005   -2.42629E+003   -3.50004E+003   -8.92328E+004   -5.23963E+003    3.18896E+005    6.26227E+003
            1353    5.61955E+005    2.77810E+005   -3.69214E+005   -3.11443E+003   -3.69214E+005    6.47024E+005    3.15062E+004   -3.42103E+005   -1.27832E+003   -3.14354E+003   -9.00966E+004   -2.04371E+003    3.20434E+005    2.55361E+003
            1354    5.61710E+005    2.78061E+005   -3.68769E+005   -3.79695E+003   -3.68769E+005    6.46830E+005    3.15016E+004   -3.39263E+005   -1.56125E+003   -3.81017E+003   -8.91335E+004    1.64544E+003    3.20430E+005   -1.50385E+003
            1355    5.58752E+005    2.78156E+005   -3.65293E+005   -2.53062E+003   -3.65293E+005    6.43449E+005    2.98889E+004   -3.36668E+005   -1.85783E+003   -2.68356E+003   -8.51253E+004    4.81737E+003    3.18942E+005   -5.68237E+003
            1356    5.41362E+005    2.45034E+005   -3.75362E+005    1.19557E+003   -3.75362E+005    6.20397E+005    4.30443E+004   -3.85245E+005   -3.08713E+004    2.06113E+003   -1.00323E+005   -3.23836E+004    3.06445E+005    1.41379E+003
            1357    5.47023E+005    2.52051E+005   -3.75638E+005   -6.50645E+002   -3.75638E+005    6.27690E+005    4.14127E+004   -3.77915E+005   -1.42494E+004   -9.16781E+002   -1.09072E+005   -2.63359E+004    3.09087E+005    6.18865E+003
            1358    5.54876E+005    2.58241E+005   -3.78695E+005   -4.75461E+001   -3.78695E+005    6.36936E+005    4.01673E+004   -3.79635E+005   -2.71864E+003   -7.94161E+002   -1.16989E+005   -2.25163E+004    3.12421E+005    9.39395E+003
            1359    5.65136E+005    2.61356E+005   -3.87385E+005   -1.94484E+003   -3.87385E+005    6.48741E+005    4.26578E+004   -3.86200E+005    2.35781E+003   -2.76984E+003   -1.27562E+005   -1.80956E+004    3.17179E+005    1.08087E+004
            1360    5.73848E+005    2.65336E+005   -3.93393E+005   -1.90767E+003   -3.93393E+005    6.58729E+005    4.33216E+004   -3.92378E+005    7.86216E+003   -2.49768E+003   -1.35329E+005   -1.34294E+004    3.21114E+005    9.82377E+003
            1361    5.80593E+005    2.67712E+005   -3.98680E+005   -2.01080E+003   -3.98680E+005    6.66393E+005    4.43262E+004   -3.98253E+005    1.02069E+004   -2.27800E+003   -1.40908E+005   -8.47186E+003    3.24358E+005    6.90551E+003
            1362    5.83564E+005    2.69356E+005   -4.00522E+005   -2.38433E+003   -4.00522E+005    6.69879E+005    4.45168E+004   -3.99074E+005    1.17665E+004   -2.41675E+003   -1.42900E+005   -2.48021E+003    3.25873E+005    2.64306E+003
            1363    5.82313E+005    2.69926E+005   -3.98533E+005   -1.37066E+003   -3.98533E+005    6.68459E+005    4.33259E+004   -3.97953E+005    1.17967E+004   -1.40541E+003   -1.40369E+005    2.93956E+003    3.25435E+005   -2.54033E+003
            1364    5.76949E+005    2.68693E+005   -3.93917E+005   -2.77627E+003   -3.93917E+005    6.62610E+005    4.26665E+004   -3.89069E+005    1.03628E+004   -3.04068E+003   -1.35322E+005    8.98000E+003    3.23031E+005   -6.57941E+003
            1365    5.65067E+005    2.24421E+005   -4.18417E+005   -1.98736E+002   -4.18417E+005    6.42838E+005    6.47315E+004   -4.46635E+005   -5.18040E+004    5.94047E+002   -1.42985E+005   -4.24582E+004    3.15124E+005    6.98965E+003
            1366    5.76702E+005    2.29241E+005   -4.27791E+005   -5.37986E+003   -4.27791E+005    6.57032E+005    6.79766E+004   -4.48759E+005   -4.17734E+004   -5.78382E+003   -1.56372E+005   -3.39161E+004    3.21603E+005    9.94010E+003
            1367    5.89247E+005    2.34245E+005   -4.37769E+005   -9.51233E+003   -4.37769E+005    6.72014E+005    7.10118E+004   -4.52984E+005   -3.08184E+004   -1.04613E+004   -1.71756E+005   -2.87907E+004    3.27163E+005    1.25344E+004
            1368    6.00932E+005    2.38912E+005   -4.46464E+005   -9.89412E+003   -4.46464E+005    6.85376E+005    7.24818E+004   -4.61666E+005   -2.13400E+004   -1.08990E+004   -1.85206E+005   -2.30216E+004    3.31825E+005    1.33245E+004
            1369    6.12409E+005    2.42675E+005   -4.55980E+005   -1.20159E+004   -4.55980E+005    6.98654E+005    7.51069E+004   -4.68889E+005   -1.45898E+004   -1.27226E+004   -1.98008E+005   -1.73634E+004    3.36524E+005    1.16472E+004
            1370    6.20064E+005    2.45087E+005   -4.62070E+005   -1.14033E+004   -4.62070E+005    7.07157E+005    7.61286E+004   -4.76696E+005   -1.04145E+004   -1.17120E+004   -2.06259E+005   -1.03813E+004    3.39539E+005    8.02652E+003
            1371    6.23544E+005    2.47192E+005   -4.64065E+005   -1.15251E+004   -4.64065E+005    7.11257E+005    7.61326E+004   -4.78267E+005   -7.77868E+003   -1.15508E+004   -2.09068E+005   -2.89792E+003    3.41073E+005    2.35487E+003
            1372    6.21142E+005    2.47208E+005   -4.61455E+005   -1.13869E+004   -4.61455E+005    7.08662E+005    7.52113E+004   -4.75190E+005   -8.02237E+003   -1.14429E+004   -2.06169E+005    4.99608E+003    3.40153E+005   -3.33655E+003
            1373    6.14290E+005    2.47459E+005   -4.53694E+005   -1.01632E+004   -4.53694E+005    7.01153E+005    7.21325E+004   -4.67258E+005   -9.04169E+003   -1.05559E+004   -1.96800E+005    1.21023E+004    3.37495E+005   -8.82021E+003
            1374    5.85572E+005    2.07783E+005   -4.53498E+005   -6.89304E+002   -4.53498E+005    6.61281E+005    8.21347E+004   -4.91011E+005   -6.98916E+004    3.66544E+002   -1.76879E+005   -4.83857E+004    3.22309E+005    1.03592E+004
            1375    5.91649E+005    2.16362E+005   -4.54483E+005   -7.15051E+003   -4.54483E+005    6.70845E+005    8.17574E+004   -4.81908E+005   -4.74005E+004   -7.60196E+003   -1.90270E+005   -4.06504E+004    3.24998E+005    1.34046E+004
            1376    6.04798E+005    2.23258E+005   -4.63388E+005   -9.74896E+003   -4.63388E+005    6.86645E+005    8.32931E+004   -4.87258E+005   -3.28181E+004   -1.08523E+004   -2.06209E+005   -3.53195E+004    3.30123E+005    1.56949E+004
            1377    6.24502E+005    2.27440E+005   -4.81798E+005   -1.43159E+004   -4.81798E+005    7.09238E+005    8.95578E+004   -5.01727E+005   -2.59492E+004   -1.56136E+004   -2.27111E+005   -2.88135E+004    3.38637E+005    1.66795E+004
            1378    6.42347E+005    2.32568E+005   -4.96949E+005   -1.61593E+004   -4.96949E+005    7.29517E+005    9.35136E+004   -5.15988E+005   -1.83282E+004   -1.70501E+004   -2.45162E+005   -2.09479E+004    3.45898E+005    1.42890E+004
            1379    6.55790E+005    2.35767E+005   -5.08896E+005   -1.75328E+004   -5.08896E+005    7.44663E+005    9.68874E+004   -5.27556E+005   -1.45696E+004   -1.78721E+004   -2.58220E+005   -1.25256E+004    3.51555E+005    9.04891E+003
            1380    6.60849E+005    2.37824E+005   -5.12745E+005   -1.82672E+004   -5.12745E+005    7.50569E+005    9.77295E+004   -5.30608E+005   -1.19019E+004   -1.82877E+004   -2.62999E+005   -2.24672E+003    3.53649E+005    2.38671E+003
            1381    6.56802E+005    2.38179E+005   -5.07786E+005   -1.63071E+004   -5.07786E+005    7.45965E+005    9.53050E+004   -5.27403E+005   -1.14517E+004   -1.64187E+004   -2.58044E+005    7.33732E+003    3.51918E+005   -5.19783E+003
            1382    6.43709E+005    2.36165E+005   -4.95444E+005   -1.59605E+004   -4.95444E+005    7.31609E+005    9.17463E+004   -5.13545E+005   -1.32115E+004   -1.64980E+004   -2.45530E+005    1.72241E+004    3.46353E+005   -1.11129E+004
            1383    6.11234E+005    1.87731E+005   -4.97725E+005   -9.33120E+003   -4.97725E+005    6.85457E+005    1.06442E+005   -5.32392E+005   -9.92367E+004   -8.18328E+003   -2.11905E+005   -5.39936E+004    3.33184E+005    1.39387E+004
            1384    6.30285E+005    1.91414E+005   -5.16984E+005   -1.82576E+004   -5.16984E+005    7.08398E+005    1.14609E+005   -5.43075E+005   -9.35178E+004   -1.85142E+004   -2.31796E+005   -4.30180E+004    3.44449E+005    1.47769E+004
            1385    6.47647E+005    1.96532E+005   -5.33302E+005   -2.71277E+004   -5.33302E+005    7.29834E+005    1.21299E+005   -5.50111E+005   -8.11640E+004   -2.84441E+004   -2.54290E+005   -3.83830E+004    3.52193E+005    1.85046E+004
            1386    6.68144E+005    1.99387E+005   -5.53132E+005   -2.95543E+004   -5.53132E+005    7.52520E+005    1.27766E+005   -5.69296E+005   -7.35821E+004   -3.11310E+004   -2.78586E+005   -3.21665E+004    3.60364E+005    1.99571E+004
            1387    6.89870E+005    2.02836E+005   -5.74645E+005   -3.56939E+004   -5.74645E+005    7.77481E+005    1.35835E+005   -5.85688E+005   -6.82769E+004   -3.67057E+004   -3.02521E+005   -2.43129E+004    3.69717E+005    1.64689E+004
            1388    7.05630E+005    2.05714E+005   -5.89504E+005   -3.81593E+004   -5.89504E+005    7.95219E+005    1.40650E+005   -5.99172E+005   -6.49148E+004   -3.85293E+004   -3.18505E+005   -1.37987E+004    3.76535E+005    1.01849E+004
            1389    7.11892E+005    2.07882E+005   -5.94765E+005   -3.97909E+004   -5.94765E+005    8.02647E+005    1.42225E+005   -6.02853E+005   -6.23469E+004   -3.97987E+004   -3.24528E+005   -1.87881E+003    3.79304E+005    1.49474E+003
            1390    7.06701E+005    2.08065E+005   -5.88793E+005   -3.80865E+004   -5.88793E+005    7.96859E+005    1.39605E+005   -5.98170E+005   -6.13573E+004   -3.82392E+004   -3.19218E+005    1.04961E+004    3.76818E+005   -6.66059E+003
            1391    6.91838E+005    2.07810E+005   -5.72305E+005   -3.32354E+004   -5.72305E+005    7.80115E+005    1.32577E+005   -5.85519E+005   -6.08876E+004   -3.39710E+004   -3.02872E+005    2.11148E+004    3.70094E+005   -1.41408E+004
            1392    6.16653E+005    1.68592E+005   -5.18678E+005   -1.37794E+004   -5.18678E+005    6.87270E+005    1.21288E+005   -5.50898E+005   -1.25059E+005   -1.13367E+004   -2.27469E+005   -5.18823E+004    3.35050E+005    1.06943E+004
            1393    6.14487E+005    1.69544E+005   -5.17609E+005   -2.08662E+004   -5.17609E+005    6.87153E+005    1.22977E+005   -5.41899E+005   -1.11050E+005   -2.14951E+004   -2.36386E+005   -5.12686E+004    3.33490E+005    1.92296E+004
            1394    6.38091E+005    1.67133E+005   -5.45771E+005   -2.81187E+004   -5.45771E+005    7.12905E+005    1.35585E+005   -5.64776E+005   -1.10578E+005   -2.98117E+004   -2.66367E+005   -4.48784E+004    3.44604E+005    2.22592E+004
            1395    6.69602E+005    1.66579E+005   -5.82687E+005   -4.27759E+004   -5.82687E+005    7.49266E+005    1.52961E+005   -5.88923E+005   -1.11556E+005   -4.42454E+004   -3.03083E+005   -3.98948E+004    3.59692E+005    2.12228E+004
            1396    7.01138E+005    1.66963E+005   -6.18358E+005   -5.52618E+004   -6.18358E+005    7.85321E+005    1.68885E+005   -6.14068E+005   -1.13943E+005   -5.63126E+004   -3.36401E+005   -2.94495E+004    3.75240E+005    1.77817E+004
            1397    7.24449E+005    1.67747E+005   -6.44307E+005   -6.43471E+004   -6.44307E+005    8.12054E+005    1.80302E+005   -6.32308E+005   -1.15148E+005   -6.47038E+004   -3.61055E+005   -1.61376E+004    3.86564E+005    1.04812E+004
            1398    7.33107E+005    1.68744E+005   -6.53264E+005   -6.71246E+004   -6.53264E+005    8.22008E+005    1.83882E+005   -6.38978E+005   -1.14611E+005   -6.71284E+004   -3.69906E+005   -8.00574E+002    3.90677E+005    1.26636E+003
            1399    7.26309E+005    1.69747E+005   -6.44538E+005   -6.35270E+004   -6.44538E+005    8.14285E+005    1.79439E+005   -6.33415E+005   -1.12744E+005   -6.37751E+004   -3.61798E+005    1.43056E+004    3.87321E+005   -8.88858E+003
            1400    7.03116E+005    1.70826E+005   -6.17654E+005   -5.57926E+004   -6.17654E+005    7.88480E+005    1.67540E+005   -6.12482E+005   -1.08564E+005   -5.65556E+004   -3.37501E+005    2.82575E+004    3.76036E+005   -1.57432E+004
            1401    7.17173E+005    1.04904E+005   -6.92089E+005   -9.88155E+004   -6.92089E+005    7.96993E+005    2.28667E+005   -6.47116E+005   -2.15825E+005   -9.93866E+004   -3.70790E+005    3.40850E+004    3.89234E+005   -1.55506E+004
            1402    7.40643E+005    9.64964E+004   -7.28108E+005   -1.19409E+005   -7.28108E+005    8.24605E+005    2.50340E+005   -6.64109E+005   -2.30895E+005   -1.19629E+005   -4.00497E+005    1.86232E+004    4.03010E+005   -9.02029E+003
            1403    7.50461E+005    9.32174E+004   -7.42659E+005   -1.26794E+005   -7.42659E+005    8.35876E+005    2.58745E+005   -6.71950E+005   -2.36799E+005   -1.26794E+005   -4.12643E+005   -2.31280E+001    4.08585E+005   -2.06246E+002
            1404    7.40013E+005    9.56298E+004   -7.27929E+005   -1.18834E+005   -7.27929E+005    8.23558E+005    2.50378E+005   -6.64512E+005   -2.32247E+005   -1.19116E+005   -3.99770E+005   -1.84927E+004    4.02700E+005    9.62379E+003
            1405    7.16024E+005    1.02883E+005   -6.92487E+005   -9.92752E+004   -6.92487E+005    7.95370E+005    2.29627E+005   -6.46995E+005   -2.18505E+005   -9.97681E+004   -3.70607E+005   -3.39212E+004    3.88700E+005    1.50880E+004
            1406    6.86511E+005    1.14225E+005   -6.46321E+005   -7.24645E+004   -6.46321E+005    7.60546E+005    2.01520E+005   -6.25467E+005   -2.00244E+005   -7.25781E+004   -3.31738E+005   -4.50007E+004    3.71465E+005    1.71906E+004
            1407    6.55409E+005    1.24999E+005   -5.99085E+005   -4.64199E+004   -5.99085E+005    7.24084E+005    1.73502E+005   -6.01796E+005   -1.80989E+005   -4.46261E+004   -2.94890E+005   -5.10441E+004    3.53101E+005    1.41680E+004
            1408    6.40931E+005    1.35318E+005   -5.69210E+005   -2.06736E+004   -5.69210E+005    7.04528E+005    1.51522E+005   -5.95933E+005   -1.66057E+005   -1.86327E+004   -2.69876E+005   -4.65029E+004    3.44498E+005    1.22486E+004
            1409    6.35902E+005    1.44673E+005   -5.57987E+005   -2.20690E+004   -5.57987E+005    7.02661E+005    1.45128E+005   -5.83601E+005   -1.57641E+005   -2.13966E+004   -2.56346E+005   -5.25148E+004    3.43235E+005    1.74643E+004
            1410    5.11483E+005    2.80940E+005   -3.09495E+005   -1.84451E+003   -3.09495E+005    5.90435E+005    1.01334E+004   -2.13637E+005   -9.72377E+003   -6.20280E+002   -2.00562E+004   -9.67710E+003    2.94445E+005   -1.78540E+004
            1411    5.22154E+005    2.57594E+005   -3.43421E+005   -1.32056E+003   -3.43421E+005    6.01015E+005    2.90493E+004   -3.23110E+005   -3.03713E+004    1.72912E+003   -5.85056E+004   -2.73129E+004    2.98408E+005   -1.34113E+004
            1412    5.38513E+005    2.36832E+005   -3.79560E+005   -3.55903E+002   -3.79560E+005    6.16392E+005    4.76945E+004   -3.92233E+005   -5.04855E+004    3.52342E+003   -9.61215E+004   -4.17105E+004    3.03961E+005   -6.74017E+003
            1413    5.59685E+005    2.17236E+005   -4.17895E+005    3.12547E+003   -4.17895E+005    6.35132E+005    6.58444E+004   -4.52727E+005   -7.29038E+004    6.80333E+003   -1.31433E+005   -5.21390E+004    3.11256E+005    1.45632E+003
            1414    5.81328E+005    1.96989E+005   -4.57118E+005    5.13422E+002   -4.57118E+005    6.54107E+005    8.65383E+004   -4.97962E+005   -9.58295E+004    4.53959E+003   -1.68325E+005   -5.89175E+004    3.18744E+005    6.56779E+003
            1415    6.03471E+005    1.78944E+005   -4.95859E+005   -7.93300E+003   -4.95859E+005    6.74803E+005    1.08283E+005   -5.32285E+005   -1.21608E+005   -4.32365E+003   -1.98917E+005   -6.12297E+004    3.28536E+005    1.03649E+004
            1416    6.21232E+005    1.58657E+005   -5.31367E+005   -1.65600E+004   -5.31367E+005    6.90024E+005    1.29757E+005   -5.61473E+005   -1.44819E+005   -1.48218E+004   -2.29628E+005   -6.25816E+004    3.35744E+005    1.72318E+004
            1417    5.98290E+005    3.59008E+005    3.59008E+005    3.15808E+003   -3.31732E+005    6.90740E+005   -1.01445E+004    2.24063E+005    9.23780E+003    2.97132E+003    1.82243E+004   -7.66611E+003    3.45229E+005    4.01614E+003
            1418    6.08808E+005    3.65619E+005    3.65619E+005    7.73497E+002   -3.37200E+005    7.02819E+005   -9.73093E+003    2.46240E+005    7.62606E+003    8.46004E+002    2.07207E+004   -5.55278E+003    3.51298E+005   -2.45934E+003
            1419    6.18349E+005    3.71530E+005    3.71530E+005    3.19665E+003   -3.42357E+005    7.13887E+005   -1.07899E+004    2.35489E+005    5.99990E+003    3.31514E+003    2.30547E+004   -4.32175E+003    3.56782E+005   -5.03232E+003
            1420    6.26329E+005    3.76172E+005    3.76172E+005    1.37942E+003   -3.46888E+005    7.23060E+005   -1.02212E+004    2.49861E+005    4.68414E+003    1.46059E+003    2.45189E+004   -2.85521E+003    3.61346E+005   -5.26967E+003
            1421    6.03071E+005    3.75802E+005    3.75802E+005   -1.55358E+003   -3.19726E+005    6.95527E+005   -1.81741E+004    3.18085E+005    9.40083E+003   -1.91183E+003    4.70333E+004   -2.24180E+004    3.46512E+005    1.18370E+003
            1422    6.13415E+005    3.80701E+005    3.80701E+005    7.05487E+002   -3.26965E+005    7.07666E+005   -1.81472E+004    3.08853E+005    1.70689E+003    9.15301E+002    5.18195E+004   -1.72951E+004    3.52512E+005   -3.39218E+003
            1423    6.23876E+005    3.86829E+005    3.86829E+005   -9.90621E+002   -3.32836E+005    7.19665E+005   -1.76675E+004    3.19426E+005   -2.90467E+003   -6.11556E+002    5.65188E+004   -1.29436E+004    3.58329E+005   -6.28202E+003
            1424    6.33064E+005    3.93328E+005    3.93328E+005    1.14799E+003   -3.37005E+005    7.30333E+005   -1.91572E+004    3.18798E+005   -5.76556E+003    1.41133E+003    6.18258E+004   -9.56734E+003    3.63437E+005   -5.78314E+003
            1425    6.18030E+005    4.13384E+005    4.13384E+005    4.38028E+003   -2.97574E+005    7.10958E+005   -4.00632E+004    3.93045E+005    3.17129E+004    3.89706E+003    8.45795E+004   -3.59553E+004    3.52625E+005   -1.76432E+003
            1426    6.30266E+005    4.19385E+005    4.19385E+005    2.66330E+003   -3.05689E+005    7.25074E+005   -3.87866E+004    3.99867E+005    2.08685E+004    3.08343E+003    9.24078E+004   -2.73312E+004    3.59710E+005   -6.17452E+003
            1427    6.42048E+005    4.27460E+005    4.27460E+005    6.77961E+003   -3.11554E+005    7.39014E+005   -4.08953E+004    3.97377E+005    1.33382E+004    7.28547E+003    1.02062E+005   -2.10516E+004    3.66195E+005   -7.13975E+003
            1428    6.52835E+005    4.34606E+005    4.34606E+005    5.47657E+003   -3.16689E+005    7.51295E+005   -4.11313E+004    4.07703E+005    7.62927E+003    5.92220E+003    1.09842E+005   -1.52510E+004    3.71797E+005   -7.57449E+003
            1429    6.28077E+005    4.32120E+005    4.32120E+005   -2.13732E+003   -2.88046E+005    7.20165E+005   -4.73123E+004    4.41655E+005    3.48195E+004   -2.34411E+003    1.09461E+005   -4.71662E+004    3.54939E+005   -6.71203E+003
            1430    6.39106E+005    4.37912E+005    4.37912E+005    3.76035E+003   -2.95972E+005    7.33884E+005   -4.85668E+004    4.32928E+005    2.15109E+004    4.11651E+003    1.20073E+005   -3.77888E+004    3.61598E+005   -7.79417E+003
            1431    6.52478E+005    4.46298E+005    4.46298E+005    4.45413E+003   -3.03120E+005    7.49418E+005   -4.92108E+004    4.38877E+005    1.22353E+004    5.30663E+003    1.30090E+005   -2.89896E+004    3.68840E+005   -1.03606E+004
            1432    6.67454E+005    4.58831E+005    4.58831E+005    7.26110E+003   -3.07841E+005    7.66672E+005   -5.27507E+004    4.48013E+005    6.25306E+003    7.94500E+003    1.44054E+005   -2.28649E+004    3.76334E+005   -9.78359E+003
            1433    6.55565E+005    4.82097E+005    4.82097E+005    8.30131E+003   -2.66078E+005    7.48175E+005   -7.47735E+004    4.99451E+005    6.75728E+004    7.18032E+003    1.49567E+005   -5.53576E+004    3.67466E+005   -7.22686E+003
            1434    6.64623E+005    4.83809E+005    4.83809E+005    9.76225E+003   -2.75885E+005    7.59693E+005   -7.25621E+004    4.95272E+005    5.10452E+004    1.01191E+004    1.56522E+005   -4.35808E+004    3.73542E+005   -1.01549E+004
            1435    6.79696E+005    4.96183E+005    4.96183E+005    1.53698E+004   -2.81439E+005    7.77622E+005   -7.67046E+004    4.99194E+005    4.08387E+004    1.63613E+004    1.72914E+005   -3.67723E+004    3.81299E+005   -1.27426E+004
            1436    6.98037E+005    5.11119E+005    5.11119E+005    1.54891E+004   -2.87168E+005    7.98287E+005   -7.98131E+004    5.16074E+005    3.38386E+004    1.63924E+004    1.89208E+005   -2.85461E+004    3.90378E+005   -1.25278E+004
            1437    6.45944E+005    4.80424E+005    4.80424E+005    3.88151E+003   -2.54762E+005    7.35186E+005   -7.65145E+004    5.08137E+005    7.18803E+004    2.16466E+003    1.55498E+005   -5.68478E+004    3.60425E+005   -7.02820E+003
            1438    6.55347E+005    4.89251E+005    4.89251E+005    1.21828E+004   -2.57991E+005    7.47242E+005   -8.11476E+004    5.05091E+005    6.36900E+004    1.32209E+004    1.66532E+005   -5.44197E+004    3.65878E+005   -1.50541E+004
            1439    6.79620E+005    5.11359E+005    5.11359E+005    1.37829E+004   -2.62974E+005    7.74333E+005   -8.73890E+004    5.28486E+005    5.73187E+004    1.53278E+004    1.89521E+005   -4.48866E+004    3.78675E+005   -1.69526E+004
            1440    7.02745E+005    5.34727E+005    5.34727E+005    2.18175E+004   -2.66285E+005    8.01012E+005   -9.67534E+004    5.43845E+005    5.39517E+004    2.30546E+004    2.13254E+005   -3.80414E+004    3.90520E+005   -1.56836E+004
            1441    6.70857E+005    5.29968E+005    5.29968E+005    2.60635E+004   -2.31503E+005    7.61471E+005   -1.08176E+005    5.41548E+005    1.12957E+005    2.39892E+004    1.87583E+005   -5.91622E+004    3.73845E+005   -6.98051E+003
            1442    6.75221E+005    5.32711E+005    5.32711E+005    1.54743E+004   -2.31152E+005    7.63863E+005   -1.05678E+005    5.59512E+005    1.00617E+005    1.55836E+004    2.00832E+005   -5.58465E+004    3.74225E+005   -1.45893E+004
            1443    6.92101E+005    5.54874E+005    5.54874E+005    2.80543E+004   -2.28967E+005    7.83841E+005   -1.17987E+005    5.68807E+005    1.04425E+005    2.85389E+004    2.20998E+005   -5.43963E+004    3.83491E+005   -1.56709E+004
            1444    7.20819E+005    5.85664E+005    5.85664E+005    3.74711E+004   -2.30828E+005    8.16492E+005   -1.30769E+005    5.91717E+005    1.06369E+005    3.83949E+004    2.47543E+005   -4.56198E+004    3.99335E+005   -1.61700E+004
            1445    6.87872E+005    5.95412E+005    5.95412E+005    5.84206E+004   -1.79935E+005    7.75347E+005   -1.57966E+005    5.83476E+005    1.67239E+005    5.80608E+004    2.48598E+005   -5.75681E+004    3.80889E+005   -1.38257E+004
            1446    6.66574E+005    5.58300E+005    5.58300E+005    3.45155E+004   -1.92016E+005    7.50316E+005   -1.33600E+005    5.69783E+005    1.50812E+005    3.27011E+004    2.17287E+005   -6.71957E+004    3.66993E+005   -1.29557E+004
            1447    6.37130E+005    5.18557E+005    5.18557E+005    1.79139E+004   -1.98618E+005    7.17175E+005   -1.12618E+005    5.44608E+005    1.36770E+005    1.38381E+004    1.87245E+005   -7.13208E+004    3.49552E+005   -9.13065E+003
            1448    6.28816E+005    4.99887E+005    4.99887E+005   -1.23233E+004   -2.01910E+005    7.01796E+005   -9.52180E+004    5.58878E+005    1.26548E+005   -1.44020E+004    1.73508E+005   -5.54681E+004    3.45048E+005   -1.02541E+004
            1449    5.86192E+005    3.49480E+005    3.49480E+005   -4.45352E+002   -3.27265E+005    6.76744E+005   -7.25665E+003    2.28327E+005    8.00658E+003   -1.35505E+003    1.51184E+004   -1.08916E+004    3.37887E+005    1.36301E+004
            1450    5.94264E+005    3.77760E+005    3.77760E+005    3.53121E+003   -3.07466E+005    6.85225E+005   -2.46085E+004    3.21945E+005    2.58197E+004    1.12882E+003    4.68770E+004   -3.20002E+004    3.40672E+005    1.05322E+004
            1451    6.06272E+005    4.05224E+005    4.05224E+005   -1.87194E+003   -2.91548E+005    6.96772E+005   -3.72678E+004    3.99853E+005    4.25428E+004   -4.54151E+003    7.38022E+004   -4.96225E+004    3.44226E+005    3.52598E+003
            1452    6.23360E+005    4.38805E+005    4.38805E+005   -1.83292E+002   -2.74698E+005    7.13503E+005   -5.46413E+004    4.54105E+005    6.22059E+004   -3.02967E+003    1.04748E+005   -6.31422E+004    3.50126E+005   -1.99712E+003
            1453    6.39663E+005    4.68679E+005    4.68679E+005   -5.51955E+003   -2.58849E+005    7.27528E+005   -6.81033E+004    5.06802E+005    8.19571E+004   -7.13852E+003    1.29491E+005   -7.22439E+004    3.55322E+005   -1.02970E+004
            1454    6.66823E+005    5.14063E+005    5.14063E+005    7.54009E+003   -2.41423E+005    7.55486E+005   -9.33936E+004    5.46529E+005    1.05239E+005    5.15823E+003    1.69783E+005   -7.53513E+004    3.68134E+005   -1.17079E+004
            1455    6.73816E+005    5.35170E+005    5.35170E+005    4.28393E+003   -2.22867E+005    7.58037E+005   -1.05529E+005    5.77746E+005    1.25050E+005    3.54219E+003    1.87995E+005   -5.72272E+004    3.72988E+005   -1.25039E+004
            1456    7.12029E+005    6.32821E+005    6.32821E+005    7.73965E+004   -1.69879E+005    8.02700E+005   -1.80113E+005    6.03416E+005    1.82880E+005    7.77152E+004    2.79744E+005   -4.26870E+004    3.95982E+005   -1.26855E+004
            1457    7.29154E+005    6.60147E+005    6.60147E+005    9.36177E+004   -1.62515E+005    8.22662E+005   -1.97083E+005    6.14982E+005    1.94360E+005    9.37480E+004    3.03142E+005   -2.33333E+004    4.07010E+005   -7.27789E+003
            1458    7.36975E+005    6.71889E+005    6.71889E+005    9.97257E+004   -1.59723E+005    8.31613E+005   -2.03964E+005    6.20996E+005    1.99119E+005    9.97256E+004    3.13047E+005   -5.56914E+002    4.11886E+005   -1.13243E+002
            1459    7.28904E+005    6.60449E+005    6.60449E+005    9.35808E+004   -1.61777E+005    8.22226E+005   -1.97418E+005    6.15472E+005    1.95219E+005    9.37757E+004    3.03258E+005    2.26765E+004    4.06882E+005    7.69238E+003
            1460    7.09454E+005    6.32191E+005    6.32191E+005    7.82314E+004   -1.67447E+005    7.99639E+005   -1.80992E+005    6.01938E+005    1.84805E+005    7.85170E+004    2.79654E+005    4.24386E+004    3.94580E+005    1.24714E+004
            1461    6.86098E+005    5.94726E+005    5.94726E+005    5.61803E+004   -1.77744E+005    7.72470E+005   -1.57721E+005    5.85736E+005    1.69327E+005    5.60421E+004    2.47792E+005    5.74219E+004    3.79612E+005    1.46619E+004
            1462    6.59576E+005    5.55395E+005    5.55395E+005    3.54503E+004   -1.86535E+005    7.41930E+005   -1.34770E+005    5.65884E+005    1.54149E+005    3.39251E+004    2.16236E+005    6.61556E+004    3.63134E+005    1.34071E+004
            1463    6.45952E+005    5.28680E+005    5.28680E+005    1.34048E+004   -1.95994E+005    7.24674E+005   -1.15364E+005    5.61608E+005    1.40816E+005    1.19615E+004    1.93313E+005    6.31783E+004    3.55263E+005    1.31682E+004
            1464    6.67351E+005    5.41079E+005    5.41079E+005    1.01677E+004   -2.08068E+005    7.49147E+005   -1.14393E+005    5.78492E+005    1.40746E+005    9.90736E+003    1.92525E+005    6.71652E+004    3.67150E+005    1.68455E+004
            1465    7.44813E+005    6.14870E+005    6.14870E+005    4.98813E+004   -2.29173E+005    8.44043E+005   -1.45193E+005    6.09338E+005    1.13396E+005    5.05024E+004    2.71680E+005   -3.32289E+004    4.13108E+005   -1.28441E+004
            1466    7.26687E+005    5.57942E+005    5.57942E+005    2.57884E+004   -2.69992E+005    8.27934E+005   -1.04579E+005    5.65280E+005    5.30387E+004    2.64478E+004    2.34252E+005   -2.58246E+004    4.03026E+005   -1.18274E+004
            1467    7.13336E+005    5.25849E+005    5.25849E+005    1.87106E+004   -2.89819E+005    8.15668E+005   -8.49136E+004    5.28570E+005    3.11807E+004    1.91494E+004    2.04411E+005   -1.93540E+004    3.98013E+005   -9.02661E+003
            1468    6.80205E+005    4.69199E+005    4.69199E+005    6.78644E+003   -3.11834E+005    7.81033E+005   -5.47171E+004    4.61526E+005    2.52257E+003    7.11681E+003    1.54512E+005   -1.38668E+004    3.82763E+005   -7.23405E+003
            1469    6.61275E+005    4.42199E+005    4.42199E+005    7.12010E+003   -3.18769E+005    7.60968E+005   -4.35165E+004    4.14022E+005    5.36183E+003    7.29764E+003    1.17890E+005   -9.42351E+003    3.76164E+005   -4.92988E+003
            1470    6.39582E+005    3.97418E+005    3.97418E+005   -2.57273E+002   -3.40359E+005    7.37777E+005   -1.89340E+004    3.27827E+005   -7.99505E+003   -1.47376E+002    6.49443E+004   -5.37011E+003    3.67022E+005   -4.21172E+003
            1471    6.31801E+005    3.80149E+005    3.80149E+005    3.02236E+003   -3.49251E+005    7.29400E+005   -1.13069E+004    2.45927E+005    4.54463E+003    3.05659E+003    2.63196E+004   -1.84825E+003    3.64517E+005   -3.44689E+003
            1472    7.63008E+005    6.35625E+005    6.35625E+005    5.67409E+004   -2.29014E+005    8.64638E+005   -1.54451E+005    6.24357E+005    1.17504E+005    5.69749E+004    2.88873E+005   -1.71210E+004    4.23369E+005   -7.60104E+003
            1473    7.40869E+005    5.72814E+005    5.72814E+005    3.09836E+004   -2.71427E+005    8.44241E+005   -1.10790E+005    5.75152E+005    5.29762E+004    3.11176E+004    2.48278E+005   -1.27548E+004    4.10454E+005   -5.53546E+003
            1474    7.23865E+005    5.35382E+005    5.35382E+005    1.97073E+004   -2.92140E+005    8.27522E+005   -8.76495E+004    5.38284E+005    2.95842E+004    1.97952E+004    2.13569E+005   -8.33265E+003    4.03309E+005   -4.13069E+003
            1475    6.87876E+005    4.76237E+005    4.76237E+005    8.44806E+003   -3.13583E+005    7.89820E+005   -5.70340E+004    4.67087E+005    6.65047E+002    8.49236E+003    1.61944E+005   -5.80119E+003    3.86541E+005   -2.62743E+003
            1476    6.65573E+005    4.45417E+005    4.45417E+005    6.41107E+003   -3.20386E+005    7.65803E+005   -4.38140E+004    4.19558E+005    3.59334E+003    6.43190E+003    1.21417E+005   -3.06847E+003    3.78327E+005   -1.75001E+003
            1477    6.42863E+005    4.00131E+005    4.00131E+005    7.81955E+002   -3.41451E+005    7.41582E+005   -1.98208E+004    3.28081E+005   -8.77534E+003    7.91491E+002    6.74461E+004   -1.90673E+003    3.68821E+005   -1.09088E+003
            1478    6.34188E+005    3.81497E+005    3.81497E+005    1.95728E+003   -3.50636E+005    7.32132E+005   -1.09395E+004    2.53274E+005    4.12347E+003    1.95893E+003    2.67362E+004   -3.48328E+002    3.65890E+005   -8.86512E+002
            1479    7.68427E+005    6.42880E+005    6.42880E+005    5.94822E+004   -2.27797E+005    8.70677E+005   -1.58188E+005    6.29368E+005    1.20411E+005    5.94851E+004    2.94669E+005    9.85963E+002    4.26529E+005    9.14052E+002
            1480    7.45742E+005    5.78191E+005    5.78191E+005    3.17359E+004   -2.71380E+005    8.49571E+005   -1.12849E+005    5.80669E+005    5.41478E+004    3.17445E+004    2.52654E+005    2.49408E+003    4.13019E+005    1.38376E+003
            1481    7.26067E+005    5.38559E+005    5.38559E+005    2.03689E+004   -2.91309E+005    8.29869E+005   -8.92062E+004    5.41634E+005    3.06733E+004    2.03905E+004    2.16555E+005    3.27306E+003    4.04375E+005    2.12791E+003
            1482    6.89461E+005    4.77975E+005    4.77975E+005    7.91580E+003   -3.13507E+005    7.91482E+005   -5.74613E+004    4.70781E+005    9.99869E+002    7.94228E+003    1.63442E+005    3.81354E+003    3.87295E+005    2.10949E+003
            1483    6.65715E+005    4.46377E+005    4.46377E+005    6.80884E+003   -3.19541E+005    7.65917E+005   -4.45483E+004    4.20849E+005    4.19860E+003    6.83756E+003    1.22609E+005    3.11118E+003    3.78337E+005    2.22054E+003
            1484    6.42767E+005    4.00116E+005    4.00116E+005    1.10682E+002   -3.41316E+005    7.41432E+005   -1.96369E+004    3.30809E+005   -8.77624E+003    1.33430E+002    6.75534E+004    2.34098E+003    3.68734E+005    1.99307E+003
            1485    6.33730E+005    3.81460E+005    3.81460E+005    2.60147E+003   -3.50153E+005    7.31613E+005   -1.13028E+004    2.50489E+005    4.37108E+003    2.60838E+003    2.69291E+004    6.51841E+002    3.65627E+005    1.97439E+003
            1486    7.60727E+005    6.35194E+005    6.35194E+005    5.73582E+004   -2.26684E+005    8.61879E+005   -1.55289E+005    6.23469E+005    1.20097E+005    5.76599E+004    2.88111E+005    1.91733E+004    4.22202E+005    8.57641E+003
            1487    7.38424E+005    5.71673E+005    5.71673E+005    3.05100E+004   -2.69547E+005    8.41220E+005   -1.10878E+005    5.75085E+005    5.50701E+004    3.08402E+004    2.46725E+005    1.70209E+004    4.09155E+005    8.46678E+003
            1488    7.20425E+005    5.33947E+005    5.33947E+005    2.02327E+004   -2.89554E+005    8.23501E+005   -8.82084E+004    5.36614E+005    3.22074E+004    2.05295E+004    2.11888E+005    1.48745E+004    4.01521E+005    7.55589E+003
            1489    6.84547E+005    4.74230E+005    4.74230E+005    8.08383E+003   -3.11686E+005    7.85916E+005   -5.68760E+004    4.66194E+005    2.41689E+003    8.35155E+003    1.59860E+005    1.23046E+004    3.84764E+005    6.61088E+003
            1490    6.61983E+005    4.43539E+005    4.43539E+005    6.78643E+003   -3.18120E+005    7.61659E+005   -4.40683E+004    4.17590E+005    5.28921E+003    6.98970E+003    1.19926E+005    9.54145E+003    3.76346E+005    5.44161E+003
            1491    6.39340E+005    3.97837E+005    3.97837E+005    3.25304E+002   -3.39662E+005    7.37498E+005   -1.95002E+004    3.27651E+005   -8.06774E+003    4.60476E+002    6.61078E+004    5.83975E+003    3.66807E+005    4.74224E+003
            1492    6.30616E+005    3.79422E+005    3.79422E+005    2.37864E+003   -3.48596E+005    7.28018E+005   -1.10681E+004    2.49553E+005    4.64604E+003    2.42694E+003    2.61312E+004    2.07371E+003    3.63819E+005    4.33138E+003
            1493    7.41999E+005    6.14183E+005    6.14183E+005    4.90830E+004   -2.26093E+005    8.40276E+005   -1.45724E+005    6.10238E+005    1.17174E+005    4.99444E+004    2.70054E+005    3.53077E+004    4.11508E+005    1.45500E+004
            1494    7.20702E+005    5.55411E+005    5.55411E+005    2.65269E+004   -2.65468E+005    8.20880E+005   -1.05490E+005    5.62436E+005    5.75842E+004    2.74711E+004    2.31415E+005    3.06552E+004    3.99852E+005    1.40157E+004
            1495    7.08310E+005    5.23774E+005    5.23774E+005    1.81080E+004   -2.85773E+005    8.09547E+005   -8.53698E+004    5.28655E+005    3.61847E+004    1.88584E+004    2.01066E+005    2.49109E+004    3.95427E+005    1.17187E+004
            1496    6.74035E+005    4.66008E+005    4.66008E+005    7.15758E+003   -3.07859E+005    7.73866E+005   -5.51022E+004    4.58731E+005    6.19289E+003    7.79094E+003    1.51323E+005    2.08404E+004    3.79431E+005    9.72468E+003
            1497    6.54864E+005    4.38499E+005    4.38499E+005    6.19100E+003   -3.14944E+005    7.53443E+005   -4.32486E+004    4.13746E+005    8.62759E+003    6.62767E+003    1.14490E+005    1.49665E+004    3.72639E+005    7.61337E+003
            1498    6.33162E+005    3.93650E+005    3.93650E+005    1.88085E+002   -3.36734E+005    7.30384E+005   -1.90349E+004    3.23674E+005   -6.35527E+003    4.85435E+002    6.29745E+004    9.61793E+003    3.63370E+005    6.42676E+003
            1499    6.25339E+005    3.76126E+005    3.76126E+005    2.27551E+003   -3.45800E+005    7.21926E+005   -1.08674E+004    2.47227E+005    5.39377E+003    2.36506E+003    2.48434E+004    2.92826E+003    3.60777E+005    5.65260E+003
            1500    7.15603E+005    5.85513E+005    5.85513E+005    3.92830E+004   -2.24550E+005    8.10063E+005   -1.33415E+005    5.90267E+005    1.13924E+005    4.03715E+004    2.45950E+005    4.74666E+004    3.96613E+005    1.70448E+004
            1501    6.98156E+005    5.33002E+005    5.33002E+005    2.11599E+004   -2.62304E+005    7.95305E+005   -9.72861E+004    5.44034E+005    5.94454E+004    2.26054E+004    2.09807E+005    4.07516E+004    3.88196E+005    1.67980E+004
            1502    6.91855E+005    5.09443E+005    5.09443E+005    1.68174E+004   -2.81529E+005    7.90972E+005   -8.15774E+004    5.14037E+005    4.07126E+004    1.78429E+004    1.86177E+005    3.41403E+004    3.87138E+005    1.32846E+004
            1503    6.60604E+005    4.54900E+005    4.54900E+005    5.52172E+003   -3.03589E+005    7.58488E+005   -5.22775E+004    4.48867E+005    1.06767E+004    6.37393E+003    1.39782E+005    2.79121E+004    3.72591E+005    1.07170E+004
            1504    6.45392E+005    4.31425E+005    4.31425E+005    6.04232E+003   -3.11189E+005    7.42615E+005   -4.20928E+004    4.06034E+005    1.24603E+004    6.65113E+003    1.07167E+005    2.06278E+004    3.67649E+005    8.26511E+003
            1505    6.25094E+005    3.87981E+005    3.87981E+005   -3.85309E+002   -3.33099E+005    7.21080E+005   -1.81655E+004    3.19231E+005   -3.97242E+003    4.30796E+000    5.84646E+004    1.26971E+004    3.58917E+005    6.53991E+003
            1506    6.18476E+005    3.71949E+005    3.71949E+005    2.50282E+003   -3.42060E+005    7.14010E+005   -1.07972E+004    2.42551E+005    6.23762E+003    2.62943E+003    2.35246E+004    4.16308E+003    3.56834E+005    5.58473E+003
            1507    6.93186E+005    5.58428E+005    5.58428E+005    2.80824E+004   -2.25933E+005    7.84361E+005   -1.20193E+005    5.73492E+005    1.10558E+005    2.89258E+004    2.21094E+005    5.39209E+004    3.84289E+005    1.67831E+004
            1508    6.74484E+005    5.10889E+005    5.10889E+005    1.62672E+004   -2.57422E+005    7.68311E+005   -8.99111E+004    5.25806E+005    6.48750E+004    1.76484E+004    1.87210E+005    4.99891E+004    3.75780E+005    1.66129E+004
            1509    6.76257E+005    4.96818E+005    4.96818E+005    1.31602E+004   -2.75934E+005    7.72752E+005   -7.80150E+004    5.06301E+005    4.92271E+004    1.39765E+004    1.70842E+005    4.07767E+004    3.79281E+005    1.22991E+004
            1510    6.46299E+005    4.44277E+005    4.44277E+005    3.97785E+003   -2.97702E+005    7.41979E+005   -5.01841E+004    4.40578E+005    1.76422E+004    4.82343E+003    1.28087E+005    3.48344E+004    3.65132E+005    1.03530E+004
            1511    6.35201E+005    4.24630E+005    4.24630E+005    4.75372E+003   -3.06132E+005    7.30763E+005   -4.10839E+004    4.02723E+005    1.91643E+004    5.28755E+003    9.88000E+004    2.50983E+004    3.62307E+005    7.11077E+003
            1512    6.16262E+005    3.82367E+005    3.82367E+005   -2.96675E+002   -3.28536E+005    7.10904E+005   -1.78447E+004    3.13878E+005   -7.92901E+002    5.55313E+001    5.42714E+004    1.60942E+004    3.53995E+005    5.11357E+003
            1513    6.10651E+005    3.67134E+005    3.67134E+005    2.01479E+003   -3.37834E+005    7.04968E+005   -1.04385E+004    2.41742E+005    7.86482E+003    2.11427E+003    2.13364E+004    4.98973E+003    3.52367E+005    3.66850E+003
            1514    6.79408E+005    5.42568E+005    5.42568E+005    2.55637E+004   -2.26939E+005    7.69507E+005   -1.13731E+005    5.58156E+005    1.13610E+005    2.50352E+004    2.02547E+005    5.98701E+004    3.77143E+005    1.28895E+004
            1515    6.56789E+005    4.93122E+005    4.93122E+005    9.22728E+003   -2.54549E+005    7.47671E+005   -8.26002E+004    5.15635E+005    6.93814E+004    9.33674E+003    1.69082E+005    5.71284E+004    3.65850E+005    1.30514E+004
            1516    6.61001E+005    4.85196E+005    4.85196E+005    9.35574E+003   -2.69545E+005    7.54742E+005   -7.50023E+004    5.00336E+005    5.85431E+004    9.62872E+003    1.56835E+005    5.03149E+004    3.70628E+005    1.11262E+004
            1517    6.34114E+005    4.36059E+005    4.36059E+005    6.54747E+002   -2.91465E+005    7.27524E+005   -4.84162E+004    4.39599E+005    2.70267E+004    9.61120E+002    1.17261E+005    4.19358E+004    3.58446E+005    8.15746E+003
            1518    6.24342E+005    4.17356E+005    4.17356E+005    3.45035E+003   -3.00786E+005    7.18142E+005   -4.00069E+004    3.98882E+005    2.54231E+004    3.63781E+003    9.09600E+004    3.16127E+004    3.56153E+005    4.94758E+003
            1519    6.07690E+005    3.77927E+005    3.77927E+005   -1.03004E+003   -3.23001E+005    7.00928E+005   -1.79655E+004    3.15731E+005    5.03390E+003   -9.86888E+002    4.98496E+004    1.94553E+004    3.49202E+005    1.80508E+003
            1520    6.02477E+005    3.61987E+005    3.61987E+005    2.18652E+003   -3.33555E+005    6.95542E+005   -1.02062E+004    2.35689E+005    8.35650E+003    2.17502E+003    2.00870E+004    6.62897E+003    3.47658E+005   -1.30509E+002
            1521    6.62413E+005    5.21966E+005    5.21966E+005    1.35373E+004   -2.27138E+005    7.49104E+005   -1.02789E+005    5.50285E+005    1.13058E+005    1.12387E+004    1.84069E+005    6.67499E+004    3.66274E+005    1.02437E+004
            1522    6.54477E+005    4.97678E+005    4.97678E+005    9.28478E+003   -2.45962E+005    7.43640E+005   -8.70002E+004    5.23495E+005    8.83326E+004    7.92365E+003    1.64744E+005    6.44144E+004    3.63829E+005    1.04590E+004
            1523    6.44124E+005    4.71033E+005    4.71033E+005    3.63952E+003   -2.63716E+005    7.34749E+005   -7.03190E+004    4.93913E+005    6.68507E+004    2.64022E+003    1.41466E+005    5.93661E+004    3.60378E+005    8.63274E+003
            1524    6.27033E+005    4.37755E+005    4.37755E+005    1.26347E+003   -2.80767E+005    7.18522E+005   -5.27503E+004    4.46894E+005    4.52502E+004    4.51128E+002    1.12550E+005    5.03891E+004    3.53987E+005    5.21224E+003
            1525    6.12845E+005    4.08220E+005    4.08220E+005    8.48972E+002   -2.96580E+005    7.04800E+005   -3.74963E+004    3.94237E+005    3.12913E+004    7.88625E+001    8.11187E+004    3.88344E+004    3.49304E+005    1.06926E+003
            1526    6.00339E+005    3.78115E+005    3.78115E+005    1.32358E+003   -3.14193E+005    6.92308E+005   -2.17486E+004    3.20789E+005    1.59040E+004    5.69825E+002    4.87721E+004    2.42353E+004    3.44860E+005   -3.65275E+003
            1527    5.94261E+005    3.54267E+005    3.54267E+005    3.31831E+002   -3.31810E+005    6.86078E+005   -7.59621E+003    2.25973E+005    6.49800E+003    1.31878E+001    1.62774E+004    8.35257E+003    3.42839E+005   -6.29710E+003
            1528    5.85457E+005    3.50621E+005    3.50621E+005    1.81067E+003   -3.25290E+005    6.75911E+005   -9.04720E+003    2.23449E+005    9.52742E+003    7.85159E+002    1.68290E+004    1.14057E+004    3.37406E+005   -1.46829E+004
            1529    5.93269E+005    3.76833E+005    3.76833E+005    4.82871E+002   -3.07062E+005    6.83895E+005   -2.34179E+004    3.30690E+005    2.61257E+004   -2.07074E+003    4.61986E+004    3.27550E+004    3.39920E+005   -1.07794E+004
            1530    6.06504E+005    4.08415E+005    4.08415E+005   -9.49682E+000   -2.88483E+005    6.96898E+005   -3.99742E+004    4.02736E+005    4.56040E+004   -3.32010E+003    7.76386E+004    5.01896E+004    3.44102E+005   -5.30937E+003
            1531    6.19446E+005    4.35545E+005    4.35545E+005   -4.24130E+003   -2.72870E+005    7.08416E+005   -5.28112E+004    4.57895E+005    6.33207E+004   -7.34843E+003    1.02461E+005    6.34252E+004    3.47536E+005    1.73662E+003
            1532    6.35565E+005    4.68887E+005    4.68887E+005   -2.30582E+003   -2.53974E+005    7.22860E+005   -7.08689E+004    5.03605E+005    8.55993E+004   -5.61266E+003    1.32620E+005    7.22893E+004    3.52759E+005    6.60065E+003
            1533    6.44300E+005    4.91963E+005    4.91963E+005    2.79802E+003   -2.38068E+005    7.30031E+005   -8.55643E+004    5.27712E+005    1.05137E+005   -3.81131E+002    1.51937E+005    7.70617E+004    3.55316E+005    9.91331E+003
            1534    6.64910E+005    5.27912E+005    5.27912E+005    8.28124E+003   -2.21386E+005    7.49298E+005   -1.04936E+005    5.64728E+005    1.27161E+005    7.70301E+003    1.79944E+005    7.85346E+004    3.64814E+005    1.80133E+004
            1535    6.29492E+005    2.02122E+005   -5.00229E+005    1.30793E+004   -5.00229E+005    7.02351E+005    9.50092E+004   -5.60081E+005   -1.26395E+005    1.50381E+004   -1.73671E+005    5.47293E+004    3.45460E+005   -1.03553E+004
            1536    6.35873E+005    1.98677E+005   -5.17005E+005   -1.70967E+004   -5.17005E+005    7.15682E+005    1.11808E+005   -5.43853E+005   -1.36144E+005   -1.29351E+004   -1.86346E+005    7.09250E+004    3.48866E+005   -8.85227E+003
            1537    6.65827E+005    1.92320E+005   -5.57138E+005   -3.38793E+004   -5.57138E+005    7.49458E+005    1.32899E+005   -5.69220E+005   -1.50189E+005   -3.19966E+004   -2.16512E+005    6.73890E+004    3.66514E+005   -1.28694E+004
            1538    6.87373E+005    1.80099E+005   -5.94744E+005   -5.83418E+004   -5.94744E+005    7.74843E+005    1.57662E+005   -5.82794E+005   -1.66909E+005   -5.79187E+004   -2.48158E+005    5.76427E+004    3.80622E+005   -1.36351E+004
            1539    7.20553E+005    2.31489E+005   -5.84757E+005   -3.69784E+004   -5.84757E+005    8.16246E+005    1.30082E+005   -5.91197E+005   -1.05380E+005   -3.79182E+004   -2.46949E+005    4.56814E+004    3.99166E+005   -1.62455E+004
            1540    7.01952E+005    2.66970E+005   -5.33239E+005   -2.13975E+004   -5.33239E+005    8.00209E+005    9.58886E+004   -5.42419E+005   -5.30232E+004   -2.26317E+004   -2.12011E+005    3.78705E+004    3.90158E+005   -1.56176E+004
            1541    6.97320E+005    2.87890E+005   -5.09688E+005   -1.52093E+004   -5.09688E+005    7.97578E+005    7.90026E+004   -5.14363E+005   -3.30064E+004   -1.61034E+004   -1.87898E+005    2.83473E+004    3.90079E+005   -1.24262E+004
            1542    6.66624E+005    3.08253E+005   -4.57532E+005   -7.06321E+003   -4.57532E+005    7.65785E+005    5.21141E+004   -4.46233E+005   -5.79029E+003   -7.72885E+003   -1.42823E+005    2.26169E+004    3.75969E+005   -9.61586E+003
            1543    6.52409E+005    3.16972E+005   -4.33873E+005   -5.42869E+003   -4.33873E+005    7.50845E+005    4.07764E+004   -4.06372E+005   -7.57897E+003   -5.86535E+003   -1.08885E+005    1.50848E+004    3.71639E+005   -7.48069E+003
            1544    6.32584E+005    3.37273E+005   -3.92532E+005   -1.16278E+003   -3.92532E+005    7.29805E+005    1.88071E+004   -3.16480E+005    5.86267E+003   -1.42510E+003   -6.08589E+004    9.50426E+003    3.63214E+005   -5.77553E+003
            1545    6.26310E+005    3.47123E+005   -3.75922E+005   -1.42536E+003   -3.75922E+005    7.23045E+005    1.00748E+004   -2.48033E+005   -4.71432E+003   -1.50530E+003   -2.40048E+004    2.81248E+003    3.61346E+005   -5.26476E+003
            1546    6.91342E+005    2.29542E+005   -5.53529E+005   -2.76318E+004   -5.53529E+005    7.83071E+005    1.17206E+005   -5.67693E+005   -1.03427E+005   -2.81519E+004   -2.20040E+005    5.43103E+004    3.83109E+005   -1.57415E+004
            1547    6.78934E+005    2.63698E+005   -5.09974E+005   -1.34759E+004   -5.09974E+005    7.73672E+005    8.65838E+004   -5.27010E+005   -5.64272E+004   -1.50309E+004   -1.88293E+005    4.48886E+004    3.78367E+005   -1.69427E+004
            1548    6.78559E+005    2.82211E+005   -4.94246E+005   -1.50387E+004   -4.94246E+005    7.76457E+005    7.56914E+004   -4.96860E+005   -3.98931E+004   -1.60108E+004   -1.71170E+005    3.65967E+004    3.80793E+005   -1.25656E+004
            1549    6.51625E+005    3.03618E+005   -4.44896E+005   -4.23559E+003   -4.44896E+005    7.48514E+005    4.85045E+004   -4.36935E+005   -1.17284E+004   -5.08599E+003   -1.28699E+005    2.87476E+004    3.68471E+005   -1.03053E+004
            1550    6.41654E+005    3.11875E+005   -4.26728E+005   -6.73468E+003   -4.26728E+005    7.38603E+005    4.05289E+004   -3.95983E+005   -1.31534E+004   -7.22977E+003   -1.01204E+005    2.08417E+004    3.66042E+005   -7.03820E+003
            1551    6.23563E+005    3.33072E+005   -3.86252E+005    9.99791E+002   -3.86252E+005    7.19324E+005    1.73931E+004   -3.17807E+005    3.00802E+003    6.30285E+002   -5.58178E+004    1.27775E+004    3.58190E+005   -6.18878E+003
            1552    6.18282E+005    3.42558E+005   -3.71257E+005   -3.22397E+003   -3.71257E+005    7.13815E+005    1.06409E+004   -2.33636E+005   -5.99809E+003   -3.33912E+003   -2.25855E+004    4.22578E+003    3.56753E+005   -4.99631E+003
            1553    6.75209E+005    2.31373E+005   -5.32493E+005   -1.53240E+004   -5.32493E+005    7.63866E+005    1.05481E+005   -5.59421E+005   -1.00454E+005   -1.54633E+004   -2.00526E+005    5.57356E+004    3.74256E+005   -1.46433E+004
            1554    6.54821E+005    2.58387E+005   -4.88357E+005   -1.21750E+004   -4.88357E+005    7.46745E+005    8.07149E+004   -5.03844E+005   -6.34123E+004   -1.31285E+004   -1.65604E+005    5.42603E+004    3.65696E+005   -1.46850E+004
            1555    6.63959E+005    2.76528E+005   -4.82500E+005   -9.45102E+003   -4.82500E+005    7.59028E+005    7.18078E+004   -4.93830E+005   -5.03566E+004   -9.78660E+003   -1.55280E+005    4.34044E+004    3.73265E+005   -9.98577E+003
            1556    6.38246E+005    2.96341E+005   -4.36628E+005   -3.62723E+003   -4.36628E+005    7.32970E+005    4.79714E+004   -4.31085E+005   -2.10271E+004   -3.96038E+003   -1.18927E+005    3.75720E+004    3.61203E+005   -7.61057E+003
            1557    6.30121E+005    3.05879E+005   -4.19053E+005   -2.66728E+003   -4.19053E+005    7.24933E+005    3.86137E+004   -3.99165E+005   -2.08143E+004   -3.09212E+003   -9.19348E+004    2.71757E+004    3.59671E+005   -6.18410E+003
            1558    6.13188E+005    3.26999E+005   -3.80414E+005   -7.29883E+002   -3.80414E+005    7.07413E+005    1.80484E+004   -3.08052E+005   -1.66194E+003   -9.38301E+002   -5.15451E+004    1.72438E+004    3.52396E+005   -3.37296E+003
            1559    6.08685E+005    3.37260E+005   -3.65421E+005   -7.92877E+002   -3.65421E+005    7.02681E+005    9.65141E+003   -2.45298E+005   -7.60334E+003   -8.64136E+002   -2.04867E+004    5.45291E+003    3.51232E+005   -2.45607E+003
            1560    6.70561E+005    2.31424E+005   -5.29768E+005   -2.63207E+004   -5.29768E+005    7.61191E+005    1.08222E+005   -5.40959E+005   -1.13156E+005   -2.41910E+004   -1.87318E+005    5.92223E+004    3.73711E+005   -6.80049E+003
            1561    6.46480E+005    2.54791E+005   -4.80990E+005   -3.98676E+003   -4.80990E+005    7.35781E+005    7.67284E+004   -5.08662E+005   -7.21078E+004   -2.26304E+003   -1.55814E+005    5.68772E+004    3.60718E+005   -7.02027E+003
            1562    6.54996E+005    2.66435E+005   -4.81160E+005   -8.13484E+003   -4.81160E+005    7.47595E+005    7.42864E+004   -4.98399E+005   -6.70998E+004   -7.01112E+003   -1.48748E+005    5.54201E+004    3.67181E+005   -7.19303E+003
            1563    6.27541E+005    2.88301E+005   -4.31302E+005    2.23060E+003   -4.31302E+005    7.19604E+005    4.69234E+004   -4.40551E+005   -3.45012E+004    2.42888E+003   -1.08698E+005    4.70134E+004    3.54699E+005   -6.67682E+003
            1564    6.17582E+005    2.97871E+005   -4.12625E+005   -4.41993E+003   -4.12625E+005    7.10496E+005    3.97247E+004   -3.91488E+005   -3.13928E+004   -3.93480E+003   -8.38467E+004    3.56999E+004    3.52434E+005   -1.67244E+003
            1565    6.02900E+005    3.19836E+005   -3.75505E+005    1.56970E+003   -3.75505E+005    6.95341E+005    1.80331E+004   -3.17357E+005   -9.21352E+003    1.93519E+003   -4.68210E+004    2.21915E+004    3.46433E+005    1.28942E+003
            1566    5.98308E+005    3.31619E+005   -3.59139E+005   -3.17631E+003   -3.59139E+005    6.90758E+005    1.02321E+004   -2.24806E+005   -9.28606E+003   -2.98834E+003   -1.84218E+004    7.65179E+003    3.45237E+005    4.04915E+003
            1567    5.86228E+005    3.26810E+005   -3.49967E+005    4.02249E+002   -3.49967E+005    6.76777E+005    7.58479E+003   -2.31116E+005   -8.37687E+003    1.34913E+003   -1.57266E+004    1.13770E+004    3.37887E+005    1.35617E+004
            1568    5.94383E+005    3.07388E+005   -3.77971E+005   -3.59916E+003   -3.77971E+005    6.85359E+005    2.47272E+004   -3.22244E+005   -2.59721E+004   -1.17252E+003   -4.70370E+004    3.21331E+004    3.40723E+005    1.05947E+004
            1569    6.06188E+005    2.91694E+005   -4.05001E+005    1.88182E+003   -4.05001E+005    6.96695E+005    3.71415E+004   -3.99429E+005   -4.23648E+004    4.54006E+003   -7.35997E+004    4.92998E+004    3.44235E+005    3.59706E+003
            1570    6.23094E+005    2.74942E+005   -4.38306E+005    1.93179E+002   -4.38306E+005    7.13248E+005    5.43904E+004   -4.53338E+005   -6.18661E+004    3.08284E+003   -1.04388E+005    6.27795E+004    3.50059E+005   -1.75242E+003
            1571    6.38807E+005    2.59104E+005   -4.67539E+005    5.63120E+003   -4.67539E+005    7.26643E+005    6.76014E+004   -5.05509E+005   -8.14630E+004    7.27885E+003   -1.28620E+005    7.20032E+004    3.54932E+005   -1.01075E+004
            1572    6.65854E+005    2.41540E+005   -5.12907E+005   -7.35555E+003   -5.12907E+005    7.54447E+005    9.29075E+004   -5.45398E+005   -1.04852E+005   -4.93781E+003   -1.68932E+005    7.54896E+004    3.67590E+005   -1.16283E+004
            1573    6.74453E+005    2.22959E+005   -5.35756E+005   -4.24575E+003   -5.35756E+005    7.58715E+005    1.05681E+005   -5.78445E+005   -1.25102E+005   -3.50942E+003   -1.88431E+005    5.78066E+004    3.73220E+005   -1.27199E+004
            1574    5.94192E+005    3.31468E+005   -3.54524E+005   -3.52787E+002   -3.54524E+005    6.85992E+005    7.80307E+003   -2.27865E+005   -6.68676E+003   -2.04704E+001   -1.67020E+004   -8.67361E+003    3.42786E+005   -6.31161E+003
            1575    6.02427E+005    3.32998E+005   -3.62473E+005   -2.16181E+003   -3.62473E+005    6.95471E+005    1.05459E+004   -2.39189E+005   -8.51830E+003   -2.14744E+003   -2.09720E+004   -6.98500E+003    3.47609E+005   -1.68281E+002
            1576    6.10649E+005    3.37138E+005   -3.67810E+005   -1.97405E+003   -3.67810E+005    7.04948E+005    1.08819E+004   -2.46281E+005   -7.91232E+003   -2.08308E+003   -2.26502E+004   -5.42201E+003    3.52338E+005    3.71979E+003
            1577    6.18696E+005    3.41352E+005   -3.72892E+005   -2.46088E+003   -3.72892E+005    7.14243E+005    1.13337E+004   -2.48115E+005   -6.23203E+003   -2.59862E+003   -2.51704E+004   -4.54208E+003    3.56926E+005    5.58923E+003
            1578    6.25500E+005    3.45175E+005   -3.76919E+005   -2.25488E+003   -3.76919E+005    7.22094E+005    1.13332E+004   -2.51844E+005   -5.31553E+003   -2.35255E+003   -2.63314E+004   -3.17799E+003    3.60837E+005    5.69076E+003
            1579    6.30799E+005    3.48172E+005   -3.80044E+005   -2.37737E+003   -3.80044E+005    7.28216E+005    1.14163E+004   -2.52900E+005   -4.59230E+003   -2.42788E+003   -2.72287E+004   -2.17767E+003    3.63901E+005    4.31848E+003
            1580    6.33749E+005    3.49903E+005   -3.81726E+005   -2.61532E+003   -3.81726E+005    7.31629E+005    1.14796E+004   -2.52045E+005   -4.33654E+003   -2.62239E+003   -2.74797E+004   -6.63106E+002    3.65626E+005    1.98365E+003
            1581    6.34209E+005    3.50628E+005   -3.81529E+005   -1.97983E+003   -3.81529E+005    7.32157E+005    1.09605E+004   -2.53265E+005   -4.09320E+003   -1.98161E+003   -2.68067E+004    3.69958E+002    3.65901E+005   -8.96490E+002
            1582    6.31720E+005    3.49332E+005   -3.79978E+005   -3.06297E+003   -3.79978E+005    7.29310E+005    1.12361E+004   -2.44800E+005   -4.57452E+003   -3.09739E+003   -2.60365E+004    1.84903E+003    3.64477E+005   -3.46304E+003
            1583    6.00476E+005    3.13719E+005   -3.78716E+005   -1.32959E+003   -3.78716E+005    6.92435E+005    2.21091E+004   -3.22670E+005   -1.62788E+004   -5.59746E+002   -4.94886E+004   -2.46783E+004    3.44883E+005   -3.61231E+003
            1584    6.08032E+005    3.22276E+005   -3.78998E+005    1.02557E+003   -3.78998E+005    7.01275E+005    1.85654E+004   -3.19097E+005   -5.50812E+003    9.83137E+002   -5.11714E+004   -2.00308E+004    3.49316E+005    1.86711E+003
            1585    6.17011E+005    3.27659E+005   -3.84046E+005    2.38218E+002   -3.84046E+005    7.11706E+005    1.87162E+004   -3.18732E+005    3.45731E+002   -1.26942E+002   -5.63674E+004   -1.66374E+004    3.54307E+005    5.21716E+003
            1586    6.25924E+005    3.32280E+005   -3.89699E+005    2.91610E+002   -3.89699E+005    7.21979E+005    1.90426E+004   -3.23926E+005    3.71729E+003   -1.10550E+002   -6.07346E+004   -1.31072E+004    3.59264E+005    6.61776E+003
            1587    6.34007E+005    3.36129E+005   -3.95179E+005   -2.70451E+002   -3.95179E+005    7.31308E+005    1.97732E+004   -3.27658E+005    6.26138E+003   -5.70154E+002   -6.50109E+004   -9.81316E+003    3.63737E+005    6.40792E+003
            1588    6.39867E+005    3.39253E+005   -3.98822E+005   -3.92239E+002   -3.98822E+005    7.38075E+005    1.99872E+004   -3.30195E+005    8.05656E+003   -5.26110E+002   -6.74920E+004   -5.87877E+003    3.67028E+005    4.69086E+003
            1589    6.43059E+005    3.41177E+005   -4.00578E+005   -1.42578E+002   -4.00578E+005    7.41756E+005    1.98479E+004   -3.31913E+005    8.80320E+003   -1.63922E+002   -6.81830E+004   -2.28063E+003    3.68864E+005    1.92448E+003
            1590    6.42816E+005    3.41423E+005   -4.00107E+005   -8.28623E+002   -4.00107E+005    7.41530E+005    1.98374E+004   -3.27894E+005    8.73308E+003   -8.39184E+002   -6.74060E+004    1.98961E+003    3.68798E+005   -1.15435E+003
            1591    6.39302E+005    3.40552E+005   -3.96918E+005    2.71013E+002   -3.96918E+005    7.37471E+005    1.86984E+004   -3.26470E+005    8.05124E+003    1.57637E+002   -6.43040E+004    5.42848E+003    3.66895E+005   -4.28747E+003
            1592    6.13209E+005    2.96000E+005   -4.09135E+005   -7.68256E+002   -4.09135E+005    7.05136E+005    3.79677E+004   -3.96322E+005   -3.18087E+004    7.21918E+000   -8.21016E+004   -3.93841E+004    3.49393E+005    1.21703E+003
            1593    6.25149E+005    3.00006E+005   -4.18950E+005   -3.44962E+003   -4.18950E+005    7.18955E+005    4.07980E+004   -4.02030E+005   -2.59501E+004   -3.65021E+003   -9.27935E+004   -3.22097E+004    3.56447E+005    5.15508E+003
            1594    6.36506E+005    3.05333E+005   -4.26802E+005   -4.84233E+003   -4.26802E+005    7.32135E+005    4.21039E+004   -4.06627E+005   -1.95099E+004   -5.39864E+003   -1.01403E+005   -2.56691E+004    3.62831E+005    7.34755E+003
            1595    6.47064E+005    3.10535E+005   -4.33882E+005   -6.22245E+003   -4.33882E+005    7.44417E+005    4.31901E+004   -4.10096E+005   -1.27273E+004   -6.84151E+003   -1.10001E+005   -2.09253E+004    3.68374E+005    8.39923E+003
            1596    6.56259E+005    3.14469E+005   -4.40486E+005   -6.37573E+003   -4.40486E+005    7.54955E+005    4.41310E+004   -4.16871E+005   -8.76733E+003   -6.81011E+003   -1.16816E+005   -1.50075E+004    3.73245E+005    7.62405E+003
            1597    6.62929E+005    3.17847E+005   -4.44845E+005   -6.92528E+003   -4.44845E+005    7.62692E+005    4.46413E+004   -4.19577E+005   -5.42288E+003   -7.11953E+003   -1.21381E+005   -9.38336E+003    3.76773E+005    5.32384E+003
            1598    6.65931E+005    3.19411E+005   -4.46741E+005   -6.89835E+003   -4.46741E+005    7.66152E+005    4.47426E+004   -4.21322E+005   -4.24099E+003   -6.92338E+003   -1.23063E+005   -2.89928E+003    3.78426E+005    2.07690E+003
            1599    6.65336E+005    3.20443E+005   -4.45105E+005   -6.43652E+003   -4.45105E+005    7.65548E+005    4.36996E+004   -4.18944E+005   -3.60307E+003   -6.46010E+003   -1.21036E+005    3.25951E+003    3.78227E+005   -1.86103E+003
            1600    6.60625E+005    3.18914E+005   -4.41349E+005   -7.13313E+003   -4.41349E+005    7.60264E+005    4.31894E+004   -4.12479E+005   -5.36452E+003   -7.31564E+003   -1.16888E+005    9.50605E+003    3.75879E+005   -4.99489E+003
            1601    6.28011E+005    2.80108E+005   -4.39400E+005   -1.35873E+003   -4.39400E+005    7.19508E+005    5.35504E+004   -4.49316E+005   -4.60653E+004   -5.57843E+002   -1.14028E+005   -5.08574E+004    3.54385E+005    5.44278E+003
            1602    6.35849E+005    2.90603E+005   -4.38738E+005   -9.19160E+002   -4.38738E+005    7.29340E+005    4.96847E+004   -4.43371E+005   -2.80084E+004   -1.24494E+003   -1.19801E+005   -4.24754E+004    3.59202E+005    8.43513E+003
            1603    6.48733E+005    2.96875E+005   -4.47721E+005   -4.45073E+003   -4.47721E+005    7.44596E+005    5.17657E+004   -4.45095E+005   -1.85142E+004   -5.31875E+003   -1.31464E+005   -3.51274E+004    3.66239E+005    1.06175E+004
            1604    6.62922E+005    3.02997E+005   -4.58008E+005   -5.95626E+003   -4.58008E+005    7.61005E+005    5.36555E+004   -4.52846E+005   -1.11919E+004   -6.80867E+003   -1.42966E+005   -2.79273E+004    3.73637E+005    1.08226E+004
            1605    6.75876E+005    3.07613E+005   -4.68274E+005   -7.47813E+003   -4.68274E+005    7.75887E+005    5.60463E+004   -4.61501E+005   -6.41474E+003   -8.09162E+003   -1.53633E+005   -2.05440E+004    3.80278E+005    9.62569E+003
            1606    6.85369E+005    3.11668E+005   -4.75161E+005   -8.23032E+003   -4.75161E+005    7.86830E+005    5.72411E+004   -4.67247E+005   -2.35309E+003   -8.47926E+003   -1.60891E+005   -1.18863E+004    3.85133E+005    6.38701E+003
            1607    6.89521E+005    3.13653E+005   -4.77910E+005   -7.89737E+003   -4.77910E+005    7.91563E+005    5.73848E+004   -4.70630E+005   -8.29002E+002   -7.91901E+003   -1.63406E+005   -3.43975E+003    3.87326E+005    1.90774E+003
            1608    6.87142E+005    3.13809E+005   -4.75223E+005   -8.35346E+003   -4.75223E+005    7.89033E+005    5.65891E+004   -4.65660E+005   -3.63694E+002   -8.40351E+003   -1.61000E+005    6.06036E+003    3.86201E+005   -2.79201E+003
            1609    6.79352E+005    3.12267E+005   -4.67859E+005   -6.57659E+003   -4.67859E+005    7.80126E+005    5.40560E+004   -4.59726E+005   -2.04860E+003   -6.90506E+003   -1.53214E+005    1.38479E+004    3.82382E+005   -7.18876E+003
            1610    6.45040E+005    2.63044E+005   -4.72615E+005   -3.88918E+003   -4.72615E+005    7.35660E+005    7.11534E+004   -4.95741E+005   -6.76728E+004   -2.88669E+003   -1.42901E+005   -5.96002E+004    3.60767E+005    8.76928E+003
            1611    6.62657E+005    2.68594E+005   -4.87865E+005   -9.92591E+003   -4.87865E+005    7.56459E+005    7.63992E+004   -5.03163E+005   -5.96742E+004   -1.02441E+004   -1.59279E+005   -5.04858E+004    3.71388E+005    1.14320E+004
            1612    6.78589E+005    2.75007E+005   -5.00222E+005   -1.38677E+004   -5.00222E+005    7.75228E+005    7.96942E+004   -5.09875E+005   -5.03407E+004   -1.47261E+004   -1.74016E+005   -4.08450E+004    3.80365E+005    1.26214E+004
            1613    6.94371E+005    2.81007E+005   -5.12698E+005   -1.74797E+004   -5.12698E+005    7.93704E+005    8.30570E+004   -5.17357E+005   -4.15002E+004   -1.85087E+004   -1.89162E+005   -3.38694E+004    3.88349E+005    1.33887E+004
            1614    7.10009E+005    2.85610E+005   -5.25807E+005   -1.85341E+004   -5.25807E+005    8.11417E+005    8.62439E+004   -5.30631E+005   -3.65408E+004   -1.92600E+004   -2.02931E+005   -2.44143E+004    3.96259E+005    1.15717E+004
            1615    7.21162E+005    2.89742E+005   -5.34606E+005   -2.03943E+004   -5.34606E+005    8.24348E+005    8.84193E+004   -5.37113E+005   -3.21593E+004   -2.06692E+004   -2.12429E+005   -1.42928E+004    4.01913E+005    7.28030E+003
            1616    7.25709E+005    2.91616E+005   -5.37900E+005   -2.02753E+004   -5.37900E+005    8.29515E+005    8.88532E+004   -5.40808E+005   -3.02862E+004   -2.02932E+004   -2.15980E+005   -2.87230E+003    4.04219E+005    1.95792E+003
            1617    7.23121E+005    2.92642E+005   -5.34103E+005   -1.93699E+004   -5.34103E+005    8.26745E+005    8.69436E+004   -5.36984E+005   -2.89543E+004   -1.94619E+004   -2.12414E+005    8.53154E+003    4.02966E+005   -4.21552E+003
            1618    7.12475E+005    2.90381E+005   -5.24389E+005   -1.83512E+004   -5.24389E+005    8.14770E+005    8.41198E+004   -5.27037E+005   -3.04457E+004   -1.87828E+004   -2.03131E+005    1.92669E+004    3.97617E+005   -8.93031E+003
            1619    6.55199E+005    2.45477E+005   -4.98922E+005   -9.72577E+003   -4.98922E+005    7.44399E+005    8.77235E+004   -5.24475E+005   -8.90081E+004   -8.40662E+003   -1.65756E+005   -6.44671E+004    3.64192E+005    1.06217E+004
            1620    6.58124E+005    2.53736E+005   -4.95335E+005   -9.91002E+003   -4.95335E+005    7.49071E+005    8.38361E+004   -5.17554E+005   -7.03579E+004   -1.00761E+004   -1.71074E+005   -5.72198E+004    3.66480E+005    1.33310E+004
            1621    6.76241E+005    2.56856E+005   -5.13369E+005   -1.70460E+004   -5.13369E+005    7.70225E+005    9.11862E+004   -5.27845E+005   -6.55747E+004   -1.84610E+004   -1.89523E+005   -4.97425E+004    3.76657E+005    1.67956E+004
            1622    6.99690E+005    2.62173E+005   -5.34844E+005   -2.17124E+004   -5.34844E+005    7.97018E+005    9.81278E+004   -5.45498E+005   -5.96836E+004   -2.31548E+004   -2.11545E+005   -4.03589E+004    3.88968E+005    1.68096E+004
            1623    7.21605E+005    2.65957E+005   -5.55994E+005   -2.66465E+004   -5.55994E+005    8.21951E+005    1.05561E+005   -5.62817E+005   -5.70469E+004   -2.75697E+004   -2.32067E+005   -3.00300E+004    4.00322E+005    1.38612E+004
            1624    7.38295E+005    2.70362E+005   -5.70800E+005   -3.01564E+004   -5.70800E+005    8.41161E+005    1.10198E+005   -5.74292E+005   -5.39154E+004   -3.04786E+004   -2.46200E+005   -1.65851E+004    4.09070E+005    8.35272E+003
            1625    7.45238E+005    2.72559E+005   -5.76548E+005   -3.09837E+004   -5.76548E+005    8.49106E+005    1.11658E+005   -5.79426E+005   -5.25365E+004   -3.09912E+004   -2.51445E+005   -2.21983E+003    4.12733E+005    1.29248E+003
            1626    7.40219E+005    2.72367E+005   -5.71234E+005   -3.03650E+004   -5.71234E+005    8.43601E+005    1.09744E+005   -5.73848E+005   -5.16719E+004   -3.04993E+004   -2.47061E+005    1.28362E+004    4.10112E+005   -5.54073E+003
            1627    7.26060E+005    2.70745E+005   -5.56572E+005   -2.53407E+004   -5.56572E+005    8.27317E+005    1.03723E+005   -5.64035E+005   -5.19609E+004   -2.60004E+004   -2.33207E+005    2.58229E+004    4.02706E+005   -1.18112E+004
            1628    6.62729E+005    2.26966E+005   -5.22490E+005   -1.37979E+004   -5.22490E+005    7.49456E+005    1.03107E+005   -5.50576E+005   -1.13237E+005   -1.15883E+004   -1.84497E+005   -6.70209E+004    3.66399E+005    1.05615E+004
            1629    6.80448E+005    2.26406E+005   -5.44194E+005   -2.60778E+004   -5.44194E+005    7.70600E+005    1.14622E+005   -5.59466E+005   -1.14340E+005   -2.56155E+004   -2.03911E+005   -5.97286E+004    3.77690E+005    1.30959E+004
            1630    6.94357E+005    2.25526E+005   -5.60127E+005   -2.87589E+004   -5.60127E+005    7.85653E+005    1.21120E+005   -5.74637E+005   -1.11222E+005   -2.96279E+004   -2.22511E+005   -5.36848E+004    3.84928E+005    1.68576E+004
            1631    7.16655E+005    2.24643E+005   -5.86656E+005   -3.97952E+004   -5.86656E+005    8.11299E+005    1.33936E+005   -5.90893E+005   -1.14006E+005   -4.09016E+004   -2.46901E+005   -4.70250E+004    3.97227E+005    1.70545E+004
            1632    7.42465E+005    2.26769E+005   -6.14107E+005   -4.89325E+004   -6.14107E+005    8.40877E+005    1.45424E+005   -6.10224E+005   -1.16336E+005   -4.97923E+004   -2.70143E+005   -3.49549E+004    4.11760E+005    1.45007E+004
            1633    7.60938E+005    2.27925E+005   -6.34302E+005   -5.67239E+004   -6.34302E+005    8.62226E+005    1.54367E+005   -6.23042E+005   -1.18558E+005   -5.70259E+004   -2.87517E+005   -1.89760E+004    4.22294E+005    8.55916E+003
            1634    7.68307E+005    2.29275E+005   -6.41379E+005   -5.85142E+004   -6.41379E+005    8.70654E+005    1.56873E+005   -6.28637E+005   -1.18356E+005   -5.85177E+004   -2.93745E+005   -1.05019E+003    4.26401E+005    1.01160E+003
            1635    7.63100E+005    2.30326E+005   -6.34517E+005   -5.59562E+004   -6.34517E+005    8.64843E+005    1.53382E+005   -6.23868E+005   -1.15767E+005   -5.61803E+004   -2.88200E+005    1.68314E+004    4.23378E+005   -7.44951E+003
            1636    7.44834E+005    2.30176E+005   -6.13968E+005   -4.92649E+004   -6.13968E+005    8.44144E+005    1.44352E+005   -6.08921E+005   -1.12067E+005   -4.98818E+004   -2.71108E+005    3.31976E+004    4.13089E+005   -1.28150E+004
            1637    7.12520E+005    1.70192E+005   -6.33143E+005   -7.76063E+004   -6.33143E+005    8.03334E+005    1.80186E+005   -6.03479E+005   -1.82604E+005   -7.79258E+004   -2.80028E+005    4.25305E+004    3.96288E+005   -1.26475E+004
            1638    7.30018E+005    1.63191E+005   -6.60517E+005   -9.35633E+004   -6.60517E+005    8.23708E+005    1.96963E+005   -6.15385E+005   -1.93806E+005   -9.36942E+004   -3.03389E+005    2.28712E+004    4.07513E+005   -7.18453E+003
            1639    7.37489E+005    1.60480E+005   -6.71756E+005   -9.93463E+004   -6.71756E+005    8.32236E+005    2.03541E+005   -6.21227E+005   -1.98283E+005   -9.93463E+004   -3.12993E+005    5.78276E+001    4.12147E+005   -4.01641E+001
            1640    7.28696E+005    1.62274E+005   -6.59707E+005   -9.29638E+004   -6.59707E+005    8.21981E+005    1.96799E+005   -6.15345E+005   -1.94458E+005   -9.31595E+004   -3.02779E+005   -2.28569E+004    4.06728E+005    7.73882E+003
            1641    7.09572E+005    1.67771E+005   -6.31970E+005   -7.78154E+004   -6.31970E+005    7.99740E+005    1.80671E+005   -6.02170E+005   -1.84295E+005   -7.81042E+004   -2.79615E+005   -4.21969E+004    3.94631E+005    1.24487E+004
            1642    6.86663E+005    1.77648E+005   -5.95400E+005   -5.62199E+004   -5.95400E+005    7.73048E+005    1.57990E+005   -5.86460E+005   -1.69447E+005   -5.61170E+004   -2.48407E+005   -5.70385E+004    3.79943E+005    1.46995E+004
            1643    6.60591E+005    1.86092E+005   -5.56926E+005   -3.60058E+004   -5.56926E+005    7.43018E+005    1.35613E+005   -5.66974E+005   -1.54776E+005   -3.45948E+004   -2.17469E+005   -6.57509E+004    3.63753E+005    1.35918E+004
            1644    6.47048E+005    1.95516E+005   -5.30431E+005   -1.44147E+004   -5.30431E+005    7.25946E+005    1.16443E+005   -5.62402E+005   -1.41655E+005   -1.30657E+004   -1.94609E+005   -6.32793E+004    3.55888E+005    1.34220E+004
            1645    6.67598E+005    2.08172E+005   -5.41461E+005   -1.10040E+004   -5.41461E+005    7.49633E+005    1.14765E+005   -5.77920E+005   -1.40693E+005   -1.07454E+004   -1.92855E+005   -6.76279E+004    3.67298E+005    1.69082E+004
            1646    5.85285E+005    3.25139E+005   -3.50572E+005   -1.81900E+003   -3.50572E+005    6.75712E+005    9.08396E+003   -2.23697E+005   -9.54461E+003   -7.97056E+002   -1.69102E+004   -1.13838E+004    3.37308E+005   -1.46541E+004
            1647    5.93202E+005    3.06970E+005   -3.76842E+005   -4.55319E+002   -3.76842E+005    6.83812E+005    2.34427E+004   -3.30914E+005   -2.61867E+004    2.12114E+003   -4.62627E+004   -3.29062E+004    3.39861E+005   -1.08171E+004
            1648    6.06582E+005    2.88241E+005   -4.08722E+005   -3.97112E+001   -4.08722E+005    6.96963E+005    4.01734E+004   -4.03261E+005   -4.58917E+004    3.27167E+003   -7.79003E+004   -5.04447E+004    3.44098E+005   -5.21042E+003
            1649    6.19595E+005    2.72366E+005   -4.36118E+005    4.35777E+003   -4.36118E+005    7.08484E+005    5.31315E+004   -4.59075E+005   -6.38624E+004    7.46094E+003   -1.02993E+005   -6.39102E+004    3.47479E+005    1.95388E+003
            1650    6.36324E+005    2.53498E+005   -4.70130E+005    2.04829E+003   -4.70130E+005    7.23628E+005    7.15278E+004   -5.04866E+005   -8.63512E+004    5.35657E+003   -1.33589E+005   -7.27602E+004    3.53041E+005    6.80278E+003
            1651    6.45042E+005    2.37653E+005   -4.93138E+005   -3.09430E+003   -4.93138E+005    7.30791E+005    8.61931E+004   -5.28771E+005   -1.05825E+005    1.31349E+001   -1.52767E+005   -7.70347E+004    3.55714E+005    1.00953E+004
            1652    6.64675E+005    2.21060E+005   -5.28009E+005   -8.68460E+003   -5.28009E+005    7.49069E+005    1.05211E+005   -5.64370E+005   -1.27533E+005   -8.07361E+003   -1.80026E+005   -7.88292E+004    3.64638E+005    1.79934E+004
            1653    6.58389E+005    3.85127E+005    3.85127E+005    2.23457E+002   -3.75095E+005    7.60222E+005   -3.41862E+003    1.84026E+005    1.07930E+002    7.99368E+001    1.00680E+004   -8.76646E+003    3.79965E+005    2.99692E+003
            1654    6.71358E+005    3.91169E+005    3.91169E+005   -2.18084E+003   -3.84020E+005    7.75189E+005   -1.65631E+003    1.98166E+005   -3.24931E+003   -2.12590E+003    1.03441E+004   -6.59842E+003    3.87475E+005   -1.71948E+003
            1655    6.83098E+005    3.98612E+005    3.98612E+005   -2.91851E+002   -3.90144E+005    7.88756E+005   -2.72535E+003    1.85034E+005   -3.49699E+003   -2.02402E+002    1.18754E+004   -5.10400E+003    3.94255E+005   -3.52445E+003
            1656    6.92446E+005    4.03617E+005    4.03617E+005   -1.70179E+003   -3.95925E+005    7.99542E+005   -1.99667E+003    1.99828E+005   -4.84711E+003   -1.63993E+003    1.24770E+004   -3.38724E+003    3.99646E+005   -3.69440E+003
            1657    6.64019E+005    4.09930E+005    4.09930E+005    1.04080E+003   -3.56234E+005    7.66163E+005   -1.82455E+004    3.24177E+005    1.58683E+004    7.61280E+002    3.81070E+004   -2.57095E+004    3.82046E+005    8.21380E+002
            1658    6.78064E+005    4.19098E+005    4.19098E+005    3.74992E+003   -3.63368E+005    7.82466E+005   -1.98264E+004    3.21418E+005    1.20634E+004    3.88472E+003    4.35310E+004   -1.92527E+004    3.90439E+005   -2.34778E+003
            1659    6.90255E+005    4.25632E+005    4.25632E+005    2.23390E+003   -3.70877E+005    7.96509E+005   -1.89963E+004    3.29812E+005    7.32989E+003    2.49324E+003    4.71659E+004   -1.44265E+004    3.97478E+005   -4.39150E+003
            1660    7.00725E+005    4.32925E+005    4.32925E+005    4.16407E+003   -3.75711E+005    8.08635E+005   -2.04594E+004    3.30031E+005    5.40338E+003    4.33529E+003    5.16395E+004   -1.02455E+004    4.03512E+005   -3.97549E+003
            1661    6.70017E+005    4.23437E+005    4.23437E+005    4.57012E+002   -3.49069E+005    7.72506E+005   -2.49418E+004    3.66589E+005    1.74395E+004    1.08640E+002    5.72772E+004   -4.13640E+004    3.83495E+005   -1.46115E+003
            1662    6.83142E+005    4.28947E+005    4.28947E+005   -6.86972E+002   -3.58796E+005    7.87743E+005   -2.31544E+004    3.68122E+005    8.12779E+003   -3.29922E+002    6.16654E+004   -3.15700E+004    3.91678E+005   -4.72779E+003
            1663    6.97280E+005    4.38572E+005    4.38572E+005    2.21969E+003   -3.65606E+005    8.04177E+005   -2.50619E+004    3.67949E+005    3.69164E+003    2.63654E+003    6.88575E+004   -2.45385E+004    3.99995E+005   -5.44160E+003
            1664    7.09417E+005    4.46296E+005    4.46296E+005    1.72265E+003   -3.71842E+005    8.18137E+005   -2.53923E+004    3.76633E+005   -4.83240E+002    2.07360E+003    7.45866E+004   -1.72329E+004    4.06954E+005   -5.68557E+003
            1665    6.84622E+005    4.55166E+005    4.55166E+005    8.43425E+002   -3.32263E+005    7.87429E+005   -4.12489E+004    4.38528E+005    3.81720E+004    6.68476E+002    8.49062E+004   -5.45119E+004    3.89172E+005   -5.30056E+003
            1666    7.00463E+005    4.65358E+005    4.65358E+005    7.06181E+003   -3.40957E+005    8.06315E+005   -4.38212E+004    4.31767E+005    2.90047E+004    7.22237E+003    9.52364E+004   -4.22557E+004    3.99541E+005   -5.43177E+003
            1667    7.13902E+005    4.72501E+005    4.72501E+005    6.68699E+003   -3.49404E+005    8.21905E+005   -4.32616E+004    4.36595E+005    2.05129E+004    7.25480E+003    1.02017E+005   -3.29811E+004    4.07566E+005   -7.36560E+003
            1668    7.28733E+005    4.84163E+005    4.84163E+005    9.25853E+003   -3.54871E+005    8.39034E+005   -4.61834E+004    4.44055E+005    1.64840E+004    9.70693E+003    1.12359E+005   -2.48245E+004    4.16003E+005   -6.83345E+003
            1669    6.89726E+005    4.67850E+005    4.67850E+005    1.84107E+003   -3.24483E+005    7.92333E+005   -4.84029E+004    4.61536E+005    4.38872E+004    1.08824E+003    1.00233E+005   -6.47998E+004    3.89700E+005   -6.00839E+003
            1670    6.98293E+005    4.69908E+005    4.69908E+005    3.87373E+003   -3.32954E+005    8.02862E+005   -4.69424E+004    4.53755E+005    3.26630E+004    4.37274E+003    1.03791E+005   -5.14212E+004    3.96483E+005   -8.41799E+003
            1671    7.16493E+005    4.84590E+005    4.84590E+005    7.93683E+003   -3.39367E+005    8.23957E+005   -5.10533E+004    4.61862E+005    2.71965E+004    8.88344E+003    1.17080E+005   -4.37194E+004    4.07125E+005   -1.02689E+004
            1672    7.35213E+005    4.99196E+005    4.99196E+005    8.88660E+003   -3.46156E+005    8.45352E+005   -5.39755E+004    4.76863E+005    2.25236E+004    9.68467E+003    1.29718E+005   -3.28134E+004    4.17926E+005   -9.82584E+003
            1673    7.01431E+005    4.98887E+005    4.98887E+005    7.49627E+003   -3.04398E+005    8.03285E+005   -6.73284E+004    5.06031E+005    7.12525E+004    5.90119E+003    1.24832E+005   -6.61192E+004    3.95037E+005   -5.31741E+003
            1674    7.11685E+005    5.05204E+005    5.05204E+005    1.53402E+004   -3.11148E+005    8.16352E+005   -6.97988E+004    4.95891E+005    6.02114E+004    1.53491E+004    1.33836E+005   -5.99135E+004    4.01975E+005   -8.93386E+003
            1675    7.28278E+005    5.18254E+005    5.18254E+005    1.44781E+004   -3.16769E+005    8.35023E+005   -7.19876E+004    5.12604E+005    5.43822E+004    1.53447E+004    1.46236E+005   -5.11768E+004    4.11734E+005   -1.16959E+004
            1676    7.48818E+005    5.37096E+005    5.37096E+005    1.97661E+004   -3.21574E+005    8.58670E+005   -7.84291E+004    5.25719E+005    5.28723E+004    2.05158E+004    1.61899E+005   -4.20996E+004    4.23713E+005   -1.08442E+004
            1677    6.73047E+005    4.78524E+005    4.78524E+005    6.42302E+003   -2.92159E+005    7.70683E+005   -6.42627E+004    4.86706E+005    7.65929E+004    7.26837E+003    1.08927E+005   -7.57709E+004    3.77363E+005   -1.24808E+004
            1678    6.89367E+005    4.98484E+005    4.98484E+005    6.64081E+003   -2.89465E+005    7.87950E+005   -7.18865E+004    5.13978E+005    7.84290E+004    7.54240E+003    1.29688E+005   -6.65526E+004    3.87351E+005   -1.32857E+004
            1679    7.07056E+005    5.17935E+005    5.17935E+005    1.71901E+004   -2.90890E+005    8.08825E+005   -8.14115E+004    5.20362E+005    7.76380E+004    1.81035E+004    1.48493E+005   -6.46046E+004    3.97523E+005   -1.35547E+004
            1680    7.33910E+005    5.45773E+005    5.45773E+005    2.52425E+004   -2.93637E+005    8.39411E+005   -9.24595E+004    5.41547E+005    8.19540E+004    2.60875E+004    1.69337E+005   -5.29850E+004    4.13960E+005   -1.25694E+004
            1681    7.06538E+005    5.60126E+005    5.60126E+005    4.43174E+004   -2.45182E+005    8.05309E+005   -1.19754E+005    5.46996E+005    1.32318E+005    4.36475E+004    1.83296E+005   -6.50758E+004    3.96328E+005   -9.68923E+003
            1682    6.89668E+005    5.32506E+005    5.32506E+005    2.73410E+004   -2.53225E+005    7.85731E+005   -1.02207E+005    5.36680E+005    1.18985E+005    2.53667E+004    1.62270E+005   -7.62029E+004    3.84400E+005   -8.93628E+003
            1683    6.66341E+005    5.03004E+005    5.03004E+005    1.56099E+004   -2.56295E+005    7.59299E+005   -8.74396E+004    5.17408E+005    1.07640E+005    1.13023E+004    1.43376E+005   -8.13486E+004    3.69719E+005   -5.14977E+003
            1684    6.65964E+005    4.96124E+005    4.96124E+005   -4.94381E+003   -2.59588E+005    7.55713E+005   -7.71975E+004    5.38843E+005    9.84104E+004   -8.53970E+003    1.41722E+005   -6.54924E+004    3.70876E+005   -3.92295E+003
            1685    6.43760E+005    3.80301E+005    3.80301E+005   -1.38213E+002   -3.62979E+005    7.43280E+005   -5.72781E+003    2.21972E+005    6.27259E+003   -8.22932E+002    1.17338E+004   -1.23151E+004    3.71281E+005    1.00483E+004
            1686    6.49604E+005    4.00828E+005    4.00828E+005    2.62800E+003   -3.48783E+005    7.49612E+005   -1.82244E+004    3.09215E+005    2.04503E+004    8.07637E+002    3.34152E+004   -3.62628E+004    3.72850E+005    7.78436E+003
            1687    6.58981E+005    4.22587E+005    4.22587E+005   -7.32451E+002   -3.36665E+005    7.59251E+005   -2.83965E+004    3.83922E+005    3.33712E+004   -2.75502E+003    5.45733E+004   -5.64998E+004    3.75118E+005    2.45432E+003
            1688    6.69233E+005    4.45528E+005    4.45528E+005    2.03088E+002   -3.24069E+005    7.69597E+005   -4.05542E+004    4.31672E+005    4.90491E+004   -2.04299E+003    7.46565E+004   -7.23136E+004    3.77538E+005   -1.41860E+003
            1689    6.81050E+005    4.68929E+005    4.68929E+005   -2.57604E+003   -3.11884E+005    7.80814E+005   -5.14896E+004    4.80177E+005    6.33030E+004   -3.96118E+003    9.51271E+004   -8.32187E+004    3.80875E+005   -7.70634E+003
            1690    7.00597E+005    5.01452E+005    5.01452E+005    5.73391E+003   -3.00063E+005    8.01515E+005   -6.90408E+004    5.14766E+005    8.31042E+004    3.43304E+003    1.20585E+005   -8.79195E+004    3.90174E+005   -8.20851E+003
            1691    6.97204E+005    5.11814E+005    5.11814E+005    5.22728E+003   -2.83348E+005    7.95161E+005   -7.78978E+004    5.35756E+005    9.40084E+004    4.11321E+003    1.35572E+005   -6.87887E+004    3.90780E+005   -8.67174E+003
            1692    7.26268E+005    5.88805E+005    5.88805E+005    5.82647E+004   -2.38924E+005    8.27730E+005   -1.36049E+005    5.62811E+005    1.44640E+005    5.83720E+004    2.05134E+005   -4.77586E+004    4.09899E+005   -9.16709E+003
            1693    7.40683E+005    6.09871E+005    6.09871E+005    7.01481E+004   -2.34565E+005    8.44436E+005   -1.48485E+005    5.71750E+005    1.53918E+005    7.02066E+004    2.21331E+005   -2.60988E+004    4.20036E+005   -5.23851E+003
            1694    7.47312E+005    6.18817E+005    6.18817E+005    7.45811E+004   -2.33241E+005    8.52058E+005   -1.53386E+005    5.76338E+005    1.57435E+005    7.45813E+004    2.28141E+005   -5.29833E+002    4.24559E+005   -1.65953E+002
            1695    7.40384E+005    6.10158E+005    6.10158E+005    7.02310E+004   -2.33851E+005    8.44009E+005   -1.48846E+005    5.72220E+005    1.54760E+005    7.03517E+004    2.21426E+005    2.52383E+004    4.19908E+005    5.60013E+003
            1696    7.24015E+005    5.88270E+005    5.88270E+005    5.88365E+004   -2.36780E+005    8.25050E+005   -1.36776E+005    5.61951E+005    1.46264E+005    5.88862E+004    2.05176E+005    4.76457E+004    4.08614E+005    8.90658E+003
            1697    7.04989E+005    5.60339E+005    5.60339E+005    4.31912E+004   -2.42687E+005    8.03026E+005   -1.20281E+005    5.49840E+005    1.34595E+005    4.27436E+004    1.83504E+005    6.46140E+004    3.95322E+005    1.04036E+004
            1698    6.83921E+005    5.30734E+005    5.30734E+005    2.78703E+004   -2.48045E+005    7.78779E+005   -1.03520E+005    5.35299E+005    1.21798E+005    2.59751E+004    1.62785E+005    7.49104E+004    3.81174E+005    8.98874E+003
            1699    6.76020E+005    5.13983E+005    5.13983E+005    1.32704E+004   -2.54995E+005    7.68978E+005   -9.07526E+004    5.34922E+005    1.11943E+005    1.09960E+004    1.49319E+005    7.27631E+004    3.76639E+005    7.92554E+003
            1700    6.88564E+005    5.17164E+005    5.17164E+005    1.51157E+004   -2.67790E+005    7.84954E+005   -8.81633E+004    5.32023E+005    1.07511E+005    1.38040E+004    1.43175E+005    7.94757E+004    3.83599E+005    1.05227E+004
            1701    7.54200E+005    5.67721E+005    5.67721E+005    3.46000E+004   -2.95208E+005    8.62928E+005   -1.02371E+005    5.53172E+005    8.47806E+004    3.51484E+004    1.87184E+005   -3.86540E+004    4.26617E+005   -9.96294E+003
            1702    7.68663E+005    5.54792E+005    5.54792E+005    2.28284E+004   -3.26498E+005    8.81289E+005   -8.37074E+004    5.41544E+005    5.23563E+004    2.32875E+004    1.75478E+005   -2.90350E+004    4.35320E+005   -8.53561E+003
            1703    7.51125E+005    5.12837E+005    5.12837E+005    1.18613E+004   -3.50804E+005    8.63640E+005   -5.79648E+004    4.87317E+005    2.00512E+004    1.22410E+004    1.41602E+005   -2.25776E+004    4.26898E+005   -7.02059E+003
            1704    7.40375E+005    4.92646E+005    4.92646E+005    9.01592E+003   -3.59686E+005    8.52332E+005   -4.73255E+004    4.54263E+005    1.32420E+004    9.24139E+003    1.19493E+005   -1.55772E+004    4.22539E+005   -5.09475E+003
            1705    7.18913E+005    4.53473E+005    4.53473E+005    2.99424E+003   -3.75618E+005    8.29091E+005   -2.69497E+004    3.81511E+005   -2.79375E+003    3.13653E+003    8.05064E+004   -1.08892E+004    4.12294E+005   -3.71556E+003
            1706    7.07642E+005    4.37195E+005    4.37195E+005    3.24868E+003   -3.79383E+005    8.16578E+005   -2.03538E+004    3.37599E+005    3.63371E+003    3.32124E+003    5.41065E+004   -5.85034E+003    4.07458E+005   -2.89241E+003
            1707    6.98808E+005    4.07681E+005    4.07681E+005   -5.70854E+002   -3.99215E+005    8.06895E+005   -2.63166E+003    1.91630E+005   -5.15342E+003   -5.44978E+002    1.35934E+004   -2.19189E+003    4.03326E+005   -2.40516E+003
            1708    7.69744E+005    5.84580E+005    5.84580E+005    3.95340E+004   -2.95972E+005    8.80552E+005   -1.09381E+005    5.66322E+005    8.84926E+004    3.97083E+004    1.99941E+005   -1.96547E+004    4.36279E+005   -5.55654E+003
            1709    7.80836E+005    5.66947E+005    5.66947E+005    2.60987E+004   -3.28230E+005    8.95177E+005   -8.82721E+004    5.51060E+005    5.38801E+004    2.61877E+004    1.84748E+005   -1.40394E+004    4.42549E+005   -3.92147E+003
            1710    7.61689E+005    5.21802E+005    5.21802E+005    1.24286E+004   -3.53831E+005    8.75633E+005   -6.01329E+004    4.97426E+005    1.91199E+004    1.25022E+004    1.48777E+005   -9.36324E+003    4.32883E+005   -3.17624E+003
            1711    7.47002E+005    4.98735E+005    4.98735E+005    1.00021E+004   -3.61153E+005    8.59888E+005   -4.91947E+004    4.60419E+005    1.28312E+004    1.00298E+004    1.24723E+005   -6.07740E+003    4.26243E+005   -1.78872E+003
            1712    7.23851E+005    4.56989E+005    4.56989E+005    2.41525E+003   -3.77737E+005    8.34726E+005   -2.72223E+004    3.87719E+005   -3.97518E+003    2.43177E+003    8.32102E+004   -3.37001E+003    4.15065E+005   -1.34410E+003
            1713    7.10941E+005    4.40004E+005    4.40004E+005    4.08711E+003   -3.80382E+005    8.20386E+005   -2.12366E+004    3.38941E+005    3.48281E+003    4.09249E+003    5.61346E+004   -1.90548E+003    4.09342E+005   -6.98892E+002
            1714    7.01550E+005    4.09028E+005    4.09028E+005   -1.41890E+003   -4.01029E+005    8.10056E+005   -2.19342E+003    1.99999E+005   -5.73651E+003   -1.41752E+003    1.37343E+004   -4.53535E+002    4.04910E+005   -6.19854E+002
            1715    7.73873E+005    5.89576E+005    5.89576E+005    4.17690E+004   -2.95727E+005    8.85303E+005   -1.11873E+005    5.69057E+005    8.96058E+004    4.17709E+004    2.04241E+005    1.01295E+003    4.38923E+005    6.03437E+002
            1716    7.84459E+005    5.70647E+005    5.70647E+005    2.72519E+004   -3.28679E+005    8.99326E+005   -8.97399E+004    5.53691E+005    5.44549E+004    2.72576E+004    1.87507E+005    2.71726E+003    4.44706E+005    9.49367E+002
            1717    7.63908E+005    5.24196E+005    5.24196E+005    1.34695E+004   -3.54003E+005    8.78199E+005   -6.12207E+004    4.98563E+005    1.90703E+004    1.34849E+004    1.51107E+005    3.52785E+003    4.34093E+005    1.50950E+003
            1718    7.48054E+005    4.99666E+005    4.99666E+005    1.00511E+004   -3.61415E+005    8.61081E+005   -4.94341E+004    4.61587E+005    1.26170E+004    1.00699E+004    1.25615E+005    4.11960E+003    4.26796E+005    1.53219E+003
            1719    7.24172E+005    4.57541E+005    4.57541E+005    2.93602E+003   -3.77565E+005    8.35106E+005   -2.76372E+004    3.87286E+005   -4.14427E+003    2.95620E+003    8.40997E+004    3.37055E+003    4.15200E+005    1.56988E+003
            1720    7.10606E+005    4.39736E+005    4.39736E+005    3.67851E+003   -3.80249E+005    8.19985E+005   -2.10552E+004    3.40319E+005    3.31451E+003    3.69406E+003    5.61571E+004    2.53251E+003    4.09131E+005    1.41845E+003
            1721    7.01102E+005    4.08877E+005    4.08877E+005   -9.48178E+002   -4.00664E+005    8.09541E+005   -2.42147E+003    1.95333E+005   -5.65876E+003   -9.43356E+002    1.38665E+004    7.04832E+002    4.04650E+005    1.38189E+003
            1722    7.67028E+005    5.83331E+005    5.83331E+005    3.97885E+004   -2.94041E+005    8.77373E+005   -1.09693E+005    5.65102E+005    8.97204E+004    4.00314E+004    1.99327E+005    2.21836E+004    4.34665E+005    6.45862E+003
            1723    7.77931E+005    5.65723E+005    5.65723E+005    2.57713E+004   -3.25957E+005    8.91680E+005   -8.85125E+004    5.51268E+005    5.59029E+004    2.60153E+004    1.83619E+005    1.92231E+004    4.40806E+005    6.24023E+003
            1724    7.57951E+005    5.19984E+005    5.19984E+005    1.26125E+004   -3.51294E+005    8.71278E+005   -6.04339E+004    4.96173E+005    2.09646E+004    1.28556E+004    1.47481E+005    1.70570E+004    4.30666E+005    5.74011E+003
            1725    7.43160E+005    4.96628E+005    4.96628E+005    9.65698E+003   -3.58765E+005    8.55393E+005   -4.91735E+004    4.60064E+005    1.45230E+004    9.85019E+003    1.23147E+005    1.37702E+004    4.23996E+005    4.81803E+003
            1726    7.19891E+005    4.54823E+005    4.54823E+005    2.54159E+003   -3.75325E+005    8.30148E+005   -2.73464E+004    3.86288E+005   -2.74948E+003    2.69653E+003    8.20922E+004    1.07120E+004    4.12749E+005    4.01490E+003
            1727    7.06886E+005    4.37577E+005    4.37577E+005    3.72605E+003   -3.78112E+005    8.15689E+005   -2.10637E+004    3.38875E+005    4.28144E+003    3.81814E+003    5.50915E+004    6.39409E+003    4.06992E+005    3.33509E+003
            1728    6.97528E+005    4.06628E+005    4.06628E+005   -1.16975E+003   -3.98786E+005    8.05414E+005   -2.22432E+003    1.95138E+005   -5.49717E+003   -1.13466E+003    1.33048E+004    2.33885E+003    4.02579E+005    3.04211E+003
            1729    7.49967E+005    5.65957E+005    5.65957E+005    3.39564E+004   -2.91805E+005    8.57762E+005   -1.02703E+005    5.53545E+005    8.77755E+004    3.46675E+004    1.85666E+005    4.08082E+004    4.24063E+005    1.10156E+004
            1730    7.62808E+005    5.52550E+005    5.52550E+005    2.35958E+004   -3.21871E+005    8.74421E+005   -8.47583E+004    5.39540E+005    5.62836E+004    2.42311E+004    1.73760E+005    3.42978E+004    4.31839E+005    9.96715E+003
            1731    7.44887E+005    5.09195E+005    5.09195E+005    1.11593E+004   -3.47134E+005    8.56329E+005   -5.77401E+004    4.86211E+005    2.27869E+004    1.17885E+004    1.38645E+005    2.87821E+004    4.23207E+005    8.96130E+003
            1732    7.33637E+005    4.89560E+005    4.89560E+005    9.48745E+003   -3.54936E+005    8.44495E+005   -4.80372E+004    4.52405E+005    1.68016E+004    9.91870E+003    1.17391E+005    2.32261E+004    4.18571E+005    6.87988E+003
            1733    7.11497E+005    4.48683E+005    4.48683E+005    2.05104E+003   -3.71808E+005    8.20491E+005   -2.63088E+004    3.80450E+005   -1.12680E+003    2.39324E+003    7.76599E+004    1.71164E+004    4.07967E+005    5.66289E+003
            1734    7.00359E+005    4.33425E+005    4.33425E+005    3.71429E+003   -3.74738E+005    8.08163E+005   -2.08005E+004    3.35152E+005    5.67726E+003    3.91428E+003    5.28100E+004    1.05373E+004    4.03238E+005    4.47034E+003
            1735    6.91382E+005    4.02732E+005    4.02732E+005   -1.31717E+003   -3.95588E+005    7.98320E+005   -1.94233E+003    1.91392E+005   -5.21745E+003   -1.24946E+003    1.22939E+004    3.43189E+003    3.99030E+005    3.97341E+003
            1736    7.26402E+005    5.41959E+005    5.41959E+005    2.57419E+004   -2.88688E+005    8.30647E+005   -9.30046E+004    5.37867E+005    8.50246E+004    2.67784E+004    1.67211E+005    5.58115E+004    4.09404E+005    1.34905E+004
            1737    7.43392E+005    5.35534E+005    5.35534E+005    1.93521E+004   -3.16526E+005    8.52060E+005   -7.94532E+004    5.27202E+005    5.84486E+004    2.02786E+004    1.59632E+005    4.58860E+004    4.20449E+005    1.19118E+004
            1738    7.28121E+005    4.96234E+005    4.96234E+005    9.33635E+003   -3.40812E+005    8.37046E+005   -5.49197E+004    4.75441E+005    2.72342E+004    1.02524E+004    1.27273E+005    3.95621E+004    4.13579E+005    1.04291E+004
            1739    7.20721E+005    4.80179E+005    4.80179E+005    7.90458E+003   -3.49387E+005    8.29565E+005   -4.62323E+004    4.46190E+005    2.09469E+004    8.48778E+003    1.09262E+005    3.10861E+004    4.11221E+005    7.68846E+003
            1740    7.00794E+005    4.41784E+005    4.41784E+005    1.72374E+003   -3.66355E+005    8.08139E+005   -2.57178E+004    3.75251E+005    2.60209E+003    2.20903E+003    7.23423E+004    2.34447E+004    4.01852E+005    6.21922E+003
            1741    6.91485E+005    4.27543E+005    4.27543E+005    3.11150E+003   -3.70373E+005    7.97916E+005   -2.00937E+004    3.31636E+005    7.66379E+003    3.37567E+003    4.92418E+004    1.39958E+004    3.98152E+005    4.57185E+003
            1742    6.83267E+005    3.98172E+005    3.98172E+005   -1.07602E+003   -3.90778E+005    7.88950E+005   -2.10595E+003    1.88374E+005   -4.31131E+003   -9.81488E+002    1.16107E+004    4.81435E+003    3.94346E+005    3.93693E+003
            1743    7.04496E+005    5.18257E+005    5.18257E+005    1.70407E+004   -2.87240E+005    8.05497E+005   -8.26860E+004    5.22681E+005    8.31769E+004    1.82262E+004    1.46655E+005    6.40260E+004    3.96249E+005    1.42024E+004
            1744    7.25154E+005    5.19365E+005    5.19365E+005    1.72463E+004   -3.12001E+005    8.31366E+005   -7.48699E+004    5.11433E+005    6.07147E+004    1.77778E+004    1.46117E+005    5.61860E+004    4.09562E+005    1.08229E+004
            1745    7.09552E+005    4.80643E+005    4.80643E+005    5.48928E+003   -3.34978E+005    8.15622E+005   -5.03848E+004    4.64921E+005    3.07575E+004    6.36185E+003    1.14035E+005    4.89194E+004    4.02663E+005    1.01906E+004
            1746    7.07349E+005    4.71255E+005    4.71255E+005    6.98856E+003   -3.42845E+005    8.14100E+005   -4.51329E+004    4.39914E+005    2.65460E+004    7.50744E+003    1.01345E+005    3.94485E+004    4.03375E+005    7.26912E+003
            1747    6.88213E+005    4.32550E+005    4.32550E+005   -2.64617E+001   -3.61055E+005    7.93605E+005   -2.38227E+004    3.69988E+005    5.59703E+003    4.37061E+002    6.54341E+004    2.95391E+004    3.94551E+005    5.54615E+003
            1748    6.81606E+005    4.22007E+005    4.22007E+005    3.27563E+003   -3.64493E+005    7.86500E+005   -2.02632E+004    3.28498E+005    1.11408E+004    3.51125E+003    4.61375E+004    1.79400E+004    3.92442E+005    3.55820E+003
            1749    6.73709E+005    3.91874E+005    3.91874E+005   -1.73284E+003   -3.86040E+005    7.77914E+005   -1.36692E+003    1.84992E+005   -4.18063E+003   -1.65537E+003    9.93675E+003    6.04364E+003    3.88838E+005    2.57965E+003
            1750    6.90126E+005    5.01195E+005    5.01195E+005    1.17317E+004   -2.88140E+005    7.89336E+005   -7.49290E+004    5.09215E+005    8.24182E+004    1.23589E+004    1.30010E+005    7.29824E+004    3.86991E+005    1.29322E+004
            1751    7.09025E+005    5.06576E+005    5.06576E+005    1.25652E+004   -3.05832E+005    8.12409E+005   -7.11031E+004    5.06213E+005    6.73785E+004    1.21956E+004    1.33735E+005    6.39329E+004    3.99633E+005    8.66559E+003
            1752    6.95372E+005    4.71728E+005    4.71728E+005    4.34178E+003   -3.27389E+005    7.99118E+005   -4.95603E+004    4.59698E+005    3.84131E+004    4.65936E+003    1.05608E+005    5.79491E+004    3.93838E+005    8.56002E+003
            1753    6.92551E+005    4.60997E+005    4.60997E+005    4.47468E+003   -3.35873E+005    7.96871E+005   -4.31997E+004    4.35851E+005    3.29650E+004    4.64905E+003    9.19850E+004    4.75508E+004    3.94452E+005    6.01371E+003
            1754    6.76929E+005    4.27438E+005    4.27438E+005    4.71969E+002   -3.53062E+005    7.80500E+005   -2.49494E+004    3.69079E+005    1.26852E+004    6.16174E+002    6.15468E+004    3.59374E+004    3.87813E+005    3.60974E+003
            1755    6.70472E+005    4.14094E+005    4.14094E+005    2.00383E+003   -3.59551E+005    7.73645E+005   -1.88489E+004    3.23997E+005    1.33541E+004    2.02519E+003    4.11675E+004    2.21758E+004    3.85934E+005    1.31158E+003
            1756    6.63743E+005    3.87767E+005    3.87767E+005   -7.03523E+002   -3.78632E+005    7.66400E+005   -2.81049E+003    1.90982E+005   -1.45418E+003   -7.15487E+002    1.06011E+004    7.48112E+003    3.83079E+005   -1.95947E+002
            1757    6.86794E+005    4.98879E+005    4.98879E+005    8.43536E+003   -2.86051E+005    7.84929E+005   -7.37544E+004    5.12844E+005    8.80061E+004    6.50299E+003    1.26754E+005    7.75435E+004    3.83916E+005    7.54718E+003
            1758    6.93482E+005    4.92325E+005    4.92325E+005    5.64140E+003   -3.01717E+005    7.94042E+005   -6.54167E+004    5.01963E+005    7.09496E+004    4.71954E+003    1.20581E+005    7.67250E+004    3.88529E+005    9.22404E+003
            1759    6.84413E+005    4.67983E+005    4.67983E+005    7.07408E+002   -3.17616E+005    7.85600E+005   -5.03583E+004    4.68765E+005    5.14367E+004   -7.59111E+001    9.97140E+004    6.87710E+004    3.85844E+005    6.74342E+003
            1760    6.77975E+005    4.50277E+005    4.50277E+005    5.67736E+002   -3.29529E+005    7.79806E+005   -4.04385E+004    4.33765E+005    3.85400E+004    2.45390E+001    8.27509E+004    5.87619E+004    3.84746E+005    4.55248E+003
            1761    6.66381E+005    4.24256E+005    4.24256E+005   -4.51712E+002   -3.43779E+005    7.68035E+005   -2.66750E+004    3.77830E+005    2.32485E+004   -1.04718E+003    5.78236E+004    4.44928E+004    3.81006E+005    8.77803E+002
            1762    6.58940E+005    4.05797E+005    4.05797E+005    1.42696E+003   -3.54568E+005    7.60365E+005   -1.75519E+004    3.15651E+005    1.51245E+004    8.56409E+002    3.66748E+004    2.79772E+004    3.78972E+005   -2.54599E+003
            1763    6.53813E+005    3.84379E+005    3.84379E+005   -3.93610E+002   -3.70532E+005    7.54910E+005   -4.48443E+003    2.10910E+005    3.15877E+003   -6.33661E+002    1.09282E+004    9.37720E+003    3.77287E+005   -4.67613E+003
            1764    6.42484E+005    3.79712E+005    3.79712E+005    1.06731E+003   -3.62112E+005    7.41823E+005   -6.22255E+003    2.12341E+005    6.87508E+003    2.91047E+002    1.15015E+004    1.29670E+004    3.70511E+005   -1.08318E+004
            1765    6.48756E+005    4.01207E+005    4.01207E+005    1.00439E+003   -3.47312E+005    7.48519E+005   -1.82999E+004    3.19738E+005    2.12676E+004   -9.31875E+002    3.45641E+004    3.70826E+004    3.72202E+005   -7.95135E+003
            1766    6.57540E+005    4.22963E+005    4.22963E+005    3.02057E+002   -3.34606E+005    7.57569E+005   -2.95530E+004    3.83887E+005    3.52940E+004   -2.22853E+003    5.55935E+004    5.72173E+004    3.74125E+005   -3.91840E+003
            1767    6.66212E+005    4.44813E+005    4.44813E+005   -1.24037E+003   -3.20999E+005    7.65812E+005   -4.08577E+004    4.36337E+005    5.07261E+004   -3.73158E+003    7.55786E+004    7.25197E+004    3.75553E+005    1.15020E+003
            1768    6.73613E+005    4.65381E+005    4.65381E+005    3.84350E+001   -3.07057E+005    7.72437E+005   -5.27875E+004    4.72855E+005    6.62316E+004   -2.77794E+003    9.49088E+004    8.30158E+004    3.76590E+005    4.37172E+003
            1769    6.80043E+005    4.85201E+005    4.85201E+005    5.47553E+003   -2.93045E+005    7.78246E+005   -6.58771E+004    4.96948E+005    8.29363E+004    2.65091E+003    1.12044E+005    8.84011E+004    3.78261E+005    6.81198E+003
            1770    6.88807E+005    5.06469E+005    5.06469E+005    1.14650E+004   -2.80184E+005    7.86653E+005   -7.92499E+004    5.19891E+005    9.87745E+004    9.58352E+003    1.29392E+005    9.08612E+004    3.81984E+005    1.04880E+004
            1771    6.66485E+005    2.59742E+005   -4.96458E+005    5.42838E+003   -4.96458E+005    7.56200E+005    7.70960E+004   -5.39894E+005   -9.83251E+004    8.91498E+003   -1.41878E+005    6.46967E+004    3.71272E+005   -3.97365E+003
            1772    6.65280E+005    2.56196E+005   -5.01881E+005   -1.52027E+004   -5.01881E+005    7.58078E+005    8.69625E+004   -5.16683E+005   -1.07217E+005   -1.08110E+004   -1.42860E+005    8.10088E+004    3.69160E+005   -4.89946E+003
            1773    6.88959E+005    2.53405E+005   -5.31521E+005   -2.68891E+004   -5.31521E+005    7.84926E+005    1.01668E+005   -5.36107E+005   -1.18487E+005   -2.48384E+004   -1.61680E+005    7.64074E+004    3.83943E+005   -8.81269E+003
            1774    7.06089E+005    2.45261E+005   -5.59574E+005   -4.42753E+004   -5.59574E+005    8.04835E+005    1.19530E+005   -5.46347E+005   -1.32029E+005   -4.35635E+004   -1.82997E+005    6.51603E+004    3.96071E+005   -9.57155E+003
            1775    7.33921E+005    2.94193E+005   -5.45261E+005   -2.48955E+004   -5.45261E+005    8.39454E+005    9.19879E+004   -5.41235E+005   -8.12374E+004   -2.57644E+004   -1.68962E+005    5.31154E+004    4.13946E+005   -1.26741E+004
            1776    7.48326E+005    3.22268E+005   -5.35905E+005   -1.93783E+004   -5.35905E+005    8.58173E+005    7.76716E+004   -5.24418E+005   -5.19086E+004   -2.01321E+004   -1.60974E+005    4.19731E+004    4.23471E+005   -1.08292E+004
            1777    7.34703E+005    3.46705E+005   -4.98117E+005   -8.65581E+003   -4.98117E+005    8.44822E+005    5.33558E+004   -4.75296E+005   -2.18806E+004   -9.45163E+003   -1.28735E+005    3.26290E+004    4.17695E+005   -9.78392E+003
            1778    7.28295E+005    3.55228E+005   -4.83340E+005   -9.13494E+003   -4.83340E+005    8.38568E+005    4.57490E+004   -4.42646E+005   -1.61066E+004   -9.56691E+003   -1.11574E+005    2.45263E+004    4.15810E+005   -6.68301E+003
            1779    7.08918E+005    3.72117E+005   -4.45470E+005   -1.61261E+003   -4.45470E+005    8.17587E+005    2.49884E+004   -3.74902E+005    7.36667E+002   -1.95716E+003   -7.37447E+004    1.70533E+004    4.06712E+005   -5.61977E+003
            1780    7.00414E+005    3.75845E+005   -4.32445E+005   -4.21021E+003   -4.32445E+005    8.08290E+005    2.02700E+004   -3.28342E+005   -5.41310E+003   -4.38008E+003   -5.10170E+004    1.01699E+004    4.03359E+005   -3.96000E+003
            1781    6.92361E+005    3.96089E+005   -4.03357E+005    1.68390E+003   -4.03357E+005    7.99446E+005    1.86124E+003   -1.97012E+005    4.86357E+003    1.62284E+003   -1.20701E+004    3.33869E+003    3.99603E+005   -3.69616E+003
            1782    7.06618E+005    2.91276E+005   -5.17087E+005   -1.68810E+004   -5.17087E+005    8.08363E+005    8.08974E+004   -5.19616E+005   -7.70624E+004   -1.78083E+004   -1.47821E+005    6.44261E+004    3.97323E+005   -1.35485E+004
            1783    7.27982E+005    3.17469E+005   -5.17298E+005   -1.42840E+004   -5.17298E+005    8.34766E+005    7.13710E+004   -5.11252E+005   -5.36325E+004   -1.51445E+004   -1.45336E+005    5.10999E+004    4.11623E+005   -1.16212E+004
            1784    7.15698E+005    3.39837E+005   -4.83271E+005   -7.74076E+003   -4.83271E+005    8.23108E+005    5.03916E+004   -4.59885E+005   -2.66243E+004   -8.67128E+003   -1.15879E+005    4.34855E+004    4.06756E+005   -1.01335E+004
            1785    7.13479E+005    3.49841E+005   -4.71622E+005   -6.56405E+003   -4.71622E+005    8.21462E+005    4.27818E+004   -4.35019E+005   -2.00972E+004   -7.12663E+003   -1.01121E+005    3.26745E+004    4.07392E+005   -7.29911E+003
            1786    6.96864E+005    3.65823E+005   -4.37895E+005   -2.17175E+003   -4.37895E+005    8.03719E+005    2.47480E+004   -3.66379E+005   -3.50335E+003   -2.58261E+003   -6.81581E+004    2.43075E+004    3.99800E+005   -5.38493E+003
            1787    6.90106E+005    3.71039E+005   -4.25308E+005   -2.25165E+003   -4.25308E+005    7.96348E+005    1.88402E+004   -3.28624E+005   -7.30891E+003   -2.50363E+003   -4.67081E+004    1.42289E+004    3.97416E+005   -4.31814E+003
            1788    6.82941E+005    3.90253E+005   -3.98323E+005    2.78772E+002   -3.98323E+005    7.88576E+005    2.59739E+003   -1.82078E+005    3.52817E+003    1.91586E+002   -1.15119E+004    4.99839E+003    3.94170E+005   -3.50320E+003
            1789    6.89171E+005    2.89646E+005   -4.98098E+005   -6.49580E+003   -4.98098E+005    7.87744E+005    7.16491E+004   -5.13649E+005   -7.81677E+004   -7.44211E+003   -1.29337E+005    6.64350E+004    3.87272E+005   -1.33822E+004
            1790    7.10934E+005    3.11577E+005   -5.03974E+005   -1.50570E+004   -5.03974E+005    8.15551E+005    6.91511E+004   -4.94467E+005   -5.96015E+004   -1.50612E+004   -1.32791E+005    5.99970E+004    4.01576E+005   -8.88153E+003
            1791    6.97756E+005    3.33384E+005   -4.68909E+005   -3.66751E+003   -4.68909E+005    8.02293E+005    4.63977E+004   -4.52356E+005   -3.21891E+004   -4.14841E+003   -1.02855E+005    5.11589E+004    3.96251E+005   -8.28003E+003
            1792    7.00023E+005    3.41205E+005   -4.64638E+005   -6.99325E+003   -4.64638E+005    8.05843E+005    4.34755E+004   -4.30515E+005   -2.87271E+004   -7.14003E+003   -9.45594E+004    4.20419E+004    3.99343E+005   -5.31643E+003
            1793    6.82935E+005    3.59008E+005   -4.28512E+005    7.34127E+002   -4.28512E+005    7.87520E+005    2.29231E+004   -3.67104E+005   -7.91883E+003    3.77136E+002   -6.12277E+004    3.13683E+004    3.91590E+005   -4.71002E+003
            1794    6.77866E+005    3.63358E+005   -4.18883E+005   -3.76576E+003   -4.18883E+005    7.82241E+005    1.97638E+004   -3.20834E+005   -1.20406E+004   -3.90098E+003   -4.33498E+004    1.92153E+004    3.90332E+005   -2.34786E+003
            1795    6.71217E+005    3.84049E+005   -3.90978E+005    2.17167E+003   -3.90978E+005    7.75027E+005    1.58585E+003   -1.96758E+005    3.28667E+003    2.11800E+003   -1.01622E+004    6.47964E+003    3.87398E+005   -1.70686E+003
            1796    6.72585E+005    2.92175E+005   -4.78022E+005   -6.50244E+003   -4.78022E+005    7.70197E+005    6.41165E+004   -4.85873E+005   -7.65074E+004   -7.27743E+003   -1.08565E+005    7.57933E+004    3.77114E+005   -1.22720E+004
            1797    7.01198E+005    3.04606E+005   -4.98424E+005   -7.27171E+003   -4.98424E+005    8.03031E+005    6.70300E+004   -5.05718E+005   -7.09170E+004   -5.66857E+003   -1.24504E+005    6.61259E+004    3.94906E+005   -5.29130E+003
            1798    6.89270E+005    3.24700E+005   -4.67146E+005   -1.74211E+003   -4.67146E+005    7.91846E+005    4.80627E+004   -4.60554E+005   -4.35618E+004   -9.77112E+002   -9.96492E+004    6.48212E+004    3.89459E+005   -5.94092E+003
            1799    6.84211E+005    3.32474E+005   -4.54516E+005   -7.69311E+002   -4.54516E+005    7.86990E+005    4.09369E+004   -4.37507E+005   -3.78573E+004   -6.05405E+002   -8.43481E+004    5.43301E+004    3.88984E+005   -5.28660E+003
            1800    6.69665E+005    3.49204E+005   -4.22920E+005   -5.23507E+002   -4.22920E+005    7.72124E+005    2.47463E+004   -3.65159E+005   -1.72829E+004   -1.75376E+002   -5.67806E+004    4.10660E+004    3.83344E+005   -1.39989E+003
            1801    6.63880E+005    3.56230E+005   -4.09779E+005   -1.06822E+003   -4.09779E+005    7.66008E+005    1.82057E+004   -3.23710E+005   -1.58271E+004   -7.82116E+002   -3.80079E+004    2.54489E+004    3.81986E+005    9.08079E+002
            1802    6.58432E+005    3.75058E+005   -3.85213E+005   -2.24467E+002   -3.85213E+005    7.60271E+005    3.45990E+003   -1.84804E+005   -1.04511E+002   -7.97591E+001   -1.01954E+004    8.75933E+003    3.79988E+005    3.02404E+003
            1803    6.43803E+005    3.62645E+005   -3.80680E+005    1.02811E+002   -3.80680E+005    7.43325E+005    5.97757E+003   -2.24652E+005   -6.56513E+003    8.15376E+002   -1.21830E+004    1.28683E+004    3.71285E+005    9.99108E+003
            1804    6.49670E+005    3.48727E+005   -4.00959E+005   -2.67055E+003   -4.00959E+005    7.49686E+005    1.83010E+004   -3.09461E+005   -2.05643E+004   -8.30099E+002   -3.35087E+004    3.64130E+004    3.72870E+005    7.83946E+003
            1805    6.58991E+005    3.36796E+005   -4.22474E+005    7.51116E+002   -4.22474E+005    7.59270E+005    2.83088E+004   -3.83626E+005   -3.32462E+004    2.76358E+003   -5.44438E+004    5.61447E+004    3.75182E+005    2.49949E+003
            1806    6.68986E+005    3.24246E+005   -4.45092E+005   -1.65696E+002   -4.45092E+005    7.69338E+005    4.03372E+004   -4.30937E+005   -4.87676E+004    2.11389E+003   -7.43578E+004    7.19176E+004    3.77481E+005   -1.23775E+003
            1807    6.80423E+005    3.12011E+005   -4.68130E+005    2.62000E+003   -4.68130E+005    7.80142E+005    5.11664E+004   -4.79080E+005   -6.29546E+004    4.02769E+003   -9.45723E+004    8.29921E+004    3.80585E+005   -7.57093E+003
            1808    6.99683E+005    3.00109E+005   -5.00420E+005   -5.69719E+003   -5.00420E+005    8.00529E+005    6.86693E+004   -5.13444E+005   -8.27326E+004   -3.40167E+003   -1.19874E+005    8.80290E+004    3.89653E+005   -8.18625E+003
            1809    6.98028E+005    2.83498E+005   -5.12578E+005   -5.26907E+003   -5.12578E+005    7.96076E+005    7.81164E+004   -5.36597E+005   -9.42438E+004   -4.16428E+003   -1.35941E+005    6.94837E+004    3.91116E+005   -8.86284E+003
            1810    6.53748E+005    3.70270E+005   -3.84563E+005    3.78978E+002   -3.84563E+005    7.54833E+005    4.63803E+003   -2.12879E+005   -3.30381E+003    6.29248E+002   -1.12395E+004   -9.73666E+003    3.77238E+005   -4.68583E+003
            1811    6.63748E+005    3.78189E+005   -3.88213E+005    7.02323E+002   -3.88213E+005    7.66402E+005    3.10746E+003   -1.96197E+005    1.25253E+003    7.16104E+002   -1.12910E+004   -7.89456E+003    3.83068E+005   -2.10786E+002
            1812    6.73750E+005    3.85419E+005   -3.92537E+005    1.70907E+003   -3.92537E+005    7.77956E+005    1.80301E+003   -1.92862E+005    3.95975E+003    1.62489E+003   -1.09937E+004   -6.51897E+003    3.88843E+005    2.61468E+003
            1813    6.83465E+005    3.90170E+005   -3.99002E+005    1.06208E+003   -3.99002E+005    7.89172E+005    2.59009E+003   -1.97266E+005    4.17004E+003    9.60000E+002   -1.29003E+004   -5.23734E+003    3.94440E+005    3.92621E+003
            1814    6.91525E+005    3.95037E+005   -4.03442E+005    1.28531E+003   -4.03442E+005    7.98479E+005    2.37342E+003   -1.98933E+005    5.13303E+003    1.21240E+003   -1.34657E+004   -3.70075E+003    3.99095E+005    3.98069E+003
            1815    6.97699E+005    3.98444E+005   -4.07164E+005    1.14739E+003   -4.07164E+005    8.05608E+005    2.52399E+003   -2.00346E+005    5.47140E+003    1.11102E+003   -1.41544E+004   -2.45322E+003    4.02666E+005    3.01272E+003
            1816    7.01153E+005    4.00468E+005   -4.09131E+005    9.21475E+002   -4.09131E+005    8.09599E+005    2.58078E+003   -1.97872E+005    5.64068E+003    9.16605E+002   -1.42996E+004   -7.13946E+002    4.04674E+005    1.37881E+003
            1817    7.01607E+005    4.01011E+005   -4.09111E+005    1.38857E+003   -4.09111E+005    8.10122E+005    2.23707E+003   -2.00255E+005    5.71277E+003    1.38710E+003   -1.38111E+004    4.75279E+002    4.04942E+005   -6.33201E+002
            1818    6.98727E+005    3.99278E+005   -4.07524E+005    5.46786E+002   -4.07524E+005    8.06802E+005    2.56644E+003   -1.89818E+005    5.15262E+003    5.20614E+002   -1.33726E+004    2.19655E+003    4.03282E+005   -2.42613E+003
            1819    6.58930E+005    3.54161E+005   -4.06176E+005   -1.42178E+003   -4.06176E+005    7.60337E+005    1.78121E+004   -3.17364E+005   -1.54161E+004   -8.39253E+002   -3.71810E+004   -2.84824E+004    3.78916E+005   -2.51329E+003
            1820    6.70501E+005    3.59007E+005   -4.14645E+005   -1.97079E+003   -4.14645E+005    7.73652E+005    1.92027E+004   -3.26459E+005   -1.35922E+004   -1.98888E+003   -4.20271E+004   -2.28034E+004    3.85890E+005    1.33724E+003
            1821    6.82015E+005    3.63942E+005   -4.22996E+005   -3.24383E+003   -4.22996E+005    7.86938E+005    2.07657E+004   -3.32027E+005   -1.12933E+004   -3.49046E+003   -4.75133E+004   -1.85788E+004    3.92604E+005    3.65468E+003
            1822    6.92097E+005    3.69891E+005   -4.28699E+005   -3.13314E+003   -4.28699E+005    7.98589E+005    2.06471E+004   -3.35247E+005   -7.73410E+003   -3.40824E+003   -5.07988E+004   -1.44726E+004    3.98433E+005    4.65591E+003
            1823    7.01043E+005    3.74376E+005   -4.34548E+005   -3.75323E+003   -4.34548E+005    8.08923E+005    2.13084E+004   -3.38399E+005   -5.71831E+003   -3.95699E+003   -5.42499E+004   -1.07810E+004    4.03571E+005    4.49029E+003
            1824    7.07312E+005    3.77829E+005   -4.38332E+005   -3.77991E+003   -4.38332E+005    8.16161E+005    2.14276E+004   -3.41013E+005   -4.30807E+003   -3.87210E+003   -5.61027E+004   -6.44716E+003    4.07196E+005    3.32600E+003
            1825    7.10827E+005    3.80120E+005   -4.40111E+005   -3.71540E+003   -4.40111E+005    8.20231E+005    2.12354E+004   -3.41319E+005   -3.34499E+003   -3.73025E+003   -5.66308E+004   -2.48113E+003    4.09240E+005    1.38558E+003
            1826    7.10847E+005    3.80369E+005   -4.39911E+005   -4.10387E+003   -4.39911E+005    8.20280E+005    2.12152E+004   -3.38660E+005   -3.45446E+003   -4.10979E+003   -5.60814E+004    1.99761E+003    4.09289E+005   -7.33520E+002
            1827    7.07429E+005    3.79446E+005   -4.36893E+005   -3.26929E+003   -4.36893E+005    8.16339E+005    2.02389E+004   -3.36640E+005   -3.67931E+003   -3.34358E+003   -5.36937E+004    5.89630E+003    4.07352E+005   -2.93149E+003
            1828    6.66658E+005    3.43316E+005   -4.24993E+005    5.06594E+002   -4.24993E+005    7.68309E+005    2.70569E+004   -3.79933E+005   -2.37135E+004    1.10409E+003   -5.85613E+004   -4.51273E+004    3.81062E+005    1.00045E+003
            1829    6.77759E+005    3.52465E+005   -4.28931E+005   -5.21599E+002   -4.28931E+005    7.81396E+005    2.56625E+004   -3.72663E+005   -1.32800E+004   -6.80496E+002   -6.30271E+004   -3.66572E+004    3.88168E+005    3.79469E+003
            1830    6.89479E+005    3.60409E+005   -4.34590E+005   -1.43416E+002   -4.34590E+005    7.94998E+005    2.47747E+004   -3.74420E+005   -6.18015E+003   -6.20820E+002   -6.75231E+004   -3.01614E+004    3.95146E+005    5.69886E+003
            1831    7.02267E+005    3.65929E+005   -4.43850E+005   -1.91650E+003   -4.43850E+005    8.09780E+005    2.66126E+004   -3.79383E+005   -2.94933E+003   -2.40635E+003   -7.44823E+004   -2.37574E+004    4.02580E+005    6.29172E+003
            1832    7.12700E+005    3.71530E+005   -4.50306E+005   -2.21873E+003   -4.50306E+005    8.21835E+005    2.69982E+004   -3.83572E+005    9.38512E+002   -2.55566E+003   -7.93774E+004   -1.71468E+004    4.08567E+005    5.63191E+003
            1833    7.20680E+005    3.75263E+005   -4.55772E+005   -2.62022E+003   -4.55772E+005    8.31034E+005    2.77098E+004   -3.88034E+005    2.73156E+003   -2.76719E+003   -8.30937E+004   -1.05260E+004    4.13149E+005    3.90731E+003
            1834    7.24368E+005    3.77534E+005   -4.57794E+005   -2.98649E+003   -4.57794E+005    8.35328E+005    2.77487E+004   -3.87672E+005    4.15364E+003   -3.00377E+003   -8.43959E+004   -3.13665E+003    4.15297E+005    1.44954E+003
            1835    7.23657E+005    3.77812E+005   -4.56701E+005   -2.41750E+003   -4.56701E+005    8.34513E+005    2.71024E+004   -3.87017E+005    4.03591E+003   -2.43634E+003   -8.29068E+004    3.58656E+003    4.14969E+005   -1.43668E+003
            1836    7.18286E+005    3.75773E+005   -4.52620E+005   -2.93920E+003   -4.52620E+005    8.28393E+005    2.65954E+004   -3.79704E+005    2.96281E+003   -3.08621E+003   -7.96627E+004    1.09889E+004    4.11973E+005   -3.77706E+003
            1837    6.78587E+005    3.29046E+005   -4.51393E+005   -6.17314E+002   -4.51393E+005    7.80439E+005    4.09883E+004   -4.35798E+005   -3.91318E+004   -7.98412E+001   -8.37532E+004   -5.92838E+004    3.84973E+005    4.71259E+003
            1838    6.93568E+005    3.35243E+005   -4.62708E+005   -4.63701E+003   -4.62708E+005    7.97951E+005    4.40342E+004   -4.38743E+005   -3.36616E+004   -4.82146E+003   -9.36195E+004   -4.81429E+004    3.94889E+005    6.19741E+003
            1839    7.09050E+005    3.42295E+005   -4.73662E+005   -7.26396E+003   -4.73662E+005    8.15957E+005    4.62102E+004   -4.43637E+005   -2.72113E+004   -7.80842E+003   -1.03611E+005   -3.98346E+004    4.04197E+005    7.51236E+003
            1840    7.22577E+005    3.49002E+005   -4.82612E+005   -8.23813E+003   -4.82612E+005    8.31614E+005    4.72829E+004   -4.49684E+005   -2.14703E+004   -8.83076E+003   -1.11547E+005   -3.11501E+004    4.12153E+005    7.82464E+003
            1841    7.35216E+005    3.54797E+005   -4.91458E+005   -9.75201E+003   -4.91458E+005    8.46255E+005    4.88043E+004   -4.54987E+005   -1.71257E+004   -1.01733E+004   -1.19114E+005   -2.29290E+004    4.19391E+005    6.84252E+003
            1842    7.43944E+005    3.58675E+005   -4.97594E+005   -9.83928E+003   -4.97594E+005    8.56269E+005    4.95862E+004   -4.61268E+005   -1.47153E+004   -1.00210E+004   -1.24022E+005   -1.33340E+004    4.24409E+005    4.68609E+003
            1843    7.48200E+005    3.61460E+005   -4.99789E+005   -1.00874E+004   -4.99789E+005    8.61250E+005    4.94721E+004   -4.61654E+005   -1.26231E+004   -1.01028E+004   -1.25690E+005   -3.71209E+003    4.26880E+005    1.38831E+003
            1844    7.46472E+005    3.61218E+005   -4.98086E+005   -9.96823E+003   -4.98086E+005    8.59304E+005    4.89454E+004   -4.59368E+005   -1.27058E+004   -9.99923E+003   -1.24131E+005    6.33867E+003    4.25975E+005   -1.89092E+003
            1845    7.39925E+005    3.59926E+005   -4.91922E+005   -8.94129E+003   -4.91922E+005    8.51848E+005    4.69789E+004   -4.53017E+005   -1.30413E+004   -9.16526E+003   -1.18730E+005    1.55516E+004    4.22331E+005   -5.06287E+003
            1846    6.85138E+005    3.17128E+005   -4.69228E+005   -8.98543E+002   -4.69228E+005    7.86356E+005    5.09995E+004   -4.70469E+005   -5.21020E+004   -1.17105E+002   -1.00780E+005   -6.90714E+004    3.86160E+005    6.86853E+003
            1847    6.96788E+005    3.26771E+005   -4.73881E+005   -4.76889E+003   -4.73881E+005    8.00652E+005    5.06263E+004   -4.62432E+005   -3.92864E+004   -5.12128E+003   -1.07471E+005   -5.82182E+004    3.94532E+005    8.80258E+003
            1848    7.11375E+005    3.34455E+005   -4.83171E+005   -6.01640E+003   -4.83171E+005    8.17626E+005    5.15777E+004   -4.67961E+005   -3.15269E+004   -6.90705E+003   -1.16299E+005   -4.89650E+004    4.03592E+005    1.03665E+004
            1849    7.30023E+005    3.40642E+005   -4.98527E+005   -9.80739E+003   -4.98527E+005    8.39169E+005    5.58974E+004   -4.77994E+005   -2.77111E+004   -1.07172E+004   -1.29264E+005   -3.91998E+004    4.14595E+005    1.04588E+004
            1850    7.46164E+005    3.47252E+005   -5.10520E+005   -1.14105E+004   -5.10520E+005    8.57772E+005    5.82263E+004   -4.87572E+005   -2.28500E+004   -1.20162E+004   -1.39813E+005   -2.81987E+004    4.23902E+005    8.82323E+003
            1851    7.58495E+005    3.51656E+005   -5.20261E+005   -1.26370E+004   -5.20261E+005    8.71917E+005    6.04141E+004   -4.96264E+005   -2.06899E+004   -1.28625E+004   -1.47690E+005   -1.63853E+004    4.30981E+005    5.53278E+003
            1852    7.63604E+005    3.54363E+005   -5.23527E+005   -1.33523E+004   -5.23527E+005    8.77890E+005    6.08387E+004   -4.97527E+005   -1.85710E+004   -1.33650E+004   -1.50580E+005   -3.07016E+003    4.33942E+005    1.38111E+003
            1853    7.61141E+005    3.54317E+005   -5.20731E+005   -1.21202E+004   -5.20731E+005    8.75048E+005    5.95114E+004   -4.96120E+005   -1.84747E+004   -1.21968E+004   -1.47863E+005    9.59775E+003    4.32603E+005   -3.23178E+003
            1854    7.50463E+005    3.51282E+005   -5.11650E+005   -1.15845E+004   -5.11650E+005    8.62932E+005    5.73173E+004   -4.85748E+005   -1.93906E+004   -1.19582E+004   -1.40603E+005    2.24915E+004    4.26569E+005   -6.94533E+003
            1855    6.93922E+005    3.01293E+005   -4.93218E+005   -6.00635E+003   -4.93218E+005    7.94511E+005    6.59773E+004   -5.02702E+005   -7.15185E+004   -5.10451E+003   -1.21309E+005   -7.67324E+004    3.88762E+005    9.30363E+003
            1856    7.09993E+005    3.05200E+005   -5.08241E+005   -1.30575E+004   -5.08241E+005    8.13441E+005    7.20330E+004   -5.07890E+005   -6.82246E+004   -1.27355E+004   -1.35139E+005   -6.39685E+004    4.00128E+005    8.87854E+003
            1857    7.26772E+005    3.11505E+005   -5.21639E+005   -1.78788E+004   -5.21639E+005    8.33144E+005    7.60042E+004   -5.13634E+005   -6.16177E+004   -1.84490E+004   -1.47946E+005   -5.59468E+004    4.10448E+005    1.10010E+004
            1858    7.44946E+005    3.16483E+005   -5.37320E+005   -1.98126E+004   -5.37320E+005    8.53804E+005    8.02165E+004   -5.28801E+005   -5.88369E+004   -2.07412E+004   -1.61071E+005   -4.54180E+004    4.21320E+005    1.19323E+004
            1859    7.64024E+005    3.22306E+005   -5.53523E+005   -2.38243E+004   -5.53523E+005    8.75829E+005    8.50138E+004   -5.40201E+005   -5.61561E+004   -2.44461E+004   -1.74439E+005   -3.36356E+004    4.32550E+005    9.85828E+003
            1860    7.78345E+005    3.26678E+005   -5.65519E+005   -2.55589E+004   -5.65519E+005    8.92196E+005    8.81332E+004   -5.50998E+005   -5.51633E+004   -2.57943E+004   -1.83442E+005   -1.87111E+004    4.41049E+005    6.12495E+003
            1861    7.84626E+005    3.29666E+005   -5.69913E+005   -2.68206E+004   -5.69913E+005    8.99579E+005    8.90225E+004   -5.52958E+005   -5.34103E+004   -2.68254E+004   -1.86832E+005   -2.44899E+003    4.44808E+005    8.79878E+002
            1862    7.80611E+005    3.29114E+005   -5.65869E+005   -2.56031E+004   -5.65869E+005    8.94984E+005    8.74526E+004   -5.50031E+005   -5.27472E+004   -2.56956E+004   -1.83915E+005    1.41926E+004    4.42424E+005   -3.98402E+003
            1863    7.68372E+005    3.27143E+005   -5.53872E+005   -2.25104E+004   -5.53872E+005    8.81015E+005    8.30799E+004   -5.40521E+005   -5.15188E+004   -2.29677E+004   -1.74753E+005    2.89739E+004    4.35178E+005   -8.50557E+003
            1864    6.87229E+005    2.85932E+005   -4.99488E+005   -8.69665E+003   -4.99488E+005    7.85421E+005    7.40842E+004   -5.13237E+005   -8.82998E+004   -6.83679E+003   -1.27116E+005   -7.79409E+004    3.84089E+005    7.80629E+003
            1865    6.90864E+005    2.87718E+005   -5.02427E+005   -1.22400E+004   -5.02427E+005    7.90145E+005    7.56498E+004   -5.10128E+005   -8.29883E+004   -1.28823E+004   -1.31079E+005   -7.27710E+004    3.87428E+005    1.29865E+004
            1866    7.05257E+005    2.86960E+005   -5.19392E+005   -1.75553E+004   -5.19392E+005    8.06352E+005    8.33291E+004   -5.23390E+005   -8.36213E+004   -1.87551E+004   -1.47611E+005   -6.37478E+004    3.96709E+005    1.42441E+004
            1867    7.27276E+005    2.88840E+005   -5.42818E+005   -2.60438E+004   -5.42818E+005    8.31658E+005    9.33408E+004   -5.38396E+005   -8.50771E+004   -2.70896E+004   -1.67856E+005   -5.52363E+004    4.09967E+005    1.34780E+004
            1868    7.50549E+005    2.92368E+005   -5.66094E+005   -3.38764E+004   -5.66094E+005    8.58462E+005    1.02534E+005   -5.53613E+005   -8.72400E+004   -3.45951E+004   -1.85767E+005   -4.04027E+004    4.24420E+005    1.10238E+004
            1869    7.67572E+005    2.95126E+005   -5.82921E+005   -3.92903E+004   -5.82921E+005    8.78047E+005    1.09029E+005   -5.64951E+005   -8.86237E+004   -3.95357E+004   -1.98926E+005   -2.19078E+004    4.34976E+005    6.46359E+003
            1870    7.74335E+005    2.96925E+005   -5.88966E+005   -4.11727E+004   -5.88966E+005    8.85891E+005    1.11072E+005   -5.68762E+005   -8.83337E+004   -4.11754E+004   -2.03706E+005   -1.11994E+003    4.39171E+005    7.25924E+002
            1871    7.70288E+005    2.97126E+005   -5.84099E+005   -3.89641E+004   -5.84099E+005    8.81225E+005    1.08646E+005   -5.66171E+005   -8.72686E+004   -3.91316E+004   -1.99537E+005    1.93477E+004    4.36580E+005   -5.45611E+003
            1872    7.54469E+005    2.96026E+005   -5.67254E+005   -3.42021E+004   -5.67254E+005    8.63280E+005    1.01810E+005   -5.52885E+005   -8.39148E+004   -3.47401E+004   -1.86776E+005    3.85613E+004    4.26776E+005   -9.89380E+003
            1873    7.26635E+005    2.39255E+005   -5.88944E+005   -5.83777E+004   -5.88944E+005    8.28198E+005    1.36022E+005   -5.62695E+005   -1.44349E+005   -5.84826E+004   -2.05236E+005    4.75687E+004    4.10143E+005   -9.11790E+003
            1874    7.41482E+005    2.35254E+005   -6.10143E+005   -7.00845E+004   -6.10143E+005    8.45397E+005    1.48324E+005   -5.71956E+005   -1.53402E+005   -7.01490E+004   -2.21423E+005    2.55875E+004    4.20527E+005   -5.20122E+003
            1875    7.47803E+005    2.33928E+005   -6.18722E+005   -7.42829E+004   -6.18722E+005    8.52650E+005    1.53026E+005   -5.76459E+005   -1.56756E+005   -7.42829E+004   -2.28037E+005   -2.12915E+001    4.24832E+005   -1.14819E+002
            1876    7.40200E+005    2.34276E+005   -6.09532E+005   -6.97826E+004   -6.09532E+005    8.43808E+005    1.48346E+005   -5.72006E+005   -1.54113E+005   -6.98943E+004   -2.21031E+005   -2.54475E+004    4.19783E+005    5.56143E+003
            1877    7.24127E+005    2.37065E+005   -5.88110E+005   -5.85839E+004   -5.88110E+005    8.25174E+005    1.36543E+005   -5.62056E+005   -1.45890E+005   -5.86285E+004   -2.05111E+005   -4.73932E+004    4.08696E+005    8.84967E+003
            1878    7.05460E+005    2.42719E+005   -5.60835E+005   -4.32975E+004   -5.60835E+005    8.03554E+005    1.20471E+005   -5.50279E+005   -1.34656E+005   -4.28627E+004   -1.83895E+005   -6.41852E+004    3.95652E+005    1.03672E+004
            1879    6.84671E+005    2.47742E+005   -5.31855E+005   -2.82781E+004   -5.31855E+005    7.79597E+005    1.04130E+005   -5.36147E+005   -1.22301E+005   -2.64851E+004   -1.63605E+005   -7.44698E+004    3.81681E+005    9.14661E+003
            1880    6.76745E+005    2.54837E+005   -5.15003E+005   -1.39197E+004   -5.15003E+005    7.69840E+005    9.13620E+004   -5.35236E+005   -1.12427E+005   -1.17419E+004   -1.49917E+005   -7.28449E+004    3.77071E+005    8.15013E+003
            1881    6.88656E+005    2.67756E+005   -5.17340E+005   -1.54035E+004   -5.17340E+005    7.85096E+005    8.83291E+004   -5.31796E+005   -1.07703E+005   -1.41055E+004   -1.43179E+005   -7.98628E+004    3.83596E+005    1.06031E+004
            1882    6.42255E+005    3.61942E+005   -3.79616E+005   -1.07436E+003   -3.79616E+005    7.41558E+005    6.24959E+003   -2.12565E+005   -6.89259E+003   -3.00417E+002   -1.15558E+004   -1.29445E+004    3.70379E+005   -1.08133E+004
            1883    6.48713E+005    3.47249E+005   -4.01219E+005   -9.88682E+002   -4.01219E+005    7.48467E+005    1.83196E+004   -3.19941E+005   -2.13049E+004    9.64812E+002   -3.46186E+004   -3.72521E+004    3.72158E+005   -7.98002E+003
            1884    6.57534E+005    3.34393E+005   -4.23158E+005   -3.51437E+002   -4.23158E+005    7.57551E+005    2.97056E+004   -3.84330E+005   -3.55220E+004    2.18204E+003   -5.57767E+004   -5.75026E+004    3.74073E+005   -3.85361E+003
            1885    6.66187E+005    3.20566E+005   -4.45166E+005    1.30805E+003   -4.45166E+005    7.65732E+005    4.10975E+004   -4.37360E+005   -5.11258E+004    3.79347E+003   -7.59601E+004   -7.30569E+004    3.75407E+005    1.31797E+003
            1886    6.74223E+005    3.06724E+005   -4.66361E+005   -2.48239E+002   -4.66361E+005    7.73085E+005    5.32948E+004   -4.74000E+005   -6.68473E+004    2.58246E+003   -9.56195E+004   -8.35142E+004    3.76805E+005    4.49007E+003
            1887    6.80473E+005    2.92723E+005   -4.85977E+005   -5.72792E+003   -4.85977E+005    7.78700E+005    6.63270E+004   -4.97677E+005   -8.34448E+004   -2.96648E+003   -1.12570E+005   -8.84022E+004    3.78499E+005    6.96434E+003
            1888    6.88688E+005    2.80094E+005   -5.06408E+005   -1.14132E+004   -5.06408E+005    7.86502E+005    7.92423E+004   -5.19935E+005   -9.88439E+004   -9.53391E+003   -1.29349E+005   -9.11709E+004    3.81833E+005    1.05629E+004
            1889    7.00148E+005    4.12043E+005    4.12043E+005    1.99198E+003   -3.96391E+005    8.08434E+005   -5.88112E+003    2.04708E+005    6.20624E+003    1.90235E+003    9.53477E+003   -9.53669E+003    4.04096E+005    1.80776E+003
            1890    7.15343E+005    4.21665E+005    4.21665E+005    1.24197E+003   -4.04298E+005    8.25962E+005   -6.20296E+003    2.25207E+005    5.83130E+003    1.27273E+003    1.15048E+004   -6.99339E+003    4.12911E+005   -9.95530E+002
            1891    7.28611E+005    4.29300E+005    4.29300E+005    2.25254E+003   -4.11995E+005    8.41295E+005   -6.51924E+003    2.16812E+005    4.67392E+003    2.30351E+003    1.25803E+004   -5.33740E+003    4.20590E+005   -2.07576E+003
            1892    7.39068E+005    4.35449E+005    4.35449E+005    1.54862E+003   -4.17912E+005    8.53361E+005   -6.36217E+003    2.27858E+005    4.06943E+003    1.58330E+003    1.34338E+004   -3.50764E+003    4.26635E+005   -2.16130E+003
            1893    7.02663E+005    4.17262E+005    4.17262E+005   -1.18382E+003   -3.93968E+005    8.11230E+005   -7.36996E+003    2.66823E+005    4.01385E+003   -1.35409E+003    1.94501E+004   -2.79817E+004    4.04572E+005    5.16478E+002
            1894    7.17964E+005    4.25112E+005    4.25112E+005   -4.45533E+002   -4.03823E+005    8.28934E+005   -6.94772E+003    2.57853E+005    2.59270E+002   -3.40779E+002    2.09247E+004   -2.12874E+004    4.13790E+005   -1.56782E+003
            1895    7.31797E+005    4.33403E+005    4.33403E+005   -9.19342E+002   -4.11493E+005    8.44896E+005   -6.99687E+003    2.67169E+005   -1.52297E+003   -7.44663E+002    2.32582E+004   -1.58221E+004    4.21963E+005   -2.78240E+003
            1896    7.43399E+005    4.40530E+005    4.40530E+005    5.62279E+001   -4.17774E+005    8.58304E+005   -7.60429E+003    2.65737E+005   -2.97309E+003    1.72322E+002    2.56136E+004   -1.13306E+004    4.28758E+005   -2.53316E+003
            1897    7.10257E+005    4.38464E+005    4.38464E+005    2.72496E+003   -3.81122E+005    8.19586E+005   -2.00224E+004    3.39691E+005    1.83228E+004    2.48737E+003    3.92570E+004   -4.50297E+004    4.07168E+005   -9.50011E+002
            1898    7.26310E+005    4.47832E+005    4.47832E+005    2.28002E+003   -3.90280E+005    8.38112E+005   -1.99438E+004    3.47208E+005    1.35516E+004    2.44729E+003    4.38325E+004   -3.42596E+004    4.17375E+005   -2.72445E+003
            1899    7.41394E+005    4.56814E+005    4.56814E+005    4.22834E+003   -3.98796E+005    8.55609E+005   -2.07488E+004    3.44267E+005    9.67136E+003    4.43817E+003    4.81370E+004   -2.62295E+004    4.26562E+005   -3.05625E+003
            1900    7.54057E+005    4.64586E+005    4.64586E+005    3.78307E+003   -4.05619E+005    8.70205E+005   -2.09166E+004    3.52424E+005    7.01884E+003    3.97119E+003    5.17599E+004   -1.85790E+004    4.34123E+005   -3.22470E+003
            1901    7.14226E+005    4.43646E+005    4.43646E+005   -1.49181E+003   -3.80179E+005    8.23825E+005   -2.06583E+004    3.70114E+005    1.75012E+004   -1.55618E+003    4.60298E+004   -5.95302E+004    4.07323E+005   -3.25777E+003
            1902    7.30142E+005    4.52321E+005    4.52321E+005    8.64605E+002   -3.90049E+005    8.42371E+005   -2.10455E+004    3.64186E+005    1.19445E+004    1.13393E+003    5.00581E+004   -4.70328E+004    4.18108E+005   -3.96466E+003
            1903    7.45393E+005    4.61811E+005    4.61811E+005    1.70835E+003   -3.98193E+005    8.60003E+005   -2.17755E+004    3.68559E+005    8.08935E+003    2.16509E+003    5.50719E+004   -3.61633E+004    4.27821E+005   -4.95706E+003
            1904    7.60945E+005    4.72505E+005    4.72505E+005    3.04992E+003   -4.05454E+005    8.77959E+005   -2.33670E+004    3.75218E+005    5.33450E+003    3.40410E+003    6.13624E+004   -2.75933E+004    4.37202E+005   -4.64608E+003
            1905    7.26055E+005    4.70153E+005    4.70153E+005    4.78128E+003   -3.66460E+005    8.36613E+005   -3.61578E+004    4.19861E+005    3.62025E+004    4.08367E+003    6.81874E+004   -7.06317E+004    4.11935E+005   -3.43185E+003
            1906    7.37750E+005    4.75595E+005    4.75595E+005    5.74120E+003   -3.74721E+005    8.50316E+005   -3.55385E+004    4.17214E+005    2.85968E+004    5.72880E+003    7.22899E+004   -5.58581E+004    4.20883E+005   -4.37905E+003
            1907    7.54266E+005    4.86299E+005    4.86299E+005    8.31940E+003   -3.83222E+005    8.69521E+005   -3.71324E+004    4.18776E+005    2.38938E+004    8.68147E+003    7.88218E+004   -4.67443E+004    4.31350E+005   -5.49246E+003
            1908    7.71933E+005    4.98554E+005    4.98554E+005    8.40950E+003   -3.91265E+005    8.89819E+005   -3.85661E+004    4.31771E+005    2.11084E+004    8.78914E+003    8.58009E+004   -3.55445E+004    4.42292E+005   -5.47197E+003
            1909    7.14439E+005    4.61094E+005    4.61094E+005    7.09014E+002   -3.61936E+005    8.23031E+005   -3.32890E+004    4.20525E+005    3.64034E+004    7.92268E+001    6.33844E+004   -7.37240E+004    4.04574E+005   -4.01578E+003
            1910    7.26065E+005    4.70110E+005    4.70110E+005    4.08543E+003   -3.66464E+005    8.36574E+005   -3.59103E+004    4.21832E+005    3.45036E+004    4.96536E+003    6.82620E+004   -6.76750E+004    4.12404E+005   -7.95041E+003
            1911    7.45531E+005    4.85490E+005    4.85490E+005    5.91829E+003   -3.73428E+005    8.58918E+005   -3.93266E+004    4.36306E+005    3.16522E+004    6.78346E+003    7.95443E+004   -5.63858E+004    4.25040E+005   -8.14592E+003
            1912    7.65089E+005    5.01296E+005    5.01296E+005    9.55696E+003   -3.80187E+005    8.81484E+005   -4.35554E+004    4.46517E+005    3.05054E+004    1.02657E+004    8.98950E+004   -4.66932E+004    4.37229E+005   -7.60860E+003
            1913    7.11997E+005    4.80067E+005    4.80067E+005    1.52614E+004   -3.39623E+005    8.19690E+005   -5.19019E+004    4.36069E+005    5.62307E+004    1.28615E+004    8.66135E+004   -7.97368E+004    4.01555E+005   -1.15163E+003
            1914    7.17319E+005    4.82534E+005    4.82534E+005    8.10378E+003   -3.42672E+005    8.25206E+005   -4.93217E+004    4.55477E+005    5.06359E+004    7.73535E+003    8.95939E+004   -7.28741E+004    4.05571E+005   -6.34651E+003
            1915    7.31676E+005    4.96285E+005    4.96285E+005    1.38695E+004   -3.45594E+005    8.41879E+005   -5.48536E+004    4.60737E+005    5.36498E+004    1.37520E+004    9.71591E+004   -6.92169E+004    4.14577E+005   -6.63850E+003
            1916    7.54955E+005    5.15920E+005    5.15920E+005    1.75750E+004   -3.52685E+005    8.68605E+005   -6.02702E+004    4.76887E+005    5.47142E+004    1.78655E+004    1.08231E+005   -5.72379E+004    4.29644E+005   -7.14742E+003
            1917    7.09007E+005    5.00733E+005    5.00733E+005    2.58809E+004   -3.14255E+005    8.14988E+005   -7.07865E+004    4.64714E+005    8.16586E+004    2.56450E+004    1.05056E+005   -7.09832E+004    4.01022E+005   -6.39936E+003
            1918    6.95951E+005    4.82787E+005    4.82787E+005    1.54878E+004   -3.17053E+005    7.99840E+005   -6.04072E+004    4.58966E+005    7.45006E+004    1.45534E+004    9.21675E+004   -8.35611E+004    3.90864E+005   -6.10960E+003
            1919    6.75123E+005    4.60825E+005    4.60825E+005    8.19343E+003   -3.15158E+005    7.75983E+005   -5.12868E+004    4.43625E+005    6.78742E+004    6.28307E+003    7.97031E+004   -8.96185E+004    3.77258E+005   -4.61206E+003
            1920    6.71028E+005    4.53140E+005    4.53140E+005   -4.88457E+003   -3.17111E+005    7.70251E+005   -4.37151E+004    4.59353E+005    6.38672E+004   -5.72902E+003    7.30071E+004   -7.45172E+004    3.77695E+005   -5.66323E+003
            1921    6.82801E+005    3.99371E+005    3.99371E+005   -1.27410E+002   -3.89036E+005    7.88407E+005   -3.40234E+003    1.94911E+005    4.28330E+003   -5.52757E+002    6.47647E+003   -1.33057E+004    3.93926E+005    6.16764E+003
            1922    6.87639E+005    4.13239E+005    4.13239E+005    1.62396E+003   -3.80597E+005    7.93836E+005   -1.14220E+004    2.75171E+005    1.28320E+004    4.99481E+002    2.09346E+004   -3.92366E+004    3.94903E+005    4.68362E+003
            1923    6.93845E+005    4.26651E+005    4.26651E+005   -6.73411E+002   -3.73923E+005    8.00575E+005   -1.73516E+004    3.39035E+005    2.17884E+004   -1.94175E+003    3.22082E+004   -6.12459E+004    3.95492E+005    1.52868E+003
            1924    7.01333E+005    4.42110E+005    4.42110E+005    1.39181E+002   -3.66552E+005    8.08662E+005   -2.52325E+004    3.81050E+005    3.09690E+004   -1.22397E+003    4.59524E+004   -7.84763E+004    3.96503E+005   -1.12157E+003
            1925    7.07690E+005    4.55810E+005    4.55810E+005   -2.31819E+003   -3.59270E+005    8.15080E+005   -3.14074E+004    4.22633E+005    4.13376E+004   -3.16218E+003    5.60469E+004   -9.05522E+004    3.97200E+005   -4.84601E+003
            1926    7.22727E+005    4.77654E+005    4.77654E+005    3.97336E+003   -3.54212E+005    8.31866E+005   -4.24717E+004    4.47676E+005    5.17367E+004    2.70261E+003    7.29758E+004   -9.57868E+004    4.04483E+005   -5.56041E+003
            1927    7.18407E+005    4.84565E+005    4.84565E+005    2.35505E+003   -3.41103E+005    8.25668E+005   -4.86057E+004    4.73383E+005    6.18042E+004    1.70831E+003    8.23046E+004   -7.76270E+004    4.05240E+005   -6.05285E+003
            1928    7.24507E+005    5.19598E+005    5.19598E+005    3.40024E+004   -3.13165E+005    8.32762E+005   -8.01451E+004    4.75731E+005    8.86622E+004    3.41126E+004    1.17661E+005   -5.21397E+004    4.12818E+005   -5.74959E+003
            1929    7.35937E+005    5.33319E+005    5.33319E+005    4.09966E+004   -3.12690E+005    8.46009E+005   -8.72085E+004    4.81016E+005    9.34209E+004    4.10505E+004    1.27154E+005   -2.83112E+004    4.21710E+005   -3.30729E+003
            1930    7.41409E+005    5.39519E+005    5.39519E+005    4.36020E+004   -3.12788E+005    8.52307E+005   -9.01111E+004    4.84436E+005    9.55368E+004    4.36019E+004    1.31194E+005   -6.30752E+002    4.25780E+005   -2.24987E+001
            1931    7.35310E+005    5.33135E+005    5.33135E+005    4.09222E+004   -3.12117E+005    8.45252E+005   -8.73133E+004    4.81345E+005    9.37778E+004    4.10066E+004    1.27155E+005    2.75113E+004    4.21392E+005    3.47242E+003
            1932    7.21550E+005    5.18204E+005    5.18204E+005    3.43743E+004   -3.11135E+005    8.29338E+005   -8.04811E+004    4.74300E+005    8.94105E+004    3.44799E+004    1.17553E+005    5.19042E+004    4.11137E+005    5.69921E+003
            1933    7.06063E+005    4.99188E+005    4.99188E+005    2.48032E+004   -3.12238E+005    8.11426E+005   -7.05846E+004    4.66328E+005    8.25878E+004    2.46745E+004    1.04491E+005    7.07347E+004    3.99281E+005    6.75244E+003
            1934    6.88271E+005    4.78844E+005    4.78844E+005    1.60081E+004   -3.12086E+005    7.90931E+005   -6.09220E+004    4.55522E+005    7.60085E+004    1.52234E+004    9.15340E+004    8.23282E+004    3.86603E+005    6.29261E+003
            1935    6.81836E+005    4.67203E+005    4.67203E+005    6.23521E+003   -3.16030E+005    7.83233E+005   -5.24692E+004    4.56913E+005    6.98319E+004    5.51676E+003    8.20589E+004    8.12154E+004    3.82934E+005    6.44504E+003
            1936    7.04319E+005    4.80060E+005    4.80060E+005    3.24219E+003   -3.28918E+005    8.08977E+005   -5.14615E+004    4.73450E+005    6.90591E+004    3.10093E+003    8.22244E+004    8.78338E+004    3.94677E+005    8.55123E+003
            1937    7.73234E+005    5.33570E+005    5.33570E+005    2.32375E+004   -3.56073E+005    8.89644E+005   -6.69115E+004    4.88233E+005    5.88728E+004    2.34384E+004    1.18423E+005   -4.12905E+004    4.41880E+005   -5.53358E+003
            1938    7.84325E+005    5.16631E+005    5.16631E+005    1.16741E+004   -3.86946E+005    9.03577E+005   -4.71196E+004    4.60291E+005    3.03271E+004    1.20236E+004    9.90081E+004   -3.17027E+004    4.49351E+005   -5.55820E+003
            1939    7.86412E+005    5.09631E+005    5.09631E+005    1.00407E+004   -3.96861E+005    9.06493E+005   -4.09370E+004    4.40692E+005    2.03045E+004    1.02260E+004    9.22805E+004   -2.39428E+004    4.51173E+005   -3.92867E+003
            1940    7.73192E+005    4.80995E+005    4.80995E+005    3.19293E+003   -4.11056E+005    8.92051E+005   -2.43774E+004    3.84540E+005    3.55368E+003    3.35788E+003    6.62205E+004   -1.68528E+004    4.44597E+005   -3.37029E+003
            1941    7.63564E+005    4.71339E+005    4.71339E+005    4.71644E+003   -4.09837E+005    8.81175E+005   -2.20728E+004    3.56913E+005    6.06405E+003    4.78933E+003    5.53649E+004   -1.14161E+004    4.39747E+005   -2.06136E+003
            1942    7.51125E+005    4.45121E+005    4.45121E+005   -4.28889E+002   -4.22093E+005    8.67214E+005   -7.53305E+003    2.72376E+005   -4.14772E+003   -3.81165E+002    2.71280E+004   -6.36351E+003    4.33275E+005   -1.82569E+003
            1943    7.46037E+005    4.39856E+005    4.39856E+005    2.30707E+003   -4.21558E+005    8.61414E+005   -6.86837E+003    2.25212E+005    4.02700E+003    2.32108E+003    1.42570E+004   -2.21217E+003    4.30669E+005   -1.39569E+003
            1944    7.86834E+005    5.45932E+005    5.45932E+005    2.62892E+004   -3.59324E+005    9.05256E+005   -7.09656E+004    4.97674E+005    6.08081E+004    2.63833E+004    1.25705E+005   -2.11402E+004    4.50963E+005   -3.33715E+003
            1945    7.95421E+005    5.25762E+005    5.25762E+005    1.41177E+004   -3.90635E+005    9.16397E+005   -4.97484E+004    4.65446E+005    3.01427E+004    1.41950E+004    1.04908E+005   -1.54971E+004    4.56405E+005   -2.68027E+003
            1946    7.95962E+005    5.16717E+005    5.16717E+005    1.06183E+004   -4.00751E+005    9.17469E+005   -4.21947E+004    4.47474E+005    1.97641E+004    1.06564E+004    9.61635E+004   -1.01733E+004    4.57026E+005   -1.80699E+003
            1947    7.80184E+005    4.86054E+005    4.86054E+005    3.97253E+003   -4.14066E+005    9.00120E+005   -2.53203E+004    3.87847E+005    2.40045E+003    3.99596E+003    6.95644E+004   -6.82340E+003    4.48753E+005   -1.26907E+003
            1948    7.68257E+005    4.74390E+005    4.74390E+005    4.46103E+003   -4.12183E+005    8.86573E+005   -2.22226E+004    3.61135E+005    5.29387E+003    4.46950E+003    5.69043E+004   -3.66150E+003    4.42519E+005   -7.28767E+002
            1949    7.54853E+005    4.47536E+005    4.47536E+005    1.32688E+001   -4.23986E+005    8.71523E+005   -7.85442E+003    2.71889E+005   -4.73584E+003    1.73834E+001    2.82817E+004   -2.14929E+003    4.35443E+005   -4.86264E+002
            1950    7.49000E+005    4.41612E+005    4.41612E+005    1.88469E+003   -4.23217E+005    8.64830E+005   -6.75991E+003    2.30872E+005    3.93681E+003    1.88540E+003    1.44575E+004   -4.47954E+002    4.32383E+005   -3.47977E+002
            1951    7.90413E+005    5.50002E+005    5.50002E+005    2.74980E+004   -3.59321E+005    9.09322E+005   -7.27263E+004    5.01204E+005    6.25151E+004    2.74996E+004    1.28164E+005    1.19938E+003    4.53473E+005    4.38562E+002
            1952    7.98791E+005    5.28961E+005    5.28961E+005    1.43732E+004   -3.91256E+005    9.20217E+005   -5.06925E+004    4.69719E+005    3.09521E+004    1.43778E+004    1.06748E+005    3.01164E+003    4.58535E+005    6.51210E+002
            1953    7.97598E+005    5.18714E+005    5.18714E+005    1.08614E+004   -4.00590E+005    9.19304E+005   -4.29950E+004    4.50685E+005    2.06834E+004    1.08718E+004    9.74298E+004    3.95972E+003    4.58030E+005    9.76638E+002
            1954    7.81260E+005    4.87174E+005    4.87174E+005    3.74625E+003   -4.14154E+005    9.01328E+005   -2.55886E+004    3.91166E+005    2.70713E+003    3.75849E+003    7.03003E+004    4.54110E+003    4.49372E+005    9.41788E+002
            1955    7.68291E+005    4.74913E+005    4.74913E+005    4.64846E+003   -4.11687E+005    8.86600E+005   -2.26245E+004    3.62589E+005    5.80753E+003    4.66138E+003    5.74047E+004    3.71402E+003    4.42532E+005    9.91569E+002
            1956    7.54584E+005    4.47451E+005    4.47451E+005   -2.55135E+002   -4.23756E+005    8.71206E+005   -7.81321E+003    2.74423E+005   -4.71621E+003   -2.45620E+002    2.84015E+004    2.73257E+003    4.35279E+005    8.46941E+002
            1957    7.48453E+005    4.41405E+005    4.41405E+005    2.16121E+003   -4.22796E+005    8.64200E+005   -6.92340E+003    2.28963E+005    4.10105E+003    2.16416E+003    1.45050E+004    7.82640E+002    4.32067E+005    8.28122E+002
            1958    7.84034E+005    5.44794E+005    5.44794E+005    2.66192E+004   -3.57201E+005    9.01995E+005   -7.14043E+004    4.96876E+005    6.20729E+004    2.67348E+004    1.25405E+005    2.37122E+004    4.49252E+005    3.70655E+003
            1959    7.92231E+005    5.23968E+005    5.23968E+005    1.38609E+004   -3.88713E+005    9.12681E+005   -4.97055E+004    4.65109E+005    3.09728E+004    1.40289E+004    1.04115E+005    2.09536E+004    4.54383E+005    3.90207E+003
            1960    7.91887E+005    5.14656E+005    5.14656E+005    1.08057E+004   -3.98091E+005    9.12747E+005   -4.24570E+004    4.46287E+005    2.10448E+004    1.09395E+004    9.53867E+004    1.83283E+004    4.54483E+005    3.36381E+003
            1961    7.76056E+005    4.83604E+005    4.83604E+005    3.73560E+003   -4.11737E+005    8.95341E+005   -2.52011E+004    3.87181E+005    3.17548E+003    3.86523E+003    6.85625E+004    1.49761E+004    4.46218E+005    3.01898E+003
            1962    7.63902E+005    4.72014E+005    4.72014E+005    4.57445E+003   -4.09527E+005    8.81540E+005   -2.23538E+004    3.59887E+005    6.20610E+003    4.66233E+003    5.61930E+004    1.14830E+004    4.39907E+005    2.35720E+003
            1963    7.50451E+005    4.44868E+005    4.44868E+005   -2.42332E+002   -4.21569E+005    8.66437E+005   -7.68567E+003    2.71827E+005   -4.41246E+003   -1.83738E+002    2.76532E+004    6.95077E+003    4.32862E+005    2.04668E+003
            1964    7.44565E+005    4.39078E+005    4.39078E+005    2.06372E+003   -4.20632E+005    8.59709E+005   -6.83649E+003    2.28338E+005    4.25811E+003    2.08369E+003    1.41677E+004    2.45073E+003    4.29816E+005    1.78921E+003
            1965    7.68977E+005    5.31606E+005    5.31606E+005    2.27617E+004   -3.53002E+005    8.84608E+005   -6.71217E+004    4.88905E+005    6.04449E+004    2.30827E+004    1.17837E+005    4.39252E+004    4.39159E+005    6.36922E+003
            1966    7.77442E+005    5.12996E+005    5.12996E+005    1.17737E+004   -3.82594E+005    8.95590E+005   -4.73918E+004    4.58309E+005    3.24212E+004    1.22810E+004    9.74731E+004    3.76890E+004    4.45000E+005    6.62395E+003
            1967    7.79973E+005    5.06580E+005    5.06580E+005    9.72956E+003   -3.92393E+005    8.98974E+005   -4.13057E+004    4.41432E+005    2.29521E+004    1.00565E+004    9.09084E+004    3.09786E+004    4.47116E+005    5.17164E+003
            1968    7.65735E+005    4.76790E+005    4.76790E+005    3.12343E+003   -4.06634E+005    8.83424E+005   -2.44264E+004    3.82766E+005    5.24575E+003    3.44030E+003    6.45930E+004    2.53840E+004    4.39971E+005    4.51936E+003
            1969    7.55583E+005    4.66973E+005    4.66973E+005    4.25633E+003   -4.04952E+005    8.71925E+005   -2.20926E+004    3.57644E+005    7.94145E+003    4.44498E+003    5.38914E+004    1.83134E+004    4.34965E+005    3.28558E+003
            1970    7.43094E+005    4.40357E+005    4.40357E+005   -3.75845E+002   -4.17587E+005    8.57943E+005   -7.46472E+003    2.69051E+005   -3.45819E+003   -2.44964E+002    2.60973E+004    1.14845E+004    4.28556E+005    2.79533E+003
            1971    7.37849E+005    4.35144E+005    4.35144E+005    2.00705E+003   -4.16811E+005    8.51955E+005   -6.77986E+003    2.26963E+005    4.63788E+003    2.04558E+003    1.36561E+004    3.59126E+003    4.25932E+005    2.33827E+003
            1972    7.47873E+005    5.13385E+005    5.13385E+005    1.86887E+004   -3.46964E+005    8.60350E+005   -6.17032E+004    4.75026E+005    5.83637E+004    1.89866E+004    1.07759E+005    5.98452E+004    4.25234E+005    7.34773E+003
            1973    7.58739E+005    4.97752E+005    4.97752E+005    9.14548E+003   -3.76338E+005    8.74091E+005   -4.35198E+004    4.45639E+005    3.25849E+004    9.94076E+003    8.80336E+004    5.07565E+004    4.33174E+005    8.01624E+003
            1974    7.64167E+005    4.95021E+005    4.95021E+005    8.89468E+003   -3.85782E+005    8.80803E+005   -3.93777E+004    4.30384E+005    2.43640E+004    9.31625E+003    8.44527E+004    4.28503E+004    4.37264E+005    5.85413E+003
            1975    7.52013E+005    4.67215E+005    4.67215E+005    2.04247E+003   -4.00380E+005    8.67594E+005   -2.29591E+004    3.75880E+005    7.17395E+003    2.49563E+003    5.92077E+004    3.43996E+004    4.31634E+005    5.12104E+003
            1976    7.44531E+005    4.59749E+005    4.59749E+005    3.94556E+003   -3.99428E+005    8.59177E+005   -2.14223E+004    3.51755E+005    9.54310E+003    4.20702E+003    5.05168E+004    2.53766E+004    4.28342E+005    3.58632E+003
            1977    7.33155E+005    4.34166E+005    4.34166E+005   -7.75302E+002   -4.12301E+005    8.46467E+005   -7.02984E+003    2.66244E+005   -2.28017E+003   -5.96506E+002    2.39662E+004    1.54168E+004    4.22741E+005    2.90206E+003
            1978    7.28876E+005    4.29823E+005    4.29823E+005    2.05506E+003   -4.11772E+005    8.41596E+005   -6.70203E+003    2.23124E+005    5.01184E+003    2.10914E+003    1.29851E+004    5.08367E+003    4.20742E+005    2.30701E+003
            1979    7.29864E+005    4.96736E+005    4.96736E+005    1.36351E+004   -3.42863E+005    8.39598E+005   -5.58360E+004    4.64387E+005    5.60658E+004    1.36723E+004    9.77699E+004    6.92753E+004    4.13459E+005    7.19539E+003
            1980    7.39594E+005    4.82916E+005    4.82916E+005    6.55336E+003   -3.69113E+005    8.52029E+005   -4.01187E+004    4.34643E+005    3.52514E+004    7.44363E+003    7.76612E+004    6.23820E+004    4.20860E+005    8.27589E+003
            1981    7.47858E+005    4.84403E+005    4.84403E+005    7.67231E+003   -3.77531E+005    8.61934E+005   -3.81817E+004    4.24330E+005    2.81505E+004    7.88711E+003    7.85074E+004    5.22580E+004    4.27025E+005    5.21740E+003
            1982    7.37010E+005    4.57259E+005    4.57259E+005    1.20584E+003   -3.93018E+005    8.50277E+005   -2.18155E+004    3.69037E+005    1.02181E+004    1.69212E+003    5.35364E+004    4.34116E+004    4.22349E+005    5.05494E+003
            1983    7.31874E+005    4.52377E+005    4.52377E+005    3.51634E+003   -3.92160E+005    8.44537E+005   -2.12443E+004    3.49403E+005    1.29823E+004    3.73035E+003    4.70204E+004    3.16085E+004    4.20735E+005    3.05849E+003
            1984    7.21813E+005    4.27161E+005    4.27161E+005   -8.72708E+002   -4.06214E+005    8.33375E+005   -6.69172E+003    2.60754E+005   -1.01813E+003   -7.03913E+002    2.17972E+004    1.97684E+004    4.16058E+005    2.31483E+003
            1985    7.18193E+005    4.23739E+005    4.23739E+005    1.90057E+003   -4.05517E+005    8.29256E+005   -6.70771E+003    2.23447E+005    6.07319E+003    1.94398E+003    1.21060E+004    6.31283E+003    4.14567E+005    1.50462E+003
            1986    7.19403E+005    4.87126E+005    4.87126E+005    1.34766E+004   -3.40701E+005    8.27826E+005   -5.33005E+004    4.51263E+005    5.68992E+004    1.25239E+004    9.04784E+004    7.81269E+004    4.06024E+005    5.00015E+003
            1987    7.23292E+005    4.69665E+005    4.69665E+005    2.78428E+003   -3.63499E+005    8.33164E+005   -3.63169E+004    4.28055E+005    3.61103E+004    3.12419E+003    6.97162E+004    7.17487E+004    4.09976E+005    6.84153E+003
            1988    7.32092E+005    4.73639E+005    4.73639E+005    5.05914E+003   -3.69981E+005    8.43620E+005   -3.62389E+004    4.21323E+005    3.21643E+004    5.06772E+003    7.14848E+004    6.35090E+004    4.16507E+005    5.10548E+003
            1989    7.22256E+005    4.48461E+005    4.48461E+005   -4.59968E+002   -3.84692E+005    8.33153E+005   -2.11029E+004    3.69584E+005    1.43330E+004   -2.44800E+002    4.92206E+004    5.24763E+004    4.12879E+005    4.00545E+003
            1990    7.18391E+005    4.43501E+005    4.43501E+005    2.30236E+003   -3.85452E+005    8.28953E+005   -2.01171E+004    3.45651E+005    1.54666E+004    2.38006E+003    4.25047E+004    3.93928E+004    4.12375E+005    2.32780E+003
            1991    7.09796E+005    4.20997E+005    4.20997E+005   -1.05253E+003   -3.98482E+005    8.19478E+005   -7.15417E+003    2.64946E+005    2.05038E+003   -1.03128E+003    2.04434E+004    2.42288E+004    4.08918E+005    8.16199E+002
            1992    7.06601E+005    4.16259E+005    4.16259E+005    1.65122E+003   -3.99617E+005    8.15876E+005   -6.09787E+003    2.15368E+005    5.88473E+003    1.64349E+003    1.07654E+004    8.19496E+003    4.07848E+005   -1.00752E+002
            1993    7.08457E+005    4.75441E+005    4.75441E+005    7.19510E+003   -3.39604E+005    8.15045E+005   -4.76773E+004    4.49031E+005    5.64719E+004    5.73821E+003    8.08218E+004    8.54353E+004    3.98141E+005    4.59799E+003
            1994    7.15048E+005    4.68874E+005    4.68874E+005    4.82553E+003   -3.54578E+005    8.23452E+005   -3.97072E+004    4.30318E+005    4.46870E+004    3.99489E+003    7.04397E+004    8.27922E+004    4.03028E+005    4.76377E+003
            1995    7.14757E+005    4.60233E+005    4.60233E+005    2.31807E+003   -3.63378E+005    8.23611E+005   -3.30575E+004    4.12670E+005    3.47301E+004    1.78369E+003    6.26588E+004    7.51011E+004    4.04606E+005    4.18715E+003
            1996    7.09859E+005    4.45233E+005    4.45233E+005    7.80985E+002   -3.73439E+005    8.18671E+005   -2.41918E+004    3.75420E+005    2.34638E+004    3.51330E+002    4.87601E+004    6.36643E+004    4.04130E+005    2.42717E+003
            1997    7.04007E+005    4.32759E+005    4.32759E+005    7.83289E+002   -3.79613E+005    8.12372E+005   -1.79762E+004    3.37013E+005    1.69831E+004    4.19390E+002    3.65262E+004    4.85430E+004    4.03144E+005    6.46406E+002
            1998    6.97897E+005    4.17308E+005    4.17308E+005    4.97020E+002   -3.88393E+005    8.05701E+005   -9.80408E+003    2.73186E+005    8.12533E+003    1.34314E+002    2.11526E+004    3.02903E+004    4.01647E+005   -1.62268E+003
            1999    6.94600E+005    4.06777E+005    4.06777E+005    3.95723E+002   -3.95254E+005    8.02031E+005   -3.97298E+003    1.98031E+005    3.89110E+003    2.45041E+002    7.78280E+003    1.03116E+004    4.00867E+005   -2.83004E+003
            2000    6.81376E+005    3.99412E+005    3.99412E+005    8.83247E+002   -3.87351E+005    7.86763E+005   -4.31452E+003    1.92813E+005    4.81329E+003    4.02938E+002    7.72734E+003    1.39826E+004    3.93071E+005   -6.61254E+003
            2001    6.86138E+005    4.12066E+005    4.12066E+005    1.88430E+002   -3.80007E+005    7.92073E+005   -1.07490E+004    2.81711E+005    1.31329E+004   -1.01171E+003    2.01256E+004    4.01690E+004    3.93923E+005   -4.84875E+003
            2002    6.92630E+005    4.27455E+005    4.27455E+005    1.18435E+002   -3.71683E+005    7.99138E+005   -1.86302E+004    3.41647E+005    2.29747E+004   -1.43853E+003    3.43545E+004    6.20976E+004    3.94610E+005   -2.22603E+003
            2003    6.96882E+005    4.39003E+005    4.39003E+005   -2.03584E+003   -3.64404E+005    8.03407E+005   -2.41879E+004    3.84999E+005    3.17114E+004   -3.52875E+003    4.43811E+004    7.89730E+004    3.93735E+005    9.71522E+002
            2004    7.01132E+005    4.53186E+005    4.53186E+005   -9.33839E+002   -3.54320E+005    8.07506E+005   -3.26439E+004    4.19394E+005    4.26720E+004   -2.55372E+003    5.78135E+004    9.05472E+004    3.93276E+005    3.31010E+003
            2005    7.00966E+005    4.61150E+005    4.61150E+005    9.62742E+002   -3.45594E+005    8.06743E+005   -3.88395E+004    4.36234E+005    5.21650E+004   -6.17433E+002    6.49709E+004    9.68621E+004    3.91370E+005    4.81246E+003
            2006    7.08728E+005    4.76795E+005    4.76795E+005    2.72365E+003   -3.37941E+005    8.14736E+005   -4.71924E+004    4.63115E+005    6.22535E+004    2.52042E+003    7.68031E+004    9.94676E+004    3.94851E+005    9.00017E+003
            2007    6.71543E+005    3.17365E+005   -4.53437E+005    5.23493E+003   -4.53437E+005    7.70802E+005    4.36122E+004   -4.60345E+005   -6.37711E+004    6.02490E+003   -7.30903E+004    7.37331E+004    3.78133E+005   -5.72798E+003
            2008    6.74069E+005    3.14896E+005   -4.59860E+005   -7.79604E+003   -4.59860E+005    7.74756E+005    5.09201E+004   -4.43260E+005   -6.76041E+004   -5.85066E+003   -7.93056E+004    8.92373E+004    3.76716E+005   -4.50524E+003
            2009    6.95383E+005    3.17037E+005   -4.82146E+005   -1.51985E+004   -4.82146E+005    7.99183E+005    6.01025E+004   -4.58662E+005   -7.42097E+004   -1.42416E+004   -9.18561E+004    8.37874E+004    3.90478E+005   -6.09430E+003
            2010    7.08624E+005    3.14217E+005   -5.00343E+005   -2.58486E+004   -5.00343E+005    8.14559E+005    7.06582E+004   -4.64221E+005   -8.15242E+004   -2.55800E+004   -1.04870E+005    7.10584E+004    4.00791E+005   -6.30717E+003
            2011    7.55094E+005    3.53133E+005   -5.15648E+005   -1.73629E+004   -5.15648E+005    8.68781E+005    5.99590E+004   -4.76584E+005   -5.42509E+004   -1.76570E+004   -1.07969E+005    5.73367E+004    4.29713E+005   -7.16543E+003
            2012    7.64893E+005    3.80539E+005   -5.00741E+005   -9.40511E+003   -5.00741E+005    8.81280E+005    4.32023E+004   -4.45568E+005   -3.00856E+004   -1.01093E+004   -8.94119E+004    4.65107E+004    4.37148E+005   -7.56611E+003
            2013    7.71773E+005    3.91676E+005   -4.97984E+005   -8.29724E+003   -4.97984E+005    8.89660E+005    3.82015E+004   -4.30515E+005   -2.06563E+004   -8.66993E+003   -8.52781E+004    3.53191E+004    4.42233E+005   -5.40751E+003
            2014    7.60571E+005    4.05647E+005   -4.71893E+005   -2.95998E+003   -4.71893E+005    8.77541E+005    2.30687E+004   -3.73813E+005   -5.09183E+003   -3.30642E+003   -6.08078E+004    2.72810E+004    4.37022E+005   -4.58053E+003
            2015    7.53797E+005    4.05670E+005   -4.64241E+005   -3.77754E+003   -4.64241E+005    8.69911E+005    2.07826E+004   -3.51462E+005   -6.98865E+003   -3.96113E+003   -5.13979E+004    1.83749E+004    4.33993E+005   -3.17641E+003
            2016    7.43047E+005    4.17841E+005   -4.40061E+005   -4.86424E+001   -4.40061E+005    8.57902E+005    7.42268E+003   -2.63597E+005    3.04544E+003   -1.64339E+002   -2.51491E+004    1.12469E+004    4.28566E+005   -2.53255E+003
            2017    7.39044E+005    4.18005E+005   -4.35330E+005   -1.57107E+003   -4.35330E+005    8.53335E+005    6.29854E+003   -2.26487E+005   -4.07862E+003   -1.60514E+003   -1.32119E+004    3.45520E+003    4.26624E+005   -2.15467E+003
            2018    7.31351E+005    3.45844E+005   -4.95682E+005   -1.36758E+004   -4.95682E+005    8.41526E+005    5.45044E+004   -4.60027E+005   -5.31715E+004   -1.35869E+004   -9.67548E+004    6.90908E+004    4.14418E+005   -6.69480E+003
            2019    7.45483E+005    3.73847E+005   -4.85037E+005   -5.77157E+003   -4.85037E+005    8.58885E+005    3.89872E+004   -4.35457E+005   -3.12344E+004   -6.64551E+003   -7.90818E+004    5.63554E+004    4.25028E+005   -8.15709E+003
            2020    7.53741E+005    3.83574E+005   -4.85370E+005   -8.14776E+003   -4.85370E+005    8.68945E+005    3.66481E+004   -4.17074E+005   -2.33734E+004   -8.50322E+003   -7.80676E+004    4.65156E+004    4.31092E+005   -5.42110E+003
            2021    7.45013E+005    3.98425E+005   -4.61154E+005   -1.59773E+003   -4.61154E+005    8.59580E+005    2.14422E+004   -3.67072E+005   -7.83011E+003   -2.05440E+003   -5.44422E+004    3.58374E+004    4.27646E+005   -4.93899E+003
            2022    7.41168E+005    3.98902E+005   -4.56454E+005   -4.20963E+003   -4.56454E+005    8.55356E+005    2.05870E+004   -3.43203E+005   -9.55061E+003   -4.41364E+003   -4.77969E+004    2.59734E+004    4.26456E+005   -3.00216E+003
            2023    7.31596E+005    4.11583E+005   -4.33083E+005    9.31063E+002   -4.33083E+005    8.44666E+005    6.85641E+003   -2.65665E+005    1.59505E+003    7.60835E+002   -2.29251E+004    1.56172E+004    4.21860E+005   -2.74055E+003
            2024    7.28519E+005    4.12049E+005   -4.29141E+005   -2.26500E+003   -4.29141E+005    8.41190E+005    6.45231E+003   -2.15441E+005   -4.66720E+003   -2.31450E+003   -1.23752E+004    5.21914E+003    4.20540E+005   -2.05918E+003
            2025    7.17301E+005    3.42760E+005   -4.82427E+005   -8.02485E+003   -4.82427E+005    8.25187E+005    4.92305E+004   -4.55425E+005   -5.05484E+004   -7.66325E+003   -8.94798E+004    7.27547E+004    4.05584E+005   -6.34816E+003
            2026    7.25809E+005    3.66558E+005   -4.69743E+005   -4.17292E+003   -4.69743E+005    8.36301E+005    3.57861E+004   -4.20806E+005   -3.43702E+004   -4.98242E+003   -6.80057E+004    6.76159E+004    4.12279E+005   -7.70655E+003
            2027    7.37460E+005    3.75021E+005   -4.74980E+005   -5.58083E+003   -4.74980E+005    8.50001E+005    3.51798E+004   -4.16186E+005   -2.82095E+004   -5.56331E+003   -7.17666E+004    5.56039E+004    4.20761E+005   -4.31654E+003
            2028    7.29684E+005    3.90197E+005   -4.51661E+005   -8.09775E+002   -4.51661E+005    8.41858E+005    2.07580E+004   -3.62636E+005   -1.16899E+004   -1.06440E+003   -4.95198E+004    4.67687E+004    4.17886E+005   -3.86403E+003
            2029    7.26251E+005    3.90342E+005   -4.47707E+005   -2.28890E+003   -4.47707E+005    8.38049E+005    1.98846E+004   -3.46744E+005   -1.35299E+004   -2.46070E+003   -4.36632E+004    3.40638E+004    4.17362E+005   -2.74107E+003
            2030    7.17747E+005    4.03779E+005   -4.24907E+005    4.32797E+002   -4.24907E+005    8.28686E+005    6.89837E+003   -2.57078E+005   -2.32802E+002    3.29906E+002   -2.07922E+004    2.12323E+004    4.13669E+005   -1.54703E+003
            2031    7.15198E+005    4.04270E+005   -4.21526E+005   -1.25159E+003   -4.21526E+005    8.25796E+005    6.16895E+003   -2.24515E+005   -5.81915E+003   -1.28215E+003   -1.14055E+004    6.87093E+003    4.12830E+005   -1.00327E+003
            2032    7.11697E+005    3.39430E+005   -4.79922E+005   -1.53926E+004   -4.79922E+005    8.19353E+005    5.19616E+004   -4.35667E+005   -5.63708E+004   -1.29732E+004   -8.65409E+004    7.97937E+004    4.01375E+005   -1.09805E+003
            2033    7.14738E+005    3.61890E+005   -4.61481E+005   -8.45721E+002   -4.61481E+005    8.23371E+005    3.34788E+004   -4.20869E+005   -3.65333E+004   -2.07350E+002   -6.36958E+004    7.37251E+004    4.04744E+005   -4.00544E+003
            2034    7.25744E+005    3.66595E+005   -4.69674E+005   -4.69478E+003   -4.69674E+005    8.36269E+005    3.59248E+004   -4.19093E+005   -3.59423E+004   -4.00363E+003   -6.78285E+004    7.06572E+004    4.11759E+005   -3.43274E+003
            2035    7.13876E+005    3.80216E+005   -4.43214E+005    1.53078E+003   -4.43214E+005    8.23430E+005    2.04889E+004   -3.69269E+005   -1.73560E+004    1.59318E+003   -4.57038E+004    5.93339E+004    4.07155E+005   -3.23285E+003
            2036    7.09948E+005    3.81206E+005   -4.38035E+005   -2.73370E+003   -4.38035E+005    8.19241E+005    1.98540E+004   -3.38434E+005   -1.81378E+004   -2.49433E+003   -3.89300E+004    4.47038E+004    4.07033E+005   -9.01977E+002
            2037    7.02523E+005    3.94004E+005   -4.17067E+005    1.20185E+003   -4.17067E+005    8.11071E+005    7.28678E+003   -2.66110E+005   -3.90077E+003    1.37505E+003   -1.93346E+004    2.77024E+004    4.04511E+005    5.60431E+002
            2038    7.00181E+005    3.96343E+005   -4.12127E+005   -2.00363E+003   -4.12127E+005    8.08471E+005    5.92932E+003   -2.05354E+005   -6.24238E+003   -1.91341E+003   -9.63216E+003    9.53322E+003    4.04115E+005    1.81988E+003
            2039    6.82805E+005    3.88821E+005   -3.99589E+005    1.07478E+002   -3.99589E+005    7.88410E+005    3.55333E+003   -1.97295E+005   -4.47072E+003    5.50867E+002   -6.74014E+003    1.39076E+004    3.93907E+005    6.14119E+003
            2040    6.87733E+005    3.80583E+005   -4.13360E+005   -1.65389E+003   -4.13360E+005    7.93943E+005    1.14768E+004   -2.75428E+005   -1.28985E+004   -5.19312E+002   -2.10126E+004    3.93996E+004    3.94940E+005    4.70494E+003
            2041    6.93836E+005    3.74009E+005   -4.26559E+005    6.73859E+002   -4.26559E+005    8.00568E+005    1.72919E+004   -3.38662E+005   -2.17001E+004    1.93894E+003   -3.21147E+004    6.08662E+004    3.95547E+005    1.56750E+003
            2042    7.01195E+005    3.66640E+005   -4.41873E+005   -1.42629E+002   -4.41873E+005    8.08513E+005    2.51251E+004   -3.80443E+005   -3.08033E+004    1.23933E+003   -4.58114E+004    7.80611E+004    3.96509E+005   -1.01738E+003
            2043    7.07134E+005    3.59278E+005   -4.55179E+005    2.38159E+003   -4.55179E+005    8.14457E+005    3.11731E+004   -4.21705E+005   -4.10903E+004    3.23993E+003   -5.56691E+004    9.02943E+004    3.96941E+005   -4.75984E+003
            2044    7.21946E+005    3.54018E+005   -4.76953E+005   -3.83961E+003   -4.76953E+005    8.30971E+005    4.22581E+004   -4.47046E+005   -5.15731E+004   -2.54945E+003   -7.26518E+004    9.58693E+004    4.04005E+005   -5.51949E+003
            2045    7.19075E+005    3.41416E+005   -4.85014E+005   -2.31144E+003   -4.85014E+005    8.26430E+005    4.86367E+004   -4.73928E+005   -6.17937E+004   -1.66228E+003   -8.24541E+004    7.82928E+004    4.05496E+005   -6.13991E+003
            2046    6.94483E+005    3.95044E+005   -4.06850E+005   -4.07538E+002   -4.06850E+005    8.01894E+005    4.07116E+003   -1.99589E+005   -3.99234E+003   -2.50357E+002   -7.97080E+003   -1.07016E+004    4.00788E+005   -2.83846E+003
            2047    7.06495E+005    3.99323E+005   -4.16428E+005   -1.63849E+003   -4.16428E+005    8.15751E+005    6.24777E+003   -2.17939E+005   -5.96888E+003   -1.62885E+003   -1.11456E+004   -8.63484E+003    4.07776E+005   -1.27056E+002
            2048    7.18127E+005    4.05185E+005   -4.23991E+005   -1.87346E+003   -4.23991E+005    8.29176E+005    6.89299E+003   -2.26676E+005   -6.09752E+003   -1.92087E+003   -1.26606E+004   -6.83385E+003    4.14516E+005    1.52826E+003
            2049    7.29025E+005    4.11493E+005   -4.30270E+005   -2.03218E+003   -4.30270E+005    8.41763E+005    6.93636E+003   -2.27196E+005   -5.02081E+003   -2.09125E+003   -1.36970E+004   -5.54353E+003    4.20817E+005    2.32188E+003
            2050    7.37954E+005    4.16560E+005   -4.35512E+005   -1.99308E+003   -4.35512E+005    8.52072E+005    6.98180E+003   -2.30356E+005   -4.60776E+003   -2.03523E+003   -1.43024E+004   -3.88869E+003    4.25984E+005    2.36879E+003
            2051    7.44710E+005    4.20482E+005   -4.39393E+005   -2.06430E+003   -4.39393E+005    8.59875E+005    6.99205E+003   -2.30813E+005   -4.24120E+003   -2.08536E+003   -1.46496E+004   -2.57597E+003    4.29895E+005    1.79790E+003
            2052    7.48464E+005    4.22688E+005   -4.41523E+005   -2.16715E+003   -4.41523E+005    8.64212E+005    7.00077E+003   -2.30104E+005   -4.08722E+003   -2.17020E+003   -1.47449E+004   -7.96962E+002    4.32071E+005    8.39434E+002
            2053    7.49029E+005    4.23232E+005   -4.41630E+005   -1.89199E+003   -4.41630E+005    8.64863E+005    6.76322E+003   -2.30815E+005   -3.91632E+003   -1.89273E+003   -1.44806E+004    4.70651E+002    4.32399E+005   -3.46079E+002
            2054    7.45963E+005    4.21571E+005   -4.39757E+005   -2.32616E+003   -4.39757E+005    8.61328E+005    6.83764E+003   -2.24374E+005   -4.03984E+003   -2.34018E+003   -1.41329E+004    2.21241E+003    4.30627E+005   -1.39557E+003
            2055    6.97857E+005    3.88117E+005   -4.17532E+005   -5.01074E+002   -4.17532E+005    8.05649E+005    9.97200E+003   -2.74768E+005   -8.31067E+003   -1.31091E+002   -2.14742E+004   -3.08378E+004    4.01578E+005   -1.60047E+003
            2056    7.09846E+005    3.98056E+005   -4.21471E+005    1.04163E+003   -4.21471E+005    8.19527E+005    7.45749E+003   -2.68067E+005   -2.32258E+003    1.01847E+003   -2.10684E+004   -2.49239E+004    4.08897E+005    8.63916E+002
            2057    7.22226E+005    4.05801E+005   -4.28039E+005    8.20740E+002   -4.28039E+005    8.33841E+005    7.13904E+003   -2.65318E+005    7.29389E+002    6.45718E+002   -2.27922E+004   -2.04493E+004    4.16248E+005    2.36133E+003
            2058    7.33702E+005    4.11981E+005   -4.35106E+005    7.07561E+002   -4.35106E+005    8.47088E+005    7.47236E+003   -2.70570E+005    2.08034E+003    5.23518E+002   -2.50209E+004   -1.59258E+004    4.23020E+005    2.92818E+003
            2059    7.43708E+005    4.17424E+005   -4.41220E+005    3.20038E+002   -4.41220E+005    8.58644E+005    7.82536E+003   -2.72641E+005    3.36408E+003    1.88595E+002   -2.70288E+004   -1.17367E+004    4.28885E+005    2.77456E+003
            2060    7.50821E+005    4.21453E+005   -4.45407E+005    2.02994E+002   -4.45407E+005    8.66860E+005    7.91705E+003   -2.74093E+005    4.37823E+003    1.45277E+002   -2.82747E+004   -7.00808E+003    4.33062E+005    2.01205E+003
            2061    7.54796E+005    4.23744E+005   -4.47706E+005    2.41158E+002   -4.47706E+005    8.71449E+005    7.90689E+003   -2.75375E+005    4.72641E+003    2.32305E+002   -2.86794E+004   -2.67385E+003    4.35396E+005    8.08850E+002
            2062    7.54793E+005    4.23942E+005   -4.47512E+005   -3.80962E+001   -4.47512E+005    8.71454E+005    7.86908E+003   -2.71757E+005    4.70629E+003   -4.27091E+001   -2.82708E+004    2.24280E+003    4.35409E+005   -5.20141E+002
            2063    7.50906E+005    4.22149E+005   -4.44815E+005    4.48904E+002   -4.44815E+005    8.66964E+005    7.40588E+003   -2.71097E+005    4.20220E+003    3.99519E+002   -2.68194E+004    6.42026E+003    4.33154E+005   -1.86659E+003
            2064    7.04112E+005    3.79334E+005   -4.33144E+005   -7.49940E+002   -4.33144E+005    8.12478E+005    1.81865E+004   -3.38625E+005   -1.72439E+004   -3.82009E+002   -3.69337E+004   -4.92206E+004    4.03113E+005    7.08127E+002
            2065    7.18849E+005    3.85189E+005   -4.44270E+005   -2.30321E+003   -4.44270E+005    8.29459E+005    2.04614E+004   -3.47997E+005   -1.57564E+004   -2.38402E+003   -4.32436E+004   -4.01539E+004    4.12548E+005    2.40855E+003
            2066    7.32736E+005    3.92008E+005   -4.53499E+005   -3.53966E+003   -4.53499E+005    8.45507E+005    2.16769E+004   -3.52338E+005   -1.31841E+004   -3.76585E+003   -4.80807E+004   -3.23082E+004    4.21151E+005    3.18273E+003
            2067    7.45726E+005    3.99402E+005   -4.61130E+005   -4.02180E+003   -4.61130E+005    8.60532E+005    2.19164E+004   -3.54906E+005   -9.73160E+003   -4.29092E+003   -5.17266E+004   -2.57438E+004    4.28974E+005    3.67376E+003
            2068    7.56594E+005    4.04962E+005   -4.68111E+005   -4.34289E+003   -4.68111E+005    8.73073E+005    2.24975E+004   -3.60074E+005   -8.05572E+003   -4.53254E+003   -5.49043E+004   -1.83644E+004    4.35514E+005    3.31511E+003
            2069    7.64607E+005    4.09543E+005   -4.72800E+005   -4.65200E+003   -4.72800E+005    8.82343E+005    2.26363E+004   -3.61482E+005   -6.31943E+003   -4.73690E+003   -5.68524E+004   -1.13010E+004    4.40299E+005    2.32390E+003
            2070    7.68444E+005    4.11647E+005   -4.75126E+005   -4.69501E+003   -4.75126E+005    8.86773E+005    2.27249E+004   -3.62998E+005   -5.84793E+003   -4.70648E+003   -5.76202E+004   -3.47052E+003    4.42616E+005    9.38843E+002
            2071    7.68093E+005    4.12163E+005   -4.74225E+005   -4.47566E+003   -4.74225E+005    8.86387E+005    2.21793E+004   -3.60692E+005   -5.30394E+003   -4.48508E+003   -5.67488E+004    3.88125E+003    4.42429E+005   -7.66149E+002
            2072    7.63083E+005    4.09759E+005   -4.70869E+005   -4.73402E+003   -4.70869E+005    8.80628E+005    2.19478E+004   -3.55786E+005   -6.06333E+003   -4.80845E+003   -5.49716E+004    1.15081E+004    4.39481E+005   -2.07903E+003
            2073    7.10371E+005    3.73185E+005   -4.46049E+005   -8.27413E+002   -4.46049E+005    8.19234E+005    2.45638E+004   -3.77323E+005   -2.38720E+004   -4.05059E+002   -4.94143E+004   -6.42410E+004    4.04320E+005    2.54277E+003
            2074    7.23210E+005    3.84392E+005   -4.49826E+005    3.43609E+002   -4.49826E+005    8.34218E+005    2.16970E+004   -3.72607E+005   -1.48388E+004    1.14713E+002   -5.03669E+004   -5.31447E+004    4.13316E+005    4.15225E+003
            2075    7.38543E+005    3.92886E+005   -4.59126E+005   -1.44992E+003   -4.59126E+005    8.52012E+005    2.25635E+004   -3.72523E+005   -1.06993E+004   -1.94342E+003   -5.50477E+004   -4.38140E+004    4.23153E+005    5.15796E+003
            2076    7.53573E+005    4.00428E+005   -4.68938E+005   -2.25614E+003   -4.68938E+005    8.69366E+005    2.35889E+004   -3.78868E+005   -7.47996E+003   -2.70565E+003   -6.05812E+004   -3.44434E+004    4.32488E+005    5.14471E+003
            2077    7.67067E+005    4.06842E+005   -4.78103E+005   -3.28250E+003   -4.78103E+005    8.84945E+005    2.48477E+004   -3.84769E+005   -5.38664E+003   -3.58779E+003   -6.55686E+004   -2.50467E+004    4.40726E+005    4.45592E+003
            2078    7.76683E+005    4.11922E+005   -4.84137E+005   -3.78976E+003   -4.84137E+005    8.96059E+005    2.53347E+004   -3.87865E+005   -3.13251E+003   -3.90960E+003   -6.89621E+004   -1.44933E+004    4.46579E+005    2.90382E+003
            2079    7.81381E+005    4.14302E+005   -4.87168E+005   -3.72811E+003   -4.87168E+005    9.01470E+005    2.55313E+004   -3.90974E+005   -2.60308E+003   -3.73800E+003   -7.02529E+004   -4.10604E+003    4.49445E+005    8.45241E+002
            2080    7.79726E+005    4.14116E+005   -4.85486E+005   -3.91600E+003   -4.85486E+005    8.99602E+005    2.50953E+004   -3.86677E+005   -2.21392E+003   -3.94246E+003   -6.91296E+004    7.11362E+003    4.48498E+005   -1.35119E+003
            2081    7.72781E+005    4.11270E+005   -4.80321E+005   -3.07475E+003   -4.80321E+005    8.91592E+005    2.40419E+004   -3.83091E+005   -3.27516E+003   -3.23891E+003   -6.56115E+004    1.68242E+004    4.44380E+005   -3.35192E+003
            2082    7.15202E+005    3.63114E+005   -4.60983E+005   -2.44085E+003   -4.60983E+005    8.24097E+005    3.34368E+004   -4.13974E+005   -3.51576E+004   -1.89957E+003   -6.32532E+004   -7.54139E+004    4.04792E+005    4.23935E+003
            2083    7.33035E+005    3.69677E+005   -4.74993E+005   -5.33303E+003   -4.74993E+005    8.44670E+005    3.68828E+004   -4.23330E+005   -3.27927E+004   -5.35872E+003   -7.24971E+004   -6.37710E+004    4.16989E+005    5.23299E+003
            2084    7.49278E+005    3.77320E+005   -4.86207E+005   -7.98909E+003   -4.86207E+005    8.63527E+005    3.89587E+004   -4.26974E+005   -2.87875E+004   -8.22903E+003   -7.98597E+004   -5.23273E+004    4.27799E+005    5.38178E+003
            2085    7.65851E+005    3.85841E+005   -4.96868E+005   -9.19615E+003   -4.96868E+005    8.82710E+005    4.00743E+004   -4.32856E+005   -2.48315E+004   -9.62480E+003   -8.57667E+004   -4.24921E+004    4.38229E+005    5.92355E+003
            2086    7.81218E+005    3.92560E+005   -5.07831E+005   -9.94359E+003   -5.07831E+005    9.00391E+005    4.17381E+004   -4.42910E+005   -2.31864E+004   -1.02617E+004   -9.17663E+004   -3.03574E+004    4.47848E+005    5.11978E+003
            2087    7.92593E+005    3.98337E+005   -5.15222E+005   -1.09063E+004   -5.15222E+005    9.13560E+005    4.25972E+004   -4.46738E+005   -2.10591E+004   -1.10307E+004   -9.57018E+004   -1.76202E+004    4.54906E+005    3.24752E+003
            2088    7.97539E+005    4.00737E+005   -5.18509E+005   -1.08309E+004   -5.18509E+005    9.19246E+005    4.28675E+004   -4.50213E+005   -2.05063E+004   -1.08397E+004   -9.72566E+004   -3.47364E+003    4.58004E+005    9.03477E+002
            2089    7.95725E+005    4.00990E+005   -5.16222E+005   -1.04902E+004   -5.16222E+005    9.17211E+005    4.19074E+004   -4.46639E+005   -1.94519E+004   -1.05300E+004   -9.57404E+004    1.04105E+004    4.56896E+005   -1.84609E+003
            2090    7.86090E+005    3.97116E+005   -5.09022E+005   -9.88541E+003   -5.09022E+005    9.06138E+005    4.05970E+004   -4.39699E+005   -1.99249E+004   -1.00678E+004   -9.17984E+004    2.38540E+004    4.51004E+005   -3.89025E+003
            2091    7.15376E+005    3.54379E+005   -4.69436E+005   -4.99250E+003   -4.69436E+005    8.23814E+005    4.00165E+004   -4.31027E+005   -4.50017E+004   -4.18575E+003   -7.08620E+004   -8.28457E+004    4.03200E+005    4.84984E+003
            2092    7.23931E+005    3.63193E+005   -4.70682E+005   -3.09122E+003   -4.70682E+005    8.33875E+005    3.68601E+004   -4.29299E+005   -3.65904E+004   -3.45823E+003   -7.05318E+004   -7.18256E+004    4.10317E+005    6.96449E+003
            2093    7.40682E+005    3.69108E+005   -4.84158E+005   -6.89947E+003   -4.84158E+005    8.53266E+005    4.06496E+004   -4.35859E+005   -3.55876E+004   -7.80041E+003   -7.85609E+004   -6.20863E+004    4.21515E+005    8.33866E+003
            2094    7.59892E+005    3.76596E+005   -4.98818E+005   -9.39940E+003   -4.98818E+005    8.75414E+005    4.38740E+004   -4.46521E+005   -3.27327E+004   -1.01911E+004   -8.86981E+004   -5.02435E+004    4.33885E+005    8.01050E+003
            2095    7.78438E+005    3.83194E+005   -5.13554E+005   -1.18081E+004   -5.13554E+005    8.96748E+005    4.73894E+004   -4.58547E+005   -3.21777E+004   -1.23030E+004   -9.76874E+004   -3.69354E+004    4.45629E+005    6.54466E+003
            2096    7.92643E+005    3.89365E+005   -5.23812E+005   -1.37150E+004   -5.23812E+005    9.13177E+005    4.93875E+004   -4.64535E+005   -3.04363E+004   -1.38795E+004   -1.03847E+005   -2.04132E+004    4.54646E+005    3.85515E+003
            2097    7.99124E+005    3.92107E+005   -5.28518E+005   -1.40192E+004   -5.28518E+005    9.20625E+005    5.01435E+004   -4.69018E+005   -3.01871E+004   -1.40231E+004   -1.06220E+005   -2.68060E+003    4.58732E+005    6.06172E+002
            2098    7.95500E+005    3.91243E+005   -5.25270E+005   -1.38731E+004   -5.25270E+005    9.16513E+005    4.93002E+004   -4.64600E+005   -2.95348E+004   -1.39492E+004   -1.04417E+005    1.56408E+004    4.56453E+005   -2.66166E+003
            2099    7.84272E+005    3.87389E+005   -5.16148E+005   -1.14711E+004   -5.16148E+005    9.03537E+005    4.67435E+004   -4.59529E+005   -2.98141E+004   -1.18217E+004   -9.85948E+004    3.16774E+004    4.49328E+005   -5.55786E+003
            2100    7.08708E+005    3.39621E+005   -4.75711E+005   -7.28346E+003   -4.75711E+005    8.15332E+005    4.77913E+004   -4.49231E+005   -5.65524E+004   -5.86656E+003   -8.09549E+004   -8.57430E+004    3.98222E+005    4.73245E+003
            2101    7.19966E+005    3.40539E+005   -4.87912E+005   -1.36657E+004   -4.87912E+005    8.28451E+005    5.36798E+004   -4.52205E+005   -5.72637E+004   -1.27586E+004   -9.10171E+004   -7.79215E+004    4.06380E+005    5.11670E+003
            2102    7.30528E+005    3.42764E+005   -4.97586E+005   -1.39250E+004   -4.97586E+005    8.40350E+005    5.62489E+004   -4.65114E+005   -5.64019E+004   -1.39750E+004   -9.83699E+004   -6.89353E+004    4.13891E+005    7.21804E+003
            2103    7.48709E+005    3.47218E+005   -5.14101E+005   -1.89254E+004   -5.14101E+005    8.61319E+005    6.19363E+004   -4.75370E+005   -5.84155E+004   -1.92380E+004   -1.08155E+005   -5.92582E+004    4.25798E+005    7.35280E+003
            2104    7.69639E+005    3.53561E+005   -5.31825E+005   -2.26923E+004   -5.31825E+005    8.85385E+005    6.69854E+004   -4.88947E+005   -6.00741E+004   -2.30113E+004   -1.17871E+005   -4.34717E+004    4.39583E+005    6.32847E+003
            2105    7.84784E+005    3.58116E+005   -5.44770E+005   -2.63678E+004   -5.44770E+005    9.02887E+005    7.10073E+004   -4.96667E+005   -6.13761E+004   -2.64844E+004   -1.25161E+005   -2.34428E+004    4.49698E+005    3.69678E+003
            2106    7.91036E+005    3.60361E+005   -5.49706E+005   -2.70601E+004   -5.49706E+005    9.10067E+005    7.21350E+004   -5.00913E+005   -6.15776E+004   -2.70620E+004   -1.27765E+005   -1.29849E+003    4.53826E+005    4.61946E+002
            2107    7.87542E+005    3.60275E+005   -5.45823E+005   -2.59655E+004   -5.45823E+005    9.06098E+005    7.05043E+004   -4.97474E+005   -6.00313E+004   -2.60557E+004   -1.25426E+005    2.07810E+004    4.51384E+005   -3.27229E+003
            2108    7.73688E+005    3.56754E+005   -5.33429E+005   -2.29550E+004   -5.33429E+005    8.90182E+005    6.65433E+004   -4.88112E+005   -5.82652E+004   -2.31587E+004   -1.18206E+005    4.12208E+004    4.42144E+005   -5.54319E+003
            2109    7.25051E+005    3.13479E+005   -5.19924E+005   -3.40974E+004   -5.19924E+005    8.33403E+005    8.01806E+004   -4.75772E+005   -8.85301E+004   -3.42108E+004   -1.17801E+005    5.19127E+004    4.13166E+005   -5.73952E+003
            2110    7.36925E+005    3.13313E+005   -5.33845E+005   -4.09795E+004   -5.33845E+005    8.47159E+005    8.71704E+004   -4.81381E+005   -9.31946E+004   -4.10323E+004   -1.27284E+005    2.77494E+004    4.22317E+005   -3.25075E+003
            2111    7.42102E+005    3.13368E+005   -5.39745E+005   -4.34474E+004   -5.39745E+005    8.53113E+005    8.99416E+004   -4.84690E+005   -9.51731E+004   -4.34474E+004   -1.31204E+005    4.73897E+001    4.26176E+005    1.34064E+001
            2112    7.35303E+005    3.12353E+005   -5.32888E+005   -4.06592E+004   -5.32888E+005    8.45242E+005    8.70646E+004   -4.81391E+005   -9.34652E+004   -4.07470E+004   -1.26982E+005   -2.77341E+004    4.21369E+005    3.51853E+003
            2113    7.21736E+005    3.11348E+005   -5.18197E+005   -3.41825E+004   -5.18197E+005    8.29544E+005    8.03439E+004   -4.74565E+005   -8.91855E+004   -3.42933E+004   -1.17553E+005   -5.16340E+004    4.11271E+005    5.70503E+003
            2114    7.06478E+005    3.12280E+005   -4.99606E+005   -2.48008E+004   -4.99606E+005    8.11886E+005    7.07090E+004   -4.66933E+005   -8.26601E+004   -2.46961E+004   -1.04771E+005   -7.02669E+004    3.99596E+005    6.78974E+003
            2115    6.88902E+005    3.12017E+005   -4.79625E+005   -1.62462E+004   -4.79625E+005    7.91642E+005    6.12849E+004   -4.56215E+005   -7.62824E+004   -1.55118E+004   -9.20606E+004   -8.18401E+004    3.87070E+005    6.36938E+003
            2116    6.82570E+005    3.15935E+005   -4.68142E+005   -6.68179E+003   -4.68142E+005    7.84076E+005    5.29630E+004   -4.57397E+005   -7.02304E+004   -6.00217E+003   -8.26565E+004   -8.12711E+004    3.83354E+005    6.54683E+003
            2117    7.04499E+005    3.29039E+005   -4.80199E+005   -3.68004E+003   -4.80199E+005    8.09238E+005    5.16132E+004   -4.72620E+005   -6.89703E+004   -3.53504E+003   -8.23341E+004   -8.82254E+004    3.94721E+005    8.54487E+003
            2118    6.81160E+005    3.87202E+005   -3.99311E+005   -8.84457E+002   -3.99311E+005    7.86513E+005    4.33090E+003   -1.93056E+005   -4.82118E+003   -4.05582E+002   -7.76593E+003   -1.39588E+004    3.92947E+005   -6.60122E+003
            2119    6.86063E+005    3.79937E+005   -4.12049E+005   -1.79504E+002   -4.12049E+005    7.91986E+005    1.07637E+004   -2.81901E+005   -1.31677E+004    1.03045E+003   -2.01538E+004   -4.03469E+004    3.93861E+005   -4.86305E+003
            2120    6.92590E+005    3.71531E+005   -4.27555E+005   -1.35941E+002   -4.27555E+005    7.99086E+005    1.87200E+004   -3.42076E+005   -2.31164E+004    1.42140E+003   -3.44649E+004   -6.24076E+004    3.94535E+005   -2.18042E+003
            2121    6.96757E+005    3.64073E+005   -4.39169E+005    2.08890E+003   -4.39169E+005    8.03242E+005    2.43355E+004   -3.85923E+005   -3.19742E+004    3.58164E+003   -4.46140E+004   -7.95434E+004    3.93536E+005    1.06585E+003
            2122    7.01541E+005    3.54173E+005   -4.53784E+005    8.31549E+002   -4.53784E+005    8.07957E+005    3.29264E+004   -4.20296E+005   -4.30322E+004    2.44878E+003   -5.81957E+004   -9.10822E+004    3.93383E+005    3.40660E+003
            2123    7.01358E+005    3.45452E+005   -4.61723E+005   -1.08819E+003   -4.61723E+005    8.07175E+005    3.91197E+004   -4.36981E+005   -5.24736E+004    4.68565E+002   -6.53541E+004   -9.68800E+004    3.91588E+005    4.88752E+003
            2124    7.08492E+005    3.37689E+005   -4.76793E+005   -3.02595E+003   -4.76793E+005    8.14482E+005    4.73766E+004   -4.62611E+005   -6.24984E+004   -2.79753E+003   -7.68339E+004   -9.98009E+004    3.94637E+005    8.95440E+003
            2125    7.20816E+005    4.15016E+005   -4.17311E+005   -8.22908E+002   -4.17311E+005    8.32326E+005    1.03928E+003   -7.96810E+004   -2.46570E+003   -8.53030E+002    2.00884E+002   -9.93581E+003    4.16042E+005    6.18505E+002
            2126    7.36908E+005    4.23184E+005   -4.27723E+005   -1.64806E+003   -4.27723E+005    8.50907E+005    2.06232E+003   -1.00408E+005   -3.80320E+003   -1.63529E+003   -7.48458E+002   -7.40012E+003    4.25386E+005   -3.74844E+002
            2127    7.51066E+005    4.31737E+005   -4.35519E+005   -1.18175E+003   -4.35519E+005    8.67256E+005    1.65448E+003   -1.06266E+005   -3.35851E+003   -1.16281E+003   -4.42114E+002   -5.65846E+003    4.33588E+005   -7.30401E+002
            2128    7.62134E+005    4.37899E+005   -4.42137E+005   -1.50794E+003   -4.42137E+005    8.80036E+005    1.91540E+003   -1.02122E+005   -3.72664E+003   -1.49515E+003   -5.24402E+002   -3.73182E+003    4.39999E+005   -7.57872E+002
            2129    7.23617E+005    4.25758E+005    4.25758E+005    1.11700E+003   -4.09765E+005    8.35523E+005   -5.70333E+003    2.21079E+005    6.25532E+003    1.05623E+003    9.79844E+003   -2.91844E+004    4.16737E+005    1.29775E+002
            2130    7.40299E+005    4.36390E+005    4.36390E+005    2.09058E+003   -4.18396E+005    8.54786E+005   -6.69474E+003    2.24755E+005    5.97094E+003    2.10676E+003    1.20065E+004   -2.20512E+004    4.26813E+005   -4.12811E+002
            2131    7.54802E+005    4.44359E+005    4.44359E+005    1.62414E+003   -4.27174E+005    8.71533E+005   -6.26963E+003    2.28360E+005    4.44240E+003    1.66948E+003    1.26970E+004   -1.64176E+004    4.35437E+005   -8.10141E+002
            2132    7.66932E+005    4.51742E+005    4.51742E+005    2.13515E+003   -4.33799E+005    8.85541E+005   -6.69290E+003    2.29338E+005    4.10648E+003    2.16473E+003    1.38075E+004   -1.16475E+004    4.42591E+005   -7.15759E+002
            2133    7.27831E+005    4.25436E+005    4.25436E+005   -9.69564E+002   -4.14961E+005    8.40397E+005   -3.16858E+003    2.14460E+005    1.28755E+003   -1.02404E+003    9.24222E+003   -4.69821E+004    4.17544E+005   -3.32475E+002
            2134    7.44152E+005    4.33816E+005    4.33816E+005   -1.36089E+003   -4.25433E+005    8.59248E+005   -2.34080E+003    2.09717E+005   -8.67305E+002   -1.24449E+003    9.13421E+003   -3.58918E+004    4.28092E+005   -1.13409E+003
            2135    7.60160E+005    4.43708E+005    4.43708E+005   -7.60312E+002   -4.34025E+005    8.77733E+005   -2.97436E+003    2.13344E+005   -1.23061E+003   -6.41245E+002    1.07949E+004   -2.75904E+004    4.37956E+005   -1.30898E+003
            2136    7.73361E+005    4.51466E+005    4.51466E+005   -7.03466E+002   -4.41510E+005    8.92976E+005   -3.08389E+003    2.16817E+005   -2.09840E+003   -6.13657E+002    1.19637E+004   -1.94089E+004    4.46009E+005   -1.30745E+003
            2137    7.33453E+005    4.39098E+005    4.39098E+005    1.22634E+003   -4.07655E+005    8.46753E+005   -1.08896E+004    2.85947E+005    1.14573E+004    1.14895E+003    2.00626E+004   -6.21226E+004    4.18769E+005   -1.13684E+003
            2138    7.51054E+005    4.49936E+005    4.49936E+005    3.08232E+003   -4.17170E+005    8.67106E+005   -1.19495E+004    2.82305E+005    9.40154E+003    3.01090E+003    2.34360E+004   -4.87469E+004    4.30745E+005   -8.36475E+002
            2139    7.66306E+005    4.58163E+005    4.58163E+005    2.62296E+003   -4.26560E+005    8.84723E+005   -1.14086E+004    2.85238E+005    7.17083E+003    2.68230E+003    2.43728E+004   -3.76813E+004    4.40669E+005   -1.27697E+003
            2140    7.81838E+005    4.67823E+005    4.67823E+005    3.32862E+003   -4.34838E+005    9.02661E+005   -1.21045E+004    2.88973E+005    6.45957E+003    3.38217E+003    2.64718E+004   -2.84216E+004    4.50323E+005   -1.15456E+003
            2141    7.37290E+005    4.37281E+005    4.37281E+005   -1.14618E+003   -4.13940E+005    8.51221E+005   -7.39827E+003    2.75423E+005    7.04649E+003   -1.15411E+003    1.63024E+004   -7.39538E+004    4.19108E+005   -1.51729E+003
            2142    7.48861E+005    4.43207E+005    4.43207E+005   -7.36595E+002   -4.21399E+005    8.64606E+005   -7.02388E+003    2.69518E+005    5.40282E+003   -4.22611E+002    1.60914E+004   -5.87641E+004    4.28255E+005   -2.29866E+003
            2143    7.66523E+005    4.54946E+005    4.54946E+005    2.00633E+002   -4.30046E+005    8.84991E+005   -8.36696E+003    2.78429E+005    4.88317E+003    5.44590E+002    1.96731E+004   -4.92643E+004    4.39679E+005   -2.62582E+003
            2144    7.84212E+005    4.66036E+005    4.66036E+005    7.39591E+002   -4.39378E+005    9.05414E+005   -9.13241E+003    2.85285E+005    3.89767E+003    9.81188E+002    2.25184E+004   -3.71609E+004    4.51080E+005   -2.36344E+003
            2145    7.32563E+005    4.47288E+005    4.47288E+005    3.54592E+003   -3.98256E+005    8.45544E+005   -1.75259E+004    3.23081E+005    1.88353E+004    2.86008E+003    3.08824E+004   -7.69170E+004    4.15654E+005   -6.80815E+002
            2146    7.44209E+005    4.52970E+005    4.52970E+005    5.60966E+003   -4.06122E+005    8.59092E+005   -1.74861E+004    3.09256E+005    1.45812E+004    5.08367E+003    3.27934E+004   -6.98142E+004    4.23725E+005   -6.45477E+002
            2147    7.61268E+005    4.62901E+005    4.62901E+005    4.32865E+003   -4.15856E+005    8.78757E+005   -1.71244E+004    3.21857E+005    1.36189E+004    4.32761E+003    3.34268E+004   -5.87316E+004    4.35319E+005   -1.95976E+003
            2148    7.80087E+005    4.75094E+005    4.75094E+005    5.39534E+003   -4.25393E+005    9.00487E+005   -1.83654E+004    3.28620E+005    1.34904E+004    5.40911E+003    3.61967E+004   -4.81789E+004    4.47511E+005   -1.72248E+003
            2149    7.14193E+005    4.26981E+005    4.26981E+005   -3.80823E+003   -3.97418E+005    8.24400E+005   -8.58484E+003    3.05171E+005    1.50416E+004   -2.11764E+003    1.28305E+004   -8.52239E+004    4.03287E+005   -5.75946E+003
            2150    7.22831E+005    4.36845E+005    4.36845E+005   -2.85402E+001   -3.97499E+005    8.34343E+005   -1.31059E+004    3.13633E+005    1.76743E+004    5.40387E+002    2.11029E+004   -7.64186E+004    4.10108E+005   -3.49545E+003
            2151    7.37115E+005    4.47008E+005    4.47008E+005    2.09392E+003   -4.03842E+005    8.50849E+005   -1.50866E+004    3.16611E+005    1.62641E+004    2.62560E+003    2.63701E+004   -7.27281E+004    4.19128E+005   -3.63832E+003
            2152    7.59505E+005    4.62887E+005    4.62887E+005    4.41714E+003   -4.13806E+005    8.76693E+005   -1.78327E+004    3.26456E+005    1.78889E+004    4.70641E+003    3.09028E+004   -5.97169E+004    4.34208E+005   -2.87310E+003
            2153    7.14187E+005    4.45505E+005    4.45505E+005    9.44727E+003   -3.78704E+005    8.24209E+005   -2.54160E+004    3.32011E+005    2.88626E+004    9.14530E+003    3.82401E+004   -7.36291E+004    4.05433E+005   -1.78696E+003
            2154    7.02487E+005    4.34896E+005    4.34896E+005    6.03478E+003   -3.75811E+005    8.10708E+005   -2.17066E+004    3.26327E+005    2.56138E+004    5.40974E+003    3.40962E+004   -8.67755E+004    3.95912E+005   -1.65514E+003
            2155    6.83476E+005    4.20680E+005    4.20680E+005    3.79137E+003   -3.68103E+005    7.88783E+005   -1.87896E+004    3.15760E+005    2.32110E+004    2.53046E+003    3.06275E+004   -9.31995E+004    3.83164E+005   -6.81139E+002
            2156    6.81577E+005    4.18978E+005    4.18978E+005    4.06266E+001   -3.67480E+005    7.86458E+005   -1.71796E+004    3.29459E+005    2.03768E+004   -1.44588E+003    3.26078E+004   -7.82899E+004    3.85256E+005    3.32029E+002
            2157    7.02590E+005    4.07506E+005    4.07506E+005   -1.26495E+001   -4.03772E+005    8.11278E+005   -1.24053E+003    1.40672E+005    1.18158E+003   -1.56021E+002    2.69604E+003   -1.38168E+004    4.05397E+005    2.05667E+003
            2158    7.06631E+005    4.13356E+005    4.13356E+005    5.59092E+002   -4.02571E+005    8.15928E+005   -3.78132E+003    1.93453E+005    4.71254E+003    1.74490E+002    6.45692E+003   -4.07600E+004    4.05916E+005    1.61834E+003
            2159    7.11709E+005    4.19882E+005    4.19882E+005   -5.01669E+001   -4.01863E+005    8.21744E+005   -5.98951E+003    2.39651E+005    7.05307E+003   -4.71807E+002    1.13873E+004   -6.36801E+004    4.05897E+005    4.45880E+002
            2160    7.16961E+005    4.26475E+005    4.26475E+005    1.21957E+001   -4.01273E+005    8.27748E+005   -8.40500E+003    2.68727E+005    1.09930E+004   -4.73848E+002    1.46959E+004   -8.17075E+004    4.05716E+005   -2.73055E+002
            2161    7.21251E+005    4.32563E+005    4.32563E+005   -2.20215E+002   -4.00048E+005    8.32611E+005   -1.07651E+004    2.95097E+005    1.33328E+004   -5.44957E+002    1.95073E+004   -9.43618E+004    4.05449E+005   -1.59956E+003
            2162    7.34346E+005    4.44874E+005    4.44874E+005    8.33741E+002   -4.02754E+005    8.47628E+005   -1.43181E+004    3.19744E+005    1.84221E+004    2.32674E+002    2.42995E+004   -1.00134E+005    4.11786E+005   -1.62075E+003
            2163    7.25689E+005    4.41527E+005    4.41527E+005    1.47218E+003   -3.96066E+005    8.37593E+005   -1.56442E+004    3.22515E+005    1.95973E+004    1.14186E+003    2.61936E+004   -8.16979E+004    4.10726E+005   -1.63129E+003
            2164    7.28335E+005    4.57424E+005    4.57424E+005    1.23909E+004   -3.83098E+005    8.40522E+005   -2.89057E+004    3.40167E+005    3.15021E+004    1.23383E+004    4.28768E+004   -5.39250E+004    4.16743E+005   -1.77111E+003
            2165    7.38990E+005    4.66434E+005    4.66434E+005    1.48408E+004   -3.86382E+005    8.52816E+005   -3.16312E+004    3.45376E+005    3.38058E+004    1.48263E+004    4.62614E+004   -2.92913E+004    4.25354E+005   -9.77818E+002
            2166    7.44107E+005    4.70434E+005    4.70434E+005    1.57594E+004   -3.88289E+005    8.58724E+005   -3.26348E+004    3.47554E+005    3.44854E+004    1.57596E+004    4.76595E+004   -6.11503E+002    4.29311E+005   -6.79839E+001
            2167    7.38347E+005    4.66200E+005    4.66200E+005    1.49086E+004   -3.85871E+005    8.52071E+005   -3.17459E+004    3.45495E+005    3.40141E+004    1.49128E+004    4.63107E+004    2.84085E+004    4.25041E+005    1.08132E+003
            2168    7.25470E+005    4.55999E+005    4.55999E+005    1.24843E+004   -3.81208E+005    8.37206E+005   -2.90918E+004    3.39905E+005    3.19302E+004    1.24051E+004    4.29402E+004    5.37438E+004    4.15096E+005    1.66785E+003
            2169    7.11270E+005    4.44264E+005    4.44264E+005    9.36432E+003   -3.76553E+005    8.20817E+005   -2.56918E+004    3.33558E+005    2.94100E+004    9.11607E+003    3.85493E+004    7.32879E+004    4.03774E+005    1.96857E+003
            2170    6.95067E+005    4.31082E+005    4.31082E+005    6.03855E+003   -3.71035E+005    8.02116E+005   -2.20285E+004    3.26193E+005    2.62245E+004    5.39491E+003    3.44661E+004    8.54663E+004    3.91801E+005    1.63154E+003
            2171    6.90276E+005    4.26064E+005    4.26064E+005    3.56358E+003   -3.70507E+005    7.96572E+005   -1.97068E+004    3.25721E+005    2.41961E+004    2.68275E+003    3.22417E+004    8.46886E+004    3.89127E+005    1.10539E+003
            2172    7.10802E+005    4.36185E+005    4.36185E+005    5.94967E+003   -3.84253E+005    8.20438E+005   -1.92938E+004    3.11779E+005    2.27824E+004    5.21004E+003    2.98891E+004    9.19631E+004    3.99742E+005    1.15057E+003
            2173    7.76390E+005    4.74202E+005    4.74202E+005    6.24041E+003   -4.22003E+005    8.96205E+005   -1.94797E+004    3.29827E+005    1.75528E+004    6.43350E+003    3.44528E+004   -4.31855E+004    4.45935E+005   -2.36307E+003
            2174    7.98099E+005    4.86719E+005    4.86719E+005    5.87636E+003   -4.34551E+005    9.21269E+005   -1.93481E+004    3.37903E+005    1.35600E+004    5.93427E+003    3.85500E+004   -3.29070E+004    4.59286E+005   -1.57476E+003
            2175    7.98740E+005    4.75294E+005    4.75294E+005    1.44105E+003   -4.46893E+005    9.22187E+005   -9.94743E+003    2.90095E+005    3.11648E+003    1.55540E+003    2.51704E+004   -2.51781E+004    4.60272E+005   -1.69423E+003
            2176    7.93792E+005    4.75008E+005    4.75008E+005    3.18041E+003   -4.41450E+005    9.16458E+005   -1.22460E+004    2.95088E+005    5.81809E+003    3.21363E+003    2.77064E+004   -1.75530E+004    4.57761E+005   -9.03356E+002
            2177    7.83262E+005    4.57415E+005    4.57415E+005   -4.97628E+002   -4.46994E+005    9.04409E+005   -3.30800E+003    2.19015E+005   -2.83389E+003   -4.60463E+002    1.32183E+004   -1.20219E+004    4.51973E+005   -8.80981E+002
            2178    7.74867E+005    4.56411E+005    4.56411E+005    1.95123E+003   -4.38291E+005    8.94702E+005   -6.69059E+003    2.33944E+005    3.80088E+003    1.96395E+003    1.43069E+004   -6.57950E+003    4.47272E+005   -5.23280E+002
            2179    7.69512E+005    4.42170E+005   -4.46386E+005   -1.31066E+003   -4.46386E+005    8.88556E+005    1.84221E+003   -1.12304E+005   -3.89982E+003   -1.30543E+003   -3.21393E+002   -2.36031E+003    4.44268E+005   -4.94361E+002
            2180    7.88985E+005    4.83138E+005    4.83138E+005    7.28882E+003   -4.27596E+005    9.10734E+005   -2.09436E+004    3.36833E+005    1.85460E+004    7.33462E+003    3.69503E+004   -2.19974E+004    4.54742E+005   -1.19088E+003
            2181    8.08648E+005    4.94119E+005    4.94119E+005    6.44233E+003   -4.39313E+005    9.33432E+005   -2.04159E+004    3.45051E+005    1.44832E+004    6.44613E+003    4.03183E+004   -1.59404E+004    4.66264E+005   -6.34767E+002
            2182    8.08167E+005    4.81397E+005    4.81397E+005    1.54006E+003   -4.51668E+005    9.33064E+005   -1.04230E+004    2.96623E+005    2.93400E+003    1.56124E+003    2.67737E+004   -1.05700E+004    4.66260E+005   -7.53342E+002
            2183    8.00477E+005    4.79527E+005    4.79527E+005    3.40238E+003   -4.44642E+005    9.24168E+005   -1.27624E+004    2.99919E+005    6.18070E+003    3.40477E+003    2.87019E+004   -6.94195E+003    4.61895E+005   -2.69545E+002
            2184    7.88195E+005    4.60422E+005    4.60422E+005   -5.89563E+002   -4.49681E+005    9.10103E+005   -3.38396E+003    2.23121E+005   -3.12407E+003   -5.85197E+002    1.38611E+004   -3.79492E+003    4.54956E+005   -3.21940E+002
            2185    7.78628E+005    4.58898E+005    4.58898E+005    2.18187E+003   -4.40147E+005    8.99044E+005   -6.97756E+003    2.35627E+005    4.00991E+003    2.18253E+003    1.47402E+004   -2.16359E+003    4.49485E+005   -9.91549E+001
            2186    7.72653E+005    4.43849E+005   -4.48333E+005   -1.51002E+003   -4.48333E+005    8.92182E+005    1.99790E+003   -1.09437E+005   -4.18141E+003   -1.50973E+003   -3.02550E+002   -4.93084E+002    4.46086E+005   -1.28770E+002
            2187    7.92087E+005    4.85202E+005    4.85202E+005    7.79229E+003   -4.29122E+005    9.14324E+005   -2.12908E+004    3.36425E+005    1.83082E+004    7.79251E+003    3.77717E+004    1.19888E+003    4.57057E+005    8.19329E+001
            2188    8.11651E+005    4.96053E+005    4.96053E+005    6.85244E+003   -4.40854E+005    9.36907E+005   -2.06837E+004    3.44729E+005    1.43958E+004    6.85301E+003    4.08023E+004    3.08869E+003    4.68257E+005    1.55215E+002
            2189    8.09739E+005    4.82311E+005    4.82311E+005    1.88347E+003   -4.52575E+005    9.34886E+005   -1.05397E+004    2.94461E+005    2.47661E+003    1.88646E+003    2.72560E+004    4.06762E+003    4.67261E+005    2.82678E+002
            2190    8.01370E+005    4.79982E+005    4.79982E+005    3.47420E+003   -4.45222E+005    9.25203E+005   -1.27448E+004    2.99183E+005    5.97863E+003    3.47803E+003    2.87777E+004    4.67189E+003    4.62437E+005    3.17504E+002
            2191    7.88270E+005    4.60402E+005    4.60402E+005   -4.73721E+002   -4.49789E+005    9.10191E+005   -3.37991E+003    2.20868E+005   -3.45258E+003   -4.69734E+002    1.40621E+004    3.83351E+003    4.54995E+005    2.97834E+002
            2192    7.78260E+005    4.58626E+005    4.58626E+005    2.08935E+003   -4.39993E+005    8.98619E+005   -6.90745E+003    2.35919E+005    3.95372E+003    2.09251E+003    1.46761E+004    2.82391E+003    4.49269E+005    2.91061E+002
            2193    7.72105E+005    4.43534E+005   -4.48016E+005   -1.41817E+003   -4.48016E+005    8.91550E+005    1.96668E+003   -1.13741E+005   -4.23879E+003   -1.41719E+003   -2.44072E+002    8.07753E+002    4.45770E+005    2.73702E+002
            2194    7.86013E+005    4.81359E+005    4.81359E+005    7.22469E+003   -4.25943E+005    9.07302E+005   -2.08801E+004    3.35991E+005    1.85814E+004    7.29703E+003    3.67617E+004    2.47697E+004    4.52882E+005    1.46905E+003
            2195    8.05336E+005    4.92449E+005    4.92449E+005    6.37602E+003   -4.37149E+005    9.29598E+005   -2.05588E+004    3.45813E+005    1.51008E+004    6.41651E+003    4.01591E+004    2.17471E+004    4.64120E+005    1.22363E+003
            2196    8.03960E+005    4.79005E+005    4.79005E+005    1.51881E+003   -4.49200E+005    9.28204E+005   -1.04414E+004    2.96031E+005    3.27237E+003    1.58194E+003    2.64698E+004    1.91524E+004    4.63561E+005    1.27954E+003
            2197    7.96169E+005    4.77162E+005    4.77162E+005    3.32415E+003   -4.42027E+005    9.19190E+005   -1.28197E+004    3.00275E+005    6.69905E+003    3.35926E+003    2.84008E+004    1.55643E+004    4.59203E+005    9.43024E+002
            2198    7.83675E+005    4.57811E+005    4.57811E+005   -6.08082E+002   -4.47072E+005    9.04884E+005   -3.37699E+003    2.22482E+005   -2.91976E+003   -5.72046E+002    1.36228E+004    1.19736E+004    4.52207E+005    8.68832E+002
            2199    7.74004E+005    4.56264E+005    4.56264E+005    2.11675E+003   -4.37439E+005    8.93703E+005   -6.98073E+003    2.35801E+005    4.28782E+003    2.13428E+003    1.45201E+004    7.19707E+003    4.46764E+005    6.43959E+002
            2200    7.68005E+005    4.41109E+005   -4.45707E+005   -1.48432E+003   -4.45707E+005    8.86816E+005    2.02725E+003   -1.12952E+005   -4.21584E+003   -1.47716E+003   -3.88745E+002    2.56962E+003    4.43396E+005    6.20484E+002
            2201    7.71640E+005    4.71567E+005    4.71567E+005    6.18463E+003   -4.19147E+005    8.90713E+005   -1.95349E+004    3.29393E+005    1.82707E+004    6.39834E+003    3.39357E+004    4.58132E+004    4.42923E+005    2.46834E+003
            2202    7.91285E+005    4.83164E+005    4.83164E+005    6.19034E+003   -4.30234E+005    9.13398E+005   -1.97069E+004    3.36347E+005    1.44221E+004    6.25479E+003    3.84438E+004    3.90315E+004    4.54867E+005    1.75957E+003
            2203    7.91834E+005    4.70985E+005    4.70985E+005    1.17646E+003   -4.43228E+005    9.14214E+005   -9.64440E+003    2.87985E+005    3.27761E+003    1.35439E+003    2.43012E+004    3.24734E+004    4.55828E+005    2.07256E+003
            2204    7.86097E+005    4.70921E+005    4.70921E+005    3.37403E+003   -4.36647E+005    9.07568E+005   -1.25491E+004    2.94351E+005    6.79087E+003    3.44028E+003    2.74162E+004    2.63618E+004    4.52899E+005    1.26878E+003
            2205    7.74871E+005    4.52222E+005    4.52222E+005   -7.96915E+002   -4.42497E+005    8.94720E+005   -2.97603E+003    2.16824E+005   -2.82337E+003   -7.12602E+002    1.24641E+004    1.91981E+004    4.46881E+005    1.26608E+003
            2206    7.66458E+005    4.51839E+005    4.51839E+005    2.11070E+003   -4.33151E+005    8.84990E+005   -6.93279E+003    2.33592E+005    4.51167E+003    2.14758E+003    1.41391E+004    1.18911E+004    4.42308E+005    8.47823E+002
            2207    7.60897E+005    4.36865E+005   -4.41742E+005   -1.54034E+003   -4.41742E+005    8.78607E+005    2.13905E+003   -1.15974E+005   -4.19432E+003   -1.52634E+003   -6.96507E+002    3.80012E+003    4.39283E+005    8.12717E+002
            2208    7.51636E+005    4.57950E+005    4.57950E+005    4.04339E+003   -4.09653E+005    8.67603E+005   -1.74469E+004    3.24099E+005    1.78576E+004    4.44309E+003    3.00401E+004    6.27059E+004    4.29199E+005    3.26703E+003
            2209    7.73509E+005    4.72096E+005    4.72096E+005    5.35516E+003   -4.20767E+005    8.92863E+005   -1.88945E+004    3.31472E+005    1.52540E+004    5.41116E+003    3.60183E+004    5.25976E+004    4.43197E+005    2.05595E+003
            2210    7.76051E+005    4.61433E+005    4.61433E+005    7.04129E+002   -4.34553E+005    8.95986E+005   -9.19459E+003    2.84395E+005    4.72979E+003    9.92325E+002    2.18617E+004    4.48361E+004    4.45658E+005    2.49660E+003
            2211    7.72528E+005    4.62896E+005    4.62896E+005    3.14149E+003   -4.29000E+005    8.91896E+005   -1.23460E+004    2.91264E+005    7.83924E+003    3.21127E+003    2.59876E+004    3.56298E+004    4.44429E+005    1.35105E+003
            2212    7.63342E+005    4.45595E+005    4.45595E+005   -8.28818E+002   -4.35811E+005    8.81407E+005   -2.98503E+003    2.15440E+005   -1.71837E+003   -7.01313E+002    1.13748E+004    2.65100E+004    4.39855E+005    1.42552E+003
            2213    7.56176E+005    4.45753E+005    4.45753E+005    2.00538E+003   -4.27364E+005    8.73118E+005   -6.79800E+003    2.31025E+005    4.94647E+003    2.05164E+003    1.33959E+004    1.59520E+004    4.36246E+005    8.40810E+002
            2214    7.51373E+005    4.31477E+005   -4.36134E+005   -1.46845E+003   -4.36134E+005    8.67611E+005    2.04187E+003   -1.13361E+005   -3.91242E+003   -1.44824E+003   -7.64947E+002    5.36075E+003    4.33768E+005    8.21623E+002
            2215    7.34066E+005    4.45417E+005    4.45417E+005    2.26689E+003   -4.01910E+005    8.47327E+005   -1.52579E+004    3.15723E+005    1.78234E+004    2.83794E+003    2.51125E+004    7.26763E+004    4.17365E+005    3.62879E+003
            2216    7.56029E+005    4.60816E+005    4.60816E+005    5.34556E+003   -4.11892E+005    8.72708E+005   -1.80895E+004    3.19944E+005    1.48052E+004    5.12642E+003    3.43369E+004    6.47034E+004    4.31412E+005    1.44494E+003
            2217    7.58789E+005    4.49701E+005    4.49701E+005   -8.21105E+002   -4.26355E+005    8.76056E+005   -7.50816E+003    2.78378E+005    4.82535E+003   -4.22553E+002    1.81217E+004    5.52166E+004    4.34480E+005    2.77174E+003
            2218    7.57853E+005    4.54421E+005    4.54421E+005    2.93209E+003   -4.20522E+005    8.74944E+005   -1.22770E+004    2.89015E+005    9.06497E+003    2.94739E+003    2.48187E+004    4.51467E+004    4.35063E+005    1.20952E+003
            2219    7.49785E+005    4.36827E+005    4.36827E+005   -1.57895E+003   -4.28927E+005    8.65754E+005   -2.10701E+003    2.10476E+005   -1.73744E+003   -1.43199E+003    9.49047E+003    3.32960E+004    4.31557E+005    1.37942E+003
            2220    7.44427E+005    4.39284E+005    4.39284E+005    2.07775E+003   -4.20263E+005    8.59547E+005   -7.03266E+003    2.31177E+005    6.05852E+003    2.11407E+003    1.29254E+004    2.04914E+004    4.29271E+005    6.39399E+002
            2221    7.39972E+005    4.24447E+005   -4.29998E+005   -1.72987E+003   -4.29998E+005    8.54446E+005    2.42697E+003   -1.19760E+005   -4.31142E+003   -1.71271E+003   -1.25678E+003    6.72460E+003    4.27167E+005    5.48647E+002
            2222    7.23746E+005    4.37075E+005    4.37075E+005   -3.39878E+002   -3.98325E+005    8.35400E+005   -1.28035E+004    3.13970E+005    1.71587E+004    4.56144E+002    2.07958E+004    8.25207E+004    4.09462E+005    4.10469E+003
            2223    7.40186E+005    4.51640E+005    4.51640E+005    5.01277E+003   -4.02760E+005    8.54399E+005   -1.79643E+004    3.17156E+005    1.73184E+004    4.52221E+003    3.20524E+004    7.41878E+004    4.20631E+005    9.96640E+002
            2224    7.43449E+005    4.41158E+005    4.41158E+005   -1.07637E+002   -4.17190E+005    8.58347E+005   -7.95353E+003    2.71636E+005    6.37299E+003    8.75577E+001    1.74000E+004    6.62922E+004    4.23985E+005    1.99297E+003
            2225    7.42098E+005    4.44557E+005    4.44557E+005    2.45889E+003   -4.12197E+005    8.56754E+005   -1.16064E+004    2.82974E+005    1.03250E+004    2.42421E+003    2.20700E+004    5.45597E+004    4.24846E+005    1.12453E+003
            2226    7.36172E+005    4.30135E+005    4.30135E+005   -7.84686E+002   -4.19896E+005    8.50031E+005   -3.15120E+003    2.12516E+005    4.02464E+002   -7.37865E+002    9.78901E+003    4.10340E+004    4.23004E+005    7.54190E+002
            2227    7.31413E+005    4.30646E+005    4.30646E+005    1.50485E+003   -4.13879E+005    8.44525E+005   -6.09071E+003    2.22657E+005    5.84255E+003    1.50473E+003    1.09249E+004    2.52565E+004    4.21499E+005    2.81240E+002
            2228    7.27689E+005    4.18549E+005   -4.21714E+005   -1.10882E+003   -4.21714E+005    8.40263E+005    1.42488E+003   -9.09825E+004   -2.98877E+003   -1.11126E+003   -1.74606E+002    8.52458E+003    4.20043E+005   -5.06133E+001
            2229    7.16588E+005    4.34533E+005    4.34533E+005    7.39237E+002   -3.92581E+005    8.27114E+005   -1.42304E+004    3.14615E+005    1.89913E+004    4.72119E+002    2.32277E+004    8.92933E+004    4.03786E+005    1.88501E+003
            2230    7.27901E+005    4.40675E+005    4.40675E+005    5.88887E+002   -3.99515E+005    8.40190E+005   -1.39163E+004    3.16632E+005    1.59145E+004    4.74868E+002    2.53594E+004    8.69822E+004    4.10955E+005    2.35389E+003
            2231    7.28144E+005    4.35068E+005    4.35068E+005   -5.97758E+002   -4.05533E+005    8.40601E+005   -9.64584E+003    2.90144E+005    1.08994E+004   -7.48517E+002    1.87867E+004    7.84180E+004    4.12896E+005    1.44475E+003
            2232    7.27120E+005    4.33087E+005    4.33087E+005    6.22006E+000   -4.06377E+005    8.39464E+005   -8.90518E+003    2.76603E+005    9.24183E+003   -6.64115E+001    1.75401E+004    6.66179E+004    4.14388E+005    1.18394E+003
            2233    7.22147E+005    4.24567E+005    4.24567E+005   -5.23708E+002   -4.09243E+005    8.33810E+005   -4.93362E+003    2.33950E+005    4.53763E+003   -6.52205E+002    1.09154E+004    5.05813E+004    4.13812E+005    1.73678E+002
            2234    7.18017E+005    4.20626E+005    4.20626E+005    5.16261E+002   -4.08444E+005    8.29070E+005   -4.23275E+003    2.05050E+005    4.14943E+003    4.00835E+002    8.14798E+003    3.16411E+004    4.13320E+005   -4.61622E+002
            2235    7.15071E+005    4.13590E+005    4.13590E+005   -3.80273E+002   -4.12102E+005    8.25692E+005   -3.69203E+002    1.19919E+005   -2.83379E+001   -4.31490E+002    1.56744E+003    1.06911E+004    4.12705E+005   -9.63288E+002
            2236    7.01000E+005    4.06306E+005    4.06306E+005    1.26731E+002   -4.03137E+005    8.09444E+005   -1.09856E+003    1.29046E+005    1.37190E+003   -3.64472E+001    1.96023E+003    1.45255E+004    4.04455E+005   -2.23831E+003
            2237    7.05110E+005    4.13004E+005    4.13004E+005    4.12707E+002   -4.01162E+005    8.14166E+005   -4.08504E+003    2.01780E+005    4.83691E+003    6.91863E+000    7.41130E+003    4.17240E+004    4.04931E+005   -1.60781E+003
            2238    7.10024E+005    4.18872E+005    4.18872E+005    1.03270E+002   -4.00929E+005    8.19801E+005   -6.01565E+003    2.37580E+005    7.59889E+003   -4.41116E+002    1.08892E+004    6.45814E+004    4.04771E+005   -8.44604E+002
            2239    7.12601E+005    4.24627E+005    4.24627E+005    3.31137E+002   -3.98078E+005    8.22705E+005   -8.95980E+003    2.70117E+005    1.13110E+004   -2.26614E+002    1.57950E+004    8.21831E+004    4.03044E+005    2.10365E+002
            2240    7.13890E+005    4.28209E+005    4.28209E+005    4.08026E+002   -3.95920E+005    8.24129E+005   -1.08993E+004    2.88630E+005    1.42486E+004   -2.63839E+002    1.87131E+004    9.42998E+004    4.01109E+005    7.25188E+002
            2241    7.12577E+005    4.31620E+005    4.31620E+005    2.17661E+003   -3.90925E+005    8.22545E+005   -1.42904E+004    3.02408E+005    1.79934E+004    1.43997E+003    2.34379E+004    1.00822E+005    3.98695E+005    1.23516E+003
            2242    7.16865E+005    4.37174E+005    4.37174E+005    4.37833E+003   -3.90298E+005    8.27471E+005   -1.70847E+004    3.08485E+005    2.13445E+004    3.43671E+003    2.64731E+004    1.03707E+005    4.00494E+005    1.04699E+003
            2243    6.82026E+005    3.67700E+005   -4.19271E+005    2.24782E+001   -4.19271E+005    7.86971E+005    1.71828E+004   -3.30026E+005   -2.03948E+004    1.48654E+003   -3.26402E+004    7.74828E+004    3.85682E+005    3.46469E+002
            2244    6.82482E+005    3.67616E+005   -4.20020E+005   -3.77927E+003   -4.20020E+005    7.87636E+005    1.87276E+004   -3.15104E+005   -2.31210E+004   -2.49549E+003   -3.05663E+004    9.28397E+004    3.82661E+005   -6.13243E+002
            2245    7.01931E+005    3.75624E+005   -4.34444E+005   -5.95721E+003   -4.34444E+005    8.10068E+005    2.15926E+004   -3.25902E+005   -2.55129E+004   -5.30448E+003   -3.39603E+004    8.70041E+004    3.95533E+005   -1.60209E+003
            2246    7.13826E+005    3.78567E+005   -4.45226E+005   -9.43829E+003   -4.45226E+005    8.23793E+005    2.53657E+004   -3.31612E+005   -2.87796E+004   -9.13213E+003   -3.81853E+004    7.37088E+004    4.05208E+005   -1.77694E+003
            2247    7.59744E+005    4.14029E+005   -4.62940E+005   -4.34651E+003   -4.62940E+005    8.76969E+005    1.77525E+004   -3.26448E+005   -1.77531E+004   -4.64715E+003   -3.08574E+004    5.98387E+004    4.34330E+005   -2.91744E+003
            2248    7.79991E+005    4.25580E+005   -4.74800E+005   -5.27515E+003   -4.74800E+005    9.00379E+005    1.81651E+004   -3.27916E+005   -1.32180E+004   -5.29441E+003   -3.59829E+004    4.80142E+004    4.47474E+005   -1.73770E+003
            2249    7.84134E+005    4.39500E+005   -4.65825E+005   -6.76984E+002   -4.65825E+005    9.05326E+005    9.00060E+003   -2.84481E+005   -3.77995E+003   -9.21224E+002   -2.23006E+004    3.69422E+004    4.51055E+005   -2.37660E+003
            2250    7.81606E+005    4.34811E+005   -4.67583E+005   -3.30875E+003   -4.67583E+005    9.02394E+005    1.20268E+004   -2.88280E+005   -6.36301E+003   -3.35751E+003   -2.63599E+004    2.80928E+004    4.50210E+005   -1.10991E+003
            2251    7.73077E+005    4.41524E+005   -4.51126E+005    7.54704E+002   -4.51126E+005    8.92650E+005    2.94925E+003   -2.15162E+005    2.20574E+003    6.65976E+002   -1.17195E+004    1.91998E+004    4.45856E+005   -1.29875E+003
            2252    7.66643E+005    4.33662E+005   -4.51546E+005   -2.15971E+003   -4.51546E+005    8.85209E+005    6.68120E+003   -2.28671E+005   -4.12965E+003   -2.18874E+003   -1.37252E+004    1.15586E+004    4.42427E+005   -7.06671E+002
            2253    7.62087E+005    4.42166E+005    4.42166E+005    1.51022E+003   -4.37816E+005    8.79982E+005   -1.95346E+003    1.05023E+005    3.74046E+003    1.49753E+003    6.22387E+002    3.67659E+003    4.39972E+005   -7.62647E+002
            2254    7.36902E+005    4.03826E+005   -4.46779E+005   -2.03896E+003   -4.46779E+005    8.50606E+005    1.49973E+004   -3.16271E+005   -1.61850E+004   -2.56130E+003   -2.62457E+004    7.25728E+004    4.19031E+005   -3.60426E+003
            2255    7.61344E+005    4.16114E+005   -4.62737E+005   -4.30051E+003   -4.62737E+005    8.78851E+005    1.69746E+004   -3.20856E+005   -1.34285E+004   -4.29267E+003   -3.32027E+004    5.86779E+004    4.35373E+005   -1.91928E+003
            2256    7.66132E+005    4.29963E+005   -4.54579E+005   -1.88027E+002   -4.54579E+005    8.84542E+005    8.26823E+003   -2.77353E+005   -4.81545E+003   -5.25893E+002   -1.94633E+004    4.90148E+004    4.39482E+005   -2.58960E+003
            2257    7.66078E+005    4.26552E+005   -4.57909E+005   -2.61481E+003   -4.57909E+005    8.84462E+005    1.13240E+004   -2.84352E+005   -7.06025E+003   -2.67130E+003   -2.42406E+004    3.73336E+004    4.40567E+005   -1.24963E+003
            2258    7.59930E+005    4.34006E+005   -4.43463E+005    7.73840E+002   -4.43463E+005    8.77468E+005    2.89434E+003   -2.12028E+005    1.27154E+003    6.55122E+002   -1.06097E+004    2.73264E+004    4.37841E+005   -1.30632E+003
            2259    7.54662E+005    4.27121E+005   -4.44252E+005   -1.63671E+003   -4.44252E+005    8.71372E+005    6.25591E+003   -2.27901E+005   -4.45417E+003   -1.68056E+003   -1.26330E+004    1.62011E+004    4.35365E+005   -7.93826E+002
            2260    7.50942E+005    4.35497E+005    4.35497E+005    1.18137E+003   -4.31616E+005    8.67113E+005   -1.68736E+003    1.08689E+005    3.37311E+003    1.16290E+003    5.26061E+002    5.53606E+003    4.33518E+005   -7.27424E+002
            2261    7.22770E+005    3.97542E+005   -4.36733E+005    5.28887E+001   -4.36733E+005    8.34274E+005    1.30461E+004   -3.13334E+005   -1.76027E+004   -5.35891E+002   -2.09998E+004    7.63000E+004    4.10095E+005   -3.54080E+003
            2262    7.43880E+005    4.06212E+005   -4.52503E+005   -5.42350E+003   -4.52503E+005    8.58715E+005    1.72380E+004   -3.08628E+005   -1.43735E+004   -4.93495E+003   -3.24055E+004    6.98325E+004    4.23533E+005   -7.44942E+002
            2263    7.48634E+005    4.21402E+005   -4.42944E+005    7.55746E+002   -4.42944E+005    8.64346E+005    6.92882E+003   -2.68583E+005   -5.33671E+003    4.50563E+002   -1.59003E+004    5.84794E+004    4.28164E+005   -2.25468E+003
            2264    7.50742E+005    4.17047E+005   -4.49700E+005   -3.06704E+003   -4.49700E+005    8.66747E+005    1.19065E+004   -2.81933E+005   -9.35647E+003   -2.99729E+003   -2.33658E+004    4.84854E+004    4.30594E+005   -8.33403E+002
            2265    7.44073E+005    4.25502E+005   -4.33656E+005    1.38536E+003   -4.33656E+005    8.59158E+005    2.25645E+003   -2.08566E+005    9.56001E+002    1.27214E+003   -8.99749E+003    3.56791E+004    4.28065E+005   -1.11188E+003
            2266    7.40093E+005    4.18291E+005   -4.36257E+005   -2.09101E+003   -4.36257E+005    8.54548E+005    6.68559E+003   -2.24557E+005   -5.96612E+003   -2.10880E+003   -1.19818E+004    2.20015E+004    4.26697E+005   -4.27538E+002
            2267    7.36756E+005    4.27664E+005    4.27664E+005    1.64762E+003   -4.23068E+005    8.50732E+005   -2.08121E+003    1.01933E+005    3.81623E+003    1.63551E+003    7.91887E+002    7.27091E+003    4.25301E+005   -3.61255E+002
            2268    7.13848E+005    3.97351E+005   -4.26654E+005    3.83004E+003   -4.26654E+005    8.24005E+005    8.49120E+003   -3.04483E+005   -1.49397E+004    2.16575E+003   -1.26996E+004    8.52713E+004    4.03076E+005   -5.68330E+003
            2269    7.32616E+005    3.98536E+005   -4.47072E+005   -3.36967E+003   -4.47072E+005    8.45607E+005    1.73018E+004   -3.22729E+005   -1.86488E+004   -2.68814E+003   -3.05686E+004    7.69123E+004    4.15688E+005   -6.79033E+002
            2270    7.37030E+005    4.13872E+005   -4.37049E+005    1.15174E+003   -4.37049E+005    8.50921E+005    7.34155E+003   -2.74807E+005   -6.99896E+003    1.17005E+003   -1.61957E+004    7.39656E+004    4.18954E+005   -1.47980E+003
            2271    7.33145E+005    4.07583E+005   -4.38817E+005   -1.20781E+003   -4.38817E+005    8.46400E+005    1.08139E+004   -2.85302E+005   -1.13605E+004   -1.13522E+003   -1.99459E+004    6.19159E+004    4.18621E+005   -1.14085E+003
            2272    7.27559E+005    4.14846E+005   -4.25237E+005    9.42824E+002   -4.25237E+005    8.40083E+005    3.14921E+003   -2.13607E+005   -1.28894E+003    9.96131E+002   -9.15483E+003    4.66420E+004    4.17425E+005   -3.25643E+002
            2273    7.23490E+005    4.09674E+005   -4.25703E+005   -1.13971E+003   -4.25703E+005    8.35377E+005    5.72309E+003   -2.21006E+005   -6.28238E+003   -1.07669E+003   -9.81019E+003    2.88931E+004    4.16684E+005    1.53647E+002
            2274    7.20858E+005    4.17335E+005    4.17335E+005    8.28041E+002   -4.15039E+005    8.32374E+005   -1.04121E+003    7.92892E+004    2.48169E+003    8.58592E+002   -2.16645E+002    9.93544E+003    4.16066E+005    6.27311E+002
            2275    7.02598E+005    4.03700E+005   -4.07587E+005    4.31499E+000   -4.07587E+005    8.11287E+005    1.29401E+003   -1.42343E+005   -1.24426E+003    1.53245E+002   -2.79101E+003    1.44428E+004    4.05380E+005    2.03981E+003
            2276    7.06707E+005    4.02600E+005   -4.13416E+005   -5.66832E+002   -4.13416E+005    8.16016E+005    3.79438E+003   -1.93573E+005   -4.74165E+003   -1.76875E+002   -6.46460E+003    4.09293E+004    4.05943E+005    1.63588E+003
            2277    7.11732E+005    4.01896E+005   -4.19875E+005    5.95426E+001   -4.19875E+005    8.21771E+005    5.97294E+003   -2.39561E+005   -7.02757E+003    4.77474E+002   -1.13687E+004    6.32891E+004    4.05971E+005    4.48924E+002
            2278    7.16836E+005    4.01274E+005   -4.26330E+005    7.00685E+000   -4.26330E+005    8.27604E+005    8.34939E+003   -2.68307E+005   -1.09290E+004    5.01179E+002   -1.46203E+004    8.12821E+004    4.05728E+005   -2.33043E+002
            2279    7.20770E+005    3.99848E+005   -4.32211E+005    2.04774E+002   -4.32211E+005    8.32058E+005    1.07194E+004   -2.94419E+005   -1.32737E+004    5.32805E+002   -1.94175E+004    9.41085E+004    4.05224E+005   -1.57386E+003
            2280    7.33573E+005    4.02454E+005   -4.44288E+005   -8.86444E+002   -4.44288E+005    8.46742E+005    1.42399E+004   -3.18484E+005   -1.83155E+004   -2.99171E+002   -2.41051E+004    1.00205E+005    4.11314E+005   -1.62643E+003
            2281    7.26432E+005    3.96382E+005   -4.42068E+005   -1.51378E+003   -4.42068E+005    8.38449E+005    1.57332E+004   -3.23093E+005   -1.97021E+004   -1.19141E+003   -2.63060E+004    8.24004E+004    4.11022E+005   -1.68403E+003
            2282    7.14957E+005    4.11991E+005   -4.13569E+005    3.78723E+002   -4.13569E+005    8.25560E+005    3.99986E+002   -1.21446E+005    2.58365E-002    4.31950E+002   -1.63193E+003   -1.10952E+004    4.12629E+005   -9.62677E+002
            2283    7.27602E+005    4.21550E+005    4.21550E+005    1.10198E+003   -4.18613E+005    8.40162E+005   -1.34626E+003    8.34890E+004    2.92293E+003    1.10423E+003    1.16141E+001   -8.98563E+003    4.19983E+005   -4.10310E+001
            2284    7.39919E+005    4.29783E+005    4.29783E+005    1.70425E+003   -4.24602E+005    8.54384E+005   -2.29508E+003    1.13331E+005    4.20850E+003    1.68553E+003    9.91211E+002   -7.26226E+003    4.27127E+005    5.56416E+002
            2285    7.51510E+005    4.36022E+005    4.36022E+005    1.44853E+003   -4.31747E+005    8.67769E+005   -1.90781E+003    1.05290E+005    3.83740E+003    1.42698E+003    4.59041E+002   -5.83819E+003    4.33841E+005    8.06945E+002
            2286    7.60990E+005    4.41625E+005    4.41625E+005    1.51548E+003   -4.37090E+005    8.78715E+005   -2.01707E+003    1.09338E+005    4.13197E+003    1.50063E+003    4.18601E+002   -4.10625E+003    4.39334E+005    7.98938E+002
            2287    7.68143E+005    4.45675E+005    4.45675E+005    1.47162E+003   -4.41299E+005    8.86975E+005   -1.94911E+003    1.08232E+005    4.18899E+003    1.46437E+003    1.93979E+002   -2.70043E+003    4.43474E+005    5.98776E+002
            2288    7.72126E+005    4.47968E+005    4.47968E+005    1.40677E+003   -4.43606E+005    8.91574E+005   -1.92306E+003    1.11471E+005    4.22128E+003    1.40579E+003    1.42102E+002   -8.22276E+002    4.45781E+005    2.65081E+002
            2289    7.72693E+005    4.48332E+005    4.48332E+005    1.49861E+003   -4.43897E+005    8.92229E+005   -1.97816E+003    1.08814E+005    4.16150E+003    1.49830E+003    2.74686E+002    5.14832E+002    4.46110E+005   -1.37990E+002
            2290    7.69438E+005    4.46372E+005    4.46372E+005    1.30838E+003   -4.42098E+005    8.88470E+005   -1.86090E+003    1.13755E+005    3.90687E+003    1.30302E+003    3.72818E+002    2.36141E+003    4.44225E+005   -5.06550E+002
            2291    7.17921E+005    4.08309E+005   -4.20649E+005   -5.12985E+002   -4.20649E+005    8.28958E+005    4.28431E+003   -2.06035E+005   -4.21722E+003   -3.94754E+002   -8.24096E+003   -3.22103E+004    4.13220E+005   -4.57024E+002
            2292    7.31347E+005    4.13775E+005   -4.30673E+005   -1.48679E+003   -4.30673E+005    8.44448E+005    6.12822E+003   -2.23539E+005   -5.85673E+003   -1.48343E+003   -1.10445E+004   -2.59707E+004    4.21416E+005    2.67244E+002
            2293    7.44711E+005    4.20341E+005   -4.39533E+005   -2.04104E+003   -4.39533E+005    8.59874E+005    7.07785E+003   -2.32503E+005   -6.03369E+003   -2.07993E+003   -1.31199E+004   -2.12079E+004    4.29399E+005    6.67277E+002
            2294    7.56638E+005    4.27514E+005   -4.46136E+005   -1.98625E+003   -4.46136E+005    8.73650E+005    6.86953E+003   -2.32567E+005   -4.91616E+003   -2.03573E+003   -1.36567E+004   -1.64871E+004    4.36491E+005    8.75459E+002
            2295    7.67010E+005    4.33337E+005   -4.52289E+005   -2.10669E+003   -4.52289E+005    8.85626E+005    7.01979E+003   -2.35165E+005   -4.50942E+003   -2.14540E+003   -1.44046E+004   -1.21622E+004    4.42618E+005    8.73342E+002
            2296    7.74335E+005    4.37523E+005   -4.56561E+005   -2.12652E+003   -4.56561E+005    8.94084E+005    7.05473E+003   -2.36902E+005   -4.29544E+003   -2.14464E+003   -1.47241E+004   -7.25959E+003    4.46952E+005    6.60223E+002
            2297    7.78446E+005    4.40036E+005   -4.58796E+005   -2.10266E+003   -4.58796E+005    8.98832E+005    6.95414E+003   -2.36500E+005   -3.97816E+003   -2.10583E+003   -1.47784E+004   -2.76866E+003    4.49375E+005    2.96314E+002
            2298    7.78551E+005    4.40125E+005   -4.58830E+005   -2.17827E+003   -4.58830E+005    8.98956E+005    6.96109E+003   -2.35400E+005   -3.98522E+003   -2.17894E+003   -1.47191E+004    2.26064E+003    4.49440E+005   -9.76773E+001
            2299    7.74674E+005    4.38187E+005   -4.56292E+005   -1.97017E+003   -4.56292E+005    8.94479E+005    6.69201E+003   -2.33617E+005   -3.84077E+003   -1.98289E+003   -1.42524E+004    6.63170E+003    4.47160E+005   -5.19933E+002
            2300    7.22221E+005    4.09142E+005   -4.24752E+005    5.34703E+002   -4.24752E+005    8.33894E+005    5.02489E+003   -2.35418E+005   -4.65186E+003    6.61797E+002   -1.10846E+004   -5.12881E+004    4.13767E+005    2.07652E+002
            2301    7.36630E+005    4.19887E+005   -4.30671E+005    7.64899E+002   -4.30671E+005    8.50557E+005    3.33976E+003   -2.15600E+005   -5.64492E+002    7.10741E+002   -1.01655E+004   -4.18385E+004    4.23188E+005    8.14221E+002
            2302    7.50625E+005    4.29044E+005   -4.37677E+005    1.50521E+003   -4.37677E+005    8.66721E+005    2.37620E+003   -2.14291E+005    1.53340E+003    1.35668E+003   -1.00187E+004   -3.40154E+004    4.31984E+005    1.39683E+003
            2303    7.64457E+005    4.36163E+005   -4.46529E+005    7.64413E+002   -4.46529E+005    8.82693E+005    3.20045E+003   -2.18459E+005    1.61370E+003    6.38627E+002   -1.18537E+004   -2.68829E+004    4.40474E+005    1.41553E+003
            2304    7.75804E+005    4.42827E+005   -4.52969E+005    7.49622E+002   -4.52969E+005    8.95796E+005    3.13099E+003   -2.19042E+005    2.76382E+003    6.68611E+002   -1.28254E+004   -1.92461E+004    4.47415E+005    1.23356E+003
            2305    7.84320E+005    4.47371E+005   -4.58257E+005    6.02275E+002   -4.58257E+005    9.05627E+005    3.42793E+003   -2.23441E+005    2.94676E+003    5.68946E+002   -1.37995E+004   -1.17808E+004    4.52582E+005    8.27593E+002
            2306    7.88414E+005    4.49861E+005   -4.60496E+005    4.69851E+002   -4.60496E+005    9.10357E+005    3.38841E+003   -2.20984E+005    3.47127E+003    4.66633E+002   -1.41031E+004   -3.58165E+003    4.55080E+005    2.61759E+002
            2307    7.88047E+005    4.49651E+005   -4.60282E+005    5.97350E+002   -4.60282E+005    9.09933E+005    3.34424E+003   -2.22494E+005    3.16029E+003    5.92234E+002   -1.37852E+004    4.02479E+003    4.54870E+005   -3.52707E+002
            2308    7.82792E+005    4.46881E+005   -4.56987E+005    5.35133E+002   -4.56987E+005    9.03868E+005    3.19054E+003   -2.17384E+005    2.91809E+003    4.96326E+002   -1.29860E+004    1.21200E+004    4.51701E+005   -9.04488E+002
            2309    7.27498E+005    4.06448E+005   -4.33450E+005   -1.09730E+001   -4.33450E+005    8.39898E+005    9.00448E+003   -2.77674E+005   -9.36569E+003    6.31473E+001   -1.77109E+004   -6.72132E+004    4.14511E+005    1.20694E+003
            2310    7.42802E+005    4.12401E+005   -4.45162E+005   -2.49409E+003   -4.45162E+005    8.57564E+005    1.17517E+004   -2.84283E+005   -1.04809E+004   -2.45625E+003   -2.23179E+004   -5.52455E+004    4.25165E+005    1.14269E+003
            2311    7.59126E+005    4.20983E+005   -4.55425E+005   -2.95592E+003   -4.55425E+005    8.76409E+005    1.24660E+004   -2.91032E+005   -9.22072E+003   -2.98152E+003   -2.51958E+004   -4.55804E+004    4.35753E+005    1.28568E+003
            2312    7.73919E+005    4.29493E+005   -4.64004E+005   -3.20675E+003   -4.64004E+005    8.93497E+005    1.25727E+004   -2.93306E+005   -7.98943E+003   -3.28404E+003   -2.64446E+004   -3.56898E+004    4.45224E+005    1.41352E+003
            2313    7.87336E+005    4.37115E+005   -4.71879E+005   -3.42938E+003   -4.71879E+005    9.08994E+005    1.27309E+004   -2.96007E+005   -6.90357E+003   -3.49691E+003   -2.77923E+004   -2.60232E+004    4.53630E+005    1.28735E+003
            2314    7.96784E+005    4.42203E+005   -4.77694E+005   -3.39009E+003   -4.77694E+005    9.19897E+005    1.29603E+004   -3.01215E+005   -6.81352E+003   -3.42434E+003   -2.86431E+004   -1.50724E+004    4.59572E+005    9.36183E+002
            2315    8.01523E+005    4.45255E+005   -4.80124E+005   -3.49994E+003   -4.80124E+005    9.25379E+005    1.27896E+004   -2.99427E+005   -6.02202E+003   -3.50322E+003   -2.88437E+004   -4.22353E+003    4.62530E+005    2.95418E+002
            2316    8.00095E+005    4.44454E+005   -4.79275E+005   -3.41165E+003   -4.79275E+005    9.23729E+005    1.27443E+004   -2.99530E+005   -6.18983E+003   -3.41417E+003   -2.86288E+004    7.23485E+003    4.61671E+005   -2.78071E+002
            2317    7.93531E+005    4.41334E+005   -4.74823E+005   -3.19796E+003   -4.74823E+005    9.16157E+005    1.22288E+004   -2.94646E+005   -5.81936E+003   -3.23065E+003   -2.76365E+004    1.75231E+004    4.57613E+005   -8.94740E+002
            2318    7.28520E+005    4.05562E+005   -4.35469E+005    5.67319E+002   -4.35469E+005    8.41031E+005    9.77970E+003   -2.91216E+005   -1.10340E+004    7.13140E+002   -1.90183E+004   -7.87517E+004    4.13051E+005    1.48557E+003
            2319    7.44285E+005    4.17384E+005   -4.41924E+005    3.46465E+001   -4.41924E+005    8.59308E+005    8.16849E+003   -2.73424E+005   -6.52716E+003   -1.71020E+002   -1.78073E+004   -6.65872E+004    4.24423E+005    2.05512E+003
            2320    7.60010E+005    4.26780E+005   -4.50683E+005    7.04508E+002   -4.50683E+005    8.77462E+005    7.73286E+003   -2.79876E+005   -4.94494E+003    3.09626E+002   -1.85633E+004   -5.52770E+004    4.35178E+005    2.77812E+003
            2321    7.77511E+005    4.35207E+005   -4.62464E+005   -8.03943E+002   -4.62464E+005    8.97671E+005    9.35376E+003   -2.85414E+005   -4.78541E+003   -1.08401E+003   -2.21919E+004   -4.44445E+004    4.46542E+005    2.47135E+003
            2322    7.92921E+005    4.43808E+005   -4.71661E+005   -1.20702E+003   -4.71661E+005    9.15469E+005    9.68693E+003   -2.88384E+005   -3.23425E+003   -1.37626E+003   -2.44503E+004   -3.18201E+004    4.56502E+005    2.02407E+003
            2323    8.04590E+005    4.49655E+005   -4.79278E+005   -1.48824E+003   -4.79278E+005    9.28933E+005    1.03702E+004   -2.95736E+005   -3.15011E+003   -1.54644E+003   -2.64142E+004   -1.84092E+004    4.63955E+005    1.22796E+003
            2324    8.09696E+005    4.52719E+005   -4.82120E+005   -1.84262E+003   -4.82120E+005    9.34838E+005    1.04146E+004   -2.93492E+005   -2.31731E+003   -1.84497E+003   -2.70814E+004   -3.56029E+003    4.67242E+005    2.50630E+002
            2325    8.07998E+005    4.51780E+005   -4.81091E+005   -1.44816E+003   -4.81091E+005    9.32871E+005    1.02532E+004   -2.95713E+005   -2.75606E+003   -1.47015E+003   -2.65335E+004    1.08217E+004    4.66158E+005   -7.64633E+002
            2326    7.98489E+005    4.46954E+005   -4.74946E+005   -1.38260E+003   -4.74946E+005    9.21901E+005    9.79157E+003   -2.88924E+005   -2.96098E+003   -1.49535E+003   -2.49184E+004    2.50899E+004    4.60135E+005   -1.67564E+003
            2327    7.28126E+005    3.99498E+005   -4.40952E+005   -6.96633E+002   -4.40952E+005    8.40450E+005    1.40504E+004   -3.16906E+005   -1.60630E+004   -5.78831E+002   -2.55094E+004   -8.70221E+004    4.11079E+005    2.34991E+003
            2328    7.40706E+005    4.02799E+005   -4.52195E+005   -5.11124E+003   -4.52195E+005    8.54995E+005    1.81691E+004   -3.18168E+005   -1.75295E+004   -4.62931E+003   -3.23485E+004   -7.42428E+004    4.20923E+005    1.03872E+003
            2329    7.57072E+005    4.12112E+005   -4.61794E+005   -5.48908E+003   -4.61794E+005    8.73905E+005    1.83903E+004   -3.21548E+005   -1.50931E+004   -5.28475E+003   -3.47930E+004   -6.44057E+004    4.32060E+005    1.50018E+003
            2330    7.74661E+005    4.21179E+005   -4.73010E+005   -5.45646E+003   -4.73010E+005    8.94189E+005    1.90958E+004   -3.32615E+005   -1.53757E+004   -5.51565E+003   -3.63960E+004   -5.20535E+004    4.43926E+005    2.06683E+003
            2331    7.92385E+005    4.30735E+005   -4.83932E+005   -6.28408E+003   -4.83932E+005    9.14667E+005    1.98269E+004   -3.36877E+005   -1.44569E+004   -6.34856E+003   -3.86753E+004   -3.82657E+004    4.55567E+005    1.74439E+003
            2332    8.05928E+005    4.37527E+005   -4.92755E+005   -6.33933E+003   -4.92755E+005    9.30281E+005    2.05223E+004   -3.45985E+005   -1.49740E+004   -6.37733E+003   -4.02157E+004   -2.11779E+004    4.64486E+005    1.18907E+003
            2333    8.12204E+005    4.41297E+005   -4.96252E+005   -6.81349E+003   -4.96252E+005    9.37549E+005    2.05897E+004   -3.44429E+005   -1.42146E+004   -6.81400E+003   -4.07405E+004   -2.76075E+003    4.68579E+005    1.43559E+002
            2334    8.08868E+005    4.39654E+005   -4.94035E+005   -6.31502E+003   -4.94035E+005    9.33689E+005    2.02319E+004   -3.44647E+005   -1.42108E+004   -6.32145E+003   -4.01635E+004    1.61094E+004    4.66386E+005   -6.77751E+002
            2335    7.98158E+005    4.34754E+005   -4.86587E+005   -5.82132E+003   -4.86587E+005    9.21342E+005    1.92181E+004   -3.37294E+005   -1.33750E+004   -5.87791E+003   -3.84014E+004    3.28625E+004    4.59325E+005   -1.56114E+003
            2336    7.16883E+005    3.92636E+005   -4.34818E+005   -8.21890E+002   -4.34818E+005    8.27454E+005    1.43343E+004   -3.14867E+005   -1.90850E+004   -5.73144E+002   -2.33449E+004   -8.96410E+004    4.03883E+005    1.94147E+003
            2337    7.24196E+005    3.98407E+005   -4.37513E+005    1.81536E+002   -4.37513E+005    8.35919E+005    1.29748E+004   -3.14203E+005   -1.72730E+004   -5.98814E+002   -2.10527E+004   -8.22896E+004    4.09772E+005    4.07504E+003
            2338    7.34592E+005    4.02086E+005   -4.45849E+005   -2.38219E+003   -4.45849E+005    8.47935E+005    1.53816E+004   -3.15942E+005   -1.79006E+004   -2.95632E+003   -2.52878E+004   -7.23262E+004    4.17734E+005    3.64096E+003
            2339    7.52417E+005    4.10035E+005   -4.58470E+005   -4.08420E+003   -4.58470E+005    8.68505E+005    1.75066E+004   -3.24475E+005   -1.78710E+004   -4.48057E+003   -3.01682E+004   -6.20718E+004    4.29746E+005    3.25593E+003
            2340    7.72348E+005    4.19580E+005   -4.71951E+005   -6.18271E+003   -4.71951E+005    8.91531E+005    1.95181E+004   -3.29472E+005   -1.81774E+004   -6.40178E+003   -3.39751E+004   -4.53449E+004    4.43381E+005    2.49223E+003
            2341    7.86882E+005    4.26580E+005   -4.81725E+005   -7.10377E+003   -4.81725E+005    9.08306E+005    2.07496E+004   -3.36161E+005   -1.83730E+004   -7.17670E+003   -3.66991E+004   -2.44732E+004    4.53400E+005    1.47440E+003
            2342    7.92911E+005    4.29728E+005   -4.85550E+005   -7.71245E+003   -4.85550E+005    9.15278E+005    2.11782E+004   -3.36387E+005   -1.81034E+004   -7.71296E+003   -3.77182E+004   -1.31260E+003    4.57532E+005    1.32334E+002
            2343    7.89845E+005    4.28239E+005   -4.83489E+005   -7.16512E+003   -4.83489E+005    9.11729E+005    2.08051E+004   -3.36956E+005   -1.83063E+004   -7.20933E+003   -3.68996E+004    2.16334E+004    4.55255E+005   -1.17165E+003
            2344    7.76929E+005    4.22438E+005   -4.74392E+005   -6.18629E+003   -4.74392E+005    8.96830E+005    1.93799E+004   -3.29601E+005   -1.74035E+004   -6.37200E+003   -3.43643E+004    4.30951E+004    4.46257E+005   -2.32216E+003
            2345    7.28853E+005    3.83435E+005   -4.57687E+005   -1.24036E+004   -4.57687E+005    8.41122E+005    2.88850E+004   -3.40099E+005   -3.14371E+004   -1.23493E+004   -4.28686E+004    5.36858E+004    4.17076E+005   -1.75148E+003
            2346    7.39967E+005    3.87017E+005   -4.66930E+005   -1.48203E+004   -4.66930E+005    8.53947E+005    3.15775E+004   -3.45454E+005   -3.36711E+004   -1.48105E+004   -4.62509E+004    2.87117E+004    4.25959E+005   -9.87820E+002
            2347    7.44800E+005    3.88788E+005   -4.70737E+005   -1.56911E+004   -4.70737E+005    8.59525E+005    3.25466E+004   -3.47634E+005   -3.43410E+004   -1.56911E+004   -4.76077E+004    1.02689E+001    4.29712E+005   -5.97467E+001
            2348    7.38349E+005    3.86009E+005   -4.66066E+005   -1.48201E+004   -4.66066E+005    8.52075E+005    3.16258E+004   -3.45281E+005   -3.38539E+004   -1.48177E+004   -4.62058E+004   -2.86422E+004    4.25027E+005    1.04045E+003
            2349    7.25657E+005    3.81368E+005   -4.56055E+005   -1.24547E+004   -4.56055E+005    8.37423E+005    2.90470E+004   -3.39860E+005   -3.18603E+004   -1.23707E+004   -4.29099E+004   -5.34706E+004    4.15241E+005    1.63699E+003
            2350    7.11651E+005    3.76750E+005   -4.44508E+005   -9.41906E+003   -4.44508E+005    8.21258E+005    2.57258E+004   -3.33536E+005   -2.94086E+004   -9.16601E+003   -3.86029E+004   -7.28055E+004    4.04085E+005    1.93062E+003
            2351    6.95615E+005    3.71201E+005   -4.31545E+005   -6.12568E+003   -4.31545E+005    8.02747E+005    2.21565E+004   -3.26642E+005   -2.63484E+004   -5.50884E+003   -3.46124E+004   -8.49639E+004    3.92233E+005    1.66769E+003
            2352    6.90908E+005    3.70819E+005   -4.26485E+005   -3.67115E+003   -4.26485E+005    7.97303E+005    1.97791E+004   -3.25682E+005   -2.42582E+004   -2.81995E+003   -3.22591E+004   -8.47338E+004    3.89493E+005    1.16130E+003
            2353    7.10971E+005    3.84282E+005   -4.36347E+005   -5.88068E+003   -4.36347E+005    8.20629E+005    1.93152E+004   -3.12530E+005   -2.29153E+004   -5.15364E+003   -2.98768E+004   -9.23341E+004    3.99755E+005    1.20178E+003
            2354    7.00764E+005    4.02993E+005   -4.06178E+005   -1.30873E+002   -4.06178E+005    8.09171E+005    1.10524E+003   -1.29129E+005   -1.37816E+003    3.18011E+001   -1.96935E+003   -1.45012E+004    4.04319E+005   -2.23428E+003
            2355    7.05041E+005    4.01116E+005   -4.12970E+005   -4.07744E+002   -4.12970E+005    8.14086E+005    4.08718E+003   -2.01897E+005   -4.84029E+003    1.99146E+000   -7.42324E+003   -4.19088E+004    4.04872E+005   -1.61537E+003
            2356    7.09958E+005    4.00847E+005   -4.18877E+005   -1.18465E+002   -4.18877E+005    8.19724E+005    6.04933E+003   -2.37813E+005   -7.64655E+003    4.27169E+002   -1.09286E+004   -6.49019E+004    4.04680E+005   -8.33288E+002
            2357    7.12407E+005    3.97888E+005   -4.24592E+005   -3.23280E+002   -4.24592E+005    8.22480E+005    9.00921E+003   -2.70664E+005   -1.13968E+004    2.31897E+002   -1.58627E+004   -8.27698E+004    4.02809E+005    2.47065E+002
            2358    7.14249E+005    3.95980E+005   -4.28561E+005   -4.61446E+002   -4.28561E+005    8.24541E+005    1.10142E+004   -2.89288E+005   -1.43834E+004    2.19213E+002   -1.88784E+004   -9.48461E+004    4.01191E+005    7.39810E+002
            2359    7.12860E+005    3.90987E+005   -4.31884E+005   -2.23791E+003   -4.31884E+005    8.22872E+005    1.43782E+004   -3.02708E+005   -1.81135E+004   -1.52070E+003   -2.35003E+004   -1.00845E+005    3.98858E+005    1.27293E+003
            2360    7.16678E+005    3.90241E+005   -4.37010E+005   -4.19720E+003   -4.37010E+005    8.27252E+005    1.69888E+004   -3.09117E+005   -2.12523E+004   -3.26836E+003   -2.64457E+004   -1.04047E+005    4.00293E+005    1.10925E+003
            2361    7.20816E+005    4.17311E+005    4.17311E+005    8.22908E+002   -4.15016E+005    8.32326E+005   -1.03928E+003    7.96810E+004    2.46570E+003    8.53030E+002   -2.00884E+002   -9.93581E+003    4.16042E+005   -6.18505E+002
            2362    7.36908E+005    4.27723E+005    4.27723E+005    1.64806E+003   -4.23184E+005    8.50907E+005   -2.06232E+003    1.00408E+005    3.80320E+003    1.63529E+003    7.48458E+002   -7.40012E+003    4.25386E+005    3.74844E+002
            2363    7.51066E+005    4.35519E+005    4.35519E+005    1.18175E+003   -4.31737E+005    8.67256E+005   -1.65448E+003    1.06266E+005    3.35851E+003    1.16281E+003    4.42114E+002   -5.65846E+003    4.33588E+005    7.30401E+002
            2364    7.62134E+005    4.42137E+005    4.42137E+005    1.50794E+003   -4.37899E+005    8.80036E+005   -1.91540E+003    1.02122E+005    3.72664E+003    1.49515E+003    5.24402E+002   -3.73182E+003    4.39999E+005    7.57872E+002
            2365    7.23617E+005    4.09765E+005   -4.25758E+005   -1.11700E+003   -4.25758E+005    8.35523E+005    5.70333E+003   -2.21079E+005   -6.25532E+003   -1.05623E+003   -9.79844E+003   -2.91844E+004    4.16737E+005   -1.29775E+002
            2366    7.40299E+005    4.18396E+005   -4.36390E+005   -2.09058E+003   -4.36390E+005    8.54786E+005    6.69474E+003   -2.24755E+005   -5.97094E+003   -2.10676E+003   -1.20065E+004   -2.20512E+004    4.26813E+005    4.12811E+002
            2367    7.54802E+005    4.27174E+005   -4.44359E+005   -1.62414E+003   -4.44359E+005    8.71533E+005    6.26963E+003   -2.28360E+005   -4.44240E+003   -1.66948E+003   -1.26970E+004   -1.64176E+004    4.35437E+005    8.10141E+002
            2368    7.66932E+005    4.33799E+005   -4.51742E+005   -2.13515E+003   -4.51742E+005    8.85541E+005    6.69290E+003   -2.29338E+005   -4.10648E+003   -2.16473E+003   -1.38075E+004   -1.16475E+004    4.42591E+005    7.15759E+002
            2369    7.27831E+005    4.14961E+005   -4.25436E+005    9.69564E+002   -4.25436E+005    8.40397E+005    3.16858E+003   -2.14460E+005   -1.28755E+003    1.02404E+003   -9.24222E+003   -4.69821E+004    4.17544E+005    3.32475E+002
            2370    7.44152E+005    4.25433E+005   -4.33816E+005    1.36089E+003   -4.33816E+005    8.59248E+005    2.34080E+003   -2.09717E+005    8.67305E+002    1.24449E+003   -9.13421E+003   -3.58918E+004    4.28092E+005    1.13409E+003
            2371    7.60160E+005    4.34025E+005   -4.43708E+005    7.60312E+002   -4.43708E+005    8.77733E+005    2.97436E+003   -2.13344E+005    1.23061E+003    6.41245E+002   -1.07949E+004   -2.75904E+004    4.37956E+005    1.30898E+003
            2372    7.73361E+005    4.41510E+005   -4.51466E+005    7.03466E+002   -4.51466E+005    8.92976E+005    3.08389E+003   -2.16817E+005    2.09840E+003    6.13657E+002   -1.19637E+004   -1.94089E+004    4.46009E+005    1.30745E+003
            2373    7.33453E+005    4.07655E+005   -4.39098E+005   -1.22634E+003   -4.39098E+005    8.46753E+005    1.08896E+004   -2.85947E+005   -1.14573E+004   -1.14895E+003   -2.00626E+004   -6.21226E+004    4.18769E+005    1.13684E+003
            2374    7.51054E+005    4.17170E+005   -4.49936E+005   -3.08232E+003   -4.49936E+005    8.67106E+005    1.19495E+004   -2.82305E+005   -9.40154E+003   -3.01090E+003   -2.34360E+004   -4.87469E+004    4.30745E+005    8.36475E+002
            2375    7.66306E+005    4.26560E+005   -4.58163E+005   -2.62296E+003   -4.58163E+005    8.84723E+005    1.14086E+004   -2.85238E+005   -7.17083E+003   -2.68230E+003   -2.43728E+004   -3.76813E+004    4.40669E+005    1.27697E+003
            2376    7.81838E+005    4.34838E+005   -4.67823E+005   -3.32862E+003   -4.67823E+005    9.02661E+005    1.21045E+004   -2.88973E+005   -6.45957E+003   -3.38217E+003   -2.64718E+004   -2.84216E+004    4.50323E+005    1.15456E+003
            2377    7.37290E+005    4.13940E+005   -4.37281E+005    1.14618E+003   -4.37281E+005    8.51221E+005    7.39827E+003   -2.75423E+005   -7.04649E+003    1.15411E+003   -1.63024E+004   -7.39538E+004    4.19108E+005    1.51729E+003
            2378    7.48861E+005    4.21399E+005   -4.43207E+005    7.36595E+002   -4.43207E+005    8.64606E+005    7.02388E+003   -2.69518E+005   -5.40282E+003    4.22611E+002   -1.60914E+004   -5.87641E+004    4.28255E+005    2.29866E+003
            2379    7.66523E+005    4.30046E+005   -4.54946E+005   -2.00633E+002   -4.54946E+005    8.84991E+005    8.36696E+003   -2.78429E+005   -4.88317E+003   -5.44590E+002   -1.96731E+004   -4.92643E+004    4.39679E+005    2.62582E+003
            2380    7.84212E+005    4.39378E+005   -4.66036E+005   -7.39591E+002   -4.66036E+005    9.05414E+005    9.13241E+003   -2.85285E+005   -3.89767E+003   -9.81188E+002   -2.25184E+004   -3.71609E+004    4.51080E+005    2.36344E+003
            2381    7.32563E+005    3.98256E+005   -4.47288E+005   -3.54592E+003   -4.47288E+005    8.45544E+005    1.75259E+004   -3.23081E+005   -1.88353E+004   -2.86008E+003   -3.08824E+004   -7.69170E+004    4.15654E+005    6.80815E+002
            2382    7.44209E+005    4.06122E+005   -4.52970E+005   -5.60966E+003   -4.52970E+005    8.59092E+005    1.74861E+004   -3.09256E+005   -1.45812E+004   -5.08367E+003   -3.27934E+004   -6.98142E+004    4.23725E+005    6.45477E+002
            2383    7.61268E+005    4.15856E+005   -4.62901E+005   -4.32865E+003   -4.62901E+005    8.78757E+005    1.71244E+004   -3.21857E+005   -1.36189E+004   -4.32761E+003   -3.34268E+004   -5.87316E+004    4.35319E+005    1.95976E+003
            2384    7.80087E+005    4.25393E+005   -4.75094E+005   -5.39534E+003   -4.75094E+005    9.00487E+005    1.83654E+004   -3.28620E+005   -1.34904E+004   -5.40911E+003   -3.61967E+004   -4.81789E+004    4.47511E+005    1.72248E+003
            2385    7.14193E+005    3.97418E+005   -4.26981E+005    3.80823E+003   -4.26981E+005    8.24400E+005    8.58484E+003   -3.05171E+005   -1.50416E+004    2.11764E+003   -1.28305E+004   -8.52239E+004    4.03287E+005    5.75946E+003
            2386    7.22831E+005    3.97499E+005   -4.36845E+005    2.85402E+001   -4.36845E+005    8.34343E+005    1.31059E+004   -3.13633E+005   -1.76743E+004   -5.40387E+002   -2.11029E+004   -7.64186E+004    4.10108E+005    3.49545E+003
            2387    7.37115E+005    4.03842E+005   -4.47008E+005   -2.09392E+003   -4.47008E+005    8.50849E+005    1.50866E+004   -3.16611E+005   -1.62641E+004   -2.62560E+003   -2.63701E+004   -7.27281E+004    4.19128E+005    3.63832E+003
            2388    7.59505E+005    4.13806E+005   -4.62887E+005   -4.41714E+003   -4.62887E+005    8.76693E+005    1.78327E+004   -3.26456E+005   -1.78889E+004   -4.70641E+003   -3.09028E+004   -5.97169E+004    4.34208E+005    2.87310E+003
            2389    7.14187E+005    3.78704E+005   -4.45505E+005   -9.44727E+003   -4.45505E+005    8.24209E+005    2.54160E+004   -3.32011E+005   -2.88626E+004   -9.14530E+003   -3.82401E+004   -7.36291E+004    4.05433E+005    1.78696E+003
            2390    7.02487E+005    3.75811E+005   -4.34896E+005   -6.03478E+003   -4.34896E+005    8.10708E+005    2.17066E+004   -3.26327E+005   -2.56138E+004   -5.40974E+003   -3.40962E+004   -8.67755E+004    3.95912E+005    1.65514E+003
            2391    6.83476E+005    3.68103E+005   -4.20680E+005   -3.79137E+003   -4.20680E+005    7.88783E+005    1.87896E+004   -3.15760E+005   -2.32110E+004   -2.53046E+003   -3.06275E+004   -9.31995E+004    3.83164E+005    6.81139E+002
            2392    6.81577E+005    3.67480E+005   -4.18978E+005   -4.06266E+001   -4.18978E+005    7.86458E+005    1.71796E+004   -3.29459E+005   -2.03768E+004    1.44588E+003   -3.26078E+004   -7.82899E+004    3.85256E+005   -3.32029E+002
            2393    7.02590E+005    4.03772E+005   -4.07506E+005    1.26495E+001   -4.07506E+005    8.11278E+005    1.24053E+003   -1.40672E+005   -1.18158E+003    1.56021E+002   -2.69604E+003   -1.38168E+004    4.05397E+005   -2.05667E+003
            2394    7.06631E+005    4.02571E+005   -4.13356E+005   -5.59092E+002   -4.13356E+005    8.15928E+005    3.78132E+003   -1.93453E+005   -4.71254E+003   -1.74490E+002   -6.45692E+003   -4.07600E+004    4.05916E+005   -1.61834E+003
            2395    7.11709E+005    4.01863E+005   -4.19882E+005    5.01669E+001   -4.19882E+005    8.21744E+005    5.98951E+003   -2.39651E+005   -7.05307E+003    4.71807E+002   -1.13873E+004   -6.36801E+004    4.05897E+005   -4.45880E+002
            2396    7.16961E+005    4.01273E+005   -4.26475E+005   -1.21957E+001   -4.26475E+005    8.27748E+005    8.40500E+003   -2.68727E+005   -1.09930E+004    4.73848E+002   -1.46959E+004   -8.17075E+004    4.05716E+005    2.73055E+002
            2397    7.21251E+005    4.00048E+005   -4.32563E+005    2.20215E+002   -4.32563E+005    8.32611E+005    1.07651E+004   -2.95097E+005   -1.33328E+004    5.44957E+002   -1.95073E+004   -9.43618E+004    4.05449E+005    1.59956E+003
            2398    7.34346E+005    4.02754E+005   -4.44874E+005   -8.33741E+002   -4.44874E+005    8.47628E+005    1.43181E+004   -3.19744E+005   -1.84221E+004   -2.32674E+002   -2.42995E+004   -1.00134E+005    4.11786E+005    1.62075E+003
            2399    7.25689E+005    3.96066E+005   -4.41527E+005   -1.47218E+003   -4.41527E+005    8.37593E+005    1.56442E+004   -3.22515E+005   -1.95973E+004   -1.14186E+003   -2.61936E+004   -8.16979E+004    4.10726E+005    1.63129E+003
            2400    7.28335E+005    3.83098E+005   -4.57424E+005   -1.23909E+004   -4.57424E+005    8.40522E+005    2.89057E+004   -3.40167E+005   -3.15021E+004   -1.23383E+004   -4.28768E+004   -5.39250E+004    4.16743E+005    1.77111E+003
            2401    7.38990E+005    3.86382E+005   -4.66434E+005   -1.48408E+004   -4.66434E+005    8.52816E+005    3.16312E+004   -3.45376E+005   -3.38058E+004   -1.48263E+004   -4.62614E+004   -2.92913E+004    4.25354E+005    9.77818E+002
            2402    7.44107E+005    3.88289E+005   -4.70434E+005   -1.57594E+004   -4.70434E+005    8.58724E+005    3.26348E+004   -3.47554E+005   -3.44854E+004   -1.57596E+004   -4.76595E+004   -6.11503E+002    4.29311E+005    6.79839E+001
            2403    7.38347E+005    3.85871E+005   -4.66200E+005   -1.49086E+004   -4.66200E+005    8.52071E+005    3.17459E+004   -3.45495E+005   -3.40141E+004   -1.49128E+004   -4.63107E+004    2.84085E+004    4.25041E+005   -1.08132E+003
            2404    7.25470E+005    3.81208E+005   -4.55999E+005   -1.24843E+004   -4.55999E+005    8.37206E+005    2.90918E+004   -3.39905E+005   -3.19302E+004   -1.24051E+004   -4.29402E+004    5.37438E+004    4.15096E+005   -1.66785E+003
            2405    7.11270E+005    3.76553E+005   -4.44264E+005   -9.36432E+003   -4.44264E+005    8.20817E+005    2.56918E+004   -3.33558E+005   -2.94100E+004   -9.11607E+003   -3.85493E+004    7.32879E+004    4.03774E+005   -1.96857E+003
            2406    6.95067E+005    3.71035E+005   -4.31082E+005   -6.03855E+003   -4.31082E+005    8.02116E+005    2.20285E+004   -3.26193E+005   -2.62245E+004   -5.39491E+003   -3.44661E+004    8.54663E+004    3.91801E+005   -1.63154E+003
            2407    6.90276E+005    3.70507E+005   -4.26064E+005   -3.56358E+003   -4.26064E+005    7.96572E+005    1.97068E+004   -3.25721E+005   -2.41961E+004   -2.68275E+003   -3.22417E+004    8.46886E+004    3.89127E+005   -1.10539E+003
            2408    7.10802E+005    3.84253E+005   -4.36185E+005   -5.94967E+003   -4.36185E+005    8.20438E+005    1.92938E+004   -3.11779E+005   -2.27824E+004   -5.21004E+003   -2.98891E+004    9.19631E+004    3.99742E+005   -1.15057E+003
            2409    7.76390E+005    4.22003E+005   -4.74202E+005   -6.24041E+003   -4.74202E+005    8.96205E+005    1.94797E+004   -3.29827E+005   -1.75528E+004   -6.43350E+003   -3.44528E+004   -4.31855E+004    4.45935E+005    2.36307E+003
            2410    7.98099E+005    4.34551E+005   -4.86719E+005   -5.87636E+003   -4.86719E+005    9.21269E+005    1.93481E+004   -3.37903E+005   -1.35600E+004   -5.93427E+003   -3.85500E+004   -3.29070E+004    4.59286E+005    1.57476E+003
            2411    7.98740E+005    4.46893E+005   -4.75294E+005   -1.44105E+003   -4.75294E+005    9.22187E+005    9.94743E+003   -2.90095E+005   -3.11648E+003   -1.55540E+003   -2.51704E+004   -2.51781E+004    4.60272E+005    1.69423E+003
            2412    7.93792E+005    4.41450E+005   -4.75008E+005   -3.18041E+003   -4.75008E+005    9.16458E+005    1.22460E+004   -2.95088E+005   -5.81809E+003   -3.21363E+003   -2.77064E+004   -1.75530E+004    4.57761E+005    9.03356E+002
            2413    7.83262E+005    4.46994E+005   -4.57415E+005    4.97628E+002   -4.57415E+005    9.04409E+005    3.30800E+003   -2.19015E+005    2.83389E+003    4.60463E+002   -1.32183E+004   -1.20219E+004    4.51973E+005    8.80981E+002
            2414    7.74867E+005    4.38291E+005   -4.56411E+005   -1.95123E+003   -4.56411E+005    8.94702E+005    6.69059E+003   -2.33944E+005   -3.80088E+003   -1.96395E+003   -1.43069E+004   -6.57950E+003    4.47272E+005    5.23280E+002
            2415    7.69512E+005    4.46386E+005    4.46386E+005    1.31066E+003   -4.42170E+005    8.88556E+005   -1.84221E+003    1.12304E+005    3.89982E+003    1.30543E+003    3.21393E+002   -2.36031E+003    4.44268E+005    4.94361E+002
            2416    7.88985E+005    4.27596E+005   -4.83138E+005   -7.28882E+003   -4.83138E+005    9.10734E+005    2.09436E+004   -3.36833E+005   -1.85460E+004   -7.33462E+003   -3.69503E+004   -2.19974E+004    4.54742E+005    1.19088E+003
            2417    8.08648E+005    4.39313E+005   -4.94119E+005   -6.44233E+003   -4.94119E+005    9.33432E+005    2.04159E+004   -3.45051E+005   -1.44832E+004   -6.44613E+003   -4.03183E+004   -1.59404E+004    4.66264E+005    6.34767E+002
            2418    8.08167E+005    4.51668E+005   -4.81397E+005   -1.54006E+003   -4.81397E+005    9.33064E+005    1.04230E+004   -2.96623E+005   -2.93400E+003   -1.56124E+003   -2.67737E+004   -1.05700E+004    4.66260E+005    7.53342E+002
            2419    8.00477E+005    4.44642E+005   -4.79527E+005   -3.40238E+003   -4.79527E+005    9.24168E+005    1.27624E+004   -2.99919E+005   -6.18070E+003   -3.40477E+003   -2.87019E+004   -6.94195E+003    4.61895E+005    2.69545E+002
            2420    7.88195E+005    4.49681E+005   -4.60422E+005    5.89563E+002   -4.60422E+005    9.10103E+005    3.38396E+003   -2.23121E+005    3.12407E+003    5.85197E+002   -1.38611E+004   -3.79492E+003    4.54956E+005    3.21940E+002
            2421    7.78628E+005    4.40147E+005   -4.58898E+005   -2.18187E+003   -4.58898E+005    8.99044E+005    6.97756E+003   -2.35627E+005   -4.00991E+003   -2.18253E+003   -1.47402E+004   -2.16359E+003    4.49485E+005    9.91549E+001
            2422    7.72653E+005    4.48333E+005    4.48333E+005    1.51002E+003   -4.43849E+005    8.92182E+005   -1.99790E+003    1.09437E+005    4.18141E+003    1.50973E+003    3.02550E+002   -4.93084E+002    4.46086E+005    1.28770E+002
            2423    7.92087E+005    4.29122E+005   -4.85202E+005   -7.79229E+003   -4.85202E+005    9.14324E+005    2.12908E+004   -3.36425E+005   -1.83082E+004   -7.79251E+003   -3.77717E+004    1.19888E+003    4.57057E+005   -8.19329E+001
            2424    8.11651E+005    4.40854E+005   -4.96053E+005   -6.85244E+003   -4.96053E+005    9.36907E+005    2.06837E+004   -3.44729E+005   -1.43958E+004   -6.85301E+003   -4.08023E+004    3.08869E+003    4.68257E+005   -1.55215E+002
            2425    8.09739E+005    4.52575E+005   -4.82311E+005   -1.88347E+003   -4.82311E+005    9.34886E+005    1.05397E+004   -2.94461E+005   -2.47661E+003   -1.88646E+003   -2.72560E+004    4.06762E+003    4.67261E+005   -2.82678E+002
            2426    8.01370E+005    4.45222E+005   -4.79982E+005   -3.47420E+003   -4.79982E+005    9.25203E+005    1.27448E+004   -2.99183E+005   -5.97863E+003   -3.47803E+003   -2.87777E+004    4.67189E+003    4.62437E+005   -3.17504E+002
            2427    7.88270E+005    4.49789E+005   -4.60402E+005    4.73721E+002   -4.60402E+005    9.10191E+005    3.37991E+003   -2.20868E+005    3.45258E+003    4.69734E+002   -1.40621E+004    3.83351E+003    4.54995E+005   -2.97834E+002
            2428    7.78260E+005    4.39993E+005   -4.58626E+005   -2.08935E+003   -4.58626E+005    8.98619E+005    6.90745E+003   -2.35919E+005   -3.95372E+003   -2.09251E+003   -1.46761E+004    2.82391E+003    4.49269E+005   -2.91061E+002
            2429    7.72105E+005    4.48016E+005    4.48016E+005    1.41817E+003   -4.43534E+005    8.91550E+005   -1.96668E+003    1.13741E+005    4.23879E+003    1.41719E+003    2.44072E+002    8.07753E+002    4.45770E+005   -2.73702E+002
            2430    7.86013E+005    4.25943E+005   -4.81359E+005   -7.22469E+003   -4.81359E+005    9.07302E+005    2.08801E+004   -3.35991E+005   -1.85814E+004   -7.29703E+003   -3.67617E+004    2.47697E+004    4.52882E+005   -1.46905E+003
            2431    8.05336E+005    4.37149E+005   -4.92449E+005   -6.37602E+003   -4.92449E+005    9.29598E+005    2.05588E+004   -3.45813E+005   -1.51008E+004   -6.41651E+003   -4.01591E+004    2.17471E+004    4.64120E+005   -1.22363E+003
            2432    8.03960E+005    4.49200E+005   -4.79005E+005   -1.51881E+003   -4.79005E+005    9.28204E+005    1.04414E+004   -2.96031E+005   -3.27237E+003   -1.58194E+003   -2.64698E+004    1.91524E+004    4.63561E+005   -1.27954E+003
            2433    7.96169E+005    4.42027E+005   -4.77162E+005   -3.32415E+003   -4.77162E+005    9.19190E+005    1.28197E+004   -3.00275E+005   -6.69905E+003   -3.35926E+003   -2.84008E+004    1.55643E+004    4.59203E+005   -9.43024E+002
            2434    7.83675E+005    4.47072E+005   -4.57811E+005    6.08082E+002   -4.57811E+005    9.04884E+005    3.37699E+003   -2.22482E+005    2.91976E+003    5.72046E+002   -1.36228E+004    1.19736E+004    4.52207E+005   -8.68832E+002
            2435    7.74004E+005    4.37439E+005   -4.56264E+005   -2.11675E+003   -4.56264E+005    8.93703E+005    6.98073E+003   -2.35801E+005   -4.28782E+003   -2.13428E+003   -1.45201E+004    7.19707E+003    4.46764E+005   -6.43959E+002
            2436    7.68005E+005    4.45707E+005    4.45707E+005    1.48432E+003   -4.41109E+005    8.86816E+005   -2.02725E+003    1.12952E+005    4.21584E+003    1.47716E+003    3.88745E+002    2.56962E+003    4.43396E+005   -6.20484E+002
            2437    7.71640E+005    4.19147E+005   -4.71567E+005   -6.18463E+003   -4.71567E+005    8.90713E+005    1.95349E+004   -3.29393E+005   -1.82707E+004   -6.39834E+003   -3.39357E+004    4.58132E+004    4.42923E+005   -2.46834E+003
            2438    7.91285E+005    4.30234E+005   -4.83164E+005   -6.19034E+003   -4.83164E+005    9.13398E+005    1.97069E+004   -3.36347E+005   -1.44221E+004   -6.25479E+003   -3.84438E+004    3.90315E+004    4.54867E+005   -1.75957E+003
            2439    7.91834E+005    4.43228E+005   -4.70985E+005   -1.17646E+003   -4.70985E+005    9.14214E+005    9.64440E+003   -2.87985E+005   -3.27761E+003   -1.35439E+003   -2.43012E+004    3.24734E+004    4.55828E+005   -2.07256E+003
            2440    7.86097E+005    4.36647E+005   -4.70921E+005   -3.37403E+003   -4.70921E+005    9.07568E+005    1.25491E+004   -2.94351E+005   -6.79087E+003   -3.44028E+003   -2.74162E+004    2.63618E+004    4.52899E+005   -1.26878E+003
            2441    7.74871E+005    4.42497E+005   -4.52222E+005    7.96915E+002   -4.52222E+005    8.94720E+005    2.97603E+003   -2.16824E+005    2.82337E+003    7.12602E+002   -1.24641E+004    1.91981E+004    4.46881E+005   -1.26608E+003
            2442    7.66458E+005    4.33151E+005   -4.51839E+005   -2.11070E+003   -4.51839E+005    8.84990E+005    6.93279E+003   -2.33592E+005   -4.51167E+003   -2.14758E+003   -1.41391E+004    1.18911E+004    4.42308E+005   -8.47823E+002
            2443    7.60897E+005    4.41742E+005    4.41742E+005    1.54034E+003   -4.36865E+005    8.78607E+005   -2.13905E+003    1.15974E+005    4.19432E+003    1.52634E+003    6.96507E+002    3.80012E+003    4.39283E+005   -8.12717E+002
            2444    7.51636E+005    4.09653E+005   -4.57950E+005   -4.04339E+003   -4.57950E+005    8.67603E+005    1.74469E+004   -3.24099E+005   -1.78576E+004   -4.44309E+003   -3.00401E+004    6.27059E+004    4.29199E+005   -3.26703E+003
            2445    7.73509E+005    4.20767E+005   -4.72096E+005   -5.35516E+003   -4.72096E+005    8.92863E+005    1.88945E+004   -3.31472E+005   -1.52540E+004   -5.41116E+003   -3.60183E+004    5.25976E+004    4.43197E+005   -2.05595E+003
            2446    7.76051E+005    4.34553E+005   -4.61433E+005   -7.04129E+002   -4.61433E+005    8.95986E+005    9.19459E+003   -2.84395E+005   -4.72979E+003   -9.92325E+002   -2.18617E+004    4.48361E+004    4.45658E+005   -2.49660E+003
            2447    7.72528E+005    4.29000E+005   -4.62896E+005   -3.14149E+003   -4.62896E+005    8.91896E+005    1.23460E+004   -2.91264E+005   -7.83924E+003   -3.21127E+003   -2.59876E+004    3.56298E+004    4.44429E+005   -1.35105E+003
            2448    7.63342E+005    4.35811E+005   -4.45595E+005    8.28818E+002   -4.45595E+005    8.81407E+005    2.98503E+003   -2.15440E+005    1.71837E+003    7.01313E+002   -1.13748E+004    2.65100E+004    4.39855E+005   -1.42552E+003
            2449    7.56176E+005    4.27364E+005   -4.45753E+005   -2.00538E+003   -4.45753E+005    8.73118E+005    6.79800E+003   -2.31025E+005   -4.94647E+003   -2.05164E+003   -1.33959E+004    1.59520E+004    4.36246E+005   -8.40810E+002
            2450    7.51373E+005    4.36134E+005    4.36134E+005    1.46845E+003   -4.31477E+005    8.67611E+005   -2.04187E+003    1.13361E+005    3.91242E+003    1.44824E+003    7.64947E+002    5.36075E+003    4.33768E+005   -8.21623E+002
            2451    7.34066E+005    4.01910E+005   -4.45417E+005   -2.26689E+003   -4.45417E+005    8.47327E+005    1.52579E+004   -3.15723E+005   -1.78234E+004   -2.83794E+003   -2.51125E+004    7.26763E+004    4.17365E+005   -3.62879E+003
            2452    7.56029E+005    4.11892E+005   -4.60816E+005   -5.34556E+003   -4.60816E+005    8.72708E+005    1.80895E+004   -3.19944E+005   -1.48052E+004   -5.12642E+003   -3.43369E+004    6.47034E+004    4.31412E+005   -1.44494E+003
            2453    7.58789E+005    4.26355E+005   -4.49701E+005    8.21105E+002   -4.49701E+005    8.76056E+005    7.50816E+003   -2.78378E+005   -4.82535E+003    4.22553E+002   -1.81217E+004    5.52166E+004    4.34480E+005   -2.77174E+003
            2454    7.57853E+005    4.20522E+005   -4.54421E+005   -2.93209E+003   -4.54421E+005    8.74944E+005    1.22770E+004   -2.89015E+005   -9.06497E+003   -2.94739E+003   -2.48187E+004    4.51467E+004    4.35063E+005   -1.20952E+003
            2455    7.49785E+005    4.28927E+005   -4.36827E+005    1.57895E+003   -4.36827E+005    8.65754E+005    2.10701E+003   -2.10476E+005    1.73744E+003    1.43199E+003   -9.49047E+003    3.32960E+004    4.31557E+005   -1.37942E+003
            2456    7.44427E+005    4.20263E+005   -4.39284E+005   -2.07775E+003   -4.39284E+005    8.59547E+005    7.03266E+003   -2.31177E+005   -6.05852E+003   -2.11407E+003   -1.29254E+004    2.04914E+004    4.29271E+005   -6.39399E+002
            2457    7.39972E+005    4.29998E+005    4.29998E+005    1.72987E+003   -4.24447E+005    8.54446E+005   -2.42697E+003    1.19760E+005    4.31142E+003    1.71271E+003    1.25678E+003    6.72460E+003    4.27167E+005   -5.48647E+002
            2458    7.23746E+005    3.98325E+005   -4.37075E+005    3.39878E+002   -4.37075E+005    8.35400E+005    1.28035E+004   -3.13970E+005   -1.71587E+004   -4.56144E+002   -2.07958E+004    8.25207E+004    4.09462E+005   -4.10469E+003
            2459    7.40186E+005    4.02760E+005   -4.51640E+005   -5.01277E+003   -4.51640E+005    8.54399E+005    1.79643E+004   -3.17156E+005   -1.73184E+004   -4.52221E+003   -3.20524E+004    7.41878E+004    4.20631E+005   -9.96640E+002
            2460    7.43449E+005    4.17190E+005   -4.41158E+005    1.07637E+002   -4.41158E+005    8.58347E+005    7.95353E+003   -2.71636E+005   -6.37299E+003   -8.75577E+001   -1.74000E+004    6.62922E+004    4.23985E+005   -1.99297E+003
            2461    7.42098E+005    4.12197E+005   -4.44557E+005   -2.45889E+003   -4.44557E+005    8.56754E+005    1.16064E+004   -2.82974E+005   -1.03250E+004   -2.42421E+003   -2.20700E+004    5.45597E+004    4.24846E+005   -1.12453E+003
            2462    7.36172E+005    4.19896E+005   -4.30135E+005    7.84686E+002   -4.30135E+005    8.50031E+005    3.15120E+003   -2.12516E+005   -4.02464E+002    7.37865E+002   -9.78901E+003    4.10340E+004    4.23004E+005   -7.54190E+002
            2463    7.31413E+005    4.13879E+005   -4.30646E+005   -1.50485E+003   -4.30646E+005    8.44525E+005    6.09071E+003   -2.22657E+005   -5.84255E+003   -1.50473E+003   -1.09249E+004    2.52565E+004    4.21499E+005   -2.81240E+002
            2464    7.27689E+005    4.21714E+005    4.21714E+005    1.10882E+003   -4.18549E+005    8.40263E+005   -1.42488E+003    9.09825E+004    2.98877E+003    1.11126E+003    1.74606E+002    8.52458E+003    4.20043E+005    5.06133E+001
            2465    7.16588E+005    3.92581E+005   -4.34533E+005   -7.39237E+002   -4.34533E+005    8.27114E+005    1.42304E+004   -3.14615E+005   -1.89913E+004   -4.72119E+002   -2.32277E+004    8.92933E+004    4.03786E+005   -1.88501E+003
            2466    7.27901E+005    3.99515E+005   -4.40675E+005   -5.88887E+002   -4.40675E+005    8.40190E+005    1.39163E+004   -3.16632E+005   -1.59145E+004   -4.74868E+002   -2.53594E+004    8.69822E+004    4.10955E+005   -2.35389E+003
            2467    7.28144E+005    4.05533E+005   -4.35068E+005    5.97758E+002   -4.35068E+005    8.40601E+005    9.64584E+003   -2.90144E+005   -1.08994E+004    7.48517E+002   -1.87867E+004    7.84180E+004    4.12896E+005   -1.44475E+003
            2468    7.27120E+005    4.06377E+005   -4.33087E+005   -6.22006E+000   -4.33087E+005    8.39464E+005    8.90518E+003   -2.76603E+005   -9.24183E+003    6.64115E+001   -1.75401E+004    6.66179E+004    4.14388E+005   -1.18394E+003
            2469    7.22147E+005    4.09243E+005   -4.24567E+005    5.23708E+002   -4.24567E+005    8.33810E+005    4.93362E+003   -2.33950E+005   -4.53763E+003    6.52205E+002   -1.09154E+004    5.05813E+004    4.13812E+005   -1.73678E+002
            2470    7.18017E+005    4.08444E+005   -4.20626E+005   -5.16261E+002   -4.20626E+005    8.29070E+005    4.23275E+003   -2.05050E+005   -4.14943E+003   -4.00835E+002   -8.14798E+003    3.16411E+004    4.13320E+005    4.61622E+002
            2471    7.15071E+005    4.12102E+005   -4.13590E+005    3.80273E+002   -4.13590E+005    8.25692E+005    3.69203E+002   -1.19919E+005    2.83379E+001    4.31490E+002   -1.56744E+003    1.06911E+004    4.12705E+005    9.63288E+002
            2472    7.01000E+005    4.03137E+005   -4.06306E+005   -1.26731E+002   -4.06306E+005    8.09444E+005    1.09856E+003   -1.29046E+005   -1.37190E+003    3.64472E+001   -1.96023E+003    1.45255E+004    4.04455E+005    2.23831E+003
            2473    7.05110E+005    4.01162E+005   -4.13004E+005   -4.12707E+002   -4.13004E+005    8.14166E+005    4.08504E+003   -2.01780E+005   -4.83691E+003   -6.91863E+000   -7.41130E+003    4.17240E+004    4.04931E+005    1.60781E+003
            2474    7.10024E+005    4.00929E+005   -4.18872E+005   -1.03270E+002   -4.18872E+005    8.19801E+005    6.01565E+003   -2.37580E+005   -7.59889E+003    4.41116E+002   -1.08892E+004    6.45814E+004    4.04771E+005    8.44604E+002
            2475    7.12601E+005    3.98078E+005   -4.24627E+005   -3.31137E+002   -4.24627E+005    8.22705E+005    8.95980E+003   -2.70117E+005   -1.13110E+004    2.26614E+002   -1.57950E+004    8.21831E+004    4.03044E+005   -2.10365E+002
            2476    7.13890E+005    3.95920E+005   -4.28209E+005   -4.08026E+002   -4.28209E+005    8.24129E+005    1.08993E+004   -2.88630E+005   -1.42486E+004    2.63839E+002   -1.87131E+004    9.42998E+004    4.01109E+005   -7.25188E+002
            2477    7.12577E+005    3.90925E+005   -4.31620E+005   -2.17661E+003   -4.31620E+005    8.22545E+005    1.42904E+004   -3.02408E+005   -1.79934E+004   -1.43997E+003   -2.34379E+004    1.00822E+005    3.98695E+005   -1.23516E+003
            2478    7.16865E+005    3.90298E+005   -4.37174E+005   -4.37833E+003   -4.37174E+005    8.27471E+005    1.70847E+004   -3.08485E+005   -2.13445E+004   -3.43671E+003   -2.64731E+004    1.03707E+005    4.00494E+005   -1.04699E+003
            2479    6.82026E+005    4.19271E+005    4.19271E+005   -2.24782E+001   -3.67700E+005    7.86971E+005   -1.71828E+004    3.30026E+005    2.03948E+004   -1.48654E+003    3.26402E+004    7.74828E+004    3.85682E+005   -3.46469E+002
            2480    6.82482E+005    4.20020E+005    4.20020E+005    3.77927E+003   -3.67616E+005    7.87636E+005   -1.87276E+004    3.15104E+005    2.31210E+004    2.49549E+003    3.05663E+004    9.28397E+004    3.82661E+005    6.13243E+002
            2481    7.01931E+005    4.34444E+005    4.34444E+005    5.95721E+003   -3.75624E+005    8.10068E+005   -2.15926E+004    3.25902E+005    2.55129E+004    5.30448E+003    3.39603E+004    8.70041E+004    3.95533E+005    1.60209E+003
            2482    7.13826E+005    4.45226E+005    4.45226E+005    9.43829E+003   -3.78567E+005    8.23793E+005   -2.53657E+004    3.31612E+005    2.87796E+004    9.13213E+003    3.81853E+004    7.37088E+004    4.05208E+005    1.77694E+003
            2483    7.59744E+005    4.62940E+005    4.62940E+005    4.34651E+003   -4.14029E+005    8.76969E+005   -1.77525E+004    3.26448E+005    1.77531E+004    4.64715E+003    3.08574E+004    5.98387E+004    4.34330E+005    2.91744E+003
            2484    7.79991E+005    4.74800E+005    4.74800E+005    5.27515E+003   -4.25580E+005    9.00379E+005   -1.81651E+004    3.27916E+005    1.32180E+004    5.29441E+003    3.59829E+004    4.80142E+004    4.47474E+005    1.73770E+003
            2485    7.84134E+005    4.65825E+005    4.65825E+005    6.76984E+002   -4.39500E+005    9.05326E+005   -9.00060E+003    2.84481E+005    3.77995E+003    9.21224E+002    2.23006E+004    3.69422E+004    4.51055E+005    2.37660E+003
            2486    7.81606E+005    4.67583E+005    4.67583E+005    3.30875E+003   -4.34811E+005    9.02394E+005   -1.20268E+004    2.88280E+005    6.36301E+003    3.35751E+003    2.63599E+004    2.80928E+004    4.50210E+005    1.10991E+003
            2487    7.73077E+005    4.51126E+005    4.51126E+005   -7.54704E+002   -4.41524E+005    8.92650E+005   -2.94925E+003    2.15162E+005   -2.20574E+003   -6.65976E+002    1.17195E+004    1.91998E+004    4.45856E+005    1.29875E+003
            2488    7.66643E+005    4.51546E+005    4.51546E+005    2.15971E+003   -4.33662E+005    8.85209E+005   -6.68120E+003    2.28671E+005    4.12965E+003    2.18874E+003    1.37252E+004    1.15586E+004    4.42427E+005    7.06671E+002
            2489    7.62087E+005    4.37816E+005   -4.42166E+005   -1.51022E+003   -4.42166E+005    8.79982E+005    1.95346E+003   -1.05023E+005   -3.74046E+003   -1.49753E+003   -6.22387E+002    3.67659E+003    4.39972E+005    7.62647E+002
            2490    7.36902E+005    4.46779E+005    4.46779E+005    2.03896E+003   -4.03826E+005    8.50606E+005   -1.49973E+004    3.16271E+005    1.61850E+004    2.56130E+003    2.62457E+004    7.25728E+004    4.19031E+005    3.60426E+003
            2491    7.61344E+005    4.62737E+005    4.62737E+005    4.30051E+003   -4.16114E+005    8.78851E+005   -1.69746E+004    3.20856E+005    1.34285E+004    4.29267E+003    3.32027E+004    5.86779E+004    4.35373E+005    1.91928E+003
            2492    7.66132E+005    4.54579E+005    4.54579E+005    1.88027E+002   -4.29963E+005    8.84542E+005   -8.26823E+003    2.77353E+005    4.81545E+003    5.25893E+002    1.94633E+004    4.90148E+004    4.39482E+005    2.58960E+003
            2493    7.66078E+005    4.57909E+005    4.57909E+005    2.61481E+003   -4.26552E+005    8.84462E+005   -1.13240E+004    2.84352E+005    7.06025E+003    2.67130E+003    2.42406E+004    3.73336E+004    4.40567E+005    1.24963E+003
            2494    7.59930E+005    4.43463E+005    4.43463E+005   -7.73840E+002   -4.34006E+005    8.77468E+005   -2.89434E+003    2.12028E+005   -1.27154E+003   -6.55122E+002    1.06097E+004    2.73264E+004    4.37841E+005    1.30632E+003
            2495    7.54662E+005    4.44252E+005    4.44252E+005    1.63671E+003   -4.27121E+005    8.71372E+005   -6.25591E+003    2.27901E+005    4.45417E+003    1.68056E+003    1.26330E+004    1.62011E+004    4.35365E+005    7.93826E+002
            2496    7.50942E+005    4.31616E+005   -4.35497E+005   -1.18137E+003   -4.35497E+005    8.67113E+005    1.68736E+003   -1.08689E+005   -3.37311E+003   -1.16290E+003   -5.26061E+002    5.53606E+003    4.33518E+005    7.27424E+002
            2497    7.22770E+005    4.36733E+005    4.36733E+005   -5.28887E+001   -3.97542E+005    8.34274E+005   -1.30461E+004    3.13334E+005    1.76027E+004    5.35891E+002    2.09998E+004    7.63000E+004    4.10095E+005    3.54080E+003
            2498    7.43880E+005    4.52503E+005    4.52503E+005    5.42350E+003   -4.06212E+005    8.58715E+005   -1.72380E+004    3.08628E+005    1.43735E+004    4.93495E+003    3.24055E+004    6.98325E+004    4.23533E+005    7.44942E+002
            2499    7.48634E+005    4.42944E+005    4.42944E+005   -7.55746E+002   -4.21402E+005    8.64346E+005   -6.92882E+003    2.68583E+005    5.33671E+003   -4.50563E+002    1.59003E+004    5.84794E+004    4.28164E+005    2.25468E+003
            2500    7.50742E+005    4.49700E+005    4.49700E+005    3.06704E+003   -4.17047E+005    8.66747E+005   -1.19065E+004    2.81933E+005    9.35647E+003    2.99729E+003    2.33658E+004    4.84854E+004    4.30594E+005    8.33403E+002
            2501    7.44073E+005    4.33656E+005    4.33656E+005   -1.38536E+003   -4.25502E+005    8.59158E+005   -2.25645E+003    2.08566E+005   -9.56001E+002   -1.27214E+003    8.99749E+003    3.56791E+004    4.28065E+005    1.11188E+003
            2502    7.40093E+005    4.36257E+005    4.36257E+005    2.09101E+003   -4.18291E+005    8.54548E+005   -6.68559E+003    2.24557E+005    5.96612E+003    2.10880E+003    1.19818E+004    2.20015E+004    4.26697E+005    4.27538E+002
            2503    7.36756E+005    4.23068E+005   -4.27664E+005   -1.64762E+003   -4.27664E+005    8.50732E+005    2.08121E+003   -1.01933E+005   -3.81623E+003   -1.63551E+003   -7.91887E+002    7.27091E+003    4.25301E+005    3.61255E+002
            2504    7.13848E+005    4.26654E+005    4.26654E+005   -3.83004E+003   -3.97351E+005    8.24005E+005   -8.49120E+003    3.04483E+005    1.49397E+004   -2.16575E+003    1.26996E+004    8.52713E+004    4.03076E+005    5.68330E+003
            2505    7.32616E+005    4.47072E+005    4.47072E+005    3.36967E+003   -3.98536E+005    8.45607E+005   -1.73018E+004    3.22729E+005    1.86488E+004    2.68814E+003    3.05686E+004    7.69123E+004    4.15688E+005    6.79033E+002
            2506    7.37030E+005    4.37049E+005    4.37049E+005   -1.15174E+003   -4.13872E+005    8.50921E+005   -7.34155E+003    2.74807E+005    6.99896E+003   -1.17005E+003    1.61957E+004    7.39656E+004    4.18954E+005    1.47980E+003
            2507    7.33145E+005    4.38817E+005    4.38817E+005    1.20781E+003   -4.07583E+005    8.46400E+005   -1.08139E+004    2.85302E+005    1.13605E+004    1.13522E+003    1.99459E+004    6.19159E+004    4.18621E+005    1.14085E+003
            2508    7.27559E+005    4.25237E+005    4.25237E+005   -9.42824E+002   -4.14846E+005    8.40083E+005   -3.14921E+003    2.13607E+005    1.28894E+003   -9.96131E+002    9.15483E+003    4.66420E+004    4.17425E+005    3.25643E+002
            2509    7.23490E+005    4.25703E+005    4.25703E+005    1.13971E+003   -4.09674E+005    8.35377E+005   -5.72309E+003    2.21006E+005    6.28238E+003    1.07669E+003    9.81019E+003    2.88931E+004    4.16684E+005   -1.53647E+002
            2510    7.20858E+005    4.15039E+005   -4.17335E+005   -8.28041E+002   -4.17335E+005    8.32374E+005    1.04121E+003   -7.92892E+004   -2.48169E+003   -8.58592E+002    2.16645E+002    9.93544E+003    4.16066E+005   -6.27311E+002
            2511    7.02598E+005    4.07587E+005    4.07587E+005   -4.31499E+000   -4.03700E+005    8.11287E+005   -1.29401E+003    1.42343E+005    1.24426E+003   -1.53245E+002    2.79101E+003    1.44428E+004    4.05380E+005   -2.03981E+003
            2512    7.06707E+005    4.13416E+005    4.13416E+005    5.66832E+002   -4.02600E+005    8.16016E+005   -3.79438E+003    1.93573E+005    4.74165E+003    1.76875E+002    6.46460E+003    4.09293E+004    4.05943E+005   -1.63588E+003
            2513    7.11732E+005    4.19875E+005    4.19875E+005   -5.95426E+001   -4.01896E+005    8.21771E+005   -5.97294E+003    2.39561E+005    7.02757E+003   -4.77474E+002    1.13687E+004    6.32891E+004    4.05971E+005   -4.48924E+002
            2514    7.16836E+005    4.26330E+005    4.26330E+005   -7.00685E+000   -4.01274E+005    8.27604E+005   -8.34939E+003    2.68307E+005    1.09290E+004   -5.01179E+002    1.46203E+004    8.12821E+004    4.05728E+005    2.33043E+002
            2515    7.20770E+005    4.32211E+005    4.32211E+005   -2.04774E+002   -3.99848E+005    8.32058E+005   -1.07194E+004    2.94419E+005    1.32737E+004   -5.32805E+002    1.94175E+004    9.41085E+004    4.05224E+005    1.57386E+003
            2516    7.33573E+005    4.44288E+005    4.44288E+005    8.86444E+002   -4.02454E+005    8.46742E+005   -1.42399E+004    3.18484E+005    1.83155E+004    2.99171E+002    2.41051E+004    1.00205E+005    4.11314E+005    1.62643E+003
            2517    7.26432E+005    4.42068E+005    4.42068E+005    1.51378E+003   -3.96382E+005    8.38449E+005   -1.57332E+004    3.23093E+005    1.97021E+004    1.19141E+003    2.63060E+004    8.24004E+004    4.11022E+005    1.68403E+003
            2518    7.14957E+005    4.13569E+005    4.13569E+005   -3.78723E+002   -4.11991E+005    8.25560E+005   -3.99986E+002    1.21446E+005   -2.58365E-002   -4.31950E+002    1.63193E+003   -1.10952E+004    4.12629E+005    9.62677E+002
            2519    7.27602E+005    4.18613E+005   -4.21550E+005   -1.10198E+003   -4.21550E+005    8.40162E+005    1.34626E+003   -8.34890E+004   -2.92293E+003   -1.10423E+003   -1.16141E+001   -8.98563E+003    4.19983E+005    4.10310E+001
            2520    7.39919E+005    4.24602E+005   -4.29783E+005   -1.70425E+003   -4.29783E+005    8.54384E+005    2.29508E+003   -1.13331E+005   -4.20850E+003   -1.68553E+003   -9.91211E+002   -7.26226E+003    4.27127E+005   -5.56416E+002
            2521    7.51510E+005    4.31747E+005   -4.36022E+005   -1.44853E+003   -4.36022E+005    8.67769E+005    1.90781E+003   -1.05290E+005   -3.83740E+003   -1.42698E+003   -4.59041E+002   -5.83819E+003    4.33841E+005   -8.06945E+002
            2522    7.60990E+005    4.37090E+005   -4.41625E+005   -1.51548E+003   -4.41625E+005    8.78715E+005    2.01707E+003   -1.09338E+005   -4.13197E+003   -1.50063E+003   -4.18601E+002   -4.10625E+003    4.39334E+005   -7.98938E+002
            2523    7.68143E+005    4.41299E+005   -4.45675E+005   -1.47162E+003   -4.45675E+005    8.86975E+005    1.94911E+003   -1.08232E+005   -4.18899E+003   -1.46437E+003   -1.93979E+002   -2.70043E+003    4.43474E+005   -5.98776E+002
            2524    7.72126E+005    4.43606E+005   -4.47968E+005   -1.40677E+003   -4.47968E+005    8.91574E+005    1.92306E+003   -1.11471E+005   -4.22128E+003   -1.40579E+003   -1.42102E+002   -8.22276E+002    4.45781E+005   -2.65081E+002
            2525    7.72693E+005    4.43897E+005   -4.48332E+005   -1.49861E+003   -4.48332E+005    8.92229E+005    1.97816E+003   -1.08814E+005   -4.16150E+003   -1.49830E+003   -2.74686E+002    5.14832E+002    4.46110E+005    1.37990E+002
            2526    7.69438E+005    4.42098E+005   -4.46372E+005   -1.30838E+003   -4.46372E+005    8.88470E+005    1.86090E+003   -1.13755E+005   -3.90687E+003   -1.30302E+003   -3.72818E+002    2.36141E+003    4.44225E+005    5.06550E+002
            2527    7.17921E+005    4.20649E+005    4.20649E+005    5.12985E+002   -4.08309E+005    8.28958E+005   -4.28431E+003    2.06035E+005    4.21722E+003    3.94754E+002    8.24096E+003   -3.22103E+004    4.13220E+005    4.57024E+002
            2528    7.31347E+005    4.30673E+005    4.30673E+005    1.48679E+003   -4.13775E+005    8.44448E+005   -6.12822E+003    2.23539E+005    5.85673E+003    1.48343E+003    1.10445E+004   -2.59707E+004    4.21416E+005   -2.67244E+002
            2529    7.44711E+005    4.39533E+005    4.39533E+005    2.04104E+003   -4.20341E+005    8.59874E+005   -7.07785E+003    2.32503E+005    6.03369E+003    2.07993E+003    1.31199E+004   -2.12079E+004    4.29399E+005   -6.67277E+002
            2530    7.56638E+005    4.46136E+005    4.46136E+005    1.98625E+003   -4.27514E+005    8.73650E+005   -6.86953E+003    2.32567E+005    4.91616E+003    2.03573E+003    1.36567E+004   -1.64871E+004    4.36491E+005   -8.75459E+002
            2531    7.67010E+005    4.52289E+005    4.52289E+005    2.10669E+003   -4.33337E+005    8.85626E+005   -7.01979E+003    2.35165E+005    4.50942E+003    2.14540E+003    1.44046E+004   -1.21622E+004    4.42618E+005   -8.73342E+002
            2532    7.74335E+005    4.56561E+005    4.56561E+005    2.12652E+003   -4.37523E+005    8.94084E+005   -7.05473E+003    2.36902E+005    4.29544E+003    2.14464E+003    1.47241E+004   -7.25959E+003    4.46952E+005   -6.60223E+002
            2533    7.78446E+005    4.58796E+005    4.58796E+005    2.10266E+003   -4.40036E+005    8.98832E+005   -6.95414E+003    2.36500E+005    3.97816E+003    2.10583E+003    1.47784E+004   -2.76866E+003    4.49375E+005   -2.96314E+002
            2534    7.78551E+005    4.58830E+005    4.58830E+005    2.17827E+003   -4.40125E+005    8.98956E+005   -6.96109E+003    2.35400E+005    3.98522E+003    2.17894E+003    1.47191E+004    2.26064E+003    4.49440E+005    9.76773E+001
            2535    7.74674E+005    4.56292E+005    4.56292E+005    1.97017E+003   -4.38187E+005    8.94479E+005   -6.69201E+003    2.33617E+005    3.84077E+003    1.98289E+003    1.42524E+004    6.63170E+003    4.47160E+005    5.19933E+002
            2536    7.22221E+005    4.24752E+005    4.24752E+005   -5.34703E+002   -4.09142E+005    8.33894E+005   -5.02489E+003    2.35418E+005    4.65186E+003   -6.61797E+002    1.10846E+004   -5.12881E+004    4.13767E+005   -2.07652E+002
            2537    7.36630E+005    4.30671E+005    4.30671E+005   -7.64899E+002   -4.19887E+005    8.50557E+005   -3.33976E+003    2.15600E+005    5.64492E+002   -7.10741E+002    1.01655E+004   -4.18385E+004    4.23188E+005   -8.14221E+002
            2538    7.50625E+005    4.37677E+005    4.37677E+005   -1.50521E+003   -4.29044E+005    8.66721E+005   -2.37620E+003    2.14291E+005   -1.53340E+003   -1.35668E+003    1.00187E+004   -3.40154E+004    4.31984E+005   -1.39683E+003
            2539    7.64457E+005    4.46529E+005    4.46529E+005   -7.64413E+002   -4.36163E+005    8.82693E+005   -3.20045E+003    2.18459E+005   -1.61370E+003   -6.38627E+002    1.18537E+004   -2.68829E+004    4.40474E+005   -1.41553E+003
            2540    7.75804E+005    4.52969E+005    4.52969E+005   -7.49622E+002   -4.42827E+005    8.95796E+005   -3.13099E+003    2.19042E+005   -2.76382E+003   -6.68611E+002    1.28254E+004   -1.92461E+004    4.47415E+005   -1.23356E+003
            2541    7.84320E+005    4.58257E+005    4.58257E+005   -6.02275E+002   -4.47371E+005    9.05627E+005   -3.42793E+003    2.23441E+005   -2.94676E+003   -5.68946E+002    1.37995E+004   -1.17808E+004    4.52582E+005   -8.27593E+002
            2542    7.88414E+005    4.60496E+005    4.60496E+005   -4.69851E+002   -4.49861E+005    9.10357E+005   -3.38841E+003    2.20984E+005   -3.47127E+003   -4.66633E+002    1.41031E+004   -3.58165E+003    4.55080E+005   -2.61759E+002
            2543    7.88047E+005    4.60282E+005    4.60282E+005   -5.97350E+002   -4.49651E+005    9.09933E+005   -3.34424E+003    2.22494E+005   -3.16029E+003   -5.92234E+002    1.37852E+004    4.02479E+003    4.54870E+005    3.52707E+002
            2544    7.82792E+005    4.56987E+005    4.56987E+005   -5.35133E+002   -4.46881E+005    9.03868E+005   -3.19054E+003    2.17384E+005   -2.91809E+003   -4.96326E+002    1.29860E+004    1.21200E+004    4.51701E+005    9.04488E+002
            2545    7.27498E+005    4.33450E+005    4.33450E+005    1.09730E+001   -4.06448E+005    8.39898E+005   -9.00448E+003    2.77674E+005    9.36569E+003   -6.31473E+001    1.77109E+004   -6.72132E+004    4.14511E+005   -1.20694E+003
            2546    7.42802E+005    4.45162E+005    4.45162E+005    2.49409E+003   -4.12401E+005    8.57564E+005   -1.17517E+004    2.84283E+005    1.04809E+004    2.45625E+003    2.23179E+004   -5.52455E+004    4.25165E+005   -1.14269E+003
            2547    7.59126E+005    4.55425E+005    4.55425E+005    2.95592E+003   -4.20983E+005    8.76409E+005   -1.24660E+004    2.91032E+005    9.22072E+003    2.98152E+003    2.51958E+004   -4.55804E+004    4.35753E+005   -1.28568E+003
            2548    7.73919E+005    4.64004E+005    4.64004E+005    3.20675E+003   -4.29493E+005    8.93497E+005   -1.25727E+004    2.93306E+005    7.98943E+003    3.28404E+003    2.64446E+004   -3.56898E+004    4.45224E+005   -1.41352E+003
            2549    7.87336E+005    4.71879E+005    4.71879E+005    3.42938E+003   -4.37115E+005    9.08994E+005   -1.27309E+004    2.96007E+005    6.90357E+003    3.49691E+003    2.77923E+004   -2.60232E+004    4.53630E+005   -1.28735E+003
            2550    7.96784E+005    4.77694E+005    4.77694E+005    3.39009E+003   -4.42203E+005    9.19897E+005   -1.29603E+004    3.01215E+005    6.81352E+003    3.42434E+003    2.86431E+004   -1.50724E+004    4.59572E+005   -9.36183E+002
            2551    8.01523E+005    4.80124E+005    4.80124E+005    3.49994E+003   -4.45255E+005    9.25379E+005   -1.27896E+004    2.99427E+005    6.02202E+003    3.50322E+003    2.88437E+004   -4.22353E+003    4.62530E+005   -2.95418E+002
            2552    8.00095E+005    4.79275E+005    4.79275E+005    3.41165E+003   -4.44454E+005    9.23729E+005   -1.27443E+004    2.99530E+005    6.18983E+003    3.41417E+003    2.86288E+004    7.23485E+003    4.61671E+005    2.78071E+002
            2553    7.93531E+005    4.74823E+005    4.74823E+005    3.19796E+003   -4.41334E+005    9.16157E+005   -1.22288E+004    2.94646E+005    5.81936E+003    3.23065E+003    2.76365E+004    1.75231E+004    4.57613E+005    8.94740E+002
            2554    7.28520E+005    4.35469E+005    4.35469E+005   -5.67319E+002   -4.05562E+005    8.41031E+005   -9.77970E+003    2.91216E+005    1.10340E+004   -7.13140E+002    1.90183E+004   -7.87517E+004    4.13051E+005   -1.48557E+003
            2555    7.44285E+005    4.41924E+005    4.41924E+005   -3.46465E+001   -4.17384E+005    8.59308E+005   -8.16849E+003    2.73424E+005    6.52716E+003    1.71020E+002    1.78073E+004   -6.65872E+004    4.24423E+005   -2.05512E+003
            2556    7.60010E+005    4.50683E+005    4.50683E+005   -7.04508E+002   -4.26780E+005    8.77462E+005   -7.73286E+003    2.79876E+005    4.94494E+003   -3.09626E+002    1.85633E+004   -5.52770E+004    4.35178E+005   -2.77812E+003
            2557    7.77511E+005    4.62464E+005    4.62464E+005    8.03943E+002   -4.35207E+005    8.97671E+005   -9.35376E+003    2.85414E+005    4.78541E+003    1.08401E+003    2.21919E+004   -4.44445E+004    4.46542E+005   -2.47135E+003
            2558    7.92921E+005    4.71661E+005    4.71661E+005    1.20702E+003   -4.43808E+005    9.15469E+005   -9.68693E+003    2.88384E+005    3.23425E+003    1.37626E+003    2.44503E+004   -3.18201E+004    4.56502E+005   -2.02407E+003
            2559    8.04590E+005    4.79278E+005    4.79278E+005    1.48824E+003   -4.49655E+005    9.28933E+005   -1.03702E+004    2.95736E+005    3.15011E+003    1.54644E+003    2.64142E+004   -1.84092E+004    4.63955E+005   -1.22796E+003
            2560    8.09696E+005    4.82120E+005    4.82120E+005    1.84262E+003   -4.52719E+005    9.34838E+005   -1.04146E+004    2.93492E+005    2.31731E+003    1.84497E+003    2.70814E+004   -3.56029E+003    4.67242E+005   -2.50630E+002
            2561    8.07998E+005    4.81091E+005    4.81091E+005    1.44816E+003   -4.51780E+005    9.32871E+005   -1.02532E+004    2.95713E+005    2.75606E+003    1.47015E+003    2.65335E+004    1.08217E+004    4.66158E+005    7.64633E+002
            2562    7.98489E+005    4.74946E+005    4.74946E+005    1.38260E+003   -4.46954E+005    9.21901E+005   -9.79157E+003    2.88924E+005    2.96098E+003    1.49535E+003    2.49184E+004    2.50899E+004    4.60135E+005    1.67564E+003
            2563    7.28126E+005    4.40952E+005    4.40952E+005    6.96633E+002   -3.99498E+005    8.40450E+005   -1.40504E+004    3.16906E+005    1.60630E+004    5.78831E+002    2.55094E+004   -8.70221E+004    4.11079E+005   -2.34991E+003
            2564    7.40706E+005    4.52195E+005    4.52195E+005    5.11124E+003   -4.02799E+005    8.54995E+005   -1.81691E+004    3.18168E+005    1.75295E+004    4.62931E+003    3.23485E+004   -7.42428E+004    4.20923E+005   -1.03872E+003
            2565    7.57072E+005    4.61794E+005    4.61794E+005    5.48908E+003   -4.12112E+005    8.73905E+005   -1.83903E+004    3.21548E+005    1.50931E+004    5.28475E+003    3.47930E+004   -6.44057E+004    4.32060E+005   -1.50018E+003
            2566    7.74661E+005    4.73010E+005    4.73010E+005    5.45646E+003   -4.21179E+005    8.94189E+005   -1.90958E+004    3.32615E+005    1.53757E+004    5.51565E+003    3.63960E+004   -5.20535E+004    4.43926E+005   -2.06683E+003
            2567    7.92385E+005    4.83932E+005    4.83932E+005    6.28408E+003   -4.30735E+005    9.14667E+005   -1.98269E+004    3.36877E+005    1.44569E+004    6.34856E+003    3.86753E+004   -3.82657E+004    4.55567E+005   -1.74439E+003
            2568    8.05928E+005    4.92755E+005    4.92755E+005    6.33933E+003   -4.37527E+005    9.30281E+005   -2.05223E+004    3.45985E+005    1.49740E+004    6.37733E+003    4.02157E+004   -2.11779E+004    4.64486E+005   -1.18907E+003
            2569    8.12204E+005    4.96252E+005    4.96252E+005    6.81349E+003   -4.41297E+005    9.37549E+005   -2.05897E+004    3.44429E+005    1.42146E+004    6.81400E+003    4.07405E+004   -2.76075E+003    4.68579E+005   -1.43559E+002
            2570    8.08868E+005    4.94035E+005    4.94035E+005    6.31502E+003   -4.39654E+005    9.33689E+005   -2.02319E+004    3.44647E+005    1.42108E+004    6.32145E+003    4.01635E+004    1.61094E+004    4.66386E+005    6.77751E+002
            2571    7.98158E+005    4.86587E+005    4.86587E+005    5.82132E+003   -4.34754E+005    9.21342E+005   -1.92181E+004    3.37294E+005    1.33750E+004    5.87791E+003    3.84014E+004    3.28625E+004    4.59325E+005    1.56114E+003
            2572    7.16883E+005    4.34818E+005    4.34818E+005    8.21890E+002   -3.92636E+005    8.27454E+005   -1.43343E+004    3.14867E+005    1.90850E+004    5.73144E+002    2.33449E+004   -8.96410E+004    4.03883E+005   -1.94147E+003
            2573    7.24196E+005    4.37513E+005    4.37513E+005   -1.81536E+002   -3.98407E+005    8.35919E+005   -1.29748E+004    3.14203E+005    1.72730E+004    5.98814E+002    2.10527E+004   -8.22896E+004    4.09772E+005   -4.07504E+003
            2574    7.34592E+005    4.45849E+005    4.45849E+005    2.38219E+003   -4.02086E+005    8.47935E+005   -1.53816E+004    3.15942E+005    1.79006E+004    2.95632E+003    2.52878E+004   -7.23262E+004    4.17734E+005   -3.64096E+003
            2575    7.52417E+005    4.58470E+005    4.58470E+005    4.08420E+003   -4.10035E+005    8.68505E+005   -1.75066E+004    3.24475E+005    1.78710E+004    4.48057E+003    3.01682E+004   -6.20718E+004    4.29746E+005   -3.25593E+003
            2576    7.72348E+005    4.71951E+005    4.71951E+005    6.18271E+003   -4.19580E+005    8.91531E+005   -1.95181E+004    3.29472E+005    1.81774E+004    6.40178E+003    3.39751E+004   -4.53449E+004    4.43381E+005   -2.49223E+003
            2577    7.86882E+005    4.81725E+005    4.81725E+005    7.10377E+003   -4.26580E+005    9.08306E+005   -2.07496E+004    3.36161E+005    1.83730E+004    7.17670E+003    3.66991E+004   -2.44732E+004    4.53400E+005   -1.47440E+003
            2578    7.92911E+005    4.85550E+005    4.85550E+005    7.71245E+003   -4.29728E+005    9.15278E+005   -2.11782E+004    3.36387E+005    1.81034E+004    7.71296E+003    3.77182E+004   -1.31260E+003    4.57532E+005   -1.32334E+002
            2579    7.89845E+005    4.83489E+005    4.83489E+005    7.16512E+003   -4.28239E+005    9.11729E+005   -2.08051E+004    3.36956E+005    1.83063E+004    7.20933E+003    3.68996E+004    2.16334E+004    4.55255E+005    1.17165E+003
            2580    7.76929E+005    4.74392E+005    4.74392E+005    6.18629E+003   -4.22438E+005    8.96830E+005   -1.93799E+004    3.29601E+005    1.74035E+004    6.37200E+003    3.43643E+004    4.30951E+004    4.46257E+005    2.32216E+003
            2581    7.28853E+005    4.57687E+005    4.57687E+005    1.24036E+004   -3.83435E+005    8.41122E+005   -2.88850E+004    3.40099E+005    3.14371E+004    1.23493E+004    4.28686E+004    5.36858E+004    4.17076E+005    1.75148E+003
            2582    7.39967E+005    4.66930E+005    4.66930E+005    1.48203E+004   -3.87017E+005    8.53947E+005   -3.15775E+004    3.45454E+005    3.36711E+004    1.48105E+004    4.62509E+004    2.87117E+004    4.25959E+005    9.87820E+002
            2583    7.44800E+005    4.70737E+005    4.70737E+005    1.56911E+004   -3.88788E+005    8.59525E+005   -3.25466E+004    3.47634E+005    3.43410E+004    1.56911E+004    4.76077E+004    1.02689E+001    4.29712E+005    5.97467E+001
            2584    7.38349E+005    4.66066E+005    4.66066E+005    1.48201E+004   -3.86009E+005    8.52075E+005   -3.16258E+004    3.45281E+005    3.38539E+004    1.48177E+004    4.62058E+004   -2.86422E+004    4.25027E+005   -1.04045E+003
            2585    7.25657E+005    4.56055E+005    4.56055E+005    1.24547E+004   -3.81368E+005    8.37423E+005   -2.90470E+004    3.39860E+005    3.18603E+004    1.23707E+004    4.29099E+004   -5.34706E+004    4.15241E+005   -1.63699E+003
            2586    7.11651E+005    4.44508E+005    4.44508E+005    9.41906E+003   -3.76750E+005    8.21258E+005   -2.57258E+004    3.33536E+005    2.94086E+004    9.16601E+003    3.86029E+004   -7.28055E+004    4.04085E+005   -1.93062E+003
            2587    6.95615E+005    4.31545E+005    4.31545E+005    6.12568E+003   -3.71201E+005    8.02747E+005   -2.21565E+004    3.26642E+005    2.63484E+004    5.50884E+003    3.46124E+004   -8.49639E+004    3.92233E+005   -1.66769E+003
            2588    6.90908E+005    4.26485E+005    4.26485E+005    3.67115E+003   -3.70819E+005    7.97303E+005   -1.97791E+004    3.25682E+005    2.42582E+004    2.81995E+003    3.22591E+004   -8.47338E+004    3.89493E+005   -1.16130E+003
            2589    7.10971E+005    4.36347E+005    4.36347E+005    5.88068E+003   -3.84282E+005    8.20629E+005   -1.93152E+004    3.12530E+005    2.29153E+004    5.15364E+003    2.98768E+004   -9.23341E+004    3.99755E+005   -1.20178E+003
            2590    7.00764E+005    4.06178E+005    4.06178E+005    1.30873E+002   -4.02993E+005    8.09171E+005   -1.10524E+003    1.29129E+005    1.37816E+003   -3.18011E+001    1.96935E+003   -1.45012E+004    4.04319E+005    2.23428E+003
            2591    7.05041E+005    4.12970E+005    4.12970E+005    4.07744E+002   -4.01116E+005    8.14086E+005   -4.08718E+003    2.01897E+005    4.84029E+003   -1.99146E+000    7.42324E+003   -4.19088E+004    4.04872E+005    1.61537E+003
            2592    7.09958E+005    4.18877E+005    4.18877E+005    1.18465E+002   -4.00847E+005    8.19724E+005   -6.04933E+003    2.37813E+005    7.64655E+003   -4.27169E+002    1.09286E+004   -6.49019E+004    4.04680E+005    8.33288E+002
            2593    7.12407E+005    4.24592E+005    4.24592E+005    3.23280E+002   -3.97888E+005    8.22480E+005   -9.00921E+003    2.70664E+005    1.13968E+004   -2.31897E+002    1.58627E+004   -8.27698E+004    4.02809E+005   -2.47065E+002
            2594    7.14249E+005    4.28561E+005    4.28561E+005    4.61446E+002   -3.95980E+005    8.24541E+005   -1.10142E+004    2.89288E+005    1.43834E+004   -2.19213E+002    1.88784E+004   -9.48461E+004    4.01191E+005   -7.39810E+002
            2595    7.12860E+005    4.31884E+005    4.31884E+005    2.23791E+003   -3.90987E+005    8.22872E+005   -1.43782E+004    3.02708E+005    1.81135E+004    1.52070E+003    2.35003E+004   -1.00845E+005    3.98858E+005   -1.27293E+003
            2596    7.16678E+005    4.37010E+005    4.37010E+005    4.19720E+003   -3.90241E+005    8.27252E+005   -1.69888E+004    3.09117E+005    2.12523E+004    3.26836E+003    2.64457E+004   -1.04047E+005    4.00293E+005   -1.10925E+003
            2597    7.00148E+005    3.96391E+005   -4.12043E+005   -1.99198E+003   -4.12043E+005    8.08434E+005    5.88112E+003   -2.04708E+005   -6.20624E+003   -1.90235E+003   -9.53477E+003   -9.53669E+003    4.04096E+005   -1.80776E+003
            2598    7.15343E+005    4.04298E+005   -4.21665E+005   -1.24197E+003   -4.21665E+005    8.25962E+005    6.20296E+003   -2.25207E+005   -5.83130E+003   -1.27273E+003   -1.15048E+004   -6.99339E+003    4.12911E+005    9.95530E+002
            2599    7.28611E+005    4.11995E+005   -4.29300E+005   -2.25254E+003   -4.29300E+005    8.41295E+005    6.51924E+003   -2.16812E+005   -4.67392E+003   -2.30351E+003   -1.25803E+004   -5.33740E+003    4.20590E+005    2.07576E+003
            2600    7.39068E+005    4.17912E+005   -4.35449E+005   -1.54862E+003   -4.35449E+005    8.53361E+005    6.36217E+003   -2.27858E+005   -4.06943E+003   -1.58330E+003   -1.34338E+004   -3.50764E+003    4.26635E+005    2.16130E+003
            2601    7.02663E+005    3.93968E+005   -4.17262E+005    1.18382E+003   -4.17262E+005    8.11230E+005    7.36996E+003   -2.66823E+005   -4.01385E+003    1.35409E+003   -1.94501E+004   -2.79817E+004    4.04572E+005   -5.16478E+002
            2602    7.17964E+005    4.03823E+005   -4.25112E+005    4.45533E+002   -4.25112E+005    8.28934E+005    6.94772E+003   -2.57853E+005   -2.59270E+002    3.40779E+002   -2.09247E+004   -2.12874E+004    4.13790E+005    1.56782E+003
            2603    7.31797E+005    4.11493E+005   -4.33403E+005    9.19342E+002   -4.33403E+005    8.44896E+005    6.99687E+003   -2.67169E+005    1.52297E+003    7.44663E+002   -2.32582E+004   -1.58221E+004    4.21963E+005    2.78240E+003
            2604    7.43399E+005    4.17774E+005   -4.40530E+005   -5.62279E+001   -4.40530E+005    8.58304E+005    7.60429E+003   -2.65737E+005    2.97309E+003   -1.72322E+002   -2.56136E+004   -1.13306E+004    4.28758E+005    2.53316E+003
            2605    7.10257E+005    3.81122E+005   -4.38464E+005   -2.72496E+003   -4.38464E+005    8.19586E+005    2.00224E+004   -3.39691E+005   -1.83228E+004   -2.48737E+003   -3.92570E+004   -4.50297E+004    4.07168E+005    9.50011E+002
            2606    7.26310E+005    3.90280E+005   -4.47832E+005   -2.28002E+003   -4.47832E+005    8.38112E+005    1.99438E+004   -3.47208E+005   -1.35516E+004   -2.44729E+003   -4.38325E+004   -3.42596E+004    4.17375E+005    2.72445E+003
            2607    7.41394E+005    3.98796E+005   -4.56814E+005   -4.22834E+003   -4.56814E+005    8.55609E+005    2.07488E+004   -3.44267E+005   -9.67136E+003   -4.43817E+003   -4.81370E+004   -2.62295E+004    4.26562E+005    3.05625E+003
            2608    7.54057E+005    4.05619E+005   -4.64586E+005   -3.78307E+003   -4.64586E+005    8.70205E+005    2.09166E+004   -3.52424E+005   -7.01884E+003   -3.97119E+003   -5.17599E+004   -1.85790E+004    4.34123E+005    3.22470E+003
            2609    7.14226E+005    3.80179E+005   -4.43646E+005    1.49181E+003   -4.43646E+005    8.23825E+005    2.06583E+004   -3.70114E+005   -1.75012E+004    1.55618E+003   -4.60298E+004   -5.95302E+004    4.07323E+005    3.25777E+003
            2610    7.30142E+005    3.90049E+005   -4.52321E+005   -8.64605E+002   -4.52321E+005    8.42371E+005    2.10455E+004   -3.64186E+005   -1.19445E+004   -1.13393E+003   -5.00581E+004   -4.70328E+004    4.18108E+005    3.96466E+003
            2611    7.45393E+005    3.98193E+005   -4.61811E+005   -1.70835E+003   -4.61811E+005    8.60003E+005    2.17755E+004   -3.68559E+005   -8.08935E+003   -2.16509E+003   -5.50719E+004   -3.61633E+004    4.27821E+005    4.95706E+003
            2612    7.60945E+005    4.05454E+005   -4.72505E+005   -3.04992E+003   -4.72505E+005    8.77959E+005    2.33670E+004   -3.75218E+005   -5.33450E+003   -3.40410E+003   -6.13624E+004   -2.75933E+004    4.37202E+005    4.64608E+003
            2613    7.26055E+005    3.66460E+005   -4.70153E+005   -4.78128E+003   -4.70153E+005    8.36613E+005    3.61578E+004   -4.19861E+005   -3.62025E+004   -4.08367E+003   -6.81874E+004   -7.06317E+004    4.11935E+005    3.43185E+003
            2614    7.37750E+005    3.74721E+005   -4.75595E+005   -5.74120E+003   -4.75595E+005    8.50316E+005    3.55385E+004   -4.17214E+005   -2.85968E+004   -5.72880E+003   -7.22899E+004   -5.58581E+004    4.20883E+005    4.37905E+003
            2615    7.54266E+005    3.83222E+005   -4.86299E+005   -8.31940E+003   -4.86299E+005    8.69521E+005    3.71324E+004   -4.18776E+005   -2.38938E+004   -8.68147E+003   -7.88218E+004   -4.67443E+004    4.31350E+005    5.49246E+003
            2616    7.71933E+005    3.91265E+005   -4.98554E+005   -8.40950E+003   -4.98554E+005    8.89819E+005    3.85661E+004   -4.31771E+005   -2.11084E+004   -8.78914E+003   -8.58009E+004   -3.55445E+004    4.42292E+005    5.47197E+003
            2617    7.14439E+005    3.61936E+005   -4.61094E+005   -7.09014E+002   -4.61094E+005    8.23031E+005    3.32890E+004   -4.20525E+005   -3.64034E+004   -7.92268E+001   -6.33844E+004   -7.37240E+004    4.04574E+005    4.01578E+003
            2618    7.26065E+005    3.66464E+005   -4.70110E+005   -4.08543E+003   -4.70110E+005    8.36574E+005    3.59103E+004   -4.21832E+005   -3.45036E+004   -4.96536E+003   -6.82620E+004   -6.76750E+004    4.12404E+005    7.95041E+003
            2619    7.45531E+005    3.73428E+005   -4.85490E+005   -5.91829E+003   -4.85490E+005    8.58918E+005    3.93266E+004   -4.36306E+005   -3.16522E+004   -6.78346E+003   -7.95443E+004   -5.63858E+004    4.25040E+005    8.14592E+003
            2620    7.65089E+005    3.80187E+005   -5.01296E+005   -9.55696E+003   -5.01296E+005    8.81484E+005    4.35554E+004   -4.46517E+005   -3.05054E+004   -1.02657E+004   -8.98950E+004   -4.66932E+004    4.37229E+005    7.60860E+003
            2621    7.11997E+005    3.39623E+005   -4.80067E+005   -1.52614E+004   -4.80067E+005    8.19690E+005    5.19019E+004   -4.36069E+005   -5.62307E+004   -1.28615E+004   -8.66135E+004   -7.97368E+004    4.01555E+005    1.15163E+003
            2622    7.17319E+005    3.42672E+005   -4.82534E+005   -8.10378E+003   -4.82534E+005    8.25206E+005    4.93217E+004   -4.55477E+005   -5.06359E+004   -7.73535E+003   -8.95939E+004   -7.28741E+004    4.05571E+005    6.34651E+003
            2623    7.31676E+005    3.45594E+005   -4.96285E+005   -1.38695E+004   -4.96285E+005    8.41879E+005    5.48536E+004   -4.60737E+005   -5.36498E+004   -1.37520E+004   -9.71591E+004   -6.92169E+004    4.14577E+005    6.63850E+003
            2624    7.54955E+005    3.52685E+005   -5.15920E+005   -1.75750E+004   -5.15920E+005    8.68605E+005    6.02702E+004   -4.76887E+005   -5.47142E+004   -1.78655E+004   -1.08231E+005   -5.72379E+004    4.29644E+005    7.14742E+003
            2625    7.09007E+005    3.14255E+005   -5.00733E+005   -2.58809E+004   -5.00733E+005    8.14988E+005    7.07865E+004   -4.64714E+005   -8.16586E+004   -2.56450E+004   -1.05056E+005   -7.09832E+004    4.01022E+005    6.39936E+003
            2626    6.95951E+005    3.17053E+005   -4.82787E+005   -1.54878E+004   -4.82787E+005    7.99840E+005    6.04072E+004   -4.58966E+005   -7.45006E+004   -1.45534E+004   -9.21675E+004   -8.35611E+004    3.90864E+005    6.10960E+003
            2627    6.75123E+005    3.15158E+005   -4.60825E+005   -8.19343E+003   -4.60825E+005    7.75983E+005    5.12868E+004   -4.43625E+005   -6.78742E+004   -6.28307E+003   -7.97031E+004   -8.96185E+004    3.77258E+005    4.61206E+003
            2628    6.71028E+005    3.17111E+005   -4.53140E+005    4.88457E+003   -4.53140E+005    7.70251E+005    4.37151E+004   -4.59353E+005   -6.38672E+004    5.72902E+003   -7.30071E+004   -7.45172E+004    3.77695E+005    5.66323E+003
            2629    6.82801E+005    3.89036E+005   -3.99371E+005    1.27410E+002   -3.99371E+005    7.88407E+005    3.40234E+003   -1.94911E+005   -4.28330E+003    5.52757E+002   -6.47647E+003   -1.33057E+004    3.93926E+005   -6.16764E+003
            2630    6.87639E+005    3.80597E+005   -4.13239E+005   -1.62396E+003   -4.13239E+005    7.93836E+005    1.14220E+004   -2.75171E+005   -1.28320E+004   -4.99481E+002   -2.09346E+004   -3.92366E+004    3.94903E+005   -4.68362E+003
            2631    6.93845E+005    3.73923E+005   -4.26651E+005    6.73411E+002   -4.26651E+005    8.00575E+005    1.73516E+004   -3.39035E+005   -2.17884E+004    1.94175E+003   -3.22082E+004   -6.12459E+004    3.95492E+005   -1.52868E+003
            2632    7.01333E+005    3.66552E+005   -4.42110E+005   -1.39181E+002   -4.42110E+005    8.08662E+005    2.52325E+004   -3.81050E+005   -3.09690E+004    1.22397E+003   -4.59524E+004   -7.84763E+004    3.96503E+005    1.12157E+003
            2633    7.07690E+005    3.59270E+005   -4.55810E+005    2.31819E+003   -4.55810E+005    8.15080E+005    3.14074E+004   -4.22633E+005   -4.13376E+004    3.16218E+003   -5.60469E+004   -9.05522E+004    3.97200E+005    4.84601E+003
            2634    7.22727E+005    3.54212E+005   -4.77654E+005   -3.97336E+003   -4.77654E+005    8.31866E+005    4.24717E+004   -4.47676E+005   -5.17367E+004   -2.70261E+003   -7.29758E+004   -9.57868E+004    4.04483E+005    5.56041E+003
            2635    7.18407E+005    3.41103E+005   -4.84565E+005   -2.35505E+003   -4.84565E+005    8.25668E+005    4.86057E+004   -4.73383E+005   -6.18042E+004   -1.70831E+003   -8.23046E+004   -7.76270E+004    4.05240E+005    6.05285E+003
            2636    7.24507E+005    3.13165E+005   -5.19598E+005   -3.40024E+004   -5.19598E+005    8.32762E+005    8.01451E+004   -4.75731E+005   -8.86622E+004   -3.41126E+004   -1.17661E+005   -5.21397E+004    4.12818E+005    5.74959E+003
            2637    7.35937E+005    3.12690E+005   -5.33319E+005   -4.09966E+004   -5.33319E+005    8.46009E+005    8.72085E+004   -4.81016E+005   -9.34209E+004   -4.10505E+004   -1.27154E+005   -2.83112E+004    4.21710E+005    3.30729E+003
            2638    7.41409E+005    3.12788E+005   -5.39519E+005   -4.36020E+004   -5.39519E+005    8.52307E+005    9.01111E+004   -4.84436E+005   -9.55368E+004   -4.36019E+004   -1.31194E+005   -6.30752E+002    4.25780E+005    2.24987E+001
            2639    7.35310E+005    3.12117E+005   -5.33135E+005   -4.09222E+004   -5.33135E+005    8.45252E+005    8.73133E+004   -4.81345E+005   -9.37778E+004   -4.10066E+004   -1.27155E+005    2.75113E+004    4.21392E+005   -3.47242E+003
            2640    7.21550E+005    3.11135E+005   -5.18204E+005   -3.43743E+004   -5.18204E+005    8.29338E+005    8.04811E+004   -4.74300E+005   -8.94105E+004   -3.44799E+004   -1.17553E+005    5.19042E+004    4.11137E+005   -5.69921E+003
            2641    7.06063E+005    3.12238E+005   -4.99188E+005   -2.48032E+004   -4.99188E+005    8.11426E+005    7.05846E+004   -4.66328E+005   -8.25878E+004   -2.46745E+004   -1.04491E+005    7.07347E+004    3.99281E+005   -6.75244E+003
            2642    6.88271E+005    3.12086E+005   -4.78844E+005   -1.60081E+004   -4.78844E+005    7.90931E+005    6.09220E+004   -4.55522E+005   -7.60085E+004   -1.52234E+004   -9.15340E+004    8.23282E+004    3.86603E+005   -6.29261E+003
            2643    6.81836E+005    3.16030E+005   -4.67203E+005   -6.23521E+003   -4.67203E+005    7.83233E+005    5.24692E+004   -4.56913E+005   -6.98319E+004   -5.51676E+003   -8.20589E+004    8.12154E+004    3.82934E+005   -6.44504E+003
            2644    7.04319E+005    3.28918E+005   -4.80060E+005   -3.24219E+003   -4.80060E+005    8.08977E+005    5.14615E+004   -4.73450E+005   -6.90591E+004   -3.10093E+003   -8.22244E+004    8.78338E+004    3.94677E+005   -8.55123E+003
            2645    7.73234E+005    3.56073E+005   -5.33570E+005   -2.32375E+004   -5.33570E+005    8.89644E+005    6.69115E+004   -4.88233E+005   -5.88728E+004   -2.34384E+004   -1.18423E+005   -4.12905E+004    4.41880E+005    5.53358E+003
            2646    7.84325E+005    3.86946E+005   -5.16631E+005   -1.16741E+004   -5.16631E+005    9.03577E+005    4.71196E+004   -4.60291E+005   -3.03271E+004   -1.20236E+004   -9.90081E+004   -3.17027E+004    4.49351E+005    5.55820E+003
            2647    7.86412E+005    3.96861E+005   -5.09631E+005   -1.00407E+004   -5.09631E+005    9.06493E+005    4.09370E+004   -4.40692E+005   -2.03045E+004   -1.02260E+004   -9.22805E+004   -2.39428E+004    4.51173E+005    3.92867E+003
            2648    7.73192E+005    4.11056E+005   -4.80995E+005   -3.19293E+003   -4.80995E+005    8.92051E+005    2.43774E+004   -3.84540E+005   -3.55368E+003   -3.35788E+003   -6.62205E+004   -1.68528E+004    4.44597E+005    3.37029E+003
            2649    7.63564E+005    4.09837E+005   -4.71339E+005   -4.71644E+003   -4.71339E+005    8.81175E+005    2.20728E+004   -3.56913E+005   -6.06405E+003   -4.78933E+003   -5.53649E+004   -1.14161E+004    4.39747E+005    2.06136E+003
            2650    7.51125E+005    4.22093E+005   -4.45121E+005    4.28889E+002   -4.45121E+005    8.67214E+005    7.53305E+003   -2.72376E+005    4.14772E+003    3.81165E+002   -2.71280E+004   -6.36351E+003    4.33275E+005    1.82569E+003
            2651    7.46037E+005    4.21558E+005   -4.39856E+005   -2.30707E+003   -4.39856E+005    8.61414E+005    6.86837E+003   -2.25212E+005   -4.02700E+003   -2.32108E+003   -1.42570E+004   -2.21217E+003    4.30669E+005    1.39569E+003
            2652    7.86834E+005    3.59324E+005   -5.45932E+005   -2.62892E+004   -5.45932E+005    9.05256E+005    7.09656E+004   -4.97674E+005   -6.08081E+004   -2.63833E+004   -1.25705E+005   -2.11402E+004    4.50963E+005    3.33715E+003
            2653    7.95421E+005    3.90635E+005   -5.25762E+005   -1.41177E+004   -5.25762E+005    9.16397E+005    4.97484E+004   -4.65446E+005   -3.01427E+004   -1.41950E+004   -1.04908E+005   -1.54971E+004    4.56405E+005    2.68027E+003
            2654    7.95962E+005    4.00751E+005   -5.16717E+005   -1.06183E+004   -5.16717E+005    9.17469E+005    4.21947E+004   -4.47474E+005   -1.97641E+004   -1.06564E+004   -9.61635E+004   -1.01733E+004    4.57026E+005    1.80699E+003
            2655    7.80184E+005    4.14066E+005   -4.86054E+005   -3.97253E+003   -4.86054E+005    9.00120E+005    2.53203E+004   -3.87847E+005   -2.40045E+003   -3.99596E+003   -6.95644E+004   -6.82340E+003    4.48753E+005    1.26907E+003
            2656    7.68257E+005    4.12183E+005   -4.74390E+005   -4.46103E+003   -4.74390E+005    8.86573E+005    2.22226E+004   -3.61135E+005   -5.29387E+003   -4.46950E+003   -5.69043E+004   -3.66150E+003    4.42519E+005    7.28767E+002
            2657    7.54853E+005    4.23986E+005   -4.47536E+005   -1.32688E+001   -4.47536E+005    8.71523E+005    7.85442E+003   -2.71889E+005    4.73584E+003   -1.73834E+001   -2.82817E+004   -2.14929E+003    4.35443E+005    4.86264E+002
            2658    7.49000E+005    4.23217E+005   -4.41612E+005   -1.88469E+003   -4.41612E+005    8.64830E+005    6.75991E+003   -2.30872E+005   -3.93681E+003   -1.88540E+003   -1.44575E+004   -4.47954E+002    4.32383E+005    3.47977E+002
            2659    7.90413E+005    3.59321E+005   -5.50002E+005   -2.74980E+004   -5.50002E+005    9.09322E+005    7.27263E+004   -5.01204E+005   -6.25151E+004   -2.74996E+004   -1.28164E+005    1.19938E+003    4.53473E+005   -4.38562E+002
            2660    7.98791E+005    3.91256E+005   -5.28961E+005   -1.43732E+004   -5.28961E+005    9.20217E+005    5.06925E+004   -4.69719E+005   -3.09521E+004   -1.43778E+004   -1.06748E+005    3.01164E+003    4.58535E+005   -6.51210E+002
            2661    7.97598E+005    4.00590E+005   -5.18714E+005   -1.08614E+004   -5.18714E+005    9.19304E+005    4.29950E+004   -4.50685E+005   -2.06834E+004   -1.08718E+004   -9.74298E+004    3.95972E+003    4.58030E+005   -9.76638E+002
            2662    7.81260E+005    4.14154E+005   -4.87174E+005   -3.74625E+003   -4.87174E+005    9.01328E+005    2.55886E+004   -3.91166E+005   -2.70713E+003   -3.75849E+003   -7.03003E+004    4.54110E+003    4.49372E+005   -9.41788E+002
            2663    7.68291E+005    4.11687E+005   -4.74913E+005   -4.64846E+003   -4.74913E+005    8.86600E+005    2.26245E+004   -3.62589E+005   -5.80753E+003   -4.66138E+003   -5.74047E+004    3.71402E+003    4.42532E+005   -9.91569E+002
            2664    7.54584E+005    4.23756E+005   -4.47451E+005    2.55135E+002   -4.47451E+005    8.71206E+005    7.81321E+003   -2.74423E+005    4.71621E+003    2.45620E+002   -2.84015E+004    2.73257E+003    4.35279E+005   -8.46941E+002
            2665    7.48453E+005    4.22796E+005   -4.41405E+005   -2.16121E+003   -4.41405E+005    8.64200E+005    6.92340E+003   -2.28963E+005   -4.10105E+003   -2.16416E+003   -1.45050E+004    7.82640E+002    4.32067E+005   -8.28122E+002
            2666    7.84034E+005    3.57201E+005   -5.44794E+005   -2.66192E+004   -5.44794E+005    9.01995E+005    7.14043E+004   -4.96876E+005   -6.20729E+004   -2.67348E+004   -1.25405E+005    2.37122E+004    4.49252E+005   -3.70655E+003
            2667    7.92231E+005    3.88713E+005   -5.23968E+005   -1.38609E+004   -5.23968E+005    9.12681E+005    4.97055E+004   -4.65109E+005   -3.09728E+004   -1.40289E+004   -1.04115E+005    2.09536E+004    4.54383E+005   -3.90207E+003
            2668    7.91887E+005    3.98091E+005   -5.14656E+005   -1.08057E+004   -5.14656E+005    9.12747E+005    4.24570E+004   -4.46287E+005   -2.10448E+004   -1.09395E+004   -9.53867E+004    1.83283E+004    4.54483E+005   -3.36381E+003
            2669    7.76056E+005    4.11737E+005   -4.83604E+005   -3.73560E+003   -4.83604E+005    8.95341E+005    2.52011E+004   -3.87181E+005   -3.17548E+003   -3.86523E+003   -6.85625E+004    1.49761E+004    4.46218E+005   -3.01898E+003
            2670    7.63902E+005    4.09527E+005   -4.72014E+005   -4.57445E+003   -4.72014E+005    8.81540E+005    2.23538E+004   -3.59887E+005   -6.20610E+003   -4.66233E+003   -5.61930E+004    1.14830E+004    4.39907E+005   -2.35720E+003
            2671    7.50451E+005    4.21569E+005   -4.44868E+005    2.42332E+002   -4.44868E+005    8.66437E+005    7.68567E+003   -2.71827E+005    4.41246E+003    1.83738E+002   -2.76532E+004    6.95077E+003    4.32862E+005   -2.04668E+003
            2672    7.44565E+005    4.20632E+005   -4.39078E+005   -2.06372E+003   -4.39078E+005    8.59709E+005    6.83649E+003   -2.28338E+005   -4.25811E+003   -2.08369E+003   -1.41677E+004    2.45073E+003    4.29816E+005   -1.78921E+003
            2673    7.68977E+005    3.53002E+005   -5.31606E+005   -2.27617E+004   -5.31606E+005    8.84608E+005    6.71217E+004   -4.88905E+005   -6.04449E+004   -2.30827E+004   -1.17837E+005    4.39252E+004    4.39159E+005   -6.36922E+003
            2674    7.77442E+005    3.82594E+005   -5.12996E+005   -1.17737E+004   -5.12996E+005    8.95590E+005    4.73918E+004   -4.58309E+005   -3.24212E+004   -1.22810E+004   -9.74731E+004    3.76890E+004    4.45000E+005   -6.62395E+003
            2675    7.79973E+005    3.92393E+005   -5.06580E+005   -9.72956E+003   -5.06580E+005    8.98974E+005    4.13057E+004   -4.41432E+005   -2.29521E+004   -1.00565E+004   -9.09084E+004    3.09786E+004    4.47116E+005   -5.17164E+003
            2676    7.65735E+005    4.06634E+005   -4.76790E+005   -3.12343E+003   -4.76790E+005    8.83424E+005    2.44264E+004   -3.82766E+005   -5.24575E+003   -3.44030E+003   -6.45930E+004    2.53840E+004    4.39971E+005   -4.51936E+003
            2677    7.55583E+005    4.04952E+005   -4.66973E+005   -4.25633E+003   -4.66973E+005    8.71925E+005    2.20926E+004   -3.57644E+005   -7.94145E+003   -4.44498E+003   -5.38914E+004    1.83134E+004    4.34965E+005   -3.28558E+003
            2678    7.43094E+005    4.17587E+005   -4.40357E+005    3.75845E+002   -4.40357E+005    8.57943E+005    7.46472E+003   -2.69051E+005    3.45819E+003    2.44964E+002   -2.60973E+004    1.14845E+004    4.28556E+005   -2.79533E+003
            2679    7.37849E+005    4.16811E+005   -4.35144E+005   -2.00705E+003   -4.35144E+005    8.51955E+005    6.77986E+003   -2.26963E+005   -4.63788E+003   -2.04558E+003   -1.36561E+004    3.59126E+003    4.25932E+005   -2.33827E+003
            2680    7.47873E+005    3.46964E+005   -5.13385E+005   -1.86887E+004   -5.13385E+005    8.60350E+005    6.17032E+004   -4.75026E+005   -5.83637E+004   -1.89866E+004   -1.07759E+005    5.98452E+004    4.25234E+005   -7.34773E+003
            2681    7.58739E+005    3.76338E+005   -4.97752E+005   -9.14548E+003   -4.97752E+005    8.74091E+005    4.35198E+004   -4.45639E+005   -3.25849E+004   -9.94076E+003   -8.80336E+004    5.07565E+004    4.33174E+005   -8.01624E+003
            2682    7.64167E+005    3.85782E+005   -4.95021E+005   -8.89468E+003   -4.95021E+005    8.80803E+005    3.93777E+004   -4.30384E+005   -2.43640E+004   -9.31625E+003   -8.44527E+004    4.28503E+004    4.37264E+005   -5.85413E+003
            2683    7.52013E+005    4.00380E+005   -4.67215E+005   -2.04247E+003   -4.67215E+005    8.67594E+005    2.29591E+004   -3.75880E+005   -7.17395E+003   -2.49563E+003   -5.92077E+004    3.43996E+004    4.31634E+005   -5.12104E+003
            2684    7.44531E+005    3.99428E+005   -4.59749E+005   -3.94556E+003   -4.59749E+005    8.59177E+005    2.14223E+004   -3.51755E+005   -9.54310E+003   -4.20702E+003   -5.05168E+004    2.53766E+004    4.28342E+005   -3.58632E+003
            2685    7.33155E+005    4.12301E+005   -4.34166E+005    7.75302E+002   -4.34166E+005    8.46467E+005    7.02984E+003   -2.66244E+005    2.28017E+003    5.96506E+002   -2.39662E+004    1.54168E+004    4.22741E+005   -2.90206E+003
            2686    7.28876E+005    4.11772E+005   -4.29823E+005   -2.05506E+003   -4.29823E+005    8.41596E+005    6.70203E+003   -2.23124E+005   -5.01184E+003   -2.10914E+003   -1.29851E+004    5.08367E+003    4.20742E+005   -2.30701E+003
            2687    7.29864E+005    3.42863E+005   -4.96736E+005   -1.36351E+004   -4.96736E+005    8.39598E+005    5.58360E+004   -4.64387E+005   -5.60658E+004   -1.36723E+004   -9.77699E+004    6.92753E+004    4.13459E+005   -7.19539E+003
            2688    7.39594E+005    3.69113E+005   -4.82916E+005   -6.55336E+003   -4.82916E+005    8.52029E+005    4.01187E+004   -4.34643E+005   -3.52514E+004   -7.44363E+003   -7.76612E+004    6.23820E+004    4.20860E+005   -8.27589E+003
            2689    7.47858E+005    3.77531E+005   -4.84403E+005   -7.67231E+003   -4.84403E+005    8.61934E+005    3.81817E+004   -4.24330E+005   -2.81505E+004   -7.88711E+003   -7.85074E+004    5.22580E+004    4.27025E+005   -5.21740E+003
            2690    7.37010E+005    3.93018E+005   -4.57259E+005   -1.20584E+003   -4.57259E+005    8.50277E+005    2.18155E+004   -3.69037E+005   -1.02181E+004   -1.69212E+003   -5.35364E+004    4.34116E+004    4.22349E+005   -5.05494E+003
            2691    7.31874E+005    3.92160E+005   -4.52377E+005   -3.51634E+003   -4.52377E+005    8.44537E+005    2.12443E+004   -3.49403E+005   -1.29823E+004   -3.73035E+003   -4.70204E+004    3.16085E+004    4.20735E+005   -3.05849E+003
            2692    7.21813E+005    4.06214E+005   -4.27161E+005    8.72708E+002   -4.27161E+005    8.33375E+005    6.69172E+003   -2.60754E+005    1.01813E+003    7.03913E+002   -2.17972E+004    1.97684E+004    4.16058E+005   -2.31483E+003
            2693    7.18193E+005    4.05517E+005   -4.23739E+005   -1.90057E+003   -4.23739E+005    8.29256E+005    6.70771E+003   -2.23447E+005   -6.07319E+003   -1.94398E+003   -1.21060E+004    6.31283E+003    4.14567E+005   -1.50462E+003
            2694    7.19403E+005    3.40701E+005   -4.87126E+005   -1.34766E+004   -4.87126E+005    8.27826E+005    5.33005E+004   -4.51263E+005   -5.68992E+004   -1.25239E+004   -9.04784E+004    7.81269E+004    4.06024E+005   -5.00015E+003
            2695    7.23292E+005    3.63499E+005   -4.69665E+005   -2.78428E+003   -4.69665E+005    8.33164E+005    3.63169E+004   -4.28055E+005   -3.61103E+004   -3.12419E+003   -6.97162E+004    7.17487E+004    4.09976E+005   -6.84153E+003
            2696    7.32092E+005    3.69981E+005   -4.73639E+005   -5.05914E+003   -4.73639E+005    8.43620E+005    3.62389E+004   -4.21323E+005   -3.21643E+004   -5.06772E+003   -7.14848E+004    6.35090E+004    4.16507E+005   -5.10548E+003
            2697    7.22256E+005    3.84692E+005   -4.48461E+005    4.59968E+002   -4.48461E+005    8.33153E+005    2.11029E+004   -3.69584E+005   -1.43330E+004    2.44800E+002   -4.92206E+004    5.24763E+004    4.12879E+005   -4.00545E+003
            2698    7.18391E+005    3.85452E+005   -4.43501E+005   -2.30236E+003   -4.43501E+005    8.28953E+005    2.01171E+004   -3.45651E+005   -1.54666E+004   -2.38006E+003   -4.25047E+004    3.93928E+004    4.12375E+005   -2.32780E+003
            2699    7.09796E+005    3.98482E+005   -4.20997E+005    1.05253E+003   -4.20997E+005    8.19478E+005    7.15417E+003   -2.64946E+005   -2.05038E+003    1.03128E+003   -2.04434E+004    2.42288E+004    4.08918E+005   -8.16199E+002
            2700    7.06601E+005    3.99617E+005   -4.16259E+005   -1.65122E+003   -4.16259E+005    8.15876E+005    6.09787E+003   -2.15368E+005   -5.88473E+003   -1.64349E+003   -1.07654E+004    8.19496E+003    4.07848E+005    1.00752E+002
            2701    7.08457E+005    3.39604E+005   -4.75441E+005   -7.19510E+003   -4.75441E+005    8.15045E+005    4.76773E+004   -4.49031E+005   -5.64719E+004   -5.73821E+003   -8.08218E+004    8.54353E+004    3.98141E+005   -4.59799E+003
            2702    7.15048E+005    3.54578E+005   -4.68874E+005   -4.82553E+003   -4.68874E+005    8.23452E+005    3.97072E+004   -4.30318E+005   -4.46870E+004   -3.99489E+003   -7.04397E+004    8.27922E+004    4.03028E+005   -4.76377E+003
            2703    7.14757E+005    3.63378E+005   -4.60233E+005   -2.31807E+003   -4.60233E+005    8.23611E+005    3.30575E+004   -4.12670E+005   -3.47301E+004   -1.78369E+003   -6.26588E+004    7.51011E+004    4.04606E+005   -4.18715E+003
            2704    7.09859E+005    3.73439E+005   -4.45233E+005   -7.80985E+002   -4.45233E+005    8.18671E+005    2.41918E+004   -3.75420E+005   -2.34638E+004   -3.51330E+002   -4.87601E+004    6.36643E+004    4.04130E+005   -2.42717E+003
            2705    7.04007E+005    3.79613E+005   -4.32759E+005   -7.83289E+002   -4.32759E+005    8.12372E+005    1.79762E+004   -3.37013E+005   -1.69831E+004   -4.19390E+002   -3.65262E+004    4.85430E+004    4.03144E+005   -6.46406E+002
            2706    6.97897E+005    3.88393E+005   -4.17308E+005   -4.97020E+002   -4.17308E+005    8.05701E+005    9.80408E+003   -2.73186E+005   -8.12533E+003   -1.34314E+002   -2.11526E+004    3.02903E+004    4.01647E+005    1.62268E+003
            2707    6.94600E+005    3.95254E+005   -4.06777E+005   -3.95723E+002   -4.06777E+005    8.02031E+005    3.97298E+003   -1.98031E+005   -3.89110E+003   -2.45041E+002   -7.78280E+003    1.03116E+004    4.00867E+005    2.83004E+003
            2708    6.81376E+005    3.87351E+005   -3.99412E+005   -8.83247E+002   -3.99412E+005    7.86763E+005    4.31452E+003   -1.92813E+005   -4.81329E+003   -4.02938E+002   -7.72734E+003    1.39826E+004    3.93071E+005    6.61254E+003
            2709    6.86138E+005    3.80007E+005   -4.12066E+005   -1.88430E+002   -4.12066E+005    7.92073E+005    1.07490E+004   -2.81711E+005   -1.31329E+004    1.01171E+003   -2.01256E+004    4.01690E+004    3.93923E+005    4.84875E+003
            2710    6.92630E+005    3.71683E+005   -4.27455E+005   -1.18435E+002   -4.27455E+005    7.99138E+005    1.86302E+004   -3.41647E+005   -2.29747E+004    1.43853E+003   -3.43545E+004    6.20976E+004    3.94610E+005    2.22603E+003
            2711    6.96882E+005    3.64404E+005   -4.39003E+005    2.03584E+003   -4.39003E+005    8.03407E+005    2.41879E+004   -3.84999E+005   -3.17114E+004    3.52875E+003   -4.43811E+004    7.89730E+004    3.93735E+005   -9.71522E+002
            2712    7.01132E+005    3.54320E+005   -4.53186E+005    9.33839E+002   -4.53186E+005    8.07506E+005    3.26439E+004   -4.19394E+005   -4.26720E+004    2.55372E+003   -5.78135E+004    9.05472E+004    3.93276E+005   -3.31010E+003
            2713    7.00966E+005    3.45594E+005   -4.61150E+005   -9.62742E+002   -4.61150E+005    8.06743E+005    3.88395E+004   -4.36234E+005   -5.21650E+004    6.17433E+002   -6.49709E+004    9.68621E+004    3.91370E+005   -4.81246E+003
            2714    7.08728E+005    3.37941E+005   -4.76795E+005   -2.72365E+003   -4.76795E+005    8.14736E+005    4.71924E+004   -4.63115E+005   -6.22535E+004   -2.52042E+003   -7.68031E+004    9.94676E+004    3.94851E+005   -9.00017E+003
            2715    6.71543E+005    4.53437E+005    4.53437E+005   -5.23493E+003   -3.17365E+005    7.70802E+005   -4.36122E+004    4.60345E+005    6.37711E+004   -6.02490E+003    7.30903E+004    7.37331E+004    3.78133E+005    5.72798E+003
            2716    6.74069E+005    4.59860E+005    4.59860E+005    7.79604E+003   -3.14896E+005    7.74756E+005   -5.09201E+004    4.43260E+005    6.76041E+004    5.85066E+003    7.93056E+004    8.92373E+004    3.76716E+005    4.50524E+003
            2717    6.95383E+005    4.82146E+005    4.82146E+005    1.51985E+004   -3.17037E+005    7.99183E+005   -6.01025E+004    4.58662E+005    7.42097E+004    1.42416E+004    9.18561E+004    8.37874E+004    3.90478E+005    6.09430E+003
            2718    7.08624E+005    5.00343E+005    5.00343E+005    2.58486E+004   -3.14217E+005    8.14559E+005   -7.06582E+004    4.64221E+005    8.15242E+004    2.55800E+004    1.04870E+005    7.10584E+004    4.00791E+005    6.30717E+003
            2719    7.55094E+005    5.15648E+005    5.15648E+005    1.73629E+004   -3.53133E+005    8.68781E+005   -5.99590E+004    4.76584E+005    5.42509E+004    1.76570E+004    1.07969E+005    5.73367E+004    4.29713E+005    7.16543E+003
            2720    7.64893E+005    5.00741E+005    5.00741E+005    9.40511E+003   -3.80539E+005    8.81280E+005   -4.32023E+004    4.45568E+005    3.00856E+004    1.01093E+004    8.94119E+004    4.65107E+004    4.37148E+005    7.56611E+003
            2721    7.71773E+005    4.97984E+005    4.97984E+005    8.29724E+003   -3.91676E+005    8.89660E+005   -3.82015E+004    4.30515E+005    2.06563E+004    8.66993E+003    8.52781E+004    3.53191E+004    4.42233E+005    5.40751E+003
            2722    7.60571E+005    4.71893E+005    4.71893E+005    2.95998E+003   -4.05647E+005    8.77541E+005   -2.30687E+004    3.73813E+005    5.09183E+003    3.30642E+003    6.08078E+004    2.72810E+004    4.37022E+005    4.58053E+003
            2723    7.53797E+005    4.64241E+005    4.64241E+005    3.77754E+003   -4.05670E+005    8.69911E+005   -2.07826E+004    3.51462E+005    6.98865E+003    3.96113E+003    5.13979E+004    1.83749E+004    4.33993E+005    3.17641E+003
            2724    7.43047E+005    4.40061E+005    4.40061E+005    4.86424E+001   -4.17841E+005    8.57902E+005   -7.42268E+003    2.63597E+005   -3.04544E+003    1.64339E+002    2.51491E+004    1.12469E+004    4.28566E+005    2.53255E+003
            2725    7.39044E+005    4.35330E+005    4.35330E+005    1.57107E+003   -4.18005E+005    8.53335E+005   -6.29854E+003    2.26487E+005    4.07862E+003    1.60514E+003    1.32119E+004    3.45520E+003    4.26624E+005    2.15467E+003
            2726    7.31351E+005    4.95682E+005    4.95682E+005    1.36758E+004   -3.45844E+005    8.41526E+005   -5.45044E+004    4.60027E+005    5.31715E+004    1.35869E+004    9.67548E+004    6.90908E+004    4.14418E+005    6.69480E+003
            2727    7.45483E+005    4.85037E+005    4.85037E+005    5.77157E+003   -3.73847E+005    8.58885E+005   -3.89872E+004    4.35457E+005    3.12344E+004    6.64551E+003    7.90818E+004    5.63554E+004    4.25028E+005    8.15709E+003
            2728    7.53741E+005    4.85370E+005    4.85370E+005    8.14776E+003   -3.83574E+005    8.68945E+005   -3.66481E+004    4.17074E+005    2.33734E+004    8.50322E+003    7.80676E+004    4.65156E+004    4.31092E+005    5.42110E+003
            2729    7.45013E+005    4.61154E+005    4.61154E+005    1.59773E+003   -3.98425E+005    8.59580E+005   -2.14422E+004    3.67072E+005    7.83011E+003    2.05440E+003    5.44422E+004    3.58374E+004    4.27646E+005    4.93899E+003
            2730    7.41168E+005    4.56454E+005    4.56454E+005    4.20963E+003   -3.98902E+005    8.55356E+005   -2.05870E+004    3.43203E+005    9.55061E+003    4.41364E+003    4.77969E+004    2.59734E+004    4.26456E+005    3.00216E+003
            2731    7.31596E+005    4.33083E+005    4.33083E+005   -9.31063E+002   -4.11583E+005    8.44666E+005   -6.85641E+003    2.65665E+005   -1.59505E+003   -7.60835E+002    2.29251E+004    1.56172E+004    4.21860E+005    2.74055E+003
            2732    7.28519E+005    4.29141E+005    4.29141E+005    2.26500E+003   -4.12049E+005    8.41190E+005   -6.45231E+003    2.15441E+005    4.66720E+003    2.31450E+003    1.23752E+004    5.21914E+003    4.20540E+005    2.05918E+003
            2733    7.17301E+005    4.82427E+005    4.82427E+005    8.02485E+003   -3.42760E+005    8.25187E+005   -4.92305E+004    4.55425E+005    5.05484E+004    7.66325E+003    8.94798E+004    7.27547E+004    4.05584E+005    6.34816E+003
            2734    7.25809E+005    4.69743E+005    4.69743E+005    4.17292E+003   -3.66558E+005    8.36301E+005   -3.57861E+004    4.20806E+005    3.43702E+004    4.98242E+003    6.80057E+004    6.76159E+004    4.12279E+005    7.70655E+003
            2735    7.37460E+005    4.74980E+005    4.74980E+005    5.58083E+003   -3.75021E+005    8.50001E+005   -3.51798E+004    4.16186E+005    2.82095E+004    5.56331E+003    7.17666E+004    5.56039E+004    4.20761E+005    4.31654E+003
            2736    7.29684E+005    4.51661E+005    4.51661E+005    8.09775E+002   -3.90197E+005    8.41858E+005   -2.07580E+004    3.62636E+005    1.16899E+004    1.06440E+003    4.95198E+004    4.67687E+004    4.17886E+005    3.86403E+003
            2737    7.26251E+005    4.47707E+005    4.47707E+005    2.28890E+003   -3.90342E+005    8.38049E+005   -1.98846E+004    3.46744E+005    1.35299E+004    2.46070E+003    4.36632E+004    3.40638E+004    4.17362E+005    2.74107E+003
            2738    7.17747E+005    4.24907E+005    4.24907E+005   -4.32797E+002   -4.03779E+005    8.28686E+005   -6.89837E+003    2.57078E+005    2.32802E+002   -3.29906E+002    2.07922E+004    2.12323E+004    4.13669E+005    1.54703E+003
            2739    7.15198E+005    4.21526E+005    4.21526E+005    1.25159E+003   -4.04270E+005    8.25796E+005   -6.16895E+003    2.24515E+005    5.81915E+003    1.28215E+003    1.14055E+004    6.87093E+003    4.12830E+005    1.00327E+003
            2740    7.11697E+005    4.79922E+005    4.79922E+005    1.53926E+004   -3.39430E+005    8.19353E+005   -5.19616E+004    4.35667E+005    5.63708E+004    1.29732E+004    8.65409E+004    7.97937E+004    4.01375E+005    1.09805E+003
            2741    7.14738E+005    4.61481E+005    4.61481E+005    8.45721E+002   -3.61890E+005    8.23371E+005   -3.34788E+004    4.20869E+005    3.65333E+004    2.07350E+002    6.36958E+004    7.37251E+004    4.04744E+005    4.00544E+003
            2742    7.25744E+005    4.69674E+005    4.69674E+005    4.69478E+003   -3.66595E+005    8.36269E+005   -3.59248E+004    4.19093E+005    3.59423E+004    4.00363E+003    6.78285E+004    7.06572E+004    4.11759E+005    3.43274E+003
            2743    7.13876E+005    4.43214E+005    4.43214E+005   -1.53078E+003   -3.80216E+005    8.23430E+005   -2.04889E+004    3.69269E+005    1.73560E+004   -1.59318E+003    4.57038E+004    5.93339E+004    4.07155E+005    3.23285E+003
            2744    7.09948E+005    4.38035E+005    4.38035E+005    2.73370E+003   -3.81206E+005    8.19241E+005   -1.98540E+004    3.38434E+005    1.81378E+004    2.49433E+003    3.89300E+004    4.47038E+004    4.07033E+005    9.01977E+002
            2745    7.02523E+005    4.17067E+005    4.17067E+005   -1.20185E+003   -3.94004E+005    8.11071E+005   -7.28678E+003    2.66110E+005    3.90077E+003   -1.37505E+003    1.93346E+004    2.77024E+004    4.04511E+005   -5.60431E+002
            2746    7.00181E+005    4.12127E+005    4.12127E+005    2.00363E+003   -3.96343E+005    8.08471E+005   -5.92932E+003    2.05354E+005    6.24238E+003    1.91341E+003    9.63216E+003    9.53322E+003    4.04115E+005   -1.81988E+003
            2747    6.82805E+005    3.99589E+005    3.99589E+005   -1.07478E+002   -3.88821E+005    7.88410E+005   -3.55333E+003    1.97295E+005    4.47072E+003   -5.50867E+002    6.74014E+003    1.39076E+004    3.93907E+005   -6.14119E+003
            2748    6.87733E+005    4.13360E+005    4.13360E+005    1.65389E+003   -3.80583E+005    7.93943E+005   -1.14768E+004    2.75428E+005    1.28985E+004    5.19312E+002    2.10126E+004    3.93996E+004    3.94940E+005   -4.70494E+003
            2749    6.93836E+005    4.26559E+005    4.26559E+005   -6.73859E+002   -3.74009E+005    8.00568E+005   -1.72919E+004    3.38662E+005    2.17001E+004   -1.93894E+003    3.21147E+004    6.08662E+004    3.95547E+005   -1.56750E+003
            2750    7.01195E+005    4.41873E+005    4.41873E+005    1.42629E+002   -3.66640E+005    8.08513E+005   -2.51251E+004    3.80443E+005    3.08033E+004   -1.23933E+003    4.58114E+004    7.80611E+004    3.96509E+005    1.01738E+003
            2751    7.07134E+005    4.55179E+005    4.55179E+005   -2.38159E+003   -3.59278E+005    8.14457E+005   -3.11731E+004    4.21705E+005    4.10903E+004   -3.23993E+003    5.56691E+004    9.02943E+004    3.96941E+005    4.75984E+003
            2752    7.21946E+005    4.76953E+005    4.76953E+005    3.83961E+003   -3.54018E+005    8.30971E+005   -4.22581E+004    4.47046E+005    5.15731E+004    2.54945E+003    7.26518E+004    9.58693E+004    4.04005E+005    5.51949E+003
            2753    7.19075E+005    4.85014E+005    4.85014E+005    2.31144E+003   -3.41416E+005    8.26430E+005   -4.86367E+004    4.73928E+005    6.17937E+004    1.66228E+003    8.24541E+004    7.82928E+004    4.05496E+005    6.13991E+003
            2754    6.94483E+005    4.06850E+005    4.06850E+005    4.07538E+002   -3.95044E+005    8.01894E+005   -4.07116E+003    1.99589E+005    3.99234E+003    2.50357E+002    7.97080E+003   -1.07016E+004    4.00788E+005    2.83846E+003
            2755    7.06495E+005    4.16428E+005    4.16428E+005    1.63849E+003   -3.99323E+005    8.15751E+005   -6.24777E+003    2.17939E+005    5.96888E+003    1.62885E+003    1.11456E+004   -8.63484E+003    4.07776E+005    1.27056E+002
            2756    7.18127E+005    4.23991E+005    4.23991E+005    1.87346E+003   -4.05185E+005    8.29176E+005   -6.89299E+003    2.26676E+005    6.09752E+003    1.92087E+003    1.26606E+004   -6.83385E+003    4.14516E+005   -1.52826E+003
            2757    7.29025E+005    4.30270E+005    4.30270E+005    2.03218E+003   -4.11493E+005    8.41763E+005   -6.93636E+003    2.27196E+005    5.02081E+003    2.09125E+003    1.36970E+004   -5.54353E+003    4.20817E+005   -2.32188E+003
            2758    7.37954E+005    4.35512E+005    4.35512E+005    1.99308E+003   -4.16560E+005    8.52072E+005   -6.98180E+003    2.30356E+005    4.60776E+003    2.03523E+003    1.43024E+004   -3.88869E+003    4.25984E+005   -2.36879E+003
            2759    7.44710E+005    4.39393E+005    4.39393E+005    2.06430E+003   -4.20482E+005    8.59875E+005   -6.99205E+003    2.30813E+005    4.24120E+003    2.08536E+003    1.46496E+004   -2.57597E+003    4.29895E+005   -1.79790E+003
            2760    7.48464E+005    4.41523E+005    4.41523E+005    2.16715E+003   -4.22688E+005    8.64212E+005   -7.00077E+003    2.30104E+005    4.08722E+003    2.17020E+003    1.47449E+004   -7.96962E+002    4.32071E+005   -8.39434E+002
            2761    7.49029E+005    4.41630E+005    4.41630E+005    1.89199E+003   -4.23232E+005    8.64863E+005   -6.76322E+003    2.30815E+005    3.91632E+003    1.89273E+003    1.44806E+004    4.70651E+002    4.32399E+005    3.46079E+002
            2762    7.45963E+005    4.39757E+005    4.39757E+005    2.32616E+003   -4.21571E+005    8.61328E+005   -6.83764E+003    2.24374E+005    4.03984E+003    2.34018E+003    1.41329E+004    2.21241E+003    4.30627E+005    1.39557E+003
            2763    6.97857E+005    4.17532E+005    4.17532E+005    5.01074E+002   -3.88117E+005    8.05649E+005   -9.97200E+003    2.74768E+005    8.31067E+003    1.31091E+002    2.14742E+004   -3.08378E+004    4.01578E+005    1.60047E+003
            2764    7.09846E+005    4.21471E+005    4.21471E+005   -1.04163E+003   -3.98056E+005    8.19527E+005   -7.45749E+003    2.68067E+005    2.32258E+003   -1.01847E+003    2.10684E+004   -2.49239E+004    4.08897E+005   -8.63916E+002
            2765    7.22226E+005    4.28039E+005    4.28039E+005   -8.20740E+002   -4.05801E+005    8.33841E+005   -7.13904E+003    2.65318E+005   -7.29389E+002   -6.45718E+002    2.27922E+004   -2.04493E+004    4.16248E+005   -2.36133E+003
            2766    7.33702E+005    4.35106E+005    4.35106E+005   -7.07561E+002   -4.11981E+005    8.47088E+005   -7.47236E+003    2.70570E+005   -2.08034E+003   -5.23518E+002    2.50209E+004   -1.59258E+004    4.23020E+005   -2.92818E+003
            2767    7.43708E+005    4.41220E+005    4.41220E+005   -3.20038E+002   -4.17424E+005    8.58644E+005   -7.82536E+003    2.72641E+005   -3.36408E+003   -1.88595E+002    2.70288E+004   -1.17367E+004    4.28885E+005   -2.77456E+003
            2768    7.50821E+005    4.45407E+005    4.45407E+005   -2.02994E+002   -4.21453E+005    8.66860E+005   -7.91705E+003    2.74093E+005   -4.37823E+003   -1.45277E+002    2.82747E+004   -7.00808E+003    4.33062E+005   -2.01205E+003
            2769    7.54796E+005    4.47706E+005    4.47706E+005   -2.41158E+002   -4.23744E+005    8.71449E+005   -7.90689E+003    2.75375E+005   -4.72641E+003   -2.32305E+002    2.86794E+004   -2.67385E+003    4.35396E+005   -8.08850E+002
            2770    7.54793E+005    4.47512E+005    4.47512E+005    3.80962E+001   -4.23942E+005    8.71454E+005   -7.86908E+003    2.71757E+005   -4.70629E+003    4.27091E+001    2.82708E+004    2.24280E+003    4.35409E+005    5.20141E+002
            2771    7.50906E+005    4.44815E+005    4.44815E+005   -4.48904E+002   -4.22149E+005    8.66964E+005   -7.40588E+003    2.71097E+005   -4.20220E+003   -3.99519E+002    2.68194E+004    6.42026E+003    4.33154E+005    1.86659E+003
            2772    7.04112E+005    4.33144E+005    4.33144E+005    7.49940E+002   -3.79334E+005    8.12478E+005   -1.81865E+004    3.38625E+005    1.72439E+004    3.82009E+002    3.69337E+004   -4.92206E+004    4.03113E+005   -7.08127E+002
            2773    7.18849E+005    4.44270E+005    4.44270E+005    2.30321E+003   -3.85189E+005    8.29459E+005   -2.04614E+004    3.47997E+005    1.57564E+004    2.38402E+003    4.32436E+004   -4.01539E+004    4.12548E+005   -2.40855E+003
            2774    7.32736E+005    4.53499E+005    4.53499E+005    3.53966E+003   -3.92008E+005    8.45507E+005   -2.16769E+004    3.52338E+005    1.31841E+004    3.76585E+003    4.80807E+004   -3.23082E+004    4.21151E+005   -3.18273E+003
            2775    7.45726E+005    4.61130E+005    4.61130E+005    4.02180E+003   -3.99402E+005    8.60532E+005   -2.19164E+004    3.54906E+005    9.73160E+003    4.29092E+003    5.17266E+004   -2.57438E+004    4.28974E+005   -3.67376E+003
            2776    7.56594E+005    4.68111E+005    4.68111E+005    4.34289E+003   -4.04962E+005    8.73073E+005   -2.24975E+004    3.60074E+005    8.05572E+003    4.53254E+003    5.49043E+004   -1.83644E+004    4.35514E+005   -3.31511E+003
            2777    7.64607E+005    4.72800E+005    4.72800E+005    4.65200E+003   -4.09543E+005    8.82343E+005   -2.26363E+004    3.61482E+005    6.31943E+003    4.73690E+003    5.68524E+004   -1.13010E+004    4.40299E+005   -2.32390E+003
            2778    7.68444E+005    4.75126E+005    4.75126E+005    4.69501E+003   -4.11647E+005    8.86773E+005   -2.27249E+004    3.62998E+005    5.84793E+003    4.70648E+003    5.76202E+004   -3.47052E+003    4.42616E+005   -9.38843E+002
            2779    7.68093E+005    4.74225E+005    4.74225E+005    4.47566E+003   -4.12163E+005    8.86387E+005   -2.21793E+004    3.60692E+005    5.30394E+003    4.48508E+003    5.67488E+004    3.88125E+003    4.42429E+005    7.66149E+002
            2780    7.63083E+005    4.70869E+005    4.70869E+005    4.73402E+003   -4.09759E+005    8.80628E+005   -2.19478E+004    3.55786E+005    6.06333E+003    4.80845E+003    5.49716E+004    1.15081E+004    4.39481E+005    2.07903E+003
            2781    7.10371E+005    4.46049E+005    4.46049E+005    8.27413E+002   -3.73185E+005    8.19234E+005   -2.45638E+004    3.77323E+005    2.38720E+004    4.05059E+002    4.94143E+004   -6.42410E+004    4.04320E+005   -2.54277E+003
            2782    7.23210E+005    4.49826E+005    4.49826E+005   -3.43609E+002   -3.84392E+005    8.34218E+005   -2.16970E+004    3.72607E+005    1.48388E+004   -1.14713E+002    5.03669E+004   -5.31447E+004    4.13316E+005   -4.15225E+003
            2783    7.38543E+005    4.59126E+005    4.59126E+005    1.44992E+003   -3.92886E+005    8.52012E+005   -2.25635E+004    3.72523E+005    1.06993E+004    1.94342E+003    5.50477E+004   -4.38140E+004    4.23153E+005   -5.15796E+003
            2784    7.53573E+005    4.68938E+005    4.68938E+005    2.25614E+003   -4.00428E+005    8.69366E+005   -2.35889E+004    3.78868E+005    7.47996E+003    2.70565E+003    6.05812E+004   -3.44434E+004    4.32488E+005   -5.14471E+003
            2785    7.67067E+005    4.78103E+005    4.78103E+005    3.28250E+003   -4.06842E+005    8.84945E+005   -2.48477E+004    3.84769E+005    5.38664E+003    3.58779E+003    6.55686E+004   -2.50467E+004    4.40726E+005   -4.45592E+003
            2786    7.76683E+005    4.84137E+005    4.84137E+005    3.78976E+003   -4.11922E+005    8.96059E+005   -2.53347E+004    3.87865E+005    3.13251E+003    3.90960E+003    6.89621E+004   -1.44933E+004    4.46579E+005   -2.90382E+003
            2787    7.81381E+005    4.87168E+005    4.87168E+005    3.72811E+003   -4.14302E+005    9.01470E+005   -2.55313E+004    3.90974E+005    2.60308E+003    3.73800E+003    7.02529E+004   -4.10604E+003    4.49445E+005   -8.45241E+002
            2788    7.79726E+005    4.85486E+005    4.85486E+005    3.91600E+003   -4.14116E+005    8.99602E+005   -2.50953E+004    3.86677E+005    2.21392E+003    3.94246E+003    6.91296E+004    7.11362E+003    4.48498E+005    1.35119E+003
            2789    7.72781E+005    4.80321E+005    4.80321E+005    3.07475E+003   -4.11270E+005    8.91592E+005   -2.40419E+004    3.83091E+005    3.27516E+003    3.23891E+003    6.56115E+004    1.68242E+004    4.44380E+005    3.35192E+003
            2790    7.15202E+005    4.60983E+005    4.60983E+005    2.44085E+003   -3.63114E+005    8.24097E+005   -3.34368E+004    4.13974E+005    3.51576E+004    1.89957E+003    6.32532E+004   -7.54139E+004    4.04792E+005   -4.23935E+003
            2791    7.33035E+005    4.74993E+005    4.74993E+005    5.33303E+003   -3.69677E+005    8.44670E+005   -3.68828E+004    4.23330E+005    3.27927E+004    5.35872E+003    7.24971E+004   -6.37710E+004    4.16989E+005   -5.23299E+003
            2792    7.49278E+005    4.86207E+005    4.86207E+005    7.98909E+003   -3.77320E+005    8.63527E+005   -3.89587E+004    4.26974E+005    2.87875E+004    8.22903E+003    7.98597E+004   -5.23273E+004    4.27799E+005   -5.38178E+003
            2793    7.65851E+005    4.96868E+005    4.96868E+005    9.19615E+003   -3.85841E+005    8.82710E+005   -4.00743E+004    4.32856E+005    2.48315E+004    9.62480E+003    8.57667E+004   -4.24921E+004    4.38229E+005   -5.92355E+003
            2794    7.81218E+005    5.07831E+005    5.07831E+005    9.94359E+003   -3.92560E+005    9.00391E+005   -4.17381E+004    4.42910E+005    2.31864E+004    1.02617E+004    9.17663E+004   -3.03574E+004    4.47848E+005   -5.11978E+003
            2795    7.92593E+005    5.15222E+005    5.15222E+005    1.09063E+004   -3.98337E+005    9.13560E+005   -4.25972E+004    4.46738E+005    2.10591E+004    1.10307E+004    9.57018E+004   -1.76202E+004    4.54906E+005   -3.24752E+003
            2796    7.97539E+005    5.18509E+005    5.18509E+005    1.08309E+004   -4.00737E+005    9.19246E+005   -4.28675E+004    4.50213E+005    2.05063E+004    1.08397E+004    9.72566E+004   -3.47364E+003    4.58004E+005   -9.03477E+002
            2797    7.95725E+005    5.16222E+005    5.16222E+005    1.04902E+004   -4.00990E+005    9.17211E+005   -4.19074E+004    4.46639E+005    1.94519E+004    1.05300E+004    9.57404E+004    1.04105E+004    4.56896E+005    1.84609E+003
            2798    7.86090E+005    5.09022E+005    5.09022E+005    9.88541E+003   -3.97116E+005    9.06138E+005   -4.05970E+004    4.39699E+005    1.99249E+004    1.00678E+004    9.17984E+004    2.38540E+004    4.51004E+005    3.89025E+003
            2799    7.15376E+005    4.69436E+005    4.69436E+005    4.99250E+003   -3.54379E+005    8.23814E+005   -4.00165E+004    4.31027E+005    4.50017E+004    4.18575E+003    7.08620E+004   -8.28457E+004    4.03200E+005   -4.84984E+003
            2800    7.23931E+005    4.70682E+005    4.70682E+005    3.09122E+003   -3.63193E+005    8.33875E+005   -3.68601E+004    4.29299E+005    3.65904E+004    3.45823E+003    7.05318E+004   -7.18256E+004    4.10317E+005   -6.96449E+003
            2801    7.40682E+005    4.84158E+005    4.84158E+005    6.89947E+003   -3.69108E+005    8.53266E+005   -4.06496E+004    4.35859E+005    3.55876E+004    7.80041E+003    7.85609E+004   -6.20863E+004    4.21515E+005   -8.33866E+003
            2802    7.59892E+005    4.98818E+005    4.98818E+005    9.39940E+003   -3.76596E+005    8.75414E+005   -4.38740E+004    4.46521E+005    3.27327E+004    1.01911E+004    8.86981E+004   -5.02435E+004    4.33885E+005   -8.01050E+003
            2803    7.78438E+005    5.13554E+005    5.13554E+005    1.18081E+004   -3.83194E+005    8.96748E+005   -4.73894E+004    4.58547E+005    3.21777E+004    1.23030E+004    9.76874E+004   -3.69354E+004    4.45629E+005   -6.54466E+003
            2804    7.92643E+005    5.23812E+005    5.23812E+005    1.37150E+004   -3.89365E+005    9.13177E+005   -4.93875E+004    4.64535E+005    3.04363E+004    1.38795E+004    1.03847E+005   -2.04132E+004    4.54646E+005   -3.85515E+003
            2805    7.99124E+005    5.28518E+005    5.28518E+005    1.40192E+004   -3.92107E+005    9.20625E+005   -5.01435E+004    4.69018E+005    3.01871E+004    1.40231E+004    1.06220E+005   -2.68060E+003    4.58732E+005   -6.06172E+002
            2806    7.95500E+005    5.25270E+005    5.25270E+005    1.38731E+004   -3.91243E+005    9.16513E+005   -4.93002E+004    4.64600E+005    2.95348E+004    1.39492E+004    1.04417E+005    1.56408E+004    4.56453E+005    2.66166E+003
            2807    7.84272E+005    5.16148E+005    5.16148E+005    1.14711E+004   -3.87389E+005    9.03537E+005   -4.67435E+004    4.59529E+005    2.98141E+004    1.18217E+004    9.85948E+004    3.16774E+004    4.49328E+005    5.55786E+003
            2808    7.08708E+005    4.75711E+005    4.75711E+005    7.28346E+003   -3.39621E+005    8.15332E+005   -4.77913E+004    4.49231E+005    5.65524E+004    5.86656E+003    8.09549E+004   -8.57430E+004    3.98222E+005   -4.73245E+003
            2809    7.19966E+005    4.87912E+005    4.87912E+005    1.36657E+004   -3.40539E+005    8.28451E+005   -5.36798E+004    4.52205E+005    5.72637E+004    1.27586E+004    9.10171E+004   -7.79215E+004    4.06380E+005   -5.11670E+003
            2810    7.30528E+005    4.97586E+005    4.97586E+005    1.39250E+004   -3.42764E+005    8.40350E+005   -5.62489E+004    4.65114E+005    5.64019E+004    1.39750E+004    9.83699E+004   -6.89353E+004    4.13891E+005   -7.21804E+003
            2811    7.48709E+005    5.14101E+005    5.14101E+005    1.89254E+004   -3.47218E+005    8.61319E+005   -6.19363E+004    4.75370E+005    5.84155E+004    1.92380E+004    1.08155E+005   -5.92582E+004    4.25798E+005   -7.35280E+003
            2812    7.69639E+005    5.31825E+005    5.31825E+005    2.26923E+004   -3.53561E+005    8.85385E+005   -6.69854E+004    4.88947E+005    6.00741E+004    2.30113E+004    1.17871E+005   -4.34717E+004    4.39583E+005   -6.32847E+003
            2813    7.84784E+005    5.44770E+005    5.44770E+005    2.63678E+004   -3.58116E+005    9.02887E+005   -7.10073E+004    4.96667E+005    6.13761E+004    2.64844E+004    1.25161E+005   -2.34428E+004    4.49698E+005   -3.69678E+003
            2814    7.91036E+005    5.49706E+005    5.49706E+005    2.70601E+004   -3.60361E+005    9.10067E+005   -7.21350E+004    5.00913E+005    6.15776E+004    2.70620E+004    1.27765E+005   -1.29849E+003    4.53826E+005   -4.61946E+002
            2815    7.87542E+005    5.45823E+005    5.45823E+005    2.59655E+004   -3.60275E+005    9.06098E+005   -7.05043E+004    4.97474E+005    6.00313E+004    2.60557E+004    1.25426E+005    2.07810E+004    4.51384E+005    3.27229E+003
            2816    7.73688E+005    5.33429E+005    5.33429E+005    2.29550E+004   -3.56754E+005    8.90182E+005   -6.65433E+004    4.88112E+005    5.82652E+004    2.31587E+004    1.18206E+005    4.12208E+004    4.42144E+005    5.54319E+003
            2817    7.25051E+005    5.19924E+005    5.19924E+005    3.40974E+004   -3.13479E+005    8.33403E+005   -8.01806E+004    4.75772E+005    8.85301E+004    3.42108E+004    1.17801E+005    5.19127E+004    4.13166E+005    5.73952E+003
            2818    7.36925E+005    5.33845E+005    5.33845E+005    4.09795E+004   -3.13313E+005    8.47159E+005   -8.71704E+004    4.81381E+005    9.31946E+004    4.10323E+004    1.27284E+005    2.77494E+004    4.22317E+005    3.25075E+003
            2819    7.42102E+005    5.39745E+005    5.39745E+005    4.34474E+004   -3.13368E+005    8.53113E+005   -8.99416E+004    4.84690E+005    9.51731E+004    4.34474E+004    1.31204E+005    4.73897E+001    4.26176E+005   -1.34064E+001
            2820    7.35303E+005    5.32888E+005    5.32888E+005    4.06592E+004   -3.12353E+005    8.45242E+005   -8.70646E+004    4.81391E+005    9.34652E+004    4.07470E+004    1.26982E+005   -2.77341E+004    4.21369E+005   -3.51853E+003
            2821    7.21736E+005    5.18197E+005    5.18197E+005    3.41825E+004   -3.11348E+005    8.29544E+005   -8.03439E+004    4.74565E+005    8.91855E+004    3.42933E+004    1.17553E+005   -5.16340E+004    4.11271E+005   -5.70503E+003
            2822    7.06478E+005    4.99606E+005    4.99606E+005    2.48008E+004   -3.12280E+005    8.11886E+005   -7.07090E+004    4.66933E+005    8.26601E+004    2.46961E+004    1.04771E+005   -7.02669E+004    3.99596E+005   -6.78974E+003
            2823    6.88902E+005    4.79625E+005    4.79625E+005    1.62462E+004   -3.12017E+005    7.91642E+005   -6.12849E+004    4.56215E+005    7.62824E+004    1.55118E+004    9.20606E+004   -8.18401E+004    3.87070E+005   -6.36938E+003
            2824    6.82570E+005    4.68142E+005    4.68142E+005    6.68179E+003   -3.15935E+005    7.84076E+005   -5.29630E+004    4.57397E+005    7.02304E+004    6.00217E+003    8.26565E+004   -8.12711E+004    3.83354E+005   -6.54683E+003
            2825    7.04499E+005    4.80199E+005    4.80199E+005    3.68004E+003   -3.29039E+005    8.09238E+005   -5.16132E+004    4.72620E+005    6.89703E+004    3.53504E+003    8.23341E+004   -8.82254E+004    3.94721E+005   -8.54487E+003
            2826    6.81160E+005    3.99311E+005    3.99311E+005    8.84457E+002   -3.87202E+005    7.86513E+005   -4.33090E+003    1.93056E+005    4.82118E+003    4.05582E+002    7.76593E+003   -1.39588E+004    3.92947E+005    6.60122E+003
            2827    6.86063E+005    4.12049E+005    4.12049E+005    1.79504E+002   -3.79937E+005    7.91986E+005   -1.07637E+004    2.81901E+005    1.31677E+004   -1.03045E+003    2.01538E+004   -4.03469E+004    3.93861E+005    4.86305E+003
            2828    6.92590E+005    4.27555E+005    4.27555E+005    1.35941E+002   -3.71531E+005    7.99086E+005   -1.87200E+004    3.42076E+005    2.31164E+004   -1.42140E+003    3.44649E+004   -6.24076E+004    3.94535E+005    2.18042E+003
            2829    6.96757E+005    4.39169E+005    4.39169E+005   -2.08890E+003   -3.64073E+005    8.03242E+005   -2.43355E+004    3.85923E+005    3.19742E+004   -3.58164E+003    4.46140E+004   -7.95434E+004    3.93536E+005   -1.06585E+003
            2830    7.01541E+005    4.53784E+005    4.53784E+005   -8.31549E+002   -3.54173E+005    8.07957E+005   -3.29264E+004    4.20296E+005    4.30322E+004   -2.44878E+003    5.81957E+004   -9.10822E+004    3.93383E+005   -3.40660E+003
            2831    7.01358E+005    4.61723E+005    4.61723E+005    1.08819E+003   -3.45452E+005    8.07175E+005   -3.91197E+004    4.36981E+005    5.24736E+004   -4.68565E+002    6.53541E+004   -9.68800E+004    3.91588E+005   -4.88752E+003
            2832    7.08492E+005    4.76793E+005    4.76793E+005    3.02595E+003   -3.37689E+005    8.14482E+005   -4.73766E+004    4.62611E+005    6.24984E+004    2.79753E+003    7.68339E+004   -9.98009E+004    3.94637E+005   -8.95440E+003
            2833    6.58389E+005    3.75095E+005   -3.85127E+005   -2.23457E+002   -3.85127E+005    7.60222E+005    3.41862E+003   -1.84026E+005   -1.07930E+002   -7.99368E+001   -1.00680E+004   -8.76646E+003    3.79965E+005   -2.99692E+003
            2834    6.71358E+005    3.84020E+005   -3.91169E+005    2.18084E+003   -3.91169E+005    7.75189E+005    1.65631E+003   -1.98166E+005    3.24931E+003    2.12590E+003   -1.03441E+004   -6.59842E+003    3.87475E+005    1.71948E+003
            2835    6.83098E+005    3.90144E+005   -3.98612E+005    2.91851E+002   -3.98612E+005    7.88756E+005    2.72535E+003   -1.85034E+005    3.49699E+003    2.02402E+002   -1.18754E+004   -5.10400E+003    3.94255E+005    3.52445E+003
            2836    6.92446E+005    3.95925E+005   -4.03617E+005    1.70179E+003   -4.03617E+005    7.99542E+005    1.99667E+003   -1.99828E+005    4.84711E+003    1.63993E+003   -1.24770E+004   -3.38724E+003    3.99646E+005    3.69440E+003
            2837    6.64019E+005    3.56234E+005   -4.09930E+005   -1.04080E+003   -4.09930E+005    7.66163E+005    1.82455E+004   -3.24177E+005   -1.58683E+004   -7.61280E+002   -3.81070E+004   -2.57095E+004    3.82046E+005   -8.21380E+002
            2838    6.78064E+005    3.63368E+005   -4.19098E+005   -3.74992E+003   -4.19098E+005    7.82466E+005    1.98264E+004   -3.21418E+005   -1.20634E+004   -3.88472E+003   -4.35310E+004   -1.92527E+004    3.90439E+005    2.34778E+003
            2839    6.90255E+005    3.70877E+005   -4.25632E+005   -2.23390E+003   -4.25632E+005    7.96509E+005    1.89963E+004   -3.29812E+005   -7.32989E+003   -2.49324E+003   -4.71659E+004   -1.44265E+004    3.97478E+005    4.39150E+003
            2840    7.00725E+005    3.75711E+005   -4.32925E+005   -4.16407E+003   -4.32925E+005    8.08635E+005    2.04594E+004   -3.30031E+005   -5.40338E+003   -4.33529E+003   -5.16395E+004   -1.02455E+004    4.03512E+005    3.97549E+003
            2841    6.70017E+005    3.49069E+005   -4.23437E+005   -4.57012E+002   -4.23437E+005    7.72506E+005    2.49418E+004   -3.66589E+005   -1.74395E+004   -1.08640E+002   -5.72772E+004   -4.13640E+004    3.83495E+005    1.46115E+003
            2842    6.83142E+005    3.58796E+005   -4.28947E+005    6.86972E+002   -4.28947E+005    7.87743E+005    2.31544E+004   -3.68122E+005   -8.12779E+003    3.29922E+002   -6.16654E+004   -3.15700E+004    3.91678E+005    4.72779E+003
            2843    6.97280E+005    3.65606E+005   -4.38572E+005   -2.21969E+003   -4.38572E+005    8.04177E+005    2.50619E+004   -3.67949E+005   -3.69164E+003   -2.63654E+003   -6.88575E+004   -2.45385E+004    3.99995E+005    5.44160E+003
            2844    7.09417E+005    3.71842E+005   -4.46296E+005   -1.72265E+003   -4.46296E+005    8.18137E+005    2.53923E+004   -3.76633E+005    4.83240E+002   -2.07360E+003   -7.45866E+004   -1.72329E+004    4.06954E+005    5.68557E+003
            2845    6.84622E+005    3.32263E+005   -4.55166E+005   -8.43425E+002   -4.55166E+005    7.87429E+005    4.12489E+004   -4.38528E+005   -3.81720E+004   -6.68476E+002   -8.49062E+004   -5.45119E+004    3.89172E+005    5.30056E+003
            2846    7.00463E+005    3.40957E+005   -4.65358E+005   -7.06181E+003   -4.65358E+005    8.06315E+005    4.38212E+004   -4.31767E+005   -2.90047E+004   -7.22237E+003   -9.52364E+004   -4.22557E+004    3.99541E+005    5.43177E+003
            2847    7.13902E+005    3.49404E+005   -4.72501E+005   -6.68699E+003   -4.72501E+005    8.21905E+005    4.32616E+004   -4.36595E+005   -2.05129E+004   -7.25480E+003   -1.02017E+005   -3.29811E+004    4.07566E+005    7.36560E+003
            2848    7.28733E+005    3.54871E+005   -4.84163E+005   -9.25853E+003   -4.84163E+005    8.39034E+005    4.61834E+004   -4.44055E+005   -1.64840E+004   -9.70693E+003   -1.12359E+005   -2.48245E+004    4.16003E+005    6.83345E+003
            2849    6.89726E+005    3.24483E+005   -4.67850E+005   -1.84107E+003   -4.67850E+005    7.92333E+005    4.84029E+004   -4.61536E+005   -4.38872E+004   -1.08824E+003   -1.00233E+005   -6.47998E+004    3.89700E+005    6.00839E+003
            2850    6.98293E+005    3.32954E+005   -4.69908E+005   -3.87373E+003   -4.69908E+005    8.02862E+005    4.69424E+004   -4.53755E+005   -3.26630E+004   -4.37274E+003   -1.03791E+005   -5.14212E+004    3.96483E+005    8.41799E+003
            2851    7.16493E+005    3.39367E+005   -4.84590E+005   -7.93683E+003   -4.84590E+005    8.23957E+005    5.10533E+004   -4.61862E+005   -2.71965E+004   -8.88344E+003   -1.17080E+005   -4.37194E+004    4.07125E+005    1.02689E+004
            2852    7.35213E+005    3.46156E+005   -4.99196E+005   -8.88660E+003   -4.99196E+005    8.45352E+005    5.39755E+004   -4.76863E+005   -2.25236E+004   -9.68467E+003   -1.29718E+005   -3.28134E+004    4.17926E+005    9.82584E+003
            2853    7.01431E+005    3.04398E+005   -4.98887E+005   -7.49627E+003   -4.98887E+005    8.03285E+005    6.73284E+004   -5.06031E+005   -7.12525E+004   -5.90119E+003   -1.24832E+005   -6.61192E+004    3.95037E+005    5.31741E+003
            2854    7.11685E+005    3.11148E+005   -5.05204E+005   -1.53402E+004   -5.05204E+005    8.16352E+005    6.97988E+004   -4.95891E+005   -6.02114E+004   -1.53491E+004   -1.33836E+005   -5.99135E+004    4.01975E+005    8.93386E+003
            2855    7.28278E+005    3.16769E+005   -5.18254E+005   -1.44781E+004   -5.18254E+005    8.35023E+005    7.19876E+004   -5.12604E+005   -5.43822E+004   -1.53447E+004   -1.46236E+005   -5.11768E+004    4.11734E+005    1.16959E+004
            2856    7.48818E+005    3.21574E+005   -5.37096E+005   -1.97661E+004   -5.37096E+005    8.58670E+005    7.84291E+004   -5.25719E+005   -5.28723E+004   -2.05158E+004   -1.61899E+005   -4.20996E+004    4.23713E+005    1.08442E+004
            2857    6.73047E+005    2.92159E+005   -4.78524E+005   -6.42302E+003   -4.78524E+005    7.70683E+005    6.42627E+004   -4.86706E+005   -7.65929E+004   -7.26837E+003   -1.08927E+005   -7.57709E+004    3.77363E+005    1.24808E+004
            2858    6.89367E+005    2.89465E+005   -4.98484E+005   -6.64081E+003   -4.98484E+005    7.87950E+005    7.18865E+004   -5.13978E+005   -7.84290E+004   -7.54240E+003   -1.29688E+005   -6.65526E+004    3.87351E+005    1.32857E+004
            2859    7.07056E+005    2.90890E+005   -5.17935E+005   -1.71901E+004   -5.17935E+005    8.08825E+005    8.14115E+004   -5.20362E+005   -7.76380E+004   -1.81035E+004   -1.48493E+005   -6.46046E+004    3.97523E+005    1.35547E+004
            2860    7.33910E+005    2.93637E+005   -5.45773E+005   -2.52425E+004   -5.45773E+005    8.39411E+005    9.24595E+004   -5.41547E+005   -8.19540E+004   -2.60875E+004   -1.69337E+005   -5.29850E+004    4.13960E+005    1.25694E+004
            2861    7.06538E+005    2.45182E+005   -5.60126E+005   -4.43174E+004   -5.60126E+005    8.05309E+005    1.19754E+005   -5.46996E+005   -1.32318E+005   -4.36475E+004   -1.83296E+005   -6.50758E+004    3.96328E+005    9.68923E+003
            2862    6.89668E+005    2.53225E+005   -5.32506E+005   -2.73410E+004   -5.32506E+005    7.85731E+005    1.02207E+005   -5.36680E+005   -1.18985E+005   -2.53667E+004   -1.62270E+005   -7.62029E+004    3.84400E+005    8.93628E+003
            2863    6.66341E+005    2.56295E+005   -5.03004E+005   -1.56099E+004   -5.03004E+005    7.59299E+005    8.74396E+004   -5.17408E+005   -1.07640E+005   -1.13023E+004   -1.43376E+005   -8.13486E+004    3.69719E+005    5.14977E+003
            2864    6.65964E+005    2.59588E+005   -4.96124E+005    4.94381E+003   -4.96124E+005    7.55713E+005    7.71975E+004   -5.38843E+005   -9.84104E+004    8.53970E+003   -1.41722E+005   -6.54924E+004    3.70876E+005    3.92295E+003
            2865    6.43760E+005    3.62979E+005   -3.80301E+005    1.38213E+002   -3.80301E+005    7.43280E+005    5.72781E+003   -2.21972E+005   -6.27259E+003    8.22932E+002   -1.17338E+004   -1.23151E+004    3.71281E+005   -1.00483E+004
            2866    6.49604E+005    3.48783E+005   -4.00828E+005   -2.62800E+003   -4.00828E+005    7.49612E+005    1.82244E+004   -3.09215E+005   -2.04503E+004   -8.07637E+002   -3.34152E+004   -3.62628E+004    3.72850E+005   -7.78436E+003
            2867    6.58981E+005    3.36665E+005   -4.22587E+005    7.32451E+002   -4.22587E+005    7.59251E+005    2.83965E+004   -3.83922E+005   -3.33712E+004    2.75502E+003   -5.45733E+004   -5.64998E+004    3.75118E+005   -2.45432E+003
            2868    6.69233E+005    3.24069E+005   -4.45528E+005   -2.03088E+002   -4.45528E+005    7.69597E+005    4.05542E+004   -4.31672E+005   -4.90491E+004    2.04299E+003   -7.46565E+004   -7.23136E+004    3.77538E+005    1.41860E+003
            2869    6.81050E+005    3.11884E+005   -4.68929E+005    2.57604E+003   -4.68929E+005    7.80814E+005    5.14896E+004   -4.80177E+005   -6.33030E+004    3.96118E+003   -9.51271E+004   -8.32187E+004    3.80875E+005    7.70634E+003
            2870    7.00597E+005    3.00063E+005   -5.01452E+005   -5.73391E+003   -5.01452E+005    8.01515E+005    6.90408E+004   -5.14766E+005   -8.31042E+004   -3.43304E+003   -1.20585E+005   -8.79195E+004    3.90174E+005    8.20851E+003
            2871    6.97204E+005    2.83348E+005   -5.11814E+005   -5.22728E+003   -5.11814E+005    7.95161E+005    7.78978E+004   -5.35756E+005   -9.40084E+004   -4.11321E+003   -1.35572E+005   -6.87887E+004    3.90780E+005    8.67174E+003
            2872    7.26268E+005    2.38924E+005   -5.88805E+005   -5.82647E+004   -5.88805E+005    8.27730E+005    1.36049E+005   -5.62811E+005   -1.44640E+005   -5.83720E+004   -2.05134E+005   -4.77586E+004    4.09899E+005    9.16709E+003
            2873    7.40683E+005    2.34565E+005   -6.09871E+005   -7.01481E+004   -6.09871E+005    8.44436E+005    1.48485E+005   -5.71750E+005   -1.53918E+005   -7.02066E+004   -2.21331E+005   -2.60988E+004    4.20036E+005    5.23851E+003
            2874    7.47312E+005    2.33241E+005   -6.18817E+005   -7.45811E+004   -6.18817E+005    8.52058E+005    1.53386E+005   -5.76338E+005   -1.57435E+005   -7.45813E+004   -2.28141E+005   -5.29833E+002    4.24559E+005    1.65953E+002
            2875    7.40384E+005    2.33851E+005   -6.10158E+005   -7.02310E+004   -6.10158E+005    8.44009E+005    1.48846E+005   -5.72220E+005   -1.54760E+005   -7.03517E+004   -2.21426E+005    2.52383E+004    4.19908E+005   -5.60013E+003
            2876    7.24015E+005    2.36780E+005   -5.88270E+005   -5.88365E+004   -5.88270E+005    8.25050E+005    1.36776E+005   -5.61951E+005   -1.46264E+005   -5.88862E+004   -2.05176E+005    4.76457E+004    4.08614E+005   -8.90658E+003
            2877    7.04989E+005    2.42687E+005   -5.60339E+005   -4.31912E+004   -5.60339E+005    8.03026E+005    1.20281E+005   -5.49840E+005   -1.34595E+005   -4.27436E+004   -1.83504E+005    6.46140E+004    3.95322E+005   -1.04036E+004
            2878    6.83921E+005    2.48045E+005   -5.30734E+005   -2.78703E+004   -5.30734E+005    7.78779E+005    1.03520E+005   -5.35299E+005   -1.21798E+005   -2.59751E+004   -1.62785E+005    7.49104E+004    3.81174E+005   -8.98874E+003
            2879    6.76020E+005    2.54995E+005   -5.13983E+005   -1.32704E+004   -5.13983E+005    7.68978E+005    9.07526E+004   -5.34922E+005   -1.11943E+005   -1.09960E+004   -1.49319E+005    7.27631E+004    3.76639E+005   -7.92554E+003
            2880    6.88564E+005    2.67790E+005   -5.17164E+005   -1.51157E+004   -5.17164E+005    7.84954E+005    8.81633E+004   -5.32023E+005   -1.07511E+005   -1.38040E+004   -1.43175E+005    7.94757E+004    3.83599E+005   -1.05227E+004
            2881    7.54200E+005    2.95208E+005   -5.67721E+005   -3.46000E+004   -5.67721E+005    8.62928E+005    1.02371E+005   -5.53172E+005   -8.47806E+004   -3.51484E+004   -1.87184E+005   -3.86540E+004    4.26617E+005    9.96294E+003
            2882    7.68663E+005    3.26498E+005   -5.54792E+005   -2.28284E+004   -5.54792E+005    8.81289E+005    8.37074E+004   -5.41544E+005   -5.23563E+004   -2.32875E+004   -1.75478E+005   -2.90350E+004    4.35320E+005    8.53561E+003
            2883    7.51125E+005    3.50804E+005   -5.12837E+005   -1.18613E+004   -5.12837E+005    8.63640E+005    5.79648E+004   -4.87317E+005   -2.00512E+004   -1.22410E+004   -1.41602E+005   -2.25776E+004    4.26898E+005    7.02059E+003
            2884    7.40375E+005    3.59686E+005   -4.92646E+005   -9.01592E+003   -4.92646E+005    8.52332E+005    4.73255E+004   -4.54263E+005   -1.32420E+004   -9.24139E+003   -1.19493E+005   -1.55772E+004    4.22539E+005    5.09475E+003
            2885    7.18913E+005    3.75618E+005   -4.53473E+005   -2.99424E+003   -4.53473E+005    8.29091E+005    2.69497E+004   -3.81511E+005    2.79375E+003   -3.13653E+003   -8.05064E+004   -1.08892E+004    4.12294E+005    3.71556E+003
            2886    7.07642E+005    3.79383E+005   -4.37195E+005   -3.24868E+003   -4.37195E+005    8.16578E+005    2.03538E+004   -3.37599E+005   -3.63371E+003   -3.32124E+003   -5.41065E+004   -5.85034E+003    4.07458E+005    2.89241E+003
            2887    6.98808E+005    3.99215E+005   -4.07681E+005    5.70854E+002   -4.07681E+005    8.06895E+005    2.63166E+003   -1.91630E+005    5.15342E+003    5.44978E+002   -1.35934E+004   -2.19189E+003    4.03326E+005    2.40516E+003
            2888    7.69744E+005    2.95972E+005   -5.84580E+005   -3.95340E+004   -5.84580E+005    8.80552E+005    1.09381E+005   -5.66322E+005   -8.84926E+004   -3.97083E+004   -1.99941E+005   -1.96547E+004    4.36279E+005    5.55654E+003
            2889    7.80836E+005    3.28230E+005   -5.66947E+005   -2.60987E+004   -5.66947E+005    8.95177E+005    8.82721E+004   -5.51060E+005   -5.38801E+004   -2.61877E+004   -1.84748E+005   -1.40394E+004    4.42549E+005    3.92147E+003
            2890    7.61689E+005    3.53831E+005   -5.21802E+005   -1.24286E+004   -5.21802E+005    8.75633E+005    6.01329E+004   -4.97426E+005   -1.91199E+004   -1.25022E+004   -1.48777E+005   -9.36324E+003    4.32883E+005    3.17624E+003
            2891    7.47002E+005    3.61153E+005   -4.98735E+005   -1.00021E+004   -4.98735E+005    8.59888E+005    4.91947E+004   -4.60419E+005   -1.28312E+004   -1.00298E+004   -1.24723E+005   -6.07740E+003    4.26243E+005    1.78872E+003
            2892    7.23851E+005    3.77737E+005   -4.56989E+005   -2.41525E+003   -4.56989E+005    8.34726E+005    2.72223E+004   -3.87719E+005    3.97518E+003   -2.43177E+003   -8.32102E+004   -3.37001E+003    4.15065E+005    1.34410E+003
            2893    7.10941E+005    3.80382E+005   -4.40004E+005   -4.08711E+003   -4.40004E+005    8.20386E+005    2.12366E+004   -3.38941E+005   -3.48281E+003   -4.09249E+003   -5.61346E+004   -1.90548E+003    4.09342E+005    6.98892E+002
            2894    7.01550E+005    4.01029E+005   -4.09028E+005    1.41890E+003   -4.09028E+005    8.10056E+005    2.19342E+003   -1.99999E+005    5.73651E+003    1.41752E+003   -1.37343E+004   -4.53535E+002    4.04910E+005    6.19854E+002
            2895    7.73873E+005    2.95727E+005   -5.89576E+005   -4.17690E+004   -5.89576E+005    8.85303E+005    1.11873E+005   -5.69057E+005   -8.96058E+004   -4.17709E+004   -2.04241E+005    1.01295E+003    4.38923E+005   -6.03437E+002
            2896    7.84459E+005    3.28679E+005   -5.70647E+005   -2.72519E+004   -5.70647E+005    8.99326E+005    8.97399E+004   -5.53691E+005   -5.44549E+004   -2.72576E+004   -1.87507E+005    2.71726E+003    4.44706E+005   -9.49367E+002
            2897    7.63908E+005    3.54003E+005   -5.24196E+005   -1.34695E+004   -5.24196E+005    8.78199E+005    6.12207E+004   -4.98563E+005   -1.90703E+004   -1.34849E+004   -1.51107E+005    3.52785E+003    4.34093E+005   -1.50950E+003
            2898    7.48054E+005    3.61415E+005   -4.99666E+005   -1.00511E+004   -4.99666E+005    8.61081E+005    4.94341E+004   -4.61587E+005   -1.26170E+004   -1.00699E+004   -1.25615E+005    4.11960E+003    4.26796E+005   -1.53219E+003
            2899    7.24172E+005    3.77565E+005   -4.57541E+005   -2.93602E+003   -4.57541E+005    8.35106E+005    2.76372E+004   -3.87286E+005    4.14427E+003   -2.95620E+003   -8.40997E+004    3.37055E+003    4.15200E+005   -1.56988E+003
            2900    7.10606E+005    3.80249E+005   -4.39736E+005   -3.67851E+003   -4.39736E+005    8.19985E+005    2.10552E+004   -3.40319E+005   -3.31451E+003   -3.69406E+003   -5.61571E+004    2.53251E+003    4.09131E+005   -1.41845E+003
            2901    7.01102E+005    4.00664E+005   -4.08877E+005    9.48178E+002   -4.08877E+005    8.09541E+005    2.42147E+003   -1.95333E+005    5.65876E+003    9.43356E+002   -1.38665E+004    7.04832E+002    4.04650E+005   -1.38189E+003
            2902    7.67028E+005    2.94041E+005   -5.83331E+005   -3.97885E+004   -5.83331E+005    8.77373E+005    1.09693E+005   -5.65102E+005   -8.97204E+004   -4.00314E+004   -1.99327E+005    2.21836E+004    4.34665E+005   -6.45862E+003
            2903    7.77931E+005    3.25957E+005   -5.65723E+005   -2.57713E+004   -5.65723E+005    8.91680E+005    8.85125E+004   -5.51268E+005   -5.59029E+004   -2.60153E+004   -1.83619E+005    1.92231E+004    4.40806E+005   -6.24023E+003
            2904    7.57951E+005    3.51294E+005   -5.19984E+005   -1.26125E+004   -5.19984E+005    8.71278E+005    6.04339E+004   -4.96173E+005   -2.09646E+004   -1.28556E+004   -1.47481E+005    1.70570E+004    4.30666E+005   -5.74011E+003
            2905    7.43160E+005    3.58765E+005   -4.96628E+005   -9.65698E+003   -4.96628E+005    8.55393E+005    4.91735E+004   -4.60064E+005   -1.45230E+004   -9.85019E+003   -1.23147E+005    1.37702E+004    4.23996E+005   -4.81803E+003
            2906    7.19891E+005    3.75325E+005   -4.54823E+005   -2.54159E+003   -4.54823E+005    8.30148E+005    2.73464E+004   -3.86288E+005    2.74948E+003   -2.69653E+003   -8.20922E+004    1.07120E+004    4.12749E+005   -4.01490E+003
            2907    7.06886E+005    3.78112E+005   -4.37577E+005   -3.72605E+003   -4.37577E+005    8.15689E+005    2.10637E+004   -3.38875E+005   -4.28144E+003   -3.81814E+003   -5.50915E+004    6.39409E+003    4.06992E+005   -3.33509E+003
            2908    6.97528E+005    3.98786E+005   -4.06628E+005    1.16975E+003   -4.06628E+005    8.05414E+005    2.22432E+003   -1.95138E+005    5.49717E+003    1.13466E+003   -1.33048E+004    2.33885E+003    4.02579E+005   -3.04211E+003
            2909    7.49967E+005    2.91805E+005   -5.65957E+005   -3.39564E+004   -5.65957E+005    8.57762E+005    1.02703E+005   -5.53545E+005   -8.77755E+004   -3.46675E+004   -1.85666E+005    4.08082E+004    4.24063E+005   -1.10156E+004
            2910    7.62808E+005    3.21871E+005   -5.52550E+005   -2.35958E+004   -5.52550E+005    8.74421E+005    8.47583E+004   -5.39540E+005   -5.62836E+004   -2.42311E+004   -1.73760E+005    3.42978E+004    4.31839E+005   -9.96715E+003
            2911    7.44887E+005    3.47134E+005   -5.09195E+005   -1.11593E+004   -5.09195E+005    8.56329E+005    5.77401E+004   -4.86211E+005   -2.27869E+004   -1.17885E+004   -1.38645E+005    2.87821E+004    4.23207E+005   -8.96130E+003
            2912    7.33637E+005    3.54936E+005   -4.89560E+005   -9.48745E+003   -4.89560E+005    8.44495E+005    4.80372E+004   -4.52405E+005   -1.68016E+004   -9.91870E+003   -1.17391E+005    2.32261E+004    4.18571E+005   -6.87988E+003
            2913    7.11497E+005    3.71808E+005   -4.48683E+005   -2.05104E+003   -4.48683E+005    8.20491E+005    2.63088E+004   -3.80450E+005    1.12680E+003   -2.39324E+003   -7.76599E+004    1.71164E+004    4.07967E+005   -5.66289E+003
            2914    7.00359E+005    3.74738E+005   -4.33425E+005   -3.71429E+003   -4.33425E+005    8.08163E+005    2.08005E+004   -3.35152E+005   -5.67726E+003   -3.91428E+003   -5.28100E+004    1.05373E+004    4.03238E+005   -4.47034E+003
            2915    6.91382E+005    3.95588E+005   -4.02732E+005    1.31717E+003   -4.02732E+005    7.98320E+005    1.94233E+003   -1.91392E+005    5.21745E+003    1.24946E+003   -1.22939E+004    3.43189E+003    3.99030E+005   -3.97341E+003
            2916    7.26402E+005    2.88688E+005   -5.41959E+005   -2.57419E+004   -5.41959E+005    8.30647E+005    9.30046E+004   -5.37867E+005   -8.50246E+004   -2.67784E+004   -1.67211E+005    5.58115E+004    4.09404E+005   -1.34905E+004
            2917    7.43392E+005    3.16526E+005   -5.35534E+005   -1.93521E+004   -5.35534E+005    8.52060E+005    7.94532E+004   -5.27202E+005   -5.84486E+004   -2.02786E+004   -1.59632E+005    4.58860E+004    4.20449E+005   -1.19118E+004
            2918    7.28121E+005    3.40812E+005   -4.96234E+005   -9.33635E+003   -4.96234E+005    8.37046E+005    5.49197E+004   -4.75441E+005   -2.72342E+004   -1.02524E+004   -1.27273E+005    3.95621E+004    4.13579E+005   -1.04291E+004
            2919    7.20721E+005    3.49387E+005   -4.80179E+005   -7.90458E+003   -4.80179E+005    8.29565E+005    4.62323E+004   -4.46190E+005   -2.09469E+004   -8.48778E+003   -1.09262E+005    3.10861E+004    4.11221E+005   -7.68846E+003
            2920    7.00794E+005    3.66355E+005   -4.41784E+005   -1.72374E+003   -4.41784E+005    8.08139E+005    2.57178E+004   -3.75251E+005   -2.60209E+003   -2.20903E+003   -7.23423E+004    2.34447E+004    4.01852E+005   -6.21922E+003
            2921    6.91485E+005    3.70373E+005   -4.27543E+005   -3.11150E+003   -4.27543E+005    7.97916E+005    2.00937E+004   -3.31636E+005   -7.66379E+003   -3.37567E+003   -4.92418E+004    1.39958E+004    3.98152E+005   -4.57185E+003
            2922    6.83267E+005    3.90778E+005   -3.98172E+005    1.07602E+003   -3.98172E+005    7.88950E+005    2.10595E+003   -1.88374E+005    4.31131E+003    9.81488E+002   -1.16107E+004    4.81435E+003    3.94346E+005   -3.93693E+003
            2923    7.04496E+005    2.87240E+005   -5.18257E+005   -1.70407E+004   -5.18257E+005    8.05497E+005    8.26860E+004   -5.22681E+005   -8.31769E+004   -1.82262E+004   -1.46655E+005    6.40260E+004    3.96249E+005   -1.42024E+004
            2924    7.25154E+005    3.12001E+005   -5.19365E+005   -1.72463E+004   -5.19365E+005    8.31366E+005    7.48699E+004   -5.11433E+005   -6.07147E+004   -1.77778E+004   -1.46117E+005    5.61860E+004    4.09562E+005   -1.08229E+004
            2925    7.09552E+005    3.34978E+005   -4.80643E+005   -5.48928E+003   -4.80643E+005    8.15622E+005    5.03848E+004   -4.64921E+005   -3.07575E+004   -6.36185E+003   -1.14035E+005    4.89194E+004    4.02663E+005   -1.01906E+004
            2926    7.07349E+005    3.42845E+005   -4.71255E+005   -6.98856E+003   -4.71255E+005    8.14100E+005    4.51329E+004   -4.39914E+005   -2.65460E+004   -7.50744E+003   -1.01345E+005    3.94485E+004    4.03375E+005   -7.26912E+003
            2927    6.88213E+005    3.61055E+005   -4.32550E+005    2.64617E+001   -4.32550E+005    7.93605E+005    2.38227E+004   -3.69988E+005   -5.59703E+003   -4.37061E+002   -6.54341E+004    2.95391E+004    3.94551E+005   -5.54615E+003
            2928    6.81606E+005    3.64493E+005   -4.22007E+005   -3.27563E+003   -4.22007E+005    7.86500E+005    2.02632E+004   -3.28498E+005   -1.11408E+004   -3.51125E+003   -4.61375E+004    1.79400E+004    3.92442E+005   -3.55820E+003
            2929    6.73709E+005    3.86040E+005   -3.91874E+005    1.73284E+003   -3.91874E+005    7.77914E+005    1.36692E+003   -1.84992E+005    4.18063E+003    1.65537E+003   -9.93675E+003    6.04364E+003    3.88838E+005   -2.57965E+003
            2930    6.90126E+005    2.88140E+005   -5.01195E+005   -1.17317E+004   -5.01195E+005    7.89336E+005    7.49290E+004   -5.09215E+005   -8.24182E+004   -1.23589E+004   -1.30010E+005    7.29824E+004    3.86991E+005   -1.29322E+004
            2931    7.09025E+005    3.05832E+005   -5.06576E+005   -1.25652E+004   -5.06576E+005    8.12409E+005    7.11031E+004   -5.06213E+005   -6.73785E+004   -1.21956E+004   -1.33735E+005    6.39329E+004    3.99633E+005   -8.66559E+003
            2932    6.95372E+005    3.27389E+005   -4.71728E+005   -4.34178E+003   -4.71728E+005    7.99118E+005    4.95603E+004   -4.59698E+005   -3.84131E+004   -4.65936E+003   -1.05608E+005    5.79491E+004    3.93838E+005   -8.56002E+003
            2933    6.92551E+005    3.35873E+005   -4.60997E+005   -4.47468E+003   -4.60997E+005    7.96871E+005    4.31997E+004   -4.35851E+005   -3.29650E+004   -4.64905E+003   -9.19850E+004    4.75508E+004    3.94452E+005   -6.01371E+003
            2934    6.76929E+005    3.53062E+005   -4.27438E+005   -4.71969E+002   -4.27438E+005    7.80500E+005    2.49494E+004   -3.69079E+005   -1.26852E+004   -6.16174E+002   -6.15468E+004    3.59374E+004    3.87813E+005   -3.60974E+003
            2935    6.70472E+005    3.59551E+005   -4.14094E+005   -2.00383E+003   -4.14094E+005    7.73645E+005    1.88489E+004   -3.23997E+005   -1.33541E+004   -2.02519E+003   -4.11675E+004    2.21758E+004    3.85934E+005   -1.31158E+003
            2936    6.63743E+005    3.78632E+005   -3.87767E+005    7.03523E+002   -3.87767E+005    7.66400E+005    2.81049E+003   -1.90982E+005    1.45418E+003    7.15487E+002   -1.06011E+004    7.48112E+003    3.83079E+005    1.95947E+002
            2937    6.86794E+005    2.86051E+005   -4.98879E+005   -8.43536E+003   -4.98879E+005    7.84929E+005    7.37544E+004   -5.12844E+005   -8.80061E+004   -6.50299E+003   -1.26754E+005    7.75435E+004    3.83916E+005   -7.54718E+003
            2938    6.93482E+005    3.01717E+005   -4.92325E+005   -5.64140E+003   -4.92325E+005    7.94042E+005    6.54167E+004   -5.01963E+005   -7.09496E+004   -4.71954E+003   -1.20581E+005    7.67250E+004    3.88529E+005   -9.22404E+003
            2939    6.84413E+005    3.17616E+005   -4.67983E+005   -7.07408E+002   -4.67983E+005    7.85600E+005    5.03583E+004   -4.68765E+005   -5.14367E+004    7.59111E+001   -9.97140E+004    6.87710E+004    3.85844E+005   -6.74342E+003
            2940    6.77975E+005    3.29529E+005   -4.50277E+005   -5.67736E+002   -4.50277E+005    7.79806E+005    4.04385E+004   -4.33765E+005   -3.85400E+004   -2.45390E+001   -8.27509E+004    5.87619E+004    3.84746E+005   -4.55248E+003
            2941    6.66381E+005    3.43779E+005   -4.24256E+005    4.51712E+002   -4.24256E+005    7.68035E+005    2.66750E+004   -3.77830E+005   -2.32485E+004    1.04718E+003   -5.78236E+004    4.44928E+004    3.81006E+005   -8.77803E+002
            2942    6.58940E+005    3.54568E+005   -4.05797E+005   -1.42696E+003   -4.05797E+005    7.60365E+005    1.75519E+004   -3.15651E+005   -1.51245E+004   -8.56409E+002   -3.66748E+004    2.79772E+004    3.78972E+005    2.54599E+003
            2943    6.53813E+005    3.70532E+005   -3.84379E+005    3.93610E+002   -3.84379E+005    7.54910E+005    4.48443E+003   -2.10910E+005   -3.15877E+003    6.33661E+002   -1.09282E+004    9.37720E+003    3.77287E+005    4.67613E+003
            2944    6.42484E+005    3.62112E+005   -3.79712E+005   -1.06731E+003   -3.79712E+005    7.41823E+005    6.22255E+003   -2.12341E+005   -6.87508E+003   -2.91047E+002   -1.15015E+004    1.29670E+004    3.70511E+005    1.08318E+004
            2945    6.48756E+005    3.47312E+005   -4.01207E+005   -1.00439E+003   -4.01207E+005    7.48519E+005    1.82999E+004   -3.19738E+005   -2.12676E+004    9.31875E+002   -3.45641E+004    3.70826E+004    3.72202E+005    7.95135E+003
            2946    6.57540E+005    3.34606E+005   -4.22963E+005   -3.02057E+002   -4.22963E+005    7.57569E+005    2.95530E+004   -3.83887E+005   -3.52940E+004    2.22853E+003   -5.55935E+004    5.72173E+004    3.74125E+005    3.91840E+003
            2947    6.66212E+005    3.20999E+005   -4.44813E+005    1.24037E+003   -4.44813E+005    7.65812E+005    4.08577E+004   -4.36337E+005   -5.07261E+004    3.73158E+003   -7.55786E+004    7.25197E+004    3.75553E+005   -1.15020E+003
            2948    6.73613E+005    3.07057E+005   -4.65381E+005   -3.84350E+001   -4.65381E+005    7.72437E+005    5.27875E+004   -4.72855E+005   -6.62316E+004    2.77794E+003   -9.49088E+004    8.30158E+004    3.76590E+005   -4.37172E+003
            2949    6.80043E+005    2.93045E+005   -4.85201E+005   -5.47553E+003   -4.85201E+005    7.78246E+005    6.58771E+004   -4.96948E+005   -8.29363E+004   -2.65091E+003   -1.12044E+005    8.84011E+004    3.78261E+005   -6.81198E+003
            2950    6.88807E+005    2.80184E+005   -5.06469E+005   -1.14650E+004   -5.06469E+005    7.86653E+005    7.92499E+004   -5.19891E+005   -9.87745E+004   -9.58352E+003   -1.29392E+005    9.08612E+004    3.81984E+005   -1.04880E+004
            2951    6.66485E+005    4.96458E+005    4.96458E+005   -5.42838E+003   -2.59742E+005    7.56200E+005   -7.70960E+004    5.39894E+005    9.83251E+004   -8.91498E+003    1.41878E+005    6.46967E+004    3.71272E+005    3.97365E+003
            2952    6.65280E+005    5.01881E+005    5.01881E+005    1.52027E+004   -2.56196E+005    7.58078E+005   -8.69625E+004    5.16683E+005    1.07217E+005    1.08110E+004    1.42860E+005    8.10088E+004    3.69160E+005    4.89946E+003
            2953    6.88959E+005    5.31521E+005    5.31521E+005    2.68891E+004   -2.53405E+005    7.84926E+005   -1.01668E+005    5.36107E+005    1.18487E+005    2.48384E+004    1.61680E+005    7.64074E+004    3.83943E+005    8.81269E+003
            2954    7.06089E+005    5.59574E+005    5.59574E+005    4.42753E+004   -2.45261E+005    8.04835E+005   -1.19530E+005    5.46347E+005    1.32029E+005    4.35635E+004    1.82997E+005    6.51603E+004    3.96071E+005    9.57155E+003
            2955    7.33921E+005    5.45261E+005    5.45261E+005    2.48955E+004   -2.94193E+005    8.39454E+005   -9.19879E+004    5.41235E+005    8.12374E+004    2.57644E+004    1.68962E+005    5.31154E+004    4.13946E+005    1.26741E+004
            2956    7.48326E+005    5.35905E+005    5.35905E+005    1.93783E+004   -3.22268E+005    8.58173E+005   -7.76716E+004    5.24418E+005    5.19086E+004    2.01321E+004    1.60974E+005    4.19731E+004    4.23471E+005    1.08292E+004
            2957    7.34703E+005    4.98117E+005    4.98117E+005    8.65581E+003   -3.46705E+005    8.44822E+005   -5.33558E+004    4.75296E+005    2.18806E+004    9.45163E+003    1.28735E+005    3.26290E+004    4.17695E+005    9.78392E+003
            2958    7.28295E+005    4.83340E+005    4.83340E+005    9.13494E+003   -3.55228E+005    8.38568E+005   -4.57490E+004    4.42646E+005    1.61066E+004    9.56691E+003    1.11574E+005    2.45263E+004    4.15810E+005    6.68301E+003
            2959    7.08918E+005    4.45470E+005    4.45470E+005    1.61261E+003   -3.72117E+005    8.17587E+005   -2.49884E+004    3.74902E+005   -7.36667E+002    1.95716E+003    7.37447E+004    1.70533E+004    4.06712E+005    5.61977E+003
            2960    7.00414E+005    4.32445E+005    4.32445E+005    4.21021E+003   -3.75845E+005    8.08290E+005   -2.02700E+004    3.28342E+005    5.41310E+003    4.38008E+003    5.10170E+004    1.01699E+004    4.03359E+005    3.96000E+003
            2961    6.92361E+005    4.03357E+005    4.03357E+005   -1.68390E+003   -3.96089E+005    7.99446E+005   -1.86124E+003    1.97012E+005   -4.86357E+003   -1.62284E+003    1.20701E+004    3.33869E+003    3.99603E+005    3.69616E+003
            2962    7.06618E+005    5.17087E+005    5.17087E+005    1.68810E+004   -2.91276E+005    8.08363E+005   -8.08974E+004    5.19616E+005    7.70624E+004    1.78083E+004    1.47821E+005    6.44261E+004    3.97323E+005    1.35485E+004
            2963    7.27982E+005    5.17298E+005    5.17298E+005    1.42840E+004   -3.17469E+005    8.34766E+005   -7.13710E+004    5.11252E+005    5.36325E+004    1.51445E+004    1.45336E+005    5.10999E+004    4.11623E+005    1.16212E+004
            2964    7.15698E+005    4.83271E+005    4.83271E+005    7.74076E+003   -3.39837E+005    8.23108E+005   -5.03916E+004    4.59885E+005    2.66243E+004    8.67128E+003    1.15879E+005    4.34855E+004    4.06756E+005    1.01335E+004
            2965    7.13479E+005    4.71622E+005    4.71622E+005    6.56405E+003   -3.49841E+005    8.21462E+005   -4.27818E+004    4.35019E+005    2.00972E+004    7.12663E+003    1.01121E+005    3.26745E+004    4.07392E+005    7.29911E+003
            2966    6.96864E+005    4.37895E+005    4.37895E+005    2.17175E+003   -3.65823E+005    8.03719E+005   -2.47480E+004    3.66379E+005    3.50335E+003    2.58261E+003    6.81581E+004    2.43075E+004    3.99800E+005    5.38493E+003
            2967    6.90106E+005    4.25308E+005    4.25308E+005    2.25165E+003   -3.71039E+005    7.96348E+005   -1.88402E+004    3.28624E+005    7.30891E+003    2.50363E+003    4.67081E+004    1.42289E+004    3.97416E+005    4.31814E+003
            2968    6.82941E+005    3.98323E+005    3.98323E+005   -2.78772E+002   -3.90253E+005    7.88576E+005   -2.59739E+003    1.82078E+005   -3.52817E+003   -1.91586E+002    1.15119E+004    4.99839E+003    3.94170E+005    3.50320E+003
            2969    6.89171E+005    4.98098E+005    4.98098E+005    6.49580E+003   -2.89646E+005    7.87744E+005   -7.16491E+004    5.13649E+005    7.81677E+004    7.44211E+003    1.29337E+005    6.64350E+004    3.87272E+005    1.33822E+004
            2970    7.10934E+005    5.03974E+005    5.03974E+005    1.50570E+004   -3.11577E+005    8.15551E+005   -6.91511E+004    4.94467E+005    5.96015E+004    1.50612E+004    1.32791E+005    5.99970E+004    4.01576E+005    8.88153E+003
            2971    6.97756E+005    4.68909E+005    4.68909E+005    3.66751E+003   -3.33384E+005    8.02293E+005   -4.63977E+004    4.52356E+005    3.21891E+004    4.14841E+003    1.02855E+005    5.11589E+004    3.96251E+005    8.28003E+003
            2972    7.00023E+005    4.64638E+005    4.64638E+005    6.99325E+003   -3.41205E+005    8.05843E+005   -4.34755E+004    4.30515E+005    2.87271E+004    7.14003E+003    9.45594E+004    4.20419E+004    3.99343E+005    5.31643E+003
            2973    6.82935E+005    4.28512E+005    4.28512E+005   -7.34127E+002   -3.59008E+005    7.87520E+005   -2.29231E+004    3.67104E+005    7.91883E+003   -3.77136E+002    6.12277E+004    3.13683E+004    3.91590E+005    4.71002E+003
            2974    6.77866E+005    4.18883E+005    4.18883E+005    3.76576E+003   -3.63358E+005    7.82241E+005   -1.97638E+004    3.20834E+005    1.20406E+004    3.90098E+003    4.33498E+004    1.92153E+004    3.90332E+005    2.34786E+003
            2975    6.71217E+005    3.90978E+005    3.90978E+005   -2.17167E+003   -3.84049E+005    7.75027E+005   -1.58585E+003    1.96758E+005   -3.28667E+003   -2.11800E+003    1.01622E+004    6.47964E+003    3.87398E+005    1.70686E+003
            2976    6.72585E+005    4.78022E+005    4.78022E+005    6.50244E+003   -2.92175E+005    7.70197E+005   -6.41165E+004    4.85873E+005    7.65074E+004    7.27743E+003    1.08565E+005    7.57933E+004    3.77114E+005    1.22720E+004
            2977    7.01198E+005    4.98424E+005    4.98424E+005    7.27171E+003   -3.04606E+005    8.03031E+005   -6.70300E+004    5.05718E+005    7.09170E+004    5.66857E+003    1.24504E+005    6.61259E+004    3.94906E+005    5.29130E+003
            2978    6.89270E+005    4.67146E+005    4.67146E+005    1.74211E+003   -3.24700E+005    7.91846E+005   -4.80627E+004    4.60554E+005    4.35618E+004    9.77112E+002    9.96492E+004    6.48212E+004    3.89459E+005    5.94092E+003
            2979    6.84211E+005    4.54516E+005    4.54516E+005    7.69311E+002   -3.32474E+005    7.86990E+005   -4.09369E+004    4.37507E+005    3.78573E+004    6.05405E+002    8.43481E+004    5.43301E+004    3.88984E+005    5.28660E+003
            2980    6.69665E+005    4.22920E+005    4.22920E+005    5.23507E+002   -3.49204E+005    7.72124E+005   -2.47463E+004    3.65159E+005    1.72829E+004    1.75376E+002    5.67806E+004    4.10660E+004    3.83344E+005    1.39989E+003
            2981    6.63880E+005    4.09779E+005    4.09779E+005    1.06822E+003   -3.56230E+005    7.66008E+005   -1.82057E+004    3.23710E+005    1.58271E+004    7.82116E+002    3.80079E+004    2.54489E+004    3.81986E+005   -9.08079E+002
            2982    6.58432E+005    3.85213E+005    3.85213E+005    2.24467E+002   -3.75058E+005    7.60271E+005   -3.45990E+003    1.84804E+005    1.04511E+002    7.97591E+001    1.01954E+004    8.75933E+003    3.79988E+005   -3.02404E+003
            2983    6.43803E+005    3.80680E+005    3.80680E+005   -1.02811E+002   -3.62645E+005    7.43325E+005   -5.97757E+003    2.24652E+005    6.56513E+003   -8.15376E+002    1.21830E+004    1.28683E+004    3.71285E+005   -9.99108E+003
            2984    6.49670E+005    4.00959E+005    4.00959E+005    2.67055E+003   -3.48727E+005    7.49686E+005   -1.83010E+004    3.09461E+005    2.05643E+004    8.30099E+002    3.35087E+004    3.64130E+004    3.72870E+005   -7.83946E+003
            2985    6.58991E+005    4.22474E+005    4.22474E+005   -7.51116E+002   -3.36796E+005    7.59270E+005   -2.83088E+004    3.83626E+005    3.32462E+004   -2.76358E+003    5.44438E+004    5.61447E+004    3.75182E+005   -2.49949E+003
            2986    6.68986E+005    4.45092E+005    4.45092E+005    1.65696E+002   -3.24246E+005    7.69338E+005   -4.03372E+004    4.30937E+005    4.87676E+004   -2.11389E+003    7.43578E+004    7.19176E+004    3.77481E+005    1.23775E+003
            2987    6.80423E+005    4.68130E+005    4.68130E+005   -2.62000E+003   -3.12011E+005    7.80142E+005   -5.11664E+004    4.79080E+005    6.29546E+004   -4.02769E+003    9.45723E+004    8.29921E+004    3.80585E+005    7.57093E+003
            2988    6.99683E+005    5.00420E+005    5.00420E+005    5.69719E+003   -3.00109E+005    8.00529E+005   -6.86693E+004    5.13444E+005    8.27326E+004    3.40167E+003    1.19874E+005    8.80290E+004    3.89653E+005    8.18625E+003
            2989    6.98028E+005    5.12578E+005    5.12578E+005    5.26907E+003   -2.83498E+005    7.96076E+005   -7.81164E+004    5.36597E+005    9.42438E+004    4.16428E+003    1.35941E+005    6.94837E+004    3.91116E+005    8.86284E+003
            2990    6.53748E+005    3.84563E+005    3.84563E+005   -3.78978E+002   -3.70270E+005    7.54833E+005   -4.63803E+003    2.12879E+005    3.30381E+003   -6.29248E+002    1.12395E+004   -9.73666E+003    3.77238E+005    4.68583E+003
            2991    6.63748E+005    3.88213E+005    3.88213E+005   -7.02323E+002   -3.78189E+005    7.66402E+005   -3.10746E+003    1.96197E+005   -1.25253E+003   -7.16104E+002    1.12910E+004   -7.89456E+003    3.83068E+005    2.10786E+002
            2992    6.73750E+005    3.92537E+005    3.92537E+005   -1.70907E+003   -3.85419E+005    7.77956E+005   -1.80301E+003    1.92862E+005   -3.95975E+003   -1.62489E+003    1.09937E+004   -6.51897E+003    3.88843E+005   -2.61468E+003
            2993    6.83465E+005    3.99002E+005    3.99002E+005   -1.06208E+003   -3.90170E+005    7.89172E+005   -2.59009E+003    1.97266E+005   -4.17004E+003   -9.60000E+002    1.29003E+004   -5.23734E+003    3.94440E+005   -3.92621E+003
            2994    6.91525E+005    4.03442E+005    4.03442E+005   -1.28531E+003   -3.95037E+005    7.98479E+005   -2.37342E+003    1.98933E+005   -5.13303E+003   -1.21240E+003    1.34657E+004   -3.70075E+003    3.99095E+005   -3.98069E+003
            2995    6.97699E+005    4.07164E+005    4.07164E+005   -1.14739E+003   -3.98444E+005    8.05608E+005   -2.52399E+003    2.00346E+005   -5.47140E+003   -1.11102E+003    1.41544E+004   -2.45322E+003    4.02666E+005   -3.01272E+003
            2996    7.01153E+005    4.09131E+005    4.09131E+005   -9.21475E+002   -4.00468E+005    8.09599E+005   -2.58078E+003    1.97872E+005   -5.64068E+003   -9.16605E+002    1.42996E+004   -7.13946E+002    4.04674E+005   -1.37881E+003
            2997    7.01607E+005    4.09111E+005    4.09111E+005   -1.38857E+003   -4.01011E+005    8.10122E+005   -2.23707E+003    2.00255E+005   -5.71277E+003   -1.38710E+003    1.38111E+004    4.75279E+002    4.04942E+005    6.33201E+002
            2998    6.98727E+005    4.07524E+005    4.07524E+005   -5.46786E+002   -3.99278E+005    8.06802E+005   -2.56644E+003    1.89818E+005   -5.15262E+003   -5.20614E+002    1.33726E+004    2.19655E+003    4.03282E+005    2.42613E+003
            2999    6.58930E+005    4.06176E+005    4.06176E+005    1.42178E+003   -3.54161E+005    7.60337E+005   -1.78121E+004    3.17364E+005    1.54161E+004    8.39253E+002    3.71810E+004   -2.84824E+004    3.78916E+005    2.51329E+003
            3000    6.70501E+005    4.14645E+005    4.14645E+005    1.97079E+003   -3.59007E+005    7.73652E+005   -1.92027E+004    3.26459E+005    1.35922E+004    1.98888E+003    4.20271E+004   -2.28034E+004    3.85890E+005   -1.33724E+003
            3001    6.82015E+005    4.22996E+005    4.22996E+005    3.24383E+003   -3.63942E+005    7.86938E+005   -2.07657E+004    3.32027E+005    1.12933E+004    3.49046E+003    4.75133E+004   -1.85788E+004    3.92604E+005   -3.65468E+003
            3002    6.92097E+005    4.28699E+005    4.28699E+005    3.13314E+003   -3.69891E+005    7.98589E+005   -2.06471E+004    3.35247E+005    7.73410E+003    3.40824E+003    5.07988E+004   -1.44726E+004    3.98433E+005   -4.65591E+003
            3003    7.01043E+005    4.34548E+005    4.34548E+005    3.75323E+003   -3.74376E+005    8.08923E+005   -2.13084E+004    3.38399E+005    5.71831E+003    3.95699E+003    5.42499E+004   -1.07810E+004    4.03571E+005   -4.49029E+003
            3004    7.07312E+005    4.38332E+005    4.38332E+005    3.77991E+003   -3.77829E+005    8.16161E+005   -2.14276E+004    3.41013E+005    4.30807E+003    3.87210E+003    5.61027E+004   -6.44716E+003    4.07196E+005   -3.32600E+003
            3005    7.10827E+005    4.40111E+005    4.40111E+005    3.71540E+003   -3.80120E+005    8.20231E+005   -2.12354E+004    3.41319E+005    3.34499E+003    3.73025E+003    5.66308E+004   -2.48113E+003    4.09240E+005   -1.38558E+003
            3006    7.10847E+005    4.39911E+005    4.39911E+005    4.10387E+003   -3.80369E+005    8.20280E+005   -2.12152E+004    3.38660E+005    3.45446E+003    4.10979E+003    5.60814E+004    1.99761E+003    4.09289E+005    7.33520E+002
            3007    7.07429E+005    4.36893E+005    4.36893E+005    3.26929E+003   -3.79446E+005    8.16339E+005   -2.02389E+004    3.36640E+005    3.67931E+003    3.34358E+003    5.36937E+004    5.89630E+003    4.07352E+005    2.93149E+003
            3008    6.66658E+005    4.24993E+005    4.24993E+005   -5.06594E+002   -3.43316E+005    7.68309E+005   -2.70569E+004    3.79933E+005    2.37135E+004   -1.10409E+003    5.85613E+004   -4.51273E+004    3.81062E+005   -1.00045E+003
            3009    6.77759E+005    4.28931E+005    4.28931E+005    5.21599E+002   -3.52465E+005    7.81396E+005   -2.56625E+004    3.72663E+005    1.32800E+004    6.80496E+002    6.30271E+004   -3.66572E+004    3.88168E+005   -3.79469E+003
            3010    6.89479E+005    4.34590E+005    4.34590E+005    1.43416E+002   -3.60409E+005    7.94998E+005   -2.47747E+004    3.74420E+005    6.18015E+003    6.20820E+002    6.75231E+004   -3.01614E+004    3.95146E+005   -5.69886E+003
            3011    7.02267E+005    4.43850E+005    4.43850E+005    1.91650E+003   -3.65929E+005    8.09780E+005   -2.66126E+004    3.79383E+005    2.94933E+003    2.40635E+003    7.44823E+004   -2.37574E+004    4.02580E+005   -6.29172E+003
            3012    7.12700E+005    4.50306E+005    4.50306E+005    2.21873E+003   -3.71530E+005    8.21835E+005   -2.69982E+004    3.83572E+005   -9.38512E+002    2.55566E+003    7.93774E+004   -1.71468E+004    4.08567E+005   -5.63191E+003
            3013    7.20680E+005    4.55772E+005    4.55772E+005    2.62022E+003   -3.75263E+005    8.31034E+005   -2.77098E+004    3.88034E+005   -2.73156E+003    2.76719E+003    8.30937E+004   -1.05260E+004    4.13149E+005   -3.90731E+003
            3014    7.24368E+005    4.57794E+005    4.57794E+005    2.98649E+003   -3.77534E+005    8.35328E+005   -2.77487E+004    3.87672E+005   -4.15364E+003    3.00377E+003    8.43959E+004   -3.13665E+003    4.15297E+005   -1.44954E+003
            3015    7.23657E+005    4.56701E+005    4.56701E+005    2.41750E+003   -3.77812E+005    8.34513E+005   -2.71024E+004    3.87017E+005   -4.03591E+003    2.43634E+003    8.29068E+004    3.58656E+003    4.14969E+005    1.43668E+003
            3016    7.18286E+005    4.52620E+005    4.52620E+005    2.93920E+003   -3.75773E+005    8.28393E+005   -2.65954E+004    3.79704E+005   -2.96281E+003    3.08621E+003    7.96627E+004    1.09889E+004    4.11973E+005    3.77706E+003
            3017    6.78587E+005    4.51393E+005    4.51393E+005    6.17314E+002   -3.29046E+005    7.80439E+005   -4.09883E+004    4.35798E+005    3.91318E+004    7.98412E+001    8.37532E+004   -5.92838E+004    3.84973E+005   -4.71259E+003
            3018    6.93568E+005    4.62708E+005    4.62708E+005    4.63701E+003   -3.35243E+005    7.97951E+005   -4.40342E+004    4.38743E+005    3.36616E+004    4.82146E+003    9.36195E+004   -4.81429E+004    3.94889E+005   -6.19741E+003
            3019    7.09050E+005    4.73662E+005    4.73662E+005    7.26396E+003   -3.42295E+005    8.15957E+005   -4.62102E+004    4.43637E+005    2.72113E+004    7.80842E+003    1.03611E+005   -3.98346E+004    4.04197E+005   -7.51236E+003
            3020    7.22577E+005    4.82612E+005    4.82612E+005    8.23813E+003   -3.49002E+005    8.31614E+005   -4.72829E+004    4.49684E+005    2.14703E+004    8.83076E+003    1.11547E+005   -3.11501E+004    4.12153E+005   -7.82464E+003
            3021    7.35216E+005    4.91458E+005    4.91458E+005    9.75201E+003   -3.54797E+005    8.46255E+005   -4.88043E+004    4.54987E+005    1.71257E+004    1.01733E+004    1.19114E+005   -2.29290E+004    4.19391E+005   -6.84252E+003
            3022    7.43944E+005    4.97594E+005    4.97594E+005    9.83928E+003   -3.58675E+005    8.56269E+005   -4.95862E+004    4.61268E+005    1.47153E+004    1.00210E+004    1.24022E+005   -1.33340E+004    4.24409E+005   -4.68609E+003
            3023    7.48200E+005    4.99789E+005    4.99789E+005    1.00874E+004   -3.61460E+005    8.61250E+005   -4.94721E+004    4.61654E+005    1.26231E+004    1.01028E+004    1.25690E+005   -3.71209E+003    4.26880E+005   -1.38831E+003
            3024    7.46472E+005    4.98086E+005    4.98086E+005    9.96823E+003   -3.61218E+005    8.59304E+005   -4.89454E+004    4.59368E+005    1.27058E+004    9.99923E+003    1.24131E+005    6.33867E+003    4.25975E+005    1.89092E+003
            3025    7.39925E+005    4.91922E+005    4.91922E+005    8.94129E+003   -3.59926E+005    8.51848E+005   -4.69789E+004    4.53017E+005    1.30413E+004    9.16526E+003    1.18730E+005    1.55516E+004    4.22331E+005    5.06287E+003
            3026    6.85138E+005    4.69228E+005    4.69228E+005    8.98543E+002   -3.17128E+005    7.86356E+005   -5.09995E+004    4.70469E+005    5.21020E+004    1.17105E+002    1.00780E+005   -6.90714E+004    3.86160E+005   -6.86853E+003
            3027    6.96788E+005    4.73881E+005    4.73881E+005    4.76889E+003   -3.26771E+005    8.00652E+005   -5.06263E+004    4.62432E+005    3.92864E+004    5.12128E+003    1.07471E+005   -5.82182E+004    3.94532E+005   -8.80258E+003
            3028    7.11375E+005    4.83171E+005    4.83171E+005    6.01640E+003   -3.34455E+005    8.17626E+005   -5.15777E+004    4.67961E+005    3.15269E+004    6.90705E+003    1.16299E+005   -4.89650E+004    4.03592E+005   -1.03665E+004
            3029    7.30023E+005    4.98527E+005    4.98527E+005    9.80739E+003   -3.40642E+005    8.39169E+005   -5.58974E+004    4.77994E+005    2.77111E+004    1.07172E+004    1.29264E+005   -3.91998E+004    4.14595E+005   -1.04588E+004
            3030    7.46164E+005    5.10520E+005    5.10520E+005    1.14105E+004   -3.47252E+005    8.57772E+005   -5.82263E+004    4.87572E+005    2.28500E+004    1.20162E+004    1.39813E+005   -2.81987E+004    4.23902E+005   -8.82323E+003
            3031    7.58495E+005    5.20261E+005    5.20261E+005    1.26370E+004   -3.51656E+005    8.71917E+005   -6.04141E+004    4.96264E+005    2.06899E+004    1.28625E+004    1.47690E+005   -1.63853E+004    4.30981E+005   -5.53278E+003
            3032    7.63604E+005    5.23527E+005    5.23527E+005    1.33523E+004   -3.54363E+005    8.77890E+005   -6.08387E+004    4.97527E+005    1.85710E+004    1.33650E+004    1.50580E+005   -3.07016E+003    4.33942E+005   -1.38111E+003
            3033    7.61141E+005    5.20731E+005    5.20731E+005    1.21202E+004   -3.54317E+005    8.75048E+005   -5.95114E+004    4.96120E+005    1.84747E+004    1.21968E+004    1.47863E+005    9.59775E+003    4.32603E+005    3.23178E+003
            3034    7.50463E+005    5.11650E+005    5.11650E+005    1.15845E+004   -3.51282E+005    8.62932E+005   -5.73173E+004    4.85748E+005    1.93906E+004    1.19582E+004    1.40603E+005    2.24915E+004    4.26569E+005    6.94533E+003
            3035    6.93922E+005    4.93218E+005    4.93218E+005    6.00635E+003   -3.01293E+005    7.94511E+005   -6.59773E+004    5.02702E+005    7.15185E+004    5.10451E+003    1.21309E+005   -7.67324E+004    3.88762E+005   -9.30363E+003
            3036    7.09993E+005    5.08241E+005    5.08241E+005    1.30575E+004   -3.05200E+005    8.13441E+005   -7.20330E+004    5.07890E+005    6.82246E+004    1.27355E+004    1.35139E+005   -6.39685E+004    4.00128E+005   -8.87854E+003
            3037    7.26772E+005    5.21639E+005    5.21639E+005    1.78788E+004   -3.11505E+005    8.33144E+005   -7.60042E+004    5.13634E+005    6.16177E+004    1.84490E+004    1.47946E+005   -5.59468E+004    4.10448E+005   -1.10010E+004
            3038    7.44946E+005    5.37320E+005    5.37320E+005    1.98126E+004   -3.16483E+005    8.53804E+005   -8.02165E+004    5.28801E+005    5.88369E+004    2.07412E+004    1.61071E+005   -4.54180E+004    4.21320E+005   -1.19323E+004
            3039    7.64024E+005    5.53523E+005    5.53523E+005    2.38243E+004   -3.22306E+005    8.75829E+005   -8.50138E+004    5.40201E+005    5.61561E+004    2.44461E+004    1.74439E+005   -3.36356E+004    4.32550E+005   -9.85828E+003
            3040    7.78345E+005    5.65519E+005    5.65519E+005    2.55589E+004   -3.26678E+005    8.92196E+005   -8.81332E+004    5.50998E+005    5.51633E+004    2.57943E+004    1.83442E+005   -1.87111E+004    4.41049E+005   -6.12495E+003
            3041    7.84626E+005    5.69913E+005    5.69913E+005    2.68206E+004   -3.29666E+005    8.99579E+005   -8.90225E+004    5.52958E+005    5.34103E+004    2.68254E+004    1.86832E+005   -2.44899E+003    4.44808E+005   -8.79878E+002
            3042    7.80611E+005    5.65869E+005    5.65869E+005    2.56031E+004   -3.29114E+005    8.94984E+005   -8.74526E+004    5.50031E+005    5.27472E+004    2.56956E+004    1.83915E+005    1.41926E+004    4.42424E+005    3.98402E+003
            3043    7.68372E+005    5.53872E+005    5.53872E+005    2.25104E+004   -3.27143E+005    8.81015E+005   -8.30799E+004    5.40521E+005    5.15188E+004    2.29677E+004    1.74753E+005    2.89739E+004    4.35178E+005    8.50557E+003
            3044    6.87229E+005    4.99488E+005    4.99488E+005    8.69665E+003   -2.85932E+005    7.85421E+005   -7.40842E+004    5.13237E+005    8.82998E+004    6.83679E+003    1.27116E+005   -7.79409E+004    3.84089E+005   -7.80629E+003
            3045    6.90864E+005    5.02427E+005    5.02427E+005    1.22400E+004   -2.87718E+005    7.90145E+005   -7.56498E+004    5.10128E+005    8.29883E+004    1.28823E+004    1.31079E+005   -7.27710E+004    3.87428E+005   -1.29865E+004
            3046    7.05257E+005    5.19392E+005    5.19392E+005    1.75553E+004   -2.86960E+005    8.06352E+005   -8.33291E+004    5.23390E+005    8.36213E+004    1.87551E+004    1.47611E+005   -6.37478E+004    3.96709E+005   -1.42441E+004
            3047    7.27276E+005    5.42818E+005    5.42818E+005    2.60438E+004   -2.88840E+005    8.31658E+005   -9.33408E+004    5.38396E+005    8.50771E+004    2.70896E+004    1.67856E+005   -5.52363E+004    4.09967E+005   -1.34780E+004
            3048    7.50549E+005    5.66094E+005    5.66094E+005    3.38764E+004   -2.92368E+005    8.58462E+005   -1.02534E+005    5.53613E+005    8.72400E+004    3.45951E+004    1.85767E+005   -4.04027E+004    4.24420E+005   -1.10238E+004
            3049    7.67572E+005    5.82921E+005    5.82921E+005    3.92903E+004   -2.95126E+005    8.78047E+005   -1.09029E+005    5.64951E+005    8.86237E+004    3.95357E+004    1.98926E+005   -2.19078E+004    4.34976E+005   -6.46359E+003
            3050    7.74335E+005    5.88966E+005    5.88966E+005    4.11727E+004   -2.96925E+005    8.85891E+005   -1.11072E+005    5.68762E+005    8.83337E+004    4.11754E+004    2.03706E+005   -1.11994E+003    4.39171E+005   -7.25924E+002
            3051    7.70288E+005    5.84099E+005    5.84099E+005    3.89641E+004   -2.97126E+005    8.81225E+005   -1.08646E+005    5.66171E+005    8.72686E+004    3.91316E+004    1.99537E+005    1.93477E+004    4.36580E+005    5.45611E+003
            3052    7.54469E+005    5.67254E+005    5.67254E+005    3.42021E+004   -2.96026E+005    8.63280E+005   -1.01810E+005    5.52885E+005    8.39148E+004    3.47401E+004    1.86776E+005    3.85613E+004    4.26776E+005    9.89380E+003
            3053    7.26635E+005    5.88944E+005    5.88944E+005    5.83777E+004   -2.39255E+005    8.28198E+005   -1.36022E+005    5.62695E+005    1.44349E+005    5.84826E+004    2.05236E+005    4.75687E+004    4.10143E+005    9.11790E+003
            3054    7.41482E+005    6.10143E+005    6.10143E+005    7.00845E+004   -2.35254E+005    8.45397E+005   -1.48324E+005    5.71956E+005    1.53402E+005    7.01490E+004    2.21423E+005    2.55875E+004    4.20527E+005    5.20122E+003
            3055    7.47803E+005    6.18722E+005    6.18722E+005    7.42829E+004   -2.33928E+005    8.52650E+005   -1.53026E+005    5.76459E+005    1.56756E+005    7.42829E+004    2.28037E+005   -2.12915E+001    4.24832E+005    1.14819E+002
            3056    7.40200E+005    6.09532E+005    6.09532E+005    6.97826E+004   -2.34276E+005    8.43808E+005   -1.48346E+005    5.72006E+005    1.54113E+005    6.98943E+004    2.21031E+005   -2.54475E+004    4.19783E+005   -5.56143E+003
            3057    7.24127E+005    5.88110E+005    5.88110E+005    5.85839E+004   -2.37065E+005    8.25174E+005   -1.36543E+005    5.62056E+005    1.45890E+005    5.86285E+004    2.05111E+005   -4.73932E+004    4.08696E+005   -8.84967E+003
            3058    7.05460E+005    5.60835E+005    5.60835E+005    4.32975E+004   -2.42719E+005    8.03554E+005   -1.20471E+005    5.50279E+005    1.34656E+005    4.28627E+004    1.83895E+005   -6.41852E+004    3.95652E+005   -1.03672E+004
            3059    6.84671E+005    5.31855E+005    5.31855E+005    2.82781E+004   -2.47742E+005    7.79597E+005   -1.04130E+005    5.36147E+005    1.22301E+005    2.64851E+004    1.63605E+005   -7.44698E+004    3.81681E+005   -9.14661E+003
            3060    6.76745E+005    5.15003E+005    5.15003E+005    1.39197E+004   -2.54837E+005    7.69840E+005   -9.13620E+004    5.35236E+005    1.12427E+005    1.17419E+004    1.49917E+005   -7.28449E+004    3.77071E+005   -8.15013E+003
            3061    6.88656E+005    5.17340E+005    5.17340E+005    1.54035E+004   -2.67756E+005    7.85096E+005   -8.83291E+004    5.31796E+005    1.07703E+005    1.41055E+004    1.43179E+005   -7.98628E+004    3.83596E+005   -1.06031E+004
            3062    6.42255E+005    3.79616E+005    3.79616E+005    1.07436E+003   -3.61942E+005    7.41558E+005   -6.24959E+003    2.12565E+005    6.89259E+003    3.00417E+002    1.15558E+004   -1.29445E+004    3.70379E+005    1.08133E+004
            3063    6.48713E+005    4.01219E+005    4.01219E+005    9.88682E+002   -3.47249E+005    7.48467E+005   -1.83196E+004    3.19941E+005    2.13049E+004   -9.64812E+002    3.46186E+004   -3.72521E+004    3.72158E+005    7.98002E+003
            3064    6.57534E+005    4.23158E+005    4.23158E+005    3.51437E+002   -3.34393E+005    7.57551E+005   -2.97056E+004    3.84330E+005    3.55220E+004   -2.18204E+003    5.57767E+004   -5.75026E+004    3.74073E+005    3.85361E+003
            3065    6.66187E+005    4.45166E+005    4.45166E+005   -1.30805E+003   -3.20566E+005    7.65732E+005   -4.10975E+004    4.37360E+005    5.11258E+004   -3.79347E+003    7.59601E+004   -7.30569E+004    3.75407E+005   -1.31797E+003
            3066    6.74223E+005    4.66361E+005    4.66361E+005    2.48239E+002   -3.06724E+005    7.73085E+005   -5.32948E+004    4.74000E+005    6.68473E+004   -2.58246E+003    9.56195E+004   -8.35142E+004    3.76805E+005   -4.49007E+003
            3067    6.80473E+005    4.85977E+005    4.85977E+005    5.72792E+003   -2.92723E+005    7.78700E+005   -6.63270E+004    4.97677E+005    8.34448E+004    2.96648E+003    1.12570E+005   -8.84022E+004    3.78499E+005   -6.96434E+003
            3068    6.88688E+005    5.06408E+005    5.06408E+005    1.14132E+004   -2.80094E+005    7.86502E+005   -7.92423E+004    5.19935E+005    9.88439E+004    9.53391E+003    1.29349E+005   -9.11709E+004    3.81833E+005   -1.05629E+004
            3069    5.98290E+005    3.31732E+005   -3.59008E+005   -3.15808E+003   -3.59008E+005    6.90740E+005    1.01445E+004   -2.24063E+005   -9.23780E+003   -2.97132E+003   -1.82243E+004   -7.66611E+003    3.45229E+005   -4.01614E+003
            3070    6.08808E+005    3.37200E+005   -3.65619E+005   -7.73497E+002   -3.65619E+005    7.02819E+005    9.73093E+003   -2.46240E+005   -7.62606E+003   -8.46004E+002   -2.07207E+004   -5.55278E+003    3.51298E+005    2.45934E+003
            3071    6.18349E+005    3.42357E+005   -3.71530E+005   -3.19665E+003   -3.71530E+005    7.13887E+005    1.07899E+004   -2.35489E+005   -5.99990E+003   -3.31514E+003   -2.30547E+004   -4.32175E+003    3.56782E+005    5.03232E+003
            3072    6.26329E+005    3.46888E+005   -3.76172E+005   -1.37942E+003   -3.76172E+005    7.23060E+005    1.02212E+004   -2.49861E+005   -4.68414E+003   -1.46059E+003   -2.45189E+004   -2.85521E+003    3.61346E+005    5.26967E+003
            3073    6.03071E+005    3.19726E+005   -3.75802E+005    1.55358E+003   -3.75802E+005    6.95527E+005    1.81741E+004   -3.18085E+005   -9.40083E+003    1.91183E+003   -4.70333E+004   -2.24180E+004    3.46512E+005   -1.18370E+003
            3074    6.13415E+005    3.26965E+005   -3.80701E+005   -7.05487E+002   -3.80701E+005    7.07666E+005    1.81472E+004   -3.08853E+005   -1.70689E+003   -9.15301E+002   -5.18195E+004   -1.72951E+004    3.52512E+005    3.39218E+003
            3075    6.23876E+005    3.32836E+005   -3.86829E+005    9.90621E+002   -3.86829E+005    7.19665E+005    1.76675E+004   -3.19426E+005    2.90467E+003    6.11556E+002   -5.65188E+004   -1.29436E+004    3.58329E+005    6.28202E+003
            3076    6.33064E+005    3.37005E+005   -3.93328E+005   -1.14799E+003   -3.93328E+005    7.30333E+005    1.91572E+004   -3.18798E+005    5.76556E+003   -1.41133E+003   -6.18258E+004   -9.56734E+003    3.63437E+005    5.78314E+003
            3077    6.18030E+005    2.97574E+005   -4.13384E+005   -4.38028E+003   -4.13384E+005    7.10958E+005    4.00632E+004   -3.93045E+005   -3.17129E+004   -3.89706E+003   -8.45795E+004   -3.59553E+004    3.52625E+005    1.76432E+003
            3078    6.30266E+005    3.05689E+005   -4.19385E+005   -2.66330E+003   -4.19385E+005    7.25074E+005    3.87866E+004   -3.99867E+005   -2.08685E+004   -3.08343E+003   -9.24078E+004   -2.73312E+004    3.59710E+005    6.17452E+003
            3079    6.42048E+005    3.11554E+005   -4.27460E+005   -6.77961E+003   -4.27460E+005    7.39014E+005    4.08953E+004   -3.97377E+005   -1.33382E+004   -7.28547E+003   -1.02062E+005   -2.10516E+004    3.66195E+005    7.13975E+003
            3080    6.52835E+005    3.16689E+005   -4.34606E+005   -5.47657E+003   -4.34606E+005    7.51295E+005    4.11313E+004   -4.07703E+005   -7.62927E+003   -5.92220E+003   -1.09842E+005   -1.52510E+004    3.71797E+005    7.57449E+003
            3081    6.28077E+005    2.88046E+005   -4.32120E+005    2.13732E+003   -4.32120E+005    7.20165E+005    4.73123E+004   -4.41655E+005   -3.48195E+004    2.34411E+003   -1.09461E+005   -4.71662E+004    3.54939E+005    6.71203E+003
            3082    6.39106E+005    2.95972E+005   -4.37912E+005   -3.76035E+003   -4.37912E+005    7.33884E+005    4.85668E+004   -4.32928E+005   -2.15109E+004   -4.11651E+003   -1.20073E+005   -3.77888E+004    3.61598E+005    7.79417E+003
            3083    6.52478E+005    3.03120E+005   -4.46298E+005   -4.45413E+003   -4.46298E+005    7.49418E+005    4.92108E+004   -4.38877E+005   -1.22353E+004   -5.30663E+003   -1.30090E+005   -2.89896E+004    3.68840E+005    1.03606E+004
            3084    6.67454E+005    3.07841E+005   -4.58831E+005   -7.26110E+003   -4.58831E+005    7.66672E+005    5.27507E+004   -4.48013E+005   -6.25306E+003   -7.94500E+003   -1.44054E+005   -2.28649E+004    3.76334E+005    9.78359E+003
            3085    6.55565E+005    2.66078E+005   -4.82097E+005   -8.30131E+003   -4.82097E+005    7.48175E+005    7.47735E+004   -4.99451E+005   -6.75728E+004   -7.18032E+003   -1.49567E+005   -5.53576E+004    3.67466E+005    7.22686E+003
            3086    6.64623E+005    2.75885E+005   -4.83809E+005   -9.76225E+003   -4.83809E+005    7.59693E+005    7.25621E+004   -4.95272E+005   -5.10452E+004   -1.01191E+004   -1.56522E+005   -4.35808E+004    3.73542E+005    1.01549E+004
            3087    6.79696E+005    2.81439E+005   -4.96183E+005   -1.53698E+004   -4.96183E+005    7.77622E+005    7.67046E+004   -4.99194E+005   -4.08387E+004   -1.63613E+004   -1.72914E+005   -3.67723E+004    3.81299E+005    1.27426E+004
            3088    6.98037E+005    2.87168E+005   -5.11119E+005   -1.54891E+004   -5.11119E+005    7.98287E+005    7.98131E+004   -5.16074E+005   -3.38386E+004   -1.63924E+004   -1.89208E+005   -2.85461E+004    3.90378E+005    1.25278E+004
            3089    6.45944E+005    2.54762E+005   -4.80424E+005   -3.88151E+003   -4.80424E+005    7.35186E+005    7.65145E+004   -5.08137E+005   -7.18803E+004   -2.16466E+003   -1.55498E+005   -5.68478E+004    3.60425E+005    7.02820E+003
            3090    6.55347E+005    2.57991E+005   -4.89251E+005   -1.21828E+004   -4.89251E+005    7.47242E+005    8.11476E+004   -5.05091E+005   -6.36900E+004   -1.32209E+004   -1.66532E+005   -5.44197E+004    3.65878E+005    1.50541E+004
            3091    6.79620E+005    2.62974E+005   -5.11359E+005   -1.37829E+004   -5.11359E+005    7.74333E+005    8.73890E+004   -5.28486E+005   -5.73187E+004   -1.53278E+004   -1.89521E+005   -4.48866E+004    3.78675E+005    1.69526E+004
            3092    7.02745E+005    2.66285E+005   -5.34727E+005   -2.18175E+004   -5.34727E+005    8.01012E+005    9.67534E+004   -5.43845E+005   -5.39517E+004   -2.30546E+004   -2.13254E+005   -3.80414E+004    3.90520E+005    1.56836E+004
            3093    6.70857E+005    2.31503E+005   -5.29968E+005   -2.60635E+004   -5.29968E+005    7.61471E+005    1.08176E+005   -5.41548E+005   -1.12957E+005   -2.39892E+004   -1.87583E+005   -5.91622E+004    3.73845E+005    6.98051E+003
            3094    6.75221E+005    2.31152E+005   -5.32711E+005   -1.54743E+004   -5.32711E+005    7.63863E+005    1.05678E+005   -5.59512E+005   -1.00617E+005   -1.55836E+004   -2.00832E+005   -5.58465E+004    3.74225E+005    1.45893E+004
            3095    6.92101E+005    2.28967E+005   -5.54874E+005   -2.80543E+004   -5.54874E+005    7.83841E+005    1.17987E+005   -5.68807E+005   -1.04425E+005   -2.85389E+004   -2.20998E+005   -5.43963E+004    3.83491E+005    1.56709E+004
            3096    7.20819E+005    2.30828E+005   -5.85664E+005   -3.74711E+004   -5.85664E+005    8.16492E+005    1.30769E+005   -5.91717E+005   -1.06369E+005   -3.83949E+004   -2.47543E+005   -4.56198E+004    3.99335E+005    1.61700E+004
            3097    6.87872E+005    1.79935E+005   -5.95412E+005   -5.84206E+004   -5.95412E+005    7.75347E+005    1.57966E+005   -5.83476E+005   -1.67239E+005   -5.80608E+004   -2.48598E+005   -5.75681E+004    3.80889E+005    1.38257E+004
            3098    6.66574E+005    1.92016E+005   -5.58300E+005   -3.45155E+004   -5.58300E+005    7.50316E+005    1.33600E+005   -5.69783E+005   -1.50812E+005   -3.27011E+004   -2.17287E+005   -6.71957E+004    3.66993E+005    1.29557E+004
            3099    6.37130E+005    1.98618E+005   -5.18557E+005   -1.79139E+004   -5.18557E+005    7.17175E+005    1.12618E+005   -5.44608E+005   -1.36770E+005   -1.38381E+004   -1.87245E+005   -7.13208E+004    3.49552E+005    9.13065E+003
            3100    6.28816E+005    2.01910E+005   -4.99887E+005    1.23233E+004   -4.99887E+005    7.01796E+005    9.52180E+004   -5.58878E+005   -1.26548E+005    1.44020E+004   -1.73508E+005   -5.54681E+004    3.45048E+005    1.02541E+004
            3101    5.86192E+005    3.27265E+005   -3.49480E+005    4.45352E+002   -3.49480E+005    6.76744E+005    7.25665E+003   -2.28327E+005   -8.00658E+003    1.35505E+003   -1.51184E+004   -1.08916E+004    3.37887E+005   -1.36301E+004
            3102    5.94264E+005    3.07466E+005   -3.77760E+005   -3.53121E+003   -3.77760E+005    6.85225E+005    2.46085E+004   -3.21945E+005   -2.58197E+004   -1.12882E+003   -4.68770E+004   -3.20002E+004    3.40672E+005   -1.05322E+004
            3103    6.06272E+005    2.91548E+005   -4.05224E+005    1.87194E+003   -4.05224E+005    6.96772E+005    3.72678E+004   -3.99853E+005   -4.25428E+004    4.54151E+003   -7.38022E+004   -4.96225E+004    3.44226E+005   -3.52598E+003
            3104    6.23360E+005    2.74698E+005   -4.38805E+005    1.83292E+002   -4.38805E+005    7.13503E+005    5.46413E+004   -4.54105E+005   -6.22059E+004    3.02967E+003   -1.04748E+005   -6.31422E+004    3.50126E+005    1.99712E+003
            3105    6.39663E+005    2.58849E+005   -4.68679E+005    5.51955E+003   -4.68679E+005    7.27528E+005    6.81033E+004   -5.06802E+005   -8.19571E+004    7.13852E+003   -1.29491E+005   -7.22439E+004    3.55322E+005    1.02970E+004
            3106    6.66823E+005    2.41423E+005   -5.14063E+005   -7.54009E+003   -5.14063E+005    7.55486E+005    9.33936E+004   -5.46529E+005   -1.05239E+005   -5.15823E+003   -1.69783E+005   -7.53513E+004    3.68134E+005    1.17079E+004
            3107    6.73816E+005    2.22867E+005   -5.35170E+005   -4.28393E+003   -5.35170E+005    7.58037E+005    1.05529E+005   -5.77746E+005   -1.25050E+005   -3.54219E+003   -1.87995E+005   -5.72272E+004    3.72988E+005    1.25039E+004
            3108    7.12029E+005    1.69879E+005   -6.32821E+005   -7.73965E+004   -6.32821E+005    8.02700E+005    1.80113E+005   -6.03416E+005   -1.82880E+005   -7.77152E+004   -2.79744E+005   -4.26870E+004    3.95982E+005    1.26855E+004
            3109    7.29154E+005    1.62515E+005   -6.60147E+005   -9.36177E+004   -6.60147E+005    8.22662E+005    1.97083E+005   -6.14982E+005   -1.94360E+005   -9.37480E+004   -3.03142E+005   -2.33333E+004    4.07010E+005    7.27789E+003
            3110    7.36975E+005    1.59723E+005   -6.71889E+005   -9.97257E+004   -6.71889E+005    8.31613E+005    2.03964E+005   -6.20996E+005   -1.99119E+005   -9.97256E+004   -3.13047E+005   -5.56914E+002    4.11886E+005    1.13243E+002
            3111    7.28904E+005    1.61777E+005   -6.60449E+005   -9.35808E+004   -6.60449E+005    8.22226E+005    1.97418E+005   -6.15472E+005   -1.95219E+005   -9.37757E+004   -3.03258E+005    2.26765E+004    4.06882E+005   -7.69238E+003
            3112    7.09454E+005    1.67447E+005   -6.32191E+005   -7.82314E+004   -6.32191E+005    7.99639E+005    1.80992E+005   -6.01938E+005   -1.84805E+005   -7.85170E+004   -2.79654E+005    4.24386E+004    3.94580E+005   -1.24714E+004
            3113    6.86098E+005    1.77744E+005   -5.94726E+005   -5.61803E+004   -5.94726E+005    7.72470E+005    1.57721E+005   -5.85736E+005   -1.69327E+005   -5.60421E+004   -2.47792E+005    5.74219E+004    3.79612E+005   -1.46619E+004
            3114    6.59576E+005    1.86535E+005   -5.55395E+005   -3.54503E+004   -5.55395E+005    7.41930E+005    1.34770E+005   -5.65884E+005   -1.54149E+005   -3.39251E+004   -2.16236E+005    6.61556E+004    3.63134E+005   -1.34071E+004
            3115    6.45952E+005    1.95994E+005   -5.28680E+005   -1.34048E+004   -5.28680E+005    7.24674E+005    1.15364E+005   -5.61608E+005   -1.40816E+005   -1.19615E+004   -1.93313E+005    6.31783E+004    3.55263E+005   -1.31682E+004
            3116    6.67351E+005    2.08068E+005   -5.41079E+005   -1.01677E+004   -5.41079E+005    7.49147E+005    1.14393E+005   -5.78492E+005   -1.40746E+005   -9.90736E+003   -1.92525E+005    6.71652E+004    3.67150E+005   -1.68455E+004
            3117    7.44813E+005    2.29173E+005   -6.14870E+005   -4.98813E+004   -6.14870E+005    8.44043E+005    1.45193E+005   -6.09338E+005   -1.13396E+005   -5.05024E+004   -2.71680E+005   -3.32289E+004    4.13108E+005    1.28441E+004
            3118    7.26687E+005    2.69992E+005   -5.57942E+005   -2.57884E+004   -5.57942E+005    8.27934E+005    1.04579E+005   -5.65280E+005   -5.30387E+004   -2.64478E+004   -2.34252E+005   -2.58246E+004    4.03026E+005    1.18274E+004
            3119    7.13336E+005    2.89819E+005   -5.25849E+005   -1.87106E+004   -5.25849E+005    8.15668E+005    8.49136E+004   -5.28570E+005   -3.11807E+004   -1.91494E+004   -2.04411E+005   -1.93540E+004    3.98013E+005    9.02661E+003
            3120    6.80205E+005    3.11834E+005   -4.69199E+005   -6.78644E+003   -4.69199E+005    7.81033E+005    5.47171E+004   -4.61526E+005   -2.52257E+003   -7.11681E+003   -1.54512E+005   -1.38668E+004    3.82763E+005    7.23405E+003
            3121    6.61275E+005    3.18769E+005   -4.42199E+005   -7.12010E+003   -4.42199E+005    7.60968E+005    4.35165E+004   -4.14022E+005   -5.36183E+003   -7.29764E+003   -1.17890E+005   -9.42351E+003    3.76164E+005    4.92988E+003
            3122    6.39582E+005    3.40359E+005   -3.97418E+005    2.57273E+002   -3.97418E+005    7.37777E+005    1.89340E+004   -3.27827E+005    7.99505E+003    1.47376E+002   -6.49443E+004   -5.37011E+003    3.67022E+005    4.21172E+003
            3123    6.31801E+005    3.49251E+005   -3.80149E+005   -3.02236E+003   -3.80149E+005    7.29400E+005    1.13069E+004   -2.45927E+005   -4.54463E+003   -3.05659E+003   -2.63196E+004   -1.84825E+003    3.64517E+005    3.44689E+003
            3124    7.63008E+005    2.29014E+005   -6.35625E+005   -5.67409E+004   -6.35625E+005    8.64638E+005    1.54451E+005   -6.24357E+005   -1.17504E+005   -5.69749E+004   -2.88873E+005   -1.71210E+004    4.23369E+005    7.60104E+003
            3125    7.40869E+005    2.71427E+005   -5.72814E+005   -3.09836E+004   -5.72814E+005    8.44241E+005    1.10790E+005   -5.75152E+005   -5.29762E+004   -3.11176E+004   -2.48278E+005   -1.27548E+004    4.10454E+005    5.53546E+003
            3126    7.23865E+005    2.92140E+005   -5.35382E+005   -1.97073E+004   -5.35382E+005    8.27522E+005    8.76495E+004   -5.38284E+005   -2.95842E+004   -1.97952E+004   -2.13569E+005   -8.33265E+003    4.03309E+005    4.13069E+003
            3127    6.87876E+005    3.13583E+005   -4.76237E+005   -8.44806E+003   -4.76237E+005    7.89820E+005    5.70340E+004   -4.67087E+005   -6.65047E+002   -8.49236E+003   -1.61944E+005   -5.80119E+003    3.86541E+005    2.62743E+003
            3128    6.65573E+005    3.20386E+005   -4.45417E+005   -6.41107E+003   -4.45417E+005    7.65803E+005    4.38140E+004   -4.19558E+005   -3.59334E+003   -6.43190E+003   -1.21417E+005   -3.06847E+003    3.78327E+005    1.75001E+003
            3129    6.42863E+005    3.41451E+005   -4.00131E+005   -7.81955E+002   -4.00131E+005    7.41582E+005    1.98208E+004   -3.28081E+005    8.77534E+003   -7.91491E+002   -6.74461E+004   -1.90673E+003    3.68821E+005    1.09088E+003
            3130    6.34188E+005    3.50636E+005   -3.81497E+005   -1.95728E+003   -3.81497E+005    7.32132E+005    1.09395E+004   -2.53274E+005   -4.12347E+003   -1.95893E+003   -2.67362E+004   -3.48328E+002    3.65890E+005    8.86512E+002
            3131    7.68427E+005    2.27797E+005   -6.42880E+005   -5.94822E+004   -6.42880E+005    8.70677E+005    1.58188E+005   -6.29368E+005   -1.20411E+005   -5.94851E+004   -2.94669E+005    9.85963E+002    4.26529E+005   -9.14052E+002
            3132    7.45742E+005    2.71380E+005   -5.78191E+005   -3.17359E+004   -5.78191E+005    8.49571E+005    1.12849E+005   -5.80669E+005   -5.41478E+004   -3.17445E+004   -2.52654E+005    2.49408E+003    4.13019E+005   -1.38376E+003
            3133    7.26067E+005    2.91309E+005   -5.38559E+005   -2.03689E+004   -5.38559E+005    8.29869E+005    8.92062E+004   -5.41634E+005   -3.06733E+004   -2.03905E+004   -2.16555E+005    3.27306E+003    4.04375E+005   -2.12791E+003
            3134    6.89461E+005    3.13507E+005   -4.77975E+005   -7.91580E+003   -4.77975E+005    7.91482E+005    5.74613E+004   -4.70781E+005   -9.99869E+002   -7.94228E+003   -1.63442E+005    3.81354E+003    3.87295E+005   -2.10949E+003
            3135    6.65715E+005    3.19541E+005   -4.46377E+005   -6.80884E+003   -4.46377E+005    7.65917E+005    4.45483E+004   -4.20849E+005   -4.19860E+003   -6.83756E+003   -1.22609E+005    3.11118E+003    3.78337E+005   -2.22054E+003
            3136    6.42767E+005    3.41316E+005   -4.00116E+005   -1.10682E+002   -4.00116E+005    7.41432E+005    1.96369E+004   -3.30809E+005    8.77624E+003   -1.33430E+002   -6.75534E+004    2.34098E+003    3.68734E+005   -1.99307E+003
            3137    6.33730E+005    3.50153E+005   -3.81460E+005   -2.60147E+003   -3.81460E+005    7.31613E+005    1.13028E+004   -2.50489E+005   -4.37108E+003   -2.60838E+003   -2.69291E+004    6.51841E+002    3.65627E+005   -1.97439E+003
            3138    7.60727E+005    2.26684E+005   -6.35194E+005   -5.73582E+004   -6.35194E+005    8.61879E+005    1.55289E+005   -6.23469E+005   -1.20097E+005   -5.76599E+004   -2.88111E+005    1.91733E+004    4.22202E+005   -8.57641E+003
            3139    7.38424E+005    2.69547E+005   -5.71673E+005   -3.05100E+004   -5.71673E+005    8.41220E+005    1.10878E+005   -5.75085E+005   -5.50701E+004   -3.08402E+004   -2.46725E+005    1.70209E+004    4.09155E+005   -8.46678E+003
            3140    7.20425E+005    2.89554E+005   -5.33947E+005   -2.02327E+004   -5.33947E+005    8.23501E+005    8.82084E+004   -5.36614E+005   -3.22074E+004   -2.05295E+004   -2.11888E+005    1.48745E+004    4.01521E+005   -7.55589E+003
            3141    6.84547E+005    3.11686E+005   -4.74230E+005   -8.08383E+003   -4.74230E+005    7.85916E+005    5.68760E+004   -4.66194E+005   -2.41689E+003   -8.35155E+003   -1.59860E+005    1.23046E+004    3.84764E+005   -6.61088E+003
            3142    6.61983E+005    3.18120E+005   -4.43539E+005   -6.78643E+003   -4.43539E+005    7.61659E+005    4.40683E+004   -4.17590E+005   -5.28921E+003   -6.98970E+003   -1.19926E+005    9.54145E+003    3.76346E+005   -5.44161E+003
            3143    6.39340E+005    3.39662E+005   -3.97837E+005   -3.25304E+002   -3.97837E+005    7.37498E+005    1.95002E+004   -3.27651E+005    8.06774E+003   -4.60476E+002   -6.61078E+004    5.83975E+003    3.66807E+005   -4.74224E+003
            3144    6.30616E+005    3.48596E+005   -3.79422E+005   -2.37864E+003   -3.79422E+005    7.28018E+005    1.10681E+004   -2.49553E+005   -4.64604E+003   -2.42694E+003   -2.61312E+004    2.07371E+003    3.63819E+005   -4.33138E+003
            3145    7.41999E+005    2.26093E+005   -6.14183E+005   -4.90830E+004   -6.14183E+005    8.40276E+005    1.45724E+005   -6.10238E+005   -1.17174E+005   -4.99444E+004   -2.70054E+005    3.53077E+004    4.11508E+005   -1.45500E+004
            3146    7.20702E+005    2.65468E+005   -5.55411E+005   -2.65269E+004   -5.55411E+005    8.20880E+005    1.05490E+005   -5.62436E+005   -5.75842E+004   -2.74711E+004   -2.31415E+005    3.06552E+004    3.99852E+005   -1.40157E+004
            3147    7.08310E+005    2.85773E+005   -5.23774E+005   -1.81080E+004   -5.23774E+005    8.09547E+005    8.53698E+004   -5.28655E+005   -3.61847E+004   -1.88584E+004   -2.01066E+005    2.49109E+004    3.95427E+005   -1.17187E+004
            3148    6.74035E+005    3.07859E+005   -4.66008E+005   -7.15758E+003   -4.66008E+005    7.73866E+005    5.51022E+004   -4.58731E+005   -6.19289E+003   -7.79094E+003   -1.51323E+005    2.08404E+004    3.79431E+005   -9.72468E+003
            3149    6.54864E+005    3.14944E+005   -4.38499E+005   -6.19100E+003   -4.38499E+005    7.53443E+005    4.32486E+004   -4.13746E+005   -8.62759E+003   -6.62767E+003   -1.14490E+005    1.49665E+004    3.72639E+005   -7.61337E+003
            3150    6.33162E+005    3.36734E+005   -3.93650E+005   -1.88085E+002   -3.93650E+005    7.30384E+005    1.90349E+004   -3.23674E+005    6.35527E+003   -4.85435E+002   -6.29745E+004    9.61793E+003    3.63370E+005   -6.42676E+003
            3151    6.25339E+005    3.45800E+005   -3.76126E+005   -2.27551E+003   -3.76126E+005    7.21926E+005    1.08674E+004   -2.47227E+005   -5.39377E+003   -2.36506E+003   -2.48434E+004    2.92826E+003    3.60777E+005   -5.65260E+003
            3152    7.15603E+005    2.24550E+005   -5.85513E+005   -3.92830E+004   -5.85513E+005    8.10063E+005    1.33415E+005   -5.90267E+005   -1.13924E+005   -4.03715E+004   -2.45950E+005    4.74666E+004    3.96613E+005   -1.70448E+004
            3153    6.98156E+005    2.62304E+005   -5.33002E+005   -2.11599E+004   -5.33002E+005    7.95305E+005    9.72861E+004   -5.44034E+005   -5.94454E+004   -2.26054E+004   -2.09807E+005    4.07516E+004    3.88196E+005   -1.67980E+004
            3154    6.91855E+005    2.81529E+005   -5.09443E+005   -1.68174E+004   -5.09443E+005    7.90972E+005    8.15774E+004   -5.14037E+005   -4.07126E+004   -1.78429E+004   -1.86177E+005    3.41403E+004    3.87138E+005   -1.32846E+004
            3155    6.60604E+005    3.03589E+005   -4.54900E+005   -5.52172E+003   -4.54900E+005    7.58488E+005    5.22775E+004   -4.48867E+005   -1.06767E+004   -6.37393E+003   -1.39782E+005    2.79121E+004    3.72591E+005   -1.07170E+004
            3156    6.45392E+005    3.11189E+005   -4.31425E+005   -6.04232E+003   -4.31425E+005    7.42615E+005    4.20928E+004   -4.06034E+005   -1.24603E+004   -6.65113E+003   -1.07167E+005    2.06278E+004    3.67649E+005   -8.26511E+003
            3157    6.25094E+005    3.33099E+005   -3.87981E+005    3.85309E+002   -3.87981E+005    7.21080E+005    1.81655E+004   -3.19231E+005    3.97242E+003   -4.30796E+000   -5.84646E+004    1.26971E+004    3.58917E+005   -6.53991E+003
            3158    6.18476E+005    3.42060E+005   -3.71949E+005   -2.50282E+003   -3.71949E+005    7.14010E+005    1.07972E+004   -2.42551E+005   -6.23762E+003   -2.62943E+003   -2.35246E+004    4.16308E+003    3.56834E+005   -5.58473E+003
            3159    6.93186E+005    2.25933E+005   -5.58428E+005   -2.80824E+004   -5.58428E+005    7.84361E+005    1.20193E+005   -5.73492E+005   -1.10558E+005   -2.89258E+004   -2.21094E+005    5.39209E+004    3.84289E+005   -1.67831E+004
            3160    6.74484E+005    2.57422E+005   -5.10889E+005   -1.62672E+004   -5.10889E+005    7.68311E+005    8.99111E+004   -5.25806E+005   -6.48750E+004   -1.76484E+004   -1.87210E+005    4.99891E+004    3.75780E+005   -1.66129E+004
            3161    6.76257E+005    2.75934E+005   -4.96818E+005   -1.31602E+004   -4.96818E+005    7.72752E+005    7.80150E+004   -5.06301E+005   -4.92271E+004   -1.39765E+004   -1.70842E+005    4.07767E+004    3.79281E+005   -1.22991E+004
            3162    6.46299E+005    2.97702E+005   -4.44277E+005   -3.97785E+003   -4.44277E+005    7.41979E+005    5.01841E+004   -4.40578E+005   -1.76422E+004   -4.82343E+003   -1.28087E+005    3.48344E+004    3.65132E+005   -1.03530E+004
            3163    6.35201E+005    3.06132E+005   -4.24630E+005   -4.75372E+003   -4.24630E+005    7.30763E+005    4.10839E+004   -4.02723E+005   -1.91643E+004   -5.28755E+003   -9.88000E+004    2.50983E+004    3.62307E+005   -7.11077E+003
            3164    6.16262E+005    3.28536E+005   -3.82367E+005    2.96675E+002   -3.82367E+005    7.10904E+005    1.78447E+004   -3.13878E+005    7.92901E+002   -5.55313E+001   -5.42714E+004    1.60942E+004    3.53995E+005   -5.11357E+003
            3165    6.10651E+005    3.37834E+005   -3.67134E+005   -2.01479E+003   -3.67134E+005    7.04968E+005    1.04385E+004   -2.41742E+005   -7.86482E+003   -2.11427E+003   -2.13364E+004    4.98973E+003    3.52367E+005   -3.66850E+003
            3166    6.79408E+005    2.26939E+005   -5.42568E+005   -2.55637E+004   -5.42568E+005    7.69507E+005    1.13731E+005   -5.58156E+005   -1.13610E+005   -2.50352E+004   -2.02547E+005    5.98701E+004    3.77143E+005   -1.28895E+004
            3167    6.56789E+005    2.54549E+005   -4.93122E+005   -9.22728E+003   -4.93122E+005    7.47671E+005    8.26002E+004   -5.15635E+005   -6.93814E+004   -9.33674E+003   -1.69082E+005    5.71284E+004    3.65850E+005   -1.30514E+004
            3168    6.61001E+005    2.69545E+005   -4.85196E+005   -9.35574E+003   -4.85196E+005    7.54742E+005    7.50023E+004   -5.00336E+005   -5.85431E+004   -9.62872E+003   -1.56835E+005    5.03149E+004    3.70628E+005   -1.11262E+004
            3169    6.34114E+005    2.91465E+005   -4.36059E+005   -6.54747E+002   -4.36059E+005    7.27524E+005    4.84162E+004   -4.39599E+005   -2.70267E+004   -9.61120E+002   -1.17261E+005    4.19358E+004    3.58446E+005   -8.15746E+003
            3170    6.24342E+005    3.00786E+005   -4.17356E+005   -3.45035E+003   -4.17356E+005    7.18142E+005    4.00069E+004   -3.98882E+005   -2.54231E+004   -3.63781E+003   -9.09600E+004    3.16127E+004    3.56153E+005   -4.94758E+003
            3171    6.07690E+005    3.23001E+005   -3.77927E+005    1.03004E+003   -3.77927E+005    7.00928E+005    1.79655E+004   -3.15731E+005   -5.03390E+003    9.86888E+002   -4.98496E+004    1.94553E+004    3.49202E+005   -1.80508E+003
            3172    6.02477E+005    3.33555E+005   -3.61987E+005   -2.18652E+003   -3.61987E+005    6.95542E+005    1.02062E+004   -2.35689E+005   -8.35650E+003   -2.17502E+003   -2.00870E+004    6.62897E+003    3.47658E+005    1.30509E+002
            3173    6.62413E+005    2.27138E+005   -5.21966E+005   -1.35373E+004   -5.21966E+005    7.49104E+005    1.02789E+005   -5.50285E+005   -1.13058E+005   -1.12387E+004   -1.84069E+005    6.67499E+004    3.66274E+005   -1.02437E+004
            3174    6.54477E+005    2.45962E+005   -4.97678E+005   -9.28478E+003   -4.97678E+005    7.43640E+005    8.70002E+004   -5.23495E+005   -8.83326E+004   -7.92365E+003   -1.64744E+005    6.44144E+004    3.63829E+005   -1.04590E+004
            3175    6.44124E+005    2.63716E+005   -4.71033E+005   -3.63952E+003   -4.71033E+005    7.34749E+005    7.03190E+004   -4.93913E+005   -6.68507E+004   -2.64022E+003   -1.41466E+005    5.93661E+004    3.60378E+005   -8.63274E+003
            3176    6.27033E+005    2.80767E+005   -4.37755E+005   -1.26347E+003   -4.37755E+005    7.18522E+005    5.27503E+004   -4.46894E+005   -4.52502E+004   -4.51128E+002   -1.12550E+005    5.03891E+004    3.53987E+005   -5.21224E+003
            3177    6.12845E+005    2.96580E+005   -4.08220E+005   -8.48972E+002   -4.08220E+005    7.04800E+005    3.74963E+004   -3.94237E+005   -3.12913E+004   -7.88625E+001   -8.11187E+004    3.88344E+004    3.49304E+005   -1.06926E+003
            3178    6.00339E+005    3.14193E+005   -3.78115E+005   -1.32358E+003   -3.78115E+005    6.92308E+005    2.17486E+004   -3.20789E+005   -1.59040E+004   -5.69825E+002   -4.87721E+004    2.42353E+004    3.44860E+005    3.65275E+003
            3179    5.94261E+005    3.31810E+005   -3.54267E+005   -3.31831E+002   -3.54267E+005    6.86078E+005    7.59621E+003   -2.25973E+005   -6.49800E+003   -1.31878E+001   -1.62774E+004    8.35257E+003    3.42839E+005    6.29710E+003
            3180    5.85457E+005    3.25290E+005   -3.50621E+005   -1.81067E+003   -3.50621E+005    6.75911E+005    9.04720E+003   -2.23449E+005   -9.52742E+003   -7.85159E+002   -1.68290E+004    1.14057E+004    3.37406E+005    1.46829E+004
            3181    5.93269E+005    3.07062E+005   -3.76833E+005   -4.82871E+002   -3.76833E+005    6.83895E+005    2.34179E+004   -3.30690E+005   -2.61257E+004    2.07074E+003   -4.61986E+004    3.27550E+004    3.39920E+005    1.07794E+004
            3182    6.06504E+005    2.88483E+005   -4.08415E+005    9.49682E+000   -4.08415E+005    6.96898E+005    3.99742E+004   -4.02736E+005   -4.56040E+004    3.32010E+003   -7.76386E+004    5.01896E+004    3.44102E+005    5.30937E+003
            3183    6.19446E+005    2.72870E+005   -4.35545E+005    4.24130E+003   -4.35545E+005    7.08416E+005    5.28112E+004   -4.57895E+005   -6.33207E+004    7.34843E+003   -1.02461E+005    6.34252E+004    3.47536E+005   -1.73662E+003
            3184    6.35565E+005    2.53974E+005   -4.68887E+005    2.30582E+003   -4.68887E+005    7.22860E+005    7.08689E+004   -5.03605E+005   -8.55993E+004    5.61266E+003   -1.32620E+005    7.22893E+004    3.52759E+005   -6.60065E+003
            3185    6.44300E+005    2.38068E+005   -4.91963E+005   -2.79802E+003   -4.91963E+005    7.30031E+005    8.55643E+004   -5.27712E+005   -1.05137E+005    3.81131E+002   -1.51937E+005    7.70617E+004    3.55316E+005   -9.91331E+003
            3186    6.64910E+005    2.21386E+005   -5.27912E+005   -8.28124E+003   -5.27912E+005    7.49298E+005    1.04936E+005   -5.64728E+005   -1.27161E+005   -7.70301E+003   -1.79944E+005    7.85346E+004    3.64814E+005   -1.80133E+004
            3187    6.29492E+005    5.00229E+005    5.00229E+005   -1.30793E+004   -2.02122E+005    7.02351E+005   -9.50092E+004    5.60081E+005    1.26395E+005   -1.50381E+004    1.73671E+005    5.47293E+004    3.45460E+005    1.03553E+004
            3188    6.35873E+005    5.17005E+005    5.17005E+005    1.70967E+004   -1.98677E+005    7.15682E+005   -1.11808E+005    5.43853E+005    1.36144E+005    1.29351E+004    1.86346E+005    7.09250E+004    3.48866E+005    8.85227E+003
            3189    6.65827E+005    5.57138E+005    5.57138E+005    3.38793E+004   -1.92320E+005    7.49458E+005   -1.32899E+005    5.69220E+005    1.50189E+005    3.19966E+004    2.16512E+005    6.73890E+004    3.66514E+005    1.28694E+004
            3190    6.87373E+005    5.94744E+005    5.94744E+005    5.83418E+004   -1.80099E+005    7.74843E+005   -1.57662E+005    5.82794E+005    1.66909E+005    5.79187E+004    2.48158E+005    5.76427E+004    3.80622E+005    1.36351E+004
            3191    7.20553E+005    5.84757E+005    5.84757E+005    3.69784E+004   -2.31489E+005    8.16246E+005   -1.30082E+005    5.91197E+005    1.05380E+005    3.79182E+004    2.46949E+005    4.56814E+004    3.99166E+005    1.62455E+004
            3192    7.01952E+005    5.33239E+005    5.33239E+005    2.13975E+004   -2.66970E+005    8.00209E+005   -9.58886E+004    5.42419E+005    5.30232E+004    2.26317E+004    2.12011E+005    3.78705E+004    3.90158E+005    1.56176E+004
            3193    6.97320E+005    5.09688E+005    5.09688E+005    1.52093E+004   -2.87890E+005    7.97578E+005   -7.90026E+004    5.14363E+005    3.30064E+004    1.61034E+004    1.87898E+005    2.83473E+004    3.90079E+005    1.24262E+004
            3194    6.66624E+005    4.57532E+005    4.57532E+005    7.06321E+003   -3.08253E+005    7.65785E+005   -5.21141E+004    4.46233E+005    5.79029E+003    7.72885E+003    1.42823E+005    2.26169E+004    3.75969E+005    9.61586E+003
            3195    6.52409E+005    4.33873E+005    4.33873E+005    5.42869E+003   -3.16972E+005    7.50845E+005   -4.07764E+004    4.06372E+005    7.57897E+003    5.86535E+003    1.08885E+005    1.50848E+004    3.71639E+005    7.48069E+003
            3196    6.32584E+005    3.92532E+005    3.92532E+005    1.16278E+003   -3.37273E+005    7.29805E+005   -1.88071E+004    3.16480E+005   -5.86267E+003    1.42510E+003    6.08589E+004    9.50426E+003    3.63214E+005    5.77553E+003
            3197    6.26310E+005    3.75922E+005    3.75922E+005    1.42536E+003   -3.47123E+005    7.23045E+005   -1.00748E+004    2.48033E+005    4.71432E+003    1.50530E+003    2.40048E+004    2.81248E+003    3.61346E+005    5.26476E+003
            3198    6.91342E+005    5.53529E+005    5.53529E+005    2.76318E+004   -2.29542E+005    7.83071E+005   -1.17206E+005    5.67693E+005    1.03427E+005    2.81519E+004    2.20040E+005    5.43103E+004    3.83109E+005    1.57415E+004
            3199    6.78934E+005    5.09974E+005    5.09974E+005    1.34759E+004   -2.63698E+005    7.73672E+005   -8.65838E+004    5.27010E+005    5.64272E+004    1.50309E+004    1.88293E+005    4.48886E+004    3.78367E+005    1.69427E+004
            3200    6.78559E+005    4.94246E+005    4.94246E+005    1.50387E+004   -2.82211E+005    7.76457E+005   -7.56914E+004    4.96860E+005    3.98931E+004    1.60108E+004    1.71170E+005    3.65967E+004    3.80793E+005    1.25656E+004
            3201    6.51625E+005    4.44896E+005    4.44896E+005    4.23559E+003   -3.03618E+005    7.48514E+005   -4.85045E+004    4.36935E+005    1.17284E+004    5.08599E+003    1.28699E+005    2.87476E+004    3.68471E+005    1.03053E+004
            3202    6.41654E+005    4.26728E+005    4.26728E+005    6.73468E+003   -3.11875E+005    7.38603E+005   -4.05289E+004    3.95983E+005    1.31534E+004    7.22977E+003    1.01204E+005    2.08417E+004    3.66042E+005    7.03820E+003
            3203    6.23563E+005    3.86252E+005    3.86252E+005   -9.99791E+002   -3.33072E+005    7.19324E+005   -1.73931E+004    3.17807E+005   -3.00802E+003   -6.30285E+002    5.58178E+004    1.27775E+004    3.58190E+005    6.18878E+003
            3204    6.18282E+005    3.71257E+005    3.71257E+005    3.22397E+003   -3.42558E+005    7.13815E+005   -1.06409E+004    2.33636E+005    5.99809E+003    3.33912E+003    2.25855E+004    4.22578E+003    3.56753E+005    4.99631E+003
            3205    6.75209E+005    5.32493E+005    5.32493E+005    1.53240E+004   -2.31373E+005    7.63866E+005   -1.05481E+005    5.59421E+005    1.00454E+005    1.54633E+004    2.00526E+005    5.57356E+004    3.74256E+005    1.46433E+004
            3206    6.54821E+005    4.88357E+005    4.88357E+005    1.21750E+004   -2.58387E+005    7.46745E+005   -8.07149E+004    5.03844E+005    6.34123E+004    1.31285E+004    1.65604E+005    5.42603E+004    3.65696E+005    1.46850E+004
            3207    6.63959E+005    4.82500E+005    4.82500E+005    9.45102E+003   -2.76528E+005    7.59028E+005   -7.18078E+004    4.93830E+005    5.03566E+004    9.78660E+003    1.55280E+005    4.34044E+004    3.73265E+005    9.98577E+003
            3208    6.38246E+005    4.36628E+005    4.36628E+005    3.62723E+003   -2.96341E+005    7.32970E+005   -4.79714E+004    4.31085E+005    2.10271E+004    3.96038E+003    1.18927E+005    3.75720E+004    3.61203E+005    7.61057E+003
            3209    6.30121E+005    4.19053E+005    4.19053E+005    2.66728E+003   -3.05879E+005    7.24933E+005   -3.86137E+004    3.99165E+005    2.08143E+004    3.09212E+003    9.19348E+004    2.71757E+004    3.59671E+005    6.18410E+003
            3210    6.13188E+005    3.80414E+005    3.80414E+005    7.29883E+002   -3.26999E+005    7.07413E+005   -1.80484E+004    3.08052E+005    1.66194E+003    9.38301E+002    5.15451E+004    1.72438E+004    3.52396E+005    3.37296E+003
            3211    6.08685E+005    3.65421E+005    3.65421E+005    7.92877E+002   -3.37260E+005    7.02681E+005   -9.65141E+003    2.45298E+005    7.60334E+003    8.64136E+002    2.04867E+004    5.45291E+003    3.51232E+005    2.45607E+003
            3212    6.70561E+005    5.29768E+005    5.29768E+005    2.63207E+004   -2.31424E+005    7.61191E+005   -1.08222E+005    5.40959E+005    1.13156E+005    2.41910E+004    1.87318E+005    5.92223E+004    3.73711E+005    6.80049E+003
            3213    6.46480E+005    4.80990E+005    4.80990E+005    3.98676E+003   -2.54791E+005    7.35781E+005   -7.67284E+004    5.08662E+005    7.21078E+004    2.26304E+003    1.55814E+005    5.68772E+004    3.60718E+005    7.02027E+003
            3214    6.54996E+005    4.81160E+005    4.81160E+005    8.13484E+003   -2.66435E+005    7.47595E+005   -7.42864E+004    4.98399E+005    6.70998E+004    7.01112E+003    1.48748E+005    5.54201E+004    3.67181E+005    7.19303E+003
            3215    6.27541E+005    4.31302E+005    4.31302E+005   -2.23060E+003   -2.88301E+005    7.19604E+005   -4.69234E+004    4.40551E+005    3.45012E+004   -2.42888E+003    1.08698E+005    4.70134E+004    3.54699E+005    6.67682E+003
            3216    6.17582E+005    4.12625E+005    4.12625E+005    4.41993E+003   -2.97871E+005    7.10496E+005   -3.97247E+004    3.91488E+005    3.13928E+004    3.93480E+003    8.38467E+004    3.56999E+004    3.52434E+005    1.67244E+003
            3217    6.02900E+005    3.75505E+005    3.75505E+005   -1.56970E+003   -3.19836E+005    6.95341E+005   -1.80331E+004    3.17357E+005    9.21352E+003   -1.93519E+003    4.68210E+004    2.21915E+004    3.46433E+005   -1.28942E+003
            3218    5.98308E+005    3.59139E+005    3.59139E+005    3.17631E+003   -3.31619E+005    6.90758E+005   -1.02321E+004    2.24806E+005    9.28606E+003    2.98834E+003    1.84218E+004    7.65179E+003    3.45237E+005   -4.04915E+003
            3219    5.86228E+005    3.49967E+005    3.49967E+005   -4.02249E+002   -3.26810E+005    6.76777E+005   -7.58479E+003    2.31116E+005    8.37687E+003   -1.34913E+003    1.57266E+004    1.13770E+004    3.37887E+005   -1.35617E+004
            3220    5.94383E+005    3.77971E+005    3.77971E+005    3.59916E+003   -3.07388E+005    6.85359E+005   -2.47272E+004    3.22244E+005    2.59721E+004    1.17252E+003    4.70370E+004    3.21331E+004    3.40723E+005   -1.05947E+004
            3221    6.06188E+005    4.05001E+005    4.05001E+005   -1.88182E+003   -2.91694E+005    6.96695E+005   -3.71415E+004    3.99429E+005    4.23648E+004   -4.54006E+003    7.35997E+004    4.92998E+004    3.44235E+005   -3.59706E+003
            3222    6.23094E+005    4.38306E+005    4.38306E+005   -1.93179E+002   -2.74942E+005    7.13248E+005   -5.43904E+004    4.53338E+005    6.18661E+004   -3.08284E+003    1.04388E+005    6.27795E+004    3.50059E+005    1.75242E+003
            3223    6.38807E+005    4.67539E+005    4.67539E+005   -5.63120E+003   -2.59104E+005    7.26643E+005   -6.76014E+004    5.05509E+005    8.14630E+004   -7.27885E+003    1.28620E+005    7.20032E+004    3.54932E+005    1.01075E+004
            3224    6.65854E+005    5.12907E+005    5.12907E+005    7.35555E+003   -2.41540E+005    7.54447E+005   -9.29075E+004    5.45398E+005    1.04852E+005    4.93781E+003    1.68932E+005    7.54896E+004    3.67590E+005    1.16283E+004
            3225    6.74453E+005    5.35756E+005    5.35756E+005    4.24575E+003   -2.22959E+005    7.58715E+005   -1.05681E+005    5.78445E+005    1.25102E+005    3.50942E+003    1.88431E+005    5.78066E+004    3.73220E+005    1.27199E+004
            3226    5.94192E+005    3.54524E+005    3.54524E+005    3.52787E+002   -3.31468E+005    6.85992E+005   -7.80307E+003    2.27865E+005    6.68676E+003    2.04704E+001    1.67020E+004   -8.67361E+003    3.42786E+005    6.31161E+003
            3227    6.02427E+005    3.62473E+005    3.62473E+005    2.16181E+003   -3.32998E+005    6.95471E+005   -1.05459E+004    2.39189E+005    8.51830E+003    2.14744E+003    2.09720E+004   -6.98500E+003    3.47609E+005    1.68281E+002
            3228    6.10649E+005    3.67810E+005    3.67810E+005    1.97405E+003   -3.37138E+005    7.04948E+005   -1.08819E+004    2.46281E+005    7.91232E+003    2.08308E+003    2.26502E+004   -5.42201E+003    3.52338E+005   -3.71979E+003
            3229    6.18696E+005    3.72892E+005    3.72892E+005    2.46088E+003   -3.41352E+005    7.14243E+005   -1.13337E+004    2.48115E+005    6.23203E+003    2.59862E+003    2.51704E+004   -4.54208E+003    3.56926E+005   -5.58923E+003
            3230    6.25500E+005    3.76919E+005    3.76919E+005    2.25488E+003   -3.45175E+005    7.22094E+005   -1.13332E+004    2.51844E+005    5.31553E+003    2.35255E+003    2.63314E+004   -3.17799E+003    3.60837E+005   -5.69076E+003
            3231    6.30799E+005    3.80044E+005    3.80044E+005    2.37737E+003   -3.48172E+005    7.28216E+005   -1.14163E+004    2.52900E+005    4.59230E+003    2.42788E+003    2.72287E+004   -2.17767E+003    3.63901E+005   -4.31848E+003
            3232    6.33749E+005    3.81726E+005    3.81726E+005    2.61532E+003   -3.49903E+005    7.31629E+005   -1.14796E+004    2.52045E+005    4.33654E+003    2.62239E+003    2.74797E+004   -6.63106E+002    3.65626E+005   -1.98365E+003
            3233    6.34209E+005    3.81529E+005    3.81529E+005    1.97983E+003   -3.50628E+005    7.32157E+005   -1.09605E+004    2.53265E+005    4.09320E+003    1.98161E+003    2.68067E+004    3.69958E+002    3.65901E+005    8.96490E+002
            3234    6.31720E+005    3.79978E+005    3.79978E+005    3.06297E+003   -3.49332E+005    7.29310E+005   -1.12361E+004    2.44800E+005    4.57452E+003    3.09739E+003    2.60365E+004    1.84903E+003    3.64477E+005    3.46304E+003
            3235    6.00476E+005    3.78716E+005    3.78716E+005    1.32959E+003   -3.13719E+005    6.92435E+005   -2.21091E+004    3.22670E+005    1.62788E+004    5.59746E+002    4.94886E+004   -2.46783E+004    3.44883E+005    3.61231E+003
            3236    6.08032E+005    3.78998E+005    3.78998E+005   -1.02557E+003   -3.22276E+005    7.01275E+005   -1.85654E+004    3.19097E+005    5.50812E+003   -9.83137E+002    5.11714E+004   -2.00308E+004    3.49316E+005   -1.86711E+003
            3237    6.17011E+005    3.84046E+005    3.84046E+005   -2.38218E+002   -3.27659E+005    7.11706E+005   -1.87162E+004    3.18732E+005   -3.45731E+002    1.26942E+002    5.63674E+004   -1.66374E+004    3.54307E+005   -5.21716E+003
            3238    6.25924E+005    3.89699E+005    3.89699E+005   -2.91610E+002   -3.32280E+005    7.21979E+005   -1.90426E+004    3.23926E+005   -3.71729E+003    1.10550E+002    6.07346E+004   -1.31072E+004    3.59264E+005   -6.61776E+003
            3239    6.34007E+005    3.95179E+005    3.95179E+005    2.70451E+002   -3.36129E+005    7.31308E+005   -1.97732E+004    3.27658E+005   -6.26138E+003    5.70154E+002    6.50109E+004   -9.81316E+003    3.63737E+005   -6.40792E+003
            3240    6.39867E+005    3.98822E+005    3.98822E+005    3.92239E+002   -3.39253E+005    7.38075E+005   -1.99872E+004    3.30195E+005   -8.05656E+003    5.26110E+002    6.74920E+004   -5.87877E+003    3.67028E+005   -4.69086E+003
            3241    6.43059E+005    4.00578E+005    4.00578E+005    1.42578E+002   -3.41177E+005    7.41756E+005   -1.98479E+004    3.31913E+005   -8.80320E+003    1.63922E+002    6.81830E+004   -2.28063E+003    3.68864E+005   -1.92448E+003
            3242    6.42816E+005    4.00107E+005    4.00107E+005    8.28623E+002   -3.41423E+005    7.41530E+005   -1.98374E+004    3.27894E+005   -8.73308E+003    8.39184E+002    6.74060E+004    1.98961E+003    3.68798E+005    1.15435E+003
            3243    6.39302E+005    3.96918E+005    3.96918E+005   -2.71013E+002   -3.40552E+005    7.37471E+005   -1.86984E+004    3.26470E+005   -8.05124E+003   -1.57637E+002    6.43040E+004    5.42848E+003    3.66895E+005    4.28747E+003
            3244    6.13209E+005    4.09135E+005    4.09135E+005    7.68256E+002   -2.96000E+005    7.05136E+005   -3.79677E+004    3.96322E+005    3.18087E+004   -7.21918E+000    8.21016E+004   -3.93841E+004    3.49393E+005   -1.21703E+003
            3245    6.25149E+005    4.18950E+005    4.18950E+005    3.44962E+003   -3.00006E+005    7.18955E+005   -4.07980E+004    4.02030E+005    2.59501E+004    3.65021E+003    9.27935E+004   -3.22097E+004    3.56447E+005   -5.15508E+003
            3246    6.36506E+005    4.26802E+005    4.26802E+005    4.84233E+003   -3.05333E+005    7.32135E+005   -4.21039E+004    4.06627E+005    1.95099E+004    5.39864E+003    1.01403E+005   -2.56691E+004    3.62831E+005   -7.34755E+003
            3247    6.47064E+005    4.33882E+005    4.33882E+005    6.22245E+003   -3.10535E+005    7.44417E+005   -4.31901E+004    4.10096E+005    1.27273E+004    6.84151E+003    1.10001E+005   -2.09253E+004    3.68374E+005   -8.39923E+003
            3248    6.56259E+005    4.40486E+005    4.40486E+005    6.37573E+003   -3.14469E+005    7.54955E+005   -4.41310E+004    4.16871E+005    8.76733E+003    6.81011E+003    1.16816E+005   -1.50075E+004    3.73245E+005   -7.62405E+003
            3249    6.62929E+005    4.44845E+005    4.44845E+005    6.92528E+003   -3.17847E+005    7.62692E+005   -4.46413E+004    4.19577E+005    5.42288E+003    7.11953E+003    1.21381E+005   -9.38336E+003    3.76773E+005   -5.32384E+003
            3250    6.65931E+005    4.46741E+005    4.46741E+005    6.89835E+003   -3.19411E+005    7.66152E+005   -4.47426E+004    4.21322E+005    4.24099E+003    6.92338E+003    1.23063E+005   -2.89928E+003    3.78426E+005   -2.07690E+003
            3251    6.65336E+005    4.45105E+005    4.45105E+005    6.43652E+003   -3.20443E+005    7.65548E+005   -4.36996E+004    4.18944E+005    3.60307E+003    6.46010E+003    1.21036E+005    3.25951E+003    3.78227E+005    1.86103E+003
            3252    6.60625E+005    4.41349E+005    4.41349E+005    7.13313E+003   -3.18914E+005    7.60264E+005   -4.31894E+004    4.12479E+005    5.36452E+003    7.31564E+003    1.16888E+005    9.50605E+003    3.75879E+005    4.99489E+003
            3253    6.28011E+005    4.39400E+005    4.39400E+005    1.35873E+003   -2.80108E+005    7.19508E+005   -5.35504E+004    4.49316E+005    4.60653E+004    5.57843E+002    1.14028E+005   -5.08574E+004    3.54385E+005   -5.44278E+003
            3254    6.35849E+005    4.38738E+005    4.38738E+005    9.19160E+002   -2.90603E+005    7.29340E+005   -4.96847E+004    4.43371E+005    2.80084E+004    1.24494E+003    1.19801E+005   -4.24754E+004    3.59202E+005   -8.43513E+003
            3255    6.48733E+005    4.47721E+005    4.47721E+005    4.45073E+003   -2.96875E+005    7.44596E+005   -5.17657E+004    4.45095E+005    1.85142E+004    5.31875E+003    1.31464E+005   -3.51274E+004    3.66239E+005   -1.06175E+004
            3256    6.62922E+005    4.58008E+005    4.58008E+005    5.95626E+003   -3.02997E+005    7.61005E+005   -5.36555E+004    4.52846E+005    1.11919E+004    6.80867E+003    1.42966E+005   -2.79273E+004    3.73637E+005   -1.08226E+004
            3257    6.75876E+005    4.68274E+005    4.68274E+005    7.47813E+003   -3.07613E+005    7.75887E+005   -5.60463E+004    4.61501E+005    6.41474E+003    8.09162E+003    1.53633E+005   -2.05440E+004    3.80278E+005   -9.62569E+003
            3258    6.85369E+005    4.75161E+005    4.75161E+005    8.23032E+003   -3.11668E+005    7.86830E+005   -5.72411E+004    4.67247E+005    2.35309E+003    8.47926E+003    1.60891E+005   -1.18863E+004    3.85133E+005   -6.38701E+003
            3259    6.89521E+005    4.77910E+005    4.77910E+005    7.89737E+003   -3.13653E+005    7.91563E+005   -5.73848E+004    4.70630E+005    8.29002E+002    7.91901E+003    1.63406E+005   -3.43975E+003    3.87326E+005   -1.90774E+003
            3260    6.87142E+005    4.75223E+005    4.75223E+005    8.35346E+003   -3.13809E+005    7.89033E+005   -5.65891E+004    4.65660E+005    3.63694E+002    8.40351E+003    1.61000E+005    6.06036E+003    3.86201E+005    2.79201E+003
            3261    6.79352E+005    4.67859E+005    4.67859E+005    6.57659E+003   -3.12267E+005    7.80126E+005   -5.40560E+004    4.59726E+005    2.04860E+003    6.90506E+003    1.53214E+005    1.38479E+004    3.82382E+005    7.18876E+003
            3262    6.45040E+005    4.72615E+005    4.72615E+005    3.88918E+003   -2.63044E+005    7.35660E+005   -7.11534E+004    4.95741E+005    6.76728E+004    2.88669E+003    1.42901E+005   -5.96002E+004    3.60767E+005   -8.76928E+003
            3263    6.62657E+005    4.87865E+005    4.87865E+005    9.92591E+003   -2.68594E+005    7.56459E+005   -7.63992E+004    5.03163E+005    5.96742E+004    1.02441E+004    1.59279E+005   -5.04858E+004    3.71388E+005   -1.14320E+004
            3264    6.78589E+005    5.00222E+005    5.00222E+005    1.38677E+004   -2.75007E+005    7.75228E+005   -7.96942E+004    5.09875E+005    5.03407E+004    1.47261E+004    1.74016E+005   -4.08450E+004    3.80365E+005   -1.26214E+004
            3265    6.94371E+005    5.12698E+005    5.12698E+005    1.74797E+004   -2.81007E+005    7.93704E+005   -8.30570E+004    5.17357E+005    4.15002E+004    1.85087E+004    1.89162E+005   -3.38694E+004    3.88349E+005   -1.33887E+004
            3266    7.10009E+005    5.25807E+005    5.25807E+005    1.85341E+004   -2.85610E+005    8.11417E+005   -8.62439E+004    5.30631E+005    3.65408E+004    1.92600E+004    2.02931E+005   -2.44143E+004    3.96259E+005   -1.15717E+004
            3267    7.21162E+005    5.34606E+005    5.34606E+005    2.03943E+004   -2.89742E+005    8.24348E+005   -8.84193E+004    5.37113E+005    3.21593E+004    2.06692E+004    2.12429E+005   -1.42928E+004    4.01913E+005   -7.28030E+003
            3268    7.25709E+005    5.37900E+005    5.37900E+005    2.02753E+004   -2.91616E+005    8.29515E+005   -8.88532E+004    5.40808E+005    3.02862E+004    2.02932E+004    2.15980E+005   -2.87230E+003    4.04219E+005   -1.95792E+003
            3269    7.23121E+005    5.34103E+005    5.34103E+005    1.93699E+004   -2.92642E+005    8.26745E+005   -8.69436E+004    5.36984E+005    2.89543E+004    1.94619E+004    2.12414E+005    8.53154E+003    4.02966E+005    4.21552E+003
            3270    7.12475E+005    5.24389E+005    5.24389E+005    1.83512E+004   -2.90381E+005    8.14770E+005   -8.41198E+004    5.27037E+005    3.04457E+004    1.87828E+004    2.03131E+005    1.92669E+004    3.97617E+005    8.93031E+003
            3271    6.55199E+005    4.98922E+005    4.98922E+005    9.72577E+003   -2.45477E+005    7.44399E+005   -8.77235E+004    5.24475E+005    8.90081E+004    8.40662E+003    1.65756E+005   -6.44671E+004    3.64192E+005   -1.06217E+004
            3272    6.58124E+005    4.95335E+005    4.95335E+005    9.91002E+003   -2.53736E+005    7.49071E+005   -8.38361E+004    5.17554E+005    7.03579E+004    1.00761E+004    1.71074E+005   -5.72198E+004    3.66480E+005   -1.33310E+004
            3273    6.76241E+005    5.13369E+005    5.13369E+005    1.70460E+004   -2.56856E+005    7.70225E+005   -9.11862E+004    5.27845E+005    6.55747E+004    1.84610E+004    1.89523E+005   -4.97425E+004    3.76657E+005   -1.67956E+004
            3274    6.99690E+005    5.34844E+005    5.34844E+005    2.17124E+004   -2.62173E+005    7.97018E+005   -9.81278E+004    5.45498E+005    5.96836E+004    2.31548E+004    2.11545E+005   -4.03589E+004    3.88968E+005   -1.68096E+004
            3275    7.21605E+005    5.55994E+005    5.55994E+005    2.66465E+004   -2.65957E+005    8.21951E+005   -1.05561E+005    5.62817E+005    5.70469E+004    2.75697E+004    2.32067E+005   -3.00300E+004    4.00322E+005   -1.38612E+004
            3276    7.38295E+005    5.70800E+005    5.70800E+005    3.01564E+004   -2.70362E+005    8.41161E+005   -1.10198E+005    5.74292E+005    5.39154E+004    3.04786E+004    2.46200E+005   -1.65851E+004    4.09070E+005   -8.35272E+003
            3277    7.45238E+005    5.76548E+005    5.76548E+005    3.09837E+004   -2.72559E+005    8.49106E+005   -1.11658E+005    5.79426E+005    5.25365E+004    3.09912E+004    2.51445E+005   -2.21983E+003    4.12733E+005   -1.29248E+003
            3278    7.40219E+005    5.71234E+005    5.71234E+005    3.03650E+004   -2.72367E+005    8.43601E+005   -1.09744E+005    5.73848E+005    5.16719E+004    3.04993E+004    2.47061E+005    1.28362E+004    4.10112E+005    5.54073E+003
            3279    7.26060E+005    5.56572E+005    5.56572E+005    2.53407E+004   -2.70745E+005    8.27317E+005   -1.03723E+005    5.64035E+005    5.19609E+004    2.60004E+004    2.33207E+005    2.58229E+004    4.02706E+005    1.18112E+004
            3280    6.62729E+005    5.22490E+005    5.22490E+005    1.37979E+004   -2.26966E+005    7.49456E+005   -1.03107E+005    5.50576E+005    1.13237E+005    1.15883E+004    1.84497E+005   -6.70209E+004    3.66399E+005   -1.05615E+004
            3281    6.80448E+005    5.44194E+005    5.44194E+005    2.60778E+004   -2.26406E+005    7.70600E+005   -1.14622E+005    5.59466E+005    1.14340E+005    2.56155E+004    2.03911E+005   -5.97286E+004    3.77690E+005   -1.30959E+004
            3282    6.94357E+005    5.60127E+005    5.60127E+005    2.87589E+004   -2.25526E+005    7.85653E+005   -1.21120E+005    5.74637E+005    1.11222E+005    2.96279E+004    2.22511E+005   -5.36848E+004    3.84928E+005   -1.68576E+004
            3283    7.16655E+005    5.86656E+005    5.86656E+005    3.97952E+004   -2.24643E+005    8.11299E+005   -1.33936E+005    5.90893E+005    1.14006E+005    4.09016E+004    2.46901E+005   -4.70250E+004    3.97227E+005   -1.70545E+004
            3284    7.42465E+005    6.14107E+005    6.14107E+005    4.89325E+004   -2.26769E+005    8.40877E+005   -1.45424E+005    6.10224E+005    1.16336E+005    4.97923E+004    2.70143E+005   -3.49549E+004    4.11760E+005   -1.45007E+004
            3285    7.60938E+005    6.34302E+005    6.34302E+005    5.67239E+004   -2.27925E+005    8.62226E+005   -1.54367E+005    6.23042E+005    1.18558E+005    5.70259E+004    2.87517E+005   -1.89760E+004    4.22294E+005   -8.55916E+003
            3286    7.68307E+005    6.41379E+005    6.41379E+005    5.85142E+004   -2.29275E+005    8.70654E+005   -1.56873E+005    6.28637E+005    1.18356E+005    5.85177E+004    2.93745E+005   -1.05019E+003    4.26401E+005   -1.01160E+003
            3287    7.63100E+005    6.34517E+005    6.34517E+005    5.59562E+004   -2.30326E+005    8.64843E+005   -1.53382E+005    6.23868E+005    1.15767E+005    5.61803E+004    2.88200E+005    1.68314E+004    4.23378E+005    7.44951E+003
            3288    7.44834E+005    6.13968E+005    6.13968E+005    4.92649E+004   -2.30176E+005    8.44144E+005   -1.44352E+005    6.08921E+005    1.12067E+005    4.98818E+004    2.71108E+005    3.31976E+004    4.13089E+005    1.28150E+004
            3289    7.12520E+005    6.33143E+005    6.33143E+005    7.76063E+004   -1.70192E+005    8.03334E+005   -1.80186E+005    6.03479E+005    1.82604E+005    7.79258E+004    2.80028E+005    4.25305E+004    3.96288E+005    1.26475E+004
            3290    7.30018E+005    6.60517E+005    6.60517E+005    9.35633E+004   -1.63191E+005    8.23708E+005   -1.96963E+005    6.15385E+005    1.93806E+005    9.36942E+004    3.03389E+005    2.28712E+004    4.07513E+005    7.18453E+003
            3291    7.37489E+005    6.71756E+005    6.71756E+005    9.93463E+004   -1.60480E+005    8.32236E+005   -2.03541E+005    6.21227E+005    1.98283E+005    9.93463E+004    3.12993E+005    5.78276E+001    4.12147E+005    4.01641E+001
            3292    7.28696E+005    6.59707E+005    6.59707E+005    9.29638E+004   -1.62274E+005    8.21981E+005   -1.96799E+005    6.15345E+005    1.94458E+005    9.31595E+004    3.02779E+005   -2.28569E+004    4.06728E+005   -7.73882E+003
            3293    7.09572E+005    6.31970E+005    6.31970E+005    7.78154E+004   -1.67771E+005    7.99740E+005   -1.80671E+005    6.02170E+005    1.84295E+005    7.81042E+004    2.79615E+005   -4.21969E+004    3.94631E+005   -1.24487E+004
            3294    6.86663E+005    5.95400E+005    5.95400E+005    5.62199E+004   -1.77648E+005    7.73048E+005   -1.57990E+005    5.86460E+005    1.69447E+005    5.61170E+004    2.48407E+005   -5.70385E+004    3.79943E+005   -1.46995E+004
            3295    6.60591E+005    5.56926E+005    5.56926E+005    3.60058E+004   -1.86092E+005    7.43018E+005   -1.35613E+005    5.66974E+005    1.54776E+005    3.45948E+004    2.17469E+005   -6.57509E+004    3.63753E+005   -1.35918E+004
            3296    6.47048E+005    5.30431E+005    5.30431E+005    1.44147E+004   -1.95516E+005    7.25946E+005   -1.16443E+005    5.62402E+005    1.41655E+005    1.30657E+004    1.94609E+005   -6.32793E+004    3.55888E+005   -1.34220E+004
            3297    6.67598E+005    5.41461E+005    5.41461E+005    1.10040E+004   -2.08172E+005    7.49633E+005   -1.14765E+005    5.77920E+005    1.40693E+005    1.07454E+004    1.92855E+005   -6.76279E+004    3.67298E+005   -1.69082E+004
            3298    5.85285E+005    3.50572E+005    3.50572E+005    1.81900E+003   -3.25139E+005    6.75712E+005   -9.08396E+003    2.23697E+005    9.54461E+003    7.97056E+002    1.69102E+004   -1.13838E+004    3.37308E+005    1.46541E+004
            3299    5.93202E+005    3.76842E+005    3.76842E+005    4.55319E+002   -3.06970E+005    6.83812E+005   -2.34427E+004    3.30914E+005    2.61867E+004   -2.12114E+003    4.62627E+004   -3.29062E+004    3.39861E+005    1.08171E+004
            3300    6.06582E+005    4.08722E+005    4.08722E+005    3.97112E+001   -2.88241E+005    6.96963E+005   -4.01734E+004    4.03261E+005    4.58917E+004   -3.27167E+003    7.79003E+004   -5.04447E+004    3.44098E+005    5.21042E+003
            3301    6.19595E+005    4.36118E+005    4.36118E+005   -4.35777E+003   -2.72366E+005    7.08484E+005   -5.31315E+004    4.59075E+005    6.38624E+004   -7.46094E+003    1.02993E+005   -6.39102E+004    3.47479E+005   -1.95388E+003
            3302    6.36324E+005    4.70130E+005    4.70130E+005   -2.04829E+003   -2.53498E+005    7.23628E+005   -7.15278E+004    5.04866E+005    8.63512E+004   -5.35657E+003    1.33589E+005   -7.27602E+004    3.53041E+005   -6.80278E+003
            3303    6.45042E+005    4.93138E+005    4.93138E+005    3.09430E+003   -2.37653E+005    7.30791E+005   -8.61931E+004    5.28771E+005    1.05825E+005   -1.31349E+001    1.52767E+005   -7.70347E+004    3.55714E+005   -1.00953E+004
            3304    6.64675E+005    5.28009E+005    5.28009E+005    8.68460E+003   -2.21060E+005    7.49069E+005   -1.05211E+005    5.64370E+005    1.27533E+005    8.07361E+003    1.80026E+005   -7.88292E+004    3.64638E+005   -1.79934E+004
            3305    5.19383E+005    2.90512E+005   -3.09144E+005   -1.04451E+003   -3.09144E+005    5.99656E+005    6.55859E+003   -1.88439E+005   -9.50144E+001   -8.36683E+002   -1.87441E+004   -6.41478E+003    2.99575E+005   -4.66958E+003
            3306    5.26352E+005    2.96322E+005   -3.11335E+005    3.04204E+003   -3.11335E+005    6.07657E+005    3.99051E+003   -2.06165E+005    5.15235E+003    2.92961E+003   -2.00535E+004   -4.96410E+003    3.03507E+005    3.61854E+003
            3307    5.33755E+005    2.99739E+005   -3.16514E+005   -7.26295E+001   -3.16514E+005    6.16253E+005    5.61591E+003   -1.92239E+005    5.82662E+003   -2.52988E+002   -2.24214E+004   -4.01581E+003    3.07700E+005    6.94988E+003
            3308    5.40404E+005    3.04112E+005   -3.19776E+005    2.62964E+003   -3.19776E+005    6.23888E+005    4.34496E+003   -2.09243E+005    7.93974E+003    2.50053E+003   -2.34752E+004   -2.75931E+003    3.11454E+005    7.24989E+003
            3309    5.29170E+005    2.64044E+005   -3.45237E+005   -5.57216E+002   -3.45237E+005    6.09281E+005    2.72498E+004   -3.21975E+005   -1.97320E+004   -1.62932E+002   -6.18545E+004   -1.86090E+004    3.03312E+005   -1.28901E+003
            3310    5.37248E+005    2.67880E+005   -3.51020E+005   -4.72172E+003   -3.51020E+005    6.18900E+005    2.92873E+004   -3.16509E+005   -1.36677E+004   -4.99922E+003   -6.91948E+004   -1.41066E+004    3.07862E+005    4.50775E+003
            3311    5.45527E+005    2.73065E+005   -3.55204E+005   -1.59596E+003   -3.55204E+005    6.28269E+005    2.79117E+004   -3.27094E+005   -6.78204E+003   -2.09307E+003   -7.48601E+004   -1.10551E+004    3.12009E+005    8.33784E+003
            3312    5.53386E+005    2.75425E+005   -3.61996E+005   -4.46331E+003   -3.61996E+005    6.37421E+005    3.03448E+004   -3.28448E+005   -4.34765E+003   -4.80410E+003   -8.18825E+004   -8.07100E+003    3.16169E+005    7.66241E+003
            3313    5.41213E+005    2.50290E+005   -3.70891E+005   -1.03422E+003   -3.70891E+005    6.21181E+005    4.05449E+004   -3.71439E+005   -2.16986E+004   -5.10003E+002   -9.94262E+004   -2.98057E+004    3.06646E+005    2.14873E+003
            3314    5.48810E+005    2.58151E+005   -3.71982E+005    1.32629E+003   -3.71982E+005    6.30133E+005    3.75014E+004   -3.72857E+005   -6.24902E+003    7.65501E+002   -1.07021E+005   -2.29941E+004    3.10114E+005    7.79846E+003
            3315    5.58896E+005    2.62207E+005   -3.79918E+005   -2.99601E+003   -3.79918E+005    6.42126E+005    4.02357E+004   -3.72408E+005    1.07512E+003   -3.69051E+003   -1.18092E+005   -1.87715E+004    3.14852E+005    9.25340E+003
            3316    5.69134E+005    2.66530E+005   -3.87073E+005   -9.72600E+002   -3.87073E+005    6.53603E+005    4.05054E+004   -3.84376E+005    7.22556E+003   -1.59074E+003   -1.27151E+005   -1.34829E+004    3.19437E+005    9.96507E+003
            3317    5.68988E+005    2.27936E+005   -4.19601E+005    4.43735E+002   -4.19601E+005    6.47537E+005    6.37405E+004   -4.48037E+005   -4.95074E+004    6.17902E+002   -1.42332E+005   -3.87631E+004    3.17940E+005    8.17514E+003
            3318    5.79502E+005    2.34406E+005   -4.27185E+005   -9.52096E+003   -4.27185E+005    6.61591E+005    6.74333E+004   -4.39502E+005   -3.48991E+004   -9.90842E+003   -1.57492E+005   -2.97371E+004    3.23632E+005    8.93627E+003
            3319    5.89939E+005    2.41540E+005   -4.32176E+005   -8.09472E+003   -4.32176E+005    6.73716E+005    6.62436E+004   -4.45492E+005   -2.09183E+004   -9.08477E+003   -1.68728E+005   -2.43394E+004    3.27635E+005    1.26306E+004
            3320    6.03820E+005    2.43955E+005   -4.45573E+005   -1.12992E+004   -4.45573E+005    6.89528E+005    7.09721E+004   -4.56349E+005   -1.47421E+004   -1.20850E+004   -1.86089E+005   -1.86957E+004    3.33318E+005    1.19077E+004
            3321    5.84643E+005    2.14458E+005   -4.47742E+005   -2.95098E+003   -4.47742E+005    6.62200E+005    7.87450E+004   -4.80161E+005   -5.65754E+004   -1.72977E+003   -1.77930E+005   -4.52767E+004    3.21999E+005    8.48487E+003
            3322    5.87632E+005    2.23559E+005   -4.44207E+005   -6.02839E+003   -4.44207E+005    6.67766E+005    7.55585E+004   -4.69520E+005   -3.59709E+004   -6.58898E+003   -1.84116E+005   -3.58844E+004    3.23428E+005    1.24778E+004
            3323    6.05438E+005    2.27990E+005   -4.60681E+005   -1.21627E+004   -4.60681E+005    6.88671E+005    8.16179E+004   -4.79204E+005   -2.58924E+004   -1.34410E+004   -2.05520E+005   -3.22850E+004    3.30657E+005    1.59913E+004
            3324    6.26402E+005    2.32809E+005   -4.79025E+005   -1.19774E+004   -4.79025E+005    7.11833E+005    8.60645E+004   -5.00435E+005   -1.81494E+004   -1.31401E+004   -2.26904E+005   -2.44341E+004    3.39210E+005    1.58116E+004
            3325    6.19262E+005    1.92280E+005   -5.02655E+005   -9.29388E+003   -5.02655E+005    6.94935E+005    1.06556E+005   -5.37657E+005   -9.95834E+004   -7.71820E+003   -2.12367E+005   -4.38763E+004    3.39602E+005    8.19339E+003
            3326    6.27462E+005    1.98811E+005   -5.09284E+005   -2.23478E+004   -5.09284E+005    7.08095E+005    1.10941E+005   -5.28446E+005   -8.16501E+004   -2.31441E+004   -2.28027E+005   -3.99670E+004    3.43889E+005    1.55459E+004
            3327    6.45439E+005    2.02712E+005   -5.24866E+005   -2.12048E+004   -5.24866E+005    7.27578E+005    1.14453E+005   -5.47218E+005   -6.86587E+004   -2.27582E+004   -2.51942E+005   -3.56109E+004    3.50021E+005    1.94066E+004
            3328    6.69284E+005    2.04494E+005   -5.50290E+005   -2.91426E+004   -5.50290E+005    7.54785E+005    1.24980E+005   -5.65976E+005   -6.46331E+004   -3.04301E+004   -2.79875E+005   -3.02786E+004    3.60247E+005    1.82101E+004
            3329    5.81527E+005    1.76895E+005   -4.76006E+005   -1.36716E+004   -4.76006E+005    6.52901E+005    1.04261E+005   -5.03733E+005   -1.00135E+005   -1.36458E+004   -1.99001E+005   -5.38791E+004    3.17732E+005    1.63225E+004
            3330    6.12114E+005    1.72287E+005   -5.09958E+005   -8.86351E+003   -5.09958E+005    6.82244E+005    1.15512E+005   -5.46748E+005   -1.03287E+005   -1.01683E+004   -2.33079E+005   -4.58990E+004    3.31402E+005    2.06533E+004
            3331    6.37400E+005    1.72500E+005   -5.41039E+005   -2.79816E+004   -5.41039E+005    7.13539E+005    1.32174E+005   -5.59578E+005   -1.01163E+005   -2.91210E+004   -2.66236E+005   -4.63656E+004    3.43617E+005    2.06525E+004
            3332    6.74409E+005    1.71390E+005   -5.83538E+005   -4.05739E+004   -5.83538E+005    7.54927E+005    1.50907E+005   -5.92204E+005   -1.06272E+005   -4.17835E+004   -3.04667E+005   -3.83894E+004    3.61896E+005    1.98888E+004
            3333    6.84547E+005    1.16796E+005   -6.43026E+005   -7.44131E+004   -6.43026E+005    7.59822E+005    2.00214E+005   -6.20064E+005   -1.95871E+005   -7.41494E+004   -3.30622E+005   -4.58901E+004    3.70652E+005    1.59445E+004
            3334    6.56417E+005    1.30467E+005   -5.95759E+005   -4.46839E+004   -5.95759E+005    7.26226E+005    1.69992E+005   -6.00376E+005   -1.75327E+005   -4.26046E+004   -2.92044E+005   -5.24672E+004    3.53706E+005    1.38200E+004
            3335    6.24724E+005    1.40423E+005   -5.50125E+005   -2.41932E+004   -5.50125E+005    6.90548E+005    1.44632E+005   -5.72801E+005   -1.57597E+005   -1.83161E+004   -2.57982E+005   -5.49682E+004    3.35478E+005    6.33385E+003
            3336    6.28583E+005    1.44871E+005   -5.39126E+005    1.31766E+004   -5.39126E+005    6.83997E+005    1.27026E+005   -5.96347E+005   -1.44663E+005    1.69686E+004   -2.53383E+005   -3.73785E+004    3.34339E+005    4.44952E+003
            3337    5.12295E+005    2.81852E+005   -3.09468E+005    3.81629E+002   -3.09468E+005    5.91320E+005    9.07817E+003   -2.23476E+005   -9.15475E+003    1.45921E+003   -1.95390E+004   -9.13041E+003    2.94981E+005   -1.65743E+004
            3338    5.21552E+005    2.58860E+005   -3.41841E+005   -4.27895E+003   -3.41841E+005    6.00701E+005    2.90867E+004   -3.11276E+005   -2.86108E+004   -1.44107E+003   -5.72083E+004   -2.66954E+004    2.98350E+005   -1.30026E+004
            3339    5.39334E+005    2.39825E+005   -3.77591E+005    1.67671E+003   -3.77591E+005    6.17417E+005    4.53630E+004   -3.91852E+005   -4.75713E+004    4.77487E+003   -9.32926E+004   -4.10884E+004    3.04703E+005   -4.46658E+003
            3340    5.59439E+005    2.20215E+005   -4.15863E+005   -2.22528E+002   -4.15863E+005    6.36078E+005    6.52899E+004   -4.44662E+005   -6.91531E+004    3.16532E+003   -1.29882E+005   -5.18187E+004    3.11769E+005    1.52577E+003
            3341    5.87929E+005    2.02750E+005   -4.58522E+005    5.15498E+003   -4.58522E+005    6.61272E+005    8.35388E+004   -5.04678E+005   -9.07256E+004    6.90773E+003   -1.66799E+005   -5.87544E+004    3.22556E+005    1.19748E+004
            3342    6.18619E+005    1.81197E+005   -5.10364E+005   -9.67162E+003   -5.10364E+005    6.91560E+005    1.12946E+005   -5.46232E+005   -1.19755E+005   -6.71160E+003   -2.12372E+005   -6.05487E+004    3.36368E+005    1.20348E+004
            3343    6.32880E+005    1.60420E+005   -5.39297E+005   -6.86540E+003   -5.39297E+005    6.99718E+005    1.28581E+005   -5.79927E+005   -1.35627E+005   -6.15898E+003   -2.43956E+005   -4.07684E+004    3.42807E+005    1.26350E+004
            3344    7.17103E+005    1.04608E+005   -6.92172E+005   -9.86091E+004   -6.92172E+005    7.96780E+005    2.28724E+005   -6.47411E+005   -2.16366E+005   -9.91890E+004   -3.70617E+005   -3.41646E+004    3.89189E+005    1.56246E+004
            3345    7.40213E+005    9.58214E+004   -7.28187E+005   -1.19530E+005   -7.28187E+005    8.24008E+005    2.50632E+005   -6.64055E+005   -2.31806E+005   -1.19749E+005   -4.00340E+005   -1.89818E+004    4.02798E+005    9.09939E+003
            3346    7.50378E+005    9.24311E+004   -7.43292E+005   -1.27334E+005   -7.43292E+005    8.35723E+005    2.59398E+005   -6.72049E+005   -2.38029E+005   -1.27334E+005   -4.12832E+005   -4.15975E+002    4.08619E+005    2.84470E+002
            3347    7.40594E+005    9.50250E+004   -7.29194E+005   -1.19660E+005   -7.29194E+005    8.24219E+005    2.51276E+005   -6.64993E+005   -2.33382E+005   -1.19950E+005   -4.00497E+005    1.83389E+004    4.03088E+005   -9.67129E+003
            3348    7.16060E+005    1.02512E+005   -6.92927E+005   -9.97613E+004   -6.92927E+005    7.95439E+005    2.30059E+005   -6.46949E+005   -2.19191E+005   -1.00263E+005   -3.70723E+005    3.41171E+004    3.88772E+005   -1.51713E+004
            3349    6.85807E+005    1.14269E+005   -6.45525E+005   -7.23257E+004   -6.45525E+005    7.59794E+005    2.01194E+005   -6.24757E+005   -2.00171E+005   -7.24212E+004   -3.30989E+005    4.53018E+004    3.71097E+005   -1.72121E+004
            3350    6.54196E+005    1.25581E+005   -5.97220E+005   -4.57121E+004   -5.97220E+005    7.22801E+005    1.72450E+005   -6.00554E+005   -1.80223E+005   -4.37648E+004   -2.93364E+005    5.13523E+004    3.52431E+005   -1.38671E+004
            3351    6.40017E+005    1.35760E+005   -5.67608E+005   -1.95153E+004   -5.67608E+005    7.03369E+005    1.50454E+005   -5.95384E+005   -1.65312E+005   -1.73392E+004   -2.68712E+005    4.63407E+004    3.43934E+005   -1.18336E+004
            3352    6.36124E+005    1.44779E+005   -5.57950E+005   -2.14301E+004   -5.57950E+005    7.02729E+005    1.44867E+005   -5.84200E+005   -1.57403E+005   -2.07554E+004   -2.56443E+005    5.21097E+004    3.43312E+005   -1.73614E+004
            3353    7.03474E+005    1.69851E+005   -6.18946E+005   -5.65428E+004   -6.18946E+005    7.88797E+005    1.68546E+005   -6.13098E+005   -1.09999E+005   -5.73180E+004   -3.38321E+005   -2.83275E+004    3.76290E+005    1.58360E+004
            3354    6.92878E+005    2.07012E+005   -5.74143E+005   -3.38078E+004   -5.74143E+005    7.81155E+005    1.33646E+005   -5.86991E+005   -6.21071E+004   -3.45455E+004   -3.04287E+005   -2.11742E+004    3.70606E+005    1.41863E+004
            3355    6.45167E+005    2.35560E+005   -4.97575E+005   -1.64419E+004   -4.97575E+005    7.33135E+005    9.28190E+004   -5.15571E+005   -1.41276E+004   -1.69887E+004   -2.47341E+005   -1.72932E+004    3.47004E+005    1.12399E+004
            3356    6.15219E+005    2.47111E+005   -4.55004E+005   -1.02957E+004   -4.55004E+005    7.02115E+005    7.27295E+004   -4.68836E+005   -9.21975E+003   -1.06897E+004   -1.98279E+005   -1.21098E+004    3.37812E+005    8.86371E+003
            3357    5.77829E+005    2.68381E+005   -3.95163E+005   -2.82531E+003   -3.95163E+005    6.63544E+005    4.32025E+004   -3.91003E+005    1.01877E+004   -3.08105E+003   -1.36714E+005   -8.88170E+003    3.23376E+005    6.47694E+003
            3358    5.59015E+005    2.77982E+005   -3.65741E+005   -2.49397E+003   -3.65741E+005    6.43723E+005    3.00844E+004   -3.37710E+005   -1.76974E+003   -2.64299E+003   -8.58405E+004   -4.78104E+003    3.19030E+005    5.59198E+003
            3359    5.45235E+005    3.06169E+005   -3.23323E+005    6.65185E+002   -3.23323E+005    6.29492E+005    5.49627E+003   -2.01976E+005    8.16993E+003    6.08519E+002   -2.52673E+004   -1.85268E+003    3.14261E+005    4.74671E+003
            3360    7.26562E+005    1.68358E+005   -6.46098E+005   -6.45459E+004   -6.46098E+005    8.14456E+005    1.80762E+005   -6.34036E+005   -1.14767E+005   -6.48053E+004   -3.62713E+005   -1.44855E+004    3.87580E+005    9.06472E+003
            3361    7.07897E+005    2.06974E+005   -5.91084E+005   -3.89345E+004   -5.91084E+005    7.98058E+005    1.41015E+005   -5.99847E+005   -6.30533E+004   -3.90834E+004   -3.20907E+005   -1.04050E+004    3.77456E+005    6.59140E+003
            3362    6.58077E+005    2.37582E+005   -5.09716E+005   -1.68049E+004   -5.09716E+005    7.47299E+005    9.63129E+004   -5.29147E+005   -1.23262E+004   -1.69124E+004   -2.59700E+005   -7.13305E+003    3.52493E+005    5.11512E+003
            3363    6.22007E+005    2.47048E+005   -4.62525E+005   -1.14439E+004   -4.62525E+005    7.09573E+005    7.56405E+004   -4.76508E+005   -8.14107E+003   -1.14934E+004   -2.07287E+005   -4.78190E+003    3.40486E+005    3.13811E+003
            3364    5.82594E+005    2.69787E+005   -3.98960E+005   -1.34670E+003   -3.98960E+005    6.68747E+005    4.35063E+004   -3.98708E+005    1.17394E+004   -1.37722E+003   -1.40881E+005   -2.74753E+003    3.25532E+005    2.38644E+003
            3365    5.61815E+005    2.78058E+005   -3.68885E+005   -3.76111E+003   -3.68885E+005    6.46943E+005    3.15296E+004   -3.39562E+005   -1.60248E+003   -3.77304E+003   -8.92132E+004   -1.56783E+003    3.20485E+005    1.42597E+003
            3366    5.47403E+005    3.07769E+005   -3.24202E+005    2.24510E+003   -3.24202E+005    6.31972E+005    4.72918E+003   -2.11043E+005    8.97272E+003    2.24191E+003   -2.54022E+004   -3.88943E+002    3.15515E+005    1.26862E+003
            3367    7.33609E+005    1.67322E+005   -6.55134E+005   -6.82483E+004   -6.55134E+005    8.22456E+005    1.85354E+005   -6.39824E+005   -1.16694E+005   -6.82511E+004   -3.71116E+005    7.21531E+002    3.91056E+005   -1.07948E+003
            3368    7.12711E+005    2.06758E+005   -5.96681E+005   -4.06165E+004   -5.96681E+005    8.03438E+005    1.43513E+005   -6.04133E+005   -6.38945E+004   -4.06256E+004   -3.26019E+005    2.04675E+003    3.79731E+005   -1.61215E+003
            3369    6.61620E+005    2.37392E+005   -5.13948E+005   -1.84565E+004   -5.13948E+005    7.51340E+005    9.83374E+004   -5.31885E+005   -1.26034E+004   -1.84813E+004   -2.63927E+005    2.60731E+003    3.54015E+005   -2.58635E+003
            3370    6.23453E+005    2.47172E+005   -4.63978E+005   -1.14831E+004   -4.63978E+005    7.11150E+005    7.60961E+004   -4.78232E+005   -7.76417E+003   -1.15149E+004   -2.09009E+005    3.23787E+003    3.41020E+005   -2.61280E+003
            3371    5.83276E+005    2.69440E+005   -4.00124E+005   -2.30457E+003   -4.00124E+005    6.69564E+005    4.43294E+004   -3.98612E+005    1.17313E+004   -2.34234E+003   -1.42377E+005    2.68387E+003    3.25774E+005   -2.84679E+003
            3372    5.61666E+005    2.78052E+005   -3.68669E+005   -3.07518E+003   -3.68669E+005    6.46720E+005    3.12307E+004   -3.41048E+005   -1.27279E+003   -3.10591E+003   -8.93133E+004    2.08649E+003    3.20334E+005   -2.63367E+003
            3373    5.47098E+005    3.07388E+005   -3.24245E+005    1.39153E+003   -3.24245E+005    6.31633E+005    5.15511E+003   -2.06566E+005    8.76019E+003    1.38147E+003   -2.56070E+004    5.72169E+002    3.15337E+005   -2.65784E+003
            3374    7.24694E+005    1.66464E+005   -6.45746E+005   -6.52379E+004   -6.45746E+005    8.12210E+005    1.81507E+005   -6.32937E+005   -1.16994E+005   -6.55913E+004   -3.61935E+005    1.63323E+004    3.86792E+005   -1.04683E+004
            3375    7.05769E+005    2.04888E+005   -5.90378E+005   -3.85594E+004   -5.90378E+005    7.95266E+005    1.41350E+005   -5.99762E+005   -6.60409E+004   -3.89420E+004   -3.19067E+005    1.41800E+004    3.76639E+005   -1.03623E+004
            3376    6.55314E+005    2.35462E+005   -5.08629E+005   -1.74925E+004   -5.08629E+005    7.44091E+005    9.68867E+004   -5.27368E+005   -1.50249E+004   -1.78579E+004   -2.57777E+005    1.30468E+004    3.51384E+005   -9.38112E+003
            3377    6.18997E+005    2.45336E+005   -4.60677E+005   -1.11453E+004   -4.60677E+005    7.06013E+005    7.54955E+004   -4.75272E+005   -1.02137E+004   -1.14754E+004   -2.04798E+005    1.07246E+004    3.39111E+005   -8.27950E+003
            3378    5.79523E+005    2.67968E+005   -3.97274E+005   -1.90723E+003   -3.97274E+005    6.65241E+005    4.37378E+004   -3.96280E+005    1.01441E+004   -2.18882E+003   -1.39169E+005    8.64174E+003    3.23969E+005   -7.08400E+003
            3379    5.58629E+005    2.76525E+005   -3.66713E+005   -3.25673E+003   -3.66713E+005    6.43237E+005    3.11483E+004   -3.38759E+005   -2.45753E+003   -3.44032E+003   -8.75470E+004    5.19642E+003    3.18699E+005   -6.31132E+003
            3380    5.44305E+005    3.06096E+005   -3.22311E+005    1.69382E+003   -3.22311E+005    6.28407E+005    4.84058E+003   -2.05733E+005    8.57795E+003    1.61976E+003   -2.47195E+004    1.94017E+003    3.13702E+005   -5.88386E+003
            3381    7.00857E+005    1.66362E+005   -6.18563E+005   -5.54554E+004   -6.18563E+005    7.84925E+005    1.69219E+005   -6.14098E+005   -1.14863E+005   -5.64995E+004   -3.36294E+005    2.97217E+004    3.75162E+005   -1.77743E+004
            3382    6.88590E+005    2.02497E+005   -5.73491E+005   -3.53699E+004   -5.73491E+005    7.75988E+005    1.35455E+005   -5.84820E+005   -6.85072E+004   -3.64057E+004   -3.01451E+005    2.47869E+004    3.69103E+005   -1.66492E+004
            3383    6.40548E+005    2.32632E+005   -4.94914E+005   -1.57739E+004   -4.94914E+005    7.27546E+005    9.26851E+004   -5.14085E+005   -1.83802E+004   -1.66980E+004   -2.42977E+005    2.13963E+004    3.45193E+005   -1.44958E+004
            3384    6.10175E+005    2.43125E+005   -4.53143E+005   -1.16189E+004   -4.53143E+005    6.96268E+005    7.38789E+004   -4.65782E+005   -1.42896E+004   -1.23479E+004   -1.94999E+005    1.76022E+004    3.35638E+005   -1.17594E+004
            3385    5.72142E+005    2.65945E+005   -3.90965E+005   -1.69124E+003   -3.90965E+005    6.56910E+005    4.22372E+004   -3.88918E+005    7.97659E+003   -2.29060E+003   -1.32398E+005    1.34270E+004    3.20492E+005   -9.86967E+003
            3386    5.53491E+005    2.74385E+005   -3.63002E+005   -3.61706E+003   -3.63002E+005    6.37387E+005    3.07444E+004   -3.33606E+005   -4.45712E+003   -4.00612E+003   -8.37700E+004    8.34417E+003    3.16019E+005   -8.43202E+003
            3387    5.39657E+005    3.03960E+005   -3.19087E+005    1.84561E+003   -3.19087E+005    6.23047E+005    4.42727E+003   -2.01796E+005    8.28531E+003    1.70578E+003   -2.32729E+004    2.78450E+003    3.11018E+005   -7.71352E+003
            3388    6.68514E+005    1.66519E+005   -5.81469E+005   -4.22618E+004   -5.81469E+005    7.47989E+005    1.52404E+005   -5.88165E+005   -1.11579E+005   -4.37134E+004   -3.01919E+005    4.03044E+004    3.59135E+005   -2.12124E+004
            3389    6.65855E+005    1.99641E+005   -5.50365E+005   -2.87975E+004   -5.50365E+005    7.50006E+005    1.26507E+005   -5.67068E+005   -7.30882E+004   -3.03754E+004   -2.76058E+005    3.24715E+004    3.59314E+005   -1.99147E+004
            3390    6.21574E+005    2.27953E+005   -4.78138E+005   -1.36007E+004   -4.78138E+005    7.06091E+005    8.79284E+004   -4.98236E+005   -2.54487E+004   -1.49014E+004   -2.23435E+005    2.91085E+004    3.37435E+005   -1.65909E+004
            3391    5.98141E+005    2.39721E+005   -4.42716E+005   -9.38953E+003   -4.42716E+005    6.82436E+005    7.07948E+004   -4.57465E+005   -2.08336E+004   -1.03881E+004   -1.81163E+005    2.29732E+004    3.30747E+005   -1.31552E+004
            3392    5.63024E+005    2.62210E+005   -3.84293E+005   -1.69955E+003   -3.84293E+005    6.46503E+005    4.12609E+004   -3.81668E+005    2.66696E+003   -2.51768E+003   -1.23932E+005    1.78837E+004    3.16384E+005   -1.06861E+004
            3393    5.46703E+005    2.71928E+005   -3.57654E+005   -2.81762E+003   -3.57654E+005    6.29582E+005    2.95146E+004   -3.29119E+005   -7.16124E+003   -3.32232E+003   -7.80602E+004    1.07444E+004    3.12516E+005   -8.65731E+003
            3394    5.33814E+005    3.00431E+005   -3.15877E+005    1.25504E+003   -3.15877E+005    6.16308E+005    4.73031E+003   -1.97230E+005    6.93683E+003    1.06691E+003   -2.21947E+004    3.77633E+003    3.07693E+005   -7.67525E+003
            3395    6.36757E+005    1.67595E+005   -5.43821E+005   -2.72524E+004   -5.43821E+005    7.11415E+005    1.34493E+005   -5.63593E+005   -1.09976E+005   -2.89280E+004   -2.64574E+005    4.50373E+004    3.43947E+005   -2.21891E+004
            3396    6.44960E+005    1.97367E+005   -5.29599E+005   -2.60644E+004   -5.29599E+005    7.26966E+005    1.19432E+005   -5.47132E+005   -7.99404E+004   -2.73309E+004   -2.51025E+005    3.85248E+004    3.50946E+005   -1.82090E+004
            3397    6.01667E+005    2.24148E+005   -4.59188E+005   -8.92574E+003   -4.59188E+005    6.83336E+005    8.13219E+004   -4.83191E+005   -3.18828E+004   -9.99368E+003   -2.02089E+005    3.53092E+004    3.28826E+005   -1.53734E+004
            3398    5.86586E+005    2.35275E+005   -4.33984E+005   -9.07035E+003   -4.33984E+005    6.69260E+005    6.92598E+004   -4.48558E+005   -3.01460E+004   -9.98884E+003   -1.67644E+005    2.85225E+004    3.26146E+005   -1.21885E+004
            3399    5.52904E+005    2.59304E+005   -3.75575E+005    1.69869E+002   -3.75575E+005    6.34879E+005    3.87004E+004   -3.74870E+005   -2.04756E+003   -5.56430E+002   -1.13497E+005    2.20771E+004    3.11662E+005   -9.15267E+003
            3400    5.39758E+005    2.67997E+005   -3.53616E+005   -3.59251E+003   -3.53616E+005    6.21612E+005    2.97372E+004   -3.24072E+005   -1.21443E+004   -4.04460E+003   -7.30226E+004    1.33820E+004    3.08977E+005   -6.73716E+003
            3401    5.27481E+005    2.97835E+005   -3.11162E+005    2.15720E+003   -3.11162E+005    6.08997E+005    3.72319E+003   -1.94517E+005    6.55377E+003    2.00269E+003   -1.97260E+004    4.63650E+003    3.04137E+005   -5.19744E+003
            3402    6.13065E+005    1.70196E+005   -5.15438E+005   -2.00485E+004   -5.15438E+005    6.85634E+005    1.21763E+005   -5.40413E+005   -1.10203E+005   -2.06341E+004   -2.34453E+005    5.14340E+004    3.32781E+005   -1.90925E+004
            3403    6.28428E+005    1.92341E+005   -5.14142E+005   -1.74304E+004   -5.14142E+005    7.06483E+005    1.13077E+005   -5.40801E+005   -9.23817E+004   -1.76112E+004   -2.29238E+005    4.30136E+004    3.43606E+005   -1.44087E+004
            3404    5.89057E+005    2.17323E+005   -4.50823E+005   -6.41528E+003   -4.50823E+005    6.68146E+005    7.99717E+004   -4.78388E+005   -4.61894E+004   -6.81457E+003   -1.86911E+005    4.04791E+004    3.23867E+005   -1.30251E+004
            3405    5.74931E+005    2.30267E+005   -4.25011E+005   -5.15455E+003   -4.25011E+005    6.55277E+005    6.66328E+004   -4.45316E+005   -4.09882E+004   -5.53791E+003   -1.53372E+005    3.35141E+004    3.20950E+005   -9.63416E+003
            3406    5.45581E+005    2.52968E+005   -3.73249E+005   -5.83170E+002   -3.73249E+005    6.26218E+005    4.02881E+004   -3.74059E+005   -1.34563E+004   -8.32706E+002   -1.06575E+005    2.58113E+004    3.08517E+005   -5.93216E+003
            3407    5.32634E+005    2.65684E+005   -3.47696E+005   -1.98177E+003   -3.47696E+005    6.13380E+005    2.79981E+004   -3.20675E+005   -1.57610E+004   -2.06939E+003   -6.61639E+004    1.61476E+004    3.05221E+005   -2.52689E+003
            3408    5.21742E+005    2.92408E+005   -3.09951E+005    5.78656E+002   -3.09951E+005    6.02359E+005    5.65463E+003   -1.96888E+005    2.51089E+003    5.75667E+002   -2.00504E+004    5.46624E+003    3.00919E+005   -2.69624E+002
            3409    6.16035E+005    1.68836E+005   -5.17738E+005   -1.33279E+004   -5.17738E+005    6.86574E+005    1.20743E+005   -5.50365E+005   -1.24576E+005   -1.07832E+004   -2.26871E+005    5.14365E+004    3.34761E+005   -1.02175E+004
            3410    6.10304E+005    1.88343E+005   -4.96154E+005   -8.75219E+003   -4.96154E+005    6.84497E+005    1.05521E+005   -5.31285E+005   -9.84464E+004   -7.55476E+003   -2.10562E+005    5.40487E+004    3.32724E+005   -1.37819E+004
            3411    5.84164E+005    2.08520E+005   -4.51369E+005   -3.55490E+002   -4.51369E+005    6.59889E+005    8.10681E+004   -4.88882E+005   -6.89354E+004    6.99003E+002   -1.74968E+005    4.81747E+004    3.21714E+005   -1.01897E+004
            3412    5.63905E+005    2.25197E+005   -4.16530E+005   -1.25000E+002   -4.16530E+005    6.41728E+005    6.38194E+004   -4.44214E+005   -5.10013E+004    6.80584E+002   -1.41137E+005    4.20968E+004    3.14687E+005   -6.72588E+003
            3413    5.40726E+005    2.45696E+005   -3.74110E+005    1.09089E+003   -3.74110E+005    6.19807E+005    4.24410E+004   -3.82956E+005   -3.02237E+004    1.95156E+003   -9.90509E+004    3.19092E+004    3.06234E+005   -1.22786E+003
            3414    5.25847E+005    2.62957E+005   -3.42655E+005   -1.89852E+003   -3.42655E+005    6.05612E+005    2.71986E+004   -3.15023E+005   -1.95134E+004   -1.04152E+003   -6.10409E+004    2.03696E+004    3.01321E+005    4.24103E+003
            3415    5.17060E+005    2.87078E+005   -3.09814E+005    5.44921E+002   -3.09814E+005    5.96891E+005    7.39706E+003   -2.12148E+005   -4.08811E+003    8.98925E+002   -1.90020E+004    6.73304E+003    2.98174E+005    7.54420E+003
            3416    5.11676E+005    2.81108E+005   -3.09552E+005   -1.83756E+003   -3.09552E+005    5.90660E+005    1.00941E+004   -2.13413E+005   -9.70863E+003   -6.09801E+002   -1.99638E+004    9.69356E+003    2.94556E+005    1.78840E+004
            3417    5.22155E+005    2.57660E+005   -3.43365E+005   -1.34402E+003   -3.43365E+005    6.01024E+005    2.90163E+004   -3.22894E+005   -3.03086E+004    1.67780E+003   -5.84180E+004    2.71805E+004    2.98430E+005    1.33633E+004
            3418    5.38407E+005    2.37117E+005   -3.79190E+005   -2.73981E+002   -3.79190E+005    6.16307E+005    4.74490E+004   -3.91750E+005   -5.01525E+004    3.60266E+003   -9.57970E+004    4.15023E+004    3.03945E+005    6.84893E+003
            3419    5.59321E+005    2.17761E+005   -4.17113E+005    2.99920E+003   -4.17113E+005    6.34874E+005    6.54510E+004   -4.51490E+005   -7.23234E+004    6.68423E+003   -1.30714E+005    5.17118E+004    3.11207E+005   -1.17714E+003
            3420    5.80231E+005    1.97552E+005   -4.55455E+005    8.70671E+002   -4.55455E+005    6.53008E+005    8.56775E+004   -4.96467E+005   -9.48712E+004    4.88471E+003   -1.67046E+005    5.85414E+004    3.18279E+005   -6.36659E+003
            3421    6.02662E+005    1.79498E+005   -4.94499E+005   -7.50688E+003   -4.94499E+005    6.73997E+005    1.07502E+005   -5.31253E+005   -1.20859E+005   -3.79107E+003   -1.97858E+005    6.12650E+004    3.28120E+005   -1.01022E+004
            3422    6.21299E+005    1.58757E+005   -5.31339E+005   -1.64746E+004   -5.31339E+005    6.90096E+005    1.29685E+005   -5.61536E+005   -1.44596E+005   -1.47470E+004   -2.29714E+005    6.23508E+004    3.35811E+005   -1.71734E+004
            3423    6.29359E+005    5.39519E+005    5.39519E+005   -1.41006E+004   -1.44995E+005    6.84514E+005   -1.26808E+005    5.97572E+005    1.44450E+005   -1.76994E+004    2.53672E+005    3.66555E+004    3.34697E+005    4.59645E+003
            3424    6.23524E+005    5.48523E+005    5.48523E+005    2.34186E+004   -1.40622E+005    6.89145E+005   -1.43773E+005    5.71876E+005    1.56931E+005    1.73990E+004    2.56990E+005    5.46614E+004    3.34799E+005    5.88730E+003
            3425    6.55420E+005    5.94184E+005    5.94184E+005    4.38703E+004   -1.30908E+005    7.25091E+005   -1.69049E+005    5.99537E+005    1.74492E+005    4.16758E+004    2.90979E+005    5.26420E+004    3.53093E+005    1.36177E+004
            3426    6.83909E+005    6.42187E+005    6.42187E+005    7.43464E+004   -1.17023E+005    7.59209E+005   -1.99837E+005    6.19240E+005    1.95442E+005    7.40110E+004    3.30058E+005    4.59851E+004    3.70331E+005    1.57077E+004
            3427    6.73887E+005    5.82317E+005    5.82317E+005    3.99696E+004   -1.72094E+005    7.54411E+005   -1.50064E+005    5.91520E+005    1.05112E+005    4.12075E+004    3.03874E+005    3.85163E+004    3.61560E+005    2.00419E+004
            3428    6.67976E+005    5.48057E+005    5.48057E+005    2.85119E+004   -2.05422E+005    7.53479E+005   -1.23716E+005    5.64105E+005    6.32040E+004    2.98009E+004    2.78142E+005    3.02175E+004    3.59615E+005    1.81710E+004
            3429    6.25032E+005    4.76971E+005    4.76971E+005    1.16094E+004   -2.33459E+005    7.10430E+005   -8.50403E+004    4.98322E+005    1.72685E+004    1.27671E+004    2.25085E+005    2.43128E+004    3.38628E+005    1.57261E+004
            3430    6.02908E+005    4.44150E+005    4.44150E+005    1.10934E+004   -2.44442E+005    6.88592E+005   -7.02669E+004    4.54676E+005    1.43320E+004    1.18544E+004    1.84614E+005    1.84669E+004    3.32987E+005    1.16736E+004
            3431    5.68320E+005    3.85790E+005    3.85790E+005    8.22474E+002   -2.66953E+005    6.52743E+005   -3.98864E+004    3.82524E+005   -7.53166E+003    1.43048E+003    1.25760E+005    1.33579E+004    3.19118E+005    9.85672E+003
            3432    5.52997E+005    3.61287E+005    3.61287E+005    4.54752E+003   -2.75731E+005    6.37018E+005   -3.00347E+004    3.26639E+005    4.41974E+003    4.88672E+003    8.07976E+004    8.01798E+003    3.16038E+005    7.65141E+003
            3433    5.40281E+005    3.19380E+005    3.19380E+005   -2.58753E+003   -3.04374E+005    6.23754E+005   -4.13945E+003    2.06708E+005   -7.93975E+003   -2.46005E+003    2.28181E+004    2.72051E+003    3.11403E+005    7.25123E+003
            3434    6.36416E+005    5.39458E+005    5.39458E+005    2.74191E+004   -1.73056E+005    7.12514E+005   -1.31274E+005    5.58454E+005    1.00278E+005    2.85937E+004    2.64950E+005    4.61949E+004    3.43161E+005    2.06935E+004
            3435    6.44364E+005    5.23029E+005    5.23029E+005    2.08794E+004   -2.03535E+005    7.26564E+005   -1.13458E+005    5.45432E+005    6.76325E+004    2.24282E+004    2.50313E+005    3.55199E+004    3.49585E+005    1.93104E+004
            3436    6.03753E+005    4.58300E+005    4.58300E+005    1.18151E+004   -2.28631E+005    6.86930E+005   -8.04947E+004    4.76637E+005    2.51363E+004    1.30733E+004    2.03275E+005    3.21146E+004    3.29974E+005    1.57862E+004
            3437    5.89055E+005    4.30674E+005    4.30674E+005    7.88022E+003   -2.42155E+005    6.72830E+005   -6.54664E+004    4.43680E+005    2.04673E+004    8.86647E+003    1.67065E+005    2.41284E+004    3.27333E+005    1.25574E+004
            3438    5.58192E+005    3.78850E+005    3.78850E+005    2.91943E+003   -2.62531E+005    6.41381E+005   -3.97462E+004    3.70748E+005   -1.29536E+003    3.60411E+003    1.16930E+005    1.86048E+004    3.14572E+005    9.15772E+003
            3439    5.45311E+005    3.54698E+005    3.54698E+005    1.63252E+003   -2.73358E+005    6.28055E+005   -2.76576E+004    3.25816E+005    6.79802E+003    2.11673E+003    7.40582E+004    1.08992E+004    3.11953E+005    8.21926E+003
            3440    5.33575E+005    3.16106E+005    3.16106E+005    1.02453E+002   -2.99945E+005    6.16051E+005   -5.42130E+003    1.89568E+005   -5.84662E+003    2.78629E+002    2.18319E+004    3.93758E+003    3.07614E+005    6.91277E+003
            3441    6.11650E+005    5.09192E+005    5.09192E+005    8.57770E+003   -1.72572E+005    6.81764E+005   -1.15066E+005    5.46226E+005    1.02805E+005    9.94422E+003    2.32448E+005    4.57916E+004    3.31188E+005    2.08138E+004
            3442    6.25986E+005    5.07177E+005    5.07177E+005    2.20103E+004   -1.99432E+005    7.06608E+005   -1.09918E+005    5.26375E+005    8.06996E+004    2.27615E+004    2.26294E+005    4.01104E+004    3.43190E+005    1.53251E+004
            3443    5.86442E+005    4.42398E+005    4.42398E+005    5.66008E+003   -2.24145E+005    6.66543E+005   -7.46378E+004    4.67722E+005    3.53086E+004    6.19800E+003    1.82407E+005    3.57046E+004    3.22940E+005    1.22748E+004
            3444    5.78718E+005    4.25989E+005    4.25989E+005    9.43014E+003   -2.34809E+005    6.60798E+005   -6.68704E+004    4.37970E+005    3.46153E+004    9.79054E+003    1.56205E+005    2.96037E+004    3.23336E+005    8.71773E+003
            3445    5.48420E+005    3.71290E+005    3.71290E+005   -1.39620E+003   -2.58441E+005    6.29731E+005   -3.71507E+004    3.71804E+005    5.97255E+003   -8.30985E+002    1.06311E+005    2.28324E+004    3.09957E+005    7.80352E+003
            3446    5.37055E+005    3.50753E+005    3.50753E+005    4.75586E+003   -2.67938E+005    6.18691E+005   -2.91901E+004    3.15874E+005    1.36619E+004    5.03185E+003    6.88765E+004    1.40828E+004    3.07773E+005    4.48534E+003
            3447    5.26240E+005    3.11098E+005    3.11098E+005   -3.02627E+003   -2.96433E+005    6.07532E+005   -3.87957E+003    2.04891E+005   -5.20059E+003   -2.91587E+003    1.97552E+004    4.87266E+003    3.03451E+005    3.61264E+003
            3448    5.80808E+005    4.75228E+005    4.75228E+005    1.38402E+004   -1.76985E+005    6.52214E+005   -1.04028E+005    5.02657E+005    1.00005E+005    1.37143E+004    1.98364E+005    5.38515E+004    3.17419E+005    1.59840E+004
            3449    6.18752E+005    5.01928E+005    5.01928E+005    9.01667E+003   -1.92448E+005    6.94377E+005   -1.06166E+005    5.37162E+005    9.90307E+004    7.41448E+003    2.12052E+005    4.38989E+004    3.39290E+005    8.12576E+003
            3450    5.83782E+005    4.46533E+005    4.46533E+005    2.77089E+003   -2.14789E+005    6.61322E+005   -7.81714E+004    4.78921E+005    5.61090E+004    1.53513E+003    1.76870E+005    4.53270E+004    3.21597E+005    8.40813E+003
            3451    5.68362E+005    4.18600E+005    4.18600E+005   -5.64007E+002   -2.28317E+005    6.46917E+005   -6.32395E+004    4.46879E+005    4.91011E+004   -7.21534E+002    1.41339E+005    3.86377E+004    3.17685E+005    8.16168E+003
            3452    5.40696E+005    3.70085E+005    3.70085E+005    1.14437E+003   -2.50579E+005    6.20663E+005   -4.02169E+004    3.69866E+005    2.14825E+004    6.19216E+002    9.85489E+004    2.95966E+004    3.06447E+005    2.04692E+003
            3453    5.29004E+005    3.45004E+005    3.45004E+005    5.86152E+002   -2.64100E+005    6.09104E+005   -2.71634E+004    3.21450E+005    1.96614E+004    1.82559E+002    6.16461E+004    1.84208E+004    3.03239E+005   -1.42181E+003
            3454    5.19414E+005    3.09264E+005    3.09264E+005    1.05127E+003   -2.90426E+005    5.99690E+005   -6.63001E+003    1.89180E+005    8.43971E+001    8.42259E+002    1.89634E+004    6.39638E+003    2.99588E+005   -4.70995E+003
            3455    5.12392E+005    3.10088E+005    3.10088E+005   -3.25753E+002   -2.81327E+005    5.91416E+005   -9.47843E+003    2.26178E+005    9.57630E+003   -1.44593E+003    2.03049E+004    9.53006E+003    2.95016E+005   -1.64858E+004
            3456    5.21627E+005    3.42040E+005    3.42040E+005    4.35407E+003   -2.58742E+005    6.00782E+005   -2.92172E+004    3.11535E+005    2.87792E+004    1.48481E+003    5.73875E+004    2.68005E+004    2.98374E+005   -1.30959E+004
            3457    5.39294E+005    3.77384E+005    3.77384E+005   -1.70426E+003   -2.40012E+005    6.17395E+005   -4.52226E+004    3.91533E+005    4.74012E+004   -4.78670E+003    9.30532E+004    4.08168E+004    3.04734E+005   -4.54322E+003
            3458    5.58958E+005    4.15121E+005    4.15121E+005    1.63627E+002   -2.20484E+005    6.35605E+005   -6.49337E+004    4.43775E+005    6.87270E+004   -3.27788E+003    1.29352E+005    5.14959E+004    3.11581E+005    1.21713E+003
            3459    5.86985E+005    4.57252E+005    4.57252E+005   -5.27331E+003   -2.03085E+005    6.60337E+005   -8.29645E+004    5.03359E+005    9.01963E+004   -7.06708E+003    1.65764E+005    5.85809E+004    3.22140E+005    1.17445E+004
            3460    6.17453E+005    5.08873E+005    5.08873E+005    9.54562E+003   -1.81532E+005    6.90404E+005   -1.12296E+005    5.44726E+005    1.19196E+005    6.56642E+003    2.11125E+005    6.07521E+004    3.35784E+005    1.20035E+004
            3461    6.33760E+005    5.40268E+005    5.40268E+005    6.92664E+003   -1.60352E+005    7.00620E+005   -1.28948E+005    5.80897E+005    1.36039E+005    6.22832E+003    2.44576E+005    4.13893E+004    3.43166E+005    1.29534E+004
            3462    5.17072E+005    3.10169E+005    3.10169E+005   -5.22446E+002   -2.86727E+005    5.96896E+005   -7.63988E+003    2.14093E+005    4.28860E+003   -8.92349E+002    1.95234E+004   -7.00030E+003    2.98165E+005    7.56780E+003
            3463    5.21881E+005    3.10711E+005    3.10711E+005   -5.89349E+002   -2.91794E+005    6.02505E+005   -6.10939E+003    2.01703E+005   -2.26240E+003   -5.88955E+002    2.11795E+004   -5.77981E+003    3.00969E+005   -2.19269E+002
            3464    5.27661E+005    3.12232E+005    3.12232E+005   -2.15259E+003   -2.96954E+005    6.09186E+005   -4.37513E+003    2.01447E+005   -6.31932E+003   -1.98545E+003    2.14302E+004   -4.99658E+003    3.04193E+005   -5.24921E+003
            3465    5.34115E+005    3.17143E+005    3.17143E+005   -1.27392E+003   -2.99489E+005    6.16633E+005   -5.46009E+003    2.05203E+005   -6.83452E+003   -1.07107E+003    2.42859E+004   -4.10156E+003    3.07804E+005   -7.66393E+003
            3466    5.39890E+005    3.20182E+005    3.20182E+005   -1.83721E+003   -3.03115E+005    6.23296E+005   -5.07658E+003    2.08501E+005   -8.25005E+003   -1.68696E+003    2.51667E+004   -2.99428E+003    3.11092E+005   -7.74291E+003
            3467    5.44536E+005    3.23119E+005    3.23119E+005   -1.68825E+003   -3.05541E+005    6.28660E+005   -5.29659E+003    2.10411E+005   -8.59835E+003   -1.61144E+003    2.60996E+004   -2.03043E+003    3.13791E+005   -5.85131E+003
            3468    5.47194E+005    3.24648E+005    3.24648E+005   -1.36563E+003   -3.07089E+005    6.31737E+005   -5.39789E+003    2.08845E+005   -8.75979E+003   -1.35543E+003    2.63089E+004   -5.79061E+002    3.15370E+005   -2.66384E+003
            3469    5.47473E+005    3.24315E+005    3.24315E+005   -2.19965E+003   -3.07737E+005    6.32052E+005   -4.79288E+003    2.11245E+005   -8.94323E+003   -2.19628E+003    2.55182E+004    4.07211E+002    3.15553E+005    1.28299E+003
            3470    5.45142E+005    3.23103E+005    3.23103E+005   -6.18201E+002   -3.06287E+005    6.29390E+005   -5.39943E+003    2.00370E+005   -8.15159E+003   -5.61012E+002    2.49109E+004    1.85807E+003    3.14220E+005    4.77358E+003
            3471    5.26039E+005    3.43372E+005    3.43372E+005    1.88980E+003   -2.62409E+005    6.05781E+005   -2.76174E+004    3.16840E+005    1.99153E+004    1.01500E+003    6.19218E+004   -2.07372E+004    3.01363E+005    4.19004E+003
            3472    5.32919E+005    3.48715E+005    3.48715E+005    1.91694E+003   -2.64912E+005    6.13627E+005   -2.85732E+004    3.23361E+005    1.60337E+004    2.00300E+003    6.76829E+004   -1.66062E+004    3.05268E+005   -2.58113E+003
            3473    5.40466E+005    3.55229E+005    3.55229E+005    3.53348E+003   -2.67090E+005    6.22318E+005   -3.05575E+004    3.27901E+005    1.22378E+004    4.00341E+003    7.54312E+004   -1.38596E+004    3.09195E+005   -6.86672E+003
            3474    5.47602E+005    3.59443E+005    3.59443E+005    2.83414E+003   -2.71068E+005    6.30511E+005   -3.04029E+004    3.32978E+005    7.13208E+003    3.35653E+003    8.07201E+004   -1.11100E+004    3.12815E+005   -8.75972E+003
            3475    5.54411E+005    3.64674E+005    3.64674E+005    3.64767E+003   -2.73679E+005    6.38353E+005   -3.15477E+004    3.37073E+005    4.39918E+003    4.04175E+003    8.62023E+004   -8.53639E+003    3.16343E+005   -8.42117E+003
            3476    5.59220E+005    3.67848E+005    3.67848E+005    3.31724E+003   -2.76006E+005    6.43854E+005   -3.17197E+004    3.41025E+005    2.42629E+003    3.50004E+003    8.92328E+004   -5.23963E+003    3.18896E+005   -6.26227E+003
            3477    5.61955E+005    3.69214E+005    3.69214E+005    3.11443E+003   -2.77810E+005    6.47024E+005   -3.15062E+004    3.42103E+005    1.27832E+003    3.14354E+003    9.00966E+004   -2.04371E+003    3.20434E+005   -2.55361E+003
            3478    5.61710E+005    3.68769E+005    3.68769E+005    3.79695E+003   -2.78061E+005    6.46830E+005   -3.15016E+004    3.39263E+005    1.56125E+003    3.81017E+003    8.91335E+004    1.64544E+003    3.20430E+005    1.50385E+003
            3479    5.58752E+005    3.65293E+005    3.65293E+005    2.53062E+003   -2.78156E+005    6.43449E+005   -2.98889E+004    3.36668E+005    1.85783E+003    2.68356E+003    8.51253E+004    4.81737E+003    3.18942E+005    5.68237E+003
            3480    5.41362E+005    3.75362E+005    3.75362E+005   -1.19557E+003   -2.45034E+005    6.20397E+005   -4.30443E+004    3.85245E+005    3.08713E+004   -2.06113E+003    1.00323E+005   -3.23836E+004    3.06445E+005   -1.41379E+003
            3481    5.47023E+005    3.75638E+005    3.75638E+005    6.50645E+002   -2.52051E+005    6.27690E+005   -4.14127E+004    3.77915E+005    1.42494E+004    9.16781E+002    1.09072E+005   -2.63359E+004    3.09087E+005   -6.18865E+003
            3482    5.54876E+005    3.78695E+005    3.78695E+005    4.75461E+001   -2.58241E+005    6.36936E+005   -4.01673E+004    3.79635E+005    2.71864E+003    7.94161E+002    1.16989E+005   -2.25163E+004    3.12421E+005   -9.39395E+003
            3483    5.65136E+005    3.87385E+005    3.87385E+005    1.94484E+003   -2.61356E+005    6.48741E+005   -4.26578E+004    3.86200E+005   -2.35781E+003    2.76984E+003    1.27562E+005   -1.80956E+004    3.17179E+005   -1.08087E+004
            3484    5.73848E+005    3.93393E+005    3.93393E+005    1.90767E+003   -2.65336E+005    6.58729E+005   -4.33216E+004    3.92378E+005   -7.86216E+003    2.49768E+003    1.35329E+005   -1.34294E+004    3.21114E+005   -9.82377E+003
            3485    5.80593E+005    3.98680E+005    3.98680E+005    2.01080E+003   -2.67712E+005    6.66393E+005   -4.43262E+004    3.98253E+005   -1.02069E+004    2.27800E+003    1.40908E+005   -8.47186E+003    3.24358E+005   -6.90551E+003
            3486    5.83564E+005    4.00522E+005    4.00522E+005    2.38433E+003   -2.69356E+005    6.69879E+005   -4.45168E+004    3.99074E+005   -1.17665E+004    2.41675E+003    1.42900E+005   -2.48021E+003    3.25873E+005   -2.64306E+003
            3487    5.82313E+005    3.98533E+005    3.98533E+005    1.37066E+003   -2.69926E+005    6.68459E+005   -4.33259E+004    3.97953E+005   -1.17967E+004    1.40541E+003    1.40369E+005    2.93956E+003    3.25435E+005    2.54033E+003
            3488    5.76949E+005    3.93917E+005    3.93917E+005    2.77627E+003   -2.68693E+005    6.62610E+005   -4.26665E+004    3.89069E+005   -1.03628E+004    3.04068E+003    1.35322E+005    8.98000E+003    3.23031E+005    6.57941E+003
            3489    5.65067E+005    4.18417E+005    4.18417E+005    1.98736E+002   -2.24421E+005    6.42838E+005   -6.47315E+004    4.46635E+005    5.18040E+004   -5.94047E+002    1.42985E+005   -4.24582E+004    3.15124E+005   -6.98965E+003
            3490    5.76702E+005    4.27791E+005    4.27791E+005    5.37986E+003   -2.29241E+005    6.57032E+005   -6.79766E+004    4.48759E+005    4.17734E+004    5.78382E+003    1.56372E+005   -3.39161E+004    3.21603E+005   -9.94010E+003
            3491    5.89247E+005    4.37769E+005    4.37769E+005    9.51233E+003   -2.34245E+005    6.72014E+005   -7.10118E+004    4.52984E+005    3.08184E+004    1.04613E+004    1.71756E+005   -2.87907E+004    3.27163E+005   -1.25344E+004
            3492    6.00932E+005    4.46464E+005    4.46464E+005    9.89412E+003   -2.38912E+005    6.85376E+005   -7.24818E+004    4.61666E+005    2.13400E+004    1.08990E+004    1.85206E+005   -2.30216E+004    3.31825E+005   -1.33245E+004
            3493    6.12409E+005    4.55980E+005    4.55980E+005    1.20159E+004   -2.42675E+005    6.98654E+005   -7.51069E+004    4.68889E+005    1.45898E+004    1.27226E+004    1.98008E+005   -1.73634E+004    3.36524E+005   -1.16472E+004
            3494    6.20064E+005    4.62070E+005    4.62070E+005    1.14033E+004   -2.45087E+005    7.07157E+005   -7.61286E+004    4.76696E+005    1.04145E+004    1.17120E+004    2.06259E+005   -1.03813E+004    3.39539E+005   -8.02652E+003
            3495    6.23544E+005    4.64065E+005    4.64065E+005    1.15251E+004   -2.47192E+005    7.11257E+005   -7.61326E+004    4.78267E+005    7.77868E+003    1.15508E+004    2.09068E+005   -2.89792E+003    3.41073E+005   -2.35487E+003
            3496    6.21142E+005    4.61455E+005    4.61455E+005    1.13869E+004   -2.47208E+005    7.08662E+005   -7.52113E+004    4.75190E+005    8.02237E+003    1.14429E+004    2.06169E+005    4.99608E+003    3.40153E+005    3.33655E+003
            3497    6.14290E+005    4.53694E+005    4.53694E+005    1.01632E+004   -2.47459E+005    7.01153E+005   -7.21325E+004    4.67258E+005    9.04169E+003    1.05559E+004    1.96800E+005    1.21023E+004    3.37495E+005    8.82021E+003
            3498    5.85572E+005    4.53498E+005    4.53498E+005    6.89304E+002   -2.07783E+005    6.61281E+005   -8.21347E+004    4.91011E+005    6.98916E+004   -3.66544E+002    1.76879E+005   -4.83857E+004    3.22309E+005   -1.03592E+004
            3499    5.91649E+005    4.54483E+005    4.54483E+005    7.15051E+003   -2.16362E+005    6.70845E+005   -8.17574E+004    4.81908E+005    4.74005E+004    7.60196E+003    1.90270E+005   -4.06504E+004    3.24998E+005   -1.34046E+004
            3500    6.04798E+005    4.63388E+005    4.63388E+005    9.74896E+003   -2.23258E+005    6.86645E+005   -8.32931E+004    4.87258E+005    3.28181E+004    1.08523E+004    2.06209E+005   -3.53195E+004    3.30123E+005   -1.56949E+004
            3501    6.24502E+005    4.81798E+005    4.81798E+005    1.43159E+004   -2.27440E+005    7.09238E+005   -8.95578E+004    5.01727E+005    2.59492E+004    1.56136E+004    2.27111E+005   -2.88135E+004    3.38637E+005   -1.66795E+004
            3502    6.42347E+005    4.96949E+005    4.96949E+005    1.61593E+004   -2.32568E+005    7.29517E+005   -9.35136E+004    5.15988E+005    1.83282E+004    1.70501E+004    2.45162E+005   -2.09479E+004    3.45898E+005   -1.42890E+004
            3503    6.55790E+005    5.08896E+005    5.08896E+005    1.75328E+004   -2.35767E+005    7.44663E+005   -9.68874E+004    5.27556E+005    1.45696E+004    1.78721E+004    2.58220E+005   -1.25256E+004    3.51555E+005   -9.04891E+003
            3504    6.60849E+005    5.12745E+005    5.12745E+005    1.82672E+004   -2.37824E+005    7.50569E+005   -9.77295E+004    5.30608E+005    1.19019E+004    1.82877E+004    2.62999E+005   -2.24672E+003    3.53649E+005   -2.38671E+003
            3505    6.56802E+005    5.07786E+005    5.07786E+005    1.63071E+004   -2.38179E+005    7.45965E+005   -9.53050E+004    5.27403E+005    1.14517E+004    1.64187E+004    2.58044E+005    7.33732E+003    3.51918E+005    5.19783E+003
            3506    6.43709E+005    4.95444E+005    4.95444E+005    1.59605E+004   -2.36165E+005    7.31609E+005   -9.17463E+004    5.13545E+005    1.32115E+004    1.64980E+004    2.45530E+005    1.72241E+004    3.46353E+005    1.11129E+004
            3507    6.11234E+005    4.97725E+005    4.97725E+005    9.33120E+003   -1.87731E+005    6.85457E+005   -1.06442E+005    5.32392E+005    9.92367E+004    8.18328E+003    2.11905E+005   -5.39936E+004    3.33184E+005   -1.39387E+004
            3508    6.30285E+005    5.16984E+005    5.16984E+005    1.82576E+004   -1.91414E+005    7.08398E+005   -1.14609E+005    5.43075E+005    9.35178E+004    1.85142E+004    2.31796E+005   -4.30180E+004    3.44449E+005   -1.47769E+004
            3509    6.47647E+005    5.33302E+005    5.33302E+005    2.71277E+004   -1.96532E+005    7.29834E+005   -1.21299E+005    5.50111E+005    8.11640E+004    2.84441E+004    2.54290E+005   -3.83830E+004    3.52193E+005   -1.85046E+004
            3510    6.68144E+005    5.53132E+005    5.53132E+005    2.95543E+004   -1.99387E+005    7.52520E+005   -1.27766E+005    5.69296E+005    7.35821E+004    3.11310E+004    2.78586E+005   -3.21665E+004    3.60364E+005   -1.99571E+004
            3511    6.89870E+005    5.74645E+005    5.74645E+005    3.56939E+004   -2.02836E+005    7.77481E+005   -1.35835E+005    5.85688E+005    6.82769E+004    3.67057E+004    3.02521E+005   -2.43129E+004    3.69717E+005   -1.64689E+004
            3512    7.05630E+005    5.89504E+005    5.89504E+005    3.81593E+004   -2.05714E+005    7.95219E+005   -1.40650E+005    5.99172E+005    6.49148E+004    3.85293E+004    3.18505E+005   -1.37987E+004    3.76535E+005   -1.01849E+004
            3513    7.11892E+005    5.94765E+005    5.94765E+005    3.97909E+004   -2.07882E+005    8.02647E+005   -1.42225E+005    6.02853E+005    6.23469E+004    3.97987E+004    3.24528E+005   -1.87881E+003    3.79304E+005   -1.49474E+003
            3514    7.06701E+005    5.88793E+005    5.88793E+005    3.80865E+004   -2.08065E+005    7.96859E+005   -1.39605E+005    5.98170E+005    6.13573E+004    3.82392E+004    3.19218E+005    1.04961E+004    3.76818E+005    6.66059E+003
            3515    6.91838E+005    5.72305E+005    5.72305E+005    3.32354E+004   -2.07810E+005    7.80115E+005   -1.32577E+005    5.85519E+005    6.08876E+004    3.39710E+004    3.02872E+005    2.11148E+004    3.70094E+005    1.41408E+004
            3516    6.16653E+005    5.18678E+005    5.18678E+005    1.37794E+004   -1.68592E+005    6.87270E+005   -1.21288E+005    5.50898E+005    1.25059E+005    1.13367E+004    2.27469E+005   -5.18823E+004    3.35050E+005   -1.06943E+004
            3517    6.14487E+005    5.17609E+005    5.17609E+005    2.08662E+004   -1.69544E+005    6.87153E+005   -1.22977E+005    5.41899E+005    1.11050E+005    2.14951E+004    2.36386E+005   -5.12686E+004    3.33490E+005   -1.92296E+004
            3518    6.38091E+005    5.45771E+005    5.45771E+005    2.81187E+004   -1.67133E+005    7.12905E+005   -1.35585E+005    5.64776E+005    1.10578E+005    2.98117E+004    2.66367E+005   -4.48784E+004    3.44604E+005   -2.22592E+004
            3519    6.69602E+005    5.82687E+005    5.82687E+005    4.27759E+004   -1.66579E+005    7.49266E+005   -1.52961E+005    5.88923E+005    1.11556E+005    4.42454E+004    3.03083E+005   -3.98948E+004    3.59692E+005   -2.12228E+004
            3520    7.01138E+005    6.18358E+005    6.18358E+005    5.52618E+004   -1.66963E+005    7.85321E+005   -1.68885E+005    6.14068E+005    1.13943E+005    5.63126E+004    3.36401E+005   -2.94495E+004    3.75240E+005   -1.77817E+004
            3521    7.24449E+005    6.44307E+005    6.44307E+005    6.43471E+004   -1.67747E+005    8.12054E+005   -1.80302E+005    6.32308E+005    1.15148E+005    6.47038E+004    3.61055E+005   -1.61376E+004    3.86564E+005   -1.04812E+004
            3522    7.33107E+005    6.53264E+005    6.53264E+005    6.71246E+004   -1.68744E+005    8.22008E+005   -1.83882E+005    6.38978E+005    1.14611E+005    6.71284E+004    3.69906E+005   -8.00574E+002    3.90677E+005   -1.26636E+003
            3523    7.26309E+005    6.44538E+005    6.44538E+005    6.35270E+004   -1.69747E+005    8.14285E+005   -1.79439E+005    6.33415E+005    1.12744E+005    6.37751E+004    3.61798E+005    1.43056E+004    3.87321E+005    8.88858E+003
            3524    7.03116E+005    6.17654E+005    6.17654E+005    5.57926E+004   -1.70826E+005    7.88480E+005   -1.67540E+005    6.12482E+005    1.08564E+005    5.65556E+004    3.37501E+005    2.82575E+004    3.76036E+005    1.57432E+004
            3525    7.17173E+005    6.92089E+005    6.92089E+005    9.88155E+004   -1.04904E+005    7.96993E+005   -2.28667E+005    6.47116E+005    2.15825E+005    9.93866E+004    3.70790E+005    3.40850E+004    3.89234E+005    1.55506E+004
            3526    7.40643E+005    7.28108E+005    7.28108E+005    1.19409E+005   -9.64964E+004    8.24605E+005   -2.50340E+005    6.64109E+005    2.30895E+005    1.19629E+005    4.00497E+005    1.86232E+004    4.03010E+005    9.02029E+003
            3527    7.50461E+005    7.42659E+005    7.42659E+005    1.26794E+005   -9.32174E+004    8.35876E+005   -2.58745E+005    6.71950E+005    2.36799E+005    1.26794E+005    4.12643E+005   -2.31280E+001    4.08585E+005    2.06246E+002
            3528    7.40013E+005    7.27929E+005    7.27929E+005    1.18834E+005   -9.56298E+004    8.23558E+005   -2.50378E+005    6.64512E+005    2.32247E+005    1.19116E+005    3.99770E+005   -1.84927E+004    4.02700E+005   -9.62379E+003
            3529    7.16024E+005    6.92487E+005    6.92487E+005    9.92752E+004   -1.02883E+005    7.95370E+005   -2.29627E+005    6.46995E+005    2.18505E+005    9.97681E+004    3.70607E+005   -3.39212E+004    3.88700E+005   -1.50880E+004
            3530    6.86511E+005    6.46321E+005    6.46321E+005    7.24645E+004   -1.14225E+005    7.60546E+005   -2.01520E+005    6.25467E+005    2.00244E+005    7.25781E+004    3.31738E+005   -4.50007E+004    3.71465E+005   -1.71906E+004
            3531    6.55409E+005    5.99085E+005    5.99085E+005    4.64199E+004   -1.24999E+005    7.24084E+005   -1.73502E+005    6.01796E+005    1.80989E+005    4.46261E+004    2.94890E+005   -5.10441E+004    3.53101E+005   -1.41680E+004
            3532    6.40931E+005    5.69210E+005    5.69210E+005    2.06736E+004   -1.35318E+005    7.04528E+005   -1.51522E+005    5.95933E+005    1.66057E+005    1.86327E+004    2.69876E+005   -4.65029E+004    3.44498E+005   -1.22486E+004
            3533    6.35902E+005    5.57987E+005    5.57987E+005    2.20690E+004   -1.44673E+005    7.02661E+005   -1.45128E+005    5.83601E+005    1.57641E+005    2.13966E+004    2.56346E+005   -5.25148E+004    3.43235E+005   -1.74643E+004
            3534    5.11483E+005    3.09495E+005    3.09495E+005    1.84451E+003   -2.80940E+005    5.90435E+005   -1.01334E+004    2.13637E+005    9.72377E+003    6.20280E+002    2.00562E+004   -9.67710E+003    2.94445E+005    1.78540E+004
            3535    5.22154E+005    3.43421E+005    3.43421E+005    1.32056E+003   -2.57594E+005    6.01015E+005   -2.90493E+004    3.23110E+005    3.03713E+004   -1.72912E+003    5.85056E+004   -2.73129E+004    2.98408E+005    1.34113E+004
            3536    5.38513E+005    3.79560E+005    3.79560E+005    3.55903E+002   -2.36832E+005    6.16392E+005   -4.76945E+004    3.92233E+005    5.04855E+004   -3.52342E+003    9.61215E+004   -4.17105E+004    3.03961E+005    6.74017E+003
            3537    5.59685E+005    4.17895E+005    4.17895E+005   -3.12547E+003   -2.17236E+005    6.35132E+005   -6.58444E+004    4.52727E+005    7.29038E+004   -6.80333E+003    1.31433E+005   -5.21390E+004    3.11256E+005   -1.45632E+003
            3538    5.81328E+005    4.57118E+005    4.57118E+005   -5.13422E+002   -1.96989E+005    6.54107E+005   -8.65383E+004    4.97962E+005    9.58295E+004   -4.53959E+003    1.68325E+005   -5.89175E+004    3.18744E+005   -6.56779E+003
            3539    6.03471E+005    4.95859E+005    4.95859E+005    7.93300E+003   -1.78944E+005    6.74803E+005   -1.08283E+005    5.32285E+005    1.21608E+005    4.32365E+003    1.98917E+005   -6.12297E+004    3.28536E+005   -1.03649E+004
            3540    6.21232E+005    5.31367E+005    5.31367E+005    1.65600E+004   -1.58657E+005    6.90024E+005   -1.29757E+005    5.61473E+005    1.44819E+005    1.48218E+004    2.29628E+005   -6.25816E+004    3.35744E+005   -1.72318E+004
            3541    4.27392E+005    2.29649E+005   -2.63637E+005   -4.11154E+003   -2.63637E+005    4.93286E+005    1.27000E+004   -1.91757E+005   -1.01387E+004   -3.91888E+003   -2.40425E+004   -4.97567E+003    2.46448E+005   -4.51048E+003
            3542    4.31601E+005    2.31718E+005   -2.66243E+005    2.08037E+002   -2.66243E+005    4.97961E+005    1.14389E+004   -2.13573E+005   -7.98700E+003    4.34336E+001   -2.63733E+004   -3.85746E+003    2.48723E+005    5.62946E+003
            3543    4.37292E+005    2.34068E+005   -2.70582E+005   -3.41560E+003   -2.70582E+005    5.04650E+005    1.33097E+004   -2.04090E+005   -6.74016E+003   -3.66072E+003   -2.95281E+004   -3.28974E+003    2.51865E+005    9.73129E+003
            3544    4.43252E+005    2.37327E+005   -2.74070E+005   -2.79990E+002   -2.74070E+005    5.11397E+005    1.23411E+004   -2.19944E+005   -5.42800E+003   -4.48207E+002   -3.11471E+004   -2.30111E+003    2.55179E+005    9.87059E+003
            3545    4.36217E+005    2.14021E+005   -2.87606E+005    2.74078E+003   -2.87606E+005    5.01627E+005    2.36148E+004   -2.81559E+005   -6.66032E+003    3.06969E+003   -6.72537E+004   -1.45634E+004    2.48523E+005   -7.24997E+002
            3546    4.40354E+005    2.17881E+005   -2.88968E+005   -3.32290E+002   -2.88968E+005    5.06849E+005    2.38065E+004   -2.72833E+005    3.33228E+003   -7.79108E+002   -7.39727E+004   -1.21504E+004    2.50114E+005    6.38281E+003
            3547    4.47156E+005    2.21517E+005   -2.92833E+005    3.48426E+003   -2.92833E+005    5.14349E+005    2.26106E+004   -2.85370E+005    9.10539E+003    2.75240E+003   -7.96896E+004   -9.66680E+003    2.52942E+005    1.10929E+004
            3548    4.54102E+005    2.23470E+005   -2.98988E+005    7.99201E+002   -2.98988E+005    5.22458E+005    2.49062E+004   -2.86935E+005    1.20069E+004    2.52196E+002   -8.69776E+004   -7.76554E+003    2.56218E+005    1.01966E+004
            3549    4.58919E+005    1.86945E+005   -3.36776E+005   -4.96225E+003   -3.36776E+005    5.23721E+005    5.15979E+004   -3.49874E+005   -3.23002E+004   -4.49011E+003   -1.18003E+005   -2.28054E+004    2.57246E+005    2.48655E+003
            3550    4.65014E+005    1.92789E+005   -3.37724E+005   -6.70935E+002   -3.37724E+005    5.30513E+005    4.85351E+004   -3.55939E+005   -1.78120E+004   -1.44569E+003   -1.26347E+005   -1.85510E+004    2.58899E+005    9.91036E+003
            3551    4.73353E+005    1.95423E+005   -3.45268E+005   -5.62234E+003   -3.45268E+005    5.40692E+005    5.18224E+004   -3.56351E+005   -9.51508E+003   -6.54571E+003   -1.39406E+005   -1.51847E+004    2.61842E+005    1.18486E+004
            3552    4.82802E+005    1.98731E+005   -3.52130E+005   -2.45008E+003   -3.52130E+005    5.50860E+005    5.19497E+004   -3.69102E+005   -2.94349E+003   -3.28163E+003   -1.49624E+005   -1.18614E+004    2.65038E+005    1.25864E+004
            3553    4.80773E+005    1.76393E+005   -3.66680E+005    4.58809E+003   -3.66680E+005    5.43073E+005    6.18998E+004   -4.02462E+005   -3.09860E+004    4.67278E+003   -1.59386E+005   -2.88459E+004    2.62091E+005    8.85604E+003
            3554    4.85445E+005    1.82600E+005   -3.68325E+005   -3.32107E+003   -3.68325E+005    5.50925E+005    6.30154E+004   -3.92423E+005   -1.16011E+004   -3.76109E+003   -1.73684E+005   -2.51029E+004    2.61937E+005    1.04811E+004
            3555    4.95901E+005    1.87856E+005   -3.74877E+005   -1.76937E+003   -3.74877E+005    5.62733E+005    6.29302E+004   -4.01234E+005    1.47786E+002   -3.02354E+003   -1.85915E+005   -2.01118E+004    2.64555E+005    1.52481E+004
            3556    5.10498E+005    1.90049E+005   -3.89182E+005   -4.81912E+003   -3.89182E+005    5.79231E+005    6.79839E+004   -4.13446E+005    7.23982E+003   -5.84989E+003   -2.05342E+005   -1.72980E+004    2.68641E+005    1.44570E+004
            3557    5.24609E+005    1.49134E+005   -4.36491E+005   -9.52758E+003   -4.36491E+005    5.85626E+005    9.89615E+004   -4.65860E+005   -7.19489E+004   -8.50160E+003   -2.16434E+005   -3.21157E+004    2.81571E+005    8.27097E+003
            3558    5.27058E+005    1.59925E+005   -4.31066E+005   -9.72590E+003   -4.31066E+005    5.90991E+005    9.36226E+004   -4.59317E+005   -4.80180E+004   -1.04513E+004   -2.22398E+005   -2.69282E+004    2.80861E+005    1.40900E+004
            3559    5.41923E+005    1.62988E+005   -4.45762E+005   -1.58935E+004   -4.45762E+005    6.08750E+005    9.95557E+004   -4.68238E+005   -3.43872E+004   -1.73676E+004   -2.46912E+005   -2.40844E+004    2.83926E+005    1.84890E+004
            3560    5.61675E+005    1.67261E+005   -4.62823E+005   -1.46471E+004   -4.62823E+005    6.30083E+005    1.03403E+005   -4.88488E+005   -2.36591E+004   -1.59289E+004   -2.70621E+005   -1.98277E+004    2.88880E+005    1.81224E+004
            3561    5.28630E+005    1.42524E+005   -4.43432E+005   -2.32966E+003   -4.43432E+005    5.85956E+005    1.01079E+005   -4.80849E+005   -6.60248E+004   -5.88634E+002   -2.36625E+005   -3.00240E+004    2.78135E+005    6.28805E+003
            3562    5.33452E+005    1.45752E+005   -4.49678E+005   -1.53290E+004   -4.49678E+005    5.95429E+005    1.06418E+005   -4.73921E+005   -5.03972E+004   -1.61098E+004   -2.52748E+005   -3.41754E+004    2.77507E+005    1.80489E+004
            3563    5.64237E+005    1.49753E+005   -4.78194E+005   -1.38033E+004   -4.78194E+005    6.27947E+005    1.14081E+005   -5.06643E+005   -4.16337E+004   -1.55477E+004   -2.85063E+005   -2.87098E+004    2.87581E+005    2.23191E+004
            3564    5.94414E+005    1.52164E+005   -5.10599E+005   -2.46639E+004   -5.10599E+005    6.62763E+005    1.27700E+005   -5.30214E+005   -3.56819E+004   -2.60069E+004   -3.21411E+005   -2.53718E+004    2.97563E+005    2.05434E+004
            3565    5.89691E+005    1.17772E+005   -5.32231E+005   -3.15642E+004   -5.32231E+005    6.50003E+005    1.48674E+005   -5.44656E+005   -1.34967E+005   -3.14972E+004   -2.79559E+005   -2.74436E+004    3.15448E+005    1.12590E+004
            3566    5.95210E+005    1.19541E+005   -5.32195E+005   -1.73699E+004   -5.32195E+005    6.51736E+005    1.43341E+005   -5.58108E+005   -1.09124E+005   -1.83989E+004   -3.02501E+005   -2.86876E+004    3.09590E+005    1.91397E+004
            3567    6.15976E+005    1.15420E+005   -5.61691E+005   -3.45451E+004   -5.61691E+005    6.77111E+005    1.60272E+005   -5.72702E+005   -1.09964E+005   -3.56223E+004   -3.35230E+005   -3.20005E+004    3.17292E+005    2.09267E+004
            3568    6.52361E+005    1.16020E+005   -6.02747E+005   -4.81566E+004   -6.02747E+005    7.18767E+005    1.78294E+005   -6.03197E+005   -1.09087E+005   -4.94956E+004   -3.76301E+005   -2.74362E+004    3.32173E+005    2.17735E+004
            3569    6.42393E+005    6.19342E+004   -6.39942E+005   -8.11671E+004   -6.39942E+005    7.01876E+005    2.19725E+005   -6.04951E+005   -1.89225E+005   -8.11429E+004   -3.88807E+005   -3.50775E+004    3.34153E+005    1.74736E+004
            3570    6.05568E+005    7.78897E+004   -5.79879E+005   -4.55268E+004   -5.79879E+005    6.57769E+005    1.82505E+005   -5.76244E+005   -1.67742E+005   -4.37559E+004   -3.36018E+005   -4.01551E+004    3.14444E+005    1.52261E+004
            3571    5.60530E+005    8.82554E+004   -5.18575E+005   -2.01938E+004   -5.18575E+005    6.06830E+005    1.50171E+005   -5.36158E+005   -1.50004E+005   -1.53021E+004   -2.85207E+005   -4.20323E+004    2.90965E+005    9.57710E+003
            3572    5.43579E+005    9.09939E+004   -4.81316E+005    2.80520E+004   -4.81316E+005    5.72310E+005    1.20757E+005   -5.35288E+005   -1.33625E+005    3.01535E+004   -2.58798E+005   -2.68919E+004    2.76861E+005    1.09636E+004
            3573    4.24039E+005    2.30154E+005   -2.59155E+005    1.04688E+003   -2.59155E+005    4.89308E+005    9.31814E+003   -2.03051E+005   -8.41332E+003    2.22480E+003   -2.17659E+004   -7.21635E+003    2.43712E+005   -1.85546E+004
            3574    4.36558E+005    2.04303E+005   -2.97490E+005   -4.92350E+003   -2.97490E+005    5.01793E+005    3.27035E+004   -2.86577E+005   -2.97069E+004   -1.87055E+003   -6.65331E+004   -2.08466E+004    2.48649E+005   -1.46609E+004
            3575    4.56257E+005    1.84304E+005   -3.34567E+005    3.92421E+003   -3.34567E+005    5.18871E+005    4.87794E+004   -3.61890E+005   -4.72442E+004    7.14535E+003   -1.06239E+005   -3.16193E+004    2.55245E+005   -4.97442E+003
            3576    4.86430E+005    1.63119E+005   -3.83468E+005    1.83578E+003   -3.83468E+005    5.46587E+005    7.28377E+004   -4.19623E+005   -7.09188E+004    5.12026E+003   -1.52714E+005   -3.92426E+004    2.66640E+005    1.99302E+003
            3577    5.16954E+005    1.44113E+005   -4.26357E+005    1.10750E+004   -4.26357E+005    5.70471E+005    9.03897E+004   -4.76100E+005   -9.08262E+004    1.24434E+004   -1.92786E+005   -4.34120E+004    2.76551E+005    1.36125E+004
            3578    5.68005E+005    1.21654E+005   -4.99445E+005   -6.39296E+003   -4.99445E+005    6.21098E+005    1.28061E+005   -5.34063E+005   -1.20944E+005   -4.56831E+003   -2.58672E+005   -4.27662E+004    2.98861E+005    1.47067E+004
            3579    5.84497E+005    1.02755E+005   -5.26222E+005    2.27375E+002   -5.26222E+005    6.28977E+005    1.41080E+005   -5.63731E+005   -1.43493E+005   -8.00226E+001   -2.79668E+005   -2.49649E+004    3.05777E+005    1.44694E+004
            3580    6.83837E+005    4.86129E+004   -7.00487E+005   -1.09673E+005   -7.00487E+005    7.49100E+005    2.53849E+005   -6.40645E+005   -2.09224E+005   -1.10276E+005   -4.42048E+005   -2.65418E+004    3.54789E+005    1.69150E+004
            3581    7.13710E+005    3.81570E+004   -7.45802E+005   -1.33734E+005   -7.45802E+005    7.83959E+005    2.80460E+005   -6.64702E+005   -2.24936E+005   -1.33950E+005   -4.82493E+005   -1.49557E+004    3.69851E+005    9.90607E+003
            3582    7.26935E+005    3.39590E+004   -7.65095E+005   -1.42927E+005   -7.65095E+005    7.99054E+005    2.91355E+005   -6.75922E+005   -2.31511E+005   -1.42928E+005   -4.99625E+005   -3.55320E+002    3.76365E+005    2.14031E+002
            3583    7.14371E+005    3.74779E+004   -7.46970E+005   -1.33821E+005   -7.46970E+005    7.84448E+005    2.81104E+005   -6.65768E+005   -2.26181E+005   -1.34100E+005   -4.83032E+005    1.44345E+004    3.70256E+005   -1.05022E+004
            3584    6.82345E+005    4.60307E+004   -7.01091E+005   -1.10849E+005   -7.01091E+005    7.47122E+005    2.55303E+005   -6.39853E+005   -2.12098E+005   -1.11387E+005   -4.42425E+005    2.64990E+004    3.54157E+005   -1.65078E+004
            3585    6.42831E+005    6.03475E+004   -6.40427E+005   -7.81007E+004   -6.40427E+005    7.00774E+005    2.19393E+005   -6.07913E+005   -1.91581E+005   -7.83028E+004   -3.88296E+005    3.50114E+004    3.34018E+005   -1.85946E+004
            3586    5.99837E+005    7.24181E+004   -5.77980E+005   -4.65268E+004   -5.77980E+005    6.50398E+005    1.84030E+005   -5.72394E+005   -1.71926E+005   -4.50964E+004   -3.35066E+005    3.95271E+004    3.11420E+005   -1.60989E+004
            3587    5.72021E+005    8.31080E+004   -5.30530E+005   -1.20624E+004   -5.30530E+005    6.13638E+005    1.53161E+005   -5.53788E+005   -1.54152E+005   -1.10345E+004   -2.94298E+005    3.43776E+004    2.95940E+005   -1.57200E+004
            3588    5.92535E+005    8.96541E+004   -5.46364E+005   -9.93385E+003   -5.46364E+005    6.36018E+005    1.55548E+005   -5.73251E+005   -1.62770E+005   -1.08034E+004   -2.93071E+005    3.25738E+004    3.09195E+005   -2.03000E+004
            3589    6.84135E+005    1.12521E+005   -6.42978E+005   -6.53357E+004   -6.42978E+005    7.55499E+005    1.98597E+005   -6.28888E+005   -1.15401E+005   -6.62045E+004   -4.14187E+005   -2.08565E+004    3.46120E+005    1.77628E+004
            3590    6.26233E+005    1.55142E+005   -5.42488E+005   -2.88935E+004   -5.42488E+005    6.97629E+005    1.38747E+005   -5.60373E+005   -3.30440E+004   -2.96316E+004   -3.53564E+005   -1.76011E+004    3.09116E+005    1.57271E+004
            3591    5.78458E+005    1.67604E+005   -4.80814E+005   -1.77532E+004   -4.80814E+005    6.48418E+005    1.10321E+005   -5.04855E+005   -1.92551E+004   -1.83660E+004   -2.93341E+005   -1.41785E+004    2.93335E+005    1.29986E+004
            3592    5.23722E+005    1.92103E+005   -4.01018E+005   -2.28378E+003   -4.01018E+005    5.93122E+005    7.03995E+004   -4.30541E+005    1.09127E+004   -2.81123E+003   -2.19300E+005   -1.08903E+004    2.72973E+005    1.09283E+004
            3593    4.90955E+005    1.98722E+005   -3.61122E+005   -3.94863E+003   -3.61122E+005    5.59844E+005    5.54497E+004   -3.78017E+005   -1.04996E+003   -4.29767E+003   -1.61001E+005   -7.66751E+003    2.68065E+005    8.33708E+003
            3594    4.59685E+005    2.25833E+005   -3.02737E+005    3.62292E+003   -3.02737E+005    5.28570E+005    2.44269E+004   -2.97665E+005    1.42685E+004    3.39045E+003   -9.09397E+004   -4.46650E+003    2.58871E+005    7.40161E+003
            3595    4.47635E+005    2.38500E+005   -2.78009E+005   -2.70041E+003   -2.78009E+005    5.16510E+005    1.40697E+004   -2.17095E+005   -5.71454E+003   -2.77725E+003   -3.37172E+004   -1.58995E+003    2.57791E+005    6.46994E+003
            3596    7.08611E+005    1.10994E+005   -6.71931E+005   -7.45531E+004   -6.71931E+005    7.82925E+005    2.11830E+005   -6.50505E+005   -1.19316E+005   -7.48617E+004   -4.41312E+005   -1.07986E+004    3.56589E+005    1.06502E+004
            3597    6.46024E+005    1.55856E+005   -5.64267E+005   -3.56415E+004   -5.64267E+005    7.20123E+005    1.48017E+005   -5.76790E+005   -3.26051E+004   -3.57812E+004   -3.75666E+005   -8.69091E+003    3.16413E+005    7.20918E+003
            3598    5.90290E+005    1.68696E+005   -4.92441E+005   -1.82892E+004   -4.92441E+005    6.61137E+005    1.14011E+005   -5.17078E+005   -1.65310E+004   -1.84098E+004   -3.07094E+005   -6.14426E+003    2.96839E+005    5.90009E+003
            3599    5.32055E+005    1.92490E+005   -4.09935E+005   -4.34056E+003   -4.09935E+005    6.02425E+005    7.39284E+004   -4.38120E+005    1.23093E+004   -4.40804E+003   -2.29687E+005   -4.60228E+003    2.75788E+005    3.90207E+003
            3600    4.95498E+005    1.99791E+005   -3.64861E+005   -2.57195E+003   -3.64861E+005    5.64652E+005    5.58809E+004   -3.84517E+005    9.09724E+002   -2.61210E+003   -1.65940E+005   -2.45004E+003    2.69698E+005    2.94626E+003
            3601    4.62586E+005    2.26147E+005   -3.05805E+005    2.07701E+003   -3.05805E+005    5.31952E+005    2.58602E+004   -2.98539E+005    1.48232E+004    2.05610E+003   -9.44599E+004   -1.63618E+003    2.60292E+005    1.94042E+003
            3602    4.49713E+005    2.39702E+005   -2.79130E+005   -9.64327E+002   -2.79130E+005    5.18832E+005    1.34643E+004   -2.24730E+005   -5.23911E+003   -9.67766E+002   -3.41861E+004   -2.75439E+002    2.59006E+005    1.71953E+003
            3603    7.16582E+005    1.09428E+005   -6.82318E+005   -7.82544E+004   -6.82318E+005    7.91746E+005    2.17048E+005   -6.57789E+005   -1.22250E+005   -7.82574E+004   -4.50636E+005    5.99283E+002    3.60215E+005   -1.24545E+003
            3604    6.53365E+005    1.56030E+005   -5.72020E+005   -3.66971E+004   -5.72020E+005    7.28050E+005    1.50896E+005   -5.84090E+005   -3.33517E+004   -3.67079E+004   -3.82628E+005    1.78568E+003    3.19391E+005   -1.93431E+003
            3605    5.93476E+005    1.67839E+005   -4.96632E+005   -1.92309E+004   -4.96632E+005    6.64470E+005    1.16008E+005   -5.20669E+005   -1.69068E+004   -1.92614E+004   -3.11856E+005    2.44430E+003    2.97692E+005   -3.06236E+003
            3606    5.34029E+005    1.92481E+005   -4.11834E+005   -3.42594E+003   -4.11834E+005    6.04315E+005    7.42599E+004   -4.41582E+005    1.23034E+004   -3.46939E+003   -2.31614E+005    3.03894E+003    2.76424E+005   -3.22588E+003
            3607    4.95895E+005    1.98865E+005   -3.66161E+005   -3.20650E+003   -3.66161E+005    5.65027E+005    5.68342E+004   -3.85440E+005    4.86395E+002   -3.25937E+003   -1.67730E+005    2.52781E+003    2.69675E+005   -3.58030E+003
            3608    4.62561E+005    2.26165E+005   -3.05650E+005    3.17941E+003   -3.05650E+005    5.31815E+005    2.54354E+004   -3.00868E+005    1.49944E+004    3.13140E+003   -9.44320E+004    1.98837E+003    2.60192E+005   -3.43293E+003
            3609    4.49357E+005    2.39155E+005   -2.79299E+005   -2.01342E+003   -2.79299E+005    5.18454E+005    1.40525E+004   -2.21829E+005   -5.58306E+003   -2.02672E+003   -3.45477E+004    5.20007E+002    2.58799E+005   -3.49761E+003
            3610    7.07066E+005    1.08641E+005   -6.72281E+005   -7.55147E+004   -6.72281E+005    7.80922E+005    2.13052E+005   -6.49743E+005   -1.22857E+005   -7.59130E+004   -4.40385E+005    1.22148E+004    3.56429E+005   -1.20638E+004
            3611    6.44917E+005    1.54538E+005   -5.63971E+005   -3.52302E+004   -5.63971E+005    7.18509E+005    1.48221E+005   -5.76902E+005   -3.51976E+004   -3.56160E+004   -3.73849E+005    1.14416E+004    3.16537E+005   -1.14572E+004
            3612    5.87853E+005    1.66729E+005   -4.91666E+005   -1.94331E+004   -4.91666E+005    6.58394E+005    1.14790E+005   -5.14988E+005   -1.92714E+004   -1.98423E+004   -3.05256E+005    1.08288E+004    2.96223E+005   -1.08206E+004
            3613    5.29497E+005    1.91381E+005   -4.08069E+005   -4.12051E+003   -4.08069E+005    5.99450E+005    7.36026E+004   -4.36442E+005    1.07141E+004   -4.54687E+003   -2.26975E+005    9.49016E+003    2.74891E+005   -1.00072E+004
            3614    4.92527E+005    1.98157E+005   -3.63181E+005   -3.40689E+003   -3.63181E+005    5.61338E+005    5.61435E+004   -3.81647E+005   -6.44226E+002   -3.78791E+003   -1.63998E+005    7.66838E+003    2.68319E+005   -8.94806E+003
            3615    4.59824E+005    2.25089E+005   -3.03661E+005    2.62006E+003   -3.03661E+005    5.28750E+005    2.53174E+004   -2.97337E+005    1.42804E+004    2.34258E+003   -9.25752E+004    4.77342E+003    2.58768E+005   -8.20589E+003
            3616    4.46883E+005    2.38163E+005   -2.77435E+005   -1.66735E+003   -2.77435E+005    5.15598E+005    1.36465E+004   -2.20646E+005   -5.75054E+003   -1.77020E+003   -3.34187E+004    1.76539E+003    2.57305E+005   -7.86768E+003
            3617    6.83257E+005    1.09808E+005   -6.43732E+005   -6.45450E+004   -6.43732E+005    7.53540E+005    1.99490E+005   -6.30225E+005   -1.20852E+005   -6.56949E+004   -4.11923E+005    2.18900E+004    3.46590E+005   -2.00889E+004
            3618    6.22356E+005    1.51487E+005   -5.41632E+005   -3.07073E+004   -5.41632E+005    6.93120E+005    1.40284E+005   -5.57450E+005   -3.84995E+004   -3.17807E+004   -3.50572E+005    2.06017E+004    3.08475E+005   -1.87218E+004
            3619    5.75123E+005    1.64883E+005   -4.79352E+005   -1.76382E+004   -4.79352E+005    6.44235E+005    1.10702E+005   -5.03495E+005   -2.43667E+004   -1.86708E+004   -2.89069E+005    1.76867E+004    2.92904E+005   -1.67457E+004
            3620    5.18899E+005    1.89439E+005   -3.98371E+005   -3.88865E+003   -3.98371E+005    5.87810E+005    7.09404E+004   -4.25752E+005    7.53883E+003   -4.86007E+003   -2.15500E+005    1.58964E+004    2.71253E+005   -1.44831E+004
            3621    4.85857E+005    1.96440E+005   -3.57428E+005   -3.16737E+003   -3.57428E+005    5.53868E+005    5.47183E+004   -3.75418E+005   -3.93567E+003   -3.96987E+003   -1.56249E+005    1.16715E+004    2.65823E+005   -1.25034E+004
            3622    4.54679E+005    2.23343E+005   -2.99581E+005    2.45090E+003   -2.99581E+005    5.22924E+005    2.45954E+004   -2.91988E+005    1.28656E+004    1.84386E+003   -8.84957E+004    7.79700E+003    2.56188E+005   -1.11751E+004
            3623    4.42670E+005    2.36284E+005   -2.74470E+005   -1.64233E+003   -2.74470E+005    5.10754E+005    1.32762E+004   -2.17136E+005   -6.44987E+003   -1.82364E+003   -3.15551E+004    2.33802E+003    2.54850E+005   -1.04367E+004
            3624    6.49598E+005    1.09492E+005   -6.05250E+005   -5.08112E+004   -6.05250E+005    7.14742E+005    1.82190E+005   -6.02638E+005   -1.19787E+005   -5.24206E+004   -3.74362E+005    2.84323E+004    3.32377E+005   -2.33320E+004
            3625    5.92696E+005    1.49058E+005   -5.11013E+005   -2.43943E+004   -5.11013E+005    6.60071E+005    1.28783E+005   -5.30929E+005   -4.27844E+004   -2.60393E+004   -3.17526E+005    2.59603E+004    2.98564E+005   -2.22172E+004
            3626    5.57553E+005    1.62338E+005   -4.62984E+005   -1.76764E+004   -4.62984E+005    6.25321E+005    1.06107E+005   -4.85405E+005   -3.18387E+004   -1.90926E+004   -2.67391E+005    2.27126E+004    2.88447E+005   -1.88253E+004
            3627    5.06054E+005    1.87466E+005   -3.86242E+005   -3.29113E+003   -3.86242E+005    5.73709E+005    6.73557E+004   -4.12675E+005    2.45086E+003   -4.50867E+003   -2.00009E+005    1.97478E+004    2.67439E+005   -1.55067E+004
            3628    4.77568E+005    1.94607E+005   -3.50254E+005   -4.23158E+003   -3.50254E+005    5.44862E+005    5.32927E+004   -3.65328E+005   -8.06309E+003   -5.30179E+003   -1.46513E+005    1.52235E+004    2.62857E+005   -1.33722E+004
            3629    4.48362E+005    2.21473E+005   -2.94294E+005    2.52814E+003   -2.94294E+005    5.15767E+005    2.34310E+004   -2.85402E+005    1.04551E+004    1.77648E+003   -8.25247E+004    9.62630E+003    2.53276E+005   -1.13975E+004
            3630    4.37543E+005    2.33755E+005   -2.71117E+005   -2.19030E+003   -2.71117E+005    5.04872E+005    1.31838E+004   -2.11441E+005   -7.12621E+003   -2.45087E+003   -2.99744E+004    3.25724E+003    2.51943E+005   -1.05715E+004
            3631    6.20144E+005    1.12607E+005   -5.68144E+005   -3.53850E+004   -5.68144E+005    6.80751E+005    1.63641E+005   -5.78376E+005   -1.19116E+005   -3.70084E+004   -3.34798E+005    2.98578E+004    3.21131E+005   -2.27959E+004
            3632    5.61893E+005    1.44544E+005   -4.81011E+005   -1.91209E+004   -4.81011E+005    6.25555E+005    1.18529E+005   -5.03933E+005   -5.09921E+004   -2.05249E+004   -2.84071E+005    3.15842E+004    2.88124E+005   -2.10505E+004
            3633    5.41574E+005    1.58306E+005   -4.48201E+005   -1.29846E+004   -4.48201E+005    6.06507E+005    1.00960E+005   -4.74632E+005   -4.45998E+004   -1.42553E+004   -2.44024E+005    2.56498E+004    2.84997E+005   -1.74822E+004
            3634    4.93388E+005    1.83486E+005   -3.75807E+005   -2.21866E+003   -3.75807E+005    5.59293E+005    6.48465E+004   -4.02668E+005   -6.32889E+003   -3.36529E+003   -1.84845E+005    2.35086E+004    2.63774E+005   -1.45720E+004
            3635    4.69428E+005    1.91794E+005   -3.43655E+005   -2.89609E+003   -3.43655E+005    5.35449E+005    5.15858E+004   -3.60175E+005   -1.60096E+004   -3.84536E+003   -1.34903E+005    1.72403E+004    2.60347E+005   -1.15501E+004
            3636    4.42360E+005    2.18751E+005   -2.90214E+005    1.66812E+003   -2.90214E+005    5.08964E+005    2.32650E+004   -2.79122E+005    6.67221E+003    9.93293E+002   -7.74605E+004    1.15315E+004    2.50600E+005   -9.12723E+003
            3637    4.32430E+005    2.31627E+005   -2.67346E+005   -1.56530E+003   -2.67346E+005    4.98972E+005    1.24280E+004   -2.08955E+005   -8.65844E+003   -1.76929E+003   -2.68564E+004    3.52722E+003    2.49186E+005   -7.59669E+003
            3638    6.01190E+005    1.12281E+005   -5.47931E+005   -3.20335E+004   -5.47931E+005    6.60213E+005    1.55894E+005   -5.60194E+005   -1.29107E+005   -3.27382E+004   -3.05838E+005    3.10200E+004    3.16260E+005   -1.75979E+004
            3639    5.41340E+005    1.42395E+005   -4.59029E+005   -1.07847E+004   -4.59029E+005    6.01424E+005    1.09140E+005   -4.88900E+005   -5.98303E+004   -1.06928E+004   -2.56896E+005    3.39870E+004    2.81641E+005   -1.51123E+004
            3640    5.28541E+005    1.53359E+005   -4.37690E+005   -1.04396E+004   -4.37690E+005    5.91048E+005    9.82569E+004   -4.66089E+005   -5.80042E+004   -1.09672E+004   -2.25799E+005    3.09715E+004    2.81416E+005   -1.45127E+004
            3641    4.84157E+005    1.79392E+005   -3.68638E+005    1.06062E+003   -3.68638E+005    5.48030E+005    6.27285E+004   -3.99547E+005   -1.87930E+004    6.44999E+002   -1.70038E+005    2.70142E+004    2.61833E+005   -1.09077E+004
            3642    4.62423E+005    1.88751E+005   -3.38662E+005   -2.76132E+003   -3.38662E+005    5.27413E+005    5.08909E+004   -3.55183E+005   -2.36068E+004   -3.18033E+003   -1.25886E+005    2.10365E+004    2.57790E+005   -7.60300E+003
            3643    4.37504E+005    2.15729E+005   -2.87533E+005    2.24504E+003   -2.87533E+005    5.03262E+005    2.31861E+004   -2.78851E+005   -5.38113E+002    2.03293E+003   -7.10530E+004    1.31140E+004    2.48788E+005   -3.94380E+003
            3644    4.28367E+005    2.29496E+005   -2.64824E+005   -2.36867E+003   -2.64824E+005    4.94320E+005    1.25654E+004   -2.03324E+005   -9.11840E+003   -2.41746E+003   -2.61604E+004    4.54165E+003    2.46968E+005   -1.54922E+003
            3645    5.75351E+005    1.13157E+005   -5.15257E+005   -1.43657E+004   -5.15257E+005    6.28413E+005    1.38822E+005   -5.42169E+005   -1.25885E+005   -1.26946E+004   -2.77886E+005    3.71443E+004    3.01832E+005   -1.23771E+004
            3646    5.45721E+005    1.29954E+005   -4.71908E+005   -9.32102E+003   -4.71908E+005    6.01863E+005    1.17092E+005   -5.03352E+005   -9.37652E+004   -8.44493E+003   -2.49064E+005    3.53598E+004    2.88057E+005   -1.26836E+004
            3647    5.16121E+005    1.49473E+005   -4.25524E+005   -2.32589E+003   -4.25524E+005    5.74997E+005    9.27922E+004   -4.61745E+005   -6.99135E+004   -1.40226E+003   -2.07061E+005    3.50969E+004    2.76564E+005   -1.03856E+004
            3648    4.83659E+005    1.68414E+005   -3.76932E+005    2.29164E+001   -3.76932E+005    5.45346E+005    6.94982E+004   -4.09455E+005   -4.57553E+004    7.59249E+002   -1.63499E+005    3.04650E+004    2.64262E+005   -6.70209E+003
            3649    4.56397E+005    1.87561E+005   -3.32710E+005    1.33410E+002   -3.32710E+005    5.20271E+005    4.83384E+004   -3.52760E+005   -3.13719E+004    9.46049E+002   -1.14589E+005    2.45266E+004    2.55491E+005   -1.51408E+003
            3650    4.36035E+005    2.08766E+005   -2.92558E+005   -1.48404E+003   -2.92558E+005    5.01323E+005    2.84253E+004   -2.83503E+005   -1.54469E+004   -6.48672E+002   -6.91805E+004    1.54629E+004    2.48628E+005    4.47182E+003
            3651    4.25753E+005    2.31539E+005   -2.59808E+005   -4.30426E+001   -2.59808E+005    4.91347E+005    9.43738E+003   -1.97054E+005   -6.42477E+003    3.29546E+002   -2.22169E+004    5.50425E+003    2.45347E+005    7.88863E+003
            3652    4.24370E+005    2.28119E+005   -2.61626E+005   -2.52488E+003   -2.61626E+005    4.89745E+005    1.20107E+004   -1.97261E+005   -1.11947E+004   -1.21626E+003   -2.36211E+004    7.40901E+003    2.43808E+005    2.01684E+004
            3653    4.36324E+005    2.04376E+005   -2.96660E+005   -3.03935E+002   -2.96660E+005    5.01036E+005    3.08627E+004   -2.95467E+005   -2.93407E+004    2.94747E+003   -6.61949E+004    2.13891E+004    2.48164E+005    1.48345E+004
            3654    4.58856E+005    1.80932E+005   -3.40620E+005    1.00419E+003   -3.40620E+005    5.21552E+005    5.28945E+004   -3.65815E+005   -5.22497E+004    5.06759E+003   -1.11501E+005    3.17062E+004    2.56359E+005    7.77433E+003
            3655    4.83461E+005    1.62010E+005   -3.79717E+005    7.90468E+003   -3.79717E+005    5.41728E+005    6.99341E+004   -4.22659E+005   -7.14626E+004    1.14279E+004   -1.49768E+005    3.92553E+004    2.64327E+005   -1.98579E+003
            3656    5.17550E+005    1.39843E+005   -4.31296E+005    6.61584E+003   -4.31296E+005    5.71139E+005    9.49460E+004   -4.76626E+005   -9.76874E+004    1.01556E+004   -1.97306E+005    4.34194E+004    2.76711E+005   -8.14050E+003
            3657    5.40943E+005    1.22763E+005   -4.69095E+005   -2.57696E+002   -4.69095E+005    5.91858E+005    1.15530E+005   -5.08019E+005   -1.18988E+005    2.92162E+003   -2.30523E+005    4.52470E+004    2.85849E+005   -1.22281E+004
            3658    5.84365E+005    1.02943E+005   -5.29154E+005   -8.59894E+003   -5.29154E+005    6.32097E+005    1.44937E+005   -5.59658E+005   -1.48766E+005   -9.07845E+003   -2.76965E+005    4.39612E+004    3.05632E+005   -2.30730E+004
            3659    5.44343E+005    4.81520E+005    4.81520E+005   -2.92351E+004   -9.11213E+004    5.72642E+005   -1.20388E+005    5.36343E+005    1.33383E+005   -3.11367E+004    2.58918E+005    2.62303E+004    2.77127E+005    1.10984E+004
            3660    5.58904E+005    5.16283E+005    5.16283E+005    1.89647E+004   -8.85772E+004    6.04860E+005   -1.48890E+005    5.34878E+005    1.49034E+005    1.39313E+004    2.83706E+005    4.17014E+004    2.90013E+005    9.14700E+003
            3661    6.04510E+005    5.78180E+005    5.78180E+005    4.45911E+004   -7.83515E+004    6.56531E+005   -1.81473E+005    5.75365E+005    1.66963E+005    4.27181E+004    3.34738E+005    4.03008E+004    3.13820E+005    1.50650E+004
            3662    6.41731E+005    6.39021E+005    6.39021E+005    8.10608E+004   -6.22497E+004    7.01271E+005   -2.19277E+005    6.04133E+005    1.88787E+005    8.09611E+004    3.88084E+005    3.51704E+004    3.33859E+005    1.71951E+004
            3663    6.51500E+005    6.01172E+005    6.01172E+005    4.74074E+004   -1.16688E+005    7.17860E+005   -1.77297E+005    6.02315E+005    1.07827E+005    4.87675E+004    3.75298E+005    2.74747E+004    3.31624E+005    2.19030E+004
            3664    5.92577E+005    5.08082E+005    5.08082E+005    2.40049E+004   -1.52763E+005    6.60845E+005   -1.26441E+005    5.28188E+005    3.47017E+004    2.53500E+004    3.19273E+005    2.52788E+004    2.96784E+005    2.04866E+004
            3665    5.60055E+005    4.60548E+005    4.60548E+005    1.42547E+004   -1.67911E+005    6.28459E+005   -1.02297E+005    4.86375E+005    2.29480E+004    1.55328E+004    2.68411E+005    1.97029E+004    2.88325E+005    1.80358E+004
            3666    5.09105E+005    3.87316E+005    3.87316E+005    4.55551E+003   -1.90469E+005    5.77785E+005   -6.71341E+004    4.11499E+005   -7.63435E+003    5.56097E+003    2.03476E+005    1.71456E+004    2.68169E+005    1.42192E+004
            3667    4.82127E+005    3.51111E+005    3.51111E+005    2.40844E+003   -1.99074E+005    5.50186E+005   -5.14817E+004    3.67753E+005    3.04185E+003    3.22813E+003    1.48175E+005    1.17506E+004    2.64908E+005    1.24763E+004
            3668    4.53488E+005    2.97966E+005    2.97966E+005   -7.37587E+002   -2.23855E+005    5.21821E+005   -2.44577E+004    2.84801E+005   -1.20938E+004   -1.91498E+002    8.56585E+004    7.72076E+003    2.56013E+005    1.01937E+004
            3669    4.43224E+005    2.73741E+005    2.73741E+005    3.58549E+002   -2.37643E+005    5.11384E+005   -1.21519E+004    2.18302E+005    5.50063E+003    5.24142E+002    3.04311E+004    2.26502E+003    2.55193E+005    9.87331E+003
            3670    6.14551E+005    5.59544E+005    5.59544E+005    3.39440E+004   -1.16150E+005    6.75694E+005   -1.59112E+005    5.71086E+005    1.08642E+005    3.50505E+004    3.33644E+005    3.19808E+004    3.16585E+005    2.10211E+004
            3671    5.62431E+005    4.75742E+005    4.75742E+005    1.34128E+004   -1.50414E+005    6.26156E+005   -1.12914E+005    5.04412E+005    4.06351E+004    1.51718E+004    2.82934E+005    2.87703E+004    2.86836E+005    2.23254E+004
            3672    5.39867E+005    4.42893E+005    4.42893E+005    1.54958E+004   -1.63814E+005    6.06707E+005   -9.81916E+004    4.65433E+005    3.35085E+004    1.69470E+004    2.44119E+005    2.39801E+004    2.83204E+005    1.82504E+004
            3673    4.94490E+005    3.72892E+005    3.72892E+005    1.50096E+003   -1.88399E+005    5.61291E+005   -6.19980E+004    3.99120E+005   -6.09211E+002    2.75535E+003    1.83848E+005    1.99837E+004    2.64080E+005    1.51872E+004
            3674    4.72719E+005    3.44260E+005    3.44260E+005    5.57597E+003   -1.95802E+005    5.40061E+005   -5.13447E+004    3.54976E+005    9.43086E+003    6.48483E+003    1.38118E+005    1.50420E+004    2.61676E+005    1.17233E+004
            3675    4.46738E+005    2.92087E+005    2.92087E+005   -3.47183E+003   -2.21833E+005    5.13919E+005   -2.22608E+004    2.83891E+005   -9.18879E+003   -2.75502E+003    7.87261E+004    9.55043E+003    2.52808E+005    1.09672E+004
            3676    4.37228E+005    2.70241E+005    2.70241E+005    3.46775E+003   -2.34349E+005    5.04590E+005   -1.31197E+004    2.02397E+005    6.77349E+003    3.70641E+003    2.88793E+004    3.21791E+003    2.51853E+005    9.68073E+003
            3677    5.95177E+005    5.31956E+005    5.31956E+005    1.72145E+004   -1.19770E+005    6.51726E+005   -1.43134E+005    5.58030E+005    1.09096E+005    1.82829E+004    3.02022E+005    2.86067E+004    3.09664E+005    1.92898E+004
            3678    5.32243E+005    4.48181E+005    4.48181E+005    1.52354E+004   -1.46050E+005    5.94231E+005   -1.05789E+005    4.72384E+005    5.03528E+004    1.59563E+004    2.51057E+005    3.39128E+004    2.77206E+005    1.76344E+004
            3679    5.25818E+005    4.29156E+005    4.29156E+005    9.34341E+003   -1.60623E+005    5.89779E+005   -9.26253E+004    4.57599E+005    4.74476E+004    1.00401E+004    2.20388E+005    2.68548E+004    2.80457E+005    1.38558E+004
            3680    4.84134E+005    3.66544E+005    3.66544E+005    3.13698E+003   -1.83042E+005    5.49585E+005   -6.22130E+004    3.90453E+005    1.10838E+004    3.55133E+003    1.72004E+005    2.49748E+004    2.61428E+005    1.02562E+004
            3681    4.64713E+005    3.37231E+005    3.37231E+005    6.85554E+002   -1.92997E+005    5.30228E+005   -4.83065E+004    3.55216E+005    1.78433E+004    1.46603E+003    1.25610E+005    1.84460E+004    2.58840E+005    9.92921E+003
            3682    4.40129E+005    2.88643E+005    2.88643E+005    3.73195E+002   -2.17969E+005    5.06612E+005   -2.36822E+004    2.72109E+005   -3.37061E+003    8.18490E+002    7.35989E+004    1.21091E+004    2.50022E+005    6.36545E+003
            3683    4.31510E+005    2.66021E+005    2.66021E+005   -1.79342E+002   -2.31845E+005    4.97866E+005   -1.13321E+004    2.12715E+005    7.97282E+003   -1.78695E+001    2.60413E+004    3.79250E+003    2.48683E+005    5.61180E+003
            3684    5.89295E+005    5.31968E+005    5.31968E+005    3.20009E+004   -1.17757E+005    6.49726E+005   -1.48737E+005    5.43955E+005    1.35272E+005    3.18770E+004    2.79064E+005    2.75097E+004    3.15386E+005    1.09621E+004
            3685    5.29313E+005    4.44221E+005    4.44221E+005    2.42067E+003   -1.42440E+005    5.86662E+005   -1.01401E+005    4.81598E+005    6.66067E+004    6.71046E+002    2.36924E+005    3.01034E+004    2.78537E+005    6.30012E+003
            3686    5.23648E+005    4.35164E+005    4.35164E+005    9.32580E+003   -1.49513E+005    5.84677E+005   -9.83257E+004    4.64627E+005    7.15390E+004    8.28502E+003    2.15153E+005    3.22194E+004    2.81176E+005    8.21873E+003
            3687    4.79999E+005    3.65560E+005    3.65560E+005   -4.71782E+003   -1.76748E+005    5.42308E+005   -6.13649E+004    4.01284E+005    3.06638E+004   -4.78815E+003    1.58219E+005    2.87554E+004    2.61811E+005    8.83822E+003
            3688    4.58299E+005    3.35774E+005    3.35774E+005    5.03635E+003   -1.87363E+005    5.23136E+005   -5.11491E+004    3.48321E+005    3.19548E+004    4.56084E+003    1.16932E+005    2.26616E+004    2.57022E+005    2.37231E+003
            3689    4.36020E+005    2.87245E+005    2.87245E+005   -2.76239E+003   -2.14178E+005    5.01424E+005   -2.34349E+004    2.80921E+005    6.43734E+003   -3.10227E+003    6.69696E+004    1.44259E+004    2.48431E+005   -8.70606E+002
            3690    4.27390E+005    2.63784E+005    2.63784E+005    4.13541E+003   -2.29495E+005    4.93279E+005   -1.28079E+004    1.92378E+005    1.01775E+004    3.94159E+003    2.43045E+004    4.95192E+003    2.46441E+005   -4.55922E+003
            3691    4.24141E+005    2.59831E+005    2.59831E+005   -9.88120E+002   -2.29571E+005    4.89402E+005   -9.75722E+003    2.05529E+005    8.83301E+003   -2.21066E+003    2.26493E+004    7.52270E+003    2.43748E+005   -1.84522E+004
            3692    4.36710E+005    2.97771E+005    2.97771E+005    5.02950E+003   -2.04187E+005    5.01958E+005   -3.28711E+004    2.86850E+005    2.99144E+004    1.94162E+003    6.67574E+004    2.09291E+004    2.48714E+005   -1.47732E+004
            3693    4.56092E+005    3.34249E+005    3.34249E+005   -3.93802E+003   -1.84475E+005    5.18724E+005   -4.86121E+004    3.61477E+005    4.70272E+004   -7.14055E+003    1.05950E+005    3.13956E+004    2.55205E+005   -5.05631E+003
            3694    4.85977E+005    3.82753E+005    3.82753E+005   -1.84861E+003   -1.63434E+005    5.46187E+005   -7.24901E+004    4.18810E+005    7.05440E+004   -5.19341E+003    1.52120E+005    3.89798E+004    2.66482E+005    1.63144E+003
            3695    5.15605E+005    4.24668E+005    4.24668E+005   -1.12410E+004   -1.44479E+005    5.69147E+005   -8.96494E+004    4.74499E+005    9.02326E+004   -1.26467E+004    1.91362E+005    4.32243E+004    2.75979E+005    1.33476E+004
            3696    5.66646E+005    4.97808E+005    4.97808E+005    6.24120E+003   -1.21954E+005    6.19762E+005   -1.27365E+005    5.32533E+005    1.20450E+005    4.34962E+003    2.57296E+005    4.29901E+004    2.98223E+005    1.45988E+004
            3697    5.85247E+005    5.27040E+005    5.27040E+005   -2.20820E+002   -1.02666E+005    6.29706E+005   -1.41384E+005    5.64544E+005    1.43574E+005    1.01571E+002    2.80478E+005    2.53798E+004    3.06028E+005    1.47631E+004
            3698    4.25775E+005    2.60203E+005    2.60203E+005    6.59582E+001   -2.31157E+005    4.91360E+005   -9.70410E+003    1.98747E+005    6.62263E+003   -3.23373E+002    2.28130E+004   -5.72210E+003    2.45340E+005    7.91426E+003
            3699    4.28416E+005    2.65522E+005    2.65522E+005    2.31612E+003   -2.28823E+005    4.94346E+005   -1.30050E+004    2.06548E+005    9.24081E+003    2.36469E+003    2.74096E+004   -4.78405E+003    2.46956E+005   -1.49970E+003
            3700    4.32523E+005    2.68276E+005    2.68276E+005    1.47730E+003   -2.30759E+005    4.99036E+005   -1.29981E+004    2.13106E+005    8.58857E+003    1.70096E+003    2.87047E+004   -3.84050E+003    2.49175E+005   -7.66079E+003
            3701    4.37832E+005    2.72342E+005    2.72342E+005    2.07960E+003   -2.32810E+005    5.05152E+005   -1.38708E+004    2.16511E+005    6.98669E+003    2.36222E+003    3.22635E+004   -3.54090E+003    2.52024E+005   -1.05524E+004
            3702    4.42882E+005    2.75505E+005    2.75505E+005    1.56068E+003   -2.35446E+005    5.10951E+005   -1.38730E+004    2.21330E+005    6.24549E+003    1.75860E+003    3.36150E+004   -2.53892E+003    2.54888E+005   -1.04683E+004
            3703    4.47094E+005    2.78237E+005    2.78237E+005    1.61831E+003   -2.37570E+005    5.15807E+005   -1.40950E+004    2.23716E+005    5.62236E+003    1.72595E+003    3.49367E+004   -1.85628E+003    2.57365E+005   -7.82318E+003
            3704    4.49386E+005    2.79653E+005    2.79653E+005    2.00678E+003   -2.38817E+005    5.18470E+005   -1.42808E+004    2.23266E+005    5.50941E+003    2.02053E+003    3.53126E+004   -5.36693E+002    2.58783E+005   -3.49805E+003
            3705    4.49729E+005    2.79169E+005    2.79169E+005    9.94948E+002   -2.39682E+005    5.18850E+005   -1.34941E+004    2.24730E+005    5.19204E+003    9.98592E+002    3.42916E+004    2.86755E+002    2.59011E+005    1.74735E+003
            3706    4.47552E+005    2.77798E+005    2.77798E+005    2.76358E+003   -2.38625E+005    5.16423E+005   -1.39787E+004    2.16086E+005    5.76722E+003    2.84071E+003    3.33280E+004    1.58598E+003    2.57759E+005    6.50856E+003
            3707    4.36397E+005    2.93445E+005    2.93445E+005    1.49011E+003   -2.08221E+005    5.01666E+005   -2.89047E+004    2.85274E+005    1.58747E+004    6.35209E+002    7.02042E+004   -1.57432E+004    2.48749E+005    4.43540E+003
            3708    4.38188E+005    2.89035E+005    2.89035E+005   -2.26234E+003   -2.14899E+005    5.03933E+005   -2.39579E+004    2.81942E+005    1.03302E+003   -2.05173E+003    7.28923E+004   -1.35063E+004    2.49011E+005   -3.97958E+003
            3709    4.43496E+005    2.92444E+005    2.92444E+005   -1.65276E+003   -2.17673E+005    5.10118E+005   -2.43728E+004    2.83549E+005   -6.27206E+003   -9.58359E+002    8.03489E+004   -1.18983E+004    2.50956E+005   -9.24492E+003
            3710    4.49548E+005    2.96548E+005    2.96548E+005   -2.48516E+003   -2.20431E+005    5.16978E+005   -2.45440E+004    2.89704E+005   -1.03152E+004   -1.71291E+003    8.56601E+004   -9.92203E+003    2.53602E+005   -1.14939E+004
            3711    4.55819E+005    3.01574E+005    3.01574E+005   -2.42127E+003   -2.22528E+005    5.24102E+005   -2.55415E+004    2.95676E+005   -1.28807E+004   -1.81073E+003    9.13159E+004   -7.93718E+003    2.56504E+005   -1.11438E+004
            3712    4.60566E+005    3.04970E+005    3.04970E+005   -2.58936E+003   -2.24545E+005    5.29515E+005   -2.59454E+004    2.99719E+005   -1.43540E+004   -2.31429E+003    9.45044E+004   -4.79762E+003    2.58953E+005   -8.13608E+003
            3713    4.62958E+005    3.06265E+005    3.06265E+005   -3.15912E+003   -2.25969E+005    5.32234E+005   -2.57120E+004    3.01917E+005   -1.50641E+004   -3.11388E+003    9.53140E+004   -1.93184E+003    2.60307E+005   -3.33403E+003
            3714    4.62540E+005    3.05782E+005    3.05782E+005   -2.01072E+003   -2.26124E+005    5.31906E+005   -2.58821E+004    2.98364E+005   -1.47628E+004   -1.98784E+003    9.43971E+004    1.70458E+003    2.60281E+005    2.03474E+003
            3715    4.59330E+005    3.02099E+005    3.02099E+005   -3.60974E+003   -2.26110E+005    5.28209E+005   -2.41265E+004    2.96423E+005   -1.43165E+004   -3.37025E+003    9.00662E+004    4.52112E+003    2.58767E+005    7.51631E+003
            3716    4.57155E+005    3.34060E+005    3.34060E+005   -2.76293E+002   -1.86881E+005    5.20941E+005   -4.89676E+004    3.54896E+005    3.19165E+004   -1.09185E+003    1.16078E+005   -2.48723E+004    2.55718E+005   -1.71371E+003
            3717    4.63770E+005    3.40881E+005    3.40881E+005    2.70561E+003   -1.87805E+005    5.28686E+005   -5.19270E+004    3.58383E+005    2.39901E+004    3.14355E+003    1.28647E+005   -2.13978E+004    2.58169E+005   -7.87431E+003
            3718    4.71361E+005    3.46582E+005    3.46582E+005    2.95521E+003   -1.90774E+005    5.37356E+005   -5.29213E+004    3.64111E+005    1.60895E+004    3.93066E+003    1.38744E+005   -1.76280E+004    2.60862E+005   -1.18157E+004
            3719    4.79852E+005    3.53486E+005    3.53486E+005    4.39137E+003   -1.93698E+005    5.47184E+005   -5.47266E+004    3.69466E+005    8.09726E+003    5.46818E+003    1.50614E+005   -1.54335E+004    2.63506E+005   -1.34858E+004
            3720    4.87724E+005    3.60030E+005    3.60030E+005    3.33462E+003   -1.95745E+005    5.55775E+005   -5.58733E+004    3.78632E+005    3.90977E+003    4.12728E+003    1.59583E+005   -1.17119E+004    2.66332E+005   -1.24510E+004
            3721    4.93760E+005    3.64874E+005    3.64874E+005    3.53420E+003   -1.97730E+005    5.62604E+005   -5.68928E+004    3.83695E+005    7.23099E+002    3.89640E+003    1.66059E+005   -7.54368E+003    2.68687E+005   -8.71993E+003
            3722    4.96193E+005    3.66639E+005    3.66639E+005    3.31306E+003   -1.98694E+005    5.65334E+005   -5.70860E+004    3.85923E+005   -4.60185E+002    3.35886E+003    1.68359E+005   -2.35857E+003    2.69745E+005   -3.33018E+003
            3723    4.95168E+005    3.64440E+005    3.64440E+005    2.62130E+003   -1.99884E+005    5.64324E+005   -5.57254E+004    3.83883E+005   -8.72082E+002    2.66714E+003    1.65381E+005    2.61087E+003    2.69615E+005    3.14881E+003
            3724    4.90086E+005    3.60003E+005    3.60003E+005    3.99878E+003   -1.98958E+005    5.58962E+005   -5.50147E+004    3.76447E+005    1.16483E+003    4.35898E+003    1.59520E+005    7.73811E+003    2.67836E+005    8.46956E+003
            3725    4.85257E+005    3.79272E+005    3.79272E+005    8.35771E+001   -1.67585E+005    5.46857E+005   -7.05901E+004    4.12088E+005    4.66479E+004   -6.40917E+002    1.65763E+005   -3.07520E+004    2.64848E+005   -6.98133E+003
            3726    4.86875E+005    3.72400E+005    3.72400E+005   -7.18606E+002   -1.78349E+005    5.50749E+005   -6.44444E+004    4.03664E+005    1.97875E+004   -2.89180E+002    1.73835E+005   -2.73376E+004    2.62806E+005   -1.12153E+004
            3727    4.96957E+005    3.80518E+005    3.80518E+005    2.76720E+003   -1.82449E+005    5.62967E+005   -6.69453E+004    4.07676E+005    7.03662E+003    3.93931E+003    1.89860E+005   -2.36557E+004    2.64965E+005   -1.49171E+004
            3728    5.09408E+005    3.90495E+005    3.90495E+005    3.76959E+003   -1.86701E+005    5.77197E+005   -6.91879E+004    4.17191E+005   -2.20655E+003    4.98123E+003    2.04789E+005   -1.97338E+004    2.68443E+005   -1.56294E+004
            3729    5.21433E+005    4.01426E+005    4.01426E+005    4.22830E+003   -1.89050E+005    5.90476E+005   -7.22014E+004    4.28951E+005   -7.52610E+003    5.16515E+003    2.18965E+005   -1.56525E+004    2.72003E+005   -1.43136E+004
            3730    5.30612E+005    4.09336E+005    4.09336E+005    4.28857E+003   -1.91310E+005    6.00646E+005   -7.41047E+004    4.37710E+005   -1.09059E+004    4.68429E+003    2.28536E+005   -9.13577E+003    2.75182E+005   -9.66794E+003
            3731    5.34026E+005    4.11712E+005    4.11712E+005    3.39978E+003   -1.92625E+005    6.04336E+005   -7.41622E+004    4.41448E+005   -1.25057E+004    3.43526E+003    2.31557E+005   -2.72356E+003    2.76409E+005   -2.92023E+003
            3732    5.30976E+005    4.08550E+005    4.08550E+005    4.23884E+003   -1.92773E+005    6.01324E+005   -7.33387E+004    4.36581E+005   -1.25578E+004    4.31561E+003    2.28258E+005    4.83095E+003    2.75439E+005    4.15271E+003
            3733    5.22332E+005    3.99108E+005    3.99108E+005    2.02944E+003   -1.92593E+005    5.91702E+005   -6.95148E+004    4.28550E+005   -1.13451E+004    2.55609E+003    2.17334E+005    1.09046E+004    2.72526E+005    1.08774E+004
            3734    5.17809E+005    4.27895E+005    4.27895E+005    2.63353E+003   -1.48728E+005    5.76623E+005   -9.39334E+004    4.63981E+005    7.07165E+004    1.71314E+003    2.09371E+005   -3.51986E+004    2.77201E+005   -1.05539E+004
            3735    5.31293E+005    4.41515E+005    4.41515E+005    1.11597E+004   -1.52303E+005    5.93817E+005   -1.00124E+005    4.69510E+005    5.89121E+004    1.17442E+004    2.29715E+005   -3.10070E+004    2.82409E+005   -1.49185E+004
            3736    5.45266E+005    4.53067E+005    4.53067E+005    1.39124E+004   -1.57244E+005    6.10311E+005   -1.03245E+005    4.78990E+005    4.54723E+004    1.52228E+004    2.49040E+005   -2.56878E+004    2.86277E+005   -1.78752E+004
            3737    5.61263E+005    4.67554E+005    4.67554E+005    1.85356E+004   -1.61681E+005    6.29235E+005   -1.08136E+005    4.89520E+005    3.24445E+004    1.99439E+004    2.72020E+005   -2.25252E+004    2.89755E+005   -1.89114E+004
            3738    5.77388E+005    4.82082E+005    4.82082E+005    1.81510E+004   -1.64555E+005    6.46637E+005   -1.11893E+005    5.05943E+005    2.46605E+004    1.91460E+004    2.91872E+005   -1.73356E+004    2.93684E+005   -1.65065E+004
            3739    5.88468E+005    4.92325E+005    4.92325E+005    1.96126E+004   -1.66763E+005    6.59087E+005   -1.15058E+005    5.15510E+005    1.92641E+004    1.99910E+004    3.05919E+005   -1.03891E+004    2.96469E+005   -1.04153E+004
            3740    5.92530E+005    4.95459E+005    4.95459E+005    1.90986E+004   -1.68048E+005    6.63507E+005   -1.15503E+005    5.19515E+005    1.66189E+004    1.91241E+004    3.10766E+005   -2.14192E+003    2.97356E+005   -2.82288E+003
            3741    5.88666E+005    4.90324E+005    4.90324E+005    1.77931E+004   -1.69101E+005    6.59425E+005   -1.13005E+005    5.15287E+005    1.60167E+004    1.79195E+004    3.05080E+005    6.32139E+003    2.96248E+005    6.02603E+003
            3742    5.76677E+005    4.78463E+005    4.78463E+005    1.72278E+004   -1.68090E+005    6.46553E+005   -1.09200E+005    5.02829E+005    1.86262E+004    1.78315E+004    2.91143E+005    1.41163E+004    2.92677E+005    1.28643E+004
            3743    5.47007E+005    4.73791E+005    4.73791E+005    9.99651E+003   -1.29439E+005    6.03230E+005   -1.18116E+005    5.04647E+005    9.44964E+004    9.16811E+003    2.50683E+005   -3.53833E+004    2.88652E+005   -1.28843E+004
            3744    5.43902E+005    4.62520E+005    4.62520E+005    1.17291E+004   -1.41583E+005    6.04104E+005   -1.10889E+005    4.91651E+005    6.07943E+004    1.17061E+004    2.60166E+005   -3.40541E+004    2.82657E+005   -1.54969E+004
            3745    5.64944E+005    4.84825E+005    4.84825E+005    2.01499E+004   -1.44023E+005    6.28847E+005   -1.20317E+005    5.06963E+005    5.14654E+004    2.16013E+004    2.87885E+005   -3.13899E+004    2.89249E+005   -2.13293E+004
            3746    5.95004E+005    5.13681E+005    5.13681E+005    2.50918E+004   -1.48933E+005    6.62614E+005   -1.29947E+005    5.33077E+005    4.27285E+004    2.67356E+004    3.20376E+005   -2.57173E+004    2.99319E+005   -2.22630E+004
            3747    6.23270E+005    5.42244E+005    5.42244E+005    3.08179E+004   -1.51986E+005    6.94230E+005   -1.40359E+005    5.58002E+005    3.75902E+004    3.18701E+004    3.51616E+005   -2.01864E+004    3.08637E+005   -1.85383E+004
            3748    6.44048E+005    5.62338E+005    5.62338E+005    3.46368E+004   -1.55326E+005    7.17664E+005   -1.47216E+005    5.75773E+005    3.36870E+004    3.50144E+004    3.72947E+005   -1.11546E+004    3.15907E+005   -1.13205E+004
            3749    6.51590E+005    5.69049E+005    5.69049E+005    3.55712E+004   -1.57169E+005    7.26218E+005   -1.49150E+005    5.82082E+005    3.13426E+004    3.55808E+004    3.80528E+005   -1.61328E+003    3.18373E+005   -1.82101E+003
            3750    6.44161E+005    5.61483E+005    5.61483E+005    3.46867E+004   -1.56676E+005    7.18159E+005   -1.46498E+005    5.74797E+005    3.11416E+004    3.48285E+004    3.73524E+005    8.68540E+003    3.15480E+005    7.23691E+003
            3751    6.24671E+005    5.40173E+005    5.40173E+005    2.82519E+004   -1.55863E+005    6.96036E+005   -1.37521E+005    5.58554E+005    3.18339E+004    2.89895E+004    3.51738E+005    1.76423E+004    3.08374E+005    1.57022E+004
            3752    5.75962E+005    5.16168E+005    5.16168E+005    1.48063E+004   -1.12943E+005    6.29111E+005   -1.39344E+005    5.42695E+005    1.26018E+005    1.32466E+004    2.78767E+005   -3.73562E+004    3.02090E+005   -1.28573E+004
            3753    6.02975E+005    5.50415E+005    5.50415E+005    3.28256E+004   -1.11685E+005    6.62100E+005   -1.57185E+005    5.61997E+005    1.29885E+005    3.35818E+004    3.08090E+005   -3.09433E+004    3.17047E+005   -1.78538E+004
            3754    6.22099E+005    5.70745E+005    5.70745E+005    3.63810E+004   -1.12187E+005    6.82932E+005   -1.64980E+005    5.80135E+005    1.19829E+005    3.80250E+004    3.37084E+005   -2.98078E+004    3.22025E+005   -2.29350E+004
            3755    6.51007E+005    6.06876E+005    6.06876E+005    5.15459E+004   -1.09555E+005    7.16432E+005   -1.82956E+005    6.03665E+005    1.19823E+005    5.31669E+004    3.75877E+005   -2.82055E+004    3.33021E+005   -2.33803E+004
            3756    6.83425E+005    6.43310E+005    6.43310E+005    6.42691E+004   -1.10542E+005    7.53852E+005   -1.99012E+005    6.30111E+005    1.19654E+005    6.54166E+004    4.11966E+005   -2.17195E+004    3.46509E+005   -2.00637E+004
            3757    7.06392E+005    6.70373E+005    6.70373E+005    7.44735E+004   -1.09933E+005    7.80306E+005   -2.11638E+005    6.48840E+005    1.20805E+005    7.48707E+004    4.39238E+005   -1.21295E+004    3.55891E+005   -1.20439E+004
            3758    7.15325E+005    6.79430E+005    6.79430E+005    7.67695E+004   -1.11074E+005    7.90504E+005   -2.15042E+005    6.56308E+005    1.19423E+005    7.67730E+004    4.48929E+005   -6.11115E+002    3.59275E+005   -1.41126E+003
            3759    7.07696E+005    6.69640E+005    6.69640E+005    7.33042E+004   -1.12388E+005    7.82028E+005   -2.10186E+005    6.49406E+005    1.16944E+005    7.35997E+004    4.40013E+005    1.06564E+004    3.55861E+005    1.04260E+004
            3760    6.83401E+005    6.41167E+005    6.41167E+005    6.43954E+004   -1.13628E+005    7.54795E+005   -1.97312E+005    6.27976E+005    1.13596E+005    6.52540E+004    4.13085E+005    2.08764E+004    3.45583E+005    1.76837E+004
            3761    6.84260E+005    7.00854E+005    7.00854E+005    1.09999E+005   -4.88636E+004    7.49717E+005   -2.53996E+005    6.40767E+005    2.08945E+005    1.10596E+005    4.42448E+005    2.65178E+004    3.55006E+005    1.68642E+004
            3762    7.14327E+005    7.45962E+005    7.45962E+005    1.33638E+005   -3.87993E+004    7.84762E+005   -2.80267E+005    6.65037E+005    2.24180E+005    1.33854E+005    4.82767E+005    1.46702E+004    3.70110E+005    9.82050E+003
            3763    7.27072E+005    7.64485E+005    7.64485E+005    1.42314E+005   -3.47706E+004    7.99256E+005   -2.90676E+005    6.75948E+005    2.30353E+005    1.42314E+005    4.99362E+005    5.25636E+000    3.76312E+005    1.28278E+002
            3764    7.13717E+005    7.45575E+005    7.45575E+005    1.32840E+005   -3.80848E+004    7.83660E+005   -2.80110E+005    6.65288E+005    2.25101E+005    1.33118E+005    4.82111E+005   -1.45635E+004    3.69805E+005   -1.05276E+004
            3765    6.82318E+005    7.00592E+005    7.00592E+005    1.10205E+005   -4.64216E+004    7.47013E+005   -2.54792E+005    6.39969E+005    2.11353E+005    1.10739E+005    4.42284E+005   -2.63394E+004    3.54014E+005   -1.64483E+004
            3766    6.43610E+005    6.41316E+005    6.41316E+005    7.81409E+004   -6.02242E+004    7.01540E+005   -2.19744E+005    6.08783E+005    1.91642E+005    7.83711E+004    3.89219E+005   -3.47919E+004    3.34322E+005   -1.86379E+004
            3767    6.01522E+005    5.80348E+005    5.80348E+005    4.73466E+004   -7.18478E+004    6.52196E+005   -1.85282E+005    5.74043E+005    1.72723E+005    4.60667E+004    3.37057E+005   -3.92452E+004    3.12272E+005   -1.63825E+004
            3768    5.73789E+005    5.33324E+005    5.33324E+005    1.36437E+004   -8.24412E+004    6.15766E+005   -1.54842E+005    5.55255E+005    1.55354E+005    1.27418E+004    2.96431E+005   -3.44996E+004    2.96943E+005   -1.61039E+004
            3769    5.93170E+005    5.47391E+005    5.47391E+005    1.12189E+004   -8.98026E+004    6.37193E+005   -1.56269E+005    5.73335E+005    1.62848E+005    1.20841E+004    2.93874E+005   -3.31321E+004    3.09651E+005   -2.04472E+004
            3770    4.24241E+005    2.61616E+005    2.61616E+005    2.54061E+003   -2.27978E+005    4.89594E+005   -1.20594E+004    1.97449E+005    1.12134E+004    1.23812E+003    2.37265E+004   -7.39106E+003    2.43736E+005    2.01146E+004
            3771    4.36296E+005    2.96698E+005    2.96698E+005    2.52662E+002   -2.04291E+005    5.00989E+005   -3.08864E+004    2.95688E+005    2.93962E+004   -3.03307E+003    6.62960E+004   -2.14995E+004    2.48121E+005    1.48994E+004
            3772    4.59088E+005    3.41095E+005    3.41095E+005   -9.24846E+002   -1.80669E+005    5.21764E+005   -5.31671E+004    3.66343E+005    5.26080E+004   -4.98572E+003    1.11879E+005   -3.18684E+004    2.56448E+005    7.63871E+003
            3773    4.83990E+005    3.80629E+005    3.80629E+005   -8.11062E+003   -1.61458E+005    5.42087E+005   -7.03537E+004    4.23932E+005    7.20756E+004   -1.16222E+004    1.50608E+005   -3.95951E+004    2.64437E+005   -2.31139E+003
            3774    5.18940E+005    4.33257E+005    4.33257E+005   -6.21759E+003   -1.39248E+005    5.72505E+005   -9.59305E+004    4.78267E+005    9.85890E+004   -9.76982E+003    1.98972E+005   -4.37758E+004    2.77274E+005   -8.39923E+003
            3775    5.42175E+005    4.70858E+005    4.70858E+005    6.77662E+002   -1.22214E+005    5.93072E+005   -1.16441E+005    5.09404E+005    1.19895E+005   -2.36953E+003    2.31796E+005   -4.51092E+004    2.86490E+005   -1.24865E+004
            3776    5.84336E+005    5.29524E+005    5.29524E+005    9.04135E+003   -1.02567E+005    6.32091E+005   -1.45333E+005    5.59597E+005    1.49241E+005    9.50017E+003    2.77257E+005   -4.41975E+004    3.05604E+005   -2.31159E+004
            3777    3.24090E+005    1.76698E+005   -1.97387E+005   -1.40966E+003   -1.97387E+005    3.74085E+005    7.36643E+003   -1.41158E+005    2.62081E+003   -1.28282E+003   -2.34373E+004   -3.98718E+003    1.86522E+005   -2.75964E+003
            3778    3.26317E+005    1.79883E+005   -1.96603E+005    4.92288E+003   -1.96603E+005    3.76486E+005    3.93232E+003   -1.61774E+005    8.66070E+003    4.57905E+003   -2.50367E+004   -3.52614E+003    1.87240E+005    9.20043E+003
            3779    3.31578E+005    1.81597E+005   -2.01081E+005    8.48711E+002   -2.01081E+005    3.82678E+005    6.21191E+003   -1.51663E+005    8.97213E+003    3.48361E+002   -2.79562E+004   -3.21465E+003    1.89928E+005    1.38453E+004
            3780    3.37632E+005    1.85595E+005   -2.03916E+005    5.19776E+003   -2.03916E+005    3.89511E+005    4.37451E+003   -1.69833E+005    1.12646E+004    4.83864E+003   -2.92268E+004   -2.41353E+003    1.93228E+005    1.34876E+004
            3781    3.37681E+005    1.48877E+005   -2.37410E+005    1.72318E+003   -2.37410E+005    3.86287E+005    2.89366E+004   -2.48488E+005   -1.57582E+004    1.85334E+003   -7.29050E+004   -1.10483E+004    1.90680E+005    1.08399E+003
            3782    3.39825E+005    1.48763E+005   -2.40502E+005   -3.03139E+003   -2.40502E+005    3.89266E+005    3.15901E+004   -2.43998E+005   -1.03435E+004   -3.81434E+003   -8.06125E+004   -9.64609E+003    1.91029E+005    9.78074E+003
            3783    3.46712E+005    1.52076E+005   -2.44251E+005    2.92962E+003   -2.44251E+005    3.96327E+005    2.97486E+004   -2.58162E+005   -4.27252E+003    1.72923E+003   -8.67025E+004   -8.90507E+003    1.93165E+005    1.53535E+004
            3784    3.53807E+005    1.52231E+005   -2.52252E+005   -2.66493E+002   -2.52252E+005    4.04483E+005    3.34292E+004   -2.62985E+005   -3.95442E+003   -1.11166E+003   -9.52214E+004   -6.87380E+003    1.96521E+005    1.38962E+004
            3785    3.58234E+005    1.36224E+005   -2.69902E+005    1.19077E+003   -2.69902E+005    4.06126E+005    4.41625E+004   -2.92136E+005   -1.16825E+004    1.38961E+003   -1.22194E+005   -1.74685E+004    1.94531E+005    4.51785E+003
            3786    3.62426E+005    1.42433E+005   -2.68294E+005    6.56635E+003   -2.68294E+005    4.10727E+005    3.97651E+004   -2.96414E+005    5.61254E+003    5.39104E+003   -1.30299E+005   -1.49645E+004    1.92994E+005    1.28859E+004
            3787    3.69370E+005    1.43566E+005   -2.75610E+005    2.19250E+003   -2.75610E+005    4.19176E+005    4.32840E+004   -2.98701E+005    1.23479E+004    7.15111E+002   -1.42915E+005   -1.43939E+004    1.93800E+005    1.52987E+004
            3788    3.79975E+005    1.45914E+005   -2.83821E+005    7.70678E+003   -2.83821E+005    4.29735E+005    4.34003E+004   -3.15493E+005    1.69662E+004    6.34468E+003   -1.53512E+005   -1.13352E+004    1.96492E+005    1.63563E+004
            3789    3.96187E+005    1.12107E+005   -3.26328E+005    6.00438E+003   -3.26328E+005    4.38435E+005    6.94056E+004   -3.62096E+005   -3.99659E+004    5.79128E+003   -1.74042E+005   -2.14870E+004    2.07386E+005    1.07543E+004
            3790    3.99318E+005    1.14964E+005   -3.30812E+005   -5.85658E+003   -3.30812E+005    4.45776E+005    7.39016E+004   -3.54559E+005   -2.51428E+004   -6.74392E+003   -1.89818E+005   -1.77281E+004    2.06165E+005    1.30904E+004
            3791    4.09226E+005    1.21119E+005   -3.35358E+005   -1.34713E+003   -3.35358E+005    4.56477E+005    7.18620E+004   -3.64447E+005   -9.96884E+003   -3.12400E+003   -2.02493E+005   -1.76438E+004    2.05767E+005    1.89887E+004
            3792    4.24480E+005    1.20182E+005   -3.52188E+005   -2.71921E+003   -3.52188E+005    4.72370E+005    7.82419E+004   -3.81262E+005   -6.41581E+003   -4.20170E+003   -2.24108E+005   -1.49443E+004    2.08673E+005    1.82814E+004
            3793    4.27153E+005    1.02805E+005   -3.65775E+005    1.87360E+003   -3.65775E+005    4.68580E+005    8.70323E+004   -3.98979E+005   -3.66516E+004    2.91623E+003   -2.27362E+005   -2.28062E+004    2.12281E+005    8.71450E+003
            3794    4.26008E+005    1.13311E+005   -3.57721E+005    5.94577E+002   -3.57721E+005    4.71031E+005    8.12718E+004   -3.90289E+005   -1.13160E+004   -2.48308E+002   -2.32251E+005   -1.97041E+004    2.06728E+005    1.55866E+004
            3795    4.43360E+005    1.16159E+005   -3.75476E+005   -6.00616E+003   -3.75476E+005    4.91635E+005    8.84412E+004   -4.02805E+005    1.86629E+002   -7.60613E+003   -2.57904E+005   -2.14722E+004    2.07552E+005    2.07438E+004
            3796    4.67001E+005    1.18335E+005   -3.96829E+005   -1.24731E+003   -3.96829E+005    5.15164E+005    9.32472E+004   -4.30486E+005    6.83760E+003   -2.82251E+003   -2.83757E+005   -1.82920E+004    2.11338E+005    2.13159E+004
            3797    4.71952E+005    7.60561E+004   -4.30925E+005   -4.32731E+003   -4.30925E+005    5.06981E+005    1.19732E+005   -4.56168E+005   -8.62018E+004   -3.35772E+003   -2.69637E+005   -1.90065E+004    2.35069E+005    7.61878E+003
            3798    4.78417E+005    8.21868E+004   -4.38501E+005   -1.83273E+004   -4.38501E+005    5.20688E+005    1.24881E+005   -4.53738E+005   -6.63228E+004   -1.99134E+004   -2.88406E+005   -1.96912E+004    2.34264E+005    2.08100E+004
            3799    5.03210E+005    8.84906E+004   -4.58375E+005   -1.48741E+004   -4.58375E+005    5.46866E+005    1.28253E+005   -4.78442E+005   -4.55111E+004   -1.68251E+004   -3.22423E+005   -2.00018E+004    2.34352E+005    2.45648E+004
            3800    5.30899E+005    8.95188E+004   -4.88577E+005   -2.28736E+004   -4.88577E+005    5.78096E+005    1.40644E+005   -5.03076E+005   -3.73988E+004   -2.42850E+004   -3.60248E+005   -1.98334E+004    2.38403E+005    2.25668E+004
            3801    4.40217E+005    7.85730E+004   -4.00094E+005   -1.26081E+004   -4.00094E+005    4.78667E+005    1.11376E+005   -4.18171E+005   -5.17392E+004   -1.11885E+004   -2.71202E+005   -2.64076E+004    2.10180E+005    1.24349E+004
            3802    4.91137E+005    7.28032E+004   -4.49997E+005    1.73460E+003   -4.49997E+005    5.22800E+005    1.25153E+005   -4.79364E+005   -5.95135E+004    9.58335E+002   -3.16904E+005   -2.36214E+004    2.25582E+005    2.16656E+004
            3803    5.29677E+005    7.59496E+004   -4.96683E+005   -2.42843E+004   -4.96683E+005    5.72633E+005    1.48339E+005   -5.07678E+005   -5.59894E+004   -2.48465E+004   -3.64182E+005   -2.44524E+004    2.39388E+005    2.07611E+004
            3804    5.83679E+005    7.69650E+004   -5.56044E+005   -3.91491E+004   -5.56044E+005    6.33009E+005    1.72743E+005   -5.56797E+005   -5.77106E+004   -3.99633E+004   -4.20554E+005   -2.09712E+004    2.57983E+005    2.07133E+004
            3805    6.44798E+005    2.25112E+004   -6.70528E+005   -8.83454E+004   -6.70528E+005    6.93039E+005    2.45454E+005   -6.22814E+005   -1.80835E+005   -8.88981E+004   -4.66628E+005   -1.90067E+004    3.14887E+005    1.64772E+004
            3806    6.02737E+005    3.34656E+004   -6.05659E+005   -4.74948E+004   -6.05659E+005    6.39125E+005    2.06563E+005   -5.90318E+005   -1.60628E+005   -4.69371E+004   -4.12124E+005   -2.02205E+004    2.92618E+005    1.18495E+004
            3807    5.62358E+005    4.43543E+004   -5.47438E+005   -2.00630E+004   -5.47438E+005    5.91793E+005    1.74382E+005   -5.53966E+005   -1.43334E+005   -1.56327E+004   -3.64181E+005   -2.01240E+004    2.71875E+005   -1.63179E+001
            3808    5.74820E+005    4.53395E+004   -5.35847E+005    3.23875E+004   -5.35847E+005    5.81186E+005    1.52707E+005   -5.74491E+005   -1.35119E+005    3.28986E+004   -3.55899E+005   -1.33484E+003    2.68529E+005   -2.55202E+003
            3809    3.26420E+005    1.72703E+005   -2.03734E+005    9.58472E+002   -2.03734E+005    3.76437E+005    1.00244E+004   -1.73781E+005   -8.68468E+003    2.15889E+003   -2.35473E+004   -5.29386E+003    1.86983E+005   -1.89589E+004
            3810    3.39529E+005    1.47668E+005   -2.41439E+005   -5.32561E+003   -2.41439E+005    3.89107E+005    3.30322E+004   -2.41506E+005   -2.59806E+004   -2.31034E+003   -7.08055E+004   -1.51201E+004    1.91734E+005   -1.50282E+004
            3811    3.66408E+005    1.27630E+005   -2.84678E+005    3.67322E+003   -2.84678E+005    4.12308E+005    5.11249E+004   -3.13748E+005   -4.47995E+004    6.67838E+003   -1.15254E+005   -2.22775E+004    2.01207E+005   -4.92378E+003
            3812    3.95392E+005    1.05661E+005   -3.31378E+005    1.51998E+003   -3.31378E+005    4.37039E+005    7.47325E+004   -3.62560E+005   -6.40051E+004    4.57012E+003   -1.64762E+005   -2.64129E+004    2.10137E+005    1.32126E+003
            3813    4.42266E+005    8.73401E+004   -3.87989E+005    1.13722E+004   -3.87989E+005    4.75329E+005    9.64255E+004   -4.27215E+005   -8.48705E+004    1.21323E+004   -2.16538E+005   -2.79607E+004    2.25953E+005    1.38001E+004
            3814    4.83382E+005    6.14698E+004   -4.52683E+005   -7.47547E+003   -4.52683E+005    5.14153E+005    1.32896E+005   -4.72130E+005   -1.07933E+005   -5.61445E+003   -2.85141E+005   -2.36155E+004    2.39234E+005    9.71073E+003
            3815    5.34207E+005    5.01818E+004   -5.08226E+005   -2.05920E+003   -5.08226E+005    5.58408E+005    1.53368E+005   -5.28414E+005   -1.18295E+005   -2.22032E+003   -3.39589E+005   -4.35961E+003    2.56225E+005    8.87162E+003
            3816    6.93539E+005    1.10784E+004   -7.38490E+005   -1.19560E+005   -7.38490E+005    7.49568E+005    2.82324E+005   -6.65006E+005   -2.03302E+005   -1.20392E+005   -5.23278E+005   -1.54092E+004    3.38373E+005    1.83190E+004
            3817    7.27676E+005    1.47875E+003   -7.88792E+005   -1.46441E+005   -7.88792E+005    7.90271E+005    3.11251E+005   -6.92628E+005   -2.20936E+005   -1.46737E+005   -5.66081E+005   -9.13618E+003    3.55269E+005    1.11550E+004
            3818    7.42144E+005   -2.88432E+003   -8.09767E+005   -1.56359E+005   -8.09767E+005    8.06882E+005    3.23003E+005   -7.05101E+005   -2.28441E+005   -1.56360E+005   -5.84210E+005   -3.17154E+002    3.62107E+005    3.91616E+002
            3819    7.28545E+005    6.05133E+002   -7.90295E+005   -1.46581E+005   -7.90295E+005    7.90900E+005    3.12090E+005   -6.93900E+005   -2.23144E+005   -1.46909E+005   -5.66218E+005    8.92710E+003    3.56115E+005   -1.18250E+004
            3820    6.93878E+005    9.06316E+003   -7.40723E+005   -1.21222E+005   -7.40723E+005    7.49786E+005    2.84294E+005   -6.65519E+005   -2.07410E+005   -1.21986E+005   -5.23485E+005    1.52784E+004    3.39432E+005   -1.75416E+004
            3821    6.49827E+005    2.04102E+004   -6.75725E+005   -8.51256E+004   -6.75725E+005    6.96135E+005    2.46813E+005   -6.30112E+005   -1.87408E+005   -8.59222E+004   -4.67110E+005    1.86424E+004    3.17971E+005   -1.82349E+004
            3822    6.06216E+005    3.03686E+004   -6.11634E+005   -4.90292E+004   -6.11634E+005    6.42003E+005    2.10098E+005   -5.94350E+005   -1.67144E+005   -4.85596E+004   -4.14591E+005    1.96386E+004    2.95120E+005   -1.18035E+004
            3823    5.84550E+005    3.69864E+004   -5.71226E+005   -1.36296E+004   -5.71226E+005    6.08212E+005    1.82623E+005   -5.79589E+005   -1.54451E+005   -1.35969E+004   -3.79822E+005    1.13421E+004    2.82072E+005   -9.00309E+003
            3824    5.53476E+005    3.90044E+004   -5.40619E+005   -1.76488E+004   -5.40619E+005    5.79624E+005    1.73088E+005   -5.46896E+005   -1.41419E+005   -1.84450E+004   -3.59400E+005    1.64772E+004    2.67809E+005   -1.74267E+004
            3825    6.28646E+005    7.75931E+004   -6.08123E+005   -5.90095E+004   -6.08123E+005    6.85716E+005    1.96513E+005   -5.93860E+005   -5.89363E+004   -5.95803E+004   -4.71023E+005   -1.54512E+004    2.73309E+005    1.66935E+004
            3826    5.58794E+005    9.09776E+004   -5.17178E+005   -2.63922E+004   -5.17178E+005    6.08156E+005    1.50864E+005   -5.29985E+005   -3.15144E+004   -2.71612E+004   -3.93917E+005   -1.43592E+004    2.43443E+005    1.73717E+004
            3827    4.87424E+005    1.18128E+005   -4.19250E+005   -5.64415E+003   -4.19250E+005    5.37378E+005    1.02255E+005   -4.49984E+005    8.58682E+003   -6.36629E+003   -3.08987E+005   -1.31317E+004    2.16063E+005    1.51340E+004
            3828    4.38038E+005    1.22140E+005   -3.64079E+005   -2.61916E+002   -3.64079E+005    4.86219E+005    8.07337E+004   -3.96740E+005   -1.63300E+003   -9.97145E+002   -2.39571E+005   -9.67840E+003    2.11567E+005    1.35119E+004
            3829    3.88787E+005    1.46001E+005   -2.93549E+005    5.30009E+003   -2.93549E+005    4.39549E+005    4.74159E+004   -3.23579E+005    1.85228E+004    4.75903E+003   -1.65530E+005   -7.33510E+003    1.99279E+005    1.04206E+004
            3830    3.59724E+005    1.54093E+005   -2.56563E+005    2.82294E+003   -2.56563E+005    4.10656E+005    3.32158E+004   -2.73032E+005   -2.06820E+003    2.46268E+003   -1.00042E+005   -4.19602E+003    1.99162E+005    9.80626E+003
            3831    3.41811E+005    1.86900E+005   -2.07522E+005    2.26726E+003   -2.07522E+005    3.94421E+005    6.11825E+003   -1.63874E+005    1.11881E+004    2.11990E+003   -3.16628E+004   -1.51292E+003    1.95852E+005    8.62459E+003
            3832    6.64730E+005    7.78114E+004   -6.47723E+005   -6.80100E+004   -6.47723E+005    7.25535E+005    2.12641E+005   -6.27211E+005   -6.18155E+004   -6.82228E+004   -5.07884E+005   -8.08726E+003    2.85897E+005    9.97601E+003
            3833    5.77008E+005    9.07553E+004   -5.37727E+005   -3.19256E+004   -5.37727E+005    6.28482E+005    1.59632E+005   -5.46496E+005   -2.95579E+004   -3.20539E+004   -4.17285E+005   -7.40286E+003    2.47127E+005    7.90638E+003
            3834    5.01558E+005    1.18975E+005   -4.32957E+005   -5.04082E+003   -4.32957E+005    5.51932E+005    1.06341E+005   -4.65148E+005    1.00882E+004   -5.19047E+003   -3.23921E+005   -5.62906E+003    2.19565E+005    6.99858E+003
            3835    4.46395E+005    1.21503E+005   -3.73518E+005   -1.57132E+003   -3.73518E+005    4.95021E+005    8.45287E+004   -4.05510E+005   -6.20201E+002   -1.66253E+003   -2.51303E+005   -3.96631E+003    2.13363E+005    4.77454E+003
            3836    3.93524E+005    1.46939E+005   -2.97266E+005    7.73957E+003   -2.97266E+005    4.44205E+005    4.75290E+004   -3.30913E+005    2.00957E+004    7.67105E+003   -1.70354E+005   -2.45324E+003    2.00615E+005    3.85687E+003
            3837    3.62459E+005    1.53439E+005   -2.60351E+005    9.49690E+002   -2.60351E+005    4.13790E+005    3.53209E+004   -2.75008E+005   -2.51599E+003    9.19727E+002   -1.04366E+005   -1.35209E+003    2.00512E+005    2.59985E+003
            3838    3.43680E+005    1.88533E+005   -2.07968E+005    4.62498E+003   -2.07968E+005    3.96502E+005    4.93671E+003   -1.71797E+005    1.22981E+004    4.61433E+003   -3.17225E+004   -4.06264E+002    1.97011E+005    2.36862E+003
            3839    6.76978E+005    7.73333E+004   -6.61955E+005   -7.23355E+004   -6.61955E+005    7.39288E+005    2.18986E+005   -6.38141E+005   -6.37335E+004   -7.23390E+004   -5.20885E+005    4.65235E+002    2.90497E+005   -1.43750E+003
            3840    5.83391E+005    9.03444E+004   -5.44970E+005   -3.33368E+004   -5.44970E+005    6.35314E+005    1.62654E+005   -5.52726E+005   -2.95868E+004   -3.33470E+004   -4.25028E+005    1.45689E+003    2.48613E+005   -2.01518E+003
            3841    5.05725E+005    1.18057E+005   -4.38420E+005   -6.86005E+003   -4.38420E+005    5.56477E+005    1.09074E+005   -4.69092E+005    9.13957E+003   -6.89973E+003   -3.29463E+005    2.05436E+003    2.20777E+005   -3.62722E+003
            3842    4.48409E+005    1.21511E+005   -3.75521E+005   -1.34510E+003   -3.75521E+005    4.97031E+005    8.51183E+004   -4.07890E+005   -3.76955E+002   -1.40294E+003   -2.53575E+005    2.71631E+003    2.13817E+005   -3.87835E+003
            3843    3.94438E+005    1.46291E+005   -2.99001E+005    6.51828E+003   -2.99001E+005    4.45292E+005    4.87304E+004   -3.31423E+005    1.97117E+004    6.43324E+003   -1.72336E+005    2.35983E+003    2.00826E+005   -4.58811E+003
            3844    3.62599E+005    1.53611E+005   -2.60190E+005    1.97875E+003   -2.60190E+005    4.13801E+005    3.48668E+004   -2.76436E+005   -2.16277E+003    1.91071E+003   -1.04348E+005    1.77224E+003    2.00446E+005   -4.38771E+003
            3845    3.43503E+005    1.88085E+005   -2.08252E+005    3.39977E+003   -2.08252E+005    3.96337E+005    5.58930E+003   -1.68254E+005    1.19802E+004    3.36924E+003   -3.21174E+004    5.68618E+002    1.96885E+005   -4.57654E+003
            3846    6.64623E+005    7.64794E+004   -6.48928E+005   -6.92845E+004   -6.48928E+005    7.25407E+005    2.13911E+005   -6.27128E+005   -6.45167E+004   -6.95770E+004   -5.07639E+005    9.01655E+003    2.86903E+005   -1.15371E+004
            3847    5.76352E+005    8.96392E+004   -5.37689E+005   -3.16039E+004   -5.37689E+005    6.27328E+005    1.59885E+005   -5.46543E+005   -3.16766E+004   -3.20010E+004   -4.15976E+005    9.88863E+003    2.47552E+005   -1.26474E+004
            3848    4.99340E+005    1.17754E+005   -4.31939E+005   -6.36492E+003   -4.31939E+005    5.49693E+005    1.06850E+005   -4.62684E+005    8.34232E+003   -6.86509E+003   -3.22027E+005    1.01827E+004    2.19237E+005   -1.27035E+004
            3849    4.43663E+005    1.20712E+005   -3.71177E+005   -1.25249E+003   -3.71177E+005    4.91888E+005    8.39058E+004   -4.03283E+005   -1.65337E+003   -1.86008E+003   -2.48204E+005    8.82781E+003    2.12448E+005   -1.24423E+004
            3850    3.90715E+005    1.45794E+005   -2.95422E+005    6.76221E+003   -2.95422E+005    4.41216E+005    4.76222E+004   -3.27693E+005    1.91030E+004    6.16004E+003   -1.68130E+005    7.31239E+003    1.99427E+005   -1.13210E+004
            3851    3.59792E+005    1.52641E+005   -2.58028E+005    1.74444E+003   -2.58028E+005    4.10669E+005    3.45475E+004   -2.73666E+005   -2.77257E+003    1.31010E+003   -1.02180E+005    4.57081E+003    1.98940E+005   -1.08249E+004
            3852    3.41143E+005    1.87249E+005   -2.06368E+005    3.76155E+003   -2.06368E+005    3.93617E+005    5.11928E+003   -1.66809E+005    1.19309E+004    3.56946E+003   -3.08582E+004    1.62409E+003    1.95366E+005   -1.03925E+004
            3853    6.29637E+005    7.52889E+004   -6.10225E+005   -5.77185E+004   -6.10225E+005    6.85514E+005    1.97552E+005   -5.96788E+005   -6.40823E+004   -5.85533E+004   -4.70019E+005    1.60530E+004    2.75381E+005   -1.91952E+004
            3854    5.56559E+005    8.77569E+004   -5.17992E+005   -2.92149E+004   -5.17992E+005    6.05749E+005    1.53150E+005   -5.27830E+005   -3.70625E+004   -3.03049E+004   -3.92083E+005    1.63138E+004    2.44432E+005   -2.02903E+004
            3855    4.83970E+005    1.16848E+005   -4.16482E+005   -5.26332E+003   -4.16482E+005    5.33330E+005    1.01632E+005   -4.47297E+005    6.12772E+003   -6.52546E+003   -3.04500E+005    1.57762E+004    2.15726E+005   -1.95627E+004
            3856    4.33148E+005    1.19294E+005   -3.61798E+005   -2.80584E+003   -3.61798E+005    4.81092E+005    8.17702E+004   -3.91532E+005   -5.60338E+003   -4.12307E+003   -2.35584E+005    1.36986E+004    2.10460E+005   -1.76975E+004
            3857    3.83911E+005    1.45135E+005   -2.88802E+005    6.66647E+003   -2.88802E+005    4.33936E+005    4.56668E+004   -3.20022E+005    1.77569E+004    5.40044E+003   -1.60158E+005    1.09750E+004    1.97196E+005   -1.59089E+004
            3858    3.54813E+005    1.51391E+005   -2.53852E+005    9.82788E+002   -2.53852E+005    4.05243E+005    3.38260E+004   -2.67542E+005   -4.19657E+003    7.32331E+001   -9.73545E+004    6.97435E+003    1.96633E+005   -1.48112E+004
            3859    3.37255E+005    1.85682E+005   -2.03462E+005    4.00478E+003   -2.03462E+005    3.89144E+005    4.59168E+003   -1.63757E+005    1.17906E+004    3.62246E+003   -2.91881E+004    2.38820E+003    1.92975E+005   -1.40835E+004
            3860    5.82297E+005    7.39885E+004   -5.57634E+005   -4.21757E+004   -5.57634E+005    6.31623E+005    1.75274E+005   -5.55322E+005   -6.30651E+004   -4.32299E+004   -4.19526E+005    2.13180E+004    2.59302E+005   -2.20934E+004
            3861    5.29813E+005    8.62609E+004   -4.89726E+005   -2.31799E+004   -4.89726E+005    5.75987E+005    1.42215E+005   -5.03431E+005   -4.43249E+004   -2.49490E+004   -3.57372E+005    2.00285E+004    2.40312E+005   -2.45666E+004
            3862    4.62919E+005    1.15253E+005   -3.96103E+005   -5.59220E+003   -3.96103E+005    5.11357E+005    9.54807E+004   -4.25205E+005    1.25500E+003   -7.23238E+003   -2.80465E+005    2.05088E+004    2.11790E+005   -2.17598E+004
            3863    4.19963E+005    1.18303E+005   -3.48531E+005   -1.45464E+003   -3.48531E+005    4.66834E+005    7.72274E+004   -3.78593E+005   -1.00988E+004   -3.20545E+003   -2.18378E+005    1.73895E+004    2.07728E+005   -1.95393E+004
            3864    3.74678E+005    1.43237E+005   -2.80857E+005    5.29528E+003   -2.80857E+005    4.24094E+005    4.41083E+004   -3.09272E+005    1.39654E+004    3.58064E+003   -1.49871E+005    1.41633E+004    1.94617E+005   -1.73705E+004
            3865    3.48355E+005    1.50488E+005   -2.47557E+005    1.67413E+003   -2.47557E+005    3.98046E+005    3.17984E+004   -2.60965E+005   -5.40047E+003    4.57067E+002   -9.04517E+004    8.81093E+003    1.93741E+005   -1.57579E+004
            3866    3.32084E+005    1.82664E+005   -2.00550E+005    2.86954E+003   -2.00550E+005    3.83215E+005    5.00549E+003   -1.57426E+005    1.04251E+004    2.35690E+003   -2.77985E+004    3.06386E+003    1.90065E+005   -1.48243E+004
            3867    5.33634E+005    7.19840E+004   -5.02822E+005   -2.31585E+004   -5.02822E+005    5.74806E+005    1.51332E+005   -5.14030E+005   -6.41692E+004   -2.44643E+004   -3.65363E+005    2.24138E+004    2.43167E+005   -2.31980E+004
            3868    5.02649E+005    8.25965E+004   -4.64453E+005   -2.29741E+004   -4.64453E+005    5.47049E+005    1.34944E+005   -4.76738E+005   -5.79401E+004   -2.46781E+004   -3.22212E+005    1.98345E+004    2.38182E+005   -2.27127E+004
            3869    4.43610E+005    1.14172E+005   -3.76320E+005   -3.19174E+003   -3.76320E+005    4.90491E+005    8.84465E+004   -4.06422E+005   -5.08454E+003   -4.38453E+003   -2.55870E+005    2.10444E+004    2.09244E+005   -1.86463E+004
            3870    4.07830E+005    1.15724E+005   -3.38662E+005   -4.34361E+003   -3.38662E+005    4.54386E+005    7.57605E+004   -3.64771E+005   -1.90333E+004   -5.89343E+003   -2.02355E+005    1.86543E+004    2.06698E+005   -1.75218E+004
            3871    3.66217E+005    1.43085E+005   -2.72031E+005    5.33984E+003   -2.72031E+005    4.15116E+005    4.12019E+004   -2.98988E+005    1.07088E+004    3.91773E+003   -1.38232E+005    1.54863E+004    1.92819E+005   -1.46105E+004
            3872    3.42135E+005    1.48141E+005   -2.43219E+005   -7.99114E+002   -2.43219E+005    3.91360E+005    3.19589E+004   -2.52011E+005   -9.19421E+003   -1.90094E+003   -8.47815E+004    9.84615E+003    1.91431E+005   -1.30436E+004
            3873    3.26999E+005    1.81228E+005   -1.96138E+005    3.69661E+003   -1.96138E+005    3.77367E+005    3.73793E+003   -1.52861E+005    1.03569E+004    3.25718E+003   -2.48279E+004    3.47014E+003    1.87488E+005   -1.15199E+004
            3874    4.92303E+005    7.10938E+004   -4.59204E+005   -1.67148E+004   -4.59204E+005    5.30298E+005    1.34942E+005   -4.74202E+005   -6.71077E+004   -1.69113E+004   -3.20806E+005    2.47928E+004    2.30850E+005   -1.84855E+004
            3875    4.86248E+005    7.69296E+004   -4.47882E+005   -1.26565E+004   -4.47882E+005    5.24811E+005    1.27870E+005   -4.67136E+005   -7.65669E+004   -1.34478E+004   -2.93594E+005    1.98762E+004    2.37775E+005   -1.69042E+004
            3876    4.31587E+005    1.06754E+005   -3.68304E+005   -3.62906E+002   -3.68304E+005    4.75058E+005    8.73043E+004   -4.00005E+005   -2.31006E+004   -1.03850E+003   -2.37774E+005    2.14989E+004    2.10427E+005   -1.56463E+004
            3877    3.99625E+005    1.12867E+005   -3.31072E+005   -6.57749E+001   -3.31072E+005    4.43938E+005    7.27569E+004   -3.61021E+005   -3.08685E+004   -9.28018E+002   -1.86474E+005    1.90988E+004    2.06804E+005   -1.33434E+004
            3878    3.61211E+005    1.37982E+005   -2.71217E+005    3.31880E+003   -2.71217E+005    4.09198E+005    4.33054E+004   -2.96273E+005   -1.96648E+003    2.55565E+003   -1.30505E+005    1.57614E+004    1.93474E+005   -1.01355E+004
            3879    3.38132E+005    1.48556E+005   -2.38372E+005    3.52531E+002   -2.38372E+005    3.86927E+005    2.98211E+004   -2.47459E+005   -1.18845E+004   -1.47920E+002   -7.74309E+004    1.02944E+004    1.90329E+005   -6.75062E+003
            3880    3.23835E+005    1.77092E+005   -1.96626E+005    1.18188E+003   -1.96626E+005    3.73719E+005    6.11743E+003   -1.50948E+005    5.82170E+003    1.01813E+003   -2.51921E+004    3.58280E+003    1.86132E+005   -4.45325E+003
            3881    4.99415E+005    6.08361E+004   -4.69526E+005   -8.25385E+003   -4.69526E+005    5.30362E+005    1.38981E+005   -4.88489E+005   -1.00638E+005   -7.07623E+003   -3.09230E+005    1.71704E+004    2.42633E+005   -6.76672E+003
            3882    4.71353E+005    7.60033E+004   -4.30647E+005   -5.12421E+003   -4.30647E+005    5.06651E+005    1.19923E+005   -4.55246E+005   -8.07799E+004   -4.13375E+003   -2.74855E+005    2.59226E+004    2.31803E+005   -1.34793E+004
            3883    4.31174E+005    9.61192E+004   -3.73099E+005    5.68745E+003   -3.73099E+005    4.69218E+005    9.04307E+004   -4.09013E+005   -5.35243E+004    6.37503E+003   -2.24143E+005    2.39005E+004    2.16721E+005   -1.11724E+004
            3884    3.94323E+005    1.10792E+005   -3.25857E+005    4.24437E+003   -3.25857E+005    4.36649E+005    7.02737E+004   -3.59739E+005   -4.02927E+004    4.75579E+003   -1.75284E+005    2.32503E+004    2.06003E+005   -8.63940E+003
            3885    3.60427E+005    1.32142E+005   -2.74766E+005    4.36792E+003   -2.74766E+005    4.06907E+005    4.60855E+004   -3.02791E+005   -2.20331E+004    4.88413E+003   -1.21108E+005    1.79278E+004    1.96389E+005   -3.18056E+003
            3886    3.36683E+005    1.48912E+005   -2.36674E+005   -8.97666E+002   -2.36674E+005    3.85586E+005    2.95533E+004   -2.42721E+005   -1.49762E+004   -2.04209E+002   -7.34797E+004    1.20189E+004    1.90079E+005    3.00583E+003
            3887    3.24049E+005    1.74524E+005   -1.99326E+005    1.18927E+003   -1.99326E+005    3.73850E+005    7.87082E+003   -1.62249E+005   -2.19521E+003    1.48224E+003   -2.28995E+004    3.85128E+003    1.86467E+005    6.72045E+003
            3888    3.26698E+005    1.72248E+005   -2.04656E+005   -2.44965E+003   -2.04656E+005    3.76903E+005    1.16193E+004   -1.63786E+005   -8.78773E+003   -1.07352E+003   -2.49966E+004    5.72801E+003    1.86988E+005    2.07505E+004
            3889    3.41791E+005    1.46983E+005   -2.43871E+005   -1.05498E+003   -2.43871E+005    3.90854E+005    3.26478E+004   -2.52939E+005   -2.86397E+004    2.14242E+003   -7.14463E+004    1.50687E+004    1.92634E+005    1.54766E+004
            3890    3.66155E+005    1.24607E+005   -2.87446E+005    6.08573E+002   -2.87446E+005    4.12053E+005    5.40767E+004   -3.13409E+005   -4.69467E+004    4.55029E+003   -1.19834E+005    2.24154E+004    2.00541E+005    8.04748E+003
            3891    3.99606E+005    1.04380E+005   -3.35017E+005    6.67844E+003   -3.35017E+005    4.39397E+005    7.46529E+004   -3.71280E+005   -6.86881E+004    9.94445E+003   -1.65215E+005    2.57792E+004    2.11816E+005   -9.22695E+002
            3892    4.34742E+005    8.25527E+004   -3.85623E+005    5.33850E+003   -3.85623E+005    4.68176E+005    9.92439E+004   -4.18896E+005   -8.83938E+004    8.80528E+003   -2.18143E+005    2.77509E+004    2.21868E+005   -6.31919E+003
            3893    4.76006E+005    6.52090E+004   -4.41424E+005   -3.51670E+003   -4.41424E+005    5.06633E+005    1.26577E+005   -4.64647E+005   -1.13486E+005   -8.41521E+002   -2.65404E+005    2.59335E+004    2.39063E+005   -8.77013E+003
            3894    5.08787E+005    4.41538E+004   -4.90805E+005   -1.30191E+004   -4.90805E+005    5.34959E+005    1.53223E+005   -5.01484E+005   -1.31297E+005   -1.29713E+004   -3.15403E+005    2.39380E+004    2.49370E+005   -1.74106E+004
            3895    5.75994E+005    5.36260E+005    5.36260E+005   -3.37352E+004   -4.55509E+004    5.81811E+005   -1.52325E+005    5.75721E+005    1.34718E+005   -3.40472E+004    3.56303E+005    8.08785E+002    2.68809E+005   -2.21525E+003
            3896    5.61025E+005    5.45426E+005    5.45426E+005    1.90096E+004   -4.47579E+004    5.90184E+005   -1.73226E+005    5.52784E+005    1.42640E+005    1.43757E+004    3.62663E+005    1.99431E+004    2.71092E+005   -6.42068E+002
            3897    6.01403E+005    6.03566E+005    6.03566E+005    4.63781E+004   -3.39739E+004    6.37540E+005   -2.05323E+005    5.89145E+005    1.59654E+005    4.57116E+004    4.10605E+005    2.04350E+004    2.91821E+005    1.15710E+004
            3898    6.43896E+005    6.69444E+005    6.69444E+005    8.82258E+004   -2.27137E+004    6.92157E+005   -2.44985E+005    6.21846E+005    1.80437E+005    8.87229E+004    4.65796E+005    1.91365E+004    3.14489E+005    1.61272E+004
            3899    5.82338E+005    5.54045E+005    5.54045E+005    3.83395E+004   -7.75086E+004    6.31554E+005   -1.71625E+005    5.55517E+005    5.65446E+004    3.91783E+004    4.19153E+005    2.10806E+004    2.57155E+005    2.09239E+004
            3900    5.28551E+005    4.85413E+005    4.85413E+005    2.20883E+004   -9.02897E+004    5.75703E+005   -1.39071E+005    5.00602E+005    3.62159E+004    2.35102E+004    3.57486E+005    1.98719E+004    2.37483E+005    2.25777E+004
            3901    4.64850E+005    3.94177E+005    3.94177E+005    8.54930E+002   -1.18804E+005    5.12982E+005   -9.20760E+004    4.28094E+005   -7.35037E+003    2.43602E+003    2.81142E+005    1.82449E+004    2.10738E+005    2.12551E+004
            3902    4.23135E+005    3.50456E+005    3.50456E+005    2.52327E+003   -1.20580E+005    4.71035E+005   -7.74663E+004    3.79600E+005    6.29102E+003    3.97355E+003    2.22134E+005    1.47851E+004    2.08422E+005    1.80153E+004
            3903    3.78906E+005    2.82296E+005    2.82296E+005   -7.81923E+003   -1.46389E+005    4.28685E+005   -4.26958E+004    3.13786E+005   -1.72404E+004   -6.47033E+003    1.51798E+005    1.12518E+004    1.96239E+005    1.62358E+004
            3904    3.53317E+005    2.51445E+005    2.51445E+005    4.26532E+002   -1.52587E+005    4.04032E+005   -3.30947E+004    2.61493E+005    4.12453E+003    1.27013E+003    9.38896E+004    6.83521E+003    1.96460E+005    1.39072E+004
            3905    3.37476E+005    2.03453E+005    2.03453E+005   -5.11911E+003   -1.85901E+005    3.89354E+005   -4.14438E+003    1.67944E+005   -1.12557E+004   -4.76397E+003    2.84528E+004    2.37789E+003    1.93189E+005    1.34960E+004
            3906    5.27763E+005    4.94250E+005    4.94250E+005    2.34786E+004   -7.62703E+004    5.70520E+005   -1.47153E+005    5.05899E+005    5.52479E+004    2.40876E+004    3.62122E+005    2.44139E+004    2.38555E+005    2.09371E+004
            3907    5.01113E+005    4.55783E+005    4.55783E+005    1.45143E+004   -8.90045E+004    5.44788E+005   -1.27098E+005    4.76156E+005    4.49323E+004    1.64806E+004    3.19880E+005    1.99284E+004    2.33727E+005    2.45573E+004
            3908    4.40754E+005    3.72354E+005    3.72354E+005    5.66354E+003   -1.16634E+005    4.88988E+005   -8.71278E+004    3.99826E+005   -6.03352E+002    7.25451E+003    2.54732E+005    2.13942E+004    2.06859E+005    2.05528E+004
            3909    4.07863E+005    3.33511E+005    3.33511E+005    1.13256E+003   -1.21634E+005    4.55145E+005   -7.10034E+004    3.62664E+005    9.81875E+003    2.91864E+003    2.00273E+005    1.75324E+004    2.05520E+005    1.89674E+004
            3910    3.68451E+005    2.74369E+005    2.74369E+005   -2.26210E+003   -1.43879E+005    4.18248E+005   -4.27428E+004    2.97245E+005   -1.24707E+004   -7.97727E+002    1.41497E+005    1.42894E+004    1.93568E+005    1.51874E+004
            3911    3.46383E+005    2.43650E+005    2.43650E+005   -2.83155E+003   -1.52384E+005    3.96034E+005   -2.94782E+004    2.57074E+005    4.37311E+003   -1.65482E+003    8.57163E+004    8.78909E+003    1.93142E+005    1.52143E+004
            3912    3.31387E+005    2.00631E+005    2.00631E+005   -7.80422E+002   -1.81841E+005    3.82472E+005   -6.00307E+003    1.49599E+005   -8.96880E+003   -2.89760E+002    2.72678E+004    3.15278E+003    1.89862E+005    1.37986E+004
            3913    4.90351E+005    4.48792E+005    4.48792E+005   -2.18931E+003   -7.31876E+004    5.21980E+005   -1.24472E+005    4.78582E+005    5.87347E+004   -1.33443E+003    3.16015E+005    2.35884E+004    2.25147E+005    2.19527E+004
            3914    4.76162E+005    4.35659E+005    4.35659E+005    1.81043E+004   -8.29021E+004    5.18561E+005   -1.23620E+005    4.51103E+005    6.53043E+004    1.96334E+004    2.85924E+005    1.98157E+004    2.33429E+005    2.04097E+004
            3915    4.24223E+005    3.55412E+005    3.55412E+005   -9.86240E+002   -1.13820E+005    4.69232E+005   -8.02020E+004    3.88252E+005    1.08573E+004   -1.65350E+002    2.29914E+005    1.96163E+004    2.06220E+005    1.53650E+004
            3916    3.98146E+005    3.29359E+005    3.29359E+005    5.82236E+003   -1.15276E+005    4.44635E+005   -7.33017E+004    3.53002E+005    2.51459E+004    6.67449E+003    1.88085E+005    1.76649E+004    2.05906E+005    1.28077E+004
            3917    3.61914E+005    2.67484E+005    2.67484E+005   -6.63895E+003   -1.42752E+005    4.10236E+005   -3.93644E+004    2.95492E+005   -5.87928E+003   -5.45310E+003    1.29426E+005    1.48585E+004    1.92845E+005    1.29380E+004
            3918    3.39633E+005    2.40225E+005    2.40225E+005    3.09393E+003   -1.48854E+005    3.89078E+005   -3.14883E+004    2.43456E+005    1.03790E+004    3.87184E+003    8.02142E+004    9.62916E+003    1.90975E+005    9.72698E+003
            3919    3.26242E+005    1.96363E+005    1.96363E+005   -4.90060E+003   -1.80047E+005    3.76410E+005   -3.80516E+003    1.60838E+005   -8.70735E+003   -4.56130E+003    2.46841E+004    3.47298E+003    1.87216E+005    9.20129E+003
            3920    4.39048E+005    3.98864E+005    3.98864E+005    1.28683E+004   -7.87710E+004    4.77635E+005   -1.10987E+005    4.16707E+005    5.13477E+004    1.13666E+004    2.70247E+005    2.63064E+004    2.09752E+005    1.20031E+004
            3921    4.71521E+005    4.30214E+005    4.30214E+005    4.01764E+003   -7.63114E+004    5.06526E+005   -1.19307E+005    4.55744E+005    8.54304E+004    3.01385E+003    2.69476E+005    1.89908E+004    2.34697E+005    7.48216E+003
            3922    4.25975E+005    3.64299E+005    3.64299E+005   -2.07973E+003   -1.03108E+005    4.67407E+005   -8.63703E+004    3.97657E+005    3.63439E+004   -3.13523E+003    2.25902E+005    2.28749E+004    2.11884E+005    8.66978E+003
            3923    3.95361E+005    3.25136E+005    3.25136E+005   -6.13974E+003   -1.12536E+005    4.37672E+005   -6.88203E+004    3.60986E+005    3.96528E+004   -5.90354E+003    1.72712E+005    2.14230E+004    2.07158E+005    1.07704E+004
            3924    3.57550E+005    2.68955E+005    2.68955E+005   -1.01687E+003   -1.36546E+005    4.05501E+005   -4.37972E+004    2.90700E+005    1.15384E+004   -1.21938E+003    1.21073E+005    1.73624E+004    1.94355E+005    4.40193E+003
            3925    3.37485E+005    2.37141E+005    2.37141E+005   -1.69686E+003   -1.48949E+005    3.86090E+005   -2.88317E+004    2.48053E+005    1.57037E+004   -1.84055E+003    7.26318E+004    1.09572E+004    1.90601E+005    9.34913E+002
            3926    3.24107E+005    1.97504E+005    1.97504E+005    1.41802E+003   -1.76597E+005    3.74101E+005   -7.44197E+003    1.41690E+005   -2.66339E+003    1.28978E+003    2.36995E+004    3.96857E+003    1.86519E+005   -2.80630E+003
            3927    3.26579E+005    2.04459E+005    2.04459E+005   -8.93185E+002   -1.72127E+005    3.76586E+005   -1.04795E+004    1.75856E+005    9.07667E+003   -2.13586E+003    2.44978E+004    5.50785E+003    1.87047E+005   -1.88541E+004
            3928    3.39657E+005    2.41704E+005    2.41704E+005    5.43895E+003   -1.47538E+005    3.89243E+005   -3.32018E+004    2.41725E+005    2.61600E+004    2.38870E+003    7.10567E+004    1.51583E+004    1.91780E+005   -1.51691E+004
            3929    3.66271E+005    2.84388E+005    2.84388E+005   -3.70348E+003   -1.27812E+005    4.12200E+005   -5.09575E+004    3.13440E+005    4.46379E+004   -6.69317E+003    1.14928E+005    2.21324E+004    2.01185E+005   -5.00188E+003
            3930    3.94740E+005    3.30472E+005    3.30472E+005   -1.58206E+003   -1.05970E+005    4.36442E+005   -7.43066E+004    3.61679E+005    6.35641E+004   -4.70210E+003    1.64058E+005    2.62170E+004    2.09869E+005    9.22369E+002
            3931    4.40989E+005    3.86379E+005    3.86379E+005   -1.15359E+004   -8.77486E+004    4.74128E+005   -9.56983E+004    4.25793E+005    8.44725E+004   -1.23431E+004    2.14965E+005    2.78646E+004    2.25505E+005    1.35211E+004
            3932    4.81792E+005    4.50700E+005    4.50700E+005    7.28928E+003   -6.19751E+004    5.12675E+005   -1.32005E+005    4.70394E+005    1.07414E+005    5.35962E+003    2.83241E+005    2.39582E+004    2.38637E+005    9.73435E+003
            3933    5.35015E+005    5.09334E+005    5.09334E+005    2.19437E+003   -4.97650E+004    5.59099E+005   -1.53921E+005    5.29294E+005    1.18910E+005    2.38160E+003    3.40472E+005    4.74683E+003    2.56533E+005    9.28771E+003
            3934    3.24139E+005    1.99758E+005    1.99758E+005   -1.17314E+003   -1.74178E+005    3.73936E+005   -8.13565E+003    1.63743E+005    2.36531E+003   -1.48108E+003    2.35227E+004   -4.01212E+003    1.86491E+005    6.76494E+003
            3935    3.24089E+005    1.97526E+005    1.97526E+005   -1.22891E+003   -1.76453E+005    3.73979E+005   -6.61459E+003    1.54678E+005   -5.63256E+003   -1.06158E+003    2.65379E+004   -3.78739E+003    1.86212E+005   -4.35124E+003
            3936    3.27295E+005    1.97372E+005    1.97372E+005   -3.76847E+003   -1.80289E+005    3.77661E+005   -4.43832E+003    1.58058E+005   -1.02071E+004   -3.29861E+003    2.68206E+004   -3.72652E+003    1.87542E+005   -1.15759E+004
            3937    3.32483E+005    2.01999E+005    2.01999E+005   -3.00087E+003   -1.81617E+005    3.83616E+005   -5.79393E+003    1.63439E+005   -1.04128E+004   -2.45374E+003    3.02484E+004   -3.31386E+003    1.90141E+005   -1.48042E+004
            3938    3.37593E+005    2.04742E+005    2.04742E+005   -4.10396E+003   -1.84736E+005    3.89478E+005   -5.30052E+003    1.68826E+005   -1.18038E+004   -3.69605E+003    3.14014E+004   -2.56480E+003    1.93017E+005   -1.41420E+004
            3939    3.41446E+005    2.07318E+005    2.07318E+005   -3.83929E+003   -1.86609E+005    3.93927E+005   -5.62300E+003    1.70458E+005   -1.19792E+004   -3.63966E+003    3.24879E+004   -1.70678E+003    1.95430E+005   -1.03652E+004
            3940    3.43647E+005    2.08740E+005    2.08740E+005   -3.41190E+003   -1.87744E+005    3.96484E+005   -5.86149E+003    1.70050E+005   -1.19836E+004   -3.38044E+003    3.29486E+004   -5.85585E+002    1.96912E+005   -4.59895E+003
            3941    3.43749E+005    2.08095E+005    2.08095E+005   -4.57207E+003   -1.88485E+005    3.96580E+005   -5.01239E+003    1.71956E+005   -1.22568E+004   -4.56123E+003    3.18553E+004    4.12328E+002    1.97045E+005    2.37866E+003
            3942    3.41711E+005    2.07277E+005    2.07277E+005   -2.19473E+003   -1.87041E+005    3.94317E+005   -6.01371E+003    1.62684E+005   -1.11600E+004   -2.04699E+003    3.12481E+004    1.50853E+003    1.95823E+005    8.65566E+003
            3943    3.37123E+005    2.37599E+005    2.37599E+005    8.80688E+002   -1.48389E+005    3.85988E+005   -3.00303E+004    2.44262E+005    1.53396E+004    1.71722E+002    7.45795E+004   -1.22157E+004    1.90210E+005    2.96320E+003
            3944    3.38728E+005    2.39626E+005    2.39626E+005   -4.93861E+002   -1.47816E+005    3.87442E+005   -3.04385E+004    2.49713E+005    1.19766E+004    1.31742E+001    7.93256E+004   -1.05707E+004    1.90419E+005   -6.80020E+003
            3945    3.43180E+005    2.45114E+005    2.45114E+005    6.23867E+002   -1.47207E+005    3.92321E+005   -3.28438E+004    2.55220E+005    9.01945E+003    1.75636E+003    8.77556E+004   -1.01615E+004    1.91590E+005   -1.31469E+004
            3946    3.49523E+005    2.49598E+005    2.49598E+005   -1.79103E+003   -1.49535E+005    3.99133E+005   -3.27575E+004    2.64175E+005    5.14179E+003   -5.39192E+002    9.36699E+004   -9.09404E+003    1.93901E+005   -1.58427E+004
            3947    3.55961E+005    2.55767E+005    2.55767E+005   -1.08943E+003   -1.50558E+005    4.06325E+005   -3.47067E+004    2.70494E+005    3.99141E+003   -1.69892E+002    1.00299E+005   -7.13869E+003    1.96817E+005   -1.47389E+004
            3948    3.60540E+005    2.59343E+005    2.59343E+005   -1.76552E+003   -1.52025E+005    4.11367E+005   -3.51842E+004    2.75598E+005    2.67569E+003   -1.33290E+003    1.04210E+005   -4.62046E+003    1.99038E+005   -1.07147E+004
            3949    3.62956E+005    2.60816E+005    2.60816E+005   -1.98289E+003   -1.53319E+005    4.14136E+005   -3.51714E+004    2.77344E+005    2.14124E+003   -1.91824E+003    1.05291E+005   -1.74531E+003    2.00498E+005   -4.24580E+003
            3950    3.62357E+005    2.60228E+005    2.60228E+005   -8.98997E+002   -1.53465E+005    4.13693E+005   -3.52878E+004    2.74757E+005    2.45402E+003   -8.66046E+002    1.04275E+005    1.40740E+003    2.00464E+005    2.73990E+003
            3951    3.59398E+005    2.56042E+005    2.56042E+005   -2.74282E+003   -1.54312E+005    4.10354E+005   -3.29960E+004    2.72150E+005    2.20382E+003   -2.37398E+003    9.91582E+004    4.21914E+003    1.99123E+005    9.96525E+003
            3952    3.61410E+005    2.76284E+005    2.76284E+005   -4.56000E+003   -1.31462E+005    4.07746E+005   -4.67539E+004    3.04872E+005    2.26079E+004   -5.07977E+003    1.22734E+005   -1.82031E+004    1.96659E+005   -3.37789E+003
            3953    3.63205E+005    2.74082E+005    2.74082E+005   -3.31018E+003   -1.37026E+005    4.11108E+005   -4.45818E+004    2.99805E+005    2.65355E+003   -2.53206E+003    1.33624E+005   -1.60530E+004    1.94047E+005   -1.03679E+004
            3954    3.68857E+005    2.75711E+005    2.75711E+005   -5.23169E+003   -1.41994E+005    4.17705E+005   -4.28285E+004    3.03392E+005   -1.02561E+004   -3.79111E+003    1.42533E+005   -1.57660E+004    1.93433E+005   -1.48527E+004
            3955    3.77467E+005    2.84527E+005    2.84527E+005   -5.18329E+003   -1.42344E+005    4.26870E+005   -4.56667E+004    3.13557E+005   -1.38925E+004   -3.47111E+003    1.54364E+005   -1.43109E+004    1.95180E+005   -1.74748E+004
            3956    3.86188E+005    2.91726E+005    2.91726E+005   -6.56353E+003   -1.44488E+005    4.36214E+005   -4.68915E+004    3.23368E+005   -1.78041E+004   -5.32156E+003    1.63800E+005   -1.09625E+004    1.97620E+005   -1.58194E+004
            3957    3.92135E+005    2.97124E+005    2.97124E+005   -6.72872E+003   -1.45534E+005    4.42658E+005   -4.82873E+004    3.29645E+005   -1.92954E+004   -6.15762E+003    1.70315E+005   -7.15465E+003    1.99680E+005   -1.10490E+004
            3958    3.94839E+005    2.99501E+005    2.99501E+005   -6.44142E+003   -1.46211E+005    4.45712E+005   -4.89493E+004    3.31910E+005   -1.97814E+004   -6.36776E+003    1.72997E+005   -2.18095E+003    2.00890E+005   -4.28796E+003
            3959    3.93133E+005    2.96746E+005    2.96746E+005   -7.67949E+003   -1.47095E+005    4.43841E+005   -4.73237E+004    3.30216E+005   -2.01361E+004   -7.60190E+003    1.69709E+005    2.62715E+003    2.00552E+005    4.08858E+003
            3960    3.87664E+005    2.92078E+005    2.92078E+005   -5.29754E+003   -1.46367E+005    4.38445E+005   -4.68046E+004    3.21806E+005   -1.86732E+004   -4.73742E+003    1.63824E+005    7.42420E+003    1.99019E+005    1.05837E+004
            3961    3.96121E+005    3.28273E+005    3.28273E+005   -4.20964E+003   -1.10003E+005    4.38276E+005   -7.13536E+004    3.62236E+005    4.09238E+004   -4.70604E+003    1.77843E+005   -2.33984E+004    2.06522E+005   -8.91559E+003
            3962    4.02183E+005    3.34418E+005    3.34418E+005    1.95882E+002   -1.11929E+005    4.46347E+005   -7.42281E+004    3.64453E+005    3.11315E+004    1.07519E+003    1.90478E+005   -1.92974E+004    2.07357E+005   -1.36521E+004
            3963    4.11472E+005    3.43231E+005    3.43231E+005    4.71116E+003   -1.14754E+005    4.57985E+005   -7.77293E+004    3.69325E+005    1.91625E+004    6.27592E+003    2.07750E+005   -1.88163E+004    2.07470E+005   -1.78344E+004
            3964    4.23610E+005    3.53022E+005    3.53022E+005    1.85524E+003   -1.17447E+005    4.70469E+005   -7.91434E+004    3.82991E+005    1.02568E+004    3.59149E+003    2.23582E+005   -1.74515E+004    2.08486E+005   -1.96524E+004
            3965    4.35980E+005    3.65206E+005    3.65206E+005    3.14190E+003   -1.18748E+005    4.83953E+005   -8.32000E+004    3.94832E+005    5.75242E+003    4.40739E+003    2.39440E+005   -1.35226E+004    2.11101E+005   -1.74486E+004
            3966    4.44976E+005    3.72840E+005    3.72840E+005    1.50952E+003   -1.20379E+005    4.93219E+005   -8.46569E+004    4.04787E+005    1.86136E+003    2.07538E+003    2.50034E+005   -8.57423E+003    2.12770E+005   -1.20288E+004
            3967    4.48452E+005    3.75603E+005    3.75603E+005    1.39169E+003   -1.21477E+005    4.97080E+005   -8.51726E+004    4.07929E+005    4.74909E+002    1.43845E+003    2.53604E+005   -2.43335E+003    2.13872E+005   -3.48915E+003
            3968    4.45260E+005    3.72232E+005    3.72232E+005    1.54462E+003   -1.21656E+005    4.93888E+005   -8.40403E+004    4.04164E+005    6.44255E+002    1.64887E+003    2.49828E+005    4.13677E+003    2.13139E+005    5.09519E+003
            3969    4.36666E+005    3.62448E+005    3.62448E+005    1.76654E+002   -1.22409E+005    4.84858E+005   -8.00719E+004    3.95084E+005    1.72448E+003    9.14359E+002    2.37577E+005    9.69360E+003    2.11370E+005    1.34891E+004
            3970    4.33218E+005    3.75772E+005    3.75772E+005   -5.30880E+003   -9.54122E+004    4.71184E+005   -9.16837E+004    4.11336E+005    5.42297E+004   -6.01263E+003    2.26834E+005   -2.39844E+004    2.17372E+005   -1.12768E+004
            3971    4.35274E+005    3.72948E+005    3.72948E+005    1.21937E+003   -1.05879E+005    4.78826E+005   -8.94295E+004    4.04003E+005    2.39323E+004    1.94173E+003    2.42414E+005   -2.15369E+004    2.11564E+005   -1.60309E+004
            3972    4.48091E+005    3.81637E+005    3.81637E+005    3.98810E+003   -1.13491E+005    4.95128E+005   -9.07114E+004    4.11248E+005    5.38092E+003    5.20798E+003    2.61545E+005   -2.10601E+004    2.10324E+005   -1.89935E+004
            3973    4.66969E+005    4.00734E+005    4.00734E+005    6.23120E+003   -1.14850E+005    5.15584E+005   -9.73715E+004    4.29469E+005   -1.26862E+003    7.85367E+003    2.85529E+005   -2.03112E+004    2.12662E+005   -2.18119E+004
            3974    4.86347E+005    4.19034E+005    4.19034E+005    5.60272E+003   -1.16830E+005    5.35864E+005   -1.02602E+005    4.49671E+005   -6.43987E+003    6.81198E+003    3.07434E+005   -1.54090E+004    2.16162E+005   -1.92311E+004
            3975    4.99750E+005    4.32180E+005    4.32180E+005    6.39006E+003   -1.18024E+005    5.50204E+005   -1.06849E+005    4.62943E+005   -8.81537E+003    6.85422E+003    3.22508E+005   -9.75993E+003    2.19231E+005   -1.22388E+004
            3976    5.04518E+005    4.36870E+005    4.36870E+005    6.66221E+003   -1.18424E+005    5.55294E+005   -1.08370E+005    4.67682E+005   -9.62661E+003    6.69549E+003    3.28040E+005   -1.74943E+003    2.20395E+005   -3.35920E+003
            3977    4.99606E+005    4.30454E+005    4.30454E+005    4.47078E+003   -1.19449E+005    5.49903E+005   -1.05159E+005    4.63096E+005   -1.06193E+004    4.62514E+003    3.21470E+005    5.83233E+003    2.19012E+005    7.10956E+003
            3978    4.85218E+005    4.16485E+005    4.16485E+005    5.05439E+003   -1.18594E+005    5.35079E+005   -1.00982E+005    4.47667E+005   -9.16509E+003    5.76775E+003    3.06342E+005    1.30985E+004    2.15399E+005    1.50007E+004
            3979    4.72963E+005    4.32831E+005    4.32831E+005    5.81229E+003   -7.55266E+004    5.08358E+005   -1.21039E+005    4.56828E+005    8.13186E+004    4.89454E+003    2.76904E+005   -2.58118E+004    2.32447E+005   -1.36585E+004
            3980    4.89137E+005    4.51615E+005    4.51615E+005    1.36250E+004   -7.62153E+004    5.27830E+005   -1.29675E+005    4.70034E+005    7.71314E+004    1.44767E+004    2.97416E+005   -1.98438E+004    2.38693E+005   -1.73065E+004
            3981    5.06521E+005    4.69306E+005    4.69306E+005    2.42583E+004   -8.18701E+004    5.51177E+005   -1.37232E+005    4.80541E+005    5.87392E+004    2.59910E+004    3.26964E+005   -1.97762E+004    2.39444E+005   -2.30083E+004
            3982    5.32793E+005    4.93231E+005    4.93231E+005    2.40216E+004   -8.59752E+004    5.79206E+005   -1.43759E+005    5.06291E+005    4.46080E+004    2.57828E+004    3.60886E+005   -1.98774E+004    2.41197E+005   -2.45906E+004
            3983    5.57480E+005    5.19041E+005    5.19041E+005    2.94984E+004   -8.77318E+004    6.06773E+005   -1.53603E+005    5.28670E+005    3.69805E+004    3.05696E+004    3.93258E+005   -1.59962E+004    2.44640E+005   -2.00974E+004
            3984    5.75029E+005    5.35878E+005    5.35878E+005    3.09853E+004   -9.00265E+004    6.25904E+005   -1.58946E+005    5.45265E+005    3.08721E+004    3.13751E+004    4.14589E+005   -9.61338E+003    2.46893E+005   -1.24737E+004
            3985    5.80811E+005    5.41614E+005    5.41614E+005    3.21817E+004   -9.08580E+004    6.32473E+005   -1.60979E+005    5.50331E+005    2.85634E+004    3.21905E+004    4.22184E+005   -1.37103E+003    2.47522E+005   -1.87883E+003
            3986    5.74360E+005    5.34183E+005    5.34183E+005    3.08145E+004   -9.14727E+004    6.25656E+005   -1.57842E+005    5.43901E+005    2.82568E+004    3.09492E+004    4.14319E+005    7.38438E+003    2.45983E+005    7.99159E+003
            3987    5.56716E+005    5.14484E+005    5.14484E+005    2.56482E+004   -9.14754E+004    6.05959E+005   -1.49552E+005    5.27917E+005    3.06735E+004    2.64203E+004    3.91563E+005    1.43540E+004    2.42635E+005    1.73634E+004
            3988    4.99988E+005    4.70590E+005    4.70590E+005    8.91425E+003   -6.04648E+004    5.31055E+005   -1.39680E+005    4.88983E+005    1.01232E+005    7.79440E+003    3.10013E+005   -1.76150E+004    2.42943E+005   -7.42498E+003
            3989    4.94831E+005    4.62381E+005    4.62381E+005    1.76884E+004   -7.06798E+004    5.33061E+005   -1.36463E+005    4.76591E+005    6.77584E+004    1.79433E+004    3.23688E+005   -2.46532E+004    2.31848E+005   -1.86494E+004
            3990    5.35948E+005    5.05662E+005    5.05662E+005    2.42136E+004   -7.18062E+004    5.77468E+005   -1.52690E+005    5.16061E+005    6.44424E+004    2.55312E+004    3.68095E+005   -2.23396E+004    2.43984E+005   -2.32633E+004
            3991    5.83739E+005    5.59165E+005    5.59165E+005    4.27867E+004   -7.42122E+004    6.33377E+005   -1.75913E+005    5.56434E+005    6.26994E+004    4.38652E+004    4.21175E+005   -2.11601E+004    2.59692E+005   -2.21865E+004
            3992    6.29479E+005    6.09604E+005    6.09604E+005    5.73172E+004   -7.57808E+004    6.85385E+005   -1.97047E+005    5.96575E+005    6.29981E+004    5.81617E+004    4.69981E+005   -1.60046E+004    2.74914E+005   -1.92802E+004
            3993    6.63146E+005    6.46288E+005    6.46288E+005    6.79897E+004   -7.75351E+004    7.23823E+005   -2.12247E+005    6.25689E+005    6.24859E+004    6.82861E+004    5.05970E+005   -8.99104E+003    2.85760E+005   -1.15967E+004
            3994    6.74758E+005    6.58490E+005    6.58490E+005    7.07149E+004   -7.83296E+004    7.36820E+005   -2.16959E+005    6.36121E+005    6.16288E+004    7.07192E+004    5.18528E+005   -4.81625E+002    2.89024E+005   -1.65803E+003
            3995    6.63123E+005    6.44866E+005    6.44866E+005    6.66073E+004   -7.89405E+004    7.23807E+005   -2.10844E+005    6.25652E+005    5.96646E+004    6.68064E+004    5.06062E+005    8.12972E+003    2.84672E+005    9.74907E+003
            3996    6.27345E+005    6.05918E+005    6.05918E+005    5.79469E+004   -7.83812E+004    6.84299E+005   -1.95161E+005    5.92627E+005    5.73979E+004    5.85053E+004    4.69581E+005    1.54631E+004    2.72384E+005    1.65993E+004
            3997    6.93213E+005    7.38106E+005    7.38106E+005    1.19852E+005   -1.13226E+004    7.49429E+005   -2.82212E+005    6.64424E+005    2.02476E+005    1.20677E+005    5.23483E+005    1.54796E+004    3.38049E+005    1.82449E+004
            3998    7.27566E+005    7.88233E+005    7.88233E+005    1.46231E+005   -2.05198E+003    7.90285E+005   -3.10804E+005    6.92333E+005    2.19649E+005    1.46522E+005    5.66241E+005    9.00983E+003    3.54928E+005    1.10575E+004
            3999    7.41732E+005    8.08573E+005    8.08573E+005    1.55587E+005    2.10887E+003    8.06464E+005   -3.22090E+005    7.04665E+005    2.26790E+005    1.55587E+005    5.83892E+005    4.21138E+001    3.61546E+005    3.45160E+002
            4000    7.27429E+005    7.88336E+005    7.88336E+005    1.45396E+005   -1.24118E+003    7.89577E+005   -3.10830E+005    6.92995E+005    2.21668E+005    1.45721E+005    5.65102E+005   -9.01904E+003    3.55292E+005   -1.17398E+004
            4001    6.93711E+005    7.40016E+005    7.40016E+005    1.20477E+005   -9.48446E+003    7.49500E+005   -2.83669E+005    6.65490E+005    2.06494E+005    1.21230E+005    5.23284E+005   -1.52046E+004    3.39113E+005   -1.74357E+004
            4002    6.50928E+005    6.76837E+005    6.76837E+005    8.52046E+004   -2.04579E+004    6.97295E+005   -2.47195E+005    6.31200E+005    1.87360E+005    8.60063E+004    4.68218E+005   -1.85524E+004    3.18357E+005   -1.82693E+004
            4003    6.08114E+005    6.14217E+005    6.14217E+005    4.99928E+004   -2.98918E+004    6.44109E+005   -2.11439E+005    5.96138E+005    1.67838E+005    4.96413E+004    4.16838E+005   -1.94883E+004    2.95979E+005   -1.22606E+004
            4004    5.85626E+005    5.73197E+005    5.73197E+005    1.52402E+004   -3.66462E+004    6.09843E+005   -1.83930E+005    5.80421E+005    1.54973E+005    1.52690E+004    3.81548E+005   -1.15836E+004    2.82708E+005   -9.59551E+003
            4005    5.52345E+005    5.40052E+005    5.40052E+005    1.86205E+004   -3.87307E+004    5.78783E+005   -1.73314E+005    5.45586E+005    1.41513E+005    1.94170E+004    3.59012E+005   -1.67891E+004    2.67426E+005   -1.75175E+004
            4006    3.26582E+005    2.04646E+005    2.04646E+005    2.45523E+003   -1.72121E+005    3.76767E+005   -1.16602E+004    1.63956E+005    8.78442E+003    1.08263E+003    2.51136E+004   -5.72213E+003    1.86921E+005    2.07109E+004
            4007    3.41819E+005    2.43948E+005    2.43948E+005    1.02296E+003   -1.46923E+005    3.90871E+005   -3.26828E+004    2.53122E+005    2.87134E+004   -2.20927E+003    7.15443E+004   -1.51542E+004    1.92624E+005    1.55415E+004
            4008    3.66396E+005    2.87932E+005    2.87932E+005   -5.00708E+002   -1.24334E+005    4.12266E+005   -5.43658E+004    3.13852E+005    4.72649E+004   -4.43905E+003    1.20272E+005   -2.25205E+004    2.00631E+005    7.91911E+003
            4009    4.00414E+005    3.36108E+005    3.36108E+005   -6.89944E+003   -1.03894E+005    4.40001E+005   -7.51049E+004    3.72582E+005    6.92634E+004   -1.01619E+004    1.66213E+005   -2.60451E+004    2.12041E+005   -1.25663E+003
            4010    4.36313E+005    3.87795E+005    3.87795E+005   -4.90656E+003   -8.18834E+004    4.69679E+005   -1.00335E+005    4.20627E+005    8.93125E+004   -8.36438E+003    2.20057E+005   -2.79174E+004    2.22483E+005   -6.56278E+003
            4011    4.77506E+005    4.43481E+005    4.43481E+005    4.05067E+003   -6.46576E+004    5.08139E+005   -1.27625E+005    4.66190E+005    1.14130E+005    1.49961E+003    2.67245E+005   -2.58788E+004    2.39709E+005   -9.08114E+003
            4012    5.08666E+005    4.90831E+005    4.90831E+005    1.32451E+004   -4.40611E+004    5.34892E+005   -1.53338E+005    5.01326E+005    1.31632E+005    1.31621E+004    3.15221E+005   -2.39823E+004    2.49419E+005   -1.72943E+004
            4013    2.17909E+005    1.09457E+005   -1.41766E+005   -3.92809E+003   -1.41766E+005    2.51223E+005    1.20792E+004   -1.20148E+005   -8.53186E+003   -3.97835E+003   -2.37274E+004   -2.79475E+003    1.25345E+005    1.35332E+003
            4014    2.21131E+005    1.10589E+005   -1.43748E+005    3.00515E+003   -1.43748E+005    2.54337E+005    1.00514E+004   -1.41664E+005   -7.21836E+003    2.38712E+003   -2.53230E+004   -3.20333E+003    1.25935E+005    1.52239E+004
            4015    2.27992E+005    1.12304E+005   -1.50188E+005   -1.51451E+003   -1.50188E+005    2.62492E+005    1.31327E+004   -1.39187E+005   -8.03274E+003   -2.21866E+003   -2.91468E+004   -2.81946E+003    1.29334E+005    1.97713E+004
            4016    2.34336E+005    1.15350E+005   -1.54037E+005    2.70677E+003   -1.54037E+005    2.69387E+005    1.19935E+004   -1.53115E+005   -7.45730E+003    2.32167E+003   -3.08448E+004   -2.11467E+003    1.32988E+005    1.79921E+004
            4017    2.33144E+005    9.93099E+004   -1.65838E+005    7.09271E+003   -1.65838E+005    2.65148E+005    1.98119E+004   -1.84868E+005    3.02080E+003    6.70915E+003   -6.91656E+004   -8.58215E+003    1.27222E+005    5.41523E+003
            4018    2.35633E+005    1.00460E+005   -1.67899E+005    5.14199E+003   -1.67899E+005    2.68359E+005    2.07657E+004   -1.84087E+005    1.06716E+004    3.24964E+003   -7.62183E+004   -9.42634E+003    1.25932E+005    1.54856E+004
            4019    2.45066E+005    1.03085E+005   -1.74299E+005    1.28761E+004   -1.74299E+005    2.77384E+005    1.94457E+004   -2.02301E+005    1.37490E+004    1.04056E+004   -8.24918E+004   -8.57844E+003    1.28435E+005    2.15882E+004
            4020    2.52852E+005    1.03827E+005   -1.82781E+005    8.75411E+003   -1.82781E+005    2.86608E+005    2.34002E+004   -2.06473E+005    1.46451E+004    7.15892E+003   -9.20045E+004   -6.43104E+003    1.31887E+005    1.82191E+004
            4021    2.59730E+005    7.27869E+004   -2.15656E+005   -2.97505E+002   -2.15656E+005    2.88442E+005    4.77221E+004   -2.34872E+005   -2.07806E+004   -6.92309E+002   -1.21693E+005   -1.15679E+004    1.34501E+005    7.57812E+003
            4022    2.63423E+005    7.61468E+004   -2.14246E+005    9.34408E+003   -2.14246E+005    2.90393E+005    4.29184E+004   -2.43246E+005   -7.65698E+003    6.83546E+003   -1.27934E+005   -1.43963E+004    1.30721E+005    1.90285E+004
            4023    2.73830E+005    7.48340E+004   -2.26666E+005    6.58225E+003   -2.26666E+005    3.01501E+005    4.84167E+004   -2.53612E+005   -6.33759E+003    3.71066E+003   -1.42623E+005   -1.33166E+004    1.32858E+005    2.20061E+004
            4024    2.86319E+005    7.67248E+004   -2.36708E+005    1.11058E+004   -2.36708E+005    3.13433E+005    4.96258E+004   -2.68608E+005   -3.28405E+003    8.87284E+003   -1.54466E+005   -1.02021E+004    1.35925E+005    2.15884E+004
            4025    2.98239E+005    7.11742E+004   -2.51206E+005    1.48651E+004   -2.51206E+005    3.22380E+005    5.50555E+004   -2.85910E+005   -9.05213E+003    1.38616E+004   -1.69976E+005   -1.34505E+004    1.38667E+005    1.42498E+004
            4026    3.01044E+005    7.80610E+004   -2.52299E+005    6.55199E+003   -2.52299E+005    3.30360E+005    5.58954E+004   -2.80966E+005    1.07838E+004    5.40197E+003   -1.83872E+005   -1.71622E+004    1.31693E+005    1.67623E+004
            4027    3.13423E+005    7.95377E+004   -2.60673E+005    1.63264E+004   -2.60673E+005    3.40211E+005    5.49364E+004   -2.98572E+005    1.69536E+004    1.32605E+004   -1.95023E+005   -1.75771E+004    1.30607E+005    2.56114E+004
            4028    3.31976E+005    7.90831E+004   -2.80957E+005    1.30208E+004   -2.80957E+005    3.60040E+005    6.29510E+004   -3.16676E+005    1.90795E+004    1.08251E+004   -2.18757E+005   -1.38863E+004    1.33448E+005    2.26059E+004
            4029    3.44476E+005    3.86952E+004   -3.23486E+005    2.01811E+001   -3.23486E+005    3.62182E+005    9.49237E+004   -3.39540E+005   -5.09294E+004    4.98471E+001   -2.33892E+005   -1.05617E+004    1.55648E+005    9.11171E+003
            4030    3.39268E+005    5.15307E+004   -3.09485E+005    2.75604E+003   -3.09485E+005    3.61015E+005    8.50659E+004   -3.31242E+005   -2.38403E+004    1.29220E+003   -2.32650E+005   -1.73102E+004    1.45434E+005    2.05747E+004
            4031    3.61981E+005    5.12000E+004   -3.32706E+005    2.39808E+003   -3.32706E+005    3.83906E+005    9.30359E+004   -3.54466E+005   -1.71603E+004   -1.42259E+002   -2.61805E+005   -1.94672E+004    1.45288E+005    2.74680E+004
            4032    3.86278E+005    5.29885E+004   -3.54378E+005    6.62571E+003   -3.54378E+005    4.07367E+005    9.82547E+004   -3.79943E+005   -1.08265E+004    4.26982E+003   -2.88208E+005   -1.59149E+004    1.47100E+005    2.69562E+004
            4033    3.65982E+005    5.14442E+004   -3.31433E+005    1.49137E+004   -3.31433E+005    3.82877E+005    8.83585E+004   -3.61846E+005   -2.12261E+004    1.50711E+004   -2.58920E+005   -6.73912E+003    1.49736E+005    5.78453E+003
            4034    3.76481E+005    5.99926E+004   -3.43578E+005   -1.84147E+003   -3.43578E+005    4.03570E+005    9.51422E+004   -3.64794E+005   -1.34525E+003   -2.82986E+003   -2.81251E+005   -1.66037E+004    1.43440E+005    2.04260E+004
            4035    4.08817E+005    6.18678E+004   -3.71312E+005    7.75145E+003   -3.71312E+005    4.33180E+005    1.00564E+005   -4.00640E+005    5.55281E+003    6.25909E+003   -3.13505E+005   -2.01720E+004    1.43211E+005    2.80395E+004
            4036    4.42376E+005    5.93529E+004   -4.10204E+005   -1.26059E+003   -4.10204E+005    4.69557E+005    1.17371E+005   -4.32886E+005    5.53026E+003   -2.28186E+003   -3.55360E+005   -1.85206E+004    1.47385E+005    2.59256E+004
            4037    4.20689E+005    6.32048E+003   -4.27607E+005   -2.15411E+004   -4.27607E+005    4.33928E+005    1.47609E+005   -4.18606E+005   -1.17715E+005   -1.98315E+004   -3.05281E+005   -3.26600E+003    1.93706E+005    2.04960E+004
            4038    4.39680E+005    1.82210E+004   -4.29429E+005    1.82347E+003   -4.29429E+005    4.47650E+005    1.36461E+005   -4.38991E+005   -7.25684E+004    1.64836E+003   -3.38464E+005   -7.15536E+003    1.78431E+005    2.38701E+004
            4039    4.69246E+005    2.10108E+004   -4.65592E+005   -1.58793E+004   -4.65592E+005    4.86603E+005    1.53487E+005   -4.65967E+005   -5.88267E+004   -1.64359E+004   -3.85198E+005   -1.69736E+004    1.78546E+005    2.26659E+004
            4040    5.11449E+005    2.57851E+004   -5.10875E+005   -2.90577E+004   -5.10875E+005    5.36660E+005    1.71383E+005   -5.04770E+005   -4.65986E+004   -2.96329E+004   -4.37916E+005   -1.63956E+004    1.81853E+005    2.24059E+004
            4041    5.83203E+005    1.47017E+004   -6.07964E+005   -7.45015E+004   -6.07964E+005    6.22666E+005    2.22588E+005   -5.67550E+005   -8.06210E+004   -7.42745E+004   -5.12869E+005   -1.10263E+004    2.23541E+005    8.72833E+003
            4042    5.08933E+005    1.83066E+004   -5.13722E+005   -3.15545E+004   -5.13722E+005    5.32028E+005    1.75656E+005   -5.03394E+005   -6.75247E+004   -3.00127E+004   -4.29432E+005   -1.23701E+004    1.93652E+005    5.46966E+003
            4043    4.31629E+005    2.68174E+004   -4.18883E+005   -2.85609E+003   -4.18883E+005    4.45701E+005    1.31641E+005   -4.29326E+005   -5.58564E+004    7.72744E+003   -3.46793E+005   -1.61577E+004    1.61586E+005    1.23730E+003
            4044    3.92883E+005    7.44234E+004   -3.41525E+005    2.32865E+004   -3.41525E+005    4.15948E+005    8.12715E+004   -3.85289E+005   -2.93995E+004    7.34067E+004   -2.87822E+005   -8.75714E+003    1.29323E+005    3.42856E+003
            4045    2.23710E+005    1.15491E+005   -1.42203E+005    2.19201E+003   -1.42203E+005    2.57694E+005    8.17353E+003   -1.32370E+005   -4.94295E+003    3.34121E+003   -2.29188E+004   -3.67037E+003    1.27263E+005   -1.71059E+004
            4046    2.40379E+005    9.20455E+004   -1.81536E+005   -4.16044E+003   -1.81536E+005    2.73582E+005    3.12170E+004   -1.89155E+005   -2.27337E+004   -1.45075E+003   -6.94666E+004   -1.01123E+004    1.33337E+005   -1.30045E+004
            4047    2.68877E+005    7.57171E+004   -2.19857E+005    1.02206E+004   -2.19857E+005    2.95574E+005    4.46397E+004   -2.49965E+005   -3.44787E+004    1.25378E+004   -1.11978E+005   -1.45268E+004    1.41175E+005   -1.84922E+003
            4048    3.07455E+005    5.42208E+004   -2.72574E+005    1.09583E+004   -2.72574E+005    3.26795E+005    6.91316E+004   -3.00492E+005   -5.66990E+004    1.27850E+004   -1.63481E+005   -1.56102E+004    1.52838E+005    4.81218E+003
            4049    3.50439E+005    3.75814E+004   -3.17316E+005    2.84875E+004   -3.17316E+005    3.54898E+005    8.37492E+004   -3.50174E+005   -6.60765E+004    2.79578E+004   -2.13129E+005   -1.51685E+004    1.60029E+005    1.82146E+004
            4050    4.17758E+005    1.28827E+004   -4.05700E+005    1.12274E+004   -4.05700E+005    4.18583E+005    1.27197E+005   -4.17750E+005   -9.35921E+004    1.06839E+004   -2.98682E+005   -7.73978E+003    1.82128E+005    1.30205E+004
            4051    4.06694E+005    2.67025E+004   -3.93131E+005   -9.92910E+002   -3.93131E+005    4.19834E+005    1.22474E+005   -4.04564E+005   -8.61218E+004    2.38160E+004   -3.05116E+005    6.15473E+003    1.64361E+005    6.38441E+003
            4052    6.62188E+005    1.21291E+004   -7.01811E+005   -1.07753E+005   -7.01811E+005    7.13940E+005    2.65812E+005   -6.37083E+005   -9.45309E+004   -1.07943E+005   -5.94961E+005   -8.42469E+003    2.54315E+005    1.08552E+004
            4053    7.19358E+005    7.50859E+003   -7.72478E+005   -1.35116E+005   -7.72478E+005    7.79987E+005    3.00029E+005   -6.86457E+005   -1.08425E+005   -1.35190E+005   -6.56470E+005   -5.34162E+003    2.77397E+005    6.86155E+003
            4054    7.42991E+005    4.97266E+003   -8.01829E+005   -1.45766E+005   -8.01829E+005    8.06802E+005    3.14207E+005   -7.07350E+005   -1.14886E+005   -1.45766E+005   -6.81971E+005   -8.26989E+000    2.86942E+005    2.24028E+002
            4055    7.21929E+005    7.31573E+003   -7.75370E+005   -1.35565E+005   -7.75370E+005    7.82686E+005    3.01206E+005   -6.89032E+005   -1.09778E+005   -1.35673E+005   -6.58169E+005    4.89120E+003    2.79125E+005   -7.64592E+003
            4056    6.64853E+005    1.06364E+004   -7.06023E+005   -1.09305E+005   -7.06023E+005    7.16660E+005    2.68231E+005   -6.39830E+005   -9.73798E+004   -1.09434E+005   -5.97878E+005    8.47894E+003    2.56195E+005   -9.93185E+003
            4057    5.90203E+005    1.57005E+004   -6.12911E+005   -7.06233E+004   -6.12911E+005    6.28611E+005    2.22611E+005   -5.75743E+005   -8.13540E+004   -7.05155E+004   -5.15964E+005    1.02863E+004    2.26608E+005   -9.22668E+003
            4058    5.12171E+005    1.81660E+004   -5.16875E+005   -3.11389E+004   -5.16875E+005    5.35041E+005    1.76616E+005   -5.06791E+005   -6.74663E+004   -2.92606E+004   -4.33121E+005    1.32887E+004    1.93702E+005   -5.65297E+003
            4059    4.46662E+005    2.52051E+004   -4.27052E+005    1.37967E+004   -4.27052E+005    4.52257E+005    1.29350E+005   -4.46334E+005   -5.07912E+004    1.89546E+004   -3.56214E+005    9.68567E+003    1.62874E+005   -8.01926E+003
            4060    4.48164E+005    2.06791E+004   -4.40230E+005   -6.00176E+003   -4.40230E+005    4.60909E+005    1.41851E+005   -4.46372E+005   -9.35382E+004    1.29985E+004   -3.45013E+005   -6.38408E+003    1.81465E+005   -1.36639E+004
            4061    5.52102E+005    2.65234E+004   -5.58129E+005   -4.56827E+004   -5.58129E+005    5.84652E+005    1.92429E+005   -5.41326E+005   -4.23007E+004   -4.59197E+004   -4.89068E+005   -1.42040E+004    1.87276E+005    1.82326E+004
            4062    4.73522E+005    5.86785E+004   -4.43156E+005   -4.23501E+003   -4.43156E+005    5.01834E+005    1.29571E+005   -4.63980E+005    6.00580E+003   -4.84522E+003   -3.89873E+005   -1.37469E+004    1.52617E+005    2.03217E+004
            4063    4.08825E+005    5.33964E+004   -3.78276E+005    3.03532E+003   -3.78276E+005    4.31673E+005    1.07282E+005   -4.01758E+005   -7.79910E+003    2.06081E+003   -3.16106E+005   -1.16024E+004    1.49985E+005    1.87715E+004
            4064    3.46339E+005    8.02434E+004   -2.93519E+005    1.65567E+004   -2.93519E+005    3.73763E+005    6.55731E+004   -3.32781E+005    2.18461E+004    1.54274E+004   -2.33993E+005   -9.46381E+003    1.35375E+005    1.68340E+004
            4065    2.95857E+005    7.54490E+004   -2.48183E+005    8.38686E+003   -2.48183E+005    3.23632E+005    5.47823E+004   -2.77974E+005   -3.45117E+003    7.48974E+003   -1.68386E+005   -6.70566E+003    1.38687E+005    1.37436E+004
            4066    2.58527E+005    1.05801E+005   -1.86479E+005    1.22465E+004   -1.86479E+005    2.92280E+005    2.28107E+004   -2.15172E+005    1.66912E+004    1.15732E+004   -9.66964E+004   -3.95908E+003    1.34172E+005    1.26533E+004
            4067    2.37728E+005    1.15256E+005   -1.58205E+005   -7.75253E+002   -1.58205E+005    2.73462E+005    1.45748E+004   -1.51452E+005   -8.70211E+003   -9.47889E+002   -3.40745E+004   -1.37079E+003    1.35676E+005    1.13199E+004
            4068    5.84079E+005    2.74336E+004   -5.92799E+005   -5.32680E+004   -5.92799E+005    6.20233E+005    2.06211E+005   -5.71333E+005   -3.89806E+004   -5.34118E+004   -5.26241E+005   -7.56027E+003    1.91503E+005    1.09071E+004
            4069    4.93436E+005    5.60406E+004   -4.67316E+005   -1.05675E+004   -4.67316E+005    5.23357E+005    1.40614E+005   -4.83166E+005    3.85166E+003   -1.06570E+004   -4.15038E+005   -6.72296E+003    1.56502E+005    9.37496E+003
            4070    4.22950E+005    5.37637E+004   -3.92374E+005    2.76266E+003   -3.92374E+005    4.46138E+005    1.11949E+005   -4.15948E+005   -6.18262E+003    2.56465E+003   -3.32230E+005   -4.83872E+003    1.52059E+005    8.47454E+003
            4071    3.55452E+005    7.91346E+004   -3.04392E+005    1.39682E+004   -3.04392E+005    3.83526E+005    7.04296E+004   -3.41622E+005    2.14035E+004    1.38438E+004   -2.46536E+005   -3.62442E+003    1.37092E+005    5.78747E+003
            4072    3.01142E+005    7.58760E+004   -2.52758E+005    9.97789E+003   -2.52758E+005    3.28634E+005    5.56347E+004   -2.84232E+005   -2.83525E+003    9.87586E+003   -1.73945E+005   -2.08407E+003    1.40221E+005    4.91809E+003
            4073    2.61289E+005    1.05475E+005   -1.90168E+005    9.79571E+003   -1.90168E+005    2.95642E+005    2.49658E+004   -2.16248E+005    1.66671E+004    9.74242E+003   -1.01307E+005   -1.25908E+003    1.35506E+005    3.28605E+003
            4074    2.39470E+005    1.16159E+005   -1.59077E+005    1.56095E+003   -1.59077E+005    2.75236E+005    1.37857E+004   -1.57561E+005   -8.52400E+003    1.55150E+003   -3.43845E+004   -3.23939E+002    1.36975E+005    3.07739E+003
            4075    5.96398E+005    2.76733E+004   -6.06338E+005   -5.64950E+004   -6.06338E+005    6.34011E+005    2.11720E+005   -5.82811E+005   -3.84246E+004   -5.64979E+004   -5.40237E+005    2.38048E+002    1.93746E+005   -1.37712E+003
            4076    5.00238E+005    5.58496E+004   -4.74681E+005   -1.15767E+004   -4.74681E+005    5.30531E+005    1.43469E+005   -4.89858E+005    3.73108E+003   -1.15874E+004   -4.22552E+005    1.47018E+003    1.57894E+005   -2.43672E+003
            4077    4.27845E+005    5.39286E+004   -3.97708E+005    1.51477E+003   -3.97708E+005    4.51637E+005    1.14088E+005   -4.20531E+005   -5.56336E+003    1.45953E+003   -3.38161E+005    2.09813E+003    1.52725E+005   -4.34483E+003
            4078    3.57412E+005    7.97293E+004   -3.05586E+005    1.51036E+004   -3.05586E+005    3.85315E+005    7.02511E+004   -3.43896E+005    2.24529E+004    1.50146E+004   -2.48221E+005    2.52405E+003    1.37049E+005   -4.83954E+003
            4079    3.01962E+005    7.52732E+004   -2.54322E+005    8.99591E+003   -2.54322E+005    3.29595E+005    5.66844E+004   -2.84899E+005   -2.90843E+003    8.86621E+003   -1.76011E+005    2.22582E+003    1.40151E+005   -5.71852E+003
            4080    2.61324E+005    1.05827E+005   -1.89603E+005    1.13217E+004   -1.89603E+005    2.95430E+005    2.41514E+004   -2.17566E+005    1.73105E+004    1.11962E+004   -1.00961E+005    1.66265E+003    1.35261E+005   -5.56985E+003
            4081    2.39210E+005    1.15536E+005   -1.59503E+005    8.00343E+001   -1.59503E+005    2.75039E+005    1.46287E+004   -1.55286E+005   -9.01881E+003    5.48622E+001   -3.49221E+004    4.89666E+002    1.36786E+005   -5.81695E+003
            4082    5.84843E+005    2.63290E+004   -5.94740E+005   -5.45388E+004   -5.94740E+005    6.21069E+005    2.07650E+005   -5.72062E+005   -4.09495E+004   -5.47264E+004   -5.27274E+005    8.55534E+003    1.92669E+005   -1.23466E+004
            4083    4.92532E+005    5.57268E+004   -4.66311E+005   -9.85571E+003   -4.66311E+005    5.22037E+005    1.40147E+005   -4.82562E+005    3.13511E+003   -1.02613E+004   -4.13313E+005    8.92871E+003    1.56697E+005   -1.47973E+004
            4084    4.20763E+005    5.26400E+004   -3.91245E+005    1.77232E+003   -3.91245E+005    4.43885E+005    1.12277E+005   -4.13761E+005   -7.62140E+003    1.10505E+003   -3.30316E+005    8.86743E+003    1.51727E+005   -1.54753E+004
            4085    3.52620E+005    7.88102E+004   -3.01409E+005    1.48590E+004   -3.01409E+005    3.80220E+005    6.92467E+004   -3.39203E+005    2.10654E+004    1.39348E+004   -2.42740E+005    8.04329E+003    1.36222E+005   -1.54311E+004
            4086    2.98344E+005    7.49126E+004   -2.50737E+005    9.41886E+003   -2.50737E+005    3.25649E+005    5.54684E+004   -2.81479E+005   -3.54037E+003    8.48178E+003   -1.71347E+005    6.55602E+003    1.38960E+005   -1.44822E+004
            4087    2.59052E+005    1.05119E+005   -1.87820E+005    1.10708E+004   -1.87820E+005    2.92939E+005    2.38766E+004   -2.15281E+005    1.67093E+004    1.02821E+004   -9.86212E+004    4.15897E+003    1.34012E+005   -1.38734E+004
            4088    2.37551E+005    1.15269E+005   -1.57859E+005    6.42591E+002   -1.57859E+005    2.73129E+005    1.39825E+004   -1.54272E+005   -8.90463E+003    4.42968E+002   -3.34859E+004    1.48110E+003    1.35350E+005   -1.34598E+004
            4089    5.53903E+005    2.54528E+004   -5.60224E+005   -4.47986E+004   -5.60224E+005    5.85677E+005    1.93190E+005   -5.43745E+005   -4.50650E+004   -4.53476E+004   -4.89158E+005    1.42311E+004    1.89620E+005   -2.03412E+004
            4090    4.71596E+005    5.74179E+004   -4.42813E+005   -6.33703E+003   -4.42813E+005    5.00231E+005    1.30577E+005   -4.61751E+005    4.00058E+003   -7.23679E+003   -3.88495E+005    1.59665E+004    1.52940E+005   -2.37875E+004
            4091    4.04117E+005    5.22513E+004   -3.74025E+005    3.51210E+003   -3.74025E+005    4.26276E+005    1.06087E+005   -3.97424E+005   -9.77054E+003    1.75708E+003   -3.10248E+005    1.45909E+004    1.49438E+005   -2.44482E+004
            4092    3.41525E+005    7.92912E+004   -2.89940E+005    1.46362E+004   -2.89940E+005    3.69232E+005    6.53376E+004   -3.27329E+005    2.08127E+004    1.26191E+004   -2.29445E+005    1.34515E+004    1.34116E+005   -2.22886E+004
            4093    2.90463E+005    7.45493E+004   -2.42682E+005    1.02295E+004   -2.42682E+005    3.17232E+005    5.26345E+004   -2.73743E+005   -4.26959E+003    8.08252E+003   -1.61716E+005    1.03054E+004    1.36416E+005   -2.10962E+004
            4094    2.54158E+005    1.04358E+005   -1.83246E+005    1.11429E+004   -1.83246E+005    2.87604E+005    2.25819E+004   -2.10184E+005    1.63301E+004    9.38372E+003   -9.34595E+004    6.67007E+003    1.31643E+005   -1.94370E+004
            4095    2.34031E+005    1.14247E+005   -1.54881E+005    8.52717E+002   -1.54881E+005    2.69128E+005    1.32606E+004   -1.50965E+005   -8.96430E+003    4.43819E+002   -3.12612E+004    2.14418E+003    1.32797E+005   -1.87658E+004
            4096    5.12746E+005    2.11313E+004   -5.16117E+005   -3.20128E+004   -5.16117E+005    5.37248E+005    1.75666E+005   -5.06494E+005   -5.40163E+004   -3.27759E+004   -4.40206E+005    1.69549E+004    1.84892E+005   -2.37658E+004
            4097    4.39681E+005    5.81886E+004   -4.08150E+005   -1.15318E+003   -4.08150E+005    4.66338E+005    1.17038E+005   -4.30533E+005    3.10014E+003   -2.85019E+003   -3.51364E+005    1.83408E+004    1.48699E+005   -2.83154E+004
            4098    3.81542E+005    4.99913E+004   -3.53410E+005    1.66840E+003   -3.53410E+005    4.03402E+005    1.00584E+005   -3.74565E+005   -1.56299E+004   -7.37869E+002   -2.85383E+005    1.75800E+004    1.47638E+005   -2.73932E+004
            4099    3.26310E+005    7.85001E+004   -2.74936E+005    1.48770E+004   -2.74936E+005    3.53436E+005    6.05195E+004   -3.11893E+005    1.78413E+004    1.21511E+004   -2.11551E+005    1.61007E+004    1.32264E+005   -2.49736E+004
            4100    2.80539E+005    7.38810E+004   -2.33531E+005    8.63618E+003   -2.33531E+005    3.07412E+005    5.03381E+004   -2.62642E+005   -6.22653E+003    5.69756E+003   -1.50485E+005    1.26977E+004    1.34044E+005   -2.33957E+004
            4101    2.47247E+005    1.03226E+005   -1.76771E+005    1.15209E+004   -1.76771E+005    2.79998E+005    2.06747E+004   -2.03329E+005    1.49409E+004    9.13783E+003   -8.61027E+004    8.20439E+003    1.28957E+005   -2.14655E+004
            4102    2.29120E+005    1.12291E+005   -1.51302E+005    1.07417E+002   -1.51302E+005    2.63594E+005    1.29680E+004   -1.45159E+005   -8.88675E+003   -5.36013E+002   -2.94811E+004    2.75162E+003    1.29790E+005   -2.05841E+004
            4103    4.71266E+005    1.76635E+004   -4.69435E+005   -1.57823E+004   -4.69435E+005    4.87098E+005    1.55851E+005   -4.68585E+005   -6.47409E+004   -1.75529E+004   -3.85260E+005    1.32754E+004    1.82123E+005   -2.56479E+004
            4104    4.07781E+005    5.90666E+004   -3.75912E+005   -2.28146E+003   -3.75912E+005    4.34979E+005    1.06376E+005   -3.97199E+005   -9.15159E+001   -3.28641E+003   -3.15749E+005    1.95184E+004    1.46855E+005   -2.45029E+004
            4105    3.59577E+005    4.92606E+004   -3.30926E+005    3.69703E+003   -3.30926E+005    3.80187E+005    9.26562E+004   -3.52994E+005   -2.17553E+004    1.80779E+003   -2.58021E+005    1.96418E+004    1.46384E+005   -2.52269E+004
            4106    3.12038E+005    7.81746E+004   -2.61408E+005    1.26926E+004   -2.61408E+005    3.39583E+005    5.68469E+004   -2.95981E+005    1.44673E+004    1.02853E+004   -1.95293E+005    1.86445E+004    1.31104E+005   -2.32387E+004
            4107    2.69224E+005    7.33344E+004   -2.22115E+005    9.35838E+003   -2.22115E+005    2.95449E+005    4.64740E+004   -2.51253E+005   -8.94165E+003    6.32694E+003   -1.36807E+005    1.48163E+004    1.31474E+005   -2.18464E+004
            4108    2.39724E+005    1.01436E+005   -1.70665E+005    9.41500E+003   -1.70665E+005    2.72101E+005    1.99381E+004   -1.93539E+005    1.32601E+004    6.95336E+003   -8.00277E+004    9.55841E+003    1.26372E+005   -1.94064E+004
            4109    2.22851E+005    1.10512E+005   -1.45912E+005    9.47919E+002   -1.45912E+005    2.56424E+005    1.14840E+004   -1.40142E+005   -9.02322E+003    2.65504E+002   -2.56942E+004    3.14185E+003    1.26698E+005   -1.78550E+004
            4110    4.42977E+005    8.92916E+003   -4.47696E+005   -1.97634E+004   -4.47696E+005    4.56626E+005    1.52844E+005   -4.40879E+005   -9.13938E+004   -2.01486E+004   -3.46988E+005    6.08912E+003    1.88164E+005   -2.06997E+004
            4111    3.84901E+005    5.61152E+004   -3.52484E+005    3.25565E+003   -3.52484E+005    4.08599E+005    9.77043E+004   -3.76605E+005   -9.34914E+003    3.07368E+003   -2.86837E+005    1.36518E+004    1.48693E+005   -1.48266E+004
            4112    3.47245E+005    4.58192E+004   -3.22283E+005   -5.54658E+002   -3.22283E+005    3.68102E+005    9.23394E+004   -3.40174E+005   -3.32188E+004   -1.58126E+003   -2.42218E+005    1.57331E+004    1.50064E+005   -1.81191E+004
            4113    3.01266E+005    7.63451E+004   -2.52149E+005    1.12448E+004   -2.52149E+005    3.28494E+005    5.48530E+004   -2.84788E+005    6.07985E+003    1.00732E+004   -1.80712E+005    1.66674E+004    1.33459E+005   -1.67413E+004
            4114    2.62036E+005    7.36333E+004   -2.16079E+005    4.36369E+003   -2.16079E+005    2.89712E+005    4.60273E+004   -2.40108E+005   -1.18397E+004    2.68430E+003   -1.28926E+005    1.40086E+004    1.31377E+005   -1.49842E+004
            4115    2.33129E+005    9.99001E+004   -1.65239E+005    7.64050E+003   -1.65239E+005    2.65139E+005    1.92329E+004   -1.84793E+005    8.82031E+003    6.26225E+003   -7.27812E+004    9.43634E+003    1.25408E+005   -1.21655E+004
            4116    2.18006E+005    1.08443E+005   -1.42605E+005   -1.02633E+003   -1.42605E+005    2.51048E+005    1.17293E+004   -1.31472E+005   -8.14382E+003   -1.47679E+003   -2.55674E+004    3.20250E+003    1.24820E+005   -9.86071E+003
            4117    4.18238E+005    1.63379E+004   -4.08917E+005    1.93101E+003   -4.08917E+005    4.25255E+005    1.30216E+005   -4.17679E+005   -7.99059E+004    2.76991E+003   -3.13512E+005    9.09402E+003    1.76761E+005   -8.56503E+003
            4118    3.89728E+005    2.99612E+004   -3.71100E+005    6.20925E+003   -3.71100E+005    4.01061E+005    1.11643E+005   -3.88095E+005   -5.82963E+004    5.66549E+003   -2.82299E+005    7.10584E+003    1.66002E+005   -1.25292E+004
            4119    3.42526E+005    4.44178E+004   -3.13843E+005    1.04099E+004   -3.13843E+005    3.58261E+005    8.63385E+004   -3.38696E+005   -4.36022E+004    1.02391E+004   -2.25652E+005    1.30487E+004    1.53284E+005   -1.26760E+004
            4120    3.01463E+005    6.08818E+004   -2.63094E+005    9.16283E+003   -2.63094E+005    3.23976E+005    6.43499E+004   -2.91229E+005   -2.65248E+004    8.68035E+003   -1.75205E+005    1.21546E+004    1.43171E+005   -1.09951E+004
            4121    2.61366E+005    7.63511E+004   -2.12967E+005    6.07922E+003   -2.12967E+005    2.89318E+005    4.35122E+004   -2.38686E+005   -1.74479E+004    6.00102E+003   -1.19090E+005    1.20323E+004    1.34780E+005   -6.23622E+003
            4122    2.33570E+005    9.38075E+004   -1.71854E+005    1.26359E+003   -1.71854E+005    2.65661E+005    2.55942E+004   -1.85003E+005   -6.84507E+003    1.50654E+003   -7.14442E+004    7.99121E+003    1.28557E+005   -3.75866E+002
            4123    2.18158E+005    1.12977E+005   -1.38425E+005    1.09397E+003   -1.38425E+005    2.51402E+005    8.11803E+003   -1.25197E+005   -3.42921E+003    1.27063E+003   -2.21955E+004    3.18780E+003    1.25262E+005    3.09695E+003
            4124    2.24901E+005    1.13448E+005   -1.45762E+005   -2.45394E+003   -1.45762E+005    2.59210E+005    1.15894E+004   -1.27426E+005   -8.79940E+003   -1.24120E+003   -2.47276E+004    3.47368E+003    1.27813E+005    1.91853E+004
            4125    2.41841E+005    9.32354E+004   -1.81006E+005    1.73320E+003   -1.81006E+005    2.74241E+005    2.86790E+004   -1.96821E+005   -2.12509E+004    4.70325E+003   -6.94893E+004    1.03967E+004    1.33411E+005    1.31051E+004
            4126    2.72423E+005    7.15559E+004   -2.27481E+005    6.57711E+003   -2.27481E+005    2.99037E+005    4.97826E+004   -2.54094E+005   -4.13947E+004    9.71388E+003   -1.17667E+005    1.36332E+004    1.42878E+005    5.35699E+003
            4127    3.06984E+005    5.49589E+004   -2.68541E+005    1.87079E+004   -2.68541E+005    3.23500E+005    6.49580E+004   -3.02112E+005   -5.48266E+004    2.09452E+004   -1.60993E+005    1.58794E+004    1.50927E+005   -5.44344E+003
            4128    3.54694E+005    3.42458E+004   -3.26619E+005    2.15630E+004   -3.26619E+005    3.60865E+005    9.02701E+004   -3.54183E+005   -7.63085E+004    2.44034E+004   -2.18905E+005    1.39264E+004    1.63338E+005   -1.07951E+004
            4129    3.87217E+005    2.36569E+004   -3.68226E+005    1.41510E+004   -3.68226E+005    3.91883E+005    1.10139E+005   -3.86955E+005   -8.54231E+004    1.90594E+004   -2.64054E+005    1.34263E+004    1.70669E+005   -1.32037E+004
            4130    4.51837E+005    1.22421E+004   -4.46441E+005   -1.77597E+003   -4.46441E+005    4.58683E+005    1.45325E+005   -4.51347E+005   -1.10716E+005    7.15165E+003   -3.32411E+005    4.94605E+003    1.94557E+005   -2.12435E+004
            4131    3.93053E+005    3.40775E+005    3.40775E+005   -2.37151E+004   -7.56717E+004    4.16447E+005   -8.04629E+004    3.85213E+005    2.87856E+004   -7.48288E+004    2.87432E+005    8.18108E+003    1.28862E+005    3.66713E+003
            4132    4.29458E+005    4.15512E+005    4.15512E+005    1.76459E+003   -2.80979E+004    4.43610E+005   -1.29726E+005    4.27113E+005    5.44869E+004   -9.59172E+003    3.44283E+005    1.62633E+004    1.60188E+005    8.25451E+002
            4133    5.07204E+005    5.11431E+005    5.11431E+005    3.04451E+004   -1.84487E+004    5.29880E+005   -1.74476E+005    5.01860E+005    6.71996E+004    2.87671E+004    4.27461E+005    1.25581E+004    1.92862E+005    5.30974E+003
            4134    5.82148E+005    6.06869E+005    6.06869E+005    7.45038E+004   -1.47538E+004    6.21622E+005   -2.22206E+005    5.66446E+005    8.06094E+004    7.42303E+004    5.11779E+005    1.11676E+004    2.23317E+005    8.43314E+003
            4135    5.09966E+005    5.08844E+005    5.08844E+005    2.81142E+004   -2.60381E+004    5.34882E+005   -1.70307E+005    5.03437E+005    4.60281E+004    2.87215E+004    4.36170E+005    1.64021E+004    1.81164E+005    2.26219E+004
            4136    4.39841E+005    4.07278E+005    4.07278E+005    5.36538E+002   -5.94961E+004    4.66774E+005   -1.16106E+005    4.30479E+005   -5.73952E+003    1.58334E+003    3.52474E+005    1.85262E+004    1.46805E+005    2.59992E+004
            4137    3.84207E+005    3.51971E+005    3.51971E+005   -6.90875E+003   -5.33415E+004    4.05313E+005   -9.72404E+004    3.77817E+005    1.06496E+004   -4.52158E+003    2.85593E+005    1.58416E+004    1.46843E+005    2.69469E+004
            4138    3.30254E+005    2.78960E+005    2.78960E+005   -1.31693E+004   -7.93853E+004    3.58345E+005   -6.21351E+004    3.14795E+005   -1.92775E+004   -1.10095E+004    2.16692E+005    1.37757E+004    1.33172E+005    2.23252E+004
            4139    2.85326E+005    2.35586E+005    2.35586E+005   -1.09950E+004   -7.69377E+004    3.12523E+005   -4.92177E+004    2.67362E+005    3.58543E+003   -8.78425E+003    1.52852E+005    1.01173E+004    1.35942E+005    2.14737E+004
            4140    2.52124E+005    1.81715E+005    1.81715E+005   -8.59919E+003   -1.04235E+005    2.85950E+005   -2.29602E+004    2.04905E+005   -1.47509E+004   -7.00470E+003    9.06363E+004    6.38077E+003    1.31779E+005    1.82307E+004
            4141    2.34276E+005    1.53690E+005    1.53690E+005   -2.57600E+003   -1.15678E+005    2.69368E+005   -1.18119E+004    1.52022E+005    7.54633E+003   -2.19976E+003    3.00890E+004    2.07816E+003    1.33012E+005    1.80084E+004
            4142    4.67191E+005    4.62920E+005    4.62920E+005    1.51388E+004   -2.15217E+004    4.84441E+005   -1.52179E+005    4.63938E+005    5.80614E+004    1.57588E+004    3.82716E+005    1.70458E+004    1.77847E+005    2.29725E+004
            4143    4.06406E+005    3.68554E+005    3.68554E+005   -7.99894E+003   -6.22551E+004    4.30809E+005   -9.94333E+004    3.98136E+005   -6.02064E+003   -6.45159E+003    3.10772E+005    2.02190E+004    1.42675E+005    2.81491E+004
            4144    3.59289E+005    3.29557E+005    3.29557E+005   -2.64186E+003   -5.17667E+004    3.81324E+005   -9.17162E+004    3.51614E+005    1.67603E+004   -9.35405E+001    2.58482E+005    1.93891E+004    1.44849E+005    2.72647E+004
            4145    3.11686E+005    2.58610E+005    2.58610E+005   -1.64742E+004   -7.99173E+004    3.38527E+005   -5.40728E+004    2.96632E+005   -1.71516E+004   -1.33786E+004    1.92748E+005    1.74685E+004    1.30373E+005    2.55673E+004
            4146    2.72993E+005    2.25631E+005    2.25631E+005   -6.54006E+003   -7.51094E+004    3.00741E+005   -4.79940E+004    2.52504E+005    6.43972E+003   -3.69693E+003    1.41239E+005    1.32016E+004    1.32827E+005    2.18604E+004
            4147    2.44542E+005    1.73522E+005    1.73522E+005   -1.27737E+004   -1.03396E+005    2.76918E+005   -1.91175E+004    2.01195E+005   -1.38128E+004   -1.03316E+004    8.14970E+004    8.49747E+003    1.28373E+005    2.14568E+004
            4148    2.27885E+005    1.49828E+005    1.49828E+005    1.62762E+003   -1.12578E+005    2.62405E+005   -1.29592E+004    1.38007E+005    8.08875E+003    2.31354E+003    2.84753E+004    2.75883E+003    1.29326E+005    1.97164E+004
            4149    4.39128E+005    4.28935E+005    4.28935E+005   -1.76701E+003   -1.81604E+004    4.47095E+005   -1.36336E+005    4.38439E+005    7.31103E+004   -1.71546E+003    3.37613E+005    7.11929E+003    1.78473E+005    2.43033E+004
            4150    3.74303E+005    3.41530E+005    3.41530E+005    1.83263E+003   -5.97431E+004    4.01273E+005   -9.45398E+004    3.62645E+005    1.90578E+003    2.81057E+003    2.78903E+005    1.63819E+004    1.43302E+005    2.01164E+004
            4151    3.37453E+005    3.07323E+005    3.07323E+005   -2.96589E+003   -5.19416E+004    3.59265E+005   -8.41385E+004    3.29315E+005    2.37277E+004   -1.52131E+003    2.30209E+005    1.72658E+004    1.45204E+005    2.03486E+004
            4152    2.99576E+005    2.50494E+005    2.50494E+005   -6.64642E+003   -7.84632E+004    3.28957E+005   -5.51280E+004    2.79205E+005   -1.11545E+004   -5.52376E+003    1.82062E+005    1.70953E+004    1.31368E+005    1.65305E+004
            4153    2.62909E+005    2.13671E+005    2.13671E+005   -9.29924E+003   -7.62358E+004    2.89906E+005   -4.27119E+004    2.42601E+005    7.82646E+003   -6.77228E+003    1.27081E+005    1.43292E+004    1.30685E+005    1.90907E+004
            4154    2.35414E+005    1.67591E+005    1.67591E+005   -5.05563E+003   -1.00569E+005    2.68160E+005   -2.06556E+004    1.83537E+005   -1.06922E+004   -3.17026E+003    7.58291E+004    9.38929E+003    1.25894E+005    1.54504E+004
            4155    2.21057E+005    1.43539E+005    1.43539E+005   -2.96011E+003   -1.10735E+005    2.54274E+005   -9.94793E+003    1.41104E+005    7.21116E+003   -2.34819E+003    2.49808E+004    3.17776E+003    1.25919E+005    1.51923E+004
            4156    4.19421E+005    4.26756E+005    4.26756E+005    2.21302E+004   -6.03846E+003    4.32795E+005   -1.47616E+005    4.17284E+005    1.18112E+005    2.05856E+004    3.04151E+005    3.32408E+003    1.93564E+005    2.01128E+004
            4157    3.66327E+005    3.32245E+005    3.32245E+005   -1.47454E+004   -5.07579E+004    3.83003E+005   -8.89140E+004    3.62312E+005    2.23890E+004   -1.49174E+004    2.59270E+005    6.76392E+003    1.50131E+005    5.72452E+003
            4158    3.43401E+005    3.22247E+005    3.22247E+005   -1.21189E+002   -3.88958E+004    3.61142E+005   -9.44099E+004    3.38423E+005    5.09192E+004   -1.67860E+002    2.32478E+005    1.06187E+004    1.55448E+005    9.03187E+003
            4159    2.97310E+005    2.50019E+005    2.50019E+005   -1.49768E+004   -7.14917E+004    3.21511E+005   -5.45169E+004    2.84846E+005    8.88389E+003   -1.39522E+004    1.68619E+005    1.34103E+004    1.38513E+005    1.42805E+004
            4160    2.58997E+005    2.14643E+005    2.14643E+005    4.59506E+002   -7.32076E+004    2.87850E+005   -4.72982E+004    2.33625E+005    2.05165E+004    8.43141E+002    1.20535E+005    1.15247E+004    1.34358E+005    7.44687E+003
            4161    2.32949E+005    1.65491E+005    1.65491E+005   -7.12129E+003   -9.94734E+004    2.64964E+005   -1.96321E+004    1.84442E+005   -3.23583E+003   -6.75745E+003    6.88897E+004    8.55574E+003    1.27140E+005    5.26090E+003
            4162    2.17891E+005    1.41884E+005    1.41884E+005    3.94569E+003   -1.09310E+005    2.51194E+005   -1.21733E+004    1.20513E+005    8.53733E+003    3.99315E+003    2.39894E+004    2.77497E+003    1.25324E+005    1.29840E+003
            4163    2.23909E+005    1.42898E+005    1.42898E+005   -2.14053E+003   -1.14980E+005    2.57878E+005   -8.59250E+003    1.33975E+005    5.23073E+003   -3.32382E+003    2.38706E+004    3.80666E+003    1.27341E+005   -1.69775E+004
            4164    2.40598E+005    1.81858E+005    1.81858E+005    4.30595E+003   -9.19696E+004    2.73827E+005   -3.13980E+004    1.89350E+005    2.29398E+004    1.55500E+003    6.96993E+004    1.01395E+004    1.33434E+005   -1.31812E+004
            4165    2.68610E+005    2.19496E+005    2.19496E+005   -1.02145E+004   -7.58476E+004    2.95343E+005   -4.44779E+004    2.49594E+005    3.43056E+004   -1.25133E+004    1.11641E+005    1.44296E+004    1.41093E+005   -1.90512E+003
            4166    3.06809E+005    2.71771E+005    2.71771E+005   -1.09013E+004   -5.45094E+004    3.26280E+005   -6.87866E+004    2.99718E+005    5.64000E+004   -1.27954E+004    1.62755E+005    1.54611E+004    1.52641E+005    4.41297E+003
            4167    3.48869E+005    3.15424E+005    3.15424E+005   -2.86623E+004   -3.80380E+004    3.53462E+005   -8.29079E+004    3.48585E+005    6.55705E+004   -2.81773E+004    2.11330E+005    1.51295E+004    1.59536E+005    1.79643E+004
            4168    4.16163E+005    4.03938E+005    4.03938E+005   -1.12158E+004   -1.32264E+004    4.17164E+005   -1.26499E+005    4.16152E+005    9.33578E+004   -1.07217E+004    2.96860E+005    8.01720E+003    1.81721E+005    1.29675E+004
            4169    4.08027E+005    3.94582E+005    3.94582E+005    1.10100E+003   -2.65827E+004    4.21164E+005   -1.23033E+005    4.05906E+005    8.63076E+004   -2.37021E+004    3.06494E+005   -6.07318E+003    1.64764E+005    6.51475E+003
            4170    2.18289E+005    1.38847E+005    1.38847E+005   -1.09073E+003   -1.12680E+005    2.51527E+005   -8.35867E+003    1.26302E+005    3.55018E+003   -1.27775E+003    2.28036E+004   -3.30937E+003    1.25301E+005    3.14450E+003
            4171    2.18124E+005    1.43296E+005    1.43296E+005    8.89609E+002   -1.07819E+005    2.51115E+005   -1.21224E+004    1.33622E+005    8.14020E+003    1.35951E+003    2.68675E+004   -3.36384E+003    1.24810E+005   -9.78967E+003
            4172    2.23031E+005    1.46833E+005    1.46833E+005   -1.19109E+003   -1.09688E+005    2.56521E+005   -1.19848E+004    1.42906E+005    8.80855E+003   -4.43971E+002    2.75899E+004   -3.37164E+003    1.26665E+005   -1.79282E+004
            4173    2.29422E+005    1.52496E+005    1.52496E+005   -4.28781E+002   -1.11303E+005    2.63799E+005   -1.35881E+004    1.48621E+005    8.64725E+003    2.84387E+002    3.18327E+004   -2.98486E+003    1.29793E+005   -2.05573E+004
            4174    2.34309E+005    1.55942E+005    1.55942E+005   -1.12218E+003   -1.13374E+005    2.69317E+005   -1.38154E+004    1.53903E+005    8.70848E+003   -6.64216E+002    3.34019E+004   -2.31975E+003    1.32786E+005   -1.87914E+004
            4175    2.37778E+005    1.58678E+005    1.58678E+005   -8.25066E+002   -1.14613E+005    2.73291E+005   -1.44132E+004    1.56448E+005    8.76139E+003   -6.09327E+002    3.50874E+004   -1.56863E+003    1.35359E+005   -1.33870E+004
            4176    2.39275E+005    1.59883E+005    1.59883E+005   -1.51269E+002   -1.15183E+005    2.75066E+005   -1.48495E+004    1.56311E+005    8.93264E+003   -1.23674E+002    3.57395E+004   -5.18257E+002    1.36757E+005   -5.80487E+003
            4177    2.39482E+005    1.59112E+005    1.59112E+005   -1.52969E+003   -1.16138E+005    2.75250E+005   -1.38146E+004    1.57558E+005    8.46325E+003   -1.52032E+003    3.45009E+004    3.19771E+002    1.36973E+005    3.12407E+003
            4178    2.37647E+005    1.57996E+005    1.57996E+005    8.67021E+002   -1.15400E+005    2.73395E+005   -1.44876E+004    1.50773E+005    8.75430E+003    1.03808E+003    3.36704E+004    1.35532E+003    1.35658E+005    1.13842E+004
            4179    2.34140E+005    1.72814E+005    1.72814E+005   -1.28440E+003   -9.33691E+004    2.66183E+005   -2.60535E+004    1.86322E+005    7.16575E+003   -1.54038E+003    7.25353E+004   -8.10754E+003    1.28719E+005   -3.69838E+002
            4180    2.34055E+005    1.66782E+005    1.66782E+005   -7.74180E+003   -9.91908E+004    2.65973E+005   -1.99499E+004    1.87006E+005   -8.48066E+003   -6.36206E+003    7.46923E+004   -9.65493E+003    1.25584E+005   -1.21319E+004
            4181    2.41132E+005    1.72918E+005    1.72918E+005   -9.59548E+003   -1.00440E+005    2.73359E+005   -2.09608E+004    1.96695E+005   -1.30213E+004   -7.09028E+003    8.29941E+004   -9.83418E+003    1.26528E+005   -1.95096E+004
            4182    2.48820E+005    1.79158E+005    1.79158E+005   -1.17297E+004   -1.02251E+005    2.81409E+005   -2.17258E+004    2.06575E+005   -1.48749E+004   -9.29303E+003    8.93454E+004   -8.46079E+003    1.29084E+005   -2.15843E+004
            4183    2.55658E+005    1.85404E+005    1.85404E+005   -1.13315E+004   -1.03575E+005    2.88979E+005   -2.34991E+004    2.13077E+005   -1.63626E+004   -9.56412E+003    9.64240E+004   -6.79342E+003    1.31775E+005   -1.93967E+004
            4184    2.60091E+005    1.89284E+005    1.89284E+005   -1.11751E+004   -1.04618E+005    2.93903E+005   -2.44969E+004    2.17197E+005   -1.67912E+004   -1.03903E+004    1.00672E+005   -4.19163E+003    1.34086E+005   -1.37896E+004
            4185    2.61855E+005    1.90293E+005    1.90293E+005   -1.13618E+004   -1.05648E+005    2.95941E+005   -2.44276E+004    2.18447E+005   -1.73804E+004   -1.12423E+004    1.01906E+005   -1.62147E+003    1.35322E+005   -5.44602E+003
            4186    2.61219E+005    1.90139E+005    1.90139E+005   -9.71946E+003   -1.05438E+005    2.95577E+005   -2.49939E+004    2.16119E+005   -1.65909E+004   -9.66186E+003    1.01235E+005    1.30551E+003    1.35500E+005    3.42022E+003
            4187    2.58080E+005    1.85787E+005    1.85787E+005   -1.21788E+004   -1.06101E+005    2.91888E+005   -2.25026E+004    2.14228E+005   -1.67716E+004   -1.14873E+004    9.57665E+004    4.00035E+003    1.34122E+005    1.28189E+004
            4188    2.62535E+005    2.14470E+005    2.14470E+005   -6.35972E+003   -7.58064E+004    2.90277E+005   -4.41014E+004    2.40534E+005    1.78293E+004   -6.26813E+003    1.20743E+005   -1.21580E+004    1.35036E+005   -6.45131E+003
            4189    2.64020E+005    2.18489E+005    2.18489E+005   -4.61722E+003   -7.29933E+004    2.91482E+005   -4.69595E+004    2.42873E+005    1.17798E+004   -2.92149E+003    1.32020E+005   -1.41869E+004    1.31612E+005   -1.52312E+004
            4190    2.71823E+005    2.25204E+005    2.25204E+005   -9.55888E+003   -7.26001E+004    2.97804E+005   -4.76817E+004    2.54584E+005    8.57480E+003   -6.50680E+003    1.40977E+005   -1.50953E+004    1.31642E+005   -2.20640E+004
            4191    2.83416E+005    2.36952E+005    2.36952E+005   -8.78405E+003   -7.30931E+004    3.10045E+005   -5.16915E+004    2.66247E+005    5.99929E+003   -5.85028E+003    1.54925E+005   -1.28779E+004    1.34281E+005   -2.34416E+004
            4192    2.92802E+005    2.45480E+005    2.45480E+005   -1.02649E+004   -7.39100E+004    3.19390E+005   -5.37683E+004    2.76589E+005    4.11471E+003   -8.15494E+003    1.65345E+005   -1.03552E+004    1.36596E+005   -2.09124E+004
            4193    2.99808E+005    2.52537E+005    2.52537E+005   -9.40410E+003   -7.44560E+004    3.26993E+005   -5.62257E+004    2.83269E+005    3.60714E+003   -8.51461E+003    1.73585E+005   -6.45721E+003    1.39122E+005   -1.40871E+004
            4194    3.02335E+005    2.54845E+005    2.54845E+005   -8.90251E+003   -7.51054E+004    3.29950E+005   -5.69457E+004    2.85335E+005    2.93647E+003   -8.78910E+003    1.76690E+005   -2.10451E+003    1.40171E+005   -5.31416E+003
            4195    3.00719E+005    2.52299E+005    2.52299E+005   -9.89101E+003   -7.59613E+004    3.28260E+005   -5.54823E+004    2.83691E+005    2.89998E+003   -9.77463E+003    1.73321E+005    2.22250E+003    1.40203E+005    5.25118E+003
            4196    2.94760E+005    2.46993E+005    2.46993E+005   -8.24893E+003   -7.56215E+004    3.22614E+005   -5.43741E+004    2.76629E+005    3.69280E+003   -7.32235E+003    1.66752E+005    6.75990E+003    1.38630E+005    1.39797E+004
            4197    3.03478E+005    2.65602E+005    2.65602E+005   -9.19718E+003   -6.01133E+004    3.25716E+005   -6.54306E+004    2.93637E+005    2.71290E+004   -8.70404E+003    1.77867E+005   -1.22690E+004    1.43599E+005   -1.12253E+004
            4198    3.04625E+005    2.56186E+005    2.56186E+005   -1.10692E+004   -7.55005E+004    3.31687E+005   -5.65389E+004    2.88691E+005   -5.41843E+003   -9.92213E+003    1.84957E+005   -1.68276E+004    1.34120E+005   -1.69465E+004
            4199    3.16442E+005    2.66478E+005    2.66478E+005   -1.24456E+004   -7.74015E+004    3.43880E+005   -5.88770E+004    3.00889E+005   -1.41614E+004   -1.00544E+004    2.00847E+005   -1.87606E+004    1.31720E+005   -2.35679E+004
            4200    3.30671E+005    2.79736E+005    2.79736E+005   -1.46812E+004   -7.80246E+004    3.57761E+005   -6.23435E+004    3.16587E+005   -1.79027E+004   -1.20115E+004    2.16945E+005   -1.60794E+004    1.32768E+005   -2.50413E+004
            4201    3.44747E+005    2.93391E+005    2.93391E+005   -1.44670E+004   -7.90979E+004    3.72489E+005   -6.66086E+004    3.30702E+005   -2.10164E+004   -1.25394E+004    2.33381E+005   -1.32199E+004    1.34467E+005   -2.19774E+004
            4202    3.54099E+005    3.02910E+005    3.02910E+005   -1.47323E+004   -7.88759E+004    3.81786E+005   -6.97674E+004    3.40658E+005   -2.13771E+004   -1.38712E+004    2.44550E+005   -7.72686E+003    1.36332E+005   -1.49437E+004
            4203    3.57418E+005    3.05465E+005    3.05465E+005   -1.51367E+004   -7.99105E+004    3.85376E+005   -7.01393E+004    3.43839E+005   -2.26844E+004   -1.50631E+004    2.48165E+005   -2.23060E+003    1.37017E+005   -4.40260E+003
            4204    3.54118E+005    3.02863E+005    3.02863E+005   -1.40189E+004   -7.93830E+004    3.82246E+005   -6.98205E+004    3.40146E+005   -2.15818E+004   -1.38769E+004    2.44920E+005    3.82226E+003    1.36885E+005    6.14895E+003
            4205    3.44606E+005    2.91413E+005    2.91413E+005   -1.67149E+004   -8.07022E+004    3.72115E+005   -6.46653E+004    3.30842E+005   -2.22013E+004   -1.55806E+004    2.31778E+005    9.51323E+003    1.35114E+005    1.68021E+004
            4206    3.44716E+005    3.16422E+005    3.16422E+005   -1.01919E+004   -4.39175E+004    3.60340E+005   -8.74375E+004    3.40975E+005    4.38886E+004   -1.00299E+004    2.28454E+005   -1.30536E+004    1.53739E+005   -1.27574E+004
            4207    3.50722E+005    3.26326E+005    3.26326E+005    1.01792E+003   -4.52223E+004    3.71548E+005   -9.40406E+004    3.43764E+005    3.32073E+004    2.08170E+003    2.46833E+005   -1.57709E+004    1.50531E+005   -1.85015E+004
            4208    3.64137E+005    3.36247E+005    3.36247E+005   -3.06215E+003   -4.84612E+004    3.84708E+005   -9.49078E+004    3.57687E+005    2.20421E+004   -1.18275E+003    2.63864E+005   -1.97286E+004    1.47007E+005   -2.55722E+004
            4209    3.85868E+005    3.58424E+005    3.58424E+005   -9.99643E+002   -4.93344E+004    4.07758E+005   -1.02697E+005    3.78967E+005    1.60236E+004    1.35223E+003    2.90714E+005   -1.74440E+004    1.48365E+005   -2.73554E+004
            4210    4.06715E+005    3.77084E+005    3.77084E+005   -3.05491E+003   -5.18112E+004    4.28895E+005   -1.07406E+005    4.00061E+005    1.01247E+004   -1.38397E+003    3.13477E+005   -1.43650E+004    1.49910E+005   -2.40336E+004
            4211    4.21295E+005    3.91974E+005    3.91974E+005   -1.55847E+003   -5.24576E+004    4.44432E+005   -1.12653E+005    4.14292E+005    7.89020E+003   -9.43157E+002    3.31011E+005   -8.52063E+003    1.51952E+005   -1.48711E+004
            4212    4.26687E+005    3.96518E+005    3.96518E+005   -1.52926E+003   -5.39636E+004    4.50481E+005   -1.13675E+005    4.19347E+005    5.64967E+003   -1.48200E+003    3.36857E+005   -1.88282E+003    1.52635E+005   -4.00328E+003
            4213    4.21066E+005    3.90161E+005    3.90161E+005   -3.20722E+003   -5.39955E+004    4.44156E+005   -1.10986E+005    4.14091E+005    6.09890E+003   -3.00151E+003    3.29861E+005    5.02137E+003    1.51817E+005    8.65702E+003
            4214    4.06697E+005    3.75789E+005    3.75789E+005   -3.49233E+003   -5.36674E+004    4.29457E+005   -1.06210E+005    3.99645E+005    7.64944E+003   -2.52103E+003    3.13501E+005    1.15603E+004    1.49664E+005    1.86597E+004
            4215    3.91138E+005    3.72963E+005    3.72963E+005   -5.50143E+003   -2.97232E+004    4.02686E+005   -1.12579E+005    3.89445E+005    5.83678E+004   -4.94548E+003    2.84316E+005   -7.13917E+003    1.66319E+005   -1.27016E+004
            4216    3.88377E+005    3.56520E+005    3.56520E+005   -2.41544E+003   -5.57798E+004    4.12299E+005   -9.94414E+004    3.79997E+005    9.51373E+003   -2.20851E+003    2.91019E+005   -1.37988E+004    1.49323E+005   -1.51678E+004
            4217    4.11865E+005    3.80319E+005    3.80319E+005    3.05706E+003   -5.90879E+004    4.39406E+005   -1.08096E+005    4.01114E+005   -3.13234E+002    4.09817E+003    3.20503E+005   -1.94658E+004    1.47346E+005   -2.47436E+004
            4218    4.42626E+005    4.11249E+005    4.11249E+005    1.65275E+003   -5.82950E+004    4.69544E+005   -1.18202E+005    4.33351E+005   -3.55231E+003    3.34811E+003    3.54811E+005   -1.81608E+004    1.48916E+005   -2.82912E+004
            4219    4.72434E+005    4.43438E+005    4.43438E+005    6.40739E+003   -5.78259E+004    5.01264E+005   -1.30673E+005    4.62456E+005   -4.70715E+003    7.31744E+003    3.89409E+005   -1.55895E+004    1.52831E+005   -2.35178E+004
            4220    4.91121E+005    4.64401E+005    4.64401E+005    9.18934E+003   -5.60985E+004    5.20500E+005   -1.39164E+005    4.81213E+005   -3.76861E+003    9.60479E+003    4.11656E+005   -8.64198E+003    1.56131E+005   -1.46619E+004
            4221    4.97615E+005    4.71165E+005    4.71165E+005    1.03458E+004   -5.64896E+004    5.27655E+005   -1.41674E+005    4.87363E+005   -4.62853E+003    1.03565E+004    4.19293E+005   -1.30709E+003    1.57075E+005   -2.31146E+003
            4222    4.90713E+005    4.64096E+005    4.64096E+005    9.61981E+003   -5.62072E+004    5.20304E+005   -1.39170E+005    4.80629E+005   -4.12494E+003    9.72143E+003    4.11913E+005    6.61697E+003    1.55867E+005    9.41752E+003
            4223    4.71375E+005    4.40588E+005    4.40588E+005    3.66579E+003   -5.89753E+004    4.99563E+005   -1.28426E+005    4.61871E+005   -6.34757E+003    4.27490E+003    3.87351E+005    1.38129E+004    1.52152E+005    2.03419E+004
            4224    4.20253E+005    4.11137E+005    4.11137E+005   -1.45635E+003   -1.63775E+004    4.27515E+005   -1.31101E+005    4.19656E+005    7.99855E+004   -2.12826E+003    3.15446E+005   -9.27170E+003    1.77559E+005   -9.20117E+003
            4225    4.45489E+005    4.50730E+005    4.50730E+005    2.06532E+004   -8.71715E+003    4.59447E+005   -1.54222E+005    4.43303E+005    9.14204E+004    2.10305E+004    3.50215E+005   -5.98977E+003    1.88783E+005   -2.07294E+004
            4226    4.73877E+005    4.72555E+005    4.72555E+005    1.68825E+004   -1.76375E+004    4.90193E+005   -1.57267E+005    4.71036E+005    6.47392E+004    1.86467E+004    3.88414E+005   -1.34568E+004    1.82778E+005   -2.57143E+004
            4227    5.14249E+005    5.17967E+005    5.17967E+005    3.26984E+004   -2.10416E+004    5.39008E+005   -1.76541E+005    5.07874E+005    5.40684E+004    3.35085E+004    4.42047E+005   -1.68596E+004    1.85256E+005   -2.38965E+004
            4228    5.53352E+005    5.59241E+005    5.59241E+005    4.42569E+004   -2.58062E+004    5.85047E+005   -1.92564E+005    5.43239E+005    4.42912E+004    4.48330E+004    4.88567E+005   -1.41455E+004    1.89033E+005   -2.04742E+004
            4229    5.82547E+005    5.91592E+005    5.91592E+005    5.31673E+004   -2.68131E+004    6.18405E+005   -2.05982E+005    5.69998E+005    3.98965E+004    5.33577E+004    5.24692E+005   -8.57896E+003    1.91481E+005   -1.24260E+004
            4230    5.93420E+005    6.02104E+005    6.02104E+005    5.47089E+004   -2.85487E+004    6.30652E+005   -2.09421E+005    5.80062E+005    3.68010E+004    5.47126E+004    5.36750E+005   -2.56297E+002    1.92202E+005   -1.57591E+003
            4231    5.81575E+005    5.89232E+005    5.89232E+005    5.16847E+004   -2.81259E+004    6.17358E+005   -2.04264E+005    5.69058E+005    3.75707E+004    5.18075E+004    5.23413E+005    7.64685E+003    1.90070E+005    1.07370E+004
            4232    5.50077E+005    5.55230E+005    5.55230E+005    4.45136E+004   -2.71780E+004    5.82408E+005   -1.90855E+005    5.39416E+005    4.10293E+004    4.47364E+004    4.86800E+005    1.42149E+004    1.86112E+005    1.81963E+004
            4233    6.62084E+005    7.01973E+005    7.01973E+005    1.08140E+005   -1.19290E+004    7.13902E+005   -2.66062E+005    6.36895E+005    9.47856E+004    1.08329E+005    5.95070E+005    8.59525E+003    2.54351E+005    1.09398E+004
            4234    7.18921E+005    7.71895E+005    7.71895E+005    1.34922E+005   -7.62029E+003    7.79515E+005   -2.99732E+005    6.86039E+005    1.08055E+005    1.34999E+005    6.56141E+005    5.35455E+003    2.77044E+005    6.97204E+003
            4235    7.41842E+005    8.00180E+005    8.00180E+005    1.44907E+005   -5.25643E+003    8.05436E+005   -3.13277E+005    7.06424E+005    1.14035E+005    1.44906E+005    6.80889E+005   -1.78262E+002    2.86096E+005    2.37177E+002
            4236    7.20112E+005    7.72909E+005    7.72909E+005    1.34266E+005   -7.56635E+003    7.80475E+005   -2.99870E+005    6.87625E+005    1.08890E+005    1.34371E+005    6.56348E+005   -5.03204E+003    2.78030E+005   -7.59176E+003
            4237    6.64501E+005    7.05142E+005    7.05142E+005    1.08407E+005   -1.09486E+004    7.16090E+005   -2.67533E+005    6.39715E+005    9.66225E+004    1.08528E+005    5.97450E+005   -8.55115E+003    2.55631E+005   -9.88238E+003
            4238    5.91262E+005    6.13783E+005    6.13783E+005    7.05002E+004   -1.59414E+004    6.29724E+005   -2.22781E+005    5.76789E+005    8.09316E+004    7.03884E+004    5.17022E+005   -1.03924E+004    2.26659E+005   -9.32068E+003
            4239    5.14934E+005    5.20065E+005    5.20065E+005    3.19723E+004   -1.80578E+004    5.38123E+005   -1.77993E+005    5.09423E+005    6.77463E+004    3.02777E+004    4.35956E+005   -1.30429E+004    1.94732E+005   -5.94959E+003
            4240    4.49369E+005    4.31167E+005    4.31167E+005   -1.25265E+004   -2.36699E+004    4.54837E+005   -1.31657E+005    4.49058E+005    5.22227E+004   -1.66945E+004    3.59442E+005   -9.59438E+003    1.64458E+005   -8.37896E+003
            4241    4.50134E+005    4.43260E+005    4.43260E+005    6.32303E+003   -1.90014E+004    4.62261E+005   -1.43527E+005    4.48527E+005    9.48096E+004   -1.10997E+004    3.46872E+005    5.88368E+003    1.83024E+005   -1.38528E+004
            4242    2.24783E+005    1.45754E+005    1.45754E+005    2.47194E+003   -1.13317E+005    2.59071E+005   -1.16366E+004    1.27515E+005    8.80962E+003    1.26721E+003    2.48330E+004   -3.46501E+003    1.27753E+005    1.91008E+004
            4243    2.41916E+005    1.81094E+005    1.81094E+005   -1.81403E+003   -9.32040E+004    2.74298E+005   -2.86919E+004    1.97045E+005    2.12781E+004   -4.82456E+003    6.96222E+004   -1.04533E+004    1.33408E+005    1.31907E+004
            4244    2.72724E+005    2.27981E+005    2.27981E+005   -6.48402E+003   -7.13175E+004    2.99299E+005   -5.00599E+004    2.54504E+005    4.17336E+004   -9.60908E+003    1.18055E+005   -1.37058E+004    1.43008E+005    5.21424E+003
            4245    3.07940E+005    2.69580E+005    2.69580E+005   -1.91020E+004   -5.45502E+004    3.24130E+005   -6.53092E+004    3.03299E+005    5.52474E+004   -2.13322E+004    1.62013E+005   -1.60540E+004    1.51121E+005   -5.83421E+003
            4246    3.56549E+005    3.28999E+005    3.28999E+005   -2.10338E+004   -3.37281E+004    3.62727E+005   -9.14123E+004    3.56040E+005    7.70641E+004   -2.39894E+004    2.21162E+005   -1.40680E+004    1.63948E+005   -1.09347E+004
            4247    3.88418E+005    3.69942E+005    3.69942E+005   -1.40117E+004   -2.27921E+004    3.92734E+005   -1.11046E+005    3.88195E+005    8.58792E+004   -1.84594E+004    2.65718E+005   -1.31859E+004    1.71081E+005   -1.35189E+004
            4248    4.53172E+005    4.48070E+005    4.48070E+005    1.83422E+003   -1.17330E+004    4.59803E+005   -1.46057E+005    4.52714E+005    1.11436E+005   -6.79152E+003    3.33527E+005   -5.37950E+003    1.95217E+005   -2.15155E+004
            4249    1.18796E+005    6.15338E+004   -7.53257E+004    1.13573E+003   -7.53257E+004    1.36860E+005    4.21870E+003   -6.96558E+004    6.12013E+003    3.23460E+002   -1.90997E+004   -2.94564E+003    6.66531E+004    8.85121E+003
            4250    1.29081E+005    6.74530E+004   -8.03361E+004    1.03118E+004   -8.03361E+004    1.47789E+005    8.57117E+002   -9.35465E+004    1.02373E+004    8.39159E+003   -2.12002E+004   -2.88570E+003    6.84189E+004    2.35215E+004
            4251    1.36965E+005    6.91841E+004   -8.80423E+004    5.37644E+003   -8.80423E+004    1.57226E+005    4.49394E+003   -9.36084E+004    9.48502E+003    3.20093E+003   -2.61678E+004   -2.36783E+003    7.21017E+004    2.62041E+004
            4252    1.41337E+005    7.23569E+004   -8.94902E+004    9.60836E+003   -8.94902E+004    1.61847E+005    2.50833E+003   -1.02127E+005    1.19268E+004    8.39826E+003   -2.78500E+004   -1.72999E+003    7.52347E+004    2.25988E+004
            4253    1.34604E+005    4.05406E+004   -1.06262E+005    1.13545E+004   -1.06262E+005    1.46803E+005    1.81222E+004   -1.27189E+005   -6.34314E+003    9.34838E+003   -5.73720E+004   -7.52587E+003    6.76595E+004    1.37111E+004
            4254    1.44197E+005    3.83607E+004   -1.18087E+005    9.49004E+003   -1.18087E+005    1.56448E+005    2.34121E+004   -1.37467E+005   -8.55188E+003    5.81760E+003   -6.75021E+004   -8.44065E+003    6.87361E+004    2.50087E+004
            4255    1.57758E+005    4.25098E+004   -1.27561E+005    1.39954E+004   -1.27561E+005    1.70071E+005    2.36852E+004   -1.51797E+005   -6.94187E+003    1.20912E+004   -7.62050E+004   -6.64554E+003    7.25546E+004    2.87790E+004
            4256    1.63431E+005    3.93100E+004   -1.37038E+005    9.32215E+003   -1.37038E+005    1.76348E+005    2.94687E+004   -1.57061E+005   -8.50988E+003    7.79471E+003   -8.76909E+004   -5.23418E+003    7.55669E+004    2.35930E+004
            4257    1.67418E+005    4.09579E+004   -1.37859E+005    1.51671E+004   -1.37859E+005    1.78817E+005    2.72447E+004   -1.62859E+005    8.01062E+003    1.29158E+004   -1.02661E+005   -1.22883E+004    6.80614E+004    1.69683E+004
            4258    1.83448E+005    4.34913E+004   -1.46212E+005    3.02640E+004   -1.46212E+005    1.89703E+005    2.41522E+004   -1.82370E+005    1.42927E+004    2.37752E+004   -1.10525E+005   -1.35758E+004    6.70486E+004    3.03355E+004
            4259    1.96913E+005    4.24747E+004   -1.63289E+005    2.33838E+004   -1.63289E+005    2.05763E+005    3.24767E+004   -1.94815E+005    1.39736E+004    1.79421E+004   -1.29346E+005   -1.08012E+004    6.98733E+004    2.97376E+004
            4260    2.11560E+005    4.54193E+004   -1.74603E+005    2.73353E+004   -1.74603E+005    2.20022E+005    3.39494E+004   -2.09811E+005    1.73815E+004    2.33847E+004   -1.42614E+005   -8.57591E+003    7.23368E+004    2.73504E+004
            4261    2.07063E+005    2.80072E+004   -1.83479E+005    1.88576E+004   -1.83479E+005    2.11486E+005    4.55380E+004   -2.06607E+005   -1.28059E+004    2.34876E+004   -1.47296E+005   -1.35097E+004    7.40274E+004    2.31047E+004
            4262    2.16478E+005    2.71157E+004   -1.96139E+005    1.28564E+004   -1.96139E+005    2.23255E+005    5.20558E+004   -2.15418E+005   -1.20410E+004    1.87840E+004   -1.62910E+005   -1.80201E+004    7.00234E+004    3.06401E+004
            4263    2.35581E+005    2.87797E+004   -2.12225E+005    1.75279E+004   -2.12225E+005    2.41005E+005    5.53058E+004   -2.34975E+005   -9.76219E+003    2.25703E+004   -1.78726E+005   -1.39950E+004    7.32565E+004    3.53743E+004
            4264    2.55258E+005    2.40763E+004   -2.35173E+005    1.58981E+004   -2.35173E+005    2.59249E+005    6.50662E+004   -2.54963E+005   -9.42826E+003    1.95924E+004   -2.05363E+005   -1.19560E+004    7.53212E+004    3.04932E+004
            4265    2.59360E+005    3.67452E+004   -2.30081E+005    2.11065E+004   -2.30081E+005    2.66826E+005    5.74097E+004   -2.58297E+005    7.24990E+003    2.55900E+004   -2.05069E+005   -1.34444E+004    7.42254E+004    1.72017E+004
            4266    2.66475E+005    4.89262E+004   -2.26876E+005    2.91729E+004   -2.26876E+005    2.75802E+005    4.95923E+004   -2.64820E+005    1.98722E+004    3.38640E+004   -2.02513E+005   -1.96318E+004    6.78968E+004    3.29665E+004
            4267    2.92021E+005    4.18929E+004   -2.57142E+005    2.73207E+004   -2.57142E+005    2.99035E+005    6.26427E+004   -2.91202E+005    1.86951E+004    2.78524E+004   -2.34476E+005   -1.67360E+004    6.80221E+004    3.67765E+004
            4268    3.19725E+005    4.37369E+004   -2.82217E+005    3.08919E+004   -2.82217E+005    3.25954E+005    6.91961E+004   -3.19144E+005    2.29022E+004    3.14568E+004   -2.61947E+005   -1.42024E+004    6.96580E+004    3.37299E+004
            4269    2.79351E+005    2.27344E+004   -2.70922E+005   -8.50127E+003   -2.70922E+005    2.93657E+005    8.55630E+004   -2.75382E+005   -4.28560E+004    2.13248E+004   -2.35158E+005   -9.61549E+003    8.90914E+004    1.29982E+004
            4270    2.98678E+005    2.66854E+004   -2.87473E+005   -7.15919E+003   -2.87473E+005    3.14159E+005    8.93157E+004   -2.94317E+005   -3.22505E+004    1.92786E+004   -2.54975E+005   -2.03861E+004    8.22643E+004    3.61532E+004
            4271    3.34563E+005    3.20686E+004   -3.18528E+005   -2.71782E+003   -3.18528E+005    3.50597E+005    9.63925E+004   -3.30457E+005   -2.52715E+004    2.56601E+004   -2.89566E+005   -1.75380E+004    8.23788E+004    3.97664E+004
            4272    3.67744E+005    2.21505E+004   -3.57096E+005   -2.05074E+003   -3.57096E+005    3.79247E+005    1.12332E+005   -3.65946E+005   -2.12637E+004    1.64222E+004   -3.32155E+005   -1.55845E+004    8.36965E+004    3.51271E+004
            4273    3.07368E+005    4.94866E+004   -2.70820E+005    2.17248E+004   -2.70820E+005    3.20307E+005    6.65363E+004   -3.04528E+005    3.35450E+004    2.12575E+004   -2.54411E+005   -4.15218E+003    6.94418E+004    1.19031E+004
            4274    3.53520E+005    5.33152E+004   -3.09515E+005    3.38943E+004   -3.09515E+005    3.62830E+005    7.41018E+004   -3.52317E+005    2.31788E+004    4.50711E+004   -2.90555E+005   -1.50437E+004    7.41106E+004    2.60997E+004
            4275    3.84689E+005    3.93032E+004   -3.55279E+005    1.86880E+004   -3.55279E+005    3.94582E+005    9.90959E+004   -3.83443E+005    1.48827E+004    2.53889E+004   -3.37559E+005   -1.63174E+004    7.45961E+004    2.86619E+004
            4276    4.29561E+005    3.23233E+004   -4.09117E+005    7.48753E+003   -4.09117E+005    4.41440E+005    1.23102E+005   -4.27941E+005    1.04335E+004    1.17955E+004   -3.91535E+005   -1.68774E+004    7.94755E+004    2.93889E+004
            4277    4.80873E+005   -5.19430E+003   -5.02109E+005   -3.90706E+004   -5.02109E+005    4.96915E+005    1.82125E+005   -4.78177E+005   -4.18141E+004   -3.68689E+004   -4.67691E+005   -1.37405E+004    1.24541E+005    1.45937E+004
            4278    4.22148E+005    2.08674E+003   -4.32852E+005   -2.47768E+004   -4.32852E+005    4.34938E+005    1.51847E+005   -4.20219E+005   -5.99750E+004   -7.90162E+002   -3.94777E+005   -1.19315E+004    1.18163E+005    1.27064E+004
            4279    3.79810E+005    2.55554E+004   -3.82849E+005   -4.02263E+004   -3.82849E+005    4.08404E+005    1.32507E+005   -3.66664E+005   -8.90830E+004    2.53973E+004   -3.33834E+005   -4.25215E+003    1.19892E+005    4.12649E+003
            4280    4.08841E+005    7.07644E+004   -3.87180E+005   -5.88799E+004   -3.87180E+005    4.57945E+005    1.25099E+005   -3.58015E+005   -1.29596E+005    6.99367E+004   -3.15636E+005    1.07601E+004    1.35712E+005    1.28871E+003
            4281    1.24525E+005    6.04386E+004   -8.25012E+004    2.47932E+003   -8.25012E+004    1.42940E+005    6.52776E+003   -8.52077E+004   -4.09641E+003    3.61380E+003   -1.91007E+004   -2.45750E+003    6.98343E+004   -1.23488E+004
            4282    1.42322E+005    4.45439E+004   -1.15295E+005   -2.29824E+003   -1.15295E+005    1.59839E+005    2.43497E+004   -1.23096E+005   -1.29387E+004   -1.54478E+002   -5.99560E+004   -6.23065E+003    7.51770E+004   -8.34815E+003
            4283    1.75607E+005    2.97352E+004   -1.53979E+005    1.22061E+004   -1.53979E+005    1.83714E+005    3.73458E+004   -1.73622E+005   -2.75633E+004    1.31465E+004   -9.76208E+004   -7.62372E+003    8.40884E+004    3.34253E+003
            4284    2.13654E+005    1.57438E+004   -2.00548E+005    1.03653E+004   -2.00548E+005    2.16292E+005    5.81464E+004   -2.13501E+005   -4.07776E+004    1.49103E+004   -1.48572E+005   -6.10142E+003    9.05960E+004    7.95225E+003
            4285    2.66562E+005    3.12188E+004   -2.52303E+005   -6.78021E+003   -2.52303E+005    2.83522E+005    7.59550E+004   -2.60364E+005   -5.77602E+004    2.84455E+004   -1.98550E+005   -2.36526E+003    1.00664E+005    2.03984E+004
            4286    3.19231E+005    1.77588E+004   -3.21253E+005   -2.64026E+004   -3.21253E+005    3.39012E+005    1.09966E+005   -3.12247E+005   -6.30997E+004    1.65109E+004   -2.83308E+005    4.88080E+003    9.88657E+004    7.13849E+003
            4287    3.65146E+005    2.53628E+004   -3.66670E+005   -3.62492E+004   -3.66670E+005    3.92033E+005    1.25852E+005   -3.53167E+005   -8.26309E+004    2.37400E+004   -3.18665E+005    1.05277E+004    1.16712E+005    2.35750E+001
            4288    5.51210E+005    3.60086E+003   -5.78486E+005   -6.44780E+004   -5.78486E+005    5.82087E+005    2.13121E+005   -5.41630E+005   -3.09026E+004   -6.39463E+004   -5.44514E+005   -1.27899E+004    1.35070E+005    1.51956E+004
            4289    6.06397E+005    8.29199E+003   -6.40592E+005   -8.82702E+004   -6.40592E+005    6.48884E+005    2.40190E+005   -5.88726E+005   -2.63219E+004   -8.81971E+004   -6.06051E+005   -7.42147E+003    1.45214E+005    9.06597E+003
            4290    6.29511E+005    9.76113E+003   -6.66362E+005   -9.71552E+004   -6.66362E+005    6.76123E+005    2.51252E+005   -6.08580E+005   -2.50142E+004   -9.71548E+004   -6.31587E+005   -3.14118E+002    1.49341E+005    2.77185E+002
            4291    6.08403E+005    8.69100E+003   -6.42369E+005   -8.82692E+004   -6.42369E+005    6.51060E+005    2.40649E+005   -5.90644E+005   -2.61972E+004   -8.81989E+004   -6.07551E+005    7.58741E+003    1.45999E+005   -9.34693E+003
            4292    5.53615E+005    2.98200E+003   -5.81679E+005   -6.54768E+004   -5.81679E+005    5.84661E+005    2.14724E+005   -5.43970E+005   -3.19416E+004   -6.49132E+004   -5.47319E+005    1.24587E+004    1.36267E+005   -1.42559E+004
            4293    4.85385E+005   -5.61950E+003   -5.05355E+005   -3.57214E+004   -5.05355E+005    4.99735E+005    1.82232E+005   -4.83278E+005   -4.39161E+004   -3.30006E+004   -4.69779E+005    1.40173E+004    1.26772E+005   -1.49308E+004
            4294    4.26546E+005    6.14651E+003   -4.36094E+005   -2.71996E+004   -4.36094E+005    4.42241E+005    1.52382E+005   -4.23599E+005   -6.37598E+004    3.67732E+003   -3.97065E+005    1.22984E+004    1.19507E+005   -1.32281E+004
            4295    3.96228E+005    2.98709E+004   -3.98213E+005   -4.43349E+004   -3.98213E+005    4.28084E+005    1.37559E+005   -3.80120E+005   -9.53333E+004    2.92241E+004   -3.46568E+005   -1.97510E+003    1.24804E+005   -1.04875E+004
            4296    3.86762E+005    2.13262E+004   -3.90982E+005   -3.62132E+004   -3.90982E+005    4.12309E+005    1.35290E+005   -3.76952E+005   -7.95891E+004    2.04007E+004   -3.46681E+005   -4.57744E+003    1.17343E+005   -7.57078E+003
            4297    4.66596E+005    2.25482E+004   -4.58447E+005   -7.72248E+003   -4.58447E+005    4.80995E+005    1.47874E+005   -4.64379E+005    5.26648E+003   -6.90561E+003   -4.41982E+005   -1.24254E+004    8.32788E+004    2.38594E+004
            4298    3.98829E+005    1.55342E+004   -3.90843E+005   -1.83402E+001   -3.90843E+005    4.06377E+005    1.25109E+005   -3.98145E+005   -1.88472E+004    1.21510E+004   -3.68631E+005   -1.07680E+004    8.67240E+004    2.58257E+004
            4299    3.40880E+005    3.84843E+004   -3.08105E+005    2.67630E+004   -3.08105E+005    3.46589E+005    8.09526E+004   -3.40426E+005    2.12835E+004    2.67485E+004   -2.90890E+005   -9.30895E+003    7.10863E+004    2.30313E+004
            4300    2.70401E+005    2.40075E+004   -2.50243E+005    1.61364E+004   -2.50243E+005    2.74251E+005    7.00331E+004   -2.70143E+005   -9.39522E+003    2.21606E+004   -2.22865E+005   -7.12625E+003    7.81222E+004    2.12446E+004
            4301    2.21043E+005    4.43061E+004   -1.87006E+005    2.20899E+004   -1.87006E+005    2.31312E+005    4.02034E+004   -2.18510E+005    1.68353E+004    2.06685E+004   -1.58114E+005   -5.02637E+003    7.44885E+004    1.67933E+004
            4302    1.68593E+005    3.91221E+004   -1.41410E+005    1.19415E+004   -1.41410E+005    1.80532E+005    3.01155E+004   -1.63554E+005   -8.40504E+003    1.15707E+004   -9.35121E+004   -3.03025E+003    7.81531E+004    1.55999E+004
            4303    1.42255E+005    7.14573E+004   -9.18169E+004    5.40173E+003   -9.18169E+004    1.63274E+005    4.98595E+003   -9.76387E+004    1.16842E+004    4.87515E+003   -3.15172E+004   -9.87171E+002    7.75455E+004    1.38470E+004
            4304    4.94897E+005    1.80908E+004   -4.92824E+005   -1.56759E+004   -4.92824E+005    5.10915E+005    1.63470E+005   -4.92295E+005    2.45507E+003   -1.55684E+004   -4.77296E+005   -6.85957E+003    8.63325E+004    1.39317E+004
            4305    4.19690E+005    7.09006E+003   -4.15545E+005    1.13534E+003   -4.15545E+005    4.22635E+005    1.35773E+005   -4.19595E+005   -1.76836E+004    5.47871E+003   -3.95115E+005   -5.12475E+003    8.92736E+004    1.18060E+004
            4306    3.54937E+005    3.89725E+004   -3.21643E+005    2.73290E+004   -3.21643E+005    3.60615E+005    8.51137E+004   -3.54507E+005    2.36098E+004    2.73600E+004   -3.06311E+005   -4.19672E+003    7.19210E+004    1.01690E+004
            4307    2.79556E+005    2.03575E+004   -2.61493E+005    1.57110E+004   -2.61493E+005    2.81850E+005    7.51414E+004   -2.79469E+005   -9.15476E+003    2.00732E+004   -2.36343E+005   -2.89247E+003    7.92574E+004    7.57993E+003
            4308    2.26396E+005    4.60398E+004   -1.90669E+005    2.37684E+004   -1.90669E+005    2.36709E+005    4.02869E+004   -2.23912E+005    1.90642E+004    2.35977E+004   -1.63523E+005   -1.77451E+003    7.51801E+004    5.87239E+003
            4309    1.69843E+005    3.68235E+004   -1.45164E+005    9.13123E+003   -1.45164E+005    1.81987E+005    3.30698E+004   -1.64649E+005   -9.48305E+003    9.08010E+003   -9.88063E+004   -9.75758E+002    7.91811E+004    4.22330E+003
            4310    1.42530E+005    7.25216E+004   -9.08606E+004    7.99331E+003   -9.08606E+004    1.63382E+005    3.44857E+003   -1.00851E+005    1.32538E+004    7.95590E+003   -3.15553E+004   -2.85290E+002    7.84730E+004    3.74443E+003
            4311    5.04793E+005    1.58103E+004   -5.05787E+005   -1.96707E+004   -5.05787E+005    5.21597E+005    1.69883E+005   -5.01976E+005    7.05380E+002   -1.96757E+004   -4.90677E+005    4.27299E+002    8.74650E+004   -1.60515E+003
            4312    4.26411E+005    4.56987E+003   -4.23172E+005    1.89556E+003   -4.23172E+005    4.27742E+005    1.38902E+005   -4.26392E+005   -1.80685E+004    4.45146E+003   -4.03089E+005    1.19821E+003    9.01362E+004   -3.13300E+003
            4313    3.59079E+005    3.71140E+004   -3.27460E+005    2.58602E+004   -3.27460E+005    3.64574E+005    8.81620E+004   -3.58682E+005    2.21702E+004    2.57993E+004   -3.12455E+005    1.63327E+003    7.22135E+004   -5.28658E+003
            4314    2.81567E+005    2.12204E+004   -2.63358E+005    1.50964E+004   -2.63358E+005    2.84579E+005    7.56804E+004   -2.81417E+005   -9.88757E+003    2.10764E+004   -2.38230E+005    2.00049E+003    7.95584E+004   -6.04267E+003
            4315    2.27532E+005    4.50702E+004   -1.92929E+005    2.24443E+004   -1.92929E+005    2.38000E+005    4.18049E+004   -2.24980E+005    1.81453E+004    2.22246E+004   -1.65785E+005    1.78455E+003    7.53162E+004   -6.98685E+003
            4316    1.70510E+005    3.71349E+004   -1.45030E+005    1.07488E+004   -1.45030E+005    1.82165E+005    3.23821E+004   -1.65823E+005   -9.39663E+003    1.06913E+004   -9.84410E+004    1.23800E+003    7.91811E+004   -6.80499E+003
            4317    1.42690E+005    7.21505E+004   -9.15682E+004    6.34275E+003   -9.15682E+004    1.63719E+005    4.35831E+003   -9.87823E+004    1.28624E+004    6.21860E+003   -3.21559E+004    4.39619E+002    7.84034E+004   -6.99834E+003
            4318    4.95241E+005    1.79462E+004   -4.93462E+005   -1.61499E+004   -4.93462E+005    5.11408E+005    1.63889E+005   -4.92590E+005    2.16300E+003   -1.61504E+004   -4.77678E+005    7.49082E+003    8.66194E+004   -1.62399E+004
            4319    4.18586E+005    8.88887E+003   -4.13826E+005    5.06161E+002   -4.13826E+005    4.22714E+005    1.34810E+005   -4.18397E+005   -1.81370E+004    6.45146E+003   -3.92745E+005    7.45944E+003    8.92538E+004   -1.82747E+004
            4320    3.52806E+005    3.91892E+004   -3.19560E+005    2.69871E+004   -3.19560E+005    3.58749E+005    8.44611E+004   -3.52331E+005    2.32354E+004    2.68300E+004   -3.03449E+005    7.53311E+003    7.13533E+004   -1.93067E+004
            4321    2.76899E+005    2.23380E+004   -2.57793E+005    1.57554E+004   -2.57793E+005    2.80131E+005    7.32332E+004   -2.76722E+005   -9.05855E+003    2.08137E+004   -2.31455E+005    6.61616E+003    7.83834E+004   -1.92678E+004
            4322    2.24090E+005    4.54797E+004   -1.88442E+005    2.43143E+004   -1.88442E+005    2.33922E+005    3.95495E+004   -2.21825E+005    1.87534E+004    2.27069E+004   -1.60109E+005    5.31036E+003    7.40348E+004   -1.80186E+004
            4323    1.69028E+005    3.79677E+004   -1.43144E+005    1.04169E+004   -1.43144E+005    1.81111E+005    3.15863E+004   -1.63862E+005   -9.27278E+003    9.93967E+003   -9.54258E+004    3.30882E+003    7.79206E+004   -1.70900E+004
            4324    1.42599E+005    7.26179E+004   -9.09009E+004    7.60790E+003   -9.09009E+004    1.63519E+005    3.55838E+003   -1.00099E+005    1.30056E+004    6.90462E+003   -3.05854E+004    1.15030E+003    7.71302E+004   -1.64493E+004
            4325    4.67844E+005    2.35237E+004   -4.58238E+005   -5.68202E+003   -4.58238E+005    4.81762E+005    1.46799E+005   -4.65786E+005    5.51236E+003   -4.77716E+003   -4.41132E+005    1.34058E+004    8.41467E+004   -2.64266E+004
            4326    3.95828E+005    1.54521E+004   -3.88988E+005   -2.37511E+003   -3.88988E+005    4.04441E+005    1.25304E+005   -3.94923E+005   -2.12848E+004    1.11290E+004   -3.65756E+005    1.25898E+004    8.65354E+004   -3.08916E+004
            4327    3.36608E+005    4.00807E+004   -3.02256E+005    2.83149E+004   -3.02256E+005    3.42336E+005    7.79533E+004   -3.36145E+005    2.15407E+004    2.81695E+004   -2.83570E+005    1.19702E+004    7.05765E+004   -3.04012E+004
            4328    2.64911E+005    2.42656E+004   -2.45512E+005    1.42481E+004   -2.45512E+005    2.69778E+005    6.89995E+004   -2.64485E+005   -1.09789E+004    2.05605E+004   -2.16580E+005    1.06020E+004    7.64390E+004   -2.92166E+004
            4329    2.16628E+005    4.49112E+004   -1.80511E+005    2.60964E+004   -1.80511E+005    2.25422E+005    3.65011E+004   -2.14778E+005    1.76482E+004    2.24951E+004   -1.49646E+005    8.05651E+003    7.25953E+004   -2.64638E+004
            4330    1.65686E+005    3.88202E+004   -1.39070E+005    1.08529E+004   -1.39070E+005    1.77890E+005    2.97989E+004   -1.60246E+005   -9.64727E+003    9.69722E+003   -8.94466E+004    5.20689E+003    7.58254E+004   -2.47406E+004
            4331    1.41587E+005    7.28006E+004   -8.95729E+004    8.13348E+003   -8.95729E+004    1.62373E+005    2.87959E+003   -9.91752E+004    1.27163E+004    6.70131E+003   -2.80564E+004    1.67678E+003    7.51367E+004   -2.34408E+004
            4332    4.30428E+005    3.23101E+004   -4.09721E+005    8.08063E+003   -4.09721E+005    4.42031E+005    1.23110E+005   -4.28890E+005    1.07442E+004    1.16309E+004   -3.91705E+005    1.68802E+004    7.98217E+004   -3.14947E+004
            4333    3.63783E+005    2.31572E+004   -3.52803E+005   -2.56266E+003   -3.52803E+005    3.75960E+005    1.10736E+005   -3.61728E+005   -2.27150E+004    1.68382E+004   -3.26331E+005    1.66175E+004    8.44104E+004   -3.81993E+004
            4334    3.13893E+005    4.39462E+004   -2.77771E+005    2.76648E+004   -2.77771E+005    3.21717E+005    6.87200E+004   -3.12941E+005    2.19656E+004    2.86305E+004   -2.56756E+005    1.65873E+004    6.86952E+004   -3.63256E+004
            4335    2.48770E+005    2.78000E+004   -2.26708E+005    1.58973E+004   -2.26708E+005    2.54508E+005    6.10036E+004   -2.48129E+005   -9.55447E+003    2.18828E+004   -1.95339E+005    1.42280E+004    7.39284E+004   -3.43431E+004
            4336    2.05706E+005    4.41735E+004   -1.69432E+005    2.73386E+004   -1.69432E+005    2.13606E+005    3.26401E+004   -2.04147E+005    1.70680E+004    2.16123E+004   -1.36601E+005    1.11411E+004    6.99294E+004   -3.13003E+004
            4337    1.59300E+005    4.04794E+004   -1.31039E+005    1.22751E+004   -1.31039E+005    1.71518E+005    2.60947E+004   -1.53531E+005   -8.46687E+003    1.01988E+004   -8.00161E+004    6.77566E+003    7.29903E+004   -2.85930E+004
            4338    1.38381E+005    7.08512E+004   -8.78027E+004    7.98281E+003   -8.78027E+004    1.58654E+005    2.98956E+003   -9.75284E+004    1.15520E+004    5.83520E+003   -2.63559E+004    2.32665E+003    7.23291E+004   -2.69906E+004
            4339    3.86409E+005    3.80655E+004   -3.56625E+005    2.09311E+004   -3.56625E+005    3.94691E+005    9.92096E+004   -3.85553E+005    1.48580E+004    2.48166E+004   -3.37303E+005    1.51224E+004    7.77496E+004   -3.09131E+004
            4340    3.28581E+005    2.43502E+004   -3.18914E+005   -7.30757E+003   -3.18914E+005    3.43264E+005    1.00624E+005   -3.25124E+005   -3.01405E+004    1.77721E+004   -2.89503E+005    1.81055E+004    8.30495E+004   -3.78561E+004
            4341    2.88433E+005    4.39785E+004   -2.51835E+005    2.86021E+004   -2.51835E+005    2.95814E+005    5.97515E+004   -2.87509E+005    1.86035E+004    3.09653E+004   -2.28823E+005    1.70839E+004    6.88503E+004   -3.49544E+004
            4342    2.31473E+005    2.75861E+004   -2.10794E+005    1.30901E+004   -2.10794E+005    2.38380E+005    5.67060E+004   -2.30448E+005   -1.37632E+004    2.08386E+004   -1.77193E+005    1.58712E+004    7.21386E+004   -3.48829E+004
            4343    1.91921E+005    4.39048E+004   -1.55350E+005    2.82825E+004   -1.55350E+005    1.99255E+005    2.77209E+004   -1.90483E+005    1.55436E+004    2.21176E+004   -1.20824E+005    1.20177E+004    6.83025E+004   -3.09244E+004
            4344    1.51034E+005    3.85354E+004   -1.24203E+005    1.14655E+004   -1.24203E+005    1.62738E+005    2.47340E+004   -1.45425E+005   -9.94230E+003    8.60311E+003   -7.28628E+004    7.87176E+003    7.02477E+004   -2.79959E+004
            4345    1.32030E+005    6.96724E+004   -8.18206E+004    8.73583E+003   -8.18206E+004    1.51493E+005    1.13747E+003   -9.13183E+004    1.16914E+004    6.52475E+003   -2.16286E+004    2.57846E+003    6.94999E+004   -2.55376E+004
            4346    3.50281E+005    4.11832E+004   -3.18082E+005    2.24647E+004   -3.18082E+005    3.59265E+005    8.48113E+004   -3.49153E+005    2.00136E+004    2.44912E+004   -2.98939E+005    1.23709E+004    7.69010E+004   -2.09582E+004
            4347    3.02758E+005    2.71825E+004   -2.91408E+005   -7.46341E+003   -2.91408E+005    3.18590E+005    9.05629E+004   -2.98249E+005   -3.43355E+004    2.18229E+004   -2.59176E+005    1.80691E+004    8.55961E+004   -2.81011E+004
            4348    2.71880E+005    4.73470E+004   -2.35033E+005    2.49636E+004   -2.35033E+005    2.82380E+005    5.42408E+004   -2.69795E+005    1.63432E+004    3.20223E+004   -2.11088E+005    2.02501E+004    6.92147E+004   -3.04409E+004
            4349    2.15196E+005    3.15916E+004   -1.91390E+005    1.50668E+004   -1.91390E+005    2.22982E+005    4.82440E+004   -2.13762E+005   -1.13785E+004    2.38362E+004   -1.57190E+005    1.82531E+004    7.05152E+004   -3.03149E+004
            4350    1.78826E+005    4.13093E+004   -1.44905E+005    2.54819E+004   -1.44905E+005    1.86214E+005    2.60378E+004   -1.77240E+005    1.18660E+004    2.02339E+004   -1.10213E+005    1.45412E+004    6.62611E+004   -2.69443E+004
            4351    1.39832E+005    3.93838E+004   -1.11797E+005    1.28975E+004   -1.11797E+005    1.51181E+005    1.98384E+004   -1.34012E+005   -7.11031E+003    9.42101E+003   -6.18260E+004    8.76879E+003    6.75394E+004   -2.21048E+004
            4352    1.23544E+005    6.33895E+004   -7.84177E+004    5.94884E+003   -7.84177E+004    1.41807E+005    3.02645E+003   -8.46561E+004    8.28921E+003    4.14684E+003   -2.15154E+004    3.08531E+003    6.68956E+004   -1.85074E+004
            4353    3.33935E+005    2.27999E+004   -3.23343E+005   -3.12716E+003   -3.23343E+005    3.46142E+005    1.01223E+005   -3.31659E+005   -3.58480E+004    2.20749E+004   -2.89897E+005   -2.95579E+003    9.80120E+004   -4.32153E+003
            4354    2.99767E+005    2.36212E+004   -2.86767E+005    1.11163E+003   -2.86767E+005    3.10388E+005    8.73446E+004   -2.97857E+005   -2.80121E+004    2.18012E+004   -2.55823E+005    9.69242E+003    8.76808E+004   -1.62047E+004
            4355    2.56163E+005    2.99901E+004   -2.32447E+005    1.69441E+004   -2.32447E+005    2.62437E+005    6.18374E+004   -2.55414E+005   -1.23448E+004    2.72638E+004   -2.00431E+005    1.07129E+004    8.11264E+004   -1.94549E+004
            4356    2.10037E+005    2.79442E+004   -1.86687E+005    1.84321E+004   -1.86687E+005    2.14631E+005    4.67702E+004   -2.09551E+005   -9.01950E+003    2.13247E+004   -1.52616E+005    1.32241E+004    7.44090E+004   -1.89974E+004
            4357    1.65931E+005    3.59416E+004   -1.38479E+005    1.74047E+004   -1.38479E+005    1.74421E+005    2.83777E+004   -1.63577E+005   -1.06283E+003    1.56123E+004   -9.96826E+004    1.07218E+004    7.03961E+004   -1.49779E+004
            4358    1.33861E+005    4.20601E+004   -1.05863E+005    6.92974E+003   -1.05863E+005    1.47924E+005    1.89578E+004   -1.22832E+005   -3.25956E+003    5.94835E+003   -5.95623E+004    7.80210E+003    6.77413E+004   -8.09166E+003
            4359    1.17465E+005    5.95226E+004   -7.54383E+004    3.75065E+003   -7.54383E+004    1.34961E+005    4.05501E+003   -7.82015E+004    1.64514E+003    3.48642E+003   -1.72966E+004    2.41894E+003    6.66658E+004   -4.09626E+003
            4360    1.25906E+005    6.03179E+004   -8.45804E+004   -1.84938E+003   -8.45804E+004    1.44898E+005    8.70397E+003   -7.85482E+004   -3.91301E+003   -6.17961E+002   -2.15809E+004    2.63462E+003    7.02416E+004    1.47044E+004
            4361    1.44942E+005    4.40775E+004   -1.17080E+005    2.60688E+003   -1.17080E+005    1.61157E+005    2.34652E+004   -1.30560E+005   -1.58538E+004    4.88917E+003   -5.94308E+004    5.61447E+003    7.62877E+004    8.58363E+003
            4362    1.78125E+005    2.80349E+004   -1.59382E+005    7.70675E+003   -1.59382E+005    1.87417E+005    4.12134E+004   -1.75487E+005   -2.88859E+004    1.03313E+004   -1.05086E+005    7.30983E+003    8.41230E+004    1.34001E+003
            4363    2.16889E+005    2.04679E+004   -2.02161E+005    8.49094E+003   -2.02161E+005    2.22629E+005    5.77341E+004   -2.16143E+005   -4.71196E+004    2.00888E+004   -1.46171E+005    4.69268E+003    9.27409E+004   -7.88781E+003
            4364    2.63638E+005    2.64718E+004   -2.53393E+005   -9.72239E+003   -2.53393E+005    2.79865E+005    7.88812E+004   -2.57959E+005   -5.70782E+004    2.58884E+004   -2.05454E+005    3.10653E+003    9.64321E+004   -1.10981E+004
            4365    3.05073E+005    2.04776E+004   -3.04322E+005   -2.38205E+004   -3.04322E+005    3.24800E+005    1.02555E+005   -2.97708E+005   -7.29656E+004    1.96464E+004   -2.54346E+005   -1.54641E+003    1.07285E+005   -9.27721E+003
            4366    3.55594E+005    1.88274E+004   -3.60011E+005   -3.34484E+004   -3.60011E+005    3.78838E+005    1.24877E+005   -3.46791E+005   -6.96671E+004    1.64312E+004   -3.21396E+005   -5.00128E+003    1.05212E+005   -1.53773E+004
            4367    4.09654E+005    3.86707E+005    3.86707E+005    5.86981E+004   -7.24647E+004    4.59172E+005   -1.24313E+005    3.57621E+005    1.29299E+005   -7.15812E+004    3.15222E+005   -1.10869E+004    1.35611E+005    1.56655E+003
            4368    3.78151E+005    3.80389E+005    3.80389E+005    4.05490E+004   -2.69740E+004    4.07363E+005   -1.31321E+005    3.64215E+005    8.95847E+004   -2.68062E+004    3.31186E+005    4.37817E+003    1.19531E+005    3.60387E+003
            4369    4.20556E+005    4.30734E+005    4.30734E+005    2.48088E+004   -3.06455E+003    4.33799E+005   -1.50826E+005    4.18470E+005    5.99897E+004   -1.55025E+002    3.92644E+005    1.21127E+004    1.17859E+005    1.25311E+004
            4370    4.80040E+005    5.01328E+005    5.01328E+005    3.93302E+004    5.08027E+003    4.96248E+005   -1.81913E+005    4.77279E+005    4.18873E+004    3.70015E+004    4.66850E+005    1.38964E+004    1.24570E+005    1.42949E+004
            4371    4.28433E+005    4.07619E+005    4.07619E+005   -8.07618E+003   -3.25063E+004    4.40125E+005   -1.22345E+005    4.26861E+005   -1.05202E+004   -1.25001E+004    3.90057E+005    1.68984E+004    7.91351E+004    2.97324E+004
            4372    3.65572E+005    3.54333E+005    3.54333E+005    1.44573E+003   -2.27238E+004    3.77057E+005   -1.11018E+005    3.63768E+005    2.06525E+004   -1.69770E+004    3.29379E+005    1.55893E+004    8.33617E+004    3.52164E+004
            4373    3.17524E+005    2.79859E+005    2.79859E+005   -3.11021E+004   -4.38451E+004    3.23704E+005   -6.83038E+004    3.16948E+005   -2.30610E+004   -3.15472E+004    2.59520E+005    1.41708E+004    6.94965E+004    3.37042E+004
            4374    2.53574E+005    2.33520E+005    2.33520E+005   -1.59870E+004   -2.39342E+004    2.57454E+005   -6.45330E+004    2.53294E+005    9.60084E+003   -1.95342E+004    2.03532E+005    1.18408E+004    7.53629E+004    3.01776E+004
            4375    2.10305E+005    1.73133E+005    1.73133E+005   -2.72366E+004   -4.58676E+004    2.19001E+005   -3.33429E+004    2.08436E+005   -1.77053E+004   -2.33006E+004    1.41035E+005    8.52195E+003    7.22723E+004    2.72188E+004
            4376    1.62650E+005    1.36198E+005    1.36198E+005   -9.01695E+003   -3.95568E+004    1.75755E+005   -2.92082E+004    1.56002E+005    8.70534E+003   -7.50345E+003    8.64227E+004    5.19495E+003    7.55853E+004    2.36093E+004
            4377    1.41126E+005    8.90305E+004    8.90305E+004   -9.48358E+003   -7.26449E+004    1.61675E+005   -2.30069E+003    1.01123E+005   -1.19569E+004   -8.27379E+003    2.71328E+004    1.70309E+003    7.52227E+004    2.26201E+004
            4378    3.82971E+005    3.53180E+005    3.53180E+005   -1.91516E+004   -3.96111E+004    3.92791E+005   -9.81390E+004    3.81739E+005   -1.49477E+004   -2.60514E+004    3.35416E+005    1.63582E+004    7.43077E+004    2.90456E+004
            4379    3.32384E+005    3.16201E+005    3.16201E+005    2.60146E+003   -3.22260E+004    3.48427E+005   -9.55254E+004    3.28241E+005    2.52629E+004   -2.57760E+004    2.87089E+005    1.75361E+004    8.21449E+004    3.99668E+004
            4380    2.89009E+005    2.54088E+005    2.54088E+005   -2.74470E+004   -4.18559E+004    2.95944E+005   -6.15952E+004    2.88200E+005   -1.87526E+004   -2.77830E+004    2.31321E+005    1.66758E+004    6.77948E+004    3.66383E+004
            4381    2.33808E+005    2.10443E+005    2.10443E+005   -1.77152E+004   -2.86311E+004    2.39074E+005   -5.46990E+004    2.33233E+005    9.87321E+003   -2.24162E+004    1.76640E+005    1.38912E+004    7.32643E+004    3.53345E+004
            4382    1.95861E+005    1.62161E+005    1.62161E+005   -2.32429E+004   -4.27049E+004    2.04866E+005   -3.20711E+004    1.93668E+005   -1.40540E+004   -1.78519E+004    1.28119E+005    1.06940E+004    6.98406E+004    2.95405E+004
            4383    1.57171E+005    1.26941E+005    1.26941E+005   -1.37774E+004   -4.26725E+004    1.69614E+005   -2.34970E+004    1.51021E+005    7.07680E+003   -1.19096E+004    7.53239E+004    6.57191E+003    7.25705E+004    2.86342E+004
            4384    1.36733E+005    8.76119E+004    8.76119E+004   -5.22223E+003   -6.94046E+004    1.57016E+005   -4.32835E+003    9.25113E+004   -9.48687E+003   -3.06738E+003    2.55393E+004    2.31161E+003    7.20701E+004    2.61684E+004
            4385    3.53221E+005    3.08609E+005    3.08609E+005   -3.46396E+004   -5.38047E+004    3.62413E+005   -7.33881E+004    3.52048E+005   -2.39813E+004   -4.54934E+004    2.89639E+005    1.50570E+004    7.39078E+004    2.66502E+004
            4386    2.96048E+005    2.84581E+005    2.84581E+005    6.33793E+003   -2.65294E+004    3.11110E+005   -8.81298E+004    2.91901E+005    3.12164E+004   -1.91073E+004    2.52280E+005    2.02840E+004    8.17794E+004    3.56843E+004
            4387    2.64450E+005    2.24723E+005    2.24723E+005   -2.93794E+004   -4.89818E+004    2.73705E+005   -4.87874E+004    2.62807E+005   -2.00247E+004   -3.38969E+004    2.00284E+005    1.95602E+004    6.77791E+004    3.27582E+004
            4388    2.14923E+005    1.94758E+005    1.94758E+005   -1.27999E+004   -2.68413E+004    2.21599E+005   -5.17056E+004    2.13887E+005    1.23779E+004   -1.86064E+004    1.61345E+005    1.79219E+004    7.00152E+004    3.03035E+004
            4389    1.82975E+005    1.45562E+005    1.45562E+005   -3.03123E+004   -4.37711E+004    1.89333E+005   -2.38262E+004    1.81857E+005   -1.44856E+004   -2.37736E+004    1.09738E+005    1.35118E+004    6.70449E+004    3.04177E+004
            4390    1.43925E+005    1.17803E+005    1.17803E+005   -9.38518E+003   -3.84302E+004    1.56233E+005   -2.33291E+004    1.37097E+005    8.58465E+003   -5.71527E+003    6.71179E+004    8.43317E+003    6.87242E+004    2.49298E+004
            4391    1.28991E+005    8.01237E+004    8.01237E+004   -1.02901E+004   -6.75905E+004    1.47714E+005   -7.47722E+002    9.31515E+004   -1.02793E+004   -8.36645E+003    2.08889E+004    2.87853E+003    6.84054E+004    2.35264E+004
            4392    3.05850E+005    2.69260E+005    2.69260E+005   -2.13195E+004   -4.98598E+004    3.19120E+005   -6.60270E+004    3.02833E+005   -3.39869E+004   -2.08868E+004    2.52955E+005    4.00945E+003    6.91788E+004    1.14162E+004
            4393    2.79664E+005    2.70763E+005    2.70763E+005    7.83999E+003   -2.30727E+004    2.93836E+005   -8.51768E+004    2.75781E+005    4.18897E+004   -2.16820E+004    2.35323E+005    9.50386E+003    8.88722E+004    1.27990E+004
            4394    2.58119E+005    2.28813E+005    2.28813E+005   -2.11961E+004   -3.67160E+004    2.65529E+005   -5.69669E+004    2.57066E+005   -7.28348E+003   -2.55485E+004    2.03733E+005    1.33741E+004    7.41397E+004    1.71568E+004
            4395    2.06083E+005    1.82354E+005    1.82354E+005   -1.91896E+004   -2.79860E+004    2.10340E+005   -4.50595E+004    2.05660E+005    1.26952E+004   -2.34963E+004    1.45980E+005    1.34476E+004    7.39901E+004    2.31347E+004
            4396    1.66527E+005    1.36996E+005    1.36996E+005   -1.48707E+004   -4.10837E+004    1.78079E+005   -2.70137E+004    1.61788E+005   -7.99803E+003   -1.26173E+004    1.01656E+005    1.22565E+004    6.80151E+004    1.68380E+004
            4397    1.34327E+005    1.06016E+005    1.06016E+005   -1.12961E+004   -4.05157E+004    1.46532E+005   -1.80682E+004    1.26878E+005    6.36174E+003   -9.30836E+003    5.71512E+004    7.51968E+003    6.75769E+004    1.35804E+004
            4398    1.18802E+005    7.53814E+004    7.53814E+004   -1.14877E+003   -6.14804E+004    1.36862E+005   -4.25075E+003    6.98509E+004   -6.20906E+003   -3.39818E+002    1.93011E+004    2.95305E+003    6.66336E+004    8.79747E+003
            4399    1.24772E+005    8.30655E+004    8.30655E+004   -2.45860E+003   -6.01075E+004    1.43173E+005   -6.83314E+003    8.61827E+004    4.24146E+003   -3.61445E+003    1.98724E+004    2.53145E+003    6.99304E+004   -1.22381E+004
            4400    1.42541E+005    1.15624E+005    1.15624E+005    2.44246E+003   -4.44583E+004    1.60082E+005   -2.45359E+004    1.23298E+005    1.31051E+004    2.74789E+002    6.02278E+004    6.18859E+003    7.52652E+004   -8.53782E+003
            4401    1.75362E+005    1.53663E+005    1.53663E+005   -1.21769E+004   -2.98782E+004    1.83542E+005   -3.72027E+004    1.73335E+005    2.74282E+004   -1.31370E+004    9.73170E+004    7.62636E+003    8.40249E+004    3.25617E+003
            4402    2.12975E+005    1.99776E+005    1.99776E+005   -1.04598E+004   -1.58353E+004    2.15612E+005   -5.78271E+004    2.12822E+005    4.04888E+004   -1.49335E+004    1.47926E+005    6.03080E+003    9.03919E+004    7.49065E+003
            4403    2.65021E+005    2.50679E+005    2.50679E+005    6.56651E+003   -3.11984E+004    2.81878E+005   -7.53491E+004    2.58863E+005    5.76958E+004   -2.84540E+004    1.96805E+005    2.35826E+003    1.00396E+005    2.01957E+004
            4404    3.17430E+005    3.19227E+005    3.19227E+005    2.58988E+004   -1.77822E+004    3.37009E+005   -1.09114E+005    3.10561E+005    6.28397E+004   -1.65980E+004    2.81101E+005   -4.51779E+003    9.87463E+004    7.33791E+003
            4405    3.66054E+005    3.67941E+005    3.67941E+005    3.72196E+004   -2.53738E+004    3.93315E+005   -1.26596E+005    3.53712E+005    8.35300E+004   -2.36951E+004    3.19952E+005   -1.06543E+004    1.16778E+005    4.10009E+002
            4406    1.17614E+005    7.57871E+004    7.57871E+004   -3.80335E+003   -5.93086E+004    1.35096E+005   -4.22507E+003    7.89860E+004   -1.59371E+003   -3.53722E+003    1.78061E+004   -2.51653E+003    6.67040E+004   -4.00228E+003
            4407    1.23786E+005    7.91392E+004    7.91392E+004   -6.13286E+003   -6.28415E+004    1.41981E+005   -3.38827E+003    8.63949E+004   -8.19083E+003   -4.30147E+003    2.26571E+004   -3.21222E+003    6.69076E+004   -1.83963E+004
            4408    1.32459E+005    8.29322E+004    8.29322E+004   -9.04743E+003   -6.88890E+004    1.51821E+005   -1.66525E+003    9.39485E+004   -1.15717E+004   -6.75111E+003    2.33185E+004   -2.77033E+003    6.94757E+004   -2.56220E+004
            4409    1.38983E+005    8.91872E+004    8.91872E+004   -8.37863E+003   -6.99448E+004    1.59132E+005   -3.62127E+003    1.00654E+005   -1.14847E+004   -6.16053E+003    2.85090E+004   -2.51416E+003    7.23264E+004   -2.70128E+004
            4410    1.42197E+005    9.09013E+004    9.09013E+004   -8.46211E+003   -7.19842E+004    1.62885E+005   -3.48500E+003    1.02091E+005   -1.26405E+004   -6.98121E+003    3.00767E+004   -1.81325E+003    7.51311E+004   -2.35298E+004
            4411    1.43088E+005    9.18983E+004    9.18983E+004   -7.83311E+003   -7.20477E+004    1.63946E+005   -4.00585E+003    1.02229E+005   -1.29823E+004   -7.11451E+003    3.21144E+004   -1.21814E+003    7.71463E+004   -1.64463E+004
            4412    1.42954E+005    9.21070E+004    9.21070E+004   -6.43262E+003   -7.18507E+004    1.63958E+005   -4.60788E+003    9.99043E+004   -1.28231E+004   -6.30411E+003    3.29508E+004   -4.65811E+002    7.84159E+004   -7.04036E+003
            4413    1.42574E+005    9.09724E+004    9.09724E+004   -7.93727E+003   -7.24556E+004    1.63428E+005   -3.52652E+003    1.00934E+005   -1.31958E+004   -7.90029E+003    3.16757E+004    2.79411E+002    7.84875E+004    3.75249E+003
            4414    1.42135E+005    9.15795E+004    9.15795E+004   -5.29969E+003   -7.15915E+004    1.63171E+005   -4.89609E+003    9.69975E+004   -1.16748E+004   -4.77426E+003    3.11374E+004    9.70871E+002    7.75398E+004    1.38722E+004
            4415    1.34471E+005    1.06667E+005    1.06667E+005   -7.00445E+003   -4.17748E+004    1.48442E+005   -1.92959E+004    1.23737E+005    3.42602E+003   -6.02882E+003    6.04905E+004   -7.87143E+003    6.78566E+004   -8.12100E+003
            4416    1.40722E+005    1.12853E+005    1.12853E+005   -1.33180E+004   -3.89086E+004    1.51762E+005   -2.02088E+004    1.35338E+005    6.90671E+003   -9.75245E+003    6.34722E+004   -8.96290E+003    6.75054E+004   -2.21460E+004
            4417    1.52574E+005    1.25945E+005    1.25945E+005   -1.21001E+004   -3.78745E+004    1.63820E+005   -2.53236E+004    1.47557E+005    9.59391E+003   -9.08678E+003    7.54636E+004   -8.12069E+003    7.01859E+004   -2.81936E+004
            4418    1.61054E+005    1.33069E+005    1.33069E+005   -1.28512E+004   -3.97348E+004    1.72804E+005   -2.68276E+004    1.55885E+005    8.16153E+003   -1.06474E+004    8.29688E+004   -6.99453E+003    7.29437E+004   -2.87067E+004
            4419    1.67329E+005    1.41003E+005    1.41003E+005   -1.12863E+004   -3.81218E+004    1.79125E+005   -3.05316E+004    1.62381E+005    9.45732E+003   -1.00739E+004    9.22115E+004   -5.32543E+003    7.58184E+004   -2.46480E+004
            4420    1.70164E+005    1.44527E+005    1.44527E+005   -1.06415E+004   -3.74496E+004    1.81977E+005   -3.21454E+004    1.65313E+005    9.21142E+003   -1.01478E+004    9.73725E+004   -3.35050E+003    7.79097E+004   -1.69162E+004
            4421    1.71035E+005    1.45678E+005    1.45678E+005   -1.08289E+004   -3.68926E+004    1.82570E+005   -3.26521E+004    1.66479E+005    9.38504E+003   -1.07720E+004    9.93432E+004   -1.21996E+003    7.91737E+004   -6.60391E+003
            4422    1.69778E+005    1.45074E+005    1.45074E+005   -9.08213E+003   -3.68913E+004    1.81965E+005   -3.30336E+004    1.64536E+005    9.40572E+003   -9.02806E+003    9.87231E+004    1.00064E+003    7.91598E+004    4.42748E+003
            4423    1.68083E+005    1.40841E+005    1.40841E+005   -1.17815E+004   -3.93052E+004    1.80146E+005   -2.99179E+004    1.62897E+005    8.53666E+003   -1.14103E+004    9.26275E+004    3.04906E+003    7.81543E+004    1.58443E+004
            4424    1.67320E+005    1.39928E+005    1.39928E+005   -1.77643E+004   -3.55930E+004    1.75521E+005   -2.88568E+004    1.65163E+005    1.31814E+003   -1.59965E+004    1.01249E+005   -1.08198E+004    7.05772E+004   -1.51133E+004
            4425    1.81042E+005    1.47358E+005    1.47358E+005   -2.56741E+004   -4.07510E+004    1.88109E+005   -2.69775E+004    1.79621E+005   -1.14922E+004   -2.05134E+004    1.12938E+005   -1.47099E+004    6.63983E+004   -2.71658E+004
            4426    1.95156E+005    1.58832E+005    1.58832E+005   -2.87161E+004   -4.31310E+004    2.01963E+005   -2.89951E+004    1.93952E+005   -1.52283E+004   -2.25156E+004    1.24729E+005   -1.23078E+004    6.84233E+004   -3.12244E+004
            4427    2.09204E+005    1.73119E+005    1.73119E+005   -2.76370E+004   -4.36170E+004    2.16736E+005   -3.39549E+004    2.07824E+005   -1.69805E+004   -2.19553E+004    1.40800E+005   -1.12678E+004    7.00519E+004   -3.14062E+004
            4428    2.19535E+005    1.83572E+005    1.83572E+005   -2.62717E+004   -4.45159E+004    2.28088E+005   -3.75949E+004    2.17820E+005   -1.76404E+004   -2.27370E+004    1.53162E+005   -8.06745E+003    7.26963E+004   -2.63074E+004
            4429    2.25907E+005    1.90262E+005    1.90262E+005   -2.43887E+004   -4.54294E+004    2.35691E+005   -4.01479E+004    2.23686E+005   -1.89414E+004   -2.28561E+004    1.62241E+005   -5.20755E+003    7.40891E+004   -1.76381E+004
            4430    2.28077E+005    1.93500E+005    1.93500E+005   -2.24064E+004   -4.50581E+004    2.38558E+005   -4.20118E+004    2.25526E+005   -1.82033E+004   -2.22113E+004    1.66450E+005   -1.68154E+003    7.53384E+004   -6.58601E+003
            4431    2.25868E+005    1.90117E+005    1.90117E+005   -2.36701E+004   -4.61509E+004    2.36268E+005   -4.00986E+004    2.23330E+005   -1.91183E+004   -2.34776E+004    1.62892E+005    1.89495E+003    7.51658E+004    6.21169E+003
            4432    2.19785E+005    1.85578E+005    1.85578E+005   -2.20136E+004   -4.46479E+004    2.30226E+005   -3.96389E+004    2.17139E+005   -1.70570E+004   -2.05472E+004    1.56521E+005    5.07204E+003    7.44115E+004    1.70257E+004
            4433    2.12339E+005    1.89083E+005    1.89083E+005   -1.83042E+004   -2.78835E+004    2.16966E+005   -4.76317E+004    2.11852E+005    9.28744E+003   -2.15235E+004    1.55131E+005   -1.32432E+004    7.46902E+004   -1.92570E+004
            4434    2.18637E+005    1.94682E+005    1.94682E+005   -1.47630E+004   -3.21123E+004    2.26794E+005   -4.92689E+004    2.17080E+005    1.09842E+004   -2.42374E+004    1.61060E+005   -1.84193E+004    7.05385E+004   -3.05935E+004
            4435    2.35975E+005    2.15314E+005    2.15314E+005   -1.26935E+004   -2.78949E+004    2.43209E+005   -5.82418E+004    2.34870E+005    1.34788E+004   -2.10929E+004    1.82339E+005   -1.59917E+004    7.22570E+004   -3.51522E+004
            4436    2.53049E+005    2.31189E+005    2.31189E+005   -1.53716E+004   -2.78830E+004    2.59072E+005   -6.26448E+004    2.52351E+005    9.50476E+003   -2.19970E+004    2.00427E+005   -1.42663E+004    7.40347E+004   -3.42622E+004
            4437    2.67983E+005    2.48881E+005    2.48881E+005   -1.38308E+004   -2.40797E+004    2.72960E+005   -7.03234E+004    2.67541E+005    1.11108E+004   -2.05188E+004    2.20378E+005   -1.04583E+004    7.66024E+004   -2.86975E+004
            4438    2.78237E+005    2.59440E+005    2.59440E+005   -1.53788E+004   -2.20942E+004    2.81534E+005   -7.39889E+004    2.78054E+005    9.35761E+003   -2.06711E+004    2.33280E+005   -6.43820E+003    7.85063E+004   -1.85706E+004
            4439    2.81471E+005    2.63409E+005    2.63409E+005   -1.49187E+004   -2.11030E+004    2.84512E+005   -7.57958E+004    2.81318E+005    1.01205E+004   -2.09870E+004    2.38254E+005   -1.78836E+003    7.96211E+004   -5.43402E+003
            4440    2.78258E+005    2.60247E+005    2.60247E+005   -1.56788E+004   -2.02867E+004    2.80534E+005   -7.47605E+004    2.78172E+005    9.36176E+003   -1.99834E+004    2.34903E+005    2.99840E+003    7.92842E+004    8.04399E+003
            4441    2.68659E+005    2.48624E+005    2.48624E+005   -1.60049E+004   -2.38924E+004    2.72516E+005   -6.95755E+004    2.68399E+005    9.80981E+003   -2.20291E+004    2.20946E+005    7.16326E+003    7.82139E+004    2.12698E+004
            4442    2.58561E+005    2.34987E+005    2.34987E+005   -1.65249E+004   -3.00899E+004    2.65076E+005   -6.27906E+004    2.57758E+005    1.24985E+004   -2.72991E+004    2.03172E+005   -1.08631E+004    8.13046E+004   -1.94911E+004
            4443    2.75722E+005    2.39359E+005    2.39359E+005   -2.44558E+004   -4.68981E+004    2.86257E+005   -5.60017E+004    2.73656E+005   -1.57921E+004   -3.16897E+004    2.15487E+005   -2.02658E+004    6.96116E+004   -3.07329E+004
            4444    2.93618E+005    2.57223E+005    2.57223E+005   -2.83383E+004   -4.38378E+004    3.01061E+005   -6.16824E+004    2.92696E+005   -1.86438E+004   -3.07546E+004    2.34446E+005   -1.70626E+004    6.91639E+004   -3.52200E+004
            4445    3.18644E+005    2.82638E+005    2.82638E+005   -2.75222E+004   -4.38602E+004    3.26499E+005   -7.04187E+004    3.17699E+005   -2.23026E+004   -2.83677E+004    2.61926E+005   -1.63728E+004    6.89285E+004   -3.61919E+004
            4446    3.39470E+005    3.05092E+005    3.05092E+005   -2.83083E+004   -4.01376E+004    3.45230E+005   -7.88821E+004    3.39006E+005   -2.20236E+004   -2.80101E+004    2.86680E+005   -1.16174E+004    7.06629E+004   -2.98512E+004
            4447    3.53411E+005    3.19974E+005    3.19974E+005   -2.70123E+004   -3.95292E+004    3.59503E+005   -8.44774E+004    3.52911E+005   -2.38151E+004   -2.67884E+004    3.04036E+005   -7.18306E+003    7.12526E+004   -1.86520E+004
            4448    3.57982E+005    3.26096E+005    3.26096E+005   -2.59903E+004   -3.75049E+004    3.63601E+005   -8.75335E+004    3.57565E+005   -2.26078E+004   -2.59278E+004    3.11136E+005   -1.39097E+003    7.20383E+004   -4.92627E+003
            4449    3.52949E+005    3.19282E+005    3.19282E+005   -2.76857E+004   -3.93592E+004    3.58641E+005   -8.40789E+004    3.52514E+005   -2.39579E+004   -2.77526E+004    3.03947E+005    4.39218E+003    7.16729E+004    1.03854E+004
            4450    3.38642E+005    3.05530E+005    3.05530E+005   -2.71365E+004   -3.87879E+004    3.44318E+005   -7.98684E+004    3.38191E+005   -2.16210E+004   -2.71212E+004    2.88347E+005    9.26449E+003    7.07920E+004    2.28838E+004
            4451    3.01412E+005    2.88665E+005    2.88665E+005   -9.84167E+002   -2.32725E+004    3.11937E+005   -8.81360E+004    2.99549E+005    2.80912E+004   -2.14235E+004    2.57740E+005   -9.74146E+003    8.79605E+004   -1.62456E+004
            4452    3.05786E+005    2.94845E+005    2.94845E+005    7.78072E+003   -2.67339E+004    3.21579E+005   -9.19639E+004    3.01357E+005    3.42886E+004   -2.12993E+004    2.62902E+005   -1.81165E+004    8.56704E+004   -2.85169E+004
            4453    3.32375E+005    3.23596E+005    3.23596E+005    8.11975E+003   -2.34277E+004    3.47024E+005   -1.02763E+005    3.28981E+005    3.09005E+004   -1.68673E+004    2.94255E+005   -1.80511E+004    8.35261E+004   -3.80724E+004
            4454    3.66636E+005    3.56353E+005    3.56353E+005    3.12464E+003   -2.23605E+004    3.78713E+005   -1.12372E+005    3.64635E+005    2.33127E+004   -1.61173E+004    3.29922E+005   -1.65062E+004    8.48778E+004   -3.80276E+004
            4455    3.96598E+005    3.90283E+005    3.90283E+005    2.80910E+003   -1.48479E+004    4.05131E+005   -1.26082E+005    3.95712E+005    2.18877E+004   -1.06787E+004    3.67036E+005   -1.23626E+004    8.68304E+004   -3.04672E+004
            4456    4.17546E+005    4.12651E+005    4.12651E+005   -6.40436E+002   -9.02255E+003    4.21674E+005   -1.34329E+005    4.17356E+005    1.82298E+004   -6.75504E+003    3.91513E+005   -7.28573E+003    8.92972E+004   -1.79986E+004
            4457    4.24203E+005    4.20551E+005    4.20551E+005   -1.92973E+003   -5.35523E+003    4.25906E+005   -1.37755E+005    4.24172E+005    1.81229E+004   -5.26375E+003    4.00406E+005   -1.15067E+003    8.99824E+004   -2.94840E+003
            4458    4.17603E+005    4.12761E+005    4.12761E+005   -1.83047E+003   -7.78970E+003    4.20551E+005   -1.34380E+005    4.17508E+005    1.71161E+004   -6.31230E+003    3.92337E+005    5.03168E+003    8.90052E+004    1.18323E+004
            4459    3.97084E+005    3.88699E+005    3.88699E+005   -2.81933E+002   -1.60218E+004    4.04720E+005   -1.24132E+005    3.96382E+005    1.86058E+004   -1.26500E+004    3.66439E+005    1.07939E+004    8.65612E+004    2.58927E+004
            4460    3.34345E+005    3.24294E+005    3.24294E+005    3.35890E+003   -2.20137E+004    3.46308E+005   -1.01880E+005    3.32168E+005    3.57307E+004   -2.12436E+004    2.91153E+005    2.73277E+003    9.77187E+004   -5.10735E+003
            4461    3.53049E+005    3.20987E+005    3.20987E+005   -2.19115E+004   -4.14040E+004    3.62391E+005   -8.58906E+004    3.51835E+005   -2.03056E+004   -2.39497E+004    3.01927E+005   -1.25530E+004    7.70774E+004   -2.10280E+004
            4462    3.88883E+005    3.59368E+005    3.59368E+005   -2.05081E+004   -3.79357E+004    3.97304E+005   -1.00308E+005    3.88003E+005   -1.50143E+004   -2.41946E+004    3.40133E+005   -1.51452E+004    7.78962E+004   -3.08972E+004
            4463    4.31747E+005    4.11259E+005    4.11259E+005   -7.79003E+003   -3.21554E+004    4.43414E+005   -1.23771E+005    4.30196E+005   -1.11072E+004   -1.08855E+004    3.93306E+005   -1.66253E+004    7.98656E+004   -3.15202E+004
            4464    4.67491E+005    4.57848E+005    4.57848E+005    5.27735E+003   -2.32557E+004    4.81104E+005   -1.46623E+005    4.65525E+005   -5.44011E+003    4.51044E+003    4.40799E+005   -1.31320E+004    8.39124E+004   -2.65710E+004
            4465    4.93386E+005    4.91066E+005    4.91066E+005    1.50543E+004   -1.80294E+004    5.09095E+005   -1.62697E+005    4.90881E+005   -2.41103E+003    1.50960E+004    4.75406E+005   -7.31932E+003    8.60516E+004   -1.63726E+004
            4466    5.02248E+005    5.02849E+005    5.02849E+005    1.83839E+004   -1.54692E+004    5.18319E+005   -1.68588E+005    4.99672E+005   -4.54624E+002    1.83915E+004    4.87827E+005   -4.30357E+002    8.69290E+004   -1.91152E+003
            4467    4.92700E+005    4.90213E+005    4.90213E+005    1.46508E+004   -1.80013E+004    5.08214E+005   -1.62287E+005    4.90257E+005   -2.40859E+003    1.44706E+004    4.74800E+005    7.01120E+003    8.57806E+004    1.38190E+004
            4468    4.64688E+005    4.56230E+005    4.56230E+005    6.82574E+003   -2.23648E+004    4.78595E+005   -1.46897E+005    4.62618E+005   -5.16714E+003    5.96037E+003    4.39898E+005    1.22975E+004    8.27360E+004    2.37428E+004
            4469    5.51600E+005    5.78886E+005    5.78886E+005    6.49074E+004   -3.88275E+003    5.82768E+005   -2.13303E+005    5.41823E+005    3.05325E+004    6.43830E+004    5.44995E+005    1.28337E+004    1.34991E+005    1.52561E+004
            4470    6.06255E+005    6.40253E+005    6.40253E+005    8.80761E+004   -8.48874E+003    6.48742E+005   -2.39947E+005    5.88579E+005    2.59128E+004    8.80196E+004    6.05908E+005    7.28977E+003    1.44804E+005    9.14888E+003
            4471    6.28583E+005    6.65130E+005    6.65130E+005    9.64585E+004   -9.81561E+003    6.74945E+005   -2.50591E+005    6.07876E+005    2.47792E+004    9.64587E+004    6.30535E+005    1.06326E+002    1.48838E+005    3.37250E+002
            4472    6.06696E+005    6.40147E+005    6.40147E+005    8.70571E+004   -8.75469E+003    6.48901E+005   -2.39483E+005    5.89314E+005    2.59163E+004    8.69624E+004    6.05570E+005   -7.74927E+003    1.45261E+005   -9.27273E+003
            4473    5.53015E+005    5.80672E+005    5.80672E+005    6.45678E+004   -3.03807E+003    5.83710E+005   -2.14067E+005    5.43601E+005    3.17578E+004    6.39552E+004    5.46489E+005   -1.25929E+004    1.35804E+005   -1.42586E+004
            4474    4.86434E+005    5.06169E+005    5.06169E+005    3.54224E+004    5.43595E+003    5.00733E+005   -1.82343E+005    4.84348E+005    4.36685E+004    3.26869E+004    4.70672E+005   -1.40591E+004    1.26754E+005   -1.50880E+004
            4475    4.29162E+005    4.39083E+005    4.39083E+005    2.69303E+004   -5.27502E+003    4.44358E+005   -1.53579E+005    4.26431E+005    6.34372E+004   -2.82180E+003    4.00122E+005   -1.21434E+004    1.19918E+005   -1.34321E+004
            4476    3.98101E+005    4.00677E+005    4.00677E+005    4.33081E+004   -2.84068E+004    4.29084E+005   -1.38526E+005    3.83161E+005    9.37728E+004   -2.77481E+004    3.49553E+005    1.65207E+003    1.24959E+005   -1.09275E+004
            4477    3.86164E+005    3.90712E+005    3.90712E+005    3.51858E+004   -2.01242E+004    4.10836E+005   -1.35258E+005    3.77098E+005    7.77104E+004   -1.91499E+004    3.47213E+005    4.63121E+003    1.16571E+005   -7.61488E+003
            4478    1.25863E+005    8.46098E+004    8.46098E+004    1.84818E+003   -6.02334E+004    1.44843E+005   -8.74154E+003    7.86754E+004    3.89337E+003    6.19005E+002    2.17122E+004   -2.64357E+003    7.02173E+004    1.46359E+004
            4479    1.45059E+005    1.17189E+005    1.17189E+005   -2.64055E+003   -4.40804E+004    1.61269E+005   -2.34893E+004    1.30713E+005    1.58883E+004   -4.97568E+003    5.95551E+004   -5.65995E+003    7.63019E+004    8.69551E+003
            4480    1.78454E+005    1.59861E+005    1.59861E+005   -7.62906E+003   -2.78353E+004    1.87697E+005   -4.14656E+004    1.75852E+005    2.91593E+004   -1.02063E+004    1.05444E+005   -7.32038E+003    8.42785E+004    1.19406E+003
            4481    2.18013E+005    2.03223E+005    2.03223E+005   -8.06132E+003   -2.09474E+004    2.24171E+005   -5.80715E+004    2.17154E+005    4.75854E+004   -2.05414E+004    1.47170E+005   -4.78107E+003    9.29430E+004   -8.22969E+003
            4482    2.65375E+005    2.55423E+005    2.55423E+005    1.01720E+004   -2.63030E+004    2.81726E+005   -7.97640E+004    2.59646E+005    5.74419E+004   -2.56973E+004    2.07547E+005   -3.09727E+003    9.67597E+004   -1.13214E+004
            4483    3.06697E+005    3.06325E+005    3.06325E+005    2.41072E+004   -2.00617E+004    3.26387E+005   -1.03457E+005    2.99416E+005    7.31768E+004   -1.92028E+004    2.56397E+005    1.55848E+003    1.07639E+005   -9.45979E+003
            4484    3.56141E+005    3.60540E+005    3.60540E+005    3.31641E+004   -1.86830E+004    3.79223E+005   -1.25007E+005    3.47498E+005    6.92322E+004   -1.62336E+004    3.22023E+005    5.17399E+003    1.05270E+005   -1.52619E+004
            4485    4.74227E+004    1.84692E+004   -3.58898E+004   -2.98840E+003   -3.58898E+004    5.43590E+004    6.80299E+003   -3.35769E+004   -7.41807E+003   -4.53917E+002   -1.25370E+004   -8.84470E+002    1.94717E+004    1.82462E+004
            4486    6.82929E+004    3.19335E+004   -4.66811E+004   -2.01436E+003   -4.66811E+004    7.86146E+004    5.58733E+003   -4.20537E+004   -7.69561E+003    8.15787E+003   -1.72243E+004   -1.26904E+003    2.12259E+004    3.06283E+004
            4487    6.99208E+004    2.65625E+004   -5.36824E+004   -5.84792E+003   -5.36824E+004    8.02450E+004    1.09893E+004   -4.80987E+004   -9.84430E+003    4.07163E+002   -2.35306E+004   -7.66830E+002    2.27406E+004    3.11075E+004
            4488    6.73005E+004    2.48022E+004   -5.18529E+004   -2.46412E+003   -5.18529E+004    7.66551E+004    9.83827E+003   -5.25223E+004   -9.57326E+003    6.08050E+003   -2.60220E+004   -8.66281E+002    2.43248E+004    2.56836E+004
            4489    7.94754E+004    3.49897E+004   -5.23481E+004    1.57221E+004   -5.23481E+004    8.73378E+004    5.45461E+002   -7.39415E+004    1.02720E+004    2.41976E+004   -3.61060E+004   -4.71406E+003    1.84121E+004    2.73373E+004
            4490    9.60691E+004    3.06891E+004   -7.32569E+004    1.22677E+004   -7.32569E+004    1.03946E+005    1.01000E+004   -9.19687E+004    8.24454E+003    1.62357E+004   -5.47804E+004   -3.27212E+003    2.08463E+004    3.34355E+004
            4491    1.10650E+005    3.57275E+004   -8.34153E+004    1.61208E+004   -8.34153E+004    1.19143E+005    1.05223E+004   -1.06636E+005    1.20844E+004    2.27762E+004   -6.64276E+004   -3.10915E+003    2.18830E+004    3.49283E+004
            4492    1.12653E+005    2.48390E+004   -9.27938E+004    1.41119E+004   -9.27938E+004    1.17633E+005    1.79476E+004   -1.11495E+005    1.07965E+004    1.59084E+004   -8.05479E+004   -1.79707E+003    2.35532E+004    2.69559E+004
            4493    1.10694E+005    4.13743E+004   -8.44511E+004   -2.06711E+003   -8.44511E+004    1.25825E+005    1.50479E+004   -8.82041E+004   -6.77318E+003    2.93015E+004   -6.76721E+004   -7.00801E+003    1.78663E+004    3.62457E+004
            4494    1.35507E+005    4.74150E+004   -1.06566E+005   -5.49882E+003   -1.06566E+005    1.53981E+005    2.15498E+004   -1.08306E+005   -1.03517E+004    3.43132E+004   -8.86110E+004   -5.57201E+003    2.09278E+004    4.21910E+004
            4495    1.44442E+005    3.33085E+004   -1.26827E+005   -6.37147E+003   -1.26827E+005    1.60135E+005    3.32965E+004   -1.31316E+005   -1.05916E+004    2.33491E+004   -1.12647E+005   -4.71483E+003    2.17152E+004    3.80839E+004
            4496    1.58419E+005    3.37211E+004   -1.41062E+005   -6.92936E+003   -1.41062E+005    1.74783E+005    3.80902E+004   -1.45977E+005   -1.12960E+004    2.70979E+004   -1.30072E+005   -3.63041E+003    2.36286E+004    3.28634E+004
            4497    1.73008E+005    8.03831E+004   -1.14501E+005    2.09804E+004   -1.14501E+005    1.94884E+005    4.37914E+003   -1.47294E+005    1.88750E+004    6.51908E+004   -9.72033E+004   -1.08465E+004    1.65425E+004    5.08669E+004
            4498    1.82275E+005    5.68269E+004   -1.43438E+005    1.27704E+004   -1.43438E+005    2.00265E+005    2.46136E+004   -1.69664E+005    1.00590E+004    4.55079E+004   -1.29408E+005   -6.67728E+003    1.96437E+004    4.57571E+004
            4499    2.05356E+005    5.78674E+004   -1.63522E+005    2.07336E+004   -1.63522E+005    2.21390E+005    2.83071E+004   -1.97590E+005    1.85987E+004    4.73569E+004   -1.50877E+005   -6.78072E+003    1.94050E+004    4.64790E+004
            4500    2.22645E+005    4.41280E+004   -1.90782E+005    1.71388E+004   -1.90782E+005    2.34910E+005    4.31717E+004   -2.18920E+005    1.48905E+004    3.82725E+004   -1.82678E+005   -4.11661E+003    2.12069E+004    3.63842E+004
            4501    2.06347E+005    8.08061E+004   -1.55431E+005   -1.04219E+004   -1.55431E+005    2.36237E+005    2.83488E+004   -1.49734E+005   -1.29164E+004    6.92329E+004   -1.41363E+005   -1.14037E+004    1.87488E+004    4.94485E+004
            4502    2.17785E+005    7.55196E+004   -1.73046E+005   -1.57249E+004   -1.73046E+005    2.48565E+005    3.77504E+004   -1.65788E+005   -1.86904E+004    6.22144E+004   -1.56775E+005   -9.48143E+003    2.05260E+004    5.51113E+004
            4503    2.38656E+005    5.70026E+004   -2.09401E+005   -1.51361E+004   -2.09401E+005    2.66404E+005    5.58448E+004   -2.11963E+005   -1.76188E+004    4.61976E+004   -1.96113E+005   -8.22142E+003    2.14390E+004    5.18057E+004
            4504    2.63715E+005    5.32955E+004   -2.38234E+005   -1.62902E+004   -2.38234E+005    2.91530E+005    6.70763E+004   -2.41731E+005   -1.86681E+004    4.61409E+004   -2.28702E+005   -6.41399E+003    2.26554E+004    4.45565E+004
            4505    2.53589E+005    1.17551E+005   -1.65874E+005    3.95606E+004   -1.65874E+005    2.83424E+005    2.92077E+003   -2.24126E+005    3.91525E+004    1.06714E+005   -1.54628E+005   -1.26066E+004    1.58245E+004    5.12247E+004
            4506    2.68532E+005    8.83874E+004   -2.06079E+005    2.52771E+004   -2.06079E+005    2.94467E+005    3.08049E+004   -2.51020E+005    2.39249E+004    7.63438E+004   -1.92683E+005   -7.87325E+003    1.80682E+004    5.75125E+004
            4507    3.03744E+005    8.63464E+004   -2.41441E+005    3.05145E+004   -2.41441E+005    3.27787E+005    4.15266E+004   -2.91863E+005    2.96879E+004    7.61248E+004   -2.30393E+005   -7.98375E+003    1.73001E+004    5.56657E+004
            4508    3.29057E+005    6.27236E+004   -2.82885E+005    2.66462E+004   -2.82885E+005    3.45609E+005    6.45052E+004   -3.24563E+005    2.58521E+004    5.66410E+004   -2.76009E+005   -5.82734E+003    1.80368E+004    4.41161E+004
            4509    2.61680E+005    9.71808E+004   -2.04957E+005   -5.71902E+004   -2.04957E+005    3.02138E+005    5.49889E+004    8.78584E+004   -6.53123E+004    8.28026E+004   -1.82457E+005   -1.96369E+004    3.20793E+004    6.11572E+004
            4510    3.03486E+005    1.11799E+005   -2.37823E+005   -4.23422E+004   -2.37823E+005    3.49622E+005    5.61221E+004   -1.78381E+005   -4.69226E+004    1.00852E+005   -2.22295E+005   -1.26834E+004    2.88982E+004    5.94628E+004
            4511    3.13750E+005    7.32563E+004   -2.80799E+005   -3.72683E+004   -2.80799E+005    3.54055E+005    8.16036E+004   -2.64302E+005   -4.05797E+004    6.53991E+004   -2.69630E+005   -1.00270E+004    2.82749E+004    5.08880E+004
            4512    3.46342E+005    5.27096E+004   -3.29031E+005   -3.49202E+004   -3.29031E+005    3.81740E+005    1.03747E+005   -3.19942E+005   -3.77174E+004    4.69882E+004   -3.20512E+005   -7.79505E+003    2.88436E+004    4.53595E+004
            4513    4.09124E+005    5.23864E+004   -3.64731E+005    3.59015E+004   -3.64731E+005    4.17118E+005    9.21478E+004   -4.08376E+005    4.52785E+004    3.95561E+004   -3.61278E+005   -9.54964E+003    2.20742E+004    2.97368E+004
            4514    3.66385E+005    8.68753E+004   -2.98489E+005    4.53847E+004   -2.98489E+005    3.85364E+005    5.54097E+004   -3.61043E+005    4.49499E+004    8.34963E+004   -2.94675E+005   -6.83420E+003    1.89250E+004    3.21518E+004
            4515    3.21921E+005    1.12799E+005   -2.34521E+005    5.38544E+004   -2.34521E+005    3.47321E+005    2.26226E+004   -3.09429E+005    5.33278E+004    1.10980E+005   -2.32176E+005    1.38028E+003    1.34738E+004    2.44052E+004
            4516    3.36627E+005    1.83940E+005   -1.86931E+005    9.92954E+004   -1.86931E+005    3.70871E+005   -3.21016E+004   -3.11304E+005    1.00169E+005    1.81269E+005   -1.85133E+005    8.56623E+003    1.82393E+002    2.57224E+004
            4517    4.16514E+004    1.89720E+004   -2.73773E+004    6.91719E+003   -2.73773E+004    4.63493E+004    4.96024E+002   -3.74143E+004    3.76191E+002    8.03267E+003   -9.89693E+003   -9.32434E+002    2.16677E+004   -5.19462E+003
            4518    5.61975E+004    1.08116E+004   -4.68698E+004    7.71584E+003   -4.68698E+004    5.76814E+004    9.44747E+003   -5.60052E+004   -6.50350E+003    1.02487E+004   -3.20876E+004   -2.83058E+003    2.41095E+004    2.97460E+003
            4519    1.01752E+005    4.55149E+004   -7.04238E+004    4.04334E+003   -7.04238E+004    1.15939E+005    6.95520E+003   -7.90763E+004   -8.75112E+003    4.09986E+004   -5.31131E+004   -3.54973E+003    2.80805E+004    2.08178E+004
            4520    1.49126E+005    6.62575E+004   -1.05628E+005   -1.07247E+004   -1.05628E+005    1.71885E+005    1.66983E+004   -8.41044E+004   -2.19744E+004    5.82707E+004   -8.63911E+004   -2.18696E+003    3.13061E+004    3.42838E+004
            4521    2.14974E+005    1.08638E+005   -1.39513E+005   -1.00026E+004   -1.39513E+005    2.48151E+005    1.36260E+004   -9.09719E+004   -1.82228E+004    9.71279E+004   -1.19783E+005   -1.76466E+003    3.23879E+004    5.07349E+004
            4522    2.59942E+005    1.06195E+005   -1.93790E+005   -3.50395E+004   -1.93790E+005    2.99985E+005    4.08781E+004   -1.21024E+005   -4.04902E+004    9.72901E+004   -1.79434E+005    5.47231E+003    3.22954E+004    4.80223E+004
            4523    2.80284E+005    1.34303E+005   -1.87872E+005   -1.07640E+002   -1.87872E+005    3.22175E+005    1.78924E+004   -1.83820E+005   -8.43462E+002    1.28653E+005   -1.81486E+005    3.34418E+003    1.37355E+004    4.14971E+004
            4524    4.62583E+005    5.29833E+004   -4.30458E+005    7.97773E+003   -4.30458E+005    4.83441E+005    1.23166E+005   -4.57619E+005    5.05421E+004    7.56284E+003   -4.27602E+005   -8.76168E+003    2.38275E+004    2.66531E+004
            4525    5.03113E+005    5.63406E+004   -4.80253E+005   -1.91540E+004   -4.80253E+005    5.36594E+005    1.47689E+005   -4.90126E+005    5.48597E+004   -1.93215E+004   -4.78605E+005   -5.46718E+003    2.50863E+004    1.44981E+004
            4526    5.20687E+005    5.73699E+004   -5.01228E+005   -2.93369E+004   -5.01228E+005    5.58598E+005    1.57732E+005   -5.04060E+005    5.61699E+004   -2.93375E+004   -5.00027E+005    5.47411E-001    2.58628E+004    5.37167E+002
            4527    5.04714E+005    5.69220E+004   -4.81211E+005   -1.83762E+004   -4.81211E+005    5.38133E+005    1.47555E+005   -4.91839E+005    5.54828E+004   -1.86583E+004   -4.79490E+005    5.44352E+003    2.47828E+004   -1.60839E+004
            4528    4.65216E+005    5.41645E+004   -4.32720E+005    7.27702E+003   -4.32720E+005    4.86885E+005    1.23760E+005   -4.59855E+005    5.16354E+004    7.09406E+003   -4.30008E+005    9.05220E+003    2.41282E+004   -2.53159E+004
            4529    4.16391E+005    5.91177E+004   -3.65593E+005    4.19487E+004   -3.65593E+005    4.24710E+005    8.81754E+004   -4.15594E+005    4.92912E+004    4.80907E+004   -3.61908E+005    1.02557E+004    2.06679E+004   -3.26194E+004
            4530    3.69073E+005    8.70166E+004   -2.99933E+005    4.81958E+004   -2.99933E+005    3.86949E+005    5.49068E+004   -3.64438E+005    4.74028E+004    8.41446E+004   -2.96268E+005    5.19930E+003    1.94492E+004   -3.11590E+004
            4531    3.48454E+005    1.35050E+005   -2.42003E+005    6.81531E+004   -2.42003E+005    3.77052E+005    1.29332E+004   -3.33544E+005    6.78444E+004    1.32145E+005   -2.38789E+005    5.48352E+002    9.79250E+003   -3.29445E+004
            4532    3.14154E+005    1.25133E+005   -2.32931E+005   -3.54434E+003   -2.32931E+005    3.58064E+005    3.71143E+004   -2.43279E+005   -4.42187E+003    1.17670E+005   -2.24591E+005   -7.18333E+003    2.05615E+004   -4.83328E+004
            4533    3.73088E+005    2.37667E+004   -3.76248E+005   -3.77277E+004   -3.76248E+005    4.00015E+005    1.30070E+005   -3.61422E+005   -4.07241E+004    2.10438E+004   -3.70529E+005   -4.96006E+003    3.18761E+004    3.22229E+004
            4534    3.57197E+005    5.36310E+004   -3.14838E+005    2.99059E+004   -3.14838E+005    3.68469E+005    7.71003E+004   -3.55418E+005    2.93226E+004    5.03276E+004   -3.10951E+005   -4.74196E+003    1.81763E+004    3.24379E+004
            4535    2.80262E+005    3.93904E+004   -2.64683E+005   -1.67236E+004   -2.64683E+005    3.04074E+005    8.06721E+004   -2.67181E+005   -1.89990E+004    3.65864E+004   -2.59604E+005   -3.99614E+003    2.36404E+004    2.86807E+004
            4536    2.39198E+005    4.32019E+004   -2.06099E+005    2.15193E+004   -2.06099E+005    2.49301E+005    4.71259E+004   -2.36972E+005    1.94810E+004    4.05616E+004   -2.01420E+005   -3.16107E+003    2.14458E+004    2.52142E+004
            4537    1.63909E+005    2.37796E+004   -1.53842E+005   -8.42660E+003   -1.53842E+005    1.77622E+005    4.61630E+004   -1.56551E+005   -1.26433E+004    2.15200E+004   -1.47366E+005   -2.03449E+003    2.43767E+004    1.95896E+004
            4538    1.16599E+005    2.42626E+004   -9.53627E+004    1.79532E+004   -9.53627E+004    1.19625E+005    1.77157E+004   -1.16214E+005    1.37224E+004    2.03167E+004   -8.71861E+004   -1.36994E+003    2.42629E+004    1.76269E+004
            4539    5.79263E+004    1.34080E+004   -5.10445E+004   -3.33074E+003   -5.10445E+004    6.44525E+004    1.36558E+004   -5.20536E+004   -1.16531E+004    9.40647E+002   -3.02548E+004   -2.82430E+002    2.52009E+004    1.53956E+004
            4540    3.96051E+005    9.33437E+003   -4.09205E+005   -4.03253E+004   -4.09205E+005    4.18539E+005    1.46732E+005   -3.88954E+005   -4.35004E+004    8.52143E+003   -4.05217E+005   -2.23363E+003    3.40679E+004    1.82353E+004
            4541    3.74279E+005    4.20644E+004   -3.38188E+005    2.98160E+004   -3.38188E+005    3.80253E+005    8.87693E+004   -3.73827E+005    2.90557E+004    4.13945E+004   -3.36758E+005   -2.10224E+003    1.84121E+004    1.37687E+004
            4542    2.91888E+005    3.61974E+004   -2.79076E+005   -1.82356E+004   -2.79076E+005    3.15273E+005    8.70379E+004   -2.80126E+005   -2.05320E+004    3.56314E+004   -2.76213E+005   -1.88006E+003    2.43790E+004    1.31399E+004
            4543    2.47535E+005    3.70729E+004   -2.18583E+005    1.99415E+004   -2.18583E+005    2.55656E+005    5.38561E+004   -2.46196E+005    1.78791E+004    3.68092E+004   -2.16257E+005   -7.98997E+002    2.20714E+004    8.16645E+003
            4544    1.68558E+005    2.41977E+004   -1.58521E+005   -9.09063E+003   -1.58521E+005    1.82719E+005    4.78048E+004   -1.60912E+005   -1.34514E+004    2.39147E+004   -1.53878E+005   -9.05457E+002    2.51364E+004    7.09597E+003
            4545    1.16852E+005    1.90814E+004   -9.88415E+004    1.69083E+004   -9.88415E+004    1.17923E+005    2.09506E+004   -1.16806E+005    1.31989E+004    1.71319E+004   -9.31826E+004   -1.36173E+002    2.47878E+004    4.47345E+003
            4546    5.42187E+004    7.69616E+003   -4.87009E+004    3.03902E+003   -4.87009E+004    5.63971E+004    1.26552E+004   -5.37659E+004   -1.16553E+004    4.16073E+003   -3.04712E+004   -3.20703E+002    2.57258E+004    4.16877E+003
            4547    4.04486E+005    3.75016E+003   -4.21206E+005   -4.08953E+004   -4.21206E+005    4.24957E+005    1.52784E+005   -3.98886E+005   -4.41191E+004    3.73680E+003   -4.17969E+005    2.75708E+002    3.48657E+004   -2.36043E+003
            4548    3.80325E+005    4.02615E+004   -3.44306E+005    3.16294E+004   -3.44306E+005    3.84567E+005    9.08049E+004   -3.80104E+005    3.07203E+004    4.02249E+004   -3.43360E+005    3.71841E+002    1.85101E+004   -3.49397E+003
            4549    2.95807E+005    3.42230E+004   -2.84069E+005   -1.75958E+004   -2.84069E+005    3.18292E+005    8.91474E+004   -2.85326E+005   -1.98382E+004    3.40805E+004   -2.81685E+005    8.67802E+002    2.43413E+004   -6.65241E+003
            4550    2.49901E+005    3.82859E+004   -2.19344E+005    2.20347E+004   -2.19344E+005    2.57630E+005    5.30077E+004   -2.48708E+005    2.00395E+004    3.81035E+004   -2.17166E+005    6.17486E+002    2.18464E+004   -6.82377E+003
            4551    1.69668E+005    2.29346E+004   -1.60480E+005   -9.13735E+003   -1.60480E+005    1.83415E+005    4.88943E+004   -1.62637E+005   -1.33561E+004    2.25618E+004   -1.55889E+005    8.80454E+002    2.49049E+004   -8.14356E+003
            4552    1.17900E+005    2.08846E+004   -9.82838E+004    1.83050E+004   -9.82838E+004    1.19168E+005    1.96980E+004   -1.17836E+005    1.43107E+004    1.89954E+004   -9.24003E+004    3.36488E+002    2.46384E+004   -7.52236E+003
            4553    5.46839E+004    8.65010E+003   -4.98546E+004   -2.96303E+001   -4.98546E+004    5.85047E+004    1.37447E+004   -5.31009E+004   -1.23019E+004    2.23850E+003   -3.11707E+004    3.15073E+002    2.56041E+004   -7.77836E+003
            4554    3.95731E+005    9.47365E+003   -4.08948E+005   -4.06914E+004   -4.08948E+005    4.18421E+005    1.46722E+005   -3.88481E+005   -4.39085E+004    8.47252E+003   -4.04729E+005    2.51559E+003    3.42618E+004   -2.02199E+004
            4555    3.73745E+005    4.63625E+004   -3.35245E+005    3.01068E+004   -3.35245E+005    3.81608E+005    8.62586E+004   -3.72948E+005    2.95022E+004    4.46079E+004   -3.32886E+005    3.38174E+003    1.81831E+004   -2.33215E+004
            4556    2.89344E+005    3.74920E+004   -2.75887E+005   -1.88729E+004   -2.75887E+005    3.13379E+005    8.57559E+004   -2.76584E+005   -2.11750E+004    3.57058E+004   -2.71798E+005    2.81548E+003    2.41613E+004   -2.33908E+004
            4557    2.45815E+005    4.15855E+004   -2.14167E+005    2.03283E+004   -2.14167E+005    2.55753E+005    5.07512E+004   -2.43734E+005    1.83217E+004    3.94289E+004   -2.10004E+005    2.85587E+003    2.16165E+004   -2.31011E+004
            4558    1.66980E+005    2.58174E+004   -1.56053E+005   -9.66678E+003   -1.56053E+005    1.81870E+005    4.66341E+004   -1.58160E+005   -1.39257E+004    2.33163E+004   -1.49293E+005    1.89697E+003    2.46338E+004   -2.08050E+004
            4559    1.18414E+005    2.37392E+004   -9.76866E+004    1.74670E+004   -9.76866E+004    1.21426E+005    1.88268E+004   -1.18040E+005    1.36303E+004    1.89665E+004   -8.90771E+004    1.50126E+003    2.42522E+004   -1.93678E+004
            4560    6.06943E+004    1.65849E+004   -5.16198E+004   -3.55747E+003   -5.16198E+004    6.82047E+004    1.28641E+004   -5.23413E+004   -1.21090E+004    2.81332E+003   -2.92968E+004    2.65640E+002    2.51664E+004   -1.83390E+004
            4561    3.74281E+005    3.03399E+004   -3.73272E+005   -3.76400E+004   -3.73272E+005    4.03612E+005    1.26857E+005   -3.59997E+005   -4.05939E+004    2.67023E+004   -3.66681E+005    5.74033E+003    3.15315E+004   -3.74131E+004
            4562    3.53633E+005    5.50540E+004   -3.10660E+005    2.95048E+004   -3.10660E+005    3.65714E+005    7.53672E+004   -3.51547E+005    2.88589E+004    5.05617E+004   -3.05522E+005    5.11878E+003    1.83317E+004   -3.84300E+004
            4563    2.77710E+005    4.73502E+004   -2.56623E+005   -1.61881E+004   -2.56623E+005    3.03973E+005    7.51536E+004   -2.60592E+005   -1.83920E+004    4.20065E+004   -2.49075E+005    5.74236E+003    2.29297E+004   -3.93742E+004
            4564    2.33598E+005    4.52916E+004   -1.99469E+005    2.10797E+004   -1.99469E+005    2.44761E+005    4.43659E+004   -2.30749E+005    1.90666E+004    4.00498E+004   -1.92214E+005    4.15269E+003    2.08298E+004   -3.51253E+004
            4565    1.62419E+005    3.17661E+004   -1.46882E+005   -8.12436E+003   -1.46882E+005    1.78648E+005    4.10801E+004   -1.50796E+005   -1.23019E+004    2.57515E+004   -1.36690E+005    3.69244E+003    2.34698E+004   -3.17955E+004
            4566    1.16801E+005    2.78994E+004   -9.40880E+004    1.67220E+004   -9.40880E+004    1.21987E+005    1.64889E+004   -1.15588E+005    1.34744E+004    1.87210E+004   -8.16620E+004    1.91229E+003    2.33174E+004   -2.84177E+004
            4567    6.75842E+004    2.38674E+004   -5.33145E+004   -4.73154E+003   -5.33145E+004    7.71819E+004    1.13929E+004   -5.10356E+004   -1.14625E+004    3.62793E+003   -2.63441E+004    8.75255E+002    2.41951E+004   -2.66794E+004
            4568    3.43713E+005    5.24927E+004   -3.27495E+005   -3.82738E+004   -3.27495E+005    3.79987E+005    1.04425E+005   -3.15013E+005   -4.13706E+004    4.62572E+004   -3.18163E+005    7.38943E+003    2.97211E+004   -4.75325E+004
            4569    3.27736E+005    7.26423E+004   -2.75135E+005    2.79791E+004   -2.75135E+005    3.47777E+005    5.81712E+004   -3.20782E+005    2.72828E+004    6.44639E+004   -2.66260E+005    7.28229E+003    1.78440E+004   -5.10960E+004
            4570    2.55912E+005    5.36840E+004   -2.30608E+005   -1.86436E+004   -2.30608E+005    2.84292E+005    6.51892E+004   -2.31185E+005   -2.10862E+004    4.46116E+004   -2.19093E+005    6.88631E+003    2.22447E+004   -4.94394E+004
            4571    2.18389E+005    5.43628E+004   -1.79658E+005    1.87098E+004   -1.79658E+005    2.34021E+005    3.55286E+004   -2.11692E+005    1.65701E+004    4.56993E+004   -1.68855E+005    5.91975E+003    2.02163E+004   -4.37033E+004
            4572    1.53268E+005    3.56643E+004   -1.35005E+005   -9.11248E+003   -1.35005E+005    1.70669E+005    3.61510E+004   -1.37355E+005   -1.34006E+004    2.58776E+004   -1.20930E+005    4.29956E+003    2.25613E+004   -3.90706E+004
            4573    1.12751E+005    3.33455E+004   -8.69626E+004    1.62873E+004   -8.69626E+004    1.20308E+005    1.24433E+004   -1.09791E+005    1.24494E+004    2.09880E+004   -7.07672E+004    2.89457E+003    2.23446E+004   -3.40652E+004
            4574    7.18027E+004    2.80517E+004   -5.44608E+004   -6.17629E+003   -5.44608E+004    8.25124E+004    1.08618E+004   -4.75214E+004   -1.11537E+004    2.63489E+003   -2.40666E+004    7.67504E+002    2.30639E+004   -3.17443E+004
            4575    3.19460E+005    8.48081E+004   -2.77506E+005   -3.63405E+004   -2.77506E+005    3.62314E+005    7.63461E+004   -2.59664E+005   -3.96862E+004    7.51663E+004   -2.64518E+005    1.14768E+004    2.82682E+004   -5.68596E+004
            4576    2.94680E+005    8.03546E+004   -2.36579E+005    2.91311E+004   -2.36579E+005    3.16934E+005    4.23646E+004   -2.84404E+005    2.81643E+004    6.96834E+004   -2.24941E+005    7.72976E+003    1.77613E+004   -5.60233E+004
            4577    2.36874E+005    6.80769E+004   -1.98860E+005   -1.37412E+004   -1.98860E+005    2.66937E+005    4.81747E+004   -2.01184E+005   -1.61454E+004    5.63283E+004   -1.84707E+005    9.77126E+003    2.07788E+004   -5.36832E+004
            4578    2.00663E+005    5.93500E+004   -1.57980E+005    2.02629E+004   -1.57980E+005    2.17330E+005    2.61225E+004   -1.91815E+005    1.81637E+004    4.75717E+004   -1.44103E+005    7.06947E+003    1.88143E+004   -4.86017E+004
            4579    1.41820E+005    4.32241E+004   -1.16622E+005   -5.88125E+003   -1.16622E+005    1.59846E+005    2.64264E+004   -1.20333E+005   -1.02747E+004    3.10739E+004   -1.00078E+005    5.95383E+003    2.07802E+004   -4.17269E+004
            4580    1.05602E+005    3.46568E+004   -7.91194E+004    1.57559E+004   -7.91194E+004    1.13776E+005    9.56888E+003   -1.01692E+005    1.21161E+004    1.99073E+004   -6.07301E+004    3.26077E+003    2.08131E+004   -3.59886E+004
            4581    6.99106E+004    3.10628E+004   -4.94838E+004   -4.55388E+003   -4.94838E+004    8.05465E+004    7.65829E+003   -4.07912E+004   -9.86372E+003    4.90716E+003   -1.80183E+004    1.26756E+003    2.15672E+004   -3.20527E+004
            4582    2.86817E+005    8.96234E+004   -2.40050E+005   -4.78174E+004   -2.40050E+005    3.29673E+005    6.60813E+004   -1.88321E+005   -5.26788E+004    7.82385E+004   -2.23804E+005    1.18059E+004    2.93297E+004   -5.89882E+004
            4583    2.72370E+005    9.91479E+004   -2.02219E+005    2.63697E+004   -2.02219E+005    3.01367E+005    2.55670E+004   -2.49047E+005    2.50631E+004    8.88085E+004   -1.90573E+005    8.74852E+003    1.82905E+004   -5.36790E+004
            4584    2.20054E+005    7.58539E+004   -1.75853E+005   -1.98955E+004   -1.75853E+005    2.51707E+005    3.99650E+004   -1.62160E+005   -2.29828E+004    6.24298E+004   -1.59342E+005    9.23774E+003    2.07762E+004   -5.57876E+004
            4585    1.82524E+005    6.97386E+004   -1.34112E+005    1.41674E+004   -1.34112E+005    2.03850E+005    1.67353E+004   -1.61783E+005    1.14399E+004    5.68705E+004   -1.18516E+005    7.90656E+003    1.90678E+004   -4.89222E+004
            4586    1.29527E+005    4.51173E+004   -1.02454E+005   -7.58668E+003   -1.02454E+005    1.47571E+005    2.16410E+004   -1.00781E+005   -1.24832E+004    3.19245E+004   -8.43644E+004    5.68636E+003    2.02391E+004   -4.13136E+004
            4587    9.15728E+004    3.62453E+004   -6.43865E+004    1.40454E+004   -6.43865E+004    1.00632E+005    4.69862E+003   -8.51969E+004    9.16238E+003    2.26833E+004   -4.59415E+004    3.94740E+003    2.00578E+004   -3.24940E+004
            4588    6.09570E+004    2.56212E+004   -4.44730E+004   -3.87050E+003   -4.44730E+004    7.00942E+004    7.57411E+003   -3.94170E+004   -8.81181E+003    3.02946E+003   -1.69400E+004    1.06447E+003    2.03668E+004   -2.68664E+004
            4589    2.77981E+005    1.13078E+005   -2.03687E+005   -3.74479E+002   -2.03687E+005    3.16765E+005    3.03277E+004   -2.15823E+005   -2.94321E+003    1.05644E+005   -1.93684E+005    1.13036E+004    2.34645E+004   -4.60203E+004
            4590    2.57431E+005    1.06596E+005   -1.85828E+005    6.60811E+003   -1.85828E+005    2.92424E+005    2.42081E+004   -2.06416E+005    4.03628E+003    9.50340E+004   -1.71694E+005    1.08706E+004    2.20310E+004   -5.56990E+004
            4591    2.12103E+005    9.72983E+004   -1.44688E+005    9.00636E+003   -1.44688E+005    2.41987E+005    1.27945E+004   -1.62279E+005    6.97003E+003    8.44356E+004   -1.29789E+005    1.26454E+004    1.82042E+004   -5.23306E+004
            4592    1.67392E+005    7.56877E+004   -1.14677E+005    9.50510E+003   -1.14677E+005    1.90365E+005    9.82822E+003   -1.32765E+005    6.65142E+003    6.18529E+004   -9.79890E+004    1.01376E+004    1.77103E+004   -4.82968E+004
            4593    1.12883E+005    5.19011E+004   -7.63466E+004    7.95042E+003   -7.63466E+004    1.28248E+005    5.49835E+003   -9.03825E+004    3.34604E+003    4.01766E+004   -6.00177E+004    7.95585E+003    1.77712E+004   -3.60558E+004
            4594    7.04340E+004    2.64471E+004   -5.11661E+004    8.69025E+003   -5.11661E+004    7.76131E+004    5.34291E+003   -6.51061E+004    2.33331E+003    1.78742E+004   -3.62363E+004    4.17440E+003    1.85618E+004   -2.27046E+004
            4595    4.35763E+004    2.04176E+004   -2.86407E+004    5.57667E+003   -2.86407E+004    4.90583E+004    8.82115E+002   -3.72179E+004   -4.18385E+002    6.88152E+003   -9.10948E+003    1.56689E+003    1.92391E+004   -1.40100E+004
            4596    4.15687E+004    1.67007E+004   -3.05002E+004    6.50740E+002   -3.05002E+004    4.72009E+004    4.38291E+003   -3.34475E+004   -2.68321E+003    1.74237E+003   -1.22079E+004    9.13010E+002    2.17380E+004    7.19652E+003
            4597    6.05092E+004    1.91306E+004   -4.53006E+004    1.03208E+004   -4.53006E+004    6.44313E+004    5.28308E+003   -5.90405E+004   -4.48233E+003    1.88052E+004   -3.01720E+004    2.75469E+003    2.45480E+004   -3.17682E+003
            4598    1.01957E+005    4.17980E+004   -7.47060E+004   -1.78169E+003   -7.47060E+004    1.16504E+005    1.15632E+004   -7.63420E+004   -1.49538E+004    3.83502E+004   -5.80861E+004    2.54014E+003    2.81842E+004   -1.81836E+004
            4599    1.56030E+005    7.85956E+004   -1.01527E+005   -8.00145E+003   -1.01527E+005    1.80123E+005    1.03111E+004   -6.32356E+004   -1.97023E+004    7.06384E+004   -8.18693E+004    2.61853E+003    3.13427E+004   -3.52855E+004
            4600    2.13573E+005    1.03616E+005   -1.42940E+005   -2.42497E+004   -1.42940E+005    2.46556E+005    2.11912E+004    8.56084E+004   -3.30818E+004    9.39325E+004   -1.24424E+005   -1.26363E+003    3.27919E+004   -4.58430E+004
            4601    2.46673E+005    1.15708E+005   -1.69022E+005   -2.00124E+004   -1.69022E+005    2.84730E+005    2.44421E+004   -1.06612E+005   -2.63276E+004    1.07445E+005   -1.54444E+005   -1.73126E+002    3.09931E+004   -4.66123E+004
            4602    2.87961E+005    1.14436E+005   -2.18002E+005   -4.58132E+004   -2.18002E+005    3.32438E+005    4.97930E+004   -1.14067E+005   -5.02619E+004    1.03706E+005   -2.02823E+005   -9.41843E+003    3.32778E+004   -5.43544E+004
            4603    3.37417E+005    1.86375E+005    1.86375E+005   -1.00008E+005   -1.85593E+005    3.71968E+005    3.30752E+004    3.11561E+005   -1.00784E+005   -1.82958E+005    1.84517E+005   -8.15925E+003   -1.76353E+002    2.61844E+004
            4604    3.21283E+005    2.32913E+005    2.32913E+005   -5.43846E+004   -1.14003E+005    3.46916E+005   -2.15087E+004    3.08467E+005   -5.38784E+004   -1.12227E+005    2.30632E+005   -1.39667E+003    1.32030E+004    2.40991E+004
            4605    3.65696E+005    2.97362E+005    2.97362E+005   -4.48090E+004   -8.80200E+004    3.85382E+005   -5.48442E+004    3.59885E+005   -4.43920E+004   -8.45924E+004    2.93517E+005    7.14605E+003    1.91157E+004    3.21530E+004
            4606    4.08238E+005    3.63875E+005    3.63875E+005   -3.57597E+004   -5.24529E+004    4.16328E+005   -9.18876E+004    4.07469E+005   -4.51152E+004   -3.96351E+004    3.60413E+005    9.69809E+003    2.23111E+004    2.95620E+004
            4607    3.45640E+005    3.27937E+005    3.27937E+005    3.49314E+004   -5.32534E+004    3.81190E+005   -1.03205E+005    3.18823E+005    3.77212E+004   -4.74649E+004    3.19358E+005    7.71058E+003    2.87061E+004    4.56400E+004
            4608    3.27141E+005    2.80840E+005    2.80840E+005   -2.64679E+004   -6.30576E+004    3.43898E+005   -6.37715E+004    3.22489E+005   -2.56705E+004   -5.69104E+004    2.73895E+005    5.86189E+003    1.79830E+004    4.42493E+004
            4609    2.61789E+005    2.36465E+005    2.36465E+005    1.64700E+004   -5.30741E+004    2.89539E+005   -6.66203E+004    2.39650E+005    1.88866E+004   -4.58854E+004    2.26860E+005    6.38651E+003    2.27102E+004    4.45152E+004
            4610    2.21029E+005    1.89239E+005    1.89239E+005   -1.73510E+004   -4.38414E+004    2.33081E+005   -4.26822E+004    2.17415E+005   -1.50906E+004   -3.80770E+004    1.81214E+005    4.05932E+003    2.11941E+004    3.59655E+004
            4611    1.56880E+005    1.39793E+005    1.39793E+005    7.21917E+003   -3.34029E+004    1.73196E+005   -3.78696E+004    1.44318E+005    1.16494E+004   -2.67687E+004    1.28728E+005    3.60870E+003    2.36639E+004    3.27157E+004
            4612    1.11613E+005    9.17572E+004    9.17572E+004   -1.41740E+004   -2.47811E+004    1.16538E+005   -1.76007E+004    1.10471E+005   -1.09628E+004   -1.56239E+004    7.93888E+004    1.78050E+003    2.35494E+004    2.69447E+004
            4613    6.70402E+004    5.14712E+004    5.14712E+004    2.54184E+003   -2.49436E+004    7.64149E+004   -9.68981E+003    5.18798E+004    9.63240E+003   -5.91829E+003    2.53553E+004    8.53418E+002    2.43247E+004    2.57137E+004
            4614    3.12436E+005    2.78859E+005    2.78859E+005    3.69536E+004   -7.38853E+004    3.52744E+005   -8.06425E+004    2.62392E+005    4.02571E+004   -6.59052E+004    2.67576E+005    9.93701E+003    2.80967E+004    5.12339E+004
            4615    3.01817E+005    2.39496E+005    2.39496E+005   -3.06080E+004   -8.62828E+004    3.25779E+005   -4.08683E+004    2.89925E+005   -2.97901E+004   -7.58928E+004    2.28288E+005    8.02687E+003    1.71950E+004    5.59335E+004
            4616    2.36024E+005    2.06895E+005    2.06895E+005    1.50346E+004   -5.66649E+004    2.63560E+005   -5.50882E+004    2.09335E+005    1.75555E+004   -4.58240E+004    1.93533E+005    8.16658E+003    2.14273E+004    5.16124E+004
            4617    2.03578E+005    1.61868E+005    1.61868E+005   -2.09086E+004   -5.75367E+004    2.19405E+005   -2.78077E+004    1.95957E+005   -1.87449E+004   -4.69913E+004    1.49159E+005    6.73716E+003    1.94204E+004    4.63458E+004
            4618    1.43206E+005    1.25824E+005    1.25824E+005    6.45612E+003   -3.29640E+004    1.58787E+005   -3.31052E+004    1.30135E+005    1.07265E+004   -2.30609E+004    1.11650E+005    4.67057E+003    2.17574E+004    3.77945E+004
            4619    1.09873E+005    8.26960E+004    8.26960E+004   -1.61843E+004   -3.55857E+004    1.18282E+005   -1.03087E+004    1.05916E+005   -1.21669E+004   -2.25669E+004    6.56598E+004    3.07953E+003    2.18708E+004    3.48049E+004
            4620    6.96623E+004    5.33337E+004    5.33337E+004    5.92285E+003   -2.66477E+004    7.99814E+004   -1.08696E+004    4.73845E+004    9.87068E+003   -2.18727E+002    2.29569E+004    7.43687E+002    2.27510E+004    3.10552E+004
            4621    3.03426E+005    2.37145E+005    2.37145E+005    4.29351E+004   -1.12506E+005    3.49651E+005   -5.58578E+004    1.74623E+005    4.75558E+004   -1.01369E+005    2.21387E+005    1.28093E+004    2.88961E+004    5.99626E+004
            4622    2.65866E+005    2.03967E+005    2.03967E+005   -2.44033E+004   -8.78969E+004    2.91864E+005   -3.05557E+004    2.47931E+005   -2.30112E+004   -7.58260E+004    1.90504E+005    7.85782E+003    1.81271E+004    5.73250E+004
            4623    2.15675E+005    1.71127E+005    1.71127E+005    1.57793E+004   -7.51176E+004    2.46245E+005   -3.72630E+004    1.63405E+005    1.87784E+004   -6.18082E+004    1.54819E+005    9.44065E+003    2.04837E+004    5.48499E+004
            4624    1.80744E+005    1.42148E+005    1.42148E+005   -1.30081E+004   -5.63160E+004    1.98464E+005   -2.42746E+004    1.68466E+005   -1.02838E+004   -4.51089E+004    1.28216E+005    6.59148E+003    1.96212E+004    4.53310E+004
            4625    1.34938E+005    1.06072E+005    1.06072E+005    5.67153E+003   -4.73182E+004    1.53390E+005   -2.14751E+004    1.07481E+005    1.05521E+004   -3.41305E+004    8.80037E+004    5.51107E+003    2.09379E+004    4.22139E+004
            4626    9.57169E+004    7.29607E+004    7.29607E+004   -1.22781E+004   -3.05889E+004    1.03550E+005   -1.00312E+004    9.16513E+004   -8.25732E+003   -1.60970E+004    5.44480E+004    3.26769E+003    2.08654E+004    3.33596E+004
            4627    6.81765E+004    4.65135E+004    4.65135E+004    2.04902E+003   -3.19790E+004    7.84925E+004   -5.52785E+003    4.16393E+004    7.71808E+003   -8.10058E+003    1.69660E+004    1.25893E+003    2.12019E+004    3.06196E+004
            4628    2.59820E+005    2.03953E+005    2.03953E+005    5.78198E+004   -9.60283E+004    2.99981E+005   -5.52482E+004   -9.20905E+004    6.59987E+004   -8.16541E+004    1.81400E+005    1.94299E+004    3.19460E+004    6.09758E+004
            4629    2.52795E+005    1.66127E+005    1.66127E+005   -3.79547E+004   -1.16658E+005    2.82784E+005   -3.83811E+003    2.22621E+005   -3.74456E+004   -1.06033E+005    1.54993E+005    1.24899E+004    1.61133E+004    5.07364E+004
            4630    2.05169E+005    1.54566E+005    1.54566E+005    1.04871E+004   -8.03391E+004    2.34906E+005   -2.82381E+004    1.48684E+005    1.30365E+004   -6.88290E+004    1.40507E+005    1.13368E+004    1.88412E+004    4.91859E+004
            4631    1.72114E+005    1.13705E+005    1.13705E+005   -2.09829E+004   -8.01995E+004    1.93904E+005   -4.17417E+003    1.46413E+005   -1.88154E+004   -6.49612E+004    9.62991E+004    1.08110E+004    1.66491E+004    5.08203E+004
            4632    1.09680E+005    8.37792E+004    8.37792E+004    1.93957E+003   -4.08455E+004    1.24625E+005   -1.49577E+004    8.77180E+004    6.70712E+003   -2.87986E+004    6.69647E+004    7.00595E+003    1.79136E+004    3.60034E+004
            4633    7.91764E+004    5.20747E+004    5.20747E+004   -1.58556E+004   -3.48811E+004    8.69558E+004   -4.45983E+002    7.37657E+004   -1.04134E+004   -2.41736E+004    3.59250E+004    4.73714E+003    1.83514E+004    2.71848E+004
            4634    4.73784E+004    3.59236E+004    3.59236E+004    2.91402E+003   -1.83633E+004    5.42869E+004   -6.82478E+003    3.38238E+004    7.41582E+003    3.75204E+002    1.26833E+004    9.09938E+002    1.94698E+004    1.81715E+004
            4635    4.16901E+004    2.74534E+004    2.74534E+004   -6.99615E+003   -1.88915E+004    4.63449E+004   -5.21920E+002    3.75781E+004   -3.58625E+002   -8.13266E+003    1.00570E+004    9.81421E+002    2.16611E+004   -5.08825E+003
            4636    5.58860E+004    4.67887E+004    4.67887E+004   -7.54254E+003   -1.05322E+004    5.73209E+004   -9.57130E+003    5.57057E+004    6.63456E+003   -9.95503E+003    3.20344E+004    2.72373E+003    2.40665E+004    2.68700E+003
            4637    1.01171E+005    6.99581E+004    6.99581E+004   -4.13395E+003   -4.53080E+004    1.15266E+005   -6.83873E+003    7.87068E+004    8.57725E+003   -4.08054E+004    5.27443E+004    3.62543E+003    2.78952E+004    2.07468E+004
            4638    1.48190E+005    1.04905E+005    1.04905E+005    1.07409E+004   -6.59121E+004    1.70817E+005   -1.65778E+004    8.31133E+004    2.18764E+004   -5.80111E+004    8.58681E+004    2.04643E+003    3.10690E+004    3.39751E+004
            4639    2.13928E+005    1.38413E+005    1.38413E+005    9.88427E+003   -1.08542E+005    2.46954E+005   -1.32519E+004    8.84943E+004    1.80444E+004   -9.70057E+004    1.18717E+005    1.72858E+003    3.21615E+004    5.06605E+004
            4640    2.59386E+005    1.93476E+005    1.93476E+005    3.49752E+004   -1.05864E+005    2.99340E+005   -4.08626E+004    1.21186E+005    4.05300E+004   -9.69498E+004    1.79007E+005   -5.24100E+003    3.24214E+004    4.80653E+004
            4641    2.80929E+005    1.89401E+005    1.89401E+005    4.42726E+002   -1.33425E+005    3.22826E+005   -1.88065E+004    1.86032E+005    1.21371E+003   -1.27856E+005    1.83062E+005   -3.72119E+003    1.43097E+004    4.10951E+004
            4642    4.36687E+004    2.88122E+004    2.88122E+004   -5.70185E+003   -2.02809E+004    4.90932E+004   -9.43152E+002    3.75774E+004    4.41520E+002   -7.02111E+003    9.40904E+003   -1.61519E+003    1.92575E+004   -1.39469E+004
            4643    6.12421E+004    4.49285E+004    4.49285E+004    3.70704E+003   -2.54435E+004    7.03721E+004   -7.73069E+003    4.06217E+004    8.72835E+003   -3.34044E+003    1.78042E+004   -1.12556E+003    2.03382E+004   -2.68844E+004
            4644    7.05390E+004    5.03113E+004    5.03113E+004    4.32914E+003   -3.09033E+004    8.12147E+004   -7.91237E+003    4.30187E+004    9.68189E+003   -5.33822E+003    1.93934E+004   -1.34810E+003    2.15465E+004   -3.22064E+004
            4645    7.25469E+004    5.55585E+004    5.55585E+004    5.92257E+003   -2.76996E+004    8.32581E+004   -1.12605E+004    4.99156E+004    1.09919E+004   -3.16346E+003    2.59530E+004   -8.42509E+002    2.30449E+004   -3.17895E+004
            4646    6.84089E+004    5.44281E+004    5.44281E+004    4.53250E+003   -2.35536E+004    7.79817E+004   -1.18023E+004    5.28848E+004    1.12941E+004   -4.05987E+003    2.81727E+004   -9.26720E+002    2.41841E+004   -2.67258E+004
            4647    6.13392E+004    5.24863E+004    5.24863E+004    3.42773E+003   -1.62860E+004    6.87723E+004   -1.32094E+004    5.34825E+004    1.20238E+004   -3.11662E+003    3.07209E+004   -2.89622E+002    2.51570E+004   -1.82732E+004
            4648    5.50973E+004    5.03283E+004    5.03283E+004   -3.46810E+001   -8.51916E+003    5.88474E+004   -1.39248E+004    5.35980E+004    1.22356E+004   -2.37744E+003    3.19163E+004   -3.23011E+002    2.55968E+004   -7.77491E+003
            4649    5.42622E+004    4.87509E+004    4.87509E+004   -2.99714E+003   -7.71722E+003    5.64681E+004   -1.26788E+004    5.37974E+004    1.15919E+004   -4.12905E+003    3.05736E+004    3.20867E+002    2.57203E+004    4.22762E+003
            4650    5.77839E+004    5.08486E+004    5.08486E+004    3.40749E+003   -1.35043E+004    6.43529E+004   -1.35839E+004    5.17610E+004    1.16742E+004   -8.22373E+002    2.98999E+004    2.77163E+002    2.52056E+004    1.54562E+004
            4651    7.10975E+004    5.16815E+004    5.16815E+004   -8.64228E+003   -2.67053E+004    7.83868E+004   -5.44462E+003    6.56305E+004   -2.29839E+003   -1.81513E+004    3.67835E+004   -4.19320E+003    1.85952E+004   -2.28509E+004
            4652    9.26737E+004    6.53635E+004    6.53635E+004   -1.38768E+004   -3.65394E+004    1.01903E+005   -4.98244E+003    8.61017E+004   -8.96326E+003   -2.31906E+004    4.71012E+004   -4.04192E+003    2.00258E+004   -3.26242E+004
            4653    1.07685E+005    8.10721E+004    8.10721E+004   -1.55527E+004   -3.50173E+004    1.16089E+005   -1.01674E+004    1.03615E+005   -1.18336E+004   -2.05460E+004    6.28817E+004   -3.37072E+003    2.07981E+004   -3.63089E+004
            4654    1.15182E+005    8.93214E+004    8.93214E+004   -1.61550E+004   -3.35808E+004    1.22902E+005   -1.31952E+004    1.12159E+005   -1.22524E+004   -2.15525E+004    7.33904E+004   -2.99748E+003    2.23248E+004   -3.42886E+004
            4655    1.19119E+005    9.63626E+004    9.63626E+004   -1.67351E+004   -2.79798E+004    1.24342E+005   -1.72159E+004    1.17916E+005   -1.33699E+004   -1.91862E+004    8.42038E+004   -1.96800E+003    2.33223E+004   -2.84248E+004
            4656    1.20133E+005    9.93547E+004    9.93547E+004   -1.75363E+004   -2.37779E+004    1.23133E+005   -1.93468E+004    1.19768E+005   -1.36173E+004   -1.92468E+004    9.09047E+004   -1.53170E+003    2.42519E+004   -1.92838E+004
            4657    1.18707E+005    9.90600E+004    9.90600E+004   -1.83835E+004   -2.08716E+004    1.19932E+005   -1.99350E+004    1.18648E+005   -1.43283E+004   -1.90993E+004    9.32325E+004   -3.37952E+002    2.46460E+004   -7.38276E+003
            4658    1.16736E+005    9.87952E+004    9.87952E+004   -1.68132E+004   -1.90373E+004    1.17833E+005   -2.09816E+004    1.16689E+005   -1.31174E+004   -1.70555E+004    9.31176E+004    1.33041E+002    2.47890E+004    4.62278E+003
            4659    1.15907E+005    9.46241E+004    9.46241E+004   -1.80049E+004   -2.43044E+004    1.18929E+005   -1.74383E+004    1.15521E+005   -1.38393E+004   -2.01740E+004    8.63281E+004    1.37392E+003    2.42589E+004    1.78435E+004
            4660    1.14480E+005    7.73548E+004    7.73548E+004   -7.92175E+003   -5.27567E+004    1.30111E+005   -5.55878E+003    9.13359E+004   -3.37339E+003   -4.09918E+004    6.10415E+004   -8.01945E+003    1.77802E+004   -3.64082E+004
            4661    1.32241E+005    1.04472E+005    1.04472E+005    7.31660E+003   -4.61263E+004    1.50599E+005   -2.18876E+004    1.03381E+005    1.20921E+004   -3.28770E+004    8.64476E+004   -5.82916E+003    2.01972E+004   -4.19019E+004
            4662    1.45403E+005    1.19668E+005    1.19668E+005    5.62497E+003   -4.40670E+004    1.63735E+005   -2.70753E+004    1.24020E+005    9.86823E+003   -3.20173E+004    1.03375E+005   -6.05329E+003    2.07199E+004   -4.21495E+004
            4663    1.56939E+005    1.38425E+005    1.38425E+005    9.00998E+003   -3.61391E+004    1.74565E+005   -3.70988E+004    1.41181E+005    1.31827E+004   -2.65732E+004    1.24687E+005   -4.35160E+003    2.25428E+004   -3.91654E+004
            4664    1.65364E+005    1.49774E+005    1.49774E+005    8.10095E+003   -3.19320E+004    1.81706E+005   -4.19808E+004    1.53884E+005    1.21847E+004   -2.61465E+004    1.39904E+005   -3.68248E+003    2.34504E+004   -3.15051E+004
            4665    1.68698E+005    1.57848E+005    1.57848E+005    9.82808E+003   -2.58276E+004    1.83675E+005   -4.72828E+004    1.59887E+005    1.40423E+004   -2.34801E+004    1.51286E+005   -1.84598E+003    2.46421E+004   -2.02768E+004
            4666    1.70163E+005    1.61047E+005    1.61047E+005    9.19337E+003   -2.28644E+004    1.83912E+005   -4.91254E+004    1.63160E+005    1.33966E+004   -2.25401E+004    1.56520E+005   -8.29532E+002    2.49038E+004   -7.60922E+003
            4667    1.67942E+005    1.57992E+005    1.57992E+005    9.13219E+003   -2.40720E+004    1.82064E+005   -4.76841E+004    1.60306E+005    1.35109E+004   -2.37499E+004    1.53291E+005    9.65295E+002    2.51349E+004    7.55444E+003
            4668    1.62443E+005    1.52561E+005    1.52561E+005    8.65693E+003   -2.35848E+004    1.76146E+005   -4.58777E+004    1.54997E+005    1.29270E+004   -2.12347E+004    1.45941E+005    2.05179E+003    2.44007E+004    1.98757E+004
            4669    1.69621E+005    1.16503E+005    1.16503E+005   -9.38623E+003   -7.63854E+004    1.92888E+005   -1.02437E+004    1.34615E+005   -6.57942E+003   -6.25651E+004    9.98756E+004   -1.01341E+004    1.77215E+004   -4.86282E+004
            4670    1.85890E+005    1.37142E+005    1.37142E+005   -1.37291E+004   -7.05190E+004    2.07661E+005   -1.76314E+004    1.64607E+005   -1.10605E+004   -5.76878E+004    1.21642E+005   -8.03748E+003    1.90745E+004   -4.93225E+004
            4671    2.05189E+005    1.62361E+005    1.62361E+005   -1.99061E+004   -5.98696E+004    2.22231E+005   -2.75286E+004    1.96144E+005   -1.78588E+004   -4.81809E+004    1.48625E+005   -7.15082E+003    1.88690E+004   -4.89777E+004
            4672    2.22835E+005    1.84080E+005    1.84080E+005   -1.86119E+004   -5.45338E+004    2.38614E+005   -3.69781E+004    2.16177E+005   -1.65227E+004   -4.60511E+004    1.73508E+005   -5.93196E+003    2.02590E+004   -4.36796E+004
            4673    2.36880E+005    2.02756E+005    2.02756E+005   -2.12146E+004   -4.52075E+004    2.47963E+005   -4.54446E+004    2.34123E+005   -1.92333E+004   -4.01777E+004    1.95745E+005   -4.10200E+003    2.08600E+004   -3.46380E+004
            4674    2.47442E+005    2.15737E+005    2.15737E+005   -2.06452E+004   -4.14500E+004    2.57187E+005   -5.12141E+004    2.45462E+005   -1.86567E+004   -3.94286E+004    2.11727E+005   -2.78564E+003    2.16218E+004   -2.24187E+004
            4675    2.49979E+005    2.19340E+005    2.19340E+005   -2.23001E+004   -3.82172E+004    2.57557E+005   -5.29408E+004    2.48835E+005   -2.03097E+004   -3.80639E+004    2.17196E+005   -5.49015E+002    2.18333E+004   -6.25747E+003
            4676    2.46419E+005    2.17344E+005    2.17344E+005   -2.02088E+004   -3.70742E+004    2.54418E+005   -5.33537E+004    2.45115E+005   -1.81408E+004   -3.67809E+004    2.14983E+005    8.37790E+002    2.20541E+004    8.59180E+003
            4677    2.37689E+005    2.04416E+005    2.04416E+005   -2.20108E+004   -4.31257E+004    2.47542E+005   -4.64264E+004    2.35565E+005   -1.99696E+004   -4.04670E+004    1.99716E+005    3.18602E+003    2.14123E+004    2.51996E+004
            4678    2.14328E+005    1.46717E+005    1.46717E+005   -8.85495E+003   -9.77556E+004    2.44472E+005   -1.33687E+004    1.64430E+005   -6.87591E+003   -8.49317E+004    1.31914E+005   -1.27023E+004    1.81718E+004   -5.25133E+004
            4679    2.23728E+005    1.79455E+005    1.79455E+005    1.94982E+004   -7.62065E+004    2.55662E+005   -4.09157E+004    1.67406E+005    2.25029E+004   -6.28228E+004    1.63067E+005   -9.27155E+003    2.08122E+004   -5.61682E+004
            4680    2.41233E+005    2.03542E+005    2.03542E+005    1.38095E+004   -6.79444E+004    2.71486E+005   -4.98023E+004    2.06424E+005    1.61308E+004   -5.63794E+004    1.89655E+005   -9.72456E+003    2.07689E+004   -5.37425E+004
            4681    2.59576E+005    2.34964E+005    2.34964E+005    1.90257E+004   -5.30270E+004    2.87991E+005   -6.69875E+004    2.35453E+005    2.14290E+004   -4.42525E+004    2.23786E+005   -6.79589E+003    2.23140E+004   -4.89692E+004
            4682    2.79676E+005    2.59291E+005    2.59291E+005    1.67016E+004   -4.66155E+004    3.05906E+005   -7.64589E+004    2.62814E+005    1.88980E+004   -4.15452E+004    2.52024E+005   -5.62954E+003    2.30125E+004   -3.84828E+004
            4683    2.89393E+005    2.76539E+005    2.76539E+005    1.95230E+004   -3.69166E+004    3.13455E+005   -8.63817E+004    2.76601E+005    2.18438E+004   -3.52693E+004    2.72571E+005   -2.66132E+003    2.42572E+004   -2.24816E+004
            4684    2.94627E+005    2.83185E+005    2.83185E+005    1.81088E+004   -3.40310E+004    3.17216E+005   -8.90876E+004    2.83967E+005    2.03802E+004   -3.39115E+004    2.80794E+005   -7.71631E+002    2.44308E+004   -6.08943E+003
            4685    2.90088E+005    2.77350E+005    2.77350E+005    1.86467E+004   -3.62712E+004    3.13621E+005   -8.65751E+004    2.78029E+005    2.09756E+004   -3.56735E+004    2.74423E+005    1.97517E+003    2.44520E+004    1.34532E+004
            4686    2.78255E+005    2.62772E+005    2.62772E+005    1.70472E+004   -3.93681E+004    3.02140E+005   -8.01503E+004    2.64925E+005    1.93542E+004   -3.65733E+004    2.57670E+005    3.97636E+003    2.36823E+004    2.85493E+004
            4687    2.58750E+005    1.87457E+005    1.87457E+005   -6.53272E+003   -1.06331E+005    2.93788E+005   -2.48645E+004    2.08328E+005   -3.97201E+003   -9.47775E+004    1.73343E+005   -1.09209E+004    2.21075E+004   -5.57975E+004
            4688    2.75243E+005    2.05500E+005    2.05500E+005   -2.61403E+004   -9.87767E+004    3.04277E+005   -2.68610E+004    2.52293E+005   -2.48362E+004   -8.84940E+004    1.93913E+005   -8.67698E+003    1.83822E+004   -5.38221E+004
            4689    2.98546E+005    2.40667E+005    2.40667E+005   -2.98065E+004   -7.96716E+004    3.20338E+005   -4.37296E+004    2.88953E+005   -2.88680E+004   -6.91446E+004    2.29201E+005   -7.65791E+003    1.77885E+004   -5.59411E+004
            4690    3.30706E+005    2.78295E+005    2.78295E+005   -2.87116E+004   -7.18713E+004    3.50166E+005   -5.92374E+004    3.24279E+005   -2.80164E+004   -6.38931E+004    2.69622E+005   -7.09480E+003    1.78776E+004   -5.06705E+004
            4691    3.54923E+005    3.11771E+005    3.11771E+005   -3.05808E+004   -5.45130E+004    3.66284E+005   -7.55590E+004    3.53101E+005   -2.99492E+004   -5.01410E+004    3.06767E+005   -4.92635E+003    1.81811E+004   -3.79541E+004
            4692    3.73474E+005    3.34342E+005    3.34342E+005   -3.10574E+004   -4.67146E+004    3.81056E+005   -8.55233E+004    3.72735E+005   -3.04702E+004   -4.49924E+004    3.32032E+005   -3.30196E+003    1.79766E+004   -2.30745E+004
            4693    3.79021E+005    3.42172E+005    3.42172E+005   -3.26133E+004   -4.09466E+004    3.83119E+005   -8.95374E+004    3.78815E+005   -3.17293E+004   -4.09128E+004    3.41254E+005   -3.33324E+002    1.82140E+004   -3.40762E+003
            4694    3.72588E+005    3.36136E+005    3.36136E+005   -2.99115E+004   -4.26638E+004    3.78800E+005   -8.78536E+004    3.72096E+005   -2.91318E+004   -4.20177E+004    3.34710E+005    2.00469E+003    1.82772E+004    1.38050E+004
            4695    3.55648E+005    3.13162E+005    3.13162E+005   -2.99612E+004   -5.38090E+004    3.66971E+005   -7.64641E+004    3.53842E+005   -2.93840E+004   -5.04775E+004    3.09254E+005    4.76584E+003    1.81018E+004    3.25095E+004
            4696    2.78850E+005    2.04643E+005    2.04643E+005    4.92614E+002   -1.13070E+005    3.17712E+005   -3.06885E+004    2.16828E+005    3.09901E+003   -1.05535E+005    1.94502E+005   -1.10844E+004    2.35497E+004   -4.65319E+004
            4697    2.88655E+005    2.42468E+005    2.42468E+005    4.80160E+004   -8.92005E+004    3.31668E+005   -6.70944E+004    1.91835E+005    5.27672E+004   -7.78412E+004    2.26357E+005   -1.19878E+004    2.92216E+004   -5.90614E+004
            4698    3.21059E+005    2.80335E+005    2.80335E+005    3.66781E+004   -8.34685E+004    3.63804E+005   -7.78483E+004    2.62824E+005    4.00634E+004   -7.39573E+004    2.67439E+005   -1.15308E+004    2.86185E+004   -5.65596E+004
            4699    3.44421E+005    3.29291E+005    3.29291E+005    3.90086E+004   -5.12809E+004    3.80572E+005   -1.05673E+005    3.16108E+005    4.21370E+004   -4.51277E+004    3.20010E+005   -7.38075E+003    2.99317E+004   -4.72503E+004
            4700    3.74138E+005    3.73172E+005    3.73172E+005    3.77022E+004   -3.03056E+004    4.03477E+005   -1.26856E+005    3.59836E+005    4.06645E+004   -2.66965E+004    3.66601E+005   -5.73001E+003    3.15678E+004   -3.72569E+004
            4701    3.94556E+005    4.07420E+005    4.07420E+005    4.09106E+004   -1.02011E+004    4.17621E+005   -1.46043E+005    3.87002E+005    4.41266E+004   -9.20555E+003    4.03208E+005   -2.43156E+003    3.41631E+004   -2.01711E+004
            4702    4.03211E+005    4.18980E+005    4.18980E+005    4.02149E+004   -4.88465E+003    4.23865E+005   -1.51437E+005    3.97477E+005    4.34008E+004   -4.86973E+003    4.15780E+005   -2.08908E+002    3.45907E+004   -2.50555E+003
            4703    3.95014E+005    4.07715E+005    4.07715E+005    4.02759E+004   -1.00509E+004    4.17766E+005   -1.45980E+005    3.87703E+005    4.34495E+004   -9.25464E+003    4.03745E+005    2.30568E+003    3.40039E+004    1.79981E+004
            4704    3.72123E+005    3.74854E+005    3.74854E+005    3.76665E+004   -2.43983E+004    3.99253E+005   -1.29374E+005    3.60201E+005    4.06632E+004   -2.16881E+004    3.69148E+005    4.96810E+003    3.18156E+004    3.21116E+004
            4705    4.62016E+005    4.30829E+005    4.30829E+005   -7.32458E+003   -5.18301E+004    4.82659E+005   -1.23891E+005    4.57156E+005   -4.93732E+004   -6.87731E+003    4.27924E+005    8.70365E+003    2.41058E+004    2.67890E+004
            4706    5.02369E+005    4.80043E+005    4.80043E+005    1.91908E+004   -5.54820E+004    5.35525E+005   -1.47917E+005    4.89649E+005   -5.40193E+004    1.93919E+004    4.78380E+005    5.18466E+003    2.52156E+004    1.45199E+004
            4707    5.19722E+005    5.00726E+005    5.00726E+005    2.90094E+004   -5.64174E+004    5.57143E+005   -1.57773E+005    5.03562E+005   -5.52066E+004    2.90096E+004    4.99515E+005   -1.31632E+002    2.59418E+004    4.85553E+002
            4708    5.03569E+005    4.80147E+005    4.80147E+005    1.77666E+004   -5.63884E+004    5.36535E+005   -1.47175E+005    4.91060E+005   -5.49271E+004    1.80271E+004    4.78425E+005   -5.60195E+003    2.47148E+004   -1.61147E+004
            4709    4.64960E+005    4.32560E+005    4.32560E+005   -7.63751E+003   -5.37294E+004    4.86290E+005   -1.23731E+005    4.59778E+005   -5.12503E+004   -7.43016E+003    4.29874E+005   -8.88996E+003    2.39014E+004   -2.52940E+004
            4710    4.17273E+005    3.66318E+005    3.66318E+005   -4.23712E+004   -5.90389E+004    4.25357E+005   -8.83026E+004    4.16523E+005   -4.98350E+004   -4.79628E+004    3.62706E+005   -9.96882E+003    2.04340E+004   -3.23777E+004
            4711    3.70648E+005    3.01840E+005    3.01840E+005   -4.86237E+004   -8.61395E+004    3.87979E+005   -5.56922E+004    3.66340E+005   -4.78029E+004   -8.33263E+004    2.98206E+005   -4.86125E+003    1.93624E+004   -3.11401E+004
            4712    3.49323E+005    2.43913E+005    2.43913E+005   -6.77181E+004   -1.33694E+005    3.77607E+005   -1.41669E+004    3.34873E+005   -6.73770E+004   -1.30754E+005    2.40632E+005   -6.78806E+002    1.02960E+004   -3.31667E+004
            4713    3.13276E+005    2.32875E+005    2.32875E+005    4.28234E+003   -1.24219E+005    3.57094E+005   -3.76463E+004    2.42346E+005    5.28274E+003   -1.16761E+005    2.24417E+005    6.54316E+003    2.06386E+004   -4.85697E+004
            4714    4.14805E+004    3.04774E+004    3.04774E+004   -6.79458E+002   -1.66060E+004    4.70834E+004   -4.39732E+003    3.34842E+004    2.66151E+003   -1.75754E+003    1.22880E+004   -9.30712E+002    2.17140E+004    7.04274E+003
            4715    6.07634E+004    4.54604E+004    4.54604E+004   -1.02628E+004   -1.93252E+004    6.47856E+004   -5.29080E+003    5.92143E+004    4.50018E+003   -1.90052E+004    3.03774E+004   -2.74950E+003    2.45656E+004   -3.09422E+003
            4716    1.02551E+005    7.52002E+004    7.52002E+004    1.88604E+003   -4.19892E+004    1.17189E+005   -1.16990E+004    7.67241E+004    1.51396E+004   -3.84575E+004    5.84150E+004   -2.59872E+003    2.83407E+004   -1.84569E+004
            4717    1.57750E+005    1.02630E+005    1.02630E+005    8.22403E+003   -7.94832E+004    1.82113E+005   -1.04569E+004    6.29872E+004    2.00338E+004   -7.14481E+004    8.27851E+004   -2.64105E+003    3.16349E+004   -3.56585E+004
            4718    2.14924E+005    1.44471E+005    1.44471E+005    2.43885E+004   -1.03659E+005    2.48130E+005   -2.17335E+004   -8.20120E+004    3.32468E+004   -9.39899E+004    1.25944E+005    1.29837E+003    3.30508E+004   -4.59481E+004
            4719    2.47703E+005    1.70024E+005    1.70024E+005    1.97099E+004   -1.15872E+005    2.85896E+005   -2.46205E+004    1.10637E+005    2.59996E+004   -1.07608E+005    1.55470E+005   -5.60347E+001    3.09950E+004   -4.67723E+004
            4720    2.88145E+005    2.18211E+005    2.18211E+005    4.68403E+004   -1.14459E+005    3.32670E+005   -5.01973E+004    1.07830E+005    5.14595E+004   -1.03670E+005    2.02802E+005    9.84302E+003    3.39421E+004   -5.42620E+004


  Minimum           4.14805E+004   -5.61950E+003   -8.09767E+005   -1.56359E+005   -8.09767E+005    4.63449E+004   -3.23003E+005   -7.07350E+005   -2.38029E+005   -1.82958E+005   -6.81971E+005   -1.04047E+005   -1.76353E+002   -6.11572E+004
      At Element            4714            4293            3818            3818            3818            4635             750            4054            3346            4603            4054            2596            4603              25

  Maximum           8.12204E+005    8.09767E+005    8.09767E+005    1.56359E+005    5.61950E+003    9.37549E+005    3.23003E+005    7.07350E+005    2.38029E+005    1.82958E+005    6.81971E+005    1.03707E+005    4.68579E+005    6.11572E+004
      At Element            2569             750             750             750             281            2569            3818             514            1222             119             514            2478            2569            4509

           Total    2.50768E+009    1.41420E+009    0.00000E+000    0.00000E+000   -1.41420E+009    2.82839E+009    0.00000E+000    0.00000E+000   -3.53903E-008   -3.81470E-006    0.00000E+000   -1.00414E+005    1.28749E+009    0.00000E+000


