********************************************************************************
Field Output Report, written Sun Apr 16 17:56:12 2023

Source 1
---------

   ODB: C:/Temp/13_shear.odb
   Step: Loading_step
   Frame: Increment      1: Step Time =    1.000

Loc 1 : Centroidal values from source 1

Output sorted by column "Element Label".

Field Output reported at element centroid for region: PART-1-1.Region_2

         Element         S.Mises     S.Max. Prin  S.Max. Prin(a)     S.Mid. Prin     S.Min. Prin        S.Tresca      S.Pressure     S.Third Inv           S.S11           S.S22           S.S33           S.S12           S.S13           S.S23
           Label          @Loc 1          @Loc 1          @Loc 1          @Loc 1          @Loc 1          @Loc 1          @Loc 1          @Loc 1          @Loc 1          @Loc 1          @Loc 1          @Loc 1          @Loc 1          @Loc 1
-------------------------------------------------------------------------------------------------------------------------------------------------------------------------------------------------------------------------------------------------
            4721    2.20686E+005    8.30936E+004   -1.69093E+005   -1.13220E+004   -1.69093E+005    2.52187E+005    3.24406E+004   -1.65111E+005   -1.09792E+004    7.64759E+004   -1.62818E+005   -2.37662E+004    3.14938E+004   -4.06004E+003
            4722    1.64541E+005    1.03016E+005    1.03016E+005    4.40939E+003   -8.69329E+004    1.89949E+005   -6.83097E+003    6.65567E+004    6.85845E+003    9.56358E+004   -8.20014E+004   -2.45844E+004    2.13970E+004   -8.57951E+003
            4723    1.20546E+005    8.67374E+004    8.67374E+004    8.50516E+002   -5.10689E+004    1.37806E+005   -1.21730E+004    8.96611E+004    1.66848E+003    8.08563E+004   -4.60058E+004   -2.21809E+004    1.56612E+004    5.22430E+002
            4724    7.76742E+004    6.54858E+004    6.54858E+004    7.26863E+003   -2.27104E+004    8.81963E+004   -1.66813E+004    6.25132E+004    8.23181E+003    6.01567E+004   -1.83445E+004   -1.73343E+004    9.33837E+003    5.40884E+003
            4725    6.02412E+004    2.47807E+004   -4.28321E+004    5.13028E+003   -4.28321E+004    6.76128E+004    4.30705E+003   -5.22651E+004    6.81594E+003    2.22355E+004   -4.19726E+004   -6.73439E+003    6.27847E+003    1.19876E+003
            4726    7.30101E+004    1.27011E+004   -6.25129E+004    8.07323E+003   -6.25129E+004    7.52140E+004    1.39128E+004   -7.26790E+004    8.35574E+003    1.08680E+004   -6.09623E+004   -1.78974E+003    1.00470E+004   -3.29651E+003
            4727    9.21286E+004    3.86564E+004   -6.74718E+004   -8.06000E+003   -6.74718E+004    1.06128E+005    1.22918E+004   -5.43572E+004   -6.25188E+003    3.17910E+004   -6.24146E+004   -1.08111E+004    1.30129E+004   -1.72331E+004
            4728    8.31339E+004    3.17777E+003   -8.55369E+004   -9.42221E+003   -8.55369E+004    8.87146E+004    3.05938E+004   -8.09438E+004   -1.21567E+004   -2.47432E+002   -7.93772E+004   -3.11558E+003    2.00499E+004   -8.46873E+003
            4729    1.39713E+005    4.57770E+004   -1.09587E+005    5.72908E+003   -1.09587E+005    1.55364E+005    1.93604E+004   -1.25795E+005    1.21963E+004    3.43052E+004   -1.04583E+005   -1.36689E+004    1.42305E+004   -2.34084E+004
            4730    1.23158E+005    2.59667E+004   -1.03427E+005    1.23657E+004   -1.03427E+005    1.29394E+005    2.16982E+004   -1.21451E+005    1.50379E+004    1.66827E+004   -9.68154E+004   -3.50869E+003    2.12680E+004   -1.89394E+004
            4731    1.78056E+005    2.21423E+004   -1.73752E+005   -2.17404E+004   -1.73752E+005    1.95894E+005    5.77833E+004   -1.65219E+005   -1.19738E+004    4.45841E+003   -1.65835E+005   -1.73262E+004    3.10566E+004   -2.18962E+004
            4732    1.41864E+005   -8.38764E+003   -1.56136E+005   -2.09972E+004   -1.56136E+005    1.47748E+005    6.18402E+004   -1.40595E+005   -1.97265E+004   -1.93481E+004   -1.46446E+005   -3.41839E+003    3.62280E+004   -3.96176E+003
            4733    2.48759E+005    3.42751E+004   -2.21703E+005    1.91467E+004   -2.21703E+005    2.55978E+005    5.60936E+004   -2.47721E+005    3.11871E+004    1.97580E+004   -2.19226E+005   -2.99032E+003    2.50253E+004   -3.92681E+001
            4734    4.46124E+005   -5.06219E+004   -5.20904E+005   -1.03683E+005   -5.20904E+005    4.70282E+005    2.25070E+005   -4.38941E+005   -8.62921E+004   -1.13074E+005   -4.75843E+005    3.10838E+001    1.00224E+005    9.46186E+004
            4735    2.96117E+005    2.27194E+004   -2.95552E+005   -2.81889E+004   -2.95552E+005    3.18271E+005    1.00340E+005   -2.86022E+005    1.87516E+004   -3.58427E+004   -2.83930E+005   -1.11245E+004    3.11311E+004    4.59521E+004
            4736    4.41856E+005   -4.41607E+004   -5.33859E+005   -1.64979E+005   -5.33859E+005    4.89699E+005    2.47666E+005   -4.02101E+005   -8.84818E+004   -1.87350E+005   -4.67167E+005   -1.06940E+003    1.24704E+005    1.04632E+005
            4737    4.90566E+005   -7.61450E+004   -6.21263E+005   -2.15327E+005   -6.21263E+005    5.45118E+005    3.04245E+005   -4.42770E+005   -1.25802E+005   -2.32247E+005   -5.54687E+005   -7.80206E+003    1.49651E+005    8.88180E+004
            4738    5.66172E+005   -8.23871E+004   -7.14100E+005   -2.52453E+005   -7.14100E+005    6.31713E+005    3.49647E+005   -5.03712E+005   -1.46537E+005   -2.71574E+005   -6.30829E+005   -1.18161E+004    1.83663E+005    9.88552E+004
            4739    6.63943E+005   -1.04089E+005   -8.45624E+005   -3.06289E+005   -8.45624E+005    7.41535E+005    4.18667E+005   -5.88450E+005   -1.85116E+005   -3.19997E+005   -7.50890E+005   -1.20203E+004    2.26164E+005    9.12067E+004
            4740    7.63220E+005   -1.21394E+005   -9.74868E+005   -3.57888E+005   -9.74868E+005    8.53474E+005    4.84717E+005   -6.73066E+005   -2.21784E+005   -3.67692E+005   -8.64674E+005   -1.12210E+004    2.71022E+005    8.36156E+004
            4741    3.11361E+005    5.02229E+004   -2.97962E+005   -4.62718E+004   -2.97962E+005    3.48185E+005    9.80035E+004   -2.74569E+005    4.36290E+004   -5.25113E+004   -2.85128E+005   -1.66795E+004    4.19034E+004    4.13358E+004
            4742    3.97547E+005    5.23000E+004   -3.93266E+005   -7.48403E+004   -3.93266E+005    4.45566E+005    1.38602E+005   -3.47182E+005    4.15623E+004   -8.20701E+004   -3.75298E+005   -2.30539E+004    6.13093E+004    5.05074E+004
            4743    4.76414E+005    6.16508E+004   -4.74352E+005   -9.91324E+004   -4.74352E+005    5.36003E+005    1.70611E+005   -4.08317E+005    4.61036E+004   -1.04338E+005   -4.53599E+005   -2.54390E+004    8.37458E+004    4.77116E+004
            4744    5.69185E+005    6.15737E+004   -5.78539E+005   -1.29393E+005   -5.78539E+005    6.40112E+005    2.15453E+005   -4.88901E+005    4.03272E+004   -1.33163E+005   -5.53522E+005   -2.47076E+004    1.10308E+005    4.43797E+004
            4745    3.50414E+005   -6.78700E+004   -4.40672E+005   -1.18057E+005   -4.40672E+005    3.72802E+005    2.08866E+005   -3.42189E+005   -1.03647E+005   -9.44811E+004   -4.28471E+005   -2.03885E+004    5.88345E+004   -2.93648E+004
            4746    3.13231E+005   -2.57129E+004   -3.64629E+005   -8.57853E+004   -3.64629E+005    3.38917E+005    1.58709E+005   -2.99857E+005   -7.87401E+004   -4.31071E+004   -3.54280E+005   -2.36304E+004    5.22424E+004   -2.03310E+004
            4747    2.78765E+005    1.68820E+004   -2.91785E+005   -5.83731E+004   -2.91785E+005    3.08667E+005    1.11092E+005   -2.54364E+005   -5.50270E+004    4.01092E+003   -2.82260E+005   -2.48370E+004    4.59506E+004   -1.81588E+004
            4748    2.35631E+005    3.56033E+004   -2.29602E+005   -4.43527E+004   -2.29602E+005    2.65205E+005    7.94504E+004   -2.01534E+005   -4.36747E+004    2.59028E+004   -2.20579E+005   -2.47398E+004    4.08540E+004   -8.82825E+003
            4749    4.07518E+004   -2.16898E+003   -4.53780E+004   -7.63532E+003   -4.53780E+004    4.32091E+004    1.83941E+004   -3.99145E+004   -8.63966E+003   -2.69314E+003   -4.38495E+004   -1.58250E+003    6.47650E+003    3.78096E+003
            4750    3.71091E+004    1.40978E+004   -2.85842E+004   -3.96143E+003   -2.85842E+004    4.26820E+004    6.14925E+003   -2.37617E+004   -4.44650E+003    1.10731E+004   -2.50744E+004   -4.48007E+003    4.17737E+003    9.62666E+003
            4751    4.56572E+004    3.31530E+004    3.31530E+004    1.14825E+003   -1.91309E+004    5.22840E+004   -5.05679E+003    3.29759E+004    4.57937E+002    2.68037E+004   -1.20913E+004   -9.90444E+003    4.36386E+003    1.35518E+004
            4752    3.20260E+004    6.93072E+003   -2.54965E+004    6.11254E+003   -2.54965E+004    3.24272E+004    4.15108E+003   -3.20025E+004    6.78111E+003    5.40035E+003   -2.46347E+004   -4.78039E+002    1.59584E+003    4.89402E+003
            4753    3.09554E+004    1.13714E+004   -2.24245E+004    4.55375E+003   -2.24245E+004    3.37960E+004    2.16646E+003   -2.91937E+004    4.63165E+003    3.47710E+003   -1.46081E+004   -2.12263E+003    1.24676E+003    1.40329E+004
            4754    3.42916E+004    2.21150E+004    2.21150E+004    2.59736E+003   -1.74802E+004    3.95952E+004   -2.41073E+003   -9.95810E+003    2.42753E+003    1.20075E+004   -7.20281E+003   -4.22841E+003    1.53005E+003    1.67180E+004
            4755    1.01789E+004   -4.54014E+002   -1.21930E+004   -6.83039E+003   -1.21930E+004    1.17390E+004    6.49248E+003    5.39500E+003   -6.89961E+003   -4.41645E+003   -8.16138E+003   -3.96899E+002    4.62636E+002    5.52583E+003
            4756    2.42074E+004    1.21689E+004   -1.56704E+004   -3.92539E+003   -1.56704E+004    2.78393E+004    2.47563E+003    1.55801E+004   -3.97242E+003    7.26441E+002   -4.18092E+003   -6.78306E+002    4.35752E+002    1.36742E+004
            4757    3.25150E+004    1.68732E+004   -2.06708E+004   -2.16009E+003   -2.06708E+004    3.75439E+004    1.98590E+003    9.39279E+003   -2.20157E+003    2.56571E+002   -4.01270E+003   -7.21634E+002    5.50828E+002    1.86278E+004
            4758    7.83358E+005   -1.25276E+005   -1.00123E+006   -3.67861E+005   -1.00123E+006    8.75954E+005    4.98122E+005   -6.90951E+005   -2.28623E+005   -3.76494E+005   -8.89249E+005    1.16387E+004    2.79349E+005   -7.85937E+004
            4759    5.80003E+005    6.18477E+004   -5.90443E+005   -1.32803E+005   -5.90443E+005    6.52290E+005    2.20466E+005   -4.98141E+005    3.98565E+004   -1.35844E+005   -5.65410E+005    2.46899E+004    1.13329E+005   -4.15181E+004
            4760    3.56318E+005   -7.56555E+004   -4.53695E+005   -1.24045E+005   -4.53695E+005    3.78039E+005    2.17798E+005   -3.48810E+005   -1.09511E+005   -1.02329E+005   -4.41554E+005    1.96687E+004    5.97460E+004    2.83091E+004
            4761    8.72400E+005   -1.42753E+005   -1.11861E+006   -4.14198E+005   -1.11861E+006    9.75853E+005    5.58520E+005   -7.68404E+005   -2.63942E+005   -4.18640E+005   -9.92977E+005    8.87326E+003    3.20065E+005   -6.02173E+004
            4762    6.65680E+005    5.77379E+004   -6.90922E+005   -1.65725E+005   -6.90922E+005    7.48660E+005    2.66303E+005   -5.71670E+005    2.96703E+004   -1.67293E+005   -6.61286E+005    1.94912E+004    1.40044E+005   -3.17821E+004
            4763    3.84371E+005   -1.16917E+005   -5.24876E+005   -1.69510E+005   -5.24876E+005    4.07960E+005    2.70434E+005   -3.76148E+005   -1.36496E+005   -1.63152E+005   -5.11655E+005    1.44889E+004    6.62969E+004    2.86999E+004
            4764    9.34267E+005   -1.56808E+005   -1.20215E+006   -4.48601E+005   -1.20215E+006    1.04534E+006    6.02519E+005   -8.21965E+005   -2.89929E+005   -4.49605E+005   -1.06802E+006    4.35984E+003    3.48061E+005   -2.98569E+004
            4765    7.24722E+005    5.61365E+004   -7.59180E+005   -1.88226E+005   -7.59180E+005    8.15317E+005    2.97090E+005   -6.21344E+005    2.35337E+004   -1.88626E+005   -7.26178E+005    1.02448E+004    1.59231E+005   -1.65646E+004
            4766    4.03538E+005   -1.48540E+005   -5.81968E+005   -2.17107E+005   -5.81968E+005    4.33428E+005    3.15872E+005   -3.90108E+005   -1.62643E+005   -2.16102E+005   -5.68870E+005    7.70693E+003    7.23227E+004    1.64374E+004
            4767    9.53198E+005   -1.61309E+005   -1.22772E+006   -4.58584E+005   -1.22772E+006    1.06641E+006    6.15871E+005   -8.38985E+005   -2.98254E+005   -4.58595E+005   -1.09076E+006   -5.45869E+002    3.56766E+005    3.16533E+003
            4768    7.43865E+005    5.48799E+004   -7.82001E+005   -1.96055E+005   -7.82001E+005    8.36881E+005    3.07725E+005   -6.37645E+005    2.08870E+004   -1.96057E+005   -7.48006E+005   -1.14515E+003    1.65197E+005    1.48533E+003
            4769    4.09661E+005   -1.58008E+005   -6.00596E+005   -2.34702E+005   -6.00596E+005    4.42588E+005    3.31102E+005   -3.93020E+005   -1.70948E+005   -2.34698E+005   -5.87660E+005   -4.65920E+002    7.45519E+004   -2.59259E+002
            4770    9.23786E+005   -1.54630E+005   -1.18814E+006   -4.42743E+005   -1.18814E+006    1.03351E+006    5.95170E+005   -8.13088E+005   -2.85788E+005   -4.44392E+005   -1.05533E+006   -5.47818E+003    3.43334E+005    3.81121E+004
            4771    7.18192E+005    5.72159E+004   -7.50679E+005   -1.84625E+005   -7.50679E+005    8.07895E+005    2.92696E+005   -6.16052E+005    2.50957E+004   -1.85150E+005   -7.18034E+005   -1.21298E+004    1.57110E+005    1.91735E+004
            4772    4.01554E+005   -1.45713E+005   -5.76623E+005   -2.12901E+005   -5.76623E+005    4.30910E+005    3.11745E+005   -3.88605E+005   -1.60158E+005   -2.11679E+005   -5.63400E+005   -8.37557E+003    7.19667E+004   -1.83905E+004
            4773    8.54662E+005   -1.40646E+005   -1.09659E+006   -4.06297E+005   -1.09659E+006    9.55941E+005    5.47844E+005   -7.53013E+005   -2.58292E+005   -4.11362E+005   -9.73876E+005   -9.00291E+003    3.11972E+005    6.39482E+004
            4774    6.53461E+005    6.04746E+004   -6.74648E+005   -1.59750E+005   -6.74648E+005    7.35123E+005    2.57975E+005   -5.60355E+005    3.29243E+004   -1.61702E+005   -6.45146E+005   -2.04949E+004    1.37229E+005    3.44902E+004
            4775    3.80919E+005   -1.14262E+005   -5.18230E+005   -1.65559E+005   -5.18230E+005    4.03969E+005    2.66017E+005   -3.73030E+005   -1.34639E+005   -1.58113E+005   -5.05299E+005   -1.52361E+004    6.57878E+004   -2.69600E+004
            4776    4.56568E+004    1.91659E+004   -3.31202E+004   -1.13184E+003   -3.31202E+004    5.22861E+004    5.02872E+003   -3.29444E+004   -4.63555E+002   -2.67167E+004    1.20941E+004    9.88741E+003    4.32067E+003    1.36462E+004
            4777    3.71048E+004    2.85856E+004    2.85856E+004    3.99745E+003   -1.40948E+004    4.26805E+004   -6.16276E+003    2.36798E+004    4.47545E+003   -1.10550E+004    2.50678E+004    4.46798E+003    4.14625E+003    9.66527E+003
            4778    4.03753E+004    4.50165E+004    4.50165E+004    7.68936E+003    2.16255E+003    4.28540E+004   -1.82895E+004    3.95108E+004    8.68833E+003    2.67900E+003    4.35011E+004    1.57497E+003    6.41971E+003    3.73456E+003
            4779    3.42239E+004    1.74689E+004   -2.20481E+004   -2.58090E+003   -2.20481E+004    3.95170E+004    2.38668E+003    1.00781E+004   -2.41211E+003   -1.19755E+004    7.22761E+003    4.19389E+003    1.52384E+003    1.66831E+004
            4780    3.08458E+004    2.23338E+004    2.23338E+004   -4.57423E+003   -1.13299E+004    3.36637E+004   -2.14324E+003    2.91107E+004   -4.65063E+003   -3.49343E+003    1.45738E+004    2.10969E+003    1.24938E+003    1.39614E+004
            4781    3.19011E+004    2.53231E+004    2.53231E+004   -6.14451E+003   -6.99451E+003    3.23176E+004   -4.06137E+003    3.18756E+004   -6.85102E+003   -5.41067E+003    2.44458E+004    4.75840E+002    1.57535E+003    4.93529E+003
            4782    3.25626E+004    2.06734E+004    2.06734E+004    2.13119E+003   -1.69255E+004    3.75989E+004   -1.95970E+003   -9.35310E+003    2.17290E+003   -2.74567E+002    3.98076E+003    7.23539E+002    5.53157E+002    1.86561E+004
            4783    2.42468E+004    1.57046E+004    1.57046E+004    3.95820E+003   -1.21782E+004    2.78828E+004   -2.49486E+003   -1.56446E+004    4.00701E+003   -7.57907E+002    4.23548E+003    6.87431E+002    4.46347E+002    1.36875E+004
            4784    1.00707E+004    1.21059E+004    1.21059E+004    6.86999E+003    4.95866E+002    1.16100E+004   -6.49058E+003   -5.56578E+003    6.94006E+003    4.42817E+003    8.10353E+003    3.97146E+002    4.57951E+002    5.46902E+003
            4785    1.71688E+005   -1.00081E+004   -1.87308E+005   -2.18434E+004   -1.87308E+005    1.77300E+005    7.30531E+004   -1.70767E+005   -1.91456E+004   -2.17326E+004   -1.78281E+005    2.78877E+003    3.86258E+004   -4.41844E+003
            4786    1.42729E+005    2.13703E+004   -1.26346E+005    1.08087E+004   -1.26346E+005    1.47716E+005    3.13889E+004   -1.41845E+005    1.38306E+004    1.22120E+004   -1.20209E+005    2.15354E+003    2.68418E+004    1.21614E+004
            4787    9.81118E+004    1.00399E+003   -1.02012E+005   -9.67874E+003   -1.02012E+005    1.03016E+005    3.68956E+004   -9.67903E+004   -9.86266E+003   -7.01621E+003   -9.38079E+004    2.37920E+003    2.58706E+004    1.01196E+004
            4788    9.24359E+004    1.45173E+004   -8.09616E+004    8.09662E+003   -8.09616E+004    9.54789E+004    1.94492E+004   -9.19322E+004    7.37271E+003    1.09117E+004   -7.66320E+004    1.42535E+003    1.75093E+004    9.16453E+003
            4789    6.16322E+004   -3.36479E+003   -6.66841E+004   -6.89032E+003   -6.66841E+004    6.33193E+004    2.56464E+004   -6.14047E+004   -8.46342E+003   -4.61721E+003   -6.38585E+004    1.30184E+003    1.27315E+004    1.88800E+003
            4790    2.11607E+005    1.20848E+003   -2.19843E+005   -1.91529E+004   -2.19843E+005    2.21051E+005    7.92624E+004   -2.09386E+005   -1.14392E+004   -1.29383E+004   -2.13410E+005    8.97663E+003    3.65823E+004    3.12265E+003
            4791    1.59531E+005    1.71178E+004   -1.53313E+005   -7.55747E+003   -1.53313E+005    1.70431E+005    4.79175E+004   -1.55150E+005    6.82885E+003   -2.57579E+003   -1.48006E+005    8.48824E+003    2.44761E+004    1.66403E+004
            4792    1.22429E+005    2.75034E+004   -1.08120E+005   -5.75952E+003   -1.08120E+005    1.35623E+005    2.87920E+004   -1.11564E+005   -3.00348E+003    1.49323E+004   -9.83047E+004    8.39554E+003    2.06639E+004    2.81844E+004
            4793    8.71276E+004    1.89956E+004   -7.57931E+004    7.99599E+002   -7.57931E+004    9.47887E+004    1.86660E+004   -8.26889E+004    4.26746E+003    1.06898E+004   -7.09552E+004    6.04847E+003    1.40713E+004    1.53260E+004
            4794    6.01866E+004    1.55376E+004   -5.14192E+004   -1.81571E+003   -5.14192E+004    6.69568E+004    1.25658E+004   -5.41141E+004   -1.89325E+003    1.33038E+004   -4.91078E+004    4.40094E+003    9.84070E+003    5.66025E+003
            4795    2.26471E+005   -8.26192E+003   -2.47466E+005   -3.63476E+004   -2.47466E+005    2.39204E+005    9.73583E+004   -2.22502E+005   -2.15498E+004   -3.23521E+004   -2.38173E+005    1.49179E+004    4.06755E+004   -1.78467E+004
            4796    1.80534E+005    4.10581E+004   -1.56038E+005    1.30807E+003   -1.56038E+005    1.97096E+005    3.78908E+004   -1.70265E+005    1.44173E+004    2.19975E+004   -1.50087E+005    1.65340E+004    2.35666E+004    2.40840E+004
            4797    1.32750E+005    3.74918E+004   -1.13217E+005   -1.36217E+004   -1.13217E+005    1.50709E+005    2.97823E+004   -1.06986E+005   -9.58737E+003    2.71728E+004   -1.06932E+005    1.51653E+004    2.05196E+004    2.05231E+004
            4798    1.03228E+005    4.97145E+004   -6.78268E+004    8.08984E+003   -6.78268E+004    1.17541E+005    3.34082E+003   -8.08226E+004    1.20515E+004    4.10304E+004   -6.31044E+004    1.19328E+004    1.23948E+004    1.91640E+004
            4799    5.93369E+004    2.17318E+004   -4.65548E+004   -7.55687E+003   -4.65548E+004    6.82867E+004    1.07933E+004   -3.70406E+004   -6.91738E+003    1.89264E+004   -4.43889E+004    8.53170E+003    9.25115E+003    1.33322E+003
            4800    2.26032E+005    1.50538E+004   -2.31527E+005   -3.41485E+004   -2.31527E+005    2.46581E+005    8.35406E+004   -2.13479E+005   -1.70086E+004   -1.21265E+004   -2.21487E+005    2.67798E+004    4.43900E+004   -8.04840E+003
            4801    2.04869E+005    6.93406E+004   -1.60360E+005    3.47793E+003   -1.60360E+005    2.29700E+005    2.91804E+004   -1.78611E+005    1.25038E+004    5.70368E+004   -1.57082E+005    2.44727E+004    2.31078E+004    9.62988E+003
            4802    1.50040E+005    7.52423E+004   -9.80093E+004   -1.13143E+004   -9.80093E+004    1.73252E+005    1.13605E+004   -1.67185E+004   -7.29531E+003    6.57138E+004   -9.24999E+004    2.25894E+004    2.01382E+004    1.78301E+004
            4803    1.17179E+005    6.89159E+004    6.89159E+004    2.39184E+003   -6.63848E+004    1.35301E+005   -1.64098E+003   -3.59314E+004    6.08464E+003    6.33052E+004   -6.44669E+004    1.70166E+004    1.08807E+004    8.53296E+003
            4804    7.20370E+004    4.89731E+004    4.89731E+004   -4.20632E+003   -3.30088E+004    8.19819E+004   -3.91931E+003    5.67231E+004   -3.33446E+003    4.58111E+004   -3.07187E+004    1.28226E+004    7.82222E+003   -7.08325E+002
            4805    9.15621E+004    7.54937E+004    7.54937E+004    5.41670E+003   -2.81051E+004    1.03599E+005   -1.76018E+004    7.57857E+004    5.52899E+003    6.93126E+004   -2.20363E+004    1.99032E+004    1.01857E+004   -9.95904E+003
            4806    1.41142E+005    1.14667E+005    1.14667E+005    1.25576E+004   -4.63938E+004    1.61061E+005   -2.69436E+004    1.07706E+005    1.35693E+004    1.07825E+005   -4.05632E+004    2.63008E+004    1.70561E+004   -4.33880E+003
            4807    1.91165E+005    1.19359E+005    1.19359E+005   -3.05647E+003   -1.00924E+005    2.20283E+005   -5.12642E+003    1.10200E+005   -2.21721E+003    1.13193E+005   -9.55965E+004    2.70219E+004    2.26247E+004    7.87545E+002
            4808    2.26193E+005    1.14748E+005   -1.45856E+005   -4.68386E+002   -1.45856E+005    2.60604E+005    1.05253E+004   -1.32034E+005    7.41365E+002    1.08060E+005   -1.40377E+005    2.68832E+004    2.82729E+004    2.64245E+003
            4809    2.63485E+005    7.33006E+004   -2.24406E+005   -2.12159E+004   -2.24406E+005    2.97707E+005    5.74405E+004   -2.20187E+005   -2.11183E+004    6.57704E+004   -2.16974E+005    2.43378E+004    3.87287E+004    8.58726E+003
            4810    2.86598E+005    1.50458E+004   -3.02617E+005   -6.34369E+004   -3.02617E+005    3.17663E+005    1.17003E+005   -2.60729E+005   -6.26208E+004    4.13811E+003   -2.92526E+005    2.40065E+004    4.81576E+004    1.62352E+004
            4811    3.22721E+005   -2.36215E+004   -3.72508E+005   -8.46750E+004   -3.72508E+005    3.48887E+005    1.60268E+005   -3.09324E+005   -7.92381E+004   -4.00673E+004   -3.61499E+005    2.19499E+004    5.26827E+004    2.65499E+004
            4812    4.92458E+005    5.89618E+004   -4.93902E+005   -1.02272E+005   -4.93902E+005    5.52864E+005    1.79071E+005   -4.26712E+005    4.27802E+004   -1.07050E+005   -4.72942E+005    2.65286E+004    8.63204E+004   -4.79663E+004
            4813    6.83390E+005   -1.04046E+005   -8.67583E+005   -3.13242E+005   -8.67583E+005    7.63537E+005    4.28290E+005   -6.04801E+005   -1.89015E+005   -3.27466E+005   -7.68390E+005    1.36846E+004    2.35112E+005   -9.30942E+004
            4814    3.94579E+005    5.91297E+004   -3.82924E+005   -6.63215E+004   -3.82924E+005    4.42053E+005    1.30038E+005   -3.45239E+005    4.83955E+004   -7.11452E+004   -3.67366E+005    2.34606E+004    5.97305E+004   -4.43154E+004
            4815    5.90246E+005   -8.90449E+004   -7.47612E+005   -2.66318E+005   -7.47612E+005    6.58567E+005    3.67658E+005   -5.25149E+005   -1.56177E+005   -2.82121E+005   -6.64678E+005    1.11455E+004    1.93328E+005   -9.21920E+004
            4816    5.28070E+005   -6.14963E+004   -6.50378E+005   -2.18929E+005   -6.50378E+005    5.88882E+005    3.10268E+005   -4.70764E+005   -1.16703E+005   -2.36537E+005   -5.77564E+005    4.78608E+003    1.62187E+005   -9.72094E+004
            4817    4.78309E+005   -5.74471E+004   -5.89225E+005   -1.94151E+005   -5.89225E+005    5.31778E+005    2.80274E+005   -4.30960E+005   -1.04523E+005   -2.10294E+005   -5.26006E+005    1.53055E+003    1.40356E+005   -9.20476E+004
            4818    4.47988E+005   -4.59831E+004   -5.40671E+005   -1.62344E+005   -5.40671E+005    4.94688E+005    2.49666E+005   -4.11880E+005   -9.37699E+004   -1.84951E+005   -4.70277E+005   -8.78914E+002    1.25645E+005   -1.11938E+005
            4819    4.78044E+005   -5.76167E+004   -5.59790E+005   -1.10227E+005   -5.59790E+005    5.02173E+005    2.42544E+005   -4.71465E+005   -1.00305E+005   -1.15906E+005   -5.11423E+005   -8.29696E+002    1.06268E+005   -1.02953E+005
            4820    3.39381E+005    3.20526E+004   -3.46123E+005   -6.80580E+004   -3.46123E+005    3.78176E+005    1.27376E+005   -3.03396E+005    2.38583E+004   -7.47022E+004   -3.31285E+005    1.99297E+004    4.77681E+004   -4.58443E+004
            4821    3.17199E+005    2.87980E+004   -3.24376E+005   -6.37288E+004   -3.24376E+005    3.53174E+005    1.19769E+005   -2.84375E+005    2.32749E+004   -7.51332E+004   -3.07449E+005    9.20330E+003    4.28414E+004   -5.27209E+004
            4822    3.46529E+005    1.71758E+004   -3.50128E+005   -2.90044E+004   -3.50128E+005    3.67304E+005    1.20652E+005   -3.39503E+005    1.30551E+004   -4.19249E+004   -3.33087E+005    4.55579E+003    3.75135E+004   -6.32253E+004
            4823    2.92132E+005    3.36909E+004   -2.64573E+005    2.10153E+004   -2.64573E+005    2.98264E+005    6.99555E+004   -2.91512E+005    3.02897E+004    2.08664E+004   -2.61023E+005    1.94391E+003    3.12247E+004   -8.13080E+003
            4824    1.42024E+005    1.56208E+005    1.56208E+005    2.09290E+004    8.28459E+003    1.47924E+005   -6.18073E+004    1.40750E+005    1.96017E+004    1.92757E+004    1.46545E+005    3.43187E+003    3.62058E+004   -3.96050E+003
            4825    1.22846E+005    1.03209E+005    1.03209E+005   -1.23096E+004   -2.58432E+004    1.29053E+005   -2.16855E+004    1.21152E+005   -1.49028E+004   -1.66393E+004    9.65987E+004    3.47216E+003    2.12273E+004   -1.89209E+004
            4826    8.26473E+004    8.50525E+004    8.50525E+004    9.36462E+003   -3.13109E+003    8.81836E+004   -3.04287E+004    8.04808E+004    1.20887E+004    2.09988E+002    7.89874E+004    3.09665E+003    1.98656E+004   -8.30033E+003
            4827    7.24891E+004    6.19134E+004    6.19134E+004   -8.24817E+003   -1.26983E+004    7.46117E+004   -1.36557E+004    7.21809E+004   -8.61756E+003   -1.08543E+004    6.04389E+004    1.76387E+003    9.80802E+003   -3.08201E+003
            4828    1.77727E+005    1.73398E+005    1.73398E+005    2.18072E+004   -2.21979E+004    1.95596E+005   -5.76691E+004    1.64788E+005    1.20321E+004   -4.50103E+003    1.65476E+005    1.73718E+004    3.10273E+004   -2.18955E+004
            4829    1.39280E+005    1.09079E+005    1.09079E+005   -5.83822E+003   -4.58179E+004    1.54897E+005   -1.91411E+004    1.25362E+005   -1.22675E+004   -3.43782E+004    1.04069E+005    1.36158E+004    1.41172E+004   -2.34478E+004
            4830    9.13751E+004    6.69212E+004    6.69212E+004    8.08407E+003   -3.83462E+004    1.05267E+005   -1.22197E+004    5.36509E+004    6.27807E+003   -3.15282E+004    6.19091E+004    1.07777E+004    1.29372E+004   -1.70440E+004
            4831    5.98816E+004    4.26862E+004    4.26862E+004   -5.19114E+003   -2.44570E+004    6.71432E+004   -4.34601E+003    5.21933E+004   -6.83932E+003   -2.19497E+004    4.18270E+004    6.62907E+003    6.21269E+003    1.42424E+003
            4832    7.76013E+004    2.26395E+004   -6.54710E+004   -7.29601E+003   -6.54710E+004    8.81105E+004    1.67092E+004   -6.24731E+004   -8.26765E+003   -6.01021E+004    1.82423E+004    1.73853E+004    9.33390E+003    5.48107E+003
            4833    1.20534E+005    5.09482E+004   -8.68303E+004   -8.74911E+002   -8.68303E+004    1.37779E+005    1.22523E+004   -8.97917E+004   -1.73212E+003   -8.09331E+004    4.59083E+004    2.22222E+004    1.56034E+004    5.77322E+002
            4834    1.64479E+005    8.68812E+004   -1.02995E+005   -4.37400E+003   -1.02995E+005    1.89876E+005    6.82935E+003   -6.68476E+004   -6.79733E+003   -9.56296E+004    8.19389E+004    2.45815E+004    2.14140E+004   -8.50535E+003
            4835    2.20175E+005    1.68545E+005    1.68545E+005    1.13076E+004   -8.30884E+004    2.51634E+005   -3.22549E+004    1.64427E+005    1.09613E+004   -7.64997E+004    1.62303E+005    2.36936E+004    3.13609E+004   -4.16510E+003
            4836    2.35155E+005    2.28764E+005    2.28764E+005    4.43953E+004   -3.60589E+004    2.64823E+005   -7.90335E+004    2.00485E+005    4.37908E+004   -2.64014E+004    2.19711E+005    2.47640E+004    4.08158E+004   -8.89399E+003
            4837    2.78729E+005    2.91773E+005    2.91773E+005    5.85494E+004   -1.69189E+004    3.08692E+005   -1.11134E+005    2.54175E+005    5.53676E+004   -4.18545E+003    2.82221E+005    2.47195E+004    4.59549E+004   -1.82754E+004
            4838    3.13614E+005    3.64949E+005    3.64949E+005    8.55375E+004    2.57421E+004    3.39207E+005   -1.58743E+005    3.00385E+005    7.87249E+004    4.29069E+004    3.54597E+005    2.33832E+004    5.22163E+004   -2.05299E+004
            4839    3.50871E+005    4.40872E+005    4.40872E+005    1.17598E+005    6.77380E+004    3.73134E+005   -2.08736E+005    3.42765E+005    1.03224E+005    9.42465E+004    4.28738E+005    2.02896E+004    5.88390E+004   -2.90267E+004
            4840    5.68704E+005    5.78774E+005    5.78774E+005    1.29996E+005   -6.07927E+004    6.39567E+005   -2.15992E+005    4.88503E+005   -3.93904E+004    1.33735E+005    5.53633E+005    2.48985E+004    1.10591E+005    4.43135E+004
            4841    7.61158E+005    9.71832E+005    9.71832E+005    3.56493E+005    1.20675E+005    8.51157E+005   -4.83000E+005    6.71277E+005    2.20494E+005    3.66429E+005    8.62078E+005    1.14245E+004    2.69928E+005    8.38419E+004
            4842    4.75687E+005    4.73975E+005    4.73975E+005    9.89209E+004   -6.10840E+004    5.35059E+005   -1.70604E+005    4.08203E+005   -4.54687E+004    1.04074E+005    4.53207E+005    2.53834E+004    8.38805E+004    4.75062E+004
            4843    6.63464E+005    8.45162E+005    8.45162E+005    3.06090E+005    1.04208E+005    7.40954E+005   -4.18487E+005    5.88166E+005    1.85132E+005    3.19796E+005    7.50532E+005    1.21572E+004    2.25987E+005    9.10271E+004
            4844    3.97273E+005    3.92283E+005    3.92283E+005    7.37619E+004   -5.28693E+004    4.45152E+005   -1.37725E+005    3.47312E+005   -4.22023E+004    8.09105E+004    3.74467E+005    2.30141E+004    6.09996E+004    5.03359E+004
            4845    5.67412E+005    7.15886E+005    7.15886E+005    2.53077E+005    8.28448E+004    6.33041E+005   -3.50603E+005    5.04981E+005    1.47195E+005    2.72111E+005    6.32502E+005    1.18862E+004    1.84203E+005    9.87185E+004
            4846    3.11147E+005    2.97517E+005    2.97517E+005    4.60245E+004   -5.04367E+004    3.47954E+005   -9.77016E+004    2.74353E+005   -4.38620E+004    5.22010E+004    2.84766E+005    1.67572E+004    4.17041E+004    4.12187E+004
            4847    4.91440E+005    6.22240E+005    6.22240E+005    2.15539E+005    7.61661E+004    5.46074E+005   -3.04649E+005    4.43601E+005    1.26010E+005    2.32418E+005    5.55517E+005    7.78600E+003    1.50058E+005    8.88511E+004
            4848    4.42524E+005    5.34587E+005    5.34587E+005    1.65211E+005    4.41232E+004    4.90463E+005   -2.47974E+005    4.02647E+005    8.85783E+004    1.87558E+005    4.67785E+005    9.81034E+002    1.24927E+005    1.04790E+005
            4849    4.46781E+005    5.21788E+005    5.21788E+005    1.04046E+005    5.07488E+004    4.71039E+005   -2.25527E+005    4.39544E+005    8.66096E+004    1.13444E+005    4.76529E+005   -6.56246E+001    1.00465E+005    9.49395E+004
            4850    2.96232E+005    2.95616E+005    2.95616E+005    2.81386E+004   -2.27732E+004    3.18389E+005   -1.00327E+005    2.86140E+005   -1.88053E+004    3.57824E+004    2.84004E+005    1.11354E+004    3.11187E+004    4.59457E+004
            4851    2.49412E+005    2.22568E+005    2.22568E+005   -1.88450E+004   -3.41390E+004    2.56707E+005   -5.65279E+004    2.48353E+005   -3.10387E+004   -1.94431E+004    2.20066E+005    3.00176E+003    2.51853E+004    1.99752E+002
            4852    5.17843E+004    4.75316E+004    4.75316E+004    9.52888E+003   -1.14505E+004    5.89821E+004   -1.52033E+004    4.04140E+004    8.89644E+003    4.06477E+004   -3.93427E+003    1.26786E+004    5.09494E+003   -1.34330E+004
            4853    4.62522E+004    2.73266E+004    2.73266E+004    3.03242E+003   -2.60104E+004    5.33370E+004   -1.44957E+003   -2.47626E+004    3.77286E+003    2.21998E+004   -2.16240E+004    7.33037E+003    3.38213E+003   -1.27959E+004
            4854    4.27393E+004    2.20934E+004   -2.59256E+004    7.94728E+003   -2.59256E+004    4.80189E+004   -1.37170E+003   -3.68924E+004    8.76419E+003    1.93562E+004   -2.40053E+004    5.10446E+003    4.01163E+003   -7.46284E+003
            4855    4.01073E+004    4.98319E+003   -3.67793E+004    1.43733E+003   -3.67793E+004    4.17625E+004    1.01196E+004   -3.97524E+004    2.48197E+003    2.33088E+003   -3.51716E+004    2.56897E+003    5.02283E+003   -5.80179E+003
            4856    5.35574E+004    7.41137E+003   -4.68622E+004    5.94908E+003   -4.68622E+004    5.42735E+004    1.11672E+004   -5.35124E+004    5.41536E+003    7.25247E+003   -4.61695E+004    5.56358E+002    5.87412E+003   -1.26505E+003
            4857    3.55033E+004    2.04513E+004   -2.04787E+004   -2.02280E+003   -2.04787E+004    4.09300E+004    6.83382E+002    1.96307E+004   -2.32036E+003    1.05342E+004   -1.02640E+004    4.50636E+003    1.63674E+003   -1.69418E+004
            4858    3.15944E+004    1.91965E+004    1.91965E+004   -2.38846E+003   -1.70671E+004    3.62636E+004    8.63478E+001    2.16702E+004   -2.87019E+003    9.48087E+003   -6.86973E+003    3.64732E+003    1.53473E+003   -1.56343E+004
            4859    2.78614E+004    7.46158E+003   -2.46300E+004   -6.61991E+003   -2.46300E+004    3.20916E+004    7.92943E+003   -1.65634E+004   -7.05257E+003   -1.27081E+003   -1.54649E+004    2.58755E+003    1.98157E+003   -1.40423E+004
            4860    2.70562E+004    7.95661E+003   -2.25951E+004   -1.66412E+003   -2.25951E+004    3.05517E+004    5.43421E+003   -2.26992E+004   -1.92598E+003    4.93201E+003   -1.93087E+004    1.40058E+003    2.17965E+003   -9.00925E+003
            4861    2.29833E+004   -4.82163E+003   -2.85064E+004   -6.29554E+003   -2.85064E+004    2.36848E+004    1.32079E+004   -2.28766E+004   -6.60603E+003   -5.41772E+003   -2.75999E+004    5.58173E+002    2.60659E+003   -3.64306E+003
            4862    3.32213E+004    2.25089E+004    2.25089E+004    3.41156E+003   -1.58517E+004    3.83605E+004   -3.35626E+003   -6.50015E+003    3.32453E+003    5.36537E+003    1.37888E+003    1.35526E+003    6.72568E+002   -1.90164E+004
            4863    3.08168E+004    1.49617E+004   -2.00721E+004    2.84392E+003   -2.00721E+004    3.50338E+004    7.55499E+002   -2.45258E+004    2.82828E+003    3.65951E+002   -5.46073E+003    7.95751E+002    3.61110E+002   -1.72532E+004
            4864    2.65932E+004    1.68055E+004    1.68055E+004    7.29252E+003   -1.32360E+004    3.00414E+004   -3.62068E+003   -2.22512E+004    7.27325E+003    6.79450E+003   -3.20572E+003    6.57886E+002    4.51374E+002   -1.41453E+004
            4865    1.93336E+004    5.60807E+003   -1.52525E+004    2.06372E+003   -1.52525E+004    2.08606E+004    2.52691E+003   -1.85815E+004    2.03527E+003   -2.63730E+003   -6.97870E+003    4.13647E+002    5.74456E+002   -1.01869E+004
            4866    1.57408E+004    6.59678E+003   -9.59027E+003    5.66258E+003   -9.59027E+003    1.61870E+004   -8.89696E+002   -1.56782E+004    5.66812E+003    5.68464E+003   -8.68367E+003   -2.57841E+001    3.72997E+002   -3.70318E+003
            4867    3.56758E+005    4.53754E+005    4.53754E+005    1.23952E+005    7.50803E+004    3.78674E+005   -2.17596E+005    3.49107E+005    1.09116E+005    1.02038E+005    4.41633E+005   -1.99324E+004    5.97968E+004    2.82020E+004
            4868    5.81753E+005    5.92396E+005    5.92396E+005    1.33428E+005   -6.18788E+004    6.54275E+005   -2.21315E+005    4.99578E+005   -3.97070E+004    1.36530E+005    5.67123E+005   -2.47256E+004    1.14021E+005   -4.18082E+004
            4869    7.85619E+005    1.00431E+006    1.00431E+006    3.69168E+005    1.25805E+005    8.78503E+005   -4.99760E+005    6.92879E+005    2.29689E+005    3.77688E+005    8.91903E+005   -1.15259E+004    2.80470E+005   -7.82811E+004
            4870    3.84106E+005    5.24783E+005    5.24783E+005    1.69812E+005    1.17006E+005    4.07778E+005   -2.70534E+005    3.75810E+005    1.36742E+005    1.63303E+005    5.11555E+005   -1.46726E+004    6.62829E+004    2.87325E+004
            4871    6.66739E+005    6.91590E+005    6.91590E+005    1.65410E+005   -5.82158E+004    7.49806E+005   -2.66261E+005    5.72763E+005   -3.01610E+004    1.66962E+005    6.61983E+005   -1.93160E+004    1.40169E+005   -3.16077E+004
            4872    8.74031E+005    1.12075E+006    1.12075E+006    4.15018E+005    1.43070E+005    9.77676E+005   -5.59611E+005    7.69843E+005    2.64552E+005    4.19370E+005    9.94912E+005   -8.73415E+003    3.20767E+005   -5.97364E+004
            4873    4.03254E+005    5.81900E+005    5.81900E+005    2.17204E+005    1.48830E+005    4.33070E+005   -3.15978E+005    3.89892E+005    1.62883E+005    2.16220E+005    5.68830E+005   -7.63822E+003    7.21912E+004    1.65139E+004
            4874    7.24531E+005    7.58713E+005    7.58713E+005    1.87793E+005   -5.63545E+004    8.15067E+005   -2.96717E+005    6.21325E+005   -2.38441E+004    1.88178E+005    7.25817E+005   -1.01472E+004    1.58995E+005   -1.63164E+004
            4875    9.34798E+005    1.20281E+006    1.20281E+006    4.48749E+005    1.56912E+005    1.04590E+006   -6.02825E+005    8.22534E+005    2.90087E+005    4.49714E+005    1.06867E+006   -4.33289E+003    3.48251E+005   -2.92250E+004
            4876    4.08937E+005    5.99910E+005    5.99910E+005    2.34550E+005    1.58168E+005    4.41742E+005   -3.30876E+005    3.92403E+005    1.71060E+005    2.34546E+005    5.87022E+005    5.14091E+002    7.43436E+004   -4.88521E+002
            4877    7.43521E+005    7.81326E+005    7.81326E+005    1.95569E+005   -5.51421E+004    8.36468E+005   -3.07251E+005    6.37452E+005   -2.12214E+004    1.95573E+005    7.47402E+005    1.11311E+003    1.64988E+005    1.69133E+003
            4878    9.53014E+005    1.22741E+006    1.22741E+006    4.58486E+005    1.61185E+005    1.06623E+006   -6.15694E+005    8.38753E+005    2.98040E+005    4.58501E+005    1.09054E+006    5.39415E+002    3.56628E+005    3.75789E+003
            4879    4.01015E+005    5.75944E+005    5.75944E+005    2.12685E+005    1.45628E+005    4.30316E+005   -3.11419E+005    3.88099E+005    1.60155E+005    2.11379E+005    5.62724E+005    8.60397E+003    7.18593E+004   -1.85725E+004
            4880    7.17183E+005    7.49299E+005    7.49299E+005    1.84233E+005   -5.75212E+004    8.06820E+005   -2.92003E+005    6.14945E+005   -2.56015E+004    1.84769E+005    7.16843E+005    1.22413E+004    1.56510E+005    1.93631E+004
            4881    9.23155E+005    1.18728E+006    1.18728E+006    4.42472E+005    1.54444E+005    1.03283E+006   -5.94730E+005    8.12439E+005    2.85524E+005    4.44155E+005    1.05451E+006    5.38447E+003    3.43085E+005    3.86640E+004
            4882    3.80947E+005    5.17949E+005    5.17949E+005    1.65523E+005    1.13771E+005    4.04177E+005   -2.65748E+005    3.72915E+005    1.34145E+005    1.58053E+005    5.05045E+005    1.53738E+004    6.58064E+004   -2.67661E+004
            4883    6.52498E+005    6.73882E+005    6.73882E+005    1.59837E+005   -6.01854E+004    7.34067E+005   -2.57845E+005    5.59411E+005   -3.27084E+004    1.61756E+005    6.44486E+005    2.06013E+004    1.36899E+005    3.43408E+004
            4884    8.53109E+005    1.09441E+006    1.09441E+006    4.05361E+005    1.40214E+005    9.54199E+005   -5.46663E+005    7.51663E+005    2.57483E+005    4.10551E+005    9.71954E+005    9.18101E+003    3.11183E+005    6.45579E+004
            4885    5.37140E+004    4.70254E+004    4.70254E+004   -5.93180E+003   -7.41461E+003    5.44400E+004   -1.12263E+004    5.36679E+004   -5.39621E+003   -7.25263E+003    4.63279E+004   -5.62677E+002    5.91475E+003   -1.21703E+003
            4886    4.00661E+004    3.67280E+004    3.67280E+004   -1.40821E+003   -5.02300E+003    4.17510E+004   -1.00989E+004    3.96968E+004   -2.46214E+003   -2.36936E+003    3.51283E+004   -2.60004E+003    5.03354E+003   -5.75731E+003
            4887    4.27931E+004    2.58285E+004    2.58285E+004   -7.95584E+003   -2.22921E+004    4.81206E+004    1.47316E+003    3.67772E+004   -8.76644E+003   -1.95323E+004    2.38792E+004   -5.12976E+003    3.98228E+003   -7.56380E+003
            4888    4.62786E+004    2.60073E+004   -2.73620E+004   -3.02117E+003   -2.73620E+004    5.33693E+004    1.45861E+003    2.46665E+004   -3.75130E+003   -2.21331E+004    2.15086E+004   -7.33344E+003    3.35261E+003   -1.29920E+004
            4889    5.16179E+004    1.11493E+004   -4.76287E+004   -9.68012E+003   -4.76287E+004    5.87780E+004    1.53865E+004   -4.03941E+004   -9.02390E+003   -4.08012E+004    3.66559E+003   -1.26775E+004    5.10809E+003   -1.32906E+004
            4890    2.30545E+004    2.86074E+004    2.86074E+004    6.32920E+003    4.84813E+003    2.37593E+004   -1.32616E+004    2.29471E+004    6.63972E+003    5.43709E+003    2.77080E+004   -5.46676E+002    2.60601E+003   -3.63245E+003
            4891    2.70830E+004    2.26874E+004    2.26874E+004    1.66567E+003   -7.87473E+003    3.05621E+004   -5.49278E+003    2.28148E+004    1.92744E+003   -4.86813E+003    1.94190E+004   -1.36988E+003    2.18168E+003   -8.99219E+003
            4892    2.77816E+004    2.46194E+004    2.46194E+004    6.56750E+003   -7.37206E+003    3.19915E+004   -7.93829E+003    1.67818E+004    7.00715E+003    1.35453E+003    1.54532E+004   -2.57539E+003    2.00448E+003   -1.40100E+004
            4893    3.15527E+004    1.69245E+004   -1.92857E+004    2.31061E+003   -1.92857E+004    3.62102E+004    1.68711E+001   -2.17274E+004    2.78958E+003   -9.56807E+003    6.72788E+003   -3.66635E+003    1.51872E+003   -1.56145E+004
            4894    3.56870E+004    2.06744E+004    2.06744E+004    2.11121E+003   -2.04682E+004    4.11425E+004   -7.72467E+002   -1.96954E+004    2.40403E+003   -1.04141E+004    1.03274E+004   -4.51921E+003    1.62193E+003   -1.70856E+004
            4895    1.57790E+004    9.62746E+003    9.62746E+003   -5.67660E+003   -6.58703E+003    1.62145E+004    8.78724E+002    1.57197E+004   -5.68187E+003   -5.69588E+003    8.74158E+003    2.40095E+001    3.78912E+002   -3.66541E+003
            4896    1.92629E+004    1.52131E+004    1.52131E+004   -2.06271E+003   -5.55810E+003    2.07712E+004   -2.53078E+003    1.85291E+004   -2.03347E+003    2.62597E+003    6.99982E+003   -4.19989E+002    5.79913E+002   -1.01374E+004
            4897    2.66520E+004    1.32730E+004   -1.68433E+004   -7.26979E+003   -1.68433E+004    3.01164E+004    3.61337E+003    2.22585E+004   -7.25276E+003   -6.79982E+003    3.21246E+003   -6.59345E+002    4.26938E+002   -1.41832E+004
            4898    3.08818E+004    2.01364E+004    2.01364E+004   -2.81341E+003   -1.49746E+004    3.51110E+004   -7.82813E+002    2.45552E+004   -2.79616E+003   -3.13032E+002    5.45764E+003   -7.84313E+002    3.77704E+002   -1.72976E+004
            4899    3.29172E+004    1.56560E+004   -2.23534E+004   -3.42398E+003   -2.23534E+004    3.80094E+004    3.37378E+003    6.25546E+003   -3.33312E+003   -5.39322E+003   -1.39499E+003   -1.35491E+003    6.93143E+002   -1.88379E+004
            4900    2.63707E+005    2.24750E+005    2.24750E+005    2.11839E+004   -7.31506E+004    2.97901E+005   -5.75945E+004    2.20649E+005    2.11122E+004   -6.56187E+004    2.17290E+005   -2.43064E+004    3.88323E+004    8.61390E+003
            4901    2.26354E+005    1.46045E+005    1.46045E+005    4.78917E+002   -1.14738E+005    2.60783E+005   -1.05953E+004    1.32353E+005   -6.59332E+002   -1.08065E+005    1.40510E+005   -2.68704E+004    2.84241E+004    2.55260E+003
            4902    1.91077E+005    1.00641E+005   -1.19525E+005    3.03128E+003   -1.19525E+005    2.20166E+005    5.28412E+003   -1.10750E+005    2.18936E+003   -1.13337E+005    9.52949E+004   -2.70739E+004    2.26424E+004    8.72834E+002
            4903    1.40626E+005    4.59673E+004   -1.14501E+005   -1.27519E+004   -1.14501E+005    1.60469E+005    2.70953E+004   -1.07335E+005   -1.37491E+004   -1.07686E+005    4.01496E+004   -2.62027E+004    1.70374E+004   -4.18765E+003
            4904    9.12421E+004    2.82765E+004   -7.49767E+004   -5.20620E+003   -7.49767E+004    1.03253E+005    1.73022E+004   -7.54351E+004   -5.28886E+003   -6.88044E+004    2.21868E+004   -1.98299E+004    1.01716E+004   -1.00130E+004
            4905    7.22889E+004    3.28349E+004   -4.94066E+004    4.08081E+003   -4.94066E+004    8.22415E+004    4.16360E+003   -5.71141E+004    3.19222E+003   -4.62070E+004    3.05240E+004   -1.29177E+004    7.89329E+003   -4.78409E+002
            4906    5.95210E+004    4.65638E+004    4.65638E+004    7.57569E+003   -2.19476E+004    6.85113E+004   -1.07306E+004    3.68092E+004    6.93087E+003   -1.91310E+004    4.43920E+004   -8.59224E+003    9.26092E+003    1.30430E+003
            4907    6.03139E+004    5.13580E+004    5.13580E+004    1.73332E+003   -1.57724E+004    6.71304E+004   -1.24396E+004    5.41403E+004    1.80524E+003   -1.35578E+004    4.90714E+004   -4.42962E+003    9.80486E+003    5.60472E+003
            4908    6.16643E+004    6.66514E+004    6.66514E+004    6.83569E+003    3.29125E+003    6.33601E+004   -2.55928E+004    6.14345E+004    8.40329E+003    4.54840E+003    6.38266E+004   -1.30292E+003    1.27289E+004    1.92099E+003
            4909    1.18024E+005    6.71628E+004   -6.91127E+004   -2.20786E+003   -6.91127E+004    1.36275E+005    1.38592E+003    3.72087E+004   -5.83469E+003   -6.35337E+004    6.52106E+004   -1.70333E+004    1.10620E+004    8.49351E+003
            4910    1.04109E+005    6.82298E+004    6.82298E+004   -8.03475E+003   -5.03792E+004    1.18609E+005   -3.27193E+003    8.10264E+004   -1.20209E+004   -4.16432E+004    6.34799E+004   -1.20917E+004    1.24423E+004    1.93330E+004
            4911    8.71479E+004    7.57834E+004    7.57834E+004   -6.34051E+002   -1.91267E+004    9.49101E+004   -1.86742E+004    8.25585E+004   -4.21766E+003   -1.06689E+004    7.09092E+004   -6.18168E+003    1.41138E+004    1.54078E+004
            4912    9.24563E+004    8.09782E+004    8.09782E+004   -8.06029E+003   -1.45536E+004    9.55317E+004   -1.94548E+004    9.19411E+004   -7.36953E+003   -1.09211E+004    7.66549E+004   -1.46453E+003    1.75031E+004    9.15614E+003
            4913    1.50886E+005    9.89563E+004    9.89563E+004    1.14132E+004   -7.52716E+004    1.74228E+005   -1.16993E+004    3.08316E+004    7.34704E+003   -6.56127E+004    9.33635E+004   -2.27195E+004    2.03833E+004    1.80187E+004
            4914    1.33455E+005    1.14028E+005    1.14028E+005    1.37135E+004   -3.74349E+004    1.51463E+005   -3.01023E+004    1.07838E+005    9.59002E+003   -2.70684E+004    1.07785E+005   -1.53059E+004    2.06401E+004    2.03593E+004
            4915    1.22718E+005    1.07960E+005    1.07960E+005    5.54861E+003   -2.80601E+004    1.36020E+005   -2.84829E+004    1.11639E+005    2.86481E+003   -1.55821E+004    9.81661E+004   -8.40548E+003    2.05350E+004    2.82959E+004
            4916    9.78036E+004    1.01759E+005    1.01759E+005    9.76176E+003   -9.66107E+002    1.02725E+005   -3.68516E+004    9.64666E+004    1.00635E+004    6.96208E+003    9.35292E+004   -2.40744E+003    2.57998E+004    1.02676E+004
            4917    2.06355E+005    1.61573E+005    1.61573E+005   -3.76040E+003   -6.96903E+004    2.31263E+005   -2.93741E+004    1.80269E+005   -1.26733E+004   -5.75161E+004    1.58312E+005   -2.44233E+004    2.31853E+004    9.41497E+003
            4918    1.81187E+005    1.56302E+005    1.56302E+005   -1.54072E+003   -4.15436E+004    1.97845E+005   -3.77392E+004    1.70822E+005   -1.47384E+004   -2.23522E+004    1.50308E+005   -1.66333E+004    2.35971E+004    2.43121E+004
            4919    1.58739E+005    1.52715E+005    1.52715E+005    8.01532E+003   -1.70754E+004    1.69790E+005   -4.78850E+004    1.54183E+005   -6.73442E+003    2.97566E+003    1.47414E+005   -8.64692E+003    2.44055E+004    1.66117E+004
            4920    1.41816E+005    1.25523E+005    1.25523E+005   -1.06620E+004   -2.13233E+004    1.46846E+005   -3.11792E+004    1.40910E+005   -1.37401E+004   -1.21037E+004    1.19381E+005   -2.19539E+003    2.66769E+004    1.23326E+004
            4921    2.26084E+005    2.31757E+005    2.31757E+005    3.42524E+004   -1.48394E+004    2.46596E+005   -8.37232E+004    2.13592E+005    1.69329E+004    1.25336E+004    2.21703E+005   -2.67257E+004    4.44236E+004   -8.15534E+003
            4922    2.26835E+005    2.47595E+005    2.47595E+005    3.59840E+004    8.11311E+003    2.39482E+005   -9.72308E+004    2.22934E+005    2.13157E+004    3.19568E+004    2.38420E+005   -1.48025E+004    4.05016E+004   -1.76845E+004
            4923    2.11104E+005    2.18747E+005    2.18747E+005    1.84536E+004   -1.71943E+003    2.20466E+005   -7.84936E+004    2.08919E+005    1.12853E+004    1.19026E+004    2.12293E+005   -8.88618E+003    3.65042E+004    4.07685E+003
            4924    1.69829E+005    1.85710E+005    1.85710E+005    2.20786E+004    1.02969E+004    1.75413E+005   -7.26953E+004    1.68906E+005    1.95651E+004    2.19316E+004    1.76589E+005   -2.80082E+003    3.86301E+004   -4.12575E+003
            4925    2.89575E+005    2.61776E+005    2.61776E+005   -2.12042E+004   -3.39700E+004    2.95746E+005   -6.88673E+004    2.88940E+005   -3.06172E+004   -2.10897E+004    2.58309E+005   -2.02474E+003    3.07699E+004   -7.84125E+003
            4926    4.76391E+005    5.57499E+005    5.57499E+005    1.09468E+005    5.70782E+004    5.00421E+005   -2.41348E+005    4.69844E+005    9.92445E+004    1.15308E+005    5.09493E+005    7.89280E+002    1.05918E+005   -1.02175E+005
            4927    3.46399E+005    3.49690E+005    3.49690E+005    2.85212E+004   -1.73652E+004    3.67055E+005   -1.20282E+005    3.39460E+005   -1.33397E+004    4.12960E+004    3.32890E+005   -4.47368E+003    3.70772E+004   -6.28882E+004
            4928    4.47514E+005    5.40050E+005    5.40050E+005    1.62142E+005    4.58784E+004    4.94172E+005   -2.49357E+005    4.11427E+005    9.34182E+004    1.84839E+005    4.69814E+005    6.65521E+002    1.25521E+005   -1.11625E+005
            4929    3.17212E+005    3.24402E+005    3.24402E+005    6.35866E+004   -2.87286E+004    3.53130E+005   -1.19753E+005    2.84554E+005   -2.32122E+004    7.51221E+004    3.07350E+005   -9.07575E+003    4.28376E+004   -5.30290E+004
            4930    4.77937E+005    5.89057E+005    5.89057E+005    1.94593E+005    5.75770E+004    5.31480E+005   -2.80409E+005    4.30310E+005    1.04633E+005    2.10713E+005    5.25881E+005   -1.57729E+003    1.40373E+005   -9.18070E+004
            4931    3.39336E+005    3.46134E+005    3.46134E+005    6.81833E+004   -3.20208E+004    3.78155E+005   -1.27432E+005    3.03272E+005   -2.38504E+004    7.48236E+004    3.31323E+005   -1.99280E+004    4.76716E+004   -4.58318E+004
            4932    5.28040E+005    6.50367E+005    6.50367E+005    2.19035E+005    6.14844E+004    5.88882E+005   -3.10295E+005    4.70636E+005    1.16663E+005    2.36669E+005    5.77554E+005   -4.80681E+003    1.62160E+005   -9.72218E+004
            4933    5.91235E+005    7.48859E+005    7.48859E+005    2.66816E+005    8.91671E+004    6.59692E+005   -3.68281E+005    5.25966E+005    1.56567E+005    2.82586E+005    6.65690E+005   -1.11915E+004    1.93887E+005   -9.21570E+004
            4934    6.85541E+005    8.70336E+005    8.70336E+005    3.14326E+005    1.04370E+005    7.65966E+005   -4.29677E+005    6.06621E+005    1.89763E+005    3.28506E+005    7.70762E+005   -1.37670E+004    2.36098E+005   -9.30432E+004
            4935    3.94984E+005    3.83268E+005    3.83268E+005    6.66418E+004   -5.93394E+004    4.42607E+005   -1.30190E+005    3.45241E+005   -4.86468E+004    7.14773E+004    3.67740E+005   -2.34696E+004    5.96371E+004   -4.43493E+004
            4936    4.94040E+005    4.95986E+005    4.95986E+005    1.03275E+005   -5.87107E+004    5.54697E+005   -1.80183E+005    4.27868E+005   -4.24077E+004    1.08103E+005    4.74856E+005   -2.64864E+004    8.69279E+004   -4.80975E+004
            4937    3.22849E+005    3.72135E+005    3.72135E+005    8.43986E+004    2.29930E+004    3.49142E+005   -1.59842E+005    3.09298E+005    7.86703E+004    3.97206E+004    3.61135E+005   -2.22355E+004    5.27063E+004    2.65121E+004
            4938    2.86698E+005    3.02757E+005    3.02757E+005    6.33044E+004   -1.49407E+004    3.17697E+005   -1.17040E+005    2.61007E+005    6.24570E+004   -3.99209E+003    2.92656E+005   -2.40268E+004    4.82283E+004    1.61508E+004
            4939    2.74469E+005    6.11639E+004   -2.47252E+005   -2.98542E+004   -2.47252E+005    3.08416E+005    7.19807E+004   -2.36760E+005   -2.10443E+004    2.62441E+004   -2.21142E+005   -5.16204E+004    6.93294E+004    1.98484E+004
            4940    2.12006E+005    7.78788E+004   -1.64355E+005   -1.26005E+004   -1.64355E+005    2.42234E+005    3.30257E+004   -1.58953E+005   -7.33367E+003    4.88672E+004   -1.40611E+005   -4.86230E+004    5.39232E+004    1.54858E+004
            4941    1.57146E+005    7.27228E+004   -1.07918E+005   -2.70636E+003   -1.07918E+005    1.80640E+005    1.26337E+004   -1.02914E+005    3.29331E+003    4.89833E+004   -9.01778E+004   -4.05287E+004    3.24743E+004    2.24232E+004
            4942    1.08746E+005    5.37856E+004   -7.12438E+004    1.34144E+003   -7.12438E+004    1.25029E+005    5.37223E+003   -7.06862E+004    2.36422E+003    3.50314E+004   -5.35123E+004   -2.98711E+004    2.14334E+004    2.41936E+004
            4943    9.19301E+004    2.59098E+004   -7.76377E+004   -5.62604E+003   -7.76377E+004    1.03548E+005    1.91180E+004   -7.82944E+004   -4.69217E+003    1.24829E+004   -6.51447E+004   -1.97608E+004    2.58160E+004    9.87439E+003
            4944    1.01417E+005    8.42126E+003   -9.76440E+004   -1.62183E+003   -9.76440E+004    1.06065E+005    3.02815E+004   -1.00289E+005   -9.07605E+003    3.08126E+003   -8.48498E+004   -6.18106E+003    3.33986E+004    2.14527E+003
            4945    1.31800E+005    5.71467E+004   -9.35705E+004    7.88328E+001   -9.35705E+004    1.50717E+005    1.21150E+004   -9.75654E+004    1.61809E+004    3.15504E+004   -8.40763E+004   -2.77465E+004    3.22280E+004   -6.24823E+003
            4946    1.28431E+005    2.50099E+004   -1.13324E+005    2.12601E+003   -1.13324E+005    1.38334E+005    2.87295E+004   -1.23718E+005    6.06119E+003    6.44808E+003   -9.86978E+004   -8.30967E+003    4.17851E+004   -3.37537E+003
            4947    1.81494E+005    5.24843E+004   -1.53841E+005   -1.88574E+004   -1.53841E+005    2.06325E+005    4.00714E+004   -1.44476E+005   -5.06051E+003    1.54327E+004   -1.30586E+005   -3.39171E+004    5.87814E+004   -1.11679E+004
            4948    1.72170E+005    3.41490E+004   -1.52560E+005   -6.77582E+001   -1.52560E+005    1.86709E+005    3.94930E+004   -1.64257E+005   -5.46277E+003    6.20396E+003   -1.19220E+005   -1.03614E+004    6.99071E+004   -9.22694E+003
            4949    2.27689E+005    6.38784E+004   -1.94100E+005   -2.12056E+004   -1.94100E+005    2.57979E+005    5.04758E+004   -1.86529E+005    1.45566E+004    7.30697E+003   -1.73291E+005   -3.75997E+004    6.58435E+004   -1.43482E+004
            4950    1.84928E+005    3.68004E+004   -1.65679E+005   -5.70347E+003   -1.65679E+005    2.02480E+005    4.48607E+004   -1.73420E+005    4.77723E+003   -2.87118E+003   -1.36488E+005   -1.00563E+004    7.05353E+004   -3.43342E+003
            4951    2.91961E+005    4.62733E+004   -2.66639E+005   -1.52841E+003   -2.66639E+005    3.12912E+005    7.39647E+004   -2.82956E+005   -3.72019E+003   -1.35657E+003   -2.16817E+005   -4.05621E+003    1.14405E+005    1.48569E+003
            4952    3.32577E+005   -1.67469E+004   -3.78599E+005   -8.62943E+004   -3.78599E+005    3.61852E+005    1.60547E+005   -3.15588E+005   -1.16484E+005   -7.50825E+004   -2.90073E+005   -1.61139E+003    1.35235E+005    7.46110E+004
            4953    3.49471E+005    2.45067E+004   -3.58423E+005   -5.67147E+004   -3.58423E+005    3.82930E+005    1.30210E+005   -3.27209E+005   -2.80765E+004   -6.25148E+004   -3.00040E+005   -2.29212E+004    1.29716E+005    3.78187E+004
            4954    3.53241E+005    5.39059E+003   -3.93429E+005   -1.19945E+005   -3.93429E+005    3.98819E+005    1.69328E+005   -2.96640E+005   -1.14695E+005   -1.27275E+005   -2.66013E+005   -6.41490E+003    1.66047E+005    8.32452E+004
            4955    3.97066E+005   -2.09229E+003   -4.50867E+005   -1.45165E+005   -4.50867E+005    4.48775E+005    1.99375E+005   -3.31137E+005   -1.30607E+005   -1.52471E+005   -3.15047E+005   -8.62401E+003    1.93503E+005    6.98679E+004
            4956    4.67836E+005    2.26938E+003   -5.27287E+005   -1.70052E+005   -5.27287E+005    5.29557E+005    2.31690E+005   -3.86078E+005   -1.56010E+005   -1.79448E+005   -3.59611E+005   -1.35262E+004    2.33243E+005    7.72100E+004
            4957    5.46139E+005   -1.27742E+004   -6.30221E+005   -2.10423E+005   -6.30221E+005    6.17447E+005    2.84473E+005   -4.54536E+005   -1.97657E+005   -2.17899E+005   -4.37863E+005   -1.44365E+004    2.76216E+005    7.19049E+004
            4958    6.25437E+005   -2.69886E+004   -7.33201E+005   -2.49255E+005   -7.33201E+005    7.06212E+005    3.36481E+005   -5.24855E+005   -2.40571E+005   -2.54818E+005   -5.14055E+005   -1.36085E+004    3.19234E+005    6.77824E+004
            4959    4.03060E+005    3.94037E+004   -4.14251E+005   -9.73907E+004   -4.14251E+005    4.53655E+005    1.57413E+005   -3.44711E+005   -3.55596E+004   -1.01139E+005   -3.35539E+005   -4.16526E+004    1.62008E+005    3.60421E+004
            4960    5.04596E+005    2.14867E+004   -5.46321E+005   -1.49219E+005   -5.46321E+005    5.67807E+005    2.24684E+005   -4.32076E+005   -7.49199E+004   -1.54281E+005   -4.44853E+005   -4.95555E+004    2.06204E+005    4.43442E+004
            4961    6.00904E+005    6.90070E+003   -6.69685E+005   -1.98130E+005   -6.69685E+005    6.76586E+005    2.86971E+005   -5.12855E+005   -1.12020E+005   -2.02758E+005   -5.46137E+005   -4.94586E+004    2.51973E+005    4.46272E+004
            4962    7.00420E+005   -2.08616E+004   -8.06899E+005   -2.48964E+005   -8.06899E+005    7.86038E+005    3.58908E+005   -6.08019E+005   -1.60946E+005   -2.53031E+005   -6.62747E+005   -4.38133E+004    2.97243E+005    4.35652E+004
            4963    5.11625E+005   -5.51172E+004   -6.21554E+005   -1.93002E+005   -6.21554E+005    5.66437E+005    2.89891E+005   -4.67002E+005   -1.30048E+005   -1.68769E+005   -5.70856E+005   -5.37348E+004    1.57350E+005   -5.14659E+003
            4964    4.40723E+005   -1.17553E+004   -5.00591E+005   -1.33629E+005   -5.00591E+005    4.88835E+005    2.15325E+005   -4.00097E+005   -8.01238E+004   -1.02862E+005   -4.62989E+005   -5.77247E+004    1.23475E+005    5.91540E+003
            4965    3.73801E+005    2.45035E+004   -3.91706E+005   -8.45851E+004   -3.91706E+005    4.16210E+005    1.50596E+005   -3.35081E+005   -4.08067E+004   -4.71456E+004   -3.63835E+005   -5.65372E+004    9.59203E+004    8.07517E+003
            4966    3.13452E+005    4.61203E+004   -3.03717E+005   -4.84117E+004   -3.03717E+005    3.49838E+005    1.02003E+005   -2.78567E+005   -1.62705E+004   -8.33838E+003   -2.81400E+005   -5.21871E+004    7.55786E+004    1.27208E+004
            4967    6.99343E+004    8.91690E+003   -6.42439E+004    1.94097E+003   -6.42439E+004    7.31608E+004    1.77953E+004   -6.91450E+004    4.33282E+003    2.50864E+003   -6.02275E+004   -3.81998E+003    1.53782E+004    5.29047E+003
            4968    6.56982E+004    2.26561E+004   -4.98662E+004    5.67276E+003   -4.98662E+004    7.25223E+004    7.17909E+003   -6.04563E+004    8.98498E+003    1.19478E+004   -4.24700E+004   -1.18886E+004    1.18792E+004    1.48329E+004
            4969    7.24788E+004    3.22534E+004   -5.05146E+004    1.60640E+003   -5.05146E+004    8.27679E+004    5.55160E+003   -5.47658E+004    1.68762E+003    1.50470E+004   -3.33894E+004   -1.80474E+004    1.03814E+004    2.63012E+004
            4970    3.88250E+004    7.87154E+002   -4.04000E+004   -4.47355E+003   -4.04000E+004    4.11871E+004    1.46955E+004   -3.80108E+004   -7.17081E+003   -3.56065E+002   -3.65595E+004   -2.24147E+003    9.35491E+003    6.30750E+003
            4971    4.05428E+004    7.55117E+003   -3.73555E+004   -3.44523E+003   -3.73555E+004    4.49067E+004    1.10832E+004   -3.69580E+004   -5.92504E+003   -1.56039E+003   -2.57641E+004   -5.93643E+003    7.44569E+003    1.70534E+004
            4972    4.96130E+004    2.03645E+004   -3.63596E+004   -1.05202E+003   -3.63596E+004    5.67241E+004    5.68237E+003   -3.68275E+004   -2.73383E+003    4.30488E+003   -1.86182E+004   -8.34168E+003    5.46413E+003    2.41487E+004
            4973    1.91766E+004    6.51927E+003   -1.41901E+004    2.95303E+003   -1.41901E+004    2.07094E+004    1.57261E+003   -1.84083E+004    5.60699E+003    7.97140E+002   -1.11220E+004   -4.98561E+002    3.68705E+003    5.87892E+003
            4974    3.05545E+004    1.44710E+004   -1.92271E+004    6.67190E+003   -1.92271E+004    3.36982E+004   -6.38594E+002   -2.81815E+004    6.19033E+003    3.52319E+003   -7.79773E+003   -1.60838E+003    3.34198E+003    1.55653E+004
            4975    4.03907E+004    1.96027E+004   -2.67828E+004    6.16557E+002   -2.67828E+004    4.63855E+004    2.18787E+003   -2.72750E+004    1.31361E+002    7.37226E+001   -6.76869E+003   -2.25039E+003    2.83622E+003    2.26926E+004
            4976    6.43755E+005   -3.36529E+004   -7.59890E+005   -2.59458E+005   -7.59890E+005    7.26237E+005    3.51001E+005   -5.43291E+005   -2.51217E+005   -2.64675E+005   -5.37110E+005    1.39767E+004    3.28231E+005   -6.47050E+004
            4977    7.17687E+005   -2.72163E+004   -8.32046E+005   -2.58573E+005   -8.32046E+005    8.04830E+005    3.72612E+005   -6.25137E+005   -1.70978E+005   -2.61998E+005   -6.84859E+005    4.33667E+004    3.04785E+005   -4.14960E+004
            4978    5.22202E+005   -6.10279E+004   -6.38547E+005   -1.99626E+005   -6.38547E+005    5.77519E+005    2.99733E+005   -4.78125E+005   -1.36259E+005   -1.76436E+005   -5.86506E+005    5.28458E+004    1.61225E+005    5.44226E+003
            4979    7.10960E+005   -5.38244E+004   -8.54369E+005   -2.96584E+005   -8.54369E+005    8.00544E+005    4.01592E+005   -6.06611E+005   -2.93333E+005   -2.99186E+005   -6.12258E+005    1.02294E+004    3.64127E+005   -5.00073E+004
            4980    8.02890E+005   -5.79402E+004   -9.56022E+005   -3.07685E+005   -9.56022E+005    8.98081E+005    4.40549E+005   -7.07240E+005   -2.20822E+005   -3.09639E+005   -7.91186E+005    3.12625E+004    3.44492E+005   -3.23075E+004
            4981    5.86757E+005   -1.10359E+005   -7.59380E+005   -2.66458E+005   -7.59380E+005    6.49021E+005    3.78732E+005   -5.36981E+005   -1.92726E+005   -2.53267E+005   -6.90204E+005    4.20207E+004    1.97958E+005    1.14481E+004
            4982    7.55823E+005   -7.23783E+004   -9.22013E+005   -3.24400E+005   -9.22013E+005    8.49635E+005    4.39597E+005   -6.50690E+005   -3.25692E+005   -3.25035E+005   -6.68064E+005    5.32596E+003    3.88058E+005   -2.56333E+004
            4983    8.60679E+005   -8.08670E+004   -1.04177E+006   -3.41605E+005   -1.04177E+006    9.60899E+005    4.88079E+005   -7.63942E+005   -2.57167E+005   -3.42141E+005   -8.64930E+005    1.55169E+004    3.71575E+005   -1.72266E+004
            4984    6.34756E+005   -1.51613E+005   -8.54163E+005   -3.21967E+005   -8.54163E+005    7.02550E+005    4.42581E+005   -5.79888E+005   -2.39918E+005   -3.18273E+005   -7.69552E+005    2.31376E+004    2.27973E+005    8.97399E+003
            4985    7.69155E+005   -7.77559E+004   -9.41973E+005   -3.32533E+005   -9.41973E+005    8.64217E+005    4.50754E+005   -6.63748E+005   -3.35113E+005   -3.32542E+005   -6.84606E+005   -7.19615E+002    3.95187E+005    3.08866E+003
            4986    8.77944E+005   -8.78438E+004   -1.06753E+006   -3.51968E+005   -1.06753E+006    9.79685E+005    5.02447E+005   -7.80760E+005   -2.68180E+005   -3.51969E+005   -8.87190E+005   -2.02883E+003    3.79666E+005    1.53715E+003
            4987    6.53561E+005   -1.66337E+005   -8.89994E+005   -3.42739E+005   -8.89994E+005    7.23657E+005    4.66357E+005   -5.96375E+005   -2.57263E+005   -3.42735E+005   -7.99072E+005   -1.05670E+003    2.39851E+005    2.28205E+002
            4988    7.47507E+005   -6.85278E+004   -9.09102E+005   -3.18981E+005   -9.09102E+005    8.40574E+005    4.32204E+005   -6.42395E+005   -3.20020E+005   -3.19966E+005   -6.56624E+005   -6.49131E+003    3.83938E+005    3.21212E+004
            4989    8.52048E+005   -7.58106E+004   -1.02728E+006   -3.34729E+005   -1.02728E+006    9.51473E+005    4.79274E+005   -7.55632E+005   -2.50201E+005   -3.35421E+005   -8.52201E+005   -1.90535E+004    3.67582E+005    1.98621E+004
            4990    6.31735E+005   -1.48493E+005   -8.47775E+005   -3.18293E+005   -8.47775E+005    6.99281E+005    4.38187E+005   -5.76951E+005   -2.36525E+005   -3.14047E+005   -7.63989E+005   -2.49298E+004    2.26305E+005   -9.02678E+003
            4991    6.96058E+005   -4.86302E+004   -8.32806E+005   -2.88080E+005   -8.32806E+005    7.84176E+005    3.89839E+005   -5.92150E+005   -2.84488E+005   -2.91151E+005   -5.93877E+005   -1.10068E+004    3.56750E+005    5.35942E+004
            4992    7.87348E+005   -4.89670E+004   -9.30326E+005   -2.96456E+005   -9.30326E+005    8.81359E+005    4.25249E+005   -6.91353E+005   -2.08960E+005   -2.98836E+005   -7.67952E+005   -3.33004E+004    3.37945E+005    3.49302E+004
            4993    5.80358E+005   -1.06438E+005   -7.48461E+005   -2.61106E+005   -7.48461E+005    6.42023E+005    3.72001E+005   -5.30939E+005   -1.87994E+005   -2.47348E+005   -6.80662E+005   -4.31909E+004    1.94861E+005   -1.00498E+004
            4994    7.24259E+004    5.04805E+004    5.04805E+004   -1.60813E+003   -3.22259E+004    8.27064E+004   -5.54884E+003    5.47359E+004   -1.69251E+003   -1.50064E+004    3.33455E+004    1.79937E+004    1.03248E+004    2.63500E+004
            4995    6.56236E+004    4.97895E+004    4.97895E+004   -5.71691E+003   -2.26374E+004    7.24269E+004   -7.14507E+003    6.04164E+004   -9.03223E+003   -1.19626E+004    4.24301E+004    1.18352E+004    1.18102E+004    1.48328E+004
            4996    6.94472E+004    6.37118E+004    6.37118E+004   -1.97796E+003   -8.96451E+003    7.26764E+004   -1.75898E+004    6.86498E+004   -4.45125E+003   -2.54140E+003    5.97620E+004    3.80359E+003    1.51866E+004    5.26793E+003
            4997    4.94369E+004    3.62402E+004    3.62402E+004    1.04287E+003   -2.02797E+004    5.65199E+004   -5.66779E+003    3.67244E+004    2.71197E+003   -4.23525E+003    1.85267E+004    8.27789E+003    5.42864E+003    2.40955E+004
            4998    4.04088E+004    3.72641E+004    3.72641E+004    3.47391E+003   -7.49741E+003    4.47615E+004   -1.10802E+004    3.68279E+004    5.96954E+003    1.52839E+003    2.57426E+004    5.95669E+003    7.46272E+003    1.69394E+004
            4999    3.85412E+004    4.01586E+004    4.01586E+004    4.53901E+003   -7.56403E+002    4.09150E+004   -1.46471E+004    3.77097E+004    7.24259E+003    3.85354E+002    3.63133E+004    2.22121E+003    9.31313E+003    6.29663E+003
            5000    4.03699E+004    2.67202E+004    2.67202E+004   -6.65555E+002   -1.96414E+004    4.63616E+004   -2.13773E+003    2.72619E+004   -1.88654E+002   -6.26006E+001    6.66446E+003    2.20555E+003    2.83702E+003    2.26927E+004
            5001    3.07430E+004    1.93718E+004    1.93718E+004   -6.69464E+003   -1.45310E+004    3.39028E+004    6.17924E+002    2.83625E+004   -6.19837E+003   -3.56289E+003    7.90749E+003    1.65556E+003    3.36308E+003    1.56443E+004
            5002    1.91399E+004    1.41277E+004    1.41277E+004   -2.97284E+003   -6.54738E+003    2.06751E+004   -1.53584E+003    1.83662E+004   -5.63567E+003   -8.13182E+002    1.10564E+004    5.02593E+002    3.68594E+003    5.87180E+003
            5003    2.10542E+005    3.87520E+004   -1.91180E+005   -7.83234E+003   -1.91180E+005    2.29932E+005    5.34203E+004   -1.98443E+005    3.85496E+003   -7.32878E+003   -1.56787E+005    6.43117E+003    8.17716E+004   -1.78714E+003
            5004    1.91794E+005    3.84890E+004   -1.69391E+005    6.87870E+002   -1.69391E+005    2.07880E+005    4.34046E+004   -1.83129E+005   -3.99984E+003    2.78824E+003   -1.29002E+005    6.58189E+003    8.16708E+004    6.43686E+003
            5005    1.53054E+005    3.35408E+004   -1.33990E+005   -1.48614E+003   -1.33990E+005    1.67531E+005    3.39785E+004   -1.43614E+005    5.81377E+003    6.45461E+002   -1.08395E+005    6.50156E+003    5.96981E+004    6.50582E+003
            5006    1.31942E+005    1.85902E+004   -1.21035E+005    1.57277E+003   -1.21035E+005    1.39625E+005    3.36239E+004   -1.29438E+005   -6.08789E+003    4.68626E+003   -9.94700E+004    5.57169E+003    4.97717E+004    3.71484E+003
            5007    1.00811E+005    1.20479E+004   -9.44309E+004   -4.55194E+002   -9.44309E+004    1.06479E+005    2.76127E+004   -9.90436E+004    1.06924E+003    6.12095E+002   -8.45195E+004    3.90266E+003    3.07114E+004   -5.69168E+002
            5008    2.51028E+005    4.29965E+004   -2.30648E+005   -1.10366E+004   -2.30648E+005    2.73644E+005    6.62293E+004   -2.37409E+005    7.71928E+003   -4.08267E+003   -2.02324E+005    1.84779E+004    8.20525E+004    2.15762E+003
            5009    2.04412E+005    3.46118E+004   -1.92197E+005   -2.22003E+004   -1.92197E+005    2.26808E+005    5.99284E+004   -1.85363E+005   -1.02976E+004   -9.59021E+003   -1.59897E+005    2.12934E+004    7.66386E+004    1.02819E+004
            5010    1.67244E+005    5.10606E+004   -1.36062E+005   -1.15647E+003   -1.36062E+005    1.87123E+005    2.87195E+004   -1.47155E+005    1.27211E+004    1.76157E+004   -1.16495E+005    2.07917E+004    5.31471E+004    1.67994E+004
            5011    1.24782E+005    2.85091E+004   -1.10630E+005   -8.64384E+003   -1.10630E+005    1.39139E+005    3.02548E+004   -1.11279E+005   -3.68952E+003    6.24617E+003   -9.33211E+004    1.73061E+004    4.30076E+004    5.77212E+003
            5012    9.72853E+004    2.70931E+004   -7.94717E+004    4.59025E+003   -7.94717E+004    1.06565E+005    1.59294E+004   -9.11495E+004    8.59665E+003    1.45519E+004   -7.09369E+004    1.23749E+004    2.68175E+004   -2.06478E+003
            5013    2.80859E+005    3.91779E+004   -2.72511E+005   -3.90838E+004   -2.72511E+005    3.11689E+005    9.08056E+004   -2.54539E+005   -1.33310E+003   -2.98135E+004   -2.41270E+005    3.45442E+004    8.77150E+004   -1.49711E+004
            5014    2.30756E+005    5.28720E+004   -2.07595E+005   -2.87167E+004   -2.07595E+005    2.60467E+005    6.11465E+004   -1.94079E+005   -8.66912E+003    2.92313E+003   -1.77693E+005    3.79171E+004    7.70846E+004    1.21969E+004
            5015    1.79292E+005    5.96914E+004   -1.44362E+005   -1.20503E+004   -1.44362E+005    2.04053E+005    3.22402E+004   -1.41105E+005    9.39600E+003    2.32608E+004   -1.29377E+005    3.46931E+004    4.79742E+004    9.23206E+003
            5016    1.35409E+005    4.88578E+004   -1.05803E+005   -8.58688E+003   -1.05803E+005    1.54661E+005    2.18441E+004   -1.02038E+005   -2.04533E+003    2.69936E+004   -9.04807E+004    2.80375E+004    3.94959E+004    4.66395E+003
            5017    9.58224E+004    3.46328E+004   -7.36925E+004   -6.81206E+000   -7.36925E+004    1.08325E+005    1.30221E+004   -7.97917E+004    8.06559E+003    1.83080E+004   -6.54401E+004    2.01451E+004    2.25023E+004   -7.84255E+003
            5018    3.11200E+005    5.85516E+004   -2.93089E+005   -5.31834E+004   -2.93089E+005    3.51640E+005    9.59069E+004   -2.59952E+005    3.76043E+003   -3.16406E+004   -2.59840E+005    5.46410E+004    9.25423E+004   -1.62184E+004
            5019    2.61233E+005    5.89688E+004   -2.35787E+005   -3.28968E+004   -2.35787E+005    2.94756E+005    6.99051E+004   -2.20224E+005   -1.57383E+004    1.00255E+004   -2.04002E+005    5.25726E+004    7.90212E+004   -9.31413E+003
            5020    1.97454E+005    8.58193E+004   -1.41211E+005   -9.50545E+003   -1.41211E+005    2.27030E+005    2.16324E+004   -1.28130E+005    1.59459E+004    4.53635E+004   -1.26207E+005    4.88477E+004    4.68042E+004    1.03594E+003
            5021    1.50035E+005    6.09868E+004   -1.11701E+005   -1.33331E+004   -1.11701E+005    1.72688E+005    2.13492E+004   -9.30270E+004   -4.99115E+003    3.54604E+004   -9.45169E+004    3.98763E+004    3.75565E+004   -8.87021E+003
            5022    1.04501E+005    5.49668E+004   -6.52474E+004    3.90264E+003   -6.52474E+004    1.20214E+005    2.12601E+003   -6.64412E+004    1.35957E+004    3.53303E+004   -5.53040E+004    2.85009E+004    2.01854E+004   -1.34665E+004
            5023    1.23371E+005    6.09059E+004   -8.10408E+004    3.59039E+002   -8.10408E+004    1.41947E+005    6.59195E+003   -7.78352E+004    2.49840E+003    3.94784E+004   -6.17527E+004    3.23289E+004    2.03478E+004   -3.14699E+004
            5024    1.75982E+005    8.23668E+004   -1.20110E+005   -3.96326E+003   -1.20110E+005    2.02477E+005    1.39021E+004   -1.11114E+005   -2.00735E+003    5.90478E+004   -9.87466E+004    4.35755E+004    3.48496E+004   -2.96491E+004
            5025    2.34471E+005    8.34498E+004   -1.84967E+005   -2.00851E+004   -1.84967E+005    2.68417E+005    4.05342E+004   -1.70352E+005   -1.35279E+004    5.59652E+004   -1.64040E+005    5.16137E+004    4.76924E+004   -2.71928E+004
            5026    2.84481E+005    6.86718E+004   -2.53114E+005   -3.50379E+004   -2.53114E+005    3.21786E+005    7.31601E+004   -2.35948E+005   -3.25514E+004    3.61505E+004   -2.23079E+005    5.64147E+004    7.19798E+004   -2.39998E+004
            5027    3.39827E+005    4.01710E+004   -3.38660E+005   -6.06571E+004   -3.38660E+005    3.78831E+005    1.19715E+005   -3.03333E+005   -4.86606E+004   -2.61679E+003   -3.07869E+005    5.73103E+004    8.83243E+004   -1.80882E+004
            5028    3.86508E+005    2.20422E+004   -4.06035E+005   -8.26755E+004   -4.06035E+005    4.28077E+005    1.55556E+005   -3.52413E+005   -4.38424E+004   -4.49236E+004   -3.77902E+005    5.51986E+004    9.78894E+004   -9.39506E+003
            5029    4.52372E+005   -1.55258E+004   -5.16333E+005   -1.37341E+005   -5.16333E+005    5.00807E+005    2.23067E+005   -4.12987E+005   -8.48981E+004   -1.06148E+005   -4.78153E+005    5.67125E+004    1.26791E+005   -2.56189E+003
            5030    6.21138E+005   -4.54888E+002   -6.98310E+005   -2.05991E+005   -6.98310E+005    6.97855E+005    3.01585E+005   -5.36212E+005   -1.22119E+005   -2.10211E+005   -5.72426E+005    5.05175E+004    2.58978E+005   -4.50188E+004
            5031    5.66721E+005   -1.34381E+004   -6.53883E+005   -2.17277E+005   -6.53883E+005    6.40445E+005    2.94866E+005   -4.73012E+005   -2.05321E+005   -2.24925E+005   -4.54353E+005    1.51386E+004    2.86745E+005   -7.37049E+004
            5032    5.16096E+005    2.40139E+004   -5.56828E+005   -1.50986E+005   -5.56828E+005    5.80841E+005    2.27933E+005   -4.41535E+005   -7.38431E+004   -1.54740E+005   -4.55216E+005    5.16400E+004    2.09565E+005   -4.26798E+004
            5033    4.88813E+005   -4.30207E+003   -5.57725E+005   -1.84936E+005   -5.57725E+005    5.53423E+005    2.48988E+005   -4.02735E+005   -1.66355E+005   -1.93525E+005   -3.87084E+005    1.35998E+004    2.44284E+005   -7.27955E+004
            5034    4.27682E+005   -6.60789E+003   -4.89153E+005   -1.56916E+005   -4.89153E+005    4.82545E+005    2.17559E+005   -3.60638E+005   -1.50343E+005   -1.67171E+005   -3.35163E+005    1.44663E+004    2.10863E+005   -7.65141E+004
            5035    3.73241E+005   -9.00183E+003   -4.28611E+005   -1.33632E+005   -4.28611E+005    4.19609E+005    1.90415E+005   -3.21158E+005   -1.38176E+005   -1.39253E+005   -2.93815E+005    8.05719E+003    1.81350E+005   -7.39231E+004
            5036    3.40217E+005    5.11777E+003   -3.79468E+005   -1.17765E+005   -3.79468E+005    3.84586E+005    1.64038E+005   -2.83413E+005   -1.20238E+005   -1.19522E+005   -2.52356E+005    2.25150E+003    1.57277E+005   -8.93933E+004
            5037    3.39900E+005   -2.03013E+004   -3.91787E+005   -9.63593E+004   -3.91787E+005    3.71486E+005    1.69483E+005   -3.19902E+005   -1.29626E+005   -7.44705E+004   -3.04351E+005   -4.52490E+002    1.32151E+005   -8.15100E+004
            5038    4.35547E+005    3.16215E+004   -4.58075E+005   -1.13985E+005   -4.58075E+005    4.89697E+005    1.80146E+005   -3.74608E+005   -4.62232E+004   -1.19220E+005   -3.74995E+005    3.74385E+004    1.74593E+005   -3.92778E+004
            5039    3.77247E+005    3.20673E+004   -3.91226E+005   -9.05180E+004   -3.91226E+005    4.23294E+005    1.49892E+005   -3.27724E+005   -3.86508E+004   -9.81858E+004   -3.12840E+005    2.06938E+004    1.56161E+005   -4.27064E+004
            5040    3.66621E+005    1.41059E+004   -3.83369E+005   -5.84519E+004   -3.83369E+005    3.97475E+005    1.42572E+005   -3.49916E+005   -4.78013E+004   -6.42636E+004   -3.15650E+005    8.48470E+003    1.40037E+005   -5.08582E+004
            5041    3.14672E+005    4.06596E+004   -2.93071E+005   -1.76146E+003   -2.93071E+005    3.33731E+005    8.47244E+004   -3.08141E+005   -1.66513E+004   -1.86049E+003   -2.35661E+005    1.24379E+003    1.25664E+005   -8.49114E+003
            5042    1.85176E+005    1.65876E+005    1.65876E+005    5.68567E+003   -3.68760E+004    2.02752E+005   -4.48951E+004    1.73652E+005   -4.78673E+003    2.85019E+003    1.36622E+005    1.00611E+004    7.06540E+004   -3.45609E+003
            5043    1.71872E+005    1.52283E+005    1.52283E+005    1.93213E+001   -3.40846E+004    1.86367E+005   -3.94058E+004    1.63998E+005    5.41999E+003   -6.27199E+003    1.19069E+005    1.03508E+004    6.97171E+004   -9.22842E+003
            5044    1.27607E+005    1.12734E+005    1.12734E+005   -2.12692E+003   -2.46254E+004    1.37360E+005   -2.86606E+004    1.23025E+005   -5.91624E+003   -6.43011E+003    9.83282E+004    8.25406E+003    4.13421E+004   -3.20580E+003
            5045    1.00522E+005    9.69862E+004    9.69862E+004    1.72648E+003   -8.08016E+003    1.05066E+005   -3.02108E+004    9.94377E+004    9.24911E+003   -2.92768E+003    8.43111E+004    6.10638E+003    3.30693E+004    2.27842E+003
            5046    2.27306E+005    1.93631E+005    1.93631E+005    2.12403E+004   -6.39681E+004    2.57599E+005   -5.03009E+004    1.85909E+005   -1.45968E+004   -7.38278E+003    1.72882E+005    3.76787E+004    6.56787E+004   -1.43736E+004
            5047    1.80865E+005    1.53154E+005    1.53154E+005    1.86870E+004   -5.24673E+004    2.05621E+005   -3.97913E+004    1.43900E+005    4.92129E+003   -1.55411E+004    1.29994E+005    3.38111E+004    5.85559E+004   -1.11834E+004
            5048    1.30919E+005    9.28366E+004    9.28366E+004   -1.80953E+002   -5.68734E+004    1.49710E+005   -1.19274E+004    9.69029E+004   -1.62711E+004   -3.13976E+004    8.34509E+004    2.75841E+004    3.19469E+004   -6.15124E+003
            5049    9.13544E+004    7.74309E+004    7.74309E+004    5.66123E+003   -2.54051E+004    1.02836E+005   -1.92290E+004    7.80696E+004    4.86451E+003   -1.21296E+004    6.49522E+004    1.95531E+004    2.56974E+004    9.95175E+003
            5050    1.08783E+005    7.12198E+004    7.12198E+004   -1.33645E+003   -5.38583E+004    1.25078E+005   -5.34166E+003    7.05803E+004   -2.34855E+003   -3.50822E+004    5.34558E+004    2.98931E+004    2.13951E+004    2.42721E+004
            5051    1.57391E+005    1.07943E+005    1.07943E+005    2.66523E+003   -7.29895E+004    1.80933E+005   -1.25397E+004    1.02843E+005   -3.33624E+003   -4.92416E+004    9.01968E+004    4.05970E+004    3.24591E+004    2.24895E+004
            5052    2.12292E+005    1.64598E+005    1.64598E+005    1.26552E+004   -7.79658E+004    2.42564E+005   -3.30959E+004    1.59139E+005    7.43628E+003   -4.89450E+004    1.40796E+005    4.86932E+004    5.39965E+004    1.55492E+004
            5053    2.73967E+005    2.46731E+005    2.46731E+005    2.98348E+004   -6.11537E+004    3.07885E+005   -7.18042E+004    2.36200E+005    2.09466E+004   -2.62508E+004    2.20717E+005    5.15789E+004    6.91321E+004    1.97904E+004
            5054    3.12725E+005    3.02641E+005    3.02641E+005    4.81291E+004   -4.64590E+004    3.49100E+005   -1.01437E+005    2.77698E+005    1.60842E+004    7.72821E+003    2.80498E+005    5.22167E+004    7.51470E+004    1.26717E+004
            5055    3.73971E+005    3.92207E+005    3.92207E+005    8.47480E+004   -2.41177E+004    4.16325E+005   -1.50946E+005    3.35444E+005    4.12814E+004    4.72156E+004    3.64341E+005    5.64807E+004    9.59218E+004    8.08592E+003
            5056    4.41540E+005    5.02037E+005    5.02037E+005    1.34121E+005    1.24070E+004    4.89630E+005   -2.16189E+005    4.01114E+005    8.08971E+004    1.03406E+005    4.64263E+005    5.75697E+004    1.23923E+005    5.68000E+003
            5057    5.12217E+005    6.22295E+005    6.22295E+005    1.92997E+005    5.53061E+004    5.66989E+005   -2.90199E+005    4.67788E+005    1.30254E+005    1.68938E+005    5.71406E+005    5.36360E+004    1.57712E+005   -4.87649E+003
            5058    6.99422E+005    8.05844E+005    8.05844E+005    2.48718E+005    2.09221E+004    7.84921E+005   -3.58495E+005    6.07135E+005    1.60906E+005    2.52757E+005    6.61822E+005    4.39941E+004    2.96854E+005    4.34874E+004
            5059    6.24922E+005    7.32508E+005    7.32508E+005    2.48761E+005    2.69326E+004    7.05575E+005   -3.36067E+005    5.24688E+005    2.39950E+005    2.54443E+005    5.13809E+005    1.38839E+004    3.18787E+005    6.79088E+004
            5060    5.99778E+005    6.68010E+005    6.68010E+005    1.97126E+005   -7.24340E+003    6.75254E+005   -2.85964E+005    5.12163E+005    1.11238E+005    2.01740E+005    5.44915E+005    4.95238E+004    2.51250E+005    4.46403E+004
            5061    5.46523E+005    6.30722E+005    6.30722E+005    2.10529E+005    1.28687E+004    6.17853E+005   -2.84706E+005    4.54993E+005    1.97666E+005    2.18055E+005    4.38399E+005    1.45691E+004    2.76342E+005    7.18715E+004
            5062    5.04574E+005    5.45916E+005    5.45916E+005    1.48528E+005   -2.17735E+004    5.67689E+005   -2.24224E+005    4.32438E+005    7.44370E+004    1.53569E+005    4.44665E+005    4.95832E+004    2.05975E+005    4.43817E+004
            5063    4.69122E+005    5.29063E+005    5.29063E+005    1.70614E+005   -1.88772E+003    5.30951E+005   -2.32596E+005    3.87464E+005    1.56691E+005    1.80034E+005    3.61063E+005    1.36665E+004    2.33899E+005    7.71309E+004
            5064    4.03255E+005    4.14490E+005    4.14490E+005    9.75144E+004   -3.93962E+004    4.53886E+005   -1.57536E+005    3.44829E+005    3.55689E+004    1.01188E+005    3.35851E+005    4.16883E+004    1.62032E+005    3.59034E+004
            5065    3.97900E+005    4.51665E+005    4.51665E+005    1.45221E+005    1.97503E+003    4.49690E+005   -1.99620E+005    3.31968E+005    1.30794E+005    1.52533E+005    3.15535E+005    8.67058E+003    1.93940E+005    6.99386E+004
            5066    3.53726E+005    3.93845E+005    3.93845E+005    1.20055E+005   -5.53996E+003    3.99385E+005   -1.69454E+005    2.96955E+005    1.14768E+005    1.27382E+005    2.66211E+005    6.39994E+003    1.66291E+005    8.33803E+004
            5067    3.32742E+005    3.78893E+005    3.78893E+005    8.65475E+004    1.68092E+004    3.62084E+005   -1.60750E+005    3.15664E+005    1.16806E+005    7.53178E+004    2.90126E+005    1.66402E+003    1.35325E+005    7.48734E+004
            5068    3.49666E+005    3.58651E+005    3.58651E+005    5.67322E+004   -2.44714E+004    3.83123E+005   -1.30304E+005    3.27427E+005    2.81315E+004    6.25390E+004    3.00241E+005    2.29112E+004    1.29779E+005    3.78509E+004
            5069    2.92291E+005    2.67217E+005    2.67217E+005    1.82590E+003   -4.60599E+004    3.13277E+005   -7.43277E+004    2.83264E+005    4.04933E+003    1.67311E+003    2.17261E+005    4.00343E+003    1.14610E+005    1.66215E+003
            5070    7.66388E+004    3.82295E+004   -4.98335E+004    1.75934E+003   -4.98335E+004    8.80631E+004    3.28155E+003   -5.08527E+004    1.27626E+002    2.03703E+004   -3.03426E+004    1.96108E+004    1.11210E+004   -2.82472E+004
            5071    6.84133E+004    2.34044E+004   -5.44577E+004   -3.97270E+003   -5.44577E+004    7.78621E+004    1.16753E+004   -5.38391E+004   -5.44350E+003    9.53548E+003   -3.91179E+004    1.73495E+004    1.29006E+004   -2.17205E+004
            5072    6.43211E+004    1.86292E+004   -5.32713E+004   -1.19827E+003   -5.32713E+004    7.19005E+004    1.19468E+004   -5.68098E+004   -3.39390E+003    1.07098E+004   -4.31562E+004    1.26458E+004    1.51218E+004   -1.44994E+004
            5073    6.19388E+004    5.32570E+003   -6.05628E+004   -3.52618E+003   -6.05628E+004    6.58885E+004    1.95878E+004   -6.04911E+004   -5.39135E+003   -6.67238E+002   -5.27047E+004    7.83411E+003    1.71777E+004   -9.70728E+003
            5074    7.14118E+004    3.15104E+003   -7.04686E+004   -1.49121E+003   -7.04686E+004    7.36197E+004    2.29363E+004   -7.10711E+004   -6.85477E+003    2.24324E+003   -6.41973E+004    2.73863E+003    1.96067E+004   -3.22701E+003
            5075    5.31300E+004    2.16614E+004   -3.89918E+004   -6.84717E+002   -3.89918E+004    6.06532E+004    6.00505E+003   -4.03201E+004   -1.76250E+003    4.15059E+003   -2.04032E+004    9.17180E+003    4.98131E+003   -2.58413E+004
            5076    4.80501E+004    2.18106E+004   -3.17422E+004    7.59932E+003   -3.17422E+004    5.35529E+004    7.77433E+002   -4.29258E+004    7.31237E+003    8.61800E+003   -1.82627E+004    8.13867E+003    5.29658E+003   -2.11089E+004
            5077    4.45129E+004    1.19235E+004   -3.55306E+004    5.29856E+003   -3.55306E+004    4.74541E+004    6.10282E+003   -4.33829E+004    5.06686E+003    1.85056E+003   -2.52259E+004    6.33141E+003    6.40601E+003   -1.73922E+004
            5078    4.42160E+004    1.06412E+004   -3.55185E+004    6.45617E+003   -3.55185E+004    4.61598E+004    6.14037E+003   -4.37671E+004    5.66250E+003    6.40203E+003   -3.04856E+004    4.15687E+003    7.90078E+003   -1.12840E+004
            5079    4.22146E+004    3.94493E+003   -4.03067E+004   -4.77498E+002   -4.03067E+004    4.42517E+004    1.22798E+004   -4.16886E+004    2.12378E+003   -9.07643E+002   -3.80555E+004    1.27986E+003    8.64546E+003   -4.12967E+003
            5080    4.16393E+004    2.28551E+004   -2.52229E+004   -7.22470E+002   -2.52229E+004    4.80780E+004    1.03008E+003   -1.33880E+004   -1.27790E+003    1.39530E+003   -3.20763E+003    2.24991E+003    2.89736E+003   -2.36462E+004
            5081    3.65772E+004    1.47462E+004   -2.74889E+004   -6.17701E+003   -2.74889E+004    4.22351E+004    6.30654E+003   -9.20435E+003   -6.96939E+003   -3.88678E+003   -8.06344E+003    2.32484E+003    3.37998E+003   -2.06020E+004
            5082    3.06331E+004    1.38436E+004   -2.15274E+004   -3.59949E+003   -2.15274E+004    3.53710E+004    3.76111E+003   -8.80399E+003   -4.68667E+003    1.42799E+003   -8.02464E+003    1.88060E+003    4.05496E+003   -1.64267E+004
            5083    2.17835E+004    4.28438E+003   -2.05651E+004   -4.76380E+003   -2.05651E+004    2.48495E+004    7.01484E+003   -1.66944E+004   -5.64573E+003   -4.69727E+003   -1.07015E+004    1.16562E+003    4.51627E+003   -1.12250E+004
            5084    1.63694E+004    2.32550E+003   -1.59085E+004   -2.47920E+003   -1.59085E+004    1.82340E+004    5.35407E+003   -1.46524E+004   -4.27554E+003    1.17294E+003   -1.29596E+004    5.82367E+002    4.67114E+003   -4.04415E+003
            5085    5.21936E+005    6.37811E+005    6.37811E+005    1.99198E+005    6.05514E+004    5.77260E+005   -2.99187E+005    4.77800E+005    1.35964E+005    1.75808E+005    5.85789E+005   -5.30552E+004    1.61118E+005    5.41747E+003
            5086    7.19380E+005    8.34367E+005    8.34367E+005    2.59521E+005    2.76458E+004    8.06722E+005   -3.73845E+005    6.26636E+005    1.71944E+005    2.63014E+005    6.86577E+005   -4.31591E+004    3.05740E+005   -4.16931E+004
            5087    6.45211E+005    7.62019E+005    7.62019E+005    2.60334E+005    3.41737E+004    7.27845E+005   -3.52176E+005    5.44679E+005    2.52207E+005    2.65469E+005    5.38851E+005   -1.38740E+004    3.29018E+005   -6.43495E+004
            5088    5.86529E+005    7.59424E+005    7.59424E+005    2.66759E+005    1.10628E+005    6.48796E+005   -3.78937E+005    5.36709E+005    1.93165E+005    2.53469E+005    6.90176E+005   -4.21236E+004    1.97993E+005    1.16117E+004
            5089    8.04108E+005    9.57349E+005    9.57349E+005    3.07779E+005    5.79904E+004    8.99358E+005   -4.41039E+005    7.08597E+005    2.21089E+005    3.09726E+005    7.92302E+005   -3.10825E+004    3.44994E+005   -3.22429E+004
            5090    7.12058E+005    8.55992E+005    8.55992E+005    2.97258E+005    5.42372E+004    8.01755E+005   -4.02496E+005    6.07660E+005    2.94070E+005    2.99817E+005    6.13600E+005   -1.01565E+004    3.64704E+005   -4.96477E+004
            5091    6.35163E+005    8.54806E+005    8.54806E+005    3.22245E+005    1.51815E+005    7.02991E+005   -4.42956E+005    5.80283E+005    2.40113E+005    3.18613E+005    7.70140E+005   -2.29460E+004    2.28131E+005    8.91482E+003
            5092    8.60809E+005    1.04172E+006    1.04172E+006    3.41307E+005    8.07285E+004    9.60991E+005   -4.87919E+005    7.64218E+005    2.56830E+005    3.41825E+005    8.65100E+005   -1.54800E+004    3.71434E+005   -1.69968E+004
            5093    7.56302E+005    9.22572E+005    9.22572E+005    3.24540E+005    7.24118E+004    8.50160E+005   -4.39841E+005    6.51153E+005    3.25799E+005    3.25148E+005    6.68577E+005   -5.22445E+003    3.88289E+005   -2.50641E+004
            5094    6.52517E+005    8.89061E+005    8.89061E+005    3.42652E+005    1.66572E+005    7.22488E+005   -4.66095E+005    5.95449E+005    2.57310E+005    3.42643E+005    7.98332E+005    1.38668E+003    2.39411E+005   -6.39621E+000
            5095    8.77883E+005    1.06733E+006    1.06733E+006    3.51782E+005    8.77320E+004    9.79602E+005   -5.02283E+005    7.80751E+005    2.67866E+005    3.51787E+005    8.87196E+005    1.94184E+003    3.79482E+005    1.81284E+003
            5096    7.69100E+005    9.41782E+005    9.41782E+005    3.32442E+005    7.76088E+004    8.64173E+005   -4.50611E+005    6.63632E+005    3.34937E+005    3.32454E+005    6.84442E+005    7.63329E+002    3.95157E+005    3.55245E+003
            5097    6.30858E+005    8.46227E+005    8.46227E+005    3.17632E+005    1.47853E+005    6.98373E+005   -4.37237E+005    5.76002E+005    2.35675E+005    3.13230E+005    7.62807E+005    2.53870E+004    2.25682E+005   -9.13597E+003
            5098    8.51811E+005    1.02725E+006    1.02725E+006    3.35054E+005    7.59775E+004    9.51269E+005   -4.79426E+005    7.55233E+005    2.50226E+005    3.35765E+005    8.52288E+005    1.91063E+004    3.67416E+005    2.00677E+004
            5099    7.46769E+005    9.07856E+005    9.07856E+005    3.18472E+005    6.80639E+004    8.39792E+005   -4.31464E+005    6.41569E+005    3.19440E+005    3.19481E+005    6.55472E+005    6.50612E+003    3.83589E+005    3.27212E+004
            5100    5.80069E+005    7.47634E+005    7.47634E+005    2.60621E+005    1.05889E+005    6.41745E+005   -3.71381E+005    5.30578E+005    1.87471E+005    2.46790E+005    6.79884E+005    4.33932E+004    1.94731E+005   -9.84376E+003
            5101    7.86853E+005    9.30214E+005    9.30214E+005    2.96830E+005    4.93792E+004    8.80834E+005   -4.25474E+005    6.90818E+005    2.09147E+005    2.99149E+005    7.68126E+005    3.35245E+004    3.37596E+005    3.46596E+004
            5102    6.95060E+005    8.31492E+005    8.31492E+005    2.87738E+005    4.83843E+004    7.83108E+005   -3.89205E+005    5.91056E+005    2.83790E+005    2.90840E+005    5.92985E+005    1.10558E+004    3.56189E+005    5.37192E+004
            5103    7.16350E+004    7.07077E+004    7.07077E+004    1.52036E+003   -3.14668E+003    7.38544E+004   -2.30271E+004    7.12917E+004    6.90231E+003   -2.22735E+003    6.44064E+004   -2.75279E+003    1.96888E+004   -3.20530E+003
            5104    6.19131E+004    6.04978E+004    6.04978E+004    3.54108E+003   -5.39958E+003    6.58974E+004   -1.95464E+004    6.04351E+004    5.35282E+003    6.28285E+002    5.26582E+004   -7.87049E+003    1.71479E+004   -9.68906E+003
            5105    6.43561E+004    5.31416E+004    5.31416E+004    1.10630E+003   -1.88212E+004    7.19628E+004   -1.18089E+004    5.67660E+004    3.29904E+003   -1.08824E+004    4.30100E+004   -1.26561E+004    1.50505E+004   -1.46104E+004
            5106    6.85262E+004    5.45657E+004    5.45657E+004    3.99020E+003   -2.34234E+004    7.79891E+004   -1.17109E+004    5.39394E+004    5.52746E+003   -9.43043E+003    3.90355E+004   -1.73436E+004    1.28403E+004   -2.19930E+004
            5107    7.64580E+004    4.95675E+004    4.95675E+004   -1.83545E+003   -3.82961E+004    8.78636E+004   -3.14534E+003    5.05744E+004   -2.02495E+002   -2.04527E+004    3.00912E+004   -1.96099E+004    1.10892E+004   -2.81783E+004
            5108    4.23238E+004    4.04182E+004    4.04182E+004    4.91660E+002   -3.95214E+003    4.43704E+004   -1.23192E+004    4.17941E+004   -2.13811E+003    9.15127E+002    3.81807E+004   -1.25009E+003    8.65145E+003   -4.09246E+003
            5109    4.42647E+004    3.56375E+004    3.56375E+004   -6.44879E+003   -1.05237E+004    4.61612E+004   -6.22170E+003    4.38397E+004   -5.61282E+003   -6.34433E+003    3.06222E+004   -4.10237E+003    7.94215E+003   -1.12490E+004
            5110    4.44441E+004    3.55644E+004    3.55644E+004   -5.23209E+003   -1.17970E+004    4.73614E+004   -6.17844E+003    4.33331E+004   -4.97209E+003   -1.74187E+003    2.52493E+004   -6.33121E+003    6.44937E+003   -1.73599E+004
            5111    4.78792E+004    3.15560E+004    3.15560E+004   -7.59848E+003   -2.18238E+004    5.33797E+004   -7.11255E+002    4.27222E+004   -7.32115E+003   -8.61462E+003    1.80695E+004   -8.11387E+003    5.23934E+003   -2.10820E+004
            5112    5.33156E+004    3.91289E+004    3.91289E+004    7.35000E+002   -2.17452E+004    6.08741E+004   -6.03958E+003    4.03794E+004    1.80194E+003   -4.10083E+003    2.04176E+004   -9.19118E+003    4.95402E+003   -2.59758E+004
            5113    1.64190E+004    1.59710E+004    1.59710E+004    2.48500E+003   -2.31230E+003    1.82833E+004   -5.38124E+003    1.47139E+004    4.28714E+003   -1.18271E+003    1.30393E+004   -5.87427E+002    4.68160E+003   -4.01678E+003
            5114    2.16943E+004    2.05177E+004    2.05177E+004    4.73988E+003   -4.22161E+003    2.47393E+004   -7.01200E+003    1.66956E+004    5.62921E+003    4.68057E+003    1.07262E+004   -1.17439E+003    4.50766E+003   -1.11629E+004
            5115    3.06866E+004    2.15341E+004    2.15341E+004    3.57201E+003   -1.38986E+004    3.54327E+004   -3.73584E+003    8.85435E+003    4.64618E+003   -1.45212E+003    8.01346E+003   -1.87186E+003    4.03697E+003   -1.64641E+004
            5116    3.67023E+004    2.75613E+004    2.75613E+004    6.16679E+003   -1.48182E+004    4.23795E+004   -6.30328E+003    9.38756E+003    6.96027E+003    3.89818E+003    8.05138E+003   -2.30445E+003    3.42107E+003   -2.06729E+004
            5117    4.14601E+004    2.51348E+004    2.51348E+004    7.26576E+002   -2.27362E+004    4.78709E+004   -1.04172E+003    1.34577E+004    1.29299E+003   -1.41399E+003    3.24617E+003   -2.25627E+003    2.93040E+003   -2.35335E+004
            5118    3.39812E+005    3.38377E+005    3.38377E+005    6.03578E+004   -4.04263E+004    3.78803E+005   -1.19436E+005    3.03351E+005    4.83218E+004    2.35572E+003    3.07631E+005   -5.72743E+004    8.82789E+004   -1.80547E+004
            5119    2.84520E+005    2.53034E+005    2.53034E+005    3.47058E+004   -6.87359E+004    3.21770E+005   -7.30014E+004    2.36287E+005    3.23171E+004   -3.62691E+004    2.22956E+005   -5.63322E+004    7.20169E+004   -2.41516E+004
            5120    2.33678E+005    1.84140E+005    1.84140E+005    1.99652E+004   -8.33935E+004    2.67534E+005   -4.02373E+004    1.69490E+005    1.33417E+004   -5.59911E+004    1.63361E+005   -5.14714E+004    4.74145E+004   -2.70729E+004
            5121    1.75333E+005    1.19544E+005    1.19544E+005    3.84389E+003   -8.21870E+004    2.01731E+005   -1.37337E+004    1.10659E+005    1.90283E+003   -5.88384E+004    9.81367E+004   -4.35462E+004    3.48278E+004   -2.95415E+004
            5122    1.22865E+005    8.08900E+004    8.08900E+004   -2.74783E+002   -6.04649E+004    1.41355E+005   -6.71677E+003    7.77681E+004   -2.39593E+003   -3.90764E+004    6.16226E+004   -3.21998E+004    2.02842E+004   -3.14060E+004
            5123    1.04637E+005    6.51109E+004    6.51109E+004   -3.93084E+003   -5.52810E+004    1.20392E+005   -1.96634E+003    6.60222E+004   -1.36755E+004   -3.56089E+004    5.51834E+004   -2.86062E+004    2.02476E+004   -1.33060E+004
            5124    9.61086E+004    7.38426E+004    7.38426E+004    1.37092E+002   -3.48607E+004    1.08703E+005   -1.30397E+004    7.97549E+004   -7.98650E+003   -1.83937E+004    6.54992E+004   -2.03753E+004    2.25573E+004   -7.99337E+003
            5125    9.74353E+004    7.95190E+004    7.95190E+004   -4.58128E+003   -2.72537E+004    1.06773E+005   -1.58947E+004    9.12126E+004   -8.55533E+003   -1.47187E+004    7.09580E+004   -1.25163E+004    2.68250E+004   -2.19907E+003
            5126    1.00875E+005    9.44330E+004    9.44330E+004    4.06830E+002   -1.21207E+004    1.06554E+005   -2.75730E+004    9.91023E+004   -1.11129E+003   -6.77462E+002    8.45078E+004   -3.92060E+003    3.07415E+004   -5.35792E+002
            5127    1.51163E+005    1.12683E+005    1.12683E+005    1.32732E+004   -6.12740E+004    1.73957E+005   -2.15608E+004    9.45221E+004    4.97087E+003   -3.57182E+004    9.54298E+004   -3.99943E+004    3.78082E+004   -9.02338E+003
            5128    1.36277E+005    1.06223E+005    1.06223E+005    8.61415E+003   -4.94739E+004    1.55696E+005   -2.17876E+004    1.02283E+005    1.87955E+003   -2.74506E+004    9.09338E+004   -2.82611E+004    3.95856E+004    4.88091E+003
            5129    1.24815E+005    1.10621E+005    1.10621E+005    8.88343E+003   -2.86546E+004    1.39276E+005   -3.02834E+004    1.11008E+005    3.74310E+003   -6.19089E+003    9.32979E+004   -1.74683E+004    4.30148E+004    5.89081E+003
            5130    1.31888E+005    1.21018E+005    1.21018E+005   -1.48252E+003   -1.85879E+004    1.39606E+005   -3.36491E+004    1.29357E+005    6.13416E+003   -4.64100E+003    9.94542E+004   -5.64809E+003    4.97585E+004    3.68048E+003
            5131    1.98927E+005    1.42812E+005    1.42812E+005    1.00359E+004   -8.59031E+004    2.28715E+005   -2.23149E+004    1.29298E+005   -1.56596E+004   -4.49699E+004    1.27574E+005   -4.91800E+004    4.73949E+004    1.16588E+003
            5132    1.80454E+005    1.45684E+005    1.45684E+005    1.24385E+004   -5.96749E+004    2.05359E+005   -3.28159E+004    1.42140E+005   -9.19720E+003   -2.28759E+004    1.30521E+005   -3.49760E+004    4.84221E+004    8.94583E+003
            5133    1.67404E+005    1.35923E+005    1.35923E+005    8.97783E+002   -5.13823E+004    1.87306E+005   -2.84796E+004    1.47285E+005   -1.28936E+004   -1.81847E+004    1.16517E+005   -2.09473E+004    5.29510E+004    1.66992E+004
            5134    1.52645E+005    1.33496E+005    1.33496E+005    1.31145E+003   -3.35706E+004    1.67067E+005   -3.37457E+004    1.43260E+005   -6.04305E+003   -8.91913E+002    1.08172E+005   -6.58708E+003    5.93175E+004    6.61523E+003
            5135    2.62644E+005    2.37439E+005    2.37439E+005    3.28080E+004   -5.87232E+004    2.96162E+005   -7.05080E+004    2.22259E+005    1.61365E+004   -1.00497E+004    2.05437E+005   -5.25106E+004    7.94870E+004   -9.62288E+003
            5136    2.31363E+005    2.08135E+005    2.08135E+005    2.89285E+004   -5.30564E+004    2.61191E+005   -6.13356E+004    1.94401E+005    8.84660E+003   -2.97303E+003    1.78133E+005   -3.80663E+004    7.72887E+004    1.24133E+004
            5137    2.03946E+005    1.91937E+005    1.91937E+005    2.29232E+004   -3.45899E+004    2.26527E+005   -6.00900E+004    1.84334E+005    1.05283E+004    1.00855E+004    1.59656E+005   -2.16266E+004    7.65141E+004    1.03622E+004
            5138    1.90935E+005    1.68725E+005    1.68725E+005   -4.48018E+002   -3.83010E+004    2.07026E+005   -4.33253E+004    1.82203E+005    4.03694E+003   -2.59703E+003    1.28536E+005   -6.63816E+003    8.12911E+004    6.56130E+003
            5139    3.11375E+005    2.93418E+005    2.93418E+005    5.34030E+004   -5.84281E+004    3.51846E+005   -9.61310E+004    2.60064E+005   -3.57726E+003    3.19142E+004    2.60056E+005   -5.46346E+004    9.27516E+004   -1.61840E+004
            5140    2.80896E+005    2.72536E+005    2.72536E+005    3.85893E+004   -3.89982E+004    3.11534E+005   -9.07091E+004    2.55066E+005    1.36945E+003    2.94373E+004    2.41321E+005   -3.42127E+004    8.77391E+004   -1.49101E+004
            5141    2.50308E+005    2.29367E+005    2.29367E+005    1.01154E+004   -4.33555E+004    2.72723E+005   -6.53756E+004    2.36941E+005   -8.15318E+003    3.02460E+003    2.01255E+005   -1.82609E+004    8.16363E+004    2.82569E+003
            5142    2.08952E+005    1.89509E+005    1.89509E+005    7.72828E+003   -3.87776E+004    2.28287E+005   -5.28199E+004    1.96796E+005   -4.20982E+003    7.18149E+003    1.55488E+005   -6.53728E+003    8.10571E+004   -1.62858E+003
            5143    3.13696E+005    2.91638E+005    2.91638E+005    1.63277E+003   -4.13215E+004    3.32959E+005   -8.39830E+004    3.06975E+005    1.56466E+004    1.76395E+003    2.34538E+005   -1.50999E+003    1.25234E+005   -8.20810E+003
            5144    3.39372E+005    3.90687E+005    3.90687E+005    9.56440E+004    1.98157E+004    3.70872E+005   -1.68716E+005    3.19466E+005    1.28667E+005    7.40946E+004    3.03385E+005    6.08610E+002    1.32283E+005   -8.09037E+004
            5145    3.66772E+005    3.83578E+005    3.83578E+005    5.82187E+004   -1.38954E+004    3.97473E+005   -1.42634E+005    3.50285E+005    4.77905E+004    6.39737E+004    3.16137E+005   -8.49998E+003    1.39905E+005   -5.05166E+004
            5146    3.40269E+005    3.79412E+005    3.79412E+005    1.17671E+005   -5.23307E+003    3.84645E+005   -1.63950E+005    2.83453E+005    1.20022E+005    1.19488E+005    2.52340E+005   -2.27306E+003    1.57383E+005   -8.92187E+004
            5147    3.76859E+005    3.90838E+005    3.90838E+005    9.03504E+004   -3.19924E+004    4.22830E+005   -1.49732E+005    3.27493E+005    3.86289E+004    9.81064E+004    3.12461E+005   -2.05913E+004    1.55956E+005   -4.30103E+004
            5148    3.73097E+005    4.28648E+005    4.28648E+005    1.33924E+005    9.15604E+003    4.19492E+005   -1.90576E+005    3.20860E+005    1.38267E+005    1.39552E+005    2.93909E+005   -8.05139E+003    1.81378E+005   -7.36809E+004
            5149    4.35439E+005    4.57964E+005    4.57964E+005    1.13967E+005   -3.16145E+004    4.89579E+005   -1.80106E+005    3.74505E+005    4.61799E+004    1.19145E+005    3.74992E+005   -3.73927E+004    1.74521E+005   -3.91175E+004
            5150    4.27576E+005    4.89100E+005    4.89100E+005    1.57119E+005    6.62472E+003    4.82475E+005   -2.17614E+005    3.60320E+005    1.50402E+005    1.67354E+005    3.35087E+005   -1.44169E+004    2.10858E+005   -7.64823E+004
            5151    4.89570E+005    5.58645E+005    5.58645E+005    1.85227E+005    4.37862E+003    5.54266E+005   -2.49417E+005    4.03432E+005    1.66794E+005    1.93817E+005    3.87640E+005   -1.36165E+004    2.44702E+005   -7.29135E+004
            5152    5.68361E+005    6.56073E+005    6.56073E+005    2.18050E+005    1.38169E+004    6.42257E+005   -2.95980E+005    4.74590E+005    2.06171E+005    2.25679E+005    4.56090E+005   -1.51601E+004    2.87566E+005   -7.37084E+004
            5153    5.16726E+005    5.57859E+005    5.57859E+005    1.51686E+005   -2.37421E+004    5.81601E+005   -2.28601E+005    4.41867E+005    7.44170E+004    1.55456E+005    4.55929E+005   -5.17494E+004    2.09995E+005   -4.27263E+004
            5154    6.22736E+005    7.00666E+005    7.00666E+005    2.07141E+005    9.96810E+002    6.99669E+005   -3.02935E+005    5.37517E+005    1.23295E+005    2.11434E+005    5.74075E+005   -5.04159E+004    2.60010E+005   -4.51606E+004
            5155    4.51742E+005    5.15008E+005    5.15008E+005    1.36798E+005    1.47947E+004    5.00213E+005   -2.22200E+005    4.12163E+005    8.43220E+004    1.05409E+005    4.76869E+005   -5.69224E+004    1.26582E+005   -2.66756E+003
            5156    3.85880E+005    4.04791E+005    4.04791E+005    8.20120E+004   -2.26133E+004    4.27404E+005   -1.54730E+005    3.51786E+005    4.29126E+004    4.45014E+004    3.76776E+005   -5.51396E+004    9.75888E+004   -9.57619E+003
            5157    3.10771E+005    5.77384E+004   -2.89408E+005   -3.71244E+004   -2.89408E+005    3.47147E+005    8.95981E+004   -2.75254E+005   -3.73376E+004    7.08070E+003   -2.38537E+005   -6.19536E+004    1.03247E+005    2.37524E+004
            5158    2.29860E+005    7.39756E+004   -1.88004E+005   -2.01331E+004   -1.88004E+005    2.61980E+005    4.47206E+004   -1.78058E+005   -1.94253E+004    3.60559E+004   -1.50793E+005   -5.77701E+004    6.76236E+004    2.22143E+004
            5159    1.81219E+005    6.68767E+004   -1.40078E+005   -9.80997E+003   -1.40078E+005    2.06955E+005    2.76704E+004   -1.36843E+005   -1.15676E+004    3.57126E+004   -1.07156E+005   -4.94154E+004    4.89074E+004    2.85594E+004
            5160    1.28124E+005    5.38663E+004   -9.26935E+004   -1.92400E+003   -9.26935E+004    1.46560E+005    1.35837E+004   -9.43507E+004   -3.23627E+003    2.87177E+004   -6.62327E+004   -3.69789E+004    2.92911E+004    3.02042E+004
            5161    1.09736E+005    3.51268E+004   -8.77239E+004    5.87692E+002   -8.77239E+004    1.22851E+005    1.73365E+004   -9.63181E+004    8.27898E+003    1.05377E+004   -7.08261E+004   -2.33085E+004    3.39938E+004    1.29631E+004
            5162    1.16922E+005    2.45917E+004   -1.01434E+005    3.51860E+003   -1.01434E+005    1.26025E+005    2.44411E+004   -1.12530E+005    4.16955E+003    6.90800E+003   -8.44009E+004   -9.49874E+003    4.19948E+004    2.20367E+003
            5163    1.59854E+005    4.89308E+004   -1.31638E+005   -8.19522E+003   -1.31638E+005    1.80569E+005    3.03008E+004   -1.33814E+005   -4.22710E+001    1.05320E+004   -1.01392E+005   -3.12908E+004    6.09628E+004    1.93741E+003
            5164    1.61669E+005    3.43365E+004   -1.43064E+005   -4.02674E+003   -1.43064E+005    1.77400E+005    3.75846E+004   -1.50910E+005   -5.28674E+003   -4.15359E+002   -1.07052E+005   -1.14888E+004    7.03533E+004   -2.35101E+003
            5165    1.94692E+005    6.31282E+004   -1.58452E+005   -1.47737E+004   -1.58452E+005    2.21580E+005    3.66992E+004   -1.53228E+005    6.51063E+003    9.75640E+003   -1.26365E+005   -3.79749E+004    7.17019E+004   -4.38125E+003
            5166    1.85867E+005    5.71419E+004   -1.49978E+005    2.29196E+003   -1.49978E+005    2.07119E+005    3.01812E+004   -1.66141E+005    7.25299E+003    8.57821E+003   -1.06375E+005   -1.52749E+004    8.27977E+004   -8.49493E+003
            5167    2.77252E+005    6.62630E+004   -2.46846E+005   -3.24924E+004   -2.46846E+005    3.13109E+005    7.10252E+004   -2.32429E+005   -2.88926E+003   -1.88986E+004   -1.91288E+005   -3.50890E+004    1.15927E+005   -6.42835E+003
            5168    2.42719E+005    6.73264E+004   -2.05512E+005   -1.35800E+004   -2.05512E+005    2.72839E+005    5.05887E+004   -2.08982E+005   -4.79345E+002   -1.18593E+004   -1.39427E+005   -1.12197E+004    1.16378E+005   -4.02565E+003
            5169    2.69654E+005    6.21319E+004   -2.32707E+005    1.40622E+003   -2.32707E+005    2.94839E+005    5.63895E+004   -2.53575E+005   -2.79256E+004    1.19798E+003   -1.42441E+005   -5.16758E+003    1.35703E+005    5.47310E+003
            5170    2.86461E+005    3.19353E+003   -3.11345E+005   -6.54220E+004   -3.11345E+005    3.14538E+005    1.24524E+005   -2.67016E+005   -9.04295E+004   -5.97707E+004   -2.23373E+005   -2.41438E+003    1.25004E+005    6.44845E+004
            5171    3.17647E+005    3.52026E+004   -3.16191E+005   -4.94343E+004   -3.16191E+005    3.51393E+005    1.10141E+005   -2.90611E+005   -5.35334E+004   -5.72177E+004   -2.19671E+005   -2.40124E+004    1.50364E+005    3.80316E+004
            5172    3.07687E+005    2.19775E+004   -3.26670E+005   -9.31477E+004   -3.26670E+005    3.48648E+005    1.32614E+005   -2.51897E+005   -9.09877E+004   -9.98307E+004   -2.07022E+005   -6.53325E+003    1.48264E+005    7.32130E+004
            5173    3.48737E+005   -8.09037E+001   -3.94381E+005   -1.26428E+005   -3.94381E+005    3.94300E+005    1.73630E+005   -2.90094E+005   -1.19700E+005   -1.34855E+005   -2.66334E+005   -1.07083E+004    1.71889E+005    6.61494E+004
            5174    4.04187E+005   -1.53222E+004   -4.71788E+005   -1.59317E+005   -4.71788E+005    4.56466E+005    2.15476E+005   -3.38814E+005   -1.48135E+005   -1.69415E+005   -3.28878E+005   -1.27698E+004    1.97307E+005    7.48618E+004
            5175    4.65875E+005   -5.11346E+004   -5.74596E+005   -2.05486E+005   -5.74596E+005    5.23461E+005    2.77072E+005   -4.01999E+005   -1.92919E+005   -2.13593E+005   -4.24704E+005   -1.21965E+004    2.24662E+005    7.26056E+004
            5176    5.27130E+005   -8.82133E+004   -6.77839E+005   -2.52175E+005   -6.77839E+005    5.89626E+005    3.39409E+005   -4.64338E+005   -2.38086E+005   -2.58164E+005   -5.21977E+005   -1.03160E+004    2.50189E+005    6.94408E+004
            5177    3.61220E+005    4.10255E+004   -3.66158E+005   -8.42628E+004   -3.66158E+005    4.07183E+005    1.36465E+005   -3.06278E+005   -6.02556E+004   -9.23276E+004   -2.56812E+005   -3.80283E+004    1.71858E+005    3.73127E+004
            5178    4.29673E+005    1.46173E+004   -4.68107E+005   -1.27489E+005   -4.68107E+005    4.82725E+005    1.93660E+005   -3.70994E+005   -1.01875E+005   -1.35933E+005   -3.43172E+005   -4.05916E+004    2.02522E+005    4.26782E+004
            5179    4.87164E+005   -1.19676E+004   -5.57655E+005   -1.66499E+005   -5.57655E+005    5.45687E+005    2.45374E+005   -4.26556E+005   -1.42723E+005   -1.73359E+005   -4.20039E+005   -3.77789E+004    2.29842E+005    4.17042E+004
            5180    5.46031E+005   -5.02906E+004   -6.57728E+005   -2.07673E+005   -6.57728E+005    6.07438E+005    3.05231E+005   -4.90980E+005   -1.92756E+005   -2.12746E+005   -5.10190E+005   -3.13250E+004    2.55455E+005    3.92303E+004
            5181    5.84760E+005   -6.88317E+004   -7.20203E+005   -2.40468E+005   -7.20203E+005    6.51371E+005    3.43167E+005   -5.23427E+005   -2.45381E+005   -2.10456E+005   -5.73665E+005   -7.06552E+004    2.62199E+005   -9.45424E+003
            5182    5.09361E+005   -3.04795E+004   -5.97927E+005   -1.80220E+005   -5.97927E+005    5.67448E+005    2.69542E+005   -4.55753E+005   -1.80271E+005   -1.45925E+005   -4.82431E+005   -7.54323E+004    2.15620E+005    3.86317E+003
            5183    4.37543E+005    6.17746E+003   -4.81599E+005   -1.23695E+005   -4.81599E+005    4.87777E+005    1.99705E+005   -3.90516E+005   -1.20456E+005   -8.76407E+004   -3.91020E+005   -7.18529E+004    1.75624E+005    9.37510E+003
            5184    3.69747E+005    3.08490E+004   -3.80756E+005   -7.67278E+004   -3.80756E+005    4.11605E+005    1.42212E+005   -3.31700E+005   -7.24260E+004   -4.50987E+004   -3.09110E+005   -6.47226E+004    1.41500E+005    1.67794E+004
            5185    8.23529E+004    5.25779E+003   -8.09036E+004   -2.97792E+003   -8.09036E+004    8.61614E+004    2.62079E+004   -8.14187E+004   -9.15736E+003   -2.80987E+003   -6.66565E+004   -5.51871E+003    3.09224E+004    6.07307E+003
            5186    7.85870E+004    1.34738E+004   -7.05158E+004    1.23157E+003   -7.05158E+004    8.39896E+004    1.86035E+004   -7.63974E+004   -5.48451E+003    1.73994E+003   -5.20659E+004   -1.47848E+004    2.59289E+004    1.77451E+004
            5187    8.85077E+004    3.16115E+004   -6.87068E+004   -1.64185E+003   -6.87068E+004    1.00318E+005    1.29124E+004   -7.23026E+004   -6.99614E+003    1.07869E+004   -4.25279E+004   -2.41593E+004    1.84259E+004    3.08408E+004
            5188    5.15765E+004    1.04265E+004   -4.38226E+004    4.58369E+003   -4.38226E+004    5.42491E+004    9.60412E+003   -5.08239E+004    4.97025E+003    3.74602E+003   -3.75286E+004   -3.20056E+003    1.58578E+004    6.30775E+003
            5189    5.21957E+004    1.13567E+004   -4.21666E+004    8.59153E+003   -4.21666E+004    5.35233E+004    7.40612E+003   -5.20305E+004    4.58504E+003    2.15029E+003   -2.89537E+004   -7.53370E+003    1.31576E+004    1.81259E+004
            5190    6.10589E+004    2.29380E+004   -4.59360E+004    1.55760E+003   -4.59360E+004    6.88740E+004    7.14679E+003   -5.15676E+004   -2.33870E+003    4.12099E+003   -2.32227E+004   -1.23639E+004    9.87660E+003    2.80724E+004
            5191    2.50364E+004    3.44194E+003   -2.44496E+004   -3.91817E+003   -2.44496E+004    2.78915E+004    8.30860E+003   -2.24014E+004   -7.21440E+003   -3.70186E+003   -1.40095E+004   -7.54239E+002    1.18884E+004    6.29107E+003
            5192    3.54017E+004    1.26005E+004   -2.78886E+004   -2.76985E+003   -2.78886E+004    4.04891E+004    6.01929E+003   -2.61407E+004   -5.83829E+003   -1.73173E+003   -1.04879E+004   -2.43159E+003    1.02373E+004    1.69662E+004
            5193    4.64401E+004    2.11842E+004   -3.22618E+004   -1.75388E+003   -3.22618E+004    5.34460E+004    4.27718E+003   -2.89535E+004   -3.62069E+003   -1.05262E+003   -8.15823E+003   -3.67751E+003    6.78804E+003    2.54233E+004
            5194    5.42134E+005   -9.83573E+004   -7.03770E+005   -2.63164E+005   -7.03770E+005    6.05413E+005    3.55097E+005   -4.80735E+005   -2.49645E+005   -2.68510E+005   -5.47135E+005    9.88918E+003    2.56228E+005   -6.68668E+004
            5195    5.58388E+005   -5.80826E+004   -6.78289E+005   -2.15525E+005   -6.78289E+005    6.20206E+005    3.17299E+005   -5.04710E+005   -2.03881E+005   -2.19793E+005   -5.28223E+005    3.07990E+004    2.61188E+005   -3.65331E+004
            5196    5.96010E+005   -7.56955E+004   -7.39126E+005   -2.48910E+005   -7.39126E+005    6.63431E+005    3.54577E+005   -5.34830E+005   -2.56219E+005   -2.19247E+005   -5.88266E+005    7.04500E+004    2.68415E+005    1.00081E+004
            5197    5.94594E+005   -1.38893E+005   -7.99537E+005   -3.07336E+005   -7.99537E+005    6.60643E+005    4.15255E+005   -5.36851E+005   -2.94362E+005   -3.10042E+005   -6.41361E+005    6.92569E+003    2.76905E+005   -5.21413E+004
            5198    6.08272E+005   -9.73074E+004   -7.69135E+005   -2.55795E+005   -7.69135E+005    6.71828E+005    3.74079E+005   -5.58917E+005   -2.53539E+005   -2.57942E+005   -6.10756E+005    2.13011E+004    2.83016E+005   -2.76255E+004
            5199    6.61575E+005   -1.17674E+005   -8.53725E+005   -3.08633E+005   -8.53725E+005    7.36051E+005    4.26677E+005   -5.94665E+005   -3.20446E+005   -2.90787E+005   -6.68799E+005    5.53642E+004    3.13640E+005    1.64821E+004
            5200    6.30797E+005   -1.69263E+005   -8.67625E+005   -3.39216E+005   -8.67625E+005    6.98362E+005    4.58701E+005   -5.75814E+005   -3.26597E+005   -3.39836E+005   -7.09671E+005    3.20659E+003    2.90896E+005   -2.68498E+004
            5201    6.41700E+005   -1.25564E+005   -8.31597E+005   -2.83857E+005   -8.31597E+005    7.06033E+005    4.13673E+005   -5.95349E+005   -2.88859E+005   -2.84391E+005   -6.67767E+005    1.02814E+004    2.97523E+005   -1.43631E+004
            5202    7.08572E+005   -1.53342E+005   -9.41132E+005   -3.55886E+005   -9.41132E+005    7.87790E+005    4.83454E+005   -6.38408E+005   -3.71104E+005   -3.50666E+005   -7.28591E+005    3.05898E+004    3.48007E+005    1.18248E+004
            5203    6.41673E+005   -1.78734E+005   -8.88267E+005   -3.48659E+005   -8.88267E+005    7.09534E+005    4.71887E+005   -5.87772E+005   -3.36496E+005   -3.48669E+005   -7.30496E+005   -4.46667E+002    2.95029E+005    3.14194E+003
            5204    6.51908E+005   -1.34960E+005   -8.51297E+005   -2.92804E+005   -8.51297E+005    7.16337E+005    4.26354E+005   -6.06637E+005   -3.00444E+005   -2.92807E+005   -6.85810E+005   -1.53537E+003    3.01918E+005    1.31390E+003
            5205    7.26187E+005   -1.65923E+005   -9.73034E+005   -3.72560E+005   -9.73034E+005    8.07111E+005    5.03839E+005   -6.54983E+005   -3.89133E+005   -3.72555E+005   -7.49829E+005   -1.30159E+003    3.61011E+005    8.21732E+000
            5206    6.24247E+005   -1.63195E+005   -8.54777E+005   -3.33002E+005   -8.54777E+005    6.91582E+005    4.50325E+005   -5.68704E+005   -3.20162E+005   -3.34005E+005   -6.96808E+005   -4.13033E+003    2.88343E+005    3.35043E+004
            5207    6.35599E+005   -1.20939E+005   -8.20442E+005   -2.78315E+005   -8.20442E+005    6.99502E+005    4.06565E+005   -5.89323E+005   -2.82506E+005   -2.79064E+005   -6.58126E+005   -1.29619E+004    2.94524E+005    1.68604E+004
            5208    7.05215E+005   -1.50299E+005   -9.34455E+005   -3.52240E+005   -9.34455E+005    7.84156E+005    4.78998E+005   -6.35114E+005   -3.66806E+005   -3.46420E+005   -7.23768E+005   -3.23552E+004    3.45748E+005   -1.22095E+004
            5209    5.82950E+005   -1.29797E+005   -7.78265E+005   -2.97676E+005   -7.78265E+005    6.48469E+005    4.01913E+005   -5.24285E+005   -2.84234E+005   -3.00908E+005   -6.20596E+005   -7.60965E+003    2.72364E+005    5.56814E+004
            5210    5.96681E+005   -8.87333E+004   -7.48485E+005   -2.46637E+005   -7.48485E+005    6.59751E+005    3.61285E+005   -5.46632E+005   -2.42177E+005   -2.49322E+005   -5.92356E+005   -2.30260E+004    2.77770E+005    3.05230E+004
            5211    6.54706E+005   -1.14088E+005   -8.42554E+005   -3.03272E+005   -8.42554E+005    7.28466E+005    4.19971E+005   -5.88334E+005   -3.13851E+005   -2.84940E+005   -6.61124E+005   -5.68805E+004    3.09190E+005   -1.48684E+004
            5212    8.84328E+004    6.86424E+004    6.86424E+004    1.64169E+003   -3.15927E+004    1.00235E+005   -1.28971E+004    7.22307E+004    6.98647E+003   -1.07585E+004    4.24634E+004    2.41104E+004    1.83656E+004    3.08841E+004
            5213    7.83991E+004    7.04027E+004    7.04027E+004   -1.19981E+003   -1.33696E+004    8.37723E+004   -1.86111E+004    7.62305E+004    5.51802E+003   -1.70374E+003    5.20190E+004    1.47111E+004    2.58860E+004    1.76692E+004
            5214    8.18404E+004    8.04235E+004    8.04235E+004    2.98657E+003   -5.20447E+003    8.56279E+004   -2.60685E+004    8.09105E+004    9.15462E+003    2.81474E+003    6.62362E+004    5.49105E+003    3.07574E+004    6.02627E+003
            5215    6.08651E+004    4.58072E+004    4.58072E+004   -1.57031E+003   -2.28380E+004    6.86452E+004   -7.13295E+003    5.14493E+004    2.31581E+003   -4.05779E+003    2.31408E+004    1.22664E+004    9.84425E+003    2.80202E+004
            5216    5.22164E+004    4.21489E+004    4.21489E+004   -8.63602E+003   -1.13900E+004    5.35389E+004   -7.37428E+003    5.20526E+004   -4.65610E+003   -2.20108E+003    2.89800E+004    7.53374E+003    1.31817E+004    1.80755E+004
            5217    5.12850E+004    4.34969E+004    4.34969E+004   -4.62671E+003   -1.04521E+004    5.39490E+004   -9.47269E+003    5.05326E+004   -5.04787E+003   -3.77533E+003    3.72413E+004    3.17897E+003    1.57475E+004    6.31680E+003
            5218    4.63766E+004    3.21261E+004    3.21261E+004    1.73673E+003   -2.12544E+004    5.33805E+004   -4.20283E+003    2.87105E+004    3.55448E+003    1.03321E+003    8.02080E+003    3.57958E+003    6.76262E+003    2.54138E+004
            5219    3.54590E+004    2.80184E+004    2.80184E+004    2.76782E+003   -1.25200E+004    4.05385E+004   -6.08874E+003    2.63500E+004    5.89692E+003    1.74867E+003    1.06206E+004    2.49981E+003    1.02407E+004    1.69790E+004
            5220    2.49910E+004    2.44210E+004    2.44210E+004    3.91771E+003   -3.41653E+003    2.78375E+004   -8.30738E+003    2.23706E+004    7.26201E+003    3.70983E+003    1.39503E+004    7.67336E+002    1.18954E+004    6.24968E+003
            5221    2.60423E+005    6.97028E+004   -2.22334E+005   -1.42179E+004   -2.22334E+005    2.92037E+005    5.56163E+004   -2.26867E+005   -9.78694E+003   -1.41547E+004   -1.42907E+005    5.17078E+003    1.29836E+005   -1.73201E+003
            5222    2.11326E+005    6.72292E+004   -1.68467E+005    4.10039E+003   -1.68467E+005    2.35696E+005    3.23792E+004   -1.88293E+005    8.42846E+003    5.90489E+003   -1.11471E+005    8.87760E+003    1.00409E+005    5.68036E+003
            5223    1.90280E+005    5.04575E+004   -1.61928E+005   -6.99570E+003   -1.61928E+005    2.12386E+005    3.94888E+004   -1.69048E+005   -3.02480E+003   -5.26343E+003   -1.10178E+005    8.54263E+003    9.06821E+004    4.85259E+003
            5224    1.53478E+005    3.88001E+004   -1.28952E+005    4.42159E+003   -1.28952E+005    1.67752E+005    2.85767E+004   -1.44429E+005    6.04883E+003    6.82889E+003   -9.86078E+004    8.19623E+003    6.40000E+004    3.20198E+003
            5225    1.19333E+005    1.56759E+004   -1.12539E+005   -4.71509E+003   -1.12539E+005    1.28215E+005    3.38595E+004   -1.15316E+005   -8.63135E+003   -3.71692E+003   -8.92301E+004    5.85113E+003    4.90410E+004   -1.44876E+003
            5226    2.92420E+005    5.78876E+004   -2.66097E+005   -2.17338E+004   -2.66097E+005    3.23984E+005    7.66476E+004   -2.66347E+005   -1.74088E+004   -1.91525E+004   -1.93382E+005    1.79627E+004    1.34005E+005   -1.47578E+003
            5227    2.24022E+005    5.88060E+004   -1.93197E+005   -1.66328E+004   -1.93197E+005    2.52003E+005    5.03413E+004   -1.92159E+005    4.58505E+002   -6.99079E+003   -1.44491E+005    2.46759E+004    9.69779E+004    7.27149E+003
            5228    1.98401E+005    5.69392E+004   -1.66430E+005   -1.06683E+004   -1.66430E+005    2.23369E+005    4.00531E+004   -1.69416E+005   -1.38058E+003    3.65402E+003   -1.22433E+005    2.51533E+004    8.52033E+004    1.15162E+004
            5229    1.49806E+005    4.45410E+004   -1.23784E+005   -5.10058E+003   -1.23784E+005    1.68325E+005    2.81146E+004   -1.29258E+005    6.79119E+003    6.01147E+003   -9.71464E+004    2.18251E+004    5.85123E+004    2.52071E+003
            5230    1.15765E+005    2.63644E+004   -1.00931E+005   -1.94958E+003   -1.00931E+005    1.27295E+005    2.55054E+004   -1.07553E+005   -2.90841E+003    5.34932E+003   -7.89570E+004    1.65467E+004    4.48501E+004   -4.69069E+003
            5231    3.27213E+005    5.16852E+004   -3.14777E+005   -5.18751E+004   -3.14777E+005    3.66462E+005    1.04989E+005   -2.86708E+005   -2.68112E+004   -5.07798E+004   -2.37375E+005    3.39536E+004    1.44641E+005   -1.80864E+004
            5232    2.47267E+005    6.73920E+004   -2.13226E+005   -2.72978E+004   -2.13226E+005    2.80618E+005    5.77105E+004   -1.99898E+005    5.78307E+002   -4.58976E+003   -1.69120E+005    4.22041E+004    9.61674E+004    5.93209E+003
            5233    2.10449E+005    5.83069E+004   -1.80041E+005   -1.98596E+004   -1.80041E+005    2.38348E+005    4.71978E+004   -1.72944E+005   -6.66041E+003    4.56287E+003   -1.39496E+005    3.97709E+004    8.21929E+004    2.20093E+003
            5234    1.57194E+005    5.94310E+004   -1.19719E+005   -4.86736E+003   -1.19719E+005    1.79151E+005    2.17186E+004   -1.21851E+005    1.12824E+004    2.04135E+004   -9.68518E+004    3.48326E+004    5.26078E+004   -1.10869E+003
            5235    1.15377E+005    2.99469E+004   -9.89427E+004   -5.30151E+003   -9.89427E+004    1.28890E+005    2.47658E+004   -1.02167E+005   -5.14344E+003    6.69788E+003   -7.58518E+004    2.52128E+004    4.08037E+004   -1.20108E+004
            5236    3.60317E+005    4.75982E+004   -3.57131E+005   -7.12542E+004   -3.57131E+005    4.04729E+005    1.26929E+005   -3.11402E+005   -3.71894E+004   -6.40082E+004   -2.79590E+005    5.11040E+004    1.50287E+005   -2.04882E+004
            5237    2.73249E+005    6.13701E+004   -2.46315E+005   -3.19550E+004   -2.46315E+005    3.07685E+005    7.22998E+004   -2.33121E+005   -1.29602E+004   -7.16333E+002   -2.03223E+005    5.61375E+004    9.26963E+004   -1.58464E+004
            5238    2.22280E+005    6.32532E+004   -1.88495E+005   -1.93123E+004   -1.88495E+005    2.51748E+005    4.81847E+004   -1.82661E+005   -1.14963E+004    1.61746E+004   -1.49233E+005    5.02282E+004    7.74356E+004   -1.00475E+004
            5239    1.65147E+005    6.08374E+004   -1.27459E+005   -7.19750E+003   -1.27459E+005    1.88296E+005    2.46064E+004   -1.27350E+005    4.69077E+003    2.62642E+004   -1.04774E+005    4.22381E+004    4.60719E+004   -1.57481E+004
            5240    1.19337E+005    3.95623E+004   -9.51606E+004   -2.72731E+003   -9.51606E+004    1.34723E+005    1.94419E+004   -1.00270E+005   -5.24065E+003    1.77018E+004   -7.07868E+004    3.11467E+004    3.53578E+004   -2.04447E+004
            5241    1.43912E+005    5.94805E+004   -1.05797E+005   -8.22032E+003   -1.05797E+005    1.65277E+005    1.81789E+004   -9.70749E+004   -1.22785E+004    3.24566E+004   -7.47150E+004    4.16893E+004    3.08086E+004   -3.63156E+004
            5242    1.99161E+005    8.13582E+004   -1.47470E+005   -1.32231E+004   -1.47470E+005    2.28828E+005    2.64450E+004   -1.32550E+005   -1.39126E+004    4.95458E+004   -1.14968E+005    5.47329E+004    4.63078E+004   -3.46063E+004
            5243    2.62235E+005    7.74160E+004   -2.22062E+005   -3.35658E+004   -2.22062E+005    2.99478E+005    5.94038E+004   -1.98003E+005   -3.66687E+004    3.94668E+004   -1.81009E+005    6.54557E+004    7.13425E+004   -3.17507E+004
            5244    3.07496E+005    6.85368E+004   -2.80285E+005   -4.84616E+004   -2.80285E+005    3.48822E+005    8.67366E+004   -2.49485E+005   -5.06526E+004    2.23654E+004   -2.31923E+005    7.14015E+004    9.23336E+004   -2.74238E+004
            5245    3.83718E+005    3.94497E+004   -3.88588E+005   -7.54370E+004   -3.88588E+005    4.28038E+005    1.41525E+005   -3.41686E+005   -7.69412E+004   -2.39566E+004   -3.23677E+005    7.14257E+004    1.34332E+005   -1.86143E+004
            5246    4.52790E+005    1.98909E+003   -5.01062E+005   -1.26154E+005   -5.01062E+005    5.03051E+005    2.08409E+005   -4.08913E+005   -1.28077E+005   -8.89483E+004   -4.08201E+005    7.30088E+004    1.80410E+005   -1.18782E+004
            5247    5.23533E+005   -3.32561E+004   -6.16060E+005   -1.85585E+005   -6.16060E+005    5.82804E+005    2.78300E+005   -4.69656E+005   -1.88865E+005   -1.49363E+005   -4.96673E+005    7.52030E+004    2.22602E+005   -4.39579E+001
            5248    5.02373E+005   -2.11234E+004   -5.82205E+005   -1.74116E+005   -5.82205E+005    5.61082E+005    2.59148E+005   -4.45252E+005   -1.54301E+005   -1.80468E+005   -4.42675E+005    3.80791E+004    2.35656E+005   -4.13493E+004
            5249    4.82068E+005   -5.64737E+004   -5.97818E+005   -2.14897E+005   -5.97818E+005    5.41344E+005    2.89730E+005   -4.17167E+005   -2.01379E+005   -2.23080E+005   -4.44729E+005    1.22522E+004    2.31537E+005   -7.46145E+004
            5250    4.39899E+005    1.35194E+004   -4.80329E+005   -1.30467E+005   -4.80329E+005    4.93848E+005    1.99092E+005   -3.81206E+005   -1.05391E+005   -1.38123E+005   -3.53762E+005    4.27784E+004    2.06725E+005   -4.15766E+004
            5251    4.21818E+005   -2.43810E+004   -5.00340E+005   -1.72765E+005   -5.00340E+005    4.75959E+005    2.32495E+005   -3.55553E+005   -1.59600E+005   -1.82453E+005   -3.55433E+005    1.32836E+004    2.05917E+005   -7.25671E+004
            5252    3.70280E+005   -3.20729E+002   -4.18582E+005   -1.32637E+005   -4.18582E+005    4.18261E+005    1.83847E+005   -3.09970E+005   -1.23560E+005   -1.42563E+005   -2.85417E+005    1.23979E+004    1.80921E+005   -7.06286E+004
            5253    3.22186E+005    4.69018E+003   -3.58249E+005   -1.05999E+005   -3.58249E+005    3.62940E+005    1.53186E+005   -2.74234E+005   -1.05786E+005   -1.13790E+005   -2.39981E+005    9.55040E+003    1.55872E+005   -6.74380E+004
            5254    2.93378E+005    2.14417E+004   -3.11182E+005   -8.92667E+004   -3.11182E+005    3.32623E+005    1.26336E+005   -2.39104E+005   -8.98299E+004   -9.24363E+004   -1.96741E+005    2.97249E+003    1.37215E+005   -7.83205E+004
            5255    2.89014E+005   -3.06591E+003   -3.19751E+005   -7.02388E+004   -3.19751E+005    3.16685E+005    1.31019E+005   -2.70601E+005   -9.66542E+004   -5.86919E+004   -2.37709E+005    5.59107E+002    1.19538E+005   -6.82334E+004
            5256    3.82276E+005    2.59954E+004   -4.03817E+005   -1.01843E+005   -4.03817E+005    4.29812E+005    1.59888E+005   -3.28752E+005   -8.48340E+004   -1.11306E+005   -2.83525E+005    3.73823E+004    1.84211E+005   -4.17232E+004
            5257    3.27718E+005    3.79526E+004   -3.30905E+005   -7.32855E+004   -3.30905E+005    3.68858E+005    1.22079E+005   -2.80261E+005   -6.99751E+004   -8.24640E+004   -2.13799E+005    2.33127E+004    1.64713E+005   -4.21583E+004
            5258    3.10340E+005    2.97635E+004   -3.10419E+005   -4.27672E+004   -3.10419E+005    3.40182E+005    1.07808E+005   -2.90337E+005   -6.80682E+004   -4.68079E+004   -2.08547E+005    1.04161E+004    1.48262E+005   -4.78463E+004
            5259    2.70731E+005    5.39697E+004   -2.38565E+005    3.16324E+003   -2.38565E+005    2.92534E+005    6.04773E+004   -2.59678E+005   -3.90565E+004    3.36240E+003   -1.45738E+005    1.16302E+003    1.35600E+005   -1.18758E+004
            5260    2.42835E+005    2.05587E+005    2.05587E+005    1.35661E+004   -6.73834E+004    2.72970E+005   -5.05898E+004    2.09077E+005    5.14825E+002    1.18442E+004    1.39410E+005    1.11986E+004    1.16470E+005   -4.07155E+003
            5261    1.85629E+005    1.49859E+005    1.49859E+005   -2.25731E+003   -5.69803E+004    2.06839E+005   -3.02070E+004    1.65973E+005   -7.18750E+003   -8.54377E+003    1.06352E+005    1.52558E+004    8.26578E+004   -8.48292E+003
            5262    1.60667E+005    1.42319E+005    1.42319E+005    3.97358E+003   -3.39010E+004    1.76220E+005   -3.74640E+004    1.50122E+005    5.25704E+003    3.93725E+002    1.06741E+005    1.14203E+004    6.97415E+004   -2.21623E+003
            5263    1.15731E+005    1.00409E+005    1.00409E+005   -3.58118E+003   -2.42728E+004    1.24681E+005   -2.41849E+004    1.11455E+005   -4.27147E+003   -6.91265E+003    8.37388E+004    9.39968E+003    4.13402E+004    2.33791E+003
            5264    2.76913E+005    2.46453E+005    2.46453E+005    3.24708E+004   -6.63030E+004    3.12756E+005   -7.08737E+004    2.31998E+005    2.81537E+003    1.88086E+004    1.90997E+005    3.51367E+004    1.15747E+005   -6.49142E+003
            5265    1.94049E+005    1.57726E+005    1.57726E+005    1.46261E+004   -6.31452E+004    2.20871E+005   -3.64022E+004    1.52556E+005   -6.62969E+003   -9.91975E+003    1.25756E+005    3.79203E+004    7.14387E+004   -4.40454E+003
            5266    1.59039E+005    1.30934E+005    1.30934E+005    8.08829E+003   -4.87051E+004    1.79639E+005   -3.01057E+004    1.33175E+005   -3.62587E+001   -1.04577E+004    1.00811E+005    3.11295E+004    6.06751E+004    2.00460E+003
            5267    1.09047E+005    8.72585E+004    8.72585E+004   -6.91816E+002   -3.47541E+004    1.22013E+005   -1.72709E+004    9.59355E+004   -8.29957E+003   -1.03945E+004    7.05067E+004    2.30367E+004    3.37239E+004    1.30052E+004
            5268    1.28259E+005    9.27692E+004    9.27692E+004    1.92047E+003   -5.39484E+004    1.46718E+005   -1.35804E+004    9.44194E+004    3.23690E+003   -2.87235E+004    6.62279E+004    3.70461E+004    2.92815E+004    3.03230E+004
            5269    1.81496E+005    1.40135E+005    1.40135E+005    9.80304E+003   -6.71609E+004    2.07296E+005   -2.75925E+004    1.36816E+005    1.14869E+004   -3.59016E+004    1.07192E+005    4.95573E+004    4.88904E+004    2.86457E+004
            5270    2.30036E+005    1.88119E+005    1.88119E+005    2.01544E+004   -7.40701E+004    2.62189E+005   -4.47344E+004    1.78136E+005    1.94398E+004   -3.61069E+004    1.50870E+005    5.78442E+004    6.76573E+004    2.22587E+004
            5271    3.10458E+005    2.89021E+005    2.89021E+005    3.70573E+004   -5.78007E+004    3.46821E+005   -8.94258E+004    2.74903E+005    3.70691E+004   -7.08596E+003    2.38294E+005    6.19142E+004    1.03073E+005    2.37041E+004
            5272    3.69208E+005    3.79952E+005    3.79952E+005    7.64249E+004   -3.10759E+004    4.11028E+005   -1.41767E+005    3.31155E+005    7.22380E+004    4.45484E+004    3.08515E+005    6.47585E+004    1.41133E+005    1.67523E+004
            5273    4.37922E+005    4.82080E+005    4.82080E+005    1.23915E+005   -6.13806E+003    4.88218E+005   -1.99952E+005    3.90800E+005    1.20798E+005    8.76488E+004    3.91410E+005    7.20655E+004    1.75716E+005    9.43499E+003
            5274    5.10046E+005    5.98884E+005    5.98884E+005    1.80572E+005    3.06894E+004    5.68194E+005   -2.70048E+005    4.56412E+005    1.80772E+005    1.46206E+005    4.83167E+005    7.53820E+004    2.16002E+005    3.62846E+003
            5275    5.84821E+005    7.20293E+005    7.20293E+005    2.40241E+005    6.89550E+004    6.51338E+005   -3.43163E+005    5.23767E+005    2.45409E+005    2.10371E+005    5.73709E+005    7.05852E+004    2.62236E+005   -9.20389E+003
            5276    5.45864E+005    6.57853E+005    6.57853E+005    2.07974E+005    5.05864E+004    6.07267E+005   -3.05471E+005    4.90789E+005    1.93066E+005    2.13024E+005    5.10324E+005    3.14894E+004    2.55398E+005    3.91153E+004
            5277    5.26662E+005    6.76804E+005    6.76804E+005    2.51537E+005    8.76950E+004    5.89109E+005   -3.38679E+005    4.63903E+005    2.37440E+005    2.57610E+005    5.20985E+005    1.04503E+004    2.49950E+005    6.96052E+004
            5278    4.86818E+005    5.57303E+005    5.57303E+005    1.66192E+005    1.20819E+004    5.45221E+005   -2.45192E+005    4.26525E+005    1.42595E+005    1.73024E+005    4.19958E+005    3.78981E+004    2.29540E+005    4.16374E+004
            5279    4.66384E+005    5.74978E+005    5.74978E+005    2.05477E+005    5.09399E+004    5.24038E+005   -2.77132E+005    4.02423E+005    1.92805E+005    2.13649E+005    4.24941E+005    1.23291E+004    2.24915E+005    7.26070E+004
            5280    4.29526E+005    4.67688E+005    4.67688E+005    1.26856E+005   -1.47674E+004    4.82455E+005   -1.93259E+005    3.71269E+005    1.01470E+005    1.35298E+005    3.43008E+005    4.06847E+004    2.02268E+005    4.27233E+004
            5281    4.05371E+005    4.73565E+005    4.73565E+005    1.59954E+005    1.58251E+004    4.57740E+005   -2.16448E+005    3.40108E+005    1.48793E+005    1.70068E+005    3.30483E+005    1.28769E+004    1.97864E+005    7.47867E+004
            5282    3.61301E+005    3.66287E+005    3.66287E+005    8.43176E+004   -4.09850E+004    4.07272E+005   -1.36540E+005    3.06360E+005    6.02847E+004    9.23359E+004    2.56999E+005    3.80018E+004    1.71883E+005    3.72210E+004
            5283    3.49487E+005    3.95274E+005    3.95274E+005    1.26567E+005    1.75195E+002    3.95099E+005   -1.74005E+005    2.90963E+005    1.19940E+005    1.35038E+005    2.67038E+005    1.07985E+004    1.72217E+005    6.62578E+004
            5284    3.08011E+005    3.27060E+005    3.27060E+005    9.32934E+004   -2.19549E+004    3.49015E+005   -1.32800E+005    2.52160E+005    9.11144E+004    9.99793E+004    2.07305E+005    6.52961E+003    1.48407E+005    7.33029E+004
            5285    2.86534E+005    3.11552E+005    3.11552E+005    6.55539E+004   -3.05935E+003    3.14612E+005   -1.24682E+005    2.67096E+005    9.05930E+004    5.99640E+004    2.23490E+005    2.50913E+003    1.24978E+005    6.46898E+004
            5286    3.17823E+005    3.16370E+005    3.16370E+005    4.94212E+004   -3.51996E+004    3.51570E+005   -1.10197E+005    2.90815E+005    5.35718E+004    5.72296E+004    2.19790E+005    2.40423E+004    1.50428E+005    3.81126E+004
            5287    2.69707E+005    2.32968E+005    2.32968E+005   -1.22203E+003   -6.19126E+004    2.94881E+005   -5.66113E+004    2.53651E+005    2.82139E+004   -9.98183E+002    1.42618E+005    5.10469E+003    1.35748E+005    5.68287E+003
            5288    9.52022E+004    4.20654E+004   -6.68989E+004    1.75206E+002   -6.68989E+004    1.08964E+005    8.21942E+003   -6.94096E+004   -3.56555E+003    1.88808E+004   -3.99735E+004    2.68671E+004    1.69634E+004   -3.36059E+004
            5289    8.28708E+004    2.74947E+004   -6.45153E+004    4.25358E+003   -6.45153E+004    9.20100E+004    1.09223E+004   -7.49963E+004    3.43612E+003    9.62293E+003   -4.58260E+004    1.97697E+004    1.86049E+004   -2.50786E+004
            5290    8.10520E+004    2.58374E+004   -6.31977E+004    6.29985E+003   -6.31977E+004    8.90351E+004    1.03535E+004   -7.54763E+004    7.59087E+003    1.01897E+004   -4.88410E+004    1.67081E+004    2.27210E+004   -1.67855E+004
            5291    7.96886E+004    1.59911E+004   -7.00175E+004    1.30947E+003   -7.00175E+004    8.60086E+004    1.75723E+004   -7.65566E+004    2.95590E+003    1.63418E+003   -5.73070E+004    1.05238E+004    2.65440E+004   -1.08098E+004
            5292    8.61418E+004    1.38121E+004   -7.66760E+004    4.33599E+003   -7.66760E+004    9.04881E+004    1.95093E+004   -8.49573E+004    2.51451E+003    4.86085E+003   -6.59033E+004    3.97222E+003    2.88275E+004   -3.31531E+003
            5293    6.36555E+004    2.33073E+004   -4.93361E+004   -3.30793E+003   -4.93361E+004    7.26434E+004    9.77893E+003   -4.85355E+004   -7.74084E+003    2.73785E+003   -2.43338E+004    1.36571E+004    9.65431E+003   -2.97425E+004
            5294    5.56865E+004    1.59653E+004   -4.60096E+004   -1.78950E+002   -4.60096E+004    6.19749E+004    1.00744E+004   -5.00007E+004   -6.81068E+003    1.37543E+003   -2.47881E+004    1.06477E+004    1.29187E+004   -2.39640E+004
            5295    5.16591E+004    6.26481E+003   -4.83350E+004   -2.31134E+002   -4.83350E+004    5.45998E+004    1.41005E+004   -5.07280E+004   -7.87980E+003   -3.43337E+003   -3.09882E+004    8.36235E+003    1.55089E+004   -1.89805E+004
            5296    5.09442E+004    4.90308E+003   -4.68417E+004    3.26221E+003   -4.68417E+004    5.17448E+004    1.28921E+004   -5.08846E+004   -4.65171E+003    1.06869E+003   -3.50934E+004    5.88890E+003    1.75196E+004   -1.20679E+004
            5297    4.94425E+004    6.53120E+002   -5.08099E+004   -3.67228E+003   -5.08099E+004    5.14631E+004    1.79430E+004   -4.90141E+004   -7.88237E+003   -4.18117E+003   -4.17656E+004    2.04162E+003    1.90272E+004   -4.42620E+003
            5298    4.87073E+004    2.56811E+004   -3.02914E+004    2.46039E+003   -3.02914E+004    5.59725E+004    7.16641E+002   -3.22316E+004    8.83658E+002    2.02530E+003   -5.05888E+003    3.94307E+003    5.98307E+003   -2.69256E+004
            5299    4.35101E+004    1.99760E+004   -2.89653E+004    5.33833E+003   -2.89653E+004    4.89413E+004    1.21701E+003   -3.73353E+004    3.88331E+003    8.78827E+002   -8.41315E+003    2.97085E+003    7.84632E+003   -2.27938E+004
            5300    3.79923E+004    1.81742E+004   -2.37061E+004    8.54531E+003   -2.37061E+004    4.18803E+004   -1.00447E+003   -3.50859E+004    6.66235E+003    4.67816E+003   -8.32708E+003    2.80569E+003    9.70556E+003   -1.76854E+004
            5301    3.12228E+004    1.15921E+004   -2.30790E+004    2.81817E+003   -2.30790E+004    3.46711E+004    2.88956E+003   -2.82432E+004    3.21180E+003   -5.98034E+002   -1.12824E+004    1.61921E+003    1.12079E+004   -1.18430E+004
            5302    2.79631E+004    1.10918E+004   -1.95498E+004    4.58877E+003   -1.95498E+004    3.06416E+004    1.28976E+003   -2.61794E+004    4.82834E+003    4.14474E+003   -1.28424E+004    6.87406E+002    1.19267E+004   -4.20862E+003
            5303    5.95583E+005    7.38173E+005    7.38173E+005    2.48396E+005    7.51839E+004    6.62989E+005   -3.53918E+005    5.34353E+005    2.55627E+005    2.18550E+005    5.87576E+005   -7.06206E+004    2.68069E+005    1.00178E+004
            5304    5.59036E+005    6.79273E+005    6.79273E+005    2.15960E+005    5.83518E+004    6.20921E+005   -3.17862E+005    5.05309E+005    2.04213E+005    2.20279E+005    5.29092E+005   -3.05276E+004    2.61459E+005   -3.67788E+004
            5305    5.43268E+005    7.06007E+005    7.06007E+005    2.64268E+005    9.94047E+004    6.06602E+005   -3.56560E+005    4.81975E+005    2.50831E+005    2.69535E+005    5.49314E+005   -9.80832E+003    2.56711E+005   -6.65581E+004
            5306    6.61515E+005    8.53647E+005    8.53647E+005    3.08763E+005    1.17602E+005    7.36045E+005   -4.26671E+005    5.94445E+005    3.20431E+005    2.90889E+005    6.68692E+005   -5.53533E+004    3.13653E+005    1.66250E+004
            5307    6.08630E+005    7.69461E+005    7.69461E+005    2.55584E+005    9.73389E+004    6.72123E+005   -3.74128E+005    5.59468E+005    2.53486E+005    2.57730E+005    6.11168E+005   -2.11742E+004    2.83053E+005   -2.76452E+004
            5308    5.95516E+005    8.01230E+005    8.01230E+005    3.08111E+005    1.39624E+005    6.61606E+005   -4.16322E+005    5.37843E+005    2.95190E+005    3.10783E+005    6.42992E+005   -6.91814E+003    2.77296E+005   -5.17351E+004
            5309    7.09395E+005    9.42148E+005    9.42148E+005    3.56209E+005    1.53449E+005    7.88699E+005   -4.83935E+005    6.39162E+005    3.71529E+005    3.51068E+005    7.29210E+005   -3.03534E+004    3.48515E+005    1.17863E+004
            5310    6.41883E+005    8.31704E+005    8.31704E+005    2.83651E+005    1.25541E+005    7.06163E+005   -4.13632E+005    5.95660E+005    2.88808E+005    2.84173E+005    6.67915E+005   -1.03228E+004    2.97540E+005   -1.41892E+004
            5311    6.31160E+005    8.68113E+005    8.68113E+005    3.39360E+005    1.69365E+005    6.98748E+005   -4.58946E+005    5.76184E+005    3.26736E+005    3.39955E+005    7.10146E+005   -3.14598E+003    2.91062E+005   -2.62860E+004
            5312    7.25661E+005    9.72389E+005    9.72389E+005    3.72520E+005    1.65797E+005    8.06592E+005   -5.03569E+005    6.54332E+005    3.88848E+005    3.72508E+005    7.49350E+005    1.86513E+003    3.60764E+005   -1.91079E+002
            5313    6.51786E+005    8.50979E+005    8.50979E+005    2.92624E+005    1.34762E+005    7.16218E+005   -4.26122E+005    6.06494E+005    3.00181E+005    2.92630E+005    6.85554E+005    1.55001E+003    3.01844E+005    1.58319E+003
            5314    6.41548E+005    8.88069E+005    8.88069E+005    3.48606E+005    1.78657E+005    7.09412E+005   -4.71777E+005    5.87618E+005    3.36402E+005    3.48617E+005    7.30312E+005    4.44932E+002    2.94981E+005    3.58414E+003
            5315    7.04747E+005    9.33713E+005    9.33713E+005    3.51951E+005    1.50051E+005    7.83662E+005   -4.78572E+005    6.34622E+005    3.66483E+005    3.45929E+005    7.23303E+005    3.29044E+004    3.45390E+005   -1.23892E+004
            5316    6.35527E+005    8.20316E+005    8.20316E+005    2.78407E+005    1.20823E+005    6.99493E+005   -4.06516E+005    5.89115E+005    2.82498E+005    2.79164E+005    6.57884E+005    1.29220E+004    2.94592E+005    1.69521E+004
            5317    6.23582E+005    8.53672E+005    8.53672E+005    3.32554E+005    1.62787E+005    6.90886E+005   -4.49671E+005    5.67999E+005    3.19706E+005    3.33588E+005    6.95719E+005    4.18615E+003    2.88078E+005    3.40469E+004
            5318    6.53874E+005    8.41361E+005    8.41361E+005    3.02720E+005    1.13838E+005    7.27524E+005   -4.19306E+005    5.87633E+005    3.13269E+005    2.84336E+005    6.60314E+005    5.69812E+004    3.08674E+005   -1.47506E+004
            5319    5.97016E+005    7.49146E+005    7.49146E+005    2.47076E+005    8.89998E+004    6.60147E+005   -3.61741E+005    5.46881E+005    2.42652E+005    2.49718E+005    5.92853E+005    2.31626E+004    2.78003E+005    3.02552E+004
            5320    5.82011E+005    7.76737E+005    7.76737E+005    2.97075E+005    1.29254E+005    6.47483E+005   -4.01022E+005    5.23280E+005    2.83608E+005    3.00313E+005    6.19144E+005    7.54662E+003    2.71974E+005    5.59714E+004
            5321    8.64228E+004    7.69438E+004    7.69438E+004   -4.32785E+003   -1.38427E+004    9.07865E+004   -1.95911E+004    8.52325E+004   -2.48691E+003   -4.86857E+003    6.61288E+004   -3.99240E+003    2.89331E+004   -3.29167E+003
            5322    7.97234E+004    7.00234E+004    7.00234E+004   -1.29977E+003   -1.60423E+004    8.60657E+004   -1.75604E+004    7.65660E+004   -2.96079E+003   -1.66091E+003    5.73030E+004   -1.05737E+004    2.65515E+004   -1.08073E+004
            5323    8.10523E+004    6.31505E+004    6.31505E+004   -6.37745E+003   -2.58709E+004    8.90214E+004   -1.03007E+004    7.55031E+004   -7.56408E+003   -1.02669E+004    4.87332E+004   -1.67347E+004    2.26578E+004   -1.69347E+004
            5324    8.28462E+004    6.44670E+004    6.44670E+004   -4.21742E+003   -2.75408E+004    9.20079E+004   -1.09029E+004    7.49086E+004   -3.35587E+003   -9.55675E+003    4.56214E+004   -1.98174E+004    1.84820E+004   -2.52957E+004
            5325    9.50077E+004    6.65598E+004    6.65598E+004   -2.70844E+002   -4.21994E+004    1.08759E+005   -8.02988E+003    6.90656E+004    3.44297E+003   -1.90416E+004    3.96883E+004   -2.68415E+004    1.68835E+004   -3.35443E+004
            5326    4.95159E+004    5.09301E+004    5.09301E+004    3.70352E+003   -5.94865E+002    5.15250E+004   -1.80129E+004    4.90935E+004    7.93794E+003    4.20320E+003    4.18976E+004   -2.00461E+003    1.90412E+004   -4.39790E+003
            5327    5.09635E+004    4.69126E+004    4.69126E+004   -3.25270E+003   -4.81319E+003    5.17258E+004   -1.29489E+004    5.09097E+004    4.67757E+003   -1.02992E+003    3.51991E+004   -5.82938E+003    1.75478E+004   -1.20169E+004
            5328    5.16192E+004    4.83058E+004    4.83058E+004    1.81844E+002   -6.21284E+003    5.45186E+004   -1.40916E+004    5.07166E+004    7.83426E+003    3.46090E+003    3.09796E+004   -8.35064E+003    1.55224E+004   -1.89425E+004
            5329    5.56568E+004    4.58699E+004    4.58699E+004    1.60821E+002   -1.61087E+004    6.19786E+004   -9.97401E+003    4.98709E+004    6.75297E+003   -1.43856E+003    2.46076E+004   -1.06321E+004    1.28453E+004   -2.40236E+004
            5330    6.38343E+004    4.95104E+004    4.95104E+004    3.40363E+003   -2.33471E+004    7.28574E+004   -9.85563E+003    4.85846E+004    7.83523E+003   -2.63221E+003    2.43639E+004   -1.37246E+004    9.63781E+003   -2.98624E+004
            5331    2.80296E+004    1.96115E+004    1.96115E+004   -4.60353E+003   -1.10939E+004    3.07055E+004   -1.30469E+003    2.62579E+004   -4.84530E+003   -4.16206E+003    1.29214E+004   -6.93200E+002    1.19449E+004   -4.17114E+003
            5332    3.12010E+004    2.30742E+004    2.30742E+004   -2.81886E+003   -1.15672E+004    3.46414E+004   -2.89607E+003    2.82378E+004   -3.21483E+003    5.85016E+002    1.13180E+004   -1.62546E+003    1.12259E+004   -1.17912E+004
            5333    3.80365E+004    2.37355E+004    2.37355E+004   -8.51506E+003   -1.82104E+004    4.19459E+004    9.96659E+002    3.50912E+004   -6.64187E+003   -4.67252E+003    8.32442E+003   -2.79180E+003    9.70376E+003   -1.77249E+004
            5334    4.35046E+004    2.89659E+004    2.89659E+004   -5.28839E+003   -1.99831E+004    4.89490E+004   -1.23150E+003    3.72743E+004   -3.84554E+003   -8.47449E+002    8.38747E+003   -2.94194E+003    7.86967E+003   -2.27957E+004
            5335    4.86201E+004    3.02518E+004    3.02518E+004   -2.45459E+003   -2.56189E+004    5.58707E+004   -7.26089E+002    3.22046E+004   -8.62027E+002   -2.05504E+003    5.09533E+003   -3.95704E+003    6.00675E+003   -2.68619E+004
            5336    3.83594E+005    3.88385E+005    3.88385E+005    7.51600E+004   -3.94509E+004    4.27836E+005   -1.41365E+005    3.41767E+005    7.67815E+004    2.38119E+004    3.23501E+005   -7.12231E+004    1.34356E+005   -1.85011E+004
            5337    3.07653E+005    2.80500E+005    2.80500E+005    4.83871E+004   -6.84573E+004    3.48958E+005   -8.68101E+004    2.49864E+005    5.08578E+004   -2.23570E+004    2.31929E+005   -7.13898E+004    9.25232E+004   -2.75365E+004
            5338    2.61494E+005    2.21272E+005    2.21272E+005    3.33433E+004   -7.73650E+004    2.98637E+005   -5.90835E+004    1.97384E+005    3.65085E+004   -3.96173E+004    1.80359E+005   -6.52275E+004    7.11048E+004   -3.16670E+004
            5339    1.98391E+005    1.46700E+005    1.46700E+005    1.30405E+004   -8.12520E+004    2.27952E+005   -2.61628E+004    1.31879E+005    1.36900E+004   -4.94923E+004    1.14291E+005   -5.45991E+004    4.61460E+004   -3.44422E+004
            5340    1.43340E+005    1.05586E+005    1.05586E+005    8.25172E+003   -5.90154E+004    1.64601E+005   -1.82742E+004    9.70138E+004    1.23824E+004   -3.20580E+004    7.44980E+004   -4.15183E+004    3.07367E+004   -3.62719E+004
            5341    1.19592E+005    9.51875E+004    9.51875E+004    2.71653E+003   -3.98678E+004    1.35055E+005   -1.93454E+004    1.00271E+005    5.19327E+003   -1.79703E+004    7.08133E+004   -3.12606E+004    3.54082E+004   -2.03853E+004
            5342    1.15641E+005    9.90624E+004    9.90624E+004    5.39498E+003   -3.01885E+004    1.29251E+005   -2.47563E+004    1.02190E+005    5.13976E+003   -6.79793E+003    7.59271E+004   -2.54555E+004    4.07826E+004   -1.21212E+004
            5343    1.15866E+005    1.00911E+005    1.00911E+005    1.92621E+003   -2.65341E+004    1.27445E+005   -2.54343E+004    1.07572E+005    2.84677E+003   -5.49144E+003    7.89475E+004   -1.67188E+004    4.48036E+004   -4.79670E+003
            5344    1.19389E+005    1.12538E+005    1.12538E+005    4.69687E+003   -1.57562E+004    1.28294E+005   -3.38263E+004    1.15348E+005    8.59185E+003    3.68126E+003    8.92057E+004   -5.88224E+003    4.90759E+004   -1.42060E+003
            5345    1.66347E+005    1.28684E+005    1.28684E+005    7.37493E+003   -6.09451E+004    1.89629E+005   -2.50380E+004    1.28565E+005   -4.34967E+003   -2.62653E+004    1.05729E+005   -4.24537E+004    4.65519E+004   -1.58447E+004
            5346    1.58150E+005    1.20463E+005    1.20463E+005    4.84556E+003   -5.97623E+004    1.80226E+005   -2.18489E+004    1.22702E+005   -1.12609E+004   -2.06598E+004    9.74675E+004   -3.49963E+004    5.29205E+004   -1.06396E+003
            5347    1.49926E+005    1.23862E+005    1.23862E+005    5.28877E+003   -4.46638E+004    1.68526E+005   -2.81622E+004    1.29108E+005   -6.78111E+003   -5.94148E+003    9.72093E+004   -2.19913E+004    5.85380E+004    2.55040E+003
            5348    1.53409E+005    1.28905E+005    1.28905E+005   -4.36288E+003   -3.87938E+004    1.67698E+005   -2.85826E+004    1.44326E+005   -6.05985E+003   -6.79348E+003    9.86012E+004   -8.27801E+003    6.39474E+004    3.14073E+003
            5349    2.23803E+005    1.90236E+005    1.90236E+005    1.98962E+004   -6.32380E+004    2.53474E+005   -4.89646E+004    1.83909E+005    1.19529E+004   -1.57170E+004    1.50658E+005   -5.05116E+004    7.80861E+004   -9.97623E+003
            5350    2.11636E+005    1.81367E+005    1.81367E+005    2.03395E+004   -5.83393E+004    2.39707E+005   -4.77892E+004    1.73839E+005    6.97786E+003   -4.13928E+003    1.40529E+005   -4.01462E+004    8.26621E+004    1.94576E+003
            5351    1.98445E+005    1.66373E+005    1.66373E+005    1.05477E+004   -5.70356E+004    2.23409E+005   -3.99618E+004    1.69490E+005    1.29536E+003   -3.99145E+003    1.22581E+005   -2.53469E+004    8.50090E+004    1.14575E+004
            5352    1.90005E+005    1.61779E+005    1.61779E+005    6.97382E+003   -5.02645E+004    2.12044E+005   -3.94962E+004    1.68910E+005    3.09538E+003    5.17852E+003    1.10215E+005   -8.66764E+003    9.04570E+004    4.94053E+003
            5353    2.74302E+005    2.47486E+005    2.47486E+005    3.17960E+004   -6.12319E+004    3.08718E+005   -7.26832E+004    2.34657E+005    1.30836E+004    6.47156E+002    2.04319E+005   -5.60773E+004    9.29609E+004   -1.61072E+004
            5354    2.47801E+005    2.13630E+005    2.13630E+005    2.73360E+004   -6.76030E+004    2.81233E+005   -5.77877E+004    2.00278E+005   -6.91625E+002    4.42227E+003    1.69633E+005   -4.23317E+004    9.61834E+004    6.06699E+003
            5355    2.23494E+005    1.92885E+005    1.92885E+005    1.71530E+004   -5.86519E+004    2.51537E+005   -5.04621E+004    1.91185E+005   -3.43130E+002    7.39531E+003    1.44334E+005   -2.48894E+004    9.67120E+004    7.29572E+003
            5356    2.10371E+005    1.67849E+005    1.67849E+005   -3.87777E+003   -6.68034E+004    2.34653E+005   -3.23893E+004    1.87375E+005   -8.33574E+003   -5.71521E+003    1.11219E+005   -8.93285E+003    9.98846E+004    5.73677E+003
            5357    3.60517E+005    3.57370E+005    3.57370E+005    7.14789E+004   -4.76286E+004    4.04999E+005   -1.27073E+005    3.11399E+005    3.73012E+004    6.42335E+004    2.79686E+005   -5.11416E+004    1.50471E+005   -2.04454E+004
            5358    3.26733E+005    3.14169E+005    3.14169E+005    5.13338E+004   -5.16463E+004    3.65816E+005   -1.04619E+005    2.86658E+005    2.67194E+004    5.02572E+004    2.36880E+005   -3.37414E+004    1.44439E+005   -1.80413E+004
            5359    2.92107E+005    2.65310E+005    2.65310E+005    2.10231E+004   -5.82524E+004    3.23562E+005   -7.60267E+004    2.66245E+005    1.68516E+004    1.82614E+004    1.92967E+005   -1.80301E+004    1.33639E+005   -9.52438E+002
            5360    2.60092E+005    2.21815E+005    2.21815E+005    1.42150E+004   -6.99340E+004    2.91749E+005   -5.53652E+004    2.26280E+005    9.16529E+003    1.41288E+004    1.42802E+005   -5.33301E+003    1.29532E+005   -1.55065E+003
            5361    2.70779E+005    2.38121E+005    2.38121E+005   -3.15656E+003   -5.47395E+004    2.92860E+005   -6.00749E+004    2.59377E+005    3.83686E+004   -3.29387E+003    1.45150E+005   -1.29514E+003    1.35811E+005   -1.14870E+004
            5362    2.88616E+005    3.18839E+005    3.18839E+005    6.98108E+004    2.52335E+003    3.16316E+005   -1.30391E+005    2.70109E+005    9.61245E+004    5.83420E+004    2.36706E+005   -4.25639E+002    1.19734E+005   -6.77922E+004
            5363    3.10238E+005    3.10316E+005    3.10316E+005    4.24730E+004   -2.96218E+004    3.39938E+005   -1.07723E+005    2.90480E+005    6.80491E+004    4.64260E+004    2.08692E+005   -1.03312E+004    1.48174E+005   -4.75100E+004
            5364    2.93499E+005    3.11287E+005    3.11287E+005    8.92389E+004   -2.14644E+004    3.32751E+005   -1.26354E+005    2.39262E+005    8.98442E+004    9.24710E+004    1.96746E+005   -3.04468E+003    1.37334E+005   -7.82696E+004
            5365    3.27390E+005    3.30463E+005    3.30463E+005    7.30930E+004   -3.80227E+004    3.68486E+005   -1.21845E+005    2.79992E+005    6.98575E+004    8.22852E+004    2.13391E+005   -2.31441E+004    1.64549E+005   -4.23302E+004
            5366    3.22098E+005    3.58288E+005    3.58288E+005    1.06289E+005   -4.60665E+003    3.62894E+005   -1.53323E+005    2.73924E+005    1.05874E+005    1.14063E+005    2.40034E+005   -9.53068E+003    1.55948E+005   -6.71998E+004
            5367    3.82241E+005    4.03867E+005    4.03867E+005    1.01910E+005   -2.59026E+004    4.29769E+005   -1.59958E+005    3.28735E+005    8.49716E+004    1.11317E+005    2.83585E+005   -3.73520E+004    1.84232E+005   -4.15905E+004
            5368    3.70211E+005    4.18422E+005    4.18422E+005    1.32667E+005    2.01734E+002    4.18221E+005   -1.83764E+005    3.09730E+005    1.23486E+005    1.42583E+005    2.85221E+005   -1.23538E+004    1.80907E+005   -7.06688E+004
            5369    4.22356E+005    5.01322E+005    5.01322E+005    1.73219E+005    2.47866E+004    4.76535E+005   -2.33109E+005    3.56152E+005    1.60119E+005    1.82875E+005    3.56334E+005   -1.32381E+004    2.06137E+005   -7.26371E+004
            5370    4.83309E+005    6.00110E+005    6.00110E+005    2.15937E+005    5.74586E+004    5.42651E+005   -2.91168E+005    4.18564E+005    2.02493E+005    2.24092E+005    4.46921E+005   -1.22558E+004    2.32028E+005   -7.45951E+004
            5371    4.40211E+005    4.80718E+005    4.80718E+005    1.30765E+005   -1.35318E+004    4.94249E+005   -1.99317E+005    3.81285E+005    1.05610E+005    1.38435E+005    3.53906E+005   -4.28864E+004    2.06961E+005   -4.15981E+004
            5372    5.03165E+005    5.83438E+005    5.83438E+005    1.74851E+005    2.14190E+004    5.62019E+005   -2.59903E+005    4.45792E+005    1.54860E+005    1.81223E+005    4.43624E+005   -3.78661E+004    2.36122E+005   -4.14163E+004
            5373    5.22513E+005    6.14476E+005    6.14476E+005    1.84968E+005    3.27585E+004    5.81718E+005   -2.77401E+005    4.68604E+005    1.88114E+005    1.48625E+005    4.95464E+005   -7.53004E+004    2.21998E+005   -1.47862E+002
            5374    4.52252E+005    5.00273E+005    5.00273E+005    1.25718E+005   -2.14551E+003    5.02418E+005   -2.07948E+005    4.08521E+005    1.27589E+005    8.87468E+004    4.07510E+005   -7.29661E+004    1.80165E+005   -1.21699E+004
            5375    3.19251E+005    6.46827E+004   -2.92588E+005   -3.52793E+004   -2.92588E+005    3.57271E+005    8.77282E+004   -2.80660E+005   -5.21810E+004    1.78037E+003   -2.12784E+005   -7.09691E+004    1.26163E+005    2.37240E+004
            5376    2.51636E+005    7.88976E+004   -2.07110E+005   -1.97200E+004   -2.07110E+005    2.86008E+005    4.93108E+004   -2.00680E+005   -2.45810E+004    2.73503E+004   -1.50702E+005   -6.78920E+004    8.68560E+004    2.38583E+004
            5377    1.93625E+005    7.20609E+004   -1.49106E+005   -1.01629E+004   -1.49106E+005    2.21167E+005    2.90695E+004   -1.45785E+005   -1.48062E+004    3.12994E+004   -1.03702E+005   -5.88449E+004    5.90481E+004    2.89573E+004
            5378    1.44849E+005    5.57148E+004   -1.09123E+005   -2.15609E+003   -1.09123E+005    1.64838E+005    1.85214E+004   -1.14113E+005   -9.37269E+003    2.32807E+004   -6.94721E+004   -4.59019E+004    4.10468E+004    3.14380E+004
            5379    1.26651E+005    3.19131E+004   -1.07984E+005   -1.13036E+003   -1.07984E+005    1.39897E+005    2.57338E+004   -1.16345E+005   -7.09087E+003    4.96122E+003   -7.50718E+004   -2.49599E+004    5.19303E+004    1.28480E+004
            5380    1.34411E+005    2.83394E+004   -1.18680E+005   -2.09923E+003   -1.18680E+005    1.47020E+005    3.08133E+004   -1.26302E+005   -5.47151E+003   -1.17526E+003   -8.57933E+004   -8.60219E+003    6.05602E+004    2.97051E+003
            5381    1.59579E+005    5.63064E+004   -1.24287E+005   -2.28643E+003   -1.24287E+005    1.80593E+005    2.34222E+004   -1.31897E+005    1.47419E+003    1.54365E+004   -8.71772E+004   -3.29800E+004    6.55566E+004    2.42524E+003
            5382    1.63926E+005    4.90965E+004   -1.33692E+005    2.83890E+002   -1.33692E+005    1.82788E+005    2.81038E+004   -1.46184E+005    3.28619E+003    2.65032E+003   -9.02478E+004   -1.20705E+004    7.69055E+004   -7.81585E+002
            5383    2.22888E+005    6.47231E+004   -1.87133E+005   -1.53185E+004   -1.87133E+005    2.51856E+005    4.59095E+004   -1.86168E+005   -6.84116E+003    1.72975E+003   -1.32617E+005   -3.64460E+004    9.77897E+004   -3.40504E+003
            5384    2.17343E+005    7.29789E+004   -1.72359E+005   -3.92248E+003   -1.72359E+005    2.45338E+005    3.44343E+004   -1.82740E+005    4.89152E+003   -1.16313E+003   -1.07031E+005   -1.25645E+004    1.07605E+005   -6.87764E+003
            5385    2.64722E+005    6.78614E+004   -2.30836E+005   -2.52511E+004   -2.30836E+005    2.98698E+005    6.27420E+004   -2.23146E+005   -2.09614E+004   -1.66662E+004   -1.50598E+005   -3.13197E+004    1.28747E+005   -2.97593E+003
            5386    2.39435E+005    8.29108E+004   -1.89135E+005   -1.04248E+004   -1.89135E+005    2.72046E+005    3.88832E+004   -1.91571E+005   -7.54098E+003   -9.95651E+003   -9.91520E+004   -9.26203E+003    1.27664E+005   -5.93856E+001
            5387    2.58638E+005    7.29548E+004   -2.15213E+005   -3.20946E+003   -2.15213E+005    2.88168E+005    4.84892E+004   -2.31315E+005   -2.28290E+004   -3.62923E+003   -1.19009E+005   -5.48941E+003    1.35599E+005    7.66134E+003
            5388    2.73773E+005    2.95647E+004   -2.75524E+005   -5.12724E+004   -2.75524E+005    3.05089E+005    9.90774E+004   -2.44682E+005   -7.48706E+004   -4.83880E+004   -1.73974E+005   -1.94038E+003    1.32765E+005    5.45077E+004
            5389    2.99092E+005    4.18429E+004   -2.92376E+005   -4.99062E+004   -2.92376E+005    3.34219E+005    1.00147E+005   -2.64538E+005   -5.34821E+004   -5.65928E+004   -1.90365E+005   -1.93140E+004    1.48697E+005    3.50417E+004
            5390    3.01001E+005    4.98930E+004   -2.93917E+005   -7.78830E+004   -2.93917E+005    3.43810E+005    1.07302E+005   -2.26699E+005   -7.68930E+004   -8.28688E+004   -1.62145E+005   -5.61732E+003    1.52982E+005    6.70878E+004
            5391    3.33689E+005    2.72499E+004   -3.52725E+005   -1.07395E+005   -3.52725E+005    3.79975E+005    1.44290E+005   -2.61144E+005   -1.01587E+005   -1.13373E+005   -2.17910E+005   -7.78857E+003    1.70864E+005    6.13296E+004
            5392    3.84668E+005    1.35288E+004   -4.23296E+005   -1.35186E+005   -4.23296E+005    4.36825E+005    1.81651E+005   -3.09284E+005   -1.27975E+005   -1.42869E+005   -2.74109E+005   -1.01794E+004    1.94537E+005    7.00589E+004
            5393    4.39846E+005   -1.87040E+004   -5.15671E+005   -1.76457E+005   -5.15671E+005    4.96967E+005    2.36944E+005   -3.67596E+005   -1.70556E+005   -1.81905E+005   -3.58371E+005   -8.88720E+003    2.21175E+005    6.63326E+004
            5394    4.95512E+005   -4.89629E+004   -6.06394E+005   -2.15941E+005   -6.06394E+005    5.57431E+005    2.90432E+005   -4.24925E+005   -2.13586E+005   -2.19608E+005   -4.38103E+005   -7.44687E+003    2.48043E+005    6.24442E+004
            5395    3.39894E+005    3.68351E+004   -3.46278E+005   -8.09230E+004   -3.46278E+005    3.83113E+005    1.30122E+005   -2.88328E+005   -7.19234E+004   -8.92717E+004   -2.29171E+005   -3.17596E+004    1.69597E+005    3.61161E+004
            5396    4.03402E+005    3.02540E+003   -4.48773E+005   -1.24680E+005   -4.48773E+005    4.51799E+005    1.90143E+005   -3.53439E+005   -1.18260E+005   -1.32270E+005   -3.19898E+005   -3.50447E+004    1.97086E+005    3.86907E+004
            5397    4.61366E+005   -2.50128E+004   -5.40149E+005   -1.64960E+005   -5.40149E+005    5.15136E+005    2.43374E+005   -4.09364E+005   -1.61591E+005   -1.70292E+005   -3.98239E+005   -3.38591E+004    2.24847E+005    3.52666E+004
            5398    5.26685E+005   -6.00212E+004   -6.44843E+005   -2.07920E+005   -6.44843E+005    5.84822E+005    3.04261E+005   -4.76499E+005   -2.12312E+005   -2.11571E+005   -4.88901E+005   -3.05755E+004    2.54819E+005    3.20736E+004
            5399    5.42052E+005   -1.55980E+004   -6.25699E+005   -1.99601E+005   -6.25699E+005    6.10101E+005    2.80299E+005   -4.63546E+005   -2.10196E+005   -1.67234E+005   -4.63468E+005   -7.65892E+004    2.57460E+005   -1.28152E+004
            5400    4.77843E+005    6.10809E+003   -5.31369E+005   -1.54587E+005   -5.31369E+005    5.37477E+005    2.26616E+005   -4.10088E+005   -1.65917E+005   -1.17370E+005   -3.96560E+005   -8.15218E+004    2.17288E+005   -1.32576E+003
            5401    4.15945E+005    2.72230E+004   -4.40157E+005   -1.10671E+005   -4.40157E+005    4.67380E+005    1.74535E+005   -3.58835E+005   -1.22265E+005   -7.24181E+004   -3.28922E+005   -7.70376E+004    1.82260E+005    4.32973E+003
            5402    3.59951E+005    4.04672E+004   -3.61793E+005   -7.00851E+004   -3.61793E+005    4.02261E+005    1.30470E+005   -3.18254E+005   -8.48386E+004   -4.05246E+004   -2.66048E+005   -6.92997E+004    1.54531E+005    1.51293E+004
            5403    8.92040E+004    1.94719E+004   -7.70698E+004    2.29989E+003   -7.70698E+004    9.65417E+004    1.84327E+004   -8.53658E+004    1.73392E+003    2.14311E+003   -5.91751E+004   -6.19605E+003    3.65591E+004    5.70047E+003
            5404    8.52340E+004    2.30344E+004   -6.88709E+004    7.57589E+003   -6.88709E+004    9.19054E+004    1.27535E+004   -8.19907E+004    1.97114E+003    7.34659E+003   -4.75783E+004   -1.68838E+004    3.05382E+004    1.69462E+004
            5405    9.90007E+004    3.61342E+004   -7.55481E+004    1.42216E+003   -7.55481E+004    1.11682E+005    1.26639E+004   -8.35646E+004   -5.76468E+003    1.09287E+004   -4.31558E+004   -3.04588E+004    2.39622E+004    3.15933E+004
            5406    6.03139E+004    8.12933E+003   -5.62447E+004   -1.04129E+003   -5.62447E+004    6.43741E+004    1.63856E+004   -5.87146E+004   -7.48582E+003   -1.92134E+003   -3.97495E+004   -3.04894E+003    2.73123E+004    6.33901E+003
            5407    5.99079E+004    7.50493E+003   -5.37378E+004    4.73941E+003   -5.37378E+004    6.12427E+004    1.38311E+004   -5.97640E+004   -7.88134E+003   -1.93176E+003   -3.16803E+004   -9.30775E+003    2.31077E+004    1.81086E+004
            5408    6.77591E+004    2.22746E+004   -5.32263E+004    2.30072E+003   -5.32263E+004    7.55009E+004    9.55031E+003   -6.05852E+004   -6.50679E+003    2.48042E+003   -2.46246E+004   -1.66361E+004    1.54006E+004    2.87380E+004
            5409    3.71872E+004    1.77558E+004   -2.45983E+004    2.70123E+003   -2.45983E+004    4.23541E+004    1.38042E+003   -2.90368E+004    4.52050E+003    1.86342E+003   -1.05252E+004   -1.15983E+003    1.89079E+004    6.13380E+003
            5410    4.23296E+004    2.00730E+004   -2.73771E+004    6.50455E+003   -2.73771E+004    4.74502E+004    2.66507E+002   -3.69394E+004    4.36900E+003    3.02905E+003   -8.19756E+003   -2.77092E+003    1.58487E+004    1.70523E+004
            5411    4.99603E+004    2.31213E+004   -3.38145E+004    2.70164E+003   -3.38145E+004    5.69357E+004    2.66386E+003   -3.87489E+004   -6.11310E+002    4.07884E+002   -7.78814E+003   -4.96236E+003    1.03454E+004    2.60846E+004
            5412    5.09248E+005   -5.81024E+004   -6.30067E+005   -2.25864E+005   -6.30067E+005    5.71964E+005    3.04678E+005   -4.40315E+005   -2.25166E+005   -2.29169E+005   -4.59697E+005    7.45393E+003    2.54629E+005   -5.93772E+004
            5413    5.41282E+005   -6.46757E+004   -6.65334E+005   -2.15362E+005   -6.65334E+005    6.00659E+005    3.15124E+005   -4.90662E+005   -2.21763E+005   -2.18304E+005   -5.05305E+005    3.04549E+004    2.62172E+005   -2.95100E+004
            5414    5.50358E+005   -1.96922E+004   -6.38669E+005   -2.04505E+005   -6.38669E+005    6.18977E+005    2.87622E+005   -4.72575E+005   -2.16323E+005   -1.72907E+005   -4.73636E+005    7.57498E+004    2.61976E+005    1.31467E+004
            5415    5.57569E+005   -8.85713E+004   -7.12176E+005   -2.61734E+005   -7.12176E+005    6.23605E+005    3.54160E+005   -4.91376E+005   -2.66189E+005   -2.63247E+005   -5.33045E+005    5.21830E+003    2.78448E+005   -4.54464E+004
            5416    6.01749E+005   -9.51199E+004   -7.61147E+005   -2.56647E+005   -7.61147E+005    6.66027E+005    3.70972E+005   -5.49713E+005   -2.68455E+005   -2.58043E+005   -5.86417E+005    2.26513E+004    2.91329E+005   -2.18114E+004
            5417    6.06888E+005   -4.68965E+004   -7.28881E+005   -2.48297E+005   -7.28881E+005    6.81984E+005    3.41358E+005   -5.23371E+005   -2.59202E+005   -2.29679E+005   -5.35192E+005    5.93616E+004    3.00925E+005    1.71713E+004
            5418    5.90807E+005   -1.11944E+005   -7.70803E+005   -2.88137E+005   -7.70803E+005    6.58859E+005    3.90295E+005   -5.26648E+005   -2.96621E+005   -2.88483E+005   -5.85780E+005    2.64811E+003    2.95196E+005   -2.29265E+004
            5419    6.44541E+005   -1.14807E+005   -8.27422E+005   -2.85189E+005   -8.27422E+005    7.12614E+005    4.09139E+005   -5.90604E+005   -3.00336E+005   -2.85528E+005   -6.41554E+005    1.15050E+004    3.12495E+005   -1.11784E+004
            5420    6.48013E+005   -7.16400E+004   -7.98819E+005   -2.82494E+005   -7.98819E+005    7.27179E+005    3.84318E+005   -5.62689E+005   -2.92726E+005   -2.77283E+005   -5.82944E+005    3.22386E+004    3.30393E+005    1.12294E+004
            5421    6.00740E+005   -1.18772E+005   -7.88093E+005   -2.95648E+005   -7.88093E+005    6.69321E+005    4.00838E+005   -5.37301E+005   -3.05528E+005   -2.95655E+005   -6.01330E+005   -4.74089E+002    3.00195E+005    2.61254E+003
            5422    6.57794E+005   -1.20794E+005   -8.47905E+005   -2.94152E+005   -8.47905E+005    7.27111E+005    4.20951E+005   -6.03104E+005   -3.10047E+005   -2.94153E+005   -6.58652E+005   -1.56025E+003    3.19042E+005    9.75523E+002
            5423    6.63358E+005   -8.05053E+004   -8.24578E+005   -2.95030E+005   -8.24578E+005    7.44073E+005    4.00038E+005   -5.77205E+005   -3.04793E+005   -2.95026E+005   -6.00294E+005   -1.18699E+003    3.41437E+005    1.15059E+001
            5424    5.84401E+005   -1.07664E+005   -7.59697E+005   -2.83135E+005   -7.59697E+005    6.52033E+005    3.83499E+005   -5.19986E+005   -2.90975E+005   -2.83674E+005   -5.75848E+005   -3.22102E+003    2.91956E+005    2.88262E+004
            5425    6.36931E+005   -1.11959E+005   -8.16064E+005   -2.80007E+005   -8.16064E+005    7.04105E+005    4.02677E+005   -5.83848E+005   -2.94916E+005   -2.80454E+005   -6.32661E+005   -1.44892E+004    3.08423E+005    1.30539E+004
            5426    6.45252E+005   -6.97891E+004   -7.93998E+005   -2.80268E+005   -7.93998E+005    7.24209E+005    3.81352E+005   -5.59817E+005   -2.90388E+005   -2.74280E+005   -5.79388E+005   -3.45830E+004    3.28585E+005   -1.18485E+004
            5427    5.46286E+005   -8.21064E+004   -6.93618E+005   -2.53814E+005   -6.93618E+005    6.11511E+005    3.43179E+005   -4.79688E+005   -2.56997E+005   -2.55689E+005   -5.16852E+005   -5.81906E+003    2.72863E+005    4.86440E+004
            5428    5.87953E+005   -8.90345E+004   -7.40076E+005   -2.47829E+005   -7.40076E+005    6.51041E+005    3.58980E+005   -5.36437E+005   -2.58278E+005   -2.49599E+005   -5.69062E+005   -2.39989E+004    2.84527E+005    2.40458E+004
            5429    6.01752E+005   -4.54488E+004   -7.21577E+005   -2.44792E+005   -7.21577E+005    6.76128E+005    3.37273E+005   -5.19271E+005   -2.55838E+005   -2.25797E+005   -5.30183E+005   -6.07777E+004    2.97702E+005   -1.56585E+004
            5430    9.89298E+004    7.54985E+004    7.54985E+004   -1.42496E+003   -3.61015E+004    1.11600E+005   -1.26573E+004    8.35157E+004    5.75491E+003   -1.08980E+004    4.31151E+004    3.04111E+004    2.39015E+004    3.16412E+004
            5431    8.50233E+004    6.86983E+004    6.86983E+004   -7.61687E+003   -2.29472E+004    9.16455E+004   -1.27114E+004    8.18267E+004   -2.02075E+003   -7.35516E+003    4.75101E+004    1.67673E+004    3.04579E+004    1.68968E+004
            5432    8.85997E+004    7.64923E+004    7.64923E+004   -2.33936E+003   -1.93955E+004    9.58878E+004   -1.82525E+004    8.47872E+004   -1.80163E+003   -2.17746E+003    5.87366E+004    6.15885E+003    3.62921E+004    5.68638E+003
            5433    6.75347E+004    5.30557E+004    5.30557E+004   -2.30208E+003   -2.21897E+004    7.52454E+004   -9.52132E+003    6.04004E+004    6.47936E+003   -2.43301E+003    2.45176E+004    1.65207E+004    1.53468E+004    2.86938E+004
            5434    5.99186E+004    5.37699E+004    5.37699E+004   -4.76300E+003   -7.44443E+003    6.12143E+004   -1.38542E+004    5.97834E+004    7.92389E+003    1.91515E+003    3.17234E+004    9.32353E+003    2.31611E+004    1.80242E+004
            5435    6.00762E+004    5.60328E+004    5.60328E+004    1.08838E+003   -8.11345E+003    6.41463E+004   -1.63359E+004    5.84591E+004    7.51387E+003    1.96271E+003    3.95312E+004    3.02332E+003    2.72535E+004    6.31983E+003
            5436    4.98554E+004    3.36533E+004    3.36533E+004   -2.69310E+003   -2.31820E+004    5.68354E+004   -2.59274E+003    3.85139E+004    5.38307E+002   -4.18190E+002    7.65810E+003    4.83489E+003    1.03293E+004    2.60572E+004
            5437    4.24804E+004    2.75384E+004    2.75384E+004   -6.60053E+003   -2.00350E+004    4.75733E+004   -3.00954E+002    3.72308E+004   -4.36565E+003   -3.05887E+003    8.32738E+003    2.85421E+003    1.58822E+004    1.70995E+004
            5438    3.71431E+004    2.45258E+004    2.45258E+004   -2.72450E+003   -1.77817E+004    4.23074E+004   -1.33987E+003    2.89751E+004   -4.55208E+003   -1.88053E+003    1.04522E+004    1.17093E+003    1.88921E+004    6.12594E+003
            5439    2.46061E+005    8.41224E+004   -1.94668E+005   -7.80862E+003   -1.94668E+005    2.78790E+005    3.94514E+004   -2.01600E+005   -1.52296E+004   -7.98051E+003   -9.51440E+004    4.24231E+003    1.33446E+005   -4.10355E+003
            5440    2.40781E+005    8.64809E+004   -1.85848E+005   -1.17336E+003   -1.85848E+005    2.72329E+005    3.35136E+004   -1.99839E+005    1.89197E+003   -4.20526E+002   -1.02012E+005    6.88181E+003    1.25456E+005    4.26341E+003
            5441    1.96390E+005    6.86625E+004   -1.53309E+005   -2.12971E+003   -1.53309E+005    2.21971E+005    2.89253E+004   -1.63751E+005    5.44394E+003   -9.87339E+002   -9.12326E+004    8.31290E+003    9.92579E+004    3.61604E+003
            5442    1.72944E+005    4.88579E+004   -1.43255E+005    1.26736E+001   -1.43255E+005    1.92113E+005    3.14615E+004   -1.56258E+005   -1.46254E+003    1.15972E+003   -9.40817E+004    7.33466E+003    8.34760E+004    2.25731E+003
            5443    1.28299E+005    3.14694E+004   -1.09624E+005    4.01912E+001   -1.09624E+005    1.41094E+005    2.60382E+004   -1.19168E+005    1.34739E+003    6.16953E+002   -8.00790E+004    6.04694E+003    5.70777E+004   -1.43057E+003
            5444    2.68611E+005    6.69060E+004   -2.33170E+005   -1.51778E+004   -2.33170E+005    3.00076E+005    6.04805E+004   -2.37839E+005   -2.63992E+004   -1.47152E+004   -1.40327E+005    1.58837E+004    1.37670E+005   -5.43934E+003
            5445    2.49995E+005    6.96736E+004   -2.12786E+005   -1.99813E+004   -2.12786E+005    2.82460E+005    5.43647E+004   -2.08938E+005   -1.16223E+004   -1.50597E+004   -1.36412E+005    2.16887E+004    1.23644E+005    4.74517E+003
            5446    2.02059E+005    6.85071E+004   -1.60078E+005   -5.29313E+003   -1.60078E+005    2.28585E+005    3.22879E+004   -1.67436E+005    3.05437E+003    5.49061E+003   -1.05409E+005    2.46985E+004    9.43186E+004    9.58097E+003
            5447    1.68940E+005    4.89040E+004   -1.41041E+005   -7.57774E+003   -1.41041E+005    1.89945E+005    3.32383E+004   -1.45300E+005   -4.61725E+003    1.20668E+002   -9.52182E+004    2.24925E+004    7.82248E+004    1.35608E+003
            5448    1.24904E+005    3.73824E+004   -1.01116E+005    2.98398E+003   -1.01116E+005    1.38498E+005    2.02499E+004   -1.13491E+005    4.00931E+003    8.03500E+003   -7.27940E+004    1.74034E+004    5.29341E+004   -4.55088E+003
            5449    2.93888E+005    5.21500E+004   -2.77337E+005   -4.22471E+004   -2.77337E+005    3.29487E+005    8.91447E+004   -2.56294E+005   -4.30261E+004   -4.47480E+004   -1.79660E+005    2.94369E+004    1.46205E+005   -2.00494E+004
            5450    2.71568E+005    6.80213E+004   -2.38731E+005   -2.89983E+004   -2.38731E+005    3.06753E+005    6.65694E+004   -2.27360E+005   -1.73671E+004   -1.70104E+004   -1.65331E+005    3.66282E+004    1.26164E+005    2.92342E+003
            5451    2.09275E+005    6.38571E+004   -1.73087E+005   -1.35175E+004   -1.73087E+005    2.36944E+005    4.09159E+004   -1.72378E+005   -4.29179E+003    5.36360E+003   -1.23820E+005    3.92740E+004    8.87584E+004   -3.11747E+002
            5452    1.73277E+005    5.31715E+004   -1.42156E+005   -6.93565E+003   -1.42156E+005    1.95327E+005    3.19733E+004   -1.46915E+005   -6.26315E+003    9.56351E+003   -9.92203E+004    3.39295E+004    7.34322E+004   -3.25897E+003
            5453    1.23437E+005    3.91086E+004   -9.89633E+004    7.13882E+002   -9.89633E+004    1.38072E+005    1.97136E+004   -1.08733E+005    2.25775E+003    9.85493E+003   -7.12535E+004    2.69662E+004    4.68424E+004   -1.22815E+004
            5454    3.31461E+005    4.57106E+004   -3.25559E+005   -5.93921E+004   -3.25559E+005    3.71270E+005    1.13080E+005   -2.90258E+005   -6.13899E+004   -5.53838E+004   -2.22467E+005    4.96946E+004    1.57444E+005   -1.95185E+004
            5455    2.99606E+005    6.10142E+004   -2.74582E+005   -3.40153E+004   -2.74582E+005    3.35596E+005    8.25276E+004   -2.62339E+005   -3.54968E+004   -1.10406E+004   -2.01045E+005    5.77837E+004    1.25306E+005   -1.40144E+004
            5456    2.23822E+005    7.31118E+004   -1.81507E+005   -1.58122E+004   -1.81507E+005    2.54618E+005    4.14023E+004   -1.76972E+005   -1.20035E+004    2.00239E+004   -1.32227E+005    5.58987E+004    8.38246E+004   -1.02085E+004
            5457    1.84365E+005    5.70180E+004   -1.51690E+005   -1.09854E+004   -1.51690E+005    2.08708E+005    3.52190E+004   -1.52040E+005   -1.57398E+004    1.79052E+004   -1.07823E+005    4.77888E+004    6.74397E+004   -1.61815E+004
            5458    1.29494E+005    5.08568E+004   -9.60524E+004    1.52772E+003   -9.60524E+004    1.46909E+005    1.45560E+004   -1.04996E+005    6.68559E+002    2.21789E+004   -6.65153E+004    3.71171E+004    4.08564E+004   -2.00539E+004
            5459    1.58685E+005    6.54354E+004   -1.16394E+005   -5.87200E+003   -1.16394E+005    1.81829E+005    1.89436E+004   -1.13212E+005   -1.04563E+004    2.93947E+004   -7.57691E+004    5.15627E+004    3.88823E+004   -3.74729E+004
            5460    2.18667E+005    8.34133E+004   -1.67002E+005   -1.37921E+004   -1.67002E+005    2.50416E+005    3.24603E+004   -1.57795E+005   -2.07258E+004    3.97887E+004   -1.16444E+005    6.73040E+004    6.25643E+004   -3.59000E+004
            5461    2.75030E+005    8.63287E+004   -2.28130E+005   -3.24523E+004   -2.28130E+005    3.14458E+005    5.80844E+004   -2.04062E+005   -3.74560E+004    3.36493E+004   -1.70447E+005    7.86821E+004    8.54748E+004   -3.13692E+004
            5462    3.33045E+005    7.86081E+004   -2.98884E+005   -4.65440E+004   -2.98884E+005    3.77492E+005    8.89399E+004   -2.72040E+005   -5.62614E+004    1.34863E+004   -2.24044E+005    8.48889E+004    1.18930E+005   -2.67693E+004
            5463    3.90905E+005    5.34702E+004   -3.84926E+005   -7.26523E+004   -3.84926E+005    4.38396E+005    1.34703E+005   -3.40399E+005   -9.24676E+004   -2.61215E+004   -2.85519E+005    8.36771E+004    1.59392E+005   -1.91894E+004
            5464    4.31050E+005    2.61338E+004   -4.56925E+005   -1.11497E+005   -4.56925E+005    4.83059E+005    1.80763E+005   -3.76636E+005   -1.27766E+005   -7.19742E+004   -3.42548E+005    7.96971E+004    1.87390E+005   -7.67377E+003
            5465    4.88239E+005    6.03174E+003   -5.43156E+005   -1.58238E+005   -5.43156E+005    5.49188E+005    2.31788E+005   -4.18933E+005   -1.70904E+005   -1.18724E+005   -4.05735E+005    8.12862E+004    2.22371E+005    5.37743E+003
            5466    4.78203E+005   -3.30094E+004   -5.65361E+005   -1.72185E+005   -5.65361E+005    5.32352E+005    2.56852E+005   -4.28963E+005   -1.73042E+005   -1.77118E+005   -4.20395E+005    3.51965E+004    2.31715E+005   -3.50927E+004
            5467    4.54713E+005   -2.31552E+004   -5.36436E+005   -1.84027E+005   -5.36436E+005    5.13280E+005    2.47873E+005   -3.82338E+005   -1.79268E+005   -1.89634E+005   -3.74716E+005    9.35525E+003    2.28204E+005   -6.82851E+004
            5468    4.14100E+005    3.15021E+003   -4.60309E+005   -1.26680E+005   -4.60309E+005    4.63459E+005    1.94613E+005   -3.63899E+005   -1.21953E+005   -1.33811E+005   -3.28074E+005    3.75432E+004    2.02286E+005   -3.79005E+004
            5469    3.99149E+005    2.84513E+003   -4.50065E+005   -1.49618E+005   -4.50065E+005    4.52910E+005    1.98946E+005   -3.23148E+005   -1.41002E+005   -1.56506E+005   -2.99329E+005    9.83333E+003    2.02249E+005   -6.69913E+004
            5470    3.56015E+005    2.31696E+004   -3.81467E+005   -1.16309E+005   -3.81467E+005    4.04637E+005    1.58202E+005   -2.83980E+005   -1.13208E+005   -1.23498E+005   -2.37901E+005    9.86475E+003    1.81533E+005   -6.63844E+004
            5471    3.15211E+005    3.46313E+004   -3.23905E+005   -9.03579E+004   -3.23905E+005    3.58537E+005    1.26544E+005   -2.49543E+005   -9.33381E+004   -9.49392E+004   -1.91355E+005    6.70421E+003    1.61520E+005   -6.19231E+004
            5472    2.88159E+005    5.11481E+004   -2.78265E+005   -7.29318E+004   -2.78265E+005    3.29414E+005    1.00016E+005   -2.14377E+005   -7.53811E+004   -7.50522E+004   -1.49616E+005    2.80687E+003    1.44879E+005   -6.95384E+004
            5473    2.73456E+005    2.22122E+004   -2.81067E+005   -5.33087E+004   -2.81067E+005    3.03280E+005    1.04055E+005   -2.48319E+005   -8.09493E+004   -4.68443E+004   -1.84370E+005    5.49922E+002    1.28430E+005   -5.74681E+004
            5474    3.57671E+005    2.51771E+004   -3.77689E+005   -9.75013E+004   -3.77689E+005    4.02866E+005    1.50004E+005   -3.04635E+005   -8.68989E+004   -1.05578E+005   -2.57536E+005    3.10235E+004    1.77623E+005   -3.70219E+004
            5475    3.10296E+005    4.43599E+004   -3.06795E+005   -6.95671E+004   -3.06795E+005    3.51155E+005    1.10668E+005   -2.56474E+005   -6.22876E+004   -7.76916E+004   -1.92023E+005    1.94754E+004    1.58436E+005   -3.98717E+004
            5476    2.93934E+005    4.29424E+004   -2.84241E+005   -4.24793E+004   -2.84241E+005    3.27183E+005    9.45925E+004   -2.63763E+005   -5.70010E+004   -4.62356E+004   -1.80541E+005    8.65800E+003    1.45744E+005   -4.37424E+004
            5477    2.59059E+005    6.63131E+004   -2.19804E+005   -1.15140E+003   -2.19804E+005    2.86117E+005    5.15474E+004   -2.38062E+005   -2.94629E+004   -1.28535E+003   -1.23894E+005    2.02505E+003    1.34531E+005   -1.19954E+004
            5478    2.39532E+005    1.89192E+005    1.89192E+005    1.03873E+004   -8.29600E+004    2.72152E+005   -3.88731E+004    1.91681E+005    7.56362E+003    9.92384E+003    9.91317E+004    9.22692E+003    1.27732E+005   -5.18665E+001
            5479    2.17014E+005    1.72105E+005    1.72105E+005    3.85451E+003   -7.28433E+004    2.44948E+005   -3.43720E+004    1.82555E+005   -4.90326E+003    1.08014E+003    1.06939E+005    1.25727E+004    1.07398E+005   -6.89743E+003
            5480    1.62916E+005    1.33059E+005    1.33059E+005   -3.48969E+002   -4.85080E+004    1.81567E+005   -2.80673E+004    1.45562E+005   -3.14763E+003   -2.68090E+003    9.00306E+004    1.19889E+004    7.63117E+004   -6.45120E+002
            5481    1.33408E+005    1.17992E+005    1.17992E+005    2.17639E+003   -2.78813E+004    1.45873E+005   -3.07622E+004    1.25446E+005    5.56453E+003    1.29686E+003    8.54253E+004    8.51048E+003    6.00428E+004    3.07127E+003
            5482    2.64468E+005    2.30532E+005    2.30532E+005    2.52023E+004   -6.78956E+004    2.98427E+005   -6.26128E+004    2.22855E+005    2.08724E+004    1.65791E+004    1.50387E+005    3.13788E+004    1.28600E+005   -2.98157E+003
            5483    2.22207E+005    1.86394E+005    1.86394E+005    1.52179E+004   -6.47228E+004    2.51117E+005   -4.56298E+004    1.85446E+005    6.65052E+003   -1.85863E+003    1.32097E+005    3.63976E+004    9.74488E+004   -3.45731E+003
            5484    1.58665E+005    1.23502E+005    1.23502E+005    2.18568E+003   -5.60518E+004    1.79554E+005   -2.32120E+004    1.31163E+005   -1.56463E+003   -1.53834E+004    8.65842E+004    3.28195E+004    6.51795E+004    2.49692E+003
            5485    1.26058E+005    1.07658E+005    1.07658E+005    1.09638E+003   -3.14950E+004    1.39153E+005   -2.57530E+004    1.15997E+005    7.13102E+003   -4.74392E+003    7.48720E+004    2.46780E+004    5.17411E+004    1.28814E+004
            5486    1.44963E+005    1.09188E+005    1.09188E+005    2.16765E+003   -5.57869E+004    1.64975E+005   -1.85228E+004    1.14154E+005    9.39828E+003   -2.32928E+004    6.94630E+004    4.59749E+004    4.10253E+004    3.15381E+004
            5487    1.93831E+005    1.49139E+005    1.49139E+005    1.01647E+004   -7.22860E+004    2.21425E+005   -2.90058E+004    1.45733E+005    1.47622E+004   -3.14751E+004    1.03730E+005    5.89557E+004    5.90183E+004    2.90217E+004
            5488    2.51869E+005    2.07275E+005    2.07275E+005    1.97199E+004   -7.89996E+004    2.86275E+005   -4.93319E+004    2.00853E+005    2.45526E+004   -2.73830E+004    1.50826E+005    6.79690E+004    8.69174E+004    2.39046E+004
            5489    3.19022E+005    2.92310E+005    2.92310E+005    3.51846E+004   -6.47042E+004    3.57014E+005   -8.75968E+004    2.80460E+005    5.20199E+004   -1.79508E+003    2.12566E+005    7.09026E+004    1.26094E+005    2.36928E+004
            5490    3.59439E+005    3.60974E+005    3.60974E+005    6.98152E+004   -4.07633E+004    4.01737E+005   -1.30008E+005    3.17649E+005    8.45770E+004    3.99989E+004    2.65450E+005    6.94130E+004    1.54155E+005    1.51177E+004
            5491    4.16445E+005    4.40622E+005    4.40622E+005    1.10896E+005   -2.73699E+004    4.67991E+005   -1.74716E+005    3.59075E+005    1.22512E+005    7.24230E+004    3.29213E+005    7.73084E+004    1.82440E+005    4.32640E+003
            5492    4.78588E+005    5.32275E+005    5.32275E+005    1.54878E+005   -6.02991E+003    5.38305E+005   -2.27041E+005    4.10762E+005    1.66301E+005    1.17655E+005    3.97168E+005    8.14777E+004    2.17736E+005   -1.49958E+003
            5493    5.42054E+005    6.25796E+005    6.25796E+005    1.99366E+005    1.57941E+004    6.10002E+005   -2.80319E+005    4.63963E+005    2.10198E+005    1.67157E+005    4.63602E+005    7.64485E+004    2.57448E+005   -1.26165E+004
            5494    5.26499E+005    6.44592E+005    6.44592E+005    2.07926E+005    5.99346E+004    5.84657E+005   -3.04151E+005    4.76225E+005    2.12313E+005    2.11556E+005    4.88584E+005    3.07549E+004    2.54795E+005    3.19753E+004
            5495    4.95092E+005    6.05728E+005    6.05728E+005    2.15489E+005    4.88064E+004    5.56922E+005   -2.90008E+005    4.24712E+005    2.13218E+005    2.19252E+005    4.37554E+005    7.64713E+003    2.47785E+005    6.25528E+004
            5496    4.60970E+005    5.39504E+005    5.39504E+005    1.64458E+005    2.48752E+004    5.14629E+005   -2.42946E+005    4.09211E+005    1.61316E+005    1.69773E+005    3.97748E+005    3.40459E+004    2.24591E+005    3.52140E+004
            5497    4.40159E+005    5.16143E+005    5.16143E+005    1.76580E+005    1.88523E+004    4.97291E+005   -2.37192E+005    3.68002E+005    1.70694E+005    1.82073E+005    3.58808E+005    8.98444E+003    2.21303E+005    6.63227E+004
            5498    4.03344E+005    4.48517E+005    4.48517E+005    1.24170E+005   -3.11371E+003    4.51631E+005   -1.89858E+005    3.53736E+005    1.18009E+005    1.31746E+005    3.19818E+005    3.51615E+004    1.96932E+005    3.86757E+004
            5499    3.85693E+005    4.24956E+005    4.24956E+005    1.35853E+005   -1.29790E+004    4.37935E+005   -1.82610E+005    3.10447E+005    1.28672E+005    1.43535E+005    2.75623E+005    1.02270E+004    1.95028E+005    7.00164E+004
            5500    3.40027E+005    3.46457E+005    3.46457E+005    8.09840E+004   -3.68028E+004    3.83259E+005   -1.30213E+005    2.88459E+005    7.19540E+004    8.92974E+004    2.29386E+005    3.17583E+004    1.69647E+005    3.60405E+004
            5501    3.34316E+005    3.53560E+005    3.53560E+005    1.07543E+005   -2.70788E+004    3.80639E+005   -1.44675E+005    2.61998E+005    1.01881E+005    1.13565E+005    2.18578E+005    7.88392E+003    1.71147E+005    6.14143E+004
            5502    3.01311E+005    2.94278E+005    2.94278E+005    7.80325E+004   -4.98890E+004    3.44167E+005   -1.07474E+005    2.26913E+005    7.70225E+004    8.29894E+004    1.62410E+005    5.57322E+003    1.53113E+005    6.72009E+004
            5503    2.73840E+005    2.75665E+005    2.75665E+005    5.13946E+004   -2.95125E+004    3.05177E+005   -9.91823E+004    2.44702E+005    7.49968E+004    4.85394E+004    1.74011E+005    1.99605E+003    1.32771E+005    5.46771E+004
            5504    2.99256E+005    2.92546E+005    2.92546E+005    4.98912E+004   -4.18373E+004    3.34383E+005   -1.00200E+005    2.64741E+005    5.35293E+004    5.65944E+004    1.90476E+005    1.93668E+004    1.48765E+005    3.50780E+004
            5505    2.58659E+005    2.15433E+005    2.15433E+005    3.39872E+003   -7.27530E+004    2.88186E+005   -4.86930E+004    2.31349E+005    2.30531E+004    3.82891E+003    1.19197E+005    5.46402E+003    1.35610E+005    7.82208E+003
            5506    1.07025E+005    4.27190E+004   -7.90397E+004    1.54863E+002   -7.90397E+004    1.21759E+005    1.20553E+004   -8.45671E+004   -8.44861E+003    1.48552E+004   -4.25725E+004    3.45211E+004    2.42243E+004   -3.47181E+004
            5507    9.37747E+004    2.35251E+004   -7.94404E+004    1.06402E+003   -7.94404E+004    1.02966E+005    1.82838E+004   -8.74096E+004   -1.10279E+004    5.21003E+003   -4.90334E+004    2.49702E+004    2.99613E+004   -2.51986E+004
            5508    9.01092E+004    1.87401E+004   -7.77758E+004    4.14464E+003   -7.77758E+004    9.65160E+004    1.82970E+004   -8.73902E+004   -7.39308E+003    4.14409E+003   -5.16421E+004    1.79084E+004    3.51707E+004   -1.67830E+004
            5509    9.00540E+004    1.57330E+004   -8.15270E+004   -1.03636E+003   -8.15270E+004    9.72600E+004    2.22768E+004   -8.64359E+004   -7.39853E+003   -1.97538E+003   -5.74564E+004    1.17063E+004    3.90149E+004   -1.04157E+004
            5510    9.55147E+004    1.52589E+004   -8.69038E+004    1.65783E+002   -8.69038E+004    1.02163E+005    2.38264E+004   -9.27748E+004   -6.91907E+003    1.47203E+002   -6.47072E+004    3.83475E+003    4.18281E+004   -3.28707E+003
            5511    7.08265E+004    2.60884E+004   -5.36648E+004    1.89499E+003   -5.36648E+004    7.97532E+004    8.56044E+003   -6.04219E+004   -4.64919E+003    3.71500E+003   -2.47471E+004    1.81545E+004    1.33943E+004   -3.08081E+004
            5512    6.29344E+004    2.12307E+004   -4.61872E+004    1.10133E+004   -4.61872E+004    6.74179E+004    4.64772E+003   -6.10264E+004    2.76381E+003    6.48968E+003   -2.31967E+004    1.35641E+004    1.69900E+004   -2.42092E+004
            5513    6.02356E+004    1.32065E+004   -4.81278E+004    1.09455E+004   -4.81278E+004    6.13343E+004    7.99190E+003   -6.01401E+004    2.48910E+003    2.09164E+003   -2.85564E+004    1.03034E+004    2.08261E+004   -1.87708E+004
            5514    6.02016E+004    1.53052E+004   -4.83008E+004    7.79080E+003   -4.83008E+004    6.36060E+004    8.40158E+003   -5.91326E+004    2.95899E+003    4.46074E+003   -3.26245E+004    6.46413E+003    2.42875E+004   -1.16527E+004
            5515    6.02019E+004    1.43381E+004   -5.15028E+004    7.31140E+002   -5.15028E+004    6.58408E+004    1.21445E+004   -5.65848E+004    1.14176E+003    2.99835E+002   -3.78751E+004    2.32598E+003    2.62449E+004   -4.14234E+003
            5516    5.15682E+004    2.52573E+004   -3.40246E+004    4.66204E+002   -3.40246E+004    5.92818E+004    2.76705E+003   -3.36890E+004   -2.98503E+003    4.85606E+002   -5.80172E+003    5.50280E+003    9.26822E+003   -2.75740E+004
            5517    4.74608E+004    1.79394E+004   -3.63748E+004   -2.89292E+003   -3.63748E+004    5.43142E+004    7.10944E+003   -3.46851E+004   -7.53285E+003   -3.35533E+003   -1.04401E+004    4.36447E+003    1.33884E+004   -2.32349E+004
            5518    4.36042E+004    1.63952E+004   -3.31484E+004   -6.04750E+002   -3.31484E+004    4.95436E+004    5.78597E+003   -3.48847E+004   -6.04360E+003   -5.05787E+002   -1.08085E+004    3.01214E+003    1.67463E+004   -1.78235E+004
            5519    3.97780E+004    1.25835E+004   -3.25419E+004   -2.55907E+003   -3.25419E+004    4.51254E+004    7.50582E+003   -3.22648E+004   -6.07468E+003   -3.79186E+003   -1.26509E+004    2.08310E+003    1.91071E+004   -1.16983E+004
            5520    3.82842E+004    1.17594E+004   -3.10892E+004   -2.47708E+002   -3.10892E+004    4.28486E+004    6.52583E+003   -3.36396E+004   -4.91853E+003   -3.11608E+002   -1.43473E+004    6.36493E+002    2.04960E+004   -4.10894E+003
            5521    5.50199E+005    6.38131E+005    6.38131E+005    2.04210E+005    1.92960E+004    6.18835E+005   -2.87213E+005    4.72292E+005    2.15981E+005    1.72416E+005    4.73241E+005   -7.59582E+004    2.61789E+005    1.31771E+004
            5522    5.42063E+005    6.66665E+005    6.66665E+005    2.16031E+005    6.51435E+004    6.01521E+005   -3.15947E+005    4.91381E+005    2.22382E+005    2.19019E+005    5.06439E+005   -3.01837E+004    2.62552E+005   -2.96919E+004
            5523    5.10386E+005    6.31883E+005    6.31883E+005    2.26678E+005    5.86727E+004    5.73210E+005   -3.05745E+005    4.41419E+005    2.26024E+005    2.29934E+005    4.61276E+005   -7.39824E+003    2.55224E+005   -5.90836E+004
            5524    6.07148E+005    7.29139E+005    7.29139E+005    2.48527E+005    4.68063E+004    6.82333E+005   -3.41491E+005    5.23376E+005    2.59347E+005    2.29882E+005    5.35243E+005   -5.94385E+004    3.01122E+005    1.72259E+004
            5525    6.02275E+005    7.61830E+005    7.61830E+005    2.56680E+005    9.53066E+004    6.66523E+005   -3.71272E+005    5.50397E+005    2.68686E+005    2.58071E+005    5.87060E+005   -2.25529E+004    2.91509E+005   -2.17828E+004
            5526    5.58435E+005    7.13561E+005    7.13561E+005    2.62342E+005    8.90145E+004    6.24546E+005   -3.54972E+005    4.92228E+005    2.66837E+005    2.63823E+005    5.34257E+005   -5.15760E+003    2.78888E+005   -4.51138E+004
            5527    6.48735E+005    7.99569E+005    7.99569E+005    2.82713E+005    7.15646E+004    7.28004E+005   -3.84615E+005    5.63263E+005    2.92932E+005    2.77586E+005    5.83328E+005   -3.19635E+004    3.30854E+005    1.12056E+004
            5528    6.44705E+005    8.27503E+005    8.27503E+005    2.85034E+005    1.14748E+005    7.12755E+005   -4.09095E+005    5.90849E+005    3.00273E+005    2.85360E+005    6.41653E+005   -1.15193E+004    3.12533E+005   -1.09953E+004
            5529    5.91093E+005    7.71253E+005    7.71253E+005    2.88264E+005    1.12106E+005    6.59146E+005   -3.90541E+005    5.26999E+005    2.96815E+005    2.88593E+005    5.86215E+005   -2.57247E+003    2.95330E+005   -2.24600E+004
            5530    6.63034E+005    8.24203E+005    8.24203E+005    2.95009E+005    8.04623E+004    7.43741E+005   -3.99891E+005    5.76810E+005    3.04767E+005    2.94998E+005    5.99909E+005    1.79220E+003    3.41329E+005   -1.95270E+002
            5531    6.57632E+005    8.47683E+005    8.47683E+005    2.93999E+005    1.20779E+005    7.26904E+005   -4.20821E+005    6.03020E+005    3.09953E+005    2.94002E+005    6.58507E+005    1.55880E+003    3.18938E+005    1.16895E+003
            5532    6.00628E+005    7.87921E+005    7.87921E+005    2.95602E+005    1.18712E+005    6.69209E+005   -4.00745E+005    5.37164E+005    3.05423E+005    2.95610E+005    6.01203E+005    4.56379E+002    3.00134E+005    3.01587E+003
            5533    6.44635E+005    7.93031E+005    7.93031E+005    2.79918E+005    6.94736E+004    7.23558E+005   -3.80808E+005    5.59130E+005    2.89952E+005    2.73734E+005    5.78738E+005    3.51257E+004    3.28164E+005   -1.20304E+004
            5534    6.36837E+005    8.15934E+005    8.15934E+005    2.80085E+005    1.11877E+005    7.04057E+005   -4.02632E+005    5.83638E+005    2.94837E+005    2.80545E+005    6.32514E+005    1.44082E+004    3.08417E+005    1.31718E+004
            5535    5.83787E+005    7.58677E+005    7.58677E+005    2.82718E+005    1.07292E+005    6.51385E+005   -3.82895E+005    5.19328E+005    2.90487E+005    2.83276E+005    5.74923E+005    3.27792E+003    2.91656E+005    2.93162E+004
            5536    6.00927E+005    7.20639E+005    7.20639E+005    2.44414E+005    4.54682E+004    6.75171E+005   -3.36840E+005    5.18673E+005    2.55487E+005    2.25361E+005    5.29673E+005    6.08745E+004    2.97167E+005   -1.55496E+004
            5537    5.88110E+005    7.40360E+005    7.40360E+005    2.48098E+005    8.90958E+004    6.51264E+005   -3.59185E+005    5.36466E+005    2.58477E+005    2.49831E+005    5.69245E+005    2.41380E+004    2.84653E+005    2.38453E+004
            5538    5.45484E+005    6.92476E+005    6.92476E+005    2.53496E+005    8.18019E+004    6.10674E+005   -3.42591E+005    4.78779E+005    2.56520E+005    2.55357E+005    5.15897E+005    5.72725E+003    2.72464E+005    4.88734E+004
            5539    9.57984E+004    8.71800E+004    8.71800E+004   -1.47916E+002   -1.52861E+004    1.02466E+005   -2.39153E+004    9.30502E+004    6.96890E+003   -1.37800E+002    6.49149E+004   -3.86126E+003    4.19543E+004   -3.26930E+003
            5540    9.00497E+004    8.15014E+004    8.15014E+004    1.03498E+003   -1.57653E+004    9.72667E+004   -2.22570E+004    8.64176E+004    7.38976E+003    1.94977E+003    5.74316E+004   -1.17654E+004    3.89960E+004   -1.04180E+004
            5541    9.00395E+004    7.76308E+004    7.76308E+004   -4.22753E+003   -1.88098E+004    9.64406E+004   -1.81978E+004    8.73234E+004    7.35786E+003   -4.27158E+003    5.15072E+004   -1.79767E+004    3.50336E+004   -1.69089E+004
            5542    9.37772E+004    7.94084E+004    7.94084E+004   -1.05284E+003   -2.35810E+004    1.02989E+005   -1.82582E+004    8.73722E+004    1.10584E+004   -5.15993E+003    4.88761E+004   -2.50393E+004    2.98152E+004   -2.54288E+004
            5543    1.06902E+005    7.88569E+004    7.88569E+004   -2.33736E+002   -4.27654E+004    1.21622E+005   -1.19526E+004    8.44495E+004    8.38245E+003   -1.48983E+004    4.23736E+004   -3.45086E+004    2.41847E+004   -3.46996E+004
            5544    6.02761E+004    5.15862E+004    5.15862E+004   -7.17879E+002   -1.43328E+004    6.59191E+004   -1.21785E+004    5.66593E+004   -1.15734E+003   -2.95846E+002    3.79887E+004   -2.28671E+003    2.62520E+004   -4.10638E+003
            5545    6.02644E+004    4.83957E+004    4.83957E+004   -7.71264E+003   -1.53051E+004    6.37008E+004   -8.45934E+003    5.91740E+004   -2.93350E+003   -4.42077E+003    3.27323E+004   -6.38741E+003    2.43468E+004   -1.16015E+004
            5546    6.02529E+004    4.82030E+004    4.82030E+004   -1.08654E+004   -1.31683E+004    6.13713E+004   -8.05645E+003    6.01538E+004   -2.40916E+003   -2.01670E+003    2.85952E+004   -1.02920E+004    2.08940E+004   -1.87413E+004
            5547    6.28245E+004    4.60473E+004    4.60473E+004   -1.09646E+004   -2.13063E+004    6.73536E+004   -4.59215E+003    6.08651E+004   -2.76539E+003   -6.48168E+003    2.30235E+004   -1.35650E+004    1.68756E+004   -2.42611E+004
            5548    7.09476E+004    5.37207E+004    5.37207E+004   -1.79712E+003   -2.62100E+004    7.99307E+004   -8.57120E+003    6.03503E+004    4.67180E+003   -3.68364E+003    2.47254E+004   -1.82150E+004    1.32940E+004   -3.09219E+004
            5549    3.83332E+004    3.11578E+004    3.11578E+004    2.35611E+002   -1.17314E+004    4.28892E+004   -6.55402E+003    3.37300E+004    4.93366E+003    3.01861E+002    1.44265E+004   -6.42444E+002    2.05157E+004   -4.08171E+003
            5550    3.97425E+004    3.25305E+004    3.25305E+004    2.53939E+003   -1.25460E+004    4.50766E+004   -7.50797E+003    3.22874E+004    6.06674E+003    3.77867E+003    1.26785E+004   -2.09167E+003    1.91086E+004   -1.16454E+004
            5551    4.36025E+004    3.31122E+004    3.31122E+004    6.04835E+002   -1.64377E+004    4.95498E+004   -5.75978E+003    3.48299E+004    6.00729E+003    4.88426E+002    1.07836E+004   -2.99572E+003    1.67122E+004   -1.78581E+004
            5552    4.75218E+004    3.63832E+004    3.63832E+004    2.90553E+003   -1.80088E+004    5.43919E+004   -7.09331E+003    3.46403E+004    7.51238E+003    3.36090E+003    1.04066E+004   -4.31841E+003    1.34346E+004   -2.32614E+004
            5553    5.15501E+004    3.40561E+004    3.40561E+004   -4.96059E+002   -2.51964E+004    5.92525E+004   -2.78787E+003    3.38518E+004    3.00396E+003   -4.99933E+002    5.85958E+003   -5.52648E+003    9.35329E+003   -2.75251E+004
            5554    3.90618E+005    3.84691E+005    3.84691E+005    7.24110E+004   -5.33058E+004    4.37997E+005   -1.34599E+005    3.40429E+005    9.23925E+004    2.60548E+004    2.85349E+005   -8.34791E+004    1.59301E+005   -1.92578E+004
            5555    3.32893E+005    2.98661E+005    2.98661E+005    4.63464E+004   -7.86353E+004    3.77296E+005   -8.87906E+004    2.72045E+005    5.62119E+004   -1.36378E+004    2.23798E+005   -8.48177E+004    1.18897E+005   -2.68098E+004
            5556    2.74215E+005    2.27281E+005    2.27281E+005    3.22521E+004   -8.62576E+004    3.13539E+005   -5.77585E+004    2.03333E+005    3.72466E+004   -3.37624E+004    1.69791E+005   -7.84805E+004    8.51409E+004   -3.13420E+004
            5557    2.18081E+005    1.66481E+005    1.66481E+005    1.36177E+004   -8.32537E+004    2.49734E+005   -3.22815E+004    1.57495E+005    2.05744E+004   -3.96898E+004    1.15960E+005   -6.71542E+004    6.24587E+004   -3.58159E+004
            5558    1.57958E+005    1.15927E+005    1.15927E+005    5.85829E+003   -6.50617E+004    1.80988E+005   -1.89077E+004    1.12798E+005    1.04417E+004   -2.91399E+004    7.54215E+004   -5.13377E+004    3.86943E+004   -3.73775E+004
            5559    1.29837E+005    9.61608E+004    9.61608E+004   -1.48189E+003   -5.11855E+004    1.47346E+005   -1.44978E+004    1.04985E+005   -6.78055E+002   -2.23883E+004    6.65597E+004   -3.73081E+004    4.09435E+004   -2.00080E+004
            5560    1.23808E+005    9.92282E+004    9.92282E+004   -6.54642E+002   -3.92909E+004    1.38519E+005   -1.97609E+004    1.08953E+005   -2.19837E+003   -9.91468E+003    7.13957E+004   -2.72122E+004    4.69059E+004   -1.24222E+004
            5561    1.25065E+005    1.01240E+005    1.01240E+005   -2.99974E+003   -3.74347E+004    1.38675E+005   -2.02686E+004    1.13643E+005   -3.95368E+003   -8.11926E+003    7.28787E+004   -1.75770E+004    5.29408E+004   -4.67612E+003
            5562    1.28358E+005    1.09641E+005    1.09641E+005   -5.38296E+001   -3.15262E+004    1.41167E+005   -2.60202E+004    1.19204E+005   -1.36399E+003   -6.41355E+002    8.00660E+004   -6.07256E+003    5.71159E+004   -1.40353E+003
            5563    1.85340E+005    1.52538E+005    1.52538E+005    1.10092E+004   -5.72524E+004    2.09790E+005   -3.54316E+004    1.52957E+005    1.58236E+004   -1.80370E+004    1.08508E+005   -4.79499E+004    6.77907E+004   -1.62416E+004
            5564    1.74077E+005    1.42750E+005    1.42750E+005    7.02277E+003   -5.35137E+004    1.96263E+005   -3.20862E+004    1.47441E+005    6.34211E+003   -9.78563E+003    9.97022E+004   -3.42075E+004    7.36651E+004   -3.20856E+003
            5565    1.69066E+005    1.41167E+005    1.41167E+005    7.80070E+003   -4.89804E+004    1.90147E+005   -3.33290E+004    1.45164E+005    4.71598E+003   -1.34858E+001    9.52846E+004   -2.26806E+004    7.82747E+004    1.40518E+003
            5566    1.72935E+005    1.43290E+005    1.43290E+005    5.73039E+001   -4.88244E+004    1.92114E+005   -3.15077E+004    1.56221E+005    1.51178E+003   -1.10497E+003    9.41162E+004   -7.43491E+003    8.34694E+004    2.20137E+003
            5567    2.25640E+005    1.83381E+005    1.83381E+005    1.63581E+004   -7.33084E+004    2.56690E+005   -4.21437E+004    1.78384E+005    1.24674E+004   -1.96257E+004    1.33589E+005   -5.63046E+004    8.46664E+004   -1.01621E+004
            5568    2.10474E+005    1.74440E+005    1.74440E+005    1.38464E+004   -6.38326E+004    2.38273E+005   -4.14847E+004    1.73521E+005    4.58038E+003   -4.97211E+003    1.24846E+005   -3.94769E+004    8.92923E+004   -5.08490E+002
            5569    2.02005E+005    1.60035E+005    1.60035E+005    5.09136E+003   -6.84347E+004    2.28470E+005   -3.22307E+004    1.67669E+005   -3.08481E+003   -5.82933E+003    1.05606E+005   -2.48455E+004    9.41004E+004    9.48787E+003
            5570    1.95730E+005    1.52842E+005    1.52842E+005    2.02386E+003   -6.83438E+004    2.21185E+005   -2.88406E+004    1.63401E+005   -5.48932E+003    8.36431E+002    9.11746E+004   -8.42062E+003    9.87992E+004    3.70695E+003
            5571    3.00850E+005    2.76076E+005    2.76076E+005    3.39853E+004   -6.07349E+004    3.36811E+005   -8.31088E+004    2.64038E+005    3.59516E+004    1.11476E+004    2.02227E+005   -5.77374E+004    1.25848E+005   -1.42515E+004
            5572    2.72494E+005    2.39641E+005    2.39641E+005    2.92304E+004   -6.81685E+004    3.07809E+005   -6.69009E+004    2.28084E+005    1.75073E+004    1.71429E+004    1.66052E+005   -3.67806E+004    1.26553E+005    3.00664E+003
            5573    2.49755E+005    2.12742E+005    2.12742E+005    2.04969E+004   -6.95489E+004    2.82291E+005   -5.45634E+004    2.08229E+005    1.17245E+004    1.54464E+004    1.36519E+005   -2.20396E+004    1.23462E+005    4.77173E+003
            5574    2.39982E+005    1.85374E+005    1.85374E+005    1.39454E+003   -8.60726E+004    2.71447E+005   -3.35654E+004    1.99062E+005   -1.98931E+003    6.18491E+002    1.02067E+005   -6.98327E+003    1.24935E+005    4.31607E+003
            5575    3.31576E+005    3.25736E+005    3.25736E+005    5.95813E+004   -4.56976E+004    3.71434E+005   -1.13207E+005    2.90237E+005    6.14963E+004    5.56078E+004    2.22516E+005   -4.96891E+004    1.57568E+005   -1.95164E+004
            5576    2.93553E+005    2.76879E+005    2.76879E+005    4.18713E+004   -5.21715E+004    3.29050E+005   -8.88595E+004    2.56220E+005    4.28329E+004    4.43617E+004    1.79384E+005   -2.92121E+004    1.46031E+005   -1.99853E+004
            5577    2.68460E+005    2.32587E+005    2.32587E+005    1.45579E+004   -6.72634E+004    2.99850E+005   -5.99603E+004    2.37883E+005    2.59292E+004    1.39429E+004    1.40009E+005   -1.58613E+004    1.37502E+005   -4.83180E+003
            5578    2.45920E+005    1.94301E+005    1.94301E+005    7.67274E+003   -8.43612E+004    2.78663E+005   -3.92043E+004    2.01307E+005    1.48676E+004    7.83669E+003    9.49086E+004   -4.36100E+003    1.33359E+005   -3.94075E+003
            5579    2.59082E+005    2.19384E+005    2.19384E+005    1.11151E+003   -6.69284E+004    2.86313E+005   -5.11891E+004    2.37703E+005    2.90117E+004    1.26747E+003    1.23288E+005   -2.11660E+003    1.34686E+005   -1.17795E+004
            5580    2.73253E+005    2.80399E+005    2.80399E+005    5.29567E+004   -2.27143E+004    3.03114E+005   -1.03547E+005    2.47987E+005    8.04754E+004    4.65586E+004    1.83608E+005   -4.78343E+002    1.28577E+005   -5.71139E+004
            5581    2.93849E+005    2.84138E+005    2.84138E+005    4.22359E+004   -4.28707E+004    3.27009E+005   -9.45011E+004    2.63910E+005    5.69056E+004    4.59163E+004    1.80681E+005   -8.56571E+003    1.45663E+005   -4.34839E+004
            5582    2.88313E+005    2.78370E+005    2.78370E+005    7.29141E+004   -5.12182E+004    3.29588E+005   -1.00022E+005    2.14513E+005    7.53443E+004    7.50983E+004    1.49623E+005   -2.87155E+003    1.44990E+005   -6.95170E+004
            5583    3.10043E+005    3.06367E+005    3.06367E+005    6.93836E+004   -4.45154E+004    3.50883E+005   -1.10412E+005    2.56193E+005    6.21442E+004    7.75106E+004    1.91581E+005   -1.93559E+004    1.58328E+005   -3.99919E+004
            5584    3.15163E+005    3.23996E+005    3.23996E+005    9.06364E+004   -3.45219E+004    3.58518E+005   -1.26703E+005    2.49266E+005    9.34599E+004    9.51829E+004    1.91467E+005   -6.64477E+003    1.61568E+005   -6.17610E+004
            5585    3.57633E+005    3.77694E+005    3.77694E+005    9.75012E+004   -2.51188E+004    4.02813E+005   -1.50026E+005    3.04648E+005    8.69094E+004    1.05557E+005    2.57610E+005   -3.09764E+004    1.77592E+005   -3.69822E+004
            5586    3.55959E+005    3.81367E+005    3.81367E+005    1.16325E+005   -2.32224E+004    4.04589E+005   -1.58156E+005    2.83823E+005    1.13189E+005    1.23514E+005    2.37766E+005   -9.86290E+003    1.81532E+005   -6.63669E+004
            5587    3.99727E+005    4.50930E+005    4.50930E+005    1.49949E+005   -2.61095E+003    4.53541E+005   -1.99423E+005    3.23763E+005    1.41417E+005    1.56834E+005    3.00018E+005   -9.84288E+003    2.02528E+005   -6.70618E+004
            5588    4.55917E+005    5.38397E+005    5.38397E+005    1.84822E+005    2.38249E+004    5.14573E+005   -2.49015E+005    3.83661E+005    1.80179E+005    1.90401E+005    3.76464E+005   -9.36102E+003    2.28773E+005   -6.82145E+004
            5589    4.14464E+005    4.60860E+005    4.60860E+005    1.27045E+005   -3.04319E+003    4.63903E+005   -1.94954E+005    3.64096E+005    1.22176E+005    1.34179E+005    3.28507E+005   -3.76076E+004    2.02473E+005   -3.79132E+004
            5590    4.79124E+005    5.66759E+005    5.66759E+005    1.72959E+005    3.33311E+004    5.33428E+005   -2.57683E+005    4.29647E+005    1.73660E+005    1.77907E+005    4.21482E+005   -3.49929E+004    2.32235E+005   -3.51431E+004
            5591    4.87354E+005    5.41900E+005    5.41900E+005    1.57881E+005   -6.35579E+003    5.48255E+005   -2.31142E+005    4.17922E+005    1.70345E+005    1.18198E+005    4.04882E+005   -8.14454E+004    2.21790E+005    5.28911E+003
            5592    4.30278E+005    4.56073E+005    4.56073E+005    1.11141E+005   -2.60782E+004    4.82152E+005   -1.80379E+005    3.76107E+005    1.27359E+005    7.17131E+004    3.42064E+005   -7.95802E+004    1.86916E+005   -7.85161E+003
            5593    3.14964E+005    7.68174E+004   -2.77794E+005   -3.05586E+004   -2.77794E+005    3.54612E+005    7.71785E+004   -2.68901E+005   -5.11699E+004    2.13818E+003   -1.82504E+005   -7.59591E+004    1.33693E+005    1.98310E+004
            5594    2.52264E+005    8.49870E+004   -2.02012E+005   -1.53757E+004   -2.02012E+005    2.86999E+005    4.41335E+004   -1.99282E+005   -2.85614E+004    2.45698E+004   -1.28409E+005   -7.36308E+004    9.63795E+004    2.16642E+004
            5595    2.02406E+005    7.56248E+004   -1.55154E+005   -7.76369E+003   -1.55154E+005    2.30779E+005    2.90978E+004   -1.56077E+005   -1.70189E+004    2.65893E+004   -9.68637E+004   -6.45569E+004    6.97414E+004    2.65530E+004
            5596    1.47660E+005    5.99132E+004   -1.08269E+005    1.02470E+002   -1.08269E+005    1.68182E+005    1.60844E+004   -1.15253E+005   -9.34248E+003    2.25245E+004   -6.14351E+004   -5.06963E+004    4.57393E+004    2.84466E+004
            5597    1.26727E+005    4.18584E+004   -9.95086E+004    3.90531E+003   -9.95086E+004    1.41367E+005    1.79150E+004   -1.12837E+005   -2.45654E+003    9.02213E+003   -6.03106E+004   -2.75262E+004    5.54661E+004    1.17512E+004
            5598    1.33550E+005    4.03050E+004   -1.07506E+005    4.47252E+003   -1.07506E+005    1.47811E+005    2.09094E+004   -1.22012E+005   -3.87597E+002    5.21090E+003   -6.75514E+004   -9.00043E+003    6.49469E+004    2.57519E+003
            5599    1.76585E+005    5.88180E+004   -1.40625E+005   -4.17255E+003   -1.40625E+005    1.99443E+005    2.86599E+004   -1.47940E+005   -6.77329E+003    8.41195E+003   -8.76183E+004   -3.36419E+004    8.11838E+004    2.60854E+003
            5600    1.82279E+005    5.92306E+004   -1.45631E+005   -1.37135E+003   -1.45631E+005    2.04861E+005    2.92572E+004   -1.57091E+005   -1.94358E+003    2.64820E+002   -8.60927E+004   -1.09523E+004    9.23473E+004   -1.83377E+003
            5601    2.19196E+005    7.23566E+004   -1.75651E+005   -7.87625E+003   -1.75651E+005    2.48008E+005    3.70569E+004   -1.81446E+005   -1.30197E+004    5.59592E+003   -1.03747E+005   -3.71931E+004    1.05867E+005   -1.48796E+003
            5602    2.14225E+005    8.48773E+004   -1.58195E+005    3.07675E+003   -1.58195E+005    2.43073E+005    2.34137E+004   -1.73467E+005    1.75203E+003    4.79397E+003   -7.67872E+004   -1.03457E+004    1.14098E+005   -5.75294E+003
            5603    2.64341E+005    7.12091E+004   -2.27444E+005   -2.35184E+004   -2.27444E+005    2.98653E+005    5.99178E+004   -2.21004E+005   -2.74470E+004   -1.75921E+004   -1.34714E+005   -2.87678E+004    1.35061E+005   -1.73459E+003
            5604    2.39543E+005    9.03269E+004   -1.83188E+005   -1.07515E+004   -1.83188E+005    2.73515E+005    3.45376E+004   -1.81310E+005   -7.41931E+003   -1.05468E+004   -8.56468E+004   -6.72334E+003    1.30844E+005   -9.67592E+001
            5605    2.53000E+005    8.92303E+004   -1.96665E+005   -1.68661E+003   -1.96665E+005    2.85895E+005    3.63736E+004   -2.11254E+005   -1.89597E+004   -1.98058E+003   -8.81805E+004   -3.41881E+003    1.38498E+005    7.61646E+003
            5606    2.54665E+005    4.25475E+004   -2.43745E+005   -4.24469E+004   -2.43745E+005    2.86293E+005    8.12149E+004   -2.19168E+005   -6.06434E+004   -4.06127E+004   -1.42389E+005   -1.16830E+003    1.28297E+005    4.74315E+004
            5607    2.87768E+005    5.85270E+004   -2.66001E+005   -4.19197E+004   -2.66001E+005    3.24528E+005    8.31314E+004   -2.43358E+005   -5.17152E+004   -4.70411E+004   -1.50638E+005   -1.53948E+004    1.51464E+005    3.16541E+004
            5608    2.79730E+005    5.84560E+004   -2.62106E+005   -6.74848E+004   -2.62106E+005    3.20562E+005    9.03781E+004   -1.99157E+005   -6.53898E+004   -7.07902E+004   -1.34954E+005   -3.72993E+003    1.45250E+005    5.89401E+004
            5609    3.10122E+005    3.82908E+004   -3.16038E+005   -9.39924E+004   -3.16038E+005    3.54329E+005    1.23913E+005   -2.32622E+005   -8.90080E+004   -9.75861E+004   -1.85145E+005   -4.56515E+003    1.61614E+005    5.55733E+004
            5610    3.50877E+005    1.86843E+004   -3.80442E+005   -1.20566E+005   -3.80442E+005    3.99127E+005    1.60775E+005   -2.77628E+005   -1.17903E+005   -1.25385E+005   -2.39035E+005   -6.86067E+003    1.80362E+005    6.20735E+004
            5611    3.96896E+005   -1.44809E+004   -4.63170E+005   -1.57989E+005   -4.63170E+005    4.48689E+005    2.11880E+005   -3.30463E+005   -1.59340E+005   -1.61506E+005   -3.14795E+005   -6.62586E+003    2.02922E+005    5.78175E+004
            5612    4.45227E+005   -4.30469E+004   -5.44035E+005   -1.93615E+005   -5.44035E+005    5.00988E+005    2.60232E+005   -3.81291E+005   -1.98966E+005   -1.96241E+005   -3.85490E+005   -6.46608E+003    2.26838E+005    5.30069E+004
            5613    3.22455E+005    4.88742E+004   -3.15775E+005   -6.82559E+004   -3.15775E+005    3.64649E+005    1.11719E+005   -2.67903E+005   -7.26483E+004   -7.50365E+004   -1.87472E+005   -2.84288E+004    1.69207E+005    3.02422E+004
            5614    3.81296E+005    2.53921E+004   -4.03405E+005   -1.02480E+005   -4.03405E+005    4.28797E+005    1.60164E+005   -3.27568E+005   -1.12620E+005   -1.08259E+005   -2.59613E+005   -3.34318E+004    1.97482E+005    3.03805E+004
            5615    4.36937E+005    1.03805E+004   -4.80511E+005   -1.34152E+005   -4.80511E+005    4.90891E+005    2.01427E+005   -3.77244E+005   -1.47765E+005   -1.38067E+005   -3.18451E+005   -3.46148E+004    2.26765E+005    2.68912E+004
            5616    4.98526E+005   -8.05169E+003   -5.66671E+005   -1.67000E+005   -5.66671E+005    5.58619E+005    2.47241E+005   -4.35795E+005   -1.87068E+005   -1.69744E+005   -3.84910E+005   -3.22629E+004    2.58664E+005    2.45987E+004
            5617    5.64401E+005    3.09666E+004   -6.08422E+005   -1.79478E+005   -6.08422E+005    6.39388E+005    2.52311E+005   -4.62899E+005   -1.95065E+005   -1.52953E+005   -4.08915E+005   -8.22245E+004    2.83683E+005   -1.04365E+004
            5618    4.91393E+005    4.45119E+004   -5.12031E+005   -1.38040E+005   -5.12031E+005    5.56543E+005    2.01853E+005   -4.03780E+005   -1.53760E+005   -1.06213E+005   -3.45586E+005   -8.83845E+004    2.37938E+005   -1.82284E+003
            5619    4.22428E+005    5.56401E+004   -4.22032E+005   -9.76554E+004   -4.22032E+005    4.77672E+005    1.54682E+005   -3.51123E+005   -1.15046E+005   -6.45478E+004   -2.84453E+005   -8.30923E+004    1.98245E+005    2.92163E+003
            5620    3.63456E+005    6.21111E+004   -3.46752E+005   -6.03222E+004   -3.46752E+005    4.08863E+005    1.14988E+005   -3.11724E+005   -8.10365E+004   -3.48814E+004   -2.29045E+005   -7.42326E+004    1.67574E+005    1.23567E+004
            5621    1.01702E+005    2.24465E+004   -8.91008E+004   -1.52694E+003   -8.91008E+004    1.11547E+005    2.27271E+004   -9.50279E+004   -7.95558E+003   -1.84704E+003   -5.83786E+004   -6.14843E+003    4.92285E+004    4.89269E+003
            5622    9.61320E+004    2.20134E+004   -8.15940E+004    4.71308E+003   -8.15940E+004    1.03607E+005    1.82892E+004   -9.25319E+004   -7.90261E+003    1.87044E+003   -4.88353E+004   -1.86217E+004    4.19153E+004    1.59096E+004
            5623    1.05353E+005    3.68040E+004   -8.12278E+004    3.29479E+003   -8.12278E+004    1.18032E+005    1.37097E+004   -9.21670E+004   -9.04258E+003    9.15926E+003   -4.12457E+004   -3.52234E+004    3.07206E+004    2.93904E+004
            5624    6.63228E+004    2.13563E+004   -5.18458E+004    4.24388E+003   -5.18458E+004    7.32021E+004    8.74852E+003   -6.10524E+004    1.37633E+003    3.37120E+003   -3.09931E+004   -3.79303E+003    3.23392E+004    5.82365E+003
            5625    6.37222E+004    1.77328E+004   -4.92919E+004    1.05128E+004   -4.92919E+004    6.70247E+004    7.01541E+003   -6.27921E+004    7.11264E+002    3.00072E+003   -2.47582E+004   -1.06823E+004    2.68923E+004    1.66968E+004
            5626    6.97086E+004    2.33205E+004   -5.29478E+004    7.47190E+003   -5.29478E+004    7.62683E+004    7.38511E+003   -6.54683E+004   -4.07740E+003    3.91218E+003   -2.19901E+004   -1.92958E+004    1.86413E+004    2.69073E+004
            5627    4.85207E+004    1.75445E+004   -3.78338E+004   -2.78324E+003   -3.78338E+004    5.53783E+004    7.69086E+003   -3.69374E+004   -6.04189E+003   -3.07172E+003   -1.39590E+004   -1.02311E+003    2.68034E+004    5.79752E+003
            5628    4.86918E+004    1.82888E+004   -3.68710E+004    1.39627E+002   -3.68710E+004    5.51598E+004    6.14752E+003   -3.99422E+004   -5.43580E+003   -1.78474E+003   -1.12220E+004   -3.35834E+003    2.22505E+004    1.61645E+004
            5629    5.07299E+004    2.15326E+004   -3.60150E+004    2.23093E+003   -3.60150E+004    5.75476E+004    4.08381E+003   -4.11599E+004   -3.53936E+003   -6.94032E+002   -8.01803E+003   -6.24168E+003    1.40047E+004    2.46803E+004
            5630    4.58430E+005   -4.95165E+004   -5.64668E+005   -2.01628E+005   -5.64668E+005    5.15151E+005    2.71938E+005   -3.95364E+005   -2.08579E+005   -2.04026E+005   -4.03208E+005    6.51918E+003    2.33525E+005   -5.04695E+004
            5631    5.13225E+005   -9.43508E+003   -5.84452E+005   -1.72782E+005   -5.84452E+005    5.75017E+005    2.55557E+005   -4.48896E+005   -1.94568E+005   -1.74929E+005   -3.97172E+005    3.24833E+004    2.66646E+005   -2.25108E+004
            5632    5.74977E+005    2.84943E+004   -6.22645E+005   -1.84773E+005   -6.22645E+005    6.51139E+005    2.59641E+005   -4.72838E+005   -2.01107E+005   -1.58887E+005   -4.18930E+005    8.17813E+004    2.89693E+005    1.06681E+004
            5633    5.02794E+005   -7.50243E+004   -6.38041E+005   -2.33810E+005   -6.38041E+005    5.63017E+005    3.15625E+005   -4.40853E+005   -2.44182E+005   -2.35093E+005   -4.67600E+005    5.26155E+003    2.55834E+005   -3.80190E+004
            5634    5.68485E+005   -2.53312E+004   -6.61726E+005   -2.04149E+005   -6.61726E+005    6.36395E+005    2.97069E+005   -4.99067E+005   -2.29902E+005   -2.05243E+005   -4.56061E+005    2.43508E+004    2.96194E+005   -1.70348E+004
            5635    6.40486E+005    9.67674E+003   -7.15283E+005   -2.26124E+005   -7.15283E+005    7.24960E+005    3.10577E+005   -5.28682E+005   -2.42404E+005   -2.11362E+005   -4.77964E+005    6.32896E+004    3.33613E+005    1.35144E+004
            5636    5.34643E+005   -9.25286E+004   -6.89972E+005   -2.56569E+005   -6.89972E+005    5.97443E+005    3.46356E+005   -4.72847E+005   -2.68983E+005   -2.56880E+005   -5.13206E+005    2.74423E+003    2.72017E+005   -1.90991E+004
            5637    6.06404E+005   -3.55821E+004   -7.14202E+005   -2.25452E+005   -7.14202E+005    6.78620E+005    3.25079E+005   -5.33105E+005   -2.53683E+005   -2.25727E+005   -4.95826E+005    1.25446E+004    3.16668E+005   -8.83592E+003
            5638    6.88438E+005   -7.83307E+003   -7.86679E+005   -2.59433E+005   -7.86679E+005    7.78846E+005    3.51315E+005   -5.70306E+005   -2.75381E+005   -2.55303E+005   -5.23261E+005    3.44994E+004    3.66660E+005    8.79629E+003
            5639    5.44296E+005   -9.77013E+004   -7.05583E+005   -2.63375E+005   -7.05583E+005    6.07882E+005    3.55553E+005   -4.82480E+005   -2.76381E+005   -2.63381E+005   -5.26898E+005   -4.65618E+002    2.76923E+005    2.19047E+003
            5640    6.18095E+005   -3.89035E+004   -7.30570E+005   -2.32293E+005   -7.30570E+005    6.91667E+005    3.33922E+005   -5.43504E+005   -2.61183E+005   -2.32293E+005   -5.08290E+005   -1.81651E+003    3.23004E+005    7.90753E+002
            5641    7.06238E+005   -1.39790E+004   -8.12807E+005   -2.71347E+005   -8.12807E+005    7.98828E+005    3.66044E+005   -5.85856E+005   -2.87275E+005   -2.71343E+005   -5.39516E+005   -1.52075E+003    3.78975E+005    1.97812E+001
            5642    5.28350E+005   -8.95602E+004   -6.80146E+005   -2.52339E+005   -6.80146E+005    5.90586E+005    3.40682E+005   -4.66725E+005   -2.64424E+005   -2.52850E+005   -5.04771E+005   -3.53776E+003    2.68774E+005    2.39057E+004
            5643    5.99300E+005   -3.42407E+004   -7.04796E+005   -2.21443E+005   -7.04796E+005    6.70556E+005    3.20160E+005   -5.27238E+005   -2.49479E+005   -2.21812E+005   -4.89190E+005   -1.55203E+004    3.12653E+005    1.03837E+004
            5644    6.84705E+005   -6.57044E+003   -7.81225E+005   -2.56957E+005   -7.81225E+005    7.74655E+005    3.48251E+005   -5.67047E+005   -2.72814E+005   -2.52277E+005   -5.19662E+005   -3.66499E+004    3.64284E+005   -9.26170E+003
            5645    4.91801E+005   -7.05965E+004   -6.21583E+005   -2.27016E+005   -6.21583E+005    5.50987E+005    3.06399E+005   -4.30253E+005   -2.36732E+005   -2.28572E+005   -4.53891E+005   -5.76481E+003    2.50185E+005    4.08008E+004
            5646    5.55124E+005   -2.26236E+004   -6.44108E+005   -1.97424E+005   -6.44108E+005    6.21484E+005    2.88052E+005   -4.87177E+005   -2.22130E+005   -1.98814E+005   -4.43212E+005   -2.60858E+004    2.88954E+005    1.88127E+004
            5647    6.33641E+005    1.07006E+004   -7.06543E+005   -2.22734E+005   -7.06543E+005    7.17244E+005    3.06192E+005   -5.22860E+005   -2.38641E+005   -2.07431E+005   -4.72504E+005   -6.52867E+004    3.29287E+005   -1.23608E+004
            5648    1.05258E+005    8.11628E+004    8.11628E+004   -3.30005E+003   -3.67578E+004    1.17921E+005   -1.37017E+004    9.21031E+004    9.03568E+003   -9.12996E+003    4.11993E+004    3.51791E+004    3.06538E+004    2.94330E+004
            5649    9.59750E+004    8.14989E+004    8.14989E+004   -4.69190E+003   -2.19253E+004    1.03424E+005   -1.82939E+004    9.23973E+004    7.90916E+003   -1.84120E+003    4.88138E+004    1.85150E+004    4.18791E+004    1.58548E+004
            5650    1.01222E+005    8.86730E+004    8.86730E+004    1.53190E+003   -2.23558E+004    1.11029E+005   -2.26164E+004    9.45625E+004    7.92662E+003    1.85132E+003    5.80712E+004    6.11903E+003    4.90113E+004    4.86889E+003
            5651    6.94886E+004    5.27909E+004    5.27909E+004   -7.47979E+003   -2.32164E+004    7.60074E+004   -7.36490E+003    6.52963E+004    4.04891E+003   -3.86137E+003    2.19072E+004    1.91728E+004    1.85857E+004    2.68752E+004
            5652    6.37667E+004    4.92927E+004    4.92927E+004   -1.05175E+004   -1.78044E+004    6.70971E+004   -6.99024E+003    6.28197E+004   -7.55894E+002   -3.04960E+003    2.47762E+004    1.06816E+004    2.69410E+004    1.66407E+004
            5653    6.60373E+004    5.15384E+004    5.15384E+004   -4.26909E+003   -2.13661E+004    7.29044E+004   -8.63442E+003    6.07513E+004   -1.43566E+003   -3.39602E+003    3.07349E+004    3.76033E+003    3.22229E+004    5.82217E+003
            5654    5.06064E+004    3.58236E+004    3.58236E+004   -2.15730E+003   -2.16259E+004    5.74495E+004   -4.01348E+003    4.08052E+004    3.47171E+003    6.78191E+002    7.89053E+003    6.07357E+003    1.39795E+004    2.46603E+004
            5655    4.87976E+004    3.70475E+004    3.70475E+004   -2.21382E+002   -1.81858E+004    5.52333E+004   -6.21344E+003    4.02803E+004    5.48951E+003    1.78888E+003    1.13619E+004    3.46620E+003    2.22846E+004    1.61807E+004
            5656    4.85193E+004    3.78281E+004    3.78281E+004    2.78099E+003   -1.75490E+004    5.53772E+004   -7.68669E+003    3.69322E+004    6.06484E+003    3.07363E+003    1.39216E+004    1.03739E+003    2.68130E+004    5.77075E+003
            5657    2.47012E+005    9.34571E+004   -1.88510E+005   -1.02978E+004   -1.88510E+005    2.81967E+005    3.51168E+004   -1.87655E+005   -1.17207E+004   -1.04266E+004   -8.32031E+004    3.04368E+003    1.36311E+005   -3.70666E+003
            5658    2.31671E+005    9.71177E+004   -1.66856E+005    2.67640E+003   -1.66856E+005    2.63974E+005    2.23540E+004   -1.80017E+005    5.43896E+002    3.07707E+003   -7.06830E+004    5.64507E+003    1.26875E+005    2.81498E+003
            5659    2.13597E+005    8.09329E+004   -1.62223E+005   -4.86430E+003   -1.62223E+005    2.43156E+005    2.87181E+004   -1.67675E+005   -5.30170E+001   -4.17626E+003   -8.19251E+004    6.89544E+003    1.14106E+005    3.56538E+003
            5660    1.73084E+005    6.19568E+004   -1.32626E+005    4.17850E+003   -1.32626E+005    1.94583E+005    2.21636E+004   -1.48948E+005    3.42729E+003    5.06727E+003   -7.49853E+004    7.23677E+003    8.85199E+004    2.15574E+003
            5661    1.40884E+005    3.83380E+004   -1.18623E+005   -3.11930E+003   -1.18623E+005    1.56961E+005    2.78013E+004   -1.26024E+005   -6.57332E+003   -2.78924E+003   -7.40414E+004    5.84595E+003    7.05238E+004   -1.05130E+003
            5662    2.66548E+005    7.46300E+004   -2.25635E+005   -1.69520E+004   -2.25635E+005    3.00265E+005    5.59857E+004   -2.26868E+005   -2.58053E+004   -1.72682E+004   -1.24884E+005    1.19720E+004    1.41135E+005   -6.46133E+003
            5663    2.37266E+005    7.74924E+004   -1.91549E+005   -1.22199E+004   -1.91549E+005    2.69041E+005    4.20922E+004   -1.93166E+005   -1.46701E+004   -9.58404E+003   -1.02022E+005    1.80149E+004    1.25434E+005    2.59565E+003
            5664    2.16502E+005    7.38725E+004   -1.71328E+005   -6.52837E+003   -1.71328E+005    2.45200E+005    3.46613E+004   -1.77934E+005   -6.34024E+003   -7.56605E+001   -9.75680E+004    2.14168E+004    1.10126E+005    7.76333E+003
            5665    1.68326E+005    5.82581E+004   -1.31841E+005   -1.71157E+003   -1.31841E+005    1.90099E+005    2.50980E+004   -1.41099E+005   -1.14040E+003    3.85539E+003   -7.80090E+004    2.13046E+004    8.29671E+004    1.11266E+003
            5666    1.36378E+005    3.99370E+004   -1.11821E+005    4.73177E+002   -1.11821E+005    1.51758E+005    2.38037E+004   -1.22510E+005   -5.86598E+003    3.20629E+003   -6.87513E+004    1.70670E+004    6.59886E+004   -4.25160E+003
            5667    2.90113E+005    5.96238E+004   -2.67326E+005   -4.06560E+004   -2.67326E+005    3.26950E+005    8.27861E+004   -2.46331E+005   -4.38605E+004   -4.29827E+004   -1.61515E+005    2.55220E+004    1.49872E+005   -1.71273E+004
            5668    2.55439E+005    7.38100E+004   -2.15051E+005   -1.89586E+004   -2.15051E+005    2.88861E+005    5.33998E+004   -2.12245E+005   -2.47283E+004   -9.62407E+003   -1.25847E+005    3.54309E+004    1.28447E+005    1.54407E+003
            5669    2.26249E+005    6.88273E+004   -1.87032E+005   -1.33817E+004   -1.87032E+005    2.55859E+005    4.38622E+004   -1.87945E+005   -1.60652E+004    7.78823E+002   -1.16300E+005    3.89992E+004    1.07403E+005    3.46648E+002
            5670    1.71763E+005    6.32703E+004   -1.31329E+005   -8.48358E+002   -1.31329E+005    1.94599E+005    2.29689E+004   -1.40789E+005   -3.02701E+003    1.48545E+004   -8.07342E+004    3.65295E+004    7.68669E+004   -2.95086E+003
            5671    1.36451E+005    3.98047E+004   -1.12442E+005   -1.18230E+003   -1.12442E+005    1.52247E+005    2.46066E+004   -1.21398E+005   -1.01035E+004    5.16564E+003   -6.88820E+004    2.90241E+004    6.09777E+004   -1.08218E+004
            5672    3.30590E+005    5.60884E+004   -3.15713E+005   -5.48985E+004   -3.15713E+005    3.71802E+005    1.04841E+005   -2.83892E+005   -6.37063E+004   -5.07588E+004   -2.00058E+005    4.95444E+004    1.63989E+005   -1.55334E+004
            5673    2.86525E+005    7.11603E+004   -2.50953E+005   -2.44850E+004   -2.50953E+005    3.22114E+005    6.80927E+004   -2.46570E+005   -4.00773E+004   -5.04514E+003   -1.59156E+005    6.11546E+004    1.30040E+005   -1.37493E+004
            5674    2.40681E+005    7.47311E+004   -1.98029E+005   -1.55083E+004   -1.98029E+005    2.72760E+005    4.62686E+004   -1.96829E+005   -2.20477E+004    1.08240E+004   -1.27582E+005    5.81536E+004    1.02946E+005   -1.00140E+004
            5675    1.82904E+005    6.70930E+004   -1.40912E+005   -5.21830E+003   -1.40912E+005    2.08005E+005    2.63456E+004   -1.45073E+005   -9.53189E+003    2.01705E+004   -8.96754E+004    5.21279E+004    7.04688E+004   -1.54765E+004
            5676    1.40764E+005    4.74847E+004   -1.10770E+005    4.67839E+002   -1.10770E+005    1.58255E+005    2.09391E+004   -1.21108E+005   -1.04856E+004    1.41240E+004   -6.64557E+004    4.04244E+004    5.37841E+004   -1.93065E+004
            5677    1.65879E+005    6.66696E+004   -1.23017E+005   -5.15099E+003   -1.23017E+005    1.89686E+005    2.04994E+004   -1.22796E+005   -1.54946E+004    2.49516E+004   -7.09552E+004    5.85454E+004    4.74453E+004   -3.42780E+004
            5678    2.19715E+005    8.85840E+004   -1.63385E+005   -1.17415E+004   -1.63385E+005    2.51969E+005    2.88476E+004   -1.53947E+005   -2.03215E+004    3.66152E+004   -1.02836E+005    7.41686E+004    6.82906E+004   -3.17928E+004
            5679    2.83054E+005    9.22470E+004   -2.31129E+005   -2.83253E+004   -2.31129E+005    3.23376E+005    5.57356E+004   -2.12564E+005   -3.94382E+004    2.72297E+004   -1.54998E+005    8.65291E+004    9.96588E+004   -2.80408E+004
            5680    3.29259E+005    9.04435E+004   -2.83998E+005   -3.97109E+004   -2.83998E+005    3.74442E+005    7.77552E+004   -2.61181E+005   -5.76528E+004    1.26961E+004   -1.88309E+005    9.27222E+004    1.28806E+005   -2.33426E+004
            5681    3.85683E+005    7.48103E+004   -3.61091E+005   -6.41215E+004   -3.61091E+005    4.35902E+005    1.16801E+005   -3.21687E+005   -8.48891E+004   -2.15763E+004   -2.43937E+005    9.02471E+004    1.67664E+005   -1.42628E+004
            5682    4.39265E+005    5.68405E+004   -4.39085E+005   -9.89425E+004   -4.39085E+005    4.95926E+005    1.60396E+005   -3.68958E+005   -1.19602E+005   -6.45252E+004   -2.97060E+005    8.70038E+004    2.04820E+005   -5.53663E+003
            5683    5.03692E+005    4.51093E+004   -5.25224E+005   -1.41340E+005   -5.25224E+005    5.70334E+005    2.07152E+005   -4.14639E+005   -1.58356E+005   -1.08135E+005   -3.54965E+005    8.81571E+004    2.44453E+005    4.70981E+003
            5684    4.53988E+005    6.90960E+003   -5.02238E+005   -1.39579E+005   -5.02238E+005    5.09147E+005    2.11636E+005   -3.95320E+005   -1.56800E+005   -1.43109E+005   -3.34998E+005    3.62431E+004    2.34998E+005   -2.65262E+004
            5685    4.10529E+005   -1.78261E+004   -4.81591E+005   -1.64709E+005   -4.81591E+005    4.63765E+005    2.21375E+005   -3.43470E+005   -1.67092E+005   -1.68386E+005   -3.28648E+005    7.14901E+003    2.09785E+005   -5.90421E+004
            5686    3.93678E+005    2.75877E+004   -4.15057E+005   -1.04113E+005   -4.15057E+005    4.42644E+005    1.63861E+005   -3.38511E+005   -1.15953E+005   -1.09465E+005   -2.66165E+005    3.70994E+004    2.03856E+005   -2.94493E+004
            5687    3.64185E+005    9.97602E+003   -4.03936E+005   -1.32650E+005   -4.03936E+005    4.13912E+005    1.75537E+005   -2.90563E+005   -1.29612E+005   -1.37087E+005   -2.59911E+005    6.87432E+003    1.87819E+005   -5.94457E+004
            5688    3.26105E+005    3.17845E+004   -3.39842E+005   -1.01448E+005   -3.39842E+005    3.71627E+005    1.36502E+005   -2.52997E+005   -9.94329E+004   -1.06267E+005   -2.03805E+005    6.89240E+003    1.68983E+005   -5.86225E+004
            5689    2.91096E+005    4.44009E+004   -2.87783E+005   -7.72244E+004   -2.87783E+005    3.32184E+005    1.06869E+005   -2.22076E+005   -7.82870E+004   -8.07363E+004   -1.61583E+005    5.10241E+003    1.51335E+005   -5.54127E+004
            5690    2.67598E+005    6.00655E+004   -2.46727E+005   -6.14361E+004   -2.46727E+005    3.06792E+005    8.26992E+004   -1.88726E+005   -6.12867E+004   -6.29997E+004   -1.23811E+005    1.75343E+003    1.37560E+005   -6.06235E+004
            5691    2.52411E+005    3.49216E+004   -2.47240E+005   -4.29150E+004   -2.47240E+005    2.82162E+005    8.50779E+004   -2.22911E+005   -6.44437E+004   -3.91652E+004   -1.51625E+005    2.87251E+002    1.23818E+005   -4.92436E+004
            5692    3.42046E+005    4.32609E+004   -3.43395E+005   -8.02910E+004   -3.43395E+005    3.86655E+005    1.26808E+005   -2.84928E+005   -8.59040E+004   -8.72135E+004   -2.07307E+005    2.77973E+004    1.79784E+005   -3.22977E+004
            5693    2.97429E+005    6.18197E+004   -2.77009E+005   -5.90099E+004   -2.77009E+005    3.38828E+005    9.13996E+004   -2.31678E+005   -6.00880E+004   -6.48389E+004   -1.49272E+005    1.50018E+004    1.59658E+005   -3.54229E+004
            5694    2.80261E+005    6.27552E+004   -2.53342E+005   -3.52283E+004   -2.53342E+005    3.16098E+005    7.52719E+004   -2.36850E+005   -5.10748E+004   -3.72908E+004   -1.37450E+005    6.00096E+003    1.47123E+005   -3.94196E+004
            5695    2.50480E+005    8.33674E+004   -1.98140E+005    1.07561E+002   -1.98140E+005    2.81507E+005    3.82216E+004   -2.15883E+005   -2.47586E+004    1.48792E+002   -9.00552E+004    8.40044E+002    1.36430E+005   -1.13787E+004
            5696    2.39625E+005    1.83221E+005    1.83221E+005    1.07351E+004   -9.03896E+004    2.73611E+005   -3.45223E+004    1.81355E+005    7.43154E+003    1.05296E+004    8.56056E+004    6.71092E+003    1.30903E+005   -1.14146E+002
            5697    2.14007E+005    1.58087E+005    1.58087E+005   -3.05971E+003   -8.47299E+004    2.42817E+005   -2.34324E+004    1.73347E+005   -1.74681E+003   -4.78283E+003    7.68269E+004    1.03561E+004    1.13954E+005   -5.75524E+003
            5698    1.81175E+005    1.44901E+005    1.44901E+005    1.32192E+003   -5.86589E+004    2.03560E+005   -2.91879E+004    1.56377E+005    1.93597E+003   -2.98680E+002    8.59265E+004    1.09213E+004    9.16711E+004   -1.71880E+003
            5699    1.32281E+005    1.06554E+005    1.06554E+005   -4.49642E+003   -3.97964E+004    1.46350E+005   -2.07537E+004    1.20986E+005    3.98810E+002   -5.19552E+003    6.70578E+004    8.90573E+003    6.42683E+004    2.67979E+003
            5700    2.64110E+005    2.27179E+005    2.27179E+005    2.34874E+004   -7.12277E+004    2.98407E+005   -5.98130E+004    2.20736E+005    2.73720E+004    1.75199E+004    1.34547E+005    2.88349E+004    1.34921E+005   -1.76115E+003
            5701    2.18598E+005    1.75039E+005    1.75039E+005    7.74892E+003   -7.22988E+004    2.47338E+005   -3.68298E+004    1.80914E+005    1.28539E+004   -5.72163E+003    1.03357E+005    3.71255E+004    1.05556E+005   -1.49622E+003
            5702    1.75710E+005    1.39870E+005    1.39870E+005    4.07358E+003   -5.85798E+004    1.98449E+005   -2.84544E+004    1.47233E+005    6.62389E+003   -8.38951E+003    8.71290E+004    3.34715E+004    8.07811E+004    2.65908E+003
            5703    1.25998E+005    9.90160E+004    9.90160E+004   -3.98323E+003   -4.14710E+004    1.40487E+005   -1.78539E+004    1.12385E+005    2.44225E+003   -8.89725E+003    6.00167E+004    2.72333E+004    5.51902E+004    1.17797E+004
            5704    1.47781E+005    1.08341E+005    1.08341E+005   -9.85987E+001   -5.99842E+004    1.68325E+005   -1.60860E+004    1.15313E+005    9.35179E+003   -2.25291E+004    6.14352E+004    5.07779E+004    4.57220E+004    2.85370E+004
            5705    2.02649E+005    1.55222E+005    1.55222E+005    7.78989E+003   -7.58614E+004    2.31084E+005   -2.90503E+004    1.56038E+005    1.69664E+004   -2.67318E+004    9.69161E+004    6.47151E+004    6.97175E+004    2.66201E+004
            5706    2.52456E+005    2.02150E+005    2.02150E+005    1.53830E+004   -8.50699E+004    2.87220E+005   -4.41543E+004    1.99416E+005    2.85680E+004   -2.45873E+004    1.28482E+005    7.37003E+004    9.64516E+004    2.16844E+004
            5707    3.14742E+005    2.77524E+005    2.77524E+005    3.04941E+004   -7.68470E+004    3.54371E+005   -7.70570E+004    2.68672E+005    5.10116E+004   -2.15493E+003    1.82314E+005    7.59126E+004    1.33602E+005    1.98127E+004
            5708    3.63027E+005    3.46072E+005    3.46072E+005    6.00910E+004   -6.23426E+004    4.08415E+005   -1.14607E+005    3.11217E+005    8.07778E+004    3.44479E+004    2.28595E+005    7.43583E+004    1.67232E+005    1.23472E+004
            5709    4.22940E+005    4.22443E+005    4.22443E+005    9.78280E+004   -5.58500E+004    4.78293E+005   -1.54807E+005    3.51336E+005    1.15182E+005    6.45556E+004    2.84684E+005    8.34049E+004    1.98416E+005    2.96020E+003
            5710    4.92087E+005    5.12813E+005    5.12813E+005    1.38279E+005   -4.45115E+004    5.57324E+005   -2.02193E+005    4.04371E+005    1.54031E+005    1.06437E+005    3.46112E+005    8.83364E+004    2.38345E+005   -1.96584E+003
            5711    5.64311E+005    6.08423E+005    6.08423E+005    1.79279E+005   -3.07937E+004    6.39217E+005   -2.52303E+005    4.63209E+005    1.95056E+005    1.52876E+005    4.08976E+005    8.21138E+004    2.83631E+005   -1.02588E+004
            5712    4.98534E+005    5.66698E+005    5.66698E+005    1.67146E+005    8.02825E+003    5.58669E+005   -2.47291E+005    4.35655E+005    1.87119E+005    1.69870E+005    3.84883E+005    3.24413E+004    2.58686E+005    2.45233E+004
            5713    4.44928E+005    5.43389E+005    5.43389E+005    1.93164E+005    4.27501E+004    5.00639E+005   -2.59768E+005    3.81086E+005    1.98608E+005    1.95870E+005    3.84825E+005    6.64850E+003    2.26694E+005    5.31144E+004
            5714    4.36744E+005    4.80174E+005    4.80174E+005    1.33838E+005   -1.04581E+004    4.90632E+005   -2.01185E+005    3.77237E+005    1.47585E+005    1.37723E+005    3.18246E+005    3.48546E+004    2.26597E+005    2.68143E+004
            5715    3.97237E+005    4.63567E+005    4.63567E+005    1.58035E+005    1.45161E+004    4.49051E+005   -2.12039E+005    3.30868E+005    1.59458E+005    1.61605E+005    3.15056E+005    6.74733E+003    2.03113E+005    5.77771E+004
            5716    3.81257E+005    4.03195E+005    4.03195E+005    1.02016E+005   -2.54680E+004    4.28663E+005   -1.59914E+005    3.27889E+005    1.12435E+005    1.07788E+005    2.59521E+005    3.36029E+004    1.97369E+005    3.03690E+004
            5717    3.51793E+005    3.81915E+005    3.81915E+005    1.21114E+005   -1.82000E+004    4.00115E+005   -1.61610E+005    2.78736E+005    1.18551E+005    1.25940E+005    2.40338E+005    6.91883E+003    1.80829E+005    6.19975E+004
            5718    3.22603E+005    3.15955E+005    3.15955E+005    6.83075E+004   -4.88570E+004    3.64812E+005   -1.11802E+005    2.68046E+005    7.27106E+004    7.50573E+004    1.87638E+005    2.84095E+004    1.69289E+005    3.01717E+004
            5719    3.10670E+005    3.16789E+005    3.16789E+005    9.41153E+004   -3.81220E+004    3.54911E+005   -1.24261E+005    2.33451E+005    8.92694E+004    9.77574E+004    1.85755E+005    4.66494E+003    1.61864E+005    5.56432E+004
            5720    2.79984E+005    2.62433E+005    2.62433E+005    6.76121E+004   -5.84162E+004    3.20849E+005   -9.05429E+004    1.99384E+005    6.55205E+004    7.09060E+004    1.35202E+005    3.71229E+003    1.45358E+005    5.90296E+004
            5721    2.54689E+005    2.43860E+005    2.43860E+005    4.25285E+004   -4.24553E+004    2.86316E+005   -8.13112E+004    2.19206E+005    6.07486E+004    4.07381E+004    1.42447E+005    1.24411E+003    1.28275E+005    4.75690E+004
            5722    2.87928E+005    2.66154E+005    2.66154E+005    4.18913E+004   -5.85393E+004    3.24693E+005   -8.31685E+004    2.43567E+005    5.17477E+004    4.70328E+004    1.50725E+005    1.54481E+004    1.51532E+005    3.17022E+004
            5723    2.52995E+005    1.96815E+005    1.96815E+005    1.83320E+003   -8.90718E+004    2.85887E+005   -3.65255E+004    2.11260E+005    1.91422E+004    2.12906E+003    8.83053E+004    3.37233E+003    1.38494E+005    7.77360E+003
            5724    1.10977E+005    4.64885E+004   -7.95993E+004    3.25224E+003   -7.95993E+004    1.26088E+005    9.95285E+003   -8.88227E+004   -6.37678E+003    1.54534E+004   -3.89352E+004    3.92979E+004    2.79367E+004   -3.21155E+004
            5725    9.65182E+004    3.24394E+004   -7.39971E+004    7.84293E+003   -7.39971E+004    1.06437E+005    1.12383E+004   -8.90481E+004   -1.82375E+003    9.25383E+003   -4.11449E+004    2.80093E+004    3.27945E+004   -2.33189E+004
            5726    9.43274E+004    3.05619E+004   -7.25012E+004    9.54508E+003   -7.25012E+004    1.03063E+005    1.07981E+004   -8.88273E+004    1.14240E+003    9.27539E+003   -4.28120E+004    2.07060E+004    3.89525E+004   -1.53182E+004
            5727    9.50335E+004    2.71528E+004   -7.75125E+004    3.37263E+003   -7.75125E+004    1.04665E+005    1.56623E+004   -8.79579E+004   -7.18873E+002    2.25498E+003   -4.85231E+004    1.22502E+004    4.42913E+004   -9.30497E+003
            5728    1.00264E+005    2.80813E+004   -8.20266E+004    4.01240E+003   -8.20266E+004    1.10108E+005    1.66443E+004   -9.34266E+004    1.76140E+002    3.97053E+003   -5.40796E+004    4.18255E+003    4.76523E+004   -2.84227E+003
            5729    7.32509E+004    2.45333E+004   -5.70369E+004    3.12395E+003   -5.70369E+004    8.15702E+004    9.79324E+003   -6.56385E+004   -8.25692E+003    2.50566E+003   -2.36284E+004    2.17620E+004    1.76385E+004   -2.88330E+004
            5730    6.76009E+004    1.48542E+004   -5.55623E+004    8.81815E+003   -5.55623E+004    7.04165E+004    1.06300E+004   -6.69906E+004   -8.10552E+003    1.28342E+003   -2.50679E+004    1.58508E+004    2.39538E+004   -2.28009E+004
            5731    6.68492E+004    1.16115E+004   -5.81406E+004    5.36773E+003   -5.81406E+004    6.97521E+004    1.37204E+004   -6.61884E+004   -9.04504E+003   -2.41959E+003   -2.96967E+004    1.15782E+004    2.91581E+004   -1.74056E+004
            5732    6.82618E+004    1.61897E+004   -5.76138E+004    3.25591E+003   -5.76138E+004    7.38035E+004    1.27227E+004   -6.54193E+004   -6.27022E+003    3.76615E+002   -3.22745E+004    7.11365E+003    3.29895E+004   -1.07967E+004
            5733    6.99205E+004    1.61917E+004   -6.13012E+004   -2.93301E+003   -6.13012E+004    7.74929E+004    1.60142E+004   -6.36253E+004   -7.72084E+003   -3.28572E+003   -3.70360E+004    2.46212E+003    3.56762E+004   -3.79730E+003
            5734    5.13957E+004    2.52632E+004   -3.31441E+004    5.16763E+003   -3.31441E+004    5.84073E+004    9.04421E+002   -4.10464E+004    3.43000E+002    1.95674E+003   -5.01300E+003    6.43648E+003    1.19416E+004   -2.61374E+004
            5735    4.96438E+004    2.32401E+004   -3.24515E+004    7.15639E+003   -3.24515E+004    5.56916E+004    6.84998E+002   -4.31701E+004    2.81226E+003    1.66741E+003   -6.53466E+003    4.93679E+003    1.70507E+004   -2.19183E+004
            5736    4.89870E+004    2.47247E+004   -3.03653E+004    8.29486E+003   -3.03653E+004    5.50900E+004   -8.84727E+002   -4.20829E+004    4.76476E+003    4.43649E+003   -6.54707E+003    3.88102E+003    2.15082E+004   -1.67569E+004
            5737    4.85975E+004    2.34932E+004   -3.20796E+004    2.44935E+003   -3.20796E+004    5.55728E+004    2.04567E+003   -3.59716E+004    2.34823E+003    4.99514E+002   -8.98475E+003    2.36339E+003    2.50013E+004   -1.09370E+004
            5738    4.93488E+004    2.46372E+004   -3.17396E+004    3.62817E+003   -3.17396E+004    5.63768E+004    1.15808E+003   -3.70774E+004    3.29436E+003    3.42404E+003   -1.01926E+004    7.79268E+002    2.71138E+004   -3.84437E+003
            5739    5.74732E+005    6.22079E+005    6.22079E+005    1.84479E+005   -2.88049E+004    6.50884E+005   -2.59251E+005    4.72516E+005    2.00801E+005    1.58439E+005    4.18513E+005   -8.20001E+004    2.89475E+005    1.06803E+004
            5740    5.13674E+005    5.85300E+005    5.85300E+005    1.73221E+005    9.79653E+003    5.75504E+005   -2.56106E+005    4.49346E+005    1.95012E+005    1.75421E+005    3.97886E+005   -3.21907E+004    2.66890E+005   -2.26927E+004
            5741    4.59428E+005    5.66329E+005    5.66329E+005    2.02383E+005    5.00938E+004    5.16235E+005   -2.72935E+005    3.96367E+005    2.09385E+005    2.04743E+005    4.04677E+005   -6.46965E+003    2.34036E+005   -5.02079E+004
            5742    6.40635E+005    7.15383E+005    7.15383E+005    2.26275E+005   -9.78875E+003    7.25172E+005   -3.10623E+005    5.28573E+005    2.42435E+005    2.11489E+005    4.77946E+005   -6.33193E+004    3.33726E+005    1.35981E+004
            5743    5.68782E+005    6.62063E+005    6.62063E+005    2.04080E+005    2.53936E+004    6.36670E+005   -2.97179E+005    4.99520E+005    2.29977E+005    2.05172E+005    4.56388E+005   -2.42572E+004    2.96302E+005   -1.70233E+004
            5744    5.03606E+005    6.39315E+005    6.39315E+005    2.34353E+005    7.54152E+004    5.63900E+005   -3.16361E+005    4.41655E+005    2.44766E+005    2.35624E+005    4.68694E+005   -5.25789E+003    2.56252E+005   -3.77125E+004
            5745    6.89327E+005    7.87603E+005    7.87603E+005    2.59688E+005    7.74750E+003    7.79856E+005   -3.51680E+005    5.71024E+005    2.75677E+005    2.55623E+005    5.23739E+005   -3.42317E+004    3.67203E+005    8.76561E+003
            5746    6.06618E+005    7.14340E+005    7.14340E+005    2.25327E+005    3.55127E+004    6.78827E+005   -3.25060E+005    5.33398E+005    2.53672E+005    2.25590E+005    4.95917E+005   -1.25581E+004    3.16760E+005   -8.70514E+003
            5747    5.34934E+005    6.90359E+005    6.90359E+005    2.56679E+005    9.26050E+004    5.97754E+005   -3.46548E+005    4.73150E+005    2.69129E+005    2.56975E+005    5.13540E+005   -2.66434E+003    2.72170E+005   -1.87023E+004
            5748    7.05851E+005    8.12322E+005    8.12322E+005    2.71273E+005    1.39000E+004    7.98422E+005   -3.65832E+005    5.85376E+005    2.87081E+005    2.71263E+005    5.39151E+005    2.12816E+003    3.78786E+005   -1.30319E+002
            5749    6.17986E+005    7.30365E+005    7.30365E+005    2.32144E+005    3.88306E+004    6.91534E+005   -3.33780E+005    5.43444E+005    2.61048E+005    2.32146E+005    5.08145E+005    1.81264E+003    3.22935E+005    9.77747E+002
            5750    5.44158E+005    7.05436E+005    7.05436E+005    2.63343E+005    9.77070E+004    6.07729E+005   -3.55495E+005    4.82354E+005    2.76339E+005    2.63349E+005    5.26798E+005    4.53400E+002    2.76849E+005    2.51291E+003
            5751    6.84209E+005    7.80514E+005    7.80514E+005    2.56710E+005    6.39754E+003    7.74116E+005   -3.47874E+005    5.66519E+005    2.72526E+005    2.51877E+005    5.19219E+005    3.72204E+004    3.63933E+005   -9.41190E+003
            5752    5.99346E+005    7.04780E+005    7.04780E+005    2.21517E+005    3.41286E+004    6.70652E+005   -3.20142E+005    5.27132E+005    2.49469E+005    2.21895E+005    4.89062E+005    1.54430E+004    3.12730E+005    1.04594E+004
            5753    5.27743E+005    6.79249E+005    6.79249E+005    2.51994E+005    8.93200E+004    5.89929E+005   -3.40188E+005    4.66121E+005    2.64024E+005    2.52523E+005    5.04016E+005    3.59363E+003    2.68459E+005    2.43231E+004
            5754    6.32724E+005    7.05511E+005    7.05511E+005    2.22331E+005   -1.06756E+004    7.16187E+005   -3.05722E+005    5.22203E+005    2.38269E+005    2.06978E+005    4.71920E+005    6.53758E+004    3.28725E+005   -1.23025E+004
            5755    5.55587E+005    6.44619E+005    6.44619E+005    1.97693E+005    2.25712E+004    6.22048E+005   -2.88294E+005    4.87433E+005    2.22332E+005    1.99049E+005    4.43502E+005    2.61785E+004    2.89235E+005    1.86378E+004
            5756    4.91086E+005    6.20481E+005    6.20481E+005    2.26663E+005    7.02371E+004    5.50244E+005   -3.05794E+005    4.29422E+005    2.36264E+005    2.28192E+005    4.52925E+005    5.63200E+003    2.49840E+005    4.10423E+004
            5757    1.00532E+005    8.22672E+004    8.22672E+004   -4.01103E+003   -2.81299E+004    1.10397E+005   -1.67088E+004    9.36843E+004   -1.51571E+002   -3.97466E+003    5.42525E+004   -4.20184E+003    4.77747E+004   -2.82531E+003
            5758    9.50685E+004    7.75327E+004    7.75327E+004   -3.37583E+003   -2.71741E+004    1.04707E+005   -1.56609E+004    8.79845E+004    7.23011E+002   -2.27586E+003    4.85356E+004   -1.23121E+004    4.42911E+004   -9.30450E+003
            5759    9.43002E+004    7.24530E+004    7.24530E+004   -9.62878E+003   -3.05512E+004    1.03004E+005   -1.07577E+004    8.88500E+004   -1.13676E+003   -9.34115E+003    4.27510E+004   -2.07749E+004    3.88505E+004   -1.54503E+004
            5760    9.64512E+004    7.39206E+004    7.39206E+004   -7.82129E+003   -3.24601E+004    1.06381E+005   -1.12131E+004    8.89479E+004    1.86400E+003   -9.20211E+003    4.09773E+004   -2.81099E+004    3.25967E+004   -2.35200E+004
            5761    1.10777E+005    7.93082E+004    7.93082E+004   -3.31270E+003   -4.65712E+004    1.25879E+005   -9.80809E+003    8.85387E+004    6.28981E+003   -1.55554E+004    3.86899E+004   -3.92702E+004    2.78283E+004   -3.20786E+004
            5762    6.99948E+004    6.14165E+004    6.14165E+004    2.96409E+003   -1.61496E+004    7.75662E+004   -1.60770E+004    6.37150E+004    7.76517E+003    3.30886E+003    3.71569E+004   -2.42015E+003    3.57042E+004   -3.76914E+003
            5763    6.83020E+004    5.76776E+004    5.76776E+004   -3.18312E+003   -1.61940E+004    7.38716E+004   -1.27668E+004    6.54262E+004    6.29171E+003   -3.41669E+002    3.23504E+004   -7.04151E+003    3.30346E+004   -1.07492E+004
            5764    6.68327E+004    5.81086E+004    5.81086E+004   -5.33449E+003   -1.16633E+004    6.97720E+004   -1.37036E+004    6.61534E+004    9.00398E+003    2.43701E+003    2.96698E+004   -1.15659E+004    2.91767E+004   -1.73737E+004
            5765    6.74800E+004    5.53902E+004    5.53902E+004   -8.78453E+003   -1.49693E+004    7.03595E+004   -1.05454E+004    6.68379E+004    8.05074E+003   -1.32322E+003    2.49088E+004   -1.58363E+004    2.38263E+004   -2.28620E+004
            5766    7.34138E+004    5.71794E+004    5.71794E+004   -3.00590E+003   -2.46131E+004    8.17926E+004   -9.85348E+003    6.56675E+004    8.32424E+003   -2.42425E+003    2.36604E+004   -2.18687E+004    1.75753E+004   -2.89403E+004
            5767    4.93852E+004    3.17834E+004    3.17834E+004   -3.64435E+003   -2.46286E+004    5.64121E+004   -1.17016E+003    3.71648E+004   -3.30389E+003   -3.44050E+003    1.02549E+004   -7.85751E+002    2.71275E+004   -3.81370E+003
            5768    4.86176E+004    3.21012E+004    3.21012E+004   -2.45171E+003   -2.34929E+004    5.55941E+004   -2.05218E+003    3.60042E+004   -2.34975E+003   -5.09595E+002    9.01589E+003   -2.36812E+003    2.50299E+004   -1.08889E+004
            5769    4.90116E+004    3.03830E+004    3.03830E+004   -8.26270E+003   -2.47451E+004    5.51282E+004    8.74935E+002    4.20618E+004   -4.74756E+003   -4.42487E+003    6.54763E+003   -3.85882E+003    2.15074E+004   -1.67902E+004
            5770    4.96587E+004    3.24541E+004    3.24541E+004   -7.08316E+003   -2.32810E+004    5.57351E+004   -6.96638E+002    4.30842E+004   -2.78448E+003   -1.63773E+003    6.51212E+003   -4.88912E+003    1.70788E+004   -2.19251E+004
            5771    5.13854E+004    3.31635E+004    3.31635E+004   -5.18967E+003   -2.52207E+004    5.83841E+004   -9.17717E+002    4.11131E+004   -3.20761E+002   -1.97739E+003    5.05130E+003   -6.46129E+003    1.19959E+004   -2.60960E+004
            5772    3.85400E+005    3.60835E+005    3.60835E+005    6.38696E+004   -7.46874E+004    4.35522E+005   -1.16672E+005    3.21741E+005    8.47868E+004    2.14488E+004    2.43781E+005   -9.00124E+004    1.67586E+005   -1.42592E+004
            5773    3.29290E+005    2.84022E+005    2.84022E+005    3.95772E+004   -9.04251E+004    3.74447E+005   -7.77245E+004    2.61414E+005    5.76771E+004   -1.27516E+004    1.88248E+005   -9.27068E+004    1.28834E+005   -2.34410E+004
            5774    2.82273E+005    2.30423E+005    2.30423E+005    2.81741E+004   -9.20603E+004    3.22483E+005   -5.55122E+004    2.11986E+005    3.93042E+004   -2.73083E+004    1.54541E+005   -8.62810E+004    9.93283E+004   -2.80098E+004
            5775    2.19118E+005    1.62778E+005    1.62778E+005    1.15598E+004   -8.85074E+004    2.51286E+005   -2.86103E+004    1.53502E+005    2.01419E+004   -3.66068E+004    1.02296E+005   -7.40282E+004    6.81277E+004   -3.17074E+004
            5776    1.65233E+005    1.22683E+005    1.22683E+005    5.12293E+003   -6.62388E+004    1.88921E+005   -2.05223E+004    1.22597E+005    1.55045E+004   -2.46753E+004    7.07376E+004   -5.82867E+004    4.72929E+004   -3.42336E+004
            5777    1.41084E+005    1.10876E+005    1.10876E+005   -4.47753E+002   -4.77917E+004    1.58667E+005   -2.08787E+004    1.21176E+005    1.04498E+004   -1.43195E+004    6.65058E+004   -4.05923E+004    5.38643E+004   -1.92639E+004
            5778    1.36765E+005    1.12631E+005    1.12631E+005    1.24882E+003   -4.00141E+004    1.52645E+005   -2.46218E+004    1.21530E+005    1.01570E+004   -5.24917E+003    6.89577E+004   -2.93565E+004    6.09904E+004   -1.09372E+004
            5779    1.36448E+005    1.11836E+005    1.11836E+005   -5.29370E+002   -3.99941E+004    1.51831E+005   -2.37710E+004    1.22587E+005    5.87305E+003   -3.32051E+003    6.87604E+004   -1.72888E+004    6.59467E+004   -4.35561E+003
            5780    1.40960E+005    1.18648E+005    1.18648E+005    3.10005E+003   -3.84052E+004    1.57053E+005   -2.77809E+004    1.26073E+005    6.55461E+003    2.76242E+003    7.40256E+004   -5.87826E+003    7.05699E+004   -1.03141E+003
            5781    1.84072E+005    1.42042E+005    1.42042E+005    5.34884E+003   -6.72618E+004    2.09304E+005   -2.67096E+004    1.46206E+005    9.80926E+003   -2.01369E+004    9.04564E+004   -5.23528E+004    7.09908E+004   -1.55489E+004
            5782    1.72638E+005    1.32009E+005    1.32009E+005    8.94373E+002   -6.35880E+004    1.95597E+005   -2.31052E+004    1.41463E+005    3.09040E+003   -1.50215E+004    8.12469E+004   -3.67275E+004    7.72011E+004   -2.88423E+003
            5783    1.68444E+005    1.31953E+005    1.31953E+005    1.85817E+003   -5.83132E+004    1.90266E+005   -2.51661E+004    1.41030E+005    1.20942E+003   -3.79767E+003    7.80865E+004   -2.14673E+004    8.29994E+004    1.15433E+003
            5784    1.72999E+005    1.32597E+005    1.32597E+005   -4.12990E+003   -6.18936E+004    1.94490E+005   -2.21911E+004    1.48861E+005   -3.38639E+003   -5.02598E+003    7.49855E+004   -7.31856E+003    8.84710E+004    2.10065E+003
            5785    2.42347E+005    1.99703E+005    1.99703E+005    1.59870E+004   -7.49616E+004    2.74665E+005   -4.69096E+004    1.98094E+005    2.25447E+004   -1.04547E+004    1.28639E+005   -5.84807E+004    1.03812E+005   -9.92321E+003
            5786    2.27504E+005    1.88357E+005    1.88357E+005    1.36928E+004   -6.89090E+004    2.57266E+005   -4.43802E+004    1.89056E+005    1.65095E+004   -4.61960E+002    1.17093E+005   -3.93527E+004    1.08012E+005    1.04275E+002
            5787    2.16436E+005    1.71365E+005    1.71365E+005    6.39053E+003   -7.37014E+004    2.45066E+005   -3.46847E+004    1.78198E+005    6.37590E+003   -1.62533E+002    9.78407E+004   -2.16348E+004    1.09936E+005    7.65311E+003
            5788    2.13281E+005    1.62132E+005    1.62132E+005    4.80119E+003   -8.06184E+004    2.42751E+005   -2.87717E+004    1.67754E+005    6.60738E+001    4.08463E+003    8.21645E+004   -7.01923E+003    1.13835E+005    3.62849E+003
            5789    2.87368E+005    2.51888E+005    2.51888E+005    2.43842E+004   -7.10571E+004    3.22945E+005   -6.84049E+004    2.47750E+005    4.03799E+004    5.03029E+003    1.59805E+005   -6.11897E+004    1.30421E+005   -1.39638E+004
            5790    2.55932E+005    2.15512E+005    2.15512E+005    1.90215E+004   -7.38998E+004    2.89412E+005   -5.35447E+004    2.12682E+005    2.48906E+004    9.57312E+003    1.26170E+005   -3.55227E+004    1.28665E+005    1.66820E+003
            5791    2.37083E+005    1.91555E+005    1.91555E+005    1.26601E+004   -7.73519E+004    2.68907E+005   -4.22877E+004    1.92585E+005    1.48021E+004    9.93592E+003    1.02125E+005   -1.82807E+004    1.25313E+005    2.69394E+003
            5792    2.31107E+005    1.66611E+005    1.66611E+005   -2.48707E+003   -9.67250E+004    2.63336E+005   -2.24664E+004    1.79544E+005   -5.18251E+002   -2.90199E+003    7.08194E+004   -5.72259E+003    1.26521E+005    2.87634E+003
            5793    3.30674E+005    3.15887E+005    3.15887E+005    5.50987E+004   -5.60379E+004    3.71925E+005   -1.04983E+005    2.83849E+005    6.38183E+004    5.09720E+004    2.00158E+005   -4.95394E+004    1.64069E+005   -1.55164E+004
            5794    2.89699E+005    2.66783E+005    2.66783E+005    4.02846E+004   -5.96540E+004    3.26437E+005   -8.24714E+004    2.46176E+005    4.36617E+004    4.26222E+004    1.61130E+005   -2.52999E+004    1.49669E+005   -1.71331E+004
            5795    2.66401E+005    2.25137E+005    2.25137E+005    1.63757E+004   -7.49062E+004    3.00043E+005   -5.55353E+004    2.26990E+005    2.53893E+004    1.66109E+004    1.24606E+005   -1.19713E+004    1.40996E+005   -6.00851E+003
            5796    2.46948E+005    1.88308E+005    1.88308E+005    1.02413E+004   -9.36055E+004    2.81913E+005   -3.49812E+004    1.87434E+005    1.14199E+004    1.03679E+004    8.31559E+004   -3.17578E+003    1.36250E+005   -3.57005E+003
            5797    2.50671E+005    1.97946E+005    1.97946E+005   -4.29382E+001   -8.39039E+004    2.81850E+005   -3.79998E+004    2.15542E+005    2.44215E+004   -6.06092E+001    8.96385E+004   -9.24017E+002    1.36643E+005   -1.11114E+004
            5798    2.52301E+005    2.46695E+005    2.46695E+005    4.26814E+004   -3.54217E+004    2.82117E+005   -8.46516E+004    2.22562E+005    6.40718E+004    3.89379E+004    1.50945E+005   -1.98269E+002    1.23968E+005   -4.89547E+004
            5799    2.80170E+005    2.53241E+005    2.53241E+005    3.50433E+004   -6.27094E+004    3.15950E+005   -7.51917E+004    2.36975E+005    5.10017E+004    3.70368E+004    1.37536E+005   -5.89170E+003    1.47068E+005   -3.92109E+004
            5800    2.67816E+005    2.46850E+005    2.46850E+005    6.14131E+004   -6.01930E+004    3.07043E+005   -8.26901E+004    1.88871E+005    6.12641E+004    6.30140E+004    1.23792E+005   -1.79771E+003    1.37695E+005   -6.06428E+004
            5801    2.97189E+005    2.76595E+005    2.76595E+005    5.88515E+004   -6.19778E+004    3.38572E+005   -9.11561E+004    2.31361E+005    5.99052E+004    6.46656E+004    1.48898E+005   -1.48787E+004    1.59532E+005   -3.55330E+004
            5802    2.91070E+005    2.87862E+005    2.87862E+005    7.74567E+004   -4.43182E+004    3.32180E+005   -1.07000E+005    2.21826E+005    7.83843E+004    8.09428E+004    1.61674E+005   -5.05719E+003    1.51387E+005   -5.52572E+004
            5803    3.42016E+005    3.43400E+005    3.43400E+005    8.02992E+004   -4.32147E+004    3.86615E+005   -1.26828E+005    2.84931E+005    8.59202E+004    8.71979E+004    2.07367E+005   -2.77382E+004    1.79769E+005   -3.22505E+004
            5804    3.26057E+005    3.39742E+005    3.39742E+005    1.01473E+005   -3.18486E+004    3.71590E+005   -1.36455E+005    2.52811E+005    9.93906E+004    1.06290E+005    2.03685E+005   -6.87468E+003    1.68968E+005   -5.86389E+004
            5805    3.64676E+005    4.04698E+005    4.04698E+005    1.32926E+005   -9.74400E+003    4.14442E+005   -1.75960E+005    2.91141E+005    1.29956E+005    1.37360E+005    2.60564E+005   -6.88558E+003    1.88047E+005   -5.94857E+004
            5806    4.11570E+005    4.83357E+005    4.83357E+005    1.65451E+005    1.84768E+004    4.64880E+005   -2.22428E+005    3.44637E+005    1.67919E+005    1.69123E+005    3.30244E+005   -7.17430E+003    2.10277E+005   -5.89657E+004
            5807    3.93921E+005    4.15426E+005    4.15426E+005    1.04373E+005   -2.75178E+004    4.42944E+005   -1.64094E+005    3.38618E+005    1.16151E+005    1.09727E+005    2.66402E+005   -3.71617E+004    2.03999E+005   -2.94548E+004
            5808    4.54634E+005    5.03258E+005    5.03258E+005    1.40199E+005   -6.65084E+003    5.09909E+005   -2.12269E+005    3.95746E+005    1.57310E+005    1.43743E+005    3.35753E+005   -3.60161E+004    2.35399E+005   -2.65549E+004
            5809    5.02768E+005    5.24011E+005    5.24011E+005    1.40994E+005   -4.53197E+004    5.69330E+005   -2.06562E+005    4.13648E+005    1.57891E+005    1.07644E+005    3.54150E+005   -8.82988E+004    2.43869E+005    4.66680E+003
            5810    4.38591E+005    4.38397E+005    4.38397E+005    9.86760E+004   -5.67397E+004    4.95137E+005   -1.60111E+005    3.68526E+005    1.19341E+005    6.43408E+004    2.96651E+005   -8.69372E+004    2.04430E+005   -5.69799E+003
            5811    3.11666E+005    9.14534E+004   -2.61288E+005   -2.31459E+004   -2.61288E+005    3.52742E+005    6.43270E+004   -2.57420E+005   -4.65324E+004    2.48569E+003   -1.48934E+005   -7.94384E+004    1.40816E+005    1.64144E+004
            5812    2.51603E+005    9.26912E+004   -1.94477E+005   -1.27520E+004   -1.94477E+005    2.87169E+005    3.81794E+004   -1.91489E+005   -2.63875E+004    2.04333E+004   -1.08584E+005   -7.79462E+004    1.02195E+005    1.77846E+004
            5813    2.02022E+005    8.16221E+004   -1.49140E+005   -4.18238E+003   -1.49140E+005    2.30762E+005    2.39000E+004   -1.52087E+005   -1.67784E+004    2.36515E+004   -7.85732E+004   -6.92544E+004    7.52660E+004    2.21967E+004
            5814    1.52773E+005    6.29336E+004   -1.11042E+005    1.22496E+003   -1.11042E+005    1.73975E+005    1.56277E+004   -1.19474E+005   -1.01748E+004    1.82431E+004   -5.49514E+004   -5.53196E+004    5.24573E+004    2.46204E+004
            5815    1.36437E+005    4.52991E+004   -1.07719E+005    1.25771E+003   -1.07719E+005    1.53018E+005    2.03875E+004   -1.18790E+005   -8.14771E+003    4.67603E+003   -5.76907E+004   -2.83049E+004    6.50057E+004    9.66202E+003
            5816    1.44873E+005    4.62787E+004   -1.16395E+005   -1.27969E+003   -1.16395E+005    1.62674E+005    2.37987E+004   -1.25416E+005   -6.35920E+003   -8.10366E+002   -6.42266E+004   -9.19921E+003    7.53240E+004    2.04600E+003
            5817    1.72708E+005    6.78018E+004   -1.28054E+005    2.40728E+003   -1.28054E+005    1.95856E+005    1.92818E+004   -1.40500E+005   -6.28245E+003    1.22509E+004   -6.38137E+004   -3.44790E+004    8.47062E+004    2.36377E+003
            5818    1.80210E+005    7.05634E+004   -1.33908E+005    1.78596E+003   -1.33908E+005    2.04471E+005    2.05194E+004   -1.45965E+005   -2.02852E+003    2.88061E+003   -6.24103E+004   -1.12804E+004    9.68253E+004   -8.34525E+002
            5819    2.21753E+005    7.75087E+004   -1.74147E+005   -7.37572E+003   -1.74147E+005    2.51656E+005    3.46713E+004   -1.79314E+005   -1.56881E+004    3.46259E+003   -9.17884E+004   -3.65224E+004    1.11873E+005   -1.88647E+003
            5820    2.18366E+005    9.00016E+004   -1.59181E+005   -1.20779E+003   -1.59181E+005    2.49183E+005    2.34625E+004   -1.66629E+005   -1.97842E+003    7.05694E+001   -6.84798E+004   -9.79339E+003    1.19385E+005   -4.99598E+003
            5821    2.59874E+005    8.45815E+004   -2.10356E+005   -1.50012E+004   -2.10356E+005    2.94938E+005    4.69253E+004   -2.10013E+005   -2.69216E+004   -1.09108E+004   -1.02944E+005   -2.73792E+004    1.39079E+005   -1.16772E+003
            5822    2.37603E+005    1.02213E+005   -1.70334E+005   -6.78507E+003   -1.70334E+005    2.72547E+005    2.49687E+004   -1.65564E+005   -7.16065E+003   -6.74601E+003   -6.09994E+004   -4.96780E+003    1.33491E+005    4.84586E+002
            5823    2.43346E+005    9.44566E+004   -1.82521E+005   -3.04847E+003   -1.82521E+005    2.76978E+005    3.03710E+004   -1.91343E+005   -1.57140E+004   -3.22280E+003   -7.21763E+004   -2.05252E+003    1.35402E+005    7.17134E+003
            5824    2.46084E+005    6.06066E+004   -2.18541E+005   -3.29790E+004   -2.18541E+005    2.79148E+005    6.36378E+004   -1.99714E+005   -4.69624E+004   -3.19942E+004   -1.11957E+005   -5.85950E+002    1.29792E+005    3.91473E+004
            5825    2.76073E+005    6.94645E+004   -2.43767E+005   -3.58593E+004   -2.43767E+005    3.13231E+005    7.00538E+004   -2.23658E+005   -4.63026E+004   -3.95485E+004   -1.24310E+005   -1.29504E+004    1.49461E+005    2.60743E+004
            5826    2.72174E+005    7.64525E+004   -2.36470E+005   -5.47517E+004   -2.36470E+005    3.12923E+005    7.15898E+004   -1.77036E+005   -5.25892E+004   -5.62887E+004   -1.05891E+005   -1.88762E+003    1.45901E+005    5.01624E+004
            5827    2.96504E+005    5.60054E+004   -2.83779E+005   -7.74933E+004   -2.83779E+005    3.39784E+005    1.01756E+005   -2.11088E+005   -7.61082E+004   -7.94772E+004   -1.49681E+005   -3.25399E+003    1.59363E+005    4.66080E+004
            5828    3.35333E+005    4.38348E+004   -3.39051E+005   -9.76390E+004   -3.39051E+005    3.82886E+005    1.30952E+005   -2.53849E+005   -9.91935E+004   -1.01374E+005   -1.92288E+005   -6.95479E+003    1.78834E+005    5.12850E+004
            5829    3.82941E+005    2.52135E+004   -4.10277E+005   -1.26159E+005   -4.10277E+005    4.35490E+005    1.70407E+005   -3.03766E+005   -1.30759E+005   -1.29281E+005   -2.51182E+005   -7.62451E+003    2.04297E+005    4.68190E+004
            5830    4.34551E+005    1.31910E+004   -4.79898E+005   -1.52845E+005   -4.79898E+005    4.93089E+005    2.06517E+005   -3.51750E+005   -1.59589E+005   -1.55410E+005   -3.04554E+005   -7.96044E+003    2.32065E+005    4.25956E+004
            5831    3.14462E+005    6.73983E+004   -2.89968E+005   -5.55813E+004   -2.89968E+005    3.57367E+005    9.27171E+004   -2.51108E+005   -6.41460E+004   -6.10830E+004   -1.52922E+005   -2.74775E+004    1.69892E+005    2.49605E+004
            5832    3.72526E+005    5.15813E+004   -3.70010E+005   -8.52444E+004   -3.70010E+005    4.21591E+005    1.34558E+005   -3.07855E+005   -9.84724E+004   -9.00631E+004   -2.15137E+005   -3.36208E+004    1.99006E+005    2.52450E+004
            5833    4.27733E+005    4.22881E+004   -4.41496E+005   -1.13463E+005   -4.41496E+005    4.83784E+005    1.70890E+005   -3.54958E+005   -1.28699E+005   -1.16832E+005   -2.67139E+005   -3.54714E+004    2.28527E+005    2.27825E+004
            5834    4.87884E+005    2.97237E+004   -5.21138E+005   -1.43511E+005   -5.21138E+005    5.50862E+005    2.11642E+005   -4.09578E+005   -1.62011E+005   -1.45931E+005   -3.26984E+005   -3.36280E+004    2.60230E+005    2.12236E+004
            5835    5.43807E+005    8.00674E+004   -5.39686E+005   -1.42313E+005   -5.39686E+005    6.19753E+005    2.00644E+005   -4.21614E+005   -1.58107E+005   -1.20343E+005   -3.23482E+005   -8.32122E+004    2.82651E+005   -9.28063E+003
            5836    4.76583E+005    8.25308E+004   -4.60262E+005   -1.10358E+005   -4.60262E+005    5.42793E+005    1.62697E+005   -3.72194E+005   -1.27378E+005   -8.41178E+004   -2.76593E+005   -8.96532E+004    2.39730E+005   -2.26940E+003
            5837    4.11741E+005    8.43793E+004   -3.83896E+005   -7.85580E+004   -3.83896E+005    4.68275E+005    1.26025E+005   -3.26382E+005   -9.73661E+004   -5.11861E+004   -2.29522E+005   -8.47639E+004    2.01882E+005    1.36854E+003
            5838    3.55927E+005    8.28546E+004   -3.20154E+005   -4.88502E+004   -3.20154E+005    4.03008E+005    9.53831E+004   -2.93052E+005   -7.17635E+004   -2.80976E+004   -1.86288E+005   -7.63896E+004    1.72117E+005    9.68688E+003
            5839    1.02262E+005    3.43795E+004   -7.99826E+004    2.66235E+003   -7.99826E+004    1.14362E+005    1.43136E+004   -9.01568E+004   -2.28278E+003    2.27128E+003   -4.29293E+004   -7.06317E+003    5.28782E+004    4.52637E+003
            5840    9.56460E+004    3.24572E+004   -7.26822E+004    9.16937E+003   -7.26822E+004    1.05139E+005    1.03519E+004   -8.89254E+004   -2.13817E+003    6.32100E+003   -3.52385E+004   -2.03137E+004    4.43613E+004    1.36537E+004
            5841    1.05820E+005    4.07442E+004   -7.80170E+004    6.25952E+003   -7.80170E+004    1.18761E+005    1.03378E+004   -9.18399E+004   -6.74620E+003    9.35250E+003   -3.36196E+004   -3.85500E+004    3.37769E+004    2.51863E+004
            5842    7.64189E+004    2.28193E+004   -6.27296E+004   -1.22294E+003   -6.27296E+004    8.55489E+004    1.37111E+004   -6.70834E+004   -6.90412E+003   -1.88400E+003   -3.23451E+004   -3.85131E+003    4.04923E+004    5.04383E+003
            5843    7.07550E+004    1.85927E+004   -5.80126E+004    4.88666E+003   -5.80126E+004    7.66053E+004    1.15111E+004   -6.76709E+004   -6.93039E+003   -1.32316E+003   -2.62796E+004   -1.17585E+004    3.38205E+004    1.46707E+004
            5844    7.12328E+004    2.12299E+004   -5.50835E+004    9.64949E+003   -5.50835E+004    7.63135E+004    8.06804E+003   -6.90672E+004   -5.96776E+003    2.24454E+003   -2.04809E+004   -2.19606E+004    2.27146E+004    2.36797E+004
            5845    5.65108E+004    3.02039E+004   -3.48179E+004    2.44643E+003   -3.48179E+004    6.50218E+004    7.22521E+002   -3.55979E+004    2.32765E+003    1.98956E+003   -6.48478E+003   -1.48009E+003    3.17949E+004    5.14332E+003
            5846    5.25246E+004    2.71470E+004   -3.27002E+004    5.74209E+003   -3.27002E+004    5.98472E+004   -6.29600E+001   -4.08230E+004    2.40655E+003    2.70176E+003   -4.91943E+003   -3.75212E+003    2.61418E+004    1.42654E+004
            5847    4.92148E+004    2.15140E+004   -3.35350E+004    6.20869E+003   -3.35350E+004    5.50490E+004    1.93743E+003   -4.33547E+004   -8.51901E+002    7.36424E+002   -5.69682E+003   -6.85064E+003    1.66056E+004    2.17591E+004
            5848    4.48653E+005    1.05075E+004   -4.98247E+005   -1.59214E+005   -4.98247E+005    5.08754E+005    2.15651E+005   -3.65168E+005   -1.66869E+005   -1.61576E+005   -3.18507E+005    8.03320E+003    2.39702E+005   -4.04143E+004
            5849    5.02416E+005    2.97886E+004   -5.37467E+005   -1.48541E+005   -5.37467E+005    5.67255E+005    2.18740E+005   -4.21845E+005   -1.67948E+005   -1.50474E+005   -3.37797E+005    3.35259E+004    2.68190E+005   -1.95782E+004
            5850    5.52282E+005    7.86237E+004   -5.50557E+005   -1.45886E+005   -5.50557E+005    6.29180E+005    2.05940E+005   -4.29994E+005   -1.62555E+005   -1.24521E+005   -3.30743E+005    8.23429E+004    2.87678E+005    9.44402E+003
            5851    4.96558E+005    9.10485E+002   -5.61367E+005   -1.83002E+005   -5.61367E+005    5.62277E+005    2.47819E+005   -4.08650E+005   -1.92308E+005   -1.84283E+005   -3.66867E+005    6.47558E+003    2.65669E+005   -3.03697E+004
            5852    5.56316E+005    1.86610E+004   -6.09046E+005   -1.76974E+005   -6.09046E+005    6.27707E+005    2.55786E+005   -4.68987E+005   -1.97916E+005   -1.77935E+005   -3.91508E+005    2.53460E+004    2.97298E+005   -1.48006E+004
            5853    6.11427E+005    7.15296E+004   -6.25034E+005   -1.77040E+005   -6.25034E+005    6.96564E+005    2.43515E+005   -4.76021E+005   -1.92790E+005   -1.64762E+005   -3.72992E+005    6.37325E+004    3.28098E+005    1.16142E+004
            5854    5.30836E+005   -5.76788E+003   -6.06449E+005   -2.00407E+005   -6.06449E+005    6.00681E+005    2.70875E+005   -4.39047E+005   -2.10395E+005   -2.00722E+005   -4.01507E+005    3.40983E+003    2.84366E+005   -1.51970E+004
            5855    5.93551E+005    1.15733E+004   -6.58002E+005   -1.96511E+005   -6.58002E+005    6.69576E+005    2.80980E+005   -5.01034E+005   -2.18130E+005   -1.96751E+005   -4.28058E+005    1.28761E+004    3.17602E+005   -7.66199E+003
            5856    6.54123E+005    6.35313E+004   -6.81467E+005   -2.01221E+005   -6.81467E+005    7.44999E+005    2.73053E+005   -5.10834E+005   -2.16422E+005   -1.97822E+005   -4.04913E+005    3.44133E+004    3.58132E+005    7.44145E+003
            5857    5.41176E+005   -7.56771E+003   -6.19797E+005   -2.05273E+005   -6.19797E+005    6.12229E+005    2.77546E+005   -4.48395E+005   -2.15625E+005   -2.05279E+005   -4.11734E+005   -5.71989E+002    2.89981E+005    1.71261E+003
            5858    6.04979E+005    9.26209E+003   -6.73161E+005   -2.02629E+005   -6.73161E+005    6.82423E+005    2.88843E+005   -5.10885E+005   -2.24428E+005   -2.02630E+005   -4.39470E+005   -1.74462E+003    3.23823E+005    6.89436E+002
            5859    6.70043E+005    6.09670E+004   -7.02112E+005   -2.09939E+005   -7.02112E+005    7.63079E+005    2.83695E+005   -5.23654E+005   -2.24882E+005   -2.09936E+005   -4.16266E+005   -1.32734E+003    3.69342E+005    3.65979E+001
            5860    5.24181E+005   -4.59195E+003   -5.97806E+005   -1.97092E+005   -5.97806E+005    5.93214E+005    2.66497E+005   -4.33212E+005   -2.06941E+005   -1.97587E+005   -3.94962E+005   -4.21214E+003    2.80725E+005    1.90950E+004
            5861    5.86465E+005    1.21350E+004   -6.49363E+005   -1.93089E+005   -6.49363E+005    6.61498E+005    2.76772E+005   -4.95436E+005   -2.14745E+005   -1.93399E+005   -4.22173E+005   -1.62621E+004    3.13580E+005    8.94834E+003
            5862    6.51296E+005    6.42531E+004   -6.77578E+005   -1.99649E+005   -6.77578E+005    7.41831E+005    2.70991E+005   -5.08235E+005   -2.14720E+005   -1.95749E+005   -4.02506E+005   -3.69448E+004    3.56241E+005   -7.79732E+003
            5863    4.84949E+005    2.36318E+003   -5.46889E+005   -1.77835E+005   -5.46889E+005    5.49252E+005    2.40787E+005   -3.98438E+005   -1.86675E+005   -1.79383E+005   -3.56304E+005   -7.10908E+003    2.59346E+005    3.25455E+004
            5864    5.43268E+005    2.01013E+004   -5.92901E+005   -1.71023E+005   -5.92901E+005    6.13002E+005    2.47941E+005   -4.57907E+005   -1.91588E+005   -1.72244E+005   -3.79991E+005   -2.69706E+004    2.90200E+005    1.62904E+004
            5865    6.06029E+005    7.14172E+004   -6.18937E+005   -1.74618E+005   -6.18937E+005    6.90355E+005    2.40713E+005   -4.72275E+005   -1.90505E+005   -1.62037E+005   -3.69597E+005   -6.54840E+004    3.24597E+005   -1.05567E+004
            5866    1.05727E+005    7.79566E+004    7.79566E+004   -6.27056E+003   -4.06909E+004    1.18648E+005   -1.03317E+004    9.17889E+004    6.73729E+003   -9.32817E+003    3.35860E+004    3.85115E+004    3.37109E+004    2.52266E+004
            5867    9.54410E+004    7.25234E+004    7.25234E+004   -9.17747E+003   -3.23794E+004    1.04903E+005   -1.03222E+004    8.87567E+004    2.10984E+003   -6.32082E+003    3.51775E+004    2.01826E+004    4.43026E+004    1.36075E+004
            5868    1.01719E+005    7.95007E+004    7.95007E+004   -2.68981E+003   -3.42609E+004    1.13762E+005   -1.41833E+004    8.96603E+004    2.23458E+003   -2.29633E+003    4.26118E+004    7.02249E+003    5.26117E+004    4.51438E+003
            5869    7.09848E+004    5.49104E+004    5.49104E+004   -9.67060E+003   -2.10929E+004    7.60033E+004   -8.04896E+003    6.88716E+004    5.94653E+003   -2.20261E+003    2.04030E+004    2.18207E+004    2.26508E+004    2.36505E+004
            5870    7.08587E+004    5.80992E+004    5.80992E+004   -4.86305E+003   -1.86343E+004    7.67334E+004   -1.15340E+004    6.77490E+004    6.95415E+003    1.31104E+003    2.63367E+004    1.17688E+004    3.38980E+004    1.46207E+004
            5871    7.62335E+004    6.25630E+004    6.25630E+004    1.26153E+003   -2.27975E+004    8.53604E+004   -1.36757E+004    6.68559E+004    6.90626E+003    1.91973E+003    3.22010E+004    3.82182E+003    4.04182E+004    5.03417E+003
            5872    4.90838E+004    3.33483E+004    3.33483E+004   -6.07970E+003   -2.16260E+004    5.49744E+004   -1.88086E+003    4.29976E+004    7.94704E+002   -7.43732E+002    5.59161E+003    6.66919E+003    1.65761E+004    2.17465E+004
            5873    5.26418E+004    3.28426E+004    3.28426E+004   -5.85231E+003   -2.71027E+004    5.99453E+004    3.74891E+001    4.11849E+004   -2.40085E+003   -2.72880E+003    5.01718E+003    3.86489E+003    2.61840E+004    1.42825E+004
            5874    5.64862E+004    3.47629E+004    3.47629E+004   -2.46640E+003   -3.02325E+004    6.49954E+004   -6.88014E+002    3.55340E+004   -2.35371E+003   -2.00579E+003    6.42354E+003    1.49573E+003    3.17854E+004    5.12959E+003
            5875    2.41083E+005    1.04791E+005   -1.71754E+005   -5.85642E+003   -1.71754E+005    2.76545E+005    2.42730E+004   -1.67891E+005   -9.86872E+003   -5.93745E+003   -5.70127E+004    1.57385E+003    1.36191E+005   -3.90541E+003
            5876    2.35311E+005    1.03122E+005   -1.66290E+005   -1.02206E+003   -1.66290E+005    2.69412E+005    2.13965E+004   -1.70570E+005   -1.34170E+003   -8.00721E+002   -6.20472E+004    4.33653E+003    1.31124E+005    2.33186E+003
            5877    2.08736E+005    9.06368E+004   -1.48252E+005   -1.05770E+003   -1.48252E+005    2.38888E+005    1.95575E+004   -1.52431E+005    9.33141E+000   -6.43947E+002   -5.80379E+004    6.11989E+003    1.15627E+005    2.42291E+003
            5878    1.83831E+005    6.96468E+004   -1.38865E+005   -1.72475E+002   -1.38865E+005    2.08512E+005    2.31303E+004   -1.49299E+005   -2.88226E+003    3.73284E+002   -6.68818E+004    6.54939E+003    9.88942E+004    1.82831E+003
            5879    1.40856E+005    5.01326E+004   -1.08778E+005    6.94420E+002   -1.08778E+005    1.58911E+005    1.93170E+004   -1.18842E+005   -2.09606E+003    9.03996E+002   -5.67588E+004    5.99089E+003    7.43156E+004   -1.05714E+003
            5880    2.57217E+005    8.78804E+004   -2.04143E+005   -1.12016E+004   -2.04143E+005    2.92024E+005    4.24881E+004   -2.07245E+005   -2.42396E+004   -1.16424E+004   -9.15823E+004    9.44575E+003    1.41708E+005   -5.98776E+003
            5881    2.40792E+005    8.51573E+004   -1.89031E+005   -1.19815E+004   -1.89031E+005    2.74189E+005    3.86185E+004   -1.88472E+005   -1.63717E+004   -1.01962E+004   -8.92875E+004    1.59302E+004    1.30889E+005    2.47799E+003
            5882    2.09689E+005    8.30967E+004   -1.55530E+005   -6.86695E+002   -1.55530E+005    2.38627E+005    2.43734E+004   -1.65186E+005   -6.43968E+003    4.42333E+003   -7.11038E+004    2.08416E+004    1.11851E+005    6.65283E+003
            5883    1.79255E+005    6.51385E+004   -1.38275E+005   -3.40557E+003   -1.38275E+005    2.03413E+005    2.55140E+004   -1.45036E+005   -7.65613E+003    8.80207E+002   -6.97660E+004    2.14630E+004    9.36014E+004    1.43392E+003
            5884    1.36054E+005    5.08357E+004   -1.02325E+005    4.53716E+003   -1.02325E+005    1.53161E+005    1.56508E+004   -1.16238E+005   -1.44802E+003    6.88943E+003   -5.23937E+004    1.82376E+004    6.92554E+004   -3.37408E+003
            5885    2.80076E+005    7.58918E+004   -2.41581E+005   -2.94505E+004   -2.41581E+005    3.17473E+005    6.50466E+004   -2.28665E+005   -4.19216E+004   -3.18792E+004   -1.21339E+005    2.33212E+004    1.51585E+005   -1.49630E+004
            5886    2.59544E+005    8.17311E+004   -2.12929E+005   -1.82221E+004   -2.12929E+005    2.94660E+005    4.98066E+004   -2.09150E+005   -2.58316E+004   -1.13068E+004   -1.12281E+005    3.40264E+004    1.35331E+005    1.38818E+003
            5887    2.16685E+005    7.77586E+004   -1.68253E+005   -5.73689E+003   -1.68253E+005    2.46012E+005    3.20771E+004   -1.74555E+005   -1.47879E+004    4.93886E+003   -8.63824E+004    3.91307E+004    1.08674E+005   -6.11286E+002
            5888    1.82517E+005    6.61836E+004   -1.40844E+005   -3.16671E+003   -1.40844E+005    2.07028E+005    2.59423E+004   -1.48196E+005   -1.02853E+004    7.69357E+003   -7.52352E+004    3.65122E+004    8.86651E+004   -2.52001E+003
            5889    1.34040E+005    5.01448E+004   -1.00817E+005    4.23712E+003   -1.00817E+005    1.50962E+005    1.54784E+004   -1.14231E+005   -3.37800E+003    8.92864E+003   -5.19859E+004    3.05168E+004    6.26775E+004   -9.57686E+003
            5890    3.22879E+005    7.75622E+004   -2.87852E+005   -4.10746E+004   -2.87852E+005    3.65415E+005    8.37883E+004   -2.66776E+005   -5.87983E+004   -3.80866E+004   -1.54480E+005    5.05358E+004    1.67874E+005   -1.26271E+004
            5891    2.88620E+005    8.21066E+004   -2.44385E+005   -2.32300E+004   -2.44385E+005    3.26492E+005    6.18363E+004   -2.39251E+005   -3.95045E+004   -6.31529E+003   -1.39689E+005    6.26931E+004    1.37538E+005   -9.94061E+003
            5892    2.32292E+005    8.51743E+004   -1.79189E+005   -7.72178E+003   -1.79189E+005    2.64364E+005    3.39122E+004   -1.82885E+005   -2.09448E+004    1.50595E+004   -9.58514E+004    6.13387E+004    1.04641E+005   -8.54151E+003
            5893    1.91888E+005    6.93672E+004   -1.48747E+005   -5.91420E+003   -1.48747E+005    2.18114E+005    2.84312E+004   -1.52932E+005   -1.67297E+004    1.40027E+004   -8.25664E+004    5.44303E+004    8.19818E+004   -1.24858E+004
            5894    1.38817E+005    5.73442E+004   -1.00005E+005    5.15002E+003   -1.00005E+005    1.57349E+005    1.25036E+004   -1.13356E+005   -4.83883E+003    1.75594E+004   -5.02314E+004    4.38610E+004    5.51872E+004   -1.61574E+004
            5895    1.65460E+005    7.21048E+004   -1.17333E+005   -1.11828E+003   -1.17333E+005    1.89437E+005    1.54487E+004   -1.19947E+005   -1.11098E+004    2.30967E+004   -5.83329E+004    6.32443E+004    5.10424E+004   -2.91319E+004
            5896    2.24235E+005    9.28004E+004   -1.64193E+005   -8.36174E+003   -1.64193E+005    2.56993E+005    2.65847E+004   -1.59288E+005   -1.97181E+004    2.96384E+004   -8.96744E+004    8.01848E+004    7.74115E+004   -2.72771E+004
            5897    2.77877E+005    1.02282E+005   -2.15895E+005   -2.09229E+004   -2.15895E+005    3.18178E+005    4.48454E+004   -2.01057E+005   -3.45724E+004    2.45396E+004   -1.24503E+005    9.22344E+004    1.05171E+005   -2.31920E+004
            5898    3.27156E+005    1.04754E+005   -2.68708E+005   -3.27240E+004   -2.68708E+005    3.73462E+005    6.55591E+004   -2.48453E+005   -4.90493E+004    1.03066E+004   -1.57934E+005    9.76430E+004    1.36095E+005   -1.84472E+004
            5899    3.82317E+005    9.71411E+004   -3.37041E+005   -5.08062E+004   -3.37041E+005    4.34182E+005    9.69019E+004   -3.07221E+005   -7.42769E+004   -1.74639E+004   -1.98965E+005    9.43389E+004    1.76227E+005   -1.21048E+004
            5900    4.27145E+005    8.64635E+004   -3.98797E+005   -7.97132E+004   -3.98797E+005    4.85260E+005    1.30682E+005   -3.42166E+005   -1.01178E+005   -5.13465E+004   -2.39522E+005    8.91548E+004    2.08206E+005   -3.72141E+003
            5901    4.87267E+005    8.43672E+004   -4.70565E+005   -1.12680E+005   -4.70565E+005    5.54932E+005    1.66293E+005   -3.80758E+005   -1.30483E+005   -8.51922E+004   -2.83203E+005    8.93462E+004    2.45708E+005    4.88351E+003
            5902    4.44515E+005    4.07142E+004   -4.61477E+005   -1.18475E+005   -4.61477E+005    5.02191E+005    1.79746E+005   -3.71750E+005   -1.35968E+005   -1.21568E+005   -2.81701E+005    3.74707E+004    2.36849E+005   -2.26991E+004
            5903    3.97073E+005    2.47862E+004   -4.26578E+005   -1.31112E+005   -4.26578E+005    4.51365E+005    1.77635E+005   -3.16313E+005   -1.36633E+005   -1.34537E+005   -2.61734E+005    8.56957E+003    2.11883E+005   -4.77731E+004
            5904    3.84961E+005    5.46524E+004   -3.80974E+005   -8.65613E+004   -3.80974E+005    4.35626E+005    1.37628E+005   -3.18329E+005   -1.01242E+005   -9.10215E+004   -2.20619E+005    3.76048E+004    2.05413E+005   -2.44526E+004
            5905    3.49585E+005    3.89462E+004   -3.59978E+005   -1.07094E+005   -3.59978E+005    3.98924E+005    1.42709E+005   -2.66729E+005   -1.08626E+005   -1.10476E+005   -2.09024E+005    6.92443E+003    1.87108E+005   -4.87865E+004
            5906    3.15398E+005    5.56751E+004   -3.05212E+005   -8.23862E+004   -3.05212E+005    3.60887E+005    1.10641E+005   -2.31107E+005   -8.30455E+004   -8.55312E+004   -1.63347E+005    5.62851E+003    1.69134E+005   -4.93544E+004
            5907    2.83750E+005    6.56357E+004   -2.59569E+005   -6.23882E+004   -2.59569E+005    3.25204E+005    8.54403E+004   -2.01544E+005   -6.39386E+004   -6.44368E+004   -1.27946E+005    3.62636E+003    1.52590E+005   -4.67546E+004
            5908    2.61417E+005    7.76784E+004   -2.22963E+005   -4.91878E+004   -2.22963E+005    3.00641E+005    6.48241E+004   -1.68181E+005   -4.86096E+004   -4.97501E+004   -9.61127E+004    6.61672E+002    1.39368E+005   -5.11970E+004
            5909    2.42905E+005    5.32489E+004   -2.20991E+005   -3.29088E+004   -2.20991E+005    2.74240E+005    6.68835E+004   -2.04013E+005   -5.05731E+004   -3.08513E+004   -1.19226E+005   -4.25895E+001    1.25973E+005   -4.05734E+004
            5910    3.29357E+005    5.99682E+004   -3.14055E+005   -6.74081E+004   -3.14055E+005    3.74023E+005    1.07165E+005   -2.64758E+005   -7.56812E+004   -7.27493E+004   -1.73064E+005    2.68997E+004    1.77524E+005   -2.57134E+004
            5911    2.84266E+005    7.12509E+004   -2.53551E+005   -5.01010E+004   -2.53551E+005    3.24802E+005    7.74670E+004   -2.13080E+005   -5.23078E+004   -5.44141E+004   -1.25679E+005    1.26667E+004    1.55370E+005   -2.98498E+004
            5912    2.66912E+005    7.26061E+004   -2.30684E+005   -3.15671E+004   -2.30684E+005    3.03290E+005    6.32148E+004   -2.13399E+005   -4.22770E+004   -3.26748E+004   -1.14693E+005    3.64918E+003    1.43618E+005   -3.31248E+004
            5913    2.40461E+005    8.95761E+004   -1.83123E+005   -1.52319E+003   -1.83123E+005    2.72699E+005    3.16901E+004   -1.95558E+005   -1.86712E+004   -1.42977E+003   -7.49695E+004    8.56590E+001    1.33010E+005   -1.01476E+004
            5914    2.37674E+005    1.70365E+005    1.70365E+005    6.76729E+003   -1.02263E+005    2.72628E+005   -2.49566E+004    1.65614E+005    7.16929E+003    6.72939E+003    6.09711E+004    4.94388E+003    1.33537E+005    4.92281E+002
            5915    2.18129E+005    1.59013E+005    1.59013E+005    1.16787E+003   -8.98917E+004    2.48905E+005   -2.34297E+004    1.66522E+005    1.96251E+003   -1.18606E+002    6.84451E+004    9.81442E+003    1.19238E+005   -5.00821E+003
            5916    1.79223E+005    1.33346E+005    1.33346E+005   -1.80593E+003   -6.99547E+004    2.03301E+005   -2.05285E+004    1.45463E+005    2.08467E+003   -2.88234E+003    6.23831E+004    1.12384E+004    9.62292E+004   -7.34862E+002
            5917    1.43802E+005    1.15713E+005    1.15713E+005    1.34223E+003   -4.57252E+004    1.61438E+005   -2.37766E+004    1.24617E+005    6.39386E+003    8.99591E+002    6.40363E+004    9.11889E+003    7.47138E+004    2.13234E+003
            5918    2.59662E+005    2.10132E+005    2.10132E+005    1.49622E+004   -8.45717E+004    2.94704E+005   -4.68409E+004    2.09803E+005    2.68548E+004    1.08485E+004    1.02819E+005    2.74425E+004    1.38946E+005   -1.17233E+003
            5919    2.21155E+005    1.73560E+005    1.73560E+005    7.30182E+003   -7.74322E+004    2.50992E+005   -3.44765E+004    1.78736E+005    1.55339E+004   -3.55367E+003    9.14494E+004    3.64744E+004    1.11551E+005   -1.91494E+003
            5920    1.71884E+005    1.27387E+005    1.27387E+005   -2.47508E+003   -6.75286E+004    1.94916E+005   -1.91279E+004    1.39863E+005    6.17096E+003   -1.22165E+004    6.34291E+004    3.43213E+004    8.43076E+004    2.41807E+003
            5921    1.35824E+005    1.07364E+005    1.07364E+005   -1.26660E+003   -4.49195E+004    1.52283E+005   -2.03926E+004    1.18426E+005    8.14738E+003   -4.52282E+003    5.75531E+004    2.80133E+004    6.47673E+004    9.69707E+003
            5922    1.52897E+005    1.11118E+005    1.11118E+005   -1.22145E+003   -6.30023E+004    1.74120E+005   -1.56314E+004    1.19542E+005    1.01867E+004   -1.82521E+004    5.49597E+004    5.54113E+004    5.24373E+004    2.47016E+004
            5923    2.02207E+005    1.49179E+005    1.49179E+005    4.19541E+003   -8.18131E+004    2.30992E+005   -2.38539E+004    1.52039E+005    1.67400E+004   -2.37743E+004    7.85959E+004    6.93894E+004    7.52475E+004    2.22322E+004
            5924    2.51781E+005    1.94599E+005    1.94599E+005    1.27425E+004   -9.27729E+004    2.87372E+005   -3.81894E+004    1.91628E+005    2.63703E+004   -2.04502E+004    1.08648E+005    7.80017E+004    1.02267E+005    1.78055E+004
            5925    3.11485E+005    2.61089E+005    2.61089E+005    2.30897E+004   -9.14480E+004    3.52537E+005   -6.42437E+004    2.57264E+005    4.64359E+004   -2.49430E+003    1.48790E+005    7.93774E+004    1.40754E+005    1.64020E+004
            5926    3.55482E+005    3.19528E+005    3.19528E+005    4.86550E+004   -8.30000E+004    4.02528E+005   -9.50611E+004    2.92557E+005    7.15472E+004    2.77381E+004    1.85898E+005    7.65344E+004    1.71764E+005    9.68602E+003
            5927    4.12276E+005    3.84307E+005    3.84307E+005    7.87155E+004   -8.46086E+004    4.68916E+005   -1.26138E+005    3.26584E+005    9.74829E+004    5.12071E+004    2.29724E+005    8.50684E+004    2.02079E+005    1.38054E+003
            5928    4.77279E+005    4.60979E+005    4.60979E+005    1.10538E+005   -8.26018E+004    5.43580E+005   -1.62972E+005    3.72778E+005    1.27607E+005    8.43031E+004    2.77004E+005    8.96006E+004    2.40160E+005   -2.37121E+003
            5929    5.43691E+005    5.39671E+005    5.39671E+005    1.42143E+005   -7.99006E+004    6.19571E+005   -2.00638E+005    4.21918E+005    1.58094E+005    1.20274E+005    3.23545E+005    8.30956E+004    2.82591E+005   -9.13942E+003
            5930    4.87902E+005    5.21080E+005    5.21080E+005    1.43566E+005   -2.98391E+004    5.50919E+005   -2.11602E+005    4.09423E+005    1.61996E+005    1.45966E+005    3.26844E+005    3.38035E+004    2.60259E+005    2.11509E+004
            5931    4.34260E+005    4.79412E+005    4.79412E+005    1.52516E+005   -1.33321E+004    4.92745E+005   -2.06199E+005    3.51606E+005    1.59329E+005    1.55149E+005    3.04118E+005    8.15281E+003    2.31898E+005    4.26868E+004
            5932    4.27506E+005    4.41139E+005    4.41139E+005    1.13175E+005   -4.23595E+004    4.83499E+005   -1.70652E+005    3.54915E+005    1.28534E+005    1.16526E+005    2.66895E+005    3.57213E+004    2.28352E+005    2.27350E+004
            5933    3.83305E+005    4.10665E+005    4.10665E+005    1.26192E+005   -2.52193E+004    4.35884E+005   -1.70546E+005    3.04188E+005    1.30861E+005    1.29362E+005    2.51414E+005    7.76017E+003    2.04500E+005    4.67806E+004
            5934    3.72502E+005    3.69849E+005    3.69849E+005    8.48711E+004   -5.16537E+004    4.21503E+005   -1.34355E+005    3.08157E+005    9.83173E+004    8.96799E+004    2.15069E+005    3.38054E+004    1.98920E+005    2.52213E+004
            5935    3.36233E+005    3.40349E+005    3.40349E+005    9.80808E+004   -4.35253E+004    3.83874E+005   -1.31635E+005    2.54891E+005    9.97339E+004    1.01827E+005    1.93343E+005    7.01918E+003    1.79320E+005    5.12090E+004
            5936    3.14629E+005    2.90131E+005    2.90131E+005    5.56020E+004   -6.74219E+004    3.57553E+005   -9.27704E+004    2.51268E+005    6.41800E+004    6.10828E+004    1.53048E+005    2.74771E+004    1.69983E+005    2.49083E+004
            5937    2.97004E+005    2.84449E+005    2.84449E+005    7.75921E+004   -5.58740E+004    3.40323E+005   -1.02056E+005    2.11889E+005    7.63559E+004    7.96239E+004    1.50187E+005    3.36224E+003    1.59611E+005    4.66530E+004
            5938    2.72405E+005    2.36749E+005    2.36749E+005    5.48601E+004   -7.64381E+004    3.13188E+005   -7.17238E+004    1.77225E+005    5.26984E+004    5.63747E+004    1.06098E+005    1.85220E+003    1.46005E+005    5.02423E+004
            5939    2.46127E+005    2.18632E+005    2.18632E+005    3.30439E+004   -6.05663E+004    2.79198E+005   -6.37031E+004    1.99739E+005    4.70390E+004    3.20876E+004    1.11983E+005    6.43269E+002    1.29794E+005    3.92659E+004
            5940    2.76219E+005    2.43904E+005    2.43904E+005    3.58404E+004   -6.94811E+004    3.13385E+005   -7.00879E+004    2.23845E+005    4.63351E+004    3.95456E+004    1.24383E+005    1.30090E+004    1.49531E+005    2.60982E+004
            5941    2.43322E+005    1.82637E+005    1.82637E+005    3.17605E+003   -9.43119E+004    2.76949E+005   -3.05005E+004    1.91334E+005    1.58521E+004    3.35063E+003    7.22988E+004    2.02821E+003    1.35383E+005    7.29369E+003
            5942    1.14406E+005    4.68218E+004   -8.27317E+004    4.41998E+003   -8.27317E+004    1.29554E+005    1.04967E+004   -9.41201E+004   -8.39867E+003    1.19506E+004   -3.50419E+004    4.38543E+004    3.31795E+004   -2.79902E+004
            5943    1.02622E+005    3.07145E+004   -8.21718E+004    5.47807E+003   -8.21718E+004    1.12886E+005    1.53264E+004   -9.52581E+004   -1.05380E+004    4.52126E+003   -3.99625E+004    3.06817E+004    4.06659E+004   -2.00867E+004
            5944    1.02029E+005    3.02664E+004   -8.20134E+004    5.02683E+003   -8.20134E+004    1.12280E+005    1.55734E+004   -9.46149E+004   -8.12856E+003    3.12850E+003   -4.17201E+004    2.16411E+004    4.77713E+004   -1.32333E+004
            5945    1.04076E+005    3.09833E+004   -8.50890E+004   -8.77993E+001   -8.50890E+004    1.16072E+005    1.80645E+004   -9.27469E+004   -8.04179E+003   -1.21762E+003   -4.49341E+004    1.32634E+004    5.30906E+004   -7.93230E+003
            5946    1.09327E+005    3.23319E+004   -8.95903E+004   -2.79890E+002   -8.95903E+004    1.21922E+005    1.91794E+004   -9.74486E+004   -7.33429E+003   -3.67936E+002   -4.98360E+004    4.22360E+003    5.69498E+004   -2.45567E+003
            5947    7.24709E+004    2.58099E+004   -5.37829E+004    8.39131E+003   -5.37829E+004    7.95928E+004    6.52721E+003   -6.75158E+004   -4.22894E+003    3.84676E+003   -1.91995E+004    2.40769E+004    1.99738E+004   -2.52048E+004
            5948    6.78359E+004    2.14825E+004   -4.87579E+004    1.63859E+004   -4.87579E+004    7.02404E+004    3.62985E+003   -6.74031E+004    5.97373E+002    5.82865E+003   -1.73156E+004    1.76462E+004    2.60775E+004   -1.98787E+004
            5949    6.90971E+004    2.37100E+004   -5.11958E+004    1.00532E+004   -5.11958E+004    7.49057E+004    5.81086E+003   -6.59573E+004    4.46643E+002    2.83702E+003   -2.07162E+004    1.29865E+004    3.19693E+004   -1.52554E+004
            5950    7.26061E+004    2.74311E+004   -5.33226E+004    6.56741E+003   -5.33226E+004    8.07538E+004    6.44136E+003   -6.53339E+004    6.17090E+002    3.97578E+003   -2.39170E+004    7.95676E+003    3.70623E+004   -9.40314E+003
            5951    7.56435E+004    2.82883E+004   -5.71810E+004    1.14781E+003   -5.71810E+004    8.54694E+004    9.24830E+003   -6.32068E+004   -8.08723E+002    8.29289E+002   -2.77655E+004    2.77847E+003    4.03819E+004   -3.32549E+003
            5952    4.93425E+004    2.14084E+004   -3.41525E+004    4.55614E+003   -3.41525E+004    5.55609E+004    2.72934E+003   -4.20965E+004   -2.87061E+003    2.30629E+002   -5.54802E+003    7.62496E+003    1.46008E+004   -2.30624E+004
            5953    5.10324E+004    1.87868E+004   -3.86805E+004    1.34181E+003   -3.86805E+004    5.74674E+004    6.18396E+003   -4.35230E+004   -6.24023E+003   -2.74054E+003   -9.57111E+003    5.72126E+003    2.11897E+004   -1.93572E+004
            5954    5.38967E+004    2.15969E+004   -3.94971E+004    1.32161E+003   -3.94971E+004    6.10939E+004    5.52620E+003   -4.39991E+004   -5.38108E+003   -1.07694E+003   -1.01206E+004    4.02352E+003    2.67093E+004   -1.47732E+004
            5955    5.65501E+004    2.35522E+004   -4.12476E+004   -1.87213E+003   -4.12476E+004    6.47998E+004    6.52251E+003   -4.03232E+004   -5.35281E+003   -3.13710E+003   -1.10776E+004    2.60198E+003    3.08121E+004   -9.64501E+003
            5956    5.91818E+004    2.54099E+004   -4.23341E+004   -6.81228E+002   -4.23341E+004    6.77440E+004    5.86850E+003   -4.30659E+004   -4.48635E+003   -8.01171E+002   -1.23180E+004    7.95260E+002    3.34791E+004   -3.37913E+003
            5957    5.52090E+005    5.50123E+005    5.50123E+005    1.45676E+005   -7.88564E+004    6.28979E+005   -2.05648E+005    4.29709E+005    1.62316E+005    1.24176E+005    3.30451E+005   -8.25688E+004    2.87486E+005    9.47137E+003
            5958    5.02927E+005    5.38317E+005    5.38317E+005    1.48970E+005   -2.95077E+004    5.67825E+005   -2.19260E+005    4.22308E+005    1.68342E+005    1.50940E+005    3.38498E+005   -3.32440E+004    2.68476E+005   -1.97053E+004
            5959    4.49705E+005    4.99659E+005    4.99659E+005    1.59791E+005   -1.02775E+004    5.09937E+005   -2.16391E+005    3.66083E+005    1.67451E+005    1.62121E+005    3.19600E+005   -7.98579E+003    2.40282E+005   -4.01991E+004
            5960    6.11715E+005    6.25269E+005    6.25269E+005    1.77205E+005   -7.16525E+004    6.96921E+005   -2.43607E+005    4.76015E+005    1.92876E+005    1.64915E+005    3.73031E+005   -6.37839E+004    3.28282E+005    1.16525E+004
            5961    5.56652E+005    6.09477E+005    6.09477E+005    1.76984E+005   -1.85635E+004    6.28040E+005   -2.55966E+005    4.69480E+005    1.98062E+005    1.77943E+005    3.91893E+005   -2.52522E+004    2.97443E+005   -1.47863E+004
            5962    4.97386E+005    5.62453E+005    5.62453E+005    1.83419E+005   -7.51958E+002    5.63205E+005   -2.48373E+005    4.09386E+005    1.92744E+005    1.84679E+005    3.67697E+005   -6.43197E+003    2.66120E+005   -3.01332E+004
            5963    6.54960E+005    6.82197E+005    6.82197E+005    2.01371E+005   -6.37631E+004    7.45960E+005   -2.73268E+005    5.11432E+005    2.16589E+005    1.98024E+005    4.05191E+005   -3.41396E+004    3.58652E+005    7.42100E+003
            5964    5.93728E+005    6.58121E+005    6.58121E+005    1.96412E+005   -1.16315E+004    6.69753E+005   -2.80967E+005    5.01290E+005    2.18117E+005    1.96641E+005    4.28143E+005   -1.29007E+004    3.17679E+005   -7.53850E+003
            5965    5.31118E+005    6.06800E+005    6.06800E+005    2.00497E+005    5.81069E+003    6.00990E+005   -2.71036E+005    4.39344E+005    2.10521E+005    2.00798E+005    4.01789E+005   -3.32998E+003    2.84518E+005   -1.48805E+004
            5966    6.69804E+005    7.01842E+005    7.01842E+005    2.09937E+005   -6.09865E+004    7.62828E+005   -2.83597E+005    5.23316E+005    2.24829E+005    2.09930E+005    4.16033E+005    1.95651E+003    3.69232E+005   -1.00033E+002
            5967    6.04852E+005    6.72997E+005    6.72997E+005    2.02533E+005   -9.27384E+003    6.82270E+005   -2.88752E+005    5.10818E+005    2.24364E+005    2.02535E+005    4.39356E+005    1.75082E+003    3.23750E+005    8.26636E+002
            5968    5.41033E+005    6.19661E+005    6.19661E+005    2.05252E+005    7.59164E+003    6.12070E+005   -2.77502E+005    4.48270E+005    2.15587E+005    2.05258E+005    4.11659E+005    5.62617E+002    2.89901E+005    1.97974E+003
            5969    6.50758E+005    6.76875E+005    6.76875E+005    1.99408E+005   -6.43564E+004    7.41232E+005   -2.70642E+005    5.07708E+005    2.14439E+005    1.95379E+005    4.02108E+005    3.75097E+004    3.55863E+005   -7.93061E+003
            5970    5.86482E+005    6.49311E+005    6.49311E+005    1.93116E+005   -1.22330E+004    6.61544E+005   -2.76731E+005    4.95330E+005    2.14708E+005    1.93435E+005    4.22050E+005    1.61723E+004    3.13623E+005    9.01486E+003
            5971    5.23525E+005    5.97011E+005    5.97011E+005    1.96830E+005    4.53153E+003    5.92480E+005   -2.66124E+005    4.32626E+005    2.06657E+005    1.97341E+005    3.94375E+005    4.26747E+003    2.80367E+005    1.94292E+004
            5972    6.05101E+005    6.18066E+005    6.18066E+005    1.74347E+005   -7.12150E+004    6.89281E+005   -2.40399E+005    4.71682E+005    1.90246E+005    1.61729E+005    3.69223E+005    6.55721E+004    3.24021E+005   -1.04959E+004
            5973    5.43656E+005    5.93263E+005    5.93263E+005    1.71215E+005   -2.02140E+004    6.13477E+005   -2.48088E+005    4.58061E+005    1.91711E+005    1.72409E+005    3.80144E+005    2.70689E+004    2.90439E+005    1.61574E+004
            5974    4.84194E+005    5.45971E+005    5.45971E+005    1.77607E+005   -2.45599E+003    5.48427E+005   -2.40374E+005    3.97655E+005    1.86349E+005    1.79137E+005    3.55635E+005    6.97892E+003    2.58942E+005    3.27282E+004
            5975    1.09605E+005    8.98397E+004    8.98397E+004    2.91343E+002   -3.23877E+004    1.22227E+005   -1.92478E+004    9.77083E+004    7.37435E+003    3.75573E+002    4.99935E+004   -4.24788E+003    5.70892E+004   -2.44099E+003
            5976    1.04082E+005    8.50781E+004    8.50781E+004    7.28079E+001   -3.10023E+004    1.16080E+005   -1.80496E+004    9.27513E+004    8.03963E+003    1.19332E+003    4.49157E+004   -1.33373E+004    5.30766E+004   -7.93531E+003
            5977    1.01896E+005    8.18756E+004    8.18756E+004   -5.13251E+003   -3.02212E+004    1.12097E+005   -1.55073E+004    9.45647E+004    8.11196E+003   -3.21221E+003    4.16221E+004   -2.17385E+004    4.76113E+004   -1.33409E+004
            5978    1.02544E+005    8.20937E+004    8.20937E+004   -5.49789E+003   -3.07023E+004    1.12796E+005   -1.52978E+004    9.51931E+004    1.05414E+004   -4.48460E+003    3.98366E+004   -3.07975E+004    4.04734E+004   -2.02592E+004
            5979    1.14279E+005    8.25614E+004    8.25614E+004   -4.47931E+003   -4.68527E+004    1.29414E+005   -1.04098E+004    9.39953E+004    8.32648E+003   -1.19952E+004    3.48981E+004   -4.38278E+004    3.31108E+004   -2.79833E+004
            5980    7.56848E+004    5.72349E+004    5.72349E+004   -1.14151E+003   -2.82768E+004    8.55117E+004   -9.27217E+003    6.32626E+004    8.03400E+002   -8.29960E+002    2.78431E+004   -2.73558E+003    4.03944E+004   -3.29795E+003
            5981    7.26803E+004    5.34026E+004    5.34026E+004   -6.49446E+003   -2.74545E+004    8.08571E+004   -6.48454E+003    6.53438E+004   -6.00238E+002   -3.93932E+003    2.39932E+004   -7.86486E+003    3.71305E+004   -9.35797E+003
            5982    6.91612E+004    5.12818E+004    5.12818E+004   -9.96839E+003   -2.37232E+004    7.50051E+004   -5.86341E+003    6.59777E+004   -3.89408E+002   -2.77823E+003    2.07579E+004   -1.29673E+004    3.20408E+004   -1.52266E+004
            5983    6.76791E+004    4.86175E+004    4.86175E+004   -1.64196E+004   -2.14255E+004    7.00430E+004   -3.59079E+003    6.72607E+004   -6.01796E+002   -5.82260E+003    1.71968E+004   -1.76481E+004    2.59224E+004   -1.99433E+004
            5984    7.25285E+004    5.37983E+004    5.37983E+004   -8.27467E+003   -2.59268E+004    7.97252E+004   -6.53228E+003    6.74365E+004    4.24450E+003   -3.82081E+003    1.91731E+004   -2.41665E+004    1.98499E+004   -2.52847E+004
            5985    5.92324E+004    4.23990E+004    4.23990E+004    6.74808E+002   -2.53970E+004    6.77961E+004   -5.89227E+003    4.31706E+004    4.50079E+003    7.95192E+002    1.23808E+004   -8.01891E+002    3.35048E+004   -3.35720E+003
            5986    5.65612E+004    4.12613E+004    4.12613E+004    1.86170E+003   -2.35485E+004    6.48099E+004   -6.52483E+003    4.03639E+004    5.34980E+003    3.12665E+003    1.10981E+004   -2.61093E+003    3.08285E+004   -9.60477E+003
            5987    5.38610E+004    3.94460E+004    3.94460E+004   -1.31972E+003   -2.16139E+004    6.10599E+004   -5.50411E+003    4.39324E+004    5.35485E+003    1.06394E+003    1.00935E+004   -4.00112E+003    2.66740E+004   -1.48018E+004
            5988    5.10701E+004    3.86665E+004    3.86665E+004   -1.29247E+003   -1.88712E+004    5.75377E+004   -6.16761E+003    4.34363E+004    6.22137E+003    2.74561E+003    9.53585E+003   -5.66216E+003    2.12378E+004   -1.93586E+004
            5989    4.94081E+004    3.42263E+004    3.42263E+004   -4.61389E+003   -2.13842E+004    5.56105E+004   -2.74272E+003    4.22538E+004    2.88161E+003   -2.45313E+002    5.59185E+003   -7.65763E+003    1.46970E+004   -2.30336E+004
            5990    3.82031E+005    3.36828E+005    3.36828E+005    5.06132E+004   -9.69821E+004    4.33810E+005   -9.68198E+004    3.07285E+005    7.42110E+004    1.74015E+004    1.98847E+005   -9.41301E+004    1.76146E+005   -1.21409E+004
            5991    3.27078E+005    2.68582E+005    2.68582E+005    3.26123E+004   -1.04781E+005    3.73364E+005   -6.54712E+004    2.48468E+005    4.90192E+004   -1.03961E+004    1.57790E+005   -9.76376E+004    1.36053E+005   -1.84875E+004
            5992    2.77166E+005    2.15238E+005    2.15238E+005    2.07350E+004   -1.02121E+005    3.17359E+005   -4.46173E+004    2.00599E+005    3.44157E+004   -2.46481E+004    1.24084E+005   -9.20253E+004    1.04838E+005   -2.32164E+004
            5993    2.23675E+005    1.63712E+005    1.63712E+005    8.25247E+003   -9.26368E+004    2.56348E+005   -2.64424E+004    1.58925E+005    1.95982E+004   -2.95834E+004    8.93125E+004   -8.00043E+004    7.72440E+004   -2.72081E+004
            5994    1.64779E+005    1.16904E+005    1.16904E+005    1.07950E+003   -7.17394E+004    1.88643E+005   -1.54147E+004    1.19623E+005    1.10984E+004   -2.29066E+004    5.80523E+004   -6.29927E+004    5.08379E+004   -2.90786E+004
            5995    1.39196E+005    1.00174E+005    1.00174E+005   -5.11037E+003   -5.76437E+004    1.57818E+005   -1.24734E+004    1.13438E+005    4.83943E+003   -1.77140E+004    5.02948E+004   -4.40713E+004    5.52787E+004   -1.61396E+004
            5996    1.34389E+005    1.01055E+005    1.01055E+005   -4.18589E+003   -5.03265E+004    1.51382E+005   -1.55143E+004    1.14417E+005    3.41188E+003   -8.98222E+003    5.21131E+004   -3.08128E+004    6.27249E+004   -9.66035E+003
            5997    1.36163E+005    1.02425E+005    1.02425E+005   -4.55935E+003   -5.08471E+004    1.53272E+005   -1.56729E+004    1.16378E+005    1.49278E+003   -6.94868E+003    5.24745E+004   -1.84426E+004    6.92416E+004   -3.46157E+003
            5998    1.40914E+005    1.08799E+005    1.08799E+005   -7.09892E+002   -5.01802E+004    1.58979E+005   -1.93029E+004    1.18880E+005    2.09437E+003   -9.25622E+002    5.67398E+004   -6.02174E+003    7.43518E+004   -1.03677E+003
            5999    1.92797E+005    1.49486E+005    1.49486E+005    5.92820E+003   -6.96504E+004    2.19136E+005   -2.85879E+004    1.53731E+005    1.68457E+004   -1.40822E+004    8.30001E+004   -5.46165E+004    8.24094E+004   -1.25030E+004
            6000    1.83308E+005    1.41451E+005    1.41451E+005    3.18751E+003   -6.64765E+004    2.07928E+005   -2.60540E+004    1.48823E+005    1.04123E+004   -7.84069E+003    7.55903E+004   -3.67996E+004    8.89738E+004   -2.52900E+003
            6001    1.79423E+005    1.38433E+005    1.38433E+005    3.54589E+003   -6.51975E+004    2.03630E+005   -2.55938E+004    1.45011E+005    7.75307E+003   -8.11921E+002    6.98402E+004   -2.16605E+004    9.36642E+004    1.45474E+003
            6002    1.83811E+005    1.38899E+005    1.38899E+005    2.17606E+002   -6.95895E+004    2.08488E+005   -2.31756E+004    1.49288E+005    2.92870E+003   -3.34143E+002    6.69322E+004   -6.64608E+003    9.88744E+004    1.77955E+003
            6003    2.33968E+005    1.80750E+005    1.80750E+005    8.10262E+003   -8.55332E+004    2.66283E+005   -3.44399E+004    1.84114E+005    2.13649E+004   -1.47745E+004    9.67291E+004   -6.17170E+004    1.05494E+005   -8.51109E+003
            6004    2.17756E+005    1.69337E+005    1.69337E+005    6.02318E+003   -7.78920E+004    2.47229E+005   -3.24895E+004    1.75410E+005    1.51063E+004   -4.66428E+003    8.70264E+004   -3.94112E+004    1.09196E+005   -7.26312E+002
            6005    2.09579E+005    1.55515E+005    1.55515E+005    5.21037E+002   -8.29359E+004    2.38451E+005   -2.43667E+004    1.65464E+005    6.48325E+003   -4.68451E+003    7.13012E+004   -2.10571E+004    1.11673E+005    6.60771E+003
            6006    2.08266E+005    1.47997E+005    1.47997E+005    9.63951E+002   -9.03251E+004    2.38322E+005   -1.95451E+004    1.52408E+005    1.15751E+001    5.28753E+002    5.80951E+004   -6.23480E+003    1.15319E+005    2.50091E+003
            6007    2.89507E+005    2.45417E+005    2.45417E+005    2.32310E+004   -8.19845E+004    3.27402E+005   -6.22213E+004    2.40471E+005    3.98276E+004    6.38722E+003    1.40449E+005   -6.27106E+004    1.37965E+005   -1.01035E+004
            6008    2.60245E+005    2.13600E+005    2.13600E+005    1.83632E+004   -8.18552E+004    2.95455E+005   -5.00360E+004    2.09720E+005    2.59732E+004    1.13725E+004    1.12762E+005   -3.41555E+004    1.35657E+005    1.45521E+003
            6009    2.40708E+005    1.89102E+005    1.89102E+005    1.22992E+004   -8.50296E+004    2.74132E+005   -3.87906E+004    1.88108E+005    1.65001E+004    1.04521E+004    8.94197E+004   -1.62290E+004    1.30813E+005    2.51321E+003
            6010    2.34775E+005    1.66038E+005    1.66038E+005    1.17990E+003   -1.02765E+005    2.68804E+005   -2.14844E+004    1.70118E+005    1.34555E+003    9.48689E+002    6.21590E+004   -4.42593E+003    1.30793E+005    2.38177E+003
            6011    3.22983E+005    2.87980E+005    2.87980E+005    4.12076E+004   -7.75746E+004    3.65554E+005   -8.38709E+004    2.66742E+005    5.88718E+004    3.82360E+004    1.54505E+005   -5.05191E+004    1.67967E+005   -1.26141E+004
            6012    2.79636E+005    2.41097E+005    2.41097E+005    2.91981E+004   -7.58512E+004    3.16948E+005   -6.48146E+004    2.28452E+005    4.17351E+004    3.16228E+004    1.21086E+005   -2.30913E+004    1.51354E+005   -1.49577E+004
            6013    2.57125E+005    2.03795E+005    2.03795E+005    1.07539E+004   -8.80839E+004    2.91879E+005   -4.21549E+004    2.07422E+005    2.39294E+004    1.11353E+004    9.13999E+004   -9.42638E+003    1.41628E+005   -5.54959E+003
            6014    2.41114E+005    1.71629E+005    1.71629E+005    5.74975E+003   -1.04957E+005    2.76586E+005   -2.41407E+004    1.67830E+005    9.68541E+003    5.83371E+003    5.69029E+004   -1.69149E+003    1.36208E+005   -3.78369E+003
            6015    2.40694E+005    1.82958E+005    1.82958E+005    1.51665E+003   -9.00894E+004    2.73047E+005   -3.14617E+004    1.95257E+005    1.84111E+004    1.43593E+003    7.45381E+004   -1.32343E+002    1.33221E+005   -9.98315E+003
            6016    2.42876E+005    2.20595E+005    2.20595E+005    3.27413E+004   -5.36703E+004    2.74265E+005   -6.65553E+004    2.03714E+005    5.02906E+004    3.06742E+004    1.18701E+005    1.15000E+002    1.26091E+005   -4.03519E+004
            6017    2.66780E+005    2.30561E+005    2.30561E+005    3.14332E+004   -7.25539E+004    3.03115E+005   -6.31467E+004    2.13460E+005    4.21981E+004    3.24824E+004    1.14760E+005   -3.53082E+003    1.43539E+005   -3.29634E+004
            6018    2.61581E+005    2.23085E+005    2.23085E+005    4.91849E+004   -7.77433E+004    3.00828E+005   -6.48421E+004    1.68325E+005    4.86082E+004    4.97857E+004    9.61324E+004   -7.15061E+002    1.39465E+005   -5.12107E+004
            6019    2.84031E+005    2.53172E+005    2.53172E+005    4.99906E+004   -7.13801E+004    3.24552E+005   -7.72607E+004    2.12724E+005    5.21370E+004    5.42832E+004    1.25362E+005   -1.25370E+004    1.55246E+005   -2.99370E+004
            6020    2.83763E+005    2.59657E+005    2.59657E+005    6.25950E+004   -6.55819E+004    3.25239E+005   -8.55567E+004    2.01297E+005    6.40212E+004    6.46149E+004    1.28034E+005   -3.56891E+003    1.52642E+005   -4.66349E+004
            6021    3.29283E+005    3.14041E+005    3.14041E+005    6.74111E+004   -5.98890E+004    3.73930E+005   -1.07188E+005    2.64756E+005    7.56938E+004    7.27382E+004    1.73131E+005   -2.68355E+004    1.77479E+005   -2.56923E+004
            6022    3.15367E+005    3.05134E+005    3.05134E+005    8.23973E+004   -5.57291E+004    3.60863E+005   -1.10601E+005    2.30958E+005    8.30108E+004    8.55397E+004    1.63252E+005   -5.61674E+003    1.69126E+005   -4.93576E+004
            6023    3.50061E+005    3.60641E+005    3.60641E+005    1.07325E+005   -3.88106E+004    3.99452E+005   -1.43052E+005    2.67240E+005    1.08903E+005    1.10716E+005    2.09537E+005   -6.95182E+003    1.87350E+005   -4.88180E+004
            6024    3.98116E+005    4.28091E+005    4.28091E+005    1.31681E+005   -2.44196E+004    4.52511E+005   -1.78451E+005    3.17402E+005    1.37286E+005    1.35097E+005    2.62970E+005   -8.58982E+003    2.12426E+005   -4.76930E+004
            6025    3.85218E+005    3.81330E+005    3.81330E+005    8.67987E+004   -5.46074E+004    4.35937E+005   -1.37840E+005    3.18432E+005    1.01397E+005    9.12589E+004    2.20865E+005   -3.76580E+004    2.05554E+005   -2.44536E+004
            6026    4.45214E+005    4.62461E+005    4.62461E+005    1.19012E+005   -4.05459E+004    5.03007E+005   -1.80309E+005    3.72209E+005    1.36409E+005    1.22120E+005    2.82397E+005   -3.72556E+004    2.37275E+005   -2.27339E+004
            6027    4.86384E+005    4.69527E+005    4.69527E+005    1.12435E+005   -8.44304E+004    5.53957E+005   -1.65844E+005    3.79834E+005    1.30115E+005    8.48229E+004    2.82594E+005   -8.95150E+004    2.45121E+005    4.83361E+003
            6028    4.26408E+005    3.98128E+005    3.98128E+005    7.94915E+004   -8.62699E+004    4.84398E+005   -1.30450E+005    3.41733E+005    1.00966E+005    5.11739E+004    2.39209E+005   -8.90646E+004    2.07773E+005   -3.83548E+003
            6029    3.04903E+005    1.06599E+005   -2.40698E+005   -1.70088E+004   -2.40698E+005    3.47297E+005    5.03693E+004   -2.37845E+005   -3.79713E+004    2.72670E+003   -1.15863E+005   -8.11445E+004    1.43597E+005    1.23604E+004
            6030    2.47370E+005    1.01518E+005   -1.81583E+005   -7.13363E+003   -1.81583E+005    2.83101E+005    2.90664E+004   -1.80667E+005   -2.18262E+004    1.74830E+004   -8.28560E+004   -7.98342E+004    1.06183E+005    1.38777E+004
            6031    2.00393E+005    8.66408E+004   -1.42869E+005   -2.59379E+003   -1.42869E+005    2.29510E+005    1.96074E+004   -1.44353E+005   -1.39198E+004    1.86834E+004   -6.35859E+004   -7.14395E+004    7.91537E+004    1.73372E+004
            6032    1.50547E+005    6.76516E+004   -1.04288E+005    3.86654E+003   -1.04288E+005    1.71939E+005    1.09232E+004   -1.13567E+005   -7.90369E+003    1.60041E+004   -4.08700E+004   -5.76761E+004    5.51439E+004    1.92861E+004
            6033    1.35257E+005    5.58014E+004   -9.75144E+004    4.93626E+003   -9.75144E+004    1.53316E+005    1.22589E+004   -1.10438E+005   -4.69703E+003    6.87181E+003   -3.89515E+004   -3.03801E+004    6.73929E+004    8.09942E+003
            6034    1.43706E+005    5.84316E+004   -1.04616E+005    3.61482E+003   -1.04616E+005    1.63047E+005    1.41897E+004   -1.16432E+005   -3.49800E+003    3.88050E+003   -4.29516E+004   -9.63696E+003    7.84442E+004    1.85344E+003
            6035    1.76976E+005    7.22446E+004   -1.29670E+005   -1.44928E+003   -1.29670E+005    2.01915E+005    1.96250E+004   -1.35370E+005   -8.75721E+003    6.40328E+003   -5.65211E+004   -3.58084E+004    8.98716E+004    1.61120E+003
            6036    1.85114E+005    7.59909E+004   -1.35170E+005   -8.58238E+002   -1.35170E+005    2.11161E+005    2.00124E+004   -1.41925E+005   -5.56571E+003    9.75975E+001   -5.45690E+004   -1.13572E+004    1.01923E+005   -1.18925E+003
            6037    2.19277E+005    8.97044E+004   -1.60639E+005   -2.62338E+003   -1.60639E+005    2.50343E+005    2.45192E+004   -1.66261E+005   -1.32361E+004    5.27052E+003   -6.55920E+004   -3.75944E+004    1.15160E+005   -1.20125E+003
            6038    2.17432E+005    1.01088E+005   -1.48150E+005    2.68294E+003   -1.48150E+005    2.49238E+005    1.47933E+004   -1.53911E+005   -2.05517E+003    3.57265E+003   -4.58975E+004   -9.36887E+003    1.22160E+005   -3.81795E+003
            6039    2.56481E+005    9.42892E+004   -1.98423E+005   -1.30512E+004   -1.98423E+005    2.92713E+005    3.90618E+004   -1.95414E+005   -2.41873E+004   -9.85245E+003   -8.31456E+004   -2.69715E+004    1.40320E+005   -1.25203E+003
            6040    2.34390E+005    1.06069E+005   -1.63372E+005   -6.51582E+003   -1.63372E+005    2.69441E+005    2.12732E+004   -1.53333E+005   -7.76140E+003   -6.47879E+003   -4.95794E+004   -4.36277E+003    1.33013E+005    1.43431E+002
            6041    2.40294E+005    1.06197E+005   -1.69019E+005   -8.62559E+002   -1.69019E+005    2.75216E+005    2.12283E+004   -1.73000E+005   -1.10795E+004   -9.40673E+002   -5.16648E+004   -1.16153E+003    1.35987E+005    5.71904E+003
            6042    2.33176E+005    7.07362E+004   -1.95284E+005   -2.62752E+004   -1.95284E+005    2.66020E+005    5.02744E+004   -1.78478E+005   -3.77096E+004   -2.56492E+004   -8.74643E+004   -1.79862E+002    1.26822E+005    3.10808E+004
            6043    2.71453E+005    8.89052E+004   -2.21174E+005   -2.64499E+004   -2.21174E+005    3.10079E+005    5.29061E+004   -2.04264E+005   -3.67893E+004   -2.91511E+004   -9.27780E+004   -1.16372E+004    1.50951E+005    2.08250E+004
            6044    2.59592E+005    8.63914E+004   -2.12525E+005   -4.37123E+004   -2.12525E+005    2.98917E+005    5.66154E+004   -1.57188E+005   -4.26602E+004   -4.45492E+004   -8.26368E+004   -1.37147E+003    1.42767E+005    3.96179E+004
            6045    2.85258E+005    7.59106E+004   -2.51869E+005   -5.98206E+004   -2.51869E+005    3.27779E+005    7.85929E+004   -1.89311E+005   -5.92718E+004   -6.11176E+004   -1.15389E+005   -2.73343E+003    1.57269E+005    3.69685E+004
            6046    3.21504E+005    6.89065E+004   -2.99529E+005   -7.58653E+004   -2.99529E+005    3.68436E+005    1.02163E+005   -2.28857E+005   -7.81978E+004   -7.87628E+004   -1.49527E+005   -6.80162E+003    1.76344E+005    4.03583E+004
            6047    3.66269E+005    5.76657E+004   -3.60905E+005   -9.91610E+004   -3.60905E+005    4.18571E+005    1.34133E+005   -2.73841E+005   -1.03853E+005   -1.01622E+005   -1.96925E+005   -7.45731E+003    2.00890E+005    3.66996E+004
            6048    4.14700E+005    5.15477E+004   -4.21597E+005   -1.21178E+005   -4.21597E+005    4.73145E+005    1.63743E+005   -3.17146E+005   -1.27562E+005   -1.23193E+005   -2.40472E+005   -7.73030E+003    2.27465E+005    3.32393E+004
            6049    3.08436E+005    8.85012E+004   -2.63875E+005   -4.28962E+004   -2.63875E+005    3.52376E+005    7.27567E+004   -2.31607E+005   -5.37037E+004   -4.71419E+004   -1.17425E+005   -2.70223E+004    1.70582E+005    1.93727E+004
            6050    3.64310E+005    8.34626E+004   -3.31709E+005   -6.54193E+004   -3.31709E+005    4.15172E+005    1.04555E+005   -2.82581E+005   -8.01222E+004   -6.91123E+004   -1.64432E+005   -3.39734E+004    1.99988E+005    1.92864E+004
            6051    4.17636E+005    8.47380E+004   -3.91260E+005   -8.62626E+004   -3.91260E+005    4.75998E+005    1.30928E+005   -3.23499E+005   -1.02214E+005   -8.87757E+004   -2.01795E+005   -3.63447E+004    2.29598E+005    1.70835E+004
            6052    4.75122E+005    8.45471E+004   -4.56575E+005   -1.07713E+005   -4.56575E+005    5.41122E+005    1.59914E+005   -3.71103E+005   -1.26374E+005   -1.09445E+005   -2.43922E+005   -3.45648E+004    2.61621E+005    1.55613E+004
            6053    5.45077E+005    1.29333E+005   -4.94889E+005   -1.12997E+005   -4.94889E+005    6.24222E+005    1.59518E+005   -3.93302E+005   -1.27214E+005   -9.63680E+004   -2.54971E+005   -8.53059E+004    2.90931E+005   -6.85156E+003
            6054    4.75219E+005    1.22947E+005   -4.21034E+005   -8.66220E+004   -4.21034E+005    5.43981E+005    1.28236E+005   -3.45710E+005   -1.01715E+005   -6.65655E+004   -2.16429E+005   -9.19772E+004    2.46318E+005   -1.75236E+003
            6055    4.08013E+005    1.15498E+005   -3.51011E+005   -6.07329E+004   -3.51011E+005    4.66509E+005    9.87488E+004   -3.02707E+005   -7.76819E+004   -3.97712E+004   -1.78793E+005   -8.66824E+004    2.06911E+005    8.81656E+002
            6056    3.52170E+005    1.08156E+005   -2.93294E+005   -3.64208E+004   -2.93294E+005    4.01450E+005    7.38527E+004   -2.72267E+005   -5.66659E+004   -2.05988E+004   -1.44293E+005   -7.81358E+004    1.76454E+005    7.31054E+003
            6057    1.10455E+005    3.83134E+004   -8.65019E+004   -1.37596E+003   -8.65019E+004    1.24815E+005    1.65215E+004   -9.22325E+004   -7.37948E+003   -1.61210E+003   -4.05729E+004   -7.21131E+003    5.96766E+004    3.35951E+003
            6058    1.02168E+005    3.53747E+004   -7.89182E+004    3.54768E+003   -7.89182E+004    1.14293E+005    1.33319E+004   -8.99565E+004   -6.89112E+003    1.16063E+003   -3.42653E+004   -2.16376E+004    5.04419E+004    1.10441E+004
            6059    1.07308E+005    4.29700E+004   -7.79613E+004    5.88502E+003   -7.79613E+004    1.20931E+005    9.70212E+003   -9.11201E+004   -6.91890E+003    6.61406E+003   -2.88015E+004   -4.10640E+004    3.76193E+004    2.04323E+004
            6060    7.91055E+004    3.46596E+004   -5.52900E+004    3.45001E+003   -5.52900E+004    8.99496E+004    5.72681E+003   -6.28261E+004   -7.03199E+002    2.83604E+003   -1.93133E+004   -4.40879E+003    4.36689E+004    4.23221E+003
            6061    7.16182E+004    2.90738E+004   -5.06878E+004    8.10685E+003   -5.06878E+004    7.97616E+004    4.50240E+003   -6.41485E+004   -7.85676E+002    2.64613E+003   -1.53677E+004   -1.28620E+004    3.61759E+004    1.20047E+004
            6062    6.93864E+004    2.36523E+004   -5.07916E+004    1.20829E+004   -5.07916E+004    7.44439E+004    5.01879E+003   -6.71648E+004   -3.42512E+003    3.05755E+003   -1.46888E+004   -2.34164E+004    2.47428E+004    1.90697E+004
            6063    6.44717E+004    2.90641E+004   -4.50937E+004   -2.35139E+003   -4.50937E+004    7.41577E+004    6.12700E+003   -4.11922E+004   -4.41323E+003   -2.62179E+003   -1.13460E+004   -1.33969E+003    3.66746E+004    4.18116E+003
            6064    5.69065E+004    2.46674E+004   -4.03042E+004    6.89008E+002   -4.03042E+004    6.49715E+004    4.98260E+003   -4.31222E+004   -3.94004E+003   -1.69974E+003   -9.30803E+003   -4.05484E+003    3.01808E+004    1.16979E+004
            6065    4.74559E+004    1.84477E+004   -3.39514E+004    6.13366E+003   -3.39514E+004    5.23991E+004    3.12335E+003   -4.36389E+004   -2.56507E+003   -5.89001E+002   -6.21597E+003   -7.66845E+003    1.90836E+004    1.78759E+004
            6066    4.28129E+005    5.07380E+004   -4.37506E+005   -1.26248E+005   -4.37506E+005    4.88244E+005    1.71005E+005   -3.29293E+005   -1.33388E+005   -1.28098E+005   -2.51530E+005    7.76981E+003    2.34890E+005   -3.15300E+004
            6067    4.89466E+005    8.70693E+004   -4.70455E+005   -1.11364E+005   -4.70455E+005    5.57524E+005    1.64917E+005   -3.81813E+005   -1.30625E+005   -1.12697E+005   -2.51428E+005    3.46671E+004    2.69745E+005   -1.41988E+004
            6068    5.54507E+005    1.29711E+005   -5.05216E+005   -1.16139E+005   -5.05216E+005    6.34928E+005    1.63881E+005   -4.01224E+005   -1.30689E+005   -9.99642E+004   -2.60991E+005    8.46906E+004    2.96586E+005    6.94890E+003
            6069    4.72783E+005    4.56670E+004   -4.92922E+005   -1.46393E+005   -4.92922E+005    5.38589E+005    1.97883E+005   -3.68277E+005   -1.54849E+005   -1.47379E+005   -2.91420E+005    6.15082E+003    2.59491E+005   -2.36358E+004
            6070    5.41279E+005    8.80188E+004   -5.28505E+005   -1.31322E+005   -5.28505E+005    6.16524E+005    1.90603E+005   -4.22362E+005   -1.51767E+005   -1.31962E+005   -2.88079E+005    2.60976E+004    2.99408E+005   -1.05167E+004
            6071    6.17140E+005    1.31872E+005   -5.74800E+005   -1.41953E+005   -5.74800E+005    7.06673E+005    1.94960E+005   -4.46203E+005   -1.55618E+005   -1.32764E+005   -2.96499E+005    6.53367E+004    3.38748E+005    8.45681E+003
            6072    5.04640E+005    4.20841E+004   -5.32430E+005   -1.60844E+005   -5.32430E+005    5.74515E+005    2.17063E+005   -3.95847E+005   -1.70197E+005   -1.61082E+005   -3.19911E+005    3.18891E+003    2.77099E+005   -1.17891E+004
            6073    5.77271E+005    8.96150E+004   -5.67961E+005   -1.44639E+005   -5.67961E+005    6.57576E+005    2.07661E+005   -4.50007E+005   -1.65786E+005   -1.44790E+005   -3.12408E+005    1.34753E+004    3.20205E+005   -5.34163E+003
            6074    6.63114E+005    1.31428E+005   -6.27821E+005   -1.62308E+005   -6.27821E+005    7.59249E+005    2.19567E+005   -4.80253E+005   -1.75151E+005   -1.59760E+005   -3.23790E+005    3.54532E+004    3.70246E+005    5.35835E+003
            6075    5.14230E+005    4.10408E+004   -5.44297E+005   -1.65214E+005   -5.44297E+005    5.85338E+005    2.22823E+005   -4.04065E+005   -1.74779E+005   -1.65218E+005   -3.28473E+005   -5.37184E+002    2.82397E+005    1.32019E+003
            6076    5.88413E+005    9.01069E+004   -5.80209E+005   -1.48938E+005   -5.80209E+005    6.70316E+005    2.13013E+005   -4.58331E+005   -1.70115E+005   -1.48938E+005   -3.19987E+005   -1.92251E+003    3.26667E+005    4.72309E+002
            6077    6.80168E+005    1.31515E+005   -6.47231E+005   -1.69566E+005   -6.47231E+005    7.78746E+005    2.28428E+005   -4.92949E+005   -1.82150E+005   -1.69564E+005   -3.33569E+005   -1.54928E+003    3.81938E+005    4.30704E+001
            6078    4.98312E+005    4.24465E+004   -5.24908E+005   -1.58185E+005   -5.24908E+005    5.67354E+005    2.13549E+005   -3.90556E+005   -1.67391E+005   -1.58570E+005   -3.14685E+005   -4.06104E+003    2.73579E+005    1.47872E+004
            6079    5.70295E+005    8.87935E+004   -5.60761E+005   -1.42199E+005   -5.60761E+005    6.49555E+005    2.04722E+005   -4.45146E+005   -1.63367E+005   -1.42399E+005   -3.08400E+005   -1.67204E+004    3.16103E+005    6.30709E+003
            6080    6.59707E+005    1.31437E+005   -6.23920E+005   -1.60862E+005   -6.23920E+005    7.55357E+005    2.17782E+005   -4.77665E+005   -1.73744E+005   -1.57955E+005   -3.21646E+005   -3.78066E+004    3.68044E+005   -5.65958E+003
            6081    4.61625E+005    4.56737E+004   -4.80264E+005   -1.42200E+005   -4.80264E+005    5.25938E+005    1.92263E+005   -3.59119E+005   -1.50386E+005   -1.43396E+005   -2.83009E+005   -6.78929E+003    2.53292E+005    2.53224E+004
            6082    5.28470E+005    8.69311E+004   -5.14991E+005   -1.27150E+005   -5.14991E+005    6.01922E+005    1.85070E+005   -4.12458E+005   -1.47134E+005   -1.27977E+005   -2.80100E+005   -2.80146E+004    2.92076E+005    1.16538E+004
            6083    6.11067E+005    1.31204E+005   -5.68512E+005   -1.39911E+005   -5.68512E+005    6.99716E+005    1.92406E+005   -4.41836E+005   -1.53455E+005   -1.30425E+005   -2.93338E+005   -6.74081E+004    3.34801E+005   -7.65851E+003
            6084    1.07198E+005    7.78994E+004    7.78994E+004   -5.89313E+003   -4.28988E+004    1.20798E+005   -9.70251E+003    9.10681E+004    6.91752E+003   -6.58861E+003    2.87786E+004    4.10270E+004    3.75488E+004    2.04652E+004
            6085    1.02021E+005    7.88361E+004    7.88361E+004   -3.53141E+003   -3.52853E+004    1.14121E+005   -1.33398E+004    8.98502E+004    6.89250E+003   -1.13748E+003    3.42643E+004    2.15100E+004    5.04067E+004    1.10179E+004
            6086    1.09996E+005    8.61360E+004    8.61360E+004    1.38134E+003   -3.81656E+004    1.24302E+005   -1.64506E+004    9.18254E+004    7.34765E+003    1.61852E+003    4.03856E+004    7.17500E+003    5.94345E+004    3.35045E+003
            6087    6.91493E+004    5.06342E+004    5.06342E+004   -1.21173E+004   -2.35003E+004    7.41345E+004   -5.00555E+003    6.69926E+004    3.40691E+003   -3.02282E+003    1.46326E+004    2.32785E+004    2.46762E+004    1.90585E+004
            6088    7.17051E+004    5.07122E+004    5.07122E+004   -8.10429E+003   -2.91647E+004    7.98769E+004   -4.48105E+003    6.41733E+004    7.59787E+002   -2.68128E+003    1.53646E+004    1.28632E+004    3.62454E+004    1.19532E+004
            6089    7.88872E+004    5.50559E+004    5.50559E+004   -3.47022E+003   -3.46573E+004    8.97131E+004   -5.64279E+003    6.25722E+004    6.57564E+002   -2.85831E+003    1.91291E+004    4.37384E+003    4.35650E+004    4.22553E+003
            6090    4.72900E+004    3.37477E+004    3.37477E+004   -5.95725E+003   -1.85699E+004    5.23176E+004   -3.07349E+003    4.32566E+004    2.51502E+003    5.79611E+002    6.12583E+003    7.46301E+003    1.90547E+004    1.78535E+004
            6091    5.70392E+004    4.04794E+004    4.04794E+004   -7.63922E+002   -2.46138E+004    6.50932E+004   -5.03392E+003    4.34894E+004    3.97918E+003    1.70345E+003    9.41911E+003    4.18544E+003    3.02312E+004    1.17188E+004
            6092    6.44794E+004    4.50985E+004    4.50985E+004    2.35310E+003   -2.90682E+004    7.41667E+004   -6.12778E+003    4.11923E+004    4.42391E+003    2.62620E+003    1.13332E+004    1.35600E+003    3.66810E+004    4.17100E+003
            6093    2.37598E+005    1.08765E+005   -1.64487E+005   -6.58803E+003   -1.64487E+005    2.73252E+005    2.07698E+004   -1.52752E+005   -8.31335E+003   -6.62640E+003   -4.73697E+004    9.83807E+002    1.35193E+005   -2.82641E+003
            6094    2.31113E+005    1.12147E+005   -1.53402E+005    2.31583E+003   -1.53402E+005    2.65548E+005    1.29797E+004   -1.53660E+005   -1.36651E+003    2.45522E+003   -4.00278E+004    3.79396E+003    1.31281E+005    1.76642E+003
            6095    2.13864E+005    9.65471E+004   -1.48921E+005   -2.80147E+003   -1.48921E+005    2.45468E+005    1.83917E+004   -1.46708E+005   -3.22310E+003   -2.44466E+003   -4.95072E+004    5.91321E+003    1.20327E+005    2.47593E+003
            6096    1.81117E+005    8.02213E+004   -1.26616E+005    3.58454E+003   -1.26616E+005    2.06837E+005    1.42699E+004   -1.36776E+005   -1.32603E+003    4.03123E+003   -4.55150E+004    6.86620E+003    1.00726E+005    1.51689E+003
            6097    1.48981E+005    5.65683E+004   -1.12818E+005   -2.11723E+003   -1.12818E+005    1.69387E+005    1.94558E+004   -1.18438E+005   -7.06489E+003   -1.92327E+003   -4.93792E+004    6.20279E+003    8.17403E+004   -5.61479E+002
            6098    2.52799E+005    9.62114E+004   -1.92430E+005   -1.04014E+004   -1.92430E+005    2.88642E+005    3.55401E+004   -1.91429E+005   -2.06518E+004   -1.07502E+004   -7.52182E+004    7.83631E+003    1.41461E+005   -4.95178E+003
            6099    2.35283E+005    9.73738E+004   -1.71976E+005   -6.53893E+003   -1.71976E+005    2.69350E+005    2.70470E+004   -1.70910E+005   -1.37678E+004   -5.45452E+003   -6.19187E+004    1.48404E+004    1.31532E+005    1.56572E+003
            6100    2.13825E+005    8.91712E+004   -1.55324E+005   -3.28208E+003   -1.55324E+005    2.44496E+005    2.31451E+004   -1.58488E+005   -8.58574E+003    3.15858E+002   -6.11654E+004    2.01121E+004    1.17067E+005    5.23363E+003
            6101    1.75512E+005    7.51947E+004   -1.25328E+005    3.79822E+002   -1.25328E+005    2.00522E+005    1.65844E+004   -1.31726E+005   -4.69782E+003    3.36759E+003   -4.84230E+004    2.15825E+004    9.50004E+004    8.50663E+002
            6102    1.43418E+005    5.56669E+004   -1.07170E+005    3.63323E+002   -1.07170E+005    1.62837E+005    1.70466E+004   -1.15485E+005   -6.52958E+003    1.85615E+003   -4.64662E+004    1.84913E+004    7.64197E+004   -2.77018E+003
            6103    2.75100E+005    8.84802E+004   -2.25189E+005   -2.48905E+004   -2.25189E+005    3.13669E+005    5.38663E+004   -2.12085E+005   -3.56165E+004   -2.65721E+004   -9.94102E+004    2.26458E+004    1.51698E+005   -1.11946E+004
            6104    2.52729E+005    9.63488E+004   -1.92122E+005   -9.67168E+003   -1.92122E+005    2.88470E+005    3.51482E+004   -1.92193E+005   -2.22737E+004   -4.69395E+003   -7.84768E+004    3.39113E+004    1.36581E+005    1.01508E+003
            6105    2.21306E+005    8.52412E+004   -1.67278E+005   -7.07861E+003   -1.67278E+005    2.52519E+005    2.97050E+004   -1.69041E+005   -1.61907E+004    1.65228E+003   -7.45765E+004    3.95599E+004    1.14763E+005    4.38969E+002
            6106    1.77090E+005    7.66743E+004   -1.25415E+005    2.66036E+003   -1.25415E+005    2.02090E+005    1.53603E+004   -1.35069E+005   -6.59312E+003    1.12591E+004   -5.07467E+004    3.81244E+004    8.93169E+004   -1.95504E+003
            6107    1.41952E+005    5.39712E+004   -1.07047E+005    2.12663E+001   -1.07047E+005    1.61018E+005    1.76847E+004   -1.15244E+005   -9.37037E+003    3.68809E+003   -4.73718E+004    3.18966E+004    7.03153E+004   -7.17931E+003
            6108    3.19221E+005    9.63657E+004   -2.67398E+005   -3.39471E+004   -2.67398E+005    3.63763E+005    6.83263E+004   -2.47801E+005   -4.90972E+004   -3.10922E+004   -1.24789E+005    5.10513E+004    1.69718E+005   -9.21842E+003
            6109    2.82066E+005    9.96438E+004   -2.21428E+005   -1.35049E+004   -2.21428E+005    3.21072E+005    4.50964E+004   -2.21619E+005   -3.24504E+004   -1.52690E+003   -1.01312E+005    6.44732E+004    1.40304E+005   -8.31553E+003
            6110    2.35796E+005    9.23474E+004   -1.77171E+005   -8.95404E+003   -1.77171E+005    2.69518E+005    3.12592E+004   -1.75775E+005   -1.99376E+004    8.70992E+003   -8.25500E+004    6.28407E+004    1.11209E+005   -6.21548E+003
            6111    1.86536E+005    7.96752E+004   -1.33419E+005    3.08047E+002   -1.33419E+005    2.13094E+005    1.78119E+004   -1.40219E+005   -1.08251E+004    1.50667E+004   -5.76772E+004    5.71175E+004    8.28749E+004   -1.04084E+004
            6112    1.44464E+005    5.86130E+004   -1.05616E+005    1.82780E+003   -1.05616E+005    1.64229E+005    1.50583E+004   -1.14999E+005   -9.20793E+003    1.00455E+004   -4.60127E+004    4.57095E+004    6.23404E+004   -1.30248E+004
            6113    1.66252E+005    7.40358E+004   -1.16441E+005   -5.03802E+002   -1.16441E+005    1.90477E+005    1.43031E+004   -1.18899E+005   -1.15682E+004    1.73137E+004   -4.86547E+004    6.66876E+004    5.59392E+004   -2.33064E+004
            6114    2.17944E+005    9.82394E+004   -1.52040E+005   -4.10252E+003   -1.52040E+005    2.50279E+005    1.93009E+004   -1.47380E+005   -1.56697E+004    2.51476E+004   -6.73807E+004    8.30958E+004    7.95987E+004   -2.10245E+004
            6115    2.74387E+005    1.10482E+005   -2.04366E+005   -1.62696E+004   -2.04366E+005    3.14849E+005    3.67178E+004   -1.89568E+005   -2.84438E+004    1.87365E+004   -1.00446E+005    9.50096E+004    1.10214E+005   -1.78766E+004
            6116    3.20525E+005    1.19097E+005   -2.47880E+005   -2.27767E+004   -2.47880E+005    3.66977E+005    5.05199E+004   -2.32313E+005   -4.02976E+004    9.33317E+003   -1.20595E+005    1.00273E+005    1.40282E+005   -1.45880E+004
            6117    3.74071E+005    1.19813E+005   -3.07514E+005   -3.93284E+004   -3.07514E+005    4.27328E+005    7.56765E+004   -2.81217E+005   -5.93053E+004   -1.31377E+004   -1.54586E+005    9.65207E+004    1.79027E+005   -8.56833E+003
            6118    4.23873E+005    1.19445E+005   -3.64871E+005   -6.15020E+004   -3.64871E+005    4.84317E+005    1.02309E+005   -3.17730E+005   -8.05472E+004   -3.97757E+004   -1.86605E+005    9.15692E+004    2.13898E+005   -2.72777E+003
            6119    4.85995E+005    1.25426E+005   -4.30858E+005   -8.86659E+004   -4.30858E+005    5.56284E+005    1.31366E+005   -3.53925E+005   -1.04417E+005   -6.77180E+004   -2.21964E+005    9.17243E+004    2.52608E+005    3.69059E+003
            6120    4.33831E+005    8.58074E+004   -4.08308E+005   -8.98572E+004   -4.08308E+005    4.94115E+005    1.37453E+005   -3.38701E+005   -1.07803E+005   -9.21030E+004   -2.12452E+005    3.83145E+004    2.38127E+005   -1.68501E+004
            6121    3.80104E+005    5.90066E+004   -3.75260E+005   -1.03007E+005   -3.75260E+005    4.34267E+005    1.39753E+005   -2.85296E+005   -1.08352E+005   -1.05686E+005   -2.05223E+005    8.29787E+003    2.08501E+005   -3.74408E+004
            6122    3.76815E+005    8.78827E+004   -3.41578E+005   -6.63327E+004   -3.41578E+005    4.29460E+005    1.06676E+005   -2.91976E+005   -8.20676E+004   -6.97030E+004   -1.68257E+005    3.82325E+004    2.06499E+005   -1.85372E+004
            6123    3.35413E+005    6.66515E+004   -3.17598E+005   -8.34491E+004   -3.17598E+005    3.84250E+005    1.11465E+005   -2.40362E+005   -8.55528E+004   -8.61015E+004   -1.62742E+005    6.82632E+003    1.84422E+005   -3.83494E+004
            6124    3.00491E+005    7.38534E+004   -2.70920E+005   -6.47243E+004   -2.70920E+005    3.44774E+005    8.72637E+004   -2.08037E+005   -6.67177E+004   -6.71319E+004   -1.27942E+005    5.50092E+003    1.65315E+005   -3.87039E+004
            6125    2.69822E+005    7.83444E+004   -2.31623E+005   -4.93612E+004   -2.31623E+005    3.09967E+005    6.75466E+004   -1.80459E+005   -5.13964E+004   -5.07813E+004   -1.00462E+005    3.12103E+003    1.48530E+005   -3.72070E+004
            6126    2.48412E+005    8.59969E+004   -2.00106E+005   -3.92372E+004   -2.00106E+005    2.86103E+005    5.11155E+004   -1.48516E+005   -3.86542E+004   -3.94231E+004   -7.52690E+004    2.25631E+002    1.35977E+005   -4.05240E+004
            6127    2.28721E+005    6.40199E+004   -1.95985E+005   -2.58443E+004   -1.95985E+005    2.60005E+005    5.26032E+004   -1.82121E+005   -3.98403E+004   -2.46654E+004   -9.33041E+004   -2.93141E+002    1.22922E+005   -3.20585E+004
            6128    3.24555E+005    8.77207E+004   -2.83013E+005   -5.01729E+004   -2.83013E+005    3.70733E+005    8.18216E+004   -2.44263E+005   -6.10832E+004   -5.44657E+004   -1.29916E+005    2.65230E+004    1.79561E+005   -2.05101E+004
            6129    2.79906E+005    9.19253E+004   -2.29250E+005   -3.73222E+004   -2.29250E+005    3.21175E+005    5.82156E+004   -1.93482E+005   -4.18769E+004   -4.03947E+004   -9.23751E+004    1.14663E+004    1.56705E+005   -2.34946E+004
            6130    2.60286E+005    9.01678E+004   -2.07556E+005   -2.30676E+004   -2.07556E+005    2.97724E+005    4.68185E+004   -1.91839E+005   -3.29770E+004   -2.35477E+004   -8.39309E+004    2.21616E+003    1.44270E+005   -2.66234E+004
            6131    2.36195E+005    1.01726E+005   -1.68296E+005   -5.44972E+001   -1.68296E+005    2.70022E+005    2.22080E+004   -1.75601E+005   -1.34261E+004    7.40836E+001   -5.32719E+004   -5.95842E+002    1.33268E+005   -8.12542E+003
            6132    2.34458E+005    1.63392E+005    1.63392E+005    6.50196E+003   -1.06128E+005    2.69520E+005   -2.12552E+004    1.53349E+005    7.75451E+003    6.46478E+003    4.95464E+004    4.34894E+003    1.33056E+005    1.36509E+002
            6133    2.17225E+005    1.48053E+005    1.48053E+005   -2.67217E+003   -1.00942E+005    2.48995E+005   -1.48128E+004    1.53836E+005    2.06694E+003   -3.56645E+003    4.59378E+004    9.39182E+003    1.22031E+005   -3.81922E+003
            6134    1.84091E+005    1.34532E+005    1.34532E+005    8.13781E+002   -7.54325E+004    2.09964E+005   -1.99709E+004    1.41391E+005    5.55341E+003   -1.29058E+002    5.44885E+004    1.13322E+004    1.01317E+005   -1.10607E+003
            6135    1.42573E+005    1.03823E+005    1.03823E+005   -3.62809E+003   -5.79200E+004    1.61743E+005   -1.40915E+004    1.15623E+005    3.47943E+003   -3.87214E+003    4.26671E+004    9.55326E+003    7.78124E+004    1.91964E+003
            6136    2.56275E+005    1.98221E+005    1.98221E+005    1.30296E+004   -9.42629E+004    2.92484E+005   -3.89959E+004    1.95201E+005    2.41362E+004    9.80807E+003    8.30433E+004    2.70371E+004    1.40190E+005   -1.26784E+003
            6137    2.18716E+005    1.60145E+005    1.60145E+005    2.55490E+003   -8.95614E+004    2.49707E+005   -2.43796E+004    1.65800E+005    1.31216E+004   -5.34274E+003    6.53600E+004    3.75387E+004    1.14849E+005   -1.20764E+003
            6138    1.76182E+005    1.29049E+005    1.29049E+005    1.38568E+003   -7.19563E+004    2.01005E+005   -1.94928E+004    1.34793E+005    8.65319E+003   -6.38798E+003    5.62130E+004    3.56490E+004    8.94720E+004    1.65618E+003
            6139    1.34609E+005    9.70925E+004    9.70925E+004   -4.97295E+003   -5.54621E+004    1.52555E+005   -1.22191E+004    1.10061E+005    4.68038E+003   -6.78718E+003    3.87642E+004    3.00872E+004    6.71365E+004    8.12356E+003
            6140    1.50663E+005    1.04353E+005    1.04353E+005   -3.86598E+003   -6.77221E+004    1.72075E+005   -1.09216E+004    1.13622E+005    7.90753E+003   -1.60113E+004    4.08687E+004    5.77715E+004    5.51294E+004    1.93399E+004
            6141    2.00579E+005    1.42930E+005    1.42930E+005    2.61142E+003   -8.68069E+004    2.29737E+005   -1.95783E+004    1.44318E+005    1.38885E+004   -1.87755E+004    6.36218E+004    7.15909E+004    7.91318E+004    1.73776E+004
            6142    2.47548E+005    1.81704E+005    1.81704E+005    7.13351E+003   -1.01602E+005    2.83306E+005   -2.90784E+004    1.80787E+005    2.18244E+004   -1.74910E+004    8.29017E+004    7.98912E+004    1.06265E+005    1.38862E+004
            6143    3.04722E+005    2.40511E+005    2.40511E+005    1.69687E+004   -1.06584E+005    3.47095E+005   -5.02988E+004    2.37681E+005    3.78915E+004   -2.73690E+003    1.15742E+005    8.10940E+004    1.43521E+005    1.23541E+004
            6144    3.51745E+005    2.92752E+005    2.92752E+005    3.62654E+004   -1.08228E+005    4.00980E+005   -7.35965E+004    2.71813E+005    5.64712E+004    2.03175E+004    1.44001E+005    7.82813E+004    1.76113E+005    7.30254E+003
            6145    4.08545E+005    3.51384E+005    3.51384E+005    6.08382E+004   -1.15752E+005    4.67136E+005   -9.88233E+004    3.02899E+005    7.77534E+004    3.97788E+004    1.78938E+005    8.69970E+004    2.07105E+005    9.05316E+002
            6146    4.75897E+005    4.21671E+005    4.21671E+005    8.67711E+004   -1.23085E+005    5.44756E+005   -1.28452E+005    3.46223E+005    1.01888E+005    6.67134E+004    2.16755E+005    9.19309E+004    2.46740E+005   -1.83238E+003
            6147    5.44927E+005    4.94854E+005    4.94854E+005    1.12874E+005   -1.29166E+005    6.24019E+005   -1.59521E+005    3.93567E+005    1.27219E+005    9.63279E+004    2.55016E+005    8.51949E+004    2.90861E+005   -6.73464E+003
            6148    4.75196E+005    4.56603E+005    4.56603E+005    1.07794E+005   -8.46264E+004    5.41229E+005   -1.59923E+005    3.70986E+005    1.26380E+005    1.09513E+005    2.43878E+005    3.47406E+004    2.61659E+005    1.55133E+004
            6149    4.14423E+005    4.21164E+005    4.21164E+005    1.20899E+005   -5.16562E+004    4.72820E+005   -1.63469E+005    3.17014E+005    1.27360E+005    1.22969E+005    2.40078E+005    7.92397E+003    2.27310E+005    3.33106E+004
            6150    4.17452E+005    3.90994E+005    3.90994E+005    8.60541E+004   -8.47797E+004    4.75774E+005   -1.30756E+005    3.23482E+005    1.02082E+005    8.85458E+004    2.01640E+005    3.66018E+004    2.29445E+005    1.70309E+004
            6151    3.66644E+005    3.61264E+005    3.61264E+005    9.91866E+004   -5.77242E+004    4.18988E+005   -1.34242E+005    2.74238E+005    1.03943E+005    1.01686E+005    1.97097E+005    7.59264E+003    2.01104E+005    3.66684E+004
            6152    3.64269E+005    3.31583E+005    3.31583E+005    6.51259E+004   -8.35015E+004    4.15084E+005   -1.04402E+005    2.82873E+005    8.00160E+004    6.88130E+004    1.64378E+005    3.41694E+004    1.99906E+005    1.92742E+004
            6153    3.22401E+005    3.00650E+005    3.00650E+005    7.61958E+004   -6.87887E+004    3.69439E+005   -1.02686E+005    2.29827E+005    7.86056E+004    7.91080E+004    1.50344E+005    6.87481E+003    1.76843E+005    4.02920E+004
            6154    3.08603E+005    2.64038E+005    2.64038E+005    4.29256E+004   -8.85262E+004    3.52565E+005   -7.28126E+004    2.31757E+005    5.37540E+004    4.71532E+004    1.17531E+005    2.70168E+004    1.70679E+005    1.93268E+004
            6155    2.85737E+005    2.52436E+005    2.52436E+005    5.98792E+004   -7.58705E+004    3.28306E+005   -7.88148E+004    1.90059E+005    5.94454E+004    6.12217E+004    1.15777E+005    2.84873E+003    1.57521E+005    3.69976E+004
            6156    2.59803E+005    2.12764E+005    2.12764E+005    4.37912E+004   -8.63938E+004    2.99158E+005   -5.67205E+004    1.57379E+005    4.27473E+004    4.46158E+004    8.27985E+004    1.34874E+003    1.42871E+005    3.96789E+004
            6157    2.33190E+005    1.95354E+005    1.95354E+005    2.63232E+004   -7.06796E+004    2.66034E+005   -5.03327E+004    1.78509E+005    3.77718E+004    2.57278E+004    8.74984E+004    2.48841E+002    1.26815E+005    3.11684E+004
            6158    2.71590E+005    2.21294E+005    2.21294E+005    2.64248E+004   -8.89335E+004    3.10227E+005   -5.29283E+004    2.04449E+005    3.68136E+004    2.91401E+004    9.28313E+004    1.16925E+004    1.51018E+005    2.08551E+004
            6159    2.40260E+005    1.69095E+005    1.69095E+005    9.63853E+002   -1.06083E+005    2.75178E+005   -2.13252E+004    1.72972E+005    1.11844E+004    1.04010E+003    5.17512E+004    1.12486E+003    1.35965E+005    5.82077E+003
            6160    1.12155E+005    5.04018E+004   -7.70428E+004    6.60678E+003   -7.70428E+004    1.27445E+005    6.67805E+003   -8.96415E+004   -5.07125E+003    1.11952E+004   -2.61581E+004    4.61146E+004    3.49777E+004   -2.21843E+004
            6161    1.00652E+005    4.06805E+004   -7.18663E+004    9.52343E+003   -7.18663E+004    1.12547E+005    7.22078E+003   -8.87895E+004   -2.70911E+003    7.47892E+003   -2.64321E+004    3.27425E+004    4.16771E+004   -1.62840E+004
            6162    1.01153E+005    4.17551E+004   -7.16996E+004    9.07055E+003   -7.16996E+004    1.13455E+005    6.95796E+003   -8.80411E+004   -1.08204E+003    7.30261E+003   -2.70945E+004    2.35130E+004    4.92072E+004   -1.07135E+004
            6163    1.04607E+005    4.20322E+004   -7.64082E+004    3.34469E+003   -7.64082E+004    1.18440E+005    1.03438E+004   -8.61514E+004   -2.30613E+003    2.26278E+003   -3.09879E+004    1.39610E+004    5.55495E+004   -6.48463E+003
            6164    1.10110E+005    4.39194E+004   -8.07335E+004    3.28414E+003   -8.07335E+004    1.24653E+005    1.11766E+004   -9.07810E+004   -2.09835E+003    3.20606E+003   -3.46376E+004    4.67603E+003    5.99646E+004   -1.98877E+003
            6165    7.19425E+004    2.43423E+004   -5.42448E+004    8.36788E+003   -5.42448E+004    7.85870E+004    7.17821E+003   -6.77777E+004   -6.22355E+003    1.77150E+003   -1.70826E+004    2.62474E+004    2.29052E+004   -2.05454E+004
            6166    7.05915E+004    2.04181E+004   -5.49342E+004    9.66164E+003   -5.49342E+004    7.53524E+004    8.28482E+003   -6.87113E+004   -6.52696E+003    5.37648E+002   -1.88652E+004    1.89960E+004    3.06514E+004   -1.62561E+004
            6167    7.44272E+004    2.37385E+004   -5.87196E+004    3.48329E+003   -5.87196E+004    8.24581E+004    1.04993E+004   -6.77983E+004   -7.40829E+003   -2.07366E+003   -2.20159E+004    1.38048E+004    3.73754E+004   -1.23444E+004
            6168    7.92423E+004    2.91261E+004   -6.01936E+004    1.66591E+003   -6.01936E+004    8.93198E+004    9.80053E+003   -6.72141E+004   -5.71644E+003   -3.50828E+002   -2.33343E+004    8.40769E+003    4.26509E+004   -7.66525E+003
            6169    8.35567E+004    3.08153E+004   -6.42378E+004   -2.37959E+003   -6.42378E+004    9.50531E+004    1.19340E+004   -6.60694E+004   -6.74815E+003   -2.61738E+003   -2.64366E+004    2.91618E+003    4.63638E+004   -2.66951E+003
            6170    4.55945E+004    2.02269E+004   -3.00300E+004    8.68294E+003   -3.00300E+004    5.02570E+004    3.73386E+002   -4.21141E+004    2.48754E+002    1.66443E+003   -3.03334E+003    7.98584E+003    1.63946E+004   -1.88305E+004
            6171    5.03927E+004    2.51267E+004   -3.17060E+004    7.52485E+003   -3.17060E+004    5.68327E+004   -3.15193E+002   -4.26036E+004    2.02550E+003    1.89288E+003   -2.97280E+003    6.12220E+003    2.34636E+004   -1.58222E+004
            6172    5.63170E+004    3.08656E+004   -3.34800E+004    6.83701E+003   -3.34800E+004    6.43456E+004   -1.40754E+003   -4.22333E+004    3.26000E+003    3.76426E+003   -2.80163E+003    4.62001E+003    2.95870E+004   -1.21289E+004
            6173    6.16527E+004    3.33091E+004   -3.76910E+004    2.31475E+003   -3.76910E+004    7.10001E+004    6.89059E+002   -3.70876E+004    1.59609E+003    1.07064E+003   -4.73391E+003    2.88595E+003    3.44070E+004   -7.90634E+003
            6174    6.56915E+004    3.59398E+004   -3.97106E+004    2.92505E+003   -3.97106E+004    7.56504E+004    2.81942E+002   -3.95431E+004    1.99790E+003    2.79501E+003   -5.63874E+003    9.41772E+002    3.75251E+004   -2.78534E+003
            6175    5.54298E+005    5.04847E+005    5.04847E+005    1.15972E+005   -1.29850E+005    6.34697E+005   -1.63656E+005    4.00967E+005    1.30512E+005    9.97004E+004    2.60757E+005   -8.49160E+004    2.96391E+005    6.96232E+003
            6176    4.89862E+005    4.71073E+005    4.71073E+005    1.11659E+005   -8.68946E+004    5.57968E+005   -1.65279E+005    3.82176E+005    1.30916E+005    1.13027E+005    2.51895E+005   -3.43706E+004    2.69992E+005   -1.43112E+004
            6177    4.29124E+005    4.38743E+005    4.38743E+005    1.26714E+005   -5.06268E+004    4.89370E+005   -1.71610E+005    3.30137E+005    1.33865E+005    1.28539E+005    2.52426E+005   -7.72163E+003    2.35444E+005   -3.13586E+004
            6178    6.17382E+005    5.74949E+005    5.74949E+005    1.42049E+005   -1.32019E+005    7.06968E+005   -1.94993E+005    4.46152E+005    1.55641E+005    1.32843E+005    2.96495E+005   -6.53783E+004    3.38895E+005    8.50412E+003
            6179    5.41529E+005    5.28774E+005    5.28774E+005    1.31288E+005   -8.80086E+004    6.16783E+005   -1.90685E+005    4.22750E+005    1.51829E+005    1.31927E+005    2.88298E+005   -2.60107E+004    2.99531E+005   -1.05060E+004
            6180    4.73584E+005    4.93882E+005    4.93882E+005    1.46735E+005   -4.56133E+004    5.39495E+005   -1.98334E+005    3.68951E+005    1.55203E+005    1.47708E+005    2.92092E+005   -6.13022E+003    2.59936E+005   -2.34443E+004
            6181    6.64005E+005    6.28590E+005    6.28590E+005    1.62476E+005   -1.31682E+005    7.60272E+005   -2.19794E+005    4.80851E+005    1.75331E+005    1.59967E+005    3.24084E+005   -3.51780E+004    3.70790E+005    5.34002E+003
            6182    5.77466E+005    5.68091E+005    5.68091E+005    1.44572E+005   -8.96967E+004    6.57788E+005   -2.07655E+005    4.50245E+005    1.65786E+005    1.44717E+005    3.12463E+005   -1.34880E+004    3.20307E+005   -5.25952E+003
            6183    5.04916E+005    5.32734E+005    5.32734E+005    1.60916E+005   -4.20878E+004    5.74822E+005   -2.17187E+005    3.96110E+005    1.70296E+005    1.61143E+005    3.20123E+005   -3.10624E+003    2.77253E+005   -1.15438E+004
            6184    6.79883E+005    6.46905E+005    6.46905E+005    1.69511E+005   -1.31526E+005    7.78431E+005   -2.28297E+005    4.92607E+005    1.82041E+005    1.69505E+005    3.33345E+005    2.17360E+003    3.81786E+005   -4.93262E+001
            6185    5.88290E+005    5.80064E+005    5.80064E+005    1.48846E+005   -9.01040E+004    6.70168E+005   -2.12935E+005    4.58296E+005    1.70054E+005    1.48847E+005    3.19906E+005    1.92254E+003    3.26594E+005    5.84514E+002
            6186    5.14094E+005    5.44173E+005    5.44173E+005    1.65192E+005   -4.10100E+004    5.85183E+005   -2.22785E+005    4.03954E+005    1.74749E+005    1.65197E+005    3.28408E+005    5.24859E+002    2.82320E+005    1.52347E+003
            6187    6.59214E+005    6.23362E+005    6.23362E+005    1.60707E+005   -1.31441E+005    7.54803E+005   -2.17543E+005    4.77198E+005    1.73558E+005    1.57706E+005    3.21364E+005    3.83789E+004    3.67698E+005   -5.75489E+003
            6188    5.70374E+005    5.60780E+005    5.60780E+005    1.42247E+005   -8.88833E+004    6.49663E+005   -2.04715E+005    4.45065E+005    1.63361E+005    1.42455E+005    3.08327E+005    1.66347E+004    3.16171E+005    6.35912E+003
            6189    4.97704E+005    5.24202E+005    5.24202E+005    1.57959E+005   -4.24669E+004    5.66669E+005   -2.13231E+005    3.90028E+005    1.67134E+005    1.58357E+005    3.14203E+005    4.12008E+003    2.73241E+005    1.50472E+004
            6190    6.10130E+005    5.67665E+005    5.67665E+005    1.39662E+005   -1.30970E+005    6.98634E+005   -1.92119E+005    4.41273E+005    1.53230E+005    1.30142E+005    2.92985E+005    6.75019E+004    3.34227E+005   -7.62853E+003
            6191    5.28949E+005    5.15402E+005    5.15402E+005    1.27310E+005   -8.70868E+004    6.02488E+005   -1.85208E+005    4.12670E+005    1.47246E+005    1.28114E+005    2.80265E+005    2.81049E+004    2.92354E+005    1.15448E+004
            6192    4.60913E+005    4.79431E+005    4.79431E+005    1.41991E+005   -4.57180E+004    5.25149E+005   -1.91901E+005    3.58397E+005    1.50108E+005    1.43172E+005    2.82423E+005    6.65355E+003    2.52909E+005    2.54738E+004
            6193    1.10353E+005    8.09303E+004    8.09303E+004   -3.28265E+003   -4.39949E+004    1.24925E+005   -1.12176E+004    9.09954E+004    2.12054E+003   -3.20728E+003    3.47395E+004   -4.69489E+003    6.00938E+004   -1.97763E+003
            6194    1.04628E+005    7.64258E+004    7.64258E+004   -3.34502E+003   -4.20377E+004    1.18464E+005   -1.03477E+004    8.61716E+004    2.31124E+003   -2.27020E+003    3.10021E+004   -1.40294E+004    5.55424E+004   -6.48406E+003
            6195    1.01050E+005    7.16229E+004    7.16229E+004   -9.14644E+003   -4.16884E+004    1.13311E+005   -6.92937E+003    8.80483E+004    1.07617E+003   -7.35321E+003    2.70651E+004   -2.36042E+004    4.90714E+004   -1.08015E+004
            6196    1.00519E+005    7.17693E+004    7.17693E+004   -9.54727E+003   -4.06155E+004    1.12385E+005   -7.20216E+003    8.87111E+004    2.72702E+003   -7.44731E+003    2.63268E+004   -3.28645E+004    4.14494E+004   -1.64218E+004
            6197    1.11990E+005    7.68497E+004    7.68497E+004   -6.64586E+003   -5.04146E+004    1.27264E+005   -6.59643E+003    8.94624E+004    5.02811E+003   -1.12402E+004    2.60014E+004   -4.60924E+004    3.48732E+004   -2.21660E+004
            6198    8.36211E+004    6.43315E+004    6.43315E+004    2.40604E+003   -3.07905E+004    9.51220E+004   -1.19824E+004    6.61511E+004    6.78113E+003    2.63837E+003    2.65276E+004   -2.86976E+003    4.63964E+004   -2.64706E+003
            6199    7.93103E+004    6.02579E+004    6.02579E+004   -1.61855E+003   -2.91491E+004    8.94070E+004   -9.83009E+003    6.72249E+004    5.73503E+003    3.72984E+002    2.33823E+004   -8.32289E+003    4.27110E+004   -7.63365E+003
            6200    7.44550E+004    5.87079E+004    5.87079E+004   -3.46363E+003   -2.38034E+004    8.25113E+004   -1.04803E+004    6.77694E+004    7.37871E+003    2.08048E+003    2.19816E+004   -1.37889E+004    3.74114E+004   -1.23238E+004
            6201    7.03829E+004    5.47480E+004    5.47480E+004   -9.73349E+003   -2.03338E+004    7.50818E+004   -8.22690E+003    6.85524E+004    6.48642E+003   -5.59490E+002    1.87538E+004   -1.89855E+004    3.04925E+004   -1.62937E+004
            6202    7.20424E+004    5.43298E+004    5.43298E+004   -8.25658E+003   -2.44218E+004    7.87517E+004   -7.21715E+003    6.77792E+004    6.26346E+003   -1.72381E+003    1.71118E+004   -2.63662E+004    2.28066E+004   -2.06237E+004
            6203    6.57202E+004    3.97431E+004    3.97431E+004   -2.93817E+003   -3.59379E+004    7.56811E+004   -2.88999E+002    3.96363E+004   -2.00183E+003   -2.80819E+003    5.67702E+003   -9.49085E+002    3.75398E+004   -2.76519E+003
            6204    6.16974E+004    3.77248E+004    3.77248E+004   -2.31547E+003   -3.33263E+004    7.10511E+004   -6.94368E+002    3.71301E+004   -1.59581E+003   -1.07634E+003    4.75525E+003   -2.89112E+003    3.44403E+004   -7.86942E+003
            6205    5.63092E+004    3.34809E+004    3.34809E+004   -6.81301E+003   -3.08591E+004    6.43400E+004    1.39707E+003    4.21963E+004   -3.24660E+003   -3.75271E+003    2.80811E+003   -4.59351E+003    2.95776E+004   -1.21512E+004
            6206    5.04301E+004    3.17173E+004    3.17173E+004   -7.44976E+003   -2.51845E+004    5.69018E+004    3.05667E+002    4.25132E+004   -2.00755E+003   -1.87121E+003    2.96176E+003   -6.06217E+003    2.34989E+004   -1.58358E+004
            6207    4.56600E+004    3.00940E+004    3.00940E+004   -8.72332E+003   -2.02136E+004    5.03076E+004   -3.85710E+002    4.22194E+004   -2.31831E+002   -1.67501E+003    3.06397E+003   -8.01772E+003    1.64730E+004   -1.87989E+004
            6208    3.73756E+005    3.07283E+005    3.07283E+005    3.91647E+004   -1.19655E+005    4.26938E+005   -7.55977E+004    2.81260E+005    5.92486E+004    1.30568E+004    1.54488E+005   -9.62941E+004    1.78934E+005   -8.57148E+003
            6209    3.20510E+005    2.47857E+005    2.47857E+005    2.26773E+004   -1.19089E+005    3.66946E+005   -5.04816E+004    2.32468E+005    4.02894E+004   -9.37996E+003    1.20535E+005   -1.00268E+005    1.40273E+005   -1.46493E+004
            6210    2.73662E+005    2.03781E+005    2.03781E+005    1.61806E+004   -1.10236E+005    3.14017E+005   -3.65754E+004    1.89069E+005    2.83492E+004   -1.87840E+004    1.00161E+005   -9.47926E+004    1.09868E+005   -1.78677E+004
            6211    2.17478E+005    1.51613E+005    1.51613E+005    3.97009E+003   -9.81293E+004    2.49742E+005   -1.91512E+004    1.47113E+005    1.55496E+004   -2.51486E+004    6.70526E+004   -8.29462E+004    7.94343E+004   -2.09943E+004
            6212    1.65593E+005    1.16060E+005    1.16060E+005    4.87624E+002   -7.36483E+004    1.89708E+005   -1.42996E+004    1.18613E+005    1.15519E+004   -1.71478E+004    4.84949E+004   -6.64018E+004    5.57388E+004   -2.32686E+004
            6213    1.44816E+005    1.05758E+005    1.05758E+005   -1.80471E+003   -5.89037E+004    1.64661E+005   -1.50164E+004    1.15058E+005    9.17742E+003   -1.01728E+004    4.60446E+004   -4.59087E+004    6.24380E+004   -1.29908E+004
            6214    1.42277E+005    1.07249E+005    1.07249E+005   -6.01221E+000   -5.41509E+004    1.61400E+005   -1.76974E+004    1.15423E+005    9.41551E+003   -3.74772E+003    4.74245E+004   -3.22472E+004    7.03474E+004   -7.26799E+003
            6215    1.43457E+005    1.07178E+005    1.07178E+005   -4.25842E+002   -5.56924E+004    1.62870E+005   -1.70198E+004    1.15579E+005    6.53640E+003   -1.94331E+003    4.64663E+004   -1.87280E+004    7.63726E+004   -2.84824E+003
            6216    1.49052E+005    1.12846E+005    1.12846E+005    2.10487E+003   -5.66254E+004    1.69471E+005   -1.94418E+004    1.18474E+005    7.05086E+003    1.90657E+003    4.93679E+004   -6.23807E+003    8.17804E+004   -5.49621E+002
            6217    1.87523E+005    1.34294E+005    1.34294E+005   -2.18669E+002   -7.99136E+004    2.14208E+005   -1.80540E+004    1.41099E+005    1.10194E+004   -1.50343E+004    5.81768E+004   -5.73261E+004    8.33609E+004   -1.04526E+004
            6218    1.77829E+005    1.25946E+005    1.25946E+005   -2.61120E+003   -7.69972E+004    2.02943E+005   -1.54458E+004    1.35541E+005    6.66114E+003   -1.13773E+004    5.10534E+004   -3.83683E+004    8.96272E+004   -1.88691E+003
            6219    1.75652E+005    1.25438E+005    1.25438E+005   -2.86385E+002   -7.52596E+004    2.00698E+005   -1.66307E+004    1.31683E+005    4.75313E+003   -3.33330E+003    4.84723E+004   -2.17638E+004    9.50438E+004    8.88529E+002
            6220    1.81049E+005    1.26594E+005    1.26594E+005   -3.55443E+003   -8.01664E+004    2.06760E+005   -1.42910E+004    1.36719E+005    1.36150E+003   -4.00492E+003    4.55164E+004   -6.95380E+003    1.00684E+005    1.48145E+003
            6221    2.37412E+005    1.78553E+005    1.78553E+005    9.27858E+003   -9.28310E+004    2.71384E+005   -3.16668E+004    1.76807E+005    2.02756E+004   -8.47888E+003    8.32036E+004   -6.31835E+004    1.12070E+005   -6.13923E+003
            6222    2.22466E+005    1.68356E+005    1.68356E+005    7.25411E+003   -8.54740E+004    2.53830E+005   -3.00454E+004    1.70035E+005    1.64981E+004   -1.46165E+003    7.50997E+004   -3.98883E+004    1.15338E+005    2.74948E+002
            6223    2.13693E+005    1.55334E+005    1.55334E+005    3.18003E+003   -8.89733E+004    2.44308E+005   -2.31804E+004    1.58765E+005    8.63153E+003   -4.73450E+002    6.13831E+004   -2.03558E+004    1.16899E+005    5.14910E+003
            6224    2.13531E+005    1.48824E+005    1.48824E+005    2.74169E+003   -9.62370E+004    2.45061E+005   -1.84427E+004    1.46888E+005    3.25638E+003    2.36844E+003    4.97033E+004   -6.04136E+003    1.20094E+005    2.52010E+003
            6225    2.82802E+005    2.22154E+005    2.22154E+005    1.34203E+004   -9.96973E+004    3.21851E+005   -4.52924E+004    2.22624E+005    3.26504E+004    1.51488E+003    1.01712E+005   -6.45264E+004    1.40691E+005   -8.45681E+003
            6226    2.53258E+005    1.92540E+005    1.92540E+005    9.69881E+003   -9.65325E+004    2.89073E+005   -3.52355E+004    1.92612E+005    2.23819E+004    4.65690E+003    7.86678E+004   -3.40144E+004    1.36852E+005    1.09620E+003
            6227    2.35258E+005    1.72054E+005    1.72054E+005    6.81491E+003   -9.72961E+004    2.69350E+005   -2.71910E+004    1.70548E+005    1.38779E+004    5.67683E+003    6.20183E+004   -1.51345E+004    1.31493E+005    1.65079E+003
            6228    2.30691E+005    1.53255E+005    1.53255E+005   -2.18930E+003   -1.11806E+005    2.65061E+005   -1.30866E+004    1.53406E+005    1.42999E+003   -2.33574E+003    4.01657E+004   -3.87777E+003    1.31025E+005    1.81349E+003
            6229    3.19309E+005    2.67531E+005    2.67531E+005    3.40802E+004   -9.63462E+004    3.63877E+005   -6.84217E+004    2.47765E+005    4.91672E+004    3.12354E+004    1.24862E+005   -5.10309E+004    1.69787E+005   -9.20894E+003
            6230    2.74666E+005    2.24725E+005    2.24725E+005    2.46616E+004   -8.84324E+004    3.13157E+005   -5.36514E+004    2.11886E+005    3.54452E+004    2.63491E+004    9.91598E+004   -2.24130E+004    1.51477E+005   -1.12141E+004
            6231    2.52694E+005    1.92123E+005    1.92123E+005    1.00133E+004   -9.63686E+004    2.88491E+005   -3.52558E+004    1.91622E+005    2.04030E+004    1.03276E+004    7.50368E+004   -7.80713E+003    1.41386E+005   -4.64637E+003
            6232    2.37631E+005    1.64422E+005    1.64422E+005    6.53402E+003   -1.08872E+005    2.73294E+005   -2.06945E+004    1.52692E+005    8.18325E+003    6.57549E+003    4.73248E+004   -1.10719E+003    1.35210E+005   -2.73117E+003
            6233    2.36497E+005    1.68271E+005    1.68271E+005    1.03728E+002   -1.02148E+005    2.70419E+005   -2.20757E+004    1.75299E+005    1.32541E+004   -1.32579E+001    5.29863E+004    5.43900E+002    1.33490E+005   -7.95585E+003
            6234    2.28786E+005    1.95691E+005    1.95691E+005    2.57218E+004   -6.44381E+004    2.60129E+005   -5.23249E+004    1.81833E+005    3.95947E+004    2.45189E+004    9.28612E+004    3.79844E+002    1.23051E+005   -3.18841E+004
            6235    2.60159E+005    2.07448E+005    2.07448E+005    2.29696E+004   -9.01163E+004    2.97565E+005   -4.67672E+004    1.91894E+005    3.29169E+004    2.33976E+004    8.39872E+004   -2.07889E+003    1.44197E+005   -2.64994E+004
            6236    2.48623E+005    2.00222E+005    2.00222E+005    3.92162E+004   -8.61229E+004    2.86345E+005   -5.11052E+004    1.48645E+005    3.86382E+004    3.94238E+004    7.52535E+004   -2.63016E+002    1.36098E+005   -4.05474E+004
            6237    2.79660E+005    2.28915E+005    2.28915E+005    3.72408E+004   -9.19904E+004    3.20905E+005   -5.80551E+004    1.93131E+005    4.17433E+004    4.02956E+004    9.21262E+004   -1.13412E+004    1.56572E+005   -2.35661E+004
            6238    2.69843E+005    2.31700E+005    2.31700E+005    4.95255E+004   -7.83043E+004    3.10004E+005   -6.76404E+004    1.80241E+005    5.14659E+004    5.09214E+004    1.00534E+005   -3.06763E+003    1.48572E+005   -3.71087E+004
            6239    3.24498E+005    2.82986E+005    2.82986E+005    5.01698E+004   -8.76783E+004    3.70665E+005   -8.18259E+004    2.44252E+005    6.10789E+004    5.44485E+004    1.29950E+005   -2.64511E+004    1.79533E+005   -2.04876E+004
            6240    3.00442E+005    2.70854E+005    2.70854E+005    6.47551E+004   -7.38732E+004    3.44727E+005   -8.72452E+004    2.07868E+005    6.67002E+004    6.71577E+004    1.27878E+005   -5.48201E+003    1.65292E+005   -3.87130E+004
            6241    3.35864E+005    3.18159E+005    3.18159E+005    8.36132E+004   -6.65944E+004    3.84753E+005   -1.11726E+005    2.40845E+005    8.57606E+004    8.62715E+004    1.63146E+005   -6.85128E+003    1.84660E+005   -3.83693E+004
            6242    3.81093E+005    3.76562E+005    3.76562E+005    1.03471E+005   -5.88109E+004    4.35373E+005   -1.40407E+005    2.86268E+005    1.08862E+005    1.06146E+005    2.06214E+005   -8.32450E+003    2.09033E+005   -3.73771E+004
            6243    3.77050E+005    3.41873E+005    3.41873E+005    6.65126E+004   -8.78675E+004    4.29740E+005   -1.06839E+005    2.92065E+005    8.22042E+004    6.98838E+004    1.68430E+005   -3.82882E+004    2.06630E+005   -1.85395E+004
            6244    4.34453E+005    4.09084E+005    4.09084E+005    9.02637E+004   -8.57575E+004    4.94842E+005   -1.37864E+005    3.39046E+005    1.08128E+005    9.25207E+004    2.12942E+005   -3.80871E+004    2.38522E+005   -1.68693E+004
            6245    4.85119E+005    4.29920E+005    4.29920E+005    8.84606E+004   -1.25381E+005    5.55301E+005   -1.31000E+005    3.53065E+005    1.04127E+005    6.74087E+004    2.21463E+005   -9.18872E+004    2.52022E+005    3.67195E+003
            6246    4.23172E+005    3.64287E+005    3.64287E+005    6.13382E+004   -1.19212E+005    4.83499E+005   -1.02138E+005    3.17350E+005    8.03974E+004    3.96526E+004    1.86363E+005   -9.14994E+004    2.13485E+005   -2.82103E+003
            6247    3.00509E+005    1.23967E+005   -2.20354E+005   -1.09396E+004   -2.20354E+005    3.44321E+005    3.57758E+004   -2.14622E+005   -2.77381E+004    2.45082E+003   -8.20401E+004   -8.23953E+004    1.46292E+005    8.85355E+003
            6248    2.43793E+005    1.10450E+005   -1.69668E+005   -5.40721E+003   -1.69668E+005    2.80118E+005    2.15418E+004   -1.62090E+005   -1.64687E+004    1.22232E+004   -6.03799E+004   -8.15932E+004    1.08275E+005    9.68056E+003
            6249    1.98128E+005    9.38550E+004   -1.33769E+005   -7.05603E+001   -1.33769E+005    2.27624E+005    1.33281E+004   -1.32200E+005   -1.03517E+004    1.41870E+004   -4.38195E+004   -7.35306E+004    8.17060E+004    1.24303E+004
            6250    1.50899E+005    7.15285E+004   -1.01570E+005    2.24649E+003   -1.01570E+005    1.73099E+005    9.26516E+003   -1.05041E+005   -6.72684E+003    1.05735E+004   -3.16421E+004   -5.98393E+004    5.79734E+004    1.40773E+004
            6251    1.38607E+005    6.00695E+004   -9.83330E+004    7.04641E+002   -9.83330E+004    1.58402E+005    1.25196E+004   -1.03604E+005   -6.53642E+003    2.51383E+003   -3.35363E+004   -3.11329E+004    7.10759E+004    5.58642E+003
            6252    1.47826E+005    6.29485E+004   -1.06125E+005   -1.26301E+003   -1.06125E+005    1.69073E+005    1.48131E+004   -1.09108E+005   -6.19895E+003   -1.00749E+003   -3.72328E+004   -1.00156E+004    8.24546E+004    1.16430E+003
            6253    1.75399E+005    8.32223E+004   -1.17970E+005    2.77777E+003   -1.17970E+005    2.01192E+005    1.06566E+004   -1.22253E+005   -5.15551E+003    7.86188E+003   -3.46762E+004   -3.67355E+004    9.18069E+004    1.36662E+003
            6254    1.84696E+005    8.81813E+004   -1.23882E+005    1.75204E+003   -1.23882E+005    2.12063E+005    1.13163E+004   -1.25485E+005   -3.08911E+003    2.32285E+003   -3.31826E+004   -1.17720E+004    1.04240E+005   -5.14759E+002
            6255    2.18113E+005    9.69301E+004   -1.53317E+005   -3.58432E+003   -1.53317E+005    2.50247E+005    1.99904E+004   -1.51141E+005   -1.17438E+004    2.42852E+003   -5.06558E+004   -3.79917E+004    1.16864E+005   -1.33477E+003
            6256    2.17365E+005    1.04789E+005   -1.45196E+005   -7.54510E+002   -1.45196E+005    2.49985E+005    1.37206E+004   -1.39716E+005   -4.13189E+003   -7.13222E+001   -3.69587E+004   -9.60507E+003    1.23447E+005   -2.93431E+003
            6257    2.54694E+005    1.10715E+005   -1.81559E+005   -7.11724E+003   -1.81559E+005    2.92274E+005    2.59870E+004   -1.75631E+005   -1.71533E+004   -5.00064E+003   -5.58070E+004   -2.69557E+004    1.42098E+005   -8.24826E+002
            6258    2.34041E+005    1.16717E+005   -1.52982E+005   -3.23448E+003   -1.52982E+005    2.69699E+005    1.31666E+004   -1.34533E+005   -4.87899E+003   -3.22168E+003   -3.13990E+004   -4.07374E+003    1.34133E+005    2.17471E+002
            6259    2.35161E+005    1.11142E+005   -1.59196E+005   -1.92176E+003   -1.59196E+005    2.70338E+005    1.66587E+004   -1.53603E+005   -9.59759E+003   -1.97275E+003   -3.84058E+004   -9.42072E+002    1.34333E+005    4.25588E+003
            6260    2.26944E+005    8.74105E+004   -1.73005E+005   -1.74717E+004   -1.73005E+005    2.60416E+005    3.43555E+004   -1.56705E+005   -2.51266E+004   -1.72571E+004   -6.06827E+004   -7.15959E+001    1.27030E+005    2.22691E+004
            6261    2.65582E+005    1.03600E+005   -2.01222E+005   -1.97115E+004   -2.01222E+005    3.04821E+005    3.91112E+004   -1.82305E+005   -2.81693E+004   -2.16193E+004   -6.75450E+004   -1.12936E+004    1.50159E+005    1.48005E+004
            6262    2.54552E+005    1.03572E+005   -1.89973E+005   -3.01684E+004   -1.89973E+005    2.93546E+005    3.88565E+004   -1.36162E+005   -2.90035E+004   -3.05696E+004   -5.69965E+004   -8.85936E+002    1.43258E+005    2.87703E+004
            6263    2.78242E+005    9.69871E+004   -2.23438E+005   -4.28600E+004   -2.23438E+005    3.20425E+005    5.64368E+004   -1.67461E+005   -4.35132E+004   -4.36952E+004   -8.21020E+004   -2.53931E+003    1.56827E+005    2.66643E+004
            6264    3.13671E+005    9.78582E+004   -2.62834E+005   -5.39280E+004   -2.62834E+005    3.60692E+005    7.29679E+004   -2.02768E+005   -5.67503E+004   -5.60609E+004   -1.06093E+005   -6.97579E+003    1.76337E+005    2.88145E+004
            6265    3.59504E+005    9.91015E+004   -3.13749E+005   -6.97839E+004   -3.13749E+005    4.12851E+005    9.48105E+004   -2.42971E+005   -7.40755E+004   -7.16568E+004   -1.38699E+005   -7.92907E+003    2.02233E+005    2.59648E+004
            6266    4.09460E+005    1.05292E+005   -3.64639E+005   -8.46092E+004   -3.64639E+005    4.69931E+005    1.14652E+005   -2.81472E+005   -8.97872E+004   -8.61471E+004   -1.68022E+005   -8.34167E+003    2.30506E+005    2.33179E+004
            6267    3.04871E+005    1.12536E+005   -2.37495E+005   -2.99991E+004   -2.37495E+005    3.50031E+005    5.16528E+004   -2.07389E+005   -3.87955E+004   -3.30484E+004   -8.31147E+004   -2.71607E+004    1.71178E+005    1.38511E+004
            6268    3.59677E+005    1.17365E+005   -2.95050E+005   -4.63834E+004   -2.95050E+005    4.12415E+005    7.46896E+004   -2.52886E+005   -5.78337E+004   -4.90560E+004   -1.17179E+005   -3.44903E+004    2.00916E+005    1.38635E+004
            6269    4.12490E+005    1.25856E+005   -3.47138E+005   -6.21046E+004   -3.47138E+005    4.72994E+005    9.44624E+004   -2.89718E+005   -7.40889E+004   -6.39368E+004   -1.45361E+005   -3.70366E+004    2.30699E+005    1.23900E+004
            6270    4.69141E+005    1.33561E+005   -4.04195E+005   -7.86827E+004   -4.04195E+005    5.37756E+005    1.16439E+005   -3.32222E+005   -9.16607E+004   -7.99687E+004   -1.77687E+005   -3.53334E+004    2.62940E+005    1.14395E+004
            6271    5.34421E+005    1.79311E+005   -4.35171E+005   -7.87854E+004   -4.35171E+005    6.14482E+005    1.11548E+005   -3.46587E+005   -8.95468E+004   -6.70550E+004   -1.78043E+005   -8.56230E+004    2.90522E+005   -5.01685E+003
            6272    4.66906E+005    1.62565E+005   -3.74085E+005   -6.09637E+004   -3.74085E+005    5.36650E+005    9.08281E+004   -3.07011E+005   -7.30551E+004   -4.68456E+004   -1.52584E+005   -9.25014E+004    2.47137E+005   -1.37084E+003
            6273    4.01651E+005    1.46445E+005   -3.14864E+005   -4.27590E+004   -3.14864E+005    4.61310E+005    7.03927E+004   -2.70424E+005   -5.64052E+004   -2.80664E+004   -1.26707E+005   -8.74648E+004    2.08674E+005    5.27474E+002
            6274    3.46947E+005    1.31725E+005   -2.66062E+005   -2.59807E+004   -2.66062E+005    3.97786E+005    5.34393E+004   -2.44376E+005   -4.23758E+004   -1.49120E+004   -1.03030E+005   -7.89979E+004    1.78394E+005    5.07311E+003
            6275    1.10611E+005    5.04523E+004   -7.60695E+004    2.32594E+003   -7.60695E+004    1.26522E+005    7.76376E+003   -8.15149E+004   -2.49095E+003    2.03335E+003   -2.28337E+004   -7.76222E+003    6.19278E+004    2.74482E+003
            6276    1.01444E+005    4.60937E+004   -6.91459E+004    6.66295E+003   -6.91459E+004    1.15240E+005    5.46309E+003   -8.13056E+004   -2.05253E+003    4.35555E+003   -1.86923E+004   -2.26652E+004    5.20365E+004    8.20314E+003
            6277    1.06105E+005    4.83105E+004   -7.23474E+004    6.40951E+003   -7.23474E+004    1.20658E+005    5.87580E+003   -8.42199E+004   -4.44746E+003    5.70914E+003   -1.88891E+004   -4.28077E+004    3.93835E+004    1.47110E+004
            6278    8.49894E+004    3.55713E+004   -6.16550E+004   -1.48837E+003   -6.16550E+004    9.72263E+004    9.19067E+003   -6.25042E+004   -5.16469E+003   -1.88188E+003   -2.05254E+004   -4.47779E+003    4.77452E+004    3.00378E+003
            6279    7.54747E+004    3.00169E+004   -5.53886E+004    2.34233E+003   -5.53886E+004    8.54055E+004    7.67648E+003   -6.24235E+004   -4.85377E+003   -1.37087E+003   -1.68048E+004   -1.33979E+004    3.97092E+004    8.77240E+003
            6280    6.91621E+004    2.61457E+004   -5.01269E+004    8.50960E+003   -5.01269E+004    7.62726E+004    5.15722E+003   -6.38021E+004   -3.89274E+003    1.09410E+003   -1.26730E+004   -2.48120E+004    2.70080E+004    1.41707E+004
            6281    6.87101E+004    3.93073E+004   -3.99776E+004    2.21599E+003   -3.99776E+004    7.92849E+004   -5.15244E+002   -3.30393E+004    1.37165E+003    1.96962E+003   -1.79554E+003   -1.61924E+003    3.94601E+004    3.14298E+003
            6282    5.86864E+004    3.28987E+004   -3.46063E+004    4.28449E+003   -3.46063E+004    6.75050E+004   -8.58938E+002   -3.74558E+004    1.46685E+003    2.24081E+003   -1.13085E+003   -4.32405E+003    3.24209E+004    8.66621E+003
            6283    4.47099E+004    1.98126E+004   -2.98030E+004    7.36150E+003   -2.98030E+004    4.96156E+004    8.76302E+002   -4.05254E+004   -5.63007E+002    6.76813E+002   -2.74271E+003   -7.97385E+003    2.06670E+004    1.31385E+004
            6284    4.23364E+005    1.07592E+005   -3.78209E+005   -8.80387E+004   -3.78209E+005    4.85801E+005    1.19552E+005   -2.92382E+005   -9.36715E+004   -8.94526E+004   -1.75532E+005    8.40658E+003    2.38394E+005   -2.21023E+004
            6285    4.83427E+005    1.37413E+005   -4.16735E+005   -8.14313E+004   -4.16735E+005    5.54149E+005    1.20251E+005   -3.42096E+005   -9.47682E+004   -8.24405E+004   -1.83545E+005    3.52509E+004    2.71117E+005   -1.05250E+004
            6286    5.42790E+005    1.80723E+005   -4.43318E+005   -8.07990E+004   -4.43318E+005    6.24041E+005    1.14465E+005   -3.53352E+005   -9.19880E+004   -6.93878E+004   -1.82019E+005    8.47729E+004    2.95709E+005    5.13028E+003
            6287    4.69949E+005    1.14647E+005   -4.24437E+005   -1.01099E+005   -4.24437E+005    5.39083E+005    1.36963E+005   -3.27170E+005   -1.07331E+005   -1.01858E+005   -2.01700E+005    6.78856E+003    2.64860E+005   -1.64330E+004
            6288    5.34667E+005    1.44535E+005   -4.68295E+005   -9.70862E+004   -4.68295E+005    6.12830E+005    1.40282E+005   -3.79092E+005   -1.10582E+005   -9.75841E+004   -2.12681E+005    2.66654E+004    3.00902E+005   -7.93577E+003
            6289    6.03066E+005    1.93522E+005   -4.99906E+005   -9.78996E+004   -4.99906E+005    6.93428E+005    1.34761E+005   -3.90727E+005   -1.08047E+005   -9.13908E+004   -2.04845E+005    6.53351E+004    3.36406E+005    6.20212E+003
            6290    5.03465E+005    1.20138E+005   -4.57332E+005   -1.10517E+005   -4.57332E+005    5.77470E+005    1.49237E+005   -3.51375E+005   -1.16838E+005   -1.10701E+005   -2.20173E+005    3.56067E+003    2.83953E+005   -8.18177E+003
            6291    5.70272E+005    1.49797E+005   -5.03838E+005   -1.07870E+005   -5.03838E+005    6.53635E+005    1.53971E+005   -4.04415E+005   -1.21259E+005   -1.07995E+005   -2.32657E+005    1.35885E+004    3.21736E+005   -4.11604E+003
            6292    6.46995E+005    2.01545E+005   -5.42393E+005   -1.11103E+005   -5.42393E+005    7.43939E+005    1.50650E+005   -4.19191E+005   -1.20615E+005   -1.09301E+005   -2.22035E+005    3.52286E+004    3.66638E+005    3.96868E+003
            6293    5.13558E+005    1.21916E+005   -4.67099E+005   -1.13114E+005   -4.67099E+005    5.89016E+005    1.52766E+005   -3.58871E+005   -1.19590E+005   -1.13118E+005   -2.25590E+005   -5.91750E+002    2.89698E+005    9.19913E+002
            6294    5.81246E+005    1.51309E+005   -5.14893E+005   -1.11227E+005   -5.14893E+005    6.66201E+005    1.58270E+005   -4.12354E+005   -1.24654E+005   -1.11228E+005   -2.38930E+005   -1.85603E+003    3.28158E+005    3.76979E+002
            6295    6.63434E+005    2.04783E+005   -5.58059E+005   -1.15824E+005   -5.58059E+005    7.62842E+005    1.56367E+005   -4.29809E+005   -1.25128E+005   -1.15823E+005   -2.28150E+005   -1.42167E+003    3.77924E+005    2.56177E+001
            6296    4.96889E+005    1.18959E+005   -4.50976E+005   -1.08741E+005   -4.50976E+005    5.69935E+005    1.46919E+005   -3.46679E+005   -1.15026E+005   -1.09034E+005   -2.16697E+005   -4.44961E+003    2.80203E+005    1.02680E+004
            6297    5.63332E+005    1.48285E+005   -4.97366E+005   -1.06024E+005   -4.97366E+005    6.45651E+005    1.51702E+005   -3.99881E+005   -1.19469E+005   -1.06183E+005   -2.29454E+005   -1.70909E+004    3.17628E+005    4.80030E+003
            6298    6.44036E+005    2.01099E+005   -5.39450E+005   -1.10248E+005   -5.39450E+005    7.40549E+005    1.49533E+005   -4.16994E+005   -1.19692E+005   -1.08187E+005   -2.20720E+005   -3.77906E+004    3.64666E+005   -4.13296E+003
            6299    4.58486E+005    1.12349E+005   -4.13603E+005   -9.82758E+004   -4.13603E+005    5.25952E+005    1.33177E+005   -3.18931E+005   -1.04313E+005   -9.91922E+004   -1.96025E+005   -7.45115E+003    2.58330E+005    1.76426E+004
            6300    5.22027E+005    1.41947E+005   -4.56381E+005   -9.38559E+004   -4.56381E+005    5.98328E+005    1.36097E+005   -3.70315E+005   -1.07320E+005   -9.44908E+004   -2.06479E+005   -2.84753E+004    2.93588E+005    8.73891E+003
            6301    5.97533E+005    1.91884E+005   -4.95159E+005   -9.66344E+004   -4.95159E+005    6.87042E+005    1.33303E+005   -3.87643E+005   -1.06946E+005   -8.99438E+004   -2.03019E+005   -6.72677E+004    3.32778E+005   -5.62602E+003
            6302    1.05993E+005    7.22816E+004    7.22816E+004   -6.42352E+003   -4.82413E+004    1.20523E+005   -5.87225E+003    8.41799E+004    4.44321E+003   -5.69629E+003    1.88698E+004    4.27738E+004    3.93154E+004    1.47355E+004
            6303    1.01268E+005    6.90133E+004    6.90133E+004   -6.65904E+003   -4.60275E+004    1.15041E+005   -5.44225E+003    8.11569E+004    2.03622E+003   -4.35663E+003    1.86472E+004    2.25271E+004    5.19923E+004    8.17082E+003
            6304    1.10140E+005    7.56928E+004    7.56928E+004   -2.34443E+003   -5.02944E+004    1.25987E+005   -7.68466E+003    8.11227E+004    2.45246E+003   -2.05168E+003    2.26532E+004    7.72006E+003    6.16720E+004    2.73474E+003
            6305    6.88985E+004    4.99576E+004    4.99576E+004   -8.52181E+003   -2.59953E+004    7.59529E+004   -5.14683E+003    6.36204E+004    3.88012E+003   -1.06769E+003    1.26281E+004    2.46652E+004    2.69373E+004    1.41509E+004
            6306    7.56159E+004    5.54940E+004    5.54940E+004   -2.32756E+003   -3.00760E+004    8.55700E+004   -7.69679E+003    6.25159E+004    4.86879E+003    1.36677E+003    1.68548E+004    1.34038E+004    3.97954E+004    8.75350E+003
            6307    8.48252E+004    6.15312E+004    6.15312E+004    1.51840E+003   -3.55137E+004    9.70449E+004   -9.17864E+003    6.23136E+004    5.16374E+003    1.91117E+003    2.04610E+004    4.44395E+003    4.76609E+004    3.00286E+003
            6308    4.45530E+004    2.96286E+004    2.96286E+004   -7.20415E+003   -1.98922E+004    4.95208E+004   -8.44106E+002    4.01768E+004    5.30657E+002   -6.80178E+002    2.68184E+003    7.76276E+003    2.06331E+004    1.31443E+004
            6309    5.87996E+004    3.47194E+004    3.47194E+004   -4.35955E+003   -3.29035E+004    6.76229E+004    8.47883E+002    3.78095E+004   -1.46296E+003   -2.25997E+003    1.17928E+003    4.45649E+003    3.24700E+004    8.66375E+003
            6310    6.87029E+004    3.99428E+004    3.99428E+004   -2.23154E+003   -3.93344E+004    7.92773E+004    5.41054E+002    3.29707E+004   -1.39020E+003   -1.98356E+003    1.75059E+003    1.63711E+003    3.94572E+004    3.12823E+003
            6311    2.35585E+005    1.18541E+005   -1.52989E+005   -2.93983E+003   -1.52989E+005    2.71530E+005    1.24626E+004   -1.33264E+005   -5.38426E+003   -2.95812E+003   -2.90453E+004    5.62748E+002    1.35228E+005   -2.33224E+003
            6312    2.31048E+005    1.15376E+005   -1.50715E+005   -9.43082E+002   -1.50715E+005    2.66091E+005    1.20940E+004   -1.38557E+005   -2.69612E+003   -8.47453E+002   -3.27384E+004    3.62202E+003    1.32133E+005    1.29985E+003
            6313    2.11823E+005    1.06262E+005   -1.37679E+005   -2.63813E+002   -1.37679E+005    2.43941E+005    1.05600E+004   -1.27326E+005   -1.82150E+003   -6.05190E+001   -2.97980E+004    5.85523E+003    1.21003E+005    1.37737E+003
            6314    1.85482E+005    8.56351E+004   -1.27291E+005   -8.19945E+002   -1.27291E+005    2.12926E+005    1.41587E+004   -1.26682E+005   -4.20636E+003   -5.21320E+002   -3.77486E+004    6.83067E+003    1.04878E+005    1.06122E+003
            6315    1.47824E+005    6.81512E+004   -1.01344E+005    8.84080E+002   -1.01344E+005    1.69495E+005    1.07695E+004   -1.03991E+005   -2.91089E+003    9.66227E+002   -3.03638E+004    6.40751E+003    8.33713E+004   -6.77096E+002
            6316    2.49403E+005    1.11326E+005   -1.75049E+005   -5.52357E+003   -1.75049E+005    2.86375E+005    2.30822E+004   -1.69174E+005   -1.46442E+004   -5.77693E+003   -4.88254E+004    7.31500E+003    1.41954E+005   -3.58218E+003
            6317    2.34889E+005    1.05243E+005   -1.64630E+005   -6.26172E+003   -1.64630E+005    2.69873E+005    2.18828E+004   -1.56417E+005   -1.17964E+004   -5.41566E+003   -4.84365E+004    1.45118E+004    1.32812E+005    1.51295E+003
            6318    2.10323E+005    1.00547E+005   -1.41080E+005    9.03399E+002   -1.41080E+005    2.41626E+005    1.32098E+004   -1.40465E+005   -5.68114E+003    3.47559E+003   -3.74239E+004    2.04146E+004    1.17696E+005    3.93441E+003
            6319    1.79956E+005    8.12986E+004   -1.25204E+005   -1.91338E+003   -1.25204E+005    2.06502E+005    1.52729E+004   -1.24174E+005   -6.74667E+003    4.68792E+002   -3.95407E+004    2.21740E+004    9.92332E+004    1.02679E+003
            6320    1.41902E+005    6.66988E+004   -9.57819E+004    3.79153E+003   -9.57819E+004    1.62481E+005    8.43053E+003   -1.02688E+005   -2.32806E+003    4.83528E+003   -2.77988E+004    1.94553E+004    7.76889E+004   -1.94597E+003
            6321    2.72007E+005    1.09682E+005   -2.02348E+005   -1.52558E+004   -2.02348E+005    3.12030E+005    3.59741E+004   -1.89249E+005   -2.56767E+004   -1.66233E+004   -6.56223E+004    2.22268E+004    1.53032E+005   -8.36689E+003
            6322    2.52318E+005    1.06574E+005   -1.82905E+005   -9.59976E+003   -1.82905E+005    2.89479E+005    2.86434E+004   -1.75035E+005   -1.81619E+004   -5.85015E+003   -6.19181E+004    3.40307E+004    1.38543E+005    1.02785E+003
            6323    2.16588E+005    9.84756E+004   -1.50029E+005   -1.39844E+003   -1.50029E+005    2.48505E+005    1.76507E+004   -1.49968E+005   -1.06419E+004    4.11562E+003   -4.64260E+004    4.02196E+004    1.15515E+005   -1.67325E+002
            6324    1.81269E+005    8.11703E+004   -1.26748E+005   -1.91333E+003   -1.26748E+005    2.07919E+005    1.58305E+004   -1.26441E+005   -8.33358E+003    4.27443E+003   -4.34322E+004    3.87467E+004    9.40145E+004   -1.27658E+003
            6325    1.39071E+005    6.51866E+004   -9.39323E+004    4.38206E+003   -9.39323E+004    1.59119E+005    8.12122E+003   -1.02020E+005   -3.10127E+003    6.21930E+003   -2.74817E+004    3.30330E+004    7.08631E+004   -5.59972E+003
            6326    3.16183E+005    1.22022E+005   -2.40502E+005   -2.17708E+004   -2.40502E+005    3.62524E+005    4.67504E+004   -2.22581E+005   -3.56422E+004   -2.00612E+004   -8.45479E+004    5.16957E+004    1.71680E+005   -6.73221E+003
            6327    2.79591E+005    1.13475E+005   -2.06891E+005   -1.21393E+004   -2.06891E+005    3.20366E+005    3.51854E+004   -1.99513E+005   -2.54196E+004   -2.80790E+003   -7.73286E+004    6.52179E+004    1.42538E+005   -5.17008E+003
            6328    2.30681E+005    1.05213E+005   -1.59556E+005   -1.92759E+003   -1.59556E+005    2.64768E+005    1.87568E+004   -1.58284E+005   -1.37325E+004    9.86990E+003   -5.24078E+004    6.43078E+004    1.12214E+005   -4.67654E+003
            6329    1.88784E+005    8.44901E+004   -1.32174E+005   -3.06016E+003   -1.32174E+005    2.16664E+005    1.69145E+004   -1.29783E+005   -1.13774E+004    8.17637E+003   -4.75426E+004    5.82900E+004    8.73832E+004   -6.86037E+003
            6330    1.41307E+005    6.81115E+004   -9.36308E+004    5.87714E+003   -9.36308E+004    1.61742E+005    6.54740E+003   -1.02930E+005   -3.77367E+003    1.11168E+004   -2.69853E+004    4.75956E+004    6.27115E+004   -9.44129E+003
            6331    1.62753E+005    7.96839E+004   -1.07337E+005    2.17304E+003   -1.07337E+005    1.87020E+005    8.49322E+003   -1.07866E+005   -6.91599E+003    1.39230E+004   -3.24866E+004    6.86636E+004    5.74396E+004   -1.65879E+004
            6332    2.16705E+005    1.03277E+005   -1.46071E+005   -3.21945E+003   -1.46071E+005    2.49348E+005    1.53376E+004   -1.36384E+005   -1.21722E+004    1.72491E+004   -5.10897E+004    8.53653E+004    8.34188E+004   -1.52549E+004
            6333    2.68593E+005    1.21495E+005   -1.87434E+005   -9.21141E+003   -1.87434E+005    3.08929E+005    2.50500E+004   -1.71997E+005   -2.06204E+004    1.46710E+004   -6.92006E+004    9.70816E+004    1.12625E+005   -1.28353E+004
            6334    3.15315E+005    1.34322E+005   -2.28098E+005   -1.66777E+004   -2.28098E+005    3.62419E+005    3.68179E+004   -2.07239E+005   -2.93005E+004    6.37712E+003   -8.75304E+004    1.01971E+005    1.42822E+005   -9.89864E+003
            6335    3.69402E+005    1.44544E+005   -2.79399E+005   -2.66648E+004   -2.79399E+005    4.23943E+005    5.38398E+004   -2.54150E+005   -4.30652E+004   -8.86185E+003   -1.09592E+005    9.79038E+004    1.82308E+005   -6.38854E+003
            6336    4.16366E+005    1.51166E+005   -3.26885E+005   -4.35779E+004   -3.26885E+005    4.78051E+005    7.30988E+004   -2.83073E+005   -5.86683E+004   -2.83195E+004   -1.32309E+005    9.24116E+004    2.15370E+005   -1.77073E+003
            6337    4.77082E+005    1.66166E+005   -3.82173E+005   -6.21705E+004   -3.82173E+005    5.48339E+005    9.27258E+004   -3.13836E+005   -7.45955E+004   -4.74257E+004   -1.56156E+005    9.22348E+004    2.53283E+005    2.76177E+003
            6338    4.28370E+005    1.29205E+005   -3.61844E+005   -6.48004E+004   -3.61844E+005    4.91048E+005    9.91463E+004   -3.02986E+005   -7.78242E+004   -6.64553E+004   -1.53160E+005    3.91445E+004    2.39297E+005   -1.22885E+004
            6339    3.73385E+005    1.02427E+005   -3.26312E+005   -7.25352E+004   -3.26312E+005    4.28739E+005    9.88067E+004   -2.53223E+005   -7.73208E+004   -7.45824E+004   -1.44517E+005    8.89662E+003    2.10065E+005   -2.63966E+004
            6340    3.72226E+005    1.22470E+005   -3.04353E+005   -4.71401E+004   -3.04353E+005    4.26823E+005    7.63410E+004   -2.61443E+005   -5.92785E+004   -4.95699E+004   -1.20175E+005    3.88707E+004    2.07439E+005   -1.33264E+004
            6341    3.28296E+005    9.91878E+004   -2.78261E+005   -5.90844E+004   -2.78261E+005    3.77449E+005    7.93860E+004   -2.13511E+005   -6.18608E+004   -6.10358E+004   -1.15261E+005    7.03722E+003    1.84828E+005   -2.73781E+004
            6342    2.95183E+005    1.00967E+005   -2.38766E+005   -4.50438E+004   -2.38766E+005    3.39733E+005    6.09477E+004   -1.83527E+005   -4.67118E+004   -4.67204E+004   -8.94110E+004    5.23780E+003    1.66212E+005   -2.79796E+004
            6343    2.65355E+005    9.99028E+004   -2.05720E+005   -3.39488E+004   -2.05720E+005    3.05623E+005    4.65886E+004   -1.58446E+005   -3.53183E+004   -3.49170E+004   -6.95306E+004    2.85097E+003    1.49495E+005   -2.68239E+004
            6344    2.43322E+005    1.01436E+005   -1.79189E+005   -2.69201E+004   -1.79189E+005    2.80625E+005    3.48913E+004   -1.28400E+005   -2.61580E+004   -2.69020E+004   -5.16137E+004   -1.23861E+002    1.36613E+005   -2.93622E+004
            6345    2.21587E+005    8.12072E+004   -1.72539E+005   -1.71937E+004   -1.72539E+005    2.53746E+005    3.61751E+004   -1.60074E+005   -2.69504E+004   -1.67029E+004   -6.48720E+004   -3.62459E+002    1.23262E+005   -2.30105E+004
            6346    3.18517E+005    1.11119E+005   -2.54469E+005   -3.68546E+004   -2.54469E+005    3.65588E+005    6.00681E+004   -2.18481E+005   -4.56617E+004   -3.98372E+004   -9.47054E+004    2.68257E+004    1.78844E+005   -1.43107E+004
            6347    2.73582E+005    1.06151E+005   -2.08586E+005   -2.77073E+004   -2.08586E+005    3.14737E+005    4.33807E+004   -1.73548E+005   -3.18222E+004   -2.98970E+004   -6.84230E+004    1.10949E+004    1.55131E+005   -1.70032E+004
            6348    2.52648E+005    1.01467E+005   -1.88741E+005   -1.78373E+004   -1.88741E+005    2.90208E+005    3.50372E+004   -1.69524E+005   -2.48185E+004   -1.81700E+004   -6.21231E+004    1.71596E+003    1.42650E+005   -1.90756E+004
            6349    2.30382E+005    1.07052E+005   -1.57511E+005   -1.13208E+003   -1.57511E+005    2.64563E+005    1.71972E+004   -1.55789E+005   -1.05282E+004   -1.03316E+003   -4.00301E+004   -8.17287E+002    1.31305E+005   -6.05324E+003
            6350    2.34100E+005    1.53012E+005    1.53012E+005    3.22936E+003   -1.16755E+005    2.69767E+005   -1.31620E+004    1.34558E+005    4.88485E+003    3.21702E+003    3.13842E+004    4.05420E+003    1.34169E+005    2.21779E+002
            6351    2.17158E+005    1.45056E+005    1.45056E+005    7.30842E+002   -1.04689E+005    2.49744E+005   -1.36993E+004    1.39635E+005    4.11672E+003    4.32714E+001    3.69379E+004    9.63125E+003    1.23323E+005   -2.94035E+003
            6352    1.83717E+005    1.23348E+005    1.23348E+005   -1.74795E+003   -8.75748E+004    2.10923E+005   -1.13418E+004    1.25101E+005    3.12457E+003   -2.30960E+003    3.32105E+004    1.17425E+004    1.03665E+005   -4.59542E+002
            6353    1.46766E+005    1.05495E+005    1.05495E+005    1.30736E+003   -6.23534E+004    1.67848E+005   -1.48162E+004    1.08468E+005    6.22038E+003    1.06776E+003    3.71603E+004    9.93657E+003    8.18462E+004    1.22003E+003
            6354    2.54492E+005    1.81385E+005    1.81385E+005    7.09615E+003   -1.10659E+005    2.92044E+005   -2.59406E+004    1.75461E+005    1.71148E+004    4.96687E+003    5.57400E+004    2.70203E+004    1.41969E+005   -8.28547E+002
            6355    2.17562E+005    1.52860E+005    1.52860E+005    3.53945E+003   -9.67597E+004    2.49619E+005   -1.98798E+004    1.50687E+005    1.16537E+004   -2.48163E+003    5.04674E+004    3.79444E+004    1.16552E+005   -1.34761E+003
            6356    1.74645E+005    1.17429E+005    1.17429E+005   -2.80941E+003   -8.28966E+004    2.00325E+005   -1.05743E+004    1.21747E+005    5.08685E+003   -7.83918E+003    3.44751E+004    3.65827E+004    9.14136E+004    1.39991E+003
            6357    1.38006E+005    9.79959E+004    9.79959E+004   -7.00791E+002   -5.97031E+004    1.57699E+005   -1.25307E+004    1.03314E+005    6.53856E+003   -2.41996E+003    3.34734E+004    3.08392E+004    7.08305E+004    5.61495E+003
            6358    1.51008E+005    1.01639E+005    1.01639E+005   -2.24909E+003   -7.15850E+004    1.73224E+005   -9.26822E+003    1.05109E+005    6.73348E+003   -1.05796E+004    3.16508E+004    5.99347E+004    5.79548E+004    1.41244E+004
            6359    1.98287E+005    1.33820E+005    1.33820E+005    7.96526E+001   -9.39935E+004    2.27814E+005   -1.33021E+004    1.32158E+005    1.03301E+004   -1.42563E+004    4.38325E+004    7.36704E+004    8.16913E+004    1.24462E+004
            6360    2.43957E+005    1.69776E+005    1.69776E+005    5.40126E+003   -1.10529E+005    2.80305E+005   -2.15497E+004    1.62208E+005    1.64661E+004   -1.22299E+004    6.04128E+004    8.16433E+004    1.08352E+005    9.69153E+003
            6361    3.00346E+005    2.20207E+005    2.20207E+005    1.09169E+004   -1.23929E+005    3.44136E+005   -3.57315E+004    2.14483E+005    2.76876E+004   -2.45308E+003    8.19600E+004    8.23392E+004    1.46223E+005    8.84680E+003
            6362    3.46508E+005    2.65605E+005    2.65605E+005    2.58690E+004   -1.31685E+005    3.97290E+005   -5.32632E+004    2.43983E+005    4.22536E+004    1.47163E+004    1.02820E+005    7.91474E+004    1.78048E+005    5.07290E+003
            6363    4.02181E+005    3.15224E+005    3.15224E+005    4.28478E+004   -1.46706E+005    4.61930E+005   -7.04551E+004    2.70582E+005    5.64640E+004    2.80833E+004    1.26818E+005    8.77741E+004    2.08873E+005    5.36457E+002
            6364    4.67566E+005    3.74638E+005    3.74638E+005    6.10609E+004   -1.62769E+005    5.37407E+005   -9.09763E+004    3.07475E+005    7.31757E+004    4.69494E+004    1.52804E+005    9.24483E+004    2.47558E+005   -1.42038E+003
            6365    5.34255E+005    4.35099E+005    4.35099E+005    7.86840E+004   -1.79176E+005    6.14275E+005   -1.11535E+005    3.46819E+005    8.95316E+004    6.70083E+004    1.78066E+005    8.55120E+004    2.90447E+005   -4.94005E+003
            6366    4.69232E+005    4.04214E+005    4.04214E+005    7.87215E+004   -1.33658E+005    5.37872E+005   -1.16426E+005    3.32120E+005    9.16559E+004    7.99953E+004    1.77627E+005    3.55084E+004    2.62981E+005    1.13967E+004
            6367    4.09188E+005    3.64304E+005    3.64304E+005    8.44215E+004   -1.05310E+005    4.69614E+005   -1.14472E+005    2.81367E+005    8.96450E+004    8.59986E+004    1.67772E+005    8.53771E+003    2.30344E+005    2.33697E+004
            6368    4.12297E+005    3.46917E+005    3.46917E+005    6.19590E+004   -1.25847E+005    4.72764E+005   -9.43430E+004    2.89701E+005    7.40054E+004    6.37790E+004    1.45245E+005    3.72956E+004    2.30543E+005    1.23629E+004
            6369    3.59896E+005    3.14071E+005    3.14071E+005    6.97926E+004   -9.92229E+004    4.13294E+005   -9.48802E+004    2.43341E+005    7.41297E+004    7.16942E+004    1.38817E+005    8.07193E+003    2.02454E+005    2.59412E+004
            6370    3.59634E+005    2.94947E+005    2.94947E+005    4.61720E+004   -1.17398E+005    4.12345E+005   -7.45736E+004    2.53138E+005    5.77454E+004    4.88371E+004    1.17138E+005    3.46911E+004    2.00844E+005    1.38460E+004
            6371    3.14567E+005    2.63793E+005    2.63793E+005    5.41690E+004   -9.79160E+004    3.61709E+005   -7.33486E+004    2.03643E+005    5.70563E+004    5.63122E+004    1.06677E+005    7.04777E+003    1.76844E+005    2.87626E+004
            6372    3.05042E+005    2.37625E+005    2.37625E+005    3.00018E+004   -1.12601E+005    3.50226E+005   -5.16755E+004    2.07529E+005    3.88105E+004    3.30398E+004    8.31763E+004    2.71623E+004    1.71276E+005    1.38224E+004
            6373    2.78709E+005    2.23931E+005    2.23931E+005    4.29076E+004   -9.70182E+004    3.20949E+005   -5.66068E+004    1.68144E+005    4.36548E+004    4.37781E+004    8.23874E+004    2.65574E+003    1.57084E+005    2.66837E+004
            6374    2.54752E+005    1.90173E+005    1.90173E+005    3.02260E+004   -1.03602E+005    2.93775E+005   -3.89322E+004    1.36327E+005    2.90673E+004    3.06157E+004    5.71136E+004    8.56758E+002    1.43364E+005    2.88140E+004
            6375    2.26966E+005    1.73052E+005    1.73052E+005    1.74997E+004   -8.73876E+004    2.60440E+005   -3.43881E+004    1.56729E+005    2.51639E+004    1.73052E+004    6.06953E+004    1.32093E+002    1.27034E+005    2.23370E+004
            6376    2.65713E+005    2.01328E+005    2.01328E+005    1.96994E+004   -1.03639E+005    3.04968E+005   -3.91294E+004    1.82458E+005    2.81872E+004    2.16166E+004    6.75845E+004    1.13514E+004    1.50227E+005    1.48132E+004
            6377    2.35113E+005    1.59236E+005    1.59236E+005    1.98910E+003   -1.11047E+005    2.70283E+005   -1.67259E+004    1.53582E+005    9.66477E+003    2.03912E+003    3.84738E+004    9.14109E+002    1.34303E+005    4.32670E+003
            6378    1.12823E+005    5.22556E+004   -7.65723E+004    4.62283E+003   -7.65723E+004    1.28828E+005    6.56464E+003   -8.53584E+004   -5.48220E+003    6.86016E+003   -2.10719E+004    4.83784E+004    3.79077E+004   -1.64207E+004
            6379    1.03692E+005    4.20484E+004   -7.53922E+004    3.52508E+003   -7.53922E+004    1.17441E+005    9.93959E+003   -8.52026E+004   -7.24960E+003    2.09949E+003   -2.46686E+004    3.40505E+004    4.58423E+004   -1.17698E+004
            6380    1.05905E+005    4.35358E+004   -7.67803E+004    2.32016E+003   -7.67803E+004    1.20316E+005    1.03081E+004   -8.48173E+004   -6.18972E+003    1.06009E+003   -2.57947E+004    2.41898E+004    5.38478E+004   -7.80048E+003
            6381    1.10166E+005    4.58232E+004   -7.99455E+004   -5.35318E+002   -7.99455E+004    1.25769E+005    1.15525E+004   -8.35697E+004   -6.31127E+003   -1.21426E+003   -2.71321E+004    1.46555E+004    6.01713E+004   -4.64427E+003
            6382    1.15673E+005    4.80305E+004   -8.40687E+004   -9.17183E+002   -8.40687E+004    1.32099E+005    1.23185E+004   -8.73495E+004   -6.06293E+003   -9.73885E+002   -2.99186E+004    4.73906E+003    6.47818E+004   -1.45223E+003
            6383    6.92462E+004    2.86381E+004   -4.82343E+004    9.25458E+003   -4.82343E+004    7.68725E+004    3.44721E+003   -6.26931E+004   -2.45332E+003    2.66707E+003   -1.05554E+004    2.73230E+004    2.41778E+004   -1.49258E+004
            6384    6.90227E+004    3.07899E+004   -4.58568E+004    1.13898E+004   -4.58568E+004    7.66467E+004    1.22572E+003   -6.24328E+004    4.65445E+002    4.22648E+003   -8.36907E+003    1.99958E+004    3.16934E+004   -1.19134E+004
            6385    7.43936E+004    3.51120E+004   -4.92199E+004    7.10594E+003   -4.92199E+004    8.43320E+004    2.33399E+003   -6.07086E+004    3.65011E+002    2.64667E+003   -1.00137E+004    1.46520E+004    3.87341E+004   -9.17922E+003
            6386    8.07850E+004    3.93526E+004   -5.29838E+004    4.66054E+003   -5.29838E+004    9.23364E+004    2.99023E+003   -6.02436E+004    1.57353E+002    3.07455E+003   -1.22026E+004    8.97593E+003    4.46865E+004   -5.67197E+003
            6387    8.59700E+004    4.15876E+004   -5.71200E+004    1.36902E+003   -5.71200E+004    9.87076E+004    4.72116E+003   -5.84318E+004   -8.31358E+002    1.17633E+003   -1.45084E+004    3.12449E+003    4.87537E+004   -2.01943E+003
            6388    4.24464E+004    1.61742E+004   -2.99533E+004    7.45909E+003   -2.99533E+004    4.61275E+004    2.10667E+003   -4.03591E+004   -2.09549E+003   -1.97970E+002   -4.02653E+003    8.70542E+003    1.80610E+004   -1.39613E+004
            6389    5.06627E+004    2.06138E+004   -3.67256E+004    1.98646E+003   -3.67256E+004    5.73394E+004    4.70846E+003   -4.18461E+004   -4.43483E+003   -2.38266E+003   -7.30789E+003    6.50152E+003    2.58880E+004   -1.17042E+004
            6390    5.92889E+004    2.69134E+004   -4.09900E+004    5.12792E+002   -4.09900E+004    6.79034E+004    4.52125E+003   -4.27097E+004   -4.10475E+003   -1.61688E+003   -7.84213E+003    4.68921E+003    3.25595E+004   -8.93293E+003
            6391    6.64005E+004    3.18214E+004   -4.46592E+004   -1.72242E+003   -4.46592E+004    7.64806E+004    4.85339E+003   -3.95163E+004   -3.98821E+003   -2.56293E+003   -8.00903E+003    2.98615E+003    3.76652E+004   -5.84040E+003
            6392    7.14940E+004    3.50715E+004   -4.72827E+004   -1.13284E+003   -4.72827E+004    8.23542E+004    4.44803E+003   -4.23139E+004   -3.46683E+003   -1.21699E+003   -8.66027E+003    9.32734E+002    4.10386E+004   -2.04500E+003
            6393    5.42595E+005    4.43026E+005    4.43026E+005    8.06777E+004   -1.80796E+005    6.23822E+005   -1.14303E+005    3.53128E+005    9.18580E+004    6.91935E+004    1.81857E+005   -8.50029E+004    2.95522E+005    5.14712E+003
            6394    4.83847E+005    4.17274E+005    4.17274E+005    8.16563E+004   -1.37353E+005    5.54627E+005   -1.20526E+005    3.42438E+005    9.49764E+004    8.26874E+004    1.83914E+005   -3.49637E+004    2.71385E+005   -1.05934E+004
            6395    4.24384E+005    3.79246E+005    3.79246E+005    8.83630E+004   -1.07726E+005    4.86971E+005   -1.19961E+005    2.93113E+005    9.39914E+004    8.97576E+004    1.76134E+005   -8.35806E+003    2.38977E+005   -2.19813E+004
            6396    6.03366E+005    5.00117E+005    5.00117E+005    9.79989E+004   -1.93665E+005    6.93782E+005   -1.34817E+005    3.90708E+005    1.08095E+005    9.14841E+004    2.04872E+005   -6.53812E+004    3.36581E+005    6.22040E+003
            6397    5.34926E+005    4.68576E+005    4.68576E+005    9.70956E+004   -1.44538E+005    6.13114E+005   -1.40378E+005    3.79460E+005    1.10658E+005    9.75922E+004    2.12883E+005   -2.65754E+004    3.01044E+005   -7.92767E+003
            6398    4.70758E+005    4.25238E+005    4.25238E+005    1.01327E+005   -1.14771E+005    5.40009E+005   -1.37264E+005    3.27767E+005    1.07568E+005    1.02074E+005    2.02151E+005   -6.75077E+003    2.65319E+005   -1.63013E+004
            6399    6.47861E+005    5.43028E+005    5.43028E+005    1.11178E+005   -2.01908E+005    7.44936E+005   -1.50766E+005    4.19708E+005    1.20708E+005    1.09404E+005    2.22185E+005   -3.49531E+004    3.67169E+005    3.95749E+003
            6400    5.70443E+005    5.03952E+005    5.03952E+005    1.07814E+005   -1.49871E+005    6.53822E+005   -1.53965E+005    4.04640E+005    1.21257E+005    1.07933E+005    2.32705E+005   -1.36085E+004    3.21827E+005   -4.04871E+003
            6401    5.03743E+005    4.57596E+005    4.57596E+005    1.10568E+005   -1.20190E+005    5.77785E+005   -1.49325E+005    3.51613E+005    1.16907E+005    1.10744E+005    2.20323E+005   -3.47754E+003    2.84111E+005   -8.01041E+003
            6402    6.63212E+005    5.57860E+005    5.57860E+005    1.15833E+005   -2.04733E+005    7.62593E+005   -1.56320E+005    4.29520E+005    1.25099E+005    1.15829E+005    2.28031E+005    2.05363E+003    3.77801E+005   -4.72608E+001
            6403    5.81123E+005    5.14769E+005    5.14769E+005    1.11176E+005   -1.51289E+005    6.66057E+005   -1.58219E+005    4.12292E+005    1.24617E+005    1.11177E+005    2.38862E+005    1.86057E+003    3.28088E+005    4.52544E+002
            6404    5.13414E+005    4.66992E+005    4.66992E+005    1.13104E+005   -1.21858E+005    5.88850E+005   -1.52746E+005    3.58775E+005    1.19576E+005    1.13108E+005    2.25554E+005    5.83364E+002    2.89615E+005    1.06432E+003
            6405    6.43525E+005    5.38947E+005    5.38947E+005    1.10113E+005   -2.01018E+005    7.39965E+005   -1.49347E+005    4.16594E+005    1.19546E+005    1.07985E+005    2.20511E+005    3.83654E+004    3.64308E+005   -4.20482E+003
            6406    5.63392E+005    4.97357E+005    4.97357E+005    1.06029E+005   -1.48370E+005    6.45727E+005   -1.51672E+005    3.99813E+005    1.19447E+005    1.06193E+005    2.29377E+005    1.70045E+004    3.17677E+005    4.83363E+003
            6407    4.96247E+005    4.50385E+005    4.50385E+005    1.08605E+005   -1.18815E+005    5.69200E+005   -1.46725E+005    3.46206E+005    1.14877E+005    1.08908E+005    2.16391E+005    4.50531E+003    2.79837E+005    1.04510E+004
            6408    5.96594E+005    4.94435E+005    4.94435E+005    9.64895E+004   -1.91523E+005    6.85957E+005   -1.33134E+005    3.87149E+005    1.06806E+005    8.97796E+004    2.02816E+005    6.73597E+004    3.32203E+005   -5.59452E+003
            6409    5.22481E+005    4.56716E+005    4.56716E+005    9.39635E+004   -1.42145E+005    5.98862E+005   -1.36178E+005    3.70461E+005    1.07385E+005    9.45842E+004    2.06565E+005    2.85674E+004    2.93849E+005    8.66976E+003
            6410    4.57759E+005    4.12911E+005    4.12911E+005    9.81456E+004   -1.12214E+005    5.25126E+005   -1.32948E+005    3.18296E+005    1.04132E+005    9.90540E+004    1.95657E+005    7.31915E+003    2.57921E+005    1.77471E+004
            6411    1.15927E+005    8.42714E+004    8.42714E+004    9.25053E+002   -4.81163E+004    1.32388E+005   -1.23601E+004    8.75625E+004    6.08755E+003    9.79685E+002    3.00130E+004   -4.76024E+003    6.49208E+004   -1.44308E+003
            6412    1.10176E+005    7.99404E+004    7.99404E+004    5.20448E+002   -4.58402E+004    1.25781E+005   -1.15402E+004    8.35813E+004    6.30904E+003    1.19496E+003    2.71167E+004   -1.47327E+004    6.01591E+004   -4.64569E+003
            6413    1.05740E+005    7.66545E+004    7.66545E+004   -2.38655E+003   -4.34594E+004    1.20114E+005   -1.02695E+004    8.47819E+004    6.17660E+003   -1.10421E+003    2.57362E+004   -2.42955E+004    5.36859E+004   -7.86491E+003
            6414    1.03552E+005    7.52946E+004    7.52946E+004   -3.54956E+003   -4.19779E+004    1.17273E+005   -9.92235E+003    8.51351E+004    7.24494E+003   -2.07657E+003    2.45987E+004   -3.41825E+004    4.56254E+004   -1.18716E+004
            6415    1.12689E+005    7.64269E+004    7.64269E+004   -4.65607E+003   -5.22503E+004    1.28677E+005   -6.50684E+003    8.52298E+004    5.42898E+003   -6.89632E+003    2.09879E+004   -4.83495E+004    3.78219E+004   -1.64162E+004
            6416    8.60027E+004    5.71522E+004    5.71522E+004   -1.37211E+003   -4.15912E+004    9.87434E+004   -4.72962E+003    5.84826E+004    8.29547E+002   -1.18349E+003    1.45428E+004   -3.07785E+003    4.87725E+004   -2.00403E+003
            6417    8.08712E+004    5.30524E+004    5.30524E+004   -4.61392E+003   -3.93898E+004    9.24421E+004   -3.01623E+003    6.02365E+004   -1.47057E+002   -3.05122E+003    1.22470E+004   -8.87805E+003    4.47592E+004   -5.64226E+003
            6418    7.44743E+004    4.93010E+004    4.93010E+004   -7.04721E+003   -3.51321E+004    8.44331E+004   -2.37392E+003    6.07184E+004   -3.24943E+002   -2.60495E+003    1.00516E+004   -1.46302E+004    3.87985E+004   -9.16137E+003
            6419    6.87950E+004    4.57097E+004    4.57097E+004   -1.14426E+004   -3.06468E+004    7.63565E+004   -1.20678E+003    6.23233E+004   -4.65927E+002   -4.22330E+003    8.30956E+003   -1.99930E+004    3.15196E+004   -1.19588E+004
            6420    6.92567E+004    4.82279E+004    4.82279E+004   -9.20297E+003   -2.86825E+004    7.69105E+004   -3.44746E+003    6.26344E+004    2.46059E+003   -2.65165E+003    1.05335E+004   -2.74296E+004    2.40485E+004   -1.49641E+004
            6421    7.15416E+004    4.73346E+004    4.73346E+004    1.13156E+003   -3.50726E+004    8.24072E+004   -4.46455E+003    4.24074E+004    3.47771E+003    1.21575E+003    8.70017E+003   -9.40005E+002    4.10648E+004   -2.03167E+003
            6422    6.64401E+004    4.46859E+004    4.46859E+004    1.71708E+003   -3.18398E+004    7.65257E+004   -4.85438E+003    3.95583E+004    3.98742E+003    2.55622E+003    8.01952E+003   -2.99439E+003    3.76905E+004   -5.81884E+003
            6423    5.92417E+004    4.09397E+004    4.09397E+004   -5.17034E+002   -2.69118E+004    6.78515E+004   -4.50364E+003    4.26504E+004    4.08653E+003    1.60550E+003    7.81889E+003   -4.66281E+003    3.25311E+004   -8.94807E+003
            6424    5.07017E+004    3.67141E+004    3.67141E+004   -1.93745E+003   -2.06932E+004    5.74074E+004   -4.69449E+003    4.17515E+004    4.41988E+003    2.38351E+003    7.28008E+003   -6.43589E+003    2.59346E+004   -1.16967E+004
            6425    4.25845E+004    3.00486E+004    3.00486E+004   -7.48711E+003   -1.62281E+004    4.62767E+004   -2.11113E+003    4.04916E+004    2.09925E+003    1.86178E+002    4.04797E+003   -8.74147E+003    1.81590E+004   -1.39495E+004
            6426    3.69102E+005    2.79201E+005    2.79201E+005    2.65434E+004   -1.44381E+005    4.23582E+005   -5.37875E+004    2.54218E+005    4.30209E+004    8.81804E+003    1.09524E+005   -9.76872E+004    1.82225E+005   -6.40936E+003
            6427    3.15267E+005    2.28020E+005    2.28020E+005    1.66060E+004   -1.34341E+005    3.62361E+005   -3.67618E+004    2.07270E+005    2.92666E+004   -6.43112E+003    8.74501E+004   -1.01977E+005    1.42785E+005   -9.92266E+003
            6428    2.67906E+005    1.86902E+005    1.86902E+005    9.09223E+003   -1.21232E+005    3.08134E+005   -2.49209E+004    1.71665E+005    2.05286E+004   -1.47400E+004    6.89740E+004   -9.68758E+004    1.12284E+005   -1.28578E+004
            6429    2.16235E+005    1.45704E+005    1.45704E+005    3.17489E+003   -1.03104E+005    2.48808E+005   -1.52583E+004    1.36057E+005    1.21104E+004   -1.72143E+004    5.08787E+004   -8.51976E+004    8.32426E+004   -1.52099E+004
            6430    1.62135E+005    1.06972E+005    1.06972E+005   -2.20406E+003   -7.93289E+004    1.86301E+005   -8.47975E+003    1.07647E+005    6.91122E+003   -1.38074E+004    3.23354E+004   -6.83992E+004    5.72313E+004   -1.65716E+004
            6431    1.41677E+005    9.38231E+004    9.38231E+004   -5.86184E+003   -6.83558E+004    1.62179E+005   -6.53518E+003    1.03041E+005    3.77985E+003   -1.12024E+004    2.70281E+004   -4.78095E+004    6.28086E+004   -9.43466E+003
            6432    1.39381E+005    9.41292E+004    9.41292E+004   -4.35215E+003   -6.53529E+004    1.59482E+005   -8.14138E+003    1.02150E+005    3.11820E+003   -6.25126E+003    2.75572E+004   -3.33597E+004    7.08971E+004   -5.63511E+003
            6433    1.41954E+005    9.58413E+004    9.58413E+004   -3.80120E+003   -6.66944E+004    1.62536E+005   -8.44854E+003    1.02788E+005    2.35322E+003   -4.86386E+003    2.78563E+004   -1.96815E+004    7.76541E+004   -1.99112E+003
            6434    1.47880E+005    1.01368E+005    1.01368E+005   -8.96952E+002   -6.81911E+004    1.69559E+005   -1.07600E+004    1.04027E+005    2.91403E+003   -9.82221E+002    3.03480E+004   -6.44371E+003    8.34023E+004   -6.66194E+002
            6435    1.89635E+005    1.32769E+005    1.32769E+005    3.04948E+003   -8.48695E+004    2.17638E+005   -1.69829E+004    1.30418E+005    1.14370E+004   -8.23752E+003    4.77490E+004   -5.84799E+004    8.78270E+004   -6.85644E+003
            6436    1.81991E+005    1.27261E+005    1.27261E+005    1.90232E+003   -8.14817E+004    2.08743E+005   -1.58939E+004    1.27000E+005    8.40654E+003   -4.36089E+003    4.36359E+004   -3.90272E+004    9.43262E+004   -1.29711E+003
            6437    1.80131E+005    1.25341E+005    1.25341E+005    1.98512E+003   -8.13700E+004    2.06711E+005   -1.53188E+004    1.24179E+005    6.80175E+003   -4.35135E+002    3.95899E+004   -2.23742E+004    9.92933E+004    1.03373E+003
            6438    1.85447E+005    1.27302E+005    1.27302E+005    8.44992E+002   -8.55838E+004    2.12885E+005   -1.41876E+004    1.26677E+005    4.23041E+003    5.43747E+002    3.77886E+004   -6.92612E+003    1.04849E+005    1.03153E+003
            6439    2.32291E+005    1.60816E+005    1.60816E+005    2.12747E+003   -1.05805E+005    2.66621E+005   -1.90463E+004    1.59304E+005    1.39740E+004   -9.71518E+003    5.28800E+004   -6.46658E+004    1.13067E+005   -4.66454E+003
            6440    2.17641E+005    1.50890E+005    1.50890E+005    1.56714E+003   -9.88270E+004    2.49717E+005   -1.78767E+004    1.50633E+005    1.08355E+004   -3.96593E+003    4.67606E+004   -4.05244E+004    1.16045E+005   -2.15341E+002
            6441    2.10165E+005    1.41025E+005    1.41025E+005   -1.01438E+003   -1.00400E+005    2.41425E+005   -1.32035E+004    1.40730E+005    5.71428E+003   -3.64025E+003    3.75364E+004   -2.06599E+004    1.17537E+005    3.91985E+003
            6442    2.11436E+005    1.37472E+005    1.37472E+005    2.07218E+002   -1.06015E+005    2.43486E+005   -1.05547E+004    1.27377E+005    1.83634E+003   -7.66261E+000    2.98355E+004   -5.98143E+003    1.20765E+005    1.42601E+003
            6443    2.80311E+005    2.07614E+005    2.07614E+005    1.21470E+004   -1.13544E+005    3.21159E+005   -3.54056E+004    2.00449E+005    2.56057E+004    2.85422E+003    7.77568E+004   -6.52574E+004    1.42936E+005   -5.25973E+003
            6444    2.52914E+005    1.83414E+005    1.83414E+005    9.67894E+003   -1.06745E+005    2.90159E+005   -2.87829E+004    1.75493E+005    1.82602E+004    5.88808E+003    6.22004E+004   -3.41514E+004    1.38847E+005    1.06574E+003
            6445    2.34893E+005    1.64708E+005    1.64708E+005    6.43042E+003   -1.05182E+005    2.69890E+005   -2.19853E+004    1.56203E+005    1.18806E+004    5.55368E+003    4.85216E+004   -1.48060E+004    1.32785E+005    1.53042E+003
            6446    2.30640E+005    1.50521E+005    1.50521E+005    1.02844E+003   -1.15102E+005    2.65623E+005   -1.21491E+004    1.38269E+005    2.71717E+003    9.27952E+002    3.28023E+004   -3.71204E+003    1.31892E+005    1.32950E+003
            6447    3.16298E+005    2.40600E+005    2.40600E+005    2.18467E+004   -1.22064E+005    3.62664E+005   -4.67945E+004    2.22545E+005    3.56846E+004    2.01446E+004    8.45543E+004   -5.16755E+004    1.71764E+005   -6.72234E+003
            6448    2.71533E+005    2.01949E+005    2.01949E+005    1.51241E+004   -1.09529E+005    3.11478E+005   -3.58482E+004    1.89042E+005    2.55701E+004    1.64903E+004    6.54842E+004   -2.19917E+004    1.52786E+005   -8.37234E+003
            6449    2.49318E+005    1.74847E+005    1.74847E+005    5.27225E+003   -1.11417E+005    2.86264E+005   -2.29007E+004    1.69352E+005    1.44731E+004    5.49897E+003    4.87301E+004   -7.28849E+003    1.41898E+005   -3.32852E+003
            6450    2.35675E+005    1.52970E+005    1.52970E+005    2.87121E+003   -1.18664E+005    2.71634E+005   -1.23922E+004    1.33290E+005    5.30260E+003    2.89286E+003    2.89812E+004   -6.86109E+002    1.35280E+005   -2.26068E+003
            6451    2.30736E+005    1.57533E+005    1.57533E+005    1.12919E+003   -1.07464E+005    2.64997E+005   -1.70662E+004    1.55548E+005    1.03923E+004    1.03614E+003    3.97702E+004    7.81164E+002    1.31536E+005   -5.95759E+003
            6452    2.21708E+005    1.72394E+005    1.72394E+005    1.71250E+004   -8.15164E+004    2.53910E+005   -3.60007E+004    1.59849E+005    2.68088E+004    1.66114E+004    6.45820E+004    4.42231E+002    1.23377E+005   -2.28917E+004
            6453    2.52501E+005    1.88633E+005    1.88633E+005    1.77783E+004   -1.01399E+005    2.90032E+005   -3.50040E+004    1.69539E+005    2.47808E+004    1.80734E+004    6.21578E+004   -1.57775E+003    1.42565E+005   -1.89888E+004
            6454    2.43498E+005    1.79310E+005    1.79310E+005    2.69201E+004   -1.01517E+005    2.80827E+005   -3.49042E+004    1.28531E+005    2.61641E+004    2.69214E+004    5.16270E+004    7.80648E+001    1.36715E+005   -2.93731E+004
            6455    2.73335E+005    2.08298E+005    2.08298E+005    2.76518E+004   -1.06161E+005    3.14460E+005   -4.32630E+004    1.73216E+005    3.17157E+004    2.98261E+004    6.82471E+004   -1.09583E+004    1.54997E+005   -1.70541E+004
            6456    2.65410E+005    2.05794E+005    2.05794E+005    3.40710E+004   -9.98993E+004    3.05694E+005   -4.66553E+004    1.58239E+005    3.53671E+004    3.50184E+004    6.95803E+004   -2.79275E+003    1.49543E+005   -2.67552E+004
            6457    3.18433E+005    2.54442E+005    2.54442E+005    3.68611E+004   -1.11046E+005    3.65488E+005   -6.00860E+004    2.18477E+005    4.56715E+004    3.98357E+004    9.47507E+004   -2.67563E+004    1.78801E+005   -1.43001E+004
            6458    2.95153E+005    2.38712E+005    2.38712E+005    4.50535E+004   -1.00991E+005    3.39702E+005   -6.09249E+004    1.83391E+005    4.66908E+004    4.67263E+004    8.93576E+004   -5.22206E+003    1.66198E+005   -2.79836E+004
            6459    3.28737E+005    2.78733E+005    2.78733E+005    5.92124E+004   -9.92171E+004    3.77950E+005   -7.95762E+004    2.13918E+005    6.20093E+004    6.11697E+004    1.15550E+005   -7.06639E+003    1.85072E+005   -2.73918E+004
            6460    3.74371E+005    3.27393E+005    3.27393E+005    7.28535E+004   -1.02466E+005    4.29860E+005   -9.92601E+004    2.54097E+005    7.76829E+004    7.48956E+004    1.45202E+005   -8.91902E+003    2.10616E+005   -2.63452E+004
            6461    3.72464E+005    3.04598E+005    3.04598E+005    4.72695E+004   -1.22505E+005    4.27103E+005   -7.64540E+004    2.61509E+005    5.93613E+004    4.96988E+004    1.20302E+005   -3.89217E+004    2.07570E+005   -1.33250E+004
            6462    4.29007E+005    3.62525E+005    3.62525E+005    6.50985E+004   -1.29262E+005    4.91787E+005   -9.94536E+004    3.03318E+005    7.80647E+004    6.67627E+004    1.53534E+005   -3.89189E+004    2.39703E+005   -1.23070E+004
            6463    4.76230E+005    3.81390E+005    3.81390E+005    6.20402E+004   -1.65979E+005    5.47369E+005   -9.24837E+004    3.13084E+005    7.43971E+004    4.72263E+004    1.55828E+005   -9.24069E+004    2.52701E+005    2.73791E+003
            6464    4.15647E+005    3.26342E+005    3.26342E+005    4.34566E+004   -1.50875E+005    4.77217E+005   -7.29744E+004    2.82732E+005    5.85616E+004    2.82209E+004    1.32141E+005   -9.23341E+004    2.14948E+005   -1.82928E+003
            6465    2.96438E+005    1.41367E+005   -1.99923E+005   -6.55101E+003   -1.99923E+005    3.41290E+005    2.17021E+004   -1.81149E+005   -1.71088E+004    1.47280E+003   -4.94704E+004   -8.30538E+004    1.47319E+005    5.14205E+003
            6466    2.40892E+005    1.21442E+005   -1.56148E+005   -1.95895E+003   -1.56148E+005    2.77590E+005    1.22214E+004   -1.38648E+005   -9.67591E+003    8.08327E+003   -3.50715E+004   -8.23063E+004    1.09836E+005    5.86262E+003
            6467    1.96121E+005    1.00241E+005   -1.25783E+005   -5.88432E+002   -1.25783E+005    2.26023E+005    8.71017E+003   -1.11829E+005   -6.59352E+003    8.14382E+003   -2.76808E+004   -7.43988E+004    8.31088E+004    7.39063E+003
            6468    1.49324E+005    7.78072E+004   -9.41300E+004    3.05286E+003   -9.41300E+004    1.71937E+005    4.42334E+003   -9.06339E+004   -3.56183E+003    7.37158E+003   -1.70798E+004   -6.08270E+004    5.92663E+004    8.37150E+003
            6469    1.38204E+005    7.10627E+004   -8.79417E+004    3.33549E+003   -8.79417E+004    1.59004E+005    4.51451E+003   -8.74246E+004   -2.06131E+003    3.75302E+003   -1.52352E+004   -3.21254E+004    7.22950E+004    3.68103E+003
            6470    1.47575E+005    7.57668E+004   -9.40953E+004    2.61180E+003   -9.40953E+004    1.69862E+005    5.23891E+003   -9.13725E+004   -1.75544E+003    2.68378E+003   -1.66451E+004   -1.02754E+004    8.39680E+004    8.89641E+002
            6471    1.76132E+005    8.78937E+004   -1.14987E+005   -1.21624E+003   -1.14987E+005    2.02881E+005    9.43648E+003   -1.04466E+005   -5.21843E+003    2.23498E+003   -2.53260E+004   -3.75246E+004    9.34298E+004    5.92870E+002
            6472    1.85794E+005    9.28172E+004   -1.21180E+005   -1.02140E+003   -1.21180E+005    2.13997E+005    9.79483E+003   -1.10622E+005   -4.28388E+003   -5.86471E+002   -2.45141E+004   -1.19923E+004    1.05813E+005   -5.73944E+002
            6473    2.17131E+005    1.10248E+005   -1.39906E+005   -2.28386E+002   -1.39906E+005    2.50154E+005    9.96202E+003   -1.27087E+005   -5.99279E+003    3.03978E+003   -2.69331E+004   -3.86979E+004    1.18241E+005   -5.67835E+002
            6474    2.17419E+005    1.15912E+005   -1.34800E+005    1.89748E+003   -1.34800E+005    2.50712E+005    5.66368E+003   -1.17023E+005   -1.26203E+003    2.27816E+003   -1.80072E+004   -9.66188E+003    1.24674E+005   -1.67122E+003
            6475    2.52728E+005    1.22511E+005   -1.68623E+005   -5.67072E+003   -1.68623E+005    2.91134E+005    1.72611E+004   -1.49035E+005   -1.18287E+004   -4.30080E+003   -3.56538E+004   -2.72266E+004    1.42411E+005   -6.83609E+002
            6476    2.32489E+005    1.21187E+005   -1.47030E+005   -3.11231E+003   -1.47030E+005    2.68217E+005    9.65183E+003   -1.16639E+005   -4.71056E+003   -3.09670E+003   -2.11482E+004   -4.11061E+003    1.33793E+005    2.35199E+001
            6477    2.33942E+005    1.22191E+005   -1.47538E+005    1.11635E+002   -1.47538E+005    2.69729E+005    8.41167E+003   -1.27870E+005   -4.40899E+003    8.17841E+001   -2.09078E+004   -8.44439E+002    1.34586E+005    2.56288E+003
            6478    2.20284E+005    9.97223E+004   -1.53986E+005   -1.13579E+004   -1.53986E+005    2.53709E+005    2.18740E+004   -1.31629E+005   -1.67897E+004   -1.13030E+004   -3.75292E+004   -3.80529E+001    1.25705E+005    1.34888E+004
            6479    2.63595E+005    1.23908E+005   -1.79818E+005   -1.07799E+004   -1.79818E+005    3.03726E+005    2.22301E+004   -1.52690E+005   -1.60258E+004   -1.19580E+004   -3.87064E+004   -1.12121E+004    1.50816E+005    9.03686E+003
            6480    2.48605E+005    1.16304E+005   -1.70607E+005   -1.90056E+004   -1.70607E+005    2.86911E+005    2.44359E+004   -1.14678E+005   -1.89324E+004   -1.92302E+004   -3.51453E+004   -9.22019E+002    1.42182E+005    1.72888E+004
            6481    2.73617E+005    1.20346E+005   -1.95288E+005   -2.53017E+004   -1.95288E+005    3.15634E+005    3.34146E+004   -1.39694E+005   -2.56366E+004   -2.58149E+004   -4.87923E+004   -2.55235E+003    1.56571E+005    1.60373E+004
            6482    3.08470E+005    1.28666E+005   -2.26972E+005   -3.19859E+004   -2.26972E+005    3.55638E+005    4.34307E+004   -1.69622E+005   -3.37004E+004   -3.33200E+004   -6.32715E+004   -7.09641E+003    1.76268E+005    1.73772E+004
            6483    3.53388E+005    1.38981E+005   -2.68237E+005   -4.19704E+004   -2.68237E+005    4.07218E+005    5.70754E+004   -2.03618E+005   -4.46149E+004   -4.31293E+004   -8.34820E+004   -7.99257E+003    2.01981E+005    1.56254E+004
            6484    4.02186E+005    1.52988E+005   -3.10342E+005   -5.13314E+004   -3.10342E+005    4.63330E+005    6.95616E+004   -2.36260E+005   -5.45158E+004   -5.22809E+004   -1.01888E+005   -8.36587E+003    2.29922E+005    1.40919E+004
            6485    3.02555E+005    1.36405E+005   -2.12204E+005   -1.80675E+004   -2.12204E+005    3.48609E+005    3.12889E+004   -1.75604E+005   -2.42200E+004   -1.99135E+004   -4.97332E+004   -2.72733E+004    1.71581E+005    8.33067E+003
            6486    3.56409E+005    1.51654E+005   -2.58818E+005   -2.78412E+004   -2.58818E+005    4.10472E+005    4.50016E+004   -2.13568E+005   -3.55854E+004   -2.94379E+004   -6.99814E+004   -3.47906E+004    2.01461E+005    8.26233E+003
            6487    4.08617E+005    1.69527E+005   -3.01114E+005   -3.67958E+004   -3.01114E+005    4.70640E+005    5.61276E+004   -2.43443E+005   -4.47554E+004   -3.78711E+004   -8.57563E+004   -3.74491E+004    2.31366E+005    7.28434E+003
            6488    4.64214E+005    1.87763E+005   -3.46860E+005   -4.59645E+004   -3.46860E+005    5.34623E+005    6.83537E+004   -2.78322E+005   -5.48456E+004   -4.66952E+004   -1.03520E+005   -3.57064E+004    2.63759E+005    6.59513E+003
            6489    5.32824E+005    2.29219E+005   -3.85061E+005   -4.79789E+004   -3.85061E+005    6.14280E+005    6.79405E+004   -2.93933E+005   -5.47797E+004   -4.10200E+004   -1.08022E+005   -8.62433E+004    2.93147E+005   -2.93727E+003
            6490    4.64311E+005    2.04007E+005   -3.31222E+005   -3.65473E+004   -3.31222E+005    5.35229E+005    5.45876E+004   -2.59240E+005   -4.39040E+004   -2.81784E+004   -9.16804E+004   -9.32172E+004    2.49154E+005   -7.97478E+002
            6491    3.98192E+005    1.78924E+005   -2.79955E+005   -2.54243E+004   -2.79955E+005    4.58879E+005    4.21518E+004   -2.28126E+005   -3.39151E+004   -1.66719E+004   -7.58684E+004   -8.80677E+004    2.10165E+005    2.27002E+002
            6492    3.43876E+005    1.58287E+005   -2.37739E+005   -1.47542E+004   -2.37739E+005    3.96026E+005    3.14022E+004   -2.06429E+005   -2.48297E+004   -8.26240E+003   -6.11144E+004   -7.96422E+004    1.79817E+005    3.04711E+003
            6493    1.13780E+005    5.31923E+004   -7.76124E+004   -1.55495E+003   -7.76124E+004    1.30805E+005    8.65837E+003   -7.42281E+004   -4.69060E+003   -1.64161E+003   -1.96429E+004   -7.87602E+003    6.44851E+004    1.46110E+003
            6494    1.03854E+005    4.86414E+004   -7.05363E+004    5.88376E+002   -7.05363E+004    1.19178E+005    7.10217E+003   -7.16038E+004   -4.17588E+003   -4.17424E+002   -1.67132E+004   -2.32887E+004    5.43699E+004    4.89182E+003
            6495    1.06055E+005    5.23190E+004   -6.94076E+004    3.05982E+003   -6.94076E+004    1.21727E+005    4.67623E+003   -7.27672E+004   -3.44137E+003    2.67087E+003   -1.32582E+004   -4.38479E+004    4.09900E+004    9.04619E+003
            6496    8.62181E+004    4.64782E+004   -5.28504E+004    2.63890E+003   -5.28504E+004    9.93286E+004    1.24445E+003   -5.05423E+004    9.29957E+001    2.34642E+003   -6.17275E+003   -4.72596E+003    4.93174E+004    1.95511E+003
            6497    7.57233E+004    3.98096E+004   -4.70997E+004    4.66733E+003   -4.70997E+004    8.69093E+004    8.74246E+002   -5.20104E+004    7.65391E+001    2.06124E+003   -4.76051E+003   -1.39178E+004    4.09335E+004    5.45610E+003
            6498    6.75527E+004    3.21450E+004   -4.44349E+004    6.70050E+003   -4.44349E+004    7.65799E+004    1.86314E+003   -5.51102E+004   -1.47522E+003    1.66138E+003   -5.77557E+003   -2.54625E+004    2.80489E+004    8.49114E+003
            6499    7.23714E+004    3.65664E+004   -4.69272E+004   -2.14274E+003   -4.69272E+004    8.34937E+004    4.16785E+003   -3.62458E+004   -2.89655E+003   -2.27350E+003   -7.33350E+003   -1.54372E+003    4.16216E+004    1.87562E+003
            6500    6.06579E+004    2.99393E+004   -3.99103E+004   -4.94944E+002   -3.99103E+004    6.98496E+004    3.48863E+003   -3.66440E+004   -2.58268E+003   -1.72922E+003   -6.15399E+003   -4.43203E+003    3.42554E+004    5.27961E+003
            6501    4.29787E+004    1.94607E+004   -2.90777E+004    4.14639E+003   -2.90777E+004    4.85383E+004    1.82354E+003   -3.60245E+004   -1.39064E+003   -5.81187E+002   -3.49880E+003   -8.33446E+003    2.18686E+004    8.10893E+003
            6502    4.15759E+005    1.57230E+005   -3.21701E+005   -5.35271E+004   -3.21701E+005    4.78931E+005    7.26659E+004   -2.45479E+005   -5.69909E+004   -5.43958E+004   -1.06611E+005    8.40981E+003    2.37706E+005   -1.33299E+004
            6503    4.78382E+005    1.93652E+005   -3.57311E+005   -4.74846E+004   -3.57311E+005    5.50963E+005    7.03811E+004   -2.86096E+005   -5.65244E+004   -4.80431E+004   -1.06576E+005    3.57084E+004    2.71977E+005   -6.00751E+003
            6504    5.41620E+005    2.32233E+005   -3.92170E+005   -4.92653E+004   -3.92170E+005    6.24403E+005    6.97339E+004   -2.99646E+005   -5.61288E+004   -4.25190E+004   -1.10554E+005    8.55070E+004    2.98610E+005    2.94805E+003
            6505    4.60910E+005    1.70377E+005   -3.60482E+005   -6.21866E+004   -3.60482E+005    5.30858E+005    8.40973E+004   -2.75032E+005   -6.60396E+004   -6.26505E+004   -1.23602E+005    6.68919E+003    2.63618E+005   -9.99864E+003
            6506    5.28688E+005    2.10903E+005   -3.98016E+005   -5.58162E+004   -3.98016E+005    6.08919E+005    8.09764E+004   -3.15589E+005   -6.51781E+004   -5.60799E+004   -1.21671E+005    2.68992E+004    3.01935E+005   -4.41467E+003
            6507    6.03438E+005    2.53509E+005   -4.42181E+005   -6.04397E+004   -4.42181E+005    6.95690E+005    8.30370E+004   -3.32839E+005   -6.67795E+004   -5.66009E+004   -1.25731E+005    6.58343E+004    3.40058E+005    3.55703E+003
            6508    4.93189E+005    1.79669E+005   -3.88310E+005   -6.84598E+004   -3.88310E+005    5.67978E+005    9.23668E+004   -2.96186E+005   -7.26468E+004   -6.85712E+004   -1.35882E+005    3.48013E+003    2.82165E+005   -4.96810E+003
            6509    5.63681E+005    2.23459E+005   -4.25788E+005   -6.12190E+004   -4.25788E+005    6.49247E+005    8.78493E+004   -3.35670E+005   -7.08370E+004   -6.12805E+004   -1.31431E+005    1.38206E+004    3.22907E+005   -2.22202E+003
            6510    6.48917E+005    2.68254E+005   -4.79859E+005   -6.92288E+004   -4.79859E+005    7.48113E+005    9.36111E+004   -3.58323E+005   -7.51317E+004   -6.81711E+004   -1.37531E+005    3.56083E+004    3.70989E+005    2.21489E+003
            6511    5.02891E+005    1.82465E+005   -3.96675E+005   -7.03982E+004   -3.96675E+005    5.79140E+005    9.48695E+004   -3.02395E+005   -7.46133E+004   -7.04001E+004   -1.39595E+005   -5.78139E+002    2.87740E+005    5.46052E+002
            6512    5.74492E+005    2.27373E+005   -4.34343E+005   -6.29872E+004   -4.34343E+005    6.61715E+005    8.99858E+004   -3.41516E+005   -7.25297E+004   -6.29870E+004   -1.34441E+005   -1.94057E+003    3.29401E+005    1.94634E+002
            6513    6.65853E+005    2.73879E+005   -4.93758E+005   -7.23775E+004   -4.93758E+005    7.67637E+005    9.74189E+004   -3.67785E+005   -7.81212E+004   -7.23766E+004   -1.41759E+005   -1.52167E+003    3.82494E+005    2.98099E+001
            6514    4.86795E+005    1.77674E+005   -3.82946E+005   -6.73135E+004   -3.82946E+005    5.60621E+005    9.08618E+004   -2.92147E+005   -7.14505E+004   -6.74927E+004   -1.33642E+005   -4.39547E+003    2.78487E+005    6.24753E+003
            6515    5.56805E+005    2.20767E+005   -4.20542E+005   -6.02183E+004   -4.20542E+005    6.41310E+005    8.66644E+004   -3.32158E+005   -6.98722E+004   -6.02999E+004   -1.29821E+005   -1.72252E+004    3.18780E+005    2.63696E+003
            6516    6.45697E+005    2.67223E+005   -4.77181E+005   -6.86125E+004   -4.77181E+005    7.44403E+005    9.28570E+004   -3.56462E+005   -7.45640E+004   -6.73977E+004   -1.36609E+005   -3.80666E+004    3.68879E+005   -2.35889E+003
            6517    4.49660E+005    1.66534E+005   -3.51372E+005   -6.04287E+004   -3.51372E+005    5.17907E+005    8.17556E+004   -2.68116E+005   -6.42114E+004   -6.09873E+004   -1.20068E+005   -7.36612E+003    2.57150E+005    1.06855E+004
            6518    5.16203E+005    2.06309E+005   -3.88228E+005   -5.40820E+004   -3.88228E+005    5.94537E+005    7.86668E+004   -3.08214E+005   -6.32276E+004   -5.44245E+004   -1.18348E+005   -2.88512E+004    2.94559E+005    4.89673E+003
            6519    5.97669E+005    2.51405E+005   -4.37633E+005   -5.95444E+004   -4.37633E+005    6.89039E+005    8.19241E+004   -3.29649E+005   -6.58014E+004   -5.55964E+004   -1.24375E+005   -6.78987E+004    3.36261E+005   -3.19432E+003
            6520    1.05932E+005    6.93407E+004    6.93407E+004   -3.06391E+003   -5.22421E+004    1.21583E+005   -4.67822E+003    7.27285E+004    3.44188E+003   -2.65731E+003    1.32501E+004    4.38145E+004    4.09185E+004    9.06110E+003
            6521    1.03703E+005    7.04610E+004    7.04610E+004   -5.81348E+002   -4.85415E+004    1.19003E+005   -7.11272E+003    7.15442E+004    4.17993E+003    4.31781E+002    1.67264E+004    2.31505E+004    5.43335E+004    4.88819E+003
            6522    1.13342E+005    7.73210E+004    7.73210E+004    1.56251E+003   -5.29808E+004    1.30302E+005   -8.63425E+003    7.39276E+004    4.67774E+003    1.65056E+003    1.95744E+004    7.83517E+003    6.42384E+004    1.46111E+003
            6523    6.72958E+004    4.42823E+004    4.42823E+004   -6.71576E+003   -3.19920E+004    7.62743E+004   -1.85819E+003    5.49831E+004    1.46808E+003   -1.64672E+003    5.75320E+003    2.53165E+004    2.79767E+004    8.49419E+003
            6524    7.58504E+004    4.71456E+004    4.71456E+004   -4.66491E+003   -3.99155E+004    8.70611E+004   -8.55082E+002    5.20040E+004   -9.30505E+001   -2.08148E+003    4.73977E+003    1.39203E+004    4.10156E+004    5.42235E+003
            6525    8.60433E+004    5.26854E+004    5.26854E+004   -2.65944E+003   -4.64444E+004    9.91298E+004   -1.19386E+003    5.03446E+004   -1.22366E+002   -2.36885E+003    6.07280E+003    4.69016E+003    4.92231E+004    1.94782E+003
            6526    4.27870E+004    2.89021E+004    2.89021E+004   -4.04835E+003   -1.94547E+004    4.83568E+004   -1.79966E+003    3.56943E+004    1.36653E+003    5.76154E+002    3.45631E+003    8.11260E+003    2.18361E+004    8.08690E+003
            6527    6.07910E+004    4.00451E+004    4.00451E+004    4.63909E+002   -2.99505E+004    6.99956E+004   -3.51951E+003    3.69455E+004    2.60546E+003    1.73651E+003    6.21656E+003    4.57264E+003    3.43105E+004    5.29948E+003
            6528    7.23791E+004    4.69407E+004    4.69407E+004    2.14908E+003   -3.65617E+004    8.35024E+004   -4.17602E+003    3.62592E+004    2.90505E+003    2.28142E+003    7.34159E+003    1.56138E+003    4.16253E+004    1.87789E+003
            6529    2.33750E+005    1.22530E+005   -1.47176E+005   -3.21041E+003   -1.47176E+005    2.69706E+005    9.28554E+003   -1.14234E+005   -4.43560E+003   -3.21965E+003   -2.02014E+004    5.34213E+002    1.34616E+005   -1.20934E+003
            6530    2.29865E+005    1.24627E+005   -1.40560E+005    1.77334E+003   -1.40560E+005    2.65187E+005    4.71971E+003   -1.15484E+005   -8.09181E+002    1.82833E+003   -1.51783E+004    3.56308E+003    1.32346E+005    7.88772E+002
            6531    2.13327E+005    1.10768E+005   -1.35250E+005   -1.53590E+003   -1.35250E+005    2.46018E+005    8.67245E+003   -1.13356E+005   -2.91548E+003   -1.37221E+003   -2.17297E+004    5.93556E+003    1.22492E+005    1.19520E+003
            6532    1.84338E+005    9.69765E+004   -1.15438E+005    2.63138E+003   -1.15438E+005    2.12415E+005    5.27673E+003   -1.06342E+005   -1.10506E+003    2.81710E+003   -1.75422E+004    7.05682E+003    1.05640E+005    7.05725E+002
            6533    1.51226E+005    7.33335E+004   -1.00720E+005   -1.50616E+003   -1.00720E+005    1.74053E+005    9.63082E+003   -9.39360E+004   -4.69239E+003   -1.40653E+003   -2.27935E+004    6.57717E+003    8.62973E+004   -1.63618E+002
            6534    2.47056E+005    1.21054E+005   -1.63583E+005   -4.74263E+003   -1.63583E+005    2.84637E+005    1.57572E+004   -1.44341E+005   -1.00482E+004   -4.89177E+003   -3.23315E+004    7.10399E+003    1.41695E+005   -2.18059E+003
            6535    2.33132E+005    1.19000E+005   -1.49763E+005   -2.13168E+003   -1.49763E+005    2.68763E+005    1.09646E+004   -1.29087E+005   -6.30728E+003   -1.70936E+003   -2.48772E+004    1.45514E+004    1.33245E+005    6.80704E+002
            6536    2.11307E+005    1.06345E+005   -1.37165E+005   -2.08314E+003   -1.37165E+005    2.43510E+005    1.09675E+004   -1.21093E+005   -5.21120E+003   -5.24319E+002   -2.71668E+004    2.05582E+004    1.19386E+005    2.33812E+003
            6537    1.78270E+005    9.25967E+004   -1.12852E+005    9.74818E+002   -1.12852E+005    2.05449E+005    6.42694E+003   -1.01738E+005   -2.40409E+003    2.14299E+003   -1.90197E+004    2.25276E+004    9.98084E+004    3.13698E+002
            6538    1.45025E+005    7.07320E+004   -9.61630E+004   -8.07991E+002   -9.61630E+004    1.66895E+005    8.74633E+003   -9.06363E+004   -4.31535E+003   -1.49121E+002   -2.17745E+004    1.97326E+004    8.05493E+004   -1.24032E+003
            6539    2.69373E+005    1.24833E+005   -1.85402E+005   -1.08590E+004   -1.85402E+005    3.10235E+005    2.38094E+004   -1.61335E+005   -1.70050E+004   -1.15613E+004   -4.28619E+004    2.23687E+004    1.52921E+005   -4.74130E+003
            6540    2.49860E+005    1.24018E+005   -1.63827E+005   -2.90305E+003   -1.63827E+005    2.87844E+005    1.42374E+004   -1.46815E+005   -1.00016E+004   -8.88579E+002   -3.18221E+004    3.42386E+004    1.39229E+005    4.96484E+002
            6541    2.17316E+005    1.06202E+005   -1.44103E+005   -3.55998E+003   -1.44103E+005    2.50305E+005    1.38204E+004   -1.29384E+005   -8.58068E+003    3.46082E+002   -3.32265E+004    4.06675E+004    1.17412E+005    4.39919E+002
            6542    1.78622E+005    9.32826E+004   -1.12470E+005    2.86813E+003   -1.12470E+005    2.05753E+005    5.43976E+003   -1.05824E+005   -2.93342E+003    6.18176E+003   -1.95676E+004    3.96092E+004    9.43147E+004   -8.24318E+002
            6543    1.42292E+005    6.86432E+004   -9.50567E+004   -1.01133E+003   -9.50567E+004    1.63700E+005    9.14160E+003   -9.01850E+004   -5.62010E+003    7.37081E+002   -2.25418E+004    3.37607E+004    7.38587E+004   -3.05167E+003
            6544    3.13855E+005    1.43243E+005   -2.18202E+005   -1.46072E+004   -2.18202E+005    3.61445E+005    2.98553E+004   -1.88625E+005   -2.27266E+004   -1.33109E+004   -5.35282E+004    5.21011E+004    1.72232E+005   -3.77363E+003
            6545    2.76646E+005    1.33320E+005   -1.85162E+005   -4.48032E+003   -1.85162E+005    3.18482E+005    1.87739E+004   -1.69656E+005   -1.45018E+004    3.10538E+002   -4.21303E+004    6.59925E+004    1.43804E+005   -3.52083E+003
            6546    2.30616E+005    1.13397E+005   -1.52324E+005   -4.36799E+003   -1.52324E+005    2.65722E+005    1.44317E+004   -1.33789E+005   -1.00554E+004    3.41108E+003   -3.66506E+004    6.50296E+004    1.14357E+005   -2.43719E+003
            6547    1.85899E+005    9.58879E+004   -1.18218E+005    2.15060E+003   -1.18218E+005    2.14106E+005    6.72648E+003   -1.11092E+005   -4.73967E+003    7.63130E+003   -2.30711E+004    5.94933E+004    8.78648E+004   -4.59664E+003
            6548    1.43280E+005    7.07811E+004   -9.41231E+004   -8.82777E+001   -9.41231E+004    1.64904E+005    7.81010E+003   -8.90911E+004   -5.18652E+003    3.57795E+003   -2.18217E+004    4.84282E+004    6.55713E+004   -5.63311E+003
            6549    1.62143E+005    8.32495E+004   -1.03593E+005    2.10449E+002   -1.03593E+005    1.86843E+005    6.71110E+003   -9.33852E+004   -5.55221E+003    7.34767E+003   -2.19288E+004    7.00262E+004    5.95064E+004   -1.01749E+004
            6550    2.12584E+005    1.10765E+005   -1.34332E+005   -5.59770E+001   -1.34332E+005    2.45097E+005    7.87444E+003   -1.16558E+005   -6.88170E+003    1.14582E+004   -2.81998E+004    8.64668E+004    8.43355E+004   -9.00196E+003
            6551    2.65048E+005    1.32002E+005   -1.73599E+005   -6.44203E+003   -1.73599E+005    3.05601E+005    1.60129E+004   -1.44445E+005   -1.27622E+004    8.19906E+003   -4.34755E+004    9.80192E+004    1.14356E+005   -7.49955E+003
            6552    3.11081E+005    1.51444E+005   -2.07065E+005   -8.45529E+003   -2.07065E+005    3.58509E+005    2.13585E+004   -1.77475E+005   -1.75667E+004    4.57946E+003   -5.10882E+004    1.02818E+005    1.44435E+005   -6.20125E+003
            6553    3.64398E+005    1.69227E+005   -2.50596E+005   -1.62467E+004   -2.50596E+005    4.19824E+005    3.25386E+004   -2.13096E+005   -2.62566E+004   -5.47250E+003   -6.58866E+004    9.86358E+004    1.83245E+005   -3.50329E+003
            6554    4.13040E+005    1.85463E+005   -2.90462E+005   -2.55941E+004   -2.90462E+005    4.75925E+005    4.35310E+004   -2.39237E+005   -3.49533E+004   -1.65857E+004   -7.90542E+004    9.31912E+004    2.17143E+005   -1.08830E+003
            6555    4.74353E+005    2.08258E+005   -3.38544E+005   -3.74531E+004   -3.38544E+005    5.46802E+005    5.59133E+004   -2.64987E+005   -4.50721E+004   -2.86819E+004   -9.39859E+004    9.29384E+004    2.55361E+005    1.68237E+003
            6556    4.24188E+005    1.75008E+005   -3.13505E+005   -3.83942E+004   -3.13505E+005    4.88513E+005    5.89638E+004   -2.54777E+005   -4.71675E+004   -3.93487E+004   -9.03752E+004    3.95229E+004    2.40020E+005   -7.17912E+003
            6557    3.67221E+005    1.44304E+005   -2.78837E+005   -4.35021E+004   -2.78837E+005    4.23141E+005    5.93451E+004   -2.12239E+005   -4.63842E+004   -4.47698E+004   -8.68814E+004    8.94122E+003    2.09873E+005   -1.59564E+004
            6558    3.69002E+005    1.57858E+005   -2.67133E+005   -2.82063E+004   -2.67133E+005    4.24992E+005    4.58270E+004   -2.20515E+005   -3.63309E+004   -2.96515E+004   -7.14986E+004    3.92746E+004    2.08031E+005   -7.91427E+003
            6559    3.22947E+005    1.32623E+005   -2.39688E+005   -3.52727E+004   -2.39688E+005    3.72311E+005    4.74461E+004   -1.78516E+005   -3.68730E+004   -3.64880E+004   -6.89773E+004    7.18175E+003    1.84651E+005   -1.64165E+004
            6560    2.88942E+005    1.24009E+005   -2.09191E+005   -2.77406E+004   -2.09191E+005    3.33201E+005    3.76408E+004   -1.54757E+005   -2.94879E+004   -2.87893E+004   -5.46452E+004    5.39796E+003    1.65236E+005   -1.67383E+004
            6561    2.59062E+005    1.16229E+005   -1.82595E+005   -2.12963E+004   -1.82595E+005    2.98824E+005    2.92209E+004   -1.33636E+005   -2.28132E+004   -2.18863E+004   -4.29630E+004    2.80769E+003    1.48182E+005   -1.62315E+004
            6562    2.36874E+005    1.12128E+005   -1.61254E+005   -1.71015E+004   -1.61254E+005    2.73383E+005    2.20758E+004   -1.07845E+005   -1.70763E+004   -1.70714E+004   -3.20796E+004   -1.16664E+002    1.35332E+005   -1.77010E+004
            6563    2.14058E+005    9.44376E+004   -1.51890E+005   -1.10348E+004   -1.51890E+005    2.46327E+005    2.28290E+004   -1.34067E+005   -1.75599E+004   -1.08556E+004   -4.00714E+004   -4.01682E+002    1.21844E+005   -1.39041E+004
            6564    3.16820E+005    1.40930E+005   -2.24107E+005   -2.07145E+004   -2.24107E+005    3.65038E+005    3.46306E+004   -1.84195E+005   -2.67675E+004   -2.26022E+004   -5.45220E+004    2.69240E+004    1.79873E+005   -8.84506E+003
            6565    2.72056E+005    1.27991E+005   -1.85759E+005   -1.52825E+004   -1.85759E+005    3.13751E+005    2.43502E+004   -1.44386E+005   -1.81228E+004   -1.66002E+004   -3.83275E+004    1.09978E+004    1.55882E+005   -1.02128E+004
            6566    2.49648E+005    1.19433E+005   -1.68308E+005   -9.34525E+003   -1.68308E+005    2.87742E+005    1.94067E+004   -1.41081E+005   -1.39024E+004   -9.55460E+003   -3.47632E+004    1.47587E+003    1.43018E+005   -1.16929E+004
            6567    2.28516E+005    1.18303E+005   -1.45086E+005    3.71916E+002   -1.45086E+005    2.63389E+005    8.80393E+003   -1.28982E+005   -5.18920E+003    4.27643E+002   -2.16502E+004   -9.13398E+002    1.31381E+005   -3.60219E+003
            6568    2.32548E+005    1.47050E+005    1.47050E+005    3.10301E+003   -1.21235E+005    2.68285E+005   -9.63915E+003    1.16639E+005    4.70038E+003    3.08735E+003    2.11297E+004    4.09472E+003    1.33827E+005    2.02929E+001
            6569    2.17216E+005    1.34705E+005    1.34705E+005   -1.88575E+003   -1.15771E+005    2.50477E+005   -5.68283E+003    1.16988E+005    1.27758E+003   -2.26841E+003    1.80393E+004    9.68825E+003    1.24552E+005   -1.67116E+003
            6570    1.84806E+005    1.20577E+005    1.20577E+005    9.87960E+002   -9.22771E+004    2.12854E+005   -9.76253E+003    1.10232E+005    4.26571E+003    5.60258E+002    2.44616E+004    1.19663E+004    1.05240E+005   -5.32777E+002
            6571    1.46507E+005    9.33974E+004    9.33974E+004   -2.62992E+003   -7.52324E+004    1.68630E+005   -5.17834E+003    9.07656E+004    1.72742E+003   -2.69363E+003    1.65012E+004    1.01947E+004    8.33601E+004    9.14645E+002
            6572    2.52529E+005    1.68470E+005    1.68470E+005    5.66265E+003   -1.22435E+005    2.90906E+005   -1.72325E+004    1.48870E+005    1.18061E+004    4.28286E+003    3.56086E+004    2.72916E+004    1.42282E+005   -6.91613E+002
            6573    2.16593E+005    1.39526E+005    1.39526E+005    2.05302E+002   -1.10008E+005    2.49535E+005   -9.90772E+003    1.26742E+005    5.94629E+003   -3.06543E+003    2.68423E+004    3.86488E+004    1.17932E+005   -5.70319E+002
            6574    1.75392E+005    1.14490E+005    1.14490E+005    1.18643E+003   -8.75381E+004    2.02028E+005   -9.37927E+003    1.04057E+005    5.17493E+003   -2.22893E+003    2.51918E+004    3.73705E+004    9.30375E+004    6.16934E+002
            6575    1.37599E+005    8.75606E+004    8.75606E+004   -3.35239E+003   -7.07432E+004    1.58304E+005   -4.48834E+003    8.71328E+004    2.04804E+003   -3.72305E+003    1.51400E+004    3.18310E+004    7.20477E+004    3.68963E+003
            6576    1.49429E+005    9.41873E+004    9.41873E+004   -3.05247E+003   -7.78721E+004    1.72060E+005   -4.42091E+003    9.06656E+004    3.56161E+003   -7.37602E+003    1.70771E+004    6.09242E+004    5.92520E+004    8.39065E+003
            6577    1.96272E+005    1.25852E+005    1.25852E+005    5.91332E+002   -1.00348E+005    2.26200E+005   -8.69863E+003    1.11821E+005    6.58096E+003   -8.18358E+003    2.76985E+004    7.45435E+004    8.30902E+004    7.41052E+003
            6578    2.41059E+005    1.56249E+005    1.56249E+005    1.95848E+003   -1.21534E+005    2.77782E+005   -1.22244E+004    1.38728E+005    9.67217E+003   -8.08842E+003    3.50895E+004    8.23575E+004    1.09917E+005    5.86409E+003
            6579    2.96278E+005    1.99796E+005    1.99796E+005    6.53376E+003   -1.41310E+005    3.41106E+005   -2.16733E+004    1.81038E+005    1.70791E+004   -1.47739E+003    4.94180E+004    8.30019E+004    1.47245E+005    5.14065E+003
            6580    3.43443E+005    2.37354E+005    2.37354E+005    1.46845E+004   -1.58176E+005    3.95530E+005   -3.12874E+004    2.06071E+005    2.47360E+004    8.13925E+003    6.09870E+004    7.97922E+004    1.79475E+005    3.04134E+003
            6581    3.98718E+005    2.80283E+005    2.80283E+005    2.54657E+004   -1.79206E+005    4.59489E+005   -4.21807E+004    2.28272E+005    3.39412E+004    1.66741E+004    7.59268E+004    8.83786E+004    2.10363E+005    2.38002E+002
            6582    4.64967E+005    3.31706E+005    3.31706E+005    3.66098E+004   -2.04279E+005    5.35985E+005   -5.46788E+004    2.59621E+005    4.39777E+004    2.82409E+004    9.18178E+004    9.31667E+004    2.49575E+005   -8.31475E+002
            6583    5.32648E+005    3.84992E+005    3.84992E+005    4.79322E+004   -2.29080E+005    6.14072E+005   -6.79482E+004    2.94132E+005    5.47881E+004    4.10098E+004    1.08047E+005    8.61322E+004    2.93072E+005   -2.88576E+003
            6584    4.64322E+005    3.46909E+005    3.46909E+005    4.59990E+004   -1.87843E+005    5.34753E+005   -6.83549E+004    2.78230E+005    5.48424E+004    4.67243E+004    1.03498E+005    3.58816E+004    2.63802E+005    6.57708E+003
            6585    4.01915E+005    3.10073E+005    3.10073E+005    5.12133E+004   -1.52943E+005    4.63016E+005   -6.94479E+004    2.36172E+005    5.44348E+004    5.21868E+004    1.01722E+005    8.56417E+003    2.29761E+005    1.41234E+004
            6586    4.08433E+005    3.00936E+005    3.00936E+005    3.67038E+004   -1.69491E+005    4.70426E+005   -5.60495E+004    2.43427E+005    4.46940E+004    3.77686E+004    8.56858E+004    3.77088E+004    2.31215E+005    7.25917E+003
            6587    3.53783E+005    2.68532E+005    2.68532E+005    4.19826E+004   -1.39138E+005    4.07670E+005   -5.71254E+004    2.03939E+005    4.46595E+004    4.31586E+004    8.35583E+004    8.13464E+003    2.02204E+005    1.56105E+004
            6588    3.56353E+005    2.58749E+005    2.58749E+005    2.77173E+004   -1.51649E+005    4.10398E+005   -4.49392E+004    2.13796E+005    3.55448E+004    2.93116E+004    6.99612E+004    3.49928E+004    2.01388E+005    8.25834E+003
            6589    3.09372E+005    2.27749E+005    2.27749E+005    3.21221E+004   -1.28924E+005    3.56673E+005   -4.36492E+004    1.70357E+005    3.38684E+004    3.34634E+004    6.36157E+004    7.17233E+003    1.76783E+005    1.73467E+004
            6590    3.02725E+005    2.12336E+005    2.12336E+005    1.80838E+004   -1.36469E+005    3.48805E+005   -3.13171E+004    1.75722E+005    2.42470E+004    1.99216E+004    4.97827E+004    2.72735E+004    1.71681E+005    8.30944E+003
            6591    2.74079E+005    1.95679E+005    1.95679E+005    2.53205E+004   -1.20482E+005    3.16161E+005   -3.35058E+004    1.40264E+005    2.57066E+004    2.58563E+004    4.89546E+004    2.67088E+003    1.56831E+005    1.60464E+004
            6592    2.48800E+005    1.70767E+005    1.70767E+005    1.90370E+004   -1.16367E+005    2.87135E+005   -2.44790E+004    1.14820E+005    1.89684E+004    1.92556E+004    3.52129E+004    8.96775E+002    1.42291E+005    1.73160E+004
            6593    2.20289E+005    1.54017E+005    1.54017E+005    1.13795E+004   -9.96974E+004    2.53714E+005   -2.18996E+004    1.31647E+005    1.68150E+004    1.13385E+004    3.75454E+004    1.03529E+002    1.25705E+005    1.35252E+004
            6594    2.63721E+005    1.79909E+005    1.79909E+005    1.07660E+004   -1.23960E+005    3.03869E+005   -2.22384E+004    1.52837E+005    1.60359E+004    1.19506E+004    3.87286E+004    1.12682E+004    1.50883E+005    9.05131E+003
            6595    2.33890E+005    1.47549E+005    1.47549E+005   -6.59952E+001   -1.22121E+005    2.69669E+005   -8.45403E+003    1.27834E+005    4.45260E+003   -3.68415E+001    2.09463E+004    8.12126E+002    1.34556E+005    2.60633E+003
            6596    1.10707E+005    5.75925E+004   -6.96430E+004    4.67409E+003   -6.96430E+004    1.27236E+005    2.45881E+003   -7.29676E+004   -2.09106E+003    5.33345E+003   -1.06188E+004    4.93083E+004    3.86891E+004   -9.67022E+003
            6597    1.02014E+005    5.24752E+004   -6.44646E+004    6.27758E+003   -6.44646E+004    1.16940E+005    1.90395E+003   -7.21607E+004   -5.72421E+002    4.35141E+003   -9.49084E+003    3.50334E+004    4.62514E+004   -7.29159E+003
            6598    1.04825E+005    5.48806E+004   -6.54962E+004    5.66420E+003   -6.54962E+004    1.20377E+005    1.65048E+003   -7.09005E+004    6.51551E+001    4.45416E+003   -9.47075E+003    2.50647E+004    5.44125E+004   -4.80922E+003
            6599    1.09908E+005    5.67806E+004   -6.97096E+004    2.48035E+003   -6.97096E+004    1.26490E+005    3.48289E+003   -6.84911E+004   -7.16637E+002    1.88200E+003   -1.16140E+004    1.50322E+004    6.11610E+004   -2.94978E+003
            6600    1.15570E+005    5.94637E+004   -7.35339E+004    2.46324E+003   -7.35339E+004    1.32998E+005    3.86901E+003   -7.22511E+004   -8.22012E+002    2.41703E+003   -1.32020E+004    4.98287E+003    6.60195E+004   -8.97697E+002
            6601    6.84971E+004    3.09075E+004   -4.68428E+004    4.60268E+003   -4.68428E+004    7.77504E+004    3.77754E+003   -5.52866E+004   -3.31818E+003    3.75350E+002   -8.38979E+003    2.83192E+004    2.56297E+004   -9.25893E+003
            6602    7.02575E+004    3.07176E+004   -4.91631E+004    3.04185E+003   -4.91631E+004    7.98807E+004    5.13456E+003   -5.58533E+004   -4.15132E+003   -8.71778E+002   -1.03806E+004    2.05752E+004    3.38434E+004   -7.30295E+003
            6603    7.70961E+004    3.45876E+004   -5.37095E+004    2.63769E+002   -5.37095E+004    8.82971E+004    6.28603E+003   -5.55477E+004   -4.76138E+003   -2.13497E+003   -1.19617E+004    1.50120E+004    4.12250E+004   -5.52443E+003
            6604    8.41286E+004    3.99438E+004   -5.67480E+004   -3.00193E+002   -5.67480E+004    9.66919E+004    5.70147E+003   -5.53857E+004   -3.82793E+003   -1.19398E+003   -1.20825E+004    9.17511E+003    4.72319E+004   -3.45053E+003
            6605    8.98843E+004    4.28694E+004   -6.06115E+004   -1.94557E+003   -6.06115E+004    1.03481E+005    6.56255E+003   -5.50169E+004   -4.28168E+003   -2.04856E+003   -1.33574E+004    3.18809E+003    5.14356E+004   -1.18613E+003
            6606    3.91101E+004    1.89543E+004   -2.47583E+004    6.92206E+003   -2.47583E+004    4.37125E+004   -3.72690E+002   -3.45628E+004    5.35674E+002    1.16766E+003   -5.85265E+002    8.82267E+003    1.89577E+004   -8.47616E+003
            6607    4.97330E+004    2.83875E+004   -2.87178E+004    5.08902E+003   -2.87178E+004    5.71053E+004   -1.58623E+003   -3.37392E+004    2.02637E+003    1.96224E+003    7.70064E+002    6.70221E+003    2.69803E+004   -7.14836E+003
            6608    6.01205E+004    3.57985E+004    3.57985E+004    4.45356E+003   -3.35172E+004    6.93157E+004   -2.24494E+003   -3.29513E+004    2.68132E+003    2.95071E+003    1.10280E+003    4.96821E+003    3.38946E+004   -5.50498E+003
            6609    6.86006E+004    4.00709E+004    4.00709E+004    2.07577E+003   -3.91207E+004    7.91916E+004   -1.00864E+003   -2.82655E+004    1.68452E+003    1.52153E+003   -1.80117E+002    3.13341E+003    3.93058E+004   -3.58456E+003
            6610    7.43515E+004    4.34334E+004    4.34334E+004    2.26066E+003   -4.23967E+004    8.58301E+004   -1.09913E+003   -3.06785E+004    1.74567E+003    2.20276E+003   -6.51034E+002    1.01297E+003    4.28687E+004   -1.26809E+003
            6611    5.41418E+005    3.91953E+005    3.91953E+005    4.92009E+004   -2.32219E+005    6.24172E+005   -6.96448E+004    2.99452E+005    5.60579E+004    4.24150E+004    1.10462E+005   -8.57360E+004    2.98422E+005    2.95294E+003
            6612    4.78765E+005    3.57702E+005    3.57702E+005    4.76153E+004   -1.93701E+005    5.51402E+005   -7.05387E+004    2.86360E+005    5.66509E+004    4.81897E+004    1.06775E+005   -3.54143E+004    2.72235E+005   -6.05686E+003
            6613    4.16760E+005    3.22558E+005    3.22558E+005    5.37237E+004   -1.57525E+005    4.80083E+005   -7.29188E+004    2.46112E+005    5.71883E+004    5.45804E+004    1.06988E+005   -8.36073E+003    2.38282E+005   -1.32553E+004
            6614    6.03721E+005    4.42341E+005    4.42341E+005    6.04726E+004   -2.53679E+005    6.96020E+005   -8.30451E+004    3.32823E+005    6.67861E+004    5.66253E+004    1.25724E+005   -6.58792E+004    3.40218E+005    3.57955E+003
            6615    5.28913E+005    3.98200E+005    3.98200E+005    5.57972E+004   -2.10973E+005    6.09173E+005   -8.10083E+004    3.15888E+005    6.52039E+004    5.60601E+004    1.21761E+005   -2.68115E+004    3.02067E+005   -4.40965E+003
            6616    4.61709E+005    3.61155E+005    3.61155E+005    6.23339E+004   -1.70622E+005    5.31777E+005   -8.42888E+004    2.75533E+005    6.61883E+004    6.27911E+004    1.23887E+005   -6.65960E+003    2.64077E+005   -9.91761E+003
            6617    6.49802E+005    4.80485E+005    4.80485E+005    6.93105E+004   -2.68650E+005    7.49135E+005   -9.37149E+004    3.58757E+005    7.52115E+004    6.82693E+004    1.37664E+005   -3.53321E+004    3.71529E+005    2.20694E+003
            6618    5.63858E+005    4.25899E+005    4.25899E+005    6.11961E+004   -2.23550E+005    6.49448E+005   -8.78484E+004    3.35832E+005    7.08381E+004    6.12546E+004    1.31452E+005   -1.38351E+004    3.23007E+005   -2.18822E+003
            6619    4.93463E+005    3.88530E+005    3.88530E+005    6.84897E+004   -1.79762E+005    5.68292E+005   -9.24192E+004    2.96388E+005    7.26888E+004    6.85961E+004    1.35973E+005   -3.39618E+003    2.82323E+005   -4.86389E+003
            6620    6.65611E+005    4.93541E+005    4.93541E+005    7.23414E+004   -2.73819E+005    7.67360E+005   -9.73543E+004    3.67557E+005    7.80681E+004    7.23391E+004    1.41656E+005    2.15152E+003    3.82354E+005   -7.89687E+000
            6621    5.74366E+005    4.34244E+005    4.34244E+005    6.29465E+004   -2.27324E+005    6.61569E+005   -8.99556E+004    3.41510E+005    7.25078E+004    6.29469E+004    1.34412E+005    1.94323E+003    3.29327E+005    2.41582E+002
            6622    5.02753E+005    3.96573E+005    3.96573E+005    7.03890E+004   -1.82408E+005    5.78981E+005   -9.48516E+004    3.02303E+005    7.45984E+004    7.03912E+004    1.39565E+005    5.68289E+002    2.87661E+005    6.31968E+002
            6623    6.45198E+005    4.76773E+005    4.76773E+005    6.85508E+004   -2.67056E+005    7.43830E+005   -9.27559E+004    3.56087E+005    7.44837E+004    6.72969E+004    1.36487E+005    3.86421E+004    3.68529E+005   -2.39851E+003
            6624    5.56894E+005    4.20588E+005    4.20588E+005    6.02474E+004   -2.20828E+005    6.41416E+005   -8.66689E+004    3.32091E+005    6.98750E+004    6.03324E+004    1.29799E+005    1.71406E+004    3.18839E+005    2.66105E+003
            6625    4.86177E+005    3.82431E+005    3.82431E+005    6.72108E+004   -1.77480E+005    5.59910E+005   -9.07206E+004    2.91741E+005    7.13363E+004    6.73959E+004    1.33430E+005    4.45419E+003    2.78132E+005    6.35719E+003
            6626    5.96727E+005    4.36956E+005    4.36956E+005    5.94321E+004   -2.50995E+005    6.87951E+005   -8.17977E+004    3.29233E+005    6.57048E+004    5.54693E+004    1.24219E+005    6.79948E+004    3.35686E+005   -3.18386E+003
            6627    5.16686E+005    3.88561E+005    3.88561E+005    5.41461E+004   -2.06536E+005    5.95097E+005   -7.87237E+004    3.08377E+005    6.32742E+004    5.44785E+004    1.18419E+005    2.89416E+004    2.94832E+005    4.84861E+003
            6628    4.48947E+005    3.50780E+005    3.50780E+005    6.03409E+004   -1.66309E+005    5.17089E+005   -8.16041E+004    2.67567E+005    6.40967E+004    6.08947E+004    1.19821E+005    7.23232E+003    2.56746E+005    1.07496E+004
            6629    1.15803E+005    7.36903E+004    7.36903E+004   -2.46409E+003   -5.95752E+004    1.33266E+005   -3.88367E+003    7.24071E+004    8.33277E+002   -2.41886E+003    1.32366E+004   -5.00234E+003    6.61519E+004   -8.93146E+002
            6630    1.09921E+005    6.97242E+004    6.97242E+004   -2.47541E+003   -5.67803E+004    1.26505E+005   -3.48949E+003    6.85027E+004    7.20230E+002   -1.87866E+003    1.16269E+004   -1.51051E+004    6.11500E+004   -2.95017E+003
            6631    1.04668E+005    6.54073E+004    6.54073E+004   -5.70094E+003   -5.47825E+004    1.20190E+005   -1.64127E+003    7.09149E+004   -6.66772E+001   -4.47712E+003    9.46761E+003   -2.51659E+004    5.42605E+004   -4.84710E+003
            6632    1.01841E+005    6.43625E+004    6.43625E+004   -6.30045E+003   -5.23727E+004    1.16735E+005   -1.89644E+003    7.21207E+004    5.81002E+002   -4.33872E+003    9.44703E+003   -3.51657E+004    4.60187E+004   -7.34955E+003
            6633    1.10567E+005    6.95296E+004    6.95296E+004   -4.69181E+003   -5.75447E+004    1.27074E+005   -2.43103E+003    7.28716E+004    2.08211E+003   -5.34156E+003    1.05525E+004   -4.92861E+004    3.85909E+004   -9.66419E+003
            6634    8.99333E+004    6.06736E+004    6.06736E+004    1.96539E+003   -4.28628E+004    1.03536E+005   -6.59206E+003    5.50748E+004    4.30153E+003    2.06588E+003    1.34088E+004   -3.13928E+003    5.14652E+004   -1.17435E+003
            6635    8.42138E+004    5.68070E+004    5.68070E+004    3.17638E+002   -3.99846E+004    9.67916E+004   -5.71336E+003    5.54050E+004    3.83794E+003    1.20134E+003    1.21008E+004   -9.08125E+003    4.73007E+004   -3.43833E+003
            6636    7.71593E+004    5.37161E+004    5.37161E+004   -2.67713E+002   -3.46588E+004    8.83748E+004   -6.26319E+003    5.55276E+004    4.73546E+003    2.12668E+003    1.19274E+004   -1.49926E+004    4.12741E+004   -5.51569E+003
            6637    6.99973E+004    4.89794E+004    4.89794E+004   -3.07007E+003   -3.05968E+004    7.95762E+004   -5.10420E+003    5.57050E+004    4.12658E+003    8.61050E+002    1.03250E+004   -2.05671E+004    3.36691E+004   -7.31323E+003
            6638    6.85312E+004    4.68812E+004    4.68812E+004   -4.57007E+003   -3.09127E+004    7.77939E+004   -3.79949E+003    5.52846E+004    3.33832E+003   -3.54000E+002    8.41416E+003   -2.84391E+004    2.55114E+004   -9.30134E+003
            6639    7.43841E+004    4.24198E+004   -4.34476E+004   -2.26937E+003   -4.34476E+004    8.58674E+004    1.09906E+003    3.07646E+004   -1.74887E+003   -2.21148E+003    6.63186E+002   -1.02069E+003    4.28873E+004   -1.25945E+003
            6640    6.86555E+004    3.91568E+004   -4.00981E+004   -2.07491E+003   -4.00981E+004    7.92549E+004    1.00542E+003    2.83014E+004   -1.68376E+003   -1.52312E+003    1.90625E+002   -3.13963E+003    3.93388E+004   -3.56543E+003
            6641    6.00874E+004    3.35079E+004   -3.57699E+004   -4.43814E+003   -3.57699E+004    6.92778E+004    2.23335E+003    3.29202E+004   -2.66924E+003   -2.93984E+003   -1.09097E+003   -4.93989E+003    3.38773E+004   -5.51593E+003
            6642    4.97786E+004    2.87418E+004    2.87418E+004   -5.05118E+003   -2.84217E+004    5.71635E+004    1.57701E+003    3.36707E+004   -2.01371E+003   -1.94958E+003   -7.67736E+002   -6.63589E+003    2.70210E+004   -7.16278E+003
            6643    3.92549E+004    2.48520E+004    2.48520E+004   -6.91018E+003   -1.90349E+004    4.38868E+004    3.64356E+002    3.46507E+004   -5.26068E+002   -1.16954E+003    6.02537E+002   -8.85813E+003    1.90492E+004   -8.45615E+003
            6644    3.64081E+005    2.50396E+005    2.50396E+005    1.61778E+004   -1.69057E+005    4.19452E+005   -3.25056E+004    2.13126E+005    2.62342E+004    5.43692E+003    6.58458E+004   -9.84143E+004    1.83154E+005   -3.50155E+003
            6645    3.11051E+005    2.07050E+005    2.07050E+005    8.41239E+003   -1.51422E+005    3.58472E+005   -2.13468E+004    1.77605E+005    1.75708E+004   -4.59617E+003    5.10659E+004   -1.02819E+005    1.44413E+005   -6.23166E+003
            6646    2.64355E+005    1.73127E+005    1.73127E+005    6.41417E+003   -1.31676E+005    3.04803E+005   -1.59552E+004    1.44044E+005    1.27206E+004   -8.21253E+003    4.33575E+004   -9.78135E+004    1.14010E+005   -7.49198E+003
            6647    2.12175E+005    1.34028E+005    1.34028E+005   -1.05213E+001   -1.10596E+005    2.44625E+005   -7.80714E+003    1.16404E+005    6.82262E+003   -1.14655E+004    2.80643E+004   -8.63134E+004    8.41651E+004   -9.00010E+003
            6648    1.61519E+005    1.03224E+005    1.03224E+005   -2.08146E+002   -8.28977E+004    1.86121E+005   -6.70593E+003    9.31108E+004    5.54233E+003   -7.28036E+003    2.18558E+004   -6.97436E+004    5.92934E+004   -1.01502E+004
            6649    1.43638E+005    9.42886E+004    9.42886E+004    1.00501E+002   -7.10350E+004    1.65324E+005   -7.78469E+003    8.90979E+004    5.16424E+003   -3.63637E+003    2.18262E+004   -4.86381E+004    6.56724E+004   -5.61170E+003
            6650    1.42601E+005    9.52424E+004    9.52424E+004    1.00428E+003   -6.88140E+004    1.64056E+005   -9.14420E+003    9.03518E+004    5.64028E+003   -7.67117E+002    2.25594E+004   -3.41114E+004    7.38910E+004   -3.10081E+003
            6651    1.45048E+005    9.61613E+004    9.61613E+004    7.66267E+002   -7.07571E+004    1.66918E+005   -8.72347E+003    9.07162E+004    4.31024E+003    1.00341E+002    2.17598E+004   -1.99733E+004    8.05014E+004   -1.27959E+003
            6652    1.51290E+005    1.00749E+005    1.00749E+005    1.50384E+003   -7.33787E+004    1.74128E+005   -9.62472E+003    9.39483E+004    4.68083E+003    1.40222E+003    2.27911E+004   -6.61499E+003    8.63313E+004   -1.58545E+002
            6653    1.86773E+005    1.18885E+005    1.18885E+005   -2.09507E+003   -9.62234E+004    2.15109E+005   -6.85558E+003    1.11746E+005    4.84352E+003   -7.59565E+003    2.33189E+004   -5.96905E+004    8.83273E+004   -4.62351E+003
            6654    1.79299E+005    1.12896E+005    1.12896E+005   -2.83585E+003   -9.36395E+004    2.06536E+005   -5.47366E+003    1.06099E+005    2.96513E+003   -6.23618E+003    1.96920E+004   -3.98733E+004    9.46192E+004   -7.71572E+002
            6655    1.78429E+005    1.12950E+005    1.12950E+005   -9.34525E+002   -9.26853E+004    2.05635E+005   -6.44339E+003    1.01691E+005    2.42450E+003   -2.12983E+003    1.90355E+004   -2.27214E+004    9.98590E+004    3.36951E+002
            6656    1.84283E+005    1.15410E+005    1.15410E+005   -2.62023E+003   -9.69419E+004    2.12352E+005   -5.28253E+003    1.06297E+005    1.12184E+003   -2.80775E+003    1.75335E+004   -7.14978E+003    1.05604E+005    6.92006E+002
            6657    2.32201E+005    1.53425E+005    1.53425E+005    4.52075E+003   -1.14128E+005    2.67553E+005   -1.46062E+004    1.34500E+005    1.02031E+004   -3.31052E+003    3.69259E+004   -6.53740E+004    1.15211E+005   -2.39095E+003
            6658    2.18407E+005    1.44924E+005    1.44924E+005    3.61808E+003   -1.06632E+005    2.51556E+005   -1.39700E+004    1.30199E+005    8.71537E+003   -2.72067E+002    3.34667E+004   -4.09825E+004    1.17964E+005    3.52505E+002
            6659    2.11134E+005    1.37117E+005    1.37117E+005    2.04522E+003   -1.06186E+005    2.43303E+005   -1.09920E+004    1.21306E+005    5.23146E+003    4.66535E+002    2.72780E+004   -2.08143E+004    1.19231E+005    2.29020E+003
            6660    2.12981E+005    1.35112E+005    1.35112E+005    1.50878E+003   -1.10501E+005    2.45614E+005   -8.70645E+003    1.13553E+005    2.94005E+003    1.33796E+003    2.18413E+004   -6.06817E+003    1.22278E+005    1.21183E+003
            6661    2.77310E+005    1.85666E+005    1.85666E+005    4.41923E+003   -1.33569E+005    3.19235E+005   -1.88386E+004    1.70419E+005    1.45736E+004   -3.31373E+002    4.22735E+004   -6.60446E+004    1.44193E+005   -3.58603E+003
            6662    2.50398E+005    1.64163E+005    1.64163E+005    2.89671E+003   -1.24302E+005    2.88465E+005   -1.42524E+004    1.47118E+005    1.00335E+004    8.54702E+002    3.18689E+004   -3.43491E+004    1.39520E+005    5.36462E+002
            6663    2.33169E+005    1.49821E+005    1.49821E+005    2.25401E+003   -1.18990E+005    2.68811E+005   -1.10283E+004    1.28816E+005    6.35678E+003    1.80703E+003    2.49210E+004   -1.48513E+004    1.33235E+005    7.30634E+002
            6664    2.29499E+005    1.40408E+005    1.40408E+005   -1.71328E+003   -1.24356E+005    2.64764E+005   -4.77948E+003    1.15359E+005    8.54282E+002   -1.77131E+003    1.52555E+004   -3.65118E+003    1.32131E+005    8.11291E+002
            6665    3.13966E+005    2.18305E+005    2.18305E+005    1.46681E+004   -1.43271E+005    3.61576E+005   -2.99009E+004    1.88608E+005    2.27563E+004    1.33763E+004    5.35701E+004   -5.20782E+004    1.72307E+005   -3.77098E+003
            6666    2.68911E+005    1.85035E+005    1.85035E+005    1.07553E+004   -1.24665E+005    3.09700E+005   -2.37082E+004    1.61159E+005    1.69185E+004    1.14610E+004    4.27451E+004   -2.21335E+004    1.52685E+005   -4.75306E+003
            6667    2.46959E+005    1.63425E+005    1.63425E+005    4.57035E+003   -1.21095E+005    2.84520E+005   -1.56335E+004    1.44513E+005    9.94598E+003    4.70630E+003    3.22481E+004   -7.07007E+003    1.41639E+005   -2.05374E+003
            6668    2.33840E+005    1.47199E+005    1.47199E+005    3.19051E+003   -1.22612E+005    2.69811E+005   -9.25915E+003    1.14223E+005    4.39323E+003    3.20145E+003    2.01828E+004   -6.59696E+002    1.34668E+005   -1.16603E+003
            6669    2.28907E+005    1.45230E+005    1.45230E+005   -3.41918E+002   -1.18619E+005    2.63849E+005   -8.75638E+003    1.28768E+005    5.13043E+003   -3.93882E+002    2.15326E+004    8.72234E+002    1.31617E+005   -3.52488E+003
            6670    2.14241E+005    1.51833E+005    1.51833E+005    1.09825E+004   -9.47169E+004    2.46550E+005   -2.26996E+004    1.33857E+005    1.74431E+004    1.07862E+004    3.98695E+004    4.86501E+002    1.21967E+005   -1.38301E+004
            6671    2.49504E+005    1.68208E+005    1.68208E+005    9.30497E+003   -1.19364E+005    2.87573E+005   -1.93830E+004    1.41103E+005    1.38703E+004    9.49046E+003    3.47884E+004   -1.33185E+003    1.42936E+005   -1.16398E+004
            6672    2.37076E+005    1.61364E+005    1.61364E+005    1.70860E+004   -1.12252E+005    2.73615E+005   -2.20659E+004    1.07948E+005    1.70656E+004    1.70661E+004    3.20661E+004    7.73868E+001    1.35448E+005   -1.77134E+004
            6673    2.71800E+005    1.85527E+005    1.85527E+005    1.52539E+004   -1.27931E+005    3.13458E+005   -2.42835E+004    1.44094E+005    1.80671E+004    1.65627E+004    3.82206E+004   -1.08652E+004    1.55743E+005   -1.02436E+004
            6674    2.59125E+005    1.82658E+005    1.82658E+005    2.13712E+004   -1.16241E+005    2.98899E+005   -2.92628E+004    1.33474E+005    2.28448E+004    2.19478E+004    4.29958E+004   -2.75016E+003    1.48225E+005   -1.61899E+004
            6675    3.16745E+005    2.24063E+005    2.24063E+005    2.07093E+004   -1.40887E+005    3.64950E+005   -3.46285E+004    1.84179E+005    2.67635E+004    2.25912E+004    5.45308E+004   -2.68513E+004    1.79839E+005   -8.83599E+003
            6676    2.88900E+005    2.09153E+005    2.09153E+005    2.77580E+004   -1.24001E+005    3.33153E+005   -3.76367E+004    1.54630E+005    2.94838E+004    2.88038E+004    5.46224E+004   -5.37944E+003    1.65213E+005   -1.67422E+004
            6677    3.23378E+005    2.40065E+005    2.40065E+005    3.53400E+004   -1.32740E+005    3.72805E+005   -4.75549E+004    1.78877E+005    3.69592E+004    3.65588E+004    6.91468E+004   -7.21054E+003    1.84896E+005   -1.64236E+004
            6678    3.68190E+005    2.79709E+005    2.79709E+005    4.37006E+004   -1.44545E+005    4.24254E+005   -5.96217E+004    2.12959E+005    4.65985E+004    4.49657E+004    8.73010E+004   -8.96568E+003    2.10425E+005   -1.59273E+004
            6679    3.69237E+005    2.67340E+005    2.67340E+005    2.82877E+004   -1.57926E+005    4.25266E+005   -4.59005E+004    2.20576E+005    3.63920E+004    2.97336E+004    7.15758E+004   -3.93268E+004    2.08160E+005   -7.91578E+003
            6680    4.24806E+005    3.14038E+005    3.14038E+005    3.85672E+004   -1.75190E+005    4.89228E+005   -5.91384E+004    2.55033E+005    4.73049E+004    3.95265E+004    9.05837E+004   -3.92935E+004    2.40418E+005   -7.18641E+003
            6681    4.73506E+005    3.37865E+005    3.37865E+005    3.73633E+004   -2.07964E+005    5.45829E+005   -5.57545E+004    2.64343E+005    4.49489E+004    2.85444E+004    9.37700E+004   -9.31102E+004    2.54779E+005    1.67857E+003
            6682    4.12333E+005    2.89983E+005    2.89983E+005    2.55266E+004   -1.85123E+005    4.75106E+005   -4.34624E+004    2.38957E+005    3.48933E+004    1.65360E+004    7.89581E+004   -9.31201E+004    2.16728E+005   -1.12821E+003
            6683    2.94693E+005    1.60528E+005   -1.79638E+005   -1.84122E+003   -1.79638E+005    3.40166E+005    6.98383E+003   -1.26158E+005   -5.51711E+003    6.69552E+002   -1.61039E+004   -8.34189E+004    1.48034E+005    1.79662E+003
            6684    2.39423E+005    1.31896E+005   -1.44506E+005   -1.29410E+003   -1.44506E+005    2.76402E+005    4.63461E+003   -9.51411E+004   -3.61908E+003    2.22647E+003   -1.25112E+004   -8.28199E+004    1.10409E+005    1.86587E+003
            6685    1.95200E+005    1.08894E+005   -1.16446E+005    6.27416E+002   -1.16446E+005    2.25340E+005    2.30807E+003   -7.95278E+004   -1.96233E+003    3.14975E+003   -8.11164E+003   -7.50115E+004    8.38821E+004    2.50296E+003
            6686    1.49135E+005    8.24512E+004   -8.97047E+004   -1.45648E+001   -8.97047E+004    1.72156E+005    2.42268E+003   -6.22162E+004   -1.71849E+003    1.69597E+003   -7.24552E+003   -6.14677E+004    6.00575E+004    2.86948E+003
            6687    1.38942E+005    7.47843E+004   -8.55779E+004   -1.15970E+003   -8.55779E+004    1.60362E+005    3.98441E+003   -6.25805E+004   -2.44857E+003   -5.21971E+002   -8.98270E+003   -3.23893E+004    7.32478E+004    1.01015E+003
            6688    1.48516E+005    7.94088E+004   -9.20034E+004   -1.79232E+003   -9.20034E+004    1.71412E+005    4.79566E+003   -6.67743E+004   -2.57181E+003   -1.70745E+003   -1.01077E+004   -1.04113E+004    8.49855E+004    1.63286E+002
            6689    1.75757E+005    9.92564E+004   -1.03635E+005    1.94294E+003   -1.03635E+005    2.02891E+005    8.11789E+002   -7.25994E+004   -2.84996E+002    2.74764E+003   -4.89801E+003   -3.78626E+004    9.40657E+004    3.78945E+002
            6690    1.85816E+005    1.05164E+005   -1.09360E+005    1.37361E+003   -1.09360E+005    2.14524E+005    9.40685E+002   -7.10993E+004    1.61323E+002    1.45066E+003   -4.43403E+003   -1.21442E+004    1.06546E+005   -6.77485E+000
            6691    2.16502E+005    1.18254E+005   -1.31669E+005   -1.51440E+003   -1.31669E+005    2.49923E+005    4.97670E+003   -9.00304E+004   -3.27402E+003   -1.70002E+002   -1.14861E+004   -3.89310E+004    1.18635E+005   -4.09679E+002
            6692    2.17212E+005    1.19982E+005   -1.30786E+005   -1.17740E+003   -1.30786E+005    2.50767E+005    3.99395E+003   -8.42351E+004   -1.94638E+003   -1.02769E+003   -9.00777E+003   -9.80064E+003    1.24946E+005   -6.46648E+002
            6693    2.52211E+005    1.39267E+005   -1.51889E+005   -6.83612E+002   -1.51889E+005    2.91156E+005    4.43508E+003   -1.02381E+005   -2.95949E+003   -2.92835E+002   -1.00529E+004   -2.73635E+004    1.42931E+005   -1.22676E+002
            6694    2.32522E+005    1.31580E+005   -1.36896E+005   -3.72640E+001   -1.36896E+005    2.68476E+005    1.78439E+003   -7.51849E+004   -3.34973E+002   -3.69018E+001   -4.98129E+003   -4.12739E+003    1.34155E+005    7.01687E+001
            6695    2.32388E+005    1.28537E+005   -1.39748E+005   -9.74327E+002   -1.39748E+005    2.68285E+005    4.06154E+003   -9.08500E+004   -2.78852E+003   -9.85213E+002   -8.41089E+003   -8.74828E+002    1.34108E+005    8.63786E+002
            6696    2.18088E+005    1.18069E+005   -1.33695E+005   -2.93781E+003   -1.33695E+005    2.51764E+005    6.18797E+003   -8.85859E+004   -4.15355E+003   -2.93926E+003   -1.14711E+004   -4.20338E+001    1.25749E+005    4.46932E+003
            6697    2.61784E+005    1.40697E+005   -1.61504E+005   -4.32452E+003   -1.61504E+005    3.02201E+005    8.37701E+003   -1.07689E+005   -6.36786E+003   -4.70921E+003   -1.40540E+004   -1.12830E+004    1.50609E+005    2.93487E+003
            6698    2.46871E+005    1.34592E+005   -1.50456E+005   -5.53905E+003   -1.50456E+005    2.85049E+005    7.13433E+003   -7.59121E+004   -5.05868E+003   -5.61034E+003   -1.07340E+004   -8.63190E+002    1.42375E+005    5.82893E+003
            6699    2.71470E+005    1.43939E+005   -1.69491E+005   -8.62110E+003   -1.69491E+005    3.13430E+005    1.13908E+004   -9.71965E+004   -8.96608E+003   -8.79520E+003   -1.64111E+004   -2.55927E+003    1.56559E+005    5.40061E+003
            6700    3.06098E+005    1.60037E+005   -1.93350E+005   -1.08170E+004   -1.93350E+005    3.53387E+005    1.47098E+004   -1.17940E+005   -1.16330E+004   -1.12658E+004   -2.12306E+004   -7.16102E+003    1.76397E+005    5.74873E+003
            6701    3.51361E+005    1.81430E+005   -2.24193E+005   -1.38403E+004   -2.24193E+005    4.05623E+005    1.88677E+004   -1.40800E+005   -1.48674E+004   -1.42323E+004   -2.75035E+004   -8.12921E+003    2.02491E+005    5.16350E+003
            6702    4.00573E+005    2.05595E+005   -2.56831E+005   -1.66789E+004   -2.56831E+005    4.62426E+005    2.26382E+004   -1.62615E+005   -1.78372E+004   -1.69938E+004   -3.30834E+004   -8.52294E+003    2.30891E+005    4.57288E+003
            6703    3.01507E+005    1.61667E+005   -1.86401E+005   -5.82849E+003   -1.86401E+005    3.48068E+005    1.01877E+004   -1.21241E+005   -7.74080E+003   -6.43755E+003   -1.63848E+004   -2.74229E+004    1.71794E+005    2.75054E+003
            6704    3.54989E+005    1.87299E+005   -2.22488E+005   -9.06907E+003   -2.22488E+005    4.09787E+005    1.47525E+004   -1.47674E+005   -1.15292E+004   -9.60600E+003   -2.31222E+004   -3.49870E+004    2.01793E+005    2.76670E+003
            6705    4.06993E+005    2.12764E+005   -2.57056E+005   -1.23720E+004   -2.57056E+005    4.69820E+005    1.88881E+004   -1.69309E+005   -1.49024E+004   -1.27391E+004   -2.90227E+004   -3.76670E+004    2.31757E+005    2.48263E+003
            6706    4.62256E+005    2.39551E+005   -2.94055E+005   -1.58955E+004   -2.94055E+005    5.33606E+005    2.34665E+004   -1.93758E+005   -1.83948E+004   -1.61590E+004   -3.58457E+004   -3.59268E+004    2.64224E+005    2.32517E+003
            6707    5.29612E+005    2.80520E+005   -3.30919E+005   -1.54418E+004   -3.30919E+005    6.11439E+005    2.19470E+004   -2.01711E+005   -1.77087E+004   -1.31667E+004   -3.49655E+004   -8.63212E+004    2.93107E+005   -9.85695E+002
            6708    4.61664E+005    2.45294E+005   -2.87687E+005   -1.21338E+004   -2.87687E+005    5.32981E+005    1.81755E+004   -1.79584E+005   -1.48489E+004   -9.36849E+003   -3.03091E+004   -9.33450E+004    2.49426E+005   -2.90669E+002
            6709    3.96049E+005    2.11693E+005   -2.45520E+005   -8.43506E+003   -2.45520E+005    4.57213E+005    1.40874E+004   -1.58572E+005   -1.14548E+004   -5.59313E+003   -2.52144E+004   -8.82850E+004    2.10688E+005    1.28353E+002
            6710    3.42007E+005    1.83619E+005   -2.11176E+005   -5.32754E+003   -2.11176E+005    3.94795E+005    1.09614E+004   -1.43630E+005   -8.96876E+003   -3.14634E+003   -2.07692E+004   -7.99040E+004    1.80343E+005    9.63753E+002
            6711    1.13893E+005    6.51486E+004   -6.63319E+004    1.89129E+003   -6.63319E+004    1.31481E+005   -2.36009E+002   -4.58775E+004    6.31870E+002    1.78404E+003   -1.70788E+003   -8.03952E+003    6.52350E+004    6.56987E+002
            6712    1.03659E+005    5.92057E+004   -6.04163E+004    3.02443E+003   -6.04163E+004    1.19622E+005   -6.04601E+002   -4.88841E+004    6.58010E+002    2.28799E+003   -1.13220E+003   -2.36072E+004    5.49405E+004    1.74997E+003
            6713    1.05540E+005    5.88127E+004   -6.29590E+004    2.08984E+003   -6.29590E+004    1.21772E+005    6.85473E+002   -5.17787E+004   -6.72773E+002    1.52153E+003   -2.90518E+003   -4.43849E+004    4.15852E+004    2.93621E+003
            6714    8.79658E+004    4.58233E+004   -5.56931E+004   -1.96924E+003   -5.56931E+004    1.01516E+005    3.94634E+003   -4.09641E+004   -2.54282E+003   -2.02848E+003   -7.26772E+003   -4.74783E+003    5.04790E+004    5.64075E+002
            6715    7.68274E+004    3.97942E+004   -4.88272E+004   -1.03215E+003   -4.88272E+004    8.86214E+004    3.35504E+003   -3.94785E+004   -2.32583E+003   -1.63733E+003   -6.10198E+003   -1.40716E+004    4.19598E+004    1.75239E+003
            6716    6.72593E+004    3.56293E+004   -4.18738E+004    1.21008E+003   -4.18738E+004    7.75031E+004    1.67815E+003   -3.88133E+004   -1.20508E+003   -2.62539E+002   -3.56684E+003   -2.58798E+004    2.87481E+004    2.97098E+003
            6717    7.36977E+004    4.48199E+004    4.48199E+004    2.10237E+003   -4.02787E+004    8.50986E+004   -2.21453E+003    1.39951E+004    1.75245E+003    2.04979E+003    2.84133E+003   -1.63023E+003    4.25091E+004    6.72560E+002
            6718    6.11851E+004    3.72062E+004    3.72062E+004    2.36893E+003   -3.34421E+004    7.06483E+004   -2.04434E+003   -1.76171E+004    1.65782E+003    1.90141E+003    2.57379E+003   -4.52042E+003    3.49852E+004    1.80344E+003
            6719    4.17140E+004    2.34990E+004   -2.45552E+004    2.32777E+003   -2.45552E+004    4.80541E+004   -4.23853E+002   -2.45603E+004    2.65729E+002    6.03440E+002    4.02391E+002   -8.43069E+003    2.24001E+004    2.67397E+003
            6720    4.14284E+005    2.12485E+005   -2.65767E+005   -1.72930E+004   -2.65767E+005    4.78252E+005    2.35249E+004   -1.68802E+005   -1.85269E+004   -1.75830E+004   -3.44648E+004    8.57462E+003    2.38805E+005   -4.35082E+003
            6721    4.76395E+005    2.46739E+005   -3.03187E+005   -1.64891E+004   -3.03187E+005    5.49926E+005    2.43121E+004   -1.99858E+005   -1.90692E+004   -1.66985E+004   -3.71686E+004    3.58717E+004    2.72459E+005   -2.15667E+003
            6722    5.38084E+005    2.84728E+005   -3.36490E+005   -1.58468E+004   -3.36490E+005    6.21217E+005    2.25363E+004   -2.05763E+005   -1.82752E+004   -1.36173E+004   -3.57164E+004    8.55153E+004    2.98432E+005    1.04132E+003
            6723    4.59987E+005    2.35386E+005   -2.95623E+005   -1.96079E+004   -2.95623E+005    5.31008E+005    2.66150E+004   -1.88212E+005   -2.09124E+004   -1.97590E+004   -3.91737E+004    6.86061E+003    2.65242E+005   -3.17568E+003
            6724    5.26483E+005    2.70749E+005   -3.36991E+005   -1.99537E+004   -3.36991E+005    6.07740E+005    2.87317E+004   -2.21993E+005   -2.24084E+004   -2.00612E+004   -4.37255E+004    2.70661E+004    3.02472E+005   -1.66465E+003
            6725    5.99305E+005    3.16242E+005   -3.75663E+005   -1.88999E+004   -3.75663E+005    6.91905E+005    2.61070E+004   -2.26652E+005   -2.10232E+004   -1.76359E+004   -3.96617E+004    6.58295E+004    3.39480E+005    1.24484E+003
            6726    4.92776E+005    2.52049E+005   -3.16814E+005   -2.12195E+004   -3.16814E+005    5.68863E+005    2.86612E+004   -2.01047E+005   -2.24041E+004   -2.12560E+004   -4.23235E+004    3.57863E+003    2.84231E+005   -1.58450E+003
            6727    5.61352E+005    2.87349E+005   -3.60639E+005   -2.24999E+004   -3.60639E+005    6.47988E+005    3.19298E+004   -2.37287E+005   -2.47485E+004   -2.25283E+004   -4.85125E+004    1.38438E+004    3.23479E+005   -8.88612E+002
            6728    6.44209E+005    3.39252E+005   -4.04500E+005   -2.11909E+004   -4.04500E+005    7.43752E+005    2.88131E+004   -2.42319E+005   -2.31588E+004   -2.08363E+004   -4.24443E+004    3.55350E+004    3.70042E+005    8.25659E+002
            6729    5.02632E+005    2.57106E+005   -3.23134E+005   -2.15813E+004   -3.23134E+005    5.80239E+005    2.92032E+004   -2.05348E+005   -2.28247E+004   -2.15820E+004   -4.32028E+004   -5.92221E+002    2.89940E+005    1.84932E+002
            6730    5.72116E+005    2.92401E+005   -3.68008E+005   -2.32570E+004   -3.68008E+005    6.60409E+005    3.29545E+004   -2.42562E+005   -2.55573E+004   -2.32571E+004   -5.00491E+004   -1.91519E+003    3.29972E+005    8.57351E+001
            6731    6.60987E+005    3.47887E+005   -4.15236E+005   -2.19916E+004   -4.15236E+005    7.63123E+005    2.97800E+004   -2.48288E+005   -2.39287E+004   -2.19913E+004   -4.34200E+004   -1.48024E+003    3.81434E+005   -1.20742E+000
            6732    4.86307E+005    2.48765E+005   -3.12630E+005   -2.09063E+004   -3.12630E+005    5.61395E+005    2.82568E+004   -1.98466E+005   -2.20972E+004   -2.09643E+004   -4.17090E+004   -4.49833E+003    2.80484E+005    1.97625E+003
            6733    5.54487E+005    2.83956E+005   -3.56107E+005   -2.20975E+004   -3.56107E+005    6.40063E+005    3.14160E+004   -2.34418E+005   -2.43559E+004   -2.21325E+004   -4.77595E+004   -1.73318E+004    3.19347E+005    1.01868E+003
            6734    6.41127E+005    3.37694E+005   -4.02500E+005   -2.10541E+004   -4.02500E+005    7.40194E+005    2.86203E+004   -2.40953E+005   -2.29729E+004   -2.06555E+004   -4.22324E+004   -3.80602E+004    3.68002E+005   -8.31176E+002
            6735    4.48659E+005    2.29669E+005   -2.88263E+005   -1.90614E+004   -2.88263E+005    5.17932E+005    2.58848E+004   -1.83477E+005   -2.03134E+004   -1.92455E+004   -3.80956E+004   -7.54194E+003    2.58684E+005    3.43716E+003
            6736    5.14057E+005    2.64536E+005   -3.28859E+005   -1.92550E+004   -3.28859E+005    5.93394E+005    2.78593E+004   -2.17034E+005   -2.18030E+004   -1.93898E+004   -4.23852E+004   -2.89785E+004    2.95097E+005    1.82222E+003
            6737    5.93674E+005    3.13179E+005   -3.72223E+005   -1.87160E+004   -3.72223E+005    6.85402E+005    2.59198E+004   -2.25195E+005   -2.09550E+004   -1.74085E+004   -3.93960E+004   -6.78478E+004    3.35766E+005   -1.14452E+003
            6738    1.05416E+005    6.28867E+004    6.28867E+004   -2.09525E+003   -5.87417E+004    1.21628E+005   -6.83239E+002    5.17577E+004    6.71038E+002   -1.52164E+003    2.90032E+003    4.43522E+004    4.15150E+004    2.94130E+003
            6739    1.03501E+005    6.03024E+004    6.03024E+004   -3.02339E+003   -5.91372E+004    1.19440E+005    6.19394E+002    4.87277E+004   -6.67269E+002   -2.29454E+003    1.10363E+003    2.34662E+004    5.49019E+004    1.73459E+003
            6740    1.13454E+005    6.60445E+004    6.60445E+004   -1.90325E+003   -6.49299E+004    1.30974E+005    2.62888E+002    4.56218E+004   -6.46519E+002   -1.79697E+003    1.65483E+003    7.99712E+003    6.49856E+004    6.50791E+002
            6741    6.69914E+004    4.17119E+004    4.17119E+004   -1.20418E+003   -3.54821E+004    7.71940E+004   -1.67518E+003    3.86703E+004    1.20200E+003    2.68676E+002    3.55487E+003    2.57314E+004    2.86744E+004    2.95880E+003
            6742    7.69739E+004    4.89372E+004    4.89372E+004    1.03664E+003   -3.98523E+004    8.87896E+004   -3.37384E+003    3.96093E+004    2.33926E+003    1.64433E+003    6.13794E+003    1.40753E+004    4.20467E+004    1.76150E+003
            6743    8.78065E+004    5.56158E+004    5.56158E+004    1.99315E+003   -4.57169E+004    1.01333E+005   -3.96401E+003    4.08716E+004    2.55424E+003    2.05325E+003    7.28456E+003    4.71213E+003    5.03898E+004    5.68747E+002
            6744    4.15278E+004    2.44316E+004    2.44316E+004   -2.30619E+003   -2.34102E+004    4.78418E+004    4.28272E+002    2.43761E+004   -2.70231E+002   -6.02700E+002   -4.11884E+002    8.20710E+003    2.23658E+004    2.69097E+003
            6745    6.13079E+004    3.35110E+004   -3.72789E+004   -2.39135E+003   -3.72789E+004    7.07899E+004    2.05307E+003    1.78852E+004   -1.66474E+003   -1.91376E+003   -2.58071E+003    4.66155E+003    3.50390E+004    1.78963E+003
            6746    7.37007E+004    4.02608E+004   -4.48412E+004   -2.11328E+003   -4.48412E+004    8.51020E+004    2.23123E+003   -1.42325E+004   -1.76451E+003   -2.06089E+003   -2.86830E+003    1.64853E+003    4.25102E+004    6.62049E+002
            6747    2.33320E+005    1.32252E+005   -1.37147E+005    8.16489E+001   -1.37147E+005    2.69399E+005    1.60462E+003   -7.44719E+004   -5.41586E+002    7.77024E+001   -4.34998E+003    4.89264E+002    1.34684E+005   -5.52604E+002
            6748    2.29709E+005    1.27841E+005   -1.37373E+005   -1.25423E+003   -1.37373E+005    2.65214E+005    3.59549E+003   -8.22169E+004   -1.35742E+003   -1.23478E+003   -8.19426E+003    3.59836E+003    1.32514E+005    2.63859E+002
            6749    2.12897E+005    1.20986E+005   -1.24830E+005    5.74074E+002   -1.24830E+005    2.45816E+005    1.09011E+003   -6.97523E+004    1.34014E+002    5.98278E+002   -4.00263E+003    5.98082E+003    1.22744E+005    1.36825E+002
            6750    1.85465E+005    1.01179E+005   -1.12923E+005   -1.66658E+003   -1.12923E+005    2.14102E+005    4.47033E+003   -7.56937E+004   -1.95319E+003   -1.60652E+003   -9.85128E+003    7.09607E+003    1.06741E+005    1.79565E+002
            6751    1.50812E+005    8.53105E+004   -8.88010E+004    1.11855E+003   -8.88010E+004    1.74111E+005    7.90633E+002   -5.80195E+004    3.32388E+002    1.10805E+003   -3.81234E+003    6.65644E+003    8.67759E+004   -2.57560E+002
            6752    2.46179E+005    1.36736E+005   -1.47468E+005   -3.52254E+002   -1.47468E+005    2.84204E+005    3.69487E+003   -9.69439E+004   -2.43667E+003   -4.05093E+002   -8.24285E+003    7.11548E+003    1.41893E+005   -7.24795E+002
            6753    2.32797E+005    1.27269E+005   -1.41475E+005   -1.91987E+003   -1.41475E+005    2.68744E+005    5.37526E+003   -9.44333E+004   -3.16360E+003   -1.71553E+003   -1.12467E+004    1.45911E+004    1.33511E+005    4.24585E+002
            6754    2.10360E+005    1.18801E+005   -1.24055E+005    1.49533E+003   -1.24055E+005    2.42856E+005    1.25287E+003   -8.17814E+004   -5.77213E+002    1.98549E+003   -5.16687E+003    2.07432E+004    1.19609E+005    8.33813E+002
            6755    1.79416E+005    9.76130E+004   -1.09490E+005   -1.33614E+003   -1.09490E+005    2.07103E+005    4.40446E+003   -7.62930E+004   -2.45979E+003   -7.27760E+002   -1.00258E+004    2.27717E+004    1.00930E+005    3.66641E+002
            6756    1.44478E+005    8.22132E+004   -8.45666E+004    2.31862E+003   -8.45666E+004    1.66780E+005    1.15994E+001   -6.02501E+004    5.11063E+002    2.46129E+003   -3.00715E+003    2.00610E+004    8.09177E+004   -3.72956E+002
            6757    2.68613E+005    1.46871E+005   -1.63218E+005   -2.12447E+003   -1.63218E+005    3.10089E+005    6.15732E+003   -1.09378E+005   -4.59762E+003   -2.44482E+003   -1.14295E+004    2.23921E+004    1.53377E+005   -1.77641E+003
            6758    2.49418E+005    1.34822E+005   -1.53097E+005   -3.08431E+003   -1.53097E+005    2.87918E+005    7.11978E+003   -1.04122E+005   -4.63837E+003   -2.23952E+003   -1.44815E+004    3.44323E+004    1.39674E+005    3.07045E+002
            6759    2.16004E+005    1.20991E+005   -1.28366E+005    1.12874E+003   -1.28366E+005    2.49357E+005    2.08221E+003   -8.76651E+004   -1.41185E+003    1.93779E+003   -6.77258E+003    4.09719E+004    1.17705E+005   -2.14763E+002
            6760    1.79624E+005    9.70808E+004   -1.10270E+005   -2.20948E+003   -1.10270E+005    2.07351E+005    5.13279E+003   -7.51319E+004   -2.98882E+003   -7.29056E+002   -1.16805E+004    3.98836E+004    9.55552E+004   -2.04541E+002
            6761    1.41324E+005    8.06596E+004   -8.24709E+004    2.79192E+003   -8.24709E+004    1.63131E+005   -3.26879E+002   -6.04909E+004    7.59321E+002    2.73382E+003   -2.51250E+003    3.41450E+004    7.40466E+004   -1.28655E+003
            6762    3.12954E+005    1.69586E+005   -1.91677E+005   -3.52464E+003   -1.91677E+005    3.61263E+005    8.53879E+003   -1.30220E+005   -6.77450E+003   -3.28136E+003   -1.55605E+004    5.23371E+004    1.72816E+005   -1.42177E+003
            6763    2.75404E+005    1.48536E+005   -1.69372E+005   -3.43335E+003   -1.69372E+005    3.17907E+005    8.08979E+003   -1.16666E+005   -5.89571E+003   -1.30044E+003   -1.70732E+004    6.62478E+004    1.44317E+005   -8.11275E+002
            6764    2.28998E+005    1.28019E+005   -1.36328E+005    1.36687E+003   -1.36328E+005    2.64347E+005    2.31387E+003   -9.53875E+004   -2.06233E+003    3.26090E+003   -8.14018E+003    6.54788E+004    1.14712E+005   -1.05864E+003
            6765    1.86186E+005    1.01171E+005   -1.13770E+005   -2.34487E+003   -1.13770E+005    2.14941E+005    4.98145E+003   -7.43526E+004   -3.43226E+003    4.88611E+002   -1.20007E+004    5.98688E+004    8.90436E+004   -1.14185E+003
            6766    1.42135E+005    8.10527E+004   -8.29954E+004    3.32315E+003   -8.29954E+004    1.64048E+005   -4.60155E+002   -6.38217E+004    3.37291E+002    3.73132E+003   -2.68815E+003    4.90130E+004    6.57086E+004   -1.97129E+003
            6767    1.60700E+005    9.05474E+004   -9.49641E+004    1.49952E+003   -9.49641E+004    1.85511E+005    9.72389E+002   -6.59665E+004   -9.21522E+002    3.35209E+003   -5.34774E+003    7.05898E+004    5.99651E+004   -3.25001E+003
            6768    2.11677E+005    1.17250E+005   -1.27137E+005   -1.21546E+003   -1.27137E+005    2.44386E+005    3.70085E+003   -7.94192E+004   -2.80578E+003    3.06106E+003   -1.13578E+004    8.70730E+004    8.53933E+004   -3.07958E+003
            6769    2.62840E+005    1.45354E+005   -1.58083E+005   -9.75761E+002   -1.58083E+005    3.03437E+005    4.56826E+003   -1.03733E+005   -4.07478E+003    3.34208E+003   -1.29721E+004    9.85630E+004    1.15065E+005   -2.62557E+003
            6770    3.08908E+005    1.68559E+005   -1.88068E+005   -3.65872E+003   -1.88068E+005    3.56627E+005    7.72264E+003   -1.20373E+005   -6.20122E+003    1.02823E+003   -1.79949E+004    1.03255E+005    1.45090E+005   -1.81430E+003
            6771    3.62494E+005    1.95818E+005   -2.22639E+005   -4.90799E+003   -2.22639E+005    4.18457E+005    1.05761E+004   -1.49616E+005   -8.57807E+003   -1.53362E+003   -2.16165E+004    9.89804E+004    1.84114E+005   -1.35883E+003
            6772    4.10517E+005    2.19178E+005   -2.54733E+005   -8.78845E+003   -2.54733E+005    4.73911E+005    1.47812E+004   -1.65605E+005   -1.20996E+004   -5.79158E+003   -2.64523E+004    9.34083E+004    2.17572E+005   -3.05828E+002
            6773    4.71576E+005    2.50650E+005   -2.93774E+005   -1.22834E+004   -2.93774E+005    5.44424E+005    1.84691E+004   -1.83580E+005   -1.50189E+004   -9.42622E+003   -3.09622E+004    9.30750E+004    2.55617E+005    5.19730E+002
            6774    4.22439E+005    2.20641E+005   -2.67004E+005   -1.28791E+004   -2.67004E+005    4.87645E+005    1.97473E+004   -1.76635E+005   -1.55146E+004   -1.32138E+004   -3.05134E+004    3.97814E+004    2.40433E+005   -2.47018E+003
            6775    3.65173E+005    1.88402E+005   -2.33163E+005   -1.44599E+004   -2.33163E+005    4.21566E+005    1.97403E+004   -1.46848E+005   -1.56127E+004   -1.48827E+004   -2.87254E+004    9.10422E+003    2.10427E+005   -5.20131E+003
            6776    3.67591E+005    1.94088E+005   -2.30247E+005   -9.26528E+003   -2.30247E+005    4.24335E+005    1.51413E+004   -1.52837E+005   -1.18529E+004   -9.74727E+003   -2.38236E+004    3.94988E+004    2.08365E+005   -2.65118E+003
            6777    3.20830E+005    1.67218E+005   -2.03175E+005   -1.17638E+004   -2.03175E+005    3.70394E+005    1.59069E+004   -1.24248E+005   -1.25843E+004   -1.21785E+004   -2.29580E+004    7.26218E+003    1.84906E+005   -5.50619E+003
            6778    2.87353E+005    1.52763E+005   -1.79001E+005   -8.48731E+003   -1.79001E+005    3.31764E+005    1.15751E+004   -1.04676E+005   -8.67525E+003   -8.84460E+003   -1.72055E+004    5.36528E+003    1.65648E+005   -5.65973E+003
            6779    2.57609E+005    1.38935E+005   -1.58498E+005   -6.20281E+003   -1.58498E+005    2.97433E+005    8.58854E+003   -8.93061E+004   -6.24098E+003   -6.40359E+003   -1.31210E+004    2.79406E+003    1.48555E+005   -5.40387E+003
            6780    2.35010E+005    1.28655E+005   -1.42700E+005   -4.86600E+003   -1.42700E+005    2.71355E+005    6.30368E+003   -7.09578E+004   -4.45471E+003   -4.85224E+003   -9.60410E+003   -1.66011E+002    1.35523E+005   -5.93647E+003
            6781    2.11457E+005    1.13581E+005   -1.30504E+005   -2.92083E+003   -1.30504E+005    2.44086E+005    6.61453E+003   -9.05539E+004   -4.61961E+003   -2.88837E+003   -1.23356E+004   -3.93327E+002    1.21893E+005   -4.62899E+003
            6782    3.15032E+005    1.66787E+005   -1.96886E+005   -7.84866E+003   -1.96886E+005    3.63673E+005    1.26495E+004   -1.28917E+005   -9.89645E+003   -8.41492E+003   -1.96371E+004    2.71118E+004    1.79727E+005   -2.76624E+003
            6783    2.70172E+005    1.44820E+005   -1.67093E+005   -6.05879E+003   -1.67093E+005    3.11913E+005    9.44412E+003   -1.03585E+005   -7.22720E+003   -6.50257E+003   -1.46026E+004    1.10260E+004    1.55491E+005   -3.43482E+003
            6784    2.47169E+005    1.33151E+005   -1.52187E+005   -4.14045E+003   -1.52187E+005    2.85338E+005    7.72564E+003   -9.94976E+004   -5.68760E+003   -4.21733E+003   -1.32720E+004    1.48209E+003    1.42562E+005   -3.79504E+003
            6785    2.26677E+005    1.25030E+005   -1.36648E+005   -7.40905E+002   -1.36648E+005    2.61679E+005    4.11970E+003   -9.20803E+004   -2.80328E+003   -7.22621E+002   -8.83320E+003   -9.15710E+002    1.30795E+005   -1.26250E+003
            6786    2.32578E+005    1.36933E+005    1.36933E+005    4.04843E+001   -1.31607E+005    2.68540E+005   -1.78889E+003    7.52151E+004    3.43008E+002    4.03136E+001    4.98334E+003    4.10982E+003    1.34187E+005    7.29078E+001
            6787    2.17010E+005    1.30649E+005    1.30649E+005    1.16161E+003   -1.19885E+005    2.50534E+005   -3.97517E+003    8.41530E+004    1.93071E+003    1.01090E+003    8.98389E+003    9.82746E+003    1.24827E+005   -6.48771E+002
            6788    1.84837E+005    1.08829E+005    1.08829E+005   -1.35359E+003   -1.04565E+005    2.13394E+005   -9.70177E+002    7.09457E+004   -1.36090E+002   -1.42989E+003    4.47651E+003    1.21170E+004    1.05980E+005   -1.92325E-001
            6789    1.47464E+005    9.14260E+004    9.14260E+004    1.82167E+003   -7.87714E+004    1.70197E+005   -4.82543E+003    6.64614E+004    2.59593E+003    1.74100E+003    1.01394E+004    1.03314E+004    8.43826E+004    1.80046E+002
            6790    2.52013E+005    1.51764E+005    1.51764E+005    6.77899E+002   -1.39163E+005    2.90927E+005   -4.42622E+003    1.02298E+005    2.95149E+003    2.85302E+002    1.00419E+004    2.74284E+004    1.42802E+005   -1.21644E+002
            6791    2.15968E+005    1.31326E+005    1.31326E+005    1.50149E+003   -1.17981E+005    2.49307E+005   -4.94865E+003    8.97513E+004    3.25227E+003    1.55133E+002    1.14385E+004    3.88838E+004    1.18327E+005   -4.13250E+002
            6792    1.75031E+005    1.03197E+005    1.03197E+005   -1.94377E+003   -9.88560E+004    2.02053E+005   -7.98947E+002    7.22939E+004    2.71086E+002   -2.73973E+003    4.86549E+003    3.77101E+004    9.36754E+004    3.83707E+002
            6793    1.38348E+005    8.52562E+004    8.52562E+004    1.16921E+003   -7.44188E+004    1.59675E+005   -4.00218E+003    6.24622E+004    2.45682E+003    5.53223E+002    8.99650E+003    3.20942E+004    7.30024E+004    1.02160E+003
            6794    1.49236E+005    8.97683E+004    8.97683E+004    1.15600E+001   -8.25041E+004    1.72272E+005   -2.42528E+003    6.22925E+004    1.72180E+003   -1.69686E+003    7.25090E+003    6.15642E+004    6.00413E+004    2.88319E+003
            6795    1.95343E+005    1.16517E+005    1.16517E+005   -6.23269E+002   -1.08989E+005    2.25506E+005   -2.30128E+003    7.94679E+004    1.95772E+003   -3.16424E+003    8.11035E+003    7.51530E+004    8.38663E+004    2.50116E+003
            6796    2.39584E+005    1.44604E+005    1.44604E+005    1.29192E+003   -1.31982E+005    2.76587E+005   -4.63807E+003    9.52370E+004    3.62173E+003   -2.22618E+003    1.25187E+004    8.28690E+004    1.10488E+005    1.87035E+003
            6797    2.94538E+005    1.79537E+005    1.79537E+005    1.83998E+003   -1.60450E+005    3.39987E+005   -6.97567E+003    1.26057E+005    5.50617E+003   -6.68348E+002    1.60892E+004    8.33658E+004    1.47962E+005    1.79404E+003
            6798    3.41569E+005    2.10889E+005    2.10889E+005    5.30620E+003   -1.83401E+005    3.94290E+005   -1.09312E+004    1.43432E+005    8.95347E+003    3.11086E+003    2.07293E+004    8.00544E+004    1.79999E+005    9.66041E+002
            6799    3.96574E+005    2.45836E+005    2.45836E+005    8.45762E+003   -2.11984E+005    4.57819E+005   -1.41033E+004    1.58649E+005    1.14695E+004    5.60038E+003    2.52399E+004    8.85942E+004    2.10886E+005    1.28399E+002
            6800    4.62313E+005    2.88095E+005    2.88095E+005    1.21520E+004   -2.45635E+005    5.33730E+005   -1.82043E+004    1.79856E+005    1.48716E+004    9.39007E+003    3.03511E+004    9.32920E+004    2.49846E+005   -2.97746E+002
            6801    5.29431E+005    3.30812E+005    3.30812E+005    1.54138E+004   -2.80417E+005    6.11230E+005   -2.19362E+004    2.01843E+005    1.76968E+004    1.31481E+004    3.49636E+004    8.62105E+004    2.93030E+005   -9.72763E+002
            6802    4.62371E+005    2.94114E+005    2.94114E+005    1.59007E+004   -2.39625E+005    5.33739E+005   -2.34632E+004    1.93718E+005    1.83963E+004    1.61607E+004    3.58326E+004    3.61019E+004    2.64268E+005    2.31304E+003
            6803    4.00302E+005    2.56640E+005    2.56640E+005    1.66421E+004   -2.05474E+005    4.62114E+005   -2.26030E+004    1.62556E+005    1.78070E+004    1.69648E+004    3.30373E+004    8.72139E+003    2.30727E+005    4.58296E+003
            6804    4.06807E+005    2.56933E+005    2.56933E+005    1.23474E+004   -2.12672E+005    4.69604E+005   -1.88693E+004    1.69307E+005    1.48917E+004    1.27133E+004    2.90030E+004    3.79267E+004    2.31606E+005    2.48071E+003
            6805    3.51761E+005    2.24439E+005    2.24439E+005    1.38377E+004   -1.81647E+005    4.06085E+005   -1.88766E+004    1.41013E+005    1.48718E+004    1.42355E+004    2.75224E+004    8.27343E+003    2.02717E+005    5.15926E+003
            6806    3.54930E+005    2.22435E+005    2.22435E+005    9.02481E+003   -1.87284E+005    4.09719E+005   -1.47254E+004    1.47806E+005    1.15058E+004    9.55899E+003    2.31114E+004    3.51907E+004    2.01723E+005    2.75975E+003
            6807    3.07000E+005    1.93966E+005    1.93966E+005    1.08684E+004   -1.60463E+005    3.54428E+005   -1.47905E+004    1.18467E+005    1.17018E+004    1.13194E+004    2.13504E+004    7.23626E+003    1.76915E+005    5.73671E+003
            6808    3.01678E+005    1.86500E+005    1.86500E+005    5.82144E+003   -1.61766E+005    3.48266E+005   -1.01849E+004    1.21326E+005    7.73565E+003    6.42878E+003    1.63904E+004    2.74248E+004    1.71894E+005    2.74666E+003
            6809    2.71929E+005    1.69807E+005    1.69807E+005    8.63326E+003   -1.44152E+005    3.13960E+005   -1.14295E+004    9.76153E+004    9.00090E+003    8.81513E+003    1.64723E+004    2.67752E+003    1.56822E+005    5.40506E+003
            6810    2.47062E+005    1.50585E+005    1.50585E+005    5.55160E+003   -1.34684E+005    2.85269E+005   -7.15063E+003    7.60108E+004    5.07253E+003    5.62074E+003    1.07586E+004    8.36367E+002    1.42485E+005    5.83692E+003
            6811    2.18095E+005    1.33703E+005    1.33703E+005    2.93949E+003   -1.18068E+005    2.51771E+005   -6.19145E+003    8.86039E+004    4.15900E+003    2.94544E+003    1.14699E+004    1.05221E+002    1.25753E+005    4.48485E+003
            6812    2.61908E+005    1.61582E+005    1.61582E+005    4.32478E+003   -1.40762E+005    3.02344E+005   -8.38152E+003    1.07760E+005    6.37131E+003    4.71090E+003    1.40624E+004    1.13398E+004    1.50676E+005    2.93459E+003
            6813    2.32331E+005    1.39727E+005    1.39727E+005    9.84496E+002   -1.28492E+005    2.68219E+005   -4.07293E+003    9.08471E+004    2.79859E+003    9.95199E+002    8.42501E+003    8.44867E+002    1.34075E+005    8.78257E+002
            6814    1.10750E+005    6.05958E+004   -6.72163E+004    3.83585E+002   -6.72163E+004    1.27812E+005    2.07898E+003   -5.13904E+004   -1.69828E+003    8.39910E+002   -5.37859E+003    4.99801E+004    3.96075E+004   -3.46247E+003
            6815    1.02875E+005    5.39746E+004   -6.47178E+004   -1.20729E+003   -6.47178E+004    1.18692E+005    3.98349E+003   -5.09070E+004   -3.17820E+003   -1.04206E+003   -7.73021E+003    3.54178E+004    4.75001E+004   -2.32486E+003
            6816    1.06304E+005    5.56362E+004   -6.70198E+004   -1.54804E+003   -6.70198E+004    1.22656E+005    4.31054E+003   -5.19491E+004   -3.04847E+003   -1.58228E+003   -8.30087E+003    2.52888E+004    5.57888E+004   -1.56946E+003
            6817    1.11644E+005    5.90285E+004   -6.98065E+004   -1.44434E+003   -6.98065E+004    1.28835E+005    4.07411E+003   -5.28072E+004   -2.82784E+003   -1.49694E+003   -7.89756E+003    1.52578E+004    6.25283E+004   -8.95468E+002
            6818    1.17284E+005    6.20726E+004   -7.32781E+004   -1.65703E+003   -7.32781E+004    1.35351E+005    4.28752E+003   -5.45786E+004   -2.70738E+003   -1.66363E+003   -8.49156E+003    5.00519E+003    6.74275E+004   -2.98173E+002
            6819    6.72607E+004    3.74662E+004   -4.00506E+004    2.87392E+003   -4.00506E+004    7.75169E+004   -9.65171E+001   -3.83162E+004    2.21467E+002    1.14265E+003   -1.07456E+003    2.86324E+004    2.60418E+004   -2.96140E+003
            6820    6.95166E+004    4.06692E+004    4.06692E+004    4.27909E+003   -3.94885E+004    8.01578E+004   -1.81992E+003   -3.76283E+004    1.87479E+003    2.48530E+003    1.09968E+003    2.08889E+004    3.41771E+004   -2.43948E+003
            6821    7.69148E+004    4.54252E+004    4.54252E+004    3.43362E+003   -4.33454E+004    8.87706E+004   -1.83780E+003   -3.48780E+004    2.08711E+003    2.33404E+003    1.09226E+003    1.52771E+004    4.16464E+004   -1.92942E+003
            6822    8.44924E+004    4.93963E+004    4.93963E+004    2.47141E+003   -4.81438E+004    9.75401E+004   -1.24130E+003   -3.40543E+004    1.57658E+003    2.10324E+003    4.40787E+001    9.35578E+003    4.78497E+004   -1.17929E+003
            6823    9.05372E+004    5.26283E+004    5.26283E+004    1.61197E+003   -5.19051E+004    1.04533E+005   -7.78382E+002   -3.13258E+004    1.28565E+003    1.56515E+003   -5.15647E+002    3.25366E+003    5.21562E+004   -4.41719E+002
            6824    3.76202E+004    1.90662E+004   -2.41431E+004    1.33318E+003   -2.41431E+004    4.32094E+004    1.24790E+003   -2.53062E+004   -1.21338E+003   -6.69700E+002   -1.86061E+003    9.05600E+003    1.95166E+004   -2.91429E+003
            6825    4.97220E+004    2.45769E+004   -3.27360E+004   -1.12887E+003   -3.27360E+004    5.73129E+004    3.09599E+003   -2.79275E+004   -2.90596E+003   -2.11977E+003   -4.26223E+003    6.80915E+003    2.77617E+004   -2.41714E+003
            6826    6.10755E+004    3.11205E+004   -3.93513E+004   -1.76582E+003   -3.93513E+004    7.04717E+004    3.33221E+003   -2.97164E+004   -3.06260E+003   -2.22516E+003   -4.70886E+003    4.98548E+003    3.48372E+004   -1.82281E+003
            6827    7.01182E+004    3.70146E+004   -4.39294E+004   -1.84125E+003   -4.39294E+004    8.09441E+004    2.91868E+003   -2.87730E+004   -2.60586E+003   -2.01472E+003   -4.13546E+003    3.15737E+003    4.03268E+004   -1.20071E+003
            6828    7.61947E+004    4.06822E+004   -4.72794E+004   -1.65616E+003   -4.72794E+004    8.79616E+004    2.75113E+003   -3.05773E+004   -2.38581E+003   -1.67375E+003   -4.19384E+003    1.00568E+003    4.39584E+004   -4.14535E+002
            6829    5.37885E+005    3.36335E+005    3.36335E+005    1.58165E+004   -2.84653E+005    6.20988E+005   -2.24993E+004    2.05645E+005    1.82466E+004    1.35713E+004    3.56802E+004   -8.57458E+004    2.98246E+005    1.04705E+003
            6830    4.76783E+005    3.03470E+005    3.03470E+005    1.65311E+004   -2.46904E+005    5.50374E+005   -2.43656E+004    2.00065E+005    1.91076E+004    1.67439E+004    3.72453E+004   -3.55807E+004    2.72722E+005   -2.16678E+003
            6831    4.15292E+005    2.66436E+005    2.66436E+005    1.73585E+004   -2.12979E+005    4.79416E+005   -2.36051E+004    1.69208E+005    1.85899E+004    1.76446E+004    3.45807E+004   -8.52507E+003    2.39389E+005   -4.32752E+003
            6832    5.99604E+005    3.75853E+005    3.75853E+005    1.89324E+004   -3.16398E+005    6.92251E+005   -2.61290E+004    2.26617E+005    2.10407E+004    1.76692E+004    3.96770E+004   -6.58750E+004    3.39647E+005    1.24344E+003
            6833    5.26710E+005    3.37156E+005    3.37156E+005    1.99657E+004   -2.70845E+005    6.08001E+005   -2.87592E+004    2.22187E+005    2.24295E+004    2.00730E+004    4.37751E+004   -2.69774E+004    3.02611E+005   -1.66301E+003
            6834    4.60787E+005    2.96148E+005    2.96148E+005    1.96490E+004   -2.35784E+005    5.31932E+005   -2.66710E+004    1.88563E+005    2.09573E+004    1.97978E+004    3.92578E+004   -6.82628E+003    2.65705E+005   -3.14974E+003
            6835    6.45088E+005    4.05021E+005    4.05021E+005    2.11901E+004   -3.39744E+005    7.44766E+005   -2.88224E+004    2.42647E+005    2.31693E+004    2.08406E+004    4.24573E+004   -3.52587E+004    3.70578E+005    8.23938E+002
            6836    5.61520E+005    3.60740E+005    3.60740E+005    2.24832E+004   -2.87441E+005    6.48181E+005   -3.19275E+004    2.37455E+005    2.47476E+004    2.25103E+004    4.85247E+004   -1.38605E+004    3.23575E+005   -8.73036E+002
            6837    4.93051E+005    3.16993E+005    3.16993E+005    2.12306E+004   -2.52187E+005    5.69180E+005   -2.86788E+004    2.01179E+005    2.24179E+004    2.12656E+004    4.23530E+004   -3.49441E+003    2.84390E+005   -1.55155E+003
            6838    6.60764E+005    4.15106E+005    4.15106E+005    2.20121E+004   -3.47759E+005    7.62865E+005   -2.97866E+004    2.48083E+005    2.39371E+004    2.20113E+004    4.34112E+004    2.11219E+003    3.81302E+005   -1.74671E+001
            6839    5.71991E+005    3.67921E+005    3.67921E+005    2.32510E+004   -2.92343E+005    6.60265E+005   -3.29429E+004    2.42479E+005    2.55483E+004    2.32513E+004    5.00292E+004    1.91896E+003    3.29900E+005    1.00501E+002
            6840    5.02491E+005    3.23052E+005    3.23052E+005    2.15803E+004   -2.57025E+005    5.80076E+005   -2.92023E+004    2.05312E+005    2.28259E+004    2.15810E+004    4.32000E+004    5.83600E+002    2.89859E+005    2.13535E+002
            6841    6.40624E+005    4.02169E+005    4.02169E+005    2.10198E+004   -3.37444E+005    7.39613E+005   -2.85815E+004    2.40780E+005    2.29438E+004    2.06079E+004    4.21929E+004    3.86370E+004    3.67649E+005   -8.46449E+002
            6842    5.54570E+005    3.56135E+005    3.56135E+005    2.20856E+004   -2.84023E+005    6.40159E+005   -3.13993E+004    2.34401E+005    2.43446E+004    2.21213E+004    4.77320E+004    1.72472E+004    3.19399E+005    1.02292E+003
            6843    4.85680E+005    3.12235E+005    3.12235E+005    2.08891E+004   -2.48435E+005    5.60670E+005   -2.82298E+004    1.98206E+005    2.20783E+004    2.09490E+004    4.16620E+004    4.55562E+003    2.80121E+005    2.01249E+003
            6844    5.92732E+005    3.71652E+005    3.71652E+005    1.86983E+004   -3.12662E+005    6.84314E+005   -2.58961E+004    2.24894E+005    2.09315E+004    1.73881E+004    3.93686E+004    6.79430E+004    3.35192E+005   -1.13539E+003
            6845    5.14534E+005    3.29145E+005    3.29145E+005    1.92783E+004   -2.64801E+005    5.93946E+005   -2.78739E+004    2.17096E+005    2.18141E+004    1.94110E+004    4.23966E+004    2.90696E+004    2.95365E+005    1.81201E+003
            6846    4.47942E+005    2.87798E+005    2.87798E+005    1.90371E+004   -2.29307E+005    5.17105E+005   -2.58426E+004    1.83120E+005    2.02780E+004    1.92198E+004    3.80299E+004    7.40993E+003    2.58274E+005    3.45813E+003
            6847    1.17521E+005    7.34329E+004    7.34329E+004    1.66139E+003   -6.21921E+004    1.35625E+005   -4.30074E+003    5.47136E+004    2.71312E+003    1.66742E+003    8.52168E+003   -5.02514E+003    6.75632E+004   -2.95733E+002
            6848    1.11655E+005    6.98041E+004    6.98041E+004    1.43398E+003   -5.90435E+004    1.28848E+005   -4.06484E+003    5.28179E+004    2.82510E+003    1.48495E+003    7.88447E+003   -1.53339E+004    6.25164E+004   -8.95336E+002
            6849    1.06129E+005    6.69053E+004    6.69053E+004    1.53364E+003   -5.55489E+004    1.22454E+005   -4.29667E+003    5.18954E+004    3.04127E+003    1.57310E+003    8.27563E+003   -2.53944E+004    5.56300E+004   -1.58324E+003
            6850    1.02700E+005    6.46112E+004    6.46112E+004    1.20502E+003   -5.38790E+004    1.18490E+005   -3.97907E+003    5.08360E+004    3.17246E+003    1.04807E+003    7.71669E+003   -3.55533E+004    4.72715E+004   -2.34823E+003
            6851    1.10615E+005    6.71155E+004    6.71155E+004   -3.90960E+002   -6.05414E+004    1.27657E+005   -2.06104E+003    5.12752E+004    1.67566E+003   -8.57303E+002    5.36475E+003   -4.99545E+004    3.95141E+004   -3.46148E+003
            6852    9.05743E+004    5.19176E+004   -5.26586E+004   -1.62390E+003   -5.26586E+004    1.04576E+005    7.88292E+002    3.13597E+004   -1.29371E+003   -1.57787E+003    5.06712E+002   -3.20489E+003    5.21807E+004   -4.40211E+002
            6853    8.45831E+004    4.81996E+004   -4.94455E+004   -2.45676E+003   -4.94455E+004    9.76452E+004    1.23422E+003    3.40088E+004   -1.57573E+003   -2.09534E+003   -3.15828E+001   -9.25766E+003    4.79222E+004   -1.17019E+003
            6854    7.69947E+004    4.34209E+004   -4.54420E+004   -3.40295E+003   -4.54420E+004    8.88629E+004    1.80803E+003    3.48957E+004   -2.05740E+003   -2.30927E+003   -1.05742E+003   -1.52555E+004    4.17036E+004   -1.92510E+003
            6855    6.92494E+004    3.93475E+004   -4.04995E+004   -4.29437E+003   -4.04995E+004    7.98470E+004    1.81547E+003    3.76308E+004   -1.86469E+003   -2.48072E+003   -1.10101E+003   -2.08829E+004    3.39983E+004   -2.45751E+003
            6856    6.72609E+004    4.00362E+004    4.00362E+004   -2.87015E+003   -3.74822E+004    7.75184E+004    1.05391E+002    3.82586E+004   -2.26378E+002   -1.14334E+003    1.05354E+003   -2.87484E+004    2.59146E+004   -2.95818E+003
            6857    7.62351E+004    4.73129E+004    4.73129E+004    1.65995E+003   -4.06952E+004    8.80081E+004   -2.75923E+003    3.06281E+004    2.39217E+003    1.67752E+003    4.20801E+003   -1.01334E+003    4.39814E+004   -4.11691E+002
            6858    7.01716E+004    4.39600E+004    4.39600E+004    1.83865E+003   -3.70456E+004    8.10056E+004   -2.91770E+003    2.88020E+004    2.60536E+003    2.01216E+003    4.13558E+003   -3.16462E+003    4.03571E+004   -1.19952E+003
            6859    6.10298E+004    3.93087E+004    3.93087E+004    1.75650E+003   -3.11105E+004    7.04192E+004   -3.31823E+003    2.96721E+004    3.04896E+003    2.21438E+003    4.69134E+003   -4.95723E+003    3.48146E+004   -1.82421E+003
            6860    4.97663E+004    3.27417E+004    3.27417E+004    1.13732E+003   -2.46243E+004    5.73660E+004   -3.08489E+003    2.78521E+004    2.89370E+003    2.11463E+003    4.24633E+003   -6.74125E+003    2.78059E+004   -2.40532E+003
            6861    3.77988E+004    2.42462E+004    2.42462E+004   -1.34084E+003   -1.91697E+004    4.34159E+004   -1.24523E+003    2.54033E+004    1.21069E+003    6.63970E+002    1.86103E+003   -9.09272E+003    1.96135E+004   -2.91949E+003
            6862    3.62183E+005    2.22456E+005    2.22456E+005    4.87905E+003   -1.95641E+005    4.18097E+005   -1.05646E+004    1.49684E+005    8.56636E+003    1.52588E+003    2.16017E+004   -9.87611E+004    1.84027E+005   -1.36902E+003
            6863    3.08871E+005    1.88022E+005    1.88022E+005    3.64033E+003   -1.68563E+005    3.56585E+005   -7.69977E+003    1.20320E+005    6.17824E+003   -1.04733E+003    1.79684E+004   -1.03259E+005    1.45061E+005   -1.81295E+003
            6864    2.62158E+005    1.57662E+005    1.57662E+005    9.33212E+002   -1.44988E+005    3.02649E+005   -4.53566E+003    1.03649E+005    4.05270E+003   -3.36741E+003    1.29217E+004   -9.83596E+004    1.14721E+005   -2.63946E+003
            6865    2.11267E+005    1.26882E+005    1.26882E+005    1.22572E+003   -1.17031E+005    2.43913E+005   -3.69230E+003    7.91161E+004    2.80408E+003   -3.04199E+003    1.13148E+004   -8.69149E+004    8.52190E+004   -3.05830E+003
            6866    1.60099E+005    9.46224E+004    9.46224E+004   -1.51552E+003   -9.01935E+004    1.84816E+005   -9.71130E+002    6.59320E+004    9.22502E+002   -3.32505E+003    5.31593E+003   -7.03154E+004    5.97523E+004   -3.25739E+003
            6867    1.42496E+005    8.32146E+004    8.32146E+004   -3.32420E+003   -8.12509E+004    1.64466E+005    4.53507E+002    6.39872E+004   -3.24129E+002   -3.74457E+003    2.70818E+003   -4.92265E+004    6.58090E+004   -1.97817E+003
            6868    1.41622E+005    8.26470E+004    8.26470E+004   -2.77458E+003   -8.08290E+004    1.63476E+005    3.18856E+002    6.04999E+004   -7.59302E+002   -2.73563E+003    2.53836E+003   -3.44883E+004    7.40773E+004   -1.27917E+003
            6869    1.44503E+005    8.46024E+004    8.46024E+004   -2.30402E+003   -8.22064E+004    1.66809E+005   -3.06584E+001    6.02955E+004   -4.96914E+002   -2.45243E+003    3.04132E+003   -2.02984E+004    8.08732E+004   -3.75683E+002
            6870    1.50870E+005    8.88341E+004    8.88341E+004   -1.12503E+003   -8.53441E+004    1.74178E+005   -7.88337E+002    5.80767E+004   -3.24973E+002   -1.11496E+003    3.80494E+003   -6.69473E+003    8.68067E+004   -2.55394E+002
            6871    1.87020E+005    1.14227E+005    1.14227E+005    2.31300E+003   -1.01677E+005    2.15904E+005   -4.95411E+003    7.46172E+004    3.41354E+003   -5.35219E+002    1.19840E+004   -6.00609E+004    8.94949E+004   -1.12607E+003
            6872    1.80299E+005    1.10691E+005    1.10691E+005    2.18716E+003   -9.74372E+004    2.08128E+005   -5.14696E+003    7.56316E+004    3.00504E+003    7.12368E+002    1.17235E+004   -4.01573E+004    9.58618E+004   -2.38643E+002
            6873    1.79586E+005    1.09602E+005    1.09602E+005    1.34986E+003   -9.76976E+004    2.07300E+005   -4.41822E+003    7.63416E+004    2.47544E+003    7.35971E+002    1.00432E+004   -2.29714E+004    1.00986E+005    3.59288E+002
            6874    1.85419E+005    1.12910E+005    1.12910E+005    1.67357E+003   -1.01139E+005    2.14049E+005   -4.48139E+003    7.57178E+004    1.95596E+003    1.61321E+003    9.87500E+003   -7.19130E+003    1.06708E+005    1.71390E+002
            6875    2.30579E+005    1.37313E+005    1.37313E+005   -1.34456E+003   -1.28859E+005    2.66172E+005   -2.36981E+003    9.61168E+004    2.10910E+003   -3.23465E+003    8.23496E+003   -6.58262E+004    1.15564E+005   -1.07355E+003
            6876    2.17062E+005    1.29009E+005    1.29009E+005   -1.07618E+003   -1.21571E+005    2.50580E+005   -2.12047E+003    8.78207E+004    1.44569E+003   -1.90187E+003    6.81757E+003   -4.12823E+004    1.18244E+005   -1.97162E+002
            6877    2.10179E+005    1.23947E+005    1.23947E+005   -1.53265E+003   -1.18699E+005    2.42646E+005   -1.23847E+003    8.19607E+004    5.83690E+002   -2.03879E+003    5.17050E+003   -2.10000E+004    1.19457E+005    8.48656E+002
            6878    2.12538E+005    1.24604E+005    1.24604E+005   -5.88291E+002   -1.20797E+005    2.45401E+005   -1.07296E+003    6.96328E+004   -1.40207E+002   -6.14853E+002    3.97393E+003   -6.11338E+003    1.22531E+005    1.52337E+002
            6879    2.76057E+005    1.69842E+005    1.69842E+005    3.46383E+003   -1.48817E+005    3.18660E+005   -8.16300E+003    1.17206E+005    5.95214E+003    1.33124E+003    1.72056E+004   -6.62952E+004    1.44707E+005   -8.24185E+002
            6880    2.49970E+005    1.53485E+005    1.53485E+005    3.12290E+003   -1.35069E+005    2.88554E+005   -7.17965E+003    1.04458E+005    4.67564E+003    2.27173E+003    1.45916E+004   -3.45479E+004    1.39971E+005    3.07332E+002
            6881    2.32839E+005    1.41518E+005    1.41518E+005    1.94520E+003   -1.27275E+005    2.68793E+005   -5.39615E+003    9.44045E+004    3.18276E+003    1.73734E+003    1.12683E+004   -1.48889E+004    1.33503E+005    4.11362E+002
            6882    2.29348E+005    1.37158E+005    1.37158E+005    1.26552E+003   -1.27640E+005    2.64798E+005   -3.59450E+003    8.19870E+004    1.34958E+003    1.24520E+003    8.18873E+003   -3.68827E+003    1.32303E+005    2.67993E+002
            6883    3.13074E+005    1.91744E+005    1.91744E+005    3.53462E+003   -1.69659E+005    3.61403E+005   -8.54001E+003    1.30178E+005    6.78222E+003    3.29265E+003    1.55452E+004   -5.23148E+004    1.72896E+005   -1.41811E+003
            6884    2.68136E+005    1.62931E+005    1.62931E+005    2.10999E+003   -1.46607E+005    3.09538E+005   -6.14467E+003    1.09264E+005    4.58756E+003    2.42886E+003    1.14176E+004   -2.21568E+004    1.53132E+005   -1.77532E+003
            6885    2.46089E+005    1.47391E+005    1.47391E+005    3.10381E+002   -1.36709E+005    2.84100E+005   -3.66416E+003    9.70278E+004    2.40156E+003    3.56738E+002    8.23419E+003   -7.08384E+003    1.41842E+005   -6.62049E+002
            6886    2.33430E+005    1.37191E+005    1.37191E+005   -1.05217E+002   -1.32334E+005    2.69525E+005   -1.58386E+003    7.45364E+004    5.23281E+002   -1.00401E+002    4.32869E+003   -6.15371E+002    1.34747E+005   -5.38421E+002
            6887    2.27089E+005    1.36834E+005    1.36834E+005    7.28184E+002   -1.25322E+005    2.62155E+005   -4.07994E+003    9.19456E+004    2.76678E+003    7.10850E+002    8.76220E+003    8.78757E+002    1.31034E+005   -1.25039E+003
            6888    2.11661E+005    1.30591E+005    1.30591E+005    2.91674E+003   -1.13731E+005    2.44322E+005   -6.59230E+003    9.04638E+004    4.60853E+003    2.87821E+003    1.22902E+004    4.75998E+002    1.22012E+005   -4.60654E+003
            6889    2.47018E+005    1.52099E+005    1.52099E+005    4.13364E+003   -1.33065E+005    2.85164E+005   -7.72258E+003    9.94917E+004    5.68718E+003    4.20279E+003    1.32778E+004   -1.33854E+003    1.42476E+005   -3.77871E+003
            6890    2.35201E+005    1.42821E+005    1.42821E+005    4.87251E+003   -1.28754E+005    2.71575E+005   -6.31335E+003    7.10480E+004    4.46238E+003    4.86249E+003    9.61517E+003    1.23386E+002    1.35633E+005   -5.93668E+003
            6891    2.69915E+005    1.66914E+005    1.66914E+005    6.04528E+003   -1.44703E+005    3.11617E+005   -9.41852E+003    1.03396E+005    7.20160E+003    6.48604E+003    1.45679E+004   -1.08895E+004    1.55352E+005   -3.44550E+003
            6892    2.57685E+005    1.58548E+005    1.58548E+005    6.22778E+003   -1.38972E+005    2.97520E+005   -8.60130E+003    8.91710E+004    6.25025E+003    6.42384E+003    1.31298E+004   -2.73535E+003    1.48600E+005   -5.38977E+003
            6893    3.14949E+005    1.96849E+005    1.96849E+005    7.85493E+003   -1.66727E+005    3.63576E+005   -1.26589E+004    1.28923E+005    9.90192E+003    8.41985E+003    1.96549E+004   -2.70403E+004    1.79689E+005   -2.76508E+003
            6894    2.87317E+005    1.78969E+005    1.78969E+005    8.48602E+003   -1.52754E+005    3.31722E+005   -1.15671E+004    1.04591E+005    8.66792E+003    8.84228E+003    1.71911E+004   -5.34777E+003    1.65628E+005   -5.66037E+003
            6895    3.21259E+005    2.03468E+005    2.03468E+005    1.17925E+004   -1.67420E+005    3.70888E+005   -1.59467E+004    1.24470E+005    1.26145E+004    1.22084E+004    2.30173E+004   -7.29159E+003    1.85152E+005   -5.50889E+003
            6896    3.66140E+005    2.33824E+005    2.33824E+005    1.45216E+004   -1.88858E+005    4.22682E+005   -1.98295E+004    1.47362E+005    1.56858E+004    1.49432E+004    2.88595E+004   -9.12740E+003    2.10985E+005   -5.18951E+003
            6897    3.67827E+005    2.30401E+005    2.30401E+005    9.28837E+003   -1.94208E+005    4.24608E+005   -1.51605E+004    1.52870E+005    1.18652E+004    9.76974E+003    2.38466E+004   -3.95497E+004    2.08495E+005   -2.64962E+003
            6898    4.23060E+005    2.67427E+005    2.67427E+005    1.29415E+004   -2.20935E+005    4.88363E+005   -1.98112E+004    1.76822E+005    1.55639E+004    1.32785E+004    3.05913E+004   -3.95523E+004    2.40834E+005   -2.47527E+003
            6899    4.70735E+005    2.93236E+005    2.93236E+005    1.22636E+004   -2.50217E+005    5.43454E+005   -1.84277E+004    1.83148E+005    1.49819E+004    9.39550E+003    3.09056E+004   -9.32488E+004    2.55037E+005    5.11076E+002
            6900    4.09805E+005    2.54294E+005    2.54294E+005    8.76151E+003   -2.18795E+005    4.73088E+005   -1.47535E+004    1.65407E+005    1.20775E+004    5.76679E+003    2.64162E+004   -9.33357E+004    2.17155E+005   -3.14658E+002
            6901    2.94693E+005    1.79638E+005    1.79638E+005    1.84122E+003   -1.60528E+005    3.40166E+005   -6.98383E+003    1.26158E+005    5.51711E+003   -6.69552E+002    1.61039E+004   -8.34189E+004    1.48034E+005   -1.79662E+003
            6902    2.39423E+005    1.44506E+005    1.44506E+005    1.29410E+003   -1.31896E+005    2.76402E+005   -4.63461E+003    9.51411E+004    3.61908E+003   -2.22647E+003    1.25112E+004   -8.28199E+004    1.10409E+005   -1.86587E+003
            6903    1.95200E+005    1.16446E+005    1.16446E+005   -6.27416E+002   -1.08894E+005    2.25340E+005   -2.30807E+003    7.95278E+004    1.96233E+003   -3.14975E+003    8.11164E+003   -7.50115E+004    8.38821E+004   -2.50296E+003
            6904    1.49135E+005    8.97047E+004    8.97047E+004    1.45648E+001   -8.24512E+004    1.72156E+005   -2.42268E+003    6.22162E+004    1.71849E+003   -1.69597E+003    7.24552E+003   -6.14677E+004    6.00575E+004   -2.86948E+003
            6905    1.38942E+005    8.55779E+004    8.55779E+004    1.15970E+003   -7.47843E+004    1.60362E+005   -3.98441E+003    6.25805E+004    2.44857E+003    5.21971E+002    8.98270E+003   -3.23893E+004    7.32478E+004   -1.01015E+003
            6906    1.48516E+005    9.20034E+004    9.20034E+004    1.79232E+003   -7.94088E+004    1.71412E+005   -4.79566E+003    6.67743E+004    2.57181E+003    1.70745E+003    1.01077E+004   -1.04113E+004    8.49855E+004   -1.63286E+002
            6907    1.75757E+005    1.03635E+005    1.03635E+005   -1.94294E+003   -9.92564E+004    2.02891E+005   -8.11789E+002    7.25994E+004    2.84996E+002   -2.74764E+003    4.89801E+003   -3.78626E+004    9.40657E+004   -3.78945E+002
            6908    1.85816E+005    1.09360E+005    1.09360E+005   -1.37361E+003   -1.05164E+005    2.14524E+005   -9.40685E+002    7.10993E+004   -1.61323E+002   -1.45066E+003    4.43403E+003   -1.21442E+004    1.06546E+005    6.77485E+000
            6909    2.16502E+005    1.31669E+005    1.31669E+005    1.51440E+003   -1.18254E+005    2.49923E+005   -4.97670E+003    9.00304E+004    3.27402E+003    1.70002E+002    1.14861E+004   -3.89310E+004    1.18635E+005    4.09679E+002
            6910    2.17212E+005    1.30786E+005    1.30786E+005    1.17740E+003   -1.19982E+005    2.50767E+005   -3.99395E+003    8.42351E+004    1.94638E+003    1.02769E+003    9.00777E+003   -9.80064E+003    1.24946E+005    6.46648E+002
            6911    2.52211E+005    1.51889E+005    1.51889E+005    6.83612E+002   -1.39267E+005    2.91156E+005   -4.43508E+003    1.02381E+005    2.95949E+003    2.92835E+002    1.00529E+004   -2.73635E+004    1.42931E+005    1.22676E+002
            6912    2.32522E+005    1.36896E+005    1.36896E+005    3.72640E+001   -1.31580E+005    2.68476E+005   -1.78439E+003    7.51849E+004    3.34973E+002    3.69018E+001    4.98129E+003   -4.12739E+003    1.34155E+005   -7.01687E+001
            6913    2.32388E+005    1.39748E+005    1.39748E+005    9.74327E+002   -1.28537E+005    2.68285E+005   -4.06154E+003    9.08500E+004    2.78852E+003    9.85213E+002    8.41089E+003   -8.74828E+002    1.34108E+005   -8.63786E+002
            6914    2.18088E+005    1.33695E+005    1.33695E+005    2.93781E+003   -1.18069E+005    2.51764E+005   -6.18797E+003    8.85859E+004    4.15355E+003    2.93926E+003    1.14711E+004   -4.20338E+001    1.25749E+005   -4.46932E+003
            6915    2.61784E+005    1.61504E+005    1.61504E+005    4.32452E+003   -1.40697E+005    3.02201E+005   -8.37701E+003    1.07689E+005    6.36786E+003    4.70921E+003    1.40540E+004   -1.12830E+004    1.50609E+005   -2.93487E+003
            6916    2.46871E+005    1.50456E+005    1.50456E+005    5.53905E+003   -1.34592E+005    2.85049E+005   -7.13433E+003    7.59121E+004    5.05868E+003    5.61034E+003    1.07340E+004   -8.63190E+002    1.42375E+005   -5.82893E+003
            6917    2.71470E+005    1.69491E+005    1.69491E+005    8.62110E+003   -1.43939E+005    3.13430E+005   -1.13908E+004    9.71965E+004    8.96608E+003    8.79520E+003    1.64111E+004   -2.55927E+003    1.56559E+005   -5.40061E+003
            6918    3.06098E+005    1.93350E+005    1.93350E+005    1.08170E+004   -1.60037E+005    3.53387E+005   -1.47098E+004    1.17940E+005    1.16330E+004    1.12658E+004    2.12306E+004   -7.16102E+003    1.76397E+005   -5.74873E+003
            6919    3.51361E+005    2.24193E+005    2.24193E+005    1.38403E+004   -1.81430E+005    4.05623E+005   -1.88677E+004    1.40800E+005    1.48674E+004    1.42323E+004    2.75035E+004   -8.12921E+003    2.02491E+005   -5.16350E+003
            6920    4.00573E+005    2.56831E+005    2.56831E+005    1.66789E+004   -2.05595E+005    4.62426E+005   -2.26382E+004    1.62615E+005    1.78372E+004    1.69938E+004    3.30834E+004   -8.52294E+003    2.30891E+005   -4.57288E+003
            6921    3.01507E+005    1.86401E+005    1.86401E+005    5.82849E+003   -1.61667E+005    3.48068E+005   -1.01877E+004    1.21241E+005    7.74080E+003    6.43755E+003    1.63848E+004   -2.74229E+004    1.71794E+005   -2.75054E+003
            6922    3.54989E+005    2.22488E+005    2.22488E+005    9.06907E+003   -1.87299E+005    4.09787E+005   -1.47525E+004    1.47674E+005    1.15292E+004    9.60600E+003    2.31222E+004   -3.49870E+004    2.01793E+005   -2.76670E+003
            6923    4.06993E+005    2.57056E+005    2.57056E+005    1.23720E+004   -2.12764E+005    4.69820E+005   -1.88881E+004    1.69309E+005    1.49024E+004    1.27391E+004    2.90227E+004   -3.76670E+004    2.31757E+005   -2.48263E+003
            6924    4.62256E+005    2.94055E+005    2.94055E+005    1.58955E+004   -2.39551E+005    5.33606E+005   -2.34665E+004    1.93758E+005    1.83948E+004    1.61590E+004    3.58457E+004   -3.59268E+004    2.64224E+005   -2.32517E+003
            6925    5.29612E+005    3.30919E+005    3.30919E+005    1.54418E+004   -2.80520E+005    6.11439E+005   -2.19470E+004    2.01711E+005    1.77087E+004    1.31667E+004    3.49655E+004   -8.63212E+004    2.93107E+005    9.85695E+002
            6926    4.61664E+005    2.87687E+005    2.87687E+005    1.21338E+004   -2.45294E+005    5.32981E+005   -1.81755E+004    1.79584E+005    1.48489E+004    9.36849E+003    3.03091E+004   -9.33450E+004    2.49426E+005    2.90669E+002
            6927    3.96049E+005    2.45520E+005    2.45520E+005    8.43506E+003   -2.11693E+005    4.57213E+005   -1.40874E+004    1.58572E+005    1.14548E+004    5.59313E+003    2.52144E+004   -8.82850E+004    2.10688E+005   -1.28353E+002
            6928    3.42007E+005    2.11176E+005    2.11176E+005    5.32754E+003   -1.83619E+005    3.94795E+005   -1.09614E+004    1.43630E+005    8.96876E+003    3.14634E+003    2.07692E+004   -7.99040E+004    1.80343E+005   -9.63753E+002
            6929    1.13893E+005    6.63319E+004    6.63319E+004   -1.89129E+003   -6.51486E+004    1.31481E+005    2.36009E+002    4.58775E+004   -6.31870E+002   -1.78404E+003    1.70788E+003   -8.03952E+003    6.52350E+004   -6.56987E+002
            6930    1.03659E+005    6.04163E+004    6.04163E+004   -3.02443E+003   -5.92057E+004    1.19622E+005    6.04601E+002    4.88841E+004   -6.58010E+002   -2.28799E+003    1.13220E+003   -2.36072E+004    5.49405E+004   -1.74997E+003
            6931    1.05540E+005    6.29590E+004    6.29590E+004   -2.08984E+003   -5.88127E+004    1.21772E+005   -6.85473E+002    5.17787E+004    6.72773E+002   -1.52153E+003    2.90518E+003   -4.43849E+004    4.15852E+004   -2.93621E+003
            6932    8.79658E+004    5.56931E+004    5.56931E+004    1.96924E+003   -4.58233E+004    1.01516E+005   -3.94634E+003    4.09641E+004    2.54282E+003    2.02848E+003    7.26772E+003   -4.74783E+003    5.04790E+004   -5.64075E+002
            6933    7.68274E+004    4.88272E+004    4.88272E+004    1.03215E+003   -3.97942E+004    8.86214E+004   -3.35504E+003    3.94785E+004    2.32583E+003    1.63733E+003    6.10198E+003   -1.40716E+004    4.19598E+004   -1.75239E+003
            6934    6.72593E+004    4.18738E+004    4.18738E+004   -1.21008E+003   -3.56293E+004    7.75031E+004   -1.67815E+003    3.88133E+004    1.20508E+003    2.62539E+002    3.56684E+003   -2.58798E+004    2.87481E+004   -2.97098E+003
            6935    7.36977E+004    4.02787E+004   -4.48199E+004   -2.10237E+003   -4.48199E+004    8.50986E+004    2.21453E+003   -1.39951E+004   -1.75245E+003   -2.04979E+003   -2.84133E+003   -1.63023E+003    4.25091E+004   -6.72560E+002
            6936    6.11851E+004    3.34421E+004   -3.72062E+004   -2.36893E+003   -3.72062E+004    7.06483E+004    2.04434E+003    1.76171E+004   -1.65782E+003   -1.90141E+003   -2.57379E+003   -4.52042E+003    3.49852E+004   -1.80344E+003
            6937    4.17140E+004    2.45552E+004    2.45552E+004   -2.32777E+003   -2.34990E+004    4.80541E+004    4.23853E+002    2.45603E+004   -2.65729E+002   -6.03440E+002   -4.02391E+002   -8.43069E+003    2.24001E+004   -2.67397E+003
            6938    4.14284E+005    2.65767E+005    2.65767E+005    1.72930E+004   -2.12485E+005    4.78252E+005   -2.35249E+004    1.68802E+005    1.85269E+004    1.75830E+004    3.44648E+004    8.57462E+003    2.38805E+005    4.35082E+003
            6939    4.76395E+005    3.03187E+005    3.03187E+005    1.64891E+004   -2.46739E+005    5.49926E+005   -2.43121E+004    1.99858E+005    1.90692E+004    1.66985E+004    3.71686E+004    3.58717E+004    2.72459E+005    2.15667E+003
            6940    5.38084E+005    3.36490E+005    3.36490E+005    1.58468E+004   -2.84728E+005    6.21217E+005   -2.25363E+004    2.05763E+005    1.82752E+004    1.36173E+004    3.57164E+004    8.55153E+004    2.98432E+005   -1.04132E+003
            6941    4.59987E+005    2.95623E+005    2.95623E+005    1.96079E+004   -2.35386E+005    5.31008E+005   -2.66150E+004    1.88212E+005    2.09124E+004    1.97590E+004    3.91737E+004    6.86061E+003    2.65242E+005    3.17568E+003
            6942    5.26483E+005    3.36991E+005    3.36991E+005    1.99537E+004   -2.70749E+005    6.07740E+005   -2.87317E+004    2.21993E+005    2.24084E+004    2.00612E+004    4.37255E+004    2.70661E+004    3.02472E+005    1.66465E+003
            6943    5.99305E+005    3.75663E+005    3.75663E+005    1.88999E+004   -3.16242E+005    6.91905E+005   -2.61070E+004    2.26652E+005    2.10232E+004    1.76359E+004    3.96617E+004    6.58295E+004    3.39480E+005   -1.24484E+003
            6944    4.92776E+005    3.16814E+005    3.16814E+005    2.12195E+004   -2.52049E+005    5.68863E+005   -2.86612E+004    2.01047E+005    2.24041E+004    2.12560E+004    4.23235E+004    3.57863E+003    2.84231E+005    1.58450E+003
            6945    5.61352E+005    3.60639E+005    3.60639E+005    2.24999E+004   -2.87349E+005    6.47988E+005   -3.19298E+004    2.37287E+005    2.47485E+004    2.25283E+004    4.85125E+004    1.38438E+004    3.23479E+005    8.88612E+002
            6946    6.44209E+005    4.04500E+005    4.04500E+005    2.11909E+004   -3.39252E+005    7.43752E+005   -2.88131E+004    2.42319E+005    2.31588E+004    2.08363E+004    4.24443E+004    3.55350E+004    3.70042E+005   -8.25659E+002
            6947    5.02632E+005    3.23134E+005    3.23134E+005    2.15813E+004   -2.57106E+005    5.80239E+005   -2.92032E+004    2.05348E+005    2.28247E+004    2.15820E+004    4.32028E+004   -5.92221E+002    2.89940E+005   -1.84932E+002
            6948    5.72116E+005    3.68008E+005    3.68008E+005    2.32570E+004   -2.92401E+005    6.60409E+005   -3.29545E+004    2.42562E+005    2.55573E+004    2.32571E+004    5.00491E+004   -1.91519E+003    3.29972E+005   -8.57351E+001
            6949    6.60987E+005    4.15236E+005    4.15236E+005    2.19916E+004   -3.47887E+005    7.63123E+005   -2.97800E+004    2.48288E+005    2.39287E+004    2.19913E+004    4.34200E+004   -1.48024E+003    3.81434E+005    1.20742E+000
            6950    4.86307E+005    3.12630E+005    3.12630E+005    2.09063E+004   -2.48765E+005    5.61395E+005   -2.82568E+004    1.98466E+005    2.20972E+004    2.09643E+004    4.17090E+004   -4.49833E+003    2.80484E+005   -1.97625E+003
            6951    5.54487E+005    3.56107E+005    3.56107E+005    2.20975E+004   -2.83956E+005    6.40063E+005   -3.14160E+004    2.34418E+005    2.43559E+004    2.21325E+004    4.77595E+004   -1.73318E+004    3.19347E+005   -1.01868E+003
            6952    6.41127E+005    4.02500E+005    4.02500E+005    2.10541E+004   -3.37694E+005    7.40194E+005   -2.86203E+004    2.40953E+005    2.29729E+004    2.06555E+004    4.22324E+004   -3.80602E+004    3.68002E+005    8.31176E+002
            6953    4.48659E+005    2.88263E+005    2.88263E+005    1.90614E+004   -2.29669E+005    5.17932E+005   -2.58848E+004    1.83477E+005    2.03134E+004    1.92455E+004    3.80956E+004   -7.54194E+003    2.58684E+005   -3.43716E+003
            6954    5.14057E+005    3.28859E+005    3.28859E+005    1.92550E+004   -2.64536E+005    5.93394E+005   -2.78593E+004    2.17034E+005    2.18030E+004    1.93898E+004    4.23852E+004   -2.89785E+004    2.95097E+005   -1.82222E+003
            6955    5.93674E+005    3.72223E+005    3.72223E+005    1.87160E+004   -3.13179E+005    6.85402E+005   -2.59198E+004    2.25195E+005    2.09550E+004    1.74085E+004    3.93960E+004   -6.78478E+004    3.35766E+005    1.14452E+003
            6956    1.05416E+005    5.87417E+004   -6.28867E+004    2.09525E+003   -6.28867E+004    1.21628E+005    6.83239E+002   -5.17577E+004   -6.71038E+002    1.52164E+003   -2.90032E+003    4.43522E+004    4.15150E+004   -2.94130E+003
            6957    1.03501E+005    5.91372E+004   -6.03024E+004    3.02339E+003   -6.03024E+004    1.19440E+005   -6.19394E+002   -4.87277E+004    6.67269E+002    2.29454E+003   -1.10363E+003    2.34662E+004    5.49019E+004   -1.73459E+003
            6958    1.13454E+005    6.49299E+004   -6.60445E+004    1.90325E+003   -6.60445E+004    1.30974E+005   -2.62888E+002   -4.56218E+004    6.46519E+002    1.79697E+003   -1.65483E+003    7.99712E+003    6.49856E+004   -6.50791E+002
            6959    6.69914E+004    3.54821E+004   -4.17119E+004    1.20418E+003   -4.17119E+004    7.71940E+004    1.67518E+003   -3.86703E+004   -1.20200E+003   -2.68676E+002   -3.55487E+003    2.57314E+004    2.86744E+004   -2.95880E+003
            6960    7.69739E+004    3.98523E+004   -4.89372E+004   -1.03664E+003   -4.89372E+004    8.87896E+004    3.37384E+003   -3.96093E+004   -2.33926E+003   -1.64433E+003   -6.13794E+003    1.40753E+004    4.20467E+004   -1.76150E+003
            6961    8.78065E+004    4.57169E+004   -5.56158E+004   -1.99315E+003   -5.56158E+004    1.01333E+005    3.96401E+003   -4.08716E+004   -2.55424E+003   -2.05325E+003   -7.28456E+003    4.71213E+003    5.03898E+004   -5.68747E+002
            6962    4.15278E+004    2.34102E+004   -2.44316E+004    2.30619E+003   -2.44316E+004    4.78418E+004   -4.28272E+002   -2.43761E+004    2.70231E+002    6.02700E+002    4.11884E+002    8.20710E+003    2.23658E+004   -2.69097E+003
            6963    6.13079E+004    3.72789E+004    3.72789E+004    2.39135E+003   -3.35110E+004    7.07899E+004   -2.05307E+003   -1.78852E+004    1.66474E+003    1.91376E+003    2.58071E+003    4.66155E+003    3.50390E+004   -1.78963E+003
            6964    7.37007E+004    4.48412E+004    4.48412E+004    2.11328E+003   -4.02608E+004    8.51020E+004   -2.23123E+003    1.42325E+004    1.76451E+003    2.06089E+003    2.86830E+003    1.64853E+003    4.25102E+004   -6.62049E+002
            6965    2.33320E+005    1.37147E+005    1.37147E+005   -8.16489E+001   -1.32252E+005    2.69399E+005   -1.60462E+003    7.44719E+004    5.41586E+002   -7.77024E+001    4.34998E+003    4.89264E+002    1.34684E+005    5.52604E+002
            6966    2.29709E+005    1.37373E+005    1.37373E+005    1.25423E+003   -1.27841E+005    2.65214E+005   -3.59549E+003    8.22169E+004    1.35742E+003    1.23478E+003    8.19426E+003    3.59836E+003    1.32514E+005   -2.63859E+002
            6967    2.12897E+005    1.24830E+005    1.24830E+005   -5.74074E+002   -1.20986E+005    2.45816E+005   -1.09011E+003    6.97523E+004   -1.34014E+002   -5.98278E+002    4.00263E+003    5.98082E+003    1.22744E+005   -1.36825E+002
            6968    1.85465E+005    1.12923E+005    1.12923E+005    1.66658E+003   -1.01179E+005    2.14102E+005   -4.47033E+003    7.56937E+004    1.95319E+003    1.60652E+003    9.85128E+003    7.09607E+003    1.06741E+005   -1.79565E+002
            6969    1.50812E+005    8.88010E+004    8.88010E+004   -1.11855E+003   -8.53105E+004    1.74111E+005   -7.90633E+002    5.80195E+004   -3.32388E+002   -1.10805E+003    3.81234E+003    6.65644E+003    8.67759E+004    2.57560E+002
            6970    2.46179E+005    1.47468E+005    1.47468E+005    3.52254E+002   -1.36736E+005    2.84204E+005   -3.69487E+003    9.69439E+004    2.43667E+003    4.05093E+002    8.24285E+003    7.11548E+003    1.41893E+005    7.24795E+002
            6971    2.32797E+005    1.41475E+005    1.41475E+005    1.91987E+003   -1.27269E+005    2.68744E+005   -5.37526E+003    9.44333E+004    3.16360E+003    1.71553E+003    1.12467E+004    1.45911E+004    1.33511E+005   -4.24585E+002
            6972    2.10360E+005    1.24055E+005    1.24055E+005   -1.49533E+003   -1.18801E+005    2.42856E+005   -1.25287E+003    8.17814E+004    5.77213E+002   -1.98549E+003    5.16687E+003    2.07432E+004    1.19609E+005   -8.33813E+002
            6973    1.79416E+005    1.09490E+005    1.09490E+005    1.33614E+003   -9.76130E+004    2.07103E+005   -4.40446E+003    7.62930E+004    2.45979E+003    7.27760E+002    1.00258E+004    2.27717E+004    1.00930E+005   -3.66641E+002
            6974    1.44478E+005    8.45666E+004    8.45666E+004   -2.31862E+003   -8.22132E+004    1.66780E+005   -1.15994E+001    6.02501E+004   -5.11063E+002   -2.46129E+003    3.00715E+003    2.00610E+004    8.09177E+004    3.72956E+002
            6975    2.68613E+005    1.63218E+005    1.63218E+005    2.12447E+003   -1.46871E+005    3.10089E+005   -6.15732E+003    1.09378E+005    4.59762E+003    2.44482E+003    1.14295E+004    2.23921E+004    1.53377E+005    1.77641E+003
            6976    2.49418E+005    1.53097E+005    1.53097E+005    3.08431E+003   -1.34822E+005    2.87918E+005   -7.11978E+003    1.04122E+005    4.63837E+003    2.23952E+003    1.44815E+004    3.44323E+004    1.39674E+005   -3.07045E+002
            6977    2.16004E+005    1.28366E+005    1.28366E+005   -1.12874E+003   -1.20991E+005    2.49357E+005   -2.08221E+003    8.76651E+004    1.41185E+003   -1.93779E+003    6.77258E+003    4.09719E+004    1.17705E+005    2.14763E+002
            6978    1.79624E+005    1.10270E+005    1.10270E+005    2.20948E+003   -9.70808E+004    2.07351E+005   -5.13279E+003    7.51319E+004    2.98882E+003    7.29056E+002    1.16805E+004    3.98836E+004    9.55552E+004    2.04541E+002
            6979    1.41324E+005    8.24709E+004    8.24709E+004   -2.79192E+003   -8.06596E+004    1.63131E+005    3.26879E+002    6.04909E+004   -7.59321E+002   -2.73382E+003    2.51250E+003    3.41450E+004    7.40466E+004    1.28655E+003
            6980    3.12954E+005    1.91677E+005    1.91677E+005    3.52464E+003   -1.69586E+005    3.61263E+005   -8.53879E+003    1.30220E+005    6.77450E+003    3.28136E+003    1.55605E+004    5.23371E+004    1.72816E+005    1.42177E+003
            6981    2.75404E+005    1.69372E+005    1.69372E+005    3.43335E+003   -1.48536E+005    3.17907E+005   -8.08979E+003    1.16666E+005    5.89571E+003    1.30044E+003    1.70732E+004    6.62478E+004    1.44317E+005    8.11275E+002
            6982    2.28998E+005    1.36328E+005    1.36328E+005   -1.36687E+003   -1.28019E+005    2.64347E+005   -2.31387E+003    9.53875E+004    2.06233E+003   -3.26090E+003    8.14018E+003    6.54788E+004    1.14712E+005    1.05864E+003
            6983    1.86186E+005    1.13770E+005    1.13770E+005    2.34487E+003   -1.01171E+005    2.14941E+005   -4.98145E+003    7.43526E+004    3.43226E+003   -4.88611E+002    1.20007E+004    5.98688E+004    8.90436E+004    1.14185E+003
            6984    1.42135E+005    8.29954E+004    8.29954E+004   -3.32315E+003   -8.10527E+004    1.64048E+005    4.60155E+002    6.38217E+004   -3.37291E+002   -3.73132E+003    2.68815E+003    4.90130E+004    6.57086E+004    1.97129E+003
            6985    1.60700E+005    9.49641E+004    9.49641E+004   -1.49952E+003   -9.05474E+004    1.85511E+005   -9.72389E+002    6.59665E+004    9.21522E+002   -3.35209E+003    5.34774E+003    7.05898E+004    5.99651E+004    3.25001E+003
            6986    2.11677E+005    1.27137E+005    1.27137E+005    1.21546E+003   -1.17250E+005    2.44386E+005   -3.70085E+003    7.94192E+004    2.80578E+003   -3.06106E+003    1.13578E+004    8.70730E+004    8.53933E+004    3.07958E+003
            6987    2.62840E+005    1.58083E+005    1.58083E+005    9.75761E+002   -1.45354E+005    3.03437E+005   -4.56826E+003    1.03733E+005    4.07478E+003   -3.34208E+003    1.29721E+004    9.85630E+004    1.15065E+005    2.62557E+003
            6988    3.08908E+005    1.88068E+005    1.88068E+005    3.65872E+003   -1.68559E+005    3.56627E+005   -7.72264E+003    1.20373E+005    6.20122E+003   -1.02823E+003    1.79949E+004    1.03255E+005    1.45090E+005    1.81430E+003
            6989    3.62494E+005    2.22639E+005    2.22639E+005    4.90799E+003   -1.95818E+005    4.18457E+005   -1.05761E+004    1.49616E+005    8.57807E+003    1.53362E+003    2.16165E+004    9.89804E+004    1.84114E+005    1.35883E+003
            6990    4.10517E+005    2.54733E+005    2.54733E+005    8.78845E+003   -2.19178E+005    4.73911E+005   -1.47812E+004    1.65605E+005    1.20996E+004    5.79158E+003    2.64523E+004    9.34083E+004    2.17572E+005    3.05828E+002
            6991    4.71576E+005    2.93774E+005    2.93774E+005    1.22834E+004   -2.50650E+005    5.44424E+005   -1.84691E+004    1.83580E+005    1.50189E+004    9.42622E+003    3.09622E+004    9.30750E+004    2.55617E+005   -5.19730E+002
            6992    4.22439E+005    2.67004E+005    2.67004E+005    1.28791E+004   -2.20641E+005    4.87645E+005   -1.97473E+004    1.76635E+005    1.55146E+004    1.32138E+004    3.05134E+004    3.97814E+004    2.40433E+005    2.47018E+003
            6993    3.65173E+005    2.33163E+005    2.33163E+005    1.44599E+004   -1.88402E+005    4.21566E+005   -1.97403E+004    1.46848E+005    1.56127E+004    1.48827E+004    2.87254E+004    9.10422E+003    2.10427E+005    5.20131E+003
            6994    3.67591E+005    2.30247E+005    2.30247E+005    9.26528E+003   -1.94088E+005    4.24335E+005   -1.51413E+004    1.52837E+005    1.18529E+004    9.74727E+003    2.38236E+004    3.94988E+004    2.08365E+005    2.65118E+003
            6995    3.20830E+005    2.03175E+005    2.03175E+005    1.17638E+004   -1.67218E+005    3.70394E+005   -1.59069E+004    1.24248E+005    1.25843E+004    1.21785E+004    2.29580E+004    7.26218E+003    1.84906E+005    5.50619E+003
            6996    2.87353E+005    1.79001E+005    1.79001E+005    8.48731E+003   -1.52763E+005    3.31764E+005   -1.15751E+004    1.04676E+005    8.67525E+003    8.84460E+003    1.72055E+004    5.36528E+003    1.65648E+005    5.65973E+003
            6997    2.57609E+005    1.58498E+005    1.58498E+005    6.20281E+003   -1.38935E+005    2.97433E+005   -8.58854E+003    8.93061E+004    6.24098E+003    6.40359E+003    1.31210E+004    2.79406E+003    1.48555E+005    5.40387E+003
            6998    2.35010E+005    1.42700E+005    1.42700E+005    4.86600E+003   -1.28655E+005    2.71355E+005   -6.30368E+003    7.09578E+004    4.45471E+003    4.85224E+003    9.60410E+003   -1.66011E+002    1.35523E+005    5.93647E+003
            6999    2.11457E+005    1.30504E+005    1.30504E+005    2.92083E+003   -1.13581E+005    2.44086E+005   -6.61453E+003    9.05539E+004    4.61961E+003    2.88837E+003    1.23356E+004   -3.93327E+002    1.21893E+005    4.62899E+003
            7000    3.15032E+005    1.96886E+005    1.96886E+005    7.84866E+003   -1.66787E+005    3.63673E+005   -1.26495E+004    1.28917E+005    9.89645E+003    8.41492E+003    1.96371E+004    2.71118E+004    1.79727E+005    2.76624E+003
            7001    2.70172E+005    1.67093E+005    1.67093E+005    6.05879E+003   -1.44820E+005    3.11913E+005   -9.44412E+003    1.03585E+005    7.22720E+003    6.50257E+003    1.46026E+004    1.10260E+004    1.55491E+005    3.43482E+003
            7002    2.47169E+005    1.52187E+005    1.52187E+005    4.14045E+003   -1.33151E+005    2.85338E+005   -7.72564E+003    9.94976E+004    5.68760E+003    4.21733E+003    1.32720E+004    1.48209E+003    1.42562E+005    3.79504E+003
            7003    2.26677E+005    1.36648E+005    1.36648E+005    7.40905E+002   -1.25030E+005    2.61679E+005   -4.11970E+003    9.20803E+004    2.80328E+003    7.22621E+002    8.83320E+003   -9.15710E+002    1.30795E+005    1.26250E+003
            7004    2.32578E+005    1.31607E+005   -1.36933E+005   -4.04843E+001   -1.36933E+005    2.68540E+005    1.78889E+003   -7.52151E+004   -3.43008E+002   -4.03136E+001   -4.98334E+003    4.10982E+003    1.34187E+005   -7.29078E+001
            7005    2.17010E+005    1.19885E+005   -1.30649E+005   -1.16161E+003   -1.30649E+005    2.50534E+005    3.97517E+003   -8.41530E+004   -1.93071E+003   -1.01090E+003   -8.98389E+003    9.82746E+003    1.24827E+005    6.48771E+002
            7006    1.84837E+005    1.04565E+005   -1.08829E+005    1.35359E+003   -1.08829E+005    2.13394E+005    9.70177E+002   -7.09457E+004    1.36090E+002    1.42989E+003   -4.47651E+003    1.21170E+004    1.05980E+005    1.92325E-001
            7007    1.47464E+005    7.87714E+004   -9.14260E+004   -1.82167E+003   -9.14260E+004    1.70197E+005    4.82543E+003   -6.64614E+004   -2.59593E+003   -1.74100E+003   -1.01394E+004    1.03314E+004    8.43826E+004   -1.80046E+002
            7008    2.52013E+005    1.39163E+005   -1.51764E+005   -6.77899E+002   -1.51764E+005    2.90927E+005    4.42622E+003   -1.02298E+005   -2.95149E+003   -2.85302E+002   -1.00419E+004    2.74284E+004    1.42802E+005    1.21644E+002
            7009    2.15968E+005    1.17981E+005   -1.31326E+005   -1.50149E+003   -1.31326E+005    2.49307E+005    4.94865E+003   -8.97513E+004   -3.25227E+003   -1.55133E+002   -1.14385E+004    3.88838E+004    1.18327E+005    4.13250E+002
            7010    1.75031E+005    9.88560E+004   -1.03197E+005    1.94377E+003   -1.03197E+005    2.02053E+005    7.98947E+002   -7.22939E+004   -2.71086E+002    2.73973E+003   -4.86549E+003    3.77101E+004    9.36754E+004   -3.83707E+002
            7011    1.38348E+005    7.44188E+004   -8.52562E+004   -1.16921E+003   -8.52562E+004    1.59675E+005    4.00218E+003   -6.24622E+004   -2.45682E+003   -5.53223E+002   -8.99650E+003    3.20942E+004    7.30024E+004   -1.02160E+003
            7012    1.49236E+005    8.25041E+004   -8.97683E+004   -1.15600E+001   -8.97683E+004    1.72272E+005    2.42528E+003   -6.22925E+004   -1.72180E+003    1.69686E+003   -7.25090E+003    6.15642E+004    6.00413E+004   -2.88319E+003
            7013    1.95343E+005    1.08989E+005   -1.16517E+005    6.23269E+002   -1.16517E+005    2.25506E+005    2.30128E+003   -7.94679E+004   -1.95772E+003    3.16424E+003   -8.11035E+003    7.51530E+004    8.38663E+004   -2.50116E+003
            7014    2.39584E+005    1.31982E+005   -1.44604E+005   -1.29192E+003   -1.44604E+005    2.76587E+005    4.63807E+003   -9.52370E+004   -3.62173E+003    2.22618E+003   -1.25187E+004    8.28690E+004    1.10488E+005   -1.87035E+003
            7015    2.94538E+005    1.60450E+005   -1.79537E+005   -1.83998E+003   -1.79537E+005    3.39987E+005    6.97567E+003   -1.26057E+005   -5.50617E+003    6.68348E+002   -1.60892E+004    8.33658E+004    1.47962E+005   -1.79404E+003
            7016    3.41569E+005    1.83401E+005   -2.10889E+005   -5.30620E+003   -2.10889E+005    3.94290E+005    1.09312E+004   -1.43432E+005   -8.95347E+003   -3.11086E+003   -2.07293E+004    8.00544E+004    1.79999E+005   -9.66041E+002
            7017    3.96574E+005    2.11984E+005   -2.45836E+005   -8.45762E+003   -2.45836E+005    4.57819E+005    1.41033E+004   -1.58649E+005   -1.14695E+004   -5.60038E+003   -2.52399E+004    8.85942E+004    2.10886E+005   -1.28399E+002
            7018    4.62313E+005    2.45635E+005   -2.88095E+005   -1.21520E+004   -2.88095E+005    5.33730E+005    1.82043E+004   -1.79856E+005   -1.48716E+004   -9.39007E+003   -3.03511E+004    9.32920E+004    2.49846E+005    2.97746E+002
            7019    5.29431E+005    2.80417E+005   -3.30812E+005   -1.54138E+004   -3.30812E+005    6.11230E+005    2.19362E+004   -2.01843E+005   -1.76968E+004   -1.31481E+004   -3.49636E+004    8.62105E+004    2.93030E+005    9.72763E+002
            7020    4.62371E+005    2.39625E+005   -2.94114E+005   -1.59007E+004   -2.94114E+005    5.33739E+005    2.34632E+004   -1.93718E+005   -1.83963E+004   -1.61607E+004   -3.58326E+004    3.61019E+004    2.64268E+005   -2.31304E+003
            7021    4.00302E+005    2.05474E+005   -2.56640E+005   -1.66421E+004   -2.56640E+005    4.62114E+005    2.26030E+004   -1.62556E+005   -1.78070E+004   -1.69648E+004   -3.30373E+004    8.72139E+003    2.30727E+005   -4.58296E+003
            7022    4.06807E+005    2.12672E+005   -2.56933E+005   -1.23474E+004   -2.56933E+005    4.69604E+005    1.88693E+004   -1.69307E+005   -1.48917E+004   -1.27133E+004   -2.90030E+004    3.79267E+004    2.31606E+005   -2.48071E+003
            7023    3.51761E+005    1.81647E+005   -2.24439E+005   -1.38377E+004   -2.24439E+005    4.06085E+005    1.88766E+004   -1.41013E+005   -1.48718E+004   -1.42355E+004   -2.75224E+004    8.27343E+003    2.02717E+005   -5.15926E+003
            7024    3.54930E+005    1.87284E+005   -2.22435E+005   -9.02481E+003   -2.22435E+005    4.09719E+005    1.47254E+004   -1.47806E+005   -1.15058E+004   -9.55899E+003   -2.31114E+004    3.51907E+004    2.01723E+005   -2.75975E+003
            7025    3.07000E+005    1.60463E+005   -1.93966E+005   -1.08684E+004   -1.93966E+005    3.54428E+005    1.47905E+004   -1.18467E+005   -1.17018E+004   -1.13194E+004   -2.13504E+004    7.23626E+003    1.76915E+005   -5.73671E+003
            7026    3.01678E+005    1.61766E+005   -1.86500E+005   -5.82144E+003   -1.86500E+005    3.48266E+005    1.01849E+004   -1.21326E+005   -7.73565E+003   -6.42878E+003   -1.63904E+004    2.74248E+004    1.71894E+005   -2.74666E+003
            7027    2.71929E+005    1.44152E+005   -1.69807E+005   -8.63326E+003   -1.69807E+005    3.13960E+005    1.14295E+004   -9.76153E+004   -9.00090E+003   -8.81513E+003   -1.64723E+004    2.67752E+003    1.56822E+005   -5.40506E+003
            7028    2.47062E+005    1.34684E+005   -1.50585E+005   -5.55160E+003   -1.50585E+005    2.85269E+005    7.15063E+003   -7.60108E+004   -5.07253E+003   -5.62074E+003   -1.07586E+004    8.36367E+002    1.42485E+005   -5.83692E+003
            7029    2.18095E+005    1.18068E+005   -1.33703E+005   -2.93949E+003   -1.33703E+005    2.51771E+005    6.19145E+003   -8.86039E+004   -4.15900E+003   -2.94544E+003   -1.14699E+004    1.05221E+002    1.25753E+005   -4.48485E+003
            7030    2.61908E+005    1.40762E+005   -1.61582E+005   -4.32478E+003   -1.61582E+005    3.02344E+005    8.38152E+003   -1.07760E+005   -6.37131E+003   -4.71090E+003   -1.40624E+004    1.13398E+004    1.50676E+005   -2.93459E+003
            7031    2.32331E+005    1.28492E+005   -1.39727E+005   -9.84496E+002   -1.39727E+005    2.68219E+005    4.07293E+003   -9.08471E+004   -2.79859E+003   -9.95199E+002   -8.42501E+003    8.44867E+002    1.34075E+005   -8.78257E+002
            7032    1.10750E+005    6.72163E+004    6.72163E+004   -3.83585E+002   -6.05958E+004    1.27812E+005   -2.07898E+003    5.13904E+004    1.69828E+003   -8.39910E+002    5.37859E+003    4.99801E+004    3.96075E+004    3.46247E+003
            7033    1.02875E+005    6.47178E+004    6.47178E+004    1.20729E+003   -5.39746E+004    1.18692E+005   -3.98349E+003    5.09070E+004    3.17820E+003    1.04206E+003    7.73021E+003    3.54178E+004    4.75001E+004    2.32486E+003
            7034    1.06304E+005    6.70198E+004    6.70198E+004    1.54804E+003   -5.56362E+004    1.22656E+005   -4.31054E+003    5.19491E+004    3.04847E+003    1.58228E+003    8.30087E+003    2.52888E+004    5.57888E+004    1.56946E+003
            7035    1.11644E+005    6.98065E+004    6.98065E+004    1.44434E+003   -5.90285E+004    1.28835E+005   -4.07411E+003    5.28072E+004    2.82784E+003    1.49694E+003    7.89756E+003    1.52578E+004    6.25283E+004    8.95468E+002
            7036    1.17284E+005    7.32781E+004    7.32781E+004    1.65703E+003   -6.20726E+004    1.35351E+005   -4.28752E+003    5.45786E+004    2.70738E+003    1.66363E+003    8.49156E+003    5.00519E+003    6.74275E+004    2.98173E+002
            7037    6.72607E+004    4.00506E+004    4.00506E+004   -2.87392E+003   -3.74662E+004    7.75169E+004    9.65171E+001    3.83162E+004   -2.21467E+002   -1.14265E+003    1.07456E+003    2.86324E+004    2.60418E+004    2.96140E+003
            7038    6.95166E+004    3.94885E+004   -4.06692E+004   -4.27909E+003   -4.06692E+004    8.01578E+004    1.81992E+003    3.76283E+004   -1.87479E+003   -2.48530E+003   -1.09968E+003    2.08889E+004    3.41771E+004    2.43948E+003
            7039    7.69148E+004    4.33454E+004   -4.54252E+004   -3.43362E+003   -4.54252E+004    8.87706E+004    1.83780E+003    3.48780E+004   -2.08711E+003   -2.33404E+003   -1.09226E+003    1.52771E+004    4.16464E+004    1.92942E+003
            7040    8.44924E+004    4.81438E+004   -4.93963E+004   -2.47141E+003   -4.93963E+004    9.75401E+004    1.24130E+003    3.40543E+004   -1.57658E+003   -2.10324E+003   -4.40787E+001    9.35578E+003    4.78497E+004    1.17929E+003
            7041    9.05372E+004    5.19051E+004   -5.26283E+004   -1.61197E+003   -5.26283E+004    1.04533E+005    7.78382E+002    3.13258E+004   -1.28565E+003   -1.56515E+003    5.15647E+002    3.25366E+003    5.21562E+004    4.41719E+002
            7042    3.76202E+004    2.41431E+004    2.41431E+004   -1.33318E+003   -1.90662E+004    4.32094E+004   -1.24790E+003    2.53062E+004    1.21338E+003    6.69700E+002    1.86061E+003    9.05600E+003    1.95166E+004    2.91429E+003
            7043    4.97220E+004    3.27360E+004    3.27360E+004    1.12887E+003   -2.45769E+004    5.73129E+004   -3.09599E+003    2.79275E+004    2.90596E+003    2.11977E+003    4.26223E+003    6.80915E+003    2.77617E+004    2.41714E+003
            7044    6.10755E+004    3.93513E+004    3.93513E+004    1.76582E+003   -3.11205E+004    7.04717E+004   -3.33221E+003    2.97164E+004    3.06260E+003    2.22516E+003    4.70886E+003    4.98548E+003    3.48372E+004    1.82281E+003
            7045    7.01182E+004    4.39294E+004    4.39294E+004    1.84125E+003   -3.70146E+004    8.09441E+004   -2.91868E+003    2.87730E+004    2.60586E+003    2.01472E+003    4.13546E+003    3.15737E+003    4.03268E+004    1.20071E+003
            7046    7.61947E+004    4.72794E+004    4.72794E+004    1.65616E+003   -4.06822E+004    8.79616E+004   -2.75113E+003    3.05773E+004    2.38581E+003    1.67375E+003    4.19384E+003    1.00568E+003    4.39584E+004    4.14535E+002
            7047    5.37885E+005    2.84653E+005   -3.36335E+005   -1.58165E+004   -3.36335E+005    6.20988E+005    2.24993E+004   -2.05645E+005   -1.82466E+004   -1.35713E+004   -3.56802E+004   -8.57458E+004    2.98246E+005   -1.04705E+003
            7048    4.76783E+005    2.46904E+005   -3.03470E+005   -1.65311E+004   -3.03470E+005    5.50374E+005    2.43656E+004   -2.00065E+005   -1.91076E+004   -1.67439E+004   -3.72453E+004   -3.55807E+004    2.72722E+005    2.16678E+003
            7049    4.15292E+005    2.12979E+005   -2.66436E+005   -1.73585E+004   -2.66436E+005    4.79416E+005    2.36051E+004   -1.69208E+005   -1.85899E+004   -1.76446E+004   -3.45807E+004   -8.52507E+003    2.39389E+005    4.32752E+003
            7050    5.99604E+005    3.16398E+005   -3.75853E+005   -1.89324E+004   -3.75853E+005    6.92251E+005    2.61290E+004   -2.26617E+005   -2.10407E+004   -1.76692E+004   -3.96770E+004   -6.58750E+004    3.39647E+005   -1.24344E+003
            7051    5.26710E+005    2.70845E+005   -3.37156E+005   -1.99657E+004   -3.37156E+005    6.08001E+005    2.87592E+004   -2.22187E+005   -2.24295E+004   -2.00730E+004   -4.37751E+004   -2.69774E+004    3.02611E+005    1.66301E+003
            7052    4.60787E+005    2.35784E+005   -2.96148E+005   -1.96490E+004   -2.96148E+005    5.31932E+005    2.66710E+004   -1.88563E+005   -2.09573E+004   -1.97978E+004   -3.92578E+004   -6.82628E+003    2.65705E+005    3.14974E+003
            7053    6.45088E+005    3.39744E+005   -4.05021E+005   -2.11901E+004   -4.05021E+005    7.44766E+005    2.88224E+004   -2.42647E+005   -2.31693E+004   -2.08406E+004   -4.24573E+004   -3.52587E+004    3.70578E+005   -8.23938E+002
            7054    5.61520E+005    2.87441E+005   -3.60740E+005   -2.24832E+004   -3.60740E+005    6.48181E+005    3.19275E+004   -2.37455E+005   -2.47476E+004   -2.25103E+004   -4.85247E+004   -1.38605E+004    3.23575E+005    8.73036E+002
            7055    4.93051E+005    2.52187E+005   -3.16993E+005   -2.12306E+004   -3.16993E+005    5.69180E+005    2.86788E+004   -2.01179E+005   -2.24179E+004   -2.12656E+004   -4.23530E+004   -3.49441E+003    2.84390E+005    1.55155E+003
            7056    6.60764E+005    3.47759E+005   -4.15106E+005   -2.20121E+004   -4.15106E+005    7.62865E+005    2.97866E+004   -2.48083E+005   -2.39371E+004   -2.20113E+004   -4.34112E+004    2.11219E+003    3.81302E+005    1.74671E+001
            7057    5.71991E+005    2.92343E+005   -3.67921E+005   -2.32510E+004   -3.67921E+005    6.60265E+005    3.29429E+004   -2.42479E+005   -2.55483E+004   -2.32513E+004   -5.00292E+004    1.91896E+003    3.29900E+005   -1.00501E+002
            7058    5.02491E+005    2.57025E+005   -3.23052E+005   -2.15803E+004   -3.23052E+005    5.80076E+005    2.92023E+004   -2.05312E+005   -2.28259E+004   -2.15810E+004   -4.32000E+004    5.83600E+002    2.89859E+005   -2.13535E+002
            7059    6.40624E+005    3.37444E+005   -4.02169E+005   -2.10198E+004   -4.02169E+005    7.39613E+005    2.85815E+004   -2.40780E+005   -2.29438E+004   -2.06079E+004   -4.21929E+004    3.86370E+004    3.67649E+005    8.46449E+002
            7060    5.54570E+005    2.84023E+005   -3.56135E+005   -2.20856E+004   -3.56135E+005    6.40159E+005    3.13993E+004   -2.34401E+005   -2.43446E+004   -2.21213E+004   -4.77320E+004    1.72472E+004    3.19399E+005   -1.02292E+003
            7061    4.85680E+005    2.48435E+005   -3.12235E+005   -2.08891E+004   -3.12235E+005    5.60670E+005    2.82298E+004   -1.98206E+005   -2.20783E+004   -2.09490E+004   -4.16620E+004    4.55562E+003    2.80121E+005   -2.01249E+003
            7062    5.92732E+005    3.12662E+005   -3.71652E+005   -1.86983E+004   -3.71652E+005    6.84314E+005    2.58961E+004   -2.24894E+005   -2.09315E+004   -1.73881E+004   -3.93686E+004    6.79430E+004    3.35192E+005    1.13539E+003
            7063    5.14534E+005    2.64801E+005   -3.29145E+005   -1.92783E+004   -3.29145E+005    5.93946E+005    2.78739E+004   -2.17096E+005   -2.18141E+004   -1.94110E+004   -4.23966E+004    2.90696E+004    2.95365E+005   -1.81201E+003
            7064    4.47942E+005    2.29307E+005   -2.87798E+005   -1.90371E+004   -2.87798E+005    5.17105E+005    2.58426E+004   -1.83120E+005   -2.02780E+004   -1.92198E+004   -3.80299E+004    7.40993E+003    2.58274E+005   -3.45813E+003
            7065    1.17521E+005    6.21921E+004   -7.34329E+004   -1.66139E+003   -7.34329E+004    1.35625E+005    4.30074E+003   -5.47136E+004   -2.71312E+003   -1.66742E+003   -8.52168E+003   -5.02514E+003    6.75632E+004    2.95733E+002
            7066    1.11655E+005    5.90435E+004   -6.98041E+004   -1.43398E+003   -6.98041E+004    1.28848E+005    4.06484E+003   -5.28179E+004   -2.82510E+003   -1.48495E+003   -7.88447E+003   -1.53339E+004    6.25164E+004    8.95336E+002
            7067    1.06129E+005    5.55489E+004   -6.69053E+004   -1.53364E+003   -6.69053E+004    1.22454E+005    4.29667E+003   -5.18954E+004   -3.04127E+003   -1.57310E+003   -8.27563E+003   -2.53944E+004    5.56300E+004    1.58324E+003
            7068    1.02700E+005    5.38790E+004   -6.46112E+004   -1.20502E+003   -6.46112E+004    1.18490E+005    3.97907E+003   -5.08360E+004   -3.17246E+003   -1.04807E+003   -7.71669E+003   -3.55533E+004    4.72715E+004    2.34823E+003
            7069    1.10615E+005    6.05414E+004   -6.71155E+004    3.90960E+002   -6.71155E+004    1.27657E+005    2.06104E+003   -5.12752E+004   -1.67566E+003    8.57303E+002   -5.36475E+003   -4.99545E+004    3.95141E+004    3.46148E+003
            7070    9.05743E+004    5.26586E+004    5.26586E+004    1.62390E+003   -5.19176E+004    1.04576E+005   -7.88292E+002   -3.13597E+004    1.29371E+003    1.57787E+003   -5.06712E+002   -3.20489E+003    5.21807E+004    4.40211E+002
            7071    8.45831E+004    4.94455E+004    4.94455E+004    2.45676E+003   -4.81996E+004    9.76452E+004   -1.23422E+003   -3.40088E+004    1.57573E+003    2.09534E+003    3.15828E+001   -9.25766E+003    4.79222E+004    1.17019E+003
            7072    7.69947E+004    4.54420E+004    4.54420E+004    3.40295E+003   -4.34209E+004    8.88629E+004   -1.80803E+003   -3.48957E+004    2.05740E+003    2.30927E+003    1.05742E+003   -1.52555E+004    4.17036E+004    1.92510E+003
            7073    6.92494E+004    4.04995E+004    4.04995E+004    4.29437E+003   -3.93475E+004    7.98470E+004   -1.81547E+003   -3.76308E+004    1.86469E+003    2.48072E+003    1.10101E+003   -2.08829E+004    3.39983E+004    2.45751E+003
            7074    6.72609E+004    3.74822E+004   -4.00362E+004    2.87015E+003   -4.00362E+004    7.75184E+004   -1.05391E+002   -3.82586E+004    2.26378E+002    1.14334E+003   -1.05354E+003   -2.87484E+004    2.59146E+004    2.95818E+003
            7075    7.62351E+004    4.06952E+004   -4.73129E+004   -1.65995E+003   -4.73129E+004    8.80081E+004    2.75923E+003   -3.06281E+004   -2.39217E+003   -1.67752E+003   -4.20801E+003   -1.01334E+003    4.39814E+004    4.11691E+002
            7076    7.01716E+004    3.70456E+004   -4.39600E+004   -1.83865E+003   -4.39600E+004    8.10056E+004    2.91770E+003   -2.88020E+004   -2.60536E+003   -2.01216E+003   -4.13558E+003   -3.16462E+003    4.03571E+004    1.19952E+003
            7077    6.10298E+004    3.11105E+004   -3.93087E+004   -1.75650E+003   -3.93087E+004    7.04192E+004    3.31823E+003   -2.96721E+004   -3.04896E+003   -2.21438E+003   -4.69134E+003   -4.95723E+003    3.48146E+004    1.82421E+003
            7078    4.97663E+004    2.46243E+004   -3.27417E+004   -1.13732E+003   -3.27417E+004    5.73660E+004    3.08489E+003   -2.78521E+004   -2.89370E+003   -2.11463E+003   -4.24633E+003   -6.74125E+003    2.78059E+004    2.40532E+003
            7079    3.77988E+004    1.91697E+004   -2.42462E+004    1.34084E+003   -2.42462E+004    4.34159E+004    1.24523E+003   -2.54033E+004   -1.21069E+003   -6.63970E+002   -1.86103E+003   -9.09272E+003    1.96135E+004    2.91949E+003
            7080    3.62183E+005    1.95641E+005   -2.22456E+005   -4.87905E+003   -2.22456E+005    4.18097E+005    1.05646E+004   -1.49684E+005   -8.56636E+003   -1.52588E+003   -2.16017E+004   -9.87611E+004    1.84027E+005    1.36902E+003
            7081    3.08871E+005    1.68563E+005   -1.88022E+005   -3.64033E+003   -1.88022E+005    3.56585E+005    7.69977E+003   -1.20320E+005   -6.17824E+003    1.04733E+003   -1.79684E+004   -1.03259E+005    1.45061E+005    1.81295E+003
            7082    2.62158E+005    1.44988E+005   -1.57662E+005   -9.33212E+002   -1.57662E+005    3.02649E+005    4.53566E+003   -1.03649E+005   -4.05270E+003    3.36741E+003   -1.29217E+004   -9.83596E+004    1.14721E+005    2.63946E+003
            7083    2.11267E+005    1.17031E+005   -1.26882E+005   -1.22572E+003   -1.26882E+005    2.43913E+005    3.69230E+003   -7.91161E+004   -2.80408E+003    3.04199E+003   -1.13148E+004   -8.69149E+004    8.52190E+004    3.05830E+003
            7084    1.60099E+005    9.01935E+004   -9.46224E+004    1.51552E+003   -9.46224E+004    1.84816E+005    9.71130E+002   -6.59320E+004   -9.22502E+002    3.32505E+003   -5.31593E+003   -7.03154E+004    5.97523E+004    3.25739E+003
            7085    1.42496E+005    8.12509E+004   -8.32146E+004    3.32420E+003   -8.32146E+004    1.64466E+005   -4.53507E+002   -6.39872E+004    3.24129E+002    3.74457E+003   -2.70818E+003   -4.92265E+004    6.58090E+004    1.97817E+003
            7086    1.41622E+005    8.08290E+004   -8.26470E+004    2.77458E+003   -8.26470E+004    1.63476E+005   -3.18856E+002   -6.04999E+004    7.59302E+002    2.73563E+003   -2.53836E+003   -3.44883E+004    7.40773E+004    1.27917E+003
            7087    1.44503E+005    8.22064E+004   -8.46024E+004    2.30402E+003   -8.46024E+004    1.66809E+005    3.06584E+001   -6.02955E+004    4.96914E+002    2.45243E+003   -3.04132E+003   -2.02984E+004    8.08732E+004    3.75683E+002
            7088    1.50870E+005    8.53441E+004   -8.88341E+004    1.12503E+003   -8.88341E+004    1.74178E+005    7.88337E+002   -5.80767E+004    3.24973E+002    1.11496E+003   -3.80494E+003   -6.69473E+003    8.68067E+004    2.55394E+002
            7089    1.87020E+005    1.01677E+005   -1.14227E+005   -2.31300E+003   -1.14227E+005    2.15904E+005    4.95411E+003   -7.46172E+004   -3.41354E+003    5.35219E+002   -1.19840E+004   -6.00609E+004    8.94949E+004    1.12607E+003
            7090    1.80299E+005    9.74372E+004   -1.10691E+005   -2.18716E+003   -1.10691E+005    2.08128E+005    5.14696E+003   -7.56316E+004   -3.00504E+003   -7.12368E+002   -1.17235E+004   -4.01573E+004    9.58618E+004    2.38643E+002
            7091    1.79586E+005    9.76976E+004   -1.09602E+005   -1.34986E+003   -1.09602E+005    2.07300E+005    4.41822E+003   -7.63416E+004   -2.47544E+003   -7.35971E+002   -1.00432E+004   -2.29714E+004    1.00986E+005   -3.59288E+002
            7092    1.85419E+005    1.01139E+005   -1.12910E+005   -1.67357E+003   -1.12910E+005    2.14049E+005    4.48139E+003   -7.57178E+004   -1.95596E+003   -1.61321E+003   -9.87500E+003   -7.19130E+003    1.06708E+005   -1.71390E+002
            7093    2.30579E+005    1.28859E+005   -1.37313E+005    1.34456E+003   -1.37313E+005    2.66172E+005    2.36981E+003   -9.61168E+004   -2.10910E+003    3.23465E+003   -8.23496E+003   -6.58262E+004    1.15564E+005    1.07355E+003
            7094    2.17062E+005    1.21571E+005   -1.29009E+005    1.07618E+003   -1.29009E+005    2.50580E+005    2.12047E+003   -8.78207E+004   -1.44569E+003    1.90187E+003   -6.81757E+003   -4.12823E+004    1.18244E+005    1.97162E+002
            7095    2.10179E+005    1.18699E+005   -1.23947E+005    1.53265E+003   -1.23947E+005    2.42646E+005    1.23847E+003   -8.19607E+004   -5.83690E+002    2.03879E+003   -5.17050E+003   -2.10000E+004    1.19457E+005   -8.48656E+002
            7096    2.12538E+005    1.20797E+005   -1.24604E+005    5.88291E+002   -1.24604E+005    2.45401E+005    1.07296E+003   -6.96328E+004    1.40207E+002    6.14853E+002   -3.97393E+003   -6.11338E+003    1.22531E+005   -1.52337E+002
            7097    2.76057E+005    1.48817E+005   -1.69842E+005   -3.46383E+003   -1.69842E+005    3.18660E+005    8.16300E+003   -1.17206E+005   -5.95214E+003   -1.33124E+003   -1.72056E+004   -6.62952E+004    1.44707E+005    8.24185E+002
            7098    2.49970E+005    1.35069E+005   -1.53485E+005   -3.12290E+003   -1.53485E+005    2.88554E+005    7.17965E+003   -1.04458E+005   -4.67564E+003   -2.27173E+003   -1.45916E+004   -3.45479E+004    1.39971E+005   -3.07332E+002
            7099    2.32839E+005    1.27275E+005   -1.41518E+005   -1.94520E+003   -1.41518E+005    2.68793E+005    5.39615E+003   -9.44045E+004   -3.18276E+003   -1.73734E+003   -1.12683E+004   -1.48889E+004    1.33503E+005   -4.11362E+002
            7100    2.29348E+005    1.27640E+005   -1.37158E+005   -1.26552E+003   -1.37158E+005    2.64798E+005    3.59450E+003   -8.19870E+004   -1.34958E+003   -1.24520E+003   -8.18873E+003   -3.68827E+003    1.32303E+005   -2.67993E+002
            7101    3.13074E+005    1.69659E+005   -1.91744E+005   -3.53462E+003   -1.91744E+005    3.61403E+005    8.54001E+003   -1.30178E+005   -6.78222E+003   -3.29265E+003   -1.55452E+004   -5.23148E+004    1.72896E+005    1.41811E+003
            7102    2.68136E+005    1.46607E+005   -1.62931E+005   -2.10999E+003   -1.62931E+005    3.09538E+005    6.14467E+003   -1.09264E+005   -4.58756E+003   -2.42886E+003   -1.14176E+004   -2.21568E+004    1.53132E+005    1.77532E+003
            7103    2.46089E+005    1.36709E+005   -1.47391E+005   -3.10381E+002   -1.47391E+005    2.84100E+005    3.66416E+003   -9.70278E+004   -2.40156E+003   -3.56738E+002   -8.23419E+003   -7.08384E+003    1.41842E+005    6.62049E+002
            7104    2.33430E+005    1.32334E+005   -1.37191E+005    1.05217E+002   -1.37191E+005    2.69525E+005    1.58386E+003   -7.45364E+004   -5.23281E+002    1.00401E+002   -4.32869E+003   -6.15371E+002    1.34747E+005    5.38421E+002
            7105    2.27089E+005    1.25322E+005   -1.36834E+005   -7.28184E+002   -1.36834E+005    2.62155E+005    4.07994E+003   -9.19456E+004   -2.76678E+003   -7.10850E+002   -8.76220E+003    8.78757E+002    1.31034E+005    1.25039E+003
            7106    2.11661E+005    1.13731E+005   -1.30591E+005   -2.91674E+003   -1.30591E+005    2.44322E+005    6.59230E+003   -9.04638E+004   -4.60853E+003   -2.87821E+003   -1.22902E+004    4.75998E+002    1.22012E+005    4.60654E+003
            7107    2.47018E+005    1.33065E+005   -1.52099E+005   -4.13364E+003   -1.52099E+005    2.85164E+005    7.72258E+003   -9.94917E+004   -5.68718E+003   -4.20279E+003   -1.32778E+004   -1.33854E+003    1.42476E+005    3.77871E+003
            7108    2.35201E+005    1.28754E+005   -1.42821E+005   -4.87251E+003   -1.42821E+005    2.71575E+005    6.31335E+003   -7.10480E+004   -4.46238E+003   -4.86249E+003   -9.61517E+003    1.23386E+002    1.35633E+005    5.93668E+003
            7109    2.69915E+005    1.44703E+005   -1.66914E+005   -6.04528E+003   -1.66914E+005    3.11617E+005    9.41852E+003   -1.03396E+005   -7.20160E+003   -6.48604E+003   -1.45679E+004   -1.08895E+004    1.55352E+005    3.44550E+003
            7110    2.57685E+005    1.38972E+005   -1.58548E+005   -6.22778E+003   -1.58548E+005    2.97520E+005    8.60130E+003   -8.91710E+004   -6.25025E+003   -6.42384E+003   -1.31298E+004   -2.73535E+003    1.48600E+005    5.38977E+003
            7111    3.14949E+005    1.66727E+005   -1.96849E+005   -7.85493E+003   -1.96849E+005    3.63576E+005    1.26589E+004   -1.28923E+005   -9.90192E+003   -8.41985E+003   -1.96549E+004   -2.70403E+004    1.79689E+005    2.76508E+003
            7112    2.87317E+005    1.52754E+005   -1.78969E+005   -8.48602E+003   -1.78969E+005    3.31722E+005    1.15671E+004   -1.04591E+005   -8.66792E+003   -8.84228E+003   -1.71911E+004   -5.34777E+003    1.65628E+005    5.66037E+003
            7113    3.21259E+005    1.67420E+005   -2.03468E+005   -1.17925E+004   -2.03468E+005    3.70888E+005    1.59467E+004   -1.24470E+005   -1.26145E+004   -1.22084E+004   -2.30173E+004   -7.29159E+003    1.85152E+005    5.50889E+003
            7114    3.66140E+005    1.88858E+005   -2.33824E+005   -1.45216E+004   -2.33824E+005    4.22682E+005    1.98295E+004   -1.47362E+005   -1.56858E+004   -1.49432E+004   -2.88595E+004   -9.12740E+003    2.10985E+005    5.18951E+003
            7115    3.67827E+005    1.94208E+005   -2.30401E+005   -9.28837E+003   -2.30401E+005    4.24608E+005    1.51605E+004   -1.52870E+005   -1.18652E+004   -9.76974E+003   -2.38466E+004   -3.95497E+004    2.08495E+005    2.64962E+003
            7116    4.23060E+005    2.20935E+005   -2.67427E+005   -1.29415E+004   -2.67427E+005    4.88363E+005    1.98112E+004   -1.76822E+005   -1.55639E+004   -1.32785E+004   -3.05913E+004   -3.95523E+004    2.40834E+005    2.47527E+003
            7117    4.70735E+005    2.50217E+005   -2.93236E+005   -1.22636E+004   -2.93236E+005    5.43454E+005    1.84277E+004   -1.83148E+005   -1.49819E+004   -9.39550E+003   -3.09056E+004   -9.32488E+004    2.55037E+005   -5.11076E+002
            7118    4.09805E+005    2.18795E+005   -2.54294E+005   -8.76151E+003   -2.54294E+005    4.73088E+005    1.47535E+004   -1.65407E+005   -1.20775E+004   -5.76679E+003   -2.64162E+004   -9.33357E+004    2.17155E+005    3.14658E+002
            7119    2.96438E+005    1.99923E+005    1.99923E+005    6.55101E+003   -1.41367E+005    3.41290E+005   -2.17021E+004    1.81149E+005    1.71088E+004   -1.47280E+003    4.94704E+004   -8.30538E+004    1.47319E+005   -5.14205E+003
            7120    2.40892E+005    1.56148E+005    1.56148E+005    1.95895E+003   -1.21442E+005    2.77590E+005   -1.22214E+004    1.38648E+005    9.67591E+003   -8.08327E+003    3.50715E+004   -8.23063E+004    1.09836E+005   -5.86262E+003
            7121    1.96121E+005    1.25783E+005    1.25783E+005    5.88432E+002   -1.00241E+005    2.26023E+005   -8.71017E+003    1.11829E+005    6.59352E+003   -8.14382E+003    2.76808E+004   -7.43988E+004    8.31088E+004   -7.39063E+003
            7122    1.49324E+005    9.41300E+004    9.41300E+004   -3.05286E+003   -7.78072E+004    1.71937E+005   -4.42334E+003    9.06339E+004    3.56183E+003   -7.37158E+003    1.70798E+004   -6.08270E+004    5.92663E+004   -8.37150E+003
            7123    1.38204E+005    8.79417E+004    8.79417E+004   -3.33549E+003   -7.10627E+004    1.59004E+005   -4.51451E+003    8.74246E+004    2.06131E+003   -3.75302E+003    1.52352E+004   -3.21254E+004    7.22950E+004   -3.68103E+003
            7124    1.47575E+005    9.40953E+004    9.40953E+004   -2.61180E+003   -7.57668E+004    1.69862E+005   -5.23891E+003    9.13725E+004    1.75544E+003   -2.68378E+003    1.66451E+004   -1.02754E+004    8.39680E+004   -8.89641E+002
            7125    1.76132E+005    1.14987E+005    1.14987E+005    1.21624E+003   -8.78937E+004    2.02881E+005   -9.43648E+003    1.04466E+005    5.21843E+003   -2.23498E+003    2.53260E+004   -3.75246E+004    9.34298E+004   -5.92870E+002
            7126    1.85794E+005    1.21180E+005    1.21180E+005    1.02140E+003   -9.28172E+004    2.13997E+005   -9.79483E+003    1.10622E+005    4.28388E+003    5.86471E+002    2.45141E+004   -1.19923E+004    1.05813E+005    5.73944E+002
            7127    2.17131E+005    1.39906E+005    1.39906E+005    2.28386E+002   -1.10248E+005    2.50154E+005   -9.96202E+003    1.27087E+005    5.99279E+003   -3.03978E+003    2.69331E+004   -3.86979E+004    1.18241E+005    5.67835E+002
            7128    2.17419E+005    1.34800E+005    1.34800E+005   -1.89748E+003   -1.15912E+005    2.50712E+005   -5.66368E+003    1.17023E+005    1.26203E+003   -2.27816E+003    1.80072E+004   -9.66188E+003    1.24674E+005    1.67122E+003
            7129    2.52728E+005    1.68623E+005    1.68623E+005    5.67072E+003   -1.22511E+005    2.91134E+005   -1.72611E+004    1.49035E+005    1.18287E+004    4.30080E+003    3.56538E+004   -2.72266E+004    1.42411E+005    6.83609E+002
            7130    2.32489E+005    1.47030E+005    1.47030E+005    3.11231E+003   -1.21187E+005    2.68217E+005   -9.65183E+003    1.16639E+005    4.71056E+003    3.09670E+003    2.11482E+004   -4.11061E+003    1.33793E+005   -2.35199E+001
            7131    2.33942E+005    1.47538E+005    1.47538E+005   -1.11635E+002   -1.22191E+005    2.69729E+005   -8.41167E+003    1.27870E+005    4.40899E+003   -8.17841E+001    2.09078E+004   -8.44439E+002    1.34586E+005   -2.56288E+003
            7132    2.20284E+005    1.53986E+005    1.53986E+005    1.13579E+004   -9.97223E+004    2.53709E+005   -2.18740E+004    1.31629E+005    1.67897E+004    1.13030E+004    3.75292E+004   -3.80529E+001    1.25705E+005   -1.34888E+004
            7133    2.63595E+005    1.79818E+005    1.79818E+005    1.07799E+004   -1.23908E+005    3.03726E+005   -2.22301E+004    1.52690E+005    1.60258E+004    1.19580E+004    3.87064E+004   -1.12121E+004    1.50816E+005   -9.03686E+003
            7134    2.48605E+005    1.70607E+005    1.70607E+005    1.90056E+004   -1.16304E+005    2.86911E+005   -2.44359E+004    1.14678E+005    1.89324E+004    1.92302E+004    3.51453E+004   -9.22019E+002    1.42182E+005   -1.72888E+004
            7135    2.73617E+005    1.95288E+005    1.95288E+005    2.53017E+004   -1.20346E+005    3.15634E+005   -3.34146E+004    1.39694E+005    2.56366E+004    2.58149E+004    4.87923E+004   -2.55235E+003    1.56571E+005   -1.60373E+004
            7136    3.08470E+005    2.26972E+005    2.26972E+005    3.19859E+004   -1.28666E+005    3.55638E+005   -4.34307E+004    1.69622E+005    3.37004E+004    3.33200E+004    6.32715E+004   -7.09641E+003    1.76268E+005   -1.73772E+004
            7137    3.53388E+005    2.68237E+005    2.68237E+005    4.19704E+004   -1.38981E+005    4.07218E+005   -5.70754E+004    2.03618E+005    4.46149E+004    4.31293E+004    8.34820E+004   -7.99257E+003    2.01981E+005   -1.56254E+004
            7138    4.02186E+005    3.10342E+005    3.10342E+005    5.13314E+004   -1.52988E+005    4.63330E+005   -6.95616E+004    2.36260E+005    5.45158E+004    5.22809E+004    1.01888E+005   -8.36587E+003    2.29922E+005   -1.40919E+004
            7139    3.02555E+005    2.12204E+005    2.12204E+005    1.80675E+004   -1.36405E+005    3.48609E+005   -3.12889E+004    1.75604E+005    2.42200E+004    1.99135E+004    4.97332E+004   -2.72733E+004    1.71581E+005   -8.33067E+003
            7140    3.56409E+005    2.58818E+005    2.58818E+005    2.78412E+004   -1.51654E+005    4.10472E+005   -4.50016E+004    2.13568E+005    3.55854E+004    2.94379E+004    6.99814E+004   -3.47906E+004    2.01461E+005   -8.26233E+003
            7141    4.08617E+005    3.01114E+005    3.01114E+005    3.67958E+004   -1.69527E+005    4.70640E+005   -5.61276E+004    2.43443E+005    4.47554E+004    3.78711E+004    8.57563E+004   -3.74491E+004    2.31366E+005   -7.28434E+003
            7142    4.64214E+005    3.46860E+005    3.46860E+005    4.59645E+004   -1.87763E+005    5.34623E+005   -6.83537E+004    2.78322E+005    5.48456E+004    4.66952E+004    1.03520E+005   -3.57064E+004    2.63759E+005   -6.59513E+003
            7143    5.32824E+005    3.85061E+005    3.85061E+005    4.79789E+004   -2.29219E+005    6.14280E+005   -6.79405E+004    2.93933E+005    5.47797E+004    4.10200E+004    1.08022E+005   -8.62433E+004    2.93147E+005    2.93727E+003
            7144    4.64311E+005    3.31222E+005    3.31222E+005    3.65473E+004   -2.04007E+005    5.35229E+005   -5.45876E+004    2.59240E+005    4.39040E+004    2.81784E+004    9.16804E+004   -9.32172E+004    2.49154E+005    7.97478E+002
            7145    3.98192E+005    2.79955E+005    2.79955E+005    2.54243E+004   -1.78924E+005    4.58879E+005   -4.21518E+004    2.28126E+005    3.39151E+004    1.66719E+004    7.58684E+004   -8.80677E+004    2.10165E+005   -2.27002E+002
            7146    3.43876E+005    2.37739E+005    2.37739E+005    1.47542E+004   -1.58287E+005    3.96026E+005   -3.14022E+004    2.06429E+005    2.48297E+004    8.26240E+003    6.11144E+004   -7.96422E+004    1.79817E+005   -3.04711E+003
            7147    1.13780E+005    7.76124E+004    7.76124E+004    1.55495E+003   -5.31923E+004    1.30805E+005   -8.65837E+003    7.42281E+004    4.69060E+003    1.64161E+003    1.96429E+004   -7.87602E+003    6.44851E+004   -1.46110E+003
            7148    1.03854E+005    7.05363E+004    7.05363E+004   -5.88376E+002   -4.86414E+004    1.19178E+005   -7.10217E+003    7.16038E+004    4.17588E+003    4.17424E+002    1.67132E+004   -2.32887E+004    5.43699E+004   -4.89182E+003
            7149    1.06055E+005    6.94076E+004    6.94076E+004   -3.05982E+003   -5.23190E+004    1.21727E+005   -4.67623E+003    7.27672E+004    3.44137E+003   -2.67087E+003    1.32582E+004   -4.38479E+004    4.09900E+004   -9.04619E+003
            7150    8.62181E+004    5.28504E+004    5.28504E+004   -2.63890E+003   -4.64782E+004    9.93286E+004   -1.24445E+003    5.05423E+004   -9.29957E+001   -2.34642E+003    6.17275E+003   -4.72596E+003    4.93174E+004   -1.95511E+003
            7151    7.57233E+004    4.70997E+004    4.70997E+004   -4.66733E+003   -3.98096E+004    8.69093E+004   -8.74246E+002    5.20104E+004   -7.65391E+001   -2.06124E+003    4.76051E+003   -1.39178E+004    4.09335E+004   -5.45610E+003
            7152    6.75527E+004    4.44349E+004    4.44349E+004   -6.70050E+003   -3.21450E+004    7.65799E+004   -1.86314E+003    5.51102E+004    1.47522E+003   -1.66138E+003    5.77557E+003   -2.54625E+004    2.80489E+004   -8.49114E+003
            7153    7.23714E+004    4.69272E+004    4.69272E+004    2.14274E+003   -3.65664E+004    8.34937E+004   -4.16785E+003    3.62458E+004    2.89655E+003    2.27350E+003    7.33350E+003   -1.54372E+003    4.16216E+004   -1.87562E+003
            7154    6.06579E+004    3.99103E+004    3.99103E+004    4.94944E+002   -2.99393E+004    6.98496E+004   -3.48863E+003    3.66440E+004    2.58268E+003    1.72922E+003    6.15399E+003   -4.43203E+003    3.42554E+004   -5.27961E+003
            7155    4.29787E+004    2.90777E+004    2.90777E+004   -4.14639E+003   -1.94607E+004    4.85383E+004   -1.82354E+003    3.60245E+004    1.39064E+003    5.81187E+002    3.49880E+003   -8.33446E+003    2.18686E+004   -8.10893E+003
            7156    4.15759E+005    3.21701E+005    3.21701E+005    5.35271E+004   -1.57230E+005    4.78931E+005   -7.26659E+004    2.45479E+005    5.69909E+004    5.43958E+004    1.06611E+005    8.40981E+003    2.37706E+005    1.33299E+004
            7157    4.78382E+005    3.57311E+005    3.57311E+005    4.74846E+004   -1.93652E+005    5.50963E+005   -7.03811E+004    2.86096E+005    5.65244E+004    4.80431E+004    1.06576E+005    3.57084E+004    2.71977E+005    6.00751E+003
            7158    5.41620E+005    3.92170E+005    3.92170E+005    4.92653E+004   -2.32233E+005    6.24403E+005   -6.97339E+004    2.99646E+005    5.61288E+004    4.25190E+004    1.10554E+005    8.55070E+004    2.98610E+005   -2.94805E+003
            7159    4.60910E+005    3.60482E+005    3.60482E+005    6.21866E+004   -1.70377E+005    5.30858E+005   -8.40973E+004    2.75032E+005    6.60396E+004    6.26505E+004    1.23602E+005    6.68919E+003    2.63618E+005    9.99864E+003
            7160    5.28688E+005    3.98016E+005    3.98016E+005    5.58162E+004   -2.10903E+005    6.08919E+005   -8.09764E+004    3.15589E+005    6.51781E+004    5.60799E+004    1.21671E+005    2.68992E+004    3.01935E+005    4.41467E+003
            7161    6.03438E+005    4.42181E+005    4.42181E+005    6.04397E+004   -2.53509E+005    6.95690E+005   -8.30370E+004    3.32839E+005    6.67795E+004    5.66009E+004    1.25731E+005    6.58343E+004    3.40058E+005   -3.55703E+003
            7162    4.93189E+005    3.88310E+005    3.88310E+005    6.84598E+004   -1.79669E+005    5.67978E+005   -9.23668E+004    2.96186E+005    7.26468E+004    6.85712E+004    1.35882E+005    3.48013E+003    2.82165E+005    4.96810E+003
            7163    5.63681E+005    4.25788E+005    4.25788E+005    6.12190E+004   -2.23459E+005    6.49247E+005   -8.78493E+004    3.35670E+005    7.08370E+004    6.12805E+004    1.31431E+005    1.38206E+004    3.22907E+005    2.22202E+003
            7164    6.48917E+005    4.79859E+005    4.79859E+005    6.92288E+004   -2.68254E+005    7.48113E+005   -9.36111E+004    3.58323E+005    7.51317E+004    6.81711E+004    1.37531E+005    3.56083E+004    3.70989E+005   -2.21489E+003
            7165    5.02891E+005    3.96675E+005    3.96675E+005    7.03982E+004   -1.82465E+005    5.79140E+005   -9.48695E+004    3.02395E+005    7.46133E+004    7.04001E+004    1.39595E+005   -5.78139E+002    2.87740E+005   -5.46052E+002
            7166    5.74492E+005    4.34343E+005    4.34343E+005    6.29872E+004   -2.27373E+005    6.61715E+005   -8.99858E+004    3.41516E+005    7.25297E+004    6.29870E+004    1.34441E+005   -1.94057E+003    3.29401E+005   -1.94634E+002
            7167    6.65853E+005    4.93758E+005    4.93758E+005    7.23775E+004   -2.73879E+005    7.67637E+005   -9.74189E+004    3.67785E+005    7.81212E+004    7.23766E+004    1.41759E+005   -1.52167E+003    3.82494E+005   -2.98099E+001
            7168    4.86795E+005    3.82946E+005    3.82946E+005    6.73135E+004   -1.77674E+005    5.60621E+005   -9.08618E+004    2.92147E+005    7.14505E+004    6.74927E+004    1.33642E+005   -4.39547E+003    2.78487E+005   -6.24753E+003
            7169    5.56805E+005    4.20542E+005    4.20542E+005    6.02183E+004   -2.20767E+005    6.41310E+005   -8.66644E+004    3.32158E+005    6.98722E+004    6.02999E+004    1.29821E+005   -1.72252E+004    3.18780E+005   -2.63696E+003
            7170    6.45697E+005    4.77181E+005    4.77181E+005    6.86125E+004   -2.67223E+005    7.44403E+005   -9.28570E+004    3.56462E+005    7.45640E+004    6.73977E+004    1.36609E+005   -3.80666E+004    3.68879E+005    2.35889E+003
            7171    4.49660E+005    3.51372E+005    3.51372E+005    6.04287E+004   -1.66534E+005    5.17907E+005   -8.17556E+004    2.68116E+005    6.42114E+004    6.09873E+004    1.20068E+005   -7.36612E+003    2.57150E+005   -1.06855E+004
            7172    5.16203E+005    3.88228E+005    3.88228E+005    5.40820E+004   -2.06309E+005    5.94537E+005   -7.86668E+004    3.08214E+005    6.32276E+004    5.44245E+004    1.18348E+005   -2.88512E+004    2.94559E+005   -4.89673E+003
            7173    5.97669E+005    4.37633E+005    4.37633E+005    5.95444E+004   -2.51405E+005    6.89039E+005   -8.19241E+004    3.29649E+005    6.58014E+004    5.55964E+004    1.24375E+005   -6.78987E+004    3.36261E+005    3.19432E+003
            7174    1.05932E+005    5.22421E+004   -6.93407E+004    3.06391E+003   -6.93407E+004    1.21583E+005    4.67822E+003   -7.27285E+004   -3.44188E+003    2.65731E+003   -1.32501E+004    4.38145E+004    4.09185E+004   -9.06110E+003
            7175    1.03703E+005    4.85415E+004   -7.04610E+004    5.81348E+002   -7.04610E+004    1.19003E+005    7.11272E+003   -7.15442E+004   -4.17993E+003   -4.31781E+002   -1.67264E+004    2.31505E+004    5.43335E+004   -4.88819E+003
            7176    1.13342E+005    5.29808E+004   -7.73210E+004   -1.56251E+003   -7.73210E+004    1.30302E+005    8.63425E+003   -7.39276E+004   -4.67774E+003   -1.65056E+003   -1.95744E+004    7.83517E+003    6.42384E+004   -1.46111E+003
            7177    6.72958E+004    3.19920E+004   -4.42823E+004    6.71576E+003   -4.42823E+004    7.62743E+004    1.85819E+003   -5.49831E+004   -1.46808E+003    1.64672E+003   -5.75320E+003    2.53165E+004    2.79767E+004   -8.49419E+003
            7178    7.58504E+004    3.99155E+004   -4.71456E+004    4.66491E+003   -4.71456E+004    8.70611E+004    8.55082E+002   -5.20040E+004    9.30505E+001    2.08148E+003   -4.73977E+003    1.39203E+004    4.10156E+004   -5.42235E+003
            7179    8.60433E+004    4.64444E+004   -5.26854E+004    2.65944E+003   -5.26854E+004    9.91298E+004    1.19386E+003   -5.03446E+004    1.22366E+002    2.36885E+003   -6.07280E+003    4.69016E+003    4.92231E+004   -1.94782E+003
            7180    4.27870E+004    1.94547E+004   -2.89021E+004    4.04835E+003   -2.89021E+004    4.83568E+004    1.79966E+003   -3.56943E+004   -1.36653E+003   -5.76154E+002   -3.45631E+003    8.11260E+003    2.18361E+004   -8.08690E+003
            7181    6.07910E+004    2.99505E+004   -4.00451E+004   -4.63909E+002   -4.00451E+004    6.99956E+004    3.51951E+003   -3.69455E+004   -2.60546E+003   -1.73651E+003   -6.21656E+003    4.57264E+003    3.43105E+004   -5.29948E+003
            7182    7.23791E+004    3.65617E+004   -4.69407E+004   -2.14908E+003   -4.69407E+004    8.35024E+004    4.17602E+003   -3.62592E+004   -2.90505E+003   -2.28142E+003   -7.34159E+003    1.56138E+003    4.16253E+004   -1.87789E+003
            7183    2.33750E+005    1.47176E+005    1.47176E+005    3.21041E+003   -1.22530E+005    2.69706E+005   -9.28554E+003    1.14234E+005    4.43560E+003    3.21965E+003    2.02014E+004    5.34213E+002    1.34616E+005    1.20934E+003
            7184    2.29865E+005    1.40560E+005    1.40560E+005   -1.77334E+003   -1.24627E+005    2.65187E+005   -4.71971E+003    1.15484E+005    8.09181E+002   -1.82833E+003    1.51783E+004    3.56308E+003    1.32346E+005   -7.88772E+002
            7185    2.13327E+005    1.35250E+005    1.35250E+005    1.53590E+003   -1.10768E+005    2.46018E+005   -8.67245E+003    1.13356E+005    2.91548E+003    1.37221E+003    2.17297E+004    5.93556E+003    1.22492E+005   -1.19520E+003
            7186    1.84338E+005    1.15438E+005    1.15438E+005   -2.63138E+003   -9.69765E+004    2.12415E+005   -5.27673E+003    1.06342E+005    1.10506E+003   -2.81710E+003    1.75422E+004    7.05682E+003    1.05640E+005   -7.05725E+002
            7187    1.51226E+005    1.00720E+005    1.00720E+005    1.50616E+003   -7.33335E+004    1.74053E+005   -9.63082E+003    9.39360E+004    4.69239E+003    1.40653E+003    2.27935E+004    6.57717E+003    8.62973E+004    1.63618E+002
            7188    2.47056E+005    1.63583E+005    1.63583E+005    4.74263E+003   -1.21054E+005    2.84637E+005   -1.57572E+004    1.44341E+005    1.00482E+004    4.89177E+003    3.23315E+004    7.10399E+003    1.41695E+005    2.18059E+003
            7189    2.33132E+005    1.49763E+005    1.49763E+005    2.13168E+003   -1.19000E+005    2.68763E+005   -1.09646E+004    1.29087E+005    6.30728E+003    1.70936E+003    2.48772E+004    1.45514E+004    1.33245E+005   -6.80704E+002
            7190    2.11307E+005    1.37165E+005    1.37165E+005    2.08314E+003   -1.06345E+005    2.43510E+005   -1.09675E+004    1.21093E+005    5.21120E+003    5.24319E+002    2.71668E+004    2.05582E+004    1.19386E+005   -2.33812E+003
            7191    1.78270E+005    1.12852E+005    1.12852E+005   -9.74818E+002   -9.25967E+004    2.05449E+005   -6.42694E+003    1.01738E+005    2.40409E+003   -2.14299E+003    1.90197E+004    2.25276E+004    9.98084E+004   -3.13698E+002
            7192    1.45025E+005    9.61630E+004    9.61630E+004    8.07991E+002   -7.07320E+004    1.66895E+005   -8.74633E+003    9.06363E+004    4.31535E+003    1.49121E+002    2.17745E+004    1.97326E+004    8.05493E+004    1.24032E+003
            7193    2.69373E+005    1.85402E+005    1.85402E+005    1.08590E+004   -1.24833E+005    3.10235E+005   -2.38094E+004    1.61335E+005    1.70050E+004    1.15613E+004    4.28619E+004    2.23687E+004    1.52921E+005    4.74130E+003
            7194    2.49860E+005    1.63827E+005    1.63827E+005    2.90305E+003   -1.24018E+005    2.87844E+005   -1.42374E+004    1.46815E+005    1.00016E+004    8.88579E+002    3.18221E+004    3.42386E+004    1.39229E+005   -4.96484E+002
            7195    2.17316E+005    1.44103E+005    1.44103E+005    3.55998E+003   -1.06202E+005    2.50305E+005   -1.38204E+004    1.29384E+005    8.58068E+003   -3.46082E+002    3.32265E+004    4.06675E+004    1.17412E+005   -4.39919E+002
            7196    1.78622E+005    1.12470E+005    1.12470E+005   -2.86813E+003   -9.32826E+004    2.05753E+005   -5.43976E+003    1.05824E+005    2.93342E+003   -6.18176E+003    1.95676E+004    3.96092E+004    9.43147E+004    8.24318E+002
            7197    1.42292E+005    9.50567E+004    9.50567E+004    1.01133E+003   -6.86432E+004    1.63700E+005   -9.14160E+003    9.01850E+004    5.62010E+003   -7.37081E+002    2.25418E+004    3.37607E+004    7.38587E+004    3.05167E+003
            7198    3.13855E+005    2.18202E+005    2.18202E+005    1.46072E+004   -1.43243E+005    3.61445E+005   -2.98553E+004    1.88625E+005    2.27266E+004    1.33109E+004    5.35282E+004    5.21011E+004    1.72232E+005    3.77363E+003
            7199    2.76646E+005    1.85162E+005    1.85162E+005    4.48032E+003   -1.33320E+005    3.18482E+005   -1.87739E+004    1.69656E+005    1.45018E+004   -3.10538E+002    4.21303E+004    6.59925E+004    1.43804E+005    3.52083E+003
            7200    2.30616E+005    1.52324E+005    1.52324E+005    4.36799E+003   -1.13397E+005    2.65722E+005   -1.44317E+004    1.33789E+005    1.00554E+004   -3.41108E+003    3.66506E+004    6.50296E+004    1.14357E+005    2.43719E+003
            7201    1.85899E+005    1.18218E+005    1.18218E+005   -2.15060E+003   -9.58879E+004    2.14106E+005   -6.72648E+003    1.11092E+005    4.73967E+003   -7.63130E+003    2.30711E+004    5.94933E+004    8.78648E+004    4.59664E+003
            7202    1.43280E+005    9.41231E+004    9.41231E+004    8.82777E+001   -7.07811E+004    1.64904E+005   -7.81010E+003    8.90911E+004    5.18652E+003   -3.57795E+003    2.18217E+004    4.84282E+004    6.55713E+004    5.63311E+003
            7203    1.62143E+005    1.03593E+005    1.03593E+005   -2.10449E+002   -8.32495E+004    1.86843E+005   -6.71110E+003    9.33852E+004    5.55221E+003   -7.34767E+003    2.19288E+004    7.00262E+004    5.95064E+004    1.01749E+004
            7204    2.12584E+005    1.34332E+005    1.34332E+005    5.59770E+001   -1.10765E+005    2.45097E+005   -7.87444E+003    1.16558E+005    6.88170E+003   -1.14582E+004    2.81998E+004    8.64668E+004    8.43355E+004    9.00196E+003
            7205    2.65048E+005    1.73599E+005    1.73599E+005    6.44203E+003   -1.32002E+005    3.05601E+005   -1.60129E+004    1.44445E+005    1.27622E+004   -8.19906E+003    4.34755E+004    9.80192E+004    1.14356E+005    7.49955E+003
            7206    3.11081E+005    2.07065E+005    2.07065E+005    8.45529E+003   -1.51444E+005    3.58509E+005   -2.13585E+004    1.77475E+005    1.75667E+004   -4.57946E+003    5.10882E+004    1.02818E+005    1.44435E+005    6.20125E+003
            7207    3.64398E+005    2.50596E+005    2.50596E+005    1.62467E+004   -1.69227E+005    4.19824E+005   -3.25386E+004    2.13096E+005    2.62566E+004    5.47250E+003    6.58866E+004    9.86358E+004    1.83245E+005    3.50329E+003
            7208    4.13040E+005    2.90462E+005    2.90462E+005    2.55941E+004   -1.85463E+005    4.75925E+005   -4.35310E+004    2.39237E+005    3.49533E+004    1.65857E+004    7.90542E+004    9.31912E+004    2.17143E+005    1.08830E+003
            7209    4.74353E+005    3.38544E+005    3.38544E+005    3.74531E+004   -2.08258E+005    5.46802E+005   -5.59133E+004    2.64987E+005    4.50721E+004    2.86819E+004    9.39859E+004    9.29384E+004    2.55361E+005   -1.68237E+003
            7210    4.24188E+005    3.13505E+005    3.13505E+005    3.83942E+004   -1.75008E+005    4.88513E+005   -5.89638E+004    2.54777E+005    4.71675E+004    3.93487E+004    9.03752E+004    3.95229E+004    2.40020E+005    7.17912E+003
            7211    3.67221E+005    2.78837E+005    2.78837E+005    4.35021E+004   -1.44304E+005    4.23141E+005   -5.93451E+004    2.12239E+005    4.63842E+004    4.47698E+004    8.68814E+004    8.94122E+003    2.09873E+005    1.59564E+004
            7212    3.69002E+005    2.67133E+005    2.67133E+005    2.82063E+004   -1.57858E+005    4.24992E+005   -4.58270E+004    2.20515E+005    3.63309E+004    2.96515E+004    7.14986E+004    3.92746E+004    2.08031E+005    7.91427E+003
            7213    3.22947E+005    2.39688E+005    2.39688E+005    3.52727E+004   -1.32623E+005    3.72311E+005   -4.74461E+004    1.78516E+005    3.68730E+004    3.64880E+004    6.89773E+004    7.18175E+003    1.84651E+005    1.64165E+004
            7214    2.88942E+005    2.09191E+005    2.09191E+005    2.77406E+004   -1.24009E+005    3.33201E+005   -3.76408E+004    1.54757E+005    2.94879E+004    2.87893E+004    5.46452E+004    5.39796E+003    1.65236E+005    1.67383E+004
            7215    2.59062E+005    1.82595E+005    1.82595E+005    2.12963E+004   -1.16229E+005    2.98824E+005   -2.92209E+004    1.33636E+005    2.28132E+004    2.18863E+004    4.29630E+004    2.80769E+003    1.48182E+005    1.62315E+004
            7216    2.36874E+005    1.61254E+005    1.61254E+005    1.71015E+004   -1.12128E+005    2.73383E+005   -2.20758E+004    1.07845E+005    1.70763E+004    1.70714E+004    3.20796E+004   -1.16664E+002    1.35332E+005    1.77010E+004
            7217    2.14058E+005    1.51890E+005    1.51890E+005    1.10348E+004   -9.44376E+004    2.46327E+005   -2.28290E+004    1.34067E+005    1.75599E+004    1.08556E+004    4.00714E+004   -4.01682E+002    1.21844E+005    1.39041E+004
            7218    3.16820E+005    2.24107E+005    2.24107E+005    2.07145E+004   -1.40930E+005    3.65038E+005   -3.46306E+004    1.84195E+005    2.67675E+004    2.26022E+004    5.45220E+004    2.69240E+004    1.79873E+005    8.84506E+003
            7219    2.72056E+005    1.85759E+005    1.85759E+005    1.52825E+004   -1.27991E+005    3.13751E+005   -2.43502E+004    1.44386E+005    1.81228E+004    1.66002E+004    3.83275E+004    1.09978E+004    1.55882E+005    1.02128E+004
            7220    2.49648E+005    1.68308E+005    1.68308E+005    9.34525E+003   -1.19433E+005    2.87742E+005   -1.94067E+004    1.41081E+005    1.39024E+004    9.55460E+003    3.47632E+004    1.47587E+003    1.43018E+005    1.16929E+004
            7221    2.28516E+005    1.45086E+005    1.45086E+005   -3.71916E+002   -1.18303E+005    2.63389E+005   -8.80393E+003    1.28982E+005    5.18920E+003   -4.27643E+002    2.16502E+004   -9.13398E+002    1.31381E+005    3.60219E+003
            7222    2.32548E+005    1.21235E+005   -1.47050E+005   -3.10301E+003   -1.47050E+005    2.68285E+005    9.63915E+003   -1.16639E+005   -4.70038E+003   -3.08735E+003   -2.11297E+004    4.09472E+003    1.33827E+005   -2.02929E+001
            7223    2.17216E+005    1.15771E+005   -1.34705E+005    1.88575E+003   -1.34705E+005    2.50477E+005    5.68283E+003   -1.16988E+005   -1.27758E+003    2.26841E+003   -1.80393E+004    9.68825E+003    1.24552E+005    1.67116E+003
            7224    1.84806E+005    9.22771E+004   -1.20577E+005   -9.87960E+002   -1.20577E+005    2.12854E+005    9.76253E+003   -1.10232E+005   -4.26571E+003   -5.60258E+002   -2.44616E+004    1.19663E+004    1.05240E+005    5.32777E+002
            7225    1.46507E+005    7.52324E+004   -9.33974E+004    2.62992E+003   -9.33974E+004    1.68630E+005    5.17834E+003   -9.07656E+004   -1.72742E+003    2.69363E+003   -1.65012E+004    1.01947E+004    8.33601E+004   -9.14645E+002
            7226    2.52529E+005    1.22435E+005   -1.68470E+005   -5.66265E+003   -1.68470E+005    2.90906E+005    1.72325E+004   -1.48870E+005   -1.18061E+004   -4.28286E+003   -3.56086E+004    2.72916E+004    1.42282E+005    6.91613E+002
            7227    2.16593E+005    1.10008E+005   -1.39526E+005   -2.05302E+002   -1.39526E+005    2.49535E+005    9.90772E+003   -1.26742E+005   -5.94629E+003    3.06543E+003   -2.68423E+004    3.86488E+004    1.17932E+005    5.70319E+002
            7228    1.75392E+005    8.75381E+004   -1.14490E+005   -1.18643E+003   -1.14490E+005    2.02028E+005    9.37927E+003   -1.04057E+005   -5.17493E+003    2.22893E+003   -2.51918E+004    3.73705E+004    9.30375E+004   -6.16934E+002
            7229    1.37599E+005    7.07432E+004   -8.75606E+004    3.35239E+003   -8.75606E+004    1.58304E+005    4.48834E+003   -8.71328E+004   -2.04804E+003    3.72305E+003   -1.51400E+004    3.18310E+004    7.20477E+004   -3.68963E+003
            7230    1.49429E+005    7.78721E+004   -9.41873E+004    3.05247E+003   -9.41873E+004    1.72060E+005    4.42091E+003   -9.06656E+004   -3.56161E+003    7.37602E+003   -1.70771E+004    6.09242E+004    5.92520E+004   -8.39065E+003
            7231    1.96272E+005    1.00348E+005   -1.25852E+005   -5.91332E+002   -1.25852E+005    2.26200E+005    8.69863E+003   -1.11821E+005   -6.58096E+003    8.18358E+003   -2.76985E+004    7.45435E+004    8.30902E+004   -7.41052E+003
            7232    2.41059E+005    1.21534E+005   -1.56249E+005   -1.95848E+003   -1.56249E+005    2.77782E+005    1.22244E+004   -1.38728E+005   -9.67217E+003    8.08842E+003   -3.50895E+004    8.23575E+004    1.09917E+005   -5.86409E+003
            7233    2.96278E+005    1.41310E+005   -1.99796E+005   -6.53376E+003   -1.99796E+005    3.41106E+005    2.16733E+004   -1.81038E+005   -1.70791E+004    1.47739E+003   -4.94180E+004    8.30019E+004    1.47245E+005   -5.14065E+003
            7234    3.43443E+005    1.58176E+005   -2.37354E+005   -1.46845E+004   -2.37354E+005    3.95530E+005    3.12874E+004   -2.06071E+005   -2.47360E+004   -8.13925E+003   -6.09870E+004    7.97922E+004    1.79475E+005   -3.04134E+003
            7235    3.98718E+005    1.79206E+005   -2.80283E+005   -2.54657E+004   -2.80283E+005    4.59489E+005    4.21807E+004   -2.28272E+005   -3.39412E+004   -1.66741E+004   -7.59268E+004    8.83786E+004    2.10363E+005   -2.38002E+002
            7236    4.64967E+005    2.04279E+005   -3.31706E+005   -3.66098E+004   -3.31706E+005    5.35985E+005    5.46788E+004   -2.59621E+005   -4.39777E+004   -2.82409E+004   -9.18178E+004    9.31667E+004    2.49575E+005    8.31475E+002
            7237    5.32648E+005    2.29080E+005   -3.84992E+005   -4.79322E+004   -3.84992E+005    6.14072E+005    6.79482E+004   -2.94132E+005   -5.47881E+004   -4.10098E+004   -1.08047E+005    8.61322E+004    2.93072E+005    2.88576E+003
            7238    4.64322E+005    1.87843E+005   -3.46909E+005   -4.59990E+004   -3.46909E+005    5.34753E+005    6.83549E+004   -2.78230E+005   -5.48424E+004   -4.67243E+004   -1.03498E+005    3.58816E+004    2.63802E+005   -6.57708E+003
            7239    4.01915E+005    1.52943E+005   -3.10073E+005   -5.12133E+004   -3.10073E+005    4.63016E+005    6.94479E+004   -2.36172E+005   -5.44348E+004   -5.21868E+004   -1.01722E+005    8.56417E+003    2.29761E+005   -1.41234E+004
            7240    4.08433E+005    1.69491E+005   -3.00936E+005   -3.67038E+004   -3.00936E+005    4.70426E+005    5.60495E+004   -2.43427E+005   -4.46940E+004   -3.77686E+004   -8.56858E+004    3.77088E+004    2.31215E+005   -7.25917E+003
            7241    3.53783E+005    1.39138E+005   -2.68532E+005   -4.19826E+004   -2.68532E+005    4.07670E+005    5.71254E+004   -2.03939E+005   -4.46595E+004   -4.31586E+004   -8.35583E+004    8.13464E+003    2.02204E+005   -1.56105E+004
            7242    3.56353E+005    1.51649E+005   -2.58749E+005   -2.77173E+004   -2.58749E+005    4.10398E+005    4.49392E+004   -2.13796E+005   -3.55448E+004   -2.93116E+004   -6.99612E+004    3.49928E+004    2.01388E+005   -8.25834E+003
            7243    3.09372E+005    1.28924E+005   -2.27749E+005   -3.21221E+004   -2.27749E+005    3.56673E+005    4.36492E+004   -1.70357E+005   -3.38684E+004   -3.34634E+004   -6.36157E+004    7.17233E+003    1.76783E+005   -1.73467E+004
            7244    3.02725E+005    1.36469E+005   -2.12336E+005   -1.80838E+004   -2.12336E+005    3.48805E+005    3.13171E+004   -1.75722E+005   -2.42470E+004   -1.99216E+004   -4.97827E+004    2.72735E+004    1.71681E+005   -8.30944E+003
            7245    2.74079E+005    1.20482E+005   -1.95679E+005   -2.53205E+004   -1.95679E+005    3.16161E+005    3.35058E+004   -1.40264E+005   -2.57066E+004   -2.58563E+004   -4.89546E+004    2.67088E+003    1.56831E+005   -1.60464E+004
            7246    2.48800E+005    1.16367E+005   -1.70767E+005   -1.90370E+004   -1.70767E+005    2.87135E+005    2.44790E+004   -1.14820E+005   -1.89684E+004   -1.92556E+004   -3.52129E+004    8.96775E+002    1.42291E+005   -1.73160E+004
            7247    2.20289E+005    9.96974E+004   -1.54017E+005   -1.13795E+004   -1.54017E+005    2.53714E+005    2.18996E+004   -1.31647E+005   -1.68150E+004   -1.13385E+004   -3.75454E+004    1.03529E+002    1.25705E+005   -1.35252E+004
            7248    2.63721E+005    1.23960E+005   -1.79909E+005   -1.07660E+004   -1.79909E+005    3.03869E+005    2.22384E+004   -1.52837E+005   -1.60359E+004   -1.19506E+004   -3.87286E+004    1.12682E+004    1.50883E+005   -9.05131E+003
            7249    2.33890E+005    1.22121E+005   -1.47549E+005    6.59952E+001   -1.47549E+005    2.69669E+005    8.45403E+003   -1.27834E+005   -4.45260E+003    3.68415E+001   -2.09463E+004    8.12126E+002    1.34556E+005   -2.60633E+003
            7250    1.10707E+005    6.96430E+004    6.96430E+004   -4.67409E+003   -5.75925E+004    1.27236E+005   -2.45881E+003    7.29676E+004    2.09106E+003   -5.33345E+003    1.06188E+004    4.93083E+004    3.86891E+004    9.67022E+003
            7251    1.02014E+005    6.44646E+004    6.44646E+004   -6.27758E+003   -5.24752E+004    1.16940E+005   -1.90395E+003    7.21607E+004    5.72421E+002   -4.35141E+003    9.49084E+003    3.50334E+004    4.62514E+004    7.29159E+003
            7252    1.04825E+005    6.54962E+004    6.54962E+004   -5.66420E+003   -5.48806E+004    1.20377E+005   -1.65048E+003    7.09005E+004   -6.51551E+001   -4.45416E+003    9.47075E+003    2.50647E+004    5.44125E+004    4.80922E+003
            7253    1.09908E+005    6.97096E+004    6.97096E+004   -2.48035E+003   -5.67806E+004    1.26490E+005   -3.48289E+003    6.84911E+004    7.16637E+002   -1.88200E+003    1.16140E+004    1.50322E+004    6.11610E+004    2.94978E+003
            7254    1.15570E+005    7.35339E+004    7.35339E+004   -2.46324E+003   -5.94637E+004    1.32998E+005   -3.86901E+003    7.22511E+004    8.22012E+002   -2.41703E+003    1.32020E+004    4.98287E+003    6.60195E+004    8.97697E+002
            7255    6.84971E+004    4.68428E+004    4.68428E+004   -4.60268E+003   -3.09075E+004    7.77504E+004   -3.77754E+003    5.52866E+004    3.31818E+003   -3.75350E+002    8.38979E+003    2.83192E+004    2.56297E+004    9.25893E+003
            7256    7.02575E+004    4.91631E+004    4.91631E+004   -3.04185E+003   -3.07176E+004    7.98807E+004   -5.13456E+003    5.58533E+004    4.15132E+003    8.71778E+002    1.03806E+004    2.05752E+004    3.38434E+004    7.30295E+003
            7257    7.70961E+004    5.37095E+004    5.37095E+004   -2.63769E+002   -3.45876E+004    8.82971E+004   -6.28603E+003    5.55477E+004    4.76138E+003    2.13497E+003    1.19617E+004    1.50120E+004    4.12250E+004    5.52443E+003
            7258    8.41286E+004    5.67480E+004    5.67480E+004    3.00193E+002   -3.99438E+004    9.66919E+004   -5.70147E+003    5.53857E+004    3.82793E+003    1.19398E+003    1.20825E+004    9.17511E+003    4.72319E+004    3.45053E+003
            7259    8.98843E+004    6.06115E+004    6.06115E+004    1.94557E+003   -4.28694E+004    1.03481E+005   -6.56255E+003    5.50169E+004    4.28168E+003    2.04856E+003    1.33574E+004    3.18809E+003    5.14356E+004    1.18613E+003
            7260    3.91101E+004    2.47583E+004    2.47583E+004   -6.92206E+003   -1.89543E+004    4.37125E+004    3.72690E+002    3.45628E+004   -5.35674E+002   -1.16766E+003    5.85265E+002    8.82267E+003    1.89577E+004    8.47616E+003
            7261    4.97330E+004    2.87178E+004    2.87178E+004   -5.08902E+003   -2.83875E+004    5.71053E+004    1.58623E+003    3.37392E+004   -2.02637E+003   -1.96224E+003   -7.70064E+002    6.70221E+003    2.69803E+004    7.14836E+003
            7262    6.01205E+004    3.35172E+004   -3.57985E+004   -4.45356E+003   -3.57985E+004    6.93157E+004    2.24494E+003    3.29513E+004   -2.68132E+003   -2.95071E+003   -1.10280E+003    4.96821E+003    3.38946E+004    5.50498E+003
            7263    6.86006E+004    3.91207E+004   -4.00709E+004   -2.07577E+003   -4.00709E+004    7.91916E+004    1.00864E+003    2.82655E+004   -1.68452E+003   -1.52153E+003    1.80117E+002    3.13341E+003    3.93058E+004    3.58456E+003
            7264    7.43515E+004    4.23967E+004   -4.34334E+004   -2.26066E+003   -4.34334E+004    8.58301E+004    1.09913E+003    3.06785E+004   -1.74567E+003   -2.20276E+003    6.51034E+002    1.01297E+003    4.28687E+004    1.26809E+003
            7265    5.41418E+005    2.32219E+005   -3.91953E+005   -4.92009E+004   -3.91953E+005    6.24172E+005    6.96448E+004   -2.99452E+005   -5.60579E+004   -4.24150E+004   -1.10462E+005   -8.57360E+004    2.98422E+005   -2.95294E+003
            7266    4.78765E+005    1.93701E+005   -3.57702E+005   -4.76153E+004   -3.57702E+005    5.51402E+005    7.05387E+004   -2.86360E+005   -5.66509E+004   -4.81897E+004   -1.06775E+005   -3.54143E+004    2.72235E+005    6.05686E+003
            7267    4.16760E+005    1.57525E+005   -3.22558E+005   -5.37237E+004   -3.22558E+005    4.80083E+005    7.29188E+004   -2.46112E+005   -5.71883E+004   -5.45804E+004   -1.06988E+005   -8.36073E+003    2.38282E+005    1.32553E+004
            7268    6.03721E+005    2.53679E+005   -4.42341E+005   -6.04726E+004   -4.42341E+005    6.96020E+005    8.30451E+004   -3.32823E+005   -6.67861E+004   -5.66253E+004   -1.25724E+005   -6.58792E+004    3.40218E+005   -3.57955E+003
            7269    5.28913E+005    2.10973E+005   -3.98200E+005   -5.57972E+004   -3.98200E+005    6.09173E+005    8.10083E+004   -3.15888E+005   -6.52039E+004   -5.60601E+004   -1.21761E+005   -2.68115E+004    3.02067E+005    4.40965E+003
            7270    4.61709E+005    1.70622E+005   -3.61155E+005   -6.23339E+004   -3.61155E+005    5.31777E+005    8.42888E+004   -2.75533E+005   -6.61883E+004   -6.27911E+004   -1.23887E+005   -6.65960E+003    2.64077E+005    9.91761E+003
            7271    6.49802E+005    2.68650E+005   -4.80485E+005   -6.93105E+004   -4.80485E+005    7.49135E+005    9.37149E+004   -3.58757E+005   -7.52115E+004   -6.82693E+004   -1.37664E+005   -3.53321E+004    3.71529E+005   -2.20694E+003
            7272    5.63858E+005    2.23550E+005   -4.25899E+005   -6.11961E+004   -4.25899E+005    6.49448E+005    8.78484E+004   -3.35832E+005   -7.08381E+004   -6.12546E+004   -1.31452E+005   -1.38351E+004    3.23007E+005    2.18822E+003
            7273    4.93463E+005    1.79762E+005   -3.88530E+005   -6.84897E+004   -3.88530E+005    5.68292E+005    9.24192E+004   -2.96388E+005   -7.26888E+004   -6.85961E+004   -1.35973E+005   -3.39618E+003    2.82323E+005    4.86389E+003
            7274    6.65611E+005    2.73819E+005   -4.93541E+005   -7.23414E+004   -4.93541E+005    7.67360E+005    9.73543E+004   -3.67557E+005   -7.80681E+004   -7.23391E+004   -1.41656E+005    2.15152E+003    3.82354E+005    7.89687E+000
            7275    5.74366E+005    2.27324E+005   -4.34244E+005   -6.29465E+004   -4.34244E+005    6.61569E+005    8.99556E+004   -3.41510E+005   -7.25078E+004   -6.29469E+004   -1.34412E+005    1.94323E+003    3.29327E+005   -2.41582E+002
            7276    5.02753E+005    1.82408E+005   -3.96573E+005   -7.03890E+004   -3.96573E+005    5.78981E+005    9.48516E+004   -3.02303E+005   -7.45984E+004   -7.03912E+004   -1.39565E+005    5.68289E+002    2.87661E+005   -6.31968E+002
            7277    6.45198E+005    2.67056E+005   -4.76773E+005   -6.85508E+004   -4.76773E+005    7.43830E+005    9.27559E+004   -3.56087E+005   -7.44837E+004   -6.72969E+004   -1.36487E+005    3.86421E+004    3.68529E+005    2.39851E+003
            7278    5.56894E+005    2.20828E+005   -4.20588E+005   -6.02474E+004   -4.20588E+005    6.41416E+005    8.66689E+004   -3.32091E+005   -6.98750E+004   -6.03324E+004   -1.29799E+005    1.71406E+004    3.18839E+005   -2.66105E+003
            7279    4.86177E+005    1.77480E+005   -3.82431E+005   -6.72108E+004   -3.82431E+005    5.59910E+005    9.07206E+004   -2.91741E+005   -7.13363E+004   -6.73959E+004   -1.33430E+005    4.45419E+003    2.78132E+005   -6.35719E+003
            7280    5.96727E+005    2.50995E+005   -4.36956E+005   -5.94321E+004   -4.36956E+005    6.87951E+005    8.17977E+004   -3.29233E+005   -6.57048E+004   -5.54693E+004   -1.24219E+005    6.79948E+004    3.35686E+005    3.18386E+003
            7281    5.16686E+005    2.06536E+005   -3.88561E+005   -5.41461E+004   -3.88561E+005    5.95097E+005    7.87237E+004   -3.08377E+005   -6.32742E+004   -5.44785E+004   -1.18419E+005    2.89416E+004    2.94832E+005   -4.84861E+003
            7282    4.48947E+005    1.66309E+005   -3.50780E+005   -6.03409E+004   -3.50780E+005    5.17089E+005    8.16041E+004   -2.67567E+005   -6.40967E+004   -6.08947E+004   -1.19821E+005    7.23232E+003    2.56746E+005   -1.07496E+004
            7283    1.15803E+005    5.95752E+004   -7.36903E+004    2.46409E+003   -7.36903E+004    1.33266E+005    3.88367E+003   -7.24071E+004   -8.33277E+002    2.41886E+003   -1.32366E+004   -5.00234E+003    6.61519E+004    8.93146E+002
            7284    1.09921E+005    5.67803E+004   -6.97242E+004    2.47541E+003   -6.97242E+004    1.26505E+005    3.48949E+003   -6.85027E+004   -7.20230E+002    1.87866E+003   -1.16269E+004   -1.51051E+004    6.11500E+004    2.95017E+003
            7285    1.04668E+005    5.47825E+004   -6.54073E+004    5.70094E+003   -6.54073E+004    1.20190E+005    1.64127E+003   -7.09149E+004    6.66772E+001    4.47712E+003   -9.46761E+003   -2.51659E+004    5.42605E+004    4.84710E+003
            7286    1.01841E+005    5.23727E+004   -6.43625E+004    6.30045E+003   -6.43625E+004    1.16735E+005    1.89644E+003   -7.21207E+004   -5.81002E+002    4.33872E+003   -9.44703E+003   -3.51657E+004    4.60187E+004    7.34955E+003
            7287    1.10567E+005    5.75447E+004   -6.95296E+004    4.69181E+003   -6.95296E+004    1.27074E+005    2.43103E+003   -7.28716E+004   -2.08211E+003    5.34156E+003   -1.05525E+004   -4.92861E+004    3.85909E+004    9.66419E+003
            7288    8.99333E+004    4.28628E+004   -6.06736E+004   -1.96539E+003   -6.06736E+004    1.03536E+005    6.59206E+003   -5.50748E+004   -4.30153E+003   -2.06588E+003   -1.34088E+004   -3.13928E+003    5.14652E+004    1.17435E+003
            7289    8.42138E+004    3.99846E+004   -5.68070E+004   -3.17638E+002   -5.68070E+004    9.67916E+004    5.71336E+003   -5.54050E+004   -3.83794E+003   -1.20134E+003   -1.21008E+004   -9.08125E+003    4.73007E+004    3.43833E+003
            7290    7.71593E+004    3.46588E+004   -5.37161E+004    2.67713E+002   -5.37161E+004    8.83748E+004    6.26319E+003   -5.55276E+004   -4.73546E+003   -2.12668E+003   -1.19274E+004   -1.49926E+004    4.12741E+004    5.51569E+003
            7291    6.99973E+004    3.05968E+004   -4.89794E+004    3.07007E+003   -4.89794E+004    7.95762E+004    5.10420E+003   -5.57050E+004   -4.12658E+003   -8.61050E+002   -1.03250E+004   -2.05671E+004    3.36691E+004    7.31323E+003
            7292    6.85312E+004    3.09127E+004   -4.68812E+004    4.57007E+003   -4.68812E+004    7.77939E+004    3.79949E+003   -5.52846E+004   -3.33832E+003    3.54000E+002   -8.41416E+003   -2.84391E+004    2.55114E+004    9.30134E+003
            7293    7.43841E+004    4.34476E+004    4.34476E+004    2.26937E+003   -4.24198E+004    8.58674E+004   -1.09906E+003   -3.07646E+004    1.74887E+003    2.21148E+003   -6.63186E+002   -1.02069E+003    4.28873E+004    1.25945E+003
            7294    6.86555E+004    4.00981E+004    4.00981E+004    2.07491E+003   -3.91568E+004    7.92549E+004   -1.00542E+003   -2.83014E+004    1.68376E+003    1.52312E+003   -1.90625E+002   -3.13963E+003    3.93388E+004    3.56543E+003
            7295    6.00874E+004    3.57699E+004    3.57699E+004    4.43814E+003   -3.35079E+004    6.92778E+004   -2.23335E+003   -3.29202E+004    2.66924E+003    2.93984E+003    1.09097E+003   -4.93989E+003    3.38773E+004    5.51593E+003
            7296    4.97786E+004    2.84217E+004   -2.87418E+004    5.05118E+003   -2.87418E+004    5.71635E+004   -1.57701E+003   -3.36707E+004    2.01371E+003    1.94958E+003    7.67736E+002   -6.63589E+003    2.70210E+004    7.16278E+003
            7297    3.92549E+004    1.90349E+004   -2.48520E+004    6.91018E+003   -2.48520E+004    4.38868E+004   -3.64356E+002   -3.46507E+004    5.26068E+002    1.16954E+003   -6.02537E+002   -8.85813E+003    1.90492E+004    8.45615E+003
            7298    3.64081E+005    1.69057E+005   -2.50396E+005   -1.61778E+004   -2.50396E+005    4.19452E+005    3.25056E+004   -2.13126E+005   -2.62342E+004   -5.43692E+003   -6.58458E+004   -9.84143E+004    1.83154E+005    3.50155E+003
            7299    3.11051E+005    1.51422E+005   -2.07050E+005   -8.41239E+003   -2.07050E+005    3.58472E+005    2.13468E+004   -1.77605E+005   -1.75708E+004    4.59617E+003   -5.10659E+004   -1.02819E+005    1.44413E+005    6.23166E+003
            7300    2.64355E+005    1.31676E+005   -1.73127E+005   -6.41417E+003   -1.73127E+005    3.04803E+005    1.59552E+004   -1.44044E+005   -1.27206E+004    8.21253E+003   -4.33575E+004   -9.78135E+004    1.14010E+005    7.49198E+003
            7301    2.12175E+005    1.10596E+005   -1.34028E+005    1.05213E+001   -1.34028E+005    2.44625E+005    7.80714E+003   -1.16404E+005   -6.82262E+003    1.14655E+004   -2.80643E+004   -8.63134E+004    8.41651E+004    9.00010E+003
            7302    1.61519E+005    8.28977E+004   -1.03224E+005    2.08146E+002   -1.03224E+005    1.86121E+005    6.70593E+003   -9.31108E+004   -5.54233E+003    7.28036E+003   -2.18558E+004   -6.97436E+004    5.92934E+004    1.01502E+004
            7303    1.43638E+005    7.10350E+004   -9.42886E+004   -1.00501E+002   -9.42886E+004    1.65324E+005    7.78469E+003   -8.90979E+004   -5.16424E+003    3.63637E+003   -2.18262E+004   -4.86381E+004    6.56724E+004    5.61170E+003
            7304    1.42601E+005    6.88140E+004   -9.52424E+004   -1.00428E+003   -9.52424E+004    1.64056E+005    9.14420E+003   -9.03518E+004   -5.64028E+003    7.67117E+002   -2.25594E+004   -3.41114E+004    7.38910E+004    3.10081E+003
            7305    1.45048E+005    7.07571E+004   -9.61613E+004   -7.66267E+002   -9.61613E+004    1.66918E+005    8.72347E+003   -9.07162E+004   -4.31024E+003   -1.00341E+002   -2.17598E+004   -1.99733E+004    8.05014E+004    1.27959E+003
            7306    1.51290E+005    7.33787E+004   -1.00749E+005   -1.50384E+003   -1.00749E+005    1.74128E+005    9.62472E+003   -9.39483E+004   -4.68083E+003   -1.40222E+003   -2.27911E+004   -6.61499E+003    8.63313E+004    1.58545E+002
            7307    1.86773E+005    9.62234E+004   -1.18885E+005    2.09507E+003   -1.18885E+005    2.15109E+005    6.85558E+003   -1.11746E+005   -4.84352E+003    7.59565E+003   -2.33189E+004   -5.96905E+004    8.83273E+004    4.62351E+003
            7308    1.79299E+005    9.36395E+004   -1.12896E+005    2.83585E+003   -1.12896E+005    2.06536E+005    5.47366E+003   -1.06099E+005   -2.96513E+003    6.23618E+003   -1.96920E+004   -3.98733E+004    9.46192E+004    7.71572E+002
            7309    1.78429E+005    9.26853E+004   -1.12950E+005    9.34525E+002   -1.12950E+005    2.05635E+005    6.44339E+003   -1.01691E+005   -2.42450E+003    2.12983E+003   -1.90355E+004   -2.27214E+004    9.98590E+004   -3.36951E+002
            7310    1.84283E+005    9.69419E+004   -1.15410E+005    2.62023E+003   -1.15410E+005    2.12352E+005    5.28253E+003   -1.06297E+005   -1.12184E+003    2.80775E+003   -1.75335E+004   -7.14978E+003    1.05604E+005   -6.92006E+002
            7311    2.32201E+005    1.14128E+005   -1.53425E+005   -4.52075E+003   -1.53425E+005    2.67553E+005    1.46062E+004   -1.34500E+005   -1.02031E+004    3.31052E+003   -3.69259E+004   -6.53740E+004    1.15211E+005    2.39095E+003
            7312    2.18407E+005    1.06632E+005   -1.44924E+005   -3.61808E+003   -1.44924E+005    2.51556E+005    1.39700E+004   -1.30199E+005   -8.71537E+003    2.72067E+002   -3.34667E+004   -4.09825E+004    1.17964E+005   -3.52505E+002
            7313    2.11134E+005    1.06186E+005   -1.37117E+005   -2.04522E+003   -1.37117E+005    2.43303E+005    1.09920E+004   -1.21306E+005   -5.23146E+003   -4.66535E+002   -2.72780E+004   -2.08143E+004    1.19231E+005   -2.29020E+003
            7314    2.12981E+005    1.10501E+005   -1.35112E+005   -1.50878E+003   -1.35112E+005    2.45614E+005    8.70645E+003   -1.13553E+005   -2.94005E+003   -1.33796E+003   -2.18413E+004   -6.06817E+003    1.22278E+005   -1.21183E+003
            7315    2.77310E+005    1.33569E+005   -1.85666E+005   -4.41923E+003   -1.85666E+005    3.19235E+005    1.88386E+004   -1.70419E+005   -1.45736E+004    3.31373E+002   -4.22735E+004   -6.60446E+004    1.44193E+005    3.58603E+003
            7316    2.50398E+005    1.24302E+005   -1.64163E+005   -2.89671E+003   -1.64163E+005    2.88465E+005    1.42524E+004   -1.47118E+005   -1.00335E+004   -8.54702E+002   -3.18689E+004   -3.43491E+004    1.39520E+005   -5.36462E+002
            7317    2.33169E+005    1.18990E+005   -1.49821E+005   -2.25401E+003   -1.49821E+005    2.68811E+005    1.10283E+004   -1.28816E+005   -6.35678E+003   -1.80703E+003   -2.49210E+004   -1.48513E+004    1.33235E+005   -7.30634E+002
            7318    2.29499E+005    1.24356E+005   -1.40408E+005    1.71328E+003   -1.40408E+005    2.64764E+005    4.77948E+003   -1.15359E+005   -8.54282E+002    1.77131E+003   -1.52555E+004   -3.65118E+003    1.32131E+005   -8.11291E+002
            7319    3.13966E+005    1.43271E+005   -2.18305E+005   -1.46681E+004   -2.18305E+005    3.61576E+005    2.99009E+004   -1.88608E+005   -2.27563E+004   -1.33763E+004   -5.35701E+004   -5.20782E+004    1.72307E+005    3.77098E+003
            7320    2.68911E+005    1.24665E+005   -1.85035E+005   -1.07553E+004   -1.85035E+005    3.09700E+005    2.37082E+004   -1.61159E+005   -1.69185E+004   -1.14610E+004   -4.27451E+004   -2.21335E+004    1.52685E+005    4.75306E+003
            7321    2.46959E+005    1.21095E+005   -1.63425E+005   -4.57035E+003   -1.63425E+005    2.84520E+005    1.56335E+004   -1.44513E+005   -9.94598E+003   -4.70630E+003   -3.22481E+004   -7.07007E+003    1.41639E+005    2.05374E+003
            7322    2.33840E+005    1.22612E+005   -1.47199E+005   -3.19051E+003   -1.47199E+005    2.69811E+005    9.25915E+003   -1.14223E+005   -4.39323E+003   -3.20145E+003   -2.01828E+004   -6.59696E+002    1.34668E+005    1.16603E+003
            7323    2.28907E+005    1.18619E+005   -1.45230E+005    3.41918E+002   -1.45230E+005    2.63849E+005    8.75638E+003   -1.28768E+005   -5.13043E+003    3.93882E+002   -2.15326E+004    8.72234E+002    1.31617E+005    3.52488E+003
            7324    2.14241E+005    9.47169E+004   -1.51833E+005   -1.09825E+004   -1.51833E+005    2.46550E+005    2.26996E+004   -1.33857E+005   -1.74431E+004   -1.07862E+004   -3.98695E+004    4.86501E+002    1.21967E+005    1.38301E+004
            7325    2.49504E+005    1.19364E+005   -1.68208E+005   -9.30497E+003   -1.68208E+005    2.87573E+005    1.93830E+004   -1.41103E+005   -1.38703E+004   -9.49046E+003   -3.47884E+004   -1.33185E+003    1.42936E+005    1.16398E+004
            7326    2.37076E+005    1.12252E+005   -1.61364E+005   -1.70860E+004   -1.61364E+005    2.73615E+005    2.20659E+004   -1.07948E+005   -1.70656E+004   -1.70661E+004   -3.20661E+004    7.73868E+001    1.35448E+005    1.77134E+004
            7327    2.71800E+005    1.27931E+005   -1.85527E+005   -1.52539E+004   -1.85527E+005    3.13458E+005    2.42835E+004   -1.44094E+005   -1.80671E+004   -1.65627E+004   -3.82206E+004   -1.08652E+004    1.55743E+005    1.02436E+004
            7328    2.59125E+005    1.16241E+005   -1.82658E+005   -2.13712E+004   -1.82658E+005    2.98899E+005    2.92628E+004   -1.33474E+005   -2.28448E+004   -2.19478E+004   -4.29958E+004   -2.75016E+003    1.48225E+005    1.61899E+004
            7329    3.16745E+005    1.40887E+005   -2.24063E+005   -2.07093E+004   -2.24063E+005    3.64950E+005    3.46285E+004   -1.84179E+005   -2.67635E+004   -2.25912E+004   -5.45308E+004   -2.68513E+004    1.79839E+005    8.83599E+003
            7330    2.88900E+005    1.24001E+005   -2.09153E+005   -2.77580E+004   -2.09153E+005    3.33153E+005    3.76367E+004   -1.54630E+005   -2.94838E+004   -2.88038E+004   -5.46224E+004   -5.37944E+003    1.65213E+005    1.67422E+004
            7331    3.23378E+005    1.32740E+005   -2.40065E+005   -3.53400E+004   -2.40065E+005    3.72805E+005    4.75549E+004   -1.78877E+005   -3.69592E+004   -3.65588E+004   -6.91468E+004   -7.21054E+003    1.84896E+005    1.64236E+004
            7332    3.68190E+005    1.44545E+005   -2.79709E+005   -4.37006E+004   -2.79709E+005    4.24254E+005    5.96217E+004   -2.12959E+005   -4.65985E+004   -4.49657E+004   -8.73010E+004   -8.96568E+003    2.10425E+005    1.59273E+004
            7333    3.69237E+005    1.57926E+005   -2.67340E+005   -2.82877E+004   -2.67340E+005    4.25266E+005    4.59005E+004   -2.20576E+005   -3.63920E+004   -2.97336E+004   -7.15758E+004   -3.93268E+004    2.08160E+005    7.91578E+003
            7334    4.24806E+005    1.75190E+005   -3.14038E+005   -3.85672E+004   -3.14038E+005    4.89228E+005    5.91384E+004   -2.55033E+005   -4.73049E+004   -3.95265E+004   -9.05837E+004   -3.92935E+004    2.40418E+005    7.18641E+003
            7335    4.73506E+005    2.07964E+005   -3.37865E+005   -3.73633E+004   -3.37865E+005    5.45829E+005    5.57545E+004   -2.64343E+005   -4.49489E+004   -2.85444E+004   -9.37700E+004   -9.31102E+004    2.54779E+005   -1.67857E+003
            7336    4.12333E+005    1.85123E+005   -2.89983E+005   -2.55266E+004   -2.89983E+005    4.75106E+005    4.34624E+004   -2.38957E+005   -3.48933E+004   -1.65360E+004   -7.89581E+004   -9.31201E+004    2.16728E+005    1.12821E+003
            7337    3.00509E+005    2.20354E+005    2.20354E+005    1.09396E+004   -1.23967E+005    3.44321E+005   -3.57758E+004    2.14622E+005    2.77381E+004   -2.45082E+003    8.20401E+004   -8.23953E+004    1.46292E+005   -8.85355E+003
            7338    2.43793E+005    1.69668E+005    1.69668E+005    5.40721E+003   -1.10450E+005    2.80118E+005   -2.15418E+004    1.62090E+005    1.64687E+004   -1.22232E+004    6.03799E+004   -8.15932E+004    1.08275E+005   -9.68056E+003
            7339    1.98128E+005    1.33769E+005    1.33769E+005    7.05603E+001   -9.38550E+004    2.27624E+005   -1.33281E+004    1.32200E+005    1.03517E+004   -1.41870E+004    4.38195E+004   -7.35306E+004    8.17060E+004   -1.24303E+004
            7340    1.50899E+005    1.01570E+005    1.01570E+005   -2.24649E+003   -7.15285E+004    1.73099E+005   -9.26516E+003    1.05041E+005    6.72684E+003   -1.05735E+004    3.16421E+004   -5.98393E+004    5.79734E+004   -1.40773E+004
            7341    1.38607E+005    9.83330E+004    9.83330E+004   -7.04641E+002   -6.00695E+004    1.58402E+005   -1.25196E+004    1.03604E+005    6.53642E+003   -2.51383E+003    3.35363E+004   -3.11329E+004    7.10759E+004   -5.58642E+003
            7342    1.47826E+005    1.06125E+005    1.06125E+005    1.26301E+003   -6.29485E+004    1.69073E+005   -1.48131E+004    1.09108E+005    6.19895E+003    1.00749E+003    3.72328E+004   -1.00156E+004    8.24546E+004   -1.16430E+003
            7343    1.75399E+005    1.17970E+005    1.17970E+005   -2.77777E+003   -8.32223E+004    2.01192E+005   -1.06566E+004    1.22253E+005    5.15551E+003   -7.86188E+003    3.46762E+004   -3.67355E+004    9.18069E+004   -1.36662E+003
            7344    1.84696E+005    1.23882E+005    1.23882E+005   -1.75204E+003   -8.81813E+004    2.12063E+005   -1.13163E+004    1.25485E+005    3.08911E+003   -2.32285E+003    3.31826E+004   -1.17720E+004    1.04240E+005    5.14759E+002
            7345    2.18113E+005    1.53317E+005    1.53317E+005    3.58432E+003   -9.69301E+004    2.50247E+005   -1.99904E+004    1.51141E+005    1.17438E+004   -2.42852E+003    5.06558E+004   -3.79917E+004    1.16864E+005    1.33477E+003
            7346    2.17365E+005    1.45196E+005    1.45196E+005    7.54510E+002   -1.04789E+005    2.49985E+005   -1.37206E+004    1.39716E+005    4.13189E+003    7.13222E+001    3.69587E+004   -9.60507E+003    1.23447E+005    2.93431E+003
            7347    2.54694E+005    1.81559E+005    1.81559E+005    7.11724E+003   -1.10715E+005    2.92274E+005   -2.59870E+004    1.75631E+005    1.71533E+004    5.00064E+003    5.58070E+004   -2.69557E+004    1.42098E+005    8.24826E+002
            7348    2.34041E+005    1.52982E+005    1.52982E+005    3.23448E+003   -1.16717E+005    2.69699E+005   -1.31666E+004    1.34533E+005    4.87899E+003    3.22168E+003    3.13990E+004   -4.07374E+003    1.34133E+005   -2.17471E+002
            7349    2.35161E+005    1.59196E+005    1.59196E+005    1.92176E+003   -1.11142E+005    2.70338E+005   -1.66587E+004    1.53603E+005    9.59759E+003    1.97275E+003    3.84058E+004   -9.42072E+002    1.34333E+005   -4.25588E+003
            7350    2.26944E+005    1.73005E+005    1.73005E+005    1.74717E+004   -8.74105E+004    2.60416E+005   -3.43555E+004    1.56705E+005    2.51266E+004    1.72571E+004    6.06827E+004   -7.15959E+001    1.27030E+005   -2.22691E+004
            7351    2.65582E+005    2.01222E+005    2.01222E+005    1.97115E+004   -1.03600E+005    3.04821E+005   -3.91112E+004    1.82305E+005    2.81693E+004    2.16193E+004    6.75450E+004   -1.12936E+004    1.50159E+005   -1.48005E+004
            7352    2.54552E+005    1.89973E+005    1.89973E+005    3.01684E+004   -1.03572E+005    2.93546E+005   -3.88565E+004    1.36162E+005    2.90035E+004    3.05696E+004    5.69965E+004   -8.85936E+002    1.43258E+005   -2.87703E+004
            7353    2.78242E+005    2.23438E+005    2.23438E+005    4.28600E+004   -9.69871E+004    3.20425E+005   -5.64368E+004    1.67461E+005    4.35132E+004    4.36952E+004    8.21020E+004   -2.53931E+003    1.56827E+005   -2.66643E+004
            7354    3.13671E+005    2.62834E+005    2.62834E+005    5.39280E+004   -9.78582E+004    3.60692E+005   -7.29679E+004    2.02768E+005    5.67503E+004    5.60609E+004    1.06093E+005   -6.97579E+003    1.76337E+005   -2.88145E+004
            7355    3.59504E+005    3.13749E+005    3.13749E+005    6.97839E+004   -9.91015E+004    4.12851E+005   -9.48105E+004    2.42971E+005    7.40755E+004    7.16568E+004    1.38699E+005   -7.92907E+003    2.02233E+005   -2.59648E+004
            7356    4.09460E+005    3.64639E+005    3.64639E+005    8.46092E+004   -1.05292E+005    4.69931E+005   -1.14652E+005    2.81472E+005    8.97872E+004    8.61471E+004    1.68022E+005   -8.34167E+003    2.30506E+005   -2.33179E+004
            7357    3.04871E+005    2.37495E+005    2.37495E+005    2.99991E+004   -1.12536E+005    3.50031E+005   -5.16528E+004    2.07389E+005    3.87955E+004    3.30484E+004    8.31147E+004   -2.71607E+004    1.71178E+005   -1.38511E+004
            7358    3.59677E+005    2.95050E+005    2.95050E+005    4.63834E+004   -1.17365E+005    4.12415E+005   -7.46896E+004    2.52886E+005    5.78337E+004    4.90560E+004    1.17179E+005   -3.44903E+004    2.00916E+005   -1.38635E+004
            7359    4.12490E+005    3.47138E+005    3.47138E+005    6.21046E+004   -1.25856E+005    4.72994E+005   -9.44624E+004    2.89718E+005    7.40889E+004    6.39368E+004    1.45361E+005   -3.70366E+004    2.30699E+005   -1.23900E+004
            7360    4.69141E+005    4.04195E+005    4.04195E+005    7.86827E+004   -1.33561E+005    5.37756E+005   -1.16439E+005    3.32222E+005    9.16607E+004    7.99687E+004    1.77687E+005   -3.53334E+004    2.62940E+005   -1.14395E+004
            7361    5.34421E+005    4.35171E+005    4.35171E+005    7.87854E+004   -1.79311E+005    6.14482E+005   -1.11548E+005    3.46587E+005    8.95468E+004    6.70550E+004    1.78043E+005   -8.56230E+004    2.90522E+005    5.01685E+003
            7362    4.66906E+005    3.74085E+005    3.74085E+005    6.09637E+004   -1.62565E+005    5.36650E+005   -9.08281E+004    3.07011E+005    7.30551E+004    4.68456E+004    1.52584E+005   -9.25014E+004    2.47137E+005    1.37084E+003
            7363    4.01651E+005    3.14864E+005    3.14864E+005    4.27590E+004   -1.46445E+005    4.61310E+005   -7.03927E+004    2.70424E+005    5.64052E+004    2.80664E+004    1.26707E+005   -8.74648E+004    2.08674E+005   -5.27474E+002
            7364    3.46947E+005    2.66062E+005    2.66062E+005    2.59807E+004   -1.31725E+005    3.97786E+005   -5.34393E+004    2.44376E+005    4.23758E+004    1.49120E+004    1.03030E+005   -7.89979E+004    1.78394E+005   -5.07311E+003
            7365    1.10611E+005    7.60695E+004    7.60695E+004   -2.32594E+003   -5.04523E+004    1.26522E+005   -7.76376E+003    8.15149E+004    2.49095E+003   -2.03335E+003    2.28337E+004   -7.76222E+003    6.19278E+004   -2.74482E+003
            7366    1.01444E+005    6.91459E+004    6.91459E+004   -6.66295E+003   -4.60937E+004    1.15240E+005   -5.46309E+003    8.13056E+004    2.05253E+003   -4.35555E+003    1.86923E+004   -2.26652E+004    5.20365E+004   -8.20314E+003
            7367    1.06105E+005    7.23474E+004    7.23474E+004   -6.40951E+003   -4.83105E+004    1.20658E+005   -5.87580E+003    8.42199E+004    4.44746E+003   -5.70914E+003    1.88891E+004   -4.28077E+004    3.93835E+004   -1.47110E+004
            7368    8.49894E+004    6.16550E+004    6.16550E+004    1.48837E+003   -3.55713E+004    9.72263E+004   -9.19067E+003    6.25042E+004    5.16469E+003    1.88188E+003    2.05254E+004   -4.47779E+003    4.77452E+004   -3.00378E+003
            7369    7.54747E+004    5.53886E+004    5.53886E+004   -2.34233E+003   -3.00169E+004    8.54055E+004   -7.67648E+003    6.24235E+004    4.85377E+003    1.37087E+003    1.68048E+004   -1.33979E+004    3.97092E+004   -8.77240E+003
            7370    6.91621E+004    5.01269E+004    5.01269E+004   -8.50960E+003   -2.61457E+004    7.62726E+004   -5.15722E+003    6.38021E+004    3.89274E+003   -1.09410E+003    1.26730E+004   -2.48120E+004    2.70080E+004   -1.41707E+004
            7371    6.87101E+004    3.99776E+004    3.99776E+004   -2.21599E+003   -3.93073E+004    7.92849E+004    5.15244E+002    3.30393E+004   -1.37165E+003   -1.96962E+003    1.79554E+003   -1.61924E+003    3.94601E+004   -3.14298E+003
            7372    5.86864E+004    3.46063E+004    3.46063E+004   -4.28449E+003   -3.28987E+004    6.75050E+004    8.58938E+002    3.74558E+004   -1.46685E+003   -2.24081E+003    1.13085E+003   -4.32405E+003    3.24209E+004   -8.66621E+003
            7373    4.47099E+004    2.98030E+004    2.98030E+004   -7.36150E+003   -1.98126E+004    4.96156E+004   -8.76302E+002    4.05254E+004    5.63007E+002   -6.76813E+002    2.74271E+003   -7.97385E+003    2.06670E+004   -1.31385E+004
            7374    4.23364E+005    3.78209E+005    3.78209E+005    8.80387E+004   -1.07592E+005    4.85801E+005   -1.19552E+005    2.92382E+005    9.36715E+004    8.94526E+004    1.75532E+005    8.40658E+003    2.38394E+005    2.21023E+004
            7375    4.83427E+005    4.16735E+005    4.16735E+005    8.14313E+004   -1.37413E+005    5.54149E+005   -1.20251E+005    3.42096E+005    9.47682E+004    8.24405E+004    1.83545E+005    3.52509E+004    2.71117E+005    1.05250E+004
            7376    5.42790E+005    4.43318E+005    4.43318E+005    8.07990E+004   -1.80723E+005    6.24041E+005   -1.14465E+005    3.53352E+005    9.19880E+004    6.93878E+004    1.82019E+005    8.47729E+004    2.95709E+005   -5.13028E+003
            7377    4.69949E+005    4.24437E+005    4.24437E+005    1.01099E+005   -1.14647E+005    5.39083E+005   -1.36963E+005    3.27170E+005    1.07331E+005    1.01858E+005    2.01700E+005    6.78856E+003    2.64860E+005    1.64330E+004
            7378    5.34667E+005    4.68295E+005    4.68295E+005    9.70862E+004   -1.44535E+005    6.12830E+005   -1.40282E+005    3.79092E+005    1.10582E+005    9.75841E+004    2.12681E+005    2.66654E+004    3.00902E+005    7.93577E+003
            7379    6.03066E+005    4.99906E+005    4.99906E+005    9.78996E+004   -1.93522E+005    6.93428E+005   -1.34761E+005    3.90727E+005    1.08047E+005    9.13908E+004    2.04845E+005    6.53351E+004    3.36406E+005   -6.20212E+003
            7380    5.03465E+005    4.57332E+005    4.57332E+005    1.10517E+005   -1.20138E+005    5.77470E+005   -1.49237E+005    3.51375E+005    1.16838E+005    1.10701E+005    2.20173E+005    3.56067E+003    2.83953E+005    8.18177E+003
            7381    5.70272E+005    5.03838E+005    5.03838E+005    1.07870E+005   -1.49797E+005    6.53635E+005   -1.53971E+005    4.04415E+005    1.21259E+005    1.07995E+005    2.32657E+005    1.35885E+004    3.21736E+005    4.11604E+003
            7382    6.46995E+005    5.42393E+005    5.42393E+005    1.11103E+005   -2.01545E+005    7.43939E+005   -1.50650E+005    4.19191E+005    1.20615E+005    1.09301E+005    2.22035E+005    3.52286E+004    3.66638E+005   -3.96868E+003
            7383    5.13558E+005    4.67099E+005    4.67099E+005    1.13114E+005   -1.21916E+005    5.89016E+005   -1.52766E+005    3.58871E+005    1.19590E+005    1.13118E+005    2.25590E+005   -5.91750E+002    2.89698E+005   -9.19913E+002
            7384    5.81246E+005    5.14893E+005    5.14893E+005    1.11227E+005   -1.51309E+005    6.66201E+005   -1.58270E+005    4.12354E+005    1.24654E+005    1.11228E+005    2.38930E+005   -1.85603E+003    3.28158E+005   -3.76979E+002
            7385    6.63434E+005    5.58059E+005    5.58059E+005    1.15824E+005   -2.04783E+005    7.62842E+005   -1.56367E+005    4.29809E+005    1.25128E+005    1.15823E+005    2.28150E+005   -1.42167E+003    3.77924E+005   -2.56177E+001
            7386    4.96889E+005    4.50976E+005    4.50976E+005    1.08741E+005   -1.18959E+005    5.69935E+005   -1.46919E+005    3.46679E+005    1.15026E+005    1.09034E+005    2.16697E+005   -4.44961E+003    2.80203E+005   -1.02680E+004
            7387    5.63332E+005    4.97366E+005    4.97366E+005    1.06024E+005   -1.48285E+005    6.45651E+005   -1.51702E+005    3.99881E+005    1.19469E+005    1.06183E+005    2.29454E+005   -1.70909E+004    3.17628E+005   -4.80030E+003
            7388    6.44036E+005    5.39450E+005    5.39450E+005    1.10248E+005   -2.01099E+005    7.40549E+005   -1.49533E+005    4.16994E+005    1.19692E+005    1.08187E+005    2.20720E+005   -3.77906E+004    3.64666E+005    4.13296E+003
            7389    4.58486E+005    4.13603E+005    4.13603E+005    9.82758E+004   -1.12349E+005    5.25952E+005   -1.33177E+005    3.18931E+005    1.04313E+005    9.91922E+004    1.96025E+005   -7.45115E+003    2.58330E+005   -1.76426E+004
            7390    5.22027E+005    4.56381E+005    4.56381E+005    9.38559E+004   -1.41947E+005    5.98328E+005   -1.36097E+005    3.70315E+005    1.07320E+005    9.44908E+004    2.06479E+005   -2.84753E+004    2.93588E+005   -8.73891E+003
            7391    5.97533E+005    4.95159E+005    4.95159E+005    9.66344E+004   -1.91884E+005    6.87042E+005   -1.33303E+005    3.87643E+005    1.06946E+005    8.99438E+004    2.03019E+005   -6.72677E+004    3.32778E+005    5.62602E+003
            7392    1.05993E+005    4.82413E+004   -7.22816E+004    6.42352E+003   -7.22816E+004    1.20523E+005    5.87225E+003   -8.41799E+004   -4.44321E+003    5.69629E+003   -1.88698E+004    4.27738E+004    3.93154E+004   -1.47355E+004
            7393    1.01268E+005    4.60275E+004   -6.90133E+004    6.65904E+003   -6.90133E+004    1.15041E+005    5.44225E+003   -8.11569E+004   -2.03622E+003    4.35663E+003   -1.86472E+004    2.25271E+004    5.19923E+004   -8.17082E+003
            7394    1.10140E+005    5.02944E+004   -7.56928E+004    2.34443E+003   -7.56928E+004    1.25987E+005    7.68466E+003   -8.11227E+004   -2.45246E+003    2.05168E+003   -2.26532E+004    7.72006E+003    6.16720E+004   -2.73474E+003
            7395    6.88985E+004    2.59953E+004   -4.99576E+004    8.52181E+003   -4.99576E+004    7.59529E+004    5.14683E+003   -6.36204E+004   -3.88012E+003    1.06769E+003   -1.26281E+004    2.46652E+004    2.69373E+004   -1.41509E+004
            7396    7.56159E+004    3.00760E+004   -5.54940E+004    2.32756E+003   -5.54940E+004    8.55700E+004    7.69679E+003   -6.25159E+004   -4.86879E+003   -1.36677E+003   -1.68548E+004    1.34038E+004    3.97954E+004   -8.75350E+003
            7397    8.48252E+004    3.55137E+004   -6.15312E+004   -1.51840E+003   -6.15312E+004    9.70449E+004    9.17864E+003   -6.23136E+004   -5.16374E+003   -1.91117E+003   -2.04610E+004    4.44395E+003    4.76609E+004   -3.00286E+003
            7398    4.45530E+004    1.98922E+004   -2.96286E+004    7.20415E+003   -2.96286E+004    4.95208E+004    8.44106E+002   -4.01768E+004   -5.30657E+002    6.80178E+002   -2.68184E+003    7.76276E+003    2.06331E+004   -1.31443E+004
            7399    5.87996E+004    3.29035E+004   -3.47194E+004    4.35955E+003   -3.47194E+004    6.76229E+004   -8.47883E+002   -3.78095E+004    1.46296E+003    2.25997E+003   -1.17928E+003    4.45649E+003    3.24700E+004   -8.66375E+003
            7400    6.87029E+004    3.93344E+004   -3.99428E+004    2.23154E+003   -3.99428E+004    7.92773E+004   -5.41054E+002   -3.29707E+004    1.39020E+003    1.98356E+003   -1.75059E+003    1.63711E+003    3.94572E+004   -3.12823E+003
            7401    2.35585E+005    1.52989E+005    1.52989E+005    2.93983E+003   -1.18541E+005    2.71530E+005   -1.24626E+004    1.33264E+005    5.38426E+003    2.95812E+003    2.90453E+004    5.62748E+002    1.35228E+005    2.33224E+003
            7402    2.31048E+005    1.50715E+005    1.50715E+005    9.43082E+002   -1.15376E+005    2.66091E+005   -1.20940E+004    1.38557E+005    2.69612E+003    8.47453E+002    3.27384E+004    3.62202E+003    1.32133E+005   -1.29985E+003
            7403    2.11823E+005    1.37679E+005    1.37679E+005    2.63813E+002   -1.06262E+005    2.43941E+005   -1.05600E+004    1.27326E+005    1.82150E+003    6.05190E+001    2.97980E+004    5.85523E+003    1.21003E+005   -1.37737E+003
            7404    1.85482E+005    1.27291E+005    1.27291E+005    8.19945E+002   -8.56351E+004    2.12926E+005   -1.41587E+004    1.26682E+005    4.20636E+003    5.21320E+002    3.77486E+004    6.83067E+003    1.04878E+005   -1.06122E+003
            7405    1.47824E+005    1.01344E+005    1.01344E+005   -8.84080E+002   -6.81512E+004    1.69495E+005   -1.07695E+004    1.03991E+005    2.91089E+003   -9.66227E+002    3.03638E+004    6.40751E+003    8.33713E+004    6.77096E+002
            7406    2.49403E+005    1.75049E+005    1.75049E+005    5.52357E+003   -1.11326E+005    2.86375E+005   -2.30822E+004    1.69174E+005    1.46442E+004    5.77693E+003    4.88254E+004    7.31500E+003    1.41954E+005    3.58218E+003
            7407    2.34889E+005    1.64630E+005    1.64630E+005    6.26172E+003   -1.05243E+005    2.69873E+005   -2.18828E+004    1.56417E+005    1.17964E+004    5.41566E+003    4.84365E+004    1.45118E+004    1.32812E+005   -1.51295E+003
            7408    2.10323E+005    1.41080E+005    1.41080E+005   -9.03399E+002   -1.00547E+005    2.41626E+005   -1.32098E+004    1.40465E+005    5.68114E+003   -3.47559E+003    3.74239E+004    2.04146E+004    1.17696E+005   -3.93441E+003
            7409    1.79956E+005    1.25204E+005    1.25204E+005    1.91338E+003   -8.12986E+004    2.06502E+005   -1.52729E+004    1.24174E+005    6.74667E+003   -4.68792E+002    3.95407E+004    2.21740E+004    9.92332E+004   -1.02679E+003
            7410    1.41902E+005    9.57819E+004    9.57819E+004   -3.79153E+003   -6.66988E+004    1.62481E+005   -8.43053E+003    1.02688E+005    2.32806E+003   -4.83528E+003    2.77988E+004    1.94553E+004    7.76889E+004    1.94597E+003
            7411    2.72007E+005    2.02348E+005    2.02348E+005    1.52558E+004   -1.09682E+005    3.12030E+005   -3.59741E+004    1.89249E+005    2.56767E+004    1.66233E+004    6.56223E+004    2.22268E+004    1.53032E+005    8.36689E+003
            7412    2.52318E+005    1.82905E+005    1.82905E+005    9.59976E+003   -1.06574E+005    2.89479E+005   -2.86434E+004    1.75035E+005    1.81619E+004    5.85015E+003    6.19181E+004    3.40307E+004    1.38543E+005   -1.02785E+003
            7413    2.16588E+005    1.50029E+005    1.50029E+005    1.39844E+003   -9.84756E+004    2.48505E+005   -1.76507E+004    1.49968E+005    1.06419E+004   -4.11562E+003    4.64260E+004    4.02196E+004    1.15515E+005    1.67325E+002
            7414    1.81269E+005    1.26748E+005    1.26748E+005    1.91333E+003   -8.11703E+004    2.07919E+005   -1.58305E+004    1.26441E+005    8.33358E+003   -4.27443E+003    4.34322E+004    3.87467E+004    9.40145E+004    1.27658E+003
            7415    1.39071E+005    9.39323E+004    9.39323E+004   -4.38206E+003   -6.51866E+004    1.59119E+005   -8.12122E+003    1.02020E+005    3.10127E+003   -6.21930E+003    2.74817E+004    3.30330E+004    7.08631E+004    5.59972E+003
            7416    3.16183E+005    2.40502E+005    2.40502E+005    2.17708E+004   -1.22022E+005    3.62524E+005   -4.67504E+004    2.22581E+005    3.56422E+004    2.00612E+004    8.45479E+004    5.16957E+004    1.71680E+005    6.73221E+003
            7417    2.79591E+005    2.06891E+005    2.06891E+005    1.21393E+004   -1.13475E+005    3.20366E+005   -3.51854E+004    1.99513E+005    2.54196E+004    2.80790E+003    7.73286E+004    6.52179E+004    1.42538E+005    5.17008E+003
            7418    2.30681E+005    1.59556E+005    1.59556E+005    1.92759E+003   -1.05213E+005    2.64768E+005   -1.87568E+004    1.58284E+005    1.37325E+004   -9.86990E+003    5.24078E+004    6.43078E+004    1.12214E+005    4.67654E+003
            7419    1.88784E+005    1.32174E+005    1.32174E+005    3.06016E+003   -8.44901E+004    2.16664E+005   -1.69145E+004    1.29783E+005    1.13774E+004   -8.17637E+003    4.75426E+004    5.82900E+004    8.73832E+004    6.86037E+003
            7420    1.41307E+005    9.36308E+004    9.36308E+004   -5.87714E+003   -6.81115E+004    1.61742E+005   -6.54740E+003    1.02930E+005    3.77367E+003   -1.11168E+004    2.69853E+004    4.75956E+004    6.27115E+004    9.44129E+003
            7421    1.62753E+005    1.07337E+005    1.07337E+005   -2.17304E+003   -7.96839E+004    1.87020E+005   -8.49322E+003    1.07866E+005    6.91599E+003   -1.39230E+004    3.24866E+004    6.86636E+004    5.74396E+004    1.65879E+004
            7422    2.16705E+005    1.46071E+005    1.46071E+005    3.21945E+003   -1.03277E+005    2.49348E+005   -1.53376E+004    1.36384E+005    1.21722E+004   -1.72491E+004    5.10897E+004    8.53653E+004    8.34188E+004    1.52549E+004
            7423    2.68593E+005    1.87434E+005    1.87434E+005    9.21141E+003   -1.21495E+005    3.08929E+005   -2.50500E+004    1.71997E+005    2.06204E+004   -1.46710E+004    6.92006E+004    9.70816E+004    1.12625E+005    1.28353E+004
            7424    3.15315E+005    2.28098E+005    2.28098E+005    1.66777E+004   -1.34322E+005    3.62419E+005   -3.68179E+004    2.07239E+005    2.93005E+004   -6.37712E+003    8.75304E+004    1.01971E+005    1.42822E+005    9.89864E+003
            7425    3.69402E+005    2.79399E+005    2.79399E+005    2.66648E+004   -1.44544E+005    4.23943E+005   -5.38398E+004    2.54150E+005    4.30652E+004    8.86185E+003    1.09592E+005    9.79038E+004    1.82308E+005    6.38854E+003
            7426    4.16366E+005    3.26885E+005    3.26885E+005    4.35779E+004   -1.51166E+005    4.78051E+005   -7.30988E+004    2.83073E+005    5.86683E+004    2.83195E+004    1.32309E+005    9.24116E+004    2.15370E+005    1.77073E+003
            7427    4.77082E+005    3.82173E+005    3.82173E+005    6.21705E+004   -1.66166E+005    5.48339E+005   -9.27258E+004    3.13836E+005    7.45955E+004    4.74257E+004    1.56156E+005    9.22348E+004    2.53283E+005   -2.76177E+003
            7428    4.28370E+005    3.61844E+005    3.61844E+005    6.48004E+004   -1.29205E+005    4.91048E+005   -9.91463E+004    3.02986E+005    7.78242E+004    6.64553E+004    1.53160E+005    3.91445E+004    2.39297E+005    1.22885E+004
            7429    3.73385E+005    3.26312E+005    3.26312E+005    7.25352E+004   -1.02427E+005    4.28739E+005   -9.88067E+004    2.53223E+005    7.73208E+004    7.45824E+004    1.44517E+005    8.89662E+003    2.10065E+005    2.63966E+004
            7430    3.72226E+005    3.04353E+005    3.04353E+005    4.71401E+004   -1.22470E+005    4.26823E+005   -7.63410E+004    2.61443E+005    5.92785E+004    4.95699E+004    1.20175E+005    3.88707E+004    2.07439E+005    1.33264E+004
            7431    3.28296E+005    2.78261E+005    2.78261E+005    5.90844E+004   -9.91878E+004    3.77449E+005   -7.93860E+004    2.13511E+005    6.18608E+004    6.10358E+004    1.15261E+005    7.03722E+003    1.84828E+005    2.73781E+004
            7432    2.95183E+005    2.38766E+005    2.38766E+005    4.50438E+004   -1.00967E+005    3.39733E+005   -6.09477E+004    1.83527E+005    4.67118E+004    4.67204E+004    8.94110E+004    5.23780E+003    1.66212E+005    2.79796E+004
            7433    2.65355E+005    2.05720E+005    2.05720E+005    3.39488E+004   -9.99028E+004    3.05623E+005   -4.65886E+004    1.58446E+005    3.53183E+004    3.49170E+004    6.95306E+004    2.85097E+003    1.49495E+005    2.68239E+004
            7434    2.43322E+005    1.79189E+005    1.79189E+005    2.69201E+004   -1.01436E+005    2.80625E+005   -3.48913E+004    1.28400E+005    2.61580E+004    2.69020E+004    5.16137E+004   -1.23861E+002    1.36613E+005    2.93622E+004
            7435    2.21587E+005    1.72539E+005    1.72539E+005    1.71937E+004   -8.12072E+004    2.53746E+005   -3.61751E+004    1.60074E+005    2.69504E+004    1.67029E+004    6.48720E+004   -3.62459E+002    1.23262E+005    2.30105E+004
            7436    3.18517E+005    2.54469E+005    2.54469E+005    3.68546E+004   -1.11119E+005    3.65588E+005   -6.00681E+004    2.18481E+005    4.56617E+004    3.98372E+004    9.47054E+004    2.68257E+004    1.78844E+005    1.43107E+004
            7437    2.73582E+005    2.08586E+005    2.08586E+005    2.77073E+004   -1.06151E+005    3.14737E+005   -4.33807E+004    1.73548E+005    3.18222E+004    2.98970E+004    6.84230E+004    1.10949E+004    1.55131E+005    1.70032E+004
            7438    2.52648E+005    1.88741E+005    1.88741E+005    1.78373E+004   -1.01467E+005    2.90208E+005   -3.50372E+004    1.69524E+005    2.48185E+004    1.81700E+004    6.21231E+004    1.71596E+003    1.42650E+005    1.90756E+004
            7439    2.30382E+005    1.57511E+005    1.57511E+005    1.13208E+003   -1.07052E+005    2.64563E+005   -1.71972E+004    1.55789E+005    1.05282E+004    1.03316E+003    4.00301E+004   -8.17287E+002    1.31305E+005    6.05324E+003
            7440    2.34100E+005    1.16755E+005   -1.53012E+005   -3.22936E+003   -1.53012E+005    2.69767E+005    1.31620E+004   -1.34558E+005   -4.88485E+003   -3.21702E+003   -3.13842E+004    4.05420E+003    1.34169E+005   -2.21779E+002
            7441    2.17158E+005    1.04689E+005   -1.45056E+005   -7.30842E+002   -1.45056E+005    2.49744E+005    1.36993E+004   -1.39635E+005   -4.11672E+003   -4.32714E+001   -3.69379E+004    9.63125E+003    1.23323E+005    2.94035E+003
            7442    1.83717E+005    8.75748E+004   -1.23348E+005    1.74795E+003   -1.23348E+005    2.10923E+005    1.13418E+004   -1.25101E+005   -3.12457E+003    2.30960E+003   -3.32105E+004    1.17425E+004    1.03665E+005    4.59542E+002
            7443    1.46766E+005    6.23534E+004   -1.05495E+005   -1.30736E+003   -1.05495E+005    1.67848E+005    1.48162E+004   -1.08468E+005   -6.22038E+003   -1.06776E+003   -3.71603E+004    9.93657E+003    8.18462E+004   -1.22003E+003
            7444    2.54492E+005    1.10659E+005   -1.81385E+005   -7.09615E+003   -1.81385E+005    2.92044E+005    2.59406E+004   -1.75461E+005   -1.71148E+004   -4.96687E+003   -5.57400E+004    2.70203E+004    1.41969E+005    8.28547E+002
            7445    2.17562E+005    9.67597E+004   -1.52860E+005   -3.53945E+003   -1.52860E+005    2.49619E+005    1.98798E+004   -1.50687E+005   -1.16537E+004    2.48163E+003   -5.04674E+004    3.79444E+004    1.16552E+005    1.34761E+003
            7446    1.74645E+005    8.28966E+004   -1.17429E+005    2.80941E+003   -1.17429E+005    2.00325E+005    1.05743E+004   -1.21747E+005   -5.08685E+003    7.83918E+003   -3.44751E+004    3.65827E+004    9.14136E+004   -1.39991E+003
            7447    1.38006E+005    5.97031E+004   -9.79959E+004    7.00791E+002   -9.79959E+004    1.57699E+005    1.25307E+004   -1.03314E+005   -6.53856E+003    2.41996E+003   -3.34734E+004    3.08392E+004    7.08305E+004   -5.61495E+003
            7448    1.51008E+005    7.15850E+004   -1.01639E+005    2.24909E+003   -1.01639E+005    1.73224E+005    9.26822E+003   -1.05109E+005   -6.73348E+003    1.05796E+004   -3.16508E+004    5.99347E+004    5.79548E+004   -1.41244E+004
            7449    1.98287E+005    9.39935E+004   -1.33820E+005   -7.96526E+001   -1.33820E+005    2.27814E+005    1.33021E+004   -1.32158E+005   -1.03301E+004    1.42563E+004   -4.38325E+004    7.36704E+004    8.16913E+004   -1.24462E+004
            7450    2.43957E+005    1.10529E+005   -1.69776E+005   -5.40126E+003   -1.69776E+005    2.80305E+005    2.15497E+004   -1.62208E+005   -1.64661E+004    1.22299E+004   -6.04128E+004    8.16433E+004    1.08352E+005   -9.69153E+003
            7451    3.00346E+005    1.23929E+005   -2.20207E+005   -1.09169E+004   -2.20207E+005    3.44136E+005    3.57315E+004   -2.14483E+005   -2.76876E+004    2.45308E+003   -8.19600E+004    8.23392E+004    1.46223E+005   -8.84680E+003
            7452    3.46508E+005    1.31685E+005   -2.65605E+005   -2.58690E+004   -2.65605E+005    3.97290E+005    5.32632E+004   -2.43983E+005   -4.22536E+004   -1.47163E+004   -1.02820E+005    7.91474E+004    1.78048E+005   -5.07290E+003
            7453    4.02181E+005    1.46706E+005   -3.15224E+005   -4.28478E+004   -3.15224E+005    4.61930E+005    7.04551E+004   -2.70582E+005   -5.64640E+004   -2.80833E+004   -1.26818E+005    8.77741E+004    2.08873E+005   -5.36457E+002
            7454    4.67566E+005    1.62769E+005   -3.74638E+005   -6.10609E+004   -3.74638E+005    5.37407E+005    9.09763E+004   -3.07475E+005   -7.31757E+004   -4.69494E+004   -1.52804E+005    9.24483E+004    2.47558E+005    1.42038E+003
            7455    5.34255E+005    1.79176E+005   -4.35099E+005   -7.86840E+004   -4.35099E+005    6.14275E+005    1.11535E+005   -3.46819E+005   -8.95316E+004   -6.70083E+004   -1.78066E+005    8.55120E+004    2.90447E+005    4.94005E+003
            7456    4.69232E+005    1.33658E+005   -4.04214E+005   -7.87215E+004   -4.04214E+005    5.37872E+005    1.16426E+005   -3.32120E+005   -9.16559E+004   -7.99953E+004   -1.77627E+005    3.55084E+004    2.62981E+005   -1.13967E+004
            7457    4.09188E+005    1.05310E+005   -3.64304E+005   -8.44215E+004   -3.64304E+005    4.69614E+005    1.14472E+005   -2.81367E+005   -8.96450E+004   -8.59986E+004   -1.67772E+005    8.53771E+003    2.30344E+005   -2.33697E+004
            7458    4.12297E+005    1.25847E+005   -3.46917E+005   -6.19590E+004   -3.46917E+005    4.72764E+005    9.43430E+004   -2.89701E+005   -7.40054E+004   -6.37790E+004   -1.45245E+005    3.72956E+004    2.30543E+005   -1.23629E+004
            7459    3.59896E+005    9.92229E+004   -3.14071E+005   -6.97926E+004   -3.14071E+005    4.13294E+005    9.48802E+004   -2.43341E+005   -7.41297E+004   -7.16942E+004   -1.38817E+005    8.07193E+003    2.02454E+005   -2.59412E+004
            7460    3.59634E+005    1.17398E+005   -2.94947E+005   -4.61720E+004   -2.94947E+005    4.12345E+005    7.45736E+004   -2.53138E+005   -5.77454E+004   -4.88371E+004   -1.17138E+005    3.46911E+004    2.00844E+005   -1.38460E+004
            7461    3.14567E+005    9.79160E+004   -2.63793E+005   -5.41690E+004   -2.63793E+005    3.61709E+005    7.33486E+004   -2.03643E+005   -5.70563E+004   -5.63122E+004   -1.06677E+005    7.04777E+003    1.76844E+005   -2.87626E+004
            7462    3.05042E+005    1.12601E+005   -2.37625E+005   -3.00018E+004   -2.37625E+005    3.50226E+005    5.16755E+004   -2.07529E+005   -3.88105E+004   -3.30398E+004   -8.31763E+004    2.71623E+004    1.71276E+005   -1.38224E+004
            7463    2.78709E+005    9.70182E+004   -2.23931E+005   -4.29076E+004   -2.23931E+005    3.20949E+005    5.66068E+004   -1.68144E+005   -4.36548E+004   -4.37781E+004   -8.23874E+004    2.65574E+003    1.57084E+005   -2.66837E+004
            7464    2.54752E+005    1.03602E+005   -1.90173E+005   -3.02260E+004   -1.90173E+005    2.93775E+005    3.89322E+004   -1.36327E+005   -2.90673E+004   -3.06157E+004   -5.71136E+004    8.56758E+002    1.43364E+005   -2.88140E+004
            7465    2.26966E+005    8.73876E+004   -1.73052E+005   -1.74997E+004   -1.73052E+005    2.60440E+005    3.43881E+004   -1.56729E+005   -2.51639E+004   -1.73052E+004   -6.06953E+004    1.32093E+002    1.27034E+005   -2.23370E+004
            7466    2.65713E+005    1.03639E+005   -2.01328E+005   -1.96994E+004   -2.01328E+005    3.04968E+005    3.91294E+004   -1.82458E+005   -2.81872E+004   -2.16166E+004   -6.75845E+004    1.13514E+004    1.50227E+005   -1.48132E+004
            7467    2.35113E+005    1.11047E+005   -1.59236E+005   -1.98910E+003   -1.59236E+005    2.70283E+005    1.67259E+004   -1.53582E+005   -9.66477E+003   -2.03912E+003   -3.84738E+004    9.14109E+002    1.34303E+005   -4.32670E+003
            7468    1.12823E+005    7.65723E+004    7.65723E+004   -4.62283E+003   -5.22556E+004    1.28828E+005   -6.56464E+003    8.53584E+004    5.48220E+003   -6.86016E+003    2.10719E+004    4.83784E+004    3.79077E+004    1.64207E+004
            7469    1.03692E+005    7.53922E+004    7.53922E+004   -3.52508E+003   -4.20484E+004    1.17441E+005   -9.93959E+003    8.52026E+004    7.24960E+003   -2.09949E+003    2.46686E+004    3.40505E+004    4.58423E+004    1.17698E+004
            7470    1.05905E+005    7.67803E+004    7.67803E+004   -2.32016E+003   -4.35358E+004    1.20316E+005   -1.03081E+004    8.48173E+004    6.18972E+003   -1.06009E+003    2.57947E+004    2.41898E+004    5.38478E+004    7.80048E+003
            7471    1.10166E+005    7.99455E+004    7.99455E+004    5.35318E+002   -4.58232E+004    1.25769E+005   -1.15525E+004    8.35697E+004    6.31127E+003    1.21426E+003    2.71321E+004    1.46555E+004    6.01713E+004    4.64427E+003
            7472    1.15673E+005    8.40687E+004    8.40687E+004    9.17183E+002   -4.80305E+004    1.32099E+005   -1.23185E+004    8.73495E+004    6.06293E+003    9.73885E+002    2.99186E+004    4.73906E+003    6.47818E+004    1.45223E+003
            7473    6.92462E+004    4.82343E+004    4.82343E+004   -9.25458E+003   -2.86381E+004    7.68725E+004   -3.44721E+003    6.26931E+004    2.45332E+003   -2.66707E+003    1.05554E+004    2.73230E+004    2.41778E+004    1.49258E+004
            7474    6.90227E+004    4.58568E+004    4.58568E+004   -1.13898E+004   -3.07899E+004    7.66467E+004   -1.22572E+003    6.24328E+004   -4.65445E+002   -4.22648E+003    8.36907E+003    1.99958E+004    3.16934E+004    1.19134E+004
            7475    7.43936E+004    4.92199E+004    4.92199E+004   -7.10594E+003   -3.51120E+004    8.43320E+004   -2.33399E+003    6.07086E+004   -3.65011E+002   -2.64667E+003    1.00137E+004    1.46520E+004    3.87341E+004    9.17922E+003
            7476    8.07850E+004    5.29838E+004    5.29838E+004   -4.66054E+003   -3.93526E+004    9.23364E+004   -2.99023E+003    6.02436E+004   -1.57353E+002   -3.07455E+003    1.22026E+004    8.97593E+003    4.46865E+004    5.67197E+003
            7477    8.59700E+004    5.71200E+004    5.71200E+004   -1.36902E+003   -4.15876E+004    9.87076E+004   -4.72116E+003    5.84318E+004    8.31358E+002   -1.17633E+003    1.45084E+004    3.12449E+003    4.87537E+004    2.01943E+003
            7478    4.24464E+004    2.99533E+004    2.99533E+004   -7.45909E+003   -1.61742E+004    4.61275E+004   -2.10667E+003    4.03591E+004    2.09549E+003    1.97970E+002    4.02653E+003    8.70542E+003    1.80610E+004    1.39613E+004
            7479    5.06627E+004    3.67256E+004    3.67256E+004   -1.98646E+003   -2.06138E+004    5.73394E+004   -4.70846E+003    4.18461E+004    4.43483E+003    2.38266E+003    7.30789E+003    6.50152E+003    2.58880E+004    1.17042E+004
            7480    5.92889E+004    4.09900E+004    4.09900E+004   -5.12792E+002   -2.69134E+004    6.79034E+004   -4.52125E+003    4.27097E+004    4.10475E+003    1.61688E+003    7.84213E+003    4.68921E+003    3.25595E+004    8.93293E+003
            7481    6.64005E+004    4.46592E+004    4.46592E+004    1.72242E+003   -3.18214E+004    7.64806E+004   -4.85339E+003    3.95163E+004    3.98821E+003    2.56293E+003    8.00903E+003    2.98615E+003    3.76652E+004    5.84040E+003
            7482    7.14940E+004    4.72827E+004    4.72827E+004    1.13284E+003   -3.50715E+004    8.23542E+004   -4.44803E+003    4.23139E+004    3.46683E+003    1.21699E+003    8.66027E+003    9.32734E+002    4.10386E+004    2.04500E+003
            7483    5.42595E+005    1.80796E+005   -4.43026E+005   -8.06777E+004   -4.43026E+005    6.23822E+005    1.14303E+005   -3.53128E+005   -9.18580E+004   -6.91935E+004   -1.81857E+005   -8.50029E+004    2.95522E+005   -5.14712E+003
            7484    4.83847E+005    1.37353E+005   -4.17274E+005   -8.16563E+004   -4.17274E+005    5.54627E+005    1.20526E+005   -3.42438E+005   -9.49764E+004   -8.26874E+004   -1.83914E+005   -3.49637E+004    2.71385E+005    1.05934E+004
            7485    4.24384E+005    1.07726E+005   -3.79246E+005   -8.83630E+004   -3.79246E+005    4.86971E+005    1.19961E+005   -2.93113E+005   -9.39914E+004   -8.97576E+004   -1.76134E+005   -8.35806E+003    2.38977E+005    2.19813E+004
            7486    6.03366E+005    1.93665E+005   -5.00117E+005   -9.79989E+004   -5.00117E+005    6.93782E+005    1.34817E+005   -3.90708E+005   -1.08095E+005   -9.14841E+004   -2.04872E+005   -6.53812E+004    3.36581E+005   -6.22040E+003
            7487    5.34926E+005    1.44538E+005   -4.68576E+005   -9.70956E+004   -4.68576E+005    6.13114E+005    1.40378E+005   -3.79460E+005   -1.10658E+005   -9.75922E+004   -2.12883E+005   -2.65754E+004    3.01044E+005    7.92767E+003
            7488    4.70758E+005    1.14771E+005   -4.25238E+005   -1.01327E+005   -4.25238E+005    5.40009E+005    1.37264E+005   -3.27767E+005   -1.07568E+005   -1.02074E+005   -2.02151E+005   -6.75077E+003    2.65319E+005    1.63013E+004
            7489    6.47861E+005    2.01908E+005   -5.43028E+005   -1.11178E+005   -5.43028E+005    7.44936E+005    1.50766E+005   -4.19708E+005   -1.20708E+005   -1.09404E+005   -2.22185E+005   -3.49531E+004    3.67169E+005   -3.95749E+003
            7490    5.70443E+005    1.49871E+005   -5.03952E+005   -1.07814E+005   -5.03952E+005    6.53822E+005    1.53965E+005   -4.04640E+005   -1.21257E+005   -1.07933E+005   -2.32705E+005   -1.36085E+004    3.21827E+005    4.04871E+003
            7491    5.03743E+005    1.20190E+005   -4.57596E+005   -1.10568E+005   -4.57596E+005    5.77785E+005    1.49325E+005   -3.51613E+005   -1.16907E+005   -1.10744E+005   -2.20323E+005   -3.47754E+003    2.84111E+005    8.01041E+003
            7492    6.63212E+005    2.04733E+005   -5.57860E+005   -1.15833E+005   -5.57860E+005    7.62593E+005    1.56320E+005   -4.29520E+005   -1.25099E+005   -1.15829E+005   -2.28031E+005    2.05363E+003    3.77801E+005    4.72608E+001
            7493    5.81123E+005    1.51289E+005   -5.14769E+005   -1.11176E+005   -5.14769E+005    6.66057E+005    1.58219E+005   -4.12292E+005   -1.24617E+005   -1.11177E+005   -2.38862E+005    1.86057E+003    3.28088E+005   -4.52544E+002
            7494    5.13414E+005    1.21858E+005   -4.66992E+005   -1.13104E+005   -4.66992E+005    5.88850E+005    1.52746E+005   -3.58775E+005   -1.19576E+005   -1.13108E+005   -2.25554E+005    5.83364E+002    2.89615E+005   -1.06432E+003
            7495    6.43525E+005    2.01018E+005   -5.38947E+005   -1.10113E+005   -5.38947E+005    7.39965E+005    1.49347E+005   -4.16594E+005   -1.19546E+005   -1.07985E+005   -2.20511E+005    3.83654E+004    3.64308E+005    4.20482E+003
            7496    5.63392E+005    1.48370E+005   -4.97357E+005   -1.06029E+005   -4.97357E+005    6.45727E+005    1.51672E+005   -3.99813E+005   -1.19447E+005   -1.06193E+005   -2.29377E+005    1.70045E+004    3.17677E+005   -4.83363E+003
            7497    4.96247E+005    1.18815E+005   -4.50385E+005   -1.08605E+005   -4.50385E+005    5.69200E+005    1.46725E+005   -3.46206E+005   -1.14877E+005   -1.08908E+005   -2.16391E+005    4.50531E+003    2.79837E+005   -1.04510E+004
            7498    5.96594E+005    1.91523E+005   -4.94435E+005   -9.64895E+004   -4.94435E+005    6.85957E+005    1.33134E+005   -3.87149E+005   -1.06806E+005   -8.97796E+004   -2.02816E+005    6.73597E+004    3.32203E+005    5.59452E+003
            7499    5.22481E+005    1.42145E+005   -4.56716E+005   -9.39635E+004   -4.56716E+005    5.98862E+005    1.36178E+005   -3.70461E+005   -1.07385E+005   -9.45842E+004   -2.06565E+005    2.85674E+004    2.93849E+005   -8.66976E+003
            7500    4.57759E+005    1.12214E+005   -4.12911E+005   -9.81456E+004   -4.12911E+005    5.25126E+005    1.32948E+005   -3.18296E+005   -1.04132E+005   -9.90540E+004   -1.95657E+005    7.31915E+003    2.57921E+005   -1.77471E+004
            7501    1.15927E+005    4.81163E+004   -8.42714E+004   -9.25053E+002   -8.42714E+004    1.32388E+005    1.23601E+004   -8.75625E+004   -6.08755E+003   -9.79685E+002   -3.00130E+004   -4.76024E+003    6.49208E+004    1.44308E+003
            7502    1.10176E+005    4.58402E+004   -7.99404E+004   -5.20448E+002   -7.99404E+004    1.25781E+005    1.15402E+004   -8.35813E+004   -6.30904E+003   -1.19496E+003   -2.71167E+004   -1.47327E+004    6.01591E+004    4.64569E+003
            7503    1.05740E+005    4.34594E+004   -7.66545E+004    2.38655E+003   -7.66545E+004    1.20114E+005    1.02695E+004   -8.47819E+004   -6.17660E+003    1.10421E+003   -2.57362E+004   -2.42955E+004    5.36859E+004    7.86491E+003
            7504    1.03552E+005    4.19779E+004   -7.52946E+004    3.54956E+003   -7.52946E+004    1.17273E+005    9.92235E+003   -8.51351E+004   -7.24494E+003    2.07657E+003   -2.45987E+004   -3.41825E+004    4.56254E+004    1.18716E+004
            7505    1.12689E+005    5.22503E+004   -7.64269E+004    4.65607E+003   -7.64269E+004    1.28677E+005    6.50684E+003   -8.52298E+004   -5.42898E+003    6.89632E+003   -2.09879E+004   -4.83495E+004    3.78219E+004    1.64162E+004
            7506    8.60027E+004    4.15912E+004   -5.71522E+004    1.37211E+003   -5.71522E+004    9.87434E+004    4.72962E+003   -5.84826E+004   -8.29547E+002    1.18349E+003   -1.45428E+004   -3.07785E+003    4.87725E+004    2.00403E+003
            7507    8.08712E+004    3.93898E+004   -5.30524E+004    4.61392E+003   -5.30524E+004    9.24421E+004    3.01623E+003   -6.02365E+004    1.47057E+002    3.05122E+003   -1.22470E+004   -8.87805E+003    4.47592E+004    5.64226E+003
            7508    7.44743E+004    3.51321E+004   -4.93010E+004    7.04721E+003   -4.93010E+004    8.44331E+004    2.37392E+003   -6.07184E+004    3.24943E+002    2.60495E+003   -1.00516E+004   -1.46302E+004    3.87985E+004    9.16137E+003
            7509    6.87950E+004    3.06468E+004   -4.57097E+004    1.14426E+004   -4.57097E+004    7.63565E+004    1.20678E+003   -6.23233E+004    4.65927E+002    4.22330E+003   -8.30956E+003   -1.99930E+004    3.15196E+004    1.19588E+004
            7510    6.92567E+004    2.86825E+004   -4.82279E+004    9.20297E+003   -4.82279E+004    7.69105E+004    3.44746E+003   -6.26344E+004   -2.46059E+003    2.65165E+003   -1.05335E+004   -2.74296E+004    2.40485E+004    1.49641E+004
            7511    7.15416E+004    3.50726E+004   -4.73346E+004   -1.13156E+003   -4.73346E+004    8.24072E+004    4.46455E+003   -4.24074E+004   -3.47771E+003   -1.21575E+003   -8.70017E+003   -9.40005E+002    4.10648E+004    2.03167E+003
            7512    6.64401E+004    3.18398E+004   -4.46859E+004   -1.71708E+003   -4.46859E+004    7.65257E+004    4.85438E+003   -3.95583E+004   -3.98742E+003   -2.55622E+003   -8.01952E+003   -2.99439E+003    3.76905E+004    5.81884E+003
            7513    5.92417E+004    2.69118E+004   -4.09397E+004    5.17034E+002   -4.09397E+004    6.78515E+004    4.50364E+003   -4.26504E+004   -4.08653E+003   -1.60550E+003   -7.81889E+003   -4.66281E+003    3.25311E+004    8.94807E+003
            7514    5.07017E+004    2.06932E+004   -3.67141E+004    1.93745E+003   -3.67141E+004    5.74074E+004    4.69449E+003   -4.17515E+004   -4.41988E+003   -2.38351E+003   -7.28008E+003   -6.43589E+003    2.59346E+004    1.16967E+004
            7515    4.25845E+004    1.62281E+004   -3.00486E+004    7.48711E+003   -3.00486E+004    4.62767E+004    2.11113E+003   -4.04916E+004   -2.09925E+003   -1.86178E+002   -4.04797E+003   -8.74147E+003    1.81590E+004    1.39495E+004
            7516    3.69102E+005    1.44381E+005   -2.79201E+005   -2.65434E+004   -2.79201E+005    4.23582E+005    5.37875E+004   -2.54218E+005   -4.30209E+004   -8.81804E+003   -1.09524E+005   -9.76872E+004    1.82225E+005    6.40936E+003
            7517    3.15267E+005    1.34341E+005   -2.28020E+005   -1.66060E+004   -2.28020E+005    3.62361E+005    3.67618E+004   -2.07270E+005   -2.92666E+004    6.43112E+003   -8.74501E+004   -1.01977E+005    1.42785E+005    9.92266E+003
            7518    2.67906E+005    1.21232E+005   -1.86902E+005   -9.09223E+003   -1.86902E+005    3.08134E+005    2.49209E+004   -1.71665E+005   -2.05286E+004    1.47400E+004   -6.89740E+004   -9.68758E+004    1.12284E+005    1.28578E+004
            7519    2.16235E+005    1.03104E+005   -1.45704E+005   -3.17489E+003   -1.45704E+005    2.48808E+005    1.52583E+004   -1.36057E+005   -1.21104E+004    1.72143E+004   -5.08787E+004   -8.51976E+004    8.32426E+004    1.52099E+004
            7520    1.62135E+005    7.93289E+004   -1.06972E+005    2.20406E+003   -1.06972E+005    1.86301E+005    8.47975E+003   -1.07647E+005   -6.91122E+003    1.38074E+004   -3.23354E+004   -6.83992E+004    5.72313E+004    1.65716E+004
            7521    1.41677E+005    6.83558E+004   -9.38231E+004    5.86184E+003   -9.38231E+004    1.62179E+005    6.53518E+003   -1.03041E+005   -3.77985E+003    1.12024E+004   -2.70281E+004   -4.78095E+004    6.28086E+004    9.43466E+003
            7522    1.39381E+005    6.53529E+004   -9.41292E+004    4.35215E+003   -9.41292E+004    1.59482E+005    8.14138E+003   -1.02150E+005   -3.11820E+003    6.25126E+003   -2.75572E+004   -3.33597E+004    7.08971E+004    5.63511E+003
            7523    1.41954E+005    6.66944E+004   -9.58413E+004    3.80120E+003   -9.58413E+004    1.62536E+005    8.44854E+003   -1.02788E+005   -2.35322E+003    4.86386E+003   -2.78563E+004   -1.96815E+004    7.76541E+004    1.99112E+003
            7524    1.47880E+005    6.81911E+004   -1.01368E+005    8.96952E+002   -1.01368E+005    1.69559E+005    1.07600E+004   -1.04027E+005   -2.91403E+003    9.82221E+002   -3.03480E+004   -6.44371E+003    8.34023E+004    6.66194E+002
            7525    1.89635E+005    8.48695E+004   -1.32769E+005   -3.04948E+003   -1.32769E+005    2.17638E+005    1.69829E+004   -1.30418E+005   -1.14370E+004    8.23752E+003   -4.77490E+004   -5.84799E+004    8.78270E+004    6.85644E+003
            7526    1.81991E+005    8.14817E+004   -1.27261E+005   -1.90232E+003   -1.27261E+005    2.08743E+005    1.58939E+004   -1.27000E+005   -8.40654E+003    4.36089E+003   -4.36359E+004   -3.90272E+004    9.43262E+004    1.29711E+003
            7527    1.80131E+005    8.13700E+004   -1.25341E+005   -1.98512E+003   -1.25341E+005    2.06711E+005    1.53188E+004   -1.24179E+005   -6.80175E+003    4.35135E+002   -3.95899E+004   -2.23742E+004    9.92933E+004   -1.03373E+003
            7528    1.85447E+005    8.55838E+004   -1.27302E+005   -8.44992E+002   -1.27302E+005    2.12885E+005    1.41876E+004   -1.26677E+005   -4.23041E+003   -5.43747E+002   -3.77886E+004   -6.92612E+003    1.04849E+005   -1.03153E+003
            7529    2.32291E+005    1.05805E+005   -1.60816E+005   -2.12747E+003   -1.60816E+005    2.66621E+005    1.90463E+004   -1.59304E+005   -1.39740E+004    9.71518E+003   -5.28800E+004   -6.46658E+004    1.13067E+005    4.66454E+003
            7530    2.17641E+005    9.88270E+004   -1.50890E+005   -1.56714E+003   -1.50890E+005    2.49717E+005    1.78767E+004   -1.50633E+005   -1.08355E+004    3.96593E+003   -4.67606E+004   -4.05244E+004    1.16045E+005    2.15341E+002
            7531    2.10165E+005    1.00400E+005   -1.41025E+005    1.01438E+003   -1.41025E+005    2.41425E+005    1.32035E+004   -1.40730E+005   -5.71428E+003    3.64025E+003   -3.75364E+004   -2.06599E+004    1.17537E+005   -3.91985E+003
            7532    2.11436E+005    1.06015E+005   -1.37472E+005   -2.07218E+002   -1.37472E+005    2.43486E+005    1.05547E+004   -1.27377E+005   -1.83634E+003    7.66261E+000   -2.98355E+004   -5.98143E+003    1.20765E+005   -1.42601E+003
            7533    2.80311E+005    1.13544E+005   -2.07614E+005   -1.21470E+004   -2.07614E+005    3.21159E+005    3.54056E+004   -2.00449E+005   -2.56057E+004   -2.85422E+003   -7.77568E+004   -6.52574E+004    1.42936E+005    5.25973E+003
            7534    2.52914E+005    1.06745E+005   -1.83414E+005   -9.67894E+003   -1.83414E+005    2.90159E+005    2.87829E+004   -1.75493E+005   -1.82602E+004   -5.88808E+003   -6.22004E+004   -3.41514E+004    1.38847E+005   -1.06574E+003
            7535    2.34893E+005    1.05182E+005   -1.64708E+005   -6.43042E+003   -1.64708E+005    2.69890E+005    2.19853E+004   -1.56203E+005   -1.18806E+004   -5.55368E+003   -4.85216E+004   -1.48060E+004    1.32785E+005   -1.53042E+003
            7536    2.30640E+005    1.15102E+005   -1.50521E+005   -1.02844E+003   -1.50521E+005    2.65623E+005    1.21491E+004   -1.38269E+005   -2.71717E+003   -9.27952E+002   -3.28023E+004   -3.71204E+003    1.31892E+005   -1.32950E+003
            7537    3.16298E+005    1.22064E+005   -2.40600E+005   -2.18467E+004   -2.40600E+005    3.62664E+005    4.67945E+004   -2.22545E+005   -3.56846E+004   -2.01446E+004   -8.45543E+004   -5.16755E+004    1.71764E+005    6.72234E+003
            7538    2.71533E+005    1.09529E+005   -2.01949E+005   -1.51241E+004   -2.01949E+005    3.11478E+005    3.58482E+004   -1.89042E+005   -2.55701E+004   -1.64903E+004   -6.54842E+004   -2.19917E+004    1.52786E+005    8.37234E+003
            7539    2.49318E+005    1.11417E+005   -1.74847E+005   -5.27225E+003   -1.74847E+005    2.86264E+005    2.29007E+004   -1.69352E+005   -1.44731E+004   -5.49897E+003   -4.87301E+004   -7.28849E+003    1.41898E+005    3.32852E+003
            7540    2.35675E+005    1.18664E+005   -1.52970E+005   -2.87121E+003   -1.52970E+005    2.71634E+005    1.23922E+004   -1.33290E+005   -5.30260E+003   -2.89286E+003   -2.89812E+004   -6.86109E+002    1.35280E+005    2.26068E+003
            7541    2.30736E+005    1.07464E+005   -1.57533E+005   -1.12919E+003   -1.57533E+005    2.64997E+005    1.70662E+004   -1.55548E+005   -1.03923E+004   -1.03614E+003   -3.97702E+004    7.81164E+002    1.31536E+005    5.95759E+003
            7542    2.21708E+005    8.15164E+004   -1.72394E+005   -1.71250E+004   -1.72394E+005    2.53910E+005    3.60007E+004   -1.59849E+005   -2.68088E+004   -1.66114E+004   -6.45820E+004    4.42231E+002    1.23377E+005    2.28917E+004
            7543    2.52501E+005    1.01399E+005   -1.88633E+005   -1.77783E+004   -1.88633E+005    2.90032E+005    3.50040E+004   -1.69539E+005   -2.47808E+004   -1.80734E+004   -6.21578E+004   -1.57775E+003    1.42565E+005    1.89888E+004
            7544    2.43498E+005    1.01517E+005   -1.79310E+005   -2.69201E+004   -1.79310E+005    2.80827E+005    3.49042E+004   -1.28531E+005   -2.61641E+004   -2.69214E+004   -5.16270E+004    7.80648E+001    1.36715E+005    2.93731E+004
            7545    2.73335E+005    1.06161E+005   -2.08298E+005   -2.76518E+004   -2.08298E+005    3.14460E+005    4.32630E+004   -1.73216E+005   -3.17157E+004   -2.98261E+004   -6.82471E+004   -1.09583E+004    1.54997E+005    1.70541E+004
            7546    2.65410E+005    9.98993E+004   -2.05794E+005   -3.40710E+004   -2.05794E+005    3.05694E+005    4.66553E+004   -1.58239E+005   -3.53671E+004   -3.50184E+004   -6.95803E+004   -2.79275E+003    1.49543E+005    2.67552E+004
            7547    3.18433E+005    1.11046E+005   -2.54442E+005   -3.68611E+004   -2.54442E+005    3.65488E+005    6.00860E+004   -2.18477E+005   -4.56715E+004   -3.98357E+004   -9.47507E+004   -2.67563E+004    1.78801E+005    1.43001E+004
            7548    2.95153E+005    1.00991E+005   -2.38712E+005   -4.50535E+004   -2.38712E+005    3.39702E+005    6.09249E+004   -1.83391E+005   -4.66908E+004   -4.67263E+004   -8.93576E+004   -5.22206E+003    1.66198E+005    2.79836E+004
            7549    3.28737E+005    9.92171E+004   -2.78733E+005   -5.92124E+004   -2.78733E+005    3.77950E+005    7.95762E+004   -2.13918E+005   -6.20093E+004   -6.11697E+004   -1.15550E+005   -7.06639E+003    1.85072E+005    2.73918E+004
            7550    3.74371E+005    1.02466E+005   -3.27393E+005   -7.28535E+004   -3.27393E+005    4.29860E+005    9.92601E+004   -2.54097E+005   -7.76829E+004   -7.48956E+004   -1.45202E+005   -8.91902E+003    2.10616E+005    2.63452E+004
            7551    3.72464E+005    1.22505E+005   -3.04598E+005   -4.72695E+004   -3.04598E+005    4.27103E+005    7.64540E+004   -2.61509E+005   -5.93613E+004   -4.96988E+004   -1.20302E+005   -3.89217E+004    2.07570E+005    1.33250E+004
            7552    4.29007E+005    1.29262E+005   -3.62525E+005   -6.50985E+004   -3.62525E+005    4.91787E+005    9.94536E+004   -3.03318E+005   -7.80647E+004   -6.67627E+004   -1.53534E+005   -3.89189E+004    2.39703E+005    1.23070E+004
            7553    4.76230E+005    1.65979E+005   -3.81390E+005   -6.20402E+004   -3.81390E+005    5.47369E+005    9.24837E+004   -3.13084E+005   -7.43971E+004   -4.72263E+004   -1.55828E+005   -9.24069E+004    2.52701E+005   -2.73791E+003
            7554    4.15647E+005    1.50875E+005   -3.26342E+005   -4.34566E+004   -3.26342E+005    4.77217E+005    7.29744E+004   -2.82732E+005   -5.85616E+004   -2.82209E+004   -1.32141E+005   -9.23341E+004    2.14948E+005    1.82928E+003
            7555    3.04903E+005    2.40698E+005    2.40698E+005    1.70088E+004   -1.06599E+005    3.47297E+005   -5.03693E+004    2.37845E+005    3.79713E+004   -2.72670E+003    1.15863E+005   -8.11445E+004    1.43597E+005   -1.23604E+004
            7556    2.47370E+005    1.81583E+005    1.81583E+005    7.13363E+003   -1.01518E+005    2.83101E+005   -2.90664E+004    1.80667E+005    2.18262E+004   -1.74830E+004    8.28560E+004   -7.98342E+004    1.06183E+005   -1.38777E+004
            7557    2.00393E+005    1.42869E+005    1.42869E+005    2.59379E+003   -8.66408E+004    2.29510E+005   -1.96074E+004    1.44353E+005    1.39198E+004   -1.86834E+004    6.35859E+004   -7.14395E+004    7.91537E+004   -1.73372E+004
            7558    1.50547E+005    1.04288E+005    1.04288E+005   -3.86654E+003   -6.76516E+004    1.71939E+005   -1.09232E+004    1.13567E+005    7.90369E+003   -1.60041E+004    4.08700E+004   -5.76761E+004    5.51439E+004   -1.92861E+004
            7559    1.35257E+005    9.75144E+004    9.75144E+004   -4.93626E+003   -5.58014E+004    1.53316E+005   -1.22589E+004    1.10438E+005    4.69703E+003   -6.87181E+003    3.89515E+004   -3.03801E+004    6.73929E+004   -8.09942E+003
            7560    1.43706E+005    1.04616E+005    1.04616E+005   -3.61482E+003   -5.84316E+004    1.63047E+005   -1.41897E+004    1.16432E+005    3.49800E+003   -3.88050E+003    4.29516E+004   -9.63696E+003    7.84442E+004   -1.85344E+003
            7561    1.76976E+005    1.29670E+005    1.29670E+005    1.44928E+003   -7.22446E+004    2.01915E+005   -1.96250E+004    1.35370E+005    8.75721E+003   -6.40328E+003    5.65211E+004   -3.58084E+004    8.98716E+004   -1.61120E+003
            7562    1.85114E+005    1.35170E+005    1.35170E+005    8.58238E+002   -7.59909E+004    2.11161E+005   -2.00124E+004    1.41925E+005    5.56571E+003   -9.75975E+001    5.45690E+004   -1.13572E+004    1.01923E+005    1.18925E+003
            7563    2.19277E+005    1.60639E+005    1.60639E+005    2.62338E+003   -8.97044E+004    2.50343E+005   -2.45192E+004    1.66261E+005    1.32361E+004   -5.27052E+003    6.55920E+004   -3.75944E+004    1.15160E+005    1.20125E+003
            7564    2.17432E+005    1.48150E+005    1.48150E+005   -2.68294E+003   -1.01088E+005    2.49238E+005   -1.47933E+004    1.53911E+005    2.05517E+003   -3.57265E+003    4.58975E+004   -9.36887E+003    1.22160E+005    3.81795E+003
            7565    2.56481E+005    1.98423E+005    1.98423E+005    1.30512E+004   -9.42892E+004    2.92713E+005   -3.90618E+004    1.95414E+005    2.41873E+004    9.85245E+003    8.31456E+004   -2.69715E+004    1.40320E+005    1.25203E+003
            7566    2.34390E+005    1.63372E+005    1.63372E+005    6.51582E+003   -1.06069E+005    2.69441E+005   -2.12732E+004    1.53333E+005    7.76140E+003    6.47879E+003    4.95794E+004   -4.36277E+003    1.33013E+005   -1.43431E+002
            7567    2.40294E+005    1.69019E+005    1.69019E+005    8.62559E+002   -1.06197E+005    2.75216E+005   -2.12283E+004    1.73000E+005    1.10795E+004    9.40673E+002    5.16648E+004   -1.16153E+003    1.35987E+005   -5.71904E+003
            7568    2.33176E+005    1.95284E+005    1.95284E+005    2.62752E+004   -7.07362E+004    2.66020E+005   -5.02744E+004    1.78478E+005    3.77096E+004    2.56492E+004    8.74643E+004   -1.79862E+002    1.26822E+005   -3.10808E+004
            7569    2.71453E+005    2.21174E+005    2.21174E+005    2.64499E+004   -8.89052E+004    3.10079E+005   -5.29061E+004    2.04264E+005    3.67893E+004    2.91511E+004    9.27780E+004   -1.16372E+004    1.50951E+005   -2.08250E+004
            7570    2.59592E+005    2.12525E+005    2.12525E+005    4.37123E+004   -8.63914E+004    2.98917E+005   -5.66154E+004    1.57188E+005    4.26602E+004    4.45492E+004    8.26368E+004   -1.37147E+003    1.42767E+005   -3.96179E+004
            7571    2.85258E+005    2.51869E+005    2.51869E+005    5.98206E+004   -7.59106E+004    3.27779E+005   -7.85929E+004    1.89311E+005    5.92718E+004    6.11176E+004    1.15389E+005   -2.73343E+003    1.57269E+005   -3.69685E+004
            7572    3.21504E+005    2.99529E+005    2.99529E+005    7.58653E+004   -6.89065E+004    3.68436E+005   -1.02163E+005    2.28857E+005    7.81978E+004    7.87628E+004    1.49527E+005   -6.80162E+003    1.76344E+005   -4.03583E+004
            7573    3.66269E+005    3.60905E+005    3.60905E+005    9.91610E+004   -5.76657E+004    4.18571E+005   -1.34133E+005    2.73841E+005    1.03853E+005    1.01622E+005    1.96925E+005   -7.45731E+003    2.00890E+005   -3.66996E+004
            7574    4.14700E+005    4.21597E+005    4.21597E+005    1.21178E+005   -5.15477E+004    4.73145E+005   -1.63743E+005    3.17146E+005    1.27562E+005    1.23193E+005    2.40472E+005   -7.73030E+003    2.27465E+005   -3.32393E+004
            7575    3.08436E+005    2.63875E+005    2.63875E+005    4.28962E+004   -8.85012E+004    3.52376E+005   -7.27567E+004    2.31607E+005    5.37037E+004    4.71419E+004    1.17425E+005   -2.70223E+004    1.70582E+005   -1.93727E+004
            7576    3.64310E+005    3.31709E+005    3.31709E+005    6.54193E+004   -8.34626E+004    4.15172E+005   -1.04555E+005    2.82581E+005    8.01222E+004    6.91123E+004    1.64432E+005   -3.39734E+004    1.99988E+005   -1.92864E+004
            7577    4.17636E+005    3.91260E+005    3.91260E+005    8.62626E+004   -8.47380E+004    4.75998E+005   -1.30928E+005    3.23499E+005    1.02214E+005    8.87757E+004    2.01795E+005   -3.63447E+004    2.29598E+005   -1.70835E+004
            7578    4.75122E+005    4.56575E+005    4.56575E+005    1.07713E+005   -8.45471E+004    5.41122E+005   -1.59914E+005    3.71103E+005    1.26374E+005    1.09445E+005    2.43922E+005   -3.45648E+004    2.61621E+005   -1.55613E+004
            7579    5.45077E+005    4.94889E+005    4.94889E+005    1.12997E+005   -1.29333E+005    6.24222E+005   -1.59518E+005    3.93302E+005    1.27214E+005    9.63680E+004    2.54971E+005   -8.53059E+004    2.90931E+005    6.85156E+003
            7580    4.75219E+005    4.21034E+005    4.21034E+005    8.66220E+004   -1.22947E+005    5.43981E+005   -1.28236E+005    3.45710E+005    1.01715E+005    6.65655E+004    2.16429E+005   -9.19772E+004    2.46318E+005    1.75236E+003
            7581    4.08013E+005    3.51011E+005    3.51011E+005    6.07329E+004   -1.15498E+005    4.66509E+005   -9.87488E+004    3.02707E+005    7.76819E+004    3.97712E+004    1.78793E+005   -8.66824E+004    2.06911E+005   -8.81656E+002
            7582    3.52170E+005    2.93294E+005    2.93294E+005    3.64208E+004   -1.08156E+005    4.01450E+005   -7.38527E+004    2.72267E+005    5.66659E+004    2.05988E+004    1.44293E+005   -7.81358E+004    1.76454E+005   -7.31054E+003
            7583    1.10455E+005    8.65019E+004    8.65019E+004    1.37596E+003   -3.83134E+004    1.24815E+005   -1.65215E+004    9.22325E+004    7.37948E+003    1.61210E+003    4.05729E+004   -7.21131E+003    5.96766E+004   -3.35951E+003
            7584    1.02168E+005    7.89182E+004    7.89182E+004   -3.54768E+003   -3.53747E+004    1.14293E+005   -1.33319E+004    8.99565E+004    6.89112E+003   -1.16063E+003    3.42653E+004   -2.16376E+004    5.04419E+004   -1.10441E+004
            7585    1.07308E+005    7.79613E+004    7.79613E+004   -5.88502E+003   -4.29700E+004    1.20931E+005   -9.70212E+003    9.11201E+004    6.91890E+003   -6.61406E+003    2.88015E+004   -4.10640E+004    3.76193E+004   -2.04323E+004
            7586    7.91055E+004    5.52900E+004    5.52900E+004   -3.45001E+003   -3.46596E+004    8.99496E+004   -5.72681E+003    6.28261E+004    7.03199E+002   -2.83604E+003    1.93133E+004   -4.40879E+003    4.36689E+004   -4.23221E+003
            7587    7.16182E+004    5.06878E+004    5.06878E+004   -8.10685E+003   -2.90738E+004    7.97616E+004   -4.50240E+003    6.41485E+004    7.85676E+002   -2.64613E+003    1.53677E+004   -1.28620E+004    3.61759E+004   -1.20047E+004
            7588    6.93864E+004    5.07916E+004    5.07916E+004   -1.20829E+004   -2.36523E+004    7.44439E+004   -5.01879E+003    6.71648E+004    3.42512E+003   -3.05755E+003    1.46888E+004   -2.34164E+004    2.47428E+004   -1.90697E+004
            7589    6.44717E+004    4.50937E+004    4.50937E+004    2.35139E+003   -2.90641E+004    7.41577E+004   -6.12700E+003    4.11922E+004    4.41323E+003    2.62179E+003    1.13460E+004   -1.33969E+003    3.66746E+004   -4.18116E+003
            7590    5.69065E+004    4.03042E+004    4.03042E+004   -6.89008E+002   -2.46674E+004    6.49715E+004   -4.98260E+003    4.31222E+004    3.94004E+003    1.69974E+003    9.30803E+003   -4.05484E+003    3.01808E+004   -1.16979E+004
            7591    4.74559E+004    3.39514E+004    3.39514E+004   -6.13366E+003   -1.84477E+004    5.23991E+004   -3.12335E+003    4.36389E+004    2.56507E+003    5.89001E+002    6.21597E+003   -7.66845E+003    1.90836E+004   -1.78759E+004
            7592    4.28129E+005    4.37506E+005    4.37506E+005    1.26248E+005   -5.07380E+004    4.88244E+005   -1.71005E+005    3.29293E+005    1.33388E+005    1.28098E+005    2.51530E+005    7.76981E+003    2.34890E+005    3.15300E+004
            7593    4.89466E+005    4.70455E+005    4.70455E+005    1.11364E+005   -8.70693E+004    5.57524E+005   -1.64917E+005    3.81813E+005    1.30625E+005    1.12697E+005    2.51428E+005    3.46671E+004    2.69745E+005    1.41988E+004
            7594    5.54507E+005    5.05216E+005    5.05216E+005    1.16139E+005   -1.29711E+005    6.34928E+005   -1.63881E+005    4.01224E+005    1.30689E+005    9.99642E+004    2.60991E+005    8.46906E+004    2.96586E+005   -6.94890E+003
            7595    4.72783E+005    4.92922E+005    4.92922E+005    1.46393E+005   -4.56670E+004    5.38589E+005   -1.97883E+005    3.68277E+005    1.54849E+005    1.47379E+005    2.91420E+005    6.15082E+003    2.59491E+005    2.36358E+004
            7596    5.41279E+005    5.28505E+005    5.28505E+005    1.31322E+005   -8.80188E+004    6.16524E+005   -1.90603E+005    4.22362E+005    1.51767E+005    1.31962E+005    2.88079E+005    2.60976E+004    2.99408E+005    1.05167E+004
            7597    6.17140E+005    5.74800E+005    5.74800E+005    1.41953E+005   -1.31872E+005    7.06673E+005   -1.94960E+005    4.46203E+005    1.55618E+005    1.32764E+005    2.96499E+005    6.53367E+004    3.38748E+005   -8.45681E+003
            7598    5.04640E+005    5.32430E+005    5.32430E+005    1.60844E+005   -4.20841E+004    5.74515E+005   -2.17063E+005    3.95847E+005    1.70197E+005    1.61082E+005    3.19911E+005    3.18891E+003    2.77099E+005    1.17891E+004
            7599    5.77271E+005    5.67961E+005    5.67961E+005    1.44639E+005   -8.96150E+004    6.57576E+005   -2.07661E+005    4.50007E+005    1.65786E+005    1.44790E+005    3.12408E+005    1.34753E+004    3.20205E+005    5.34163E+003
            7600    6.63114E+005    6.27821E+005    6.27821E+005    1.62308E+005   -1.31428E+005    7.59249E+005   -2.19567E+005    4.80253E+005    1.75151E+005    1.59760E+005    3.23790E+005    3.54532E+004    3.70246E+005   -5.35835E+003
            7601    5.14230E+005    5.44297E+005    5.44297E+005    1.65214E+005   -4.10408E+004    5.85338E+005   -2.22823E+005    4.04065E+005    1.74779E+005    1.65218E+005    3.28473E+005   -5.37184E+002    2.82397E+005   -1.32019E+003
            7602    5.88413E+005    5.80209E+005    5.80209E+005    1.48938E+005   -9.01069E+004    6.70316E+005   -2.13013E+005    4.58331E+005    1.70115E+005    1.48938E+005    3.19987E+005   -1.92251E+003    3.26667E+005   -4.72309E+002
            7603    6.80168E+005    6.47231E+005    6.47231E+005    1.69566E+005   -1.31515E+005    7.78746E+005   -2.28428E+005    4.92949E+005    1.82150E+005    1.69564E+005    3.33569E+005   -1.54928E+003    3.81938E+005   -4.30704E+001
            7604    4.98312E+005    5.24908E+005    5.24908E+005    1.58185E+005   -4.24465E+004    5.67354E+005   -2.13549E+005    3.90556E+005    1.67391E+005    1.58570E+005    3.14685E+005   -4.06104E+003    2.73579E+005   -1.47872E+004
            7605    5.70295E+005    5.60761E+005    5.60761E+005    1.42199E+005   -8.87935E+004    6.49555E+005   -2.04722E+005    4.45146E+005    1.63367E+005    1.42399E+005    3.08400E+005   -1.67204E+004    3.16103E+005   -6.30709E+003
            7606    6.59707E+005    6.23920E+005    6.23920E+005    1.60862E+005   -1.31437E+005    7.55357E+005   -2.17782E+005    4.77665E+005    1.73744E+005    1.57955E+005    3.21646E+005   -3.78066E+004    3.68044E+005    5.65958E+003
            7607    4.61625E+005    4.80264E+005    4.80264E+005    1.42200E+005   -4.56737E+004    5.25938E+005   -1.92263E+005    3.59119E+005    1.50386E+005    1.43396E+005    2.83009E+005   -6.78929E+003    2.53292E+005   -2.53224E+004
            7608    5.28470E+005    5.14991E+005    5.14991E+005    1.27150E+005   -8.69311E+004    6.01922E+005   -1.85070E+005    4.12458E+005    1.47134E+005    1.27977E+005    2.80100E+005   -2.80146E+004    2.92076E+005   -1.16538E+004
            7609    6.11067E+005    5.68512E+005    5.68512E+005    1.39911E+005   -1.31204E+005    6.99716E+005   -1.92406E+005    4.41836E+005    1.53455E+005    1.30425E+005    2.93338E+005   -6.74081E+004    3.34801E+005    7.65851E+003
            7610    1.07198E+005    4.28988E+004   -7.78994E+004    5.89313E+003   -7.78994E+004    1.20798E+005    9.70251E+003   -9.10681E+004   -6.91752E+003    6.58861E+003   -2.87786E+004    4.10270E+004    3.75488E+004   -2.04652E+004
            7611    1.02021E+005    3.52853E+004   -7.88361E+004    3.53141E+003   -7.88361E+004    1.14121E+005    1.33398E+004   -8.98502E+004   -6.89250E+003    1.13748E+003   -3.42643E+004    2.15100E+004    5.04067E+004   -1.10179E+004
            7612    1.09996E+005    3.81656E+004   -8.61360E+004   -1.38134E+003   -8.61360E+004    1.24302E+005    1.64506E+004   -9.18254E+004   -7.34765E+003   -1.61852E+003   -4.03856E+004    7.17500E+003    5.94345E+004   -3.35045E+003
            7613    6.91493E+004    2.35003E+004   -5.06342E+004    1.21173E+004   -5.06342E+004    7.41345E+004    5.00555E+003   -6.69926E+004   -3.40691E+003    3.02282E+003   -1.46326E+004    2.32785E+004    2.46762E+004   -1.90585E+004
            7614    7.17051E+004    2.91647E+004   -5.07122E+004    8.10429E+003   -5.07122E+004    7.98769E+004    4.48105E+003   -6.41733E+004   -7.59787E+002    2.68128E+003   -1.53646E+004    1.28632E+004    3.62454E+004   -1.19532E+004
            7615    7.88872E+004    3.46573E+004   -5.50559E+004    3.47022E+003   -5.50559E+004    8.97131E+004    5.64279E+003   -6.25722E+004   -6.57564E+002    2.85831E+003   -1.91291E+004    4.37384E+003    4.35650E+004   -4.22553E+003
            7616    4.72900E+004    1.85699E+004   -3.37477E+004    5.95725E+003   -3.37477E+004    5.23176E+004    3.07349E+003   -4.32566E+004   -2.51502E+003   -5.79611E+002   -6.12583E+003    7.46301E+003    1.90547E+004   -1.78535E+004
            7617    5.70392E+004    2.46138E+004   -4.04794E+004    7.63922E+002   -4.04794E+004    6.50932E+004    5.03392E+003   -4.34894E+004   -3.97918E+003   -1.70345E+003   -9.41911E+003    4.18544E+003    3.02312E+004   -1.17188E+004
            7618    6.44794E+004    2.90682E+004   -4.50985E+004   -2.35310E+003   -4.50985E+004    7.41667E+004    6.12778E+003   -4.11923E+004   -4.42391E+003   -2.62620E+003   -1.13332E+004    1.35600E+003    3.66810E+004   -4.17100E+003
            7619    2.37598E+005    1.64487E+005    1.64487E+005    6.58803E+003   -1.08765E+005    2.73252E+005   -2.07698E+004    1.52752E+005    8.31335E+003    6.62640E+003    4.73697E+004    9.83807E+002    1.35193E+005    2.82641E+003
            7620    2.31113E+005    1.53402E+005    1.53402E+005   -2.31583E+003   -1.12147E+005    2.65548E+005   -1.29797E+004    1.53660E+005    1.36651E+003   -2.45522E+003    4.00278E+004    3.79396E+003    1.31281E+005   -1.76642E+003
            7621    2.13864E+005    1.48921E+005    1.48921E+005    2.80147E+003   -9.65471E+004    2.45468E+005   -1.83917E+004    1.46708E+005    3.22310E+003    2.44466E+003    4.95072E+004    5.91321E+003    1.20327E+005   -2.47593E+003
            7622    1.81117E+005    1.26616E+005    1.26616E+005   -3.58454E+003   -8.02213E+004    2.06837E+005   -1.42699E+004    1.36776E+005    1.32603E+003   -4.03123E+003    4.55150E+004    6.86620E+003    1.00726E+005   -1.51689E+003
            7623    1.48981E+005    1.12818E+005    1.12818E+005    2.11723E+003   -5.65683E+004    1.69387E+005   -1.94558E+004    1.18438E+005    7.06489E+003    1.92327E+003    4.93792E+004    6.20279E+003    8.17403E+004    5.61479E+002
            7624    2.52799E+005    1.92430E+005    1.92430E+005    1.04014E+004   -9.62114E+004    2.88642E+005   -3.55401E+004    1.91429E+005    2.06518E+004    1.07502E+004    7.52182E+004    7.83631E+003    1.41461E+005    4.95178E+003
            7625    2.35283E+005    1.71976E+005    1.71976E+005    6.53893E+003   -9.73738E+004    2.69350E+005   -2.70470E+004    1.70910E+005    1.37678E+004    5.45452E+003    6.19187E+004    1.48404E+004    1.31532E+005   -1.56572E+003
            7626    2.13825E+005    1.55324E+005    1.55324E+005    3.28208E+003   -8.91712E+004    2.44496E+005   -2.31451E+004    1.58488E+005    8.58574E+003   -3.15858E+002    6.11654E+004    2.01121E+004    1.17067E+005   -5.23363E+003
            7627    1.75512E+005    1.25328E+005    1.25328E+005   -3.79822E+002   -7.51947E+004    2.00522E+005   -1.65844E+004    1.31726E+005    4.69782E+003   -3.36759E+003    4.84230E+004    2.15825E+004    9.50004E+004   -8.50663E+002
            7628    1.43418E+005    1.07170E+005    1.07170E+005   -3.63323E+002   -5.56669E+004    1.62837E+005   -1.70466E+004    1.15485E+005    6.52958E+003   -1.85615E+003    4.64662E+004    1.84913E+004    7.64197E+004    2.77018E+003
            7629    2.75100E+005    2.25189E+005    2.25189E+005    2.48905E+004   -8.84802E+004    3.13669E+005   -5.38663E+004    2.12085E+005    3.56165E+004    2.65721E+004    9.94102E+004    2.26458E+004    1.51698E+005    1.11946E+004
            7630    2.52729E+005    1.92122E+005    1.92122E+005    9.67168E+003   -9.63488E+004    2.88470E+005   -3.51482E+004    1.92193E+005    2.22737E+004    4.69395E+003    7.84768E+004    3.39113E+004    1.36581E+005   -1.01508E+003
            7631    2.21306E+005    1.67278E+005    1.67278E+005    7.07861E+003   -8.52412E+004    2.52519E+005   -2.97050E+004    1.69041E+005    1.61907E+004   -1.65228E+003    7.45765E+004    3.95599E+004    1.14763E+005   -4.38969E+002
            7632    1.77090E+005    1.25415E+005    1.25415E+005   -2.66036E+003   -7.66743E+004    2.02090E+005   -1.53603E+004    1.35069E+005    6.59312E+003   -1.12591E+004    5.07467E+004    3.81244E+004    8.93169E+004    1.95504E+003
            7633    1.41952E+005    1.07047E+005    1.07047E+005   -2.12663E+001   -5.39712E+004    1.61018E+005   -1.76847E+004    1.15244E+005    9.37037E+003   -3.68809E+003    4.73718E+004    3.18966E+004    7.03153E+004    7.17931E+003
            7634    3.19221E+005    2.67398E+005    2.67398E+005    3.39471E+004   -9.63657E+004    3.63763E+005   -6.83263E+004    2.47801E+005    4.90972E+004    3.10922E+004    1.24789E+005    5.10513E+004    1.69718E+005    9.21842E+003
            7635    2.82066E+005    2.21428E+005    2.21428E+005    1.35049E+004   -9.96438E+004    3.21072E+005   -4.50964E+004    2.21619E+005    3.24504E+004    1.52690E+003    1.01312E+005    6.44732E+004    1.40304E+005    8.31553E+003
            7636    2.35796E+005    1.77171E+005    1.77171E+005    8.95404E+003   -9.23474E+004    2.69518E+005   -3.12592E+004    1.75775E+005    1.99376E+004   -8.70992E+003    8.25500E+004    6.28407E+004    1.11209E+005    6.21548E+003
            7637    1.86536E+005    1.33419E+005    1.33419E+005   -3.08047E+002   -7.96752E+004    2.13094E+005   -1.78119E+004    1.40219E+005    1.08251E+004   -1.50667E+004    5.76772E+004    5.71175E+004    8.28749E+004    1.04084E+004
            7638    1.44464E+005    1.05616E+005    1.05616E+005   -1.82780E+003   -5.86130E+004    1.64229E+005   -1.50583E+004    1.14999E+005    9.20793E+003   -1.00455E+004    4.60127E+004    4.57095E+004    6.23404E+004    1.30248E+004
            7639    1.66252E+005    1.16441E+005    1.16441E+005    5.03802E+002   -7.40358E+004    1.90477E+005   -1.43031E+004    1.18899E+005    1.15682E+004   -1.73137E+004    4.86547E+004    6.66876E+004    5.59392E+004    2.33064E+004
            7640    2.17944E+005    1.52040E+005    1.52040E+005    4.10252E+003   -9.82394E+004    2.50279E+005   -1.93009E+004    1.47380E+005    1.56697E+004   -2.51476E+004    6.73807E+004    8.30958E+004    7.95987E+004    2.10245E+004
            7641    2.74387E+005    2.04366E+005    2.04366E+005    1.62696E+004   -1.10482E+005    3.14849E+005   -3.67178E+004    1.89568E+005    2.84438E+004   -1.87365E+004    1.00446E+005    9.50096E+004    1.10214E+005    1.78766E+004
            7642    3.20525E+005    2.47880E+005    2.47880E+005    2.27767E+004   -1.19097E+005    3.66977E+005   -5.05199E+004    2.32313E+005    4.02976E+004   -9.33317E+003    1.20595E+005    1.00273E+005    1.40282E+005    1.45880E+004
            7643    3.74071E+005    3.07514E+005    3.07514E+005    3.93284E+004   -1.19813E+005    4.27328E+005   -7.56765E+004    2.81217E+005    5.93053E+004    1.31377E+004    1.54586E+005    9.65207E+004    1.79027E+005    8.56833E+003
            7644    4.23873E+005    3.64871E+005    3.64871E+005    6.15020E+004   -1.19445E+005    4.84317E+005   -1.02309E+005    3.17730E+005    8.05472E+004    3.97757E+004    1.86605E+005    9.15692E+004    2.13898E+005    2.72777E+003
            7645    4.85995E+005    4.30858E+005    4.30858E+005    8.86659E+004   -1.25426E+005    5.56284E+005   -1.31366E+005    3.53925E+005    1.04417E+005    6.77180E+004    2.21964E+005    9.17243E+004    2.52608E+005   -3.69059E+003
            7646    4.33831E+005    4.08308E+005    4.08308E+005    8.98572E+004   -8.58074E+004    4.94115E+005   -1.37453E+005    3.38701E+005    1.07803E+005    9.21030E+004    2.12452E+005    3.83145E+004    2.38127E+005    1.68501E+004
            7647    3.80104E+005    3.75260E+005    3.75260E+005    1.03007E+005   -5.90066E+004    4.34267E+005   -1.39753E+005    2.85296E+005    1.08352E+005    1.05686E+005    2.05223E+005    8.29787E+003    2.08501E+005    3.74408E+004
            7648    3.76815E+005    3.41578E+005    3.41578E+005    6.63327E+004   -8.78827E+004    4.29460E+005   -1.06676E+005    2.91976E+005    8.20676E+004    6.97030E+004    1.68257E+005    3.82325E+004    2.06499E+005    1.85372E+004
            7649    3.35413E+005    3.17598E+005    3.17598E+005    8.34491E+004   -6.66515E+004    3.84250E+005   -1.11465E+005    2.40362E+005    8.55528E+004    8.61015E+004    1.62742E+005    6.82632E+003    1.84422E+005    3.83494E+004
            7650    3.00491E+005    2.70920E+005    2.70920E+005    6.47243E+004   -7.38534E+004    3.44774E+005   -8.72637E+004    2.08037E+005    6.67177E+004    6.71319E+004    1.27942E+005    5.50092E+003    1.65315E+005    3.87039E+004
            7651    2.69822E+005    2.31623E+005    2.31623E+005    4.93612E+004   -7.83444E+004    3.09967E+005   -6.75466E+004    1.80459E+005    5.13964E+004    5.07813E+004    1.00462E+005    3.12103E+003    1.48530E+005    3.72070E+004
            7652    2.48412E+005    2.00106E+005    2.00106E+005    3.92372E+004   -8.59969E+004    2.86103E+005   -5.11155E+004    1.48516E+005    3.86542E+004    3.94231E+004    7.52690E+004    2.25631E+002    1.35977E+005    4.05240E+004
            7653    2.28721E+005    1.95985E+005    1.95985E+005    2.58443E+004   -6.40199E+004    2.60005E+005   -5.26032E+004    1.82121E+005    3.98403E+004    2.46654E+004    9.33041E+004   -2.93141E+002    1.22922E+005    3.20585E+004
            7654    3.24555E+005    2.83013E+005    2.83013E+005    5.01729E+004   -8.77207E+004    3.70733E+005   -8.18216E+004    2.44263E+005    6.10832E+004    5.44657E+004    1.29916E+005    2.65230E+004    1.79561E+005    2.05101E+004
            7655    2.79906E+005    2.29250E+005    2.29250E+005    3.73222E+004   -9.19253E+004    3.21175E+005   -5.82156E+004    1.93482E+005    4.18769E+004    4.03947E+004    9.23751E+004    1.14663E+004    1.56705E+005    2.34946E+004
            7656    2.60286E+005    2.07556E+005    2.07556E+005    2.30676E+004   -9.01678E+004    2.97724E+005   -4.68185E+004    1.91839E+005    3.29770E+004    2.35477E+004    8.39309E+004    2.21616E+003    1.44270E+005    2.66234E+004
            7657    2.36195E+005    1.68296E+005    1.68296E+005    5.44972E+001   -1.01726E+005    2.70022E+005   -2.22080E+004    1.75601E+005    1.34261E+004   -7.40836E+001    5.32719E+004   -5.95842E+002    1.33268E+005    8.12542E+003
            7658    2.34458E+005    1.06128E+005   -1.63392E+005   -6.50196E+003   -1.63392E+005    2.69520E+005    2.12552E+004   -1.53349E+005   -7.75451E+003   -6.46478E+003   -4.95464E+004    4.34894E+003    1.33056E+005   -1.36509E+002
            7659    2.17225E+005    1.00942E+005   -1.48053E+005    2.67217E+003   -1.48053E+005    2.48995E+005    1.48128E+004   -1.53836E+005   -2.06694E+003    3.56645E+003   -4.59378E+004    9.39182E+003    1.22031E+005    3.81922E+003
            7660    1.84091E+005    7.54325E+004   -1.34532E+005   -8.13781E+002   -1.34532E+005    2.09964E+005    1.99709E+004   -1.41391E+005   -5.55341E+003    1.29058E+002   -5.44885E+004    1.13322E+004    1.01317E+005    1.10607E+003
            7661    1.42573E+005    5.79200E+004   -1.03823E+005    3.62809E+003   -1.03823E+005    1.61743E+005    1.40915E+004   -1.15623E+005   -3.47943E+003    3.87214E+003   -4.26671E+004    9.55326E+003    7.78124E+004   -1.91964E+003
            7662    2.56275E+005    9.42629E+004   -1.98221E+005   -1.30296E+004   -1.98221E+005    2.92484E+005    3.89959E+004   -1.95201E+005   -2.41362E+004   -9.80807E+003   -8.30433E+004    2.70371E+004    1.40190E+005    1.26784E+003
            7663    2.18716E+005    8.95614E+004   -1.60145E+005   -2.55490E+003   -1.60145E+005    2.49707E+005    2.43796E+004   -1.65800E+005   -1.31216E+004    5.34274E+003   -6.53600E+004    3.75387E+004    1.14849E+005    1.20764E+003
            7664    1.76182E+005    7.19563E+004   -1.29049E+005   -1.38568E+003   -1.29049E+005    2.01005E+005    1.94928E+004   -1.34793E+005   -8.65319E+003    6.38798E+003   -5.62130E+004    3.56490E+004    8.94720E+004   -1.65618E+003
            7665    1.34609E+005    5.54621E+004   -9.70925E+004    4.97295E+003   -9.70925E+004    1.52555E+005    1.22191E+004   -1.10061E+005   -4.68038E+003    6.78718E+003   -3.87642E+004    3.00872E+004    6.71365E+004   -8.12356E+003
            7666    1.50663E+005    6.77221E+004   -1.04353E+005    3.86598E+003   -1.04353E+005    1.72075E+005    1.09216E+004   -1.13622E+005   -7.90753E+003    1.60113E+004   -4.08687E+004    5.77715E+004    5.51294E+004   -1.93399E+004
            7667    2.00579E+005    8.68069E+004   -1.42930E+005   -2.61142E+003   -1.42930E+005    2.29737E+005    1.95783E+004   -1.44318E+005   -1.38885E+004    1.87755E+004   -6.36218E+004    7.15909E+004    7.91318E+004   -1.73776E+004
            7668    2.47548E+005    1.01602E+005   -1.81704E+005   -7.13351E+003   -1.81704E+005    2.83306E+005    2.90784E+004   -1.80787E+005   -2.18244E+004    1.74910E+004   -8.29017E+004    7.98912E+004    1.06265E+005   -1.38862E+004
            7669    3.04722E+005    1.06584E+005   -2.40511E+005   -1.69687E+004   -2.40511E+005    3.47095E+005    5.02988E+004   -2.37681E+005   -3.78915E+004    2.73690E+003   -1.15742E+005    8.10940E+004    1.43521E+005   -1.23541E+004
            7670    3.51745E+005    1.08228E+005   -2.92752E+005   -3.62654E+004   -2.92752E+005    4.00980E+005    7.35965E+004   -2.71813E+005   -5.64712E+004   -2.03175E+004   -1.44001E+005    7.82813E+004    1.76113E+005   -7.30254E+003
            7671    4.08545E+005    1.15752E+005   -3.51384E+005   -6.08382E+004   -3.51384E+005    4.67136E+005    9.88233E+004   -3.02899E+005   -7.77534E+004   -3.97788E+004   -1.78938E+005    8.69970E+004    2.07105E+005   -9.05316E+002
            7672    4.75897E+005    1.23085E+005   -4.21671E+005   -8.67711E+004   -4.21671E+005    5.44756E+005    1.28452E+005   -3.46223E+005   -1.01888E+005   -6.67134E+004   -2.16755E+005    9.19309E+004    2.46740E+005    1.83238E+003
            7673    5.44927E+005    1.29166E+005   -4.94854E+005   -1.12874E+005   -4.94854E+005    6.24019E+005    1.59521E+005   -3.93567E+005   -1.27219E+005   -9.63279E+004   -2.55016E+005    8.51949E+004    2.90861E+005    6.73464E+003
            7674    4.75196E+005    8.46264E+004   -4.56603E+005   -1.07794E+005   -4.56603E+005    5.41229E+005    1.59923E+005   -3.70986E+005   -1.26380E+005   -1.09513E+005   -2.43878E+005    3.47406E+004    2.61659E+005   -1.55133E+004
            7675    4.14423E+005    5.16562E+004   -4.21164E+005   -1.20899E+005   -4.21164E+005    4.72820E+005    1.63469E+005   -3.17014E+005   -1.27360E+005   -1.22969E+005   -2.40078E+005    7.92397E+003    2.27310E+005   -3.33106E+004
            7676    4.17452E+005    8.47797E+004   -3.90994E+005   -8.60541E+004   -3.90994E+005    4.75774E+005    1.30756E+005   -3.23482E+005   -1.02082E+005   -8.85458E+004   -2.01640E+005    3.66018E+004    2.29445E+005   -1.70309E+004
            7677    3.66644E+005    5.77242E+004   -3.61264E+005   -9.91866E+004   -3.61264E+005    4.18988E+005    1.34242E+005   -2.74238E+005   -1.03943E+005   -1.01686E+005   -1.97097E+005    7.59264E+003    2.01104E+005   -3.66684E+004
            7678    3.64269E+005    8.35015E+004   -3.31583E+005   -6.51259E+004   -3.31583E+005    4.15084E+005    1.04402E+005   -2.82873E+005   -8.00160E+004   -6.88130E+004   -1.64378E+005    3.41694E+004    1.99906E+005   -1.92742E+004
            7679    3.22401E+005    6.87887E+004   -3.00650E+005   -7.61958E+004   -3.00650E+005    3.69439E+005    1.02686E+005   -2.29827E+005   -7.86056E+004   -7.91080E+004   -1.50344E+005    6.87481E+003    1.76843E+005   -4.02920E+004
            7680    3.08603E+005    8.85262E+004   -2.64038E+005   -4.29256E+004   -2.64038E+005    3.52565E+005    7.28126E+004   -2.31757E+005   -5.37540E+004   -4.71532E+004   -1.17531E+005    2.70168E+004    1.70679E+005   -1.93268E+004
            7681    2.85737E+005    7.58705E+004   -2.52436E+005   -5.98792E+004   -2.52436E+005    3.28306E+005    7.88148E+004   -1.90059E+005   -5.94454E+004   -6.12217E+004   -1.15777E+005    2.84873E+003    1.57521E+005   -3.69976E+004
            7682    2.59803E+005    8.63938E+004   -2.12764E+005   -4.37912E+004   -2.12764E+005    2.99158E+005    5.67205E+004   -1.57379E+005   -4.27473E+004   -4.46158E+004   -8.27985E+004    1.34874E+003    1.42871E+005   -3.96789E+004
            7683    2.33190E+005    7.06796E+004   -1.95354E+005   -2.63232E+004   -1.95354E+005    2.66034E+005    5.03327E+004   -1.78509E+005   -3.77718E+004   -2.57278E+004   -8.74984E+004    2.48841E+002    1.26815E+005   -3.11684E+004
            7684    2.71590E+005    8.89335E+004   -2.21294E+005   -2.64248E+004   -2.21294E+005    3.10227E+005    5.29283E+004   -2.04449E+005   -3.68136E+004   -2.91401E+004   -9.28313E+004    1.16925E+004    1.51018E+005   -2.08551E+004
            7685    2.40260E+005    1.06083E+005   -1.69095E+005   -9.63853E+002   -1.69095E+005    2.75178E+005    2.13252E+004   -1.72972E+005   -1.11844E+004   -1.04010E+003   -5.17512E+004    1.12486E+003    1.35965E+005   -5.82077E+003
            7686    1.12155E+005    7.70428E+004    7.70428E+004   -6.60678E+003   -5.04018E+004    1.27445E+005   -6.67805E+003    8.96415E+004    5.07125E+003   -1.11952E+004    2.61581E+004    4.61146E+004    3.49777E+004    2.21843E+004
            7687    1.00652E+005    7.18663E+004    7.18663E+004   -9.52343E+003   -4.06805E+004    1.12547E+005   -7.22078E+003    8.87895E+004    2.70911E+003   -7.47892E+003    2.64321E+004    3.27425E+004    4.16771E+004    1.62840E+004
            7688    1.01153E+005    7.16996E+004    7.16996E+004   -9.07055E+003   -4.17551E+004    1.13455E+005   -6.95796E+003    8.80411E+004    1.08204E+003   -7.30261E+003    2.70945E+004    2.35130E+004    4.92072E+004    1.07135E+004
            7689    1.04607E+005    7.64082E+004    7.64082E+004   -3.34469E+003   -4.20322E+004    1.18440E+005   -1.03438E+004    8.61514E+004    2.30613E+003   -2.26278E+003    3.09879E+004    1.39610E+004    5.55495E+004    6.48463E+003
            7690    1.10110E+005    8.07335E+004    8.07335E+004   -3.28414E+003   -4.39194E+004    1.24653E+005   -1.11766E+004    9.07810E+004    2.09835E+003   -3.20606E+003    3.46376E+004    4.67603E+003    5.99646E+004    1.98877E+003
            7691    7.19425E+004    5.42448E+004    5.42448E+004   -8.36788E+003   -2.43423E+004    7.85870E+004   -7.17821E+003    6.77777E+004    6.22355E+003   -1.77150E+003    1.70826E+004    2.62474E+004    2.29052E+004    2.05454E+004
            7692    7.05915E+004    5.49342E+004    5.49342E+004   -9.66164E+003   -2.04181E+004    7.53524E+004   -8.28482E+003    6.87113E+004    6.52696E+003   -5.37648E+002    1.88652E+004    1.89960E+004    3.06514E+004    1.62561E+004
            7693    7.44272E+004    5.87196E+004    5.87196E+004   -3.48329E+003   -2.37385E+004    8.24581E+004   -1.04993E+004    6.77983E+004    7.40829E+003    2.07366E+003    2.20159E+004    1.38048E+004    3.73754E+004    1.23444E+004
            7694    7.92423E+004    6.01936E+004    6.01936E+004   -1.66591E+003   -2.91261E+004    8.93198E+004   -9.80053E+003    6.72141E+004    5.71644E+003    3.50828E+002    2.33343E+004    8.40769E+003    4.26509E+004    7.66525E+003
            7695    8.35567E+004    6.42378E+004    6.42378E+004    2.37959E+003   -3.08153E+004    9.50531E+004   -1.19340E+004    6.60694E+004    6.74815E+003    2.61738E+003    2.64366E+004    2.91618E+003    4.63638E+004    2.66951E+003
            7696    4.55945E+004    3.00300E+004    3.00300E+004   -8.68294E+003   -2.02269E+004    5.02570E+004   -3.73386E+002    4.21141E+004   -2.48754E+002   -1.66443E+003    3.03334E+003    7.98584E+003    1.63946E+004    1.88305E+004
            7697    5.03927E+004    3.17060E+004    3.17060E+004   -7.52485E+003   -2.51267E+004    5.68327E+004    3.15193E+002    4.26036E+004   -2.02550E+003   -1.89288E+003    2.97280E+003    6.12220E+003    2.34636E+004    1.58222E+004
            7698    5.63170E+004    3.34800E+004    3.34800E+004   -6.83701E+003   -3.08656E+004    6.43456E+004    1.40754E+003    4.22333E+004   -3.26000E+003   -3.76426E+003    2.80163E+003    4.62001E+003    2.95870E+004    1.21289E+004
            7699    6.16527E+004    3.76910E+004    3.76910E+004   -2.31475E+003   -3.33091E+004    7.10001E+004   -6.89059E+002    3.70876E+004   -1.59609E+003   -1.07064E+003    4.73391E+003    2.88595E+003    3.44070E+004    7.90634E+003
            7700    6.56915E+004    3.97106E+004    3.97106E+004   -2.92505E+003   -3.59398E+004    7.56504E+004   -2.81942E+002    3.95431E+004   -1.99790E+003   -2.79501E+003    5.63874E+003    9.41772E+002    3.75251E+004    2.78534E+003
            7701    5.54298E+005    1.29850E+005   -5.04847E+005   -1.15972E+005   -5.04847E+005    6.34697E+005    1.63656E+005   -4.00967E+005   -1.30512E+005   -9.97004E+004   -2.60757E+005   -8.49160E+004    2.96391E+005   -6.96232E+003
            7702    4.89862E+005    8.68946E+004   -4.71073E+005   -1.11659E+005   -4.71073E+005    5.57968E+005    1.65279E+005   -3.82176E+005   -1.30916E+005   -1.13027E+005   -2.51895E+005   -3.43706E+004    2.69992E+005    1.43112E+004
            7703    4.29124E+005    5.06268E+004   -4.38743E+005   -1.26714E+005   -4.38743E+005    4.89370E+005    1.71610E+005   -3.30137E+005   -1.33865E+005   -1.28539E+005   -2.52426E+005   -7.72163E+003    2.35444E+005    3.13586E+004
            7704    6.17382E+005    1.32019E+005   -5.74949E+005   -1.42049E+005   -5.74949E+005    7.06968E+005    1.94993E+005   -4.46152E+005   -1.55641E+005   -1.32843E+005   -2.96495E+005   -6.53783E+004    3.38895E+005   -8.50412E+003
            7705    5.41529E+005    8.80086E+004   -5.28774E+005   -1.31288E+005   -5.28774E+005    6.16783E+005    1.90685E+005   -4.22750E+005   -1.51829E+005   -1.31927E+005   -2.88298E+005   -2.60107E+004    2.99531E+005    1.05060E+004
            7706    4.73584E+005    4.56133E+004   -4.93882E+005   -1.46735E+005   -4.93882E+005    5.39495E+005    1.98334E+005   -3.68951E+005   -1.55203E+005   -1.47708E+005   -2.92092E+005   -6.13022E+003    2.59936E+005    2.34443E+004
            7707    6.64005E+005    1.31682E+005   -6.28590E+005   -1.62476E+005   -6.28590E+005    7.60272E+005    2.19794E+005   -4.80851E+005   -1.75331E+005   -1.59967E+005   -3.24084E+005   -3.51780E+004    3.70790E+005   -5.34002E+003
            7708    5.77466E+005    8.96967E+004   -5.68091E+005   -1.44572E+005   -5.68091E+005    6.57788E+005    2.07655E+005   -4.50245E+005   -1.65786E+005   -1.44717E+005   -3.12463E+005   -1.34880E+004    3.20307E+005    5.25952E+003
            7709    5.04916E+005    4.20878E+004   -5.32734E+005   -1.60916E+005   -5.32734E+005    5.74822E+005    2.17187E+005   -3.96110E+005   -1.70296E+005   -1.61143E+005   -3.20123E+005   -3.10624E+003    2.77253E+005    1.15438E+004
            7710    6.79883E+005    1.31526E+005   -6.46905E+005   -1.69511E+005   -6.46905E+005    7.78431E+005    2.28297E+005   -4.92607E+005   -1.82041E+005   -1.69505E+005   -3.33345E+005    2.17360E+003    3.81786E+005    4.93262E+001
            7711    5.88290E+005    9.01040E+004   -5.80064E+005   -1.48846E+005   -5.80064E+005    6.70168E+005    2.12935E+005   -4.58296E+005   -1.70054E+005   -1.48847E+005   -3.19906E+005    1.92254E+003    3.26594E+005   -5.84514E+002
            7712    5.14094E+005    4.10100E+004   -5.44173E+005   -1.65192E+005   -5.44173E+005    5.85183E+005    2.22785E+005   -4.03954E+005   -1.74749E+005   -1.65197E+005   -3.28408E+005    5.24859E+002    2.82320E+005   -1.52347E+003
            7713    6.59214E+005    1.31441E+005   -6.23362E+005   -1.60707E+005   -6.23362E+005    7.54803E+005    2.17543E+005   -4.77198E+005   -1.73558E+005   -1.57706E+005   -3.21364E+005    3.83789E+004    3.67698E+005    5.75489E+003
            7714    5.70374E+005    8.88833E+004   -5.60780E+005   -1.42247E+005   -5.60780E+005    6.49663E+005    2.04715E+005   -4.45065E+005   -1.63361E+005   -1.42455E+005   -3.08327E+005    1.66347E+004    3.16171E+005   -6.35912E+003
            7715    4.97704E+005    4.24669E+004   -5.24202E+005   -1.57959E+005   -5.24202E+005    5.66669E+005    2.13231E+005   -3.90028E+005   -1.67134E+005   -1.58357E+005   -3.14203E+005    4.12008E+003    2.73241E+005   -1.50472E+004
            7716    6.10130E+005    1.30970E+005   -5.67665E+005   -1.39662E+005   -5.67665E+005    6.98634E+005    1.92119E+005   -4.41273E+005   -1.53230E+005   -1.30142E+005   -2.92985E+005    6.75019E+004    3.34227E+005    7.62853E+003
            7717    5.28949E+005    8.70868E+004   -5.15402E+005   -1.27310E+005   -5.15402E+005    6.02488E+005    1.85208E+005   -4.12670E+005   -1.47246E+005   -1.28114E+005   -2.80265E+005    2.81049E+004    2.92354E+005   -1.15448E+004
            7718    4.60913E+005    4.57180E+004   -4.79431E+005   -1.41991E+005   -4.79431E+005    5.25149E+005    1.91901E+005   -3.58397E+005   -1.50108E+005   -1.43172E+005   -2.82423E+005    6.65355E+003    2.52909E+005   -2.54738E+004
            7719    1.10353E+005    4.39949E+004   -8.09303E+004    3.28265E+003   -8.09303E+004    1.24925E+005    1.12176E+004   -9.09954E+004   -2.12054E+003    3.20728E+003   -3.47395E+004   -4.69489E+003    6.00938E+004    1.97763E+003
            7720    1.04628E+005    4.20377E+004   -7.64258E+004    3.34502E+003   -7.64258E+004    1.18464E+005    1.03477E+004   -8.61716E+004   -2.31124E+003    2.27020E+003   -3.10021E+004   -1.40294E+004    5.55424E+004    6.48406E+003
            7721    1.01050E+005    4.16884E+004   -7.16229E+004    9.14644E+003   -7.16229E+004    1.13311E+005    6.92937E+003   -8.80483E+004   -1.07617E+003    7.35321E+003   -2.70651E+004   -2.36042E+004    4.90714E+004    1.08015E+004
            7722    1.00519E+005    4.06155E+004   -7.17693E+004    9.54727E+003   -7.17693E+004    1.12385E+005    7.20216E+003   -8.87111E+004   -2.72702E+003    7.44731E+003   -2.63268E+004   -3.28645E+004    4.14494E+004    1.64218E+004
            7723    1.11990E+005    5.04146E+004   -7.68497E+004    6.64586E+003   -7.68497E+004    1.27264E+005    6.59643E+003   -8.94624E+004   -5.02811E+003    1.12402E+004   -2.60014E+004   -4.60924E+004    3.48732E+004    2.21660E+004
            7724    8.36211E+004    3.07905E+004   -6.43315E+004   -2.40604E+003   -6.43315E+004    9.51220E+004    1.19824E+004   -6.61511E+004   -6.78113E+003   -2.63837E+003   -2.65276E+004   -2.86976E+003    4.63964E+004    2.64706E+003
            7725    7.93103E+004    2.91491E+004   -6.02579E+004    1.61855E+003   -6.02579E+004    8.94070E+004    9.83009E+003   -6.72249E+004   -5.73503E+003   -3.72984E+002   -2.33823E+004   -8.32289E+003    4.27110E+004    7.63365E+003
            7726    7.44550E+004    2.38034E+004   -5.87079E+004    3.46363E+003   -5.87079E+004    8.25113E+004    1.04803E+004   -6.77694E+004   -7.37871E+003   -2.08048E+003   -2.19816E+004   -1.37889E+004    3.74114E+004    1.23238E+004
            7727    7.03829E+004    2.03338E+004   -5.47480E+004    9.73349E+003   -5.47480E+004    7.50818E+004    8.22690E+003   -6.85524E+004   -6.48642E+003    5.59490E+002   -1.87538E+004   -1.89855E+004    3.04925E+004    1.62937E+004
            7728    7.20424E+004    2.44218E+004   -5.43298E+004    8.25658E+003   -5.43298E+004    7.87517E+004    7.21715E+003   -6.77792E+004   -6.26346E+003    1.72381E+003   -1.71118E+004   -2.63662E+004    2.28066E+004    2.06237E+004
            7729    6.57202E+004    3.59379E+004   -3.97431E+004    2.93817E+003   -3.97431E+004    7.56811E+004    2.88999E+002   -3.96363E+004    2.00183E+003    2.80819E+003   -5.67702E+003   -9.49085E+002    3.75398E+004    2.76519E+003
            7730    6.16974E+004    3.33263E+004   -3.77248E+004    2.31547E+003   -3.77248E+004    7.10511E+004    6.94368E+002   -3.71301E+004    1.59581E+003    1.07634E+003   -4.75525E+003   -2.89112E+003    3.44403E+004    7.86942E+003
            7731    5.63092E+004    3.08591E+004   -3.34809E+004    6.81301E+003   -3.34809E+004    6.43400E+004   -1.39707E+003   -4.21963E+004    3.24660E+003    3.75271E+003   -2.80811E+003   -4.59351E+003    2.95776E+004    1.21512E+004
            7732    5.04301E+004    2.51845E+004   -3.17173E+004    7.44976E+003   -3.17173E+004    5.69018E+004   -3.05667E+002   -4.25132E+004    2.00755E+003    1.87121E+003   -2.96176E+003   -6.06217E+003    2.34989E+004    1.58358E+004
            7733    4.56600E+004    2.02136E+004   -3.00940E+004    8.72332E+003   -3.00940E+004    5.03076E+004    3.85710E+002   -4.22194E+004    2.31831E+002    1.67501E+003   -3.06397E+003   -8.01772E+003    1.64730E+004    1.87989E+004
            7734    3.73756E+005    1.19655E+005   -3.07283E+005   -3.91647E+004   -3.07283E+005    4.26938E+005    7.55977E+004   -2.81260E+005   -5.92486E+004   -1.30568E+004   -1.54488E+005   -9.62941E+004    1.78934E+005    8.57148E+003
            7735    3.20510E+005    1.19089E+005   -2.47857E+005   -2.26773E+004   -2.47857E+005    3.66946E+005    5.04816E+004   -2.32468E+005   -4.02894E+004    9.37996E+003   -1.20535E+005   -1.00268E+005    1.40273E+005    1.46493E+004
            7736    2.73662E+005    1.10236E+005   -2.03781E+005   -1.61806E+004   -2.03781E+005    3.14017E+005    3.65754E+004   -1.89069E+005   -2.83492E+004    1.87840E+004   -1.00161E+005   -9.47926E+004    1.09868E+005    1.78677E+004
            7737    2.17478E+005    9.81293E+004   -1.51613E+005   -3.97009E+003   -1.51613E+005    2.49742E+005    1.91512E+004   -1.47113E+005   -1.55496E+004    2.51486E+004   -6.70526E+004   -8.29462E+004    7.94343E+004    2.09943E+004
            7738    1.65593E+005    7.36483E+004   -1.16060E+005   -4.87624E+002   -1.16060E+005    1.89708E+005    1.42996E+004   -1.18613E+005   -1.15519E+004    1.71478E+004   -4.84949E+004   -6.64018E+004    5.57388E+004    2.32686E+004
            7739    1.44816E+005    5.89037E+004   -1.05758E+005    1.80471E+003   -1.05758E+005    1.64661E+005    1.50164E+004   -1.15058E+005   -9.17742E+003    1.01728E+004   -4.60446E+004   -4.59087E+004    6.24380E+004    1.29908E+004
            7740    1.42277E+005    5.41509E+004   -1.07249E+005    6.01221E+000   -1.07249E+005    1.61400E+005    1.76974E+004   -1.15423E+005   -9.41551E+003    3.74772E+003   -4.74245E+004   -3.22472E+004    7.03474E+004    7.26799E+003
            7741    1.43457E+005    5.56924E+004   -1.07178E+005    4.25842E+002   -1.07178E+005    1.62870E+005    1.70198E+004   -1.15579E+005   -6.53640E+003    1.94331E+003   -4.64663E+004   -1.87280E+004    7.63726E+004    2.84824E+003
            7742    1.49052E+005    5.66254E+004   -1.12846E+005   -2.10487E+003   -1.12846E+005    1.69471E+005    1.94418E+004   -1.18474E+005   -7.05086E+003   -1.90657E+003   -4.93679E+004   -6.23807E+003    8.17804E+004    5.49621E+002
            7743    1.87523E+005    7.99136E+004   -1.34294E+005    2.18669E+002   -1.34294E+005    2.14208E+005    1.80540E+004   -1.41099E+005   -1.10194E+004    1.50343E+004   -5.81768E+004   -5.73261E+004    8.33609E+004    1.04526E+004
            7744    1.77829E+005    7.69972E+004   -1.25946E+005    2.61120E+003   -1.25946E+005    2.02943E+005    1.54458E+004   -1.35541E+005   -6.66114E+003    1.13773E+004   -5.10534E+004   -3.83683E+004    8.96272E+004    1.88691E+003
            7745    1.75652E+005    7.52596E+004   -1.25438E+005    2.86385E+002   -1.25438E+005    2.00698E+005    1.66307E+004   -1.31683E+005   -4.75313E+003    3.33330E+003   -4.84723E+004   -2.17638E+004    9.50438E+004   -8.88529E+002
            7746    1.81049E+005    8.01664E+004   -1.26594E+005    3.55443E+003   -1.26594E+005    2.06760E+005    1.42910E+004   -1.36719E+005   -1.36150E+003    4.00492E+003   -4.55164E+004   -6.95380E+003    1.00684E+005   -1.48145E+003
            7747    2.37412E+005    9.28310E+004   -1.78553E+005   -9.27858E+003   -1.78553E+005    2.71384E+005    3.16668E+004   -1.76807E+005   -2.02756E+004    8.47888E+003   -8.32036E+004   -6.31835E+004    1.12070E+005    6.13923E+003
            7748    2.22466E+005    8.54740E+004   -1.68356E+005   -7.25411E+003   -1.68356E+005    2.53830E+005    3.00454E+004   -1.70035E+005   -1.64981E+004    1.46165E+003   -7.50997E+004   -3.98883E+004    1.15338E+005   -2.74948E+002
            7749    2.13693E+005    8.89733E+004   -1.55334E+005   -3.18003E+003   -1.55334E+005    2.44308E+005    2.31804E+004   -1.58765E+005   -8.63153E+003    4.73450E+002   -6.13831E+004   -2.03558E+004    1.16899E+005   -5.14910E+003
            7750    2.13531E+005    9.62370E+004   -1.48824E+005   -2.74169E+003   -1.48824E+005    2.45061E+005    1.84427E+004   -1.46888E+005   -3.25638E+003   -2.36844E+003   -4.97033E+004   -6.04136E+003    1.20094E+005   -2.52010E+003
            7751    2.82802E+005    9.96973E+004   -2.22154E+005   -1.34203E+004   -2.22154E+005    3.21851E+005    4.52924E+004   -2.22624E+005   -3.26504E+004   -1.51488E+003   -1.01712E+005   -6.45264E+004    1.40691E+005    8.45681E+003
            7752    2.53258E+005    9.65325E+004   -1.92540E+005   -9.69881E+003   -1.92540E+005    2.89073E+005    3.52355E+004   -1.92612E+005   -2.23819E+004   -4.65690E+003   -7.86678E+004   -3.40144E+004    1.36852E+005   -1.09620E+003
            7753    2.35258E+005    9.72961E+004   -1.72054E+005   -6.81491E+003   -1.72054E+005    2.69350E+005    2.71910E+004   -1.70548E+005   -1.38779E+004   -5.67683E+003   -6.20183E+004   -1.51345E+004    1.31493E+005   -1.65079E+003
            7754    2.30691E+005    1.11806E+005   -1.53255E+005    2.18930E+003   -1.53255E+005    2.65061E+005    1.30866E+004   -1.53406E+005   -1.42999E+003    2.33574E+003   -4.01657E+004   -3.87777E+003    1.31025E+005   -1.81349E+003
            7755    3.19309E+005    9.63462E+004   -2.67531E+005   -3.40802E+004   -2.67531E+005    3.63877E+005    6.84217E+004   -2.47765E+005   -4.91672E+004   -3.12354E+004   -1.24862E+005   -5.10309E+004    1.69787E+005    9.20894E+003
            7756    2.74666E+005    8.84324E+004   -2.24725E+005   -2.46616E+004   -2.24725E+005    3.13157E+005    5.36514E+004   -2.11886E+005   -3.54452E+004   -2.63491E+004   -9.91598E+004   -2.24130E+004    1.51477E+005    1.12141E+004
            7757    2.52694E+005    9.63686E+004   -1.92123E+005   -1.00133E+004   -1.92123E+005    2.88491E+005    3.52558E+004   -1.91622E+005   -2.04030E+004   -1.03276E+004   -7.50368E+004   -7.80713E+003    1.41386E+005    4.64637E+003
            7758    2.37631E+005    1.08872E+005   -1.64422E+005   -6.53402E+003   -1.64422E+005    2.73294E+005    2.06945E+004   -1.52692E+005   -8.18325E+003   -6.57549E+003   -4.73248E+004   -1.10719E+003    1.35210E+005    2.73117E+003
            7759    2.36497E+005    1.02148E+005   -1.68271E+005   -1.03728E+002   -1.68271E+005    2.70419E+005    2.20757E+004   -1.75299E+005   -1.32541E+004    1.32579E+001   -5.29863E+004    5.43900E+002    1.33490E+005    7.95585E+003
            7760    2.28786E+005    6.44381E+004   -1.95691E+005   -2.57218E+004   -1.95691E+005    2.60129E+005    5.23249E+004   -1.81833E+005   -3.95947E+004   -2.45189E+004   -9.28612E+004    3.79844E+002    1.23051E+005    3.18841E+004
            7761    2.60159E+005    9.01163E+004   -2.07448E+005   -2.29696E+004   -2.07448E+005    2.97565E+005    4.67672E+004   -1.91894E+005   -3.29169E+004   -2.33976E+004   -8.39872E+004   -2.07889E+003    1.44197E+005    2.64994E+004
            7762    2.48623E+005    8.61229E+004   -2.00222E+005   -3.92162E+004   -2.00222E+005    2.86345E+005    5.11052E+004   -1.48645E+005   -3.86382E+004   -3.94238E+004   -7.52535E+004   -2.63016E+002    1.36098E+005    4.05474E+004
            7763    2.79660E+005    9.19904E+004   -2.28915E+005   -3.72408E+004   -2.28915E+005    3.20905E+005    5.80551E+004   -1.93131E+005   -4.17433E+004   -4.02956E+004   -9.21262E+004   -1.13412E+004    1.56572E+005    2.35661E+004
            7764    2.69843E+005    7.83043E+004   -2.31700E+005   -4.95255E+004   -2.31700E+005    3.10004E+005    6.76404E+004   -1.80241E+005   -5.14659E+004   -5.09214E+004   -1.00534E+005   -3.06763E+003    1.48572E+005    3.71087E+004
            7765    3.24498E+005    8.76783E+004   -2.82986E+005   -5.01698E+004   -2.82986E+005    3.70665E+005    8.18259E+004   -2.44252E+005   -6.10789E+004   -5.44485E+004   -1.29950E+005   -2.64511E+004    1.79533E+005    2.04876E+004
            7766    3.00442E+005    7.38732E+004   -2.70854E+005   -6.47551E+004   -2.70854E+005    3.44727E+005    8.72452E+004   -2.07868E+005   -6.67002E+004   -6.71577E+004   -1.27878E+005   -5.48201E+003    1.65292E+005    3.87130E+004
            7767    3.35864E+005    6.65944E+004   -3.18159E+005   -8.36132E+004   -3.18159E+005    3.84753E+005    1.11726E+005   -2.40845E+005   -8.57606E+004   -8.62715E+004   -1.63146E+005   -6.85128E+003    1.84660E+005    3.83693E+004
            7768    3.81093E+005    5.88109E+004   -3.76562E+005   -1.03471E+005   -3.76562E+005    4.35373E+005    1.40407E+005   -2.86268E+005   -1.08862E+005   -1.06146E+005   -2.06214E+005   -8.32450E+003    2.09033E+005    3.73771E+004
            7769    3.77050E+005    8.78675E+004   -3.41873E+005   -6.65126E+004   -3.41873E+005    4.29740E+005    1.06839E+005   -2.92065E+005   -8.22042E+004   -6.98838E+004   -1.68430E+005   -3.82882E+004    2.06630E+005    1.85395E+004
            7770    4.34453E+005    8.57575E+004   -4.09084E+005   -9.02637E+004   -4.09084E+005    4.94842E+005    1.37864E+005   -3.39046E+005   -1.08128E+005   -9.25207E+004   -2.12942E+005   -3.80871E+004    2.38522E+005    1.68693E+004
            7771    4.85119E+005    1.25381E+005   -4.29920E+005   -8.84606E+004   -4.29920E+005    5.55301E+005    1.31000E+005   -3.53065E+005   -1.04127E+005   -6.74087E+004   -2.21463E+005   -9.18872E+004    2.52022E+005   -3.67195E+003
            7772    4.23172E+005    1.19212E+005   -3.64287E+005   -6.13382E+004   -3.64287E+005    4.83499E+005    1.02138E+005   -3.17350E+005   -8.03974E+004   -3.96526E+004   -1.86363E+005   -9.14994E+004    2.13485E+005    2.82103E+003
            7773    3.11666E+005    2.61288E+005    2.61288E+005    2.31459E+004   -9.14534E+004    3.52742E+005   -6.43270E+004    2.57420E+005    4.65324E+004   -2.48569E+003    1.48934E+005   -7.94384E+004    1.40816E+005   -1.64144E+004
            7774    2.51603E+005    1.94477E+005    1.94477E+005    1.27520E+004   -9.26912E+004    2.87169E+005   -3.81794E+004    1.91489E+005    2.63875E+004   -2.04333E+004    1.08584E+005   -7.79462E+004    1.02195E+005   -1.77846E+004
            7775    2.02022E+005    1.49140E+005    1.49140E+005    4.18238E+003   -8.16221E+004    2.30762E+005   -2.39000E+004    1.52087E+005    1.67784E+004   -2.36515E+004    7.85732E+004   -6.92544E+004    7.52660E+004   -2.21967E+004
            7776    1.52773E+005    1.11042E+005    1.11042E+005   -1.22496E+003   -6.29336E+004    1.73975E+005   -1.56277E+004    1.19474E+005    1.01748E+004   -1.82431E+004    5.49514E+004   -5.53196E+004    5.24573E+004   -2.46204E+004
            7777    1.36437E+005    1.07719E+005    1.07719E+005   -1.25771E+003   -4.52991E+004    1.53018E+005   -2.03875E+004    1.18790E+005    8.14771E+003   -4.67603E+003    5.76907E+004   -2.83049E+004    6.50057E+004   -9.66202E+003
            7778    1.44873E+005    1.16395E+005    1.16395E+005    1.27969E+003   -4.62787E+004    1.62674E+005   -2.37987E+004    1.25416E+005    6.35920E+003    8.10366E+002    6.42266E+004   -9.19921E+003    7.53240E+004   -2.04600E+003
            7779    1.72708E+005    1.28054E+005    1.28054E+005   -2.40728E+003   -6.78018E+004    1.95856E+005   -1.92818E+004    1.40500E+005    6.28245E+003   -1.22509E+004    6.38137E+004   -3.44790E+004    8.47062E+004   -2.36377E+003
            7780    1.80210E+005    1.33908E+005    1.33908E+005   -1.78596E+003   -7.05634E+004    2.04471E+005   -2.05194E+004    1.45965E+005    2.02852E+003   -2.88061E+003    6.24103E+004   -1.12804E+004    9.68253E+004    8.34525E+002
            7781    2.21753E+005    1.74147E+005    1.74147E+005    7.37572E+003   -7.75087E+004    2.51656E+005   -3.46713E+004    1.79314E+005    1.56881E+004   -3.46259E+003    9.17884E+004   -3.65224E+004    1.11873E+005    1.88647E+003
            7782    2.18366E+005    1.59181E+005    1.59181E+005    1.20779E+003   -9.00016E+004    2.49183E+005   -2.34625E+004    1.66629E+005    1.97842E+003   -7.05694E+001    6.84798E+004   -9.79339E+003    1.19385E+005    4.99598E+003
            7783    2.59874E+005    2.10356E+005    2.10356E+005    1.50012E+004   -8.45815E+004    2.94938E+005   -4.69253E+004    2.10013E+005    2.69216E+004    1.09108E+004    1.02944E+005   -2.73792E+004    1.39079E+005    1.16772E+003
            7784    2.37603E+005    1.70334E+005    1.70334E+005    6.78507E+003   -1.02213E+005    2.72547E+005   -2.49687E+004    1.65564E+005    7.16065E+003    6.74601E+003    6.09994E+004   -4.96780E+003    1.33491E+005   -4.84586E+002
            7785    2.43346E+005    1.82521E+005    1.82521E+005    3.04847E+003   -9.44566E+004    2.76978E+005   -3.03710E+004    1.91343E+005    1.57140E+004    3.22280E+003    7.21763E+004   -2.05252E+003    1.35402E+005   -7.17134E+003
            7786    2.46084E+005    2.18541E+005    2.18541E+005    3.29790E+004   -6.06066E+004    2.79148E+005   -6.36378E+004    1.99714E+005    4.69624E+004    3.19942E+004    1.11957E+005   -5.85950E+002    1.29792E+005   -3.91473E+004
            7787    2.76073E+005    2.43767E+005    2.43767E+005    3.58593E+004   -6.94645E+004    3.13231E+005   -7.00538E+004    2.23658E+005    4.63026E+004    3.95485E+004    1.24310E+005   -1.29504E+004    1.49461E+005   -2.60743E+004
            7788    2.72174E+005    2.36470E+005    2.36470E+005    5.47517E+004   -7.64525E+004    3.12923E+005   -7.15898E+004    1.77036E+005    5.25892E+004    5.62887E+004    1.05891E+005   -1.88762E+003    1.45901E+005   -5.01624E+004
            7789    2.96504E+005    2.83779E+005    2.83779E+005    7.74933E+004   -5.60054E+004    3.39784E+005   -1.01756E+005    2.11088E+005    7.61082E+004    7.94772E+004    1.49681E+005   -3.25399E+003    1.59363E+005   -4.66080E+004
            7790    3.35333E+005    3.39051E+005    3.39051E+005    9.76390E+004   -4.38348E+004    3.82886E+005   -1.30952E+005    2.53849E+005    9.91935E+004    1.01374E+005    1.92288E+005   -6.95479E+003    1.78834E+005   -5.12850E+004
            7791    3.82941E+005    4.10277E+005    4.10277E+005    1.26159E+005   -2.52135E+004    4.35490E+005   -1.70407E+005    3.03766E+005    1.30759E+005    1.29281E+005    2.51182E+005   -7.62451E+003    2.04297E+005   -4.68190E+004
            7792    4.34551E+005    4.79898E+005    4.79898E+005    1.52845E+005   -1.31910E+004    4.93089E+005   -2.06517E+005    3.51750E+005    1.59589E+005    1.55410E+005    3.04554E+005   -7.96044E+003    2.32065E+005   -4.25956E+004
            7793    3.14462E+005    2.89968E+005    2.89968E+005    5.55813E+004   -6.73983E+004    3.57367E+005   -9.27171E+004    2.51108E+005    6.41460E+004    6.10830E+004    1.52922E+005   -2.74775E+004    1.69892E+005   -2.49605E+004
            7794    3.72526E+005    3.70010E+005    3.70010E+005    8.52444E+004   -5.15813E+004    4.21591E+005   -1.34558E+005    3.07855E+005    9.84724E+004    9.00631E+004    2.15137E+005   -3.36208E+004    1.99006E+005   -2.52450E+004
            7795    4.27733E+005    4.41496E+005    4.41496E+005    1.13463E+005   -4.22881E+004    4.83784E+005   -1.70890E+005    3.54958E+005    1.28699E+005    1.16832E+005    2.67139E+005   -3.54714E+004    2.28527E+005   -2.27825E+004
            7796    4.87884E+005    5.21138E+005    5.21138E+005    1.43511E+005   -2.97237E+004    5.50862E+005   -2.11642E+005    4.09578E+005    1.62011E+005    1.45931E+005    3.26984E+005   -3.36280E+004    2.60230E+005   -2.12236E+004
            7797    5.43807E+005    5.39686E+005    5.39686E+005    1.42313E+005   -8.00674E+004    6.19753E+005   -2.00644E+005    4.21614E+005    1.58107E+005    1.20343E+005    3.23482E+005   -8.32122E+004    2.82651E+005    9.28063E+003
            7798    4.76583E+005    4.60262E+005    4.60262E+005    1.10358E+005   -8.25308E+004    5.42793E+005   -1.62697E+005    3.72194E+005    1.27378E+005    8.41178E+004    2.76593E+005   -8.96532E+004    2.39730E+005    2.26940E+003
            7799    4.11741E+005    3.83896E+005    3.83896E+005    7.85580E+004   -8.43793E+004    4.68275E+005   -1.26025E+005    3.26382E+005    9.73661E+004    5.11861E+004    2.29522E+005   -8.47639E+004    2.01882E+005   -1.36854E+003
            7800    3.55927E+005    3.20154E+005    3.20154E+005    4.88502E+004   -8.28546E+004    4.03008E+005   -9.53831E+004    2.93052E+005    7.17635E+004    2.80976E+004    1.86288E+005   -7.63896E+004    1.72117E+005   -9.68688E+003
            7801    1.02262E+005    7.99826E+004    7.99826E+004   -2.66235E+003   -3.43795E+004    1.14362E+005   -1.43136E+004    9.01568E+004    2.28278E+003   -2.27128E+003    4.29293E+004   -7.06317E+003    5.28782E+004   -4.52637E+003
            7802    9.56460E+004    7.26822E+004    7.26822E+004   -9.16937E+003   -3.24572E+004    1.05139E+005   -1.03519E+004    8.89254E+004    2.13817E+003   -6.32100E+003    3.52385E+004   -2.03137E+004    4.43613E+004   -1.36537E+004
            7803    1.05820E+005    7.80170E+004    7.80170E+004   -6.25952E+003   -4.07442E+004    1.18761E+005   -1.03378E+004    9.18399E+004    6.74620E+003   -9.35250E+003    3.36196E+004   -3.85500E+004    3.37769E+004   -2.51863E+004
            7804    7.64189E+004    6.27296E+004    6.27296E+004    1.22294E+003   -2.28193E+004    8.55489E+004   -1.37111E+004    6.70834E+004    6.90412E+003    1.88400E+003    3.23451E+004   -3.85131E+003    4.04923E+004   -5.04383E+003
            7805    7.07550E+004    5.80126E+004    5.80126E+004   -4.88666E+003   -1.85927E+004    7.66053E+004   -1.15111E+004    6.76709E+004    6.93039E+003    1.32316E+003    2.62796E+004   -1.17585E+004    3.38205E+004   -1.46707E+004
            7806    7.12328E+004    5.50835E+004    5.50835E+004   -9.64949E+003   -2.12299E+004    7.63135E+004   -8.06804E+003    6.90672E+004    5.96776E+003   -2.24454E+003    2.04809E+004   -2.19606E+004    2.27146E+004   -2.36797E+004
            7807    5.65108E+004    3.48179E+004    3.48179E+004   -2.44643E+003   -3.02039E+004    6.50218E+004   -7.22521E+002    3.55979E+004   -2.32765E+003   -1.98956E+003    6.48478E+003   -1.48009E+003    3.17949E+004   -5.14332E+003
            7808    5.25246E+004    3.27002E+004    3.27002E+004   -5.74209E+003   -2.71470E+004    5.98472E+004    6.29600E+001    4.08230E+004   -2.40655E+003   -2.70176E+003    4.91943E+003   -3.75212E+003    2.61418E+004   -1.42654E+004
            7809    4.92148E+004    3.35350E+004    3.35350E+004   -6.20869E+003   -2.15140E+004    5.50490E+004   -1.93743E+003    4.33547E+004    8.51901E+002   -7.36424E+002    5.69682E+003   -6.85064E+003    1.66056E+004   -2.17591E+004
            7810    4.48653E+005    4.98247E+005    4.98247E+005    1.59214E+005   -1.05075E+004    5.08754E+005   -2.15651E+005    3.65168E+005    1.66869E+005    1.61576E+005    3.18507E+005    8.03320E+003    2.39702E+005    4.04143E+004
            7811    5.02416E+005    5.37467E+005    5.37467E+005    1.48541E+005   -2.97886E+004    5.67255E+005   -2.18740E+005    4.21845E+005    1.67948E+005    1.50474E+005    3.37797E+005    3.35259E+004    2.68190E+005    1.95782E+004
            7812    5.52282E+005    5.50557E+005    5.50557E+005    1.45886E+005   -7.86237E+004    6.29180E+005   -2.05940E+005    4.29994E+005    1.62555E+005    1.24521E+005    3.30743E+005    8.23429E+004    2.87678E+005   -9.44402E+003
            7813    4.96558E+005    5.61367E+005    5.61367E+005    1.83002E+005   -9.10485E+002    5.62277E+005   -2.47819E+005    4.08650E+005    1.92308E+005    1.84283E+005    3.66867E+005    6.47558E+003    2.65669E+005    3.03697E+004
            7814    5.56316E+005    6.09046E+005    6.09046E+005    1.76974E+005   -1.86610E+004    6.27707E+005   -2.55786E+005    4.68987E+005    1.97916E+005    1.77935E+005    3.91508E+005    2.53460E+004    2.97298E+005    1.48006E+004
            7815    6.11427E+005    6.25034E+005    6.25034E+005    1.77040E+005   -7.15296E+004    6.96564E+005   -2.43515E+005    4.76021E+005    1.92790E+005    1.64762E+005    3.72992E+005    6.37325E+004    3.28098E+005   -1.16142E+004
            7816    5.30836E+005    6.06449E+005    6.06449E+005    2.00407E+005    5.76788E+003    6.00681E+005   -2.70875E+005    4.39047E+005    2.10395E+005    2.00722E+005    4.01507E+005    3.40983E+003    2.84366E+005    1.51970E+004
            7817    5.93551E+005    6.58002E+005    6.58002E+005    1.96511E+005   -1.15733E+004    6.69576E+005   -2.80980E+005    5.01034E+005    2.18130E+005    1.96751E+005    4.28058E+005    1.28761E+004    3.17602E+005    7.66199E+003
            7818    6.54123E+005    6.81467E+005    6.81467E+005    2.01221E+005   -6.35313E+004    7.44999E+005   -2.73053E+005    5.10834E+005    2.16422E+005    1.97822E+005    4.04913E+005    3.44133E+004    3.58132E+005   -7.44145E+003
            7819    5.41176E+005    6.19797E+005    6.19797E+005    2.05273E+005    7.56771E+003    6.12229E+005   -2.77546E+005    4.48395E+005    2.15625E+005    2.05279E+005    4.11734E+005   -5.71989E+002    2.89981E+005   -1.71261E+003
            7820    6.04979E+005    6.73161E+005    6.73161E+005    2.02629E+005   -9.26209E+003    6.82423E+005   -2.88843E+005    5.10885E+005    2.24428E+005    2.02630E+005    4.39470E+005   -1.74462E+003    3.23823E+005   -6.89436E+002
            7821    6.70043E+005    7.02112E+005    7.02112E+005    2.09939E+005   -6.09670E+004    7.63079E+005   -2.83695E+005    5.23654E+005    2.24882E+005    2.09936E+005    4.16266E+005   -1.32734E+003    3.69342E+005   -3.65979E+001
            7822    5.24181E+005    5.97806E+005    5.97806E+005    1.97092E+005    4.59195E+003    5.93214E+005   -2.66497E+005    4.33212E+005    2.06941E+005    1.97587E+005    3.94962E+005   -4.21214E+003    2.80725E+005   -1.90950E+004
            7823    5.86465E+005    6.49363E+005    6.49363E+005    1.93089E+005   -1.21350E+004    6.61498E+005   -2.76772E+005    4.95436E+005    2.14745E+005    1.93399E+005    4.22173E+005   -1.62621E+004    3.13580E+005   -8.94834E+003
            7824    6.51296E+005    6.77578E+005    6.77578E+005    1.99649E+005   -6.42531E+004    7.41831E+005   -2.70991E+005    5.08235E+005    2.14720E+005    1.95749E+005    4.02506E+005   -3.69448E+004    3.56241E+005    7.79732E+003
            7825    4.84949E+005    5.46889E+005    5.46889E+005    1.77835E+005   -2.36318E+003    5.49252E+005   -2.40787E+005    3.98438E+005    1.86675E+005    1.79383E+005    3.56304E+005   -7.10908E+003    2.59346E+005   -3.25455E+004
            7826    5.43268E+005    5.92901E+005    5.92901E+005    1.71023E+005   -2.01013E+004    6.13002E+005   -2.47941E+005    4.57907E+005    1.91588E+005    1.72244E+005    3.79991E+005   -2.69706E+004    2.90200E+005   -1.62904E+004
            7827    6.06029E+005    6.18937E+005    6.18937E+005    1.74618E+005   -7.14172E+004    6.90355E+005   -2.40713E+005    4.72275E+005    1.90505E+005    1.62037E+005    3.69597E+005   -6.54840E+004    3.24597E+005    1.05567E+004
            7828    1.05727E+005    4.06909E+004   -7.79566E+004    6.27056E+003   -7.79566E+004    1.18648E+005    1.03317E+004   -9.17889E+004   -6.73729E+003    9.32817E+003   -3.35860E+004    3.85115E+004    3.37109E+004   -2.52266E+004
            7829    9.54410E+004    3.23794E+004   -7.25234E+004    9.17747E+003   -7.25234E+004    1.04903E+005    1.03222E+004   -8.87567E+004   -2.10984E+003    6.32082E+003   -3.51775E+004    2.01826E+004    4.43026E+004   -1.36075E+004
            7830    1.01719E+005    3.42609E+004   -7.95007E+004    2.68981E+003   -7.95007E+004    1.13762E+005    1.41833E+004   -8.96603E+004   -2.23458E+003    2.29633E+003   -4.26118E+004    7.02249E+003    5.26117E+004   -4.51438E+003
            7831    7.09848E+004    2.10929E+004   -5.49104E+004    9.67060E+003   -5.49104E+004    7.60033E+004    8.04896E+003   -6.88716E+004   -5.94653E+003    2.20261E+003   -2.04030E+004    2.18207E+004    2.26508E+004   -2.36505E+004
            7832    7.08587E+004    1.86343E+004   -5.80992E+004    4.86305E+003   -5.80992E+004    7.67334E+004    1.15340E+004   -6.77490E+004   -6.95415E+003   -1.31104E+003   -2.63367E+004    1.17688E+004    3.38980E+004   -1.46207E+004
            7833    7.62335E+004    2.27975E+004   -6.25630E+004   -1.26153E+003   -6.25630E+004    8.53604E+004    1.36757E+004   -6.68559E+004   -6.90626E+003   -1.91973E+003   -3.22010E+004    3.82182E+003    4.04182E+004   -5.03417E+003
            7834    4.90838E+004    2.16260E+004   -3.33483E+004    6.07970E+003   -3.33483E+004    5.49744E+004    1.88086E+003   -4.29976E+004   -7.94704E+002    7.43732E+002   -5.59161E+003    6.66919E+003    1.65761E+004   -2.17465E+004
            7835    5.26418E+004    2.71027E+004   -3.28426E+004    5.85231E+003   -3.28426E+004    5.99453E+004   -3.74891E+001   -4.11849E+004    2.40085E+003    2.72880E+003   -5.01718E+003    3.86489E+003    2.61840E+004   -1.42825E+004
            7836    5.64862E+004    3.02325E+004   -3.47629E+004    2.46640E+003   -3.47629E+004    6.49954E+004    6.88014E+002   -3.55340E+004    2.35371E+003    2.00579E+003   -6.42354E+003    1.49573E+003    3.17854E+004   -5.12959E+003
            7837    2.41083E+005    1.71754E+005    1.71754E+005    5.85642E+003   -1.04791E+005    2.76545E+005   -2.42730E+004    1.67891E+005    9.86872E+003    5.93745E+003    5.70127E+004    1.57385E+003    1.36191E+005    3.90541E+003
            7838    2.35311E+005    1.66290E+005    1.66290E+005    1.02206E+003   -1.03122E+005    2.69412E+005   -2.13965E+004    1.70570E+005    1.34170E+003    8.00721E+002    6.20472E+004    4.33653E+003    1.31124E+005   -2.33186E+003
            7839    2.08736E+005    1.48252E+005    1.48252E+005    1.05770E+003   -9.06368E+004    2.38888E+005   -1.95575E+004    1.52431E+005   -9.33141E+000    6.43947E+002    5.80379E+004    6.11989E+003    1.15627E+005   -2.42291E+003
            7840    1.83831E+005    1.38865E+005    1.38865E+005    1.72475E+002   -6.96468E+004    2.08512E+005   -2.31303E+004    1.49299E+005    2.88226E+003   -3.73284E+002    6.68818E+004    6.54939E+003    9.88942E+004   -1.82831E+003
            7841    1.40856E+005    1.08778E+005    1.08778E+005   -6.94420E+002   -5.01326E+004    1.58911E+005   -1.93170E+004    1.18842E+005    2.09606E+003   -9.03996E+002    5.67588E+004    5.99089E+003    7.43156E+004    1.05714E+003
            7842    2.57217E+005    2.04143E+005    2.04143E+005    1.12016E+004   -8.78804E+004    2.92024E+005   -4.24881E+004    2.07245E+005    2.42396E+004    1.16424E+004    9.15823E+004    9.44575E+003    1.41708E+005    5.98776E+003
            7843    2.40792E+005    1.89031E+005    1.89031E+005    1.19815E+004   -8.51573E+004    2.74189E+005   -3.86185E+004    1.88472E+005    1.63717E+004    1.01962E+004    8.92875E+004    1.59302E+004    1.30889E+005   -2.47799E+003
            7844    2.09689E+005    1.55530E+005    1.55530E+005    6.86695E+002   -8.30967E+004    2.38627E+005   -2.43734E+004    1.65186E+005    6.43968E+003   -4.42333E+003    7.11038E+004    2.08416E+004    1.11851E+005   -6.65283E+003
            7845    1.79255E+005    1.38275E+005    1.38275E+005    3.40557E+003   -6.51385E+004    2.03413E+005   -2.55140E+004    1.45036E+005    7.65613E+003   -8.80207E+002    6.97660E+004    2.14630E+004    9.36014E+004   -1.43392E+003
            7846    1.36054E+005    1.02325E+005    1.02325E+005   -4.53716E+003   -5.08357E+004    1.53161E+005   -1.56508E+004    1.16238E+005    1.44802E+003   -6.88943E+003    5.23937E+004    1.82376E+004    6.92554E+004    3.37408E+003
            7847    2.80076E+005    2.41581E+005    2.41581E+005    2.94505E+004   -7.58918E+004    3.17473E+005   -6.50466E+004    2.28665E+005    4.19216E+004    3.18792E+004    1.21339E+005    2.33212E+004    1.51585E+005    1.49630E+004
            7848    2.59544E+005    2.12929E+005    2.12929E+005    1.82221E+004   -8.17311E+004    2.94660E+005   -4.98066E+004    2.09150E+005    2.58316E+004    1.13068E+004    1.12281E+005    3.40264E+004    1.35331E+005   -1.38818E+003
            7849    2.16685E+005    1.68253E+005    1.68253E+005    5.73689E+003   -7.77586E+004    2.46012E+005   -3.20771E+004    1.74555E+005    1.47879E+004   -4.93886E+003    8.63824E+004    3.91307E+004    1.08674E+005    6.11286E+002
            7850    1.82517E+005    1.40844E+005    1.40844E+005    3.16671E+003   -6.61836E+004    2.07028E+005   -2.59423E+004    1.48196E+005    1.02853E+004   -7.69357E+003    7.52352E+004    3.65122E+004    8.86651E+004    2.52001E+003
            7851    1.34040E+005    1.00817E+005    1.00817E+005   -4.23712E+003   -5.01448E+004    1.50962E+005   -1.54784E+004    1.14231E+005    3.37800E+003   -8.92864E+003    5.19859E+004    3.05168E+004    6.26775E+004    9.57686E+003
            7852    3.22879E+005    2.87852E+005    2.87852E+005    4.10746E+004   -7.75622E+004    3.65415E+005   -8.37883E+004    2.66776E+005    5.87983E+004    3.80866E+004    1.54480E+005    5.05358E+004    1.67874E+005    1.26271E+004
            7853    2.88620E+005    2.44385E+005    2.44385E+005    2.32300E+004   -8.21066E+004    3.26492E+005   -6.18363E+004    2.39251E+005    3.95045E+004    6.31529E+003    1.39689E+005    6.26931E+004    1.37538E+005    9.94061E+003
            7854    2.32292E+005    1.79189E+005    1.79189E+005    7.72178E+003   -8.51743E+004    2.64364E+005   -3.39122E+004    1.82885E+005    2.09448E+004   -1.50595E+004    9.58514E+004    6.13387E+004    1.04641E+005    8.54151E+003
            7855    1.91888E+005    1.48747E+005    1.48747E+005    5.91420E+003   -6.93672E+004    2.18114E+005   -2.84312E+004    1.52932E+005    1.67297E+004   -1.40027E+004    8.25664E+004    5.44303E+004    8.19818E+004    1.24858E+004
            7856    1.38817E+005    1.00005E+005    1.00005E+005   -5.15002E+003   -5.73442E+004    1.57349E+005   -1.25036E+004    1.13356E+005    4.83883E+003   -1.75594E+004    5.02314E+004    4.38610E+004    5.51872E+004    1.61574E+004
            7857    1.65460E+005    1.17333E+005    1.17333E+005    1.11828E+003   -7.21048E+004    1.89437E+005   -1.54487E+004    1.19947E+005    1.11098E+004   -2.30967E+004    5.83329E+004    6.32443E+004    5.10424E+004    2.91319E+004
            7858    2.24235E+005    1.64193E+005    1.64193E+005    8.36174E+003   -9.28004E+004    2.56993E+005   -2.65847E+004    1.59288E+005    1.97181E+004   -2.96384E+004    8.96744E+004    8.01848E+004    7.74115E+004    2.72771E+004
            7859    2.77877E+005    2.15895E+005    2.15895E+005    2.09229E+004   -1.02282E+005    3.18178E+005   -4.48454E+004    2.01057E+005    3.45724E+004   -2.45396E+004    1.24503E+005    9.22344E+004    1.05171E+005    2.31920E+004
            7860    3.27156E+005    2.68708E+005    2.68708E+005    3.27240E+004   -1.04754E+005    3.73462E+005   -6.55591E+004    2.48453E+005    4.90493E+004   -1.03066E+004    1.57934E+005    9.76430E+004    1.36095E+005    1.84472E+004
            7861    3.82317E+005    3.37041E+005    3.37041E+005    5.08062E+004   -9.71411E+004    4.34182E+005   -9.69019E+004    3.07221E+005    7.42769E+004    1.74639E+004    1.98965E+005    9.43389E+004    1.76227E+005    1.21048E+004
            7862    4.27145E+005    3.98797E+005    3.98797E+005    7.97132E+004   -8.64635E+004    4.85260E+005   -1.30682E+005    3.42166E+005    1.01178E+005    5.13465E+004    2.39522E+005    8.91548E+004    2.08206E+005    3.72141E+003
            7863    4.87267E+005    4.70565E+005    4.70565E+005    1.12680E+005   -8.43672E+004    5.54932E+005   -1.66293E+005    3.80758E+005    1.30483E+005    8.51922E+004    2.83203E+005    8.93462E+004    2.45708E+005   -4.88351E+003
            7864    4.44515E+005    4.61477E+005    4.61477E+005    1.18475E+005   -4.07142E+004    5.02191E+005   -1.79746E+005    3.71750E+005    1.35968E+005    1.21568E+005    2.81701E+005    3.74707E+004    2.36849E+005    2.26991E+004
            7865    3.97073E+005    4.26578E+005    4.26578E+005    1.31112E+005   -2.47862E+004    4.51365E+005   -1.77635E+005    3.16313E+005    1.36633E+005    1.34537E+005    2.61734E+005    8.56957E+003    2.11883E+005    4.77731E+004
            7866    3.84961E+005    3.80974E+005    3.80974E+005    8.65613E+004   -5.46524E+004    4.35626E+005   -1.37628E+005    3.18329E+005    1.01242E+005    9.10215E+004    2.20619E+005    3.76048E+004    2.05413E+005    2.44526E+004
            7867    3.49585E+005    3.59978E+005    3.59978E+005    1.07094E+005   -3.89462E+004    3.98924E+005   -1.42709E+005    2.66729E+005    1.08626E+005    1.10476E+005    2.09024E+005    6.92443E+003    1.87108E+005    4.87865E+004
            7868    3.15398E+005    3.05212E+005    3.05212E+005    8.23862E+004   -5.56751E+004    3.60887E+005   -1.10641E+005    2.31107E+005    8.30455E+004    8.55312E+004    1.63347E+005    5.62851E+003    1.69134E+005    4.93544E+004
            7869    2.83750E+005    2.59569E+005    2.59569E+005    6.23882E+004   -6.56357E+004    3.25204E+005   -8.54403E+004    2.01544E+005    6.39386E+004    6.44368E+004    1.27946E+005    3.62636E+003    1.52590E+005    4.67546E+004
            7870    2.61417E+005    2.22963E+005    2.22963E+005    4.91878E+004   -7.76784E+004    3.00641E+005   -6.48241E+004    1.68181E+005    4.86096E+004    4.97501E+004    9.61127E+004    6.61672E+002    1.39368E+005    5.11970E+004
            7871    2.42905E+005    2.20991E+005    2.20991E+005    3.29088E+004   -5.32489E+004    2.74240E+005   -6.68835E+004    2.04013E+005    5.05731E+004    3.08513E+004    1.19226E+005   -4.25895E+001    1.25973E+005    4.05734E+004
            7872    3.29357E+005    3.14055E+005    3.14055E+005    6.74081E+004   -5.99682E+004    3.74023E+005   -1.07165E+005    2.64758E+005    7.56812E+004    7.27493E+004    1.73064E+005    2.68997E+004    1.77524E+005    2.57134E+004
            7873    2.84266E+005    2.53551E+005    2.53551E+005    5.01010E+004   -7.12509E+004    3.24802E+005   -7.74670E+004    2.13080E+005    5.23078E+004    5.44141E+004    1.25679E+005    1.26667E+004    1.55370E+005    2.98498E+004
            7874    2.66912E+005    2.30684E+005    2.30684E+005    3.15671E+004   -7.26061E+004    3.03290E+005   -6.32148E+004    2.13399E+005    4.22770E+004    3.26748E+004    1.14693E+005    3.64918E+003    1.43618E+005    3.31248E+004
            7875    2.40461E+005    1.83123E+005    1.83123E+005    1.52319E+003   -8.95761E+004    2.72699E+005   -3.16901E+004    1.95558E+005    1.86712E+004    1.42977E+003    7.49695E+004    8.56590E+001    1.33010E+005    1.01476E+004
            7876    2.37674E+005    1.02263E+005   -1.70365E+005   -6.76729E+003   -1.70365E+005    2.72628E+005    2.49566E+004   -1.65614E+005   -7.16929E+003   -6.72939E+003   -6.09711E+004    4.94388E+003    1.33537E+005   -4.92281E+002
            7877    2.18129E+005    8.98917E+004   -1.59013E+005   -1.16787E+003   -1.59013E+005    2.48905E+005    2.34297E+004   -1.66522E+005   -1.96251E+003    1.18606E+002   -6.84451E+004    9.81442E+003    1.19238E+005    5.00821E+003
            7878    1.79223E+005    6.99547E+004   -1.33346E+005    1.80593E+003   -1.33346E+005    2.03301E+005    2.05285E+004   -1.45463E+005   -2.08467E+003    2.88234E+003   -6.23831E+004    1.12384E+004    9.62292E+004    7.34862E+002
            7879    1.43802E+005    4.57252E+004   -1.15713E+005   -1.34223E+003   -1.15713E+005    1.61438E+005    2.37766E+004   -1.24617E+005   -6.39386E+003   -8.99591E+002   -6.40363E+004    9.11889E+003    7.47138E+004   -2.13234E+003
            7880    2.59662E+005    8.45717E+004   -2.10132E+005   -1.49622E+004   -2.10132E+005    2.94704E+005    4.68409E+004   -2.09803E+005   -2.68548E+004   -1.08485E+004   -1.02819E+005    2.74425E+004    1.38946E+005    1.17233E+003
            7881    2.21155E+005    7.74322E+004   -1.73560E+005   -7.30182E+003   -1.73560E+005    2.50992E+005    3.44765E+004   -1.78736E+005   -1.55339E+004    3.55367E+003   -9.14494E+004    3.64744E+004    1.11551E+005    1.91494E+003
            7882    1.71884E+005    6.75286E+004   -1.27387E+005    2.47508E+003   -1.27387E+005    1.94916E+005    1.91279E+004   -1.39863E+005   -6.17096E+003    1.22165E+004   -6.34291E+004    3.43213E+004    8.43076E+004   -2.41807E+003
            7883    1.35824E+005    4.49195E+004   -1.07364E+005    1.26660E+003   -1.07364E+005    1.52283E+005    2.03926E+004   -1.18426E+005   -8.14738E+003    4.52282E+003   -5.75531E+004    2.80133E+004    6.47673E+004   -9.69707E+003
            7884    1.52897E+005    6.30023E+004   -1.11118E+005    1.22145E+003   -1.11118E+005    1.74120E+005    1.56314E+004   -1.19542E+005   -1.01867E+004    1.82521E+004   -5.49597E+004    5.54113E+004    5.24373E+004   -2.47016E+004
            7885    2.02207E+005    8.18131E+004   -1.49179E+005   -4.19541E+003   -1.49179E+005    2.30992E+005    2.38539E+004   -1.52039E+005   -1.67400E+004    2.37743E+004   -7.85959E+004    6.93894E+004    7.52475E+004   -2.22322E+004
            7886    2.51781E+005    9.27729E+004   -1.94599E+005   -1.27425E+004   -1.94599E+005    2.87372E+005    3.81894E+004   -1.91628E+005   -2.63703E+004    2.04502E+004   -1.08648E+005    7.80017E+004    1.02267E+005   -1.78055E+004
            7887    3.11485E+005    9.14480E+004   -2.61089E+005   -2.30897E+004   -2.61089E+005    3.52537E+005    6.42437E+004   -2.57264E+005   -4.64359E+004    2.49430E+003   -1.48790E+005    7.93774E+004    1.40754E+005   -1.64020E+004
            7888    3.55482E+005    8.30000E+004   -3.19528E+005   -4.86550E+004   -3.19528E+005    4.02528E+005    9.50611E+004   -2.92557E+005   -7.15472E+004   -2.77381E+004   -1.85898E+005    7.65344E+004    1.71764E+005   -9.68602E+003
            7889    4.12276E+005    8.46086E+004   -3.84307E+005   -7.87155E+004   -3.84307E+005    4.68916E+005    1.26138E+005   -3.26584E+005   -9.74829E+004   -5.12071E+004   -2.29724E+005    8.50684E+004    2.02079E+005   -1.38054E+003
            7890    4.77279E+005    8.26018E+004   -4.60979E+005   -1.10538E+005   -4.60979E+005    5.43580E+005    1.62972E+005   -3.72778E+005   -1.27607E+005   -8.43031E+004   -2.77004E+005    8.96006E+004    2.40160E+005    2.37121E+003
            7891    5.43691E+005    7.99006E+004   -5.39671E+005   -1.42143E+005   -5.39671E+005    6.19571E+005    2.00638E+005   -4.21918E+005   -1.58094E+005   -1.20274E+005   -3.23545E+005    8.30956E+004    2.82591E+005    9.13942E+003
            7892    4.87902E+005    2.98391E+004   -5.21080E+005   -1.43566E+005   -5.21080E+005    5.50919E+005    2.11602E+005   -4.09423E+005   -1.61996E+005   -1.45966E+005   -3.26844E+005    3.38035E+004    2.60259E+005   -2.11509E+004
            7893    4.34260E+005    1.33321E+004   -4.79412E+005   -1.52516E+005   -4.79412E+005    4.92745E+005    2.06199E+005   -3.51606E+005   -1.59329E+005   -1.55149E+005   -3.04118E+005    8.15281E+003    2.31898E+005   -4.26868E+004
            7894    4.27506E+005    4.23595E+004   -4.41139E+005   -1.13175E+005   -4.41139E+005    4.83499E+005    1.70652E+005   -3.54915E+005   -1.28534E+005   -1.16526E+005   -2.66895E+005    3.57213E+004    2.28352E+005   -2.27350E+004
            7895    3.83305E+005    2.52193E+004   -4.10665E+005   -1.26192E+005   -4.10665E+005    4.35884E+005    1.70546E+005   -3.04188E+005   -1.30861E+005   -1.29362E+005   -2.51414E+005    7.76017E+003    2.04500E+005   -4.67806E+004
            7896    3.72502E+005    5.16537E+004   -3.69849E+005   -8.48711E+004   -3.69849E+005    4.21503E+005    1.34355E+005   -3.08157E+005   -9.83173E+004   -8.96799E+004   -2.15069E+005    3.38054E+004    1.98920E+005   -2.52213E+004
            7897    3.36233E+005    4.35253E+004   -3.40349E+005   -9.80808E+004   -3.40349E+005    3.83874E+005    1.31635E+005   -2.54891E+005   -9.97339E+004   -1.01827E+005   -1.93343E+005    7.01918E+003    1.79320E+005   -5.12090E+004
            7898    3.14629E+005    6.74219E+004   -2.90131E+005   -5.56020E+004   -2.90131E+005    3.57553E+005    9.27704E+004   -2.51268E+005   -6.41800E+004   -6.10828E+004   -1.53048E+005    2.74771E+004    1.69983E+005   -2.49083E+004
            7899    2.97004E+005    5.58740E+004   -2.84449E+005   -7.75921E+004   -2.84449E+005    3.40323E+005    1.02056E+005   -2.11889E+005   -7.63559E+004   -7.96239E+004   -1.50187E+005    3.36224E+003    1.59611E+005   -4.66530E+004
            7900    2.72405E+005    7.64381E+004   -2.36749E+005   -5.48601E+004   -2.36749E+005    3.13188E+005    7.17238E+004   -1.77225E+005   -5.26984E+004   -5.63747E+004   -1.06098E+005    1.85220E+003    1.46005E+005   -5.02423E+004
            7901    2.46127E+005    6.05663E+004   -2.18632E+005   -3.30439E+004   -2.18632E+005    2.79198E+005    6.37031E+004   -1.99739E+005   -4.70390E+004   -3.20876E+004   -1.11983E+005    6.43269E+002    1.29794E+005   -3.92659E+004
            7902    2.76219E+005    6.94811E+004   -2.43904E+005   -3.58404E+004   -2.43904E+005    3.13385E+005    7.00879E+004   -2.23845E+005   -4.63351E+004   -3.95456E+004   -1.24383E+005    1.30090E+004    1.49531E+005   -2.60982E+004
            7903    2.43322E+005    9.43119E+004   -1.82637E+005   -3.17605E+003   -1.82637E+005    2.76949E+005    3.05005E+004   -1.91334E+005   -1.58521E+004   -3.35063E+003   -7.22988E+004    2.02821E+003    1.35383E+005   -7.29369E+003
            7904    1.14406E+005    8.27317E+004    8.27317E+004   -4.41998E+003   -4.68218E+004    1.29554E+005   -1.04967E+004    9.41201E+004    8.39867E+003   -1.19506E+004    3.50419E+004    4.38543E+004    3.31795E+004    2.79902E+004
            7905    1.02622E+005    8.21718E+004    8.21718E+004   -5.47807E+003   -3.07145E+004    1.12886E+005   -1.53264E+004    9.52581E+004    1.05380E+004   -4.52126E+003    3.99625E+004    3.06817E+004    4.06659E+004    2.00867E+004
            7906    1.02029E+005    8.20134E+004    8.20134E+004   -5.02683E+003   -3.02664E+004    1.12280E+005   -1.55734E+004    9.46149E+004    8.12856E+003   -3.12850E+003    4.17201E+004    2.16411E+004    4.77713E+004    1.32333E+004
            7907    1.04076E+005    8.50890E+004    8.50890E+004    8.77993E+001   -3.09833E+004    1.16072E+005   -1.80645E+004    9.27469E+004    8.04179E+003    1.21762E+003    4.49341E+004    1.32634E+004    5.30906E+004    7.93230E+003
            7908    1.09327E+005    8.95903E+004    8.95903E+004    2.79890E+002   -3.23319E+004    1.21922E+005   -1.91794E+004    9.74486E+004    7.33429E+003    3.67936E+002    4.98360E+004    4.22360E+003    5.69498E+004    2.45567E+003
            7909    7.24709E+004    5.37829E+004    5.37829E+004   -8.39131E+003   -2.58099E+004    7.95928E+004   -6.52721E+003    6.75158E+004    4.22894E+003   -3.84676E+003    1.91995E+004    2.40769E+004    1.99738E+004    2.52048E+004
            7910    6.78359E+004    4.87579E+004    4.87579E+004   -1.63859E+004   -2.14825E+004    7.02404E+004   -3.62985E+003    6.74031E+004   -5.97373E+002   -5.82865E+003    1.73156E+004    1.76462E+004    2.60775E+004    1.98787E+004
            7911    6.90971E+004    5.11958E+004    5.11958E+004   -1.00532E+004   -2.37100E+004    7.49057E+004   -5.81086E+003    6.59573E+004   -4.46643E+002   -2.83702E+003    2.07162E+004    1.29865E+004    3.19693E+004    1.52554E+004
            7912    7.26061E+004    5.33226E+004    5.33226E+004   -6.56741E+003   -2.74311E+004    8.07538E+004   -6.44136E+003    6.53339E+004   -6.17090E+002   -3.97578E+003    2.39170E+004    7.95676E+003    3.70623E+004    9.40314E+003
            7913    7.56435E+004    5.71810E+004    5.71810E+004   -1.14781E+003   -2.82883E+004    8.54694E+004   -9.24830E+003    6.32068E+004    8.08723E+002   -8.29289E+002    2.77655E+004    2.77847E+003    4.03819E+004    3.32549E+003
            7914    4.93425E+004    3.41525E+004    3.41525E+004   -4.55614E+003   -2.14084E+004    5.55609E+004   -2.72934E+003    4.20965E+004    2.87061E+003   -2.30629E+002    5.54802E+003    7.62496E+003    1.46008E+004    2.30624E+004
            7915    5.10324E+004    3.86805E+004    3.86805E+004   -1.34181E+003   -1.87868E+004    5.74674E+004   -6.18396E+003    4.35230E+004    6.24023E+003    2.74054E+003    9.57111E+003    5.72126E+003    2.11897E+004    1.93572E+004
            7916    5.38967E+004    3.94971E+004    3.94971E+004   -1.32161E+003   -2.15969E+004    6.10939E+004   -5.52620E+003    4.39991E+004    5.38108E+003    1.07694E+003    1.01206E+004    4.02352E+003    2.67093E+004    1.47732E+004
            7917    5.65501E+004    4.12476E+004    4.12476E+004    1.87213E+003   -2.35522E+004    6.47998E+004   -6.52251E+003    4.03232E+004    5.35281E+003    3.13710E+003    1.10776E+004    2.60198E+003    3.08121E+004    9.64501E+003
            7918    5.91818E+004    4.23341E+004    4.23341E+004    6.81228E+002   -2.54099E+004    6.77440E+004   -5.86850E+003    4.30659E+004    4.48635E+003    8.01171E+002    1.23180E+004    7.95260E+002    3.34791E+004    3.37913E+003
            7919    5.52090E+005    7.88564E+004   -5.50123E+005   -1.45676E+005   -5.50123E+005    6.28979E+005    2.05648E+005   -4.29709E+005   -1.62316E+005   -1.24176E+005   -3.30451E+005   -8.25688E+004    2.87486E+005   -9.47137E+003
            7920    5.02927E+005    2.95077E+004   -5.38317E+005   -1.48970E+005   -5.38317E+005    5.67825E+005    2.19260E+005   -4.22308E+005   -1.68342E+005   -1.50940E+005   -3.38498E+005   -3.32440E+004    2.68476E+005    1.97053E+004
            7921    4.49705E+005    1.02775E+004   -4.99659E+005   -1.59791E+005   -4.99659E+005    5.09937E+005    2.16391E+005   -3.66083E+005   -1.67451E+005   -1.62121E+005   -3.19600E+005   -7.98579E+003    2.40282E+005    4.01991E+004
            7922    6.11715E+005    7.16525E+004   -6.25269E+005   -1.77205E+005   -6.25269E+005    6.96921E+005    2.43607E+005   -4.76015E+005   -1.92876E+005   -1.64915E+005   -3.73031E+005   -6.37839E+004    3.28282E+005   -1.16525E+004
            7923    5.56652E+005    1.85635E+004   -6.09477E+005   -1.76984E+005   -6.09477E+005    6.28040E+005    2.55966E+005   -4.69480E+005   -1.98062E+005   -1.77943E+005   -3.91893E+005   -2.52522E+004    2.97443E+005    1.47863E+004
            7924    4.97386E+005    7.51958E+002   -5.62453E+005   -1.83419E+005   -5.62453E+005    5.63205E+005    2.48373E+005   -4.09386E+005   -1.92744E+005   -1.84679E+005   -3.67697E+005   -6.43197E+003    2.66120E+005    3.01332E+004
            7925    6.54960E+005    6.37631E+004   -6.82197E+005   -2.01371E+005   -6.82197E+005    7.45960E+005    2.73268E+005   -5.11432E+005   -2.16589E+005   -1.98024E+005   -4.05191E+005   -3.41396E+004    3.58652E+005   -7.42100E+003
            7926    5.93728E+005    1.16315E+004   -6.58121E+005   -1.96412E+005   -6.58121E+005    6.69753E+005    2.80967E+005   -5.01290E+005   -2.18117E+005   -1.96641E+005   -4.28143E+005   -1.29007E+004    3.17679E+005    7.53850E+003
            7927    5.31118E+005   -5.81069E+003   -6.06800E+005   -2.00497E+005   -6.06800E+005    6.00990E+005    2.71036E+005   -4.39344E+005   -2.10521E+005   -2.00798E+005   -4.01789E+005   -3.32998E+003    2.84518E+005    1.48805E+004
            7928    6.69804E+005    6.09865E+004   -7.01842E+005   -2.09937E+005   -7.01842E+005    7.62828E+005    2.83597E+005   -5.23316E+005   -2.24829E+005   -2.09930E+005   -4.16033E+005    1.95651E+003    3.69232E+005    1.00033E+002
            7929    6.04852E+005    9.27384E+003   -6.72997E+005   -2.02533E+005   -6.72997E+005    6.82270E+005    2.88752E+005   -5.10818E+005   -2.24364E+005   -2.02535E+005   -4.39356E+005    1.75082E+003    3.23750E+005   -8.26636E+002
            7930    5.41033E+005   -7.59164E+003   -6.19661E+005   -2.05252E+005   -6.19661E+005    6.12070E+005    2.77502E+005   -4.48270E+005   -2.15587E+005   -2.05258E+005   -4.11659E+005    5.62617E+002    2.89901E+005   -1.97974E+003
            7931    6.50758E+005    6.43564E+004   -6.76875E+005   -1.99408E+005   -6.76875E+005    7.41232E+005    2.70642E+005   -5.07708E+005   -2.14439E+005   -1.95379E+005   -4.02108E+005    3.75097E+004    3.55863E+005    7.93061E+003
            7932    5.86482E+005    1.22330E+004   -6.49311E+005   -1.93116E+005   -6.49311E+005    6.61544E+005    2.76731E+005   -4.95330E+005   -2.14708E+005   -1.93435E+005   -4.22050E+005    1.61723E+004    3.13623E+005   -9.01486E+003
            7933    5.23525E+005   -4.53153E+003   -5.97011E+005   -1.96830E+005   -5.97011E+005    5.92480E+005    2.66124E+005   -4.32626E+005   -2.06657E+005   -1.97341E+005   -3.94375E+005    4.26747E+003    2.80367E+005   -1.94292E+004
            7934    6.05101E+005    7.12150E+004   -6.18066E+005   -1.74347E+005   -6.18066E+005    6.89281E+005    2.40399E+005   -4.71682E+005   -1.90246E+005   -1.61729E+005   -3.69223E+005    6.55721E+004    3.24021E+005    1.04959E+004
            7935    5.43656E+005    2.02140E+004   -5.93263E+005   -1.71215E+005   -5.93263E+005    6.13477E+005    2.48088E+005   -4.58061E+005   -1.91711E+005   -1.72409E+005   -3.80144E+005    2.70689E+004    2.90439E+005   -1.61574E+004
            7936    4.84194E+005    2.45599E+003   -5.45971E+005   -1.77607E+005   -5.45971E+005    5.48427E+005    2.40374E+005   -3.97655E+005   -1.86349E+005   -1.79137E+005   -3.55635E+005    6.97892E+003    2.58942E+005   -3.27282E+004
            7937    1.09605E+005    3.23877E+004   -8.98397E+004   -2.91343E+002   -8.98397E+004    1.22227E+005    1.92478E+004   -9.77083E+004   -7.37435E+003   -3.75573E+002   -4.99935E+004   -4.24788E+003    5.70892E+004    2.44099E+003
            7938    1.04082E+005    3.10023E+004   -8.50781E+004   -7.28079E+001   -8.50781E+004    1.16080E+005    1.80496E+004   -9.27513E+004   -8.03963E+003   -1.19332E+003   -4.49157E+004   -1.33373E+004    5.30766E+004    7.93531E+003
            7939    1.01896E+005    3.02212E+004   -8.18756E+004    5.13251E+003   -8.18756E+004    1.12097E+005    1.55073E+004   -9.45647E+004   -8.11196E+003    3.21221E+003   -4.16221E+004   -2.17385E+004    4.76113E+004    1.33409E+004
            7940    1.02544E+005    3.07023E+004   -8.20937E+004    5.49789E+003   -8.20937E+004    1.12796E+005    1.52978E+004   -9.51931E+004   -1.05414E+004    4.48460E+003   -3.98366E+004   -3.07975E+004    4.04734E+004    2.02592E+004
            7941    1.14279E+005    4.68527E+004   -8.25614E+004    4.47931E+003   -8.25614E+004    1.29414E+005    1.04098E+004   -9.39953E+004   -8.32648E+003    1.19952E+004   -3.48981E+004   -4.38278E+004    3.31108E+004    2.79833E+004
            7942    7.56848E+004    2.82768E+004   -5.72349E+004    1.14151E+003   -5.72349E+004    8.55117E+004    9.27217E+003   -6.32626E+004   -8.03400E+002    8.29960E+002   -2.78431E+004   -2.73558E+003    4.03944E+004    3.29795E+003
            7943    7.26803E+004    2.74545E+004   -5.34026E+004    6.49446E+003   -5.34026E+004    8.08571E+004    6.48454E+003   -6.53438E+004    6.00238E+002    3.93932E+003   -2.39932E+004   -7.86486E+003    3.71305E+004    9.35797E+003
            7944    6.91612E+004    2.37232E+004   -5.12818E+004    9.96839E+003   -5.12818E+004    7.50051E+004    5.86341E+003   -6.59777E+004    3.89408E+002    2.77823E+003   -2.07579E+004   -1.29673E+004    3.20408E+004    1.52266E+004
            7945    6.76791E+004    2.14255E+004   -4.86175E+004    1.64196E+004   -4.86175E+004    7.00430E+004    3.59079E+003   -6.72607E+004    6.01796E+002    5.82260E+003   -1.71968E+004   -1.76481E+004    2.59224E+004    1.99433E+004
            7946    7.25285E+004    2.59268E+004   -5.37983E+004    8.27467E+003   -5.37983E+004    7.97252E+004    6.53228E+003   -6.74365E+004   -4.24450E+003    3.82081E+003   -1.91731E+004   -2.41665E+004    1.98499E+004    2.52847E+004
            7947    5.92324E+004    2.53970E+004   -4.23990E+004   -6.74808E+002   -4.23990E+004    6.77961E+004    5.89227E+003   -4.31706E+004   -4.50079E+003   -7.95192E+002   -1.23808E+004   -8.01891E+002    3.35048E+004    3.35720E+003
            7948    5.65612E+004    2.35485E+004   -4.12613E+004   -1.86170E+003   -4.12613E+004    6.48099E+004    6.52483E+003   -4.03639E+004   -5.34980E+003   -3.12665E+003   -1.10981E+004   -2.61093E+003    3.08285E+004    9.60477E+003
            7949    5.38610E+004    2.16139E+004   -3.94460E+004    1.31972E+003   -3.94460E+004    6.10599E+004    5.50411E+003   -4.39324E+004   -5.35485E+003   -1.06394E+003   -1.00935E+004   -4.00112E+003    2.66740E+004    1.48018E+004
            7950    5.10701E+004    1.88712E+004   -3.86665E+004    1.29247E+003   -3.86665E+004    5.75377E+004    6.16761E+003   -4.34363E+004   -6.22137E+003   -2.74561E+003   -9.53585E+003   -5.66216E+003    2.12378E+004    1.93586E+004
            7951    4.94081E+004    2.13842E+004   -3.42263E+004    4.61389E+003   -3.42263E+004    5.56105E+004    2.74272E+003   -4.22538E+004   -2.88161E+003    2.45313E+002   -5.59185E+003   -7.65763E+003    1.46970E+004    2.30336E+004
            7952    3.82031E+005    9.69821E+004   -3.36828E+005   -5.06132E+004   -3.36828E+005    4.33810E+005    9.68198E+004   -3.07285E+005   -7.42110E+004   -1.74015E+004   -1.98847E+005   -9.41301E+004    1.76146E+005    1.21409E+004
            7953    3.27078E+005    1.04781E+005   -2.68582E+005   -3.26123E+004   -2.68582E+005    3.73364E+005    6.54712E+004   -2.48468E+005   -4.90192E+004    1.03961E+004   -1.57790E+005   -9.76376E+004    1.36053E+005    1.84875E+004
            7954    2.77166E+005    1.02121E+005   -2.15238E+005   -2.07350E+004   -2.15238E+005    3.17359E+005    4.46173E+004   -2.00599E+005   -3.44157E+004    2.46481E+004   -1.24084E+005   -9.20253E+004    1.04838E+005    2.32164E+004
            7955    2.23675E+005    9.26368E+004   -1.63712E+005   -8.25247E+003   -1.63712E+005    2.56348E+005    2.64424E+004   -1.58925E+005   -1.95982E+004    2.95834E+004   -8.93125E+004   -8.00043E+004    7.72440E+004    2.72081E+004
            7956    1.64779E+005    7.17394E+004   -1.16904E+005   -1.07950E+003   -1.16904E+005    1.88643E+005    1.54147E+004   -1.19623E+005   -1.10984E+004    2.29066E+004   -5.80523E+004   -6.29927E+004    5.08379E+004    2.90786E+004
            7957    1.39196E+005    5.76437E+004   -1.00174E+005    5.11037E+003   -1.00174E+005    1.57818E+005    1.24734E+004   -1.13438E+005   -4.83943E+003    1.77140E+004   -5.02948E+004   -4.40713E+004    5.52787E+004    1.61396E+004
            7958    1.34389E+005    5.03265E+004   -1.01055E+005    4.18589E+003   -1.01055E+005    1.51382E+005    1.55143E+004   -1.14417E+005   -3.41188E+003    8.98222E+003   -5.21131E+004   -3.08128E+004    6.27249E+004    9.66035E+003
            7959    1.36163E+005    5.08471E+004   -1.02425E+005    4.55935E+003   -1.02425E+005    1.53272E+005    1.56729E+004   -1.16378E+005   -1.49278E+003    6.94868E+003   -5.24745E+004   -1.84426E+004    6.92416E+004    3.46157E+003
            7960    1.40914E+005    5.01802E+004   -1.08799E+005    7.09892E+002   -1.08799E+005    1.58979E+005    1.93029E+004   -1.18880E+005   -2.09437E+003    9.25622E+002   -5.67398E+004   -6.02174E+003    7.43518E+004    1.03677E+003
            7961    1.92797E+005    6.96504E+004   -1.49486E+005   -5.92820E+003   -1.49486E+005    2.19136E+005    2.85879E+004   -1.53731E+005   -1.68457E+004    1.40822E+004   -8.30001E+004   -5.46165E+004    8.24094E+004    1.25030E+004
            7962    1.83308E+005    6.64765E+004   -1.41451E+005   -3.18751E+003   -1.41451E+005    2.07928E+005    2.60540E+004   -1.48823E+005   -1.04123E+004    7.84069E+003   -7.55903E+004   -3.67996E+004    8.89738E+004    2.52900E+003
            7963    1.79423E+005    6.51975E+004   -1.38433E+005   -3.54589E+003   -1.38433E+005    2.03630E+005    2.55938E+004   -1.45011E+005   -7.75307E+003    8.11921E+002   -6.98402E+004   -2.16605E+004    9.36642E+004   -1.45474E+003
            7964    1.83811E+005    6.95895E+004   -1.38899E+005   -2.17606E+002   -1.38899E+005    2.08488E+005    2.31756E+004   -1.49288E+005   -2.92870E+003    3.34143E+002   -6.69322E+004   -6.64608E+003    9.88744E+004   -1.77955E+003
            7965    2.33968E+005    8.55332E+004   -1.80750E+005   -8.10262E+003   -1.80750E+005    2.66283E+005    3.44399E+004   -1.84114E+005   -2.13649E+004    1.47745E+004   -9.67291E+004   -6.17170E+004    1.05494E+005    8.51109E+003
            7966    2.17756E+005    7.78920E+004   -1.69337E+005   -6.02318E+003   -1.69337E+005    2.47229E+005    3.24895E+004   -1.75410E+005   -1.51063E+004    4.66428E+003   -8.70264E+004   -3.94112E+004    1.09196E+005    7.26312E+002
            7967    2.09579E+005    8.29359E+004   -1.55515E+005   -5.21037E+002   -1.55515E+005    2.38451E+005    2.43667E+004   -1.65464E+005   -6.48325E+003    4.68451E+003   -7.13012E+004   -2.10571E+004    1.11673E+005   -6.60771E+003
            7968    2.08266E+005    9.03251E+004   -1.47997E+005   -9.63951E+002   -1.47997E+005    2.38322E+005    1.95451E+004   -1.52408E+005   -1.15751E+001   -5.28753E+002   -5.80951E+004   -6.23480E+003    1.15319E+005   -2.50091E+003
            7969    2.89507E+005    8.19845E+004   -2.45417E+005   -2.32310E+004   -2.45417E+005    3.27402E+005    6.22213E+004   -2.40471E+005   -3.98276E+004   -6.38722E+003   -1.40449E+005   -6.27106E+004    1.37965E+005    1.01035E+004
            7970    2.60245E+005    8.18552E+004   -2.13600E+005   -1.83632E+004   -2.13600E+005    2.95455E+005    5.00360E+004   -2.09720E+005   -2.59732E+004   -1.13725E+004   -1.12762E+005   -3.41555E+004    1.35657E+005   -1.45521E+003
            7971    2.40708E+005    8.50296E+004   -1.89102E+005   -1.22992E+004   -1.89102E+005    2.74132E+005    3.87906E+004   -1.88108E+005   -1.65001E+004   -1.04521E+004   -8.94197E+004   -1.62290E+004    1.30813E+005   -2.51321E+003
            7972    2.34775E+005    1.02765E+005   -1.66038E+005   -1.17990E+003   -1.66038E+005    2.68804E+005    2.14844E+004   -1.70118E+005   -1.34555E+003   -9.48689E+002   -6.21590E+004   -4.42593E+003    1.30793E+005   -2.38177E+003
            7973    3.22983E+005    7.75746E+004   -2.87980E+005   -4.12076E+004   -2.87980E+005    3.65554E+005    8.38709E+004   -2.66742E+005   -5.88718E+004   -3.82360E+004   -1.54505E+005   -5.05191E+004    1.67967E+005    1.26141E+004
            7974    2.79636E+005    7.58512E+004   -2.41097E+005   -2.91981E+004   -2.41097E+005    3.16948E+005    6.48146E+004   -2.28452E+005   -4.17351E+004   -3.16228E+004   -1.21086E+005   -2.30913E+004    1.51354E+005    1.49577E+004
            7975    2.57125E+005    8.80839E+004   -2.03795E+005   -1.07539E+004   -2.03795E+005    2.91879E+005    4.21549E+004   -2.07422E+005   -2.39294E+004   -1.11353E+004   -9.13999E+004   -9.42638E+003    1.41628E+005    5.54959E+003
            7976    2.41114E+005    1.04957E+005   -1.71629E+005   -5.74975E+003   -1.71629E+005    2.76586E+005    2.41407E+004   -1.67830E+005   -9.68541E+003   -5.83371E+003   -5.69029E+004   -1.69149E+003    1.36208E+005    3.78369E+003
            7977    2.40694E+005    9.00894E+004   -1.82958E+005   -1.51665E+003   -1.82958E+005    2.73047E+005    3.14617E+004   -1.95257E+005   -1.84111E+004   -1.43593E+003   -7.45381E+004   -1.32343E+002    1.33221E+005    9.98315E+003
            7978    2.42876E+005    5.36703E+004   -2.20595E+005   -3.27413E+004   -2.20595E+005    2.74265E+005    6.65553E+004   -2.03714E+005   -5.02906E+004   -3.06742E+004   -1.18701E+005    1.15000E+002    1.26091E+005    4.03519E+004
            7979    2.66780E+005    7.25539E+004   -2.30561E+005   -3.14332E+004   -2.30561E+005    3.03115E+005    6.31467E+004   -2.13460E+005   -4.21981E+004   -3.24824E+004   -1.14760E+005   -3.53082E+003    1.43539E+005    3.29634E+004
            7980    2.61581E+005    7.77433E+004   -2.23085E+005   -4.91849E+004   -2.23085E+005    3.00828E+005    6.48421E+004   -1.68325E+005   -4.86082E+004   -4.97857E+004   -9.61324E+004   -7.15061E+002    1.39465E+005    5.12107E+004
            7981    2.84031E+005    7.13801E+004   -2.53172E+005   -4.99906E+004   -2.53172E+005    3.24552E+005    7.72607E+004   -2.12724E+005   -5.21370E+004   -5.42832E+004   -1.25362E+005   -1.25370E+004    1.55246E+005    2.99370E+004
            7982    2.83763E+005    6.55819E+004   -2.59657E+005   -6.25950E+004   -2.59657E+005    3.25239E+005    8.55567E+004   -2.01297E+005   -6.40212E+004   -6.46149E+004   -1.28034E+005   -3.56891E+003    1.52642E+005    4.66349E+004
            7983    3.29283E+005    5.98890E+004   -3.14041E+005   -6.74111E+004   -3.14041E+005    3.73930E+005    1.07188E+005   -2.64756E+005   -7.56938E+004   -7.27382E+004   -1.73131E+005   -2.68355E+004    1.77479E+005    2.56923E+004
            7984    3.15367E+005    5.57291E+004   -3.05134E+005   -8.23973E+004   -3.05134E+005    3.60863E+005    1.10601E+005   -2.30958E+005   -8.30108E+004   -8.55397E+004   -1.63252E+005   -5.61674E+003    1.69126E+005    4.93576E+004
            7985    3.50061E+005    3.88106E+004   -3.60641E+005   -1.07325E+005   -3.60641E+005    3.99452E+005    1.43052E+005   -2.67240E+005   -1.08903E+005   -1.10716E+005   -2.09537E+005   -6.95182E+003    1.87350E+005    4.88180E+004
            7986    3.98116E+005    2.44196E+004   -4.28091E+005   -1.31681E+005   -4.28091E+005    4.52511E+005    1.78451E+005   -3.17402E+005   -1.37286E+005   -1.35097E+005   -2.62970E+005   -8.58982E+003    2.12426E+005    4.76930E+004
            7987    3.85218E+005    5.46074E+004   -3.81330E+005   -8.67987E+004   -3.81330E+005    4.35937E+005    1.37840E+005   -3.18432E+005   -1.01397E+005   -9.12589E+004   -2.20865E+005   -3.76580E+004    2.05554E+005    2.44536E+004
            7988    4.45214E+005    4.05459E+004   -4.62461E+005   -1.19012E+005   -4.62461E+005    5.03007E+005    1.80309E+005   -3.72209E+005   -1.36409E+005   -1.22120E+005   -2.82397E+005   -3.72556E+004    2.37275E+005    2.27339E+004
            7989    4.86384E+005    8.44304E+004   -4.69527E+005   -1.12435E+005   -4.69527E+005    5.53957E+005    1.65844E+005   -3.79834E+005   -1.30115E+005   -8.48229E+004   -2.82594E+005   -8.95150E+004    2.45121E+005   -4.83361E+003
            7990    4.26408E+005    8.62699E+004   -3.98128E+005   -7.94915E+004   -3.98128E+005    4.84398E+005    1.30450E+005   -3.41733E+005   -1.00966E+005   -5.11739E+004   -2.39209E+005   -8.90646E+004    2.07773E+005    3.83548E+003
            7991    3.14964E+005    2.77794E+005    2.77794E+005    3.05586E+004   -7.68174E+004    3.54612E+005   -7.71785E+004    2.68901E+005    5.11699E+004   -2.13818E+003    1.82504E+005   -7.59591E+004    1.33693E+005   -1.98310E+004
            7992    2.52264E+005    2.02012E+005    2.02012E+005    1.53757E+004   -8.49870E+004    2.86999E+005   -4.41335E+004    1.99282E+005    2.85614E+004   -2.45698E+004    1.28409E+005   -7.36308E+004    9.63795E+004   -2.16642E+004
            7993    2.02406E+005    1.55154E+005    1.55154E+005    7.76369E+003   -7.56248E+004    2.30779E+005   -2.90978E+004    1.56077E+005    1.70189E+004   -2.65893E+004    9.68637E+004   -6.45569E+004    6.97414E+004   -2.65530E+004
            7994    1.47660E+005    1.08269E+005    1.08269E+005   -1.02470E+002   -5.99132E+004    1.68182E+005   -1.60844E+004    1.15253E+005    9.34248E+003   -2.25245E+004    6.14351E+004   -5.06963E+004    4.57393E+004   -2.84466E+004
            7995    1.26727E+005    9.95086E+004    9.95086E+004   -3.90531E+003   -4.18584E+004    1.41367E+005   -1.79150E+004    1.12837E+005    2.45654E+003   -9.02213E+003    6.03106E+004   -2.75262E+004    5.54661E+004   -1.17512E+004
            7996    1.33550E+005    1.07506E+005    1.07506E+005   -4.47252E+003   -4.03050E+004    1.47811E+005   -2.09094E+004    1.22012E+005    3.87597E+002   -5.21090E+003    6.75514E+004   -9.00043E+003    6.49469E+004   -2.57519E+003
            7997    1.76585E+005    1.40625E+005    1.40625E+005    4.17255E+003   -5.88180E+004    1.99443E+005   -2.86599E+004    1.47940E+005    6.77329E+003   -8.41195E+003    8.76183E+004   -3.36419E+004    8.11838E+004   -2.60854E+003
            7998    1.82279E+005    1.45631E+005    1.45631E+005    1.37135E+003   -5.92306E+004    2.04861E+005   -2.92572E+004    1.57091E+005    1.94358E+003   -2.64820E+002    8.60927E+004   -1.09523E+004    9.23473E+004    1.83377E+003
            7999    2.19196E+005    1.75651E+005    1.75651E+005    7.87625E+003   -7.23566E+004    2.48008E+005   -3.70569E+004    1.81446E+005    1.30197E+004   -5.59592E+003    1.03747E+005   -3.71931E+004    1.05867E+005    1.48796E+003
            8000    2.14225E+005    1.58195E+005    1.58195E+005   -3.07675E+003   -8.48773E+004    2.43073E+005   -2.34137E+004    1.73467E+005   -1.75203E+003   -4.79397E+003    7.67872E+004   -1.03457E+004    1.14098E+005    5.75294E+003
            8001    2.64341E+005    2.27444E+005    2.27444E+005    2.35184E+004   -7.12091E+004    2.98653E+005   -5.99178E+004    2.21004E+005    2.74470E+004    1.75921E+004    1.34714E+005   -2.87678E+004    1.35061E+005    1.73459E+003
            8002    2.39543E+005    1.83188E+005    1.83188E+005    1.07515E+004   -9.03269E+004    2.73515E+005   -3.45376E+004    1.81310E+005    7.41931E+003    1.05468E+004    8.56468E+004   -6.72334E+003    1.30844E+005    9.67592E+001
            8003    2.53000E+005    1.96665E+005    1.96665E+005    1.68661E+003   -8.92303E+004    2.85895E+005   -3.63736E+004    2.11254E+005    1.89597E+004    1.98058E+003    8.81805E+004   -3.41881E+003    1.38498E+005   -7.61646E+003
            8004    2.54665E+005    2.43745E+005    2.43745E+005    4.24469E+004   -4.25475E+004    2.86293E+005   -8.12149E+004    2.19168E+005    6.06434E+004    4.06127E+004    1.42389E+005   -1.16830E+003    1.28297E+005   -4.74315E+004
            8005    2.87768E+005    2.66001E+005    2.66001E+005    4.19197E+004   -5.85270E+004    3.24528E+005   -8.31314E+004    2.43358E+005    5.17152E+004    4.70411E+004    1.50638E+005   -1.53948E+004    1.51464E+005   -3.16541E+004
            8006    2.79730E+005    2.62106E+005    2.62106E+005    6.74848E+004   -5.84560E+004    3.20562E+005   -9.03781E+004    1.99157E+005    6.53898E+004    7.07902E+004    1.34954E+005   -3.72993E+003    1.45250E+005   -5.89401E+004
            8007    3.10122E+005    3.16038E+005    3.16038E+005    9.39924E+004   -3.82908E+004    3.54329E+005   -1.23913E+005    2.32622E+005    8.90080E+004    9.75861E+004    1.85145E+005   -4.56515E+003    1.61614E+005   -5.55733E+004
            8008    3.50877E+005    3.80442E+005    3.80442E+005    1.20566E+005   -1.86843E+004    3.99127E+005   -1.60775E+005    2.77628E+005    1.17903E+005    1.25385E+005    2.39035E+005   -6.86067E+003    1.80362E+005   -6.20735E+004
            8009    3.96896E+005    4.63170E+005    4.63170E+005    1.57989E+005    1.44809E+004    4.48689E+005   -2.11880E+005    3.30463E+005    1.59340E+005    1.61506E+005    3.14795E+005   -6.62586E+003    2.02922E+005   -5.78175E+004
            8010    4.45227E+005    5.44035E+005    5.44035E+005    1.93615E+005    4.30469E+004    5.00988E+005   -2.60232E+005    3.81291E+005    1.98966E+005    1.96241E+005    3.85490E+005   -6.46608E+003    2.26838E+005   -5.30069E+004
            8011    3.22455E+005    3.15775E+005    3.15775E+005    6.82559E+004   -4.88742E+004    3.64649E+005   -1.11719E+005    2.67903E+005    7.26483E+004    7.50365E+004    1.87472E+005   -2.84288E+004    1.69207E+005   -3.02422E+004
            8012    3.81296E+005    4.03405E+005    4.03405E+005    1.02480E+005   -2.53921E+004    4.28797E+005   -1.60164E+005    3.27568E+005    1.12620E+005    1.08259E+005    2.59613E+005   -3.34318E+004    1.97482E+005   -3.03805E+004
            8013    4.36937E+005    4.80511E+005    4.80511E+005    1.34152E+005   -1.03805E+004    4.90891E+005   -2.01427E+005    3.77244E+005    1.47765E+005    1.38067E+005    3.18451E+005   -3.46148E+004    2.26765E+005   -2.68912E+004
            8014    4.98526E+005    5.66671E+005    5.66671E+005    1.67000E+005    8.05169E+003    5.58619E+005   -2.47241E+005    4.35795E+005    1.87068E+005    1.69744E+005    3.84910E+005   -3.22629E+004    2.58664E+005   -2.45987E+004
            8015    5.64401E+005    6.08422E+005    6.08422E+005    1.79478E+005   -3.09666E+004    6.39388E+005   -2.52311E+005    4.62899E+005    1.95065E+005    1.52953E+005    4.08915E+005   -8.22245E+004    2.83683E+005    1.04365E+004
            8016    4.91393E+005    5.12031E+005    5.12031E+005    1.38040E+005   -4.45119E+004    5.56543E+005   -2.01853E+005    4.03780E+005    1.53760E+005    1.06213E+005    3.45586E+005   -8.83845E+004    2.37938E+005    1.82284E+003
            8017    4.22428E+005    4.22032E+005    4.22032E+005    9.76554E+004   -5.56401E+004    4.77672E+005   -1.54682E+005    3.51123E+005    1.15046E+005    6.45478E+004    2.84453E+005   -8.30923E+004    1.98245E+005   -2.92163E+003
            8018    3.63456E+005    3.46752E+005    3.46752E+005    6.03222E+004   -6.21111E+004    4.08863E+005   -1.14988E+005    3.11724E+005    8.10365E+004    3.48814E+004    2.29045E+005   -7.42326E+004    1.67574E+005   -1.23567E+004
            8019    1.01702E+005    8.91008E+004    8.91008E+004    1.52694E+003   -2.24465E+004    1.11547E+005   -2.27271E+004    9.50279E+004    7.95558E+003    1.84704E+003    5.83786E+004   -6.14843E+003    4.92285E+004   -4.89269E+003
            8020    9.61320E+004    8.15940E+004    8.15940E+004   -4.71308E+003   -2.20134E+004    1.03607E+005   -1.82892E+004    9.25319E+004    7.90261E+003   -1.87044E+003    4.88353E+004   -1.86217E+004    4.19153E+004   -1.59096E+004
            8021    1.05353E+005    8.12278E+004    8.12278E+004   -3.29479E+003   -3.68040E+004    1.18032E+005   -1.37097E+004    9.21670E+004    9.04258E+003   -9.15926E+003    4.12457E+004   -3.52234E+004    3.07206E+004   -2.93904E+004
            8022    6.63228E+004    5.18458E+004    5.18458E+004   -4.24388E+003   -2.13563E+004    7.32021E+004   -8.74852E+003    6.10524E+004   -1.37633E+003   -3.37120E+003    3.09931E+004   -3.79303E+003    3.23392E+004   -5.82365E+003
            8023    6.37222E+004    4.92919E+004    4.92919E+004   -1.05128E+004   -1.77328E+004    6.70247E+004   -7.01541E+003    6.27921E+004   -7.11264E+002   -3.00072E+003    2.47582E+004   -1.06823E+004    2.68923E+004   -1.66968E+004
            8024    6.97086E+004    5.29478E+004    5.29478E+004   -7.47190E+003   -2.33205E+004    7.62683E+004   -7.38511E+003    6.54683E+004    4.07740E+003   -3.91218E+003    2.19901E+004   -1.92958E+004    1.86413E+004   -2.69073E+004
            8025    4.85207E+004    3.78338E+004    3.78338E+004    2.78324E+003   -1.75445E+004    5.53783E+004   -7.69086E+003    3.69374E+004    6.04189E+003    3.07172E+003    1.39590E+004   -1.02311E+003    2.68034E+004   -5.79752E+003
            8026    4.86918E+004    3.68710E+004    3.68710E+004   -1.39627E+002   -1.82888E+004    5.51598E+004   -6.14752E+003    3.99422E+004    5.43580E+003    1.78474E+003    1.12220E+004   -3.35834E+003    2.22505E+004   -1.61645E+004
            8027    5.07299E+004    3.60150E+004    3.60150E+004   -2.23093E+003   -2.15326E+004    5.75476E+004   -4.08381E+003    4.11599E+004    3.53936E+003    6.94032E+002    8.01803E+003   -6.24168E+003    1.40047E+004   -2.46803E+004
            8028    4.58430E+005    5.64668E+005    5.64668E+005    2.01628E+005    4.95165E+004    5.15151E+005   -2.71938E+005    3.95364E+005    2.08579E+005    2.04026E+005    4.03208E+005    6.51918E+003    2.33525E+005    5.04695E+004
            8029    5.13225E+005    5.84452E+005    5.84452E+005    1.72782E+005    9.43508E+003    5.75017E+005   -2.55557E+005    4.48896E+005    1.94568E+005    1.74929E+005    3.97172E+005    3.24833E+004    2.66646E+005    2.25108E+004
            8030    5.74977E+005    6.22645E+005    6.22645E+005    1.84773E+005   -2.84943E+004    6.51139E+005   -2.59641E+005    4.72838E+005    2.01107E+005    1.58887E+005    4.18930E+005    8.17813E+004    2.89693E+005   -1.06681E+004
            8031    5.02794E+005    6.38041E+005    6.38041E+005    2.33810E+005    7.50243E+004    5.63017E+005   -3.15625E+005    4.40853E+005    2.44182E+005    2.35093E+005    4.67600E+005    5.26155E+003    2.55834E+005    3.80190E+004
            8032    5.68485E+005    6.61726E+005    6.61726E+005    2.04149E+005    2.53312E+004    6.36395E+005   -2.97069E+005    4.99067E+005    2.29902E+005    2.05243E+005    4.56061E+005    2.43508E+004    2.96194E+005    1.70348E+004
            8033    6.40486E+005    7.15283E+005    7.15283E+005    2.26124E+005   -9.67674E+003    7.24960E+005   -3.10577E+005    5.28682E+005    2.42404E+005    2.11362E+005    4.77964E+005    6.32896E+004    3.33613E+005   -1.35144E+004
            8034    5.34643E+005    6.89972E+005    6.89972E+005    2.56569E+005    9.25286E+004    5.97443E+005   -3.46356E+005    4.72847E+005    2.68983E+005    2.56880E+005    5.13206E+005    2.74423E+003    2.72017E+005    1.90991E+004
            8035    6.06404E+005    7.14202E+005    7.14202E+005    2.25452E+005    3.55821E+004    6.78620E+005   -3.25079E+005    5.33105E+005    2.53683E+005    2.25727E+005    4.95826E+005    1.25446E+004    3.16668E+005    8.83592E+003
            8036    6.88438E+005    7.86679E+005    7.86679E+005    2.59433E+005    7.83307E+003    7.78846E+005   -3.51315E+005    5.70306E+005    2.75381E+005    2.55303E+005    5.23261E+005    3.44994E+004    3.66660E+005   -8.79629E+003
            8037    5.44296E+005    7.05583E+005    7.05583E+005    2.63375E+005    9.77013E+004    6.07882E+005   -3.55553E+005    4.82480E+005    2.76381E+005    2.63381E+005    5.26898E+005   -4.65618E+002    2.76923E+005   -2.19047E+003
            8038    6.18095E+005    7.30570E+005    7.30570E+005    2.32293E+005    3.89035E+004    6.91667E+005   -3.33922E+005    5.43504E+005    2.61183E+005    2.32293E+005    5.08290E+005   -1.81651E+003    3.23004E+005   -7.90753E+002
            8039    7.06238E+005    8.12807E+005    8.12807E+005    2.71347E+005    1.39790E+004    7.98828E+005   -3.66044E+005    5.85856E+005    2.87275E+005    2.71343E+005    5.39516E+005   -1.52075E+003    3.78975E+005   -1.97812E+001
            8040    5.28350E+005    6.80146E+005    6.80146E+005    2.52339E+005    8.95602E+004    5.90586E+005   -3.40682E+005    4.66725E+005    2.64424E+005    2.52850E+005    5.04771E+005   -3.53776E+003    2.68774E+005   -2.39057E+004
            8041    5.99300E+005    7.04796E+005    7.04796E+005    2.21443E+005    3.42407E+004    6.70556E+005   -3.20160E+005    5.27238E+005    2.49479E+005    2.21812E+005    4.89190E+005   -1.55203E+004    3.12653E+005   -1.03837E+004
            8042    6.84705E+005    7.81225E+005    7.81225E+005    2.56957E+005    6.57044E+003    7.74655E+005   -3.48251E+005    5.67047E+005    2.72814E+005    2.52277E+005    5.19662E+005   -3.66499E+004    3.64284E+005    9.26170E+003
            8043    4.91801E+005    6.21583E+005    6.21583E+005    2.27016E+005    7.05965E+004    5.50987E+005   -3.06399E+005    4.30253E+005    2.36732E+005    2.28572E+005    4.53891E+005   -5.76481E+003    2.50185E+005   -4.08008E+004
            8044    5.55124E+005    6.44108E+005    6.44108E+005    1.97424E+005    2.26236E+004    6.21484E+005   -2.88052E+005    4.87177E+005    2.22130E+005    1.98814E+005    4.43212E+005   -2.60858E+004    2.88954E+005   -1.88127E+004
            8045    6.33641E+005    7.06543E+005    7.06543E+005    2.22734E+005   -1.07006E+004    7.17244E+005   -3.06192E+005    5.22860E+005    2.38641E+005    2.07431E+005    4.72504E+005   -6.52867E+004    3.29287E+005    1.23608E+004
            8046    1.05258E+005    3.67578E+004   -8.11628E+004    3.30005E+003   -8.11628E+004    1.17921E+005    1.37017E+004   -9.21031E+004   -9.03568E+003    9.12996E+003   -4.11993E+004    3.51791E+004    3.06538E+004   -2.94330E+004
            8047    9.59750E+004    2.19253E+004   -8.14989E+004    4.69190E+003   -8.14989E+004    1.03424E+005    1.82939E+004   -9.23973E+004   -7.90916E+003    1.84120E+003   -4.88138E+004    1.85150E+004    4.18791E+004   -1.58548E+004
            8048    1.01222E+005    2.23558E+004   -8.86730E+004   -1.53190E+003   -8.86730E+004    1.11029E+005    2.26164E+004   -9.45625E+004   -7.92662E+003   -1.85132E+003   -5.80712E+004    6.11903E+003    4.90113E+004   -4.86889E+003
            8049    6.94886E+004    2.32164E+004   -5.27909E+004    7.47979E+003   -5.27909E+004    7.60074E+004    7.36490E+003   -6.52963E+004   -4.04891E+003    3.86137E+003   -2.19072E+004    1.91728E+004    1.85857E+004   -2.68752E+004
            8050    6.37667E+004    1.78044E+004   -4.92927E+004    1.05175E+004   -4.92927E+004    6.70971E+004    6.99024E+003   -6.28197E+004    7.55894E+002    3.04960E+003   -2.47762E+004    1.06816E+004    2.69410E+004   -1.66407E+004
            8051    6.60373E+004    2.13661E+004   -5.15384E+004    4.26909E+003   -5.15384E+004    7.29044E+004    8.63442E+003   -6.07513E+004    1.43566E+003    3.39602E+003   -3.07349E+004    3.76033E+003    3.22229E+004   -5.82217E+003
            8052    5.06064E+004    2.16259E+004   -3.58236E+004    2.15730E+003   -3.58236E+004    5.74495E+004    4.01348E+003   -4.08052E+004   -3.47171E+003   -6.78191E+002   -7.89053E+003    6.07357E+003    1.39795E+004   -2.46603E+004
            8053    4.87976E+004    1.81858E+004   -3.70475E+004    2.21382E+002   -3.70475E+004    5.52333E+004    6.21344E+003   -4.02803E+004   -5.48951E+003   -1.78888E+003   -1.13619E+004    3.46620E+003    2.22846E+004   -1.61807E+004
            8054    4.85193E+004    1.75490E+004   -3.78281E+004   -2.78099E+003   -3.78281E+004    5.53772E+004    7.68669E+003   -3.69322E+004   -6.06484E+003   -3.07363E+003   -1.39216E+004    1.03739E+003    2.68130E+004   -5.77075E+003
            8055    2.47012E+005    1.88510E+005    1.88510E+005    1.02978E+004   -9.34571E+004    2.81967E+005   -3.51168E+004    1.87655E+005    1.17207E+004    1.04266E+004    8.32031E+004    3.04368E+003    1.36311E+005    3.70666E+003
            8056    2.31671E+005    1.66856E+005    1.66856E+005   -2.67640E+003   -9.71177E+004    2.63974E+005   -2.23540E+004    1.80017E+005   -5.43896E+002   -3.07707E+003    7.06830E+004    5.64507E+003    1.26875E+005   -2.81498E+003
            8057    2.13597E+005    1.62223E+005    1.62223E+005    4.86430E+003   -8.09329E+004    2.43156E+005   -2.87181E+004    1.67675E+005    5.30170E+001    4.17626E+003    8.19251E+004    6.89544E+003    1.14106E+005   -3.56538E+003
            8058    1.73084E+005    1.32626E+005    1.32626E+005   -4.17850E+003   -6.19568E+004    1.94583E+005   -2.21636E+004    1.48948E+005   -3.42729E+003   -5.06727E+003    7.49853E+004    7.23677E+003    8.85199E+004   -2.15574E+003
            8059    1.40884E+005    1.18623E+005    1.18623E+005    3.11930E+003   -3.83380E+004    1.56961E+005   -2.78013E+004    1.26024E+005    6.57332E+003    2.78924E+003    7.40414E+004    5.84595E+003    7.05238E+004    1.05130E+003
            8060    2.66548E+005    2.25635E+005    2.25635E+005    1.69520E+004   -7.46300E+004    3.00265E+005   -5.59857E+004    2.26868E+005    2.58053E+004    1.72682E+004    1.24884E+005    1.19720E+004    1.41135E+005    6.46133E+003
            8061    2.37266E+005    1.91549E+005    1.91549E+005    1.22199E+004   -7.74924E+004    2.69041E+005   -4.20922E+004    1.93166E+005    1.46701E+004    9.58404E+003    1.02022E+005    1.80149E+004    1.25434E+005   -2.59565E+003
            8062    2.16502E+005    1.71328E+005    1.71328E+005    6.52837E+003   -7.38725E+004    2.45200E+005   -3.46613E+004    1.77934E+005    6.34024E+003    7.56605E+001    9.75680E+004    2.14168E+004    1.10126E+005   -7.76333E+003
            8063    1.68326E+005    1.31841E+005    1.31841E+005    1.71157E+003   -5.82581E+004    1.90099E+005   -2.50980E+004    1.41099E+005    1.14040E+003   -3.85539E+003    7.80090E+004    2.13046E+004    8.29671E+004   -1.11266E+003
            8064    1.36378E+005    1.11821E+005    1.11821E+005   -4.73177E+002   -3.99370E+004    1.51758E+005   -2.38037E+004    1.22510E+005    5.86598E+003   -3.20629E+003    6.87513E+004    1.70670E+004    6.59886E+004    4.25160E+003
            8065    2.90113E+005    2.67326E+005    2.67326E+005    4.06560E+004   -5.96238E+004    3.26950E+005   -8.27861E+004    2.46331E+005    4.38605E+004    4.29827E+004    1.61515E+005    2.55220E+004    1.49872E+005    1.71273E+004
            8066    2.55439E+005    2.15051E+005    2.15051E+005    1.89586E+004   -7.38100E+004    2.88861E+005   -5.33998E+004    2.12245E+005    2.47283E+004    9.62407E+003    1.25847E+005    3.54309E+004    1.28447E+005   -1.54407E+003
            8067    2.26249E+005    1.87032E+005    1.87032E+005    1.33817E+004   -6.88273E+004    2.55859E+005   -4.38622E+004    1.87945E+005    1.60652E+004   -7.78823E+002    1.16300E+005    3.89992E+004    1.07403E+005   -3.46648E+002
            8068    1.71763E+005    1.31329E+005    1.31329E+005    8.48358E+002   -6.32703E+004    1.94599E+005   -2.29689E+004    1.40789E+005    3.02701E+003   -1.48545E+004    8.07342E+004    3.65295E+004    7.68669E+004    2.95086E+003
            8069    1.36451E+005    1.12442E+005    1.12442E+005    1.18230E+003   -3.98047E+004    1.52247E+005   -2.46066E+004    1.21398E+005    1.01035E+004   -5.16564E+003    6.88820E+004    2.90241E+004    6.09777E+004    1.08218E+004
            8070    3.30590E+005    3.15713E+005    3.15713E+005    5.48985E+004   -5.60884E+004    3.71802E+005   -1.04841E+005    2.83892E+005    6.37063E+004    5.07588E+004    2.00058E+005    4.95444E+004    1.63989E+005    1.55334E+004
            8071    2.86525E+005    2.50953E+005    2.50953E+005    2.44850E+004   -7.11603E+004    3.22114E+005   -6.80927E+004    2.46570E+005    4.00773E+004    5.04514E+003    1.59156E+005    6.11546E+004    1.30040E+005    1.37493E+004
            8072    2.40681E+005    1.98029E+005    1.98029E+005    1.55083E+004   -7.47311E+004    2.72760E+005   -4.62686E+004    1.96829E+005    2.20477E+004   -1.08240E+004    1.27582E+005    5.81536E+004    1.02946E+005    1.00140E+004
            8073    1.82904E+005    1.40912E+005    1.40912E+005    5.21830E+003   -6.70930E+004    2.08005E+005   -2.63456E+004    1.45073E+005    9.53189E+003   -2.01705E+004    8.96754E+004    5.21279E+004    7.04688E+004    1.54765E+004
            8074    1.40764E+005    1.10770E+005    1.10770E+005   -4.67839E+002   -4.74847E+004    1.58255E+005   -2.09391E+004    1.21108E+005    1.04856E+004   -1.41240E+004    6.64557E+004    4.04244E+004    5.37841E+004    1.93065E+004
            8075    1.65879E+005    1.23017E+005    1.23017E+005    5.15099E+003   -6.66696E+004    1.89686E+005   -2.04994E+004    1.22796E+005    1.54946E+004   -2.49516E+004    7.09552E+004    5.85454E+004    4.74453E+004    3.42780E+004
            8076    2.19715E+005    1.63385E+005    1.63385E+005    1.17415E+004   -8.85840E+004    2.51969E+005   -2.88476E+004    1.53947E+005    2.03215E+004   -3.66152E+004    1.02836E+005    7.41686E+004    6.82906E+004    3.17928E+004
            8077    2.83054E+005    2.31129E+005    2.31129E+005    2.83253E+004   -9.22470E+004    3.23376E+005   -5.57356E+004    2.12564E+005    3.94382E+004   -2.72297E+004    1.54998E+005    8.65291E+004    9.96588E+004    2.80408E+004
            8078    3.29259E+005    2.83998E+005    2.83998E+005    3.97109E+004   -9.04435E+004    3.74442E+005   -7.77552E+004    2.61181E+005    5.76528E+004   -1.26961E+004    1.88309E+005    9.27222E+004    1.28806E+005    2.33426E+004
            8079    3.85683E+005    3.61091E+005    3.61091E+005    6.41215E+004   -7.48103E+004    4.35902E+005   -1.16801E+005    3.21687E+005    8.48891E+004    2.15763E+004    2.43937E+005    9.02471E+004    1.67664E+005    1.42628E+004
            8080    4.39265E+005    4.39085E+005    4.39085E+005    9.89425E+004   -5.68405E+004    4.95926E+005   -1.60396E+005    3.68958E+005    1.19602E+005    6.45252E+004    2.97060E+005    8.70038E+004    2.04820E+005    5.53663E+003
            8081    5.03692E+005    5.25224E+005    5.25224E+005    1.41340E+005   -4.51093E+004    5.70334E+005   -2.07152E+005    4.14639E+005    1.58356E+005    1.08135E+005    3.54965E+005    8.81571E+004    2.44453E+005   -4.70981E+003
            8082    4.53988E+005    5.02238E+005    5.02238E+005    1.39579E+005   -6.90960E+003    5.09147E+005   -2.11636E+005    3.95320E+005    1.56800E+005    1.43109E+005    3.34998E+005    3.62431E+004    2.34998E+005    2.65262E+004
            8083    4.10529E+005    4.81591E+005    4.81591E+005    1.64709E+005    1.78261E+004    4.63765E+005   -2.21375E+005    3.43470E+005    1.67092E+005    1.68386E+005    3.28648E+005    7.14901E+003    2.09785E+005    5.90421E+004
            8084    3.93678E+005    4.15057E+005    4.15057E+005    1.04113E+005   -2.75877E+004    4.42644E+005   -1.63861E+005    3.38511E+005    1.15953E+005    1.09465E+005    2.66165E+005    3.70994E+004    2.03856E+005    2.94493E+004
            8085    3.64185E+005    4.03936E+005    4.03936E+005    1.32650E+005   -9.97602E+003    4.13912E+005   -1.75537E+005    2.90563E+005    1.29612E+005    1.37087E+005    2.59911E+005    6.87432E+003    1.87819E+005    5.94457E+004
            8086    3.26105E+005    3.39842E+005    3.39842E+005    1.01448E+005   -3.17845E+004    3.71627E+005   -1.36502E+005    2.52997E+005    9.94329E+004    1.06267E+005    2.03805E+005    6.89240E+003    1.68983E+005    5.86225E+004
            8087    2.91096E+005    2.87783E+005    2.87783E+005    7.72244E+004   -4.44009E+004    3.32184E+005   -1.06869E+005    2.22076E+005    7.82870E+004    8.07363E+004    1.61583E+005    5.10241E+003    1.51335E+005    5.54127E+004
            8088    2.67598E+005    2.46727E+005    2.46727E+005    6.14361E+004   -6.00655E+004    3.06792E+005   -8.26992E+004    1.88726E+005    6.12867E+004    6.29997E+004    1.23811E+005    1.75343E+003    1.37560E+005    6.06235E+004
            8089    2.52411E+005    2.47240E+005    2.47240E+005    4.29150E+004   -3.49216E+004    2.82162E+005   -8.50779E+004    2.22911E+005    6.44437E+004    3.91652E+004    1.51625E+005    2.87251E+002    1.23818E+005    4.92436E+004
            8090    3.42046E+005    3.43395E+005    3.43395E+005    8.02910E+004   -4.32609E+004    3.86655E+005   -1.26808E+005    2.84928E+005    8.59040E+004    8.72135E+004    2.07307E+005    2.77973E+004    1.79784E+005    3.22977E+004
            8091    2.97429E+005    2.77009E+005    2.77009E+005    5.90099E+004   -6.18197E+004    3.38828E+005   -9.13996E+004    2.31678E+005    6.00880E+004    6.48389E+004    1.49272E+005    1.50018E+004    1.59658E+005    3.54229E+004
            8092    2.80261E+005    2.53342E+005    2.53342E+005    3.52283E+004   -6.27552E+004    3.16098E+005   -7.52719E+004    2.36850E+005    5.10748E+004    3.72908E+004    1.37450E+005    6.00096E+003    1.47123E+005    3.94196E+004
            8093    2.50480E+005    1.98140E+005    1.98140E+005   -1.07561E+002   -8.33674E+004    2.81507E+005   -3.82216E+004    2.15883E+005    2.47586E+004   -1.48792E+002    9.00552E+004    8.40044E+002    1.36430E+005    1.13787E+004
            8094    2.39625E+005    9.03896E+004   -1.83221E+005   -1.07351E+004   -1.83221E+005    2.73611E+005    3.45223E+004   -1.81355E+005   -7.43154E+003   -1.05296E+004   -8.56056E+004    6.71092E+003    1.30903E+005    1.14146E+002
            8095    2.14007E+005    8.47299E+004   -1.58087E+005    3.05971E+003   -1.58087E+005    2.42817E+005    2.34324E+004   -1.73347E+005    1.74681E+003    4.78283E+003   -7.68269E+004    1.03561E+004    1.13954E+005    5.75524E+003
            8096    1.81175E+005    5.86589E+004   -1.44901E+005   -1.32192E+003   -1.44901E+005    2.03560E+005    2.91879E+004   -1.56377E+005   -1.93597E+003    2.98680E+002   -8.59265E+004    1.09213E+004    9.16711E+004    1.71880E+003
            8097    1.32281E+005    3.97964E+004   -1.06554E+005    4.49642E+003   -1.06554E+005    1.46350E+005    2.07537E+004   -1.20986E+005   -3.98810E+002    5.19552E+003   -6.70578E+004    8.90573E+003    6.42683E+004   -2.67979E+003
            8098    2.64110E+005    7.12277E+004   -2.27179E+005   -2.34874E+004   -2.27179E+005    2.98407E+005    5.98130E+004   -2.20736E+005   -2.73720E+004   -1.75199E+004   -1.34547E+005    2.88349E+004    1.34921E+005    1.76115E+003
            8099    2.18598E+005    7.22988E+004   -1.75039E+005   -7.74892E+003   -1.75039E+005    2.47338E+005    3.68298E+004   -1.80914E+005   -1.28539E+004    5.72163E+003   -1.03357E+005    3.71255E+004    1.05556E+005    1.49622E+003
            8100    1.75710E+005    5.85798E+004   -1.39870E+005   -4.07358E+003   -1.39870E+005    1.98449E+005    2.84544E+004   -1.47233E+005   -6.62389E+003    8.38951E+003   -8.71290E+004    3.34715E+004    8.07811E+004   -2.65908E+003
            8101    1.25998E+005    4.14710E+004   -9.90160E+004    3.98323E+003   -9.90160E+004    1.40487E+005    1.78539E+004   -1.12385E+005   -2.44225E+003    8.89725E+003   -6.00167E+004    2.72333E+004    5.51902E+004   -1.17797E+004
            8102    1.47781E+005    5.99842E+004   -1.08341E+005    9.85987E+001   -1.08341E+005    1.68325E+005    1.60860E+004   -1.15313E+005   -9.35179E+003    2.25291E+004   -6.14352E+004    5.07779E+004    4.57220E+004   -2.85370E+004
            8103    2.02649E+005    7.58614E+004   -1.55222E+005   -7.78989E+003   -1.55222E+005    2.31084E+005    2.90503E+004   -1.56038E+005   -1.69664E+004    2.67318E+004   -9.69161E+004    6.47151E+004    6.97175E+004   -2.66201E+004
            8104    2.52456E+005    8.50699E+004   -2.02150E+005   -1.53830E+004   -2.02150E+005    2.87220E+005    4.41543E+004   -1.99416E+005   -2.85680E+004    2.45873E+004   -1.28482E+005    7.37003E+004    9.64516E+004   -2.16844E+004
            8105    3.14742E+005    7.68470E+004   -2.77524E+005   -3.04941E+004   -2.77524E+005    3.54371E+005    7.70570E+004   -2.68672E+005   -5.10116E+004    2.15493E+003   -1.82314E+005    7.59126E+004    1.33602E+005   -1.98127E+004
            8106    3.63027E+005    6.23426E+004   -3.46072E+005   -6.00910E+004   -3.46072E+005    4.08415E+005    1.14607E+005   -3.11217E+005   -8.07778E+004   -3.44479E+004   -2.28595E+005    7.43583E+004    1.67232E+005   -1.23472E+004
            8107    4.22940E+005    5.58500E+004   -4.22443E+005   -9.78280E+004   -4.22443E+005    4.78293E+005    1.54807E+005   -3.51336E+005   -1.15182E+005   -6.45556E+004   -2.84684E+005    8.34049E+004    1.98416E+005   -2.96020E+003
            8108    4.92087E+005    4.45115E+004   -5.12813E+005   -1.38279E+005   -5.12813E+005    5.57324E+005    2.02193E+005   -4.04371E+005   -1.54031E+005   -1.06437E+005   -3.46112E+005    8.83364E+004    2.38345E+005    1.96584E+003
            8109    5.64311E+005    3.07937E+004   -6.08423E+005   -1.79279E+005   -6.08423E+005    6.39217E+005    2.52303E+005   -4.63209E+005   -1.95056E+005   -1.52876E+005   -4.08976E+005    8.21138E+004    2.83631E+005    1.02588E+004
            8110    4.98534E+005   -8.02825E+003   -5.66698E+005   -1.67146E+005   -5.66698E+005    5.58669E+005    2.47291E+005   -4.35655E+005   -1.87119E+005   -1.69870E+005   -3.84883E+005    3.24413E+004    2.58686E+005   -2.45233E+004
            8111    4.44928E+005   -4.27501E+004   -5.43389E+005   -1.93164E+005   -5.43389E+005    5.00639E+005    2.59768E+005   -3.81086E+005   -1.98608E+005   -1.95870E+005   -3.84825E+005    6.64850E+003    2.26694E+005   -5.31144E+004
            8112    4.36744E+005    1.04581E+004   -4.80174E+005   -1.33838E+005   -4.80174E+005    4.90632E+005    2.01185E+005   -3.77237E+005   -1.47585E+005   -1.37723E+005   -3.18246E+005    3.48546E+004    2.26597E+005   -2.68143E+004
            8113    3.97237E+005   -1.45161E+004   -4.63567E+005   -1.58035E+005   -4.63567E+005    4.49051E+005    2.12039E+005   -3.30868E+005   -1.59458E+005   -1.61605E+005   -3.15056E+005    6.74733E+003    2.03113E+005   -5.77771E+004
            8114    3.81257E+005    2.54680E+004   -4.03195E+005   -1.02016E+005   -4.03195E+005    4.28663E+005    1.59914E+005   -3.27889E+005   -1.12435E+005   -1.07788E+005   -2.59521E+005    3.36029E+004    1.97369E+005   -3.03690E+004
            8115    3.51793E+005    1.82000E+004   -3.81915E+005   -1.21114E+005   -3.81915E+005    4.00115E+005    1.61610E+005   -2.78736E+005   -1.18551E+005   -1.25940E+005   -2.40338E+005    6.91883E+003    1.80829E+005   -6.19975E+004
            8116    3.22603E+005    4.88570E+004   -3.15955E+005   -6.83075E+004   -3.15955E+005    3.64812E+005    1.11802E+005   -2.68046E+005   -7.27106E+004   -7.50573E+004   -1.87638E+005    2.84095E+004    1.69289E+005   -3.01717E+004
            8117    3.10670E+005    3.81220E+004   -3.16789E+005   -9.41153E+004   -3.16789E+005    3.54911E+005    1.24261E+005   -2.33451E+005   -8.92694E+004   -9.77574E+004   -1.85755E+005    4.66494E+003    1.61864E+005   -5.56432E+004
            8118    2.79984E+005    5.84162E+004   -2.62433E+005   -6.76121E+004   -2.62433E+005    3.20849E+005    9.05429E+004   -1.99384E+005   -6.55205E+004   -7.09060E+004   -1.35202E+005    3.71229E+003    1.45358E+005   -5.90296E+004
            8119    2.54689E+005    4.24553E+004   -2.43860E+005   -4.25285E+004   -2.43860E+005    2.86316E+005    8.13112E+004   -2.19206E+005   -6.07486E+004   -4.07381E+004   -1.42447E+005    1.24411E+003    1.28275E+005   -4.75690E+004
            8120    2.87928E+005    5.85393E+004   -2.66154E+005   -4.18913E+004   -2.66154E+005    3.24693E+005    8.31685E+004   -2.43567E+005   -5.17477E+004   -4.70328E+004   -1.50725E+005    1.54481E+004    1.51532E+005   -3.17022E+004
            8121    2.52995E+005    8.90718E+004   -1.96815E+005   -1.83320E+003   -1.96815E+005    2.85887E+005    3.65255E+004   -2.11260E+005   -1.91422E+004   -2.12906E+003   -8.83053E+004    3.37233E+003    1.38494E+005   -7.77360E+003
            8122    1.10977E+005    7.95993E+004    7.95993E+004   -3.25224E+003   -4.64885E+004    1.26088E+005   -9.95285E+003    8.88227E+004    6.37678E+003   -1.54534E+004    3.89352E+004    3.92979E+004    2.79367E+004    3.21155E+004
            8123    9.65182E+004    7.39971E+004    7.39971E+004   -7.84293E+003   -3.24394E+004    1.06437E+005   -1.12383E+004    8.90481E+004    1.82375E+003   -9.25383E+003    4.11449E+004    2.80093E+004    3.27945E+004    2.33189E+004
            8124    9.43274E+004    7.25012E+004    7.25012E+004   -9.54508E+003   -3.05619E+004    1.03063E+005   -1.07981E+004    8.88273E+004   -1.14240E+003   -9.27539E+003    4.28120E+004    2.07060E+004    3.89525E+004    1.53182E+004
            8125    9.50335E+004    7.75125E+004    7.75125E+004   -3.37263E+003   -2.71528E+004    1.04665E+005   -1.56623E+004    8.79579E+004    7.18873E+002   -2.25498E+003    4.85231E+004    1.22502E+004    4.42913E+004    9.30497E+003
            8126    1.00264E+005    8.20266E+004    8.20266E+004   -4.01240E+003   -2.80813E+004    1.10108E+005   -1.66443E+004    9.34266E+004   -1.76140E+002   -3.97053E+003    5.40796E+004    4.18255E+003    4.76523E+004    2.84227E+003
            8127    7.32509E+004    5.70369E+004    5.70369E+004   -3.12395E+003   -2.45333E+004    8.15702E+004   -9.79324E+003    6.56385E+004    8.25692E+003   -2.50566E+003    2.36284E+004    2.17620E+004    1.76385E+004    2.88330E+004
            8128    6.76009E+004    5.55623E+004    5.55623E+004   -8.81815E+003   -1.48542E+004    7.04165E+004   -1.06300E+004    6.69906E+004    8.10552E+003   -1.28342E+003    2.50679E+004    1.58508E+004    2.39538E+004    2.28009E+004
            8129    6.68492E+004    5.81406E+004    5.81406E+004   -5.36773E+003   -1.16115E+004    6.97521E+004   -1.37204E+004    6.61884E+004    9.04504E+003    2.41959E+003    2.96967E+004    1.15782E+004    2.91581E+004    1.74056E+004
            8130    6.82618E+004    5.76138E+004    5.76138E+004   -3.25591E+003   -1.61897E+004    7.38035E+004   -1.27227E+004    6.54193E+004    6.27022E+003   -3.76615E+002    3.22745E+004    7.11365E+003    3.29895E+004    1.07967E+004
            8131    6.99205E+004    6.13012E+004    6.13012E+004    2.93301E+003   -1.61917E+004    7.74929E+004   -1.60142E+004    6.36253E+004    7.72084E+003    3.28572E+003    3.70360E+004    2.46212E+003    3.56762E+004    3.79730E+003
            8132    5.13957E+004    3.31441E+004    3.31441E+004   -5.16763E+003   -2.52632E+004    5.84073E+004   -9.04421E+002    4.10464E+004   -3.43000E+002   -1.95674E+003    5.01300E+003    6.43648E+003    1.19416E+004    2.61374E+004
            8133    4.96438E+004    3.24515E+004    3.24515E+004   -7.15639E+003   -2.32401E+004    5.56916E+004   -6.84998E+002    4.31701E+004   -2.81226E+003   -1.66741E+003    6.53466E+003    4.93679E+003    1.70507E+004    2.19183E+004
            8134    4.89870E+004    3.03653E+004    3.03653E+004   -8.29486E+003   -2.47247E+004    5.50900E+004    8.84727E+002    4.20829E+004   -4.76476E+003   -4.43649E+003    6.54707E+003    3.88102E+003    2.15082E+004    1.67569E+004
            8135    4.85975E+004    3.20796E+004    3.20796E+004   -2.44935E+003   -2.34932E+004    5.55728E+004   -2.04567E+003    3.59716E+004   -2.34823E+003   -4.99514E+002    8.98475E+003    2.36339E+003    2.50013E+004    1.09370E+004
            8136    4.93488E+004    3.17396E+004    3.17396E+004   -3.62817E+003   -2.46372E+004    5.63768E+004   -1.15808E+003    3.70774E+004   -3.29436E+003   -3.42404E+003    1.01926E+004    7.79268E+002    2.71138E+004    3.84437E+003
            8137    5.74732E+005    2.88049E+004   -6.22079E+005   -1.84479E+005   -6.22079E+005    6.50884E+005    2.59251E+005   -4.72516E+005   -2.00801E+005   -1.58439E+005   -4.18513E+005   -8.20001E+004    2.89475E+005   -1.06803E+004
            8138    5.13674E+005   -9.79653E+003   -5.85300E+005   -1.73221E+005   -5.85300E+005    5.75504E+005    2.56106E+005   -4.49346E+005   -1.95012E+005   -1.75421E+005   -3.97886E+005   -3.21907E+004    2.66890E+005    2.26927E+004
            8139    4.59428E+005   -5.00938E+004   -5.66329E+005   -2.02383E+005   -5.66329E+005    5.16235E+005    2.72935E+005   -3.96367E+005   -2.09385E+005   -2.04743E+005   -4.04677E+005   -6.46965E+003    2.34036E+005    5.02079E+004
            8140    6.40635E+005    9.78875E+003   -7.15383E+005   -2.26275E+005   -7.15383E+005    7.25172E+005    3.10623E+005   -5.28573E+005   -2.42435E+005   -2.11489E+005   -4.77946E+005   -6.33193E+004    3.33726E+005   -1.35981E+004
            8141    5.68782E+005   -2.53936E+004   -6.62063E+005   -2.04080E+005   -6.62063E+005    6.36670E+005    2.97179E+005   -4.99520E+005   -2.29977E+005   -2.05172E+005   -4.56388E+005   -2.42572E+004    2.96302E+005    1.70233E+004
            8142    5.03606E+005   -7.54152E+004   -6.39315E+005   -2.34353E+005   -6.39315E+005    5.63900E+005    3.16361E+005   -4.41655E+005   -2.44766E+005   -2.35624E+005   -4.68694E+005   -5.25789E+003    2.56252E+005    3.77125E+004
            8143    6.89327E+005   -7.74750E+003   -7.87603E+005   -2.59688E+005   -7.87603E+005    7.79856E+005    3.51680E+005   -5.71024E+005   -2.75677E+005   -2.55623E+005   -5.23739E+005   -3.42317E+004    3.67203E+005   -8.76561E+003
            8144    6.06618E+005   -3.55127E+004   -7.14340E+005   -2.25327E+005   -7.14340E+005    6.78827E+005    3.25060E+005   -5.33398E+005   -2.53672E+005   -2.25590E+005   -4.95917E+005   -1.25581E+004    3.16760E+005    8.70514E+003
            8145    5.34934E+005   -9.26050E+004   -6.90359E+005   -2.56679E+005   -6.90359E+005    5.97754E+005    3.46548E+005   -4.73150E+005   -2.69129E+005   -2.56975E+005   -5.13540E+005   -2.66434E+003    2.72170E+005    1.87023E+004
            8146    7.05851E+005   -1.39000E+004   -8.12322E+005   -2.71273E+005   -8.12322E+005    7.98422E+005    3.65832E+005   -5.85376E+005   -2.87081E+005   -2.71263E+005   -5.39151E+005    2.12816E+003    3.78786E+005    1.30319E+002
            8147    6.17986E+005   -3.88306E+004   -7.30365E+005   -2.32144E+005   -7.30365E+005    6.91534E+005    3.33780E+005   -5.43444E+005   -2.61048E+005   -2.32146E+005   -5.08145E+005    1.81264E+003    3.22935E+005   -9.77747E+002
            8148    5.44158E+005   -9.77070E+004   -7.05436E+005   -2.63343E+005   -7.05436E+005    6.07729E+005    3.55495E+005   -4.82354E+005   -2.76339E+005   -2.63349E+005   -5.26798E+005    4.53400E+002    2.76849E+005   -2.51291E+003
            8149    6.84209E+005   -6.39754E+003   -7.80514E+005   -2.56710E+005   -7.80514E+005    7.74116E+005    3.47874E+005   -5.66519E+005   -2.72526E+005   -2.51877E+005   -5.19219E+005    3.72204E+004    3.63933E+005    9.41190E+003
            8150    5.99346E+005   -3.41286E+004   -7.04780E+005   -2.21517E+005   -7.04780E+005    6.70652E+005    3.20142E+005   -5.27132E+005   -2.49469E+005   -2.21895E+005   -4.89062E+005    1.54430E+004    3.12730E+005   -1.04594E+004
            8151    5.27743E+005   -8.93200E+004   -6.79249E+005   -2.51994E+005   -6.79249E+005    5.89929E+005    3.40188E+005   -4.66121E+005   -2.64024E+005   -2.52523E+005   -5.04016E+005    3.59363E+003    2.68459E+005   -2.43231E+004
            8152    6.32724E+005    1.06756E+004   -7.05511E+005   -2.22331E+005   -7.05511E+005    7.16187E+005    3.05722E+005   -5.22203E+005   -2.38269E+005   -2.06978E+005   -4.71920E+005    6.53758E+004    3.28725E+005    1.23025E+004
            8153    5.55587E+005   -2.25712E+004   -6.44619E+005   -1.97693E+005   -6.44619E+005    6.22048E+005    2.88294E+005   -4.87433E+005   -2.22332E+005   -1.99049E+005   -4.43502E+005    2.61785E+004    2.89235E+005   -1.86378E+004
            8154    4.91086E+005   -7.02371E+004   -6.20481E+005   -2.26663E+005   -6.20481E+005    5.50244E+005    3.05794E+005   -4.29422E+005   -2.36264E+005   -2.28192E+005   -4.52925E+005    5.63200E+003    2.49840E+005   -4.10423E+004
            8155    1.00532E+005    2.81299E+004   -8.22672E+004    4.01103E+003   -8.22672E+004    1.10397E+005    1.67088E+004   -9.36843E+004    1.51571E+002    3.97466E+003   -5.42525E+004   -4.20184E+003    4.77747E+004    2.82531E+003
            8156    9.50685E+004    2.71741E+004   -7.75327E+004    3.37583E+003   -7.75327E+004    1.04707E+005    1.56609E+004   -8.79845E+004   -7.23011E+002    2.27586E+003   -4.85356E+004   -1.23121E+004    4.42911E+004    9.30450E+003
            8157    9.43002E+004    3.05512E+004   -7.24530E+004    9.62878E+003   -7.24530E+004    1.03004E+005    1.07577E+004   -8.88500E+004    1.13676E+003    9.34115E+003   -4.27510E+004   -2.07749E+004    3.88505E+004    1.54503E+004
            8158    9.64512E+004    3.24601E+004   -7.39206E+004    7.82129E+003   -7.39206E+004    1.06381E+005    1.12131E+004   -8.89479E+004   -1.86400E+003    9.20211E+003   -4.09773E+004   -2.81099E+004    3.25967E+004    2.35200E+004
            8159    1.10777E+005    4.65712E+004   -7.93082E+004    3.31270E+003   -7.93082E+004    1.25879E+005    9.80809E+003   -8.85387E+004   -6.28981E+003    1.55554E+004   -3.86899E+004   -3.92702E+004    2.78283E+004    3.20786E+004
            8160    6.99948E+004    1.61496E+004   -6.14165E+004   -2.96409E+003   -6.14165E+004    7.75662E+004    1.60770E+004   -6.37150E+004   -7.76517E+003   -3.30886E+003   -3.71569E+004   -2.42015E+003    3.57042E+004    3.76914E+003
            8161    6.83020E+004    1.61940E+004   -5.76776E+004    3.18312E+003   -5.76776E+004    7.38716E+004    1.27668E+004   -6.54262E+004   -6.29171E+003    3.41669E+002   -3.23504E+004   -7.04151E+003    3.30346E+004    1.07492E+004
            8162    6.68327E+004    1.16633E+004   -5.81086E+004    5.33449E+003   -5.81086E+004    6.97720E+004    1.37036E+004   -6.61534E+004   -9.00398E+003   -2.43701E+003   -2.96698E+004   -1.15659E+004    2.91767E+004    1.73737E+004
            8163    6.74800E+004    1.49693E+004   -5.53902E+004    8.78453E+003   -5.53902E+004    7.03595E+004    1.05454E+004   -6.68379E+004   -8.05074E+003    1.32322E+003   -2.49088E+004   -1.58363E+004    2.38263E+004    2.28620E+004
            8164    7.34138E+004    2.46131E+004   -5.71794E+004    3.00590E+003   -5.71794E+004    8.17926E+004    9.85348E+003   -6.56675E+004   -8.32424E+003    2.42425E+003   -2.36604E+004   -2.18687E+004    1.75753E+004    2.89403E+004
            8165    4.93852E+004    2.46286E+004   -3.17834E+004    3.64435E+003   -3.17834E+004    5.64121E+004    1.17016E+003   -3.71648E+004    3.30389E+003    3.44050E+003   -1.02549E+004   -7.85751E+002    2.71275E+004    3.81370E+003
            8166    4.86176E+004    2.34929E+004   -3.21012E+004    2.45171E+003   -3.21012E+004    5.55941E+004    2.05218E+003   -3.60042E+004    2.34975E+003    5.09595E+002   -9.01589E+003   -2.36812E+003    2.50299E+004    1.08889E+004
            8167    4.90116E+004    2.47451E+004   -3.03830E+004    8.26270E+003   -3.03830E+004    5.51282E+004   -8.74935E+002   -4.20618E+004    4.74756E+003    4.42487E+003   -6.54763E+003   -3.85882E+003    2.15074E+004    1.67902E+004
            8168    4.96587E+004    2.32810E+004   -3.24541E+004    7.08316E+003   -3.24541E+004    5.57351E+004    6.96638E+002   -4.30842E+004    2.78448E+003    1.63773E+003   -6.51212E+003   -4.88912E+003    1.70788E+004    2.19251E+004
            8169    5.13854E+004    2.52207E+004   -3.31635E+004    5.18967E+003   -3.31635E+004    5.83841E+004    9.17717E+002   -4.11131E+004    3.20761E+002    1.97739E+003   -5.05130E+003   -6.46129E+003    1.19959E+004    2.60960E+004
            8170    3.85400E+005    7.46874E+004   -3.60835E+005   -6.38696E+004   -3.60835E+005    4.35522E+005    1.16672E+005   -3.21741E+005   -8.47868E+004   -2.14488E+004   -2.43781E+005   -9.00124E+004    1.67586E+005    1.42592E+004
            8171    3.29290E+005    9.04251E+004   -2.84022E+005   -3.95772E+004   -2.84022E+005    3.74447E+005    7.77245E+004   -2.61414E+005   -5.76771E+004    1.27516E+004   -1.88248E+005   -9.27068E+004    1.28834E+005    2.34410E+004
            8172    2.82273E+005    9.20603E+004   -2.30423E+005   -2.81741E+004   -2.30423E+005    3.22483E+005    5.55122E+004   -2.11986E+005   -3.93042E+004    2.73083E+004   -1.54541E+005   -8.62810E+004    9.93283E+004    2.80098E+004
            8173    2.19118E+005    8.85074E+004   -1.62778E+005   -1.15598E+004   -1.62778E+005    2.51286E+005    2.86103E+004   -1.53502E+005   -2.01419E+004    3.66068E+004   -1.02296E+005   -7.40282E+004    6.81277E+004    3.17074E+004
            8174    1.65233E+005    6.62388E+004   -1.22683E+005   -5.12293E+003   -1.22683E+005    1.88921E+005    2.05223E+004   -1.22597E+005   -1.55045E+004    2.46753E+004   -7.07376E+004   -5.82867E+004    4.72929E+004    3.42336E+004
            8175    1.41084E+005    4.77917E+004   -1.10876E+005    4.47753E+002   -1.10876E+005    1.58667E+005    2.08787E+004   -1.21176E+005   -1.04498E+004    1.43195E+004   -6.65058E+004   -4.05923E+004    5.38643E+004    1.92639E+004
            8176    1.36765E+005    4.00141E+004   -1.12631E+005   -1.24882E+003   -1.12631E+005    1.52645E+005    2.46218E+004   -1.21530E+005   -1.01570E+004    5.24917E+003   -6.89577E+004   -2.93565E+004    6.09904E+004    1.09372E+004
            8177    1.36448E+005    3.99941E+004   -1.11836E+005    5.29370E+002   -1.11836E+005    1.51831E+005    2.37710E+004   -1.22587E+005   -5.87305E+003    3.32051E+003   -6.87604E+004   -1.72888E+004    6.59467E+004    4.35561E+003
            8178    1.40960E+005    3.84052E+004   -1.18648E+005   -3.10005E+003   -1.18648E+005    1.57053E+005    2.77809E+004   -1.26073E+005   -6.55461E+003   -2.76242E+003   -7.40256E+004   -5.87826E+003    7.05699E+004    1.03141E+003
            8179    1.84072E+005    6.72618E+004   -1.42042E+005   -5.34884E+003   -1.42042E+005    2.09304E+005    2.67096E+004   -1.46206E+005   -9.80926E+003    2.01369E+004   -9.04564E+004   -5.23528E+004    7.09908E+004    1.55489E+004
            8180    1.72638E+005    6.35880E+004   -1.32009E+005   -8.94373E+002   -1.32009E+005    1.95597E+005    2.31052E+004   -1.41463E+005   -3.09040E+003    1.50215E+004   -8.12469E+004   -3.67275E+004    7.72011E+004    2.88423E+003
            8181    1.68444E+005    5.83132E+004   -1.31953E+005   -1.85817E+003   -1.31953E+005    1.90266E+005    2.51661E+004   -1.41030E+005   -1.20942E+003    3.79767E+003   -7.80865E+004   -2.14673E+004    8.29994E+004   -1.15433E+003
            8182    1.72999E+005    6.18936E+004   -1.32597E+005    4.12990E+003   -1.32597E+005    1.94490E+005    2.21911E+004   -1.48861E+005    3.38639E+003    5.02598E+003   -7.49855E+004   -7.31856E+003    8.84710E+004   -2.10065E+003
            8183    2.42347E+005    7.49616E+004   -1.99703E+005   -1.59870E+004   -1.99703E+005    2.74665E+005    4.69096E+004   -1.98094E+005   -2.25447E+004    1.04547E+004   -1.28639E+005   -5.84807E+004    1.03812E+005    9.92321E+003
            8184    2.27504E+005    6.89090E+004   -1.88357E+005   -1.36928E+004   -1.88357E+005    2.57266E+005    4.43802E+004   -1.89056E+005   -1.65095E+004    4.61960E+002   -1.17093E+005   -3.93527E+004    1.08012E+005   -1.04275E+002
            8185    2.16436E+005    7.37014E+004   -1.71365E+005   -6.39053E+003   -1.71365E+005    2.45066E+005    3.46847E+004   -1.78198E+005   -6.37590E+003    1.62533E+002   -9.78407E+004   -2.16348E+004    1.09936E+005   -7.65311E+003
            8186    2.13281E+005    8.06184E+004   -1.62132E+005   -4.80119E+003   -1.62132E+005    2.42751E+005    2.87717E+004   -1.67754E+005   -6.60738E+001   -4.08463E+003   -8.21645E+004   -7.01923E+003    1.13835E+005   -3.62849E+003
            8187    2.87368E+005    7.10571E+004   -2.51888E+005   -2.43842E+004   -2.51888E+005    3.22945E+005    6.84049E+004   -2.47750E+005   -4.03799E+004   -5.03029E+003   -1.59805E+005   -6.11897E+004    1.30421E+005    1.39638E+004
            8188    2.55932E+005    7.38998E+004   -2.15512E+005   -1.90215E+004   -2.15512E+005    2.89412E+005    5.35447E+004   -2.12682E+005   -2.48906E+004   -9.57312E+003   -1.26170E+005   -3.55227E+004    1.28665E+005   -1.66820E+003
            8189    2.37083E+005    7.73519E+004   -1.91555E+005   -1.26601E+004   -1.91555E+005    2.68907E+005    4.22877E+004   -1.92585E+005   -1.48021E+004   -9.93592E+003   -1.02125E+005   -1.82807E+004    1.25313E+005   -2.69394E+003
            8190    2.31107E+005    9.67250E+004   -1.66611E+005    2.48707E+003   -1.66611E+005    2.63336E+005    2.24664E+004   -1.79544E+005    5.18251E+002    2.90199E+003   -7.08194E+004   -5.72259E+003    1.26521E+005   -2.87634E+003
            8191    3.30674E+005    5.60379E+004   -3.15887E+005   -5.50987E+004   -3.15887E+005    3.71925E+005    1.04983E+005   -2.83849E+005   -6.38183E+004   -5.09720E+004   -2.00158E+005   -4.95394E+004    1.64069E+005    1.55164E+004
            8192    2.89699E+005    5.96540E+004   -2.66783E+005   -4.02846E+004   -2.66783E+005    3.26437E+005    8.24714E+004   -2.46176E+005   -4.36617E+004   -4.26222E+004   -1.61130E+005   -2.52999E+004    1.49669E+005    1.71331E+004
            8193    2.66401E+005    7.49062E+004   -2.25137E+005   -1.63757E+004   -2.25137E+005    3.00043E+005    5.55353E+004   -2.26990E+005   -2.53893E+004   -1.66109E+004   -1.24606E+005   -1.19713E+004    1.40996E+005    6.00851E+003
            8194    2.46948E+005    9.36055E+004   -1.88308E+005   -1.02413E+004   -1.88308E+005    2.81913E+005    3.49812E+004   -1.87434E+005   -1.14199E+004   -1.03679E+004   -8.31559E+004   -3.17578E+003    1.36250E+005    3.57005E+003
            8195    2.50671E+005    8.39039E+004   -1.97946E+005    4.29382E+001   -1.97946E+005    2.81850E+005    3.79998E+004   -2.15542E+005   -2.44215E+004    6.06092E+001   -8.96385E+004   -9.24017E+002    1.36643E+005    1.11114E+004
            8196    2.52301E+005    3.54217E+004   -2.46695E+005   -4.26814E+004   -2.46695E+005    2.82117E+005    8.46516E+004   -2.22562E+005   -6.40718E+004   -3.89379E+004   -1.50945E+005   -1.98269E+002    1.23968E+005    4.89547E+004
            8197    2.80170E+005    6.27094E+004   -2.53241E+005   -3.50433E+004   -2.53241E+005    3.15950E+005    7.51917E+004   -2.36975E+005   -5.10017E+004   -3.70368E+004   -1.37536E+005   -5.89170E+003    1.47068E+005    3.92109E+004
            8198    2.67816E+005    6.01930E+004   -2.46850E+005   -6.14131E+004   -2.46850E+005    3.07043E+005    8.26901E+004   -1.88871E+005   -6.12641E+004   -6.30140E+004   -1.23792E+005   -1.79771E+003    1.37695E+005    6.06428E+004
            8199    2.97189E+005    6.19778E+004   -2.76595E+005   -5.88515E+004   -2.76595E+005    3.38572E+005    9.11561E+004   -2.31361E+005   -5.99052E+004   -6.46656E+004   -1.48898E+005   -1.48787E+004    1.59532E+005    3.55330E+004
            8200    2.91070E+005    4.43182E+004   -2.87862E+005   -7.74567E+004   -2.87862E+005    3.32180E+005    1.07000E+005   -2.21826E+005   -7.83843E+004   -8.09428E+004   -1.61674E+005   -5.05719E+003    1.51387E+005    5.52572E+004
            8201    3.42016E+005    4.32147E+004   -3.43400E+005   -8.02992E+004   -3.43400E+005    3.86615E+005    1.26828E+005   -2.84931E+005   -8.59202E+004   -8.71979E+004   -2.07367E+005   -2.77382E+004    1.79769E+005    3.22505E+004
            8202    3.26057E+005    3.18486E+004   -3.39742E+005   -1.01473E+005   -3.39742E+005    3.71590E+005    1.36455E+005   -2.52811E+005   -9.93906E+004   -1.06290E+005   -2.03685E+005   -6.87468E+003    1.68968E+005    5.86389E+004
            8203    3.64676E+005    9.74400E+003   -4.04698E+005   -1.32926E+005   -4.04698E+005    4.14442E+005    1.75960E+005   -2.91141E+005   -1.29956E+005   -1.37360E+005   -2.60564E+005   -6.88558E+003    1.88047E+005    5.94857E+004
            8204    4.11570E+005   -1.84768E+004   -4.83357E+005   -1.65451E+005   -4.83357E+005    4.64880E+005    2.22428E+005   -3.44637E+005   -1.67919E+005   -1.69123E+005   -3.30244E+005   -7.17430E+003    2.10277E+005    5.89657E+004
            8205    3.93921E+005    2.75178E+004   -4.15426E+005   -1.04373E+005   -4.15426E+005    4.42944E+005    1.64094E+005   -3.38618E+005   -1.16151E+005   -1.09727E+005   -2.66402E+005   -3.71617E+004    2.03999E+005    2.94548E+004
            8206    4.54634E+005    6.65084E+003   -5.03258E+005   -1.40199E+005   -5.03258E+005    5.09909E+005    2.12269E+005   -3.95746E+005   -1.57310E+005   -1.43743E+005   -3.35753E+005   -3.60161E+004    2.35399E+005    2.65549E+004
            8207    5.02768E+005    4.53197E+004   -5.24011E+005   -1.40994E+005   -5.24011E+005    5.69330E+005    2.06562E+005   -4.13648E+005   -1.57891E+005   -1.07644E+005   -3.54150E+005   -8.82988E+004    2.43869E+005   -4.66680E+003
            8208    4.38591E+005    5.67397E+004   -4.38397E+005   -9.86760E+004   -4.38397E+005    4.95137E+005    1.60111E+005   -3.68526E+005   -1.19341E+005   -6.43408E+004   -2.96651E+005   -8.69372E+004    2.04430E+005    5.69799E+003
            8209    3.19251E+005    2.92588E+005    2.92588E+005    3.52793E+004   -6.46827E+004    3.57271E+005   -8.77282E+004    2.80660E+005    5.21810E+004   -1.78037E+003    2.12784E+005   -7.09691E+004    1.26163E+005   -2.37240E+004
            8210    2.51636E+005    2.07110E+005    2.07110E+005    1.97200E+004   -7.88976E+004    2.86008E+005   -4.93108E+004    2.00680E+005    2.45810E+004   -2.73503E+004    1.50702E+005   -6.78920E+004    8.68560E+004   -2.38583E+004
            8211    1.93625E+005    1.49106E+005    1.49106E+005    1.01629E+004   -7.20609E+004    2.21167E+005   -2.90695E+004    1.45785E+005    1.48062E+004   -3.12994E+004    1.03702E+005   -5.88449E+004    5.90481E+004   -2.89573E+004
            8212    1.44849E+005    1.09123E+005    1.09123E+005    2.15609E+003   -5.57148E+004    1.64838E+005   -1.85214E+004    1.14113E+005    9.37269E+003   -2.32807E+004    6.94721E+004   -4.59019E+004    4.10468E+004   -3.14380E+004
            8213    1.26651E+005    1.07984E+005    1.07984E+005    1.13036E+003   -3.19131E+004    1.39897E+005   -2.57338E+004    1.16345E+005    7.09087E+003   -4.96122E+003    7.50718E+004   -2.49599E+004    5.19303E+004   -1.28480E+004
            8214    1.34411E+005    1.18680E+005    1.18680E+005    2.09923E+003   -2.83394E+004    1.47020E+005   -3.08133E+004    1.26302E+005    5.47151E+003    1.17526E+003    8.57933E+004   -8.60219E+003    6.05602E+004   -2.97051E+003
            8215    1.59579E+005    1.24287E+005    1.24287E+005    2.28643E+003   -5.63064E+004    1.80593E+005   -2.34222E+004    1.31897E+005   -1.47419E+003   -1.54365E+004    8.71772E+004   -3.29800E+004    6.55566E+004   -2.42524E+003
            8216    1.63926E+005    1.33692E+005    1.33692E+005   -2.83890E+002   -4.90965E+004    1.82788E+005   -2.81038E+004    1.46184E+005   -3.28619E+003   -2.65032E+003    9.02478E+004   -1.20705E+004    7.69055E+004    7.81585E+002
            8217    2.22888E+005    1.87133E+005    1.87133E+005    1.53185E+004   -6.47231E+004    2.51856E+005   -4.59095E+004    1.86168E+005    6.84116E+003   -1.72975E+003    1.32617E+005   -3.64460E+004    9.77897E+004    3.40504E+003
            8218    2.17343E+005    1.72359E+005    1.72359E+005    3.92248E+003   -7.29789E+004    2.45338E+005   -3.44343E+004    1.82740E+005   -4.89152E+003    1.16313E+003    1.07031E+005   -1.25645E+004    1.07605E+005    6.87764E+003
            8219    2.64722E+005    2.30836E+005    2.30836E+005    2.52511E+004   -6.78614E+004    2.98698E+005   -6.27420E+004    2.23146E+005    2.09614E+004    1.66662E+004    1.50598E+005   -3.13197E+004    1.28747E+005    2.97593E+003
            8220    2.39435E+005    1.89135E+005    1.89135E+005    1.04248E+004   -8.29108E+004    2.72046E+005   -3.88832E+004    1.91571E+005    7.54098E+003    9.95651E+003    9.91520E+004   -9.26203E+003    1.27664E+005    5.93856E+001
            8221    2.58638E+005    2.15213E+005    2.15213E+005    3.20946E+003   -7.29548E+004    2.88168E+005   -4.84892E+004    2.31315E+005    2.28290E+004    3.62923E+003    1.19009E+005   -5.48941E+003    1.35599E+005   -7.66134E+003
            8222    2.73773E+005    2.75524E+005    2.75524E+005    5.12724E+004   -2.95647E+004    3.05089E+005   -9.90774E+004    2.44682E+005    7.48706E+004    4.83880E+004    1.73974E+005   -1.94038E+003    1.32765E+005   -5.45077E+004
            8223    2.99092E+005    2.92376E+005    2.92376E+005    4.99062E+004   -4.18429E+004    3.34219E+005   -1.00147E+005    2.64538E+005    5.34821E+004    5.65928E+004    1.90365E+005   -1.93140E+004    1.48697E+005   -3.50417E+004
            8224    3.01001E+005    2.93917E+005    2.93917E+005    7.78830E+004   -4.98930E+004    3.43810E+005   -1.07302E+005    2.26699E+005    7.68930E+004    8.28688E+004    1.62145E+005   -5.61732E+003    1.52982E+005   -6.70878E+004
            8225    3.33689E+005    3.52725E+005    3.52725E+005    1.07395E+005   -2.72499E+004    3.79975E+005   -1.44290E+005    2.61144E+005    1.01587E+005    1.13373E+005    2.17910E+005   -7.78857E+003    1.70864E+005   -6.13296E+004
            8226    3.84668E+005    4.23296E+005    4.23296E+005    1.35186E+005   -1.35288E+004    4.36825E+005   -1.81651E+005    3.09284E+005    1.27975E+005    1.42869E+005    2.74109E+005   -1.01794E+004    1.94537E+005   -7.00589E+004
            8227    4.39846E+005    5.15671E+005    5.15671E+005    1.76457E+005    1.87040E+004    4.96967E+005   -2.36944E+005    3.67596E+005    1.70556E+005    1.81905E+005    3.58371E+005   -8.88720E+003    2.21175E+005   -6.63326E+004
            8228    4.95512E+005    6.06394E+005    6.06394E+005    2.15941E+005    4.89629E+004    5.57431E+005   -2.90432E+005    4.24925E+005    2.13586E+005    2.19608E+005    4.38103E+005   -7.44687E+003    2.48043E+005   -6.24442E+004
            8229    3.39894E+005    3.46278E+005    3.46278E+005    8.09230E+004   -3.68351E+004    3.83113E+005   -1.30122E+005    2.88328E+005    7.19234E+004    8.92717E+004    2.29171E+005   -3.17596E+004    1.69597E+005   -3.61161E+004
            8230    4.03402E+005    4.48773E+005    4.48773E+005    1.24680E+005   -3.02540E+003    4.51799E+005   -1.90143E+005    3.53439E+005    1.18260E+005    1.32270E+005    3.19898E+005   -3.50447E+004    1.97086E+005   -3.86907E+004
            8231    4.61366E+005    5.40149E+005    5.40149E+005    1.64960E+005    2.50128E+004    5.15136E+005   -2.43374E+005    4.09364E+005    1.61591E+005    1.70292E+005    3.98239E+005   -3.38591E+004    2.24847E+005   -3.52666E+004
            8232    5.26685E+005    6.44843E+005    6.44843E+005    2.07920E+005    6.00212E+004    5.84822E+005   -3.04261E+005    4.76499E+005    2.12312E+005    2.11571E+005    4.88901E+005   -3.05755E+004    2.54819E+005   -3.20736E+004
            8233    5.42052E+005    6.25699E+005    6.25699E+005    1.99601E+005    1.55980E+004    6.10101E+005   -2.80299E+005    4.63546E+005    2.10196E+005    1.67234E+005    4.63468E+005   -7.65892E+004    2.57460E+005    1.28152E+004
            8234    4.77843E+005    5.31369E+005    5.31369E+005    1.54587E+005   -6.10809E+003    5.37477E+005   -2.26616E+005    4.10088E+005    1.65917E+005    1.17370E+005    3.96560E+005   -8.15218E+004    2.17288E+005    1.32576E+003
            8235    4.15945E+005    4.40157E+005    4.40157E+005    1.10671E+005   -2.72230E+004    4.67380E+005   -1.74535E+005    3.58835E+005    1.22265E+005    7.24181E+004    3.28922E+005   -7.70376E+004    1.82260E+005   -4.32973E+003
            8236    3.59951E+005    3.61793E+005    3.61793E+005    7.00851E+004   -4.04672E+004    4.02261E+005   -1.30470E+005    3.18254E+005    8.48386E+004    4.05246E+004    2.66048E+005   -6.92997E+004    1.54531E+005   -1.51293E+004
            8237    8.92040E+004    7.70698E+004    7.70698E+004   -2.29989E+003   -1.94719E+004    9.65417E+004   -1.84327E+004    8.53658E+004   -1.73392E+003   -2.14311E+003    5.91751E+004   -6.19605E+003    3.65591E+004   -5.70047E+003
            8238    8.52340E+004    6.88709E+004    6.88709E+004   -7.57589E+003   -2.30344E+004    9.19054E+004   -1.27535E+004    8.19907E+004   -1.97114E+003   -7.34659E+003    4.75783E+004   -1.68838E+004    3.05382E+004   -1.69462E+004
            8239    9.90007E+004    7.55481E+004    7.55481E+004   -1.42216E+003   -3.61342E+004    1.11682E+005   -1.26639E+004    8.35646E+004    5.76468E+003   -1.09287E+004    4.31558E+004   -3.04588E+004    2.39622E+004   -3.15933E+004
            8240    6.03139E+004    5.62447E+004    5.62447E+004    1.04129E+003   -8.12933E+003    6.43741E+004   -1.63856E+004    5.87146E+004    7.48582E+003    1.92134E+003    3.97495E+004   -3.04894E+003    2.73123E+004   -6.33901E+003
            8241    5.99079E+004    5.37378E+004    5.37378E+004   -4.73941E+003   -7.50493E+003    6.12427E+004   -1.38311E+004    5.97640E+004    7.88134E+003    1.93176E+003    3.16803E+004   -9.30775E+003    2.31077E+004   -1.81086E+004
            8242    6.77591E+004    5.32263E+004    5.32263E+004   -2.30072E+003   -2.22746E+004    7.55009E+004   -9.55031E+003    6.05852E+004    6.50679E+003   -2.48042E+003    2.46246E+004   -1.66361E+004    1.54006E+004   -2.87380E+004
            8243    3.71872E+004    2.45983E+004    2.45983E+004   -2.70123E+003   -1.77558E+004    4.23541E+004   -1.38042E+003    2.90368E+004   -4.52050E+003   -1.86342E+003    1.05252E+004   -1.15983E+003    1.89079E+004   -6.13380E+003
            8244    4.23296E+004    2.73771E+004    2.73771E+004   -6.50455E+003   -2.00730E+004    4.74502E+004   -2.66507E+002    3.69394E+004   -4.36900E+003   -3.02905E+003    8.19756E+003   -2.77092E+003    1.58487E+004   -1.70523E+004
            8245    4.99603E+004    3.38145E+004    3.38145E+004   -2.70164E+003   -2.31213E+004    5.69357E+004   -2.66386E+003    3.87489E+004    6.11310E+002   -4.07884E+002    7.78814E+003   -4.96236E+003    1.03454E+004   -2.60846E+004
            8246    5.09248E+005    6.30067E+005    6.30067E+005    2.25864E+005    5.81024E+004    5.71964E+005   -3.04678E+005    4.40315E+005    2.25166E+005    2.29169E+005    4.59697E+005    7.45393E+003    2.54629E+005    5.93772E+004
            8247    5.41282E+005    6.65334E+005    6.65334E+005    2.15362E+005    6.46757E+004    6.00659E+005   -3.15124E+005    4.90662E+005    2.21763E+005    2.18304E+005    5.05305E+005    3.04549E+004    2.62172E+005    2.95100E+004
            8248    5.50358E+005    6.38669E+005    6.38669E+005    2.04505E+005    1.96922E+004    6.18977E+005   -2.87622E+005    4.72575E+005    2.16323E+005    1.72907E+005    4.73636E+005    7.57498E+004    2.61976E+005   -1.31467E+004
            8249    5.57569E+005    7.12176E+005    7.12176E+005    2.61734E+005    8.85713E+004    6.23605E+005   -3.54160E+005    4.91376E+005    2.66189E+005    2.63247E+005    5.33045E+005    5.21830E+003    2.78448E+005    4.54464E+004
            8250    6.01749E+005    7.61147E+005    7.61147E+005    2.56647E+005    9.51199E+004    6.66027E+005   -3.70972E+005    5.49713E+005    2.68455E+005    2.58043E+005    5.86417E+005    2.26513E+004    2.91329E+005    2.18114E+004
            8251    6.06888E+005    7.28881E+005    7.28881E+005    2.48297E+005    4.68965E+004    6.81984E+005   -3.41358E+005    5.23371E+005    2.59202E+005    2.29679E+005    5.35192E+005    5.93616E+004    3.00925E+005   -1.71713E+004
            8252    5.90807E+005    7.70803E+005    7.70803E+005    2.88137E+005    1.11944E+005    6.58859E+005   -3.90295E+005    5.26648E+005    2.96621E+005    2.88483E+005    5.85780E+005    2.64811E+003    2.95196E+005    2.29265E+004
            8253    6.44541E+005    8.27422E+005    8.27422E+005    2.85189E+005    1.14807E+005    7.12614E+005   -4.09139E+005    5.90604E+005    3.00336E+005    2.85528E+005    6.41554E+005    1.15050E+004    3.12495E+005    1.11784E+004
            8254    6.48013E+005    7.98819E+005    7.98819E+005    2.82494E+005    7.16400E+004    7.27179E+005   -3.84318E+005    5.62689E+005    2.92726E+005    2.77283E+005    5.82944E+005    3.22386E+004    3.30393E+005   -1.12294E+004
            8255    6.00740E+005    7.88093E+005    7.88093E+005    2.95648E+005    1.18772E+005    6.69321E+005   -4.00838E+005    5.37301E+005    3.05528E+005    2.95655E+005    6.01330E+005   -4.74089E+002    3.00195E+005   -2.61254E+003
            8256    6.57794E+005    8.47905E+005    8.47905E+005    2.94152E+005    1.20794E+005    7.27111E+005   -4.20951E+005    6.03104E+005    3.10047E+005    2.94153E+005    6.58652E+005   -1.56025E+003    3.19042E+005   -9.75523E+002
            8257    6.63358E+005    8.24578E+005    8.24578E+005    2.95030E+005    8.05053E+004    7.44073E+005   -4.00038E+005    5.77205E+005    3.04793E+005    2.95026E+005    6.00294E+005   -1.18699E+003    3.41437E+005   -1.15059E+001
            8258    5.84401E+005    7.59697E+005    7.59697E+005    2.83135E+005    1.07664E+005    6.52033E+005   -3.83499E+005    5.19986E+005    2.90975E+005    2.83674E+005    5.75848E+005   -3.22102E+003    2.91956E+005   -2.88262E+004
            8259    6.36931E+005    8.16064E+005    8.16064E+005    2.80007E+005    1.11959E+005    7.04105E+005   -4.02677E+005    5.83848E+005    2.94916E+005    2.80454E+005    6.32661E+005   -1.44892E+004    3.08423E+005   -1.30539E+004
            8260    6.45252E+005    7.93998E+005    7.93998E+005    2.80268E+005    6.97891E+004    7.24209E+005   -3.81352E+005    5.59817E+005    2.90388E+005    2.74280E+005    5.79388E+005   -3.45830E+004    3.28585E+005    1.18485E+004
            8261    5.46286E+005    6.93618E+005    6.93618E+005    2.53814E+005    8.21064E+004    6.11511E+005   -3.43179E+005    4.79688E+005    2.56997E+005    2.55689E+005    5.16852E+005   -5.81906E+003    2.72863E+005   -4.86440E+004
            8262    5.87953E+005    7.40076E+005    7.40076E+005    2.47829E+005    8.90345E+004    6.51041E+005   -3.58980E+005    5.36437E+005    2.58278E+005    2.49599E+005    5.69062E+005   -2.39989E+004    2.84527E+005   -2.40458E+004
            8263    6.01752E+005    7.21577E+005    7.21577E+005    2.44792E+005    4.54488E+004    6.76128E+005   -3.37273E+005    5.19271E+005    2.55838E+005    2.25797E+005    5.30183E+005   -6.07777E+004    2.97702E+005    1.56585E+004
            8264    9.89298E+004    3.61015E+004   -7.54985E+004    1.42496E+003   -7.54985E+004    1.11600E+005    1.26573E+004   -8.35157E+004   -5.75491E+003    1.08980E+004   -4.31151E+004    3.04111E+004    2.39015E+004   -3.16412E+004
            8265    8.50233E+004    2.29472E+004   -6.86983E+004    7.61687E+003   -6.86983E+004    9.16455E+004    1.27114E+004   -8.18267E+004    2.02075E+003    7.35516E+003   -4.75101E+004    1.67673E+004    3.04579E+004   -1.68968E+004
            8266    8.85997E+004    1.93955E+004   -7.64923E+004    2.33936E+003   -7.64923E+004    9.58878E+004    1.82525E+004   -8.47872E+004    1.80163E+003    2.17746E+003   -5.87366E+004    6.15885E+003    3.62921E+004   -5.68638E+003
            8267    6.75347E+004    2.21897E+004   -5.30557E+004    2.30208E+003   -5.30557E+004    7.52454E+004    9.52132E+003   -6.04004E+004   -6.47936E+003    2.43301E+003   -2.45176E+004    1.65207E+004    1.53468E+004   -2.86938E+004
            8268    5.99186E+004    7.44443E+003   -5.37699E+004    4.76300E+003   -5.37699E+004    6.12143E+004    1.38542E+004   -5.97834E+004   -7.92389E+003   -1.91515E+003   -3.17234E+004    9.32353E+003    2.31611E+004   -1.80242E+004
            8269    6.00762E+004    8.11345E+003   -5.60328E+004   -1.08838E+003   -5.60328E+004    6.41463E+004    1.63359E+004   -5.84591E+004   -7.51387E+003   -1.96271E+003   -3.95312E+004    3.02332E+003    2.72535E+004   -6.31983E+003
            8270    4.98554E+004    2.31820E+004   -3.36533E+004    2.69310E+003   -3.36533E+004    5.68354E+004    2.59274E+003   -3.85139E+004   -5.38307E+002    4.18190E+002   -7.65810E+003    4.83489E+003    1.03293E+004   -2.60572E+004
            8271    4.24804E+004    2.00350E+004   -2.75384E+004    6.60053E+003   -2.75384E+004    4.75733E+004    3.00954E+002   -3.72308E+004    4.36565E+003    3.05887E+003   -8.32738E+003    2.85421E+003    1.58822E+004   -1.70995E+004
            8272    3.71431E+004    1.77817E+004   -2.45258E+004    2.72450E+003   -2.45258E+004    4.23074E+004    1.33987E+003   -2.89751E+004    4.55208E+003    1.88053E+003   -1.04522E+004    1.17093E+003    1.88921E+004   -6.12594E+003
            8273    2.46061E+005    1.94668E+005    1.94668E+005    7.80862E+003   -8.41224E+004    2.78790E+005   -3.94514E+004    2.01600E+005    1.52296E+004    7.98051E+003    9.51440E+004    4.24231E+003    1.33446E+005    4.10355E+003
            8274    2.40781E+005    1.85848E+005    1.85848E+005    1.17336E+003   -8.64809E+004    2.72329E+005   -3.35136E+004    1.99839E+005   -1.89197E+003    4.20526E+002    1.02012E+005    6.88181E+003    1.25456E+005   -4.26341E+003
            8275    1.96390E+005    1.53309E+005    1.53309E+005    2.12971E+003   -6.86625E+004    2.21971E+005   -2.89253E+004    1.63751E+005   -5.44394E+003    9.87339E+002    9.12326E+004    8.31290E+003    9.92579E+004   -3.61604E+003
            8276    1.72944E+005    1.43255E+005    1.43255E+005   -1.26736E+001   -4.88579E+004    1.92113E+005   -3.14615E+004    1.56258E+005    1.46254E+003   -1.15972E+003    9.40817E+004    7.33466E+003    8.34760E+004   -2.25731E+003
            8277    1.28299E+005    1.09624E+005    1.09624E+005   -4.01912E+001   -3.14694E+004    1.41094E+005   -2.60382E+004    1.19168E+005   -1.34739E+003   -6.16953E+002    8.00790E+004    6.04694E+003    5.70777E+004    1.43057E+003
            8278    2.68611E+005    2.33170E+005    2.33170E+005    1.51778E+004   -6.69060E+004    3.00076E+005   -6.04805E+004    2.37839E+005    2.63992E+004    1.47152E+004    1.40327E+005    1.58837E+004    1.37670E+005    5.43934E+003
            8279    2.49995E+005    2.12786E+005    2.12786E+005    1.99813E+004   -6.96736E+004    2.82460E+005   -5.43647E+004    2.08938E+005    1.16223E+004    1.50597E+004    1.36412E+005    2.16887E+004    1.23644E+005   -4.74517E+003
            8280    2.02059E+005    1.60078E+005    1.60078E+005    5.29313E+003   -6.85071E+004    2.28585E+005   -3.22879E+004    1.67436E+005   -3.05437E+003   -5.49061E+003    1.05409E+005    2.46985E+004    9.43186E+004   -9.58097E+003
            8281    1.68940E+005    1.41041E+005    1.41041E+005    7.57774E+003   -4.89040E+004    1.89945E+005   -3.32383E+004    1.45300E+005    4.61725E+003   -1.20668E+002    9.52182E+004    2.24925E+004    7.82248E+004   -1.35608E+003
            8282    1.24904E+005    1.01116E+005    1.01116E+005   -2.98398E+003   -3.73824E+004    1.38498E+005   -2.02499E+004    1.13491E+005   -4.00931E+003   -8.03500E+003    7.27940E+004    1.74034E+004    5.29341E+004    4.55088E+003
            8283    2.93888E+005    2.77337E+005    2.77337E+005    4.22471E+004   -5.21500E+004    3.29487E+005   -8.91447E+004    2.56294E+005    4.30261E+004    4.47480E+004    1.79660E+005    2.94369E+004    1.46205E+005    2.00494E+004
            8284    2.71568E+005    2.38731E+005    2.38731E+005    2.89983E+004   -6.80213E+004    3.06753E+005   -6.65694E+004    2.27360E+005    1.73671E+004    1.70104E+004    1.65331E+005    3.66282E+004    1.26164E+005   -2.92342E+003
            8285    2.09275E+005    1.73087E+005    1.73087E+005    1.35175E+004   -6.38571E+004    2.36944E+005   -4.09159E+004    1.72378E+005    4.29179E+003   -5.36360E+003    1.23820E+005    3.92740E+004    8.87584E+004    3.11747E+002
            8286    1.73277E+005    1.42156E+005    1.42156E+005    6.93565E+003   -5.31715E+004    1.95327E+005   -3.19733E+004    1.46915E+005    6.26315E+003   -9.56351E+003    9.92203E+004    3.39295E+004    7.34322E+004    3.25897E+003
            8287    1.23437E+005    9.89633E+004    9.89633E+004   -7.13882E+002   -3.91086E+004    1.38072E+005   -1.97136E+004    1.08733E+005   -2.25775E+003   -9.85493E+003    7.12535E+004    2.69662E+004    4.68424E+004    1.22815E+004
            8288    3.31461E+005    3.25559E+005    3.25559E+005    5.93921E+004   -4.57106E+004    3.71270E+005   -1.13080E+005    2.90258E+005    6.13899E+004    5.53838E+004    2.22467E+005    4.96946E+004    1.57444E+005    1.95185E+004
            8289    2.99606E+005    2.74582E+005    2.74582E+005    3.40153E+004   -6.10142E+004    3.35596E+005   -8.25276E+004    2.62339E+005    3.54968E+004    1.10406E+004    2.01045E+005    5.77837E+004    1.25306E+005    1.40144E+004
            8290    2.23822E+005    1.81507E+005    1.81507E+005    1.58122E+004   -7.31118E+004    2.54618E+005   -4.14023E+004    1.76972E+005    1.20035E+004   -2.00239E+004    1.32227E+005    5.58987E+004    8.38246E+004    1.02085E+004
            8291    1.84365E+005    1.51690E+005    1.51690E+005    1.09854E+004   -5.70180E+004    2.08708E+005   -3.52190E+004    1.52040E+005    1.57398E+004   -1.79052E+004    1.07823E+005    4.77888E+004    6.74397E+004    1.61815E+004
            8292    1.29494E+005    9.60524E+004    9.60524E+004   -1.52772E+003   -5.08568E+004    1.46909E+005   -1.45560E+004    1.04996E+005   -6.68559E+002   -2.21789E+004    6.65153E+004    3.71171E+004    4.08564E+004    2.00539E+004
            8293    1.58685E+005    1.16394E+005    1.16394E+005    5.87200E+003   -6.54354E+004    1.81829E+005   -1.89436E+004    1.13212E+005    1.04563E+004   -2.93947E+004    7.57691E+004    5.15627E+004    3.88823E+004    3.74729E+004
            8294    2.18667E+005    1.67002E+005    1.67002E+005    1.37921E+004   -8.34133E+004    2.50416E+005   -3.24603E+004    1.57795E+005    2.07258E+004   -3.97887E+004    1.16444E+005    6.73040E+004    6.25643E+004    3.59000E+004
            8295    2.75030E+005    2.28130E+005    2.28130E+005    3.24523E+004   -8.63287E+004    3.14458E+005   -5.80844E+004    2.04062E+005    3.74560E+004   -3.36493E+004    1.70447E+005    7.86821E+004    8.54748E+004    3.13692E+004
            8296    3.33045E+005    2.98884E+005    2.98884E+005    4.65440E+004   -7.86081E+004    3.77492E+005   -8.89399E+004    2.72040E+005    5.62614E+004   -1.34863E+004    2.24044E+005    8.48889E+004    1.18930E+005    2.67693E+004
            8297    3.90905E+005    3.84926E+005    3.84926E+005    7.26523E+004   -5.34702E+004    4.38396E+005   -1.34703E+005    3.40399E+005    9.24676E+004    2.61215E+004    2.85519E+005    8.36771E+004    1.59392E+005    1.91894E+004
            8298    4.31050E+005    4.56925E+005    4.56925E+005    1.11497E+005   -2.61338E+004    4.83059E+005   -1.80763E+005    3.76636E+005    1.27766E+005    7.19742E+004    3.42548E+005    7.96971E+004    1.87390E+005    7.67377E+003
            8299    4.88239E+005    5.43156E+005    5.43156E+005    1.58238E+005   -6.03174E+003    5.49188E+005   -2.31788E+005    4.18933E+005    1.70904E+005    1.18724E+005    4.05735E+005    8.12862E+004    2.22371E+005   -5.37743E+003
            8300    4.78203E+005    5.65361E+005    5.65361E+005    1.72185E+005    3.30094E+004    5.32352E+005   -2.56852E+005    4.28963E+005    1.73042E+005    1.77118E+005    4.20395E+005    3.51965E+004    2.31715E+005    3.50927E+004
            8301    4.54713E+005    5.36436E+005    5.36436E+005    1.84027E+005    2.31552E+004    5.13280E+005   -2.47873E+005    3.82338E+005    1.79268E+005    1.89634E+005    3.74716E+005    9.35525E+003    2.28204E+005    6.82851E+004
            8302    4.14100E+005    4.60309E+005    4.60309E+005    1.26680E+005   -3.15021E+003    4.63459E+005   -1.94613E+005    3.63899E+005    1.21953E+005    1.33811E+005    3.28074E+005    3.75432E+004    2.02286E+005    3.79005E+004
            8303    3.99149E+005    4.50065E+005    4.50065E+005    1.49618E+005   -2.84513E+003    4.52910E+005   -1.98946E+005    3.23148E+005    1.41002E+005    1.56506E+005    2.99329E+005    9.83333E+003    2.02249E+005    6.69913E+004
            8304    3.56015E+005    3.81467E+005    3.81467E+005    1.16309E+005   -2.31696E+004    4.04637E+005   -1.58202E+005    2.83980E+005    1.13208E+005    1.23498E+005    2.37901E+005    9.86475E+003    1.81533E+005    6.63844E+004
            8305    3.15211E+005    3.23905E+005    3.23905E+005    9.03579E+004   -3.46313E+004    3.58537E+005   -1.26544E+005    2.49543E+005    9.33381E+004    9.49392E+004    1.91355E+005    6.70421E+003    1.61520E+005    6.19231E+004
            8306    2.88159E+005    2.78265E+005    2.78265E+005    7.29318E+004   -5.11481E+004    3.29414E+005   -1.00016E+005    2.14377E+005    7.53811E+004    7.50522E+004    1.49616E+005    2.80687E+003    1.44879E+005    6.95384E+004
            8307    2.73456E+005    2.81067E+005    2.81067E+005    5.33087E+004   -2.22122E+004    3.03280E+005   -1.04055E+005    2.48319E+005    8.09493E+004    4.68443E+004    1.84370E+005    5.49922E+002    1.28430E+005    5.74681E+004
            8308    3.57671E+005    3.77689E+005    3.77689E+005    9.75013E+004   -2.51771E+004    4.02866E+005   -1.50004E+005    3.04635E+005    8.68989E+004    1.05578E+005    2.57536E+005    3.10235E+004    1.77623E+005    3.70219E+004
            8309    3.10296E+005    3.06795E+005    3.06795E+005    6.95671E+004   -4.43599E+004    3.51155E+005   -1.10668E+005    2.56474E+005    6.22876E+004    7.76916E+004    1.92023E+005    1.94754E+004    1.58436E+005    3.98717E+004
            8310    2.93934E+005    2.84241E+005    2.84241E+005    4.24793E+004   -4.29424E+004    3.27183E+005   -9.45925E+004    2.63763E+005    5.70010E+004    4.62356E+004    1.80541E+005    8.65800E+003    1.45744E+005    4.37424E+004
            8311    2.59059E+005    2.19804E+005    2.19804E+005    1.15140E+003   -6.63131E+004    2.86117E+005   -5.15474E+004    2.38062E+005    2.94629E+004    1.28535E+003    1.23894E+005    2.02505E+003    1.34531E+005    1.19954E+004
            8312    2.39532E+005    8.29600E+004   -1.89192E+005   -1.03873E+004   -1.89192E+005    2.72152E+005    3.88731E+004   -1.91681E+005   -7.56362E+003   -9.92384E+003   -9.91317E+004    9.22692E+003    1.27732E+005    5.18665E+001
            8313    2.17014E+005    7.28433E+004   -1.72105E+005   -3.85451E+003   -1.72105E+005    2.44948E+005    3.43720E+004   -1.82555E+005    4.90326E+003   -1.08014E+003   -1.06939E+005    1.25727E+004    1.07398E+005    6.89743E+003
            8314    1.62916E+005    4.85080E+004   -1.33059E+005    3.48969E+002   -1.33059E+005    1.81567E+005    2.80673E+004   -1.45562E+005    3.14763E+003    2.68090E+003   -9.00306E+004    1.19889E+004    7.63117E+004    6.45120E+002
            8315    1.33408E+005    2.78813E+004   -1.17992E+005   -2.17639E+003   -1.17992E+005    1.45873E+005    3.07622E+004   -1.25446E+005   -5.56453E+003   -1.29686E+003   -8.54253E+004    8.51048E+003    6.00428E+004   -3.07127E+003
            8316    2.64468E+005    6.78956E+004   -2.30532E+005   -2.52023E+004   -2.30532E+005    2.98427E+005    6.26128E+004   -2.22855E+005   -2.08724E+004   -1.65791E+004   -1.50387E+005    3.13788E+004    1.28600E+005    2.98157E+003
            8317    2.22207E+005    6.47228E+004   -1.86394E+005   -1.52179E+004   -1.86394E+005    2.51117E+005    4.56298E+004   -1.85446E+005   -6.65052E+003    1.85863E+003   -1.32097E+005    3.63976E+004    9.74488E+004    3.45731E+003
            8318    1.58665E+005    5.60518E+004   -1.23502E+005   -2.18568E+003   -1.23502E+005    1.79554E+005    2.32120E+004   -1.31163E+005    1.56463E+003    1.53834E+004   -8.65842E+004    3.28195E+004    6.51795E+004   -2.49692E+003
            8319    1.26058E+005    3.14950E+004   -1.07658E+005   -1.09638E+003   -1.07658E+005    1.39153E+005    2.57530E+004   -1.15997E+005   -7.13102E+003    4.74392E+003   -7.48720E+004    2.46780E+004    5.17411E+004   -1.28814E+004
            8320    1.44963E+005    5.57869E+004   -1.09188E+005   -2.16765E+003   -1.09188E+005    1.64975E+005    1.85228E+004   -1.14154E+005   -9.39828E+003    2.32928E+004   -6.94630E+004    4.59749E+004    4.10253E+004   -3.15381E+004
            8321    1.93831E+005    7.22860E+004   -1.49139E+005   -1.01647E+004   -1.49139E+005    2.21425E+005    2.90058E+004   -1.45733E+005   -1.47622E+004    3.14751E+004   -1.03730E+005    5.89557E+004    5.90183E+004   -2.90217E+004
            8322    2.51869E+005    7.89996E+004   -2.07275E+005   -1.97199E+004   -2.07275E+005    2.86275E+005    4.93319E+004   -2.00853E+005   -2.45526E+004    2.73830E+004   -1.50826E+005    6.79690E+004    8.69174E+004   -2.39046E+004
            8323    3.19022E+005    6.47042E+004   -2.92310E+005   -3.51846E+004   -2.92310E+005    3.57014E+005    8.75968E+004   -2.80460E+005   -5.20199E+004    1.79508E+003   -2.12566E+005    7.09026E+004    1.26094E+005   -2.36928E+004
            8324    3.59439E+005    4.07633E+004   -3.60974E+005   -6.98152E+004   -3.60974E+005    4.01737E+005    1.30008E+005   -3.17649E+005   -8.45770E+004   -3.99989E+004   -2.65450E+005    6.94130E+004    1.54155E+005   -1.51177E+004
            8325    4.16445E+005    2.73699E+004   -4.40622E+005   -1.10896E+005   -4.40622E+005    4.67991E+005    1.74716E+005   -3.59075E+005   -1.22512E+005   -7.24230E+004   -3.29213E+005    7.73084E+004    1.82440E+005   -4.32640E+003
            8326    4.78588E+005    6.02991E+003   -5.32275E+005   -1.54878E+005   -5.32275E+005    5.38305E+005    2.27041E+005   -4.10762E+005   -1.66301E+005   -1.17655E+005   -3.97168E+005    8.14777E+004    2.17736E+005    1.49958E+003
            8327    5.42054E+005   -1.57941E+004   -6.25796E+005   -1.99366E+005   -6.25796E+005    6.10002E+005    2.80319E+005   -4.63963E+005   -2.10198E+005   -1.67157E+005   -4.63602E+005    7.64485E+004    2.57448E+005    1.26165E+004
            8328    5.26499E+005   -5.99346E+004   -6.44592E+005   -2.07926E+005   -6.44592E+005    5.84657E+005    3.04151E+005   -4.76225E+005   -2.12313E+005   -2.11556E+005   -4.88584E+005    3.07549E+004    2.54795E+005   -3.19753E+004
            8329    4.95092E+005   -4.88064E+004   -6.05728E+005   -2.15489E+005   -6.05728E+005    5.56922E+005    2.90008E+005   -4.24712E+005   -2.13218E+005   -2.19252E+005   -4.37554E+005    7.64713E+003    2.47785E+005   -6.25528E+004
            8330    4.60970E+005   -2.48752E+004   -5.39504E+005   -1.64458E+005   -5.39504E+005    5.14629E+005    2.42946E+005   -4.09211E+005   -1.61316E+005   -1.69773E+005   -3.97748E+005    3.40459E+004    2.24591E+005   -3.52140E+004
            8331    4.40159E+005   -1.88523E+004   -5.16143E+005   -1.76580E+005   -5.16143E+005    4.97291E+005    2.37192E+005   -3.68002E+005   -1.70694E+005   -1.82073E+005   -3.58808E+005    8.98444E+003    2.21303E+005   -6.63227E+004
            8332    4.03344E+005    3.11371E+003   -4.48517E+005   -1.24170E+005   -4.48517E+005    4.51631E+005    1.89858E+005   -3.53736E+005   -1.18009E+005   -1.31746E+005   -3.19818E+005    3.51615E+004    1.96932E+005   -3.86757E+004
            8333    3.85693E+005    1.29790E+004   -4.24956E+005   -1.35853E+005   -4.24956E+005    4.37935E+005    1.82610E+005   -3.10447E+005   -1.28672E+005   -1.43535E+005   -2.75623E+005    1.02270E+004    1.95028E+005   -7.00164E+004
            8334    3.40027E+005    3.68028E+004   -3.46457E+005   -8.09840E+004   -3.46457E+005    3.83259E+005    1.30213E+005   -2.88459E+005   -7.19540E+004   -8.92974E+004   -2.29386E+005    3.17583E+004    1.69647E+005   -3.60405E+004
            8335    3.34316E+005    2.70788E+004   -3.53560E+005   -1.07543E+005   -3.53560E+005    3.80639E+005    1.44675E+005   -2.61998E+005   -1.01881E+005   -1.13565E+005   -2.18578E+005    7.88392E+003    1.71147E+005   -6.14143E+004
            8336    3.01311E+005    4.98890E+004   -2.94278E+005   -7.80325E+004   -2.94278E+005    3.44167E+005    1.07474E+005   -2.26913E+005   -7.70225E+004   -8.29894E+004   -1.62410E+005    5.57322E+003    1.53113E+005   -6.72009E+004
            8337    2.73840E+005    2.95125E+004   -2.75665E+005   -5.13946E+004   -2.75665E+005    3.05177E+005    9.91823E+004   -2.44702E+005   -7.49968E+004   -4.85394E+004   -1.74011E+005    1.99605E+003    1.32771E+005   -5.46771E+004
            8338    2.99256E+005    4.18373E+004   -2.92546E+005   -4.98912E+004   -2.92546E+005    3.34383E+005    1.00200E+005   -2.64741E+005   -5.35293E+004   -5.65944E+004   -1.90476E+005    1.93668E+004    1.48765E+005   -3.50780E+004
            8339    2.58659E+005    7.27530E+004   -2.15433E+005   -3.39872E+003   -2.15433E+005    2.88186E+005    4.86930E+004   -2.31349E+005   -2.30531E+004   -3.82891E+003   -1.19197E+005    5.46402E+003    1.35610E+005   -7.82208E+003
            8340    1.07025E+005    7.90397E+004    7.90397E+004   -1.54863E+002   -4.27190E+004    1.21759E+005   -1.20553E+004    8.45671E+004    8.44861E+003   -1.48552E+004    4.25725E+004    3.45211E+004    2.42243E+004    3.47181E+004
            8341    9.37747E+004    7.94404E+004    7.94404E+004   -1.06402E+003   -2.35251E+004    1.02966E+005   -1.82838E+004    8.74096E+004    1.10279E+004   -5.21003E+003    4.90334E+004    2.49702E+004    2.99613E+004    2.51986E+004
            8342    9.01092E+004    7.77758E+004    7.77758E+004   -4.14464E+003   -1.87401E+004    9.65160E+004   -1.82970E+004    8.73902E+004    7.39308E+003   -4.14409E+003    5.16421E+004    1.79084E+004    3.51707E+004    1.67830E+004
            8343    9.00540E+004    8.15270E+004    8.15270E+004    1.03636E+003   -1.57330E+004    9.72600E+004   -2.22768E+004    8.64359E+004    7.39853E+003    1.97538E+003    5.74564E+004    1.17063E+004    3.90149E+004    1.04157E+004
            8344    9.55147E+004    8.69038E+004    8.69038E+004   -1.65783E+002   -1.52589E+004    1.02163E+005   -2.38264E+004    9.27748E+004    6.91907E+003   -1.47203E+002    6.47072E+004    3.83475E+003    4.18281E+004    3.28707E+003
            8345    7.08265E+004    5.36648E+004    5.36648E+004   -1.89499E+003   -2.60884E+004    7.97532E+004   -8.56044E+003    6.04219E+004    4.64919E+003   -3.71500E+003    2.47471E+004    1.81545E+004    1.33943E+004    3.08081E+004
            8346    6.29344E+004    4.61872E+004    4.61872E+004   -1.10133E+004   -2.12307E+004    6.74179E+004   -4.64772E+003    6.10264E+004   -2.76381E+003   -6.48968E+003    2.31967E+004    1.35641E+004    1.69900E+004    2.42092E+004
            8347    6.02356E+004    4.81278E+004    4.81278E+004   -1.09455E+004   -1.32065E+004    6.13343E+004   -7.99190E+003    6.01401E+004   -2.48910E+003   -2.09164E+003    2.85564E+004    1.03034E+004    2.08261E+004    1.87708E+004
            8348    6.02016E+004    4.83008E+004    4.83008E+004   -7.79080E+003   -1.53052E+004    6.36060E+004   -8.40158E+003    5.91326E+004   -2.95899E+003   -4.46074E+003    3.26245E+004    6.46413E+003    2.42875E+004    1.16527E+004
            8349    6.02019E+004    5.15028E+004    5.15028E+004   -7.31140E+002   -1.43381E+004    6.58408E+004   -1.21445E+004    5.65848E+004   -1.14176E+003   -2.99835E+002    3.78751E+004    2.32598E+003    2.62449E+004    4.14234E+003
            8350    5.15682E+004    3.40246E+004    3.40246E+004   -4.66204E+002   -2.52573E+004    5.92818E+004   -2.76705E+003    3.36890E+004    2.98503E+003   -4.85606E+002    5.80172E+003    5.50280E+003    9.26822E+003    2.75740E+004
            8351    4.74608E+004    3.63748E+004    3.63748E+004    2.89292E+003   -1.79394E+004    5.43142E+004   -7.10944E+003    3.46851E+004    7.53285E+003    3.35533E+003    1.04401E+004    4.36447E+003    1.33884E+004    2.32349E+004
            8352    4.36042E+004    3.31484E+004    3.31484E+004    6.04750E+002   -1.63952E+004    4.95436E+004   -5.78597E+003    3.48847E+004    6.04360E+003    5.05787E+002    1.08085E+004    3.01214E+003    1.67463E+004    1.78235E+004
            8353    3.97780E+004    3.25419E+004    3.25419E+004    2.55907E+003   -1.25835E+004    4.51254E+004   -7.50582E+003    3.22648E+004    6.07468E+003    3.79186E+003    1.26509E+004    2.08310E+003    1.91071E+004    1.16983E+004
            8354    3.82842E+004    3.10892E+004    3.10892E+004    2.47708E+002   -1.17594E+004    4.28486E+004   -6.52583E+003    3.36396E+004    4.91853E+003    3.11608E+002    1.43473E+004    6.36493E+002    2.04960E+004    4.10894E+003
            8355    5.50199E+005   -1.92960E+004   -6.38131E+005   -2.04210E+005   -6.38131E+005    6.18835E+005    2.87213E+005   -4.72292E+005   -2.15981E+005   -1.72416E+005   -4.73241E+005   -7.59582E+004    2.61789E+005   -1.31771E+004
            8356    5.42063E+005   -6.51435E+004   -6.66665E+005   -2.16031E+005   -6.66665E+005    6.01521E+005    3.15947E+005   -4.91381E+005   -2.22382E+005   -2.19019E+005   -5.06439E+005   -3.01837E+004    2.62552E+005    2.96919E+004
            8357    5.10386E+005   -5.86727E+004   -6.31883E+005   -2.26678E+005   -6.31883E+005    5.73210E+005    3.05745E+005   -4.41419E+005   -2.26024E+005   -2.29934E+005   -4.61276E+005   -7.39824E+003    2.55224E+005    5.90836E+004
            8358    6.07148E+005   -4.68063E+004   -7.29139E+005   -2.48527E+005   -7.29139E+005    6.82333E+005    3.41491E+005   -5.23376E+005   -2.59347E+005   -2.29882E+005   -5.35243E+005   -5.94385E+004    3.01122E+005   -1.72259E+004
            8359    6.02275E+005   -9.53066E+004   -7.61830E+005   -2.56680E+005   -7.61830E+005    6.66523E+005    3.71272E+005   -5.50397E+005   -2.68686E+005   -2.58071E+005   -5.87060E+005   -2.25529E+004    2.91509E+005    2.17828E+004
            8360    5.58435E+005   -8.90145E+004   -7.13561E+005   -2.62342E+005   -7.13561E+005    6.24546E+005    3.54972E+005   -4.92228E+005   -2.66837E+005   -2.63823E+005   -5.34257E+005   -5.15760E+003    2.78888E+005    4.51138E+004
            8361    6.48735E+005   -7.15646E+004   -7.99569E+005   -2.82713E+005   -7.99569E+005    7.28004E+005    3.84615E+005   -5.63263E+005   -2.92932E+005   -2.77586E+005   -5.83328E+005   -3.19635E+004    3.30854E+005   -1.12056E+004
            8362    6.44705E+005   -1.14748E+005   -8.27503E+005   -2.85034E+005   -8.27503E+005    7.12755E+005    4.09095E+005   -5.90849E+005   -3.00273E+005   -2.85360E+005   -6.41653E+005   -1.15193E+004    3.12533E+005    1.09953E+004
            8363    5.91093E+005   -1.12106E+005   -7.71253E+005   -2.88264E+005   -7.71253E+005    6.59146E+005    3.90541E+005   -5.26999E+005   -2.96815E+005   -2.88593E+005   -5.86215E+005   -2.57247E+003    2.95330E+005    2.24600E+004
            8364    6.63034E+005   -8.04623E+004   -8.24203E+005   -2.95009E+005   -8.24203E+005    7.43741E+005    3.99891E+005   -5.76810E+005   -3.04767E+005   -2.94998E+005   -5.99909E+005    1.79220E+003    3.41329E+005    1.95270E+002
            8365    6.57632E+005   -1.20779E+005   -8.47683E+005   -2.93999E+005   -8.47683E+005    7.26904E+005    4.20821E+005   -6.03020E+005   -3.09953E+005   -2.94002E+005   -6.58507E+005    1.55880E+003    3.18938E+005   -1.16895E+003
            8366    6.00628E+005   -1.18712E+005   -7.87921E+005   -2.95602E+005   -7.87921E+005    6.69209E+005    4.00745E+005   -5.37164E+005   -3.05423E+005   -2.95610E+005   -6.01203E+005    4.56379E+002    3.00134E+005   -3.01587E+003
            8367    6.44635E+005   -6.94736E+004   -7.93031E+005   -2.79918E+005   -7.93031E+005    7.23558E+005    3.80808E+005   -5.59130E+005   -2.89952E+005   -2.73734E+005   -5.78738E+005    3.51257E+004    3.28164E+005    1.20304E+004
            8368    6.36837E+005   -1.11877E+005   -8.15934E+005   -2.80085E+005   -8.15934E+005    7.04057E+005    4.02632E+005   -5.83638E+005   -2.94837E+005   -2.80545E+005   -6.32514E+005    1.44082E+004    3.08417E+005   -1.31718E+004
            8369    5.83787E+005   -1.07292E+005   -7.58677E+005   -2.82718E+005   -7.58677E+005    6.51385E+005    3.82895E+005   -5.19328E+005   -2.90487E+005   -2.83276E+005   -5.74923E+005    3.27792E+003    2.91656E+005   -2.93162E+004
            8370    6.00927E+005   -4.54682E+004   -7.20639E+005   -2.44414E+005   -7.20639E+005    6.75171E+005    3.36840E+005   -5.18673E+005   -2.55487E+005   -2.25361E+005   -5.29673E+005    6.08745E+004    2.97167E+005    1.55496E+004
            8371    5.88110E+005   -8.90958E+004   -7.40360E+005   -2.48098E+005   -7.40360E+005    6.51264E+005    3.59185E+005   -5.36466E+005   -2.58477E+005   -2.49831E+005   -5.69245E+005    2.41380E+004    2.84653E+005   -2.38453E+004
            8372    5.45484E+005   -8.18019E+004   -6.92476E+005   -2.53496E+005   -6.92476E+005    6.10674E+005    3.42591E+005   -4.78779E+005   -2.56520E+005   -2.55357E+005   -5.15897E+005    5.72725E+003    2.72464E+005   -4.88734E+004
            8373    9.57984E+004    1.52861E+004   -8.71800E+004    1.47916E+002   -8.71800E+004    1.02466E+005    2.39153E+004   -9.30502E+004   -6.96890E+003    1.37800E+002   -6.49149E+004   -3.86126E+003    4.19543E+004    3.26930E+003
            8374    9.00497E+004    1.57653E+004   -8.15014E+004   -1.03498E+003   -8.15014E+004    9.72667E+004    2.22570E+004   -8.64176E+004   -7.38976E+003   -1.94977E+003   -5.74316E+004   -1.17654E+004    3.89960E+004    1.04180E+004
            8375    9.00395E+004    1.88098E+004   -7.76308E+004    4.22753E+003   -7.76308E+004    9.64406E+004    1.81978E+004   -8.73234E+004   -7.35786E+003    4.27158E+003   -5.15072E+004   -1.79767E+004    3.50336E+004    1.69089E+004
            8376    9.37772E+004    2.35810E+004   -7.94084E+004    1.05284E+003   -7.94084E+004    1.02989E+005    1.82582E+004   -8.73722E+004   -1.10584E+004    5.15993E+003   -4.88761E+004   -2.50393E+004    2.98152E+004    2.54288E+004
            8377    1.06902E+005    4.27654E+004   -7.88569E+004    2.33736E+002   -7.88569E+004    1.21622E+005    1.19526E+004   -8.44495E+004   -8.38245E+003    1.48983E+004   -4.23736E+004   -3.45086E+004    2.41847E+004    3.46996E+004
            8378    6.02761E+004    1.43328E+004   -5.15862E+004    7.17879E+002   -5.15862E+004    6.59191E+004    1.21785E+004   -5.66593E+004    1.15734E+003    2.95846E+002   -3.79887E+004   -2.28671E+003    2.62520E+004    4.10638E+003
            8379    6.02644E+004    1.53051E+004   -4.83957E+004    7.71264E+003   -4.83957E+004    6.37008E+004    8.45934E+003   -5.91740E+004    2.93350E+003    4.42077E+003   -3.27323E+004   -6.38741E+003    2.43468E+004    1.16015E+004
            8380    6.02529E+004    1.31683E+004   -4.82030E+004    1.08654E+004   -4.82030E+004    6.13713E+004    8.05645E+003   -6.01538E+004    2.40916E+003    2.01670E+003   -2.85952E+004   -1.02920E+004    2.08940E+004    1.87413E+004
            8381    6.28245E+004    2.13063E+004   -4.60473E+004    1.09646E+004   -4.60473E+004    6.73536E+004    4.59215E+003   -6.08651E+004    2.76539E+003    6.48168E+003   -2.30235E+004   -1.35650E+004    1.68756E+004    2.42611E+004
            8382    7.09476E+004    2.62100E+004   -5.37207E+004    1.79712E+003   -5.37207E+004    7.99307E+004    8.57120E+003   -6.03503E+004   -4.67180E+003    3.68364E+003   -2.47254E+004   -1.82150E+004    1.32940E+004    3.09219E+004
            8383    3.83332E+004    1.17314E+004   -3.11578E+004   -2.35611E+002   -3.11578E+004    4.28892E+004    6.55402E+003   -3.37300E+004   -4.93366E+003   -3.01861E+002   -1.44265E+004   -6.42444E+002    2.05157E+004    4.08171E+003
            8384    3.97425E+004    1.25460E+004   -3.25305E+004   -2.53939E+003   -3.25305E+004    4.50766E+004    7.50797E+003   -3.22874E+004   -6.06674E+003   -3.77867E+003   -1.26785E+004   -2.09167E+003    1.91086E+004    1.16454E+004
            8385    4.36025E+004    1.64377E+004   -3.31122E+004   -6.04835E+002   -3.31122E+004    4.95498E+004    5.75978E+003   -3.48299E+004   -6.00729E+003   -4.88426E+002   -1.07836E+004   -2.99572E+003    1.67122E+004    1.78581E+004
            8386    4.75218E+004    1.80088E+004   -3.63832E+004   -2.90553E+003   -3.63832E+004    5.43919E+004    7.09331E+003   -3.46403E+004   -7.51238E+003   -3.36090E+003   -1.04066E+004   -4.31841E+003    1.34346E+004    2.32614E+004
            8387    5.15501E+004    2.51964E+004   -3.40561E+004    4.96059E+002   -3.40561E+004    5.92525E+004    2.78787E+003   -3.38518E+004   -3.00396E+003    4.99933E+002   -5.85958E+003   -5.52648E+003    9.35329E+003    2.75251E+004
            8388    3.90618E+005    5.33058E+004   -3.84691E+005   -7.24110E+004   -3.84691E+005    4.37997E+005    1.34599E+005   -3.40429E+005   -9.23925E+004   -2.60548E+004   -2.85349E+005   -8.34791E+004    1.59301E+005    1.92578E+004
            8389    3.32893E+005    7.86353E+004   -2.98661E+005   -4.63464E+004   -2.98661E+005    3.77296E+005    8.87906E+004   -2.72045E+005   -5.62119E+004    1.36378E+004   -2.23798E+005   -8.48177E+004    1.18897E+005    2.68098E+004
            8390    2.74215E+005    8.62576E+004   -2.27281E+005   -3.22521E+004   -2.27281E+005    3.13539E+005    5.77585E+004   -2.03333E+005   -3.72466E+004    3.37624E+004   -1.69791E+005   -7.84805E+004    8.51409E+004    3.13420E+004
            8391    2.18081E+005    8.32537E+004   -1.66481E+005   -1.36177E+004   -1.66481E+005    2.49734E+005    3.22815E+004   -1.57495E+005   -2.05744E+004    3.96898E+004   -1.15960E+005   -6.71542E+004    6.24587E+004    3.58159E+004
            8392    1.57958E+005    6.50617E+004   -1.15927E+005   -5.85829E+003   -1.15927E+005    1.80988E+005    1.89077E+004   -1.12798E+005   -1.04417E+004    2.91399E+004   -7.54215E+004   -5.13377E+004    3.86943E+004    3.73775E+004
            8393    1.29837E+005    5.11855E+004   -9.61608E+004    1.48189E+003   -9.61608E+004    1.47346E+005    1.44978E+004   -1.04985E+005    6.78055E+002    2.23883E+004   -6.65597E+004   -3.73081E+004    4.09435E+004    2.00080E+004
            8394    1.23808E+005    3.92909E+004   -9.92282E+004    6.54642E+002   -9.92282E+004    1.38519E+005    1.97609E+004   -1.08953E+005    2.19837E+003    9.91468E+003   -7.13957E+004   -2.72122E+004    4.69059E+004    1.24222E+004
            8395    1.25065E+005    3.74347E+004   -1.01240E+005    2.99974E+003   -1.01240E+005    1.38675E+005    2.02686E+004   -1.13643E+005    3.95368E+003    8.11926E+003   -7.28787E+004   -1.75770E+004    5.29408E+004    4.67612E+003
            8396    1.28358E+005    3.15262E+004   -1.09641E+005    5.38296E+001   -1.09641E+005    1.41167E+005    2.60202E+004   -1.19204E+005    1.36399E+003    6.41355E+002   -8.00660E+004   -6.07256E+003    5.71159E+004    1.40353E+003
            8397    1.85340E+005    5.72524E+004   -1.52538E+005   -1.10092E+004   -1.52538E+005    2.09790E+005    3.54316E+004   -1.52957E+005   -1.58236E+004    1.80370E+004   -1.08508E+005   -4.79499E+004    6.77907E+004    1.62416E+004
            8398    1.74077E+005    5.35137E+004   -1.42750E+005   -7.02277E+003   -1.42750E+005    1.96263E+005    3.20862E+004   -1.47441E+005   -6.34211E+003    9.78563E+003   -9.97022E+004   -3.42075E+004    7.36651E+004    3.20856E+003
            8399    1.69066E+005    4.89804E+004   -1.41167E+005   -7.80070E+003   -1.41167E+005    1.90147E+005    3.33290E+004   -1.45164E+005   -4.71598E+003    1.34858E+001   -9.52846E+004   -2.26806E+004    7.82747E+004   -1.40518E+003
            8400    1.72935E+005    4.88244E+004   -1.43290E+005   -5.73039E+001   -1.43290E+005    1.92114E+005    3.15077E+004   -1.56221E+005   -1.51178E+003    1.10497E+003   -9.41162E+004   -7.43491E+003    8.34694E+004   -2.20137E+003
            8401    2.25640E+005    7.33084E+004   -1.83381E+005   -1.63581E+004   -1.83381E+005    2.56690E+005    4.21437E+004   -1.78384E+005   -1.24674E+004    1.96257E+004   -1.33589E+005   -5.63046E+004    8.46664E+004    1.01621E+004
            8402    2.10474E+005    6.38326E+004   -1.74440E+005   -1.38464E+004   -1.74440E+005    2.38273E+005    4.14847E+004   -1.73521E+005   -4.58038E+003    4.97211E+003   -1.24846E+005   -3.94769E+004    8.92923E+004    5.08490E+002
            8403    2.02005E+005    6.84347E+004   -1.60035E+005   -5.09136E+003   -1.60035E+005    2.28470E+005    3.22307E+004   -1.67669E+005    3.08481E+003    5.82933E+003   -1.05606E+005   -2.48455E+004    9.41004E+004   -9.48787E+003
            8404    1.95730E+005    6.83438E+004   -1.52842E+005   -2.02386E+003   -1.52842E+005    2.21185E+005    2.88406E+004   -1.63401E+005    5.48932E+003   -8.36431E+002   -9.11746E+004   -8.42062E+003    9.87992E+004   -3.70695E+003
            8405    3.00850E+005    6.07349E+004   -2.76076E+005   -3.39853E+004   -2.76076E+005    3.36811E+005    8.31088E+004   -2.64038E+005   -3.59516E+004   -1.11476E+004   -2.02227E+005   -5.77374E+004    1.25848E+005    1.42515E+004
            8406    2.72494E+005    6.81685E+004   -2.39641E+005   -2.92304E+004   -2.39641E+005    3.07809E+005    6.69009E+004   -2.28084E+005   -1.75073E+004   -1.71429E+004   -1.66052E+005   -3.67806E+004    1.26553E+005   -3.00664E+003
            8407    2.49755E+005    6.95489E+004   -2.12742E+005   -2.04969E+004   -2.12742E+005    2.82291E+005    5.45634E+004   -2.08229E+005   -1.17245E+004   -1.54464E+004   -1.36519E+005   -2.20396E+004    1.23462E+005   -4.77173E+003
            8408    2.39982E+005    8.60726E+004   -1.85374E+005   -1.39454E+003   -1.85374E+005    2.71447E+005    3.35654E+004   -1.99062E+005    1.98931E+003   -6.18491E+002   -1.02067E+005   -6.98327E+003    1.24935E+005   -4.31607E+003
            8409    3.31576E+005    4.56976E+004   -3.25736E+005   -5.95813E+004   -3.25736E+005    3.71434E+005    1.13207E+005   -2.90237E+005   -6.14963E+004   -5.56078E+004   -2.22516E+005   -4.96891E+004    1.57568E+005    1.95164E+004
            8410    2.93553E+005    5.21715E+004   -2.76879E+005   -4.18713E+004   -2.76879E+005    3.29050E+005    8.88595E+004   -2.56220E+005   -4.28329E+004   -4.43617E+004   -1.79384E+005   -2.92121E+004    1.46031E+005    1.99853E+004
            8411    2.68460E+005    6.72634E+004   -2.32587E+005   -1.45579E+004   -2.32587E+005    2.99850E+005    5.99603E+004   -2.37883E+005   -2.59292E+004   -1.39429E+004   -1.40009E+005   -1.58613E+004    1.37502E+005    4.83180E+003
            8412    2.45920E+005    8.43612E+004   -1.94301E+005   -7.67274E+003   -1.94301E+005    2.78663E+005    3.92043E+004   -2.01307E+005   -1.48676E+004   -7.83669E+003   -9.49086E+004   -4.36100E+003    1.33359E+005    3.94075E+003
            8413    2.59082E+005    6.69284E+004   -2.19384E+005   -1.11151E+003   -2.19384E+005    2.86313E+005    5.11891E+004   -2.37703E+005   -2.90117E+004   -1.26747E+003   -1.23288E+005   -2.11660E+003    1.34686E+005    1.17795E+004
            8414    2.73253E+005    2.27143E+004   -2.80399E+005   -5.29567E+004   -2.80399E+005    3.03114E+005    1.03547E+005   -2.47987E+005   -8.04754E+004   -4.65586E+004   -1.83608E+005   -4.78343E+002    1.28577E+005    5.71139E+004
            8415    2.93849E+005    4.28707E+004   -2.84138E+005   -4.22359E+004   -2.84138E+005    3.27009E+005    9.45011E+004   -2.63910E+005   -5.69056E+004   -4.59163E+004   -1.80681E+005   -8.56571E+003    1.45663E+005    4.34839E+004
            8416    2.88313E+005    5.12182E+004   -2.78370E+005   -7.29141E+004   -2.78370E+005    3.29588E+005    1.00022E+005   -2.14513E+005   -7.53443E+004   -7.50983E+004   -1.49623E+005   -2.87155E+003    1.44990E+005    6.95170E+004
            8417    3.10043E+005    4.45154E+004   -3.06367E+005   -6.93836E+004   -3.06367E+005    3.50883E+005    1.10412E+005   -2.56193E+005   -6.21442E+004   -7.75106E+004   -1.91581E+005   -1.93559E+004    1.58328E+005    3.99919E+004
            8418    3.15163E+005    3.45219E+004   -3.23996E+005   -9.06364E+004   -3.23996E+005    3.58518E+005    1.26703E+005   -2.49266E+005   -9.34599E+004   -9.51829E+004   -1.91467E+005   -6.64477E+003    1.61568E+005    6.17610E+004
            8419    3.57633E+005    2.51188E+004   -3.77694E+005   -9.75012E+004   -3.77694E+005    4.02813E+005    1.50026E+005   -3.04648E+005   -8.69094E+004   -1.05557E+005   -2.57610E+005   -3.09764E+004    1.77592E+005    3.69822E+004
            8420    3.55959E+005    2.32224E+004   -3.81367E+005   -1.16325E+005   -3.81367E+005    4.04589E+005    1.58156E+005   -2.83823E+005   -1.13189E+005   -1.23514E+005   -2.37766E+005   -9.86290E+003    1.81532E+005    6.63669E+004
            8421    3.99727E+005    2.61095E+003   -4.50930E+005   -1.49949E+005   -4.50930E+005    4.53541E+005    1.99423E+005   -3.23763E+005   -1.41417E+005   -1.56834E+005   -3.00018E+005   -9.84288E+003    2.02528E+005    6.70618E+004
            8422    4.55917E+005   -2.38249E+004   -5.38397E+005   -1.84822E+005   -5.38397E+005    5.14573E+005    2.49015E+005   -3.83661E+005   -1.80179E+005   -1.90401E+005   -3.76464E+005   -9.36102E+003    2.28773E+005    6.82145E+004
            8423    4.14464E+005    3.04319E+003   -4.60860E+005   -1.27045E+005   -4.60860E+005    4.63903E+005    1.94954E+005   -3.64096E+005   -1.22176E+005   -1.34179E+005   -3.28507E+005   -3.76076E+004    2.02473E+005    3.79132E+004
            8424    4.79124E+005   -3.33311E+004   -5.66759E+005   -1.72959E+005   -5.66759E+005    5.33428E+005    2.57683E+005   -4.29647E+005   -1.73660E+005   -1.77907E+005   -4.21482E+005   -3.49929E+004    2.32235E+005    3.51431E+004
            8425    4.87354E+005    6.35579E+003   -5.41900E+005   -1.57881E+005   -5.41900E+005    5.48255E+005    2.31142E+005   -4.17922E+005   -1.70345E+005   -1.18198E+005   -4.04882E+005   -8.14454E+004    2.21790E+005   -5.28911E+003
            8426    4.30278E+005    2.60782E+004   -4.56073E+005   -1.11141E+005   -4.56073E+005    4.82152E+005    1.80379E+005   -3.76107E+005   -1.27359E+005   -7.17131E+004   -3.42064E+005   -7.95802E+004    1.86916E+005    7.85161E+003
            8427    3.10771E+005    2.89408E+005    2.89408E+005    3.71244E+004   -5.77384E+004    3.47147E+005   -8.95981E+004    2.75254E+005    3.73376E+004   -7.08070E+003    2.38537E+005   -6.19536E+004    1.03247E+005   -2.37524E+004
            8428    2.29860E+005    1.88004E+005    1.88004E+005    2.01331E+004   -7.39756E+004    2.61980E+005   -4.47206E+004    1.78058E+005    1.94253E+004   -3.60559E+004    1.50793E+005   -5.77701E+004    6.76236E+004   -2.22143E+004
            8429    1.81219E+005    1.40078E+005    1.40078E+005    9.80997E+003   -6.68767E+004    2.06955E+005   -2.76704E+004    1.36843E+005    1.15676E+004   -3.57126E+004    1.07156E+005   -4.94154E+004    4.89074E+004   -2.85594E+004
            8430    1.28124E+005    9.26935E+004    9.26935E+004    1.92400E+003   -5.38663E+004    1.46560E+005   -1.35837E+004    9.43507E+004    3.23627E+003   -2.87177E+004    6.62327E+004   -3.69789E+004    2.92911E+004   -3.02042E+004
            8431    1.09736E+005    8.77239E+004    8.77239E+004   -5.87692E+002   -3.51268E+004    1.22851E+005   -1.73365E+004    9.63181E+004   -8.27898E+003   -1.05377E+004    7.08261E+004   -2.33085E+004    3.39938E+004   -1.29631E+004
            8432    1.16922E+005    1.01434E+005    1.01434E+005   -3.51860E+003   -2.45917E+004    1.26025E+005   -2.44411E+004    1.12530E+005   -4.16955E+003   -6.90800E+003    8.44009E+004   -9.49874E+003    4.19948E+004   -2.20367E+003
            8433    1.59854E+005    1.31638E+005    1.31638E+005    8.19522E+003   -4.89308E+004    1.80569E+005   -3.03008E+004    1.33814E+005    4.22710E+001   -1.05320E+004    1.01392E+005   -3.12908E+004    6.09628E+004   -1.93741E+003
            8434    1.61669E+005    1.43064E+005    1.43064E+005    4.02674E+003   -3.43365E+004    1.77400E+005   -3.75846E+004    1.50910E+005    5.28674E+003    4.15359E+002    1.07052E+005   -1.14888E+004    7.03533E+004    2.35101E+003
            8435    1.94692E+005    1.58452E+005    1.58452E+005    1.47737E+004   -6.31282E+004    2.21580E+005   -3.66992E+004    1.53228E+005   -6.51063E+003   -9.75640E+003    1.26365E+005   -3.79749E+004    7.17019E+004    4.38125E+003
            8436    1.85867E+005    1.49978E+005    1.49978E+005   -2.29196E+003   -5.71419E+004    2.07119E+005   -3.01812E+004    1.66141E+005   -7.25299E+003   -8.57821E+003    1.06375E+005   -1.52749E+004    8.27977E+004    8.49493E+003
            8437    2.77252E+005    2.46846E+005    2.46846E+005    3.24924E+004   -6.62630E+004    3.13109E+005   -7.10252E+004    2.32429E+005    2.88926E+003    1.88986E+004    1.91288E+005   -3.50890E+004    1.15927E+005    6.42835E+003
            8438    2.42719E+005    2.05512E+005    2.05512E+005    1.35800E+004   -6.73264E+004    2.72839E+005   -5.05887E+004    2.08982E+005    4.79345E+002    1.18593E+004    1.39427E+005   -1.12197E+004    1.16378E+005    4.02565E+003
            8439    2.69654E+005    2.32707E+005    2.32707E+005   -1.40622E+003   -6.21319E+004    2.94839E+005   -5.63895E+004    2.53575E+005    2.79256E+004   -1.19798E+003    1.42441E+005   -5.16758E+003    1.35703E+005   -5.47310E+003
            8440    2.86461E+005    3.11345E+005    3.11345E+005    6.54220E+004   -3.19353E+003    3.14538E+005   -1.24524E+005    2.67016E+005    9.04295E+004    5.97707E+004    2.23373E+005   -2.41438E+003    1.25004E+005   -6.44845E+004
            8441    3.17647E+005    3.16191E+005    3.16191E+005    4.94343E+004   -3.52026E+004    3.51393E+005   -1.10141E+005    2.90611E+005    5.35334E+004    5.72177E+004    2.19671E+005   -2.40124E+004    1.50364E+005   -3.80316E+004
            8442    3.07687E+005    3.26670E+005    3.26670E+005    9.31477E+004   -2.19775E+004    3.48648E+005   -1.32614E+005    2.51897E+005    9.09877E+004    9.98307E+004    2.07022E+005   -6.53325E+003    1.48264E+005   -7.32130E+004
            8443    3.48737E+005    3.94381E+005    3.94381E+005    1.26428E+005    8.09037E+001    3.94300E+005   -1.73630E+005    2.90094E+005    1.19700E+005    1.34855E+005    2.66334E+005   -1.07083E+004    1.71889E+005   -6.61494E+004
            8444    4.04187E+005    4.71788E+005    4.71788E+005    1.59317E+005    1.53222E+004    4.56466E+005   -2.15476E+005    3.38814E+005    1.48135E+005    1.69415E+005    3.28878E+005   -1.27698E+004    1.97307E+005   -7.48618E+004
            8445    4.65875E+005    5.74596E+005    5.74596E+005    2.05486E+005    5.11346E+004    5.23461E+005   -2.77072E+005    4.01999E+005    1.92919E+005    2.13593E+005    4.24704E+005   -1.21965E+004    2.24662E+005   -7.26056E+004
            8446    5.27130E+005    6.77839E+005    6.77839E+005    2.52175E+005    8.82133E+004    5.89626E+005   -3.39409E+005    4.64338E+005    2.38086E+005    2.58164E+005    5.21977E+005   -1.03160E+004    2.50189E+005   -6.94408E+004
            8447    3.61220E+005    3.66158E+005    3.66158E+005    8.42628E+004   -4.10255E+004    4.07183E+005   -1.36465E+005    3.06278E+005    6.02556E+004    9.23276E+004    2.56812E+005   -3.80283E+004    1.71858E+005   -3.73127E+004
            8448    4.29673E+005    4.68107E+005    4.68107E+005    1.27489E+005   -1.46173E+004    4.82725E+005   -1.93660E+005    3.70994E+005    1.01875E+005    1.35933E+005    3.43172E+005   -4.05916E+004    2.02522E+005   -4.26782E+004
            8449    4.87164E+005    5.57655E+005    5.57655E+005    1.66499E+005    1.19676E+004    5.45687E+005   -2.45374E+005    4.26556E+005    1.42723E+005    1.73359E+005    4.20039E+005   -3.77789E+004    2.29842E+005   -4.17042E+004
            8450    5.46031E+005    6.57728E+005    6.57728E+005    2.07673E+005    5.02906E+004    6.07438E+005   -3.05231E+005    4.90980E+005    1.92756E+005    2.12746E+005    5.10190E+005   -3.13250E+004    2.55455E+005   -3.92303E+004
            8451    5.84760E+005    7.20203E+005    7.20203E+005    2.40468E+005    6.88317E+004    6.51371E+005   -3.43167E+005    5.23427E+005    2.45381E+005    2.10456E+005    5.73665E+005   -7.06552E+004    2.62199E+005    9.45424E+003
            8452    5.09361E+005    5.97927E+005    5.97927E+005    1.80220E+005    3.04795E+004    5.67448E+005   -2.69542E+005    4.55753E+005    1.80271E+005    1.45925E+005    4.82431E+005   -7.54323E+004    2.15620E+005   -3.86317E+003
            8453    4.37543E+005    4.81599E+005    4.81599E+005    1.23695E+005   -6.17746E+003    4.87777E+005   -1.99705E+005    3.90516E+005    1.20456E+005    8.76407E+004    3.91020E+005   -7.18529E+004    1.75624E+005   -9.37510E+003
            8454    3.69747E+005    3.80756E+005    3.80756E+005    7.67278E+004   -3.08490E+004    4.11605E+005   -1.42212E+005    3.31700E+005    7.24260E+004    4.50987E+004    3.09110E+005   -6.47226E+004    1.41500E+005   -1.67794E+004
            8455    8.23529E+004    8.09036E+004    8.09036E+004    2.97792E+003   -5.25779E+003    8.61614E+004   -2.62079E+004    8.14187E+004    9.15736E+003    2.80987E+003    6.66565E+004   -5.51871E+003    3.09224E+004   -6.07307E+003
            8456    7.85870E+004    7.05158E+004    7.05158E+004   -1.23157E+003   -1.34738E+004    8.39896E+004   -1.86035E+004    7.63974E+004    5.48451E+003   -1.73994E+003    5.20659E+004   -1.47848E+004    2.59289E+004   -1.77451E+004
            8457    8.85077E+004    6.87068E+004    6.87068E+004    1.64185E+003   -3.16115E+004    1.00318E+005   -1.29124E+004    7.23026E+004    6.99614E+003   -1.07869E+004    4.25279E+004   -2.41593E+004    1.84259E+004   -3.08408E+004
            8458    5.15765E+004    4.38226E+004    4.38226E+004   -4.58369E+003   -1.04265E+004    5.42491E+004   -9.60412E+003    5.08239E+004   -4.97025E+003   -3.74602E+003    3.75286E+004   -3.20056E+003    1.58578E+004   -6.30775E+003
            8459    5.21957E+004    4.21666E+004    4.21666E+004   -8.59153E+003   -1.13567E+004    5.35233E+004   -7.40612E+003    5.20305E+004   -4.58504E+003   -2.15029E+003    2.89537E+004   -7.53370E+003    1.31576E+004   -1.81259E+004
            8460    6.10589E+004    4.59360E+004    4.59360E+004   -1.55760E+003   -2.29380E+004    6.88740E+004   -7.14679E+003    5.15676E+004    2.33870E+003   -4.12099E+003    2.32227E+004   -1.23639E+004    9.87660E+003   -2.80724E+004
            8461    2.50364E+004    2.44496E+004    2.44496E+004    3.91817E+003   -3.44194E+003    2.78915E+004   -8.30860E+003    2.24014E+004    7.21440E+003    3.70186E+003    1.40095E+004   -7.54239E+002    1.18884E+004   -6.29107E+003
            8462    3.54017E+004    2.78886E+004    2.78886E+004    2.76985E+003   -1.26005E+004    4.04891E+004   -6.01929E+003    2.61407E+004    5.83829E+003    1.73173E+003    1.04879E+004   -2.43159E+003    1.02373E+004   -1.69662E+004
            8463    4.64401E+004    3.22618E+004    3.22618E+004    1.75388E+003   -2.11842E+004    5.34460E+004   -4.27718E+003    2.89535E+004    3.62069E+003    1.05262E+003    8.15823E+003   -3.67751E+003    6.78804E+003   -2.54233E+004
            8464    5.42134E+005    7.03770E+005    7.03770E+005    2.63164E+005    9.83573E+004    6.05413E+005   -3.55097E+005    4.80735E+005    2.49645E+005    2.68510E+005    5.47135E+005    9.88918E+003    2.56228E+005    6.68668E+004
            8465    5.58388E+005    6.78289E+005    6.78289E+005    2.15525E+005    5.80826E+004    6.20206E+005   -3.17299E+005    5.04710E+005    2.03881E+005    2.19793E+005    5.28223E+005    3.07990E+004    2.61188E+005    3.65331E+004
            8466    5.96010E+005    7.39126E+005    7.39126E+005    2.48910E+005    7.56955E+004    6.63431E+005   -3.54577E+005    5.34830E+005    2.56219E+005    2.19247E+005    5.88266E+005    7.04500E+004    2.68415E+005   -1.00081E+004
            8467    5.94594E+005    7.99537E+005    7.99537E+005    3.07336E+005    1.38893E+005    6.60643E+005   -4.15255E+005    5.36851E+005    2.94362E+005    3.10042E+005    6.41361E+005    6.92569E+003    2.76905E+005    5.21413E+004
            8468    6.08272E+005    7.69135E+005    7.69135E+005    2.55795E+005    9.73074E+004    6.71828E+005   -3.74079E+005    5.58917E+005    2.53539E+005    2.57942E+005    6.10756E+005    2.13011E+004    2.83016E+005    2.76255E+004
            8469    6.61575E+005    8.53725E+005    8.53725E+005    3.08633E+005    1.17674E+005    7.36051E+005   -4.26677E+005    5.94665E+005    3.20446E+005    2.90787E+005    6.68799E+005    5.53642E+004    3.13640E+005   -1.64821E+004
            8470    6.30797E+005    8.67625E+005    8.67625E+005    3.39216E+005    1.69263E+005    6.98362E+005   -4.58701E+005    5.75814E+005    3.26597E+005    3.39836E+005    7.09671E+005    3.20659E+003    2.90896E+005    2.68498E+004
            8471    6.41700E+005    8.31597E+005    8.31597E+005    2.83857E+005    1.25564E+005    7.06033E+005   -4.13673E+005    5.95349E+005    2.88859E+005    2.84391E+005    6.67767E+005    1.02814E+004    2.97523E+005    1.43631E+004
            8472    7.08572E+005    9.41132E+005    9.41132E+005    3.55886E+005    1.53342E+005    7.87790E+005   -4.83454E+005    6.38408E+005    3.71104E+005    3.50666E+005    7.28591E+005    3.05898E+004    3.48007E+005   -1.18248E+004
            8473    6.41673E+005    8.88267E+005    8.88267E+005    3.48659E+005    1.78734E+005    7.09534E+005   -4.71887E+005    5.87772E+005    3.36496E+005    3.48669E+005    7.30496E+005   -4.46667E+002    2.95029E+005   -3.14194E+003
            8474    6.51908E+005    8.51297E+005    8.51297E+005    2.92804E+005    1.34960E+005    7.16337E+005   -4.26354E+005    6.06637E+005    3.00444E+005    2.92807E+005    6.85810E+005   -1.53537E+003    3.01918E+005   -1.31390E+003
            8475    7.26187E+005    9.73034E+005    9.73034E+005    3.72560E+005    1.65923E+005    8.07111E+005   -5.03839E+005    6.54983E+005    3.89133E+005    3.72555E+005    7.49829E+005   -1.30159E+003    3.61011E+005   -8.21732E+000
            8476    6.24247E+005    8.54777E+005    8.54777E+005    3.33002E+005    1.63195E+005    6.91582E+005   -4.50325E+005    5.68704E+005    3.20162E+005    3.34005E+005    6.96808E+005   -4.13033E+003    2.88343E+005   -3.35043E+004
            8477    6.35599E+005    8.20442E+005    8.20442E+005    2.78315E+005    1.20939E+005    6.99502E+005   -4.06565E+005    5.89323E+005    2.82506E+005    2.79064E+005    6.58126E+005   -1.29619E+004    2.94524E+005   -1.68604E+004
            8478    7.05215E+005    9.34455E+005    9.34455E+005    3.52240E+005    1.50299E+005    7.84156E+005   -4.78998E+005    6.35114E+005    3.66806E+005    3.46420E+005    7.23768E+005   -3.23552E+004    3.45748E+005    1.22095E+004
            8479    5.82950E+005    7.78265E+005    7.78265E+005    2.97676E+005    1.29797E+005    6.48469E+005   -4.01913E+005    5.24285E+005    2.84234E+005    3.00908E+005    6.20596E+005   -7.60965E+003    2.72364E+005   -5.56814E+004
            8480    5.96681E+005    7.48485E+005    7.48485E+005    2.46637E+005    8.87333E+004    6.59751E+005   -3.61285E+005    5.46632E+005    2.42177E+005    2.49322E+005    5.92356E+005   -2.30260E+004    2.77770E+005   -3.05230E+004
            8481    6.54706E+005    8.42554E+005    8.42554E+005    3.03272E+005    1.14088E+005    7.28466E+005   -4.19971E+005    5.88334E+005    3.13851E+005    2.84940E+005    6.61124E+005   -5.68805E+004    3.09190E+005    1.48684E+004
            8482    8.84328E+004    3.15927E+004   -6.86424E+004   -1.64169E+003   -6.86424E+004    1.00235E+005    1.28971E+004   -7.22307E+004   -6.98647E+003    1.07585E+004   -4.24634E+004    2.41104E+004    1.83656E+004   -3.08841E+004
            8483    7.83991E+004    1.33696E+004   -7.04027E+004    1.19981E+003   -7.04027E+004    8.37723E+004    1.86111E+004   -7.62305E+004   -5.51802E+003    1.70374E+003   -5.20190E+004    1.47111E+004    2.58860E+004   -1.76692E+004
            8484    8.18404E+004    5.20447E+003   -8.04235E+004   -2.98657E+003   -8.04235E+004    8.56279E+004    2.60685E+004   -8.09105E+004   -9.15462E+003   -2.81474E+003   -6.62362E+004    5.49105E+003    3.07574E+004   -6.02627E+003
            8485    6.08651E+004    2.28380E+004   -4.58072E+004    1.57031E+003   -4.58072E+004    6.86452E+004    7.13295E+003   -5.14493E+004   -2.31581E+003    4.05779E+003   -2.31408E+004    1.22664E+004    9.84425E+003   -2.80202E+004
            8486    5.22164E+004    1.13900E+004   -4.21489E+004    8.63602E+003   -4.21489E+004    5.35389E+004    7.37428E+003   -5.20526E+004    4.65610E+003    2.20108E+003   -2.89800E+004    7.53374E+003    1.31817E+004   -1.80755E+004
            8487    5.12850E+004    1.04521E+004   -4.34969E+004    4.62671E+003   -4.34969E+004    5.39490E+004    9.47269E+003   -5.05326E+004    5.04787E+003    3.77533E+003   -3.72413E+004    3.17897E+003    1.57475E+004   -6.31680E+003
            8488    4.63766E+004    2.12544E+004   -3.21261E+004   -1.73673E+003   -3.21261E+004    5.33805E+004    4.20283E+003   -2.87105E+004   -3.55448E+003   -1.03321E+003   -8.02080E+003    3.57958E+003    6.76262E+003   -2.54138E+004
            8489    3.54590E+004    1.25200E+004   -2.80184E+004   -2.76782E+003   -2.80184E+004    4.05385E+004    6.08874E+003   -2.63500E+004   -5.89692E+003   -1.74867E+003   -1.06206E+004    2.49981E+003    1.02407E+004   -1.69790E+004
            8490    2.49910E+004    3.41653E+003   -2.44210E+004   -3.91771E+003   -2.44210E+004    2.78375E+004    8.30738E+003   -2.23706E+004   -7.26201E+003   -3.70983E+003   -1.39503E+004    7.67336E+002    1.18954E+004   -6.24968E+003
            8491    2.60423E+005    2.22334E+005    2.22334E+005    1.42179E+004   -6.97028E+004    2.92037E+005   -5.56163E+004    2.26867E+005    9.78694E+003    1.41547E+004    1.42907E+005    5.17078E+003    1.29836E+005    1.73201E+003
            8492    2.11326E+005    1.68467E+005    1.68467E+005   -4.10039E+003   -6.72292E+004    2.35696E+005   -3.23792E+004    1.88293E+005   -8.42846E+003   -5.90489E+003    1.11471E+005    8.87760E+003    1.00409E+005   -5.68036E+003
            8493    1.90280E+005    1.61928E+005    1.61928E+005    6.99570E+003   -5.04575E+004    2.12386E+005   -3.94888E+004    1.69048E+005    3.02480E+003    5.26343E+003    1.10178E+005    8.54263E+003    9.06821E+004   -4.85259E+003
            8494    1.53478E+005    1.28952E+005    1.28952E+005   -4.42159E+003   -3.88001E+004    1.67752E+005   -2.85767E+004    1.44429E+005   -6.04883E+003   -6.82889E+003    9.86078E+004    8.19623E+003    6.40000E+004   -3.20198E+003
            8495    1.19333E+005    1.12539E+005    1.12539E+005    4.71509E+003   -1.56759E+004    1.28215E+005   -3.38595E+004    1.15316E+005    8.63135E+003    3.71692E+003    8.92301E+004    5.85113E+003    4.90410E+004    1.44876E+003
            8496    2.92420E+005    2.66097E+005    2.66097E+005    2.17338E+004   -5.78876E+004    3.23984E+005   -7.66476E+004    2.66347E+005    1.74088E+004    1.91525E+004    1.93382E+005    1.79627E+004    1.34005E+005    1.47578E+003
            8497    2.24022E+005    1.93197E+005    1.93197E+005    1.66328E+004   -5.88060E+004    2.52003E+005   -5.03413E+004    1.92159E+005   -4.58505E+002    6.99079E+003    1.44491E+005    2.46759E+004    9.69779E+004   -7.27149E+003
            8498    1.98401E+005    1.66430E+005    1.66430E+005    1.06683E+004   -5.69392E+004    2.23369E+005   -4.00531E+004    1.69416E+005    1.38058E+003   -3.65402E+003    1.22433E+005    2.51533E+004    8.52033E+004   -1.15162E+004
            8499    1.49806E+005    1.23784E+005    1.23784E+005    5.10058E+003   -4.45410E+004    1.68325E+005   -2.81146E+004    1.29258E+005   -6.79119E+003   -6.01147E+003    9.71464E+004    2.18251E+004    5.85123E+004   -2.52071E+003
            8500    1.15765E+005    1.00931E+005    1.00931E+005    1.94958E+003   -2.63644E+004    1.27295E+005   -2.55054E+004    1.07553E+005    2.90841E+003   -5.34932E+003    7.89570E+004    1.65467E+004    4.48501E+004    4.69069E+003
            8501    3.27213E+005    3.14777E+005    3.14777E+005    5.18751E+004   -5.16852E+004    3.66462E+005   -1.04989E+005    2.86708E+005    2.68112E+004    5.07798E+004    2.37375E+005    3.39536E+004    1.44641E+005    1.80864E+004
            8502    2.47267E+005    2.13226E+005    2.13226E+005    2.72978E+004   -6.73920E+004    2.80618E+005   -5.77105E+004    1.99898E+005   -5.78307E+002    4.58976E+003    1.69120E+005    4.22041E+004    9.61674E+004   -5.93209E+003
            8503    2.10449E+005    1.80041E+005    1.80041E+005    1.98596E+004   -5.83069E+004    2.38348E+005   -4.71978E+004    1.72944E+005    6.66041E+003   -4.56287E+003    1.39496E+005    3.97709E+004    8.21929E+004   -2.20093E+003
            8504    1.57194E+005    1.19719E+005    1.19719E+005    4.86736E+003   -5.94310E+004    1.79151E+005   -2.17186E+004    1.21851E+005   -1.12824E+004   -2.04135E+004    9.68518E+004    3.48326E+004    5.26078E+004    1.10869E+003
            8505    1.15377E+005    9.89427E+004    9.89427E+004    5.30151E+003   -2.99469E+004    1.28890E+005   -2.47658E+004    1.02167E+005    5.14344E+003   -6.69788E+003    7.58518E+004    2.52128E+004    4.08037E+004    1.20108E+004
            8506    3.60317E+005    3.57131E+005    3.57131E+005    7.12542E+004   -4.75982E+004    4.04729E+005   -1.26929E+005    3.11402E+005    3.71894E+004    6.40082E+004    2.79590E+005    5.11040E+004    1.50287E+005    2.04882E+004
            8507    2.73249E+005    2.46315E+005    2.46315E+005    3.19550E+004   -6.13701E+004    3.07685E+005   -7.22998E+004    2.33121E+005    1.29602E+004    7.16333E+002    2.03223E+005    5.61375E+004    9.26963E+004    1.58464E+004
            8508    2.22280E+005    1.88495E+005    1.88495E+005    1.93123E+004   -6.32532E+004    2.51748E+005   -4.81847E+004    1.82661E+005    1.14963E+004   -1.61746E+004    1.49233E+005    5.02282E+004    7.74356E+004    1.00475E+004
            8509    1.65147E+005    1.27459E+005    1.27459E+005    7.19750E+003   -6.08374E+004    1.88296E+005   -2.46064E+004    1.27350E+005   -4.69077E+003   -2.62642E+004    1.04774E+005    4.22381E+004    4.60719E+004    1.57481E+004
            8510    1.19337E+005    9.51606E+004    9.51606E+004    2.72731E+003   -3.95623E+004    1.34723E+005   -1.94419E+004    1.00270E+005    5.24065E+003   -1.77018E+004    7.07868E+004    3.11467E+004    3.53578E+004    2.04447E+004
            8511    1.43912E+005    1.05797E+005    1.05797E+005    8.22032E+003   -5.94805E+004    1.65277E+005   -1.81789E+004    9.70749E+004    1.22785E+004   -3.24566E+004    7.47150E+004    4.16893E+004    3.08086E+004    3.63156E+004
            8512    1.99161E+005    1.47470E+005    1.47470E+005    1.32231E+004   -8.13582E+004    2.28828E+005   -2.64450E+004    1.32550E+005    1.39126E+004   -4.95458E+004    1.14968E+005    5.47329E+004    4.63078E+004    3.46063E+004
            8513    2.62235E+005    2.22062E+005    2.22062E+005    3.35658E+004   -7.74160E+004    2.99478E+005   -5.94038E+004    1.98003E+005    3.66687E+004   -3.94668E+004    1.81009E+005    6.54557E+004    7.13425E+004    3.17507E+004
            8514    3.07496E+005    2.80285E+005    2.80285E+005    4.84616E+004   -6.85368E+004    3.48822E+005   -8.67366E+004    2.49485E+005    5.06526E+004   -2.23654E+004    2.31923E+005    7.14015E+004    9.23336E+004    2.74238E+004
            8515    3.83718E+005    3.88588E+005    3.88588E+005    7.54370E+004   -3.94497E+004    4.28038E+005   -1.41525E+005    3.41686E+005    7.69412E+004    2.39566E+004    3.23677E+005    7.14257E+004    1.34332E+005    1.86143E+004
            8516    4.52790E+005    5.01062E+005    5.01062E+005    1.26154E+005   -1.98909E+003    5.03051E+005   -2.08409E+005    4.08913E+005    1.28077E+005    8.89483E+004    4.08201E+005    7.30088E+004    1.80410E+005    1.18782E+004
            8517    5.23533E+005    6.16060E+005    6.16060E+005    1.85585E+005    3.32561E+004    5.82804E+005   -2.78300E+005    4.69656E+005    1.88865E+005    1.49363E+005    4.96673E+005    7.52030E+004    2.22602E+005    4.39579E+001
            8518    5.02373E+005    5.82205E+005    5.82205E+005    1.74116E+005    2.11234E+004    5.61082E+005   -2.59148E+005    4.45252E+005    1.54301E+005    1.80468E+005    4.42675E+005    3.80791E+004    2.35656E+005    4.13493E+004
            8519    4.82068E+005    5.97818E+005    5.97818E+005    2.14897E+005    5.64737E+004    5.41344E+005   -2.89730E+005    4.17167E+005    2.01379E+005    2.23080E+005    4.44729E+005    1.22522E+004    2.31537E+005    7.46145E+004
            8520    4.39899E+005    4.80329E+005    4.80329E+005    1.30467E+005   -1.35194E+004    4.93848E+005   -1.99092E+005    3.81206E+005    1.05391E+005    1.38123E+005    3.53762E+005    4.27784E+004    2.06725E+005    4.15766E+004
            8521    4.21818E+005    5.00340E+005    5.00340E+005    1.72765E+005    2.43810E+004    4.75959E+005   -2.32495E+005    3.55553E+005    1.59600E+005    1.82453E+005    3.55433E+005    1.32836E+004    2.05917E+005    7.25671E+004
            8522    3.70280E+005    4.18582E+005    4.18582E+005    1.32637E+005    3.20729E+002    4.18261E+005   -1.83847E+005    3.09970E+005    1.23560E+005    1.42563E+005    2.85417E+005    1.23979E+004    1.80921E+005    7.06286E+004
            8523    3.22186E+005    3.58249E+005    3.58249E+005    1.05999E+005   -4.69018E+003    3.62940E+005   -1.53186E+005    2.74234E+005    1.05786E+005    1.13790E+005    2.39981E+005    9.55040E+003    1.55872E+005    6.74380E+004
            8524    2.93378E+005    3.11182E+005    3.11182E+005    8.92667E+004   -2.14417E+004    3.32623E+005   -1.26336E+005    2.39104E+005    8.98299E+004    9.24363E+004    1.96741E+005    2.97249E+003    1.37215E+005    7.83205E+004
            8525    2.89014E+005    3.19751E+005    3.19751E+005    7.02388E+004    3.06591E+003    3.16685E+005   -1.31019E+005    2.70601E+005    9.66542E+004    5.86919E+004    2.37709E+005    5.59107E+002    1.19538E+005    6.82334E+004
            8526    3.82276E+005    4.03817E+005    4.03817E+005    1.01843E+005   -2.59954E+004    4.29812E+005   -1.59888E+005    3.28752E+005    8.48340E+004    1.11306E+005    2.83525E+005    3.73823E+004    1.84211E+005    4.17232E+004
            8527    3.27718E+005    3.30905E+005    3.30905E+005    7.32855E+004   -3.79526E+004    3.68858E+005   -1.22079E+005    2.80261E+005    6.99751E+004    8.24640E+004    2.13799E+005    2.33127E+004    1.64713E+005    4.21583E+004
            8528    3.10340E+005    3.10419E+005    3.10419E+005    4.27672E+004   -2.97635E+004    3.40182E+005   -1.07808E+005    2.90337E+005    6.80682E+004    4.68079E+004    2.08547E+005    1.04161E+004    1.48262E+005    4.78463E+004
            8529    2.70731E+005    2.38565E+005    2.38565E+005   -3.16324E+003   -5.39697E+004    2.92534E+005   -6.04773E+004    2.59678E+005    3.90565E+004   -3.36240E+003    1.45738E+005    1.16302E+003    1.35600E+005    1.18758E+004
            8530    2.42835E+005    6.73834E+004   -2.05587E+005   -1.35661E+004   -2.05587E+005    2.72970E+005    5.05898E+004   -2.09077E+005   -5.14825E+002   -1.18442E+004   -1.39410E+005    1.11986E+004    1.16470E+005    4.07155E+003
            8531    1.85629E+005    5.69803E+004   -1.49859E+005    2.25731E+003   -1.49859E+005    2.06839E+005    3.02070E+004   -1.65973E+005    7.18750E+003    8.54377E+003   -1.06352E+005    1.52558E+004    8.26578E+004    8.48292E+003
            8532    1.60667E+005    3.39010E+004   -1.42319E+005   -3.97358E+003   -1.42319E+005    1.76220E+005    3.74640E+004   -1.50122E+005   -5.25704E+003   -3.93725E+002   -1.06741E+005    1.14203E+004    6.97415E+004    2.21623E+003
            8533    1.15731E+005    2.42728E+004   -1.00409E+005    3.58118E+003   -1.00409E+005    1.24681E+005    2.41849E+004   -1.11455E+005    4.27147E+003    6.91265E+003   -8.37388E+004    9.39968E+003    4.13402E+004   -2.33791E+003
            8534    2.76913E+005    6.63030E+004   -2.46453E+005   -3.24708E+004   -2.46453E+005    3.12756E+005    7.08737E+004   -2.31998E+005   -2.81537E+003   -1.88086E+004   -1.90997E+005    3.51367E+004    1.15747E+005    6.49142E+003
            8535    1.94049E+005    6.31452E+004   -1.57726E+005   -1.46261E+004   -1.57726E+005    2.20871E+005    3.64022E+004   -1.52556E+005    6.62969E+003    9.91975E+003   -1.25756E+005    3.79203E+004    7.14387E+004    4.40454E+003
            8536    1.59039E+005    4.87051E+004   -1.30934E+005   -8.08829E+003   -1.30934E+005    1.79639E+005    3.01057E+004   -1.33175E+005    3.62587E+001    1.04577E+004   -1.00811E+005    3.11295E+004    6.06751E+004   -2.00460E+003
            8537    1.09047E+005    3.47541E+004   -8.72585E+004    6.91816E+002   -8.72585E+004    1.22013E+005    1.72709E+004   -9.59355E+004    8.29957E+003    1.03945E+004   -7.05067E+004    2.30367E+004    3.37239E+004   -1.30052E+004
            8538    1.28259E+005    5.39484E+004   -9.27692E+004   -1.92047E+003   -9.27692E+004    1.46718E+005    1.35804E+004   -9.44194E+004   -3.23690E+003    2.87235E+004   -6.62279E+004    3.70461E+004    2.92815E+004   -3.03230E+004
            8539    1.81496E+005    6.71609E+004   -1.40135E+005   -9.80304E+003   -1.40135E+005    2.07296E+005    2.75925E+004   -1.36816E+005   -1.14869E+004    3.59016E+004   -1.07192E+005    4.95573E+004    4.88904E+004   -2.86457E+004
            8540    2.30036E+005    7.40701E+004   -1.88119E+005   -2.01544E+004   -1.88119E+005    2.62189E+005    4.47344E+004   -1.78136E+005   -1.94398E+004    3.61069E+004   -1.50870E+005    5.78442E+004    6.76573E+004   -2.22587E+004
            8541    3.10458E+005    5.78007E+004   -2.89021E+005   -3.70573E+004   -2.89021E+005    3.46821E+005    8.94258E+004   -2.74903E+005   -3.70691E+004    7.08596E+003   -2.38294E+005    6.19142E+004    1.03073E+005   -2.37041E+004
            8542    3.69208E+005    3.10759E+004   -3.79952E+005   -7.64249E+004   -3.79952E+005    4.11028E+005    1.41767E+005   -3.31155E+005   -7.22380E+004   -4.45484E+004   -3.08515E+005    6.47585E+004    1.41133E+005   -1.67523E+004
            8543    4.37922E+005    6.13806E+003   -4.82080E+005   -1.23915E+005   -4.82080E+005    4.88218E+005    1.99952E+005   -3.90800E+005   -1.20798E+005   -8.76488E+004   -3.91410E+005    7.20655E+004    1.75716E+005   -9.43499E+003
            8544    5.10046E+005   -3.06894E+004   -5.98884E+005   -1.80572E+005   -5.98884E+005    5.68194E+005    2.70048E+005   -4.56412E+005   -1.80772E+005   -1.46206E+005   -4.83167E+005    7.53820E+004    2.16002E+005   -3.62846E+003
            8545    5.84821E+005   -6.89550E+004   -7.20293E+005   -2.40241E+005   -7.20293E+005    6.51338E+005    3.43163E+005   -5.23767E+005   -2.45409E+005   -2.10371E+005   -5.73709E+005    7.05852E+004    2.62236E+005    9.20389E+003
            8546    5.45864E+005   -5.05864E+004   -6.57853E+005   -2.07974E+005   -6.57853E+005    6.07267E+005    3.05471E+005   -4.90789E+005   -1.93066E+005   -2.13024E+005   -5.10324E+005    3.14894E+004    2.55398E+005   -3.91153E+004
            8547    5.26662E+005   -8.76950E+004   -6.76804E+005   -2.51537E+005   -6.76804E+005    5.89109E+005    3.38679E+005   -4.63903E+005   -2.37440E+005   -2.57610E+005   -5.20985E+005    1.04503E+004    2.49950E+005   -6.96052E+004
            8548    4.86818E+005   -1.20819E+004   -5.57303E+005   -1.66192E+005   -5.57303E+005    5.45221E+005    2.45192E+005   -4.26525E+005   -1.42595E+005   -1.73024E+005   -4.19958E+005    3.78981E+004    2.29540E+005   -4.16374E+004
            8549    4.66384E+005   -5.09399E+004   -5.74978E+005   -2.05477E+005   -5.74978E+005    5.24038E+005    2.77132E+005   -4.02423E+005   -1.92805E+005   -2.13649E+005   -4.24941E+005    1.23291E+004    2.24915E+005   -7.26070E+004
            8550    4.29526E+005    1.47674E+004   -4.67688E+005   -1.26856E+005   -4.67688E+005    4.82455E+005    1.93259E+005   -3.71269E+005   -1.01470E+005   -1.35298E+005   -3.43008E+005    4.06847E+004    2.02268E+005   -4.27233E+004
            8551    4.05371E+005   -1.58251E+004   -4.73565E+005   -1.59954E+005   -4.73565E+005    4.57740E+005    2.16448E+005   -3.40108E+005   -1.48793E+005   -1.70068E+005   -3.30483E+005    1.28769E+004    1.97864E+005   -7.47867E+004
            8552    3.61301E+005    4.09850E+004   -3.66287E+005   -8.43176E+004   -3.66287E+005    4.07272E+005    1.36540E+005   -3.06360E+005   -6.02847E+004   -9.23359E+004   -2.56999E+005    3.80018E+004    1.71883E+005   -3.72210E+004
            8553    3.49487E+005   -1.75195E+002   -3.95274E+005   -1.26567E+005   -3.95274E+005    3.95099E+005    1.74005E+005   -2.90963E+005   -1.19940E+005   -1.35038E+005   -2.67038E+005    1.07985E+004    1.72217E+005   -6.62578E+004
            8554    3.08011E+005    2.19549E+004   -3.27060E+005   -9.32934E+004   -3.27060E+005    3.49015E+005    1.32800E+005   -2.52160E+005   -9.11144E+004   -9.99793E+004   -2.07305E+005    6.52961E+003    1.48407E+005   -7.33029E+004
            8555    2.86534E+005    3.05935E+003   -3.11552E+005   -6.55539E+004   -3.11552E+005    3.14612E+005    1.24682E+005   -2.67096E+005   -9.05930E+004   -5.99640E+004   -2.23490E+005    2.50913E+003    1.24978E+005   -6.46898E+004
            8556    3.17823E+005    3.51996E+004   -3.16370E+005   -4.94212E+004   -3.16370E+005    3.51570E+005    1.10197E+005   -2.90815E+005   -5.35718E+004   -5.72296E+004   -2.19790E+005    2.40423E+004    1.50428E+005   -3.81126E+004
            8557    2.69707E+005    6.19126E+004   -2.32968E+005    1.22203E+003   -2.32968E+005    2.94881E+005    5.66113E+004   -2.53651E+005   -2.82139E+004    9.98183E+002   -1.42618E+005    5.10469E+003    1.35748E+005   -5.68287E+003
            8558    9.52022E+004    6.68989E+004    6.68989E+004   -1.75206E+002   -4.20654E+004    1.08964E+005   -8.21942E+003    6.94096E+004    3.56555E+003   -1.88808E+004    3.99735E+004    2.68671E+004    1.69634E+004    3.36059E+004
            8559    8.28708E+004    6.45153E+004    6.45153E+004   -4.25358E+003   -2.74947E+004    9.20100E+004   -1.09223E+004    7.49963E+004   -3.43612E+003   -9.62293E+003    4.58260E+004    1.97697E+004    1.86049E+004    2.50786E+004
            8560    8.10520E+004    6.31977E+004    6.31977E+004   -6.29985E+003   -2.58374E+004    8.90351E+004   -1.03535E+004    7.54763E+004   -7.59087E+003   -1.01897E+004    4.88410E+004    1.67081E+004    2.27210E+004    1.67855E+004
            8561    7.96886E+004    7.00175E+004    7.00175E+004   -1.30947E+003   -1.59911E+004    8.60086E+004   -1.75723E+004    7.65566E+004   -2.95590E+003   -1.63418E+003    5.73070E+004    1.05238E+004    2.65440E+004    1.08098E+004
            8562    8.61418E+004    7.66760E+004    7.66760E+004   -4.33599E+003   -1.38121E+004    9.04881E+004   -1.95093E+004    8.49573E+004   -2.51451E+003   -4.86085E+003    6.59033E+004    3.97222E+003    2.88275E+004    3.31531E+003
            8563    6.36555E+004    4.93361E+004    4.93361E+004    3.30793E+003   -2.33073E+004    7.26434E+004   -9.77893E+003    4.85355E+004    7.74084E+003   -2.73785E+003    2.43338E+004    1.36571E+004    9.65431E+003    2.97425E+004
            8564    5.56865E+004    4.60096E+004    4.60096E+004    1.78950E+002   -1.59653E+004    6.19749E+004   -1.00744E+004    5.00007E+004    6.81068E+003   -1.37543E+003    2.47881E+004    1.06477E+004    1.29187E+004    2.39640E+004
            8565    5.16591E+004    4.83350E+004    4.83350E+004    2.31134E+002   -6.26481E+003    5.45998E+004   -1.41005E+004    5.07280E+004    7.87980E+003    3.43337E+003    3.09882E+004    8.36235E+003    1.55089E+004    1.89805E+004
            8566    5.09442E+004    4.68417E+004    4.68417E+004   -3.26221E+003   -4.90308E+003    5.17448E+004   -1.28921E+004    5.08846E+004    4.65171E+003   -1.06869E+003    3.50934E+004    5.88890E+003    1.75196E+004    1.20679E+004
            8567    4.94425E+004    5.08099E+004    5.08099E+004    3.67228E+003   -6.53120E+002    5.14631E+004   -1.79430E+004    4.90141E+004    7.88237E+003    4.18117E+003    4.17656E+004    2.04162E+003    1.90272E+004    4.42620E+003
            8568    4.87073E+004    3.02914E+004    3.02914E+004   -2.46039E+003   -2.56811E+004    5.59725E+004   -7.16641E+002    3.22316E+004   -8.83658E+002   -2.02530E+003    5.05888E+003    3.94307E+003    5.98307E+003    2.69256E+004
            8569    4.35101E+004    2.89653E+004    2.89653E+004   -5.33833E+003   -1.99760E+004    4.89413E+004   -1.21701E+003    3.73353E+004   -3.88331E+003   -8.78827E+002    8.41315E+003    2.97085E+003    7.84632E+003    2.27938E+004
            8570    3.79923E+004    2.37061E+004    2.37061E+004   -8.54531E+003   -1.81742E+004    4.18803E+004    1.00447E+003    3.50859E+004   -6.66235E+003   -4.67816E+003    8.32708E+003    2.80569E+003    9.70556E+003    1.76854E+004
            8571    3.12228E+004    2.30790E+004    2.30790E+004   -2.81817E+003   -1.15921E+004    3.46711E+004   -2.88956E+003    2.82432E+004   -3.21180E+003    5.98034E+002    1.12824E+004    1.61921E+003    1.12079E+004    1.18430E+004
            8572    2.79631E+004    1.95498E+004    1.95498E+004   -4.58877E+003   -1.10918E+004    3.06416E+004   -1.28976E+003    2.61794E+004   -4.82834E+003   -4.14474E+003    1.28424E+004    6.87406E+002    1.19267E+004    4.20862E+003
            8573    5.95583E+005   -7.51839E+004   -7.38173E+005   -2.48396E+005   -7.38173E+005    6.62989E+005    3.53918E+005   -5.34353E+005   -2.55627E+005   -2.18550E+005   -5.87576E+005   -7.06206E+004    2.68069E+005   -1.00178E+004
            8574    5.59036E+005   -5.83518E+004   -6.79273E+005   -2.15960E+005   -6.79273E+005    6.20921E+005    3.17862E+005   -5.05309E+005   -2.04213E+005   -2.20279E+005   -5.29092E+005   -3.05276E+004    2.61459E+005    3.67788E+004
            8575    5.43268E+005   -9.94047E+004   -7.06007E+005   -2.64268E+005   -7.06007E+005    6.06602E+005    3.56560E+005   -4.81975E+005   -2.50831E+005   -2.69535E+005   -5.49314E+005   -9.80832E+003    2.56711E+005    6.65581E+004
            8576    6.61515E+005   -1.17602E+005   -8.53647E+005   -3.08763E+005   -8.53647E+005    7.36045E+005    4.26671E+005   -5.94445E+005   -3.20431E+005   -2.90889E+005   -6.68692E+005   -5.53533E+004    3.13653E+005   -1.66250E+004
            8577    6.08630E+005   -9.73389E+004   -7.69461E+005   -2.55584E+005   -7.69461E+005    6.72123E+005    3.74128E+005   -5.59468E+005   -2.53486E+005   -2.57730E+005   -6.11168E+005   -2.11742E+004    2.83053E+005    2.76452E+004
            8578    5.95516E+005   -1.39624E+005   -8.01230E+005   -3.08111E+005   -8.01230E+005    6.61606E+005    4.16322E+005   -5.37843E+005   -2.95190E+005   -3.10783E+005   -6.42992E+005   -6.91814E+003    2.77296E+005    5.17351E+004
            8579    7.09395E+005   -1.53449E+005   -9.42148E+005   -3.56209E+005   -9.42148E+005    7.88699E+005    4.83935E+005   -6.39162E+005   -3.71529E+005   -3.51068E+005   -7.29210E+005   -3.03534E+004    3.48515E+005   -1.17863E+004
            8580    6.41883E+005   -1.25541E+005   -8.31704E+005   -2.83651E+005   -8.31704E+005    7.06163E+005    4.13632E+005   -5.95660E+005   -2.88808E+005   -2.84173E+005   -6.67915E+005   -1.03228E+004    2.97540E+005    1.41892E+004
            8581    6.31160E+005   -1.69365E+005   -8.68113E+005   -3.39360E+005   -8.68113E+005    6.98748E+005    4.58946E+005   -5.76184E+005   -3.26736E+005   -3.39955E+005   -7.10146E+005   -3.14598E+003    2.91062E+005    2.62860E+004
            8582    7.25661E+005   -1.65797E+005   -9.72389E+005   -3.72520E+005   -9.72389E+005    8.06592E+005    5.03569E+005   -6.54332E+005   -3.88848E+005   -3.72508E+005   -7.49350E+005    1.86513E+003    3.60764E+005    1.91079E+002
            8583    6.51786E+005   -1.34762E+005   -8.50979E+005   -2.92624E+005   -8.50979E+005    7.16218E+005    4.26122E+005   -6.06494E+005   -3.00181E+005   -2.92630E+005   -6.85554E+005    1.55001E+003    3.01844E+005   -1.58319E+003
            8584    6.41548E+005   -1.78657E+005   -8.88069E+005   -3.48606E+005   -8.88069E+005    7.09412E+005    4.71777E+005   -5.87618E+005   -3.36402E+005   -3.48617E+005   -7.30312E+005    4.44932E+002    2.94981E+005   -3.58414E+003
            8585    7.04747E+005   -1.50051E+005   -9.33713E+005   -3.51951E+005   -9.33713E+005    7.83662E+005    4.78572E+005   -6.34622E+005   -3.66483E+005   -3.45929E+005   -7.23303E+005    3.29044E+004    3.45390E+005    1.23892E+004
            8586    6.35527E+005   -1.20823E+005   -8.20316E+005   -2.78407E+005   -8.20316E+005    6.99493E+005    4.06516E+005   -5.89115E+005   -2.82498E+005   -2.79164E+005   -6.57884E+005    1.29220E+004    2.94592E+005   -1.69521E+004
            8587    6.23582E+005   -1.62787E+005   -8.53672E+005   -3.32554E+005   -8.53672E+005    6.90886E+005    4.49671E+005   -5.67999E+005   -3.19706E+005   -3.33588E+005   -6.95719E+005    4.18615E+003    2.88078E+005   -3.40469E+004
            8588    6.53874E+005   -1.13838E+005   -8.41361E+005   -3.02720E+005   -8.41361E+005    7.27524E+005    4.19306E+005   -5.87633E+005   -3.13269E+005   -2.84336E+005   -6.60314E+005    5.69812E+004    3.08674E+005    1.47506E+004
            8589    5.97016E+005   -8.89998E+004   -7.49146E+005   -2.47076E+005   -7.49146E+005    6.60147E+005    3.61741E+005   -5.46881E+005   -2.42652E+005   -2.49718E+005   -5.92853E+005    2.31626E+004    2.78003E+005   -3.02552E+004
            8590    5.82011E+005   -1.29254E+005   -7.76737E+005   -2.97075E+005   -7.76737E+005    6.47483E+005    4.01022E+005   -5.23280E+005   -2.83608E+005   -3.00313E+005   -6.19144E+005    7.54662E+003    2.71974E+005   -5.59714E+004
            8591    8.64228E+004    1.38427E+004   -7.69438E+004    4.32785E+003   -7.69438E+004    9.07865E+004    1.95911E+004   -8.52325E+004    2.48691E+003    4.86857E+003   -6.61288E+004   -3.99240E+003    2.89331E+004    3.29167E+003
            8592    7.97234E+004    1.60423E+004   -7.00234E+004    1.29977E+003   -7.00234E+004    8.60657E+004    1.75604E+004   -7.65660E+004    2.96079E+003    1.66091E+003   -5.73030E+004   -1.05737E+004    2.65515E+004    1.08073E+004
            8593    8.10523E+004    2.58709E+004   -6.31505E+004    6.37745E+003   -6.31505E+004    8.90214E+004    1.03007E+004   -7.55031E+004    7.56408E+003    1.02669E+004   -4.87332E+004   -1.67347E+004    2.26578E+004    1.69347E+004
            8594    8.28462E+004    2.75408E+004   -6.44670E+004    4.21742E+003   -6.44670E+004    9.20079E+004    1.09029E+004   -7.49086E+004    3.35587E+003    9.55675E+003   -4.56214E+004   -1.98174E+004    1.84820E+004    2.52957E+004
            8595    9.50077E+004    4.21994E+004   -6.65598E+004    2.70844E+002   -6.65598E+004    1.08759E+005    8.02988E+003   -6.90656E+004   -3.44297E+003    1.90416E+004   -3.96883E+004   -2.68415E+004    1.68835E+004    3.35443E+004
            8596    4.95159E+004    5.94865E+002   -5.09301E+004   -3.70352E+003   -5.09301E+004    5.15250E+004    1.80129E+004   -4.90935E+004   -7.93794E+003   -4.20320E+003   -4.18976E+004   -2.00461E+003    1.90412E+004    4.39790E+003
            8597    5.09635E+004    4.81319E+003   -4.69126E+004    3.25270E+003   -4.69126E+004    5.17258E+004    1.29489E+004   -5.09097E+004   -4.67757E+003    1.02992E+003   -3.51991E+004   -5.82938E+003    1.75478E+004    1.20169E+004
            8598    5.16192E+004    6.21284E+003   -4.83058E+004   -1.81844E+002   -4.83058E+004    5.45186E+004    1.40916E+004   -5.07166E+004   -7.83426E+003   -3.46090E+003   -3.09796E+004   -8.35064E+003    1.55224E+004    1.89425E+004
            8599    5.56568E+004    1.61087E+004   -4.58699E+004   -1.60821E+002   -4.58699E+004    6.19786E+004    9.97401E+003   -4.98709E+004   -6.75297E+003    1.43856E+003   -2.46076E+004   -1.06321E+004    1.28453E+004    2.40236E+004
            8600    6.38343E+004    2.33471E+004   -4.95104E+004   -3.40363E+003   -4.95104E+004    7.28574E+004    9.85563E+003   -4.85846E+004   -7.83523E+003    2.63221E+003   -2.43639E+004   -1.37246E+004    9.63781E+003    2.98624E+004
            8601    2.80296E+004    1.10939E+004   -1.96115E+004    4.60353E+003   -1.96115E+004    3.07055E+004    1.30469E+003   -2.62579E+004    4.84530E+003    4.16206E+003   -1.29214E+004   -6.93200E+002    1.19449E+004    4.17114E+003
            8602    3.12010E+004    1.15672E+004   -2.30742E+004    2.81886E+003   -2.30742E+004    3.46414E+004    2.89607E+003   -2.82378E+004    3.21483E+003   -5.85016E+002   -1.13180E+004   -1.62546E+003    1.12259E+004    1.17912E+004
            8603    3.80365E+004    1.82104E+004   -2.37355E+004    8.51506E+003   -2.37355E+004    4.19459E+004   -9.96659E+002   -3.50912E+004    6.64187E+003    4.67252E+003   -8.32442E+003   -2.79180E+003    9.70376E+003    1.77249E+004
            8604    4.35046E+004    1.99831E+004   -2.89659E+004    5.28839E+003   -2.89659E+004    4.89490E+004    1.23150E+003   -3.72743E+004    3.84554E+003    8.47449E+002   -8.38747E+003   -2.94194E+003    7.86967E+003    2.27957E+004
            8605    4.86201E+004    2.56189E+004   -3.02518E+004    2.45459E+003   -3.02518E+004    5.58707E+004    7.26089E+002   -3.22046E+004    8.62027E+002    2.05504E+003   -5.09533E+003   -3.95704E+003    6.00675E+003    2.68619E+004
            8606    3.83594E+005    3.94509E+004   -3.88385E+005   -7.51600E+004   -3.88385E+005    4.27836E+005    1.41365E+005   -3.41767E+005   -7.67815E+004   -2.38119E+004   -3.23501E+005   -7.12231E+004    1.34356E+005    1.85011E+004
            8607    3.07653E+005    6.84573E+004   -2.80500E+005   -4.83871E+004   -2.80500E+005    3.48958E+005    8.68101E+004   -2.49864E+005   -5.08578E+004    2.23570E+004   -2.31929E+005   -7.13898E+004    9.25232E+004    2.75365E+004
            8608    2.61494E+005    7.73650E+004   -2.21272E+005   -3.33433E+004   -2.21272E+005    2.98637E+005    5.90835E+004   -1.97384E+005   -3.65085E+004    3.96173E+004   -1.80359E+005   -6.52275E+004    7.11048E+004    3.16670E+004
            8609    1.98391E+005    8.12520E+004   -1.46700E+005   -1.30405E+004   -1.46700E+005    2.27952E+005    2.61628E+004   -1.31879E+005   -1.36900E+004    4.94923E+004   -1.14291E+005   -5.45991E+004    4.61460E+004    3.44422E+004
            8610    1.43340E+005    5.90154E+004   -1.05586E+005   -8.25172E+003   -1.05586E+005    1.64601E+005    1.82742E+004   -9.70138E+004   -1.23824E+004    3.20580E+004   -7.44980E+004   -4.15183E+004    3.07367E+004    3.62719E+004
            8611    1.19592E+005    3.98678E+004   -9.51875E+004   -2.71653E+003   -9.51875E+004    1.35055E+005    1.93454E+004   -1.00271E+005   -5.19327E+003    1.79703E+004   -7.08133E+004   -3.12606E+004    3.54082E+004    2.03853E+004
            8612    1.15641E+005    3.01885E+004   -9.90624E+004   -5.39498E+003   -9.90624E+004    1.29251E+005    2.47563E+004   -1.02190E+005   -5.13976E+003    6.79793E+003   -7.59271E+004   -2.54555E+004    4.07826E+004    1.21212E+004
            8613    1.15866E+005    2.65341E+004   -1.00911E+005   -1.92621E+003   -1.00911E+005    1.27445E+005    2.54343E+004   -1.07572E+005   -2.84677E+003    5.49144E+003   -7.89475E+004   -1.67188E+004    4.48036E+004    4.79670E+003
            8614    1.19389E+005    1.57562E+004   -1.12538E+005   -4.69687E+003   -1.12538E+005    1.28294E+005    3.38263E+004   -1.15348E+005   -8.59185E+003   -3.68126E+003   -8.92057E+004   -5.88224E+003    4.90759E+004    1.42060E+003
            8615    1.66347E+005    6.09451E+004   -1.28684E+005   -7.37493E+003   -1.28684E+005    1.89629E+005    2.50380E+004   -1.28565E+005    4.34967E+003    2.62653E+004   -1.05729E+005   -4.24537E+004    4.65519E+004    1.58447E+004
            8616    1.58150E+005    5.97623E+004   -1.20463E+005   -4.84556E+003   -1.20463E+005    1.80226E+005    2.18489E+004   -1.22702E+005    1.12609E+004    2.06598E+004   -9.74675E+004   -3.49963E+004    5.29205E+004    1.06396E+003
            8617    1.49926E+005    4.46638E+004   -1.23862E+005   -5.28877E+003   -1.23862E+005    1.68526E+005    2.81622E+004   -1.29108E+005    6.78111E+003    5.94148E+003   -9.72093E+004   -2.19913E+004    5.85380E+004   -2.55040E+003
            8618    1.53409E+005    3.87938E+004   -1.28905E+005    4.36288E+003   -1.28905E+005    1.67698E+005    2.85826E+004   -1.44326E+005    6.05985E+003    6.79348E+003   -9.86012E+004   -8.27801E+003    6.39474E+004   -3.14073E+003
            8619    2.23803E+005    6.32380E+004   -1.90236E+005   -1.98962E+004   -1.90236E+005    2.53474E+005    4.89646E+004   -1.83909E+005   -1.19529E+004    1.57170E+004   -1.50658E+005   -5.05116E+004    7.80861E+004    9.97623E+003
            8620    2.11636E+005    5.83393E+004   -1.81367E+005   -2.03395E+004   -1.81367E+005    2.39707E+005    4.77892E+004   -1.73839E+005   -6.97786E+003    4.13928E+003   -1.40529E+005   -4.01462E+004    8.26621E+004   -1.94576E+003
            8621    1.98445E+005    5.70356E+004   -1.66373E+005   -1.05477E+004   -1.66373E+005    2.23409E+005    3.99618E+004   -1.69490E+005   -1.29536E+003    3.99145E+003   -1.22581E+005   -2.53469E+004    8.50090E+004   -1.14575E+004
            8622    1.90005E+005    5.02645E+004   -1.61779E+005   -6.97382E+003   -1.61779E+005    2.12044E+005    3.94962E+004   -1.68910E+005   -3.09538E+003   -5.17852E+003   -1.10215E+005   -8.66764E+003    9.04570E+004   -4.94053E+003
            8623    2.74302E+005    6.12319E+004   -2.47486E+005   -3.17960E+004   -2.47486E+005    3.08718E+005    7.26832E+004   -2.34657E+005   -1.30836E+004   -6.47156E+002   -2.04319E+005   -5.60773E+004    9.29609E+004    1.61072E+004
            8624    2.47801E+005    6.76030E+004   -2.13630E+005   -2.73360E+004   -2.13630E+005    2.81233E+005    5.77877E+004   -2.00278E+005    6.91625E+002   -4.42227E+003   -1.69633E+005   -4.23317E+004    9.61834E+004   -6.06699E+003
            8625    2.23494E+005    5.86519E+004   -1.92885E+005   -1.71530E+004   -1.92885E+005    2.51537E+005    5.04621E+004   -1.91185E+005    3.43130E+002   -7.39531E+003   -1.44334E+005   -2.48894E+004    9.67120E+004   -7.29572E+003
            8626    2.10371E+005    6.68034E+004   -1.67849E+005    3.87777E+003   -1.67849E+005    2.34653E+005    3.23893E+004   -1.87375E+005    8.33574E+003    5.71521E+003   -1.11219E+005   -8.93285E+003    9.98846E+004   -5.73677E+003
            8627    3.60517E+005    4.76286E+004   -3.57370E+005   -7.14789E+004   -3.57370E+005    4.04999E+005    1.27073E+005   -3.11399E+005   -3.73012E+004   -6.42335E+004   -2.79686E+005   -5.11416E+004    1.50471E+005    2.04454E+004
            8628    3.26733E+005    5.16463E+004   -3.14169E+005   -5.13338E+004   -3.14169E+005    3.65816E+005    1.04619E+005   -2.86658E+005   -2.67194E+004   -5.02572E+004   -2.36880E+005   -3.37414E+004    1.44439E+005    1.80413E+004
            8629    2.92107E+005    5.82524E+004   -2.65310E+005   -2.10231E+004   -2.65310E+005    3.23562E+005    7.60267E+004   -2.66245E+005   -1.68516E+004   -1.82614E+004   -1.92967E+005   -1.80301E+004    1.33639E+005    9.52438E+002
            8630    2.60092E+005    6.99340E+004   -2.21815E+005   -1.42150E+004   -2.21815E+005    2.91749E+005    5.53652E+004   -2.26280E+005   -9.16529E+003   -1.41288E+004   -1.42802E+005   -5.33301E+003    1.29532E+005    1.55065E+003
            8631    2.70779E+005    5.47395E+004   -2.38121E+005    3.15656E+003   -2.38121E+005    2.92860E+005    6.00749E+004   -2.59377E+005   -3.83686E+004    3.29387E+003   -1.45150E+005   -1.29514E+003    1.35811E+005    1.14870E+004
            8632    2.88616E+005   -2.52335E+003   -3.18839E+005   -6.98108E+004   -3.18839E+005    3.16316E+005    1.30391E+005   -2.70109E+005   -9.61245E+004   -5.83420E+004   -2.36706E+005   -4.25639E+002    1.19734E+005    6.77922E+004
            8633    3.10238E+005    2.96218E+004   -3.10316E+005   -4.24730E+004   -3.10316E+005    3.39938E+005    1.07723E+005   -2.90480E+005   -6.80491E+004   -4.64260E+004   -2.08692E+005   -1.03312E+004    1.48174E+005    4.75100E+004
            8634    2.93499E+005    2.14644E+004   -3.11287E+005   -8.92389E+004   -3.11287E+005    3.32751E+005    1.26354E+005   -2.39262E+005   -8.98442E+004   -9.24710E+004   -1.96746E+005   -3.04468E+003    1.37334E+005    7.82696E+004
            8635    3.27390E+005    3.80227E+004   -3.30463E+005   -7.30930E+004   -3.30463E+005    3.68486E+005    1.21845E+005   -2.79992E+005   -6.98575E+004   -8.22852E+004   -2.13391E+005   -2.31441E+004    1.64549E+005    4.23302E+004
            8636    3.22098E+005    4.60665E+003   -3.58288E+005   -1.06289E+005   -3.58288E+005    3.62894E+005    1.53323E+005   -2.73924E+005   -1.05874E+005   -1.14063E+005   -2.40034E+005   -9.53068E+003    1.55948E+005    6.71998E+004
            8637    3.82241E+005    2.59026E+004   -4.03867E+005   -1.01910E+005   -4.03867E+005    4.29769E+005    1.59958E+005   -3.28735E+005   -8.49716E+004   -1.11317E+005   -2.83585E+005   -3.73520E+004    1.84232E+005    4.15905E+004
            8638    3.70211E+005   -2.01734E+002   -4.18422E+005   -1.32667E+005   -4.18422E+005    4.18221E+005    1.83764E+005   -3.09730E+005   -1.23486E+005   -1.42583E+005   -2.85221E+005   -1.23538E+004    1.80907E+005    7.06688E+004
            8639    4.22356E+005   -2.47866E+004   -5.01322E+005   -1.73219E+005   -5.01322E+005    4.76535E+005    2.33109E+005   -3.56152E+005   -1.60119E+005   -1.82875E+005   -3.56334E+005   -1.32381E+004    2.06137E+005    7.26371E+004
            8640    4.83309E+005   -5.74586E+004   -6.00110E+005   -2.15937E+005   -6.00110E+005    5.42651E+005    2.91168E+005   -4.18564E+005   -2.02493E+005   -2.24092E+005   -4.46921E+005   -1.22558E+004    2.32028E+005    7.45951E+004
            8641    4.40211E+005    1.35318E+004   -4.80718E+005   -1.30765E+005   -4.80718E+005    4.94249E+005    1.99317E+005   -3.81285E+005   -1.05610E+005   -1.38435E+005   -3.53906E+005   -4.28864E+004    2.06961E+005    4.15981E+004
            8642    5.03165E+005   -2.14190E+004   -5.83438E+005   -1.74851E+005   -5.83438E+005    5.62019E+005    2.59903E+005   -4.45792E+005   -1.54860E+005   -1.81223E+005   -4.43624E+005   -3.78661E+004    2.36122E+005    4.14163E+004
            8643    5.22513E+005   -3.27585E+004   -6.14476E+005   -1.84968E+005   -6.14476E+005    5.81718E+005    2.77401E+005   -4.68604E+005   -1.88114E+005   -1.48625E+005   -4.95464E+005   -7.53004E+004    2.21998E+005    1.47862E+002
            8644    4.52252E+005    2.14551E+003   -5.00273E+005   -1.25718E+005   -5.00273E+005    5.02418E+005    2.07948E+005   -4.08521E+005   -1.27589E+005   -8.87468E+004   -4.07510E+005   -7.29661E+004    1.80165E+005    1.21699E+004
            8645    2.74469E+005    2.47252E+005    2.47252E+005    2.98542E+004   -6.11639E+004    3.08416E+005   -7.19807E+004    2.36760E+005    2.10443E+004   -2.62441E+004    2.21142E+005   -5.16204E+004    6.93294E+004   -1.98484E+004
            8646    2.12006E+005    1.64355E+005    1.64355E+005    1.26005E+004   -7.78788E+004    2.42234E+005   -3.30257E+004    1.58953E+005    7.33367E+003   -4.88672E+004    1.40611E+005   -4.86230E+004    5.39232E+004   -1.54858E+004
            8647    1.57146E+005    1.07918E+005    1.07918E+005    2.70636E+003   -7.27228E+004    1.80640E+005   -1.26337E+004    1.02914E+005   -3.29331E+003   -4.89833E+004    9.01778E+004   -4.05287E+004    3.24743E+004   -2.24232E+004
            8648    1.08746E+005    7.12438E+004    7.12438E+004   -1.34144E+003   -5.37856E+004    1.25029E+005   -5.37223E+003    7.06862E+004   -2.36422E+003   -3.50314E+004    5.35123E+004   -2.98711E+004    2.14334E+004   -2.41936E+004
            8649    9.19301E+004    7.76377E+004    7.76377E+004    5.62604E+003   -2.59098E+004    1.03548E+005   -1.91180E+004    7.82944E+004    4.69217E+003   -1.24829E+004    6.51447E+004   -1.97608E+004    2.58160E+004   -9.87439E+003
            8650    1.01417E+005    9.76440E+004    9.76440E+004    1.62183E+003   -8.42126E+003    1.06065E+005   -3.02815E+004    1.00289E+005    9.07605E+003   -3.08126E+003    8.48498E+004   -6.18106E+003    3.33986E+004   -2.14527E+003
            8651    1.31800E+005    9.35705E+004    9.35705E+004   -7.88328E+001   -5.71467E+004    1.50717E+005   -1.21150E+004    9.75654E+004   -1.61809E+004   -3.15504E+004    8.40763E+004   -2.77465E+004    3.22280E+004    6.24823E+003
            8652    1.28431E+005    1.13324E+005    1.13324E+005   -2.12601E+003   -2.50099E+004    1.38334E+005   -2.87295E+004    1.23718E+005   -6.06119E+003   -6.44808E+003    9.86978E+004   -8.30967E+003    4.17851E+004    3.37537E+003
            8653    1.81494E+005    1.53841E+005    1.53841E+005    1.88574E+004   -5.24843E+004    2.06325E+005   -4.00714E+004    1.44476E+005    5.06051E+003   -1.54327E+004    1.30586E+005   -3.39171E+004    5.87814E+004    1.11679E+004
            8654    1.72170E+005    1.52560E+005    1.52560E+005    6.77582E+001   -3.41490E+004    1.86709E+005   -3.94930E+004    1.64257E+005    5.46277E+003   -6.20396E+003    1.19220E+005   -1.03614E+004    6.99071E+004    9.22694E+003
            8655    2.27689E+005    1.94100E+005    1.94100E+005    2.12056E+004   -6.38784E+004    2.57979E+005   -5.04758E+004    1.86529E+005   -1.45566E+004   -7.30697E+003    1.73291E+005   -3.75997E+004    6.58435E+004    1.43482E+004
            8656    1.84928E+005    1.65679E+005    1.65679E+005    5.70347E+003   -3.68004E+004    2.02480E+005   -4.48607E+004    1.73420E+005   -4.77723E+003    2.87118E+003    1.36488E+005   -1.00563E+004    7.05353E+004    3.43342E+003
            8657    2.91961E+005    2.66639E+005    2.66639E+005    1.52841E+003   -4.62733E+004    3.12912E+005   -7.39647E+004    2.82956E+005    3.72019E+003    1.35657E+003    2.16817E+005   -4.05621E+003    1.14405E+005   -1.48569E+003
            8658    3.32577E+005    3.78599E+005    3.78599E+005    8.62943E+004    1.67469E+004    3.61852E+005   -1.60547E+005    3.15588E+005    1.16484E+005    7.50825E+004    2.90073E+005   -1.61139E+003    1.35235E+005   -7.46110E+004
            8659    3.49471E+005    3.58423E+005    3.58423E+005    5.67147E+004   -2.45067E+004    3.82930E+005   -1.30210E+005    3.27209E+005    2.80765E+004    6.25148E+004    3.00040E+005   -2.29212E+004    1.29716E+005   -3.78187E+004
            8660    3.53241E+005    3.93429E+005    3.93429E+005    1.19945E+005   -5.39059E+003    3.98819E+005   -1.69328E+005    2.96640E+005    1.14695E+005    1.27275E+005    2.66013E+005   -6.41490E+003    1.66047E+005   -8.32452E+004
            8661    3.97066E+005    4.50867E+005    4.50867E+005    1.45165E+005    2.09229E+003    4.48775E+005   -1.99375E+005    3.31137E+005    1.30607E+005    1.52471E+005    3.15047E+005   -8.62401E+003    1.93503E+005   -6.98679E+004
            8662    4.67836E+005    5.27287E+005    5.27287E+005    1.70052E+005   -2.26938E+003    5.29557E+005   -2.31690E+005    3.86078E+005    1.56010E+005    1.79448E+005    3.59611E+005   -1.35262E+004    2.33243E+005   -7.72100E+004
            8663    5.46139E+005    6.30221E+005    6.30221E+005    2.10423E+005    1.27742E+004    6.17447E+005   -2.84473E+005    4.54536E+005    1.97657E+005    2.17899E+005    4.37863E+005   -1.44365E+004    2.76216E+005   -7.19049E+004
            8664    6.25437E+005    7.33201E+005    7.33201E+005    2.49255E+005    2.69886E+004    7.06212E+005   -3.36481E+005    5.24855E+005    2.40571E+005    2.54818E+005    5.14055E+005   -1.36085E+004    3.19234E+005   -6.77824E+004
            8665    4.03060E+005    4.14251E+005    4.14251E+005    9.73907E+004   -3.94037E+004    4.53655E+005   -1.57413E+005    3.44711E+005    3.55596E+004    1.01139E+005    3.35539E+005   -4.16526E+004    1.62008E+005   -3.60421E+004
            8666    5.04596E+005    5.46321E+005    5.46321E+005    1.49219E+005   -2.14867E+004    5.67807E+005   -2.24684E+005    4.32076E+005    7.49199E+004    1.54281E+005    4.44853E+005   -4.95555E+004    2.06204E+005   -4.43442E+004
            8667    6.00904E+005    6.69685E+005    6.69685E+005    1.98130E+005   -6.90070E+003    6.76586E+005   -2.86971E+005    5.12855E+005    1.12020E+005    2.02758E+005    5.46137E+005   -4.94586E+004    2.51973E+005   -4.46272E+004
            8668    7.00420E+005    8.06899E+005    8.06899E+005    2.48964E+005    2.08616E+004    7.86038E+005   -3.58908E+005    6.08019E+005    1.60946E+005    2.53031E+005    6.62747E+005   -4.38133E+004    2.97243E+005   -4.35652E+004
            8669    5.11625E+005    6.21554E+005    6.21554E+005    1.93002E+005    5.51172E+004    5.66437E+005   -2.89891E+005    4.67002E+005    1.30048E+005    1.68769E+005    5.70856E+005   -5.37348E+004    1.57350E+005    5.14659E+003
            8670    4.40723E+005    5.00591E+005    5.00591E+005    1.33629E+005    1.17553E+004    4.88835E+005   -2.15325E+005    4.00097E+005    8.01238E+004    1.02862E+005    4.62989E+005   -5.77247E+004    1.23475E+005   -5.91540E+003
            8671    3.73801E+005    3.91706E+005    3.91706E+005    8.45851E+004   -2.45035E+004    4.16210E+005   -1.50596E+005    3.35081E+005    4.08067E+004    4.71456E+004    3.63835E+005   -5.65372E+004    9.59203E+004   -8.07517E+003
            8672    3.13452E+005    3.03717E+005    3.03717E+005    4.84117E+004   -4.61203E+004    3.49838E+005   -1.02003E+005    2.78567E+005    1.62705E+004    8.33838E+003    2.81400E+005   -5.21871E+004    7.55786E+004   -1.27208E+004
            8673    6.99343E+004    6.42439E+004    6.42439E+004   -1.94097E+003   -8.91690E+003    7.31608E+004   -1.77953E+004    6.91450E+004   -4.33282E+003   -2.50864E+003    6.02275E+004   -3.81998E+003    1.53782E+004   -5.29047E+003
            8674    6.56982E+004    4.98662E+004    4.98662E+004   -5.67276E+003   -2.26561E+004    7.25223E+004   -7.17909E+003    6.04563E+004   -8.98498E+003   -1.19478E+004    4.24700E+004   -1.18886E+004    1.18792E+004   -1.48329E+004
            8675    7.24788E+004    5.05146E+004    5.05146E+004   -1.60640E+003   -3.22534E+004    8.27679E+004   -5.55160E+003    5.47658E+004   -1.68762E+003   -1.50470E+004    3.33894E+004   -1.80474E+004    1.03814E+004   -2.63012E+004
            8676    3.88250E+004    4.04000E+004    4.04000E+004    4.47355E+003   -7.87154E+002    4.11871E+004   -1.46955E+004    3.80108E+004    7.17081E+003    3.56065E+002    3.65595E+004   -2.24147E+003    9.35491E+003   -6.30750E+003
            8677    4.05428E+004    3.73555E+004    3.73555E+004    3.44523E+003   -7.55117E+003    4.49067E+004   -1.10832E+004    3.69580E+004    5.92504E+003    1.56039E+003    2.57641E+004   -5.93643E+003    7.44569E+003   -1.70534E+004
            8678    4.96130E+004    3.63596E+004    3.63596E+004    1.05202E+003   -2.03645E+004    5.67241E+004   -5.68237E+003    3.68275E+004    2.73383E+003   -4.30488E+003    1.86182E+004   -8.34168E+003    5.46413E+003   -2.41487E+004
            8679    1.91766E+004    1.41901E+004    1.41901E+004   -2.95303E+003   -6.51927E+003    2.07094E+004   -1.57261E+003    1.84083E+004   -5.60699E+003   -7.97140E+002    1.11220E+004   -4.98561E+002    3.68705E+003   -5.87892E+003
            8680    3.05545E+004    1.92271E+004    1.92271E+004   -6.67190E+003   -1.44710E+004    3.36982E+004    6.38594E+002    2.81815E+004   -6.19033E+003   -3.52319E+003    7.79773E+003   -1.60838E+003    3.34198E+003   -1.55653E+004
            8681    4.03907E+004    2.67828E+004    2.67828E+004   -6.16557E+002   -1.96027E+004    4.63855E+004   -2.18787E+003    2.72750E+004   -1.31361E+002   -7.37226E+001    6.76869E+003   -2.25039E+003    2.83622E+003   -2.26926E+004
            8682    6.43755E+005    7.59890E+005    7.59890E+005    2.59458E+005    3.36529E+004    7.26237E+005   -3.51001E+005    5.43291E+005    2.51217E+005    2.64675E+005    5.37110E+005    1.39767E+004    3.28231E+005    6.47050E+004
            8683    7.17687E+005    8.32046E+005    8.32046E+005    2.58573E+005    2.72163E+004    8.04830E+005   -3.72612E+005    6.25137E+005    1.70978E+005    2.61998E+005    6.84859E+005    4.33667E+004    3.04785E+005    4.14960E+004
            8684    5.22202E+005    6.38547E+005    6.38547E+005    1.99626E+005    6.10279E+004    5.77519E+005   -2.99733E+005    4.78125E+005    1.36259E+005    1.76436E+005    5.86506E+005    5.28458E+004    1.61225E+005   -5.44226E+003
            8685    7.10960E+005    8.54369E+005    8.54369E+005    2.96584E+005    5.38244E+004    8.00544E+005   -4.01592E+005    6.06611E+005    2.93333E+005    2.99186E+005    6.12258E+005    1.02294E+004    3.64127E+005    5.00073E+004
            8686    8.02890E+005    9.56022E+005    9.56022E+005    3.07685E+005    5.79402E+004    8.98081E+005   -4.40549E+005    7.07240E+005    2.20822E+005    3.09639E+005    7.91186E+005    3.12625E+004    3.44492E+005    3.23075E+004
            8687    5.86757E+005    7.59380E+005    7.59380E+005    2.66458E+005    1.10359E+005    6.49021E+005   -3.78732E+005    5.36981E+005    1.92726E+005    2.53267E+005    6.90204E+005    4.20207E+004    1.97958E+005   -1.14481E+004
            8688    7.55823E+005    9.22013E+005    9.22013E+005    3.24400E+005    7.23783E+004    8.49635E+005   -4.39597E+005    6.50690E+005    3.25692E+005    3.25035E+005    6.68064E+005    5.32596E+003    3.88058E+005    2.56333E+004
            8689    8.60679E+005    1.04177E+006    1.04177E+006    3.41605E+005    8.08670E+004    9.60899E+005   -4.88079E+005    7.63942E+005    2.57167E+005    3.42141E+005    8.64930E+005    1.55169E+004    3.71575E+005    1.72266E+004
            8690    6.34756E+005    8.54163E+005    8.54163E+005    3.21967E+005    1.51613E+005    7.02550E+005   -4.42581E+005    5.79888E+005    2.39918E+005    3.18273E+005    7.69552E+005    2.31376E+004    2.27973E+005   -8.97399E+003
            8691    7.69155E+005    9.41973E+005    9.41973E+005    3.32533E+005    7.77559E+004    8.64217E+005   -4.50754E+005    6.63748E+005    3.35113E+005    3.32542E+005    6.84606E+005   -7.19615E+002    3.95187E+005   -3.08866E+003
            8692    8.77944E+005    1.06753E+006    1.06753E+006    3.51968E+005    8.78438E+004    9.79685E+005   -5.02447E+005    7.80760E+005    2.68180E+005    3.51969E+005    8.87190E+005   -2.02883E+003    3.79666E+005   -1.53715E+003
            8693    6.53561E+005    8.89994E+005    8.89994E+005    3.42739E+005    1.66337E+005    7.23657E+005   -4.66357E+005    5.96375E+005    2.57263E+005    3.42735E+005    7.99072E+005   -1.05670E+003    2.39851E+005   -2.28205E+002
            8694    7.47507E+005    9.09102E+005    9.09102E+005    3.18981E+005    6.85278E+004    8.40574E+005   -4.32204E+005    6.42395E+005    3.20020E+005    3.19966E+005    6.56624E+005   -6.49131E+003    3.83938E+005   -3.21212E+004
            8695    8.52048E+005    1.02728E+006    1.02728E+006    3.34729E+005    7.58106E+004    9.51473E+005   -4.79274E+005    7.55632E+005    2.50201E+005    3.35421E+005    8.52201E+005   -1.90535E+004    3.67582E+005   -1.98621E+004
            8696    6.31735E+005    8.47775E+005    8.47775E+005    3.18293E+005    1.48493E+005    6.99281E+005   -4.38187E+005    5.76951E+005    2.36525E+005    3.14047E+005    7.63989E+005   -2.49298E+004    2.26305E+005    9.02678E+003
            8697    6.96058E+005    8.32806E+005    8.32806E+005    2.88080E+005    4.86302E+004    7.84176E+005   -3.89839E+005    5.92150E+005    2.84488E+005    2.91151E+005    5.93877E+005   -1.10068E+004    3.56750E+005   -5.35942E+004
            8698    7.87348E+005    9.30326E+005    9.30326E+005    2.96456E+005    4.89670E+004    8.81359E+005   -4.25249E+005    6.91353E+005    2.08960E+005    2.98836E+005    7.67952E+005   -3.33004E+004    3.37945E+005   -3.49302E+004
            8699    5.80358E+005    7.48461E+005    7.48461E+005    2.61106E+005    1.06438E+005    6.42023E+005   -3.72001E+005    5.30939E+005    1.87994E+005    2.47348E+005    6.80662E+005   -4.31909E+004    1.94861E+005    1.00498E+004
            8700    7.24259E+004    3.22259E+004   -5.04805E+004    1.60813E+003   -5.04805E+004    8.27064E+004    5.54884E+003   -5.47359E+004    1.69251E+003    1.50064E+004   -3.33455E+004    1.79937E+004    1.03248E+004   -2.63500E+004
            8701    6.56236E+004    2.26374E+004   -4.97895E+004    5.71691E+003   -4.97895E+004    7.24269E+004    7.14507E+003   -6.04164E+004    9.03223E+003    1.19626E+004   -4.24301E+004    1.18352E+004    1.18102E+004   -1.48328E+004
            8702    6.94472E+004    8.96451E+003   -6.37118E+004    1.97796E+003   -6.37118E+004    7.26764E+004    1.75898E+004   -6.86498E+004    4.45125E+003    2.54140E+003   -5.97620E+004    3.80359E+003    1.51866E+004   -5.26793E+003
            8703    4.94369E+004    2.02797E+004   -3.62402E+004   -1.04287E+003   -3.62402E+004    5.65199E+004    5.66779E+003   -3.67244E+004   -2.71197E+003    4.23525E+003   -1.85267E+004    8.27789E+003    5.42864E+003   -2.40955E+004
            8704    4.04088E+004    7.49741E+003   -3.72641E+004   -3.47391E+003   -3.72641E+004    4.47615E+004    1.10802E+004   -3.68279E+004   -5.96954E+003   -1.52839E+003   -2.57426E+004    5.95669E+003    7.46272E+003   -1.69394E+004
            8705    3.85412E+004    7.56403E+002   -4.01586E+004   -4.53901E+003   -4.01586E+004    4.09150E+004    1.46471E+004   -3.77097E+004   -7.24259E+003   -3.85354E+002   -3.63133E+004    2.22121E+003    9.31313E+003   -6.29663E+003
            8706    4.03699E+004    1.96414E+004   -2.67202E+004    6.65555E+002   -2.67202E+004    4.63616E+004    2.13773E+003   -2.72619E+004    1.88654E+002    6.26006E+001   -6.66446E+003    2.20555E+003    2.83702E+003   -2.26927E+004
            8707    3.07430E+004    1.45310E+004   -1.93718E+004    6.69464E+003   -1.93718E+004    3.39028E+004   -6.17924E+002   -2.83625E+004    6.19837E+003    3.56289E+003   -7.90749E+003    1.65556E+003    3.36308E+003   -1.56443E+004
            8708    1.91399E+004    6.54738E+003   -1.41277E+004    2.97284E+003   -1.41277E+004    2.06751E+004    1.53584E+003   -1.83662E+004    5.63567E+003    8.13182E+002   -1.10564E+004    5.02593E+002    3.68594E+003   -5.87180E+003
            8709    2.10542E+005    1.91180E+005    1.91180E+005    7.83234E+003   -3.87520E+004    2.29932E+005   -5.34203E+004    1.98443E+005   -3.85496E+003    7.32878E+003    1.56787E+005    6.43117E+003    8.17716E+004    1.78714E+003
            8710    1.91794E+005    1.69391E+005    1.69391E+005   -6.87870E+002   -3.84890E+004    2.07880E+005   -4.34046E+004    1.83129E+005    3.99984E+003   -2.78824E+003    1.29002E+005    6.58189E+003    8.16708E+004   -6.43686E+003
            8711    1.53054E+005    1.33990E+005    1.33990E+005    1.48614E+003   -3.35408E+004    1.67531E+005   -3.39785E+004    1.43614E+005   -5.81377E+003   -6.45461E+002    1.08395E+005    6.50156E+003    5.96981E+004   -6.50582E+003
            8712    1.31942E+005    1.21035E+005    1.21035E+005   -1.57277E+003   -1.85902E+004    1.39625E+005   -3.36239E+004    1.29438E+005    6.08789E+003   -4.68626E+003    9.94700E+004    5.57169E+003    4.97717E+004   -3.71484E+003
            8713    1.00811E+005    9.44309E+004    9.44309E+004    4.55194E+002   -1.20479E+004    1.06479E+005   -2.76127E+004    9.90436E+004   -1.06924E+003   -6.12095E+002    8.45195E+004    3.90266E+003    3.07114E+004    5.69168E+002
            8714    2.51028E+005    2.30648E+005    2.30648E+005    1.10366E+004   -4.29965E+004    2.73644E+005   -6.62293E+004    2.37409E+005   -7.71928E+003    4.08267E+003    2.02324E+005    1.84779E+004    8.20525E+004   -2.15762E+003
            8715    2.04412E+005    1.92197E+005    1.92197E+005    2.22003E+004   -3.46118E+004    2.26808E+005   -5.99284E+004    1.85363E+005    1.02976E+004    9.59021E+003    1.59897E+005    2.12934E+004    7.66386E+004   -1.02819E+004
            8716    1.67244E+005    1.36062E+005    1.36062E+005    1.15647E+003   -5.10606E+004    1.87123E+005   -2.87195E+004    1.47155E+005   -1.27211E+004   -1.76157E+004    1.16495E+005    2.07917E+004    5.31471E+004   -1.67994E+004
            8717    1.24782E+005    1.10630E+005    1.10630E+005    8.64384E+003   -2.85091E+004    1.39139E+005   -3.02548E+004    1.11279E+005    3.68952E+003   -6.24617E+003    9.33211E+004    1.73061E+004    4.30076E+004   -5.77212E+003
            8718    9.72853E+004    7.94717E+004    7.94717E+004   -4.59025E+003   -2.70931E+004    1.06565E+005   -1.59294E+004    9.11495E+004   -8.59665E+003   -1.45519E+004    7.09369E+004    1.23749E+004    2.68175E+004    2.06478E+003
            8719    2.80859E+005    2.72511E+005    2.72511E+005    3.90838E+004   -3.91779E+004    3.11689E+005   -9.08056E+004    2.54539E+005    1.33310E+003    2.98135E+004    2.41270E+005    3.45442E+004    8.77150E+004    1.49711E+004
            8720    2.30756E+005    2.07595E+005    2.07595E+005    2.87167E+004   -5.28720E+004    2.60467E+005   -6.11465E+004    1.94079E+005    8.66912E+003   -2.92313E+003    1.77693E+005    3.79171E+004    7.70846E+004   -1.21969E+004
            8721    1.79292E+005    1.44362E+005    1.44362E+005    1.20503E+004   -5.96914E+004    2.04053E+005   -3.22402E+004    1.41105E+005   -9.39600E+003   -2.32608E+004    1.29377E+005    3.46931E+004    4.79742E+004   -9.23206E+003
            8722    1.35409E+005    1.05803E+005    1.05803E+005    8.58688E+003   -4.88578E+004    1.54661E+005   -2.18441E+004    1.02038E+005    2.04533E+003   -2.69936E+004    9.04807E+004    2.80375E+004    3.94959E+004   -4.66395E+003
            8723    9.58224E+004    7.36925E+004    7.36925E+004    6.81206E+000   -3.46328E+004    1.08325E+005   -1.30221E+004    7.97917E+004   -8.06559E+003   -1.83080E+004    6.54401E+004    2.01451E+004    2.25023E+004    7.84255E+003
            8724    3.11200E+005    2.93089E+005    2.93089E+005    5.31834E+004   -5.85516E+004    3.51640E+005   -9.59069E+004    2.59952E+005   -3.76043E+003    3.16406E+004    2.59840E+005    5.46410E+004    9.25423E+004    1.62184E+004
            8725    2.61233E+005    2.35787E+005    2.35787E+005    3.28968E+004   -5.89688E+004    2.94756E+005   -6.99051E+004    2.20224E+005    1.57383E+004   -1.00255E+004    2.04002E+005    5.25726E+004    7.90212E+004    9.31413E+003
            8726    1.97454E+005    1.41211E+005    1.41211E+005    9.50545E+003   -8.58193E+004    2.27030E+005   -2.16324E+004    1.28130E+005   -1.59459E+004   -4.53635E+004    1.26207E+005    4.88477E+004    4.68042E+004   -1.03594E+003
            8727    1.50035E+005    1.11701E+005    1.11701E+005    1.33331E+004   -6.09868E+004    1.72688E+005   -2.13492E+004    9.30270E+004    4.99115E+003   -3.54604E+004    9.45169E+004    3.98763E+004    3.75565E+004    8.87021E+003
            8728    1.04501E+005    6.52474E+004    6.52474E+004   -3.90264E+003   -5.49668E+004    1.20214E+005   -2.12601E+003    6.64412E+004   -1.35957E+004   -3.53303E+004    5.53040E+004    2.85009E+004    2.01854E+004    1.34665E+004
            8729    1.23371E+005    8.10408E+004    8.10408E+004   -3.59039E+002   -6.09059E+004    1.41947E+005   -6.59195E+003    7.78352E+004   -2.49840E+003   -3.94784E+004    6.17527E+004    3.23289E+004    2.03478E+004    3.14699E+004
            8730    1.75982E+005    1.20110E+005    1.20110E+005    3.96326E+003   -8.23668E+004    2.02477E+005   -1.39021E+004    1.11114E+005    2.00735E+003   -5.90478E+004    9.87466E+004    4.35755E+004    3.48496E+004    2.96491E+004
            8731    2.34471E+005    1.84967E+005    1.84967E+005    2.00851E+004   -8.34498E+004    2.68417E+005   -4.05342E+004    1.70352E+005    1.35279E+004   -5.59652E+004    1.64040E+005    5.16137E+004    4.76924E+004    2.71928E+004
            8732    2.84481E+005    2.53114E+005    2.53114E+005    3.50379E+004   -6.86718E+004    3.21786E+005   -7.31601E+004    2.35948E+005    3.25514E+004   -3.61505E+004    2.23079E+005    5.64147E+004    7.19798E+004    2.39998E+004
            8733    3.39827E+005    3.38660E+005    3.38660E+005    6.06571E+004   -4.01710E+004    3.78831E+005   -1.19715E+005    3.03333E+005    4.86606E+004    2.61679E+003    3.07869E+005    5.73103E+004    8.83243E+004    1.80882E+004
            8734    3.86508E+005    4.06035E+005    4.06035E+005    8.26755E+004   -2.20422E+004    4.28077E+005   -1.55556E+005    3.52413E+005    4.38424E+004    4.49236E+004    3.77902E+005    5.51986E+004    9.78894E+004    9.39506E+003
            8735    4.52372E+005    5.16333E+005    5.16333E+005    1.37341E+005    1.55258E+004    5.00807E+005   -2.23067E+005    4.12987E+005    8.48981E+004    1.06148E+005    4.78153E+005    5.67125E+004    1.26791E+005    2.56189E+003
            8736    6.21138E+005    6.98310E+005    6.98310E+005    2.05991E+005    4.54888E+002    6.97855E+005   -3.01585E+005    5.36212E+005    1.22119E+005    2.10211E+005    5.72426E+005    5.05175E+004    2.58978E+005    4.50188E+004
            8737    5.66721E+005    6.53883E+005    6.53883E+005    2.17277E+005    1.34381E+004    6.40445E+005   -2.94866E+005    4.73012E+005    2.05321E+005    2.24925E+005    4.54353E+005    1.51386E+004    2.86745E+005    7.37049E+004
            8738    5.16096E+005    5.56828E+005    5.56828E+005    1.50986E+005   -2.40139E+004    5.80841E+005   -2.27933E+005    4.41535E+005    7.38431E+004    1.54740E+005    4.55216E+005    5.16400E+004    2.09565E+005    4.26798E+004
            8739    4.88813E+005    5.57725E+005    5.57725E+005    1.84936E+005    4.30207E+003    5.53423E+005   -2.48988E+005    4.02735E+005    1.66355E+005    1.93525E+005    3.87084E+005    1.35998E+004    2.44284E+005    7.27955E+004
            8740    4.27682E+005    4.89153E+005    4.89153E+005    1.56916E+005    6.60789E+003    4.82545E+005   -2.17559E+005    3.60638E+005    1.50343E+005    1.67171E+005    3.35163E+005    1.44663E+004    2.10863E+005    7.65141E+004
            8741    3.73241E+005    4.28611E+005    4.28611E+005    1.33632E+005    9.00183E+003    4.19609E+005   -1.90415E+005    3.21158E+005    1.38176E+005    1.39253E+005    2.93815E+005    8.05719E+003    1.81350E+005    7.39231E+004
            8742    3.40217E+005    3.79468E+005    3.79468E+005    1.17765E+005   -5.11777E+003    3.84586E+005   -1.64038E+005    2.83413E+005    1.20238E+005    1.19522E+005    2.52356E+005    2.25150E+003    1.57277E+005    8.93933E+004
            8743    3.39900E+005    3.91787E+005    3.91787E+005    9.63593E+004    2.03013E+004    3.71486E+005   -1.69483E+005    3.19902E+005    1.29626E+005    7.44705E+004    3.04351E+005   -4.52490E+002    1.32151E+005    8.15100E+004
            8744    4.35547E+005    4.58075E+005    4.58075E+005    1.13985E+005   -3.16215E+004    4.89697E+005   -1.80146E+005    3.74608E+005    4.62232E+004    1.19220E+005    3.74995E+005    3.74385E+004    1.74593E+005    3.92778E+004
            8745    3.77247E+005    3.91226E+005    3.91226E+005    9.05180E+004   -3.20673E+004    4.23294E+005   -1.49892E+005    3.27724E+005    3.86508E+004    9.81858E+004    3.12840E+005    2.06938E+004    1.56161E+005    4.27064E+004
            8746    3.66621E+005    3.83369E+005    3.83369E+005    5.84519E+004   -1.41059E+004    3.97475E+005   -1.42572E+005    3.49916E+005    4.78013E+004    6.42636E+004    3.15650E+005    8.48470E+003    1.40037E+005    5.08582E+004
            8747    3.14672E+005    2.93071E+005    2.93071E+005    1.76146E+003   -4.06596E+004    3.33731E+005   -8.47244E+004    3.08141E+005    1.66513E+004    1.86049E+003    2.35661E+005    1.24379E+003    1.25664E+005    8.49114E+003
            8748    1.85176E+005    3.68760E+004   -1.65876E+005   -5.68567E+003   -1.65876E+005    2.02752E+005    4.48951E+004   -1.73652E+005    4.78673E+003   -2.85019E+003   -1.36622E+005    1.00611E+004    7.06540E+004    3.45609E+003
            8749    1.71872E+005    3.40846E+004   -1.52283E+005   -1.93213E+001   -1.52283E+005    1.86367E+005    3.94058E+004   -1.63998E+005   -5.41999E+003    6.27199E+003   -1.19069E+005    1.03508E+004    6.97171E+004    9.22842E+003
            8750    1.27607E+005    2.46254E+004   -1.12734E+005    2.12692E+003   -1.12734E+005    1.37360E+005    2.86606E+004   -1.23025E+005    5.91624E+003    6.43011E+003   -9.83282E+004    8.25406E+003    4.13421E+004    3.20580E+003
            8751    1.00522E+005    8.08016E+003   -9.69862E+004   -1.72648E+003   -9.69862E+004    1.05066E+005    3.02108E+004   -9.94377E+004   -9.24911E+003    2.92768E+003   -8.43111E+004    6.10638E+003    3.30693E+004   -2.27842E+003
            8752    2.27306E+005    6.39681E+004   -1.93631E+005   -2.12403E+004   -1.93631E+005    2.57599E+005    5.03009E+004   -1.85909E+005    1.45968E+004    7.38278E+003   -1.72882E+005    3.76787E+004    6.56787E+004    1.43736E+004
            8753    1.80865E+005    5.24673E+004   -1.53154E+005   -1.86870E+004   -1.53154E+005    2.05621E+005    3.97913E+004   -1.43900E+005   -4.92129E+003    1.55411E+004   -1.29994E+005    3.38111E+004    5.85559E+004    1.11834E+004
            8754    1.30919E+005    5.68734E+004   -9.28366E+004    1.80953E+002   -9.28366E+004    1.49710E+005    1.19274E+004   -9.69029E+004    1.62711E+004    3.13976E+004   -8.34509E+004    2.75841E+004    3.19469E+004    6.15124E+003
            8755    9.13544E+004    2.54051E+004   -7.74309E+004   -5.66123E+003   -7.74309E+004    1.02836E+005    1.92290E+004   -7.80696E+004   -4.86451E+003    1.21296E+004   -6.49522E+004    1.95531E+004    2.56974E+004   -9.95175E+003
            8756    1.08783E+005    5.38583E+004   -7.12198E+004    1.33645E+003   -7.12198E+004    1.25078E+005    5.34166E+003   -7.05803E+004    2.34855E+003    3.50822E+004   -5.34558E+004    2.98931E+004    2.13951E+004   -2.42721E+004
            8757    1.57391E+005    7.29895E+004   -1.07943E+005   -2.66523E+003   -1.07943E+005    1.80933E+005    1.25397E+004   -1.02843E+005    3.33624E+003    4.92416E+004   -9.01968E+004    4.05970E+004    3.24591E+004   -2.24895E+004
            8758    2.12292E+005    7.79658E+004   -1.64598E+005   -1.26552E+004   -1.64598E+005    2.42564E+005    3.30959E+004   -1.59139E+005   -7.43628E+003    4.89450E+004   -1.40796E+005    4.86932E+004    5.39965E+004   -1.55492E+004
            8759    2.73967E+005    6.11537E+004   -2.46731E+005   -2.98348E+004   -2.46731E+005    3.07885E+005    7.18042E+004   -2.36200E+005   -2.09466E+004    2.62508E+004   -2.20717E+005    5.15789E+004    6.91321E+004   -1.97904E+004
            8760    3.12725E+005    4.64590E+004   -3.02641E+005   -4.81291E+004   -3.02641E+005    3.49100E+005    1.01437E+005   -2.77698E+005   -1.60842E+004   -7.72821E+003   -2.80498E+005    5.22167E+004    7.51470E+004   -1.26717E+004
            8761    3.73971E+005    2.41177E+004   -3.92207E+005   -8.47480E+004   -3.92207E+005    4.16325E+005    1.50946E+005   -3.35444E+005   -4.12814E+004   -4.72156E+004   -3.64341E+005    5.64807E+004    9.59218E+004   -8.08592E+003
            8762    4.41540E+005   -1.24070E+004   -5.02037E+005   -1.34121E+005   -5.02037E+005    4.89630E+005    2.16189E+005   -4.01114E+005   -8.08971E+004   -1.03406E+005   -4.64263E+005    5.75697E+004    1.23923E+005   -5.68000E+003
            8763    5.12217E+005   -5.53061E+004   -6.22295E+005   -1.92997E+005   -6.22295E+005    5.66989E+005    2.90199E+005   -4.67788E+005   -1.30254E+005   -1.68938E+005   -5.71406E+005    5.36360E+004    1.57712E+005    4.87649E+003
            8764    6.99422E+005   -2.09221E+004   -8.05844E+005   -2.48718E+005   -8.05844E+005    7.84921E+005    3.58495E+005   -6.07135E+005   -1.60906E+005   -2.52757E+005   -6.61822E+005    4.39941E+004    2.96854E+005   -4.34874E+004
            8765    6.24922E+005   -2.69326E+004   -7.32508E+005   -2.48761E+005   -7.32508E+005    7.05575E+005    3.36067E+005   -5.24688E+005   -2.39950E+005   -2.54443E+005   -5.13809E+005    1.38839E+004    3.18787E+005   -6.79088E+004
            8766    5.99778E+005    7.24340E+003   -6.68010E+005   -1.97126E+005   -6.68010E+005    6.75254E+005    2.85964E+005   -5.12163E+005   -1.11238E+005   -2.01740E+005   -5.44915E+005    4.95238E+004    2.51250E+005   -4.46403E+004
            8767    5.46523E+005   -1.28687E+004   -6.30722E+005   -2.10529E+005   -6.30722E+005    6.17853E+005    2.84706E+005   -4.54993E+005   -1.97666E+005   -2.18055E+005   -4.38399E+005    1.45691E+004    2.76342E+005   -7.18715E+004
            8768    5.04574E+005    2.17735E+004   -5.45916E+005   -1.48528E+005   -5.45916E+005    5.67689E+005    2.24224E+005   -4.32438E+005   -7.44370E+004   -1.53569E+005   -4.44665E+005    4.95832E+004    2.05975E+005   -4.43817E+004
            8769    4.69122E+005    1.88772E+003   -5.29063E+005   -1.70614E+005   -5.29063E+005    5.30951E+005    2.32596E+005   -3.87464E+005   -1.56691E+005   -1.80034E+005   -3.61063E+005    1.36665E+004    2.33899E+005   -7.71309E+004
            8770    4.03255E+005    3.93962E+004   -4.14490E+005   -9.75144E+004   -4.14490E+005    4.53886E+005    1.57536E+005   -3.44829E+005   -3.55689E+004   -1.01188E+005   -3.35851E+005    4.16883E+004    1.62032E+005   -3.59034E+004
            8771    3.97900E+005   -1.97503E+003   -4.51665E+005   -1.45221E+005   -4.51665E+005    4.49690E+005    1.99620E+005   -3.31968E+005   -1.30794E+005   -1.52533E+005   -3.15535E+005    8.67058E+003    1.93940E+005   -6.99386E+004
            8772    3.53726E+005    5.53996E+003   -3.93845E+005   -1.20055E+005   -3.93845E+005    3.99385E+005    1.69454E+005   -2.96955E+005   -1.14768E+005   -1.27382E+005   -2.66211E+005    6.39994E+003    1.66291E+005   -8.33803E+004
            8773    3.32742E+005   -1.68092E+004   -3.78893E+005   -8.65475E+004   -3.78893E+005    3.62084E+005    1.60750E+005   -3.15664E+005   -1.16806E+005   -7.53178E+004   -2.90126E+005    1.66402E+003    1.35325E+005   -7.48734E+004
            8774    3.49666E+005    2.44714E+004   -3.58651E+005   -5.67322E+004   -3.58651E+005    3.83123E+005    1.30304E+005   -3.27427E+005   -2.81315E+004   -6.25390E+004   -3.00241E+005    2.29112E+004    1.29779E+005   -3.78509E+004
            8775    2.92291E+005    4.60599E+004   -2.67217E+005   -1.82590E+003   -2.67217E+005    3.13277E+005    7.43277E+004   -2.83264E+005   -4.04933E+003   -1.67311E+003   -2.17261E+005    4.00343E+003    1.14610E+005   -1.66215E+003
            8776    7.66388E+004    4.98335E+004    4.98335E+004   -1.75934E+003   -3.82295E+004    8.80631E+004   -3.28155E+003    5.08527E+004   -1.27626E+002   -2.03703E+004    3.03426E+004    1.96108E+004    1.11210E+004    2.82472E+004
            8777    6.84133E+004    5.44577E+004    5.44577E+004    3.97270E+003   -2.34044E+004    7.78621E+004   -1.16753E+004    5.38391E+004    5.44350E+003   -9.53548E+003    3.91179E+004    1.73495E+004    1.29006E+004    2.17205E+004
            8778    6.43211E+004    5.32713E+004    5.32713E+004    1.19827E+003   -1.86292E+004    7.19005E+004   -1.19468E+004    5.68098E+004    3.39390E+003   -1.07098E+004    4.31562E+004    1.26458E+004    1.51218E+004    1.44994E+004
            8779    6.19388E+004    6.05628E+004    6.05628E+004    3.52618E+003   -5.32570E+003    6.58885E+004   -1.95878E+004    6.04911E+004    5.39135E+003    6.67238E+002    5.27047E+004    7.83411E+003    1.71777E+004    9.70728E+003
            8780    7.14118E+004    7.04686E+004    7.04686E+004    1.49121E+003   -3.15104E+003    7.36197E+004   -2.29363E+004    7.10711E+004    6.85477E+003   -2.24324E+003    6.41973E+004    2.73863E+003    1.96067E+004    3.22701E+003
            8781    5.31300E+004    3.89918E+004    3.89918E+004    6.84717E+002   -2.16614E+004    6.06532E+004   -6.00505E+003    4.03201E+004    1.76250E+003   -4.15059E+003    2.04032E+004    9.17180E+003    4.98131E+003    2.58413E+004
            8782    4.80501E+004    3.17422E+004    3.17422E+004   -7.59932E+003   -2.18106E+004    5.35529E+004   -7.77433E+002    4.29258E+004   -7.31237E+003   -8.61800E+003    1.82627E+004    8.13867E+003    5.29658E+003    2.11089E+004
            8783    4.45129E+004    3.55306E+004    3.55306E+004   -5.29856E+003   -1.19235E+004    4.74541E+004   -6.10282E+003    4.33829E+004   -5.06686E+003   -1.85056E+003    2.52259E+004    6.33141E+003    6.40601E+003    1.73922E+004
            8784    4.42160E+004    3.55185E+004    3.55185E+004   -6.45617E+003   -1.06412E+004    4.61598E+004   -6.14037E+003    4.37671E+004   -5.66250E+003   -6.40203E+003    3.04856E+004    4.15687E+003    7.90078E+003    1.12840E+004
            8785    4.22146E+004    4.03067E+004    4.03067E+004    4.77498E+002   -3.94493E+003    4.42517E+004   -1.22798E+004    4.16886E+004   -2.12378E+003    9.07643E+002    3.80555E+004    1.27986E+003    8.64546E+003    4.12967E+003
            8786    4.16393E+004    2.52229E+004    2.52229E+004    7.22470E+002   -2.28551E+004    4.80780E+004   -1.03008E+003    1.33880E+004    1.27790E+003   -1.39530E+003    3.20763E+003    2.24991E+003    2.89736E+003    2.36462E+004
            8787    3.65772E+004    2.74889E+004    2.74889E+004    6.17701E+003   -1.47462E+004    4.22351E+004   -6.30654E+003    9.20435E+003    6.96939E+003    3.88678E+003    8.06344E+003    2.32484E+003    3.37998E+003    2.06020E+004
            8788    3.06331E+004    2.15274E+004    2.15274E+004    3.59949E+003   -1.38436E+004    3.53710E+004   -3.76111E+003    8.80399E+003    4.68667E+003   -1.42799E+003    8.02464E+003    1.88060E+003    4.05496E+003    1.64267E+004
            8789    2.17835E+004    2.05651E+004    2.05651E+004    4.76380E+003   -4.28438E+003    2.48495E+004   -7.01484E+003    1.66944E+004    5.64573E+003    4.69727E+003    1.07015E+004    1.16562E+003    4.51627E+003    1.12250E+004
            8790    1.63694E+004    1.59085E+004    1.59085E+004    2.47920E+003   -2.32550E+003    1.82340E+004   -5.35407E+003    1.46524E+004    4.27554E+003   -1.17294E+003    1.29596E+004    5.82367E+002    4.67114E+003    4.04415E+003
            8791    5.21936E+005   -6.05514E+004   -6.37811E+005   -1.99198E+005   -6.37811E+005    5.77260E+005    2.99187E+005   -4.77800E+005   -1.35964E+005   -1.75808E+005   -5.85789E+005   -5.30552E+004    1.61118E+005   -5.41747E+003
            8792    7.19380E+005   -2.76458E+004   -8.34367E+005   -2.59521E+005   -8.34367E+005    8.06722E+005    3.73845E+005   -6.26636E+005   -1.71944E+005   -2.63014E+005   -6.86577E+005   -4.31591E+004    3.05740E+005    4.16931E+004
            8793    6.45211E+005   -3.41737E+004   -7.62019E+005   -2.60334E+005   -7.62019E+005    7.27845E+005    3.52176E+005   -5.44679E+005   -2.52207E+005   -2.65469E+005   -5.38851E+005   -1.38740E+004    3.29018E+005    6.43495E+004
            8794    5.86529E+005   -1.10628E+005   -7.59424E+005   -2.66759E+005   -7.59424E+005    6.48796E+005    3.78937E+005   -5.36709E+005   -1.93165E+005   -2.53469E+005   -6.90176E+005   -4.21236E+004    1.97993E+005   -1.16117E+004
            8795    8.04108E+005   -5.79904E+004   -9.57349E+005   -3.07779E+005   -9.57349E+005    8.99358E+005    4.41039E+005   -7.08597E+005   -2.21089E+005   -3.09726E+005   -7.92302E+005   -3.10825E+004    3.44994E+005    3.22429E+004
            8796    7.12058E+005   -5.42372E+004   -8.55992E+005   -2.97258E+005   -8.55992E+005    8.01755E+005    4.02496E+005   -6.07660E+005   -2.94070E+005   -2.99817E+005   -6.13600E+005   -1.01565E+004    3.64704E+005    4.96477E+004
            8797    6.35163E+005   -1.51815E+005   -8.54806E+005   -3.22245E+005   -8.54806E+005    7.02991E+005    4.42956E+005   -5.80283E+005   -2.40113E+005   -3.18613E+005   -7.70140E+005   -2.29460E+004    2.28131E+005   -8.91482E+003
            8798    8.60809E+005   -8.07285E+004   -1.04172E+006   -3.41307E+005   -1.04172E+006    9.60991E+005    4.87919E+005   -7.64218E+005   -2.56830E+005   -3.41825E+005   -8.65100E+005   -1.54800E+004    3.71434E+005    1.69968E+004
            8799    7.56302E+005   -7.24118E+004   -9.22572E+005   -3.24540E+005   -9.22572E+005    8.50160E+005    4.39841E+005   -6.51153E+005   -3.25799E+005   -3.25148E+005   -6.68577E+005   -5.22445E+003    3.88289E+005    2.50641E+004
            8800    6.52517E+005   -1.66572E+005   -8.89061E+005   -3.42652E+005   -8.89061E+005    7.22488E+005    4.66095E+005   -5.95449E+005   -2.57310E+005   -3.42643E+005   -7.98332E+005    1.38668E+003    2.39411E+005    6.39621E+000
            8801    8.77883E+005   -8.77320E+004   -1.06733E+006   -3.51782E+005   -1.06733E+006    9.79602E+005    5.02283E+005   -7.80751E+005   -2.67866E+005   -3.51787E+005   -8.87196E+005    1.94184E+003    3.79482E+005   -1.81284E+003
            8802    7.69100E+005   -7.76088E+004   -9.41782E+005   -3.32442E+005   -9.41782E+005    8.64173E+005    4.50611E+005   -6.63632E+005   -3.34937E+005   -3.32454E+005   -6.84442E+005    7.63329E+002    3.95157E+005   -3.55245E+003
            8803    6.30858E+005   -1.47853E+005   -8.46227E+005   -3.17632E+005   -8.46227E+005    6.98373E+005    4.37237E+005   -5.76002E+005   -2.35675E+005   -3.13230E+005   -7.62807E+005    2.53870E+004    2.25682E+005    9.13597E+003
            8804    8.51811E+005   -7.59775E+004   -1.02725E+006   -3.35054E+005   -1.02725E+006    9.51269E+005    4.79426E+005   -7.55233E+005   -2.50226E+005   -3.35765E+005   -8.52288E+005    1.91063E+004    3.67416E+005   -2.00677E+004
            8805    7.46769E+005   -6.80639E+004   -9.07856E+005   -3.18472E+005   -9.07856E+005    8.39792E+005    4.31464E+005   -6.41569E+005   -3.19440E+005   -3.19481E+005   -6.55472E+005    6.50612E+003    3.83589E+005   -3.27212E+004
            8806    5.80069E+005   -1.05889E+005   -7.47634E+005   -2.60621E+005   -7.47634E+005    6.41745E+005    3.71381E+005   -5.30578E+005   -1.87471E+005   -2.46790E+005   -6.79884E+005    4.33932E+004    1.94731E+005    9.84376E+003
            8807    7.86853E+005   -4.93792E+004   -9.30214E+005   -2.96830E+005   -9.30214E+005    8.80834E+005    4.25474E+005   -6.90818E+005   -2.09147E+005   -2.99149E+005   -7.68126E+005    3.35245E+004    3.37596E+005   -3.46596E+004
            8808    6.95060E+005   -4.83843E+004   -8.31492E+005   -2.87738E+005   -8.31492E+005    7.83108E+005    3.89205E+005   -5.91056E+005   -2.83790E+005   -2.90840E+005   -5.92985E+005    1.10558E+004    3.56189E+005   -5.37192E+004
            8809    7.16350E+004    3.14668E+003   -7.07077E+004   -1.52036E+003   -7.07077E+004    7.38544E+004    2.30271E+004   -7.12917E+004   -6.90231E+003    2.22735E+003   -6.44064E+004   -2.75279E+003    1.96888E+004    3.20530E+003
            8810    6.19131E+004    5.39958E+003   -6.04978E+004   -3.54108E+003   -6.04978E+004    6.58974E+004    1.95464E+004   -6.04351E+004   -5.35282E+003   -6.28285E+002   -5.26582E+004   -7.87049E+003    1.71479E+004    9.68906E+003
            8811    6.43561E+004    1.88212E+004   -5.31416E+004   -1.10630E+003   -5.31416E+004    7.19628E+004    1.18089E+004   -5.67660E+004   -3.29904E+003    1.08824E+004   -4.30100E+004   -1.26561E+004    1.50505E+004    1.46104E+004
            8812    6.85262E+004    2.34234E+004   -5.45657E+004   -3.99020E+003   -5.45657E+004    7.79891E+004    1.17109E+004   -5.39394E+004   -5.52746E+003    9.43043E+003   -3.90355E+004   -1.73436E+004    1.28403E+004    2.19930E+004
            8813    7.64580E+004    3.82961E+004   -4.95675E+004    1.83545E+003   -4.95675E+004    8.78636E+004    3.14534E+003   -5.05744E+004    2.02495E+002    2.04527E+004   -3.00912E+004   -1.96099E+004    1.10892E+004    2.81783E+004
            8814    4.23238E+004    3.95214E+003   -4.04182E+004   -4.91660E+002   -4.04182E+004    4.43704E+004    1.23192E+004   -4.17941E+004    2.13811E+003   -9.15127E+002   -3.81807E+004   -1.25009E+003    8.65145E+003    4.09246E+003
            8815    4.42647E+004    1.05237E+004   -3.56375E+004    6.44879E+003   -3.56375E+004    4.61612E+004    6.22170E+003   -4.38397E+004    5.61282E+003    6.34433E+003   -3.06222E+004   -4.10237E+003    7.94215E+003    1.12490E+004
            8816    4.44441E+004    1.17970E+004   -3.55644E+004    5.23209E+003   -3.55644E+004    4.73614E+004    6.17844E+003   -4.33331E+004    4.97209E+003    1.74187E+003   -2.52493E+004   -6.33121E+003    6.44937E+003    1.73599E+004
            8817    4.78792E+004    2.18238E+004   -3.15560E+004    7.59848E+003   -3.15560E+004    5.33797E+004    7.11255E+002   -4.27222E+004    7.32115E+003    8.61462E+003   -1.80695E+004   -8.11387E+003    5.23934E+003    2.10820E+004
            8818    5.33156E+004    2.17452E+004   -3.91289E+004   -7.35000E+002   -3.91289E+004    6.08741E+004    6.03958E+003   -4.03794E+004   -1.80194E+003    4.10083E+003   -2.04176E+004   -9.19118E+003    4.95402E+003    2.59758E+004
            8819    1.64190E+004    2.31230E+003   -1.59710E+004   -2.48500E+003   -1.59710E+004    1.82833E+004    5.38124E+003   -1.47139E+004   -4.28714E+003    1.18271E+003   -1.30393E+004   -5.87427E+002    4.68160E+003    4.01678E+003
            8820    2.16943E+004    4.22161E+003   -2.05177E+004   -4.73988E+003   -2.05177E+004    2.47393E+004    7.01200E+003   -1.66956E+004   -5.62921E+003   -4.68057E+003   -1.07262E+004   -1.17439E+003    4.50766E+003    1.11629E+004
            8821    3.06866E+004    1.38986E+004   -2.15341E+004   -3.57201E+003   -2.15341E+004    3.54327E+004    3.73584E+003   -8.85435E+003   -4.64618E+003    1.45212E+003   -8.01346E+003   -1.87186E+003    4.03697E+003    1.64641E+004
            8822    3.67023E+004    1.48182E+004   -2.75613E+004   -6.16679E+003   -2.75613E+004    4.23795E+004    6.30328E+003   -9.38756E+003   -6.96027E+003   -3.89818E+003   -8.05138E+003   -2.30445E+003    3.42107E+003    2.06729E+004
            8823    4.14601E+004    2.27362E+004   -2.51348E+004   -7.26576E+002   -2.51348E+004    4.78709E+004    1.04172E+003   -1.34577E+004   -1.29299E+003    1.41399E+003   -3.24617E+003   -2.25627E+003    2.93040E+003    2.35335E+004
            8824    3.39812E+005    4.04263E+004   -3.38377E+005   -6.03578E+004   -3.38377E+005    3.78803E+005    1.19436E+005   -3.03351E+005   -4.83218E+004   -2.35572E+003   -3.07631E+005   -5.72743E+004    8.82789E+004    1.80547E+004
            8825    2.84520E+005    6.87359E+004   -2.53034E+005   -3.47058E+004   -2.53034E+005    3.21770E+005    7.30014E+004   -2.36287E+005   -3.23171E+004    3.62691E+004   -2.22956E+005   -5.63322E+004    7.20169E+004    2.41516E+004
            8826    2.33678E+005    8.33935E+004   -1.84140E+005   -1.99652E+004   -1.84140E+005    2.67534E+005    4.02373E+004   -1.69490E+005   -1.33417E+004    5.59911E+004   -1.63361E+005   -5.14714E+004    4.74145E+004    2.70729E+004
            8827    1.75333E+005    8.21870E+004   -1.19544E+005   -3.84389E+003   -1.19544E+005    2.01731E+005    1.37337E+004   -1.10659E+005   -1.90283E+003    5.88384E+004   -9.81367E+004   -4.35462E+004    3.48278E+004    2.95415E+004
            8828    1.22865E+005    6.04649E+004   -8.08900E+004    2.74783E+002   -8.08900E+004    1.41355E+005    6.71677E+003   -7.77681E+004    2.39593E+003    3.90764E+004   -6.16226E+004   -3.21998E+004    2.02842E+004    3.14060E+004
            8829    1.04637E+005    5.52810E+004   -6.51109E+004    3.93084E+003   -6.51109E+004    1.20392E+005    1.96634E+003   -6.60222E+004    1.36755E+004    3.56089E+004   -5.51834E+004   -2.86062E+004    2.02476E+004    1.33060E+004
            8830    9.61086E+004    3.48607E+004   -7.38426E+004   -1.37092E+002   -7.38426E+004    1.08703E+005    1.30397E+004   -7.97549E+004    7.98650E+003    1.83937E+004   -6.54992E+004   -2.03753E+004    2.25573E+004    7.99337E+003
            8831    9.74353E+004    2.72537E+004   -7.95190E+004    4.58128E+003   -7.95190E+004    1.06773E+005    1.58947E+004   -9.12126E+004    8.55533E+003    1.47187E+004   -7.09580E+004   -1.25163E+004    2.68250E+004    2.19907E+003
            8832    1.00875E+005    1.21207E+004   -9.44330E+004   -4.06830E+002   -9.44330E+004    1.06554E+005    2.75730E+004   -9.91023E+004    1.11129E+003    6.77462E+002   -8.45078E+004   -3.92060E+003    3.07415E+004    5.35792E+002
            8833    1.51163E+005    6.12740E+004   -1.12683E+005   -1.32732E+004   -1.12683E+005    1.73957E+005    2.15608E+004   -9.45221E+004   -4.97087E+003    3.57182E+004   -9.54298E+004   -3.99943E+004    3.78082E+004    9.02338E+003
            8834    1.36277E+005    4.94739E+004   -1.06223E+005   -8.61415E+003   -1.06223E+005    1.55696E+005    2.17876E+004   -1.02283E+005   -1.87955E+003    2.74506E+004   -9.09338E+004   -2.82611E+004    3.95856E+004   -4.88091E+003
            8835    1.24815E+005    2.86546E+004   -1.10621E+005   -8.88343E+003   -1.10621E+005    1.39276E+005    3.02834E+004   -1.11008E+005   -3.74310E+003    6.19089E+003   -9.32979E+004   -1.74683E+004    4.30148E+004   -5.89081E+003
            8836    1.31888E+005    1.85879E+004   -1.21018E+005    1.48252E+003   -1.21018E+005    1.39606E+005    3.36491E+004   -1.29357E+005   -6.13416E+003    4.64100E+003   -9.94542E+004   -5.64809E+003    4.97585E+004   -3.68048E+003
            8837    1.98927E+005    8.59031E+004   -1.42812E+005   -1.00359E+004   -1.42812E+005    2.28715E+005    2.23149E+004   -1.29298E+005    1.56596E+004    4.49699E+004   -1.27574E+005   -4.91800E+004    4.73949E+004   -1.16588E+003
            8838    1.80454E+005    5.96749E+004   -1.45684E+005   -1.24385E+004   -1.45684E+005    2.05359E+005    3.28159E+004   -1.42140E+005    9.19720E+003    2.28759E+004   -1.30521E+005   -3.49760E+004    4.84221E+004   -8.94583E+003
            8839    1.67404E+005    5.13823E+004   -1.35923E+005   -8.97783E+002   -1.35923E+005    1.87306E+005    2.84796E+004   -1.47285E+005    1.28936E+004    1.81847E+004   -1.16517E+005   -2.09473E+004    5.29510E+004   -1.66992E+004
            8840    1.52645E+005    3.35706E+004   -1.33496E+005   -1.31145E+003   -1.33496E+005    1.67067E+005    3.37457E+004   -1.43260E+005    6.04305E+003    8.91913E+002   -1.08172E+005   -6.58708E+003    5.93175E+004   -6.61523E+003
            8841    2.62644E+005    5.87232E+004   -2.37439E+005   -3.28080E+004   -2.37439E+005    2.96162E+005    7.05080E+004   -2.22259E+005   -1.61365E+004    1.00497E+004   -2.05437E+005   -5.25106E+004    7.94870E+004    9.62288E+003
            8842    2.31363E+005    5.30564E+004   -2.08135E+005   -2.89285E+004   -2.08135E+005    2.61191E+005    6.13356E+004   -1.94401E+005   -8.84660E+003    2.97303E+003   -1.78133E+005   -3.80663E+004    7.72887E+004   -1.24133E+004
            8843    2.03946E+005    3.45899E+004   -1.91937E+005   -2.29232E+004   -1.91937E+005    2.26527E+005    6.00900E+004   -1.84334E+005   -1.05283E+004   -1.00855E+004   -1.59656E+005   -2.16266E+004    7.65141E+004   -1.03622E+004
            8844    1.90935E+005    3.83010E+004   -1.68725E+005    4.48018E+002   -1.68725E+005    2.07026E+005    4.33253E+004   -1.82203E+005   -4.03694E+003    2.59703E+003   -1.28536E+005   -6.63816E+003    8.12911E+004   -6.56130E+003
            8845    3.11375E+005    5.84281E+004   -2.93418E+005   -5.34030E+004   -2.93418E+005    3.51846E+005    9.61310E+004   -2.60064E+005    3.57726E+003   -3.19142E+004   -2.60056E+005   -5.46346E+004    9.27516E+004    1.61840E+004
            8846    2.80896E+005    3.89982E+004   -2.72536E+005   -3.85893E+004   -2.72536E+005    3.11534E+005    9.07091E+004   -2.55066E+005   -1.36945E+003   -2.94373E+004   -2.41321E+005   -3.42127E+004    8.77391E+004    1.49101E+004
            8847    2.50308E+005    4.33555E+004   -2.29367E+005   -1.01154E+004   -2.29367E+005    2.72723E+005    6.53756E+004   -2.36941E+005    8.15318E+003   -3.02460E+003   -2.01255E+005   -1.82609E+004    8.16363E+004   -2.82569E+003
            8848    2.08952E+005    3.87776E+004   -1.89509E+005   -7.72828E+003   -1.89509E+005    2.28287E+005    5.28199E+004   -1.96796E+005    4.20982E+003   -7.18149E+003   -1.55488E+005   -6.53728E+003    8.10571E+004    1.62858E+003
            8849    3.13696E+005    4.13215E+004   -2.91638E+005   -1.63277E+003   -2.91638E+005    3.32959E+005    8.39830E+004   -3.06975E+005   -1.56466E+004   -1.76395E+003   -2.34538E+005   -1.50999E+003    1.25234E+005    8.20810E+003
            8850    3.39372E+005   -1.98157E+004   -3.90687E+005   -9.56440E+004   -3.90687E+005    3.70872E+005    1.68716E+005   -3.19466E+005   -1.28667E+005   -7.40946E+004   -3.03385E+005    6.08610E+002    1.32283E+005    8.09037E+004
            8851    3.66772E+005    1.38954E+004   -3.83578E+005   -5.82187E+004   -3.83578E+005    3.97473E+005    1.42634E+005   -3.50285E+005   -4.77905E+004   -6.39737E+004   -3.16137E+005   -8.49998E+003    1.39905E+005    5.05166E+004
            8852    3.40269E+005    5.23307E+003   -3.79412E+005   -1.17671E+005   -3.79412E+005    3.84645E+005    1.63950E+005   -2.83453E+005   -1.20022E+005   -1.19488E+005   -2.52340E+005   -2.27306E+003    1.57383E+005    8.92187E+004
            8853    3.76859E+005    3.19924E+004   -3.90838E+005   -9.03504E+004   -3.90838E+005    4.22830E+005    1.49732E+005   -3.27493E+005   -3.86289E+004   -9.81064E+004   -3.12461E+005   -2.05913E+004    1.55956E+005    4.30103E+004
            8854    3.73097E+005   -9.15604E+003   -4.28648E+005   -1.33924E+005   -4.28648E+005    4.19492E+005    1.90576E+005   -3.20860E+005   -1.38267E+005   -1.39552E+005   -2.93909E+005   -8.05139E+003    1.81378E+005    7.36809E+004
            8855    4.35439E+005    3.16145E+004   -4.57964E+005   -1.13967E+005   -4.57964E+005    4.89579E+005    1.80106E+005   -3.74505E+005   -4.61799E+004   -1.19145E+005   -3.74992E+005   -3.73927E+004    1.74521E+005    3.91175E+004
            8856    4.27576E+005   -6.62472E+003   -4.89100E+005   -1.57119E+005   -4.89100E+005    4.82475E+005    2.17614E+005   -3.60320E+005   -1.50402E+005   -1.67354E+005   -3.35087E+005   -1.44169E+004    2.10858E+005    7.64823E+004
            8857    4.89570E+005   -4.37862E+003   -5.58645E+005   -1.85227E+005   -5.58645E+005    5.54266E+005    2.49417E+005   -4.03432E+005   -1.66794E+005   -1.93817E+005   -3.87640E+005   -1.36165E+004    2.44702E+005    7.29135E+004
            8858    5.68361E+005   -1.38169E+004   -6.56073E+005   -2.18050E+005   -6.56073E+005    6.42257E+005    2.95980E+005   -4.74590E+005   -2.06171E+005   -2.25679E+005   -4.56090E+005   -1.51601E+004    2.87566E+005    7.37084E+004
            8859    5.16726E+005    2.37421E+004   -5.57859E+005   -1.51686E+005   -5.57859E+005    5.81601E+005    2.28601E+005   -4.41867E+005   -7.44170E+004   -1.55456E+005   -4.55929E+005   -5.17494E+004    2.09995E+005    4.27263E+004
            8860    6.22736E+005   -9.96810E+002   -7.00666E+005   -2.07141E+005   -7.00666E+005    6.99669E+005    3.02935E+005   -5.37517E+005   -1.23295E+005   -2.11434E+005   -5.74075E+005   -5.04159E+004    2.60010E+005    4.51606E+004
            8861    4.51742E+005   -1.47947E+004   -5.15008E+005   -1.36798E+005   -5.15008E+005    5.00213E+005    2.22200E+005   -4.12163E+005   -8.43220E+004   -1.05409E+005   -4.76869E+005   -5.69224E+004    1.26582E+005    2.66756E+003
            8862    3.85880E+005    2.26133E+004   -4.04791E+005   -8.20120E+004   -4.04791E+005    4.27404E+005    1.54730E+005   -3.51786E+005   -4.29126E+004   -4.45014E+004   -3.76776E+005   -5.51396E+004    9.75888E+004    9.57619E+003
            8863    2.20686E+005    1.69093E+005    1.69093E+005    1.13220E+004   -8.30936E+004    2.52187E+005   -3.24406E+004    1.65111E+005    1.09792E+004   -7.64759E+004    1.62818E+005   -2.37662E+004    3.14938E+004    4.06004E+003
            8864    1.64541E+005    8.69329E+004   -1.03016E+005   -4.40939E+003   -1.03016E+005    1.89949E+005    6.83097E+003   -6.65567E+004   -6.85845E+003   -9.56358E+004    8.20014E+004   -2.45844E+004    2.13970E+004    8.57951E+003
            8865    1.20546E+005    5.10689E+004   -8.67374E+004   -8.50516E+002   -8.67374E+004    1.37806E+005    1.21730E+004   -8.96611E+004   -1.66848E+003   -8.08563E+004    4.60058E+004   -2.21809E+004    1.56612E+004   -5.22430E+002
            8866    7.76742E+004    2.27104E+004   -6.54858E+004   -7.26863E+003   -6.54858E+004    8.81963E+004    1.66813E+004   -6.25132E+004   -8.23181E+003   -6.01567E+004    1.83445E+004   -1.73343E+004    9.33837E+003   -5.40884E+003
            8867    6.02412E+004    4.28321E+004    4.28321E+004   -5.13028E+003   -2.47807E+004    6.76128E+004   -4.30705E+003    5.22651E+004   -6.81594E+003   -2.22355E+004    4.19726E+004   -6.73439E+003    6.27847E+003   -1.19876E+003
            8868    7.30101E+004    6.25129E+004    6.25129E+004   -8.07323E+003   -1.27011E+004    7.52140E+004   -1.39128E+004    7.26790E+004   -8.35574E+003   -1.08680E+004    6.09623E+004   -1.78974E+003    1.00470E+004    3.29651E+003
            8869    9.21286E+004    6.74718E+004    6.74718E+004    8.06000E+003   -3.86564E+004    1.06128E+005   -1.22918E+004    5.43572E+004    6.25188E+003   -3.17910E+004    6.24146E+004   -1.08111E+004    1.30129E+004    1.72331E+004
            8870    8.31339E+004    8.55369E+004    8.55369E+004    9.42221E+003   -3.17777E+003    8.87146E+004   -3.05938E+004    8.09438E+004    1.21567E+004    2.47432E+002    7.93772E+004   -3.11558E+003    2.00499E+004    8.46873E+003
            8871    1.39713E+005    1.09587E+005    1.09587E+005   -5.72908E+003   -4.57770E+004    1.55364E+005   -1.93604E+004    1.25795E+005   -1.21963E+004   -3.43052E+004    1.04583E+005   -1.36689E+004    1.42305E+004    2.34084E+004
            8872    1.23158E+005    1.03427E+005    1.03427E+005   -1.23657E+004   -2.59667E+004    1.29394E+005   -2.16982E+004    1.21451E+005   -1.50379E+004   -1.66827E+004    9.68154E+004   -3.50869E+003    2.12680E+004    1.89394E+004
            8873    1.78056E+005    1.73752E+005    1.73752E+005    2.17404E+004   -2.21423E+004    1.95894E+005   -5.77833E+004    1.65219E+005    1.19738E+004   -4.45841E+003    1.65835E+005   -1.73262E+004    3.10566E+004    2.18962E+004
            8874    1.41864E+005    1.56136E+005    1.56136E+005    2.09972E+004    8.38764E+003    1.47748E+005   -6.18402E+004    1.40595E+005    1.97265E+004    1.93481E+004    1.46446E+005   -3.41839E+003    3.62280E+004    3.96176E+003
            8875    2.48759E+005    2.21703E+005    2.21703E+005   -1.91467E+004   -3.42751E+004    2.55978E+005   -5.60936E+004    2.47721E+005   -3.11871E+004   -1.97580E+004    2.19226E+005   -2.99032E+003    2.50253E+004    3.92681E+001
            8876    4.46124E+005    5.20904E+005    5.20904E+005    1.03683E+005    5.06219E+004    4.70282E+005   -2.25070E+005    4.38941E+005    8.62921E+004    1.13074E+005    4.75843E+005    3.10838E+001    1.00224E+005   -9.46186E+004
            8877    2.96117E+005    2.95552E+005    2.95552E+005    2.81889E+004   -2.27194E+004    3.18271E+005   -1.00340E+005    2.86022E+005   -1.87516E+004    3.58427E+004    2.83930E+005   -1.11245E+004    3.11311E+004   -4.59521E+004
            8878    4.41856E+005    5.33859E+005    5.33859E+005    1.64979E+005    4.41607E+004    4.89699E+005   -2.47666E+005    4.02101E+005    8.84818E+004    1.87350E+005    4.67167E+005   -1.06940E+003    1.24704E+005   -1.04632E+005
            8879    4.90566E+005    6.21263E+005    6.21263E+005    2.15327E+005    7.61450E+004    5.45118E+005   -3.04245E+005    4.42770E+005    1.25802E+005    2.32247E+005    5.54687E+005   -7.80206E+003    1.49651E+005   -8.88180E+004
            8880    5.66172E+005    7.14100E+005    7.14100E+005    2.52453E+005    8.23871E+004    6.31713E+005   -3.49647E+005    5.03712E+005    1.46537E+005    2.71574E+005    6.30829E+005   -1.18161E+004    1.83663E+005   -9.88552E+004
            8881    6.63943E+005    8.45624E+005    8.45624E+005    3.06289E+005    1.04089E+005    7.41535E+005   -4.18667E+005    5.88450E+005    1.85116E+005    3.19997E+005    7.50890E+005   -1.20203E+004    2.26164E+005   -9.12067E+004
            8882    7.63220E+005    9.74868E+005    9.74868E+005    3.57888E+005    1.21394E+005    8.53474E+005   -4.84717E+005    6.73066E+005    2.21784E+005    3.67692E+005    8.64674E+005   -1.12210E+004    2.71022E+005   -8.36156E+004
            8883    3.11361E+005    2.97962E+005    2.97962E+005    4.62718E+004   -5.02229E+004    3.48185E+005   -9.80035E+004    2.74569E+005   -4.36290E+004    5.25113E+004    2.85128E+005   -1.66795E+004    4.19034E+004   -4.13358E+004
            8884    3.97547E+005    3.93266E+005    3.93266E+005    7.48403E+004   -5.23000E+004    4.45566E+005   -1.38602E+005    3.47182E+005   -4.15623E+004    8.20701E+004    3.75298E+005   -2.30539E+004    6.13093E+004   -5.05074E+004
            8885    4.76414E+005    4.74352E+005    4.74352E+005    9.91324E+004   -6.16508E+004    5.36003E+005   -1.70611E+005    4.08317E+005   -4.61036E+004    1.04338E+005    4.53599E+005   -2.54390E+004    8.37458E+004   -4.77116E+004
            8886    5.69185E+005    5.78539E+005    5.78539E+005    1.29393E+005   -6.15737E+004    6.40112E+005   -2.15453E+005    4.88901E+005   -4.03272E+004    1.33163E+005    5.53522E+005   -2.47076E+004    1.10308E+005   -4.43797E+004
            8887    3.50414E+005    4.40672E+005    4.40672E+005    1.18057E+005    6.78700E+004    3.72802E+005   -2.08866E+005    3.42189E+005    1.03647E+005    9.44811E+004    4.28471E+005   -2.03885E+004    5.88345E+004    2.93648E+004
            8888    3.13231E+005    3.64629E+005    3.64629E+005    8.57853E+004    2.57129E+004    3.38917E+005   -1.58709E+005    2.99857E+005    7.87401E+004    4.31071E+004    3.54280E+005   -2.36304E+004    5.22424E+004    2.03310E+004
            8889    2.78765E+005    2.91785E+005    2.91785E+005    5.83731E+004   -1.68820E+004    3.08667E+005   -1.11092E+005    2.54364E+005    5.50270E+004   -4.01092E+003    2.82260E+005   -2.48370E+004    4.59506E+004    1.81588E+004
            8890    2.35631E+005    2.29602E+005    2.29602E+005    4.43527E+004   -3.56033E+004    2.65205E+005   -7.94504E+004    2.01534E+005    4.36747E+004   -2.59028E+004    2.20579E+005   -2.47398E+004    4.08540E+004    8.82825E+003
            8891    4.07518E+004    4.53780E+004    4.53780E+004    7.63532E+003    2.16898E+003    4.32091E+004   -1.83941E+004    3.99145E+004    8.63966E+003    2.69314E+003    4.38495E+004   -1.58250E+003    6.47650E+003   -3.78096E+003
            8892    3.71091E+004    2.85842E+004    2.85842E+004    3.96143E+003   -1.40978E+004    4.26820E+004   -6.14925E+003    2.37617E+004    4.44650E+003   -1.10731E+004    2.50744E+004   -4.48007E+003    4.17737E+003   -9.62666E+003
            8893    4.56572E+004    1.91309E+004   -3.31530E+004   -1.14825E+003   -3.31530E+004    5.22840E+004    5.05679E+003   -3.29759E+004   -4.57937E+002   -2.68037E+004    1.20913E+004   -9.90444E+003    4.36386E+003   -1.35518E+004
            8894    3.20260E+004    2.54965E+004    2.54965E+004   -6.11254E+003   -6.93072E+003    3.24272E+004   -4.15108E+003    3.20025E+004   -6.78111E+003   -5.40035E+003    2.46347E+004   -4.78039E+002    1.59584E+003   -4.89402E+003
            8895    3.09554E+004    2.24245E+004    2.24245E+004   -4.55375E+003   -1.13714E+004    3.37960E+004   -2.16646E+003    2.91937E+004   -4.63165E+003   -3.47710E+003    1.46081E+004   -2.12263E+003    1.24676E+003   -1.40329E+004
            8896    3.42916E+004    1.74802E+004   -2.21150E+004   -2.59736E+003   -2.21150E+004    3.95952E+004    2.41073E+003    9.95810E+003   -2.42753E+003   -1.20075E+004    7.20281E+003   -4.22841E+003    1.53005E+003   -1.67180E+004
            8897    1.01789E+004    1.21930E+004    1.21930E+004    6.83039E+003    4.54014E+002    1.17390E+004   -6.49248E+003   -5.39500E+003    6.89961E+003    4.41645E+003    8.16138E+003   -3.96899E+002    4.62636E+002   -5.52583E+003
            8898    2.42074E+004    1.56704E+004    1.56704E+004    3.92539E+003   -1.21689E+004    2.78393E+004   -2.47563E+003   -1.55801E+004    3.97242E+003   -7.26441E+002    4.18092E+003   -6.78306E+002    4.35752E+002   -1.36742E+004
            8899    3.25150E+004    2.06708E+004    2.06708E+004    2.16009E+003   -1.68732E+004    3.75439E+004   -1.98590E+003   -9.39279E+003    2.20157E+003   -2.56571E+002    4.01270E+003   -7.21634E+002    5.50828E+002   -1.86278E+004
            8900    7.83358E+005    1.00123E+006    1.00123E+006    3.67861E+005    1.25276E+005    8.75954E+005   -4.98122E+005    6.90951E+005    2.28623E+005    3.76494E+005    8.89249E+005    1.16387E+004    2.79349E+005    7.85937E+004
            8901    5.80003E+005    5.90443E+005    5.90443E+005    1.32803E+005   -6.18477E+004    6.52290E+005   -2.20466E+005    4.98141E+005   -3.98565E+004    1.35844E+005    5.65410E+005    2.46899E+004    1.13329E+005    4.15181E+004
            8902    3.56318E+005    4.53695E+005    4.53695E+005    1.24045E+005    7.56555E+004    3.78039E+005   -2.17798E+005    3.48810E+005    1.09511E+005    1.02329E+005    4.41554E+005    1.96687E+004    5.97460E+004   -2.83091E+004
            8903    8.72400E+005    1.11861E+006    1.11861E+006    4.14198E+005    1.42753E+005    9.75853E+005   -5.58520E+005    7.68404E+005    2.63942E+005    4.18640E+005    9.92977E+005    8.87326E+003    3.20065E+005    6.02173E+004
            8904    6.65680E+005    6.90922E+005    6.90922E+005    1.65725E+005   -5.77379E+004    7.48660E+005   -2.66303E+005    5.71670E+005   -2.96703E+004    1.67293E+005    6.61286E+005    1.94912E+004    1.40044E+005    3.17821E+004
            8905    3.84371E+005    5.24876E+005    5.24876E+005    1.69510E+005    1.16917E+005    4.07960E+005   -2.70434E+005    3.76148E+005    1.36496E+005    1.63152E+005    5.11655E+005    1.44889E+004    6.62969E+004   -2.86999E+004
            8906    9.34267E+005    1.20215E+006    1.20215E+006    4.48601E+005    1.56808E+005    1.04534E+006   -6.02519E+005    8.21965E+005    2.89929E+005    4.49605E+005    1.06802E+006    4.35984E+003    3.48061E+005    2.98569E+004
            8907    7.24722E+005    7.59180E+005    7.59180E+005    1.88226E+005   -5.61365E+004    8.15317E+005   -2.97090E+005    6.21344E+005   -2.35337E+004    1.88626E+005    7.26178E+005    1.02448E+004    1.59231E+005    1.65646E+004
            8908    4.03538E+005    5.81968E+005    5.81968E+005    2.17107E+005    1.48540E+005    4.33428E+005   -3.15872E+005    3.90108E+005    1.62643E+005    2.16102E+005    5.68870E+005    7.70693E+003    7.23227E+004   -1.64374E+004
            8909    9.53198E+005    1.22772E+006    1.22772E+006    4.58584E+005    1.61309E+005    1.06641E+006   -6.15871E+005    8.38985E+005    2.98254E+005    4.58595E+005    1.09076E+006   -5.45869E+002    3.56766E+005   -3.16533E+003
            8910    7.43865E+005    7.82001E+005    7.82001E+005    1.96055E+005   -5.48799E+004    8.36881E+005   -3.07725E+005    6.37645E+005   -2.08870E+004    1.96057E+005    7.48006E+005   -1.14515E+003    1.65197E+005   -1.48533E+003
            8911    4.09661E+005    6.00596E+005    6.00596E+005    2.34702E+005    1.58008E+005    4.42588E+005   -3.31102E+005    3.93020E+005    1.70948E+005    2.34698E+005    5.87660E+005   -4.65920E+002    7.45519E+004    2.59259E+002
            8912    9.23786E+005    1.18814E+006    1.18814E+006    4.42743E+005    1.54630E+005    1.03351E+006   -5.95170E+005    8.13088E+005    2.85788E+005    4.44392E+005    1.05533E+006   -5.47818E+003    3.43334E+005   -3.81121E+004
            8913    7.18192E+005    7.50679E+005    7.50679E+005    1.84625E+005   -5.72159E+004    8.07895E+005   -2.92696E+005    6.16052E+005   -2.50957E+004    1.85150E+005    7.18034E+005   -1.21298E+004    1.57110E+005   -1.91735E+004
            8914    4.01554E+005    5.76623E+005    5.76623E+005    2.12901E+005    1.45713E+005    4.30910E+005   -3.11745E+005    3.88605E+005    1.60158E+005    2.11679E+005    5.63400E+005   -8.37557E+003    7.19667E+004    1.83905E+004
            8915    8.54662E+005    1.09659E+006    1.09659E+006    4.06297E+005    1.40646E+005    9.55941E+005   -5.47844E+005    7.53013E+005    2.58292E+005    4.11362E+005    9.73876E+005   -9.00291E+003    3.11972E+005   -6.39482E+004
            8916    6.53461E+005    6.74648E+005    6.74648E+005    1.59750E+005   -6.04746E+004    7.35123E+005   -2.57975E+005    5.60355E+005   -3.29243E+004    1.61702E+005    6.45146E+005   -2.04949E+004    1.37229E+005   -3.44902E+004
            8917    3.80919E+005    5.18230E+005    5.18230E+005    1.65559E+005    1.14262E+005    4.03969E+005   -2.66017E+005    3.73030E+005    1.34639E+005    1.58113E+005    5.05299E+005   -1.52361E+004    6.57878E+004    2.69600E+004
            8918    4.56568E+004    3.31202E+004    3.31202E+004    1.13184E+003   -1.91659E+004    5.22861E+004   -5.02872E+003    3.29444E+004    4.63555E+002    2.67167E+004   -1.20941E+004    9.88741E+003    4.32067E+003   -1.36462E+004
            8919    3.71048E+004    1.40948E+004   -2.85856E+004   -3.99745E+003   -2.85856E+004    4.26805E+004    6.16276E+003   -2.36798E+004   -4.47545E+003    1.10550E+004   -2.50678E+004    4.46798E+003    4.14625E+003   -9.66527E+003
            8920    4.03753E+004   -2.16255E+003   -4.50165E+004   -7.68936E+003   -4.50165E+004    4.28540E+004    1.82895E+004   -3.95108E+004   -8.68833E+003   -2.67900E+003   -4.35011E+004    1.57497E+003    6.41971E+003   -3.73456E+003
            8921    3.42239E+004    2.20481E+004    2.20481E+004    2.58090E+003   -1.74689E+004    3.95170E+004   -2.38668E+003   -1.00781E+004    2.41211E+003    1.19755E+004   -7.22761E+003    4.19389E+003    1.52384E+003   -1.66831E+004
            8922    3.08458E+004    1.13299E+004   -2.23338E+004    4.57423E+003   -2.23338E+004    3.36637E+004    2.14324E+003   -2.91107E+004    4.65063E+003    3.49343E+003   -1.45738E+004    2.10969E+003    1.24938E+003   -1.39614E+004
            8923    3.19011E+004    6.99451E+003   -2.53231E+004    6.14451E+003   -2.53231E+004    3.23176E+004    4.06137E+003   -3.18756E+004    6.85102E+003    5.41067E+003   -2.44458E+004    4.75840E+002    1.57535E+003   -4.93529E+003
            8924    3.25626E+004    1.69255E+004   -2.06734E+004   -2.13119E+003   -2.06734E+004    3.75989E+004    1.95970E+003    9.35310E+003   -2.17290E+003    2.74567E+002   -3.98076E+003    7.23539E+002    5.53157E+002   -1.86561E+004
            8925    2.42468E+004    1.21782E+004   -1.57046E+004   -3.95820E+003   -1.57046E+004    2.78828E+004    2.49486E+003    1.56446E+004   -4.00701E+003    7.57907E+002   -4.23548E+003    6.87431E+002    4.46347E+002   -1.36875E+004
            8926    1.00707E+004   -4.95866E+002   -1.21059E+004   -6.86999E+003   -1.21059E+004    1.16100E+004    6.49058E+003    5.56578E+003   -6.94006E+003   -4.42817E+003   -8.10353E+003    3.97146E+002    4.57951E+002   -5.46902E+003
            8927    1.71688E+005    1.87308E+005    1.87308E+005    2.18434E+004    1.00081E+004    1.77300E+005   -7.30531E+004    1.70767E+005    1.91456E+004    2.17326E+004    1.78281E+005    2.78877E+003    3.86258E+004    4.41844E+003
            8928    1.42729E+005    1.26346E+005    1.26346E+005   -1.08087E+004   -2.13703E+004    1.47716E+005   -3.13889E+004    1.41845E+005   -1.38306E+004   -1.22120E+004    1.20209E+005    2.15354E+003    2.68418E+004   -1.21614E+004
            8929    9.81118E+004    1.02012E+005    1.02012E+005    9.67874E+003   -1.00399E+003    1.03016E+005   -3.68956E+004    9.67903E+004    9.86266E+003    7.01621E+003    9.38079E+004    2.37920E+003    2.58706E+004   -1.01196E+004
            8930    9.24359E+004    8.09616E+004    8.09616E+004   -8.09662E+003   -1.45173E+004    9.54789E+004   -1.94492E+004    9.19322E+004   -7.37271E+003   -1.09117E+004    7.66320E+004    1.42535E+003    1.75093E+004   -9.16453E+003
            8931    6.16322E+004    6.66841E+004    6.66841E+004    6.89032E+003    3.36479E+003    6.33193E+004   -2.56464E+004    6.14047E+004    8.46342E+003    4.61721E+003    6.38585E+004    1.30184E+003    1.27315E+004   -1.88800E+003
            8932    2.11607E+005    2.19843E+005    2.19843E+005    1.91529E+004   -1.20848E+003    2.21051E+005   -7.92624E+004    2.09386E+005    1.14392E+004    1.29383E+004    2.13410E+005    8.97663E+003    3.65823E+004   -3.12265E+003
            8933    1.59531E+005    1.53313E+005    1.53313E+005    7.55747E+003   -1.71178E+004    1.70431E+005   -4.79175E+004    1.55150E+005   -6.82885E+003    2.57579E+003    1.48006E+005    8.48824E+003    2.44761E+004   -1.66403E+004
            8934    1.22429E+005    1.08120E+005    1.08120E+005    5.75952E+003   -2.75034E+004    1.35623E+005   -2.87920E+004    1.11564E+005    3.00348E+003   -1.49323E+004    9.83047E+004    8.39554E+003    2.06639E+004   -2.81844E+004
            8935    8.71276E+004    7.57931E+004    7.57931E+004   -7.99599E+002   -1.89956E+004    9.47887E+004   -1.86660E+004    8.26889E+004   -4.26746E+003   -1.06898E+004    7.09552E+004    6.04847E+003    1.40713E+004   -1.53260E+004
            8936    6.01866E+004    5.14192E+004    5.14192E+004    1.81571E+003   -1.55376E+004    6.69568E+004   -1.25658E+004    5.41141E+004    1.89325E+003   -1.33038E+004    4.91078E+004    4.40094E+003    9.84070E+003   -5.66025E+003
            8937    2.26471E+005    2.47466E+005    2.47466E+005    3.63476E+004    8.26192E+003    2.39204E+005   -9.73583E+004    2.22502E+005    2.15498E+004    3.23521E+004    2.38173E+005    1.49179E+004    4.06755E+004    1.78467E+004
            8938    1.80534E+005    1.56038E+005    1.56038E+005   -1.30807E+003   -4.10581E+004    1.97096E+005   -3.78908E+004    1.70265E+005   -1.44173E+004   -2.19975E+004    1.50087E+005    1.65340E+004    2.35666E+004   -2.40840E+004
            8939    1.32750E+005    1.13217E+005    1.13217E+005    1.36217E+004   -3.74918E+004    1.50709E+005   -2.97823E+004    1.06986E+005    9.58737E+003   -2.71728E+004    1.06932E+005    1.51653E+004    2.05196E+004   -2.05231E+004
            8940    1.03228E+005    6.78268E+004    6.78268E+004   -8.08984E+003   -4.97145E+004    1.17541E+005   -3.34082E+003    8.08226E+004   -1.20515E+004   -4.10304E+004    6.31044E+004    1.19328E+004    1.23948E+004   -1.91640E+004
            8941    5.93369E+004    4.65548E+004    4.65548E+004    7.55687E+003   -2.17318E+004    6.82867E+004   -1.07933E+004    3.70406E+004    6.91738E+003   -1.89264E+004    4.43889E+004    8.53170E+003    9.25115E+003   -1.33322E+003
            8942    2.26032E+005    2.31527E+005    2.31527E+005    3.41485E+004   -1.50538E+004    2.46581E+005   -8.35406E+004    2.13479E+005    1.70086E+004    1.21265E+004    2.21487E+005    2.67798E+004    4.43900E+004    8.04840E+003
            8943    2.04869E+005    1.60360E+005    1.60360E+005   -3.47793E+003   -6.93406E+004    2.29700E+005   -2.91804E+004    1.78611E+005   -1.25038E+004   -5.70368E+004    1.57082E+005    2.44727E+004    2.31078E+004   -9.62988E+003
            8944    1.50040E+005    9.80093E+004    9.80093E+004    1.13143E+004   -7.52423E+004    1.73252E+005   -1.13605E+004    1.67185E+004    7.29531E+003   -6.57138E+004    9.24999E+004    2.25894E+004    2.01382E+004   -1.78301E+004
            8945    1.17179E+005    6.63848E+004   -6.89159E+004   -2.39184E+003   -6.89159E+004    1.35301E+005    1.64098E+003    3.59314E+004   -6.08464E+003   -6.33052E+004    6.44669E+004    1.70166E+004    1.08807E+004   -8.53296E+003
            8946    7.20370E+004    3.30088E+004   -4.89731E+004    4.20632E+003   -4.89731E+004    8.19819E+004    3.91931E+003   -5.67231E+004    3.33446E+003   -4.58111E+004    3.07187E+004    1.28226E+004    7.82222E+003    7.08325E+002
            8947    9.15621E+004    2.81051E+004   -7.54937E+004   -5.41670E+003   -7.54937E+004    1.03599E+005    1.76018E+004   -7.57857E+004   -5.52899E+003   -6.93126E+004    2.20363E+004    1.99032E+004    1.01857E+004    9.95904E+003
            8948    1.41142E+005    4.63938E+004   -1.14667E+005   -1.25576E+004   -1.14667E+005    1.61061E+005    2.69436E+004   -1.07706E+005   -1.35693E+004   -1.07825E+005    4.05632E+004    2.63008E+004    1.70561E+004    4.33880E+003
            8949    1.91165E+005    1.00924E+005   -1.19359E+005    3.05647E+003   -1.19359E+005    2.20283E+005    5.12642E+003   -1.10200E+005    2.21721E+003   -1.13193E+005    9.55965E+004    2.70219E+004    2.26247E+004   -7.87545E+002
            8950    2.26193E+005    1.45856E+005    1.45856E+005    4.68386E+002   -1.14748E+005    2.60604E+005   -1.05253E+004    1.32034E+005   -7.41365E+002   -1.08060E+005    1.40377E+005    2.68832E+004    2.82729E+004   -2.64245E+003
            8951    2.63485E+005    2.24406E+005    2.24406E+005    2.12159E+004   -7.33006E+004    2.97707E+005   -5.74405E+004    2.20187E+005    2.11183E+004   -6.57704E+004    2.16974E+005    2.43378E+004    3.87287E+004   -8.58726E+003
            8952    2.86598E+005    3.02617E+005    3.02617E+005    6.34369E+004   -1.50458E+004    3.17663E+005   -1.17003E+005    2.60729E+005    6.26208E+004   -4.13811E+003    2.92526E+005    2.40065E+004    4.81576E+004   -1.62352E+004
            8953    3.22721E+005    3.72508E+005    3.72508E+005    8.46750E+004    2.36215E+004    3.48887E+005   -1.60268E+005    3.09324E+005    7.92381E+004    4.00673E+004    3.61499E+005    2.19499E+004    5.26827E+004   -2.65499E+004
            8954    4.92458E+005    4.93902E+005    4.93902E+005    1.02272E+005   -5.89618E+004    5.52864E+005   -1.79071E+005    4.26712E+005   -4.27802E+004    1.07050E+005    4.72942E+005    2.65286E+004    8.63204E+004    4.79663E+004
            8955    6.83390E+005    8.67583E+005    8.67583E+005    3.13242E+005    1.04046E+005    7.63537E+005   -4.28290E+005    6.04801E+005    1.89015E+005    3.27466E+005    7.68390E+005    1.36846E+004    2.35112E+005    9.30942E+004
            8956    3.94579E+005    3.82924E+005    3.82924E+005    6.63215E+004   -5.91297E+004    4.42053E+005   -1.30038E+005    3.45239E+005   -4.83955E+004    7.11452E+004    3.67366E+005    2.34606E+004    5.97305E+004    4.43154E+004
            8957    5.90246E+005    7.47612E+005    7.47612E+005    2.66318E+005    8.90449E+004    6.58567E+005   -3.67658E+005    5.25149E+005    1.56177E+005    2.82121E+005    6.64678E+005    1.11455E+004    1.93328E+005    9.21920E+004
            8958    5.28070E+005    6.50378E+005    6.50378E+005    2.18929E+005    6.14963E+004    5.88882E+005   -3.10268E+005    4.70764E+005    1.16703E+005    2.36537E+005    5.77564E+005    4.78608E+003    1.62187E+005    9.72094E+004
            8959    4.78309E+005    5.89225E+005    5.89225E+005    1.94151E+005    5.74471E+004    5.31778E+005   -2.80274E+005    4.30960E+005    1.04523E+005    2.10294E+005    5.26006E+005    1.53055E+003    1.40356E+005    9.20476E+004
            8960    4.47988E+005    5.40671E+005    5.40671E+005    1.62344E+005    4.59831E+004    4.94688E+005   -2.49666E+005    4.11880E+005    9.37699E+004    1.84951E+005    4.70277E+005   -8.78914E+002    1.25645E+005    1.11938E+005
            8961    4.78044E+005    5.59790E+005    5.59790E+005    1.10227E+005    5.76167E+004    5.02173E+005   -2.42544E+005    4.71465E+005    1.00305E+005    1.15906E+005    5.11423E+005   -8.29696E+002    1.06268E+005    1.02953E+005
            8962    3.39381E+005    3.46123E+005    3.46123E+005    6.80580E+004   -3.20526E+004    3.78176E+005   -1.27376E+005    3.03396E+005   -2.38583E+004    7.47022E+004    3.31285E+005    1.99297E+004    4.77681E+004    4.58443E+004
            8963    3.17199E+005    3.24376E+005    3.24376E+005    6.37288E+004   -2.87980E+004    3.53174E+005   -1.19769E+005    2.84375E+005   -2.32749E+004    7.51332E+004    3.07449E+005    9.20330E+003    4.28414E+004    5.27209E+004
            8964    3.46529E+005    3.50128E+005    3.50128E+005    2.90044E+004   -1.71758E+004    3.67304E+005   -1.20652E+005    3.39503E+005   -1.30551E+004    4.19249E+004    3.33087E+005    4.55579E+003    3.75135E+004    6.32253E+004
            8965    2.92132E+005    2.64573E+005    2.64573E+005   -2.10153E+004   -3.36909E+004    2.98264E+005   -6.99555E+004    2.91512E+005   -3.02897E+004   -2.08664E+004    2.61023E+005    1.94391E+003    3.12247E+004    8.13080E+003
            8966    1.42024E+005   -8.28459E+003   -1.56208E+005   -2.09290E+004   -1.56208E+005    1.47924E+005    6.18073E+004   -1.40750E+005   -1.96017E+004   -1.92757E+004   -1.46545E+005    3.43187E+003    3.62058E+004    3.96050E+003
            8967    1.22846E+005    2.58432E+004   -1.03209E+005    1.23096E+004   -1.03209E+005    1.29053E+005    2.16855E+004   -1.21152E+005    1.49028E+004    1.66393E+004   -9.65987E+004    3.47216E+003    2.12273E+004    1.89209E+004
            8968    8.26473E+004    3.13109E+003   -8.50525E+004   -9.36462E+003   -8.50525E+004    8.81836E+004    3.04287E+004   -8.04808E+004   -1.20887E+004   -2.09988E+002   -7.89874E+004    3.09665E+003    1.98656E+004    8.30033E+003
            8969    7.24891E+004    1.26983E+004   -6.19134E+004    8.24817E+003   -6.19134E+004    7.46117E+004    1.36557E+004   -7.21809E+004    8.61756E+003    1.08543E+004   -6.04389E+004    1.76387E+003    9.80802E+003    3.08201E+003
            8970    1.77727E+005    2.21979E+004   -1.73398E+005   -2.18072E+004   -1.73398E+005    1.95596E+005    5.76691E+004   -1.64788E+005   -1.20321E+004    4.50103E+003   -1.65476E+005    1.73718E+004    3.10273E+004    2.18955E+004
            8971    1.39280E+005    4.58179E+004   -1.09079E+005    5.83822E+003   -1.09079E+005    1.54897E+005    1.91411E+004   -1.25362E+005    1.22675E+004    3.43782E+004   -1.04069E+005    1.36158E+004    1.41172E+004    2.34478E+004
            8972    9.13751E+004    3.83462E+004   -6.69212E+004   -8.08407E+003   -6.69212E+004    1.05267E+005    1.22197E+004   -5.36509E+004   -6.27807E+003    3.15282E+004   -6.19091E+004    1.07777E+004    1.29372E+004    1.70440E+004
            8973    5.98816E+004    2.44570E+004   -4.26862E+004    5.19114E+003   -4.26862E+004    6.71432E+004    4.34601E+003   -5.21933E+004    6.83932E+003    2.19497E+004   -4.18270E+004    6.62907E+003    6.21269E+003   -1.42424E+003
            8974    7.76013E+004    6.54710E+004    6.54710E+004    7.29601E+003   -2.26395E+004    8.81105E+004   -1.67092E+004    6.24731E+004    8.26765E+003    6.01021E+004   -1.82423E+004    1.73853E+004    9.33390E+003   -5.48107E+003
            8975    1.20534E+005    8.68303E+004    8.68303E+004    8.74911E+002   -5.09482E+004    1.37779E+005   -1.22523E+004    8.97917E+004    1.73212E+003    8.09331E+004   -4.59083E+004    2.22222E+004    1.56034E+004   -5.77322E+002
            8976    1.64479E+005    1.02995E+005    1.02995E+005    4.37400E+003   -8.68812E+004    1.89876E+005   -6.82935E+003    6.68476E+004    6.79733E+003    9.56296E+004   -8.19389E+004    2.45815E+004    2.14140E+004    8.50535E+003
            8977    2.20175E+005    8.30884E+004   -1.68545E+005   -1.13076E+004   -1.68545E+005    2.51634E+005    3.22549E+004   -1.64427E+005   -1.09613E+004    7.64997E+004   -1.62303E+005    2.36936E+004    3.13609E+004    4.16510E+003
            8978    2.35155E+005    3.60589E+004   -2.28764E+005   -4.43953E+004   -2.28764E+005    2.64823E+005    7.90335E+004   -2.00485E+005   -4.37908E+004    2.64014E+004   -2.19711E+005    2.47640E+004    4.08158E+004    8.89399E+003
            8979    2.78729E+005    1.69189E+004   -2.91773E+005   -5.85494E+004   -2.91773E+005    3.08692E+005    1.11134E+005   -2.54175E+005   -5.53676E+004    4.18545E+003   -2.82221E+005    2.47195E+004    4.59549E+004    1.82754E+004
            8980    3.13614E+005   -2.57421E+004   -3.64949E+005   -8.55375E+004   -3.64949E+005    3.39207E+005    1.58743E+005   -3.00385E+005   -7.87249E+004   -4.29069E+004   -3.54597E+005    2.33832E+004    5.22163E+004    2.05299E+004
            8981    3.50871E+005   -6.77380E+004   -4.40872E+005   -1.17598E+005   -4.40872E+005    3.73134E+005    2.08736E+005   -3.42765E+005   -1.03224E+005   -9.42465E+004   -4.28738E+005    2.02896E+004    5.88390E+004    2.90267E+004
            8982    5.68704E+005    6.07927E+004   -5.78774E+005   -1.29996E+005   -5.78774E+005    6.39567E+005    2.15992E+005   -4.88503E+005    3.93904E+004   -1.33735E+005   -5.53633E+005    2.48985E+004    1.10591E+005   -4.43135E+004
            8983    7.61158E+005   -1.20675E+005   -9.71832E+005   -3.56493E+005   -9.71832E+005    8.51157E+005    4.83000E+005   -6.71277E+005   -2.20494E+005   -3.66429E+005   -8.62078E+005    1.14245E+004    2.69928E+005   -8.38419E+004
            8984    4.75687E+005    6.10840E+004   -4.73975E+005   -9.89209E+004   -4.73975E+005    5.35059E+005    1.70604E+005   -4.08203E+005    4.54687E+004   -1.04074E+005   -4.53207E+005    2.53834E+004    8.38805E+004   -4.75062E+004
            8985    6.63464E+005   -1.04208E+005   -8.45162E+005   -3.06090E+005   -8.45162E+005    7.40954E+005    4.18487E+005   -5.88166E+005   -1.85132E+005   -3.19796E+005   -7.50532E+005    1.21572E+004    2.25987E+005   -9.10271E+004
            8986    3.97273E+005    5.28693E+004   -3.92283E+005   -7.37619E+004   -3.92283E+005    4.45152E+005    1.37725E+005   -3.47312E+005    4.22023E+004   -8.09105E+004   -3.74467E+005    2.30141E+004    6.09996E+004   -5.03359E+004
            8987    5.67412E+005   -8.28448E+004   -7.15886E+005   -2.53077E+005   -7.15886E+005    6.33041E+005    3.50603E+005   -5.04981E+005   -1.47195E+005   -2.72111E+005   -6.32502E+005    1.18862E+004    1.84203E+005   -9.87185E+004
            8988    3.11147E+005    5.04367E+004   -2.97517E+005   -4.60245E+004   -2.97517E+005    3.47954E+005    9.77016E+004   -2.74353E+005    4.38620E+004   -5.22010E+004   -2.84766E+005    1.67572E+004    4.17041E+004   -4.12187E+004
            8989    4.91440E+005   -7.61661E+004   -6.22240E+005   -2.15539E+005   -6.22240E+005    5.46074E+005    3.04649E+005   -4.43601E+005   -1.26010E+005   -2.32418E+005   -5.55517E+005    7.78600E+003    1.50058E+005   -8.88511E+004
            8990    4.42524E+005   -4.41232E+004   -5.34587E+005   -1.65211E+005   -5.34587E+005    4.90463E+005    2.47974E+005   -4.02647E+005   -8.85783E+004   -1.87558E+005   -4.67785E+005    9.81034E+002    1.24927E+005   -1.04790E+005
            8991    4.46781E+005   -5.07488E+004   -5.21788E+005   -1.04046E+005   -5.21788E+005    4.71039E+005    2.25527E+005   -4.39544E+005   -8.66096E+004   -1.13444E+005   -4.76529E+005   -6.56246E+001    1.00465E+005   -9.49395E+004
            8992    2.96232E+005    2.27732E+004   -2.95616E+005   -2.81386E+004   -2.95616E+005    3.18389E+005    1.00327E+005   -2.86140E+005    1.88053E+004   -3.57824E+004   -2.84004E+005    1.11354E+004    3.11187E+004   -4.59457E+004
            8993    2.49412E+005    3.41390E+004   -2.22568E+005    1.88450E+004   -2.22568E+005    2.56707E+005    5.65279E+004   -2.48353E+005    3.10387E+004    1.94431E+004   -2.20066E+005    3.00176E+003    2.51853E+004   -1.99752E+002
            8994    5.17843E+004    1.14505E+004   -4.75316E+004   -9.52888E+003   -4.75316E+004    5.89821E+004    1.52033E+004   -4.04140E+004   -8.89644E+003   -4.06477E+004    3.93427E+003    1.26786E+004    5.09494E+003    1.34330E+004
            8995    4.62522E+004    2.60104E+004   -2.73266E+004   -3.03242E+003   -2.73266E+004    5.33370E+004    1.44957E+003    2.47626E+004   -3.77286E+003   -2.21998E+004    2.16240E+004    7.33037E+003    3.38213E+003    1.27959E+004
            8996    4.27393E+004    2.59256E+004    2.59256E+004   -7.94728E+003   -2.20934E+004    4.80189E+004    1.37170E+003    3.68924E+004   -8.76419E+003   -1.93562E+004    2.40053E+004    5.10446E+003    4.01163E+003    7.46284E+003
            8997    4.01073E+004    3.67793E+004    3.67793E+004   -1.43733E+003   -4.98319E+003    4.17625E+004   -1.01196E+004    3.97524E+004   -2.48197E+003   -2.33088E+003    3.51716E+004    2.56897E+003    5.02283E+003    5.80179E+003
            8998    5.35574E+004    4.68622E+004    4.68622E+004   -5.94908E+003   -7.41137E+003    5.42735E+004   -1.11672E+004    5.35124E+004   -5.41536E+003   -7.25247E+003    4.61695E+004    5.56358E+002    5.87412E+003    1.26505E+003
            8999    3.55033E+004    2.04787E+004    2.04787E+004    2.02280E+003   -2.04513E+004    4.09300E+004   -6.83382E+002   -1.96307E+004    2.32036E+003   -1.05342E+004    1.02640E+004    4.50636E+003    1.63674E+003    1.69418E+004
            9000    3.15944E+004    1.70671E+004   -1.91965E+004    2.38846E+003   -1.91965E+004    3.62636E+004   -8.63478E+001   -2.16702E+004    2.87019E+003   -9.48087E+003    6.86973E+003    3.64732E+003    1.53473E+003    1.56343E+004
            9001    2.78614E+004    2.46300E+004    2.46300E+004    6.61991E+003   -7.46158E+003    3.20916E+004   -7.92943E+003    1.65634E+004    7.05257E+003    1.27081E+003    1.54649E+004    2.58755E+003    1.98157E+003    1.40423E+004
            9002    2.70562E+004    2.25951E+004    2.25951E+004    1.66412E+003   -7.95661E+003    3.05517E+004   -5.43421E+003    2.26992E+004    1.92598E+003   -4.93201E+003    1.93087E+004    1.40058E+003    2.17965E+003    9.00925E+003
            9003    2.29833E+004    2.85064E+004    2.85064E+004    6.29554E+003    4.82163E+003    2.36848E+004   -1.32079E+004    2.28766E+004    6.60603E+003    5.41772E+003    2.75999E+004    5.58173E+002    2.60659E+003    3.64306E+003
            9004    3.32213E+004    1.58517E+004   -2.25089E+004   -3.41156E+003   -2.25089E+004    3.83605E+004    3.35626E+003    6.50015E+003   -3.32453E+003   -5.36537E+003   -1.37888E+003    1.35526E+003    6.72568E+002    1.90164E+004
            9005    3.08168E+004    2.00721E+004    2.00721E+004   -2.84392E+003   -1.49617E+004    3.50338E+004   -7.55499E+002    2.45258E+004   -2.82828E+003   -3.65951E+002    5.46073E+003    7.95751E+002    3.61110E+002    1.72532E+004
            9006    2.65932E+004    1.32360E+004   -1.68055E+004   -7.29252E+003   -1.68055E+004    3.00414E+004    3.62068E+003    2.22512E+004   -7.27325E+003   -6.79450E+003    3.20572E+003    6.57886E+002    4.51374E+002    1.41453E+004
            9007    1.93336E+004    1.52525E+004    1.52525E+004   -2.06372E+003   -5.60807E+003    2.08606E+004   -2.52691E+003    1.85815E+004   -2.03527E+003    2.63730E+003    6.97870E+003    4.13647E+002    5.74456E+002    1.01869E+004
            9008    1.57408E+004    9.59027E+003    9.59027E+003   -5.66258E+003   -6.59678E+003    1.61870E+004    8.89696E+002    1.56782E+004   -5.66812E+003   -5.68464E+003    8.68367E+003   -2.57841E+001    3.72997E+002    3.70318E+003
            9009    3.56758E+005   -7.50803E+004   -4.53754E+005   -1.23952E+005   -4.53754E+005    3.78674E+005    2.17596E+005   -3.49107E+005   -1.09116E+005   -1.02038E+005   -4.41633E+005   -1.99324E+004    5.97968E+004   -2.82020E+004
            9010    5.81753E+005    6.18788E+004   -5.92396E+005   -1.33428E+005   -5.92396E+005    6.54275E+005    2.21315E+005   -4.99578E+005    3.97070E+004   -1.36530E+005   -5.67123E+005   -2.47256E+004    1.14021E+005    4.18082E+004
            9011    7.85619E+005   -1.25805E+005   -1.00431E+006   -3.69168E+005   -1.00431E+006    8.78503E+005    4.99760E+005   -6.92879E+005   -2.29689E+005   -3.77688E+005   -8.91903E+005   -1.15259E+004    2.80470E+005    7.82811E+004
            9012    3.84106E+005   -1.17006E+005   -5.24783E+005   -1.69812E+005   -5.24783E+005    4.07778E+005    2.70534E+005   -3.75810E+005   -1.36742E+005   -1.63303E+005   -5.11555E+005   -1.46726E+004    6.62829E+004   -2.87325E+004
            9013    6.66739E+005    5.82158E+004   -6.91590E+005   -1.65410E+005   -6.91590E+005    7.49806E+005    2.66261E+005   -5.72763E+005    3.01610E+004   -1.66962E+005   -6.61983E+005   -1.93160E+004    1.40169E+005    3.16077E+004
            9014    8.74031E+005   -1.43070E+005   -1.12075E+006   -4.15018E+005   -1.12075E+006    9.77676E+005    5.59611E+005   -7.69843E+005   -2.64552E+005   -4.19370E+005   -9.94912E+005   -8.73415E+003    3.20767E+005    5.97364E+004
            9015    4.03254E+005   -1.48830E+005   -5.81900E+005   -2.17204E+005   -5.81900E+005    4.33070E+005    3.15978E+005   -3.89892E+005   -1.62883E+005   -2.16220E+005   -5.68830E+005   -7.63822E+003    7.21912E+004   -1.65139E+004
            9016    7.24531E+005    5.63545E+004   -7.58713E+005   -1.87793E+005   -7.58713E+005    8.15067E+005    2.96717E+005   -6.21325E+005    2.38441E+004   -1.88178E+005   -7.25817E+005   -1.01472E+004    1.58995E+005    1.63164E+004
            9017    9.34798E+005   -1.56912E+005   -1.20281E+006   -4.48749E+005   -1.20281E+006    1.04590E+006    6.02825E+005   -8.22534E+005   -2.90087E+005   -4.49714E+005   -1.06867E+006   -4.33289E+003    3.48251E+005    2.92250E+004
            9018    4.08937E+005   -1.58168E+005   -5.99910E+005   -2.34550E+005   -5.99910E+005    4.41742E+005    3.30876E+005   -3.92403E+005   -1.71060E+005   -2.34546E+005   -5.87022E+005    5.14091E+002    7.43436E+004    4.88521E+002
            9019    7.43521E+005    5.51421E+004   -7.81326E+005   -1.95569E+005   -7.81326E+005    8.36468E+005    3.07251E+005   -6.37452E+005    2.12214E+004   -1.95573E+005   -7.47402E+005    1.11311E+003    1.64988E+005   -1.69133E+003
            9020    9.53014E+005   -1.61185E+005   -1.22741E+006   -4.58486E+005   -1.22741E+006    1.06623E+006    6.15694E+005   -8.38753E+005   -2.98040E+005   -4.58501E+005   -1.09054E+006    5.39415E+002    3.56628E+005   -3.75789E+003
            9021    4.01015E+005   -1.45628E+005   -5.75944E+005   -2.12685E+005   -5.75944E+005    4.30316E+005    3.11419E+005   -3.88099E+005   -1.60155E+005   -2.11379E+005   -5.62724E+005    8.60397E+003    7.18593E+004    1.85725E+004
            9022    7.17183E+005    5.75212E+004   -7.49299E+005   -1.84233E+005   -7.49299E+005    8.06820E+005    2.92003E+005   -6.14945E+005    2.56015E+004   -1.84769E+005   -7.16843E+005    1.22413E+004    1.56510E+005   -1.93631E+004
            9023    9.23155E+005   -1.54444E+005   -1.18728E+006   -4.42472E+005   -1.18728E+006    1.03283E+006    5.94730E+005   -8.12439E+005   -2.85524E+005   -4.44155E+005   -1.05451E+006    5.38447E+003    3.43085E+005   -3.86640E+004
            9024    3.80947E+005   -1.13771E+005   -5.17949E+005   -1.65523E+005   -5.17949E+005    4.04177E+005    2.65748E+005   -3.72915E+005   -1.34145E+005   -1.58053E+005   -5.05045E+005    1.53738E+004    6.58064E+004    2.67661E+004
            9025    6.52498E+005    6.01854E+004   -6.73882E+005   -1.59837E+005   -6.73882E+005    7.34067E+005    2.57845E+005   -5.59411E+005    3.27084E+004   -1.61756E+005   -6.44486E+005    2.06013E+004    1.36899E+005   -3.43408E+004
            9026    8.53109E+005   -1.40214E+005   -1.09441E+006   -4.05361E+005   -1.09441E+006    9.54199E+005    5.46663E+005   -7.51663E+005   -2.57483E+005   -4.10551E+005   -9.71954E+005    9.18101E+003    3.11183E+005   -6.45579E+004
            9027    5.37140E+004    7.41461E+003   -4.70254E+004    5.93180E+003   -4.70254E+004    5.44400E+004    1.12263E+004   -5.36679E+004    5.39621E+003    7.25263E+003   -4.63279E+004   -5.62677E+002    5.91475E+003    1.21703E+003
            9028    4.00661E+004    5.02300E+003   -3.67280E+004    1.40821E+003   -3.67280E+004    4.17510E+004    1.00989E+004   -3.96968E+004    2.46214E+003    2.36936E+003   -3.51283E+004   -2.60004E+003    5.03354E+003    5.75731E+003
            9029    4.27931E+004    2.22921E+004   -2.58285E+004    7.95584E+003   -2.58285E+004    4.81206E+004   -1.47316E+003   -3.67772E+004    8.76644E+003    1.95323E+004   -2.38792E+004   -5.12976E+003    3.98228E+003    7.56380E+003
            9030    4.62786E+004    2.73620E+004    2.73620E+004    3.02117E+003   -2.60073E+004    5.33693E+004   -1.45861E+003   -2.46665E+004    3.75130E+003    2.21331E+004   -2.15086E+004   -7.33344E+003    3.35261E+003    1.29920E+004
            9031    5.16179E+004    4.76287E+004    4.76287E+004    9.68012E+003   -1.11493E+004    5.87780E+004   -1.53865E+004    4.03941E+004    9.02390E+003    4.08012E+004   -3.66559E+003   -1.26775E+004    5.10809E+003    1.32906E+004
            9032    2.30545E+004   -4.84813E+003   -2.86074E+004   -6.32920E+003   -2.86074E+004    2.37593E+004    1.32616E+004   -2.29471E+004   -6.63972E+003   -5.43709E+003   -2.77080E+004   -5.46676E+002    2.60601E+003    3.63245E+003
            9033    2.70830E+004    7.87473E+003   -2.26874E+004   -1.66567E+003   -2.26874E+004    3.05621E+004    5.49278E+003   -2.28148E+004   -1.92744E+003    4.86813E+003   -1.94190E+004   -1.36988E+003    2.18168E+003    8.99219E+003
            9034    2.77816E+004    7.37206E+003   -2.46194E+004   -6.56750E+003   -2.46194E+004    3.19915E+004    7.93829E+003   -1.67818E+004   -7.00715E+003   -1.35453E+003   -1.54532E+004   -2.57539E+003    2.00448E+003    1.40100E+004
            9035    3.15527E+004    1.92857E+004    1.92857E+004   -2.31061E+003   -1.69245E+004    3.62102E+004   -1.68711E+001    2.17274E+004   -2.78958E+003    9.56807E+003   -6.72788E+003   -3.66635E+003    1.51872E+003    1.56145E+004
            9036    3.56870E+004    2.04682E+004   -2.06744E+004   -2.11121E+003   -2.06744E+004    4.11425E+004    7.72467E+002    1.96954E+004   -2.40403E+003    1.04141E+004   -1.03274E+004   -4.51921E+003    1.62193E+003    1.70856E+004
            9037    1.57790E+004    6.58703E+003   -9.62746E+003    5.67660E+003   -9.62746E+003    1.62145E+004   -8.78724E+002   -1.57197E+004    5.68187E+003    5.69588E+003   -8.74158E+003    2.40095E+001    3.78912E+002    3.66541E+003
            9038    1.92629E+004    5.55810E+003   -1.52131E+004    2.06271E+003   -1.52131E+004    2.07712E+004    2.53078E+003   -1.85291E+004    2.03347E+003   -2.62597E+003   -6.99982E+003   -4.19989E+002    5.79913E+002    1.01374E+004
            9039    2.66520E+004    1.68433E+004    1.68433E+004    7.26979E+003   -1.32730E+004    3.01164E+004   -3.61337E+003   -2.22585E+004    7.25276E+003    6.79982E+003   -3.21246E+003   -6.59345E+002    4.26938E+002    1.41832E+004
            9040    3.08818E+004    1.49746E+004   -2.01364E+004    2.81341E+003   -2.01364E+004    3.51110E+004    7.82813E+002   -2.45552E+004    2.79616E+003    3.13032E+002   -5.45764E+003   -7.84313E+002    3.77704E+002    1.72976E+004
            9041    3.29172E+004    2.23534E+004    2.23534E+004    3.42398E+003   -1.56560E+004    3.80094E+004   -3.37378E+003   -6.25546E+003    3.33312E+003    5.39322E+003    1.39499E+003   -1.35491E+003    6.93143E+002    1.88379E+004
            9042    2.63707E+005    7.31506E+004   -2.24750E+005   -2.11839E+004   -2.24750E+005    2.97901E+005    5.75945E+004   -2.20649E+005   -2.11122E+004    6.56187E+004   -2.17290E+005   -2.43064E+004    3.88323E+004   -8.61390E+003
            9043    2.26354E+005    1.14738E+005   -1.46045E+005   -4.78917E+002   -1.46045E+005    2.60783E+005    1.05953E+004   -1.32353E+005    6.59332E+002    1.08065E+005   -1.40510E+005   -2.68704E+004    2.84241E+004   -2.55260E+003
            9044    1.91077E+005    1.19525E+005    1.19525E+005   -3.03128E+003   -1.00641E+005    2.20166E+005   -5.28412E+003    1.10750E+005   -2.18936E+003    1.13337E+005   -9.52949E+004   -2.70739E+004    2.26424E+004   -8.72834E+002
            9045    1.40626E+005    1.14501E+005    1.14501E+005    1.27519E+004   -4.59673E+004    1.60469E+005   -2.70953E+004    1.07335E+005    1.37491E+004    1.07686E+005   -4.01496E+004   -2.62027E+004    1.70374E+004    4.18765E+003
            9046    9.12421E+004    7.49767E+004    7.49767E+004    5.20620E+003   -2.82765E+004    1.03253E+005   -1.73022E+004    7.54351E+004    5.28886E+003    6.88044E+004   -2.21868E+004   -1.98299E+004    1.01716E+004    1.00130E+004
            9047    7.22889E+004    4.94066E+004    4.94066E+004   -4.08081E+003   -3.28349E+004    8.22415E+004   -4.16360E+003    5.71141E+004   -3.19222E+003    4.62070E+004   -3.05240E+004   -1.29177E+004    7.89329E+003    4.78409E+002
            9048    5.95210E+004    2.19476E+004   -4.65638E+004   -7.57569E+003   -4.65638E+004    6.85113E+004    1.07306E+004   -3.68092E+004   -6.93087E+003    1.91310E+004   -4.43920E+004   -8.59224E+003    9.26092E+003   -1.30430E+003
            9049    6.03139E+004    1.57724E+004   -5.13580E+004   -1.73332E+003   -5.13580E+004    6.71304E+004    1.24396E+004   -5.41403E+004   -1.80524E+003    1.35578E+004   -4.90714E+004   -4.42962E+003    9.80486E+003   -5.60472E+003
            9050    6.16643E+004   -3.29125E+003   -6.66514E+004   -6.83569E+003   -6.66514E+004    6.33601E+004    2.55928E+004   -6.14345E+004   -8.40329E+003   -4.54840E+003   -6.38266E+004   -1.30292E+003    1.27289E+004   -1.92099E+003
            9051    1.18024E+005    6.91127E+004    6.91127E+004    2.20786E+003   -6.71628E+004    1.36275E+005   -1.38592E+003   -3.72087E+004    5.83469E+003    6.35337E+004   -6.52106E+004   -1.70333E+004    1.10620E+004   -8.49351E+003
            9052    1.04109E+005    5.03792E+004   -6.82298E+004    8.03475E+003   -6.82298E+004    1.18609E+005    3.27193E+003   -8.10264E+004    1.20209E+004    4.16432E+004   -6.34799E+004   -1.20917E+004    1.24423E+004   -1.93330E+004
            9053    8.71479E+004    1.91267E+004   -7.57834E+004    6.34051E+002   -7.57834E+004    9.49101E+004    1.86742E+004   -8.25585E+004    4.21766E+003    1.06689E+004   -7.09092E+004   -6.18168E+003    1.41138E+004   -1.54078E+004
            9054    9.24563E+004    1.45536E+004   -8.09782E+004    8.06029E+003   -8.09782E+004    9.55317E+004    1.94548E+004   -9.19411E+004    7.36953E+003    1.09211E+004   -7.66549E+004   -1.46453E+003    1.75031E+004   -9.15614E+003
            9055    1.50886E+005    7.52716E+004   -9.89563E+004   -1.14132E+004   -9.89563E+004    1.74228E+005    1.16993E+004   -3.08316E+004   -7.34704E+003    6.56127E+004   -9.33635E+004   -2.27195E+004    2.03833E+004   -1.80187E+004
            9056    1.33455E+005    3.74349E+004   -1.14028E+005   -1.37135E+004   -1.14028E+005    1.51463E+005    3.01023E+004   -1.07838E+005   -9.59002E+003    2.70684E+004   -1.07785E+005   -1.53059E+004    2.06401E+004   -2.03593E+004
            9057    1.22718E+005    2.80601E+004   -1.07960E+005   -5.54861E+003   -1.07960E+005    1.36020E+005    2.84829E+004   -1.11639E+005   -2.86481E+003    1.55821E+004   -9.81661E+004   -8.40548E+003    2.05350E+004   -2.82959E+004
            9058    9.78036E+004    9.66107E+002   -1.01759E+005   -9.76176E+003   -1.01759E+005    1.02725E+005    3.68516E+004   -9.64666E+004   -1.00635E+004   -6.96208E+003   -9.35292E+004   -2.40744E+003    2.57998E+004   -1.02676E+004
            9059    2.06355E+005    6.96903E+004   -1.61573E+005    3.76040E+003   -1.61573E+005    2.31263E+005    2.93741E+004   -1.80269E+005    1.26733E+004    5.75161E+004   -1.58312E+005   -2.44233E+004    2.31853E+004   -9.41497E+003
            9060    1.81187E+005    4.15436E+004   -1.56302E+005    1.54072E+003   -1.56302E+005    1.97845E+005    3.77392E+004   -1.70822E+005    1.47384E+004    2.23522E+004   -1.50308E+005   -1.66333E+004    2.35971E+004   -2.43121E+004
            9061    1.58739E+005    1.70754E+004   -1.52715E+005   -8.01532E+003   -1.52715E+005    1.69790E+005    4.78850E+004   -1.54183E+005    6.73442E+003   -2.97566E+003   -1.47414E+005   -8.64692E+003    2.44055E+004   -1.66117E+004
            9062    1.41816E+005    2.13233E+004   -1.25523E+005    1.06620E+004   -1.25523E+005    1.46846E+005    3.11792E+004   -1.40910E+005    1.37401E+004    1.21037E+004   -1.19381E+005   -2.19539E+003    2.66769E+004   -1.23326E+004
            9063    2.26084E+005    1.48394E+004   -2.31757E+005   -3.42524E+004   -2.31757E+005    2.46596E+005    8.37232E+004   -2.13592E+005   -1.69329E+004   -1.25336E+004   -2.21703E+005   -2.67257E+004    4.44236E+004    8.15534E+003
            9064    2.26835E+005   -8.11311E+003   -2.47595E+005   -3.59840E+004   -2.47595E+005    2.39482E+005    9.72308E+004   -2.22934E+005   -2.13157E+004   -3.19568E+004   -2.38420E+005   -1.48025E+004    4.05016E+004    1.76845E+004
            9065    2.11104E+005    1.71943E+003   -2.18747E+005   -1.84536E+004   -2.18747E+005    2.20466E+005    7.84936E+004   -2.08919E+005   -1.12853E+004   -1.19026E+004   -2.12293E+005   -8.88618E+003    3.65042E+004   -4.07685E+003
            9066    1.69829E+005   -1.02969E+004   -1.85710E+005   -2.20786E+004   -1.85710E+005    1.75413E+005    7.26953E+004   -1.68906E+005   -1.95651E+004   -2.19316E+004   -1.76589E+005   -2.80082E+003    3.86301E+004    4.12575E+003
            9067    2.89575E+005    3.39700E+004   -2.61776E+005    2.12042E+004   -2.61776E+005    2.95746E+005    6.88673E+004   -2.88940E+005    3.06172E+004    2.10897E+004   -2.58309E+005   -2.02474E+003    3.07699E+004    7.84125E+003
            9068    4.76391E+005   -5.70782E+004   -5.57499E+005   -1.09468E+005   -5.57499E+005    5.00421E+005    2.41348E+005   -4.69844E+005   -9.92445E+004   -1.15308E+005   -5.09493E+005    7.89280E+002    1.05918E+005    1.02175E+005
            9069    3.46399E+005    1.73652E+004   -3.49690E+005   -2.85212E+004   -3.49690E+005    3.67055E+005    1.20282E+005   -3.39460E+005    1.33397E+004   -4.12960E+004   -3.32890E+005   -4.47368E+003    3.70772E+004    6.28882E+004
            9070    4.47514E+005   -4.58784E+004   -5.40050E+005   -1.62142E+005   -5.40050E+005    4.94172E+005    2.49357E+005   -4.11427E+005   -9.34182E+004   -1.84839E+005   -4.69814E+005    6.65521E+002    1.25521E+005    1.11625E+005
            9071    3.17212E+005    2.87286E+004   -3.24402E+005   -6.35866E+004   -3.24402E+005    3.53130E+005    1.19753E+005   -2.84554E+005    2.32122E+004   -7.51221E+004   -3.07350E+005   -9.07575E+003    4.28376E+004    5.30290E+004
            9072    4.77937E+005   -5.75770E+004   -5.89057E+005   -1.94593E+005   -5.89057E+005    5.31480E+005    2.80409E+005   -4.30310E+005   -1.04633E+005   -2.10713E+005   -5.25881E+005   -1.57729E+003    1.40373E+005    9.18070E+004
            9073    3.39336E+005    3.20208E+004   -3.46134E+005   -6.81833E+004   -3.46134E+005    3.78155E+005    1.27432E+005   -3.03272E+005    2.38504E+004   -7.48236E+004   -3.31323E+005   -1.99280E+004    4.76716E+004    4.58318E+004
            9074    5.28040E+005   -6.14844E+004   -6.50367E+005   -2.19035E+005   -6.50367E+005    5.88882E+005    3.10295E+005   -4.70636E+005   -1.16663E+005   -2.36669E+005   -5.77554E+005   -4.80681E+003    1.62160E+005    9.72218E+004
            9075    5.91235E+005   -8.91671E+004   -7.48859E+005   -2.66816E+005   -7.48859E+005    6.59692E+005    3.68281E+005   -5.25966E+005   -1.56567E+005   -2.82586E+005   -6.65690E+005   -1.11915E+004    1.93887E+005    9.21570E+004
            9076    6.85541E+005   -1.04370E+005   -8.70336E+005   -3.14326E+005   -8.70336E+005    7.65966E+005    4.29677E+005   -6.06621E+005   -1.89763E+005   -3.28506E+005   -7.70762E+005   -1.37670E+004    2.36098E+005    9.30432E+004
            9077    3.94984E+005    5.93394E+004   -3.83268E+005   -6.66418E+004   -3.83268E+005    4.42607E+005    1.30190E+005   -3.45241E+005    4.86468E+004   -7.14773E+004   -3.67740E+005   -2.34696E+004    5.96371E+004    4.43493E+004
            9078    4.94040E+005    5.87107E+004   -4.95986E+005   -1.03275E+005   -4.95986E+005    5.54697E+005    1.80183E+005   -4.27868E+005    4.24077E+004   -1.08103E+005   -4.74856E+005   -2.64864E+004    8.69279E+004    4.80975E+004
            9079    3.22849E+005   -2.29930E+004   -3.72135E+005   -8.43986E+004   -3.72135E+005    3.49142E+005    1.59842E+005   -3.09298E+005   -7.86703E+004   -3.97206E+004   -3.61135E+005   -2.22355E+004    5.27063E+004   -2.65121E+004
            9080    2.86698E+005    1.49407E+004   -3.02757E+005   -6.33044E+004   -3.02757E+005    3.17697E+005    1.17040E+005   -2.61007E+005   -6.24570E+004    3.99209E+003   -2.92656E+005   -2.40268E+004    4.82283E+004   -1.61508E+004


  Minimum           1.00707E+004   -1.78734E+005   -1.22772E+006   -4.58584E+005   -1.22772E+006    1.16100E+004   -6.15871E+005   -8.38985E+005   -3.89133E+005   -4.58595E+005   -1.09076E+006   -1.03259E+005    3.61110E+002   -1.11938E+005
      At Element            8926            5203            4767            4767            4767            8926            8909            4767            5205            4767            4767            7081            9005            4818

  Maximum           9.53198E+005    1.22772E+006    1.22772E+006    4.58584E+005    1.78734E+005    1.06641E+006    6.15871E+005    8.38985E+005    3.89133E+005    4.58595E+005    1.09076E+006    1.03255E+005    3.95187E+005    1.11938E+005
      At Element            8909            8909            8909            8909            8473            8909            4767            8909            8475            8909            8909            6988            8691            8960

           Total    1.24101E+009    7.01822E+008    0.00000E+000    0.00000E+000   -7.01822E+008    1.40364E+009    0.00000E+000    0.00000E+000    0.00000E+000    0.00000E+000    0.00000E+000    9.13208E+003    5.82171E+008    0.00000E+000


