********************************************************************************
Field Output Report, written Sun Apr 16 09:16:27 2023

Source 1
---------

   ODB: C:/Temp/23_shear.odb
   Step: Loading_step
   Frame: Increment      1: Step Time =    1.000

Loc 1 : Centroidal values from source 1

Output sorted by column "Element Label".

Field Output reported at element centroid for region: PART-1-1.Region_1

         Element         S.Mises     S.Max. Prin  S.Max. Prin(a)     S.Mid. Prin     S.Min. Prin        S.Tresca      S.Pressure     S.Third Inv           S.S11           S.S22           S.S33           S.S12           S.S13           S.S23
           Label          @Loc 1          @Loc 1          @Loc 1          @Loc 1          @Loc 1          @Loc 1          @Loc 1          @Loc 1          @Loc 1          @Loc 1          @Loc 1          @Loc 1          @Loc 1          @Loc 1
-------------------------------------------------------------------------------------------------------------------------------------------------------------------------------------------------------------------------------------------------
               1    4.05859E+005    4.24686E+005    4.24686E+005    2.93365E+004    9.07659E+003    4.15610E+005   -1.54366E+005    4.04719E+005    1.40652E+004    5.96017E+004    3.89432E+005    9.88161E+003    2.52818E+003    1.13326E+005
               2    3.97422E+005    3.83927E+005    3.83927E+005    2.32632E+003   -2.76226E+004    4.11549E+005   -1.19543E+005    3.94871E+005    1.73938E+003    3.48168E+004    3.22074E+005    5.26711E+003    1.53700E+003    1.46903E+005
               3    3.94918E+005    3.56835E+005    3.56835E+005    9.78338E+003   -7.28686E+004    4.29703E+005   -9.79165E+004    3.74710E+005    9.50025E+003    2.71475E+004    2.57102E+005    7.22417E+003    1.86479E+003    1.81241E+005
               4    3.88503E+005    3.13381E+005    3.13381E+005    3.30989E+003   -1.22415E+005    4.35796E+005   -6.47588E+004    3.37970E+005    3.22680E+003    1.34358E+004    1.77614E+005    5.83356E+003    1.15141E+003    2.01737E+005
               5    4.35592E+005    4.48259E+005    4.48259E+005    2.86075E+004   -1.69092E+003    4.49950E+005   -1.58392E+005    4.33212E+005    2.83246E+003    5.43737E+004    4.17970E+005    1.17442E+004    2.17332E+003    1.09108E+005
               6    4.34221E+005    4.15662E+005    4.15662E+005   -1.12786E+004   -2.54918E+004    4.41153E+005   -1.26297E+005    4.33698E+005   -1.32523E+004    3.73570E+004    3.54787E+005    5.66562E+003    8.67075E+002    1.51726E+005
               7    4.16702E+005    3.72950E+005    3.72950E+005   -4.58427E+003   -7.41610E+004    4.47111E+005   -9.80683E+004    4.03322E+005   -5.15889E+003    1.98538E+004    2.79510E+005    7.84275E+003    8.90938E+002    1.81579E+005
               8    4.14175E+005    3.37278E+005    3.37278E+005   -7.53206E+003   -1.22129E+005    4.59408E+005   -6.92058E+004    3.75950E+005   -7.69678E+003    1.41817E+004    2.01132E+005    6.06026E+003    4.61116E+002    2.09691E+005
               9    4.54472E+005    4.85521E+005    4.85521E+005    4.63944E+004    1.71194E+004    4.68402E+005   -1.83012E+005    4.52344E+005    2.50922E+004    7.06845E+004    4.53259E+005    1.45908E+004    4.06995E+003    1.15431E+005
              10    4.44391E+005    4.37078E+005    4.37078E+005    5.49658E+003   -1.90998E+004    4.56178E+005   -1.41158E+005    4.42855E+005    4.26094E+003    3.95794E+004    3.79635E+005    6.73225E+003    2.31559E+003    1.51036E+005
              11    4.36444E+005    4.06805E+005    4.06805E+005    1.67586E+004   -6.45902E+004    4.71395E+005   -1.19658E+005    4.18875E+005    1.62965E+004    3.12014E+004    3.11476E+005    9.17178E+003    2.98880E+003    1.89078E+005
              12    4.22735E+005    3.53030E+005    3.53030E+005    6.63964E+003   -1.18016E+005    4.71046E+005   -8.05515E+004    3.77946E+005    6.53483E+003    1.60051E+004    2.19114E+005    6.92454E+003    1.94006E+003    2.12354E+005
              13    4.88894E+005    5.06001E+005    5.06001E+005    4.17893E+004   -4.30988E+003    5.10311E+005   -1.81160E+005    4.83968E+005    5.50051E+002    6.61820E+004    4.76748E+005    1.51750E+004    2.55558E+003    1.13267E+005
              14    4.93650E+005    4.75905E+005    4.75905E+005   -9.39645E+003   -2.56906E+004    5.01595E+005   -1.46939E+005    4.93044E+005   -2.25126E+004    4.77521E+004    4.15578E+005    7.20668E+003    8.76963E+002    1.60680E+005
              15    4.63376E+005    4.24366E+005    4.24366E+005   -9.79036E+003   -6.35421E+004    4.87908E+005   -1.17011E+005    4.56283E+005   -1.09885E+004    2.95657E+004    3.32456E+005    9.71040E+003    1.36509E+003    1.90402E+005
              16    4.53142E+005    3.82444E+005    3.82444E+005   -1.34268E+004   -1.11805E+005    4.94249E+005   -8.57376E+004    4.28114E+005   -1.37653E+004    2.07787E+004    2.50199E+005    7.18838E+003    1.56602E+002    2.18655E+005
              17    5.05553E+005    5.54782E+005    5.54782E+005    6.59566E+004    3.40166E+004    5.20765E+005   -2.18252E+005    5.03275E+005    4.29204E+004    9.35540E+004    5.18281E+005    1.65581E+004    6.40157E+003    1.29326E+005
              18    4.86749E+005    4.97525E+005    4.97525E+005    1.95338E+004    2.46733E+003    4.95057E+005   -1.73175E+005    4.86075E+005    1.64440E+004    6.79537E+004    4.35128E+005    9.21907E+003    5.41287E+003    1.63501E+005
              19    4.67672E+005    4.60398E+005    4.60398E+005    3.00093E+004   -3.72703E+004    4.97668E+005   -1.51046E+005    4.56594E+005    2.93712E+004    5.60468E+004    3.67719E+005    1.16495E+004    6.36783E+003    1.93238E+005
              20    4.52949E+005    4.03903E+005    4.03903E+005    1.69501E+004   -9.43086E+004    4.98212E+005   -1.08848E+005    4.20525E+005    1.68622E+004    3.31704E+004    2.76512E+005    8.73686E+003    4.30729E+003    2.17124E+005
              21    5.64384E+005    5.72634E+005    5.72634E+005    5.77907E+004   -3.08093E+004    6.03444E+005   -1.99872E+005    5.48409E+005   -2.90563E+004    9.58855E+004    5.32787E+005    1.31659E+004    1.69548E+003    1.37744E+005
              22    5.43053E+005    5.25754E+005    5.25754E+005    2.51369E+004   -5.15757E+004    5.77330E+005   -1.66439E+005    5.30657E+005   -5.04573E+004    8.64869E+004    4.63286E+005    9.23759E+003   -1.49377E+003    1.65642E+005
              23    5.09531E+005    4.80500E+005    4.80500E+005   -1.88268E+004   -3.86577E+004    5.19157E+005   -1.41005E+005    5.08662E+005   -3.10823E+004    5.85423E+004    3.95555E+005    1.05929E+004    9.42117E+001    1.89271E+005
              24    4.86315E+005    4.33125E+005    4.33125E+005   -2.81532E+004   -7.48564E+004    5.07982E+005   -1.10039E+005    4.81231E+005   -2.94118E+004    4.63215E+004    3.13206E+005    7.55784E+003   -2.02023E+003    2.15363E+005
              25    4.71532E+005    5.87005E+005    5.87005E+005    1.16901E+005    1.14057E+005    4.72948E+005   -2.72654E+005    4.71513E+005    1.16905E+005    1.61490E+005    5.39568E+005    7.86621E+003    1.95133E+004    1.40508E+005
              26    4.82813E+005    5.53841E+005    5.53841E+005    7.88830E+004    6.35386E+004    4.90302E+005   -2.32088E+005    4.82264E+005    6.84262E+004    1.27471E+005    5.00366E+005    1.23654E+004    1.44363E+004    1.49967E+005
              27    4.70158E+005    5.22179E+005    5.22179E+005    6.71667E+004    3.82129E+004    4.83966E+005   -2.09186E+005    4.68146E+005    6.67064E+004    1.17845E+005    4.43007E+005    1.48297E+004    1.75950E+004    1.77470E+005
              28    4.52743E+005    4.63781E+005    4.63781E+005    4.60765E+004   -1.73190E+004    4.81100E+005   -1.64179E+005    4.42592E+005    4.65376E+004    8.46766E+004    3.61324E+005    1.16670E+004    1.35797E+004    1.96193E+005
              29    5.21899E+005    4.62817E+005    4.62817E+005    2.72326E+004   -1.15639E+005    5.78456E+005   -1.24804E+005    4.74825E+005   -1.11865E+005    9.99993E+004    3.86276E+005   -2.58614E+004   -3.54515E+004    1.62387E+005
              30    5.83099E+005    5.04384E+005    5.04384E+005    4.51932E+004   -1.51664E+005    6.56048E+005   -1.32638E+005    4.99686E+005   -1.46745E+005    9.78637E+004    4.46794E+005   -2.88712E+004   -4.53977E+004    1.46497E+005
              31    6.58829E+005    5.49061E+005    5.49061E+005    5.85326E+004   -1.99782E+005    7.48843E+005   -1.35937E+005    5.25274E+005   -1.94204E+005    1.07086E+005    4.94929E+005   -3.26358E+004   -5.18992E+004    1.46889E+005
              32    7.64023E+005    5.69550E+005    5.69550E+005    4.92130E+004   -3.07602E+005    8.77152E+005   -1.03720E+005    5.20474E+005   -2.97539E+005    7.84489E+004    5.30251E+005   -4.24550E+004   -7.90280E+004    1.21413E+005
              33    4.27803E+005    4.39079E+005    4.39079E+005    5.33870E+004   -2.10623E+004    4.60142E+005   -1.57135E+005    4.12850E+005   -2.08400E+004    6.46962E+004    4.27548E+005   -4.18397E+003   -5.88756E+003    6.54336E+004
              34    4.52396E+005    4.66360E+005    4.66360E+005    6.91286E+004   -2.60545E+004    4.92415E+005   -1.69811E+005    4.28991E+005   -2.57052E+004    7.95462E+004    4.55593E+005   -5.28537E+003   -9.32707E+003    6.38984E+004
              35    4.79341E+005    4.84054E+005    4.84054E+005    6.97051E+004   -4.09324E+004    5.24986E+005   -1.70942E+005    4.49246E+005   -4.01165E+004    7.74311E+004    4.75512E+005   -8.57825E+003   -1.39027E+004    5.74114E+004
              36    5.08313E+005    5.12544E+005    5.12544E+005    8.37105E+004   -4.89442E+004    5.61488E+005   -1.82437E+005    4.66927E+005   -4.78712E+004    9.39677E+004    5.01213E+005   -8.74415E+003   -2.07661E+004    6.61518E+004
              37    5.41012E+005    5.22722E+005    5.22722E+005    7.99731E+004   -8.03261E+004    6.03048E+005   -1.74123E+005    4.83088E+005   -7.76259E+004    8.96293E+004    5.10366E+005   -1.65572E+004   -3.13148E+004    6.72473E+004
              38    5.80839E+005    5.63447E+005    5.63447E+005    1.00134E+005   -8.81856E+004    6.51633E+005   -1.91798E+005    5.04971E+005   -8.43753E+004    1.17035E+005    5.42736E+005   -1.28948E+004   -4.76714E+004    8.66594E+004
              39    6.70223E+005    5.80226E+005    5.80226E+005    1.20623E+005   -1.88808E+005    7.69035E+005   -1.70680E+005    4.63372E+005   -1.77654E+005    1.41304E+005    5.48391E+005   -3.86459E+004   -7.99076E+004    9.70637E+004
              40    4.35902E+005    3.81750E+005    3.81750E+005   -1.68803E+004   -8.37059E+004    4.65456E+005   -9.37214E+004    4.24148E+005   -8.01029E+004    7.61192E+004    2.85148E+005   -2.39485E+004   -2.69406E+004    1.68681E+005
              41    3.60494E+005    2.92274E+005    2.92274E+005   -4.27484E+004   -8.91900E+004    3.81464E+005   -5.34451E+004    3.53669E+005   -4.30800E+004    4.42305E+004    1.59185E+005   -2.30087E+004   -1.45726E+004    1.79681E+005
              42    3.18344E+005    1.83769E+005   -1.83821E+005   -1.15887E+003   -1.83821E+005    3.67590E+005    4.03806E+002    7.00909E+004   -1.03168E+003    4.78836E+002   -6.58573E+002   -2.25921E+004   -5.44474E+002    1.82400E+005
              43    3.54375E+005    9.01941E+004   -2.86375E+005    4.05779E+004   -2.86375E+005    3.76569E+005    5.18676E+004   -3.46432E+005    4.07792E+004   -4.20995E+004   -1.54282E+005   -2.32343E+004    1.44713E+004    1.77560E+005
              44    4.41151E+005    8.49784E+004   -3.87427E+005    1.38175E+004   -3.87427E+005    4.72406E+005    9.62105E+004   -4.27952E+005    8.12469E+004   -7.79925E+004   -2.91886E+005   -2.46308E+004    2.68432E+004    1.68785E+005
              45    5.18200E+005    1.21713E+005   -4.55167E+005   -2.91092E+004   -4.55167E+005    5.76880E+005    1.20855E+005   -4.64837E+005    1.17208E+005   -9.52166E+004   -3.84556E+005   -2.78122E+004    3.90624E+004    1.54196E+005
              46    5.95371E+005    1.61787E+005   -5.11717E+005   -5.55465E+004   -5.11717E+005    6.73505E+005    1.35159E+005   -4.93486E+005    1.56605E+005   -1.09619E+005   -4.52463E+005   -3.08948E+004    4.66214E+004    1.47639E+005
              47    6.77206E+005    2.21749E+005   -5.52176E+005   -6.83166E+004   -5.52176E+005    7.73924E+005    1.32915E+005   -5.06156E+005    2.14211E+005   -1.08902E+005   -5.04053E+005   -3.33641E+004    6.64378E+004    1.33919E+005
              48    6.90331E+005    2.37884E+005   -5.56007E+005   -9.69320E+004   -5.56007E+005    7.93891E+005    1.38352E+005   -4.44569E+005    2.26456E+005   -1.26079E+005   -5.15431E+005   -2.89510E+004    8.98390E+004    1.10595E+005
              49    4.40204E+005    4.07367E+005    4.07367E+005    3.81359E+004   -7.97893E+004    4.87156E+005   -1.21905E+005    4.02302E+005    3.87860E+004    6.43678E+004    2.62560E+005    1.05297E+004    1.21913E+004    2.22108E+005
              50    4.58170E+005    3.70073E+005    3.70073E+005   -1.91665E+004   -1.34852E+005    5.04925E+005   -7.20180E+004    4.23399E+005   -1.95031E+004    2.41049E+004    2.11452E+005    6.30697E+003   -1.95267E+003    2.34250E+005
              51    4.46408E+005    3.56676E+005    3.56676E+005    1.63907E+004   -1.48779E+005    5.05455E+005   -7.47623E+004    3.67567E+005    1.64157E+004    2.33271E+004    1.84544E+005    8.74598E+003    3.42674E+003    2.39348E+005
              52    4.35634E+005    3.26559E+005    3.26559E+005   -8.50850E+003   -1.65897E+005    4.92456E+005   -5.07180E+004    3.62854E+005   -8.68878E+003    8.27878E+003    1.52564E+005    7.33735E+003   -2.37205E+002    2.35274E+005
              53    4.20881E+005    3.13558E+005    3.13558E+005    9.24250E+003   -1.66753E+005    4.80311E+005   -5.20157E+004    3.20881E+005    9.20616E+003    1.15458E+004    1.35295E+005    7.41710E+003    1.45213E+003    2.31920E+005
              54    4.03412E+005    2.89469E+005    2.89469E+005   -4.59374E+003   -1.70431E+005    4.59900E+005   -3.81483E+004    3.11575E+005   -4.69740E+003    4.94529E+003    1.14197E+005    6.65549E+003    7.15361E+001    2.23253E+005
              55    3.91849E+005    2.81754E+005    2.81754E+005    5.58822E+003   -1.66723E+005    4.48477E+005   -4.02063E+004    2.85861E+005    5.55571E+003    9.91980E+003    1.05144E+005    6.32568E+003    8.81124E+002    2.19029E+005
              56    4.19652E+005    3.20794E+005    3.20794E+005    1.86529E+004   -1.58364E+005    4.79158E+005   -6.03612E+004    3.17724E+005    1.89303E+004    3.09572E+004    1.31196E+005    8.04216E+003    5.98619E+003    2.34100E+005
              57    4.45228E+005    3.11525E+005    3.11525E+005   -1.07953E+004   -1.96493E+005    5.08018E+005   -3.47457E+004    3.40129E+005   -1.08967E+004    1.31569E+004    1.01977E+005    4.98443E+003   -1.29370E+003    2.50030E+005
              58    4.38008E+005    2.93425E+005    2.93425E+005    6.78225E+003   -2.10767E+005    5.04193E+005   -2.98134E+004    2.70162E+005    6.80365E+003    7.59627E+003    7.50403E+004    7.30889E+003    1.36468E+003    2.49721E+005
              59    4.32600E+005    2.81181E+005    2.81181E+005   -4.84953E+003   -2.16492E+005    4.97674E+005   -1.99465E+004    2.74466E+005   -4.90486E+003    4.88372E+003    5.98606E+004    6.33750E+003   -2.38697E+002    2.47228E+005
              60    4.14988E+005    2.61306E+005    2.61306E+005    2.69271E+003   -2.17364E+005    4.78670E+005   -1.55449E+004    2.14950E+005    2.69364E+003    2.36196E+003    4.15792E+004    6.57191E+003    5.52656E+002    2.38439E+005
              61    4.04353E+005    2.53022E+005    2.53022E+005   -2.57150E+003   -2.13161E+005    4.66183E+005   -1.24299E+004    2.22342E+005   -2.59894E+003    3.14192E+003    3.67466E+004    5.94073E+003   -3.20065E+001    2.32408E+005
              62    3.87710E+005    2.37866E+005    2.37866E+005    1.22705E+003   -2.09574E+005    4.47440E+005   -9.83982E+003    1.79849E+005    1.22437E+003    1.56528E+003    2.67298E+004    5.82663E+003    2.81409E+002    2.23290E+005
              63    4.16931E+005    2.37087E+005   -2.44303E+005    1.78330E+003   -2.44303E+005    4.81390E+005    1.81108E+003   -1.41131E+005    1.82672E+003   -1.38623E+002   -7.12132E+003    7.40994E+003    5.67247E+002    2.40555E+005
              64    4.36755E+005    2.38363E+005   -2.65762E+005   -1.52022E+003   -2.65762E+005    5.04125E+005    9.63985E+003   -1.90952E+005   -1.53048E+003   -3.61005E+003   -2.37790E+004    5.26996E+003   -4.78023E+002    2.51805E+005
              65    4.40227E+005    2.38618E+005   -2.69373E+005    7.11232E+002   -2.69373E+005    5.07991E+005    1.00145E+004   -2.10575E+005    7.43046E+002   -8.28610E+002   -2.99579E+004    7.60724E+003    6.93573E+001    2.53463E+005
              66    4.29203E+005    2.24677E+005   -2.70304E+005   -1.35793E+003   -2.70304E+005    4.94981E+005    1.56615E+004   -2.27778E+005   -1.34804E+003   -3.35637E+003   -4.22802E+004    6.88340E+003   -3.94316E+002    2.46627E+005
              67    4.18018E+005    2.19319E+005   -2.62672E+005    7.24634E+002   -2.62672E+005    4.81992E+005    1.42093E+004   -2.27006E+005    7.56771E+002   -5.56578E+002   -4.28282E+004    6.99151E+003   -8.34987E+001    2.39964E+005
              68    4.01529E+005    2.06004E+005   -2.56787E+005   -1.03018E+003   -2.56787E+005    4.62792E+005    1.72711E+004   -2.27182E+005   -1.00870E+003   -2.94924E+003   -4.78553E+004    6.47412E+003   -2.77136E+002    2.30212E+005
              69    3.90095E+005    2.03144E+005   -2.46558E+005    6.53266E+002   -2.46558E+005    4.49702E+005    1.42535E+004   -2.16609E+005    6.78714E+002   -1.31486E+003   -4.21243E+004    6.10330E+003   -1.17327E+002    2.23839E+005
              70    4.23675E+005    1.44587E+005   -3.36369E+005   -1.83581E+004   -3.36369E+005    4.80956E+005    7.00465E+004   -3.41673E+005   -1.86510E+004   -3.57035E+004   -1.55785E+005    7.87097E+003   -6.67437E+003    2.32682E+005
              71    4.46222E+005    1.74659E+005   -3.30319E+005    1.08388E+004   -3.30319E+005    5.04978E+005    4.82736E+004   -3.68837E+005    1.09629E+004   -1.59920E+004   -1.39792E+005    5.17908E+003    1.12604E+003    2.44704E+005
              72    4.42991E+005    1.74032E+005   -3.30793E+005   -6.93551E+003   -3.30793E+005    5.04825E+005    5.45655E+004   -3.43704E+005   -6.92974E+003   -1.55501E+004   -1.41217E+005    7.77860E+003   -2.05826E+003    2.44334E+005
              73    4.36307E+005    1.77677E+005   -3.18427E+005    5.61641E+003   -3.18427E+005    4.96104E+005    4.50446E+004   -3.46614E+005    5.72712E+003   -7.04650E+003   -1.33814E+005    6.60919E+003    2.37197E+001    2.39708E+005
              74    4.19215E+005    1.67833E+005   -3.09926E+005   -3.58677E+003   -3.09926E+005    4.77759E+005    4.85600E+004   -3.25032E+005   -3.53240E+003   -8.66245E+003   -1.33485E+005    6.92300E+003   -1.05901E+003    2.30468E+005
              75    4.05265E+005    1.67295E+005   -2.94241E+005    3.44890E+003   -2.94241E+005    4.61536E+005    4.11658E+004   -3.16734E+005    3.53159E+003   -5.32375E+003   -1.21705E+005    6.10159E+003   -2.31582E+002    2.23215E+005
              76    3.88866E+005    1.59251E+005   -2.84329E+005   -2.16790E+003   -2.84329E+005    4.43579E+005    4.24153E+004   -2.98163E+005   -2.11724E+003   -8.73222E+003   -1.16396E+005    6.00655E+003   -7.04062E+002    2.15065E+005
              77    4.37048E+005    6.67933E+004   -4.12014E+005   -3.45220E+004   -4.12014E+005    4.78807E+005    1.26581E+005   -4.09356E+005   -3.49705E+004   -6.56766E+004   -2.79096E+005    9.69660E+003   -1.04931E+004    2.13974E+005
              78    4.66728E+005    1.08323E+005   -3.97603E+005    1.61846E+004   -3.97603E+005    5.05926E+005    9.10318E+004   -4.45572E+005    1.66252E+004   -3.52913E+004   -2.54429E+005    7.19518E+003    8.14535E+002    2.27731E+005
              79    4.51724E+005    1.19601E+005   -3.84165E+005   -1.51538E+004   -3.84165E+005    5.03766E+005    9.32390E+004   -4.02636E+005   -1.50770E+004   -2.70321E+004   -2.37608E+005    9.03801E+003   -3.51095E+003    2.28597E+005
              80    4.46009E+005    1.24134E+005   -3.69105E+005    5.81309E+003   -3.69105E+005    4.93239E+005    7.97193E+004   -4.08400E+005    6.10094E+003   -1.67850E+004   -2.28474E+005    8.03111E+003   -6.69333E+002    2.22522E+005
              81    4.23930E+005    1.24333E+005   -3.49967E+005   -7.95608E+003   -3.49967E+005    4.74300E+005    7.78636E+004   -3.73068E+005   -7.81532E+003   -1.45584E+004   -2.11217E+005    7.66725E+003   -1.69739E+003    2.15627E+005
              82    4.09848E+005    1.21755E+005   -3.34440E+005    2.69675E+003   -3.34440E+005    4.56196E+005    6.99961E+004   -3.67818E+005    2.90088E+003   -1.26182E+004   -2.00271E+005    7.01924E+003   -6.28158E+002    2.07734E+005
              83    3.89292E+005    1.21391E+005   -3.15249E+005   -4.42186E+003   -3.15249E+005    4.36640E+005    6.60931E+004   -3.38806E+005   -4.31118E+003   -1.39864E+004   -1.79982E+005    6.38687E+003   -1.10632E+003    2.01799E+005
              84    4.58445E+005   -5.40444E+002   -4.80210E+005   -4.64425E+004   -4.80210E+005    4.79669E+005    1.75731E+005   -4.53232E+005   -4.68317E+004   -9.83503E+004   -3.82011E+005    1.16527E+004   -1.41760E+004    1.92726E+005
              85    4.94212E+005    5.75300E+004   -4.50914E+005    2.77160E+004   -4.50914E+005    5.08444E+005    1.21889E+005   -4.92183E+005    2.98417E+004   -5.08757E+004   -3.44634E+005    7.93719E+003    1.38940E+003    2.06180E+005
              86    4.64399E+005    6.37947E+004   -4.35803E+005   -1.72804E+004   -4.35803E+005    4.99598E+005    1.29763E+005   -4.48060E+005   -1.69924E+004   -4.38468E+004   -3.28450E+005    9.71538E+003   -5.11255E+003    2.04892E+005
              87    4.60212E+005    8.06596E+004   -4.08976E+005    1.46923E+004   -4.08976E+005    4.89636E+005    1.04541E+005   -4.49390E+005    1.53122E+004   -2.51779E+004   -3.03759E+005    7.58109E+003   -3.79872E+002    2.00911E+005
              88    4.32548E+005    7.73206E+004   -3.91550E+005   -8.05690E+003   -3.91550E+005    4.68870E+005    1.07429E+005   -4.12947E+005   -7.75604E+003   -2.51944E+004   -2.89336E+005    7.77465E+003   -2.42708E+003    1.93406E+005
              89    4.15658E+005    8.26491E+004   -3.64988E+005    8.79019E+003   -3.64988E+005    4.47637E+005    9.11828E+004   -4.00494E+005    9.14088E+003   -1.91264E+004   -2.63563E+005    6.39670E+003   -6.36681E+002    1.87252E+005
              90    3.92784E+005    7.93195E+004   -3.48619E+005   -4.53046E+003   -3.48619E+005    4.27938E+005    9.12765E+004   -3.71838E+005   -4.32274E+003   -2.35524E+004   -2.45954E+005    6.26845E+003   -1.55465E+003    1.82615E+005
              91    4.75512E+005   -4.48478E+004   -5.29385E+005   -6.34443E+004   -5.29385E+005    4.84537E+005    2.12559E+005   -4.74692E+005   -6.09363E+004   -1.19350E+005   -4.57391E+005    1.34138E+004   -1.39037E+004    1.70843E+005
              92    5.19523E+005    3.11972E+004   -5.02472E+005    1.64294E+003   -5.02472E+005    5.33669E+005    1.56544E+005   -5.17626E+005    2.75103E+004   -7.05117E+004   -4.26630E+005    1.10947E+004   -1.38092E+003    1.80917E+005
              93    4.72828E+005    1.91439E+004   -4.76021E+005   -2.92521E+004   -4.76021E+005    4.95165E+005    1.62043E+005   -4.67207E+005   -2.81180E+004   -5.86639E+004   -3.99348E+005    1.12069E+004   -5.91721E+003    1.78587E+005
              94    4.74597E+005    3.59900E+004   -4.52961E+005    5.84360E+003   -4.52961E+005    4.88951E+005    1.37043E+005   -4.72435E+005    8.71115E+003   -3.95146E+004   -3.80324E+005    1.04595E+004   -1.82378E+003    1.73197E+005
              95    4.35927E+005    3.64074E+004   -4.23568E+005   -1.65243E+004   -4.23568E+005    4.59976E+005    1.34562E+005   -4.28607E+005   -1.55969E+004   -3.68114E+004   -3.51277E+005    9.29538E+003   -3.06725E+003    1.67068E+005
              96    4.26089E+005    4.17418E+004   -4.02514E+005    2.72454E+003   -4.02514E+005    4.44256E+005    1.19349E+005   -4.22042E+005    3.98921E+003   -3.08069E+004   -3.31230E+005    8.25252E+003   -1.29579E+003    1.62711E+005
              97    3.92710E+005    4.09142E+004   -3.74516E+005   -9.36872E+003   -3.74516E+005    4.15430E+005    1.14323E+005   -3.85368E+005   -8.79122E+003   -3.30024E+004   -3.01176E+005    7.10231E+003   -1.93204E+003    1.58180E+005
              98    4.89152E+005   -6.11073E+004   -5.63079E+005   -8.78450E+004   -5.63079E+005    5.01972E+005    2.37344E+005   -4.87503E+005   -6.25129E+004   -1.38438E+005   -5.11081E+005    9.84460E+003   -1.37542E+004    1.47751E+005
              99    5.47571E+005    5.37758E+004   -5.31093E+005   -3.06189E+004   -5.31093E+005    5.84868E+005    1.69312E+005   -5.32643E+005    5.30526E+004   -8.29612E+004   -4.78027E+005    7.02833E+003    3.45438E+003    1.54206E+005
             100    4.91918E+005   -1.03327E+004   -5.11939E+005   -3.03195E+004   -5.11939E+005    5.01606E+005    1.84197E+005   -4.91003E+005   -1.46864E+004   -7.70867E+004   -4.60818E+005    1.01215E+004   -4.32072E+003    1.48919E+005
             101    4.89334E+005    2.68287E+004   -4.78639E+005   -7.21577E+003   -4.78639E+005    5.05468E+005    1.53009E+005   -4.86659E+005    2.52864E+004   -5.40357E+004   -4.30277E+005    7.51453E+003   -2.17554E+002    1.43277E+005
             102    4.54123E+005    2.04412E+003   -4.58492E+005   -1.10668E+004   -4.58492E+005    4.60536E+005    1.55838E+005   -4.53697E+005   -4.17958E+003   -5.19016E+004   -4.11434E+005    7.69767E+003   -2.30798E+003    1.38246E+005
             103    4.33808E+005    1.66957E+004   -4.24734E+005    1.02726E+003   -4.24734E+005    4.41430E+005    1.35670E+005   -4.33170E+005    1.45329E+004   -4.28818E+004   -3.78662E+005    5.97178E+003   -7.73725E+002    1.32611E+005
             104    4.04799E+005    5.48663E+003   -4.04440E+005   -4.97185E+003   -4.04440E+005    4.09926E+005    1.34642E+005   -4.04494E+005   -2.00252E+003   -4.61384E+004   -3.55784E+005    5.65282E+003   -1.66010E+003    1.31988E+005
             105    5.17807E+005   -2.23762E+004   -5.73598E+005   -9.73883E+004   -5.73598E+005    5.51222E+005    2.31121E+005   -5.05366E+005   -2.25554E+004   -1.32220E+005   -5.38587E+005   -3.61476E+003    8.84059E+003    1.23997E+005
             106    5.26326E+005   -2.33085E+003   -5.63510E+005   -8.08621E+004   -5.63510E+005    5.61179E+005    2.15568E+005   -5.12897E+005   -5.39214E+003   -1.10060E+005   -5.31251E+005    1.53422E+004    1.34177E+003    1.20921E+005
             107    4.95924E+005   -2.11399E+004   -5.38609E+005   -6.74837E+004   -5.38609E+005    5.17469E+005    2.09078E+005   -4.91017E+005   -2.50119E+004   -9.53482E+004   -5.06873E+005    1.40313E+004   -3.37200E+003    1.18422E+005
             108    4.89204E+005   -9.03689E+003   -5.20678E+005   -5.75215E+004   -5.20678E+005    5.11641E+005    1.95745E+005   -4.83754E+005   -1.41046E+004   -7.98989E+004   -4.93233E+005    1.59014E+004   -2.93799E+003    1.09799E+005
             109    4.54361E+005   -1.27320E+004   -4.84822E+005   -5.05560E+004   -4.84822E+005    4.72090E+005    1.82703E+005   -4.50798E+005   -1.71259E+004   -7.18027E+004   -4.59182E+005    1.31561E+004   -3.08260E+003    1.02734E+005
             110    4.38929E+005   -5.75309E+003   -4.61905E+005   -4.25095E+004   -4.61905E+005    4.56151E+005    1.70056E+005   -4.35446E+005   -9.29511E+003   -6.53907E+004   -4.35481E+005    1.16478E+004   -2.01550E+003    1.02250E+005
             111    4.07679E+005   -7.33120E+003   -4.28221E+005   -3.51805E+004   -4.28221E+005    4.20890E+005    1.56911E+005   -4.05531E+005   -1.00281E+004   -5.98405E+004   -4.00864E+005    8.92301E+003   -1.60872E+003    1.00316E+005
             112    4.31097E+005    2.31580E+004   -4.43177E+005   -5.92002E+004   -4.43177E+005    4.66335E+005    1.59740E+005   -4.12837E+005    2.28280E+004   -6.99285E+004   -4.32119E+005   -5.34865E+003    6.72390E+003    6.38808E+004
             113    4.56298E+005    3.33785E+004   -4.64873E+005   -6.73665E+004   -4.64873E+005    4.98252E+005    1.66287E+005   -4.30194E+005    3.27946E+004   -7.56372E+004   -4.56019E+005   -7.21694E+003    1.08029E+004    5.77604E+004
             114    4.89041E+005    4.40726E+004   -4.93766E+005   -7.58246E+004   -4.93766E+005    5.37839E+005    1.75173E+005   -4.54172E+005    4.31877E+004   -8.46199E+004   -4.84086E+005   -8.78398E+003    1.61028E+004    6.10696E+004
             115    5.15219E+005    6.47745E+004   -5.07301E+005   -7.98477E+004   -5.07301E+005    5.72075E+005    1.74125E+005   -4.66168E+005    6.29824E+004   -8.90017E+004   -4.96355E+005   -1.38098E+004    2.29359E+004    6.41713E+004
             116    5.56785E+005    8.67681E+004   -5.35299E+005   -8.36109E+004   -5.35299E+005    6.22067E+005    1.77381E+005   -4.92806E+005    8.39730E+004   -9.70050E+004   -5.19110E+005   -1.70325E+004    3.36532E+004    7.83676E+004
             117    5.86300E+005    1.29794E+005   -5.34893E+005   -9.12350E+004   -5.34893E+005    6.64688E+005    1.65445E+005   -4.78088E+005    1.24135E+005   -1.10354E+005   -5.10115E+005   -2.90560E+004    4.72394E+004    9.30711E+004
             118    6.29825E+005    1.81938E+005   -5.39880E+005   -1.02072E+005   -5.39880E+005    7.21818E+005    1.53338E+005   -4.47630E+005    1.72842E+005   -1.23863E+005   -5.08992E+005   -3.34281E+004    7.04842E+004    9.62550E+004
             119    3.06594E+005    2.80887E+005    2.80887E+005    6.69462E+003   -5.01522E+004    3.31039E+005   -7.91432E+004    2.94385E+005    6.54506E+003    6.23720E+004    1.68512E+005    2.35768E+003   -1.70913E+003    1.56702E+005
             120    3.24116E+005    2.83846E+005    2.83846E+005    1.15299E+004   -7.46504E+004    3.58496E+005   -7.35752E+004    2.96653E+005    1.12583E+004    6.67897E+004    1.42678E+005    3.65829E+003   -3.15966E+003    1.75047E+005
             121    3.48441E+005    2.81095E+005    2.81095E+005    1.25368E+004   -1.12642E+005    3.93737E+005   -6.03300E+004    2.90984E+005    1.22271E+004    5.56399E+004    1.13123E+005    4.95262E+003   -3.78675E+003    1.94602E+005
             122    3.66628E+005    2.73218E+005    2.73218E+005    1.18499E+004   -1.45877E+005    4.19095E+005   -4.63970E+004    2.72971E+005    1.15648E+004    4.29374E+004    8.46888E+004    6.31066E+003   -3.23332E+003    2.08349E+005
             123    3.64237E+005    2.70007E+005    2.70007E+005   -4.90313E+003   -1.43105E+005    4.13112E+005   -4.06660E+004    2.95975E+005   -4.83823E+003    3.56190E+004    9.12173E+004    2.61549E+003    3.33917E+003    2.04644E+005
             124    3.55947E+005    2.69089E+005    2.69089E+005    2.31700E+003   -1.35078E+005    4.04168E+005   -4.54427E+004    2.86453E+005    2.33103E+003    3.20359E+004    1.01961E+005    3.78671E+003    1.32375E+003    1.98998E+005
             125    3.57132E+005    2.72281E+005    2.72281E+005   -2.65195E+003   -1.31366E+005    4.03647E+005   -4.60878E+004    2.97802E+005   -2.64199E+003    2.82032E+004    1.12702E+005    3.78036E+003    1.38061E+003    1.97312E+005
             126    3.54822E+005    2.73615E+005    2.73615E+005    1.35725E+003   -1.27665E+005    4.01280E+005   -4.91026E+004    2.94647E+005    1.34374E+003    2.43916E+004    1.21572E+005    4.26033E+003    1.04498E+003    1.94616E+005
             127    3.61827E+005    2.82249E+005    2.82249E+005   -3.12178E+003   -1.24712E+005    4.06961E+005   -5.14719E+004    3.10607E+005   -3.16480E+003    2.25540E+004    1.35026E+005    4.51464E+003    7.58598E+002    1.95493E+005
             128    3.64905E+005    2.87812E+005    2.87812E+005    1.87268E+003   -1.23178E+005    4.10990E+005   -5.55024E+004    3.10905E+005    1.82393E+003    1.79895E+004    1.46694E+005    4.96802E+003    9.53074E+002    1.95083E+005
             129    3.80892E+005    3.03192E+005    3.03192E+005   -4.53886E+003   -1.22804E+005    4.25996E+005   -5.86165E+004    3.35697E+005   -4.63539E+003    1.68562E+004    1.63629E+005    5.27771E+003    5.60510E+002    1.99863E+005
             130    3.45019E+005    2.77412E+005    2.77412E+005   -4.83780E+003   -1.07208E+005    3.84620E+005   -5.51221E+004    3.07967E+005   -4.76637E+003    4.68170E+004    1.23316E+005    2.69828E+003    3.60781E+003    1.88431E+005
             131    3.45469E+005    2.83695E+005    2.83695E+005    3.03763E+003   -1.02137E+005    3.85833E+005   -6.15320E+004    3.06217E+005    3.05331E+003    4.31322E+004    1.38411E+005    3.86014E+003    1.80972E+003    1.86897E+005
             132    3.45591E+005    2.86809E+005    2.86809E+005   -2.39961E+003   -9.59179E+004    3.82727E+005   -6.28304E+004    3.15185E+005   -2.39415E+003    3.81856E+004    1.52700E+005    3.98404E+003    1.89406E+003    1.82545E+005
             133    3.47667E+005    2.96769E+005    2.96769E+005    4.03546E+003   -8.75103E+004    3.84280E+005   -7.10982E+004    3.18815E+005    3.99220E+003    3.82002E+004    1.71102E+005    4.76460E+003    1.58429E+003    1.80201E+005
             134    3.53499E+005    3.03310E+005    3.03310E+005   -2.15225E+003   -8.39017E+004    3.87211E+005   -7.24186E+004    3.31214E+005   -2.26570E+003    3.10780E+004    1.88444E+005    5.02950E+003    1.14589E+003    1.76785E+005
             135    3.62714E+005    3.19966E+005    3.19966E+005    6.13936E+003   -7.71467E+004    3.97113E+005   -8.29862E+004    3.40187E+005    5.99234E+003    3.22398E+004    2.10727E+005    5.79692E+003    1.50975E+003    1.77221E+005
             136    3.77439E+005    3.31505E+005    3.31505E+005   -3.00725E+003   -7.76947E+004    4.09199E+005   -8.36009E+004    3.60246E+005   -3.29209E+003    2.32765E+004    2.30818E+005    6.18734E+003    8.65924E+002    1.76115E+005
             137    3.31668E+005    2.84625E+005    2.84625E+005   -4.59888E+003   -7.73939E+004    3.62019E+005   -6.75441E+004    3.12928E+005   -4.55819E+003    5.26157E+004    1.54575E+005    2.88217E+003    2.54734E+003    1.73652E+005
             138    3.32723E+005    2.92387E+005    2.92387E+005    1.60521E+003   -7.04643E+004    3.62851E+005   -7.45092E+004    3.14433E+005    1.59991E+003    5.22306E+004    1.69697E+005    3.46592E+003    1.73191E+003    1.71610E+005
             139    3.36427E+005    3.01517E+005    3.01517E+005   -3.94778E+003   -5.90648E+004    3.60582E+005   -7.95014E+004    3.26036E+005   -4.00646E+003    5.19689E+004    1.90542E+005    3.43215E+003    1.21463E+003    1.66384E+005
             140    3.36061E+005    3.09383E+005    3.09383E+005    3.31521E+002   -4.83728E+004    3.57756E+005   -8.71139E+004    3.27980E+005    2.61526E+002    4.87628E+004    2.12317E+005    3.44200E+003    1.42351E+003    1.59018E+005
             141    3.48094E+005    3.25042E+005    3.25042E+005   -5.64785E+003   -3.81718E+004    3.63214E+005   -9.37408E+004    3.44650E+005   -5.88008E+003    4.73043E+004    2.39798E+005    3.79726E+003    9.48948E+002    1.53843E+005
             142    3.57713E+005    3.40296E+005    3.40296E+005    1.02482E+003   -3.33737E+004    3.73669E+005   -1.02649E+005    3.53963E+005    7.76046E+002    4.07708E+004    2.66400E+005    4.11778E+003    1.38468E+003    1.48739E+005
             143    3.83726E+005    3.64615E+005    3.64615E+005   -7.42735E+003   -2.98135E+004    3.94429E+005   -1.09125E+005    3.82253E+005   -8.08472E+003    3.93956E+004    2.96064E+005    4.66504E+003    9.61593E+002    1.49285E+005
             144    3.25381E+005    2.92889E+005    2.92889E+005   -1.80558E+003   -5.62964E+004    3.49186E+005   -7.82625E+004    3.14869E+005   -1.78705E+003    5.71444E+004    1.79430E+005    3.07296E+003    2.31289E+003    1.63498E+005
             145    3.21635E+005    3.00218E+005    3.00218E+005    3.43016E+003   -4.15322E+004    3.41750E+005   -8.73720E+004    3.14448E+005    3.37651E+003    6.32067E+004    1.95533E+005    3.87354E+003    1.96698E+003    1.57465E+005
             146    3.20447E+005    3.08140E+005    3.08140E+005    5.61949E+002   -2.37884E+004    3.31928E+005   -9.49710E+004    3.18356E+005    2.99495E+002    6.46469E+004    2.19967E+005    4.33163E+003    1.89690E+003    1.46470E+005
             147    3.21361E+005    3.23884E+005    3.23884E+005    8.31423E+003   -2.96981E+003    3.26854E+005   -1.09743E+005    3.20915E+005    6.51279E+003    6.84008E+004    2.54315E+005    5.53037E+003    1.56691E+003    1.33258E+005
             148    3.38363E+005    3.42166E+005    3.42166E+005    9.56970E+003   -1.68306E+003    3.43849E+005   -1.16684E+005    3.37942E+005    1.73172E+003    5.96575E+004    2.88663E+005    6.08323E+003    1.05020E+003    1.22897E+005
             149    3.56474E+005    3.68527E+005    3.68527E+005    1.91750E+004    5.33384E+003    3.63193E+005   -1.31012E+005    3.55869E+005    9.25544E+003    6.03557E+004    3.23424E+005    7.18769E+003    1.38952E+003    1.17833E+005
             150    3.85187E+005    3.92873E+005    3.92873E+005    1.76253E+004   -1.53837E+003    3.94411E+005   -1.36320E+005    3.84112E+005    1.62982E+003    5.16853E+004    3.55644E+005    7.81902E+003    1.06328E+003    1.12651E+005
             151    3.99740E+005    4.13497E+005    4.13497E+005    5.09311E+004   -1.51767E+004    4.28673E+005   -1.49750E+005    3.87155E+005   -1.50139E+004    6.59852E+004    3.98280E+005   -3.62098E+003   -2.59341E+003    7.26561E+004
             152    3.72554E+005    3.83672E+005    3.83672E+005    4.38971E+004   -1.47133E+004    3.98385E+005   -1.37619E+005    3.61963E+005   -1.45411E+004    6.30242E+004    3.64372E+005   -3.33800E+003   -4.35173E+002    7.86577E+004
             153    3.45529E+005    3.57363E+005    3.57363E+005    4.44810E+004   -1.34820E+004    3.70845E+005   -1.29454E+005    3.34328E+005   -1.31539E+004    7.25142E+004    3.29002E+005   -4.25860E+003    9.45313E+002    8.98807E+004
             154    3.24312E+005    3.31808E+005    3.31808E+005    3.21026E+004   -1.24945E+004    3.44303E+005   -1.17139E+005    3.17303E+005   -1.21500E+004    7.37879E+004    2.89778E+005   -3.84187E+003    8.96901E+002    1.04136E+005
             155    3.11502E+005    3.13876E+005    3.13876E+005    1.58608E+004   -9.55524E+003    3.23431E+005   -1.06727E+005    3.09156E+005   -9.04338E+003    7.77129E+004    2.51512E+005   -4.08475E+003   -2.37981E+002    1.21343E+005
             156    3.11930E+005    2.99680E+005    2.99680E+005   -6.02934E+003   -1.81189E+004    3.17799E+005   -9.18438E+004    3.11402E+005   -6.17485E+003    6.60393E+004    2.15667E+005   -2.48394E+003   -1.40903E+003    1.40080E+005
             157    3.08751E+005    2.86257E+005    2.86257E+005   -1.94660E+003   -3.95905E+004    3.25847E+005   -8.15732E+004    3.03524E+005   -2.04316E+003    5.56234E+004    1.91139E+005    5.60568E+002   -2.93595E+003    1.48094E+005
             158    3.86433E+005   -3.18656E+003   -4.02397E+005   -3.01554E+004   -4.02397E+005    3.99211E+005    1.45246E+005   -3.84307E+005   -5.24579E+003   -5.96678E+004   -3.70826E+005    7.70183E+003   -8.44559E+002    1.03980E+005
             159    3.82693E+005    1.26065E+004   -3.73999E+005    4.65894E+003   -3.73999E+005    3.86605E+005    1.18911E+005   -3.82508E+005    8.82867E+003   -4.35823E+004   -3.21980E+005    4.61712E+003   -8.77394E+002    1.31079E+005
             160    3.79904E+005    4.42994E+004   -3.55004E+005    1.95262E+003   -3.55004E+005    3.99303E+005    1.02917E+005   -3.74539E+005    2.54794E+003   -3.42406E+004   -2.77059E+005    6.22274E+003   -1.00499E+003    1.58072E+005
             161    3.76661E+005    8.40993E+004   -3.25655E+005    5.51163E+003   -3.25655E+005    4.09755E+005    7.86815E+004   -3.57510E+005    5.69815E+003   -2.28309E+004   -2.18912E+005    5.31584E+003   -7.95134E+002    1.79751E+005
             162    3.77371E+005    1.20597E+005   -3.01933E+005    1.58221E+003   -3.01933E+005    4.22529E+005    5.99180E+004   -3.31021E+005    1.69974E+003   -1.61175E+004   -1.65336E+005    5.84308E+003   -6.35489E+002    1.97537E+005
             163    3.77757E+005    1.61154E+005   -2.70095E+005    2.26245E+003   -2.70095E+005    4.31249E+005    3.55594E+004   -2.86664E+005    2.31188E+003   -7.89363E+003   -1.01096E+005    5.35833E+003   -3.68695E+002    2.10453E+005
             164    3.77338E+005    1.94874E+005   -2.40105E+005   -7.46181E+002   -2.40105E+005    4.34979E+005    1.53257E+004   -2.10292E+005   -7.29340E+002   -3.94374E+003   -4.13042E+004    5.66448E+003   -2.09254E+002    2.16611E+005
             165    3.80212E+005    2.34761E+005    2.34761E+005   -1.40593E+003   -2.03838E+005    4.38598E+005   -9.83913E+003    1.93952E+005   -1.42066E+003    3.46690E+003    2.74712E+004    5.32413E+003    4.92188E+001    2.18905E+005
             166    3.77201E+005    2.64900E+005    2.64900E+005   -2.94765E+003   -1.66468E+005    4.31369E+005   -3.18282E+004    2.78915E+005   -3.00388E+003    6.66011E+003    9.18283E+004    5.71924E+003    2.64738E+002    2.11354E+005
             167    3.55633E+005   -4.94032E+003   -3.70075E+005   -2.47742E+004   -3.70075E+005    3.65134E+005    1.33263E+005   -3.54385E+005   -6.74982E+003   -6.03858E+004   -3.32654E+005    6.28358E+003   -7.76565E+002    1.07617E+005
             168    3.58276E+005    1.25871E+004   -3.52612E+005   -1.68501E+003   -3.52612E+005    3.65199E+005    1.13903E+005   -3.57636E+005   -8.81537E+002   -4.98350E+004   -2.90993E+005    4.30633E+003   -1.42222E+003    1.36554E+005
             169    3.55475E+005    4.94087E+004   -3.30397E+005   -5.68725E+003   -3.30397E+005    3.79806E+005    9.55585E+004   -3.45672E+005   -5.42537E+003   -3.77433E+004   -2.43507E+005    5.50787E+003   -1.49683E+003    1.59407E+005
             170    3.62036E+005    8.66022E+004   -3.11723E+005   -2.68450E+003   -3.11723E+005    3.98326E+005    7.59353E+004   -3.35898E+005   -2.58466E+003   -2.86056E+004   -1.96616E+005    5.09006E+003   -1.26046E+003    1.80473E+005
             171    3.64577E+005    1.25659E+005   -2.85714E+005   -2.59490E+003   -2.85714E+005    4.11373E+005    5.42164E+004   -3.07299E+005   -2.54073E+003   -1.81560E+004   -1.41952E+005    5.29342E+003   -9.41161E+002    1.96068E+005
             172    3.68224E+005    1.59838E+005   -2.61495E+005   -1.34788E+003   -2.61495E+005    4.21333E+005    3.43348E+004   -2.69814E+005   -1.32185E+003   -1.14865E+004   -9.01960E+004    5.12020E+003   -5.86146E+002    2.06890E+005
             173    3.71251E+005    1.97387E+005   -2.30835E+005    5.11232E+002   -2.30835E+005    4.28221E+005    1.09790E+004   -1.92254E+005    5.23811E+002   -2.46404E+003   -3.09968E+004    5.23170E+003   -1.29729E+002    2.13570E+005
             174    3.69806E+005    2.27102E+005    2.27102E+005    6.64617E+002   -1.99647E+005    4.26749E+005   -9.37338E+003    1.74903E+005    6.60654E+002    2.51531E+003    2.49442E+004    5.06539E+003    2.05472E+002    2.13019E+005
             175    3.70825E+005    2.62492E+005    2.62492E+005    3.58144E+003   -1.62319E+005    4.24811E+005   -3.45846E+004    2.65818E+005    3.56245E+003    1.23545E+004    8.78369E+004    5.38930E+003    7.26647E+002    2.08953E+005
             176    3.35935E+005   -2.22480E+003   -3.45949E+005   -1.83868E+004   -3.45949E+005    3.43724E+005    1.22187E+005   -3.35058E+005   -4.16060E+003   -6.62231E+004   -2.96177E+005    6.00674E+003   -8.22607E+002    1.17955E+005
             177    3.41959E+005    2.26497E+004   -3.27338E+005    5.98201E+003   -3.27338E+005    3.49988E+005    9.95689E+004   -3.41043E+005    6.42202E+003   -5.08181E+004   -2.54311E+005    3.59811E+003   -1.02999E+003    1.42080E+005
             178    3.48862E+005    5.87208E+004   -3.15269E+005    1.35448E+003   -3.15269E+005    3.73990E+005    8.50645E+004   -3.38005E+005    1.54970E+003   -4.10489E+004   -2.15694E+005    4.99302E+003   -1.17528E+003    1.65197E+005
             179    3.54106E+005    9.69530E+004   -2.94342E+005    4.05286E+003   -2.94342E+005    3.91295E+005    6.44455E+004   -3.24949E+005    4.11668E+003   -2.88767E+004   -1.68576E+005    4.37330E+003   -9.80217E+002    1.82681E+005
             180    3.60470E+005    1.31153E+005   -2.76301E+005    1.07604E+003   -2.76301E+005    4.07454E+005    4.80238E+004   -3.00414E+005    1.11454E+003   -2.07059E+004   -1.24480E+005    4.83631E+003   -8.20803E+002    1.96941E+005
             181    3.64537E+005    1.66944E+005   -2.50948E+005    1.72125E+003   -2.50948E+005    4.17892E+005    2.74277E+004   -2.57614E+005    1.73695E+003   -1.05749E+004   -7.34451E+004    4.56874E+003   -4.86059E+002    2.06515E+005
             182    3.65847E+005    1.96127E+005   -2.25991E+005   -5.65937E+002   -2.25991E+005    4.22117E+005    1.01432E+004   -1.79220E+005   -5.60612E+002   -4.32887E+003   -2.55402E+004    4.80986E+003   -1.68672E+002    2.10737E+005
             183    3.67716E+005    2.28930E+005    2.28930E+005   -8.71330E+002   -1.95178E+005    4.24107E+005   -1.09602E+004    1.92890E+005   -8.77848E+002    5.17407E+003    2.85845E+004    4.60206E+003    1.70987E+002    2.11680E+005
             184    3.63472E+005    2.53247E+005    2.53247E+005   -2.13419E+003   -1.62883E+005    4.16130E+005   -2.94102E+004    2.63664E+005   -2.15460E+003    1.10040E+004    7.93811E+004    4.84252E+003    5.42486E+002    2.05177E+005
             185    3.18664E+005    2.40923E+002   -3.22268E+005   -7.59372E+003   -3.22268E+005    3.22509E+005    1.09874E+005   -3.18447E+005   -5.15628E+003   -6.85339E+004   -2.55931E+005    4.85378E+003   -1.49109E+003    1.29690E+005
             186    3.31534E+005    3.42068E+004   -3.13291E+005   -4.43515E+002   -3.13291E+005    3.47498E+005    9.31760E+004   -3.27423E+005   -3.20989E+002   -5.66149E+004   -2.22592E+005    3.49138E+003   -1.40491E+003    1.52546E+005
             187    3.39698E+005    7.13781E+004   -2.99571E+005   -3.67931E+003   -2.99571E+005    3.70949E+005    7.72908E+004   -3.20234E+005   -3.63036E+003   -4.34641E+004   -1.84778E+005    4.44739E+003   -1.71408E+003    1.71407E+005
             188    3.51051E+005    1.06191E+005   -2.86168E+005   -1.79881E+003   -2.86168E+005    3.92360E+005    6.05919E+004   -3.10243E+005   -1.77804E+003   -3.32189E+004   -1.46779E+005    4.22366E+003   -1.26043E+003    1.87727E+005
             189    3.58170E+005    1.41205E+005   -2.66370E+005   -1.77544E+003   -2.66370E+005    4.07575E+005    4.23136E+004   -2.82322E+005   -1.77028E+003   -2.14296E+004   -1.03741E+005    4.41134E+003   -1.02805E+003    1.99536E+005
             190    3.63395E+005    1.71132E+005   -2.46339E+005   -9.35699E+002   -2.46339E+005    4.17470E+005    2.53808E+004   -2.42890E+005   -9.32507E+002   -1.29984E+004   -6.22117E+004    4.30318E+003   -5.62783E+002    2.07234E+005
             191    3.66618E+005    2.02475E+005   -2.20717E+005    3.49743E+002   -2.20717E+005    4.23192E+005    5.96424E+003   -1.56262E+005    3.51049E+002   -2.17426E+003   -1.60695E+004    4.39970E+003   -1.39517E+002    2.11436E+005
             192    3.64494E+005    2.26910E+005    2.26910E+005    5.83588E+002   -1.93560E+005    4.20471E+005   -1.13113E+004    1.85634E+005    5.82271E+002    5.15592E+003    2.81958E+004    4.32367E+003    2.52697E+002    2.09875E+005
             193    3.63343E+005    2.54455E+005    2.54455E+005    2.45151E+003   -1.62043E+005    4.16499E+005   -3.16211E+004    2.57098E+005    2.44940E+003    1.62708E+004    7.61431E+004    4.54273E+003    7.70174E+002    2.06035E+005
             194    3.18285E+005    1.83690E+004   -3.09586E+005   -1.94254E+003   -3.09586E+005    3.27955E+005    9.77197E+004   -3.16822E+005   -1.63437E+003   -6.96649E+004   -2.21860E+005    4.21772E+003   -1.83861E+003    1.45025E+005
             195    3.30768E+005    5.29131E+004   -2.99412E+005    4.45185E+003   -2.99412E+005    3.52325E+005    8.06824E+004   -3.22636E+005    4.48836E+003   -5.53341E+004   -1.91202E+005    3.01658E+003   -1.38559E+003    1.62489E+005
             196    3.43621E+005    8.61470E+004   -2.91762E+005    1.89990E+003   -2.91762E+005    3.77909E+005    6.79051E+004   -3.19119E+005    1.90050E+003   -4.46440E+004   -1.60972E+005    3.94073E+003   -1.89290E+003    1.79727E+005
             197    3.53413E+005    1.20242E+005   -2.76811E+005    3.33884E+003   -2.76811E+005    3.97053E+005    5.10768E+004   -3.05131E+005    3.32388E+003   -3.21775E+004   -1.24377E+005    3.60689E+003   -1.61083E+003    1.93063E+005
             198    3.61669E+005    1.50270E+005   -2.62061E+005    1.48014E+003   -2.62061E+005    4.12331E+005    3.67703E+004   -2.79179E+005    1.46191E+003   -2.27043E+004   -8.90685E+004    3.85865E+003   -1.34168E+003    2.03439E+005
             199    3.67048E+005    1.80788E+005   -2.41447E+005    1.48576E+003   -2.41447E+005    4.22236E+005    1.97244E+004   -2.33495E+005    1.47482E+003   -1.14139E+004   -4.92342E+004    3.77720E+003   -7.60259E+002    2.10235E+005
             200    3.68448E+005    2.05595E+005   -2.19780E+005   -3.66691E+002   -2.19780E+005    4.25376E+005    4.85064E+003   -1.39898E+005   -3.67658E+002   -3.08291E+003   -1.11013E+004    3.89483E+003   -1.24729E+002    2.12614E+005
             201    3.68520E+005    2.31761E+005    2.31761E+005   -8.91455E+002   -1.93128E+005    4.24889E+005   -1.25803E+004    2.01653E+005   -8.84223E+002    8.22714E+003    3.03981E+004    3.81130E+003    4.82411E+002    2.12121E+005
             202    3.62574E+005    2.50982E+005    2.50982E+005   -2.15303E+003   -1.64379E+005    4.15361E+005   -2.81498E+004    2.59874E+005   -2.13447E+003    1.64090E+004    7.01747E+004    3.90706E+003    1.17572E+003    2.05895E+005
             203    3.20080E+005    4.12014E+004   -2.98372E+005   -2.21940E+003   -2.98372E+005    3.39573E+005    8.64633E+004   -3.13351E+005   -2.22545E+003   -6.52295E+004   -1.91935E+005    2.73217E+003   -2.04100E+003    1.57490E+005
             204    3.32896E+005    6.89441E+004   -2.93666E+005   -1.88595E+003   -2.93666E+005    3.62611E+005    7.55361E+004   -3.15266E+005   -1.87540E+003   -5.64144E+004   -1.68318E+005    3.26226E+003   -1.48825E+003    1.72415E+005
             205    3.45123E+005    1.00493E+005   -2.84434E+005   -2.62228E+003   -2.84434E+005    3.84927E+005    6.21880E+004   -3.07492E+005   -2.65280E+003   -4.49562E+004   -1.38955E+005    3.53676E+003   -2.10577E+003    1.86599E+005
             206    3.57040E+005    1.30214E+005   -2.74204E+005   -2.62386E+003   -2.74204E+005    4.04418E+005    4.88711E+004   -2.93158E+005   -2.63973E+003   -3.49126E+004   -1.09061E+005    3.65839E+003   -1.41790E+003    1.98745E+005
             207    3.66071E+005    1.60562E+005   -2.58624E+005   -1.91687E+003   -2.58624E+005    4.19187E+005    3.33262E+004   -2.64586E+005   -1.93388E+003   -2.33602E+004   -7.46845E+004    3.71260E+003   -1.12618E+003    2.07982E+005
             208    3.72279E+005    1.87076E+005   -2.41743E+005   -1.29914E+003   -2.41743E+005    4.28818E+005    1.86553E+004   -2.20726E+005   -1.30604E+003   -1.34322E+004   -4.12276E+004    3.68112E+003   -5.44034E+002    2.13926E+005
             209    3.75420E+005    2.13586E+005   -2.19894E+005    2.84501E+002   -2.19894E+005    4.33480E+005    2.00776E+003   -1.13280E+005    2.82587E+002   -1.03472E+003   -5.27114E+003    3.70163E+003   -1.03476E+002    2.16698E+005
             210    3.72539E+005    2.34084E+005    2.34084E+005    9.92979E+002   -1.95570E+005    4.29654E+005   -1.31689E+004    1.96436E+005    9.96541E+002    9.03607E+003    2.94740E+004    3.72473E+003    3.49903E+002    2.14551E+005
             211    3.68227E+005    2.55197E+005    2.55197E+005    2.39300E+003   -1.67278E+005    4.22475E+005   -3.01039E+004    2.55202E+005    2.40406E+003    2.17101E+004    6.61976E+004    3.75113E+003    8.80232E+002    2.10029E+005
             212    3.25741E+005    5.81146E+004   -2.91985E+005    2.14459E+003   -2.91985E+005    3.50099E+005    7.72418E+004   -3.14649E+005    2.15747E+003   -6.07186E+004   -1.73164E+005    2.35102E+003   -1.06245E+003    1.65750E+005
             213    3.37601E+005    8.40286E+004   -2.86334E+005    4.19694E+003   -2.86334E+005    3.70362E+005    6.60361E+004   -3.15298E+005    4.16076E+003   -5.22537E+004   -1.50015E+005    2.34447E+003   -2.40349E+003    1.78592E+005
             214    3.49297E+005    1.10745E+005   -2.79313E+005    4.59791E+003   -2.79313E+005    3.90058E+005    5.46565E+004   -3.09769E+005    4.53669E+003   -4.42441E+004   -1.24262E+005    2.63222E+003   -3.23274E+003    1.90850E+005
             215    3.62384E+005    1.40971E+005   -2.69735E+005    4.99215E+003   -2.69735E+005    4.10706E+005    4.12573E+004   -2.96233E+005    4.92443E+003   -3.54242E+004   -9.32720E+004    2.69767E+003   -3.37916E+003    2.03271E+005
             216    3.74938E+005    1.70139E+005   -2.59207E+005    3.68839E+003   -2.59207E+005    4.29346E+005    2.84599E+004   -2.70937E+005    3.63121E+003   -2.49945E+004   -6.40163E+004    2.78072E+003   -2.72361E+003    2.13755E+005
             217    3.82170E+005    1.97644E+005   -2.42717E+005    2.25635E+003   -2.42717E+005    4.40362E+005    1.42722E+004   -2.21058E+005    2.22170E+003   -1.20641E+004   -3.29743E+004    2.89605E+003   -1.56112E+003    2.19910E+005
             218    3.83646E+005    2.19571E+005   -2.23421E+005   -2.32109E+002   -2.23421E+005    4.42992E+005    1.36085E+003   -9.07582E+004   -2.31712E+002   -1.21672E+003   -2.63412E+003    2.88813E+003   -4.35562E-001    2.21476E+005
             219    3.82719E+005    2.40728E+005    2.40728E+005   -2.19951E+003   -2.00443E+005    4.41172E+005   -1.26952E+004    2.13800E+005   -2.16472E+003    1.12454E+004    2.90048E+004    2.81257E+003    1.57732E+003    2.20385E+005
             220    3.75121E+005    2.56025E+005    2.56025E+005   -4.16269E+003   -1.73973E+005    4.29998E+005   -2.59632E+004    2.65463E+005   -4.10253E+003    2.24393E+004    5.95530E+004    2.80199E+003    2.80543E+003    2.14166E+005
             221    3.81467E+005    2.62633E+005    2.62633E+005    9.65213E+003   -1.76136E+005    4.38769E+005   -3.20498E+004    2.43934E+005    9.46045E+003    3.02031E+004    5.64859E+004    6.59954E+003   -2.36855E+003    2.18863E+005
             222    3.89334E+005    2.46288E+005    2.46288E+005    5.00359E+003   -2.02861E+005    4.49149E+005   -1.61436E+004    1.96437E+005    4.91048E+003    1.52609E+004    2.82593E+004    6.67573E+003   -1.20636E+003    2.24375E+005
             223    3.92221E+005    2.26560E+005    2.26560E+005    2.86358E+002   -2.26338E+005    4.52898E+005   -1.69435E+002   -4.32571E+004    2.88107E+002   -2.71136E+001    2.47312E+002    6.64400E+003    2.92327E+001    2.26351E+005
             224    3.89249E+005    2.01861E+005   -2.47163E+005   -5.36792E+003   -2.47163E+005    4.49023E+005    1.68901E+004   -1.98618E+005   -5.27224E+003   -1.63342E+004   -2.90637E+004    6.70827E+003    1.23147E+003    2.24314E+005
             225    3.80672E+005    1.75863E+005   -2.61981E+005   -9.43353E+003   -2.61981E+005    4.37844E+005    3.18505E+004   -2.43659E+005   -9.22357E+003   -3.01590E+004   -5.61690E+004    6.83288E+003    2.51248E+003    2.18398E+005
             226    3.66653E+005    1.45804E+005   -2.73452E+005   -1.28055E+004   -2.73452E+005    4.19256E+005    4.68178E+004   -2.71644E+005   -1.25033E+004   -4.36372E+004   -8.43128E+004    6.35066E+003    3.47815E+003    2.08476E+005
             227    3.46065E+005    1.13500E+005   -2.78087E+005   -1.33310E+004   -2.78087E+005    3.91586E+005    5.93060E+004   -2.86291E+005   -1.29853E+004   -5.36331E+004   -1.11300E+005    5.40743E+003    3.87431E+003    1.93482E+005
             228    3.28322E+005    8.56859E+004   -2.80660E+005   -1.29999E+004   -2.80660E+005    3.66346E+005    6.93247E+004   -2.92049E+005   -1.26753E+004   -5.49910E+004   -1.40308E+005    4.08263E+003    3.96621E+003    1.77968E+005
             229    3.21910E+005    6.65606E+004   -2.87353E+005   -1.19863E+004   -2.87353E+005    3.53914E+005    7.75930E+004   -2.99188E+005   -1.18141E+004   -5.53328E+004   -1.65632E+005    1.29123E+003    5.23219E+003    1.68007E+005
             230    4.01064E+005    1.92865E+004   -4.11894E+005   -4.99658E+004   -4.11894E+005    4.31180E+005    1.47524E+005   -3.87268E+005    1.90325E+004   -6.28575E+004   -3.98748E+005   -4.55678E+003    3.07700E+003    6.76436E+004
             231    3.72903E+005    1.62239E+004   -3.84786E+005   -4.84501E+004   -3.84786E+005    4.01010E+005    1.39004E+005   -3.59959E+005    1.59179E+004   -6.70308E+004   -3.65899E+005   -4.60517E+003    2.95867E+002    7.74581E+004
             232    3.44155E+005    1.63469E+004   -3.53798E+005   -4.34750E+004   -3.53798E+005    3.70145E+005    1.26975E+005   -3.32155E+005    1.59949E+004   -7.05696E+004   -3.26351E+005   -4.51136E+003   -8.87753E+002    8.81671E+004
             233    3.23776E+005    1.37356E+004   -3.31313E+005   -3.41421E+004   -3.31313E+005    3.45049E+005    1.17240E+005   -3.15664E+005    1.32159E+004   -7.73338E+004   -2.87602E+005   -5.02906E+003   -7.71052E+002    1.05359E+005
             234    3.11890E+005    1.05390E+004   -3.11956E+005   -1.18805E+004   -3.11956E+005    3.22495E+005    1.04433E+005   -3.10070E+005    1.00662E+004   -7.55995E+004   -2.47765E+005   -3.90674E+003    6.55179E+002    1.23154E+005
             235    3.11945E+005    1.48505E+004   -3.02329E+005    4.10317E+003   -3.02329E+005    3.17180E+005    9.44586E+004   -3.11528E+005    4.23987E+003   -7.24575E+004   -2.15158E+005   -2.98177E+003    2.24093E+003    1.41512E+005
             236    3.16220E+005    4.12967E+004   -2.94387E+005   -2.11723E+003   -2.94387E+005    3.35684E+005    8.50693E+004   -3.09409E+005   -2.09363E+003   -6.33218E+004   -1.89792E+005   -7.79552E+002    4.61304E+003    1.55394E+005
             237    3.84141E+005    3.78383E+005    3.78383E+005    2.67383E+003   -1.36675E+004    3.92050E+005   -1.22463E+005    3.83357E+005   -2.61800E+003    1.61304E+004    3.53877E+005    7.27302E+003   -2.41587E+003    9.42185E+004
             238    3.77598E+005    3.52046E+005    3.52046E+005   -2.83970E+003   -4.47647E+004    3.96810E+005   -1.01480E+005    3.72307E+005   -8.36907E+003    1.20308E+004    3.00780E+005    1.53449E+004    6.47983E+001    1.31898E+005
             239    3.75057E+005    3.27661E+005    3.27661E+005   -3.46047E+003   -7.96379E+004    4.07298E+005   -8.15207E+004    3.57024E+005   -5.12804E+003    9.26800E+003    2.40422E+005    1.31840E+004    3.03621E+002    1.66512E+005
             240    3.67346E+005    2.90647E+005    2.90647E+005   -3.67419E+003   -1.21041E+005    4.11688E+005   -5.53104E+004    3.20908E+005   -4.85026E+003    2.92473E+003    1.67857E+005    1.56114E+004    2.92287E+002    1.87676E+005
             241    3.92995E+005    3.90644E+005    3.90644E+005    1.03608E+004   -1.39356E+004    4.04580E+005   -1.29023E+005    3.91300E+005    7.04639E+003    7.50655E+003    3.72516E+005    7.92459E+003   -2.81791E+003    8.33321E+004
             242    3.90804E+005    3.76621E+005    3.76621E+005    1.32857E+004   -3.68204E+004    4.13441E+005   -1.17695E+005    3.83478E+005    8.05160E+003    1.72475E+004    3.27787E+005    1.72847E+004    1.96826E+003    1.32219E+005
             243    3.80067E+005    3.38523E+005    3.38523E+005    7.26133E+003   -7.64063E+004    4.14930E+005   -8.97928E+004    3.58457E+005    5.86946E+003    4.70797E+003    2.58801E+005    1.41957E+004    2.78295E+003    1.62843E+005
             244    3.81078E+005    3.11780E+005    3.11780E+005    8.80436E+003   -1.16067E+005    4.27847E+005   -6.81724E+004    3.30106E+005    7.87651E+003    7.15149E+003    1.89489E+005    1.67943E+004    2.51547E+003    1.92561E+005
             245    4.19712E+005    4.10366E+005    4.10366E+005   -9.60274E+002   -1.72567E+004    4.27623E+005   -1.30716E+005    4.19000E+005   -8.35411E+003    6.18858E+003    3.94315E+005    6.16303E+003   -1.07395E+004    8.00009E+004
             246    4.11002E+005    3.85403E+005    3.85403E+005   -2.14191E+003   -4.56032E+004    4.31006E+005   -1.12552E+005    4.05784E+005   -1.25489E+004    6.21647E+003    3.43990E+005    1.85337E+004   -3.06809E+003    1.25276E+005
             247    4.05893E+005    3.61443E+005    3.61443E+005   -5.49310E+003   -7.45480E+004    4.35991E+005   -9.38007E+004    3.92350E+005   -8.27194E+003    5.37443E+003    2.84300E+005    1.41538E+004   -2.00956E+003    1.65675E+005
             248    3.90148E+005    3.17265E+005    3.17265E+005   -4.87321E+003   -1.16541E+005    4.33806E+005   -6.52835E+004    3.51405E+005   -6.88354E+003    2.73685E+002    2.02460E+005    1.73691E+004   -1.25246E+003    1.90550E+005
             249    4.16432E+005    4.11157E+005    4.11157E+005    4.91616E+003   -1.47685E+004    4.25925E+005   -1.33768E+005    4.15383E+005    4.03807E+003   -1.85859E+003    3.99125E+005    2.66203E+003   -1.36035E+004    6.92367E+004
             250    4.17134E+005    4.10766E+005    4.10766E+005    2.24274E+004   -3.01734E+004    4.40940E+005   -1.34340E+005    4.09573E+005    1.54782E+004    1.80136E+004    3.69529E+005    1.89001E+004    2.22642E+002    1.27107E+005
             251    3.99582E+005    3.67540E+005    3.67540E+005    1.22130E+004   -6.50212E+004    4.32561E+005   -1.04911E+005    3.82244E+005    1.04199E+004    6.84855E+003    2.97463E+005    1.48804E+004    3.22123E+003    1.58681E+005
             252    4.00180E+005    3.42712E+005    3.42712E+005    1.47934E+004   -1.03197E+005    4.45909E+005   -8.47697E+004    3.57791E+005    1.35348E+004    9.31341E+003    2.31461E+005    1.82102E+004    3.41043E+003    1.92080E+005
             253    4.54146E+005    4.25985E+005    4.25985E+005   -1.41255E+004   -4.10011E+004    4.66987E+005   -1.23620E+005    4.52351E+005   -3.82414E+004   -2.47150E+003    4.11572E+005   -6.83556E+003   -3.48841E+004    7.05590E+004
             254    4.27019E+005    3.99290E+005    3.99290E+005   -8.08822E+003   -4.49766E+004    4.44266E+005   -1.15408E+005    4.23412E+005   -2.55482E+004    6.70880E+003    3.65065E+005    1.54745E+004   -1.26811E+004    1.15651E+005
             255    4.20470E+005    3.82864E+005    3.82864E+005   -1.18738E+004   -5.93141E+004    4.42178E+005   -1.03892E+005    4.14384E+005   -1.71816E+004    9.54912E+003    3.19308E+005    1.23589E+004   -9.38351E+003    1.53977E+005
             256    4.02052E+005    3.41020E+005    3.41020E+005   -8.22583E+003   -9.84935E+004    4.39513E+005   -7.81001E+004    3.78231E+005   -1.15074E+004    3.07548E+003    2.42732E+005    1.57762E+004   -6.39237E+003    1.82240E+005
             257    4.06836E+005    3.91320E+005    3.91320E+005    3.84016E+003   -3.24415E+004    4.23761E+005   -1.20906E+005    4.03172E+005   -1.51463E+004   -1.37862E+003    3.79243E+005   -2.30915E+004   -3.60100E+004    5.69285E+004
             258    3.97182E+005    4.07246E+005    4.07246E+005    2.66472E+004   -4.66628E+003    4.11912E+005   -1.43076E+005    3.94391E+005    2.18299E+004    2.70705E+004    3.80326E+005    1.02539E+004   -5.47020E+003    1.01127E+005
             259    3.93571E+005    3.80767E+005    3.80767E+005    1.51289E+004   -3.57833E+004    4.16550E+005   -1.20037E+005    3.86059E+005    1.36090E+004    1.50853E+004    3.31418E+005    9.95952E+003    1.48227E+003    1.34237E+005
             260    3.95074E+005    3.63564E+005    3.63564E+005    1.84022E+004   -6.73403E+004    4.30905E+005   -1.04875E+005    3.73269E+005    1.72591E+004    1.99393E+004    2.77428E+005    1.46085E+004    4.40384E+003    1.71647E+005
             261    5.09962E+005    3.73051E+005    3.73051E+005   -1.21451E+004   -2.05266E+005    5.78317E+005   -5.18799E+004    4.14826E+005   -1.76649E+005   -1.45496E+004    3.46838E+005   -4.59060E+004   -1.06740E+005    3.69687E+004
             262    4.31541E+005    3.63047E+005    3.63047E+005   -3.01794E+004   -9.86261E+004    4.61673E+005   -7.80806E+004    4.19067E+005   -8.62240E+004   -1.99198E+004    3.40386E+005   -2.28651E+004   -6.63181E+004    6.67298E+004
             263    3.98088E+005    3.59883E+005    3.59883E+005   -2.37189E+004   -5.12609E+004    4.11144E+005   -9.49676E+004    3.95936E+005   -4.52852E+004    8.29451E+003    3.21894E+005   -1.32760E+004   -4.72209E+004    1.05258E+005
             264    3.61613E+005    3.27457E+005    3.27457E+005   -1.98160E+004   -4.69654E+004    3.74422E+005   -8.68918E+004    3.59309E+005   -1.83837E+004    1.18682E+004    2.67191E+005   -6.83448E+003   -3.22660E+004    1.33755E+005
             265    4.39207E+005    3.28465E+005    3.28465E+005   -3.92784E+003   -1.69453E+005    4.97918E+005   -5.16949E+004    3.58203E+005   -1.52008E+005    3.02209E+004    2.76872E+005   -5.29932E+004   -6.42366E+004    1.05052E+005
             266    4.81730E+005    3.42692E+005    3.42692E+005   -7.86946E+003   -2.06612E+005    5.49304E+005   -4.27371E+004    3.71080E+005   -1.85915E+005    6.03902E+003    3.08087E+005   -5.60011E+004   -7.49992E+004    8.10796E+004
             267    5.16494E+005    3.62658E+005    3.62658E+005   -1.61883E+004   -2.25667E+005    5.88325E+005   -4.02675E+004    4.02779E+005   -2.02080E+005   -1.19184E+004    3.34801E+005   -6.05075E+004   -7.88180E+004    7.03258E+004
             268    5.42663E+005    3.66994E+005    3.66994E+005   -6.28259E+004   -2.42788E+005    6.09782E+005   -2.04600E+004    4.68100E+005   -2.14624E+005   -7.72306E+004    3.53235E+005   -6.08794E+004   -7.22805E+004    3.81670E+004
             269    4.11716E+005    3.86456E+005    3.86456E+005    2.97860E+003   -4.86313E+004    4.35087E+005   -1.13601E+005    4.04342E+005   -4.58903E+004    7.38967E+003    3.79304E+005   -1.21456E+004   -1.70758E+004    4.90506E+004
             270    4.36703E+005    4.02822E+005    4.02822E+005    5.08776E+003   -6.44947E+004    4.67317E+005   -1.14472E+005    4.23961E+005   -6.04788E+004    6.87397E+003    3.97020E+005   -1.51422E+004   -2.72414E+004    3.98656E+004
             271    4.61429E+005    4.07582E+005    4.07582E+005   -8.17495E+003   -8.88716E+004    4.96454E+005   -1.03512E+005    4.45136E+005   -8.25420E+004   -9.73961E+003    4.02817E+005   -1.83191E+004   -3.78468E+004    2.62913E+004
             272    4.97402E+005    4.24468E+005    4.24468E+005   -8.93784E+003   -1.18622E+005    5.43089E+005   -9.89693E+004    4.69020E+005   -1.09883E+005   -9.92647E+003    4.16717E+005   -2.21968E+004   -5.32647E+004    3.03131E+004
             273    5.18445E+005    4.16128E+005    4.16128E+005   -2.11438E+004   -1.56599E+005    5.72727E+005   -7.94616E+004    4.76131E+005   -1.44597E+005   -2.35906E+004    4.06573E+005   -2.58130E+004   -6.69941E+004    2.29955E+004
             274    5.93722E+005    4.50346E+005    4.50346E+005   -1.79227E+004   -2.17434E+005    6.67780E+005   -7.16633E+004    5.09680E+005   -1.98645E+005   -1.59638E+004    4.29598E+005   -3.27483E+004   -9.99153E+004    4.48896E+004
             275    5.82699E+005    3.95153E+005    3.95153E+005   -1.52476E+004   -2.71801E+005    6.66954E+005   -3.60347E+004    4.24574E+005   -2.48193E+005   -1.74193E+004    3.73717E+005   -5.08211E+004   -1.00753E+005    4.01197E+004
             276    3.68949E+005    2.79209E+005    2.79209E+005   -2.44282E+004   -1.31408E+005    4.10617E+005   -4.11243E+004    3.31264E+005   -1.14238E+005    2.95630E+004    2.08048E+005   -5.21276E+004   -4.72982E+004    1.19802E+005
             277    3.02366E+005    2.26185E+005    2.26185E+005   -4.45802E+004   -1.00090E+005    3.26275E+005   -2.71715E+004    2.90569E+005   -5.96041E+004    2.06716E+004    1.20447E+005   -5.18985E+004   -2.53493E+004    1.37851E+005
             278    2.63392E+005    1.50757E+005   -1.53381E+005   -2.12569E+003   -1.53381E+005    3.04137E+005    1.58332E+003    5.53227E+004   -1.81396E+003    4.22372E+001   -2.97825E+003   -5.20777E+004   -2.72261E+002    1.42866E+005
             279    2.99305E+005    1.01067E+005   -2.22234E+005    4.52047E+004   -2.22234E+005    3.23300E+005    2.53208E+004   -2.87223E+005    6.10145E+004   -2.00879E+004   -1.16889E+005   -5.23100E+004    2.51801E+004    1.36227E+005
             280    3.76847E+005    1.32226E+005   -2.87552E+005    2.16014E+004   -2.87552E+005    4.19778E+005    4.45750E+004   -3.37310E+005    1.14792E+005   -3.08766E+004   -2.17640E+005   -5.28260E+004    4.81533E+004    1.20250E+005
             281    4.41537E+005    1.80902E+005   -3.21793E+005    3.23213E+003   -3.21793E+005    5.02695E+005    4.58865E+004   -3.46195E+005    1.62252E+005   -2.58224E+004   -2.74089E+005   -5.53028E+004    6.59807E+004    9.83511E+004
             282    4.95282E+005    2.15085E+005   -3.50856E+005    3.43998E+003   -3.50856E+005    5.65941E+005    4.41104E+004   -3.70935E+005    1.93073E+005   -9.61464E+003   -3.15790E+005   -5.87260E+004    7.88666E+004    8.04466E+004
             283    5.21752E+005    2.40058E+005   -3.55801E+005    1.91930E+004   -3.55801E+005    5.95860E+005    3.21833E+004   -3.93878E+005    2.15155E+005    2.08856E+004   -3.32590E+005   -5.79957E+004    8.69348E+004    5.19843E+004
             284    5.87235E+005    2.97580E+005   -3.77022E+005    1.96892E+004   -3.77022E+005    6.74602E+005    1.99173E+004   -3.92837E+005    2.74258E+005    2.03119E+004   -3.54322E+005   -5.54352E+004    9.82223E+004    4.72836E+004
             285    3.46497E+005    2.96392E+005    2.96392E+005   -7.19304E+003   -8.10937E+004    3.77486E+005   -6.93683E+004    3.28055E+005   -6.16132E+003    1.58423E+004    1.98424E+005   -5.70406E+003   -2.14778E+004    1.64054E+005
             286    3.81724E+005    3.12960E+005    3.12960E+005    7.91260E+003   -1.15105E+005    4.28065E+005   -6.85893E+004    3.32532E+005    7.76887E+003    1.08013E+004    1.87198E+005    1.10263E+004    3.83717E+003    1.94632E+005
             287    3.97400E+005    3.07234E+005    3.07234E+005   -5.69643E+003   -1.39890E+005    4.47124E+005   -5.38824E+004    3.40524E+005   -7.01875E+003    3.70010E+003    1.64966E+005    1.28094E+004   -5.02070E+003    2.07773E+005
             288    3.88021E+005    2.91810E+005    2.91810E+005    6.59571E+003   -1.50046E+005    4.41856E+005   -4.94532E+004    3.03565E+005    6.31311E+003    2.04371E+003    1.40003E+005    1.52754E+004    2.90054E+003    2.09263E+005
             289    3.88920E+005    2.84322E+005    2.84322E+005   -3.91665E+003   -1.58039E+005    4.42361E+005   -4.07888E+004    3.08018E+005   -4.73722E+003    1.48363E+003    1.25620E+005    1.47176E+004   -1.30265E+003    2.11647E+005
             290    3.73003E+005    2.67162E+005    2.67162E+005    3.68758E+003   -1.59646E+005    4.26808E+005   -3.70679E+004    2.73226E+005    3.42856E+003    8.62659E+002    1.06913E+005    1.49120E+004    1.92950E+003    2.06132E+005
             291    3.69933E+005    2.62375E+005    2.62375E+005   -2.50349E+003   -1.60288E+005    4.22663E+005   -3.31943E+004    2.77501E+005   -3.00034E+003    3.35461E+003    9.92285E+004    1.41031E+004   -6.99823E+001    2.05274E+005
             292    3.26671E+005    2.38966E+005    2.38966E+005   -1.48741E+003   -1.32956E+005    3.71922E+005   -3.48408E+004    2.56106E+005   -1.05232E+003    7.95136E+003    9.76233E+004   -4.33566E+003   -1.06587E+004    1.80173E+005
             293    3.79861E+005    2.68427E+005    2.68427E+005    6.13555E+003   -1.67181E+005    4.35608E+005   -3.57936E+004    2.66397E+005    6.18047E+003    7.62239E+003    9.35780E+004    1.09309E+004    2.68047E+003    2.13229E+005
             294    3.85853E+005    2.54168E+005    2.54168E+005   -4.06856E+003   -1.89383E+005    4.43551E+005   -2.02387E+004    2.52462E+005   -4.67400E+003   -1.45269E+002    6.55354E+004    1.36168E+004   -2.66719E+003    2.18840E+005
             295    3.90956E+005    2.55319E+005    2.55319E+005    5.27104E+003   -1.95209E+005    4.50529E+005   -2.17936E+004    2.24425E+005    5.21286E+003    3.20117E+003    5.69668E+004    1.62892E+004    1.48787E+003    2.23052E+005
             296    3.80783E+005    2.37732E+005    2.37732E+005   -3.11739E+003   -2.01266E+005    4.38998E+005   -1.11163E+004    2.09904E+005   -3.45688E+003   -1.15849E+003    3.79643E+004    1.60799E+004   -7.82353E+002    2.18015E+005
             297    3.76566E+005    2.36189E+005    2.36189E+005    3.48011E+003   -1.98264E+005    4.34453E+005   -1.38020E+004    1.87308E+005    3.43286E+003    2.65623E+003    3.53168E+004    1.60647E+004    8.65907E+002    2.16012E+005
             298    3.64755E+005    2.22617E+005    2.22617E+005   -2.29482E+003   -1.98233E+005    4.20850E+005   -7.36300E+003    1.79360E+005   -2.46550E+003   -5.56243E+002    2.51107E+004    1.51810E+004   -1.83244E+002    2.09478E+005
             299    3.25268E+005    1.85261E+005   -1.90305E+005    9.26028E+002   -1.90305E+005    3.75566E+005    1.37247E+003   -1.03044E+005    9.19844E+002    9.89683E+001   -5.13621E+003   -5.32189E+003    1.94998E+002    1.87689E+005
             300    3.73021E+005    2.03930E+005   -2.26621E+005   -6.74693E+002   -2.26621E+005    4.30551E+005    7.78854E+003   -1.64476E+005   -5.92177E+002   -1.16149E+003   -2.16120E+004    9.07945E+003    5.33581E+002    2.14838E+005
             301    3.87375E+005    2.10760E+005   -2.36279E+005    5.12501E+002   -2.36279E+005    4.47039E+005    8.33521E+003   -1.81360E+005    5.98767E+002    5.23700E+002   -2.61281E+004    1.22376E+004    5.35491E+001    2.22783E+005
             302    3.87039E+005    2.03005E+005   -2.43353E+005   -8.51210E+002   -2.43353E+005    4.46357E+005    1.37331E+004   -2.05314E+005   -6.43277E+002   -8.36801E+002   -3.97192E+004    1.48636E+004    2.49397E+002    2.21824E+005
             303    3.83700E+005    2.02245E+005   -2.40253E+005    2.87986E+002   -2.40253E+005    4.42498E+005    1.25734E+004   -2.04020E+005    4.46832E+002    1.21436E+003   -3.93813E+004    1.48872E+004   -1.69826E+002    2.19805E+005
             304    3.73347E+005    1.92113E+005   -2.38221E+005   -7.63251E+002   -2.38221E+005    4.30335E+005    1.56238E+004   -2.10120E+005   -5.50914E+002   -8.74570E+002   -4.54459E+004    1.50367E+004   -6.66542E+001    2.13470E+005
             305    3.67184E+005    1.92132E+005   -2.31232E+005    3.67552E+002   -2.31232E+005    4.23364E+005    1.29110E+004   -2.00205E+005    5.09974E+002    4.66277E+002   -3.97093E+004    1.43481E+004   -3.24113E+002    2.10231E+005
             306    3.29441E+005    1.21400E+005   -2.50969E+005    2.57557E+003   -2.50969E+005    3.72369E+005    4.23314E+004   -2.74615E+005    1.99972E+003   -9.75425E+003   -1.19240E+005   -5.10849E+003    1.23139E+004    1.77563E+005
             307    3.77604E+005    1.49868E+005   -2.80470E+005   -4.54389E+003   -2.80470E+005    4.30338E+005    4.50488E+004   -2.92760E+005   -4.39466E+003   -7.05035E+003   -1.23702E+005    1.07070E+004   -1.65496E+003    2.06808E+005
             308    3.89965E+005    1.57413E+005   -2.86547E+005    6.08136E+002   -2.86547E+005    4.43960E+005    4.28422E+004   -3.05908E+005    1.53410E+003   -2.68015E+003   -1.27381E+005    1.38988E+004    2.81866E+003    2.12427E+005
             309    3.91559E+005    1.61714E+005   -2.85544E+005   -4.56016E+003   -2.85544E+005    4.47257E+005    4.27967E+004   -2.94822E+005   -4.09149E+003   -1.12845E+003   -1.23170E+005    1.66075E+004   -1.53950E+003    2.14432E+005
             310    3.85187E+005    1.57151E+005   -2.81771E+005   -2.10220E+001   -2.81771E+005    4.38922E+005    4.15470E+004   -2.99103E+005    8.12185E+002   -6.37202E+002   -1.24816E+005    1.63165E+004    4.91509E+002    2.09736E+005
             311    3.76076E+005    1.57578E+005   -2.72087E+005   -2.72330E+003   -2.72087E+005    4.29665E+005    3.90772E+004   -2.82264E+005   -2.23449E+003   -5.83673E+002   -1.14414E+005    1.62286E+004   -1.26277E+003    2.06451E+005
             312    3.66300E+005    1.52607E+005   -2.65318E+005    3.27076E+001   -2.65318E+005    4.17925E+005    3.75596E+004   -2.80122E+005    6.16039E+002   -2.78640E+003   -1.10508E+005    1.52087E+004   -3.47309E+002    2.01246E+005
             313    3.41619E+005    7.19411E+004   -2.95093E+005    1.35981E+004   -2.95093E+005    3.67034E+005    6.98511E+004   -3.30130E+005    1.20046E+004   -1.46411E+004   -2.06917E+005   -7.73228E+003    2.42581E+004    1.54872E+005
             314    3.85805E+005    9.43629E+004   -3.32615E+005   -9.06572E+003   -3.32615E+005    4.26978E+005    8.24391E+004   -3.52534E+005   -8.60309E+003   -1.44793E+004   -2.24235E+005    1.04537E+004   -2.10282E+003    1.85508E+005
             315    3.98210E+005    1.15859E+005   -3.25364E+005    7.33219E+003   -3.25364E+005    4.41223E+005    6.73912E+004   -3.62635E+005    9.16822E+003   -3.13834E+003   -2.08203E+005    1.32289E+004    5.28114E+003    1.94282E+005
             316    3.96193E+005    1.14715E+005   -3.28438E+005   -8.46948E+003   -3.28438E+005    4.43152E+005    7.40640E+004   -3.49040E+005   -7.55100E+003   -4.91379E+003   -2.09727E+005    1.56849E+004   -2.23095E+003    1.95619E+005
             317    3.90739E+005    1.21629E+005   -3.14221E+005    4.71604E+003   -3.14221E+005    4.35850E+005    6.26252E+004   -3.48000E+005    6.17422E+003    1.00104E+002   -1.94150E+005    1.53687E+004    1.10900E+003    1.94092E+005
             318    3.78307E+005    1.16712E+005   -3.07562E+005   -5.36937E+003   -3.07562E+005    4.24274E+005    6.54063E+004   -3.29407E+005   -4.52107E+003   -3.94944E+003   -1.87748E+005    1.52372E+004   -1.96034E+003    1.90377E+005
             319    3.67926E+005    1.20319E+005   -2.91855E+005    3.41519E+003   -2.91855E+005    4.12175E+005    5.60402E+004   -3.21982E+005    4.38145E+003   -3.28958E+003   -1.69213E+005    1.42956E+004   -4.26567E+002    1.87878E+005
             320    3.69330E+005    3.84191E+004   -3.36189E+005    2.76263E+004   -3.36189E+005    3.74608E+005    9.00479E+004   -3.68975E+005    2.65018E+004   -1.49606E+004   -2.81685E+005   -9.98891E+003    3.84521E+004    1.26161E+005
             321    3.89486E+005    5.44114E+004   -3.65413E+005   -1.58219E+004   -3.65413E+005    4.19824E+005    1.08941E+005   -3.74840E+005   -1.41829E+004   -1.80233E+004   -2.94617E+005    1.30037E+004   -1.95152E+003    1.56631E+005
             322    4.10826E+005    7.53357E+004   -3.66192E+005    4.79799E+003   -3.66192E+005    4.41528E+005    9.53527E+004   -3.96857E+005    9.17964E+003   -7.29237E+003   -2.87945E+005    1.53453E+004    7.37813E+003    1.67579E+005
             323    4.00263E+005    7.86523E+004   -3.59851E+005   -1.41218E+004   -3.59851E+005    4.38504E+005    9.84403E+004   -3.74910E+005   -1.19265E+004   -7.49351E+003   -2.75901E+005    1.83195E+004   -3.08046E+003    1.71564E+005
             324    3.99736E+005    8.37059E+004   -3.50759E+005    1.45337E+003   -3.50759E+005    4.34465E+005    8.85332E+004   -3.79990E+005    4.70508E+003   -3.52141E+003   -2.66783E+005    1.74103E+004    1.51521E+003    1.70619E+005
             325    3.79527E+005    8.30618E+004   -3.33919E+005   -8.65707E+003   -3.33919E+005    4.16981E+005    8.65048E+004   -3.53277E+005   -6.84236E+003   -6.56056E+003   -2.46112E+005    1.69419E+004   -2.67151E+003    1.69155E+005
             326    3.71942E+005    8.43009E+004   -3.22122E+005    1.32177E+003   -3.22122E+005    4.06423E+005    7.88331E+004   -3.50195E+005    3.32544E+003   -8.09859E+003   -2.31726E+005    1.53339E+004   -4.77989E+002    1.68266E+005
             327    3.98260E+005    7.04458E+004   -3.49949E+005    2.16846E+004   -3.49949E+005    4.20395E+005    8.59397E+004   -3.91459E+005    6.22068E+004   -2.70666E+003   -3.17319E+005   -1.86686E+004    5.41735E+004    9.15487E+004
             328    3.97332E+005    2.17224E+004   -3.91717E+005   -1.27365E+004   -3.91717E+005    4.13439E+005    1.27577E+005   -3.93949E+005   -1.08998E+004   -2.08838E+004   -3.50947E+005    6.74494E+003    4.31765E+003    1.22941E+005
             329    4.21412E+005    5.05558E+004   -3.86907E+005    1.63735E+004   -3.86907E+005    4.37463E+005    1.06659E+005   -4.18276E+005    2.37098E+004   -5.70914E+003   -3.37978E+005    1.07916E+004    1.17794E+004    1.36357E+005
             330    4.08978E+005    4.48929E+004   -3.90148E+005   -1.35110E+004   -3.90148E+005    4.35040E+005    1.19589E+005   -3.99434E+005   -1.05196E+004   -1.00578E+004   -3.38188E+005    1.40953E+004   -5.49238E+002    1.40414E+005
             331    4.05419E+005    5.54328E+004   -3.71639E+005    7.94373E+003   -3.71639E+005    4.27072E+005    1.02754E+005   -3.99089E+005    1.26627E+004   -4.05879E+003   -3.16866E+005    1.40777E+004    3.03009E+003    1.41872E+005
             332    3.87366E+005    5.05008E+004   -3.63142E+005   -8.91984E+003   -3.63142E+005    4.13643E+005    1.07187E+005   -3.76907E+005   -6.53378E+003   -9.98548E+003   -3.05042E+005    1.38034E+004   -2.11750E+003    1.43037E+005
             333    3.74078E+005    5.46873E+004   -3.41672E+005    5.19805E+003   -3.41672E+005    3.96359E+005    9.39288E+004   -3.66604E+005    8.03625E+003   -9.92415E+003   -2.79899E+005    1.27116E+004   -6.12609E+001    1.43052E+005
             334    4.47166E+005    1.23700E+005   -3.67999E+005    1.43464E+004   -3.67999E+005    4.91700E+005    7.66509E+004   -4.15453E+005    1.07595E+005    4.33877E+003   -3.41886E+005   -2.64973E+004    8.05415E+004    6.35268E+004
             335    3.96734E+005    7.33454E+003   -3.99341E+005   -1.33583E+004   -3.99341E+005    4.06676E+005    1.35122E+005   -3.95518E+005   -1.03835E+004   -1.70846E+004   -3.77897E+005    4.67839E+003    1.34057E+004    8.97125E+004
             336    4.35214E+005    3.85279E+004   -4.12699E+005    4.50604E+003   -4.12699E+005    4.51226E+005    1.23222E+005   -4.32207E+005    2.46988E+004   -7.20702E+003   -3.87156E+005    1.26228E+004    1.81088E+004    1.00743E+005
             337    4.09861E+005    2.42032E+004   -4.05944E+005   -1.99420E+004   -4.05944E+005    4.30147E+005    1.33894E+005   -4.04461E+005   -1.12472E+004   -1.33860E+004   -3.77049E+005    1.76129E+004    2.17857E+003    1.06471E+005
             338    4.17803E+005    3.41337E+004   -4.01112E+005   -3.26549E+003   -4.01112E+005    4.35246E+005    1.23415E+005   -4.14012E+005    9.82530E+003   -9.67264E+003   -3.70397E+005    1.72174E+004    4.66884E+003    1.09651E+005
             339    3.88479E+005    2.60930E+004   -3.80493E+005   -1.30912E+004   -3.80493E+005    4.06586E+005    1.22497E+005   -3.83996E+005   -5.86856E+003   -1.50929E+004   -3.46530E+005    1.62322E+004   -9.09651E+002    1.11251E+005
             340    3.82867E+005    2.90842E+004   -3.68272E+005   -1.75864E+003   -3.68272E+005    3.97356E+005    1.13649E+005   -3.80057E+005    6.07225E+003   -1.69173E+004   -3.30101E+005    1.39414E+004    6.53345E+002    1.15745E+005
             341    4.95176E+005    1.87057E+005   -3.70241E+005    1.91490E+004   -3.70241E+005    5.57298E+005    5.46781E+004   -4.23635E+005    1.61258E+005    1.99367E+004   -3.45229E+005   -4.42418E+004    9.74035E+004    4.45004E+004
             342    4.50155E+005    8.02743E+004   -4.02605E+005    5.44809E+003   -4.02605E+005    4.82879E+005    1.05627E+005   -4.35832E+005    6.35061E+004    8.57707E+003   -3.88965E+005   -3.20329E+004    5.50879E+004    5.02094E+004
             343    4.38063E+005    4.81770E+004   -4.05318E+005    1.54816E+004   -4.05318E+005    4.53495E+005    1.13886E+005   -4.35306E+005    4.35213E+004    8.68001E+003   -3.93861E+005   -1.16830E+004    3.77548E+004    5.75494E+004
             344    4.32056E+005    1.53832E+004   -4.18292E+005    1.21255E+004   -4.18292E+005    4.33675E+005    1.30261E+005   -4.32028E+005    1.36206E+004    3.51247E+003   -4.07916E+005   -4.51656E+003    2.16710E+004    6.23627E+004
             345    4.14885E+005    1.57739E+004   -4.03578E+005    6.68994E+003   -4.03578E+005    4.19352E+005    1.27038E+005   -4.14661E+005    1.26879E+004   -1.17531E+003   -3.92627E+005    1.93235E+003    1.39317E+004    6.50192E+004
             346    4.02819E+005    8.27418E+003   -3.99022E+005   -8.32745E+002   -3.99022E+005    4.07296E+005    1.30527E+005   -4.02588E+005    1.98563E+003   -9.00381E+003   -3.84562E+005    2.97867E+003    7.03132E+003    7.48259E+004
             347    3.84314E+005    1.03701E+004   -3.78505E+005    1.07963E+003   -3.78505E+005    3.88875E+005    1.22352E+005   -3.84062E+005    5.92928E+003   -1.22735E+004   -3.60711E+005    3.80724E+003    4.28366E+003    8.06560E+004
             348    4.16111E+005    5.34137E+004   -3.89291E+005   -6.20415E+003   -3.89291E+005    4.42705E+005    1.14027E+005   -4.06336E+005    5.00914E+004   -9.76543E+003   -3.82407E+005   -1.41206E+004    1.87556E+004    4.74167E+004
             349    4.39139E+005    7.16360E+004   -3.99283E+005   -9.75381E+002   -3.99283E+005    4.70919E+005    1.09541E+005   -4.25317E+005    6.66868E+004   -8.60762E+002   -3.94448E+005   -1.68131E+004    2.94806E+004    3.33064E+004
             350    4.73019E+005    9.68526E+004   -4.14925E+005    6.22170E+003   -4.14925E+005    5.11777E+005    1.03950E+005   -4.52862E+005    8.95942E+004    7.83867E+003   -4.09283E+005   -2.06955E+004    4.15752E+004    2.88673E+004
             351    4.94041E+005    1.30672E+005   -4.10828E+005    1.53573E+004   -4.10828E+005    5.41500E+005    8.82662E+004   -4.62284E+005    1.20386E+005    1.82722E+004   -4.03456E+005   -2.49686E+004    5.53317E+004    2.36323E+004
             352    5.39500E+005    1.73599E+005   -4.24963E+005    2.38271E+004   -4.24963E+005    5.98562E+005    7.58459E+004   -4.89349E+005    1.59387E+005    2.63841E+004   -4.13308E+005   -3.17807E+004    7.20762E+004    3.13388E+004
             353    5.51722E+005    2.22713E+005   -4.01628E+005    2.03001E+004   -4.01628E+005    6.24341E+005    5.28716E+004   -4.56196E+005    2.05102E+005    2.04524E+004   -3.84170E+005   -3.77640E+004    8.70398E+004    4.02635E+004
             354    6.13515E+005    2.93495E+005   -4.08340E+005    2.60668E+004   -4.08340E+005    7.01835E+005    2.95927E+004   -4.51351E+005    2.72954E+005    2.51527E+004   -3.86884E+005   -4.06062E+004    1.04809E+005    4.16958E+004
             355    2.99664E+005    2.72725E+005    2.72725E+005    6.73272E+003   -5.19345E+004    3.24659E+005   -7.58409E+004    2.86312E+005    6.54028E+003    4.33713E+004    1.77611E+005    1.74490E+003   -3.78030E+003    1.47677E+005
             356    3.11519E+005    2.79251E+005    2.79251E+005    1.58368E+004   -6.45970E+004    3.43848E+005   -7.68303E+004    2.86727E+005    1.53740E+004    5.83410E+004    1.56776E+005    4.92126E+003   -3.57771E+003    1.64487E+005
             357    3.35433E+005    2.79114E+005    2.79114E+005    1.88750E+004   -9.94452E+004    3.78559E+005   -6.61811E+004    2.82406E+005    1.80762E+004    5.11446E+004    1.29323E+005    9.32918E+003   -4.13565E+003    1.84763E+005
             358    3.52805E+005    2.72167E+005    2.72167E+005    1.91578E+004   -1.30854E+005    4.03021E+005   -5.34901E+004    2.65352E+005    1.83194E+004    4.17660E+004    1.00385E+005    1.29283E+004   -3.45283E+003    1.98808E+005
             359    3.50073E+005    2.64697E+005    2.64697E+005   -2.04266E+001   -1.32227E+005    3.96924E+005   -4.41501E+004    2.85191E+005   -2.03034E+002    3.18753E+004    1.00778E+005    1.01988E+004    1.04313E+003    1.95149E+005
             360    3.45993E+005    2.60110E+005    2.60110E+005   -2.27699E+003   -1.31997E+005    3.92107E+005   -4.19452E+004    2.82958E+005   -2.13893E+003    2.44428E+004    1.03532E+005    9.36940E+003    4.00841E+003    1.91777E+005
             361    3.45381E+005    2.62604E+005    2.62604E+005    1.34769E+003   -1.28977E+005    3.91581E+005   -4.49916E+004    2.81495E+005    1.30435E+003    2.18692E+004    1.11801E+005    1.05487E+004    2.73430E+003    1.90238E+005
             362    3.44231E+005    2.61959E+005    2.61959E+005   -2.72772E+003   -1.27192E+005    3.89152E+005   -4.40132E+004    2.86615E+005   -2.89852E+003    1.63474E+004    1.18591E+005    1.13433E+004    2.38063E+003    1.87350E+005
             363    3.46989E+005    2.69369E+005    2.69369E+005    2.97729E+003   -1.23013E+005    3.92382E+005   -4.97778E+004    2.88341E+005    2.72046E+003    1.63034E+004    1.30309E+005    1.24987E+004    2.43589E+003    1.87247E+005
             364    3.50552E+005    2.72045E+005    2.72045E+005   -2.96175E+003   -1.22684E+005    3.94729E+005   -4.87999E+004    2.99077E+005   -3.56252E+003    9.33897E+003    1.40623E+005    1.34275E+004    1.26323E+003    1.85513E+005
             365    3.59273E+005    2.85532E+005    2.85532E+005    5.18940E+003   -1.19466E+005    4.04998E+005   -5.70851E+004    3.04584E+005    4.62851E+003    1.06901E+004    1.55937E+005    1.45805E+004    2.30286E+003    1.88334E+005
             366    3.33043E+005    2.71960E+005    2.71960E+005    8.86207E+002   -9.98118E+004    3.71771E+005   -5.76780E+004    2.95769E+005    5.90471E+002    3.96212E+004    1.32822E+005    9.12183E+003    9.08424E+002    1.79646E+005
             367    3.37376E+005    2.73566E+005    2.73566E+005   -3.00185E+003   -1.02321E+005    3.75887E+005   -5.60811E+004    3.01760E+005   -2.97229E+003    3.14508E+004    1.39765E+005    8.61287E+003    3.84691E+003    1.79732E+005
             368    3.35044E+005    2.75641E+005    2.75641E+005    4.12475E+002   -9.74330E+004    3.73074E+005   -5.95403E+004    3.00287E+005    3.04172E+002    2.78283E+004    1.50488E+005    9.24722E+003    3.13550E+003    1.75869E+005
             369    3.38785E+005    2.82414E+005    2.82414E+005   -3.17070E+003   -9.19090E+004    3.74323E+005   -6.24448E+004    3.10985E+005   -3.48265E+003    2.50936E+004    1.65723E+005    9.70613E+003    2.44827E+003    1.73073E+005
             370    3.39215E+005    2.87518E+005    2.87518E+005    1.70974E+003   -8.73389E+004    3.74857E+005   -6.72962E+004    3.11247E+005    1.32845E+003    1.99791E+004    1.80581E+005    1.05610E+004    2.93735E+003    1.68889E+005
             371    3.49945E+005    3.00011E+005    3.00011E+005   -3.05887E+003   -8.29824E+004    3.82993E+005   -7.13232E+004    3.28455E+005   -3.93574E+003    1.76468E+004    2.00259E+005    1.14071E+004    1.45059E+003    1.67641E+005
             372    3.55004E+005    3.08909E+005    3.08909E+005    3.99452E+003   -8.08211E+004    3.89730E+005   -7.73607E+004    3.31036E+005    3.11943E+003    1.12284E+004    2.17734E+005    1.25265E+004    2.73628E+003    1.64469E+005
             373    3.22582E+005    2.78272E+005    2.78272E+005    1.73683E+003   -7.61108E+004    3.54382E+005   -6.79659E+004    3.00337E+005    1.39674E+003    3.98603E+004    1.62641E+005    7.45586E+003    6.80153E+002    1.65946E+005
             374    3.27926E+005    2.82475E+005    2.82475E+005   -3.49289E+003   -7.54557E+004    3.57931E+005   -6.78421E+004    3.09403E+005   -3.59771E+003    3.61068E+004    1.71017E+005    7.74458E+003    3.42657E+003    1.65516E+005
             375    3.26749E+005    2.89504E+005    2.89504E+005    1.47187E+003   -6.55646E+004    3.55068E+005   -7.51370E+004    3.10707E+005    1.24340E+003    3.67957E+004    1.87372E+005    8.84401E+003    3.75708E+003    1.60413E+005
             376    3.29798E+005    2.95284E+005    2.95284E+005   -4.04331E+003   -5.82639E+004    3.53548E+005   -7.76590E+004    3.19538E+005   -4.84211E+003    3.16831E+004    2.06136E+005    9.86222E+003    2.63841E+003    1.53095E+005
             377    3.32634E+005    3.07881E+005    3.07881E+005    3.52240E+003   -4.72019E+004    3.55082E+005   -8.80670E+004    3.23761E+005    2.36390E+003    3.20893E+004    2.29748E+005    1.10572E+004    3.26276E+003    1.46536E+005
             378    3.46240E+005    3.19362E+005    3.19362E+005   -3.51059E+003   -4.62740E+004    3.65636E+005   -8.98591E+004    3.40223E+005   -6.05481E+003    2.22560E+004    2.53376E+005    1.21328E+004    1.45899E+003    1.39849E+005
             379    3.57685E+005    3.38952E+005    3.38952E+005    7.02592E+003   -3.98665E+004    3.78818E+005   -1.02037E+005    3.50670E+005    4.25285E+003    2.29744E+004    2.78884E+005    1.36486E+004    2.75813E+003    1.37508E+005
             380    3.19027E+005    2.83571E+005    2.83571E+005    5.69201E+002   -6.21616E+004    3.45733E+005   -7.39930E+004    3.04684E+005    3.70904E+002    3.80486E+004    1.83560E+005    3.94806E+003   -5.22140E+002    1.56690E+005
             381    3.19595E+005    2.87643E+005    2.87643E+005   -4.48095E+003   -5.37101E+004    3.41353E+005   -7.64840E+004    3.10893E+005   -4.56948E+003    3.87135E+004    1.95308E+005    3.26838E+003    9.07772E+002    1.51584E+005
             382    3.16301E+005    2.93504E+005    2.93504E+005   -1.75572E+003   -4.03050E+004    3.33809E+005   -8.38145E+004    3.10951E+005   -1.74175E+003    3.87700E+004    2.14415E+005    2.75256E+003    2.66998E+003    1.41885E+005
             383    3.20334E+005    3.05744E+005    3.05744E+005   -3.47442E+003   -2.46557E+004    3.30399E+005   -9.25379E+004    3.18753E+005   -3.63892E+003    3.79168E+004    2.43336E+005    3.25343E+003    2.04297E+003    1.29241E+005
             384    3.29071E+005    3.20324E+005    3.20324E+005    1.67440E+003   -1.82625E+004    3.38586E+005   -1.01245E+005    3.27708E+005    1.25302E+003    3.02754E+004    2.72207E+005    4.28004E+003    2.49353E+003    1.18067E+005
             385    3.47360E+005    3.39907E+005    3.39907E+005   -4.19861E+002   -1.40828E+004    3.53990E+005   -1.08468E+005    3.46754E+005   -2.57995E+003    2.66055E+004    3.01379E+005    5.46388E+003    4.75843E+002    1.09844E+005
             386    3.61459E+005    3.57348E+005    3.57348E+005    6.17105E+003   -1.35827E+004    3.70931E+005   -1.16646E+005    3.60242E+005    4.02500E+003    1.82519E+004    3.27660E+005    6.61968E+003    6.29788E+002    1.00304E+005
             387    3.86870E+005    3.69863E+005    3.69863E+005    8.25234E+003   -3.80913E+004    4.07955E+005   -1.13341E+005    3.80550E+005   -3.60822E+004    1.76897E+004    3.58417E+005   -1.05014E+004   -8.57977E+003    6.27399E+004
             388    3.64612E+005    3.48948E+005    3.48948E+005    6.13731E+003   -3.41240E+004    3.83072E+005   -1.06987E+005    3.59560E+005   -3.20438E+004    2.13231E+004    3.31682E+005   -9.55265E+003   -2.22814E+003    7.50995E+004
             389    3.42077E+005    3.29270E+005    3.29270E+005    8.56800E+003   -3.07787E+004    3.60048E+005   -1.02353E+005    3.36929E+005   -2.84200E+004    3.31729E+004    3.02306E+005   -9.39218E+003    1.16100E+003    8.93393E+004
             390    3.25048E+005    3.10362E+005    3.10362E+005    1.62059E+002   -2.77349E+004    3.38097E+005   -9.42631E+004    3.22338E+005   -2.50324E+004    3.86390E+004    2.69183E+005   -8.28181E+003    1.44097E+003    1.05768E+005
             391    3.12276E+005    2.95731E+005    2.95731E+005   -9.99793E+003   -2.27038E+004    3.18435E+005   -8.76763E+004    3.11693E+005   -1.83015E+004    4.56028E+004    2.35728E+005   -6.61984E+003    2.12375E+002    1.22479E+005
             392    3.14474E+005    2.85507E+005    2.85507E+005   -1.36949E+004   -4.22870E+004    3.27794E+005   -7.65084E+004    3.11530E+005   -1.38083E+004    3.87277E+004    2.04606E+005   -3.56706E+003   -2.00975E+003    1.41249E+005
             393    3.12527E+005    2.77133E+005    2.77133E+005   -5.33608E+003   -5.86050E+004    3.35738E+005   -7.10639E+004    3.02059E+005   -5.30703E+003    2.89346E+004    1.89564E+005   -1.05207E+003   -3.33064E+003    1.47379E+005
             394    3.66527E+005    6.30714E+003   -3.63761E+005   -8.80626E+002   -3.63761E+005    3.70068E+005    1.19445E+005   -3.66369E+005    1.10199E+003   -2.02060E+004   -3.39231E+005    3.05901E+003    9.96181E+002    9.18018E+004
             395    3.56564E+005    2.60785E+004   -3.45749E+005   -6.71385E+003   -3.45749E+005    3.71827E+005    1.08795E+005   -3.53147E+005   -2.77645E+003   -2.20131E+004   -3.01594E+005    1.22150E+004   -1.95160E+003    1.19394E+005
             396    3.56610E+005    5.26066E+004   -3.29326E+005   -5.06934E+003   -3.29326E+005    3.81933E+005    9.39296E+004   -3.45883E+005   -3.63621E+003   -1.78309E+004   -2.60322E+005    1.17529E+004   -2.70507E+003    1.46389E+005
             397    3.54438E+005    8.59641E+004   -3.04975E+005   -4.61921E+003   -3.04975E+005    3.90939E+005    7.45434E+004   -3.26838E+005   -3.55582E+003   -1.23422E+004   -2.07732E+005    1.41741E+004   -2.59520E+003    1.68357E+005
             398    3.56939E+005    1.18183E+005   -2.83602E+005   -3.13430E+003   -2.83602E+005    4.01785E+005    5.61843E+004   -3.05096E+005   -2.59239E+003   -8.86000E+003   -1.57101E+005    1.35457E+004   -1.98000E+003    1.86100E+005
             399    3.58384E+005    1.55129E+005   -2.54886E+005   -1.34774E+003   -2.54886E+005    4.10015E+005    3.37017E+004   -2.63247E+005   -1.02519E+003   -3.71082E+003   -9.63692E+004    1.43891E+004   -1.21415E+003    1.99142E+005
             400    3.58193E+005    1.85684E+005   -2.27257E+005   -4.92952E+002   -2.27257E+005    4.12941E+005    1.40220E+004   -1.98130E+005   -3.55402E+002   -2.19433E+003   -3.95164E+004    1.37999E+004   -2.91664E+002    2.05155E+005
             401    3.61120E+005    2.23069E+005    2.23069E+005    2.23402E+003   -1.93669E+005    4.16737E+005   -1.05447E+004    1.69494E+005    2.20627E+003    3.00669E+003    2.64211E+004    1.44493E+004    6.42852E+002    2.07535E+005
             402    3.57118E+005    2.49803E+005    2.49803E+005    2.07295E+003   -1.59554E+005    4.09357E+005   -3.07738E+004    2.52781E+005    1.88098E+003    3.22159E+003    8.72189E+004    1.36252E+004    1.49898E+003    1.99833E+005
             403    3.46883E+005    9.34227E+003   -3.40359E+005    3.63672E+003   -3.40359E+005    3.49701E+005    1.09127E+005   -3.46778E+005    5.03017E+003   -2.40462E+004   -3.08364E+005    2.68719E+003   -3.53882E+002    1.00594E+005
             404    3.46663E+005    3.07069E+004   -3.29841E+005    1.02968E+003   -3.29841E+005    3.60548E+005    9.93682E+004   -3.43788E+005    4.40802E+003   -2.69772E+004   -2.75535E+005    1.08101E+004   -1.10270E+003    1.28133E+005
             405    3.44833E+005    5.99531E+004   -3.09146E+005    4.76292E+003   -3.09146E+005    3.69100E+005    8.14768E+004   -3.34680E+005    6.03749E+003   -1.96380E+004   -2.30830E+005    1.05791E+004   -1.54321E+003    1.50425E+005
             406    3.48607E+005    9.05170E+004   -2.93942E+005    1.58528E+003   -2.93942E+005    3.84459E+005    6.72800E+004   -3.21566E+005    2.53253E+003   -1.62918E+004   -1.88081E+005    1.28288E+004   -1.52653E+003    1.71199E+005
             407    3.50356E+005    1.25189E+005   -2.69927E+005    2.87660E+003   -2.69927E+005    3.95116E+005    4.72873E+004   -2.96269E+005    3.34423E+003   -9.60133E+003   -1.35605E+005    1.24712E+004   -1.30170E+003    1.86728E+005
             408    3.52738E+005    1.55313E+005   -2.48389E+005    2.87814E+002   -2.48389E+005    4.03702E+005    3.09294E+004   -2.57471E+005    5.76938E+002   -6.73054E+003   -8.66347E+004    1.33139E+004   -8.23084E+002    1.97373E+005
             409    3.55363E+005    1.89647E+005   -2.20288E+005    4.21325E+002   -2.20288E+005    4.09935E+005    1.00730E+004   -1.81186E+005    4.89395E+002   -1.01697E+003   -2.96914E+004    1.28741E+004   -4.11070E+002    2.04057E+005
             410    3.53874E+005    2.16452E+005    2.16452E+005   -1.62888E+003   -1.91849E+005    4.08301E+005   -7.65805E+003    1.73498E+005   -1.71281E+003    7.56682E+002    2.39303E+004    1.34428E+004    2.10752E+002    2.03375E+005
             411    3.55449E+005    2.48721E+005    2.48721E+005   -1.85173E+003   -1.58086E+005    4.06807E+005   -2.95945E+004    2.59421E+005   -2.12497E+003    6.95705E+003    8.39514E+004    1.26692E+004    6.19808E+002    1.99292E+005
             412    3.30157E+005    1.21130E+004   -3.22988E+005    1.99275E+003   -3.22988E+005    3.35101E+005    1.02961E+005   -3.29808E+005    2.05206E+003   -3.28514E+004   -2.78083E+005    1.85616E+003   -2.23048E+003    1.14109E+005
             413    3.28470E+005    3.58048E+004   -3.10171E+005   -2.57913E+003   -3.10171E+005    3.45976E+005    9.23152E+004   -3.23367E+005   -1.21580E+003   -3.21959E+004   -2.43534E+005    9.75191E+003   -2.90995E+003    1.35906E+005
             414    3.35271E+005    6.55162E+004   -2.98407E+005   -2.09236E+003   -2.98407E+005    3.63923E+005    7.83276E+004   -3.19389E+005   -1.59663E+003   -2.69681E+004   -2.06418E+005    9.72855E+003   -3.18136E+003    1.57790E+005
             415    3.40016E+005    9.84602E+004   -2.80553E+005   -2.31606E+003   -2.80553E+005    3.79013E+005    6.14696E+004   -3.03588E+005   -1.91343E+003   -1.97411E+004   -1.62754E+005    1.18779E+004   -2.78335E+003    1.74971E+005
             416    3.46459E+005    1.29251E+005   -2.63555E+005   -1.49292E+003   -2.63555E+005    3.92806E+005    4.52656E+004   -2.82359E+005   -1.28894E+003   -1.44939E+004   -1.20014E+005    1.16469E+004   -2.08742E+003    1.88778E+005
             417    3.50834E+005    1.62273E+005   -2.40392E+005   -5.85074E+002   -2.40392E+005    4.02665E+005    2.62350E+004   -2.40895E+005   -4.65661E+002   -7.11757E+003   -7.11217E+004    1.24163E+004   -1.26690E+003    1.98369E+005
             418    3.51971E+005    1.89196E+005   -2.16919E+005   -1.90239E+002   -2.16919E+005    4.06115E+005    9.30463E+003   -1.71801E+005   -1.44362E+002   -3.10090E+003   -2.46686E+004    1.20952E+004   -3.48240E+002    2.02408E+005
             419    3.53811E+005    2.20046E+005    2.20046E+005    1.42277E+003   -1.88156E+005    4.08202E+005   -1.11042E+004    1.75889E+005    1.40116E+003    4.23398E+003    2.76775E+004    1.25793E+004    6.37837E+002    2.03374E+005
             420    3.49270E+005    2.42229E+005    2.42229E+005    1.09703E+003   -1.58303E+005    4.00532E+005   -2.83408E+004    2.44869E+005    9.98000E+002    7.48178E+003    7.65427E+004    1.19372E+004    1.48356E+003    1.96889E+005
             421    3.19190E+005    2.28155E+004   -3.04652E+005    5.56081E+003   -3.04652E+005    3.27468E+005    9.20920E+004   -3.18139E+005    5.54187E+003   -3.69007E+004   -2.44917E+005    1.53138E+003   -2.42148E+003    1.26434E+005
             422    3.26019E+005    4.68430E+004   -2.98987E+005    2.72955E+003   -2.98987E+005    3.45830E+005    8.31381E+004   -3.19201E+005    3.53553E+003   -3.68142E+004   -2.16136E+005    8.77085E+003   -2.55694E+003    1.47217E+005
             423    3.32912E+005    7.80733E+004   -2.85415E+005    4.66907E+003   -2.85415E+005    3.63488E+005    6.75575E+004   -3.13920E+005    5.00693E+003   -2.81981E+004   -1.79481E+005    8.93451E+003   -2.64381E+003    1.64881E+005
             424    3.41242E+005    1.07752E+005   -2.73831E+005    2.05668E+003   -2.73831E+005    3.81584E+005    5.46741E+004   -3.00969E+005    2.29573E+003   -2.29428E+004   -1.43375E+005    1.08008E+004   -2.61527E+003    1.80642E+005
             425    3.47296E+005    1.39672E+005   -2.55228E+005    2.67627E+003   -2.55228E+005    3.94901E+005    3.76267E+004   -2.75854E+005    2.77407E+003   -1.44891E+004   -1.01165E+005    1.07109E+004   -2.07406E+003    1.92311E+005
             426    3.51368E+005    1.66788E+005   -2.36848E+005    5.75722E+002   -2.36848E+005    4.03636E+005    2.31613E+004   -2.35175E+005    6.30039E+002   -9.28840E+003   -6.08254E+004    1.13856E+004   -1.28331E+003    1.99833E+005
             427    3.54279E+005    1.95957E+005   -2.12999E+005    4.16992E+002   -2.12999E+005    4.08956E+005    5.54170E+003   -1.49817E+005    4.25826E+002   -1.35622E+003   -1.56947E+004    1.11708E+004   -3.60457E+002    2.04046E+005
             428    3.52255E+005    2.18535E+005    2.18535E+005   -1.27706E+003   -1.87758E+005    4.06293E+005   -9.83334E+003    1.83563E+005   -1.28885E+003    3.23016E+003    2.75587E+004    1.15319E+004    7.18587E+002    2.02452E+005
             429    3.51531E+005    2.43910E+005    2.43910E+005   -1.74118E+003   -1.58764E+005    4.02674E+005   -2.78015E+004    2.52404E+005   -1.81188E+003    1.11747E+004    7.40418E+004    1.10090E+004    1.48584E+003    1.98550E+005
             430    3.15759E+005    3.57780E+004   -2.95159E+005    2.83879E+003   -2.95159E+005    3.30937E+005    8.55141E+004   -3.11858E+005    2.81678E+003   -4.25035E+004   -2.16855E+005    1.48260E+003   -2.20452E+003    1.40627E+005
             431    3.22733E+005    6.04775E+004   -2.88434E+005   -6.10592E+002   -2.88434E+005    3.48911E+005    7.61889E+004   -3.09321E+005   -4.16063E+002   -3.88001E+004   -1.89351E+005    7.79944E+003   -3.48890E+003    1.57077E+005
             432    3.33247E+005    8.82730E+004   -2.80436E+005   -7.21033E+002   -2.80436E+005    3.68709E+005    6.42946E+004   -3.04745E+005   -6.30446E+002   -3.28935E+004   -1.59360E+005    8.58670E+003   -3.30094E+003    1.72901E+005
             433    3.42129E+005    1.18605E+005   -2.67234E+005   -8.39834E+002   -2.67234E+005    3.85838E+005    4.98229E+004   -2.89306E+005   -7.95205E+002   -2.46227E+004   -1.24051E+005    1.00949E+004   -3.02311E+003    1.86097E+005
             434    3.49636E+005    1.46235E+005   -2.52877E+005   -6.17884E+002   -2.52877E+005    3.99112E+005    3.57530E+004   -2.65629E+005   -5.99638E+002   -1.79427E+004   -8.87166E+004    1.01910E+004   -2.14027E+003    1.96115E+005
             435    3.55106E+005    1.75218E+005   -2.33451E+005   -9.62641E+001   -2.33451E+005    4.08669E+005    1.94430E+004   -2.21590E+005   -9.47941E+001   -8.98088E+003   -4.92533E+004    1.06283E+004   -1.27593E+003    2.03058E+005
             436    3.56257E+005    1.98926E+005   -2.12373E+005   -7.70682E+001   -2.12373E+005    4.11299E+005    4.50782E+003   -1.36251E+005   -7.61987E+001   -2.46436E+003   -1.09829E+004    1.05380E+004   -2.71425E+002    2.05335E+005
             437    3.56435E+005    2.24138E+005    2.24138E+005    7.57559E+002   -1.86920E+005    4.11059E+005   -1.26585E+004    1.89278E+005    7.56410E+002    6.83566E+003    3.03834E+004    1.07450E+004    7.66656E+002    2.04909E+005
             438    3.50689E+005    2.42461E+005    2.42461E+005    4.08624E+002   -1.59706E+005    4.02168E+005   -2.77213E+004    2.45743E+005    3.94911E+002    1.29014E+004    6.98675E+004    1.04513E+004    1.70727E+003    1.98773E+005
             439    3.17819E+005    5.16382E+004   -2.87092E+005    4.56453E+003   -2.87092E+005    3.38730E+005    7.69630E+004   -3.09830E+005    4.62683E+003   -4.20586E+004   -1.93457E+005    2.41832E+003   -4.26583E+002    1.51461E+005
             440    3.27521E+005    7.28434E+004   -2.84003E+005    2.88977E+003   -2.84003E+005    3.56846E+005    6.94232E+004   -3.10037E+005    3.00228E+003   -3.99549E+004   -1.71317E+005    6.97602E+003   -2.84451E+003    1.65686E+005
             441    3.37036E+005    9.98595E+004   -2.74857E+005    3.51743E+003   -2.74857E+005    3.74716E+005    5.71599E+004   -3.03661E+005    3.51396E+003   -3.30537E+004   -1.41940E+005    8.22848E+003   -3.52829E+003    1.79051E+005
             442    3.46732E+005    1.26610E+005   -2.65165E+005    2.19081E+003   -2.65165E+005    3.91775E+005    4.54548E+004   -2.89712E+005    2.07562E+003   -2.69652E+004   -1.11475E+005    9.19521E+003   -3.95315E+003    1.91035E+005
             443    3.54804E+005    1.55484E+005   -2.50229E+005    1.95900E+003   -2.50229E+005    4.05713E+005    3.09289E+004   -2.62802E+005    1.83642E+003   -1.82569E+004   -7.63661E+004    9.52149E+003   -3.15204E+003    2.00529E+005
             444    3.60114E+005    1.80827E+005   -2.33815E+005    6.37550E+002   -2.33815E+005    4.14642E+005    1.74500E+004   -2.18805E+005    5.57875E+002   -1.08225E+004   -4.20854E+004    9.85990E+003   -1.85439E+003    2.06492E+005
             445    3.63107E+005    2.06452E+005   -2.12809E+005    1.55838E+002   -2.12809E+005    4.19262E+005    2.06712E+003   -1.09662E+005    1.54719E+002   -8.75170E+002   -5.48091E+003    9.88232E+003   -1.44881E+002    2.09385E+005
             446    3.60388E+005    2.26322E+005    2.26322E+005   -9.86227E+002   -1.89206E+005    4.15527E+005   -1.20434E+004    1.96483E+005   -9.04265E+002    6.98309E+003    3.00512E+004    9.91691E+003    1.59902E+003    2.07204E+005
             447    3.56715E+005    2.46575E+005    2.46575E+005   -1.46161E+003   -1.62232E+005    4.08807E+005   -2.76272E+004    2.53675E+005   -1.33725E+003    1.69365E+004    6.72824E+004    9.60769E+003    2.94163E+003    2.02612E+005
             448    3.17824E+005    6.04002E+004   -2.84403E+005   -3.16554E+003   -2.84403E+005    3.44803E+005    7.57228E+004   -3.03023E+005   -2.86187E+003   -4.40034E+004   -1.80303E+005    3.20390E+003    3.13899E+003    1.58192E+005
             449    3.26799E+005    7.96499E+004   -2.80551E+005   -3.03981E+003   -2.80551E+005    3.60201E+005    6.79803E+004   -3.01886E+005   -2.60401E+003   -4.12495E+004   -1.60087E+005    7.21769E+003    7.10017E+002    1.69736E+005
             450    3.36040E+005    1.01366E+005   -2.74277E+005   -2.24370E+003   -2.74277E+005    3.75643E+005    5.83850E+004   -2.96778E+005   -1.85086E+003   -3.83385E+004   -1.34966E+005    9.25370E+003   -1.05190E+002    1.81174E+005
             451    3.48101E+005    1.29427E+005   -2.65011E+005   -7.96075E+002   -2.65011E+005    3.94438E+005    4.54602E+004   -2.85011E+005   -5.51053E+002   -3.22550E+004   -1.03574E+005    1.03180E+004   -6.40267E+002    1.93650E+005
             452    3.59477E+005    1.57994E+005   -2.53446E+005   -1.78436E+002   -2.53446E+005    4.11441E+005    3.18768E+004   -2.62088E+005   -5.39224E+001   -2.35106E+004   -7.20658E+004    1.06637E+004   -7.38994E+002    2.03988E+005
             453    3.66278E+005    1.86509E+005   -2.35461E+005    3.34835E+002   -2.35461E+005    4.21970E+005    1.62056E+004   -2.14901E+005    3.76058E+002   -1.14985E+004   -3.74943E+004    1.06749E+004   -5.58917E+002    2.10310E+005
             454    3.67470E+005    2.10319E+005   -2.13995E+005   -1.56912E+002   -2.13995E+005    4.24314E+005    1.27777E+003   -8.79830E+004   -1.57232E+002   -1.03973E+003   -2.63635E+003    1.05712E+004   -6.50620E+001    2.11892E+005
             455    3.66781E+005    2.33363E+005    2.33363E+005   -3.18222E+002   -1.89375E+005    4.22738E+005   -1.45565E+004    2.07703E+005   -3.52593E+002    1.08166E+004    3.32056E+004    1.05711E+004    5.01356E+002    2.10805E+005
             456    3.59761E+005    2.50179E+005    2.50179E+005   -6.51730E+002   -1.62013E+005    4.12192E+005   -2.91715E+004    2.57187E+005   -7.44715E+002    2.10812E+004    6.71782E+004    1.05340E+004    8.79868E+002    2.04520E+005
             457    3.68057E+005    2.61120E+005    2.61120E+005    1.57442E+004   -1.62083E+005    4.23202E+005   -3.82604E+004    2.38531E+005    1.50704E+004    3.06839E+004    6.90271E+004    1.54086E+004   -2.54237E+003    2.10096E+005
             458    3.76313E+005    2.42565E+005    2.42565E+005    8.67620E+003   -1.91529E+005    4.34094E+005   -1.99040E+004    1.92522E+005    8.32975E+003    1.60932E+004    3.52890E+004    1.65702E+004   -1.22896E+003    2.16183E+005
             459    3.79571E+005    2.19010E+005   -2.19280E+005    1.46605E+002   -2.19280E+005    4.38290E+005    4.10573E+001   -4.95517E+004    1.37040E+002   -1.87855E+002   -7.23567E+001    1.69022E+004   -7.02929E+001    2.18492E+005
             460    3.76329E+005    1.90265E+005   -2.43797E+005   -8.96219E+003   -2.43797E+005    4.34061E+005    2.08315E+004   -1.96106E+005   -8.60121E+003   -1.73845E+004   -3.65087E+004    1.66059E+004    1.27786E+003    2.16164E+005
             461    3.67285E+005    1.61213E+005   -2.61058E+005   -1.58187E+004   -2.61058E+005    4.22272E+005    3.85545E+004   -2.38948E+005   -1.51424E+004   -3.09676E+004   -6.95536E+004    1.54527E+004    2.50683E+003    2.09613E+005
             462    3.52983E+005    1.30241E+005   -2.73025E+005   -2.01112E+004   -2.73025E+005    4.03266E+005    5.42983E+004   -2.65091E+005   -1.92368E+004   -4.28841E+004   -1.00774E+005    1.31408E+004    3.59243E+003    1.98965E+005
             463    3.32825E+005    9.91179E+004   -2.76942E+005   -2.03065E+004   -2.76942E+005    3.76060E+005    6.60437E+004   -2.78096E+005   -1.94539E+004   -5.06889E+004   -1.27988E+005    9.99260E+003    4.00501E+003    1.83539E+005
             464    3.15225E+005    7.39830E+004   -2.76729E+005   -1.70059E+004   -2.76729E+005    3.50712E+005    7.32505E+004   -2.83343E+005   -1.63536E+004   -4.79272E+004   -1.55471E+005    6.24592E+003    4.46265E+003    1.66565E+005
             465    3.16278E+005    6.62595E+004   -2.80823E+005   -8.88378E+003   -2.80823E+005    3.47082E+005    7.44824E+004   -2.95175E+005   -8.67054E+003   -4.08127E+004   -1.73964E+005    1.85345E+003    5.01030E+003    1.60108E+005
             466    3.88479E+005    4.25770E+004   -3.68039E+005   -6.32722E+003   -3.68039E+005    4.10616E+005    1.10596E+005   -3.81462E+005    3.99863E+004   -1.37771E+004   -3.57998E+005   -1.20149E+004    9.36938E+003    5.86927E+004
             467    3.65446E+005    3.67911E+004   -3.49352E+005   -8.90032E+003   -3.49352E+005    3.86143E+005    1.07154E+005   -3.58935E+005    3.43097E+004   -2.33046E+004   -3.32466E+005   -1.10399E+004    2.38012E+003    7.40621E+004
             468    3.41485E+005    3.33337E+004   -3.26578E+005   -7.12573E+003   -3.26578E+005    3.59912E+005    1.00123E+005   -3.36029E+005    3.06257E+004   -3.11604E+004   -2.99836E+005   -1.01987E+004   -1.13912E+003    8.88662E+004
             469    3.24418E+005    2.84648E+004   -3.09715E+005   -1.07918E+003   -3.09715E+005    3.38179E+005    9.41097E+004   -3.21370E+005    2.54721E+004   -4.10231E+004   -2.66778E+005   -9.03998E+003   -1.35412E+003    1.07390E+005
             470    3.12966E+005    2.32468E+004   -2.95445E+005    1.14622E+004   -2.95445E+005    3.18692E+005    8.69119E+004   -3.12466E+005    1.79614E+004   -4.54160E+004   -2.33281E+005   -6.67220E+003    2.54463E+002    1.24629E+005
             471    3.12752E+005    3.57059E+004   -2.89524E+005    9.04431E+003   -2.89524E+005    3.25230E+005    8.15912E+004   -3.10180E+005    9.12380E+003   -4.74585E+004   -2.06439E+005   -3.79084E+003    2.67080E+003    1.41748E+005
             472    3.15093E+005    5.34697E+004   -2.85107E+005   -4.58570E+002   -2.85107E+005    3.38577E+005    7.73653E+004   -3.04449E+005   -5.05771E+002   -4.40585E+004   -1.87532E+005   -1.47525E+003    4.20919E+003    1.53290E+005
             473    3.68894E+005    3.50552E+005    3.50552E+005   -1.60979E+004   -2.05453E+004    3.71097E+005   -1.04636E+005    3.68834E+005   -1.69023E+004    6.17975E+002    3.30193E+005   -4.54101E+003   -1.05947E+004    8.36321E+004
             474    3.52126E+005    3.26095E+005    3.26095E+005    4.22439E+003   -4.99974E+004    3.76092E+005   -9.34406E+004    3.42545E+005    1.73727E+003   -5.00950E+003    2.83594E+005    1.13652E+004   -1.98621E+003    1.18607E+005
             475    3.51623E+005    3.06688E+005    3.06688E+005    3.66674E+003   -7.88564E+004    3.85545E+005   -7.71662E+004    3.28758E+005    1.39020E+003    1.38389E+003    2.28725E+005    1.56776E+004    2.12470E+001    1.54076E+005
             476    3.44073E+005    2.71320E+005    2.71320E+005    3.77959E+003   -1.16818E+005    3.88138E+005   -5.27606E+004    2.90470E+005    2.61900E+003   -4.22320E+003    1.59886E+005    1.66179E+004    1.06282E+003    1.74832E+005
             477    3.92794E+005    3.60215E+005    3.60215E+005   -2.71396E+004   -3.78003E+004    3.98016E+005   -9.84252E+004    3.92468E+005   -3.56088E+004   -1.46610E+004    3.45545E+005   -7.11928E+003   -2.13469E+004    7.07931E+004
             478    3.74981E+005    3.44865E+005    3.44865E+005   -5.52175E+003   -5.06298E+004    3.95495E+005   -9.62379E+004    3.68803E+005   -9.62666E+003   -8.37007E+003    3.06710E+005    1.04820E+004   -1.01984E+004    1.15897E+005
             479    3.61359E+005    3.11328E+005    3.11328E+005   -6.97001E+003   -8.14770E+004    3.92805E+005   -7.42935E+004    3.43433E+005   -1.08889E+004   -9.45864E+003    2.43228E+005    1.54646E+004   -6.19220E+003    1.47799E+005
             480    3.58965E+005    2.86395E+005    2.86395E+005   -2.12273E+003   -1.15593E+005    4.01988E+005   -5.62265E+004    3.14651E+005   -4.25812E+003   -5.45875E+003    1.78396E+005    1.60663E+004   -3.85336E+003    1.77439E+005
             481    4.09954E+005    3.82134E+005    3.82134E+005   -1.96343E+004   -3.55424E+004    4.17676E+005   -1.08986E+005    4.09258E+005   -3.07093E+004   -1.02191E+004    3.67886E+005   -1.10266E+004   -2.74552E+004    6.90543E+004
             482    3.76799E+005    3.51506E+005    3.51506E+005    3.83531E+003   -4.88725E+004    4.00378E+005   -1.02156E+005    3.68368E+005    1.75446E+003   -1.60893E+004    3.20803E+005    8.12269E+003   -1.02735E+004    1.05924E+005
             483    3.73159E+005    3.33676E+005    3.33676E+005    5.94521E+003   -7.24544E+004    4.06130E+005   -8.90554E+004    3.53910E+005    2.83724E+003   -4.22049E+003    2.68550E+005    1.47824E+004   -4.44528E+003    1.48329E+005
             484    3.57573E+005    2.90962E+005    2.90962E+005    5.48253E+003   -1.10109E+005    4.01070E+005   -6.21118E+004    3.11174E+005    3.99117E+003   -9.25120E+003    1.91595E+005    1.50391E+004   -1.23718E+003    1.72550E+005
             485    4.44504E+005    3.88517E+005    3.88517E+005   -3.15875E+004   -7.69141E+004    4.65431E+005   -9.33384E+004    4.39260E+005   -6.94984E+004   -2.47635E+004    3.74277E+005   -1.68330E+004   -4.70315E+004    6.05872E+004
             486    4.06103E+005    3.70645E+005    3.70645E+005   -2.05365E+004   -4.88928E+004    4.19538E+005   -1.00405E+005    4.03866E+005   -2.20663E+004   -1.67547E+004    3.40036E+005    1.85642E+003   -2.76136E+004    1.05512E+005
             487    3.77442E+005    3.30046E+005    3.30046E+005   -1.30312E+004   -7.42714E+004    4.04318E+005   -8.09145E+004    3.66014E+005   -1.74332E+004   -1.40139E+004    2.74191E+005    1.08095E+004   -1.73718E+004    1.38019E+005
             488    3.71383E+005    3.06462E+005    3.06462E+005   -4.69363E+003   -1.04677E+005    4.11140E+005   -6.56971E+004    3.39065E+005   -7.05710E+003   -9.63301E+003    2.13781E+005    1.13756E+004   -1.13271E+004    1.71082E+005
             489    4.71282E+005    4.22942E+005    4.22942E+005   -1.38077E+004   -7.65811E+004    4.99523E+005   -1.10851E+005    4.61736E+005   -6.60511E+004   -4.95095E+003    4.03555E+005   -2.46117E+004   -5.40650E+004    7.29163E+004
             490    3.94857E+005    3.67108E+005    3.67108E+005   -1.56441E+004   -3.88313E+004    4.05940E+005   -1.04211E+005    3.93321E+005   -1.32945E+004   -1.57485E+004    3.41676E+005   -8.14168E+003   -2.90459E+004    9.36324E+004
             491    3.84024E+005    3.53263E+005    3.53263E+005   -1.15077E+003   -5.47418E+004    4.08004E+005   -9.91234E+004    3.75473E+005   -2.74056E+003   -3.51419E+003    3.03625E+005    5.19903E+003   -1.55000E+004    1.32382E+005
             492    3.64460E+005    3.10883E+005    3.10883E+005    6.41622E+002   -9.04975E+004    4.01380E+005   -7.36757E+004    3.37362E+005   -2.43005E+002   -1.01015E+004    2.31372E+005    6.06345E+003   -8.82943E+003    1.59647E+005
             493    5.27453E+005    4.15367E+005    4.15367E+005   -2.03424E+004   -1.71031E+005    5.86398E+005   -7.46647E+004    4.75285E+005   -1.52904E+005   -7.95997E+003    3.84858E+005   -3.49925E+004   -9.07307E+004    7.65622E+004
             494    4.39504E+005    3.80107E+005    3.80107E+005   -2.67807E+004   -8.60065E+004    4.66114E+005   -8.91067E+004    4.30389E+005   -7.19663E+004   -1.05303E+004    3.49817E+005   -2.70906E+004   -6.85591E+004    8.38619E+004
             495    3.89647E+005    3.41089E+005    3.41089E+005   -4.39776E+004   -5.29824E+004    3.94071E+005   -8.13762E+004    3.89412E+005   -3.94536E+004   -1.57709E+004    2.99353E+005   -1.13392E+004   -4.68206E+004    1.11856E+005
             496    3.67682E+005    3.17837E+005    3.17837E+005   -1.90841E+004   -7.43493E+004    3.92186E+005   -7.48011E+004    3.58158E+005   -1.66791E+004   -8.02209E+003    2.49105E+005   -7.78511E+003   -3.12982E+004    1.45664E+005
             497    5.34092E+005    4.58269E+005    4.58269E+005    2.99670E+004   -1.40164E+005    5.98433E+005   -1.16024E+005    4.67023E+005   -1.30321E+005    4.46114E+004    4.33782E+005   -3.46743E+004   -5.81065E+004    8.44304E+004
             498    5.03107E+005    4.14451E+005    4.14451E+005   -1.56057E+004   -1.38816E+005    5.53267E+005   -8.66763E+004    4.67319E+005   -1.21819E+005   -4.44348E+003    3.86291E+005   -4.14054E+004   -7.04461E+004    8.32124E+004
             499    4.56399E+005    3.90483E+005    3.90483E+005   -2.27933E+004   -9.93545E+004    4.89838E+005   -8.94451E+004    4.41603E+005   -8.51701E+004    5.86693E+003    3.47638E+005   -3.58137E+004   -6.31634E+004    1.09960E+005
             500    4.04401E+005    3.41041E+005    3.41041E+005   -4.56820E+004   -7.89794E+004    4.20020E+005   -7.21265E+004    4.01300E+005   -6.54558E+004    1.27314E+003    2.80562E+005   -3.29437E+004   -5.35169E+004    1.29872E+005
             501    5.11224E+005    4.23858E+005    4.23858E+005    2.10086E+004   -1.51243E+005    5.75101E+005   -9.78748E+004    4.38419E+005   -1.42098E+005    6.40458E+004    3.71677E+005   -4.37589E+004   -3.70287E+004    1.30312E+005
             502    5.70743E+005    4.54242E+005    4.54242E+005    1.83863E+004   -1.91786E+005    6.46028E+005   -9.36139E+004    4.71059E+005   -1.83659E+005    4.86459E+004    4.15855E+005   -3.87241E+004   -5.07881E+004    1.14597E+005
             503    6.25596E+005    4.86728E+005    4.86728E+005    1.40316E+004   -2.22684E+005    7.09412E+005   -9.26918E+004    5.09117E+005   -2.14051E+005    4.25851E+004    4.49541E+005   -3.57342E+004   -6.41863E+004    1.14404E+005
             504    6.60117E+005    4.83195E+005    4.83195E+005   -2.25751E+004   -2.63554E+005    7.46749E+005   -6.56887E+004    5.47140E+005   -2.51254E+005   -6.89328E+003    4.55214E+005   -2.97883E+004   -8.82878E+004    8.85662E+004
             505    4.05256E+005    3.73604E+005    3.73604E+005    8.85272E+003   -6.26415E+004    4.36246E+005   -1.06605E+005    3.90688E+005   -5.99477E+004    1.35445E+004    3.66218E+005   -1.21084E+004   -2.48278E+004    4.56241E+004
             506    4.32355E+005    3.93149E+005    3.93149E+005    1.36607E+004   -7.75270E+004    4.70676E+005   -1.09761E+005    4.09873E+005   -7.36314E+004    1.67146E+004    3.86199E+005   -1.32853E+004   -3.55768E+004    3.89088E+004
             507    4.66160E+005    4.06076E+005    4.06076E+005    2.51300E+003   -1.04182E+005    5.10258E+005   -1.01469E+005    4.37403E+005   -9.86645E+004    3.50186E+003    3.99570E+005   -1.38233E+004   -4.67354E+004    2.83226E+004
             508    5.05786E+005    4.35244E+005    4.35244E+005    8.34465E+003   -1.23368E+005    5.58613E+005   -1.06740E+005    4.64794E+005   -1.17127E+005    1.12354E+004    4.26112E+005   -1.33668E+004   -5.52108E+004    3.77918E+004
             509    5.43370E+005    4.47365E+005    4.47365E+005    4.30064E+003   -1.58903E+005    6.06268E+005   -9.75874E+004    4.83436E+005   -1.51018E+005    7.23132E+003    4.36549E+005   -1.31205E+004   -6.63702E+004    3.75259E+004
             510    6.08333E+005    5.12828E+005    5.12828E+005    2.87431E+004   -1.70027E+005    6.82855E+005   -1.23848E+005    5.27483E+005   -1.63611E+005    3.89396E+004    4.96215E+005   -1.05079E+004   -6.50228E+004    6.90538E+004
             511    6.14203E+005    4.93961E+005    4.93961E+005    4.25436E+004   -2.05469E+005    6.99430E+005   -1.10345E+005    4.80434E+005   -1.96539E+005    5.82199E+004    4.69355E+005   -1.38662E+004   -7.72802E+004    8.18067E+004
             512    4.19520E+005    3.50870E+005    3.50870E+005   -6.87619E+001   -1.13784E+005    4.64655E+005   -7.90057E+004    3.82474E+005   -9.90975E+004    5.46246E+004    2.81490E+005   -4.80993E+004   -2.31834E+004    1.38409E+005
             513    3.34728E+005    2.67725E+005    2.67725E+005   -2.30085E+004   -9.82052E+004    3.65930E+005   -4.88370E+004    3.14871E+005   -4.96041E+004    3.42486E+004    1.61867E+005   -5.21290E+004   -1.10047E+004    1.52215E+005
             514    2.85561E+005    1.63981E+005   -1.65755E+005   -1.49359E+003   -1.65755E+005    3.29736E+005    1.08921E+003    5.29417E+004   -1.40929E+003    3.65456E+002   -2.22380E+003   -5.35714E+004    2.76465E+000    1.55917E+005
             515    3.29551E+005    9.85125E+004   -2.62326E+005    2.27376E+004   -2.62326E+005    3.60839E+005    4.70253E+004   -3.09025E+005    4.90353E+004   -3.33005E+004   -1.56811E+005   -5.21769E+004    1.04647E+004    1.50449E+005
             516    4.28016E+005    1.13405E+005   -3.60819E+005   -3.16083E+003   -3.60819E+005    4.74224E+005    8.35248E+004   -3.89836E+005    9.83545E+004   -5.65142E+004   -2.92415E+005   -4.88022E+004    2.26944E+004    1.39451E+005
             517    5.11028E+005    1.55903E+005   -4.20566E+005   -2.31864E+004   -4.20566E+005    5.76469E+005    9.59498E+004   -4.31441E+005    1.46909E+005   -6.18594E+004   -3.72899E+005   -4.36270E+004    3.56723E+004    1.24307E+005
             518    5.84459E+005    1.94076E+005   -4.68438E+005   -2.58330E+004   -4.68438E+005    6.62515E+005    1.00065E+005   -4.77078E+005    1.86012E+005   -5.68127E+004   -4.29394E+005   -3.97362E+004    5.02639E+004    1.16938E+005
             519    6.27753E+005    2.28677E+005   -4.84896E+005   -1.77253E+004   -4.84896E+005    7.13572E+005    9.13148E+004   -5.00158E+005    2.19916E+005   -3.98465E+004   -4.54014E+005   -3.31228E+004    6.73548E+004    1.00956E+005
             520    6.21761E+005    2.03263E+005   -5.03955E+005   -4.32574E+004   -5.03955E+005    7.07218E+005    1.14650E+005   -4.92260E+005    1.97741E+005   -6.17563E+004   -4.79934E+005   -9.96096E+003    6.13456E+004    8.99475E+004
             521    3.62535E+005    2.99159E+005    2.99159E+005   -4.44092E+004   -7.97546E+004    3.78913E+005   -5.83316E+004    3.58628E+005   -3.91156E+004    6.65967E+003    2.07451E+005   -2.95097E+004   -3.87848E+004    1.55674E+005
             522    3.42746E+005    2.71651E+005    2.71651E+005   -7.44069E+003   -1.10908E+005    3.82560E+005   -5.11007E+004    3.04519E+005   -6.99712E+003   -6.54944E+003    1.66849E+005   -2.14284E+003   -1.89972E+004    1.69542E+005
             523    3.61894E+005    2.82574E+005    2.82574E+005    2.87020E+003   -1.26148E+005    4.08722E+005   -5.30989E+004    3.03266E+005    1.98103E+003   -2.74857E+003    1.60064E+005    9.84843E+003   -4.54396E+003    1.86953E+005
             524    3.55766E+005    2.61589E+005    2.61589E+005   -3.77037E+003   -1.42674E+005    4.04263E+005   -3.83813E+004    2.84374E+005   -5.62272E+003   -8.13622E+003    1.28903E+005    1.46379E+004   -7.06765E+003    1.89152E+005
             525    3.59411E+005    2.64149E+005    2.64149E+005    5.00794E+003   -1.46155E+005    4.10303E+005   -4.10006E+004    2.72760E+005    4.05202E+003   -1.75671E+003    1.20707E+005    1.78338E+004   -3.52444E+001    1.94853E+005
             526    3.49311E+005    2.46561E+005    2.46561E+005   -3.27268E+003   -1.52592E+005    3.99153E+005   -3.02323E+004    2.61535E+005   -4.68048E+003   -5.24724E+003    1.00625E+005    1.83718E+004   -2.38609E+003    1.91346E+005
             527    3.48412E+005    2.47390E+005    2.47390E+005    3.40528E+003   -1.51630E+005    3.99020E+005   -3.30549E+004    2.51165E+005    2.74856E+003    1.02550E+003    9.53907E+004    1.85795E+004    1.00117E+003    1.92879E+005
             528    3.19505E+005    2.32269E+005    2.32269E+005   -2.50776E+004   -1.25344E+005    3.57613E+005   -2.72823E+004    2.80691E+005   -2.17420E+004    1.90162E+003    1.01687E+005   -2.94143E+004   -2.06238E+004    1.68658E+005
             529    3.37009E+005    2.34232E+005    2.34232E+005   -1.15074E+003   -1.51827E+005    3.86059E+005   -2.70849E+004    2.41741E+005   -8.96992E+002   -9.91523E+002    8.31431E+004   -3.00793E+003   -8.61913E+003    1.88197E+005
             530    3.49615E+005    2.31367E+005    2.31367E+005    2.42223E+002   -1.70842E+005    4.02209E+005   -2.02556E+004    2.21721E+005    2.97544E+001   -3.13395E+003    6.38711E+004    8.05615E+003   -1.33487E+003    1.98110E+005
             531    3.56767E+005    2.30477E+005    2.30477E+005   -6.15237E+002   -1.80416E+005    4.10893E+005   -1.64817E+004    2.13451E+005   -1.21499E+003   -1.78599E+003    5.24460E+004    1.31906E+004   -2.90495E+003    2.03162E+005
             532    3.51512E+005    2.19619E+005    2.19619E+005    1.37445E+003   -1.85877E+005    4.05496E+005   -1.17057E+004    1.78939E+005    1.25162E+003   -2.51615E+003    3.63815E+004    1.63065E+004    6.58599E+002    2.01147E+005
             533    3.51693E+005    2.19111E+005    2.19111E+005   -5.62956E+002   -1.86522E+005    4.05633E+005   -1.06754E+004    1.84064E+005   -9.91932E+002   -1.78341E+002    3.31964E+004    1.73164E+004   -1.04175E+003    2.01365E+005
             534    3.43374E+005    2.09444E+005    2.09444E+005    9.10324E+002   -1.86870E+005    3.96313E+005   -7.82804E+003    1.54192E+005    8.54455E+002   -1.39289E+003    2.40226E+004    1.77869E+004    7.33784E+002    1.96944E+005
             535    3.08388E+005    1.75612E+005   -1.80442E+005    2.29839E+003   -1.80442E+005    3.56054E+005    8.43854E+002   -1.10367E+005    2.21585E+003    4.06002E+002   -5.15342E+003   -2.82212E+004    8.55296E+002    1.75753E+005
             536    3.30656E+005    1.80016E+005   -2.01596E+005   -1.58817E+002   -2.01596E+005    3.81611E+005    7.24620E+003   -1.51571E+005   -1.81800E+002   -3.67165E+002   -2.11896E+004   -1.41882E+003    1.62216E+003    1.90510E+005
             537    3.51821E+005    1.92146E+005   -2.13885E+005    6.15705E+002   -2.13885E+005    4.06031E+005    7.04125E+003   -1.62093E+005    7.98926E+002    2.38831E+003   -2.43110E+004    9.39737E+003    1.39681E+003    2.02348E+005
             538    3.53025E+005    1.85196E+005   -2.21968E+005   -1.36513E+003   -2.21968E+005    4.07164E+005    1.27125E+004   -1.85121E+005   -1.03085E+003    9.41112E+002   -3.80476E+004    1.47600E+004    9.53974E+002    2.02092E+005
             539    3.55395E+005    1.88312E+005   -2.21601E+005    2.30744E+002   -2.21601E+005    4.09912E+005    1.10194E+004   -1.85423E+005    6.47276E+002    3.33264E+003   -3.70382E+004    1.77853E+004    7.54674E+002    2.03164E+005
             540    3.48554E+005    1.79815E+005   -2.22013E+005   -1.33997E+003   -2.22013E+005    4.01828E+005    1.45128E+004   -1.92836E+005   -9.11540E+002    9.34794E+002   -4.35618E+004    1.85409E+004    3.33478E+002    1.98794E+005
             541    3.46518E+005    1.82260E+005   -2.17331E+005    3.54004E+002   -2.17331E+005    3.99591E+005    1.15725E+004   -1.85870E+005    7.20170E+002    2.36269E+003   -3.78002E+004    1.87486E+004    1.28621E+002    1.97881E+005
             542    3.26786E+005    1.14658E+005   -2.47276E+005    2.61146E+004   -2.47276E+005    3.61933E+005    3.55012E+004   -2.97955E+005    2.29923E+004   -3.84583E+003   -1.25650E+005   -3.03409E+004    2.24704E+004    1.67020E+005
             543    3.36380E+005    1.37102E+005   -2.45206E+005    5.37986E+003   -2.45206E+005    3.82307E+005    3.42413E+004   -2.68398E+005    4.89714E+003    3.57197E+003   -1.11193E+005   -4.03641E+003    1.22898E+004    1.81956E+005
             544    3.54278E+005    1.42595E+005   -2.60828E+005   -3.79012E+002   -2.60828E+005    4.03424E+005    3.95373E+004   -2.77227E+005    1.51980E+002    3.55233E+003   -1.22316E+005    7.31784E+003    4.73362E+003    1.91362E+005
             545    3.57557E+005    1.51289E+005   -2.56706E+005    2.08155E+003   -2.56706E+005    4.07995E+005    3.44453E+004   -2.73045E+005    3.27689E+003    7.36080E+003   -1.13974E+005    1.28295E+004    5.38444E+003    1.94099E+005
             546    3.55805E+005    1.46371E+005   -2.59737E+005   -2.79007E+003   -2.59737E+005    4.06108E+005    3.87186E+004   -2.70725E+005   -1.79581E+003    4.48037E+003   -1.18840E+005    1.60587E+004    1.26468E+003    1.92653E+005
             547    3.51578E+005    1.50322E+005   -2.51187E+005    1.52584E+003   -2.51187E+005    4.01509E+005    3.31130E+004   -2.65457E+005    2.70987E+003    5.76900E+003   -1.07818E+005    1.70603E+004    1.86843E+003    1.91624E+005
             548    3.44925E+005    1.45309E+005   -2.48814E+005   -2.02443E+003   -2.48814E+005    3.94124E+005    3.51765E+004   -2.58417E+005   -1.19264E+003    1.41542E+003   -1.05752E+005    1.74721E+004   -2.64524E+002    1.88719E+005
             549    3.66610E+005    7.40353E+004   -3.03154E+005    5.18699E+004   -3.03154E+005    3.77189E+005    5.90830E+004   -3.65097E+005    4.83520E+004   -5.92813E+003   -2.19673E+005   -3.09987E+004    4.17098E+004    1.48398E+005
             550    3.52063E+005    9.28014E+004   -2.92958E+005    1.10086E+004   -2.92958E+005    3.85759E+005    6.30493E+004   -3.29653E+005    9.85181E+003    4.59386E+003   -2.03594E+005   -4.78433E+003    2.40115E+004    1.60920E+005
             551    3.62309E+005    1.06070E+005   -2.97534E+005   -3.60664E+002   -2.97534E+005    4.03604E+005    6.39417E+004   -3.24240E+005    8.11864E+002    6.85677E+003   -1.99494E+005    8.22644E+003    8.33536E+003    1.72710E+005
             552    3.65503E+005    1.12166E+005   -2.95721E+005    2.10129E+003   -2.95721E+005    4.07887E+005    6.04849E+004   -3.24959E+005    4.68252E+003    8.89825E+003   -1.95035E+005    1.37045E+004    9.63042E+003    1.75122E+005
             553    3.60217E+005    1.14959E+005   -2.89759E+005   -4.28197E+003   -2.89759E+005    4.04718E+005    5.96941E+004   -3.10925E+005   -2.36520E+003    7.75472E+003   -1.84472E+005    1.70274E+004    1.97167E+003    1.76792E+005
             554    3.55749E+005    1.14816E+005   -2.83916E+005    9.89113E+002   -2.83916E+005    3.98731E+005    5.60371E+004   -3.10631E+005    3.42145E+003    6.07779E+003   -1.77611E+005    1.76646E+004    3.45224E+003    1.75428E+005
             555    3.45874E+005    1.16231E+005   -2.73407E+005   -2.65713E+003   -2.73407E+005    3.89638E+005    5.32780E+004   -2.94337E+005   -1.17179E+003    2.94271E+003   -1.61605E+005    1.77699E+004   -5.11123E+002    1.75371E+005
             556    4.23125E+005    8.74422E+004   -3.59797E+005    3.41693E+004   -3.59797E+005    4.47239E+005    7.93951E+004   -4.15480E+005    7.32982E+004   -7.91038E+003   -3.03573E+005   -3.63423E+004    5.61187E+004    1.25967E+005
             557    3.72550E+005    6.38259E+004   -3.23445E+005    3.23908E+004   -3.23445E+005    3.87271E+005    7.57428E+004   -3.69548E+005    2.80381E+004    1.03884E+004   -2.65655E+005   -1.21511E+004    3.88052E+004    1.32224E+005
             558    3.76275E+005    7.04406E+004   -3.34990E+005    3.01248E+003   -3.34990E+005    4.05431E+005    8.71790E+004   -3.62307E+005    3.67103E+003    7.72893E+003   -2.72937E+005    3.13542E+003    1.42709E+004    1.45249E+005
             559    3.74398E+005    8.49104E+004   -3.21353E+005    9.78803E+003   -3.21353E+005    4.06263E+005    7.55515E+004   -3.56846E+005    1.24034E+004    1.45868E+004   -2.53645E+005    9.05245E+003    1.54296E+004    1.50385E+005
             560    3.68064E+005    8.18645E+004   -3.21859E+005   -4.99129E+003   -3.21859E+005    4.03724E+005    8.16620E+004   -3.43853E+005   -2.74846E+003    9.38891E+003   -2.51626E+005    1.32587E+004    4.20902E+003    1.52515E+005
             561    3.59081E+005    8.75733E+004   -3.05655E+005    4.83553E+003   -3.05655E+005    3.93228E+005    7.10821E+004   -3.36617E+005    7.79380E+003    9.63480E+003   -2.30675E+005    1.43743E+004    5.60213E+003    1.53748E+005
             562    3.48955E+005    8.41664E+004   -3.00349E+005   -3.78310E+003   -3.00349E+005    3.84516E+005    7.33219E+004   -3.22574E+005   -1.89368E+003    2.15786E+003   -2.20230E+005    1.49047E+004    5.80131E+000    1.55490E+005
             563    4.68219E+005    1.16700E+005   -3.93652E+005    1.60697E+004   -3.93652E+005    5.10352E+005    8.69608E+004   -4.42897E+005    1.01974E+005   -8.36244E+003   -3.54494E+005   -3.73124E+004    6.77398E+004    1.01840E+005
             564    4.09921E+005    5.80388E+004   -3.61554E+005    3.79567E+004   -3.61554E+005    4.19593E+005    8.85194E+004   -4.08812E+005    5.01601E+004    7.64160E+003   -3.23360E+005   -1.56824E+004    5.47476E+004    1.04661E+005
             565    3.88717E+005    4.73981E+004   -3.58947E+005    9.34184E+003   -3.58947E+005    4.06345E+005    1.00736E+005   -3.84492E+005    9.92438E+003    8.65558E+003   -3.20787E+005    1.33914E+003    2.19522E+004    1.16473E+005
             566    3.93690E+005    5.93255E+004   -3.54261E+005    1.59387E+004   -3.54261E+005    4.13586E+005    9.29989E+004   -3.88257E+005    2.05510E+004    1.40738E+004   -3.13621E+005    7.99089E+003    2.20346E+004    1.20824E+005
             567    3.72790E+005    5.68823E+004   -3.42167E+005   -2.85143E+003   -3.42167E+005    3.99050E+005    9.60455E+004   -3.61787E+005    7.04599E+002    9.30848E+003   -2.98150E+005    1.23394E+004    7.65718E+003    1.24339E+005
             568    3.71378E+005    6.05882E+004   -3.34618E+005    7.13986E+003   -3.34618E+005    3.95206E+005    8.89633E+004   -3.62573E+005    1.19610E+004    7.90019E+003   -2.86751E+005    1.31869E+004    8.59308E+003    1.27992E+005
             569    3.49931E+005    5.74283E+004   -3.18459E+005   -2.12816E+003   -3.18459E+005    3.75887E+005    8.77196E+004   -3.38246E+005    7.34579E+002    1.20923E+003   -2.65103E+005    1.33276E+004    1.31818E+003    1.30535E+005
             570    5.19637E+005    1.41899E+005   -4.35664E+005   -6.03371E+003   -4.35664E+005    5.77563E+005    9.99330E+004   -4.68634E+005    1.27687E+005   -2.14023E+004   -4.06084E+005   -4.01850E+004    6.83172E+004    8.87271E+004
             571    4.62158E+005    1.11668E+005   -3.86193E+005    2.91446E+004   -3.86193E+005    4.97861E+005    8.17935E+004   -4.45127E+005    9.49906E+004    1.48762E+004   -3.55247E+005   -3.19232E+004    7.63851E+004    8.15826E+004
             572    4.18734E+005    3.75832E+004   -3.87536E+005    2.45056E+004   -3.87536E+005    4.25119E+005    1.08482E+005   -4.18274E+005    2.62338E+004    1.46671E+004   -3.66348E+005   -1.43678E+004    3.70205E+004    8.34537E+004
             573    4.08255E+005    4.30828E+004   -3.68665E+005    3.60049E+004   -3.68665E+005    4.11748E+005    9.65258E+004   -4.08117E+005    3.44558E+004    2.25967E+004   -3.46630E+005   -4.68056E+003    3.39202E+004    8.62303E+004
             574    3.89472E+005    3.75205E+004   -3.67235E+005    4.90124E+003   -3.67235E+005    4.04756E+005    1.08271E+005   -3.86381E+005    5.32233E+003    1.47451E+004   -3.44881E+005    2.05618E+003    1.58602E+004    9.10862E+004
             575    3.75700E+005    4.05266E+004   -3.47754E+005    1.39541E+004   -3.47754E+005    3.88281E+005    9.77578E+004   -3.73577E+005    1.65337E+004    1.24959E+004   -3.22303E+005    5.05824E+003    1.36597E+004    9.49658E+004
             576    3.60030E+005    3.45704E+004   -3.41132E+005    8.54649E+002   -3.41132E+005    3.75702E+005    1.01902E+005   -3.56452E+005    2.43638E+003    2.05255E+003   -3.10196E+005    6.00119E+003    5.01075E+003    1.02988E+005
             577    5.85478E+005    1.93471E+005   -4.67895E+005   -1.58438E+004   -4.67895E+005    6.61366E+005    9.67559E+004   -4.90013E+005    1.83145E+005   -3.37437E+004   -4.39669E+005   -3.20201E+004    7.16497E+004    9.02785E+004
             578    5.36230E+005    1.56158E+005   -4.39256E+005    5.60692E+003   -4.39256E+005    5.95413E+005    9.24969E+004   -4.85156E+005    1.43129E+005   -6.06701E+003   -4.14553E+005   -2.82568E+004    7.88655E+004    7.39892E+004
             579    4.80162E+005    1.09458E+005   -4.10828E+005    1.52450E+004   -4.10828E+005    5.20286E+005    9.53751E+004   -4.58670E+005    9.75348E+004    9.11234E+003   -3.92772E+005   -2.82315E+004    6.08129E+004    6.37829E+004
             580    4.57891E+005    8.23601E+004   -4.02494E+005    2.25566E+004   -4.02494E+005    4.84854E+005    9.91925E+004   -4.48978E+005    7.41044E+004    1.70004E+004   -3.88682E+005   -1.93725E+004    4.96888E+004    5.80971E+004
             581    4.17917E+005    5.61902E+004   -3.79270E+005    1.85572E+004   -3.79270E+005    4.35461E+005    1.01508E+005   -4.14079E+005    5.01071E+004    1.34432E+004   -3.68073E+005   -1.54018E+004    3.40230E+004    5.65190E+004
             582    4.01739E+005    4.27769E+004   -3.71273E+005    1.69048E+004   -3.71273E+005    4.14050E+005    1.03864E+005   -3.99858E+005    3.95249E+004    7.46676E+003   -3.58583E+005   -1.05522E+004    2.45702E+004    6.45347E+004
             583    3.74980E+005    3.10713E+004   -3.52226E+005    1.38410E+004   -3.52226E+005    3.83298E+005    1.02438E+005   -3.74087E+005    2.84921E+004    1.34961E+003   -3.37156E+005   -8.43987E+003    1.42661E+004    7.13557E+004
             584    4.08852E+005    6.48865E+004   -3.77899E+005   -1.46742E+004   -3.77899E+005    4.42785E+005    1.09229E+005   -3.90863E+005    6.20526E+004   -1.92797E+004   -3.70459E+005   -1.27808E+004    2.60263E+004    4.52173E+004
             585    4.37130E+005    8.52498E+004   -3.92191E+005   -1.16234E+004   -3.92191E+005    4.77441E+005    1.06188E+005   -4.11927E+005    8.10143E+004   -1.34940E+004   -3.86085E+005   -1.37176E+004    3.73844E+004    3.34511E+004
             586    4.75761E+005    1.06218E+005   -4.16326E+005   -8.22607E+003   -4.16326E+005    5.22545E+005    1.06111E+005   -4.43175E+005    1.00634E+005   -1.01235E+004   -4.08844E+005   -1.42593E+004    4.81487E+004    3.35503E+004
             587    5.08671E+005    1.36187E+005   -4.28274E+005   -5.39031E+003   -4.28274E+005    5.64462E+005    9.91589E+004   -4.61122E+005    1.29333E+005   -7.56086E+003   -4.19249E+005   -1.46479E+004    5.76668E+004    3.43541E+004
             588    5.56576E+005    1.57393E+005   -4.62971E+005   -7.39927E+003   -4.62971E+005    6.20364E+005    1.04326E+005   -4.97079E+005    1.50379E+005   -1.28964E+004   -4.50459E+005   -1.39663E+004    6.31334E+004    5.05668E+004
             589    5.83375E+005    1.85744E+005   -4.73982E+005   -2.62301E+004   -4.73982E+005    6.59725E+005    1.04823E+005   -4.84609E+005    1.78858E+005   -3.75118E+004   -4.55814E+005   -1.38315E+004    6.54477E+004    6.97636E+004
             590    6.09420E+005    1.82946E+005   -5.08213E+005   -4.81053E+004   -5.08213E+005    6.91160E+005    1.24457E+005   -4.95420E+005    1.78961E+005   -6.02968E+004   -4.92037E+005   -8.87674E+003    5.15696E+004    7.35690E+004
             591    2.93987E+005    2.58874E+005    2.58874E+005   -3.56723E+003   -5.88183E+004    3.17693E+005   -6.54963E+004    2.81949E+005   -3.54242E+003    3.63935E+004    1.63638E+005    1.30126E+003    2.21508E+003    1.45535E+005
             592    3.08416E+005    2.64753E+005    2.64753E+005    4.41556E+003   -7.58649E+004    3.40618E+005   -6.44345E+004    2.83443E+005    4.39864E+003    4.73710E+004    1.41534E+005    4.22183E+003    1.59226E+003    1.63605E+005
             593    3.33244E+005    2.66059E+005    2.66059E+005    8.45565E+003   -1.10294E+005    3.76353E+005   -5.47403E+004    2.79315E+005    8.35348E+003    3.98988E+004    1.15969E+005    9.01394E+003    1.72201E+003    1.84045E+005
             594    3.51269E+005    2.61437E+005    2.61437E+005    1.06945E+004   -1.40043E+005    4.01480E+005   -4.40296E+004    2.62120E+005    1.05305E+004    3.18831E+004    8.96751E+004    1.37670E+004    1.62434E+003    1.98145E+005
             595    3.43150E+005    2.57719E+005    2.57719E+005    4.98378E+003   -1.32931E+005    3.90650E+005   -4.32572E+004    2.69269E+005    4.20733E+003    2.61061E+004    9.94582E+004    1.42146E+004   -1.41732E+003    1.91201E+005
             596    3.36038E+005    2.52362E+005    2.52362E+005   -1.48085E+003   -1.28715E+005    3.81076E+005   -4.07220E+004    2.73376E+005   -1.76097E+003    1.92939E+004    1.04633E+005    1.29622E+004    1.85623E+003    1.85189E+005
             597    3.35953E+005    2.52656E+005    2.52656E+005   -2.60607E+003   -1.27947E+005    3.80603E+005   -4.07010E+004    2.75448E+005   -2.89117E+003    1.50567E+004    1.09937E+005    1.30144E+004    2.10706E+003    1.83771E+005
             598    3.32143E+005    2.51328E+005    2.51328E+005   -2.76454E+002   -1.25154E+005    3.76482E+005   -4.19656E+004    2.71228E+005   -5.97978E+002    1.06156E+004    1.15879E+005    1.37478E+004    2.42098E+003    1.80137E+005
             599    3.35225E+005    2.56227E+005    2.56227E+005   -2.57503E+003   -1.22457E+005    3.78684E+005   -4.37317E+004    2.80528E+005   -3.27657E+003    8.53476E+003    1.25937E+005    1.44969E+004    1.05259E+003    1.79288E+005
             600    3.34202E+005    2.57845E+005    2.57845E+005    1.60992E+003   -1.20170E+005    3.78015E+005   -4.64282E+004    2.77246E+005    9.24652E+002    3.18311E+003    1.35177E+005    1.54825E+004    1.99134E+003    1.76290E+005
             601    3.43279E+005    2.67613E+005    2.67613E+005   -2.09298E+003   -1.18803E+005    3.86417E+005   -4.89057E+004    2.93385E+005   -3.48520E+003    1.42909E+003    1.48773E+005    1.60938E+004   -7.14743E+002    1.77579E+005
             602    3.27128E+005    2.64151E+005    2.64151E+005    4.11715E+003   -1.03141E+005    3.67292E+005   -5.50422E+004    2.83313E+005    3.36317E+003    3.16012E+004    1.30162E+005    1.11065E+004   -1.33993E+003    1.76392E+005
             603    3.29052E+005    2.65610E+005    2.65610E+005   -1.63799E+003   -1.01913E+005    3.67523E+005   -5.40198E+004    2.91585E+005   -2.00744E+003    2.43120E+004    1.39755E+005    1.11249E+004    2.00782E+003    1.74005E+005
             604    3.27826E+005    2.65627E+005    2.65627E+005   -4.73770E+003   -9.90061E+004    3.64633E+005   -5.39609E+004    2.94942E+005   -5.18055E+003    1.91250E+004    1.47938E+005    1.15159E+004    2.34592E+003    1.70040E+005
             605    3.27645E+005    2.71375E+005    2.71375E+005   -8.45669E+002   -9.22731E+004    3.63648E+005   -5.94186E+004    2.96848E+005   -1.35231E+003    1.80729E+004    1.61535E+005    1.23941E+004    3.06379E+003    1.66450E+005
             606    3.29492E+005    2.73694E+005    2.73694E+005   -5.55293E+003   -8.97172E+004    3.63411E+005   -5.94746E+004    3.03863E+005   -6.70805E+003    1.07022E+004    1.74430E+005    1.32848E+004    1.19137E+003    1.61319E+005
             607    3.33658E+005    2.84601E+005    2.84601E+005    1.13737E+003   -8.31041E+004    3.67705E+005   -6.75448E+004    3.08340E+005   -8.87557E+001    1.04457E+004    1.92277E+005    1.41940E+004    2.18067E+003    1.58766E+005
             608    3.41208E+005    2.89465E+005    2.89465E+005   -5.64450E+003   -8.41559E+004    3.73620E+005   -6.65547E+004    3.19924E+005   -8.03689E+003    2.44653E+002    2.07456E+005    1.49833E+004   -1.25479E+003    1.53865E+005
             609    3.17507E+005    2.69056E+005    2.69056E+005    2.06369E+002   -8.12410E+004    3.50297E+005   -6.26736E+004    2.92587E+005   -2.73096E+002    3.03634E+004    1.57931E+005    6.64744E+003   -1.56578E+003    1.62840E+005
             610    3.20246E+005    2.73027E+005    2.73027E+005   -2.98162E+003   -7.81010E+004    3.51128E+005   -6.39815E+004    2.99445E+005   -3.21700E+003    2.65331E+004    1.68628E+005    6.85471E+003    1.48844E+003    1.60319E+005
             611    3.21683E+005    2.78141E+005    2.78141E+005   -6.40551E+003   -7.09063E+004    3.49047E+005   -6.69429E+004    3.06624E+005   -6.74844E+003    2.41196E+004    1.83458E+005    7.04945E+003    1.48842E+003    1.54989E+005
             612    3.19299E+005    2.82157E+005    2.82157E+005   -1.99483E+003   -6.33762E+004    3.45534E+005   -7.22621E+004    3.05599E+005   -2.32896E+003    1.94388E+004    1.99677E+005    7.82083E+003    2.93051E+003    1.47037E+005
             613    3.25594E+005    2.92162E+005    2.92162E+005   -5.46960E+003   -5.55844E+004    3.47746E+005   -7.70360E+004    3.16743E+005   -6.59667E+003    1.65159E+004    2.21189E+005    8.73860E+003    3.69311E+002    1.39793E+005
             614    3.29712E+005    3.00958E+005    3.00958E+005    1.09081E+003   -5.21254E+004    3.53083E+005   -8.33076E+004    3.19835E+005   -1.91120E+002    8.37739E+003    2.41737E+005    9.92042E+003    1.44796E+003    1.31503E+005
             615    3.45898E+005    3.16326E+005    3.16326E+005   -4.28085E+003   -5.02634E+004    3.66589E+005   -8.72606E+004    3.38919E+005   -7.06745E+003    4.22664E+003    2.64623E+005    1.06527E+004   -2.95502E+003    1.27023E+005
             616    3.16425E+005    2.75177E+005    2.75177E+005   -5.89015E+003   -6.75350E+004    3.42712E+005   -6.72505E+004    3.02470E+005   -5.97640E+003    3.03685E+004    1.77359E+005    1.68972E+003   -1.66139E+003    1.54745E+005
             617    3.14120E+005    2.78591E+005    2.78591E+005   -8.83694E+003   -5.67222E+004    3.35313E+005   -7.10105E+004    3.05746E+005   -8.83492E+003    3.20835E+004    1.89783E+005    1.15207E+003    9.66957E+002    1.47951E+005
             618    3.13450E+005    2.82678E+005    2.82678E+005   -1.52262E+004   -4.42928E+004    3.26971E+005   -7.43864E+004    3.10396E+005   -1.52379E+004    2.99652E+004    2.08432E+005   -2.60431E+002    7.97106E+002    1.36977E+005
             619    3.13964E+005    2.92664E+005    2.92664E+005   -1.24386E+004   -2.94679E+004    3.22132E+005   -8.35858E+004    3.12922E+005   -1.27706E+004    2.88476E+004    2.34681E+005   -1.52958E+003    2.34152E+003    1.23672E+005
             620    3.26336E+005    3.03981E+005    3.03981E+005   -1.80778E+004   -2.64698E+004    3.30451E+005   -8.64779E+004    3.26093E+005   -1.84964E+004    1.76493E+004    2.60281E+005   -2.04952E+003   -2.10021E+002    1.11857E+005
             621    3.36827E+005    3.20025E+005    3.20025E+005   -1.28248E+004   -2.06432E+004    3.40669E+005   -9.55191E+004    3.36623E+005   -1.33374E+004    1.44006E+004    2.85494E+005   -2.42165E+003   -1.07826E+003    1.02715E+005
             622    3.55995E+005    3.32895E+005    3.32895E+005   -2.18662E+004   -2.43212E+004    3.57217E+005   -9.55693E+004    3.55976E+005   -2.22370E+004    1.35106E+003    3.07594E+005   -3.00649E+003   -7.09752E+003    9.12683E+004
             623    3.78785E+005    3.57134E+005    3.57134E+005    1.33612E+004   -4.89382E+004    4.06072E+005   -1.07186E+005    3.66992E+005   -4.71631E+004    2.24485E+004    3.46272E+005   -1.09388E+004   -1.48034E+004    5.83447E+004
             624    3.56536E+005    3.37673E+005    3.37673E+005    1.03866E+004   -4.22582E+004    3.79931E+005   -1.01934E+005    3.47630E+005   -4.07663E+004    2.44988E+004    3.22069E+005   -9.87700E+003   -7.27892E+003    6.93725E+004
             625    3.34253E+005    3.20578E+005    3.20578E+005    1.29891E+004   -3.51244E+004    3.55703E+005   -9.94809E+004    3.26326E+005   -3.38384E+004    3.61220E+004    2.96159E+005   -8.71421E+003   -2.99531E+003    8.31953E+004
             626    3.16562E+005    3.02582E+005    3.02582E+005    3.98758E+003   -2.93152E+004    3.31897E+005   -9.24181E+004    3.12585E+005   -2.79756E+004    4.01740E+004    2.65056E+005   -7.32196E+003   -1.13132E+003    9.91718E+004
             627    3.04615E+005    2.88914E+005    2.88914E+005   -8.24740E+003   -2.26442E+004    3.11558E+005   -8.60074E+004    3.03848E+005   -2.12351E+004    4.60535E+004    2.33204E+005   -5.16096E+003   -9.70268E+002    1.16278E+005
             628    3.06369E+005    2.78090E+005    2.78090E+005   -1.60540E+004   -3.91906E+004    3.17281E+005   -7.42819E+004    3.04394E+005   -1.62442E+004    3.77288E+004    2.01361E+005   -2.98988E+003   -8.63147E+002    1.35784E+005
             629    3.04817E+005    2.65998E+005    2.65998E+005   -1.28797E+004   -5.94097E+004    3.25407E+005   -6.45694E+004    2.96669E+005   -1.28819E+004    2.52777E+004    1.81313E+005   -3.75673E+002    2.09466E+001    1.42777E+005
             630    3.60507E+005    2.69714E+004   -3.40488E+005    1.26379E+004   -3.40488E+005    3.67460E+005    1.00293E+005   -3.59865E+005    2.54415E+004   -7.09957E+003   -3.19221E+005   -6.31215E+003    8.37713E+003    8.36652E+004
             631    3.46473E+005    3.74271E+004   -3.22162E+005    9.50420E+003   -3.22162E+005    3.59590E+005    9.17437E+004   -3.43928E+005    1.14509E+004   -1.91241E+003   -2.84770E+005    6.07999E+003    4.26661E+003    1.09410E+005
             632    3.44587E+005    5.98537E+004   -3.08606E+005    5.69433E+003   -3.08606E+005    3.68460E+005    8.10194E+004   -3.34810E+005    8.66201E+003   -3.99104E+003   -2.47729E+005    1.25100E+004    2.34993E+003    1.36140E+005
             633    3.39937E+005    8.92754E+004   -2.85127E+005    4.17511E+003   -2.85127E+005    3.74402E+005    6.38921E+004   -3.14604E+005    6.09687E+003   -2.11252E+002   -1.97562E+005    1.43803E+004    9.76199E+002    1.57800E+005
             634    3.40848E+005    1.16809E+005   -2.66747E+005    1.45519E+003   -2.66747E+005    3.83556E+005    4.94945E+004   -2.91819E+005    2.97857E+003   -1.09864E+003   -1.50363E+005    1.69727E+004    4.36147E+002    1.75506E+005
             635    3.40986E+005    1.50009E+005   -2.40027E+005    1.63300E+003   -2.40027E+005    3.90036E+005    2.94616E+004   -2.51265E+005    2.40250E+003    1.21722E+003   -9.20044E+004    1.70048E+004    3.69357E+001    1.88504E+005
             636    3.40337E+005    1.76981E+005   -2.15433E+005   -8.32026E+002   -2.15433E+005    3.92413E+005    1.30947E+004   -1.85342E+005   -5.27766E+002   -6.62103E+002   -3.80941E+004    1.81132E+004   -1.01973E+002    1.94456E+005
             637    3.43175E+005    2.11018E+005    2.11018E+005   -4.82055E+002   -1.84939E+005    3.95956E+005   -8.53232E+003    1.68303E+005   -7.41478E+002    1.13488E+003    2.52036E+004    1.73901E+004   -3.31949E+002    1.96836E+005
             638    3.39993E+005    2.35249E+005    2.35249E+005   -2.85994E+003   -1.54126E+005    3.89375E+005   -2.60880E+004    2.45136E+005   -3.70230E+003   -1.34393E+003    8.33102E+004    1.79043E+004   -3.52118E+002    1.89087E+005
             639    3.39164E+005    2.30179E+004   -3.21193E+005    1.26872E+004   -3.21193E+005    3.44211E+005    9.51628E+004   -3.38810E+005    2.03998E+004   -1.34078E+004   -2.92480E+005   -5.34103E+003    2.18122E+003    9.39382E+004
             640    3.32527E+005    3.75054E+004   -3.11151E+005    2.47132E+003   -3.11151E+005    3.48657E+005    9.03915E+004   -3.28336E+005    3.23779E+003   -1.19150E+004   -2.62497E+005    5.82166E+003   -5.36253E+002    1.20628E+005
             641    3.28837E+005    6.27819E+004   -2.92827E+005    2.62095E+002   -2.92827E+005    3.55609E+005    7.65942E+004   -3.15046E+005    1.71598E+003   -1.02596E+004   -2.21239E+005    1.20314E+004   -1.80322E+003    1.42018E+005
             642    3.33055E+005    9.09996E+004   -2.78475E+005   -1.31582E+003   -2.78475E+005    3.69475E+005    6.29305E+004   -3.02199E+005   -3.19844E+002   -7.84745E+003   -1.80624E+005    1.37884E+004   -2.01197E+003    1.62413E+005
             643    3.34864E+005    1.22331E+005   -2.56663E+005   -7.81734E+002   -2.56663E+005    3.78994E+005    4.50380E+004   -2.76599E+005    1.11099E+001   -4.33943E+003   -1.30786E+005    1.62780E+004   -1.68977E+003    1.77739E+005
             644    3.37295E+005    1.49956E+005   -2.36431E+005   -8.45266E+002   -2.36431E+005    3.86386E+005    2.91067E+004   -2.41951E+005   -3.96374E+002   -3.29643E+003   -8.36274E+004    1.64093E+004   -1.04975E+003    1.88204E+005
             645    3.40148E+005    1.82216E+005   -2.10195E+005    5.17553E+002   -2.10195E+005    3.92411E+005    9.15373E+003   -1.71261E+005    7.13991E+002    4.19202E+002   -2.85944E+004    1.74368E+004   -2.04706E+002    1.94883E+005
             646    3.38184E+005    2.06587E+005    2.06587E+005    4.45188E+002   -1.83708E+005    3.90295E+005   -7.77461E+003    1.55594E+005    3.87012E+002   -1.32726E+002    2.30696E+004    1.68263E+004    6.45142E+002    1.94071E+005
             647    3.39752E+005    2.37420E+005    2.37420E+005    1.91234E+003   -1.52057E+005    3.89477E+005   -2.90919E+004    2.40134E+005    1.52751E+003    4.55559E+003    8.11925E+004    1.71885E+004    1.46905E+003    1.90109E+005
             648    3.26924E+005    2.32395E+004   -3.07649E+005    1.51609E+004   -3.07649E+005    3.30888E+005    8.97494E+004   -3.26699E+005    2.00633E+004   -2.27113E+004   -2.66600E+005   -4.17332E+003   -1.21270E+002    1.08141E+005
             649    3.22950E+005    4.51106E+004   -2.94460E+005    8.80071E+003   -2.94460E+005    3.39571E+005    8.01829E+004   -3.18309E+005    9.42804E+003   -1.60618E+004   -2.33915E+005    5.52430E+003   -4.38424E+002    1.29797E+005
             650    3.27179E+005    7.02085E+004   -2.84390E+005    5.78704E+003   -2.84390E+005    3.54598E+005    6.94647E+004   -3.12428E+005    7.05200E+003   -1.58779E+004   -1.99568E+005    1.12995E+004   -9.14785E+002    1.50755E+005
             651    3.29817E+005    1.00397E+005   -2.66762E+005    4.42421E+003   -2.66762E+005    3.67159E+005    5.39803E+004   -2.95869E+005    5.26803E+003   -1.00713E+004   -1.57138E+005    1.30171E+004   -1.30931E+003    1.67478E+005
             652    3.34610E+005    1.27562E+005   -2.51674E+005    1.96408E+003   -2.51674E+005    3.79236E+005    4.07158E+004   -2.73481E+005    2.63637E+003   -8.35599E+003   -1.16428E+005    1.53201E+004   -1.19054E+003    1.80985E+005
             653    3.37876E+005    1.57954E+005   -2.29755E+005    1.80106E+003   -2.29755E+005    3.87709E+005    2.33331E+004   -2.33296E+005    2.13207E+003   -3.31171E+003   -6.88198E+004    1.55473E+004   -8.77291E+002    1.90399E+005
             654    3.38575E+005    1.82327E+005   -2.08354E+005   -3.90713E+002   -2.08354E+005    3.90681E+005    8.80606E+003   -1.63028E+005   -2.68222E+002   -2.10838E+003   -2.40416E+004    1.64780E+004   -2.81237E+002    1.94331E+005
             655    3.40310E+005    2.10839E+005    2.10839E+005   -4.92760E+002   -1.81733E+005    3.92572E+005   -9.53769E+003    1.73400E+005   -6.41381E+002    2.49602E+003    2.67584E+004    1.59335E+004    2.03219E+002    1.95256E+005
             656    3.36523E+005    2.31386E+005    2.31386E+005   -2.58076E+003   -1.54283E+005    3.85670E+005   -2.48406E+004    2.39257E+005   -3.00509E+003    3.41255E+003    7.41144E+004    1.62129E+004    8.54193E+002    1.88824E+005
             657    3.13862E+005    2.76554E+004   -2.92311E+005    1.50671E+004   -2.92311E+005    3.19966E+005    8.31962E+004   -3.13293E+005    1.60663E+004   -2.89859E+004   -2.36669E+005   -2.88630E+003   -1.87150E+003    1.21044E+005
             658    3.17448E+005    5.26411E+004   -2.86362E+005    3.88960E+003   -2.86362E+005    3.39004E+005    7.66106E+004   -3.08857E+005    4.03495E+003   -2.41994E+004   -2.09667E+005    5.22009E+003   -2.68730E+003    1.41701E+005
             659    3.22320E+005    7.97466E+004   -2.74388E+005    1.83522E+003   -2.74388E+005    3.54135E+005    6.42688E+004   -3.00017E+005    2.32976E+003   -2.00506E+004   -1.75086E+005    1.08390E+004   -3.04037E+003    1.58644E+005
             660    3.30053E+005    1.07268E+005   -2.62940E+005    5.50559E+002   -2.62940E+005    3.70208E+005    5.17071E+004   -2.87205E+005    9.27953E+002   -1.58797E+004   -1.40169E+005    1.25165E+004   -2.67426E+003    1.73805E+005
             661    3.35586E+005    1.36516E+005   -2.45727E+005    4.90374E+002   -2.45727E+005    3.82243E+005    3.62402E+004   -2.61809E+005    7.89628E+002   -1.01268E+004   -9.93835E+004    1.46172E+004   -2.11275E+003    1.85205E+005
             662    3.39171E+005    1.61782E+005   -2.27985E+005    3.82449E+001   -2.27985E+005    3.89767E+005    2.20547E+004   -2.24343E+005    2.04413E+002   -6.63331E+003   -5.97351E+004    1.48883E+004   -1.25111E+003    1.92473E+005
             663    3.42076E+005    1.89498E+005   -2.05376E+005    5.03550E+002   -2.05376E+005    3.94875E+005    5.12474E+003   -1.43602E+005    5.62886E+002   -5.46176E+002   -1.53909E+004    1.56477E+004   -2.59571E+002    1.96675E+005
             664    3.39776E+005    2.10555E+005    2.10555E+005   -3.39876E+001   -1.81422E+005    3.91977E+005   -9.69987E+003    1.71502E+005   -8.63094E+001    2.05339E+003    2.71325E+004    1.52129E+004    7.25109E+002    1.94991E+005
             665    3.39387E+005    2.35098E+005    2.35098E+005    4.92841E+002   -1.54058E+005    3.89156E+005   -2.71778E+004    2.38550E+005    3.09141E+002    8.43338E+003    7.27909E+004    1.53224E+004    1.77179E+003    1.91258E+005
             666    3.12247E+005    3.90449E+004   -2.84924E+005    1.41054E+004   -2.84924E+005    3.23969E+005    7.72579E+004   -3.09994E+005    1.41594E+004   -3.49455E+004   -2.10988E+005   -8.87456E+002   -8.00895E+002    1.35950E+005
             667    3.18038E+005    6.57812E+004   -2.77276E+005    7.75219E+003   -2.77276E+005    3.43057E+005    6.79141E+004   -3.05785E+005    7.98306E+003   -2.63895E+004   -1.85336E+005    5.53198E+003   -1.29015E+003    1.51814E+005
             668    3.26811E+005    9.05254E+004   -2.70595E+005    4.83127E+003   -2.70595E+005    3.61120E+005    5.84127E+004   -2.99932E+005    5.29524E+003   -2.35513E+004   -1.56982E+005    1.04318E+004   -1.96545E+003    1.67314E+005
             669    3.33505E+005    1.18432E+005   -2.57296E+005    3.68982E+003   -2.57296E+005    3.75728E+005    4.50579E+004   -2.83705E+005    4.01010E+003   -1.69915E+004   -1.22192E+005    1.22210E+004   -2.13098E+003    1.79857E+005
             670    3.39708E+005    1.43608E+005   -2.44042E+005    1.71654E+003   -2.44042E+005    3.87650E+005    3.29060E+004   -2.59226E+005    1.93000E+003   -1.30322E+004   -8.76158E+004    1.39753E+004   -1.90621E+003    1.89651E+005
             671    3.44202E+005    1.70686E+005   -2.25380E+005    1.34939E+003   -2.25380E+005    3.96066E+005    1.77818E+004   -2.16195E+005    1.44726E+003   -6.21099E+003   -4.85818E+004    1.43993E+004   -1.17179E+003    1.96359E+005
             672    3.45083E+005    1.92748E+005   -2.05654E+005   -1.83491E+002   -2.05654E+005    3.98401E+005    4.36320E+003   -1.30819E+005   -1.50037E+002   -2.03391E+003   -1.09056E+004    1.49484E+004   -1.81449E+002    1.98589E+005
             673    3.45245E+005    2.16464E+005    2.16464E+005   -4.77272E+002   -1.81655E+005    3.98119E+005   -1.14439E+004    1.85386E+005   -5.32771E+002    5.01263E+003    2.98517E+004    1.46107E+004    7.44097E+002    1.98130E+005
             674    3.40272E+005    2.33820E+005    2.33820E+005   -1.94966E+003   -1.56268E+005    3.90088E+005   -2.52010E+004    2.40302E+005   -2.08712E+003    8.87000E+003    6.88201E+004    1.44401E+004    1.76944E+003    1.92163E+005
             675    3.12097E+005    5.47978E+004   -2.78093E+005    7.90364E+003   -2.78093E+005    3.32891E+005    7.17972E+004   -3.04019E+005    7.91872E+003   -3.57518E+004   -1.87559E+005    9.59418E+002    7.73060E+001    1.48122E+005
             676    3.20105E+005    7.55355E+004   -2.74776E+005    2.49888E+003   -2.74776E+005    3.50311E+005    6.55805E+004   -3.00487E+005    2.76389E+003   -3.08620E+004   -1.68643E+005    6.19587E+003   -6.22537E+002    1.60834E+005
             677    3.28934E+005    9.99113E+004   -2.67050E+005    1.29509E+003   -2.67050E+005    3.66962E+005    5.52813E+004   -2.92798E+005    1.70485E+003   -2.59193E+004   -1.41630E+005    1.05859E+004   -1.44252E+003    1.73692E+005
             678    3.37222E+005    1.23939E+005   -2.57532E+005    8.66344E+002   -2.57532E+005    3.81471E+005    4.42420E+004   -2.79541E+005    1.22878E+003   -2.14526E+004   -1.12502E+005    1.27098E+004   -1.47222E+003    1.84714E+005
             679    3.44376E+005    1.50759E+005   -2.43127E+005    1.09439E+003   -2.43127E+005    3.93886E+005    3.04246E+004   -2.54058E+005    1.30701E+003   -1.47564E+004   -7.78245E+004    1.40916E+004   -1.46063E+003    1.93859E+005
             680    3.48849E+005    1.74907E+005   -2.26760E+005    4.02360E+002   -2.26760E+005    4.01667E+005    1.71501E+004   -2.12083E+005    5.07892E+002   -8.94519E+003   -4.30131E+004    1.45581E+004   -8.68751E+002    1.99571E+005
             681    3.51622E+005    1.99984E+005   -2.06017E+005    1.85005E+002   -2.06017E+005    4.06001E+005    1.94922E+003   -1.05889E+005    2.03784E+002   -5.81692E+002   -5.46974E+003    1.48327E+004   -7.90215E+001    2.02443E+005
             682    3.48946E+005    2.19461E+005    2.19461E+005   -8.34552E+002   -1.82861E+005    4.02322E+005   -1.19218E+004    1.90943E+005   -8.89192E+002    5.64413E+003    3.10105E+004    1.46267E+004    7.91810E+002    2.00223E+005
             683    3.45928E+005    2.39489E+005    2.39489E+005   -8.58975E+002   -1.56984E+005    3.96473E+005   -2.72155E+004    2.45627E+005   -1.00962E+003    1.39127E+004    6.87433E+004    1.42517E+004    1.53237E+003    1.95791E+005
             684    3.14611E+005    6.72653E+004   -2.74160E+005    4.02947E+003   -2.74160E+005    3.41425E+005    6.76218E+004   -2.99808E+005    4.09451E+003   -3.61161E+004   -1.70844E+005    1.94395E+003    7.53305E+002    1.56824E+005
             685    3.22677E+005    8.63239E+004   -2.71083E+005   -1.19142E+003   -2.71083E+005    3.57407E+005    6.19836E+004   -2.94148E+005   -7.35755E+002   -3.17355E+004   -1.53480E+005    6.67018E+003    1.71493E+003    1.67751E+005
             686    3.31065E+005    1.05988E+005   -2.66275E+005   -4.84839E+003   -2.66275E+005    3.72263E+005    5.50451E+004   -2.84594E+005   -4.07866E+003   -2.98712E+004   -1.31185E+005    1.11264E+004    1.61326E+003    1.78589E+005
             687    3.41846E+005    1.30998E+005   -2.58017E+005   -5.55169E+003   -2.58017E+005    3.89015E+005    4.41900E+004   -2.69343E+005   -4.74983E+003   -2.62447E+004   -1.01575E+005    1.41426E+004    1.51557E+003    1.90171E+005
             688    3.52279E+005    1.56843E+005   -2.47256E+005   -4.85530E+003   -2.47256E+005    4.04099E+005    3.17560E+004   -2.45298E+005   -4.22244E+003   -1.97083E+004   -7.13373E+004    1.60678E+004    1.15709E+003    1.99681E+005
             689    3.58268E+005    1.83117E+005   -2.29867E+005   -2.41634E+003   -2.29867E+005    4.12984E+005    1.63889E+004   -2.00281E+005   -2.07512E+003   -9.69910E+003   -3.73925E+004    1.69635E+004    6.07058E+002    2.05309E+005
             690    3.59015E+005    2.05501E+005   -2.09050E+005   -1.79454E+002   -2.09050E+005    4.14551E+005    1.24260E+003   -8.51152E+004   -1.64508E+002   -8.78464E+002   -2.68484E+003    1.72360E+004   -1.49799E+001    2.06555E+005
             691    3.58469E+005    2.27705E+005    2.27705E+005    2.50908E+003   -1.85667E+005    4.13372E+005   -1.48488E+004    1.92290E+005    2.18671E+003    9.26092E+003    3.30987E+004    1.69609E+004   -6.82607E+002    2.05628E+005
             692    3.52091E+005    2.44030E+005    2.44030E+005    4.10754E+003   -1.60177E+005    4.04207E+005   -2.93204E+004    2.40143E+005    3.50872E+003    1.76366E+004    6.68159E+004    1.60989E+004   -1.11098E+003    1.99895E+005
             693    3.66368E+005    2.52921E+005    2.52921E+005    9.87840E+003   -1.68473E+005    4.21394E+005   -3.14422E+004    2.34466E+005    9.75134E+003    2.32128E+004    6.13626E+004    1.76478E+004    1.43580E+003    2.09073E+005
             694    3.74481E+005    2.37763E+005    2.37763E+005    5.85894E+003   -1.94261E+005    4.32024E+005   -1.64538E+004    1.88238E+005    5.78457E+003    1.22493E+004    3.13276E+004    2.00853E+004    7.94499E+002    2.14860E+005
             695    3.77612E+005    2.17794E+005   -2.18235E+005    1.16638E+001   -2.18235E+005    4.36029E+005    1.43275E+002   -4.63256E+004    2.38339E+001   -2.79195E+002   -1.74462E+002    2.08845E+004    5.42737E+001    2.17012E+005
             696    3.74525E+005    1.93070E+005   -2.38957E+005   -6.11621E+003   -2.38957E+005    4.32027E+005    1.73344E+004   -1.91856E+005   -6.03665E+003   -1.34528E+004   -3.25138E+004    2.00943E+004   -8.11352E+002    2.14861E+005
             697    3.65740E+005    1.67804E+005   -2.52830E+005   -9.85578E+003   -2.52830E+005    4.20634E+005    3.16272E+004   -2.34928E+005   -9.72865E+003   -2.35576E+004   -6.15953E+004    1.76610E+004   -1.45425E+003    2.08694E+005
             698    3.51622E+005    1.40026E+005   -2.61890E+005   -1.10725E+004   -2.61890E+005    4.01916E+005    4.43118E+004   -2.62063E+005   -1.09450E+004   -3.27415E+004   -8.92490E+004    1.39973E+004   -1.90679E+003    1.98444E+005
             699    3.31066E+005    1.10869E+005   -2.63469E+005   -9.15712E+003   -2.63469E+005    3.74338E+005    5.39188E+004   -2.75307E+005   -9.06780E+003   -3.87550E+004   -1.13934E+005    9.44330E+003   -1.94891E+003    1.83085E+005
             700    3.14378E+005    8.72438E+004   -2.62508E+005   -3.43587E+003   -2.62508E+005    3.49752E+005    5.95666E+004   -2.82632E+005   -3.42831E+003   -3.54868E+004   -1.39785E+005    4.84936E+003   -1.94705E+003    1.66836E+005
             701    3.13251E+005    7.60597E+004   -2.67189E+005    3.23486E+003   -2.67189E+005    3.43249E+005    6.26314E+004   -2.93283E+005    3.21286E+003   -3.09635E+004   -1.60144E+005    1.83463E+003   -1.89612E+003    1.58991E+005
             702    3.80974E+005    5.35965E+004   -3.56227E+005   -1.28433E+004   -3.56227E+005    4.09824E+005    1.05158E+005   -3.67599E+005    5.16387E+004   -2.04144E+004   -3.46698E+005   -1.16061E+004    1.55656E+004    5.43068E+004
             703    3.56961E+005    4.34872E+004   -3.39099E+005   -1.49819E+004   -3.39099E+005    3.82586E+005    1.03531E+005   -3.45941E+005    4.19405E+004   -2.88168E+004   -3.23717E+005   -1.05105E+004    7.57451E+003    6.85042E+004
             704    3.33344E+005    3.73383E+004   -3.18145E+005   -1.25679E+004   -3.18145E+005    3.55483E+005    9.77916E+004   -3.24779E+005    3.59543E+004   -3.51192E+004   -2.94210E+005   -9.14338E+003    2.95902E+003    8.21528E+004
             705    3.15689E+005    2.90617E+004   -3.02726E+005   -6.07531E+003   -3.02726E+005    3.31788E+005    9.32466E+004   -3.11244E+005    2.77552E+004   -4.38738E+004   -2.63621E+005   -7.45527E+003    1.11901E+003    1.00547E+005
             706    3.05144E+005    2.26982E+004   -2.88392E+005    1.04355E+004   -2.88392E+005    3.11090E+005    8.50860E+004   -3.04588E+005    2.08904E+004   -4.54958E+004   -2.30653E+005   -5.30409E+003    1.03729E+003    1.18382E+005
             707    3.05186E+005    3.42748E+004   -2.81129E+005    1.26950E+004   -2.81129E+005    3.15403E+005    7.80529E+004   -3.03463E+005    1.29072E+004   -4.48144E+004   -2.02252E+005   -2.97426E+003    7.40625E+002    1.36510E+005
             708    3.09660E+005    5.65328E+004   -2.74085E+005    9.15875E+003   -2.74085E+005    3.30617E+005    6.94644E+004   -3.01345E+005    9.16935E+003   -3.78088E+004   -1.79754E+005   -7.37862E+002   -1.72066E+002    1.49292E+005
             709    3.72621E+005    3.42805E+005    3.42805E+005   -1.65444E+004   -4.18011E+004    3.84607E+005   -9.48200E+004    3.70688E+005   -4.06906E+004    1.98629E+003    3.23164E+005   -5.06975E+003   -1.99476E+004    7.93555E+004
             710    3.49753E+005    3.10734E+005    3.10734E+005   -2.26323E+004   -5.33749E+004    3.64109E+005   -7.82424E+004    3.46694E+005   -2.38208E+004   -1.42073E+004    2.72755E+005    2.73590E+003   -1.30584E+004    1.10445E+005
             711    3.40851E+005    2.90437E+005    2.90437E+005   -7.11853E+003   -8.14447E+004    3.71881E+005   -6.72912E+004    3.21852E+005   -9.90549E+003   -8.81165E+003    2.20591E+005    1.19512E+004   -7.78305E+003    1.44559E+005
             712    3.30137E+005    2.55883E+005    2.55883E+005   -6.85456E+003   -1.14687E+005    3.70570E+005   -4.47802E+004    2.86295E+005   -9.04996E+003   -1.00801E+004    1.53471E+005    1.50019E+004   -5.02853E+003    1.64983E+005
             713    3.89939E+005    3.56458E+005    3.56458E+005   -2.09395E+004   -4.49152E+004    4.01373E+005   -9.68678E+004    3.88275E+005   -4.31822E+004   -8.31382E+003    3.42100E+005   -6.63288E+003   -2.41067E+004    6.81984E+004
             714    3.64994E+005    3.32511E+005    3.32511E+005   -1.61381E+004   -4.68839E+004    3.79395E+005   -8.98296E+004    3.62064E+005   -1.63479E+004   -1.22046E+004    2.98041E+005    4.29467E+002   -1.43142E+004    1.08090E+005
             715    3.44819E+005    2.97280E+005    2.97280E+005   -3.22995E+003   -7.91835E+004    3.76463E+005   -7.16222E+004    3.25189E+005   -5.29807E+003   -1.69272E+004    2.37092E+005    1.03423E+004   -7.36271E+003    1.37489E+005
             716    3.41238E+005    2.73552E+005    2.73552E+005   -3.65489E+002   -1.08703E+005    3.82255E+005   -5.48280E+004    2.98703E+005   -2.11158E+003   -7.85831E+003    1.74454E+005    1.37581E+004   -3.91251E+003    1.66940E+005
             717    4.28184E+005    3.83129E+005    3.83129E+005   -1.87948E+004   -6.72007E+004    4.50329E+005   -9.90444E+004    4.21962E+005   -6.37733E+004   -6.93155E+003    3.67838E+005   -8.01426E+003   -3.81252E+004    6.78283E+004
             718    3.87413E+005    3.40491E+005    3.40491E+005   -4.00927E+004   -5.34079E+004    3.93899E+005   -8.23302E+004    3.86898E+005   -3.90030E+004   -2.51786E+004    3.11172E+005   -4.05665E+003   -2.90472E+004    9.92230E+004
             719    3.65549E+005    3.16350E+005    3.16350E+005   -1.30009E+004   -7.69564E+004    3.93307E+005   -7.54643E+004    3.52631E+005   -1.51739E+004   -1.74568E+004    2.59024E+005    6.54967E+003   -1.86330E+004    1.37405E+005
             720    3.43427E+005    2.73240E+005    2.73240E+005   -1.04807E+004   -1.08555E+005    3.81796E+005   -5.14013E+004    3.09490E+005   -1.27615E+004   -1.63904E+004    1.83356E+005    1.04452E+004   -1.23655E+004    1.61213E+005
             721    4.49759E+005    3.99826E+005    3.99826E+005   -2.26217E+004   -7.30023E+004    4.72828E+005   -1.01401E+005    4.43344E+005   -6.91236E+004   -1.33719E+004    3.86697E+005   -1.01807E+004   -3.97308E+004    6.26326E+004
             722    4.11625E+005    3.72661E+005    3.72661E+005   -3.61581E+004   -4.17152E+004    4.14376E+005   -9.82624E+004    4.11541E+005   -3.38429E+004   -1.38600E+004    3.42490E+005   -9.16056E+003   -3.04366E+004    1.03116E+005
             723    3.69258E+005    3.23656E+005    3.23656E+005   -1.47099E+004   -7.02108E+004    3.93867E+005   -7.95784E+004    3.59694E+005   -1.47275E+004   -2.09148E+004    2.74378E+005    5.15882E+002   -1.93720E+004    1.28862E+005
             724    3.58234E+005    2.98243E+005    2.98243E+005   -6.31865E+003   -9.64480E+004    3.94691E+005   -6.51589E+004    3.31252E+005   -7.37865E+003   -1.13039E+004    2.14159E+005    5.65420E+003   -1.22791E+004    1.61058E+005
             725    5.08164E+005    4.39455E+005    4.39455E+005   -1.47453E+004   -1.09370E+005    5.48825E+005   -1.05113E+005    4.87748E+005   -1.03214E+005   -1.08572E+003    4.19640E+005   -1.08586E+004   -5.67439E+004    7.70478E+004
             726    4.38679E+005    3.75225E+005    3.75225E+005   -4.16534E+004   -8.24112E+004    4.57636E+005   -8.37201E+004    4.34389E+005   -7.50784E+004   -1.75614E+004    3.43800E+005   -1.76076E+004   -5.31518E+004    9.72277E+004
             727    3.94470E+005    3.44990E+005    3.44990E+005   -3.77896E+004   -6.02136E+004    4.05204E+005   -8.23289E+004    3.93032E+005   -3.42527E+004   -1.59833E+004    2.97223E+005   -9.74935E+003   -3.81596E+004    1.24899E+005
             728    3.60149E+005    2.98174E+005    2.98174E+005   -2.39397E+004   -9.06758E+004    3.88850E+005   -6.11860E+004    3.45825E+005   -2.29283E+004   -1.75664E+004    2.24053E+005   -3.66003E+003   -2.63746E+004    1.50417E+005
             729    5.10129E+005    4.46679E+005    4.46679E+005   -4.81190E+003   -1.06707E+005    5.53386E+005   -1.11720E+005    4.86436E+005   -1.03345E+005    9.89910E+003    4.28606E+005   -1.17986E+004   -4.03869E+004    8.03418E+004
             730    4.77010E+005    4.21242E+005    4.21242E+005   -1.13385E+004   -9.03345E+004    5.11577E+005   -1.06523E+005    4.61949E+005   -8.44876E+004    1.25708E+004    3.91486E+005   -2.08632E+004   -4.52846E+004    1.00510E+005
             731    4.28627E+005    3.71673E+005    3.71673E+005   -4.50109E+004   -6.79730E+004    4.39646E+005   -8.62298E+004    4.27240E+005   -5.93870E+004   -1.15206E+004    3.29597E+005   -2.19452E+004   -4.29786E+004    1.17975E+005
             732    3.94147E+005    3.37873E+005    3.37873E+005   -4.16762E+004   -6.94062E+004    4.07280E+005   -7.55970E+004    3.91943E+005   -3.78551E+004   -4.50251E+003    2.69149E+005   -1.74108E+004   -3.45825E+004    1.48020E+005
             733    5.39542E+005    4.44411E+005    4.44411E+005    1.76060E+004   -1.62035E+005    6.06446E+005   -9.99942E+004    4.64741E+005   -1.55209E+005    2.94638E+004    4.25727E+005   -1.50326E+004   -6.18289E+004    6.98837E+004
             734    5.19669E+005    4.34145E+005    4.34145E+005   -1.57596E+004   -1.34676E+005    5.68821E+005   -9.45696E+004    4.87626E+005   -1.28998E+005    2.06486E+003    4.10642E+005   -2.05071E+004   -4.89967E+004    8.93131E+004
             735    4.88097E+005    4.19888E+005    4.19888E+005   -1.72938E+004   -1.06750E+005    5.26638E+005   -9.86149E+004    4.69119E+005   -1.00558E+005    1.59799E+004    3.80423E+005   -2.60652E+004   -4.08510E+004    1.18776E+005
             736    4.34515E+005    3.72785E+005    3.72785E+005   -3.83055E+004   -8.18723E+004    4.54658E+005   -8.42025E+004    4.29560E+005   -7.36933E+004    1.14232E+004    3.14878E+005   -2.69835E+004   -3.19582E+004    1.39519E+005
             737    4.55509E+005    4.05423E+005    4.05423E+005    2.51501E+004   -9.94081E+004    5.04831E+005   -1.10388E+005    4.14521E+005   -9.18943E+004    6.52395E+004    3.57820E+005   -3.41082E+004   -1.32553E+004    1.25436E+005
             738    5.04350E+005    4.31236E+005    4.31236E+005    1.86649E+004   -1.31010E+005    5.62246E+005   -1.06297E+005    4.50163E+005   -1.26299E+005    4.28826E+004    4.02307E+005   -2.85243E+004   -2.08306E+004    1.03295E+005
             739    5.47440E+005    4.57009E+005    4.57009E+005    7.51160E+003   -1.52648E+005    6.09658E+005   -1.03958E+005    4.90427E+005   -1.48977E+005    2.71057E+004    4.33744E+005   -2.43357E+004   -2.72173E+004    9.61435E+004
             740    5.88641E+005    4.65566E+005    4.65566E+005   -4.91719E+004   -1.76226E+005    6.41792E+005   -8.00559E+004    5.56521E+005   -1.72050E+005   -4.40669E+004    4.56284E+005   -2.11178E+004   -3.18382E+004    6.15126E+004
             741    4.09834E+005    3.68565E+005    3.68565E+005    3.45818E+003   -7.47301E+004    4.43295E+005   -9.90978E+004    3.92524E+005   -7.21024E+004    8.15093E+003    3.61245E+005   -1.05089E+004   -2.86623E+004    4.36461E+004
             742    4.40159E+005    3.89640E+005    3.89640E+005    6.03764E+003   -9.09115E+004    4.80552E+005   -1.01589E+005    4.15104E+005   -8.70938E+004    8.93580E+003    3.82924E+005   -1.08961E+004   -3.87311E+004    3.59649E+004
             743    4.74582E+005    4.05044E+005    4.05044E+005   -9.14355E+003   -1.12799E+005    5.17842E+005   -9.43671E+004    4.48038E+005   -1.08019E+005   -8.30555E+003    3.99426E+005   -1.04597E+004   -4.58992E+004    2.40562E+004
             744    5.16513E+005    4.36811E+005    4.36811E+005   -6.79305E+003   -1.30241E+005    5.67052E+005   -9.99257E+004    4.81615E+005   -1.24851E+005   -4.79988E+003    4.29428E+005   -9.74111E+003   -5.30078E+004    3.14961E+004
             745    5.47740E+005    4.52688E+005    4.52688E+005   -1.52840E+004   -1.49769E+005    6.02457E+005   -9.58781E+004    5.08565E+005   -1.44762E+005   -1.38809E+004    4.46278E+005   -9.63352E+003   -5.25105E+004    2.80871E+004
             746    5.99988E+005    5.09242E+005    5.09242E+005    3.09783E+003   -1.53524E+005    6.62766E+005   -1.19605E+005    5.51110E+005   -1.48556E+005    9.40401E+003    4.97968E+005   -8.47508E+003   -5.64107E+004    5.59862E+004
             747    5.82896E+005    4.80199E+005    4.80199E+005    1.47610E+004   -1.73583E+005    6.53782E+005   -1.07126E+005    5.07337E+005   -1.68407E+005    2.08367E+004    4.68947E+005   -1.35235E+004   -5.52920E+004    5.36328E+004
             748    3.83307E+005    3.39717E+005    3.39717E+005    3.80414E+003   -7.78316E+004    4.17549E+005   -8.85633E+004    3.62967E+005   -6.06273E+004    5.69691E+004    2.69348E+005   -3.95382E+004   -7.07904E+003    1.39255E+005
             749    3.25086E+005    2.66090E+005    2.66090E+005   -1.14820E+004   -9.15489E+004    3.57639E+005   -5.43530E+004    3.01682E+005   -2.76290E+004    3.66495E+004    1.54039E+005   -4.31660E+004   -2.62892E+003    1.57705E+005
             750    2.93025E+005    1.68070E+005   -1.70287E+005   -1.02631E+003   -1.70287E+005    3.38356E+005    1.08118E+003   -2.76771E+004   -9.68315E+002    2.35259E+002   -2.51049E+003   -4.46350E+004    9.69645E+001    1.63178E+005
             751    3.21174E+005    9.23836E+004   -2.61051E+005    1.29571E+004   -2.61051E+005    3.53435E+005    5.19035E+004   -2.97851E+005    2.88429E+004   -3.51643E+004   -1.49389E+005   -4.33509E+004    3.17716E+003    1.56023E+005
             752    3.90368E+005    7.64972E+004   -3.48729E+005   -6.59958E+003   -3.48729E+005    4.25226E+005    9.29437E+004   -3.69675E+005    5.95267E+004   -5.94526E+004   -2.78905E+005   -3.95730E+004    6.99014E+003    1.40377E+005
             753    4.50902E+005    1.02428E+005   -3.98770E+005   -2.60509E+004   -3.98770E+005    5.01198E+005    1.07464E+005   -4.06560E+005    9.48460E+004   -6.11932E+004   -3.56046E+005   -3.43488E+004    1.30628E+004    1.18275E+005
             754    5.08883E+005    1.29079E+005   -4.39531E+005   -2.68737E+004   -4.39531E+005    5.68610E+005    1.12442E+005   -4.50217E+005    1.24362E+005   -5.14659E+004   -4.10221E+005   -2.91168E+004    1.99969E+004    1.04114E+005
             755    5.41846E+005    1.51009E+005   -4.53048E+005   -9.83346E+003   -4.53048E+005    6.04057E+005    1.03958E+005   -4.83599E+005    1.47352E+005   -2.16586E+004   -4.37566E+005   -2.30152E+004    2.83350E+004    7.69500E+004
             756    5.70699E+005    1.80567E+005   -4.62948E+005   -1.82538E+004   -4.62948E+005    6.43515E+005    1.00212E+005   -4.83014E+005    1.75787E+005   -2.48926E+004   -4.51530E+005   -2.17312E+004    4.52527E+004    5.83881E+004
             757    3.89019E+005    3.25136E+005    3.25136E+005   -4.20778E+004   -8.25278E+004    4.07664E+005   -6.68435E+004    3.84245E+005   -4.76196E+004    1.40214E+004    2.34129E+005   -3.05121E+004   -2.18674E+004    1.64615E+005
             758    3.54369E+005    2.80747E+005    2.80747E+005   -2.67880E+004   -1.06781E+005    3.87528E+005   -4.90594E+004    3.33134E+005   -2.39284E+004   -8.57287E+003    1.79680E+005   -1.76111E+004   -2.44826E+004    1.67614E+005
             759    3.45966E+005    2.66119E+005    2.66119E+005   -8.57057E+003   -1.22426E+005    3.88545E+005   -4.50407E+004    2.99241E+005   -8.19321E+003   -1.02908E+004    1.53606E+005   -2.22652E+003   -1.55088E+004    1.75531E+005
             760    3.38181E+005    2.50525E+005    2.50525E+005   -3.32797E+003   -1.33374E+005    3.83900E+005   -3.79410E+004    2.72748E+005   -3.98023E+003   -1.19567E+004    1.29760E+005    6.63298E+003   -6.75798E+003    1.78027E+005
             761    3.39668E+005    2.46157E+005    2.46157E+005   -2.36486E+003   -1.40881E+005    3.87038E+005   -3.43039E+004    2.63868E+005   -3.72350E+003   -8.47259E+003    1.15108E+005    1.18595E+004   -6.94276E+003    1.82666E+005
             762    3.30087E+005    2.33515E+005    2.33515E+005    4.19770E+002   -1.44199E+005    3.77713E+005   -2.99119E+004    2.41667E+005   -4.86833E+002   -8.45623E+003    9.86789E+004    1.50975E+004   -1.45094E+003    1.80351E+005
             763    3.31683E+005    2.32988E+005    2.32988E+005   -1.50476E+003   -1.46506E+005    3.79494E+005   -2.83258E+004    2.43342E+005   -2.75413E+003   -3.87280E+003    9.16043E+004    1.64737E+004   -2.78062E+003    1.82726E+005
             764    3.37827E+005    2.50149E+005    2.50149E+005   -2.30611E+004   -1.27588E+005    3.77736E+005   -3.31665E+004    2.98051E+005   -2.37904E+004    6.19179E+003    1.17098E+005   -3.11422E+004   -1.08105E+004    1.77334E+005
             765    3.35577E+005    2.35617E+005    2.35617E+005   -1.06013E+004   -1.46615E+005    3.82232E+005   -2.61335E+004    2.61813E+005   -9.34021E+003   -1.41199E+003    8.91526E+004   -1.50156E+004   -1.18382E+004    1.84872E+005
             766    3.30653E+005    2.17173E+005    2.17173E+005   -4.71944E+003   -1.62853E+005    3.80026E+005   -1.65335E+004    2.17764E+005   -4.75753E+003   -5.97281E+003    6.03310E+004    5.55006E+002   -6.59627E+003    1.86978E+005
             767    3.37383E+005    2.19849E+005    2.19849E+005   -1.23714E+002   -1.68590E+005    3.88440E+005   -1.70450E+004    2.05875E+005   -4.39941E+002   -1.87394E+003    5.34488E+004    8.86360E+003   -2.19965E+003    1.92001E+005
             768    3.30603E+005    2.05043E+005    2.05043E+005   -2.76751E+003   -1.76187E+005    3.81231E+005   -8.69613E+003    1.77771E+005   -3.35763E+003   -4.38575E+003    3.38318E+004    1.38168E+004   -2.71034E+003    1.89104E+005
             769    3.32821E+005    2.08420E+005    2.08420E+005    1.11214E+003   -1.75479E+005    3.83899E+005   -1.13509E+004    1.72008E+005    8.67508E+002    6.40985E+001    3.31210E+004    1.66801E+004    3.15077E+000    1.90498E+005
             770    3.25954E+005    1.97795E+005    1.97795E+005   -2.26200E+003   -1.78330E+005    3.76125E+005   -5.73431E+003    1.56270E+005   -2.69078E+003   -2.62440E+003    2.25181E+004    1.77820E+004   -1.07298E+003    1.86780E+005
             771    3.23822E+005    1.84345E+005   -1.89547E+005    1.20833E+003   -1.89547E+005    3.73892E+005    1.33125E+003   -1.06211E+005    1.22965E+003    4.48612E+002   -5.67201E+003   -3.31418E+004    5.60635E+002    1.83958E+005
             772    3.24768E+005    1.76198E+005   -1.98531E+005    1.41366E+003   -1.98531E+005    3.74728E+005    6.97322E+003   -1.58379E+005    1.25631E+003   -3.40192E+002   -2.18358E+004   -1.67094E+004    1.91981E+003    1.86303E+005
             773    3.31954E+005    1.80854E+005   -2.02149E+005    2.58928E+003   -2.02149E+005    3.83003E+005    6.23523E+003   -1.63448E+005    2.56166E+003    3.00335E+003   -2.42707E+004   -1.05780E+003    2.56184E+003    1.90996E+005
             774    3.32743E+005    1.74249E+005   -2.09412E+005    3.29408E+002   -2.09412E+005    3.83661E+005    1.16112E+004   -1.80964E+005    5.61507E+002    1.85434E+003   -3.72495E+004    7.30004E+003    2.31939E+003    1.90667E+005
             775    3.33799E+005    1.76950E+005   -2.07988E+005    1.48254E+003   -2.07988E+005    3.84938E+005    9.85189E+003   -1.78249E+005    1.88522E+003    4.50250E+003   -3.59434E+004    1.25675E+004    1.83948E+003    1.90963E+005
             776    3.29317E+005    1.69934E+005   -2.09648E+005   -1.70148E+002   -2.09648E+005    3.79582E+005    1.32947E+004   -1.85417E+005    3.37279E+002    2.08985E+003   -4.23113E+004    1.56307E+004    1.30366E+003    1.87807E+005
             777    3.28747E+005    1.73296E+005   -2.05778E+005    1.12628E+003   -2.05778E+005    3.79074E+005    1.04520E+004   -1.77686E+005    1.56327E+003    3.57030E+003   -3.64895E+004    1.69927E+004    7.16953E+002    1.87686E+005
             778    3.45604E+005    1.17043E+005   -2.65573E+005    2.39471E+004   -2.65573E+005    3.82616E+005    4.15278E+004   -3.15492E+005    2.53788E+004   -8.74847E+003   -1.41214E+005   -3.14867E+004    1.19003E+004    1.75889E+005
             779    3.39041E+005    1.32155E+005   -2.49358E+005    1.74556E+004   -2.49358E+005    3.81513E+005    3.32493E+004   -2.90314E+005    1.57210E+004    4.28817E+003   -1.19757E+005   -1.59343E+004    1.58906E+004    1.79345E+005
             780    3.38061E+005    1.35739E+005   -2.47981E+005    5.96061E+003   -2.47981E+005    3.83720E+005    3.54271E+004   -2.72917E+005    5.88248E+003    7.14820E+003   -1.19312E+005   -5.99332E+002    1.13413E+004    1.80799E+005
             781    3.40244E+005    1.42159E+005   -2.45453E+005    3.87768E+003   -2.45453E+005    3.87613E+005    3.31388E+004   -2.64949E+005    4.65904E+003    9.87421E+003   -1.13950E+005    7.86523E+003    6.86225E+003    1.83235E+005
             782    3.36505E+005    1.39442E+005   -2.44064E+005    1.79845E+003   -2.44064E+005    3.83507E+005    3.42746E+004   -2.60844E+005    3.24697E+003    8.60311E+003   -1.14674E+005    1.30385E+004    6.13985E+003    1.80783E+005
             783    3.33455E+005    1.42690E+005   -2.38203E+005    1.06043E+003   -2.38203E+005    3.80892E+005    3.14842E+004   -2.51030E+005    2.31744E+003    8.49872E+003   -1.05269E+005    1.58748E+004    2.67678E+003    1.80865E+005
             784    3.28504E+005    1.39639E+005   -2.35425E+005    1.19536E+003   -2.35425E+005    3.75065E+005    3.15303E+004   -2.48896E+005    2.59363E+003    4.99934E+003   -1.02184E+005    1.70330E+004    2.50158E+003    1.78689E+005
             785    3.91351E+005    7.90923E+004   -3.29388E+005    4.22225E+004   -3.29388E+005    4.08481E+005    6.93578E+004   -3.87414E+005    5.26596E+004   -1.35012E+004   -2.47232E+005   -3.12121E+004    2.23938E+004    1.57329E+005
             786    3.70863E+005    8.91172E+004   -3.06626E+005    3.29503E+004   -3.06626E+005    3.95743E+005    6.15195E+004   -3.61108E+005    2.97785E+004    4.94742E+003   -2.19284E+005   -1.95970E+004    2.84178E+004    1.60728E+005
             787    3.53225E+005    1.04172E+005   -2.84233E+005    1.77819E+004   -2.84233E+005    3.88406E+005    5.40930E+004   -3.28168E+005    1.66998E+004    1.48024E+004   -1.93781E+005   -4.84256E+003    2.17871E+004    1.62652E+005
             788    3.51684E+005    1.05133E+005   -2.85456E+005    6.07646E+003   -2.85456E+005    3.90589E+005    5.80822E+004   -3.17954E+005    6.79004E+003    1.36743E+004   -1.94711E+005    4.43564E+003    1.20206E+004    1.64471E+005
             789    3.44104E+005    1.12853E+005   -2.71584E+005    7.60403E+003   -2.71584E+005    3.84437E+005    5.03753E+004   -3.04604E+005    9.42529E+003    1.63432E+004   -1.76895E+005    9.71509E+003    1.13002E+004    1.65014E+005
             790    3.38254E+005    1.09333E+005   -2.69939E+005    5.09978E+002   -2.69939E+005    3.79271E+005    5.33654E+004   -2.94829E+005    2.22132E+003    1.10688E+004   -1.73386E+005    1.31767E+004    4.51112E+003    1.64685E+005
             791    3.31086E+005    1.14286E+005   -2.57621E+005    5.02498E+003   -2.57621E+005    3.71907E+005    4.61032E+004   -2.86092E+005    7.01125E+003    9.95045E+003   -1.55271E+005    1.45149E+004    4.63530E+003    1.65429E+005
             792    4.48886E+005    8.61638E+004   -3.89722E+005    2.61187E+004   -3.89722E+005    4.75886E+005    9.24800E+004   -4.39715E+005    7.91435E+004   -2.04493E+004   -3.36134E+005   -2.73035E+004    3.20854E+004    1.35595E+005
             793    4.06781E+005    6.08897E+004   -3.50320E+005    5.18815E+004   -3.50320E+005    4.11210E+005    7.91830E+004   -4.06556E+005    4.95073E+004    4.73122E+003   -2.91788E+005   -1.92391E+004    3.83798E+004    1.37521E+005
             794    3.80527E+005    7.17331E+004   -3.27640E+005    3.07168E+004   -3.27640E+005    3.99373E+005    7.50634E+004   -3.75505E+005    2.87901E+004    1.42813E+004   -2.68262E+005   -6.33047E+003    3.22424E+004    1.38349E+005
             795    3.67104E+005    7.91886E+004   -3.15906E+005    1.46457E+004   -3.15906E+005    3.95095E+005    7.40240E+004   -3.53999E+005    1.54085E+004    1.70382E+004   -2.54519E+005    2.85023E+003    1.78447E+004    1.41989E+005
             796    3.59198E+005    8.31048E+004   -3.05919E+005    1.31667E+004   -3.05919E+005    3.89024E+005    6.98825E+004   -3.43374E+005    1.56467E+004    1.75847E+004   -2.42879E+005    7.95435E+003    1.67937E+004    1.42182E+005
             797    3.43862E+005    8.36045E+004   -2.92691E+005    5.19363E+003   -2.92691E+005    3.76296E+005    6.79643E+004   -3.22815E+005    7.46161E+003    1.37610E+004   -2.25115E+005    1.11351E+004    7.28048E+003    1.43890E+005
             798    3.37936E+005    8.47544E+004   -2.84938E+005    8.05977E+003   -2.84938E+005    3.69692E+005    6.40412E+004   -3.17457E+005    1.08409E+004    9.34986E+003   -2.12314E+005    1.24305E+004    7.22067E+003    1.46189E+005
             799    4.90592E+005    1.13688E+005   -4.19952E+005    1.14922E+004   -4.19952E+005    5.33640E+005    9.82571E+004   -4.65731E+005    1.07791E+005   -1.68363E+004   -3.85726E+005   -2.56538E+004    4.02619E+004    1.09936E+005
             800    4.51005E+005    7.56384E+004   -3.96261E+005    3.04471E+004   -3.96261E+005    4.71899E+005    9.67251E+004   -4.45869E+005    6.82238E+004   -4.74419E+002   -3.57925E+005   -2.31263E+004    4.46563E+004    1.13684E+005
             801    4.12376E+005    5.63803E+004   -3.57351E+005    5.36567E+004   -3.57351E+005    4.13732E+005    8.24381E+004   -4.12356E+005    5.08772E+004    1.99289E+004   -3.18120E+005   -1.40582E+004    4.48031E+004    1.12164E+005
             802    3.90926E+005    5.48721E+004   -3.51060E+005    2.28966E+004   -3.51060E+005    4.05932E+005    9.10970E+004   -3.87968E+005    2.16202E+004    1.95902E+004   -3.14501E+005   -3.90942E+003    2.50671E+004    1.13421E+005
             803    3.73170E+005    6.30652E+004   -3.27377E+005    2.57115E+004   -3.27377E+005    3.90442E+005    7.95335E+004   -3.68929E+005    2.65058E+004    2.31253E+004   -2.88232E+005    1.39886E+003    2.40159E+004    1.14765E+005
             804    3.57641E+005    5.87525E+004   -3.21461E+005    8.23683E+003   -3.21461E+005    3.80213E+005    8.48239E+004   -3.49480E+005    9.67217E+003    1.53437E+004   -2.79488E+005    5.61884E+003    1.11922E+004    1.18535E+005
             805    3.43451E+005    6.18578E+004   -3.02559E+005    1.51464E+004   -3.02559E+005    3.64416E+005    7.51848E+004   -3.36193E+005    1.74576E+004    1.23021E+004   -2.55314E+005    7.07845E+003    1.07802E+004    1.21703E+005
             806    5.26152E+005    1.38007E+005   -4.45436E+005   -6.97775E+003   -4.45436E+005    5.83443E+005    1.04802E+005   -4.78019E+005    1.33348E+005   -2.64575E+004   -4.21297E+005   -1.70398E+004    4.77755E+004    9.05244E+004
             807    4.92856E+005    1.01861E+005   -4.29568E+005    1.24837E+004   -4.29568E+005    5.31429E+005    1.05074E+005   -4.74106E+005    9.70377E+004   -9.54539E+003   -4.02715E+005   -1.80383E+004    4.39871E+004    9.70885E+004
             808    4.64994E+005    9.24508E+004   -4.00349E+005    3.06602E+004   -4.00349E+005    4.92800E+005    9.24128E+004   -4.55620E+005    8.53709E+004    1.11035E+004   -3.73713E+005   -1.68927E+004    5.48502E+004    8.97394E+004
             809    4.20494E+005    5.46167E+004   -3.75536E+005    3.45820E+004   -3.75536E+005    4.30153E+005    9.54459E+004   -4.19418E+005    5.06351E+004    1.58309E+004   -3.52804E+005   -1.18969E+004    3.51081E+004    8.71014E+004
             810    4.05786E+005    5.07821E+004   -3.60671E+005    3.92000E+004   -3.60671E+005    4.11453E+005    9.02297E+004   -4.05414E+005    4.79163E+004    1.90966E+004   -3.37702E+005   -7.34190E+003    3.33579E+004    8.70706E+004
             811    3.71127E+005    3.61678E+004   -3.38223E+005    2.95510E+004   -3.38223E+005    3.74391E+005    9.08348E+004   -3.70994E+005    2.86584E+004    1.33522E+004   -3.14515E+005   -3.90025E+003    1.88648E+004    8.92046E+004
             812    3.61176E+005    3.68181E+004   -3.28048E+005    2.93211E+004   -3.28048E+005    3.64866E+005    8.73028E+004   -3.61000E+005    3.00666E+004    7.65843E+003   -2.99634E+005   -1.54200E+003    1.60858E+004    9.63467E+004
             813    5.32855E+005    1.35445E+005   -4.54410E+005   -7.86642E+003   -4.54410E+005    5.89855E+005    1.08944E+005   -4.86584E+005    1.32137E+005   -1.96346E+004   -4.39334E+005   -9.15415E+003    4.29378E+004    7.13458E+004
             814    5.30926E+005    1.21606E+005   -4.59652E+005   -2.41619E+002   -4.59652E+005    5.81258E+005    1.12762E+005   -4.97988E+005    1.17760E+005   -1.15298E+004   -4.44517E+005   -1.19033E+004    4.47041E+004    7.13854E+004
             815    4.97367E+005    1.11702E+005   -4.27439E+005    1.35062E+004   -4.27439E+005    5.39141E+005    1.00744E+005   -4.74817E+005    1.06564E+005    2.86567E+003   -4.11661E+005   -9.79684E+003    5.13392E+004    6.73490E+004
             816    4.70371E+005    8.66552E+004   -4.14863E+005    1.64762E+004   -4.14863E+005    5.01518E+005    1.03910E+005   -4.58371E+005    8.22574E+004    8.06417E+003   -4.02053E+005   -1.09860E+004    4.40226E+004    6.04009E+004
             817    4.31210E+005    7.51627E+004   -3.82505E+005    1.61728E+004   -3.82505E+005    4.57668E+005    9.70566E+004   -4.21989E+005    7.15214E+004    8.01514E+003   -3.70706E+005   -8.76736E+003    3.89259E+004    5.67200E+004
             818    4.04857E+005    5.54587E+004   -3.69365E+005    1.20206E+004   -3.69365E+005    4.24824E+005    1.00629E+005   -3.99563E+005    5.31351E+004    1.53875E+003   -3.56560E+005   -8.38686E+003    2.83705E+004    6.30071E+004
             819    3.77495E+005    4.85811E+004   -3.46030E+005    1.16320E+004   -3.46030E+005    3.94611E+005    9.52724E+004   -3.73395E+005    4.71509E+004   -1.76179E+003   -3.31206E+005   -6.73007E+003    2.14632E+004    6.81783E+004
             820    4.14560E+005    7.74899E+004   -3.73186E+005   -8.10391E+003   -3.73186E+005    4.50676E+005    1.01267E+005   -3.93936E+005    7.47342E+004   -1.26656E+004   -3.65869E+005   -1.09418E+004    2.97996E+004    4.31113E+004
             821    4.43431E+005    9.57811E+004   -3.88427E+005   -2.14255E+003   -3.88427E+005    4.84208E+005    9.82627E+004   -4.18052E+005    9.17941E+004   -3.93573E+003   -3.82646E+005   -1.10368E+004    3.93841E+004    3.03976E+004
             822    4.85613E+005    1.16113E+005   -4.15358E+005    5.21096E+003   -4.15358E+005    5.31471E+005    9.80116E+004   -4.55795E+005    1.11172E+005    3.75319E+003   -4.08960E+005   -1.08160E+004    4.76841E+004    2.85392E+004
             823    5.13831E+005    1.36999E+005   -4.27563E+005    1.27507E+004   -4.27563E+005    5.64562E+005    9.26043E+004   -4.78248E+005    1.31684E+005    1.15070E+004   -4.21004E+005   -1.04067E+004    5.18127E+004    2.68205E+004
             824    5.60303E+005    1.54390E+005   -4.62246E+005    1.56592E+004   -4.62246E+005    6.16636E+005    9.73991E+004   -5.19511E+005    1.49137E+005    1.26770E+004   -4.54011E+005   -1.09105E+004    5.43720E+004    3.92056E+004
             825    5.61766E+005    1.65063E+005   -4.60328E+005    1.51639E+003   -4.60328E+005    6.25392E+005    9.79161E+004   -5.03882E+005    1.60710E+005   -3.92178E+003   -4.50537E+005   -1.26995E+004    4.90004E+004    5.09874E+004
             826    5.84934E+005    1.82393E+005   -4.73845E+005   -7.30195E+003   -4.73845E+005    6.56238E+005    9.95847E+004   -5.08488E+005    1.77410E+005   -1.22560E+004   -4.63908E+005   -1.48095E+004    5.32056E+004    4.95702E+004
             827    2.94017E+005    2.56650E+005    2.56650E+005   -1.25391E+004   -5.71068E+004    3.13757E+005   -6.23346E+004    2.86269E+005   -1.25413E+004    3.25242E+004    1.67021E+005    2.19384E+003    1.51298E+003    1.41708E+005
             828    3.06019E+005    2.62763E+005    2.62763E+005   -4.27349E+003   -7.11694E+004    3.33933E+005   -6.24402E+004    2.88872E+005   -4.32144E+003    4.54600E+004    1.46182E+005    5.11078E+003    2.01537E+003    1.59080E+005
             829    3.29573E+005    2.63838E+005    2.63838E+005    3.25444E+002   -1.05698E+005    3.69536E+005   -5.28218E+004    2.87268E+005    2.13753E+002    3.79662E+004    1.20285E+005    9.32076E+003    2.23765E+003    1.79846E+005
             830    3.47151E+005    2.59255E+005    2.59255E+005    3.90899E+003   -1.36024E+005    3.95278E+005   -4.23800E+004    2.71869E+005    3.81057E+003    2.97142E+004    9.36152E+004    1.37921E+004    2.56014E+003    1.94520E+005
             831    3.38422E+005    2.50448E+005    2.50448E+005    6.27723E+002   -1.34697E+005    3.85145E+005   -3.87931E+004    2.66462E+005    4.23263E+002    2.14147E+004    9.45413E+004    1.35773E+004    2.05705E+003    1.88539E+005
             832    3.29774E+005    2.45344E+005    2.45344E+005   -1.86581E+003   -1.29092E+005    3.74436E+005   -3.81286E+004    2.65470E+005   -2.56073E+003    1.51722E+004    1.01774E+005    1.40793E+004   -2.18267E+002    1.81481E+005
             833    3.27297E+005    2.45463E+005    2.45463E+005   -2.92565E+003   -1.25410E+005    3.70873E+005   -3.90426E+004    2.67927E+005   -3.35183E+003    1.20084E+004    1.08471E+005    1.39750E+004    1.79377E+003    1.78424E+005
             834    3.23263E+005    2.42135E+005    2.42135E+005   -5.33080E+003   -1.23609E+005    3.65744E+005   -3.77319E+004    2.67643E+005   -6.10244E+003    6.37196E+003    1.12926E+005    1.44404E+004    4.60094E+002    1.74197E+005
             835    3.23536E+005    2.46976E+005    2.46976E+005   -1.83640E+003   -1.18770E+005    3.65746E+005   -4.21231E+004    2.69436E+005   -2.55022E+003    5.91238E+003    1.23007E+005    1.49734E+004    1.44585E+003    1.72456E+005
             836    3.22773E+005    2.45751E+005    2.45751E+005   -5.91211E+003   -1.18160E+005    3.63911E+005   -4.05597E+004    2.73383E+005   -7.31435E+003   -1.67757E+003    1.30671E+005    1.53681E+004   -1.30065E+003    1.68498E+005
             837    3.28146E+005    2.56045E+005    2.56045E+005   -4.40009E+002   -1.13737E+005    3.69782E+005   -4.72892E+004    2.78752E+005   -1.70638E+003   -1.15747E+003    1.44731E+005    1.55708E+004   -2.02234E+002    1.68906E+005
             838    3.21966E+005    2.55815E+005    2.55815E+005   -2.21262E+003   -1.04993E+005    3.60808E+005   -4.95366E+004    2.81342E+005   -2.35124E+003    2.67345E+004    1.24226E+005    9.51635E+003    2.41179E+003    1.73385E+005
             839    3.23271E+005    2.57784E+005    2.57784E+005   -4.37333E+003   -1.03423E+005    3.61207E+005   -4.99959E+004    2.86020E+005   -5.03107E+003    1.92821E+004    1.35737E+005    1.05119E+004   -4.04454E+002    1.70478E+005
             840    3.19372E+005    2.57224E+005    2.57224E+005   -5.23767E+003   -9.83577E+004    3.55582E+005   -5.12097E+004    2.86355E+005   -5.69067E+003    1.42498E+004    1.45070E+005    1.05561E+004    1.67176E+003    1.64859E+005
             841    3.20177E+005    2.61289E+005    2.61289E+005   -6.86933E+003   -9.32036E+004    3.54492E+005   -5.37386E+004    2.92221E+005   -7.76344E+003    1.13965E+004    1.57583E+005    1.10848E+004   -6.64012E+001    1.60838E+005
             842    3.18059E+005    2.62973E+005    2.62973E+005   -3.90428E+003   -8.89691E+004    3.51942E+005   -5.66999E+004    2.90770E+005   -4.78425E+003    5.04355E+003    1.69840E+005    1.17165E+004    1.14401E+003    1.54781E+005
             843    3.24345E+005    2.71572E+005    2.71572E+005   -6.63518E+003   -8.46727E+004    3.56245E+005   -6.00880E+004    3.02120E+005   -8.43344E+003    2.37818E+003    1.86319E+005    1.22086E+004   -2.51302E+003    1.51431E+005
             844    3.26362E+005    2.76258E+005    2.76258E+005   -2.49762E+003   -8.27426E+004    3.59000E+005   -6.36724E+004    3.02950E+005   -4.19851E+003   -6.05473E+003    2.01271E+005    1.24818E+004   -1.50428E+003    1.45414E+005
             845    3.12624E+005    2.61212E+005    2.61212E+005   -7.10332E+003   -8.20834E+004    3.43296E+005   -5.73418E+004    2.91344E+005   -7.11709E+003    2.72702E+004    1.51872E+005    5.56348E+003    2.75869E+003    1.59818E+005
             846    3.16310E+005    2.65709E+005    2.65709E+005   -1.04903E+004   -7.93625E+004    3.45072E+005   -5.86188E+004    2.98733E+005   -1.08738E+004    2.28980E+004    1.63832E+005    5.87056E+003   -6.65494E+002    1.57252E+005
             847    3.14324E+005    2.70193E+005    2.70193E+005   -1.00182E+004   -6.96887E+004    3.39882E+005   -6.34953E+004    3.01183E+005   -1.01978E+004    2.17432E+004    1.78941E+005    5.44690E+003    1.64877E+003    1.50499E+005
             848    3.15003E+005    2.72539E+005    2.72539E+005   -1.54526E+004   -6.38705E+004    3.36409E+005   -6.44051E+004    3.06464E+005   -1.59265E+004    1.46361E+004    1.94506E+005    5.00269E+003   -8.90185E+002    1.41851E+005
             849    3.15945E+005    2.81407E+005    2.81407E+005   -1.04407E+004   -5.40945E+004    3.35502E+005   -7.22906E+004    3.09050E+005   -1.08064E+004    1.31240E+004    2.14554E+005    4.83122E+003    4.94389E+002    1.33894E+005
             850    3.25276E+005    2.88020E+005    2.88020E+005   -1.72915E+004   -5.40912E+004    3.42111E+005   -7.22125E+004    3.20543E+005   -1.82813E+004    1.31821E+003    2.33601E+005    4.56834E+003   -4.55161E+003    1.24884E+005
             851    3.33844E+005    3.02764E+005    3.02764E+005   -1.05949E+004   -4.83529E+004    3.51117E+005   -8.12722E+004    3.28988E+005   -1.13883E+004   -2.61321E+002    2.55466E+005    4.15877E+003   -4.40210E+003    1.19688E+005
             852    3.10594E+005    2.67274E+005    2.67274E+005   -1.23765E+004   -6.70132E+004    3.34287E+005   -6.26280E+004    2.99495E+005   -1.23438E+004    2.80186E+004    1.72209E+005    2.58147E+003    2.56243E+003    1.50764E+005
             853    3.10034E+005    2.71650E+005    2.71650E+005   -1.63053E+004   -5.65358E+004    3.28186E+005   -6.62696E+004    3.04079E+005   -1.64150E+004    2.97523E+004    1.85472E+005    1.89594E+003   -9.19691E+002    1.44383E+005
             854    3.06463E+005    2.75621E+005    2.75621E+005   -1.77408E+004   -4.24476E+004    3.18068E+005   -7.18108E+004    3.04210E+005   -1.77581E+004    2.91122E+004    2.04078E+005    7.89174E+002    6.21573E+001    1.32799E+005
             855    3.10384E+005    2.85353E+005    2.85353E+005   -2.28223E+004   -2.71932E+004    3.12546E+005   -7.84458E+004    3.10315E+005   -2.29108E+004    2.78944E+004    2.30354E+005   -4.54512E+002   -2.61426E+003    1.18968E+005
             856    3.18722E+005    2.96032E+005    2.96032E+005   -2.20237E+004   -2.33522E+004    3.19384E+005   -8.35519E+004    3.18715E+005   -2.29740E+004    1.87703E+004    2.54859E+005   -1.59916E+003   -2.52115E+003    1.06803E+005
             857    3.35174E+005    3.11311E+005    3.11311E+005   -1.75793E+004   -2.98128E+004    3.41124E+005   -8.79729E+004    3.34672E+005   -2.96084E+004    1.44795E+004    2.79048E+005   -2.60985E+003   -7.93023E+003    9.75168E+004
             858    3.48879E+005    3.24280E+005    3.24280E+005   -1.90948E+004   -2.98529E+004    3.54133E+005   -9.17775E+004    3.48505E+005   -2.94240E+004    4.24193E+003    3.00515E+005   -3.80392E+003   -1.03585E+004    8.65365E+004
             859    3.81518E+005    3.51084E+005    3.51084E+005    9.17747E+003   -6.04536E+004    4.11537E+005   -9.99358E+004    3.66811E+005   -5.87759E+004    1.81436E+004    3.40440E+005   -9.99987E+003   -1.92691E+004    5.64487E+004
             860    3.57453E+005    3.31346E+005    3.31346E+005    6.09742E+003   -5.13523E+004    3.82699E+005   -9.53638E+004    3.46838E+005   -5.01491E+004    2.01308E+004    3.16110E+005   -9.16534E+003   -1.16006E+004    6.77565E+004
             861    3.33159E+005    3.13419E+005    3.13419E+005    8.48290E+003   -4.21627E+004    3.55582E+005   -9.32464E+004    3.24328E+005   -4.12056E+004    3.12338E+004    2.89711E+005   -8.23589E+003   -6.31313E+003    8.14245E+004
             862    3.15288E+005    2.95716E+005    2.95716E+005   -8.64890E+002   -3.54310E+004    3.31147E+005   -8.64733E+004    3.10982E+005   -3.46057E+004    3.50321E+004    2.58994E+005   -6.57958E+003   -3.33290E+003    9.77054E+004
             863    3.02578E+005    2.81888E+005    2.81888E+005   -1.27740E+004   -2.80280E+004    3.09916E+005   -8.03620E+004    3.01711E+005   -2.70574E+004    4.08156E+004    2.27328E+005   -4.73237E+003   -1.43107E+003    1.14640E+005
             864    3.04885E+005    2.71272E+005    2.71272E+005   -2.38504E+004   -4.25172E+004    3.13789E+005   -6.83014E+004    3.03595E+005   -2.39955E+004    3.25417E+004    1.96358E+005   -2.17685E+003   -4.49940E+002    1.33723E+005
             865    3.04113E+005    2.61411E+005    2.61411E+005   -2.02042E+004   -6.10678E+004    3.22479E+005   -6.00463E+004    2.97842E+005   -2.02185E+004    2.05816E+004    1.79776E+005   -1.14920E+002    1.63467E+003    1.40207E+005
             866    3.56999E+005    3.68664E+004   -3.33199E+005    9.11198E+003   -3.33199E+005    3.70066E+005    9.57403E+004   -3.54559E+005    3.61012E+004   -1.03684E+004   -3.12954E+005   -5.85531E+003    1.27925E+004    7.97408E+004
             867    3.37526E+005    3.49228E+004   -3.09961E+005    1.96916E+004   -3.09961E+005    3.44884E+005    8.51156E+004   -3.36752E+005    1.98420E+004    4.02398E+002   -2.75591E+005   -1.13075E+002    6.81672E+003    1.03068E+005
             868    3.31393E+005    5.92243E+004   -2.95606E+005    5.87861E+003   -2.95606E+005    3.54830E+005    7.68343E+004   -3.21520E+005    7.34405E+003    2.34839E+003   -2.40195E+005    8.08776E+003    3.26559E+003    1.28490E+005
             869    3.25895E+005    8.66149E+004   -2.72651E+005    3.95369E+003   -2.72651E+005    3.59266E+005    6.06940E+004   -3.00922E+005    5.69460E+003    3.98876E+003   -1.91765E+005    1.29737E+004    1.53965E+003    1.49487E+005
             870    3.26066E+005    1.12800E+005   -2.54555E+005    5.81945E+002   -2.54555E+005    3.67356E+005    4.70577E+004   -2.77343E+005    1.90504E+003    3.16800E+003   -1.46246E+005    1.52144E+004    6.57190E+002    1.66819E+005
             871    3.25971E+005    1.44100E+005   -2.28931E+005    1.09279E+003   -2.28931E+005    3.73031E+005    2.79130E+004   -2.38344E+005    2.01347E+003    3.70793E+003   -8.94603E+004    1.74209E+004    3.91491E+002    1.79649E+005
             872    3.24811E+005    1.69111E+005   -2.05365E+005   -1.00599E+001   -2.05365E+005    3.74475E+005    1.20880E+004   -1.78740E+005    3.90397E+002    3.89179E+002   -3.70437E+004    1.75703E+004    3.59893E+002    1.85449E+005
             873    3.27838E+005    2.02130E+005    2.02130E+005    8.86085E+002   -1.76168E+005    3.78297E+005   -8.94943E+003    1.57309E+005    7.50891E+002    1.21160E+003    2.48858E+004    1.82112E+004    4.65805E+002    1.87893E+005
             874    3.24159E+005    2.24131E+005    2.24131E+005    1.74330E+002   -1.47582E+005    3.71712E+005   -2.55744E+004    2.27595E+005   -4.79045E+002   -3.94691E+003    8.11493E+004    1.70460E+004    3.47011E+002    1.80045E+005
             875    3.36819E+005    3.39269E+004   -3.13342E+005    1.19515E+004   -3.13342E+005    3.47269E+005    8.91546E+004   -3.35201E+005    3.35479E+004   -1.45572E+004   -2.86454E+005   -4.28378E+003    8.15755E+003    8.92016E+004
             876    3.29492E+005    3.82163E+004   -2.99329E+005    2.14704E+004   -2.99329E+005    3.37546E+005    7.98809E+004   -3.28532E+005    2.19720E+004   -7.30767E+003   -2.54307E+005    1.17220E+003    5.28748E+003    1.14570E+005
             877    3.22130E+005    6.58096E+004   -2.79877E+005    1.18916E+004   -2.79877E+005    3.45687E+005    6.73920E+004   -3.11735E+005    1.34630E+004   -1.56764E+003   -2.14071E+005    8.39113E+003    3.48958E+003    1.35329E+005
             878    3.23340E+005    9.08423E+004   -2.66212E+005    6.82948E+003   -2.66212E+005    3.57054E+005    5.61799E+004   -2.97259E+005    8.54945E+003   -2.03672E+003   -1.75053E+005    1.29953E+004    1.94598E+003    1.55083E+005
             879    3.23007E+005    1.20458E+005   -2.44504E+005    4.57701E+003   -2.44504E+005    3.64962E+005    3.98230E+004   -2.69914E+005    5.80252E+003    1.15377E+003   -1.26425E+005    1.51033E+004    9.74132E+002    1.70054E+005
             880    3.24315E+005    1.45261E+005   -2.26087E+005    1.48878E+003   -2.26087E+005    3.71348E+005    2.64459E+004   -2.34696E+005    2.33016E+003   -4.52485E+002   -8.12154E+004    1.72155E+004    4.36162E+002    1.80310E+005
             881    3.26321E+005    1.75194E+005   -2.01259E+005    1.02088E+003   -2.01259E+005    3.76453E+005    8.34809E+003   -1.64831E+005    1.26709E+003    1.38286E+003   -2.76942E+004    1.73851E+004   -1.23995E+001    1.86848E+005
             882    3.24551E+005    1.97521E+005    1.97521E+005   -1.81745E+003   -1.76978E+005    3.74499E+005   -6.24165E+003    1.56226E+005   -2.09373E+003   -1.22287E+003    2.20416E+004    1.79384E+004   -2.81443E+002    1.86015E+005
             883    3.26616E+005    2.26298E+005    2.26298E+005   -1.78254E+003   -1.47862E+005    3.74161E+005   -2.55512E+004    2.34201E+005   -2.60780E+003    7.01408E+002    7.85601E+004    1.67898E+004   -7.45097E+002    1.82117E+005
             884    3.21042E+005    2.64298E+004   -3.00364E+005    1.45989E+004   -3.00364E+005    3.26794E+005    8.64451E+004   -3.20551E+005    2.61426E+004   -2.38513E+004   -2.61626E+005   -3.01349E+003    3.36315E+003    1.03413E+005
             885    3.14848E+005    4.31990E+004   -2.84484E+005    1.57304E+004   -2.84484E+005    3.27683E+005    7.51848E+004   -3.12136E+005    1.58694E+004   -1.39601E+004   -2.27464E+005    2.05780E+003    2.13728E+002    1.24197E+005
             886    3.16965E+005    7.01087E+004   -2.74036E+005    5.92676E+003   -2.74036E+005    3.44145E+005    6.60001E+004   -3.01821E+005    6.63568E+003   -1.03021E+004   -1.94334E+005    8.57501E+003   -8.69682E+002    1.44882E+005
             887    3.18838E+005    9.81936E+004   -2.57045E+005    4.31133E+003   -2.57045E+005    3.55239E+005    5.15134E+004   -2.85163E+005    5.19512E+003   -6.39520E+003   -1.53340E+005    1.29515E+004   -1.21269E+003    1.60955E+005
             888    3.23091E+005    1.24274E+005   -2.42190E+005    1.58662E+003   -2.42190E+005    3.66464E+005    3.87766E+004   -2.62426E+005    2.26079E+003   -4.76301E+003   -1.13828E+005    1.49264E+004   -1.10877E+003    1.74170E+005
             889    3.26032E+005    1.53026E+005   -2.21201E+005    1.44954E+003   -2.21201E+005    3.74227E+005    2.22420E+004   -2.23424E+005    1.91039E+003   -1.31400E+003   -6.73223E+004    1.68775E+004   -6.76101E+002    1.83358E+005
             890    3.26269E+005    1.75864E+005   -2.00599E+005    1.83909E+002   -2.00599E+005    3.76464E+005    8.18381E+003   -1.58746E+005    3.63962E+002   -1.40657E+003   -2.35088E+004    1.70454E+004   -9.18296E+001    1.87126E+005
             891    3.28203E+005    2.03546E+005    2.03546E+005    2.82084E+002   -1.75089E+005    3.78634E+005   -9.57970E+003    1.65047E+005    1.70157E+002    2.18086E+003    2.63881E+004    1.75019E+004    6.13901E+002    1.88112E+005
             892    3.24093E+005    2.22379E+005    2.22379E+005   -7.87627E+002   -1.49365E+005    3.71744E+005   -2.40757E+004    2.26009E+005   -1.18704E+003    9.05609E+002    7.25087E+004    1.63558E+004    1.09168E+003    1.81612E+005
             893    3.09582E+005    2.48061E+004   -2.85194E+005    2.39690E+004   -2.85194E+005    3.10000E+005    7.88063E+004   -3.09580E+005    2.40519E+004   -2.81479E+004   -2.32323E+005   -1.30044E+003    2.19991E+003    1.16550E+005
             894    3.13445E+005    5.23799E+004   -2.77356E+005    1.67549E+004   -2.77356E+005    3.29736E+005    6.94070E+004   -3.08841E+005    1.70625E+004   -2.08341E+004   -2.04449E+005    3.27778E+003    8.81041E+002    1.36753E+005
             895    3.16270E+005    8.14365E+004   -2.64450E+005    9.97688E+003   -2.64450E+005    3.45886E+005    5.76788E+004   -2.97281E+005    1.07360E+004   -1.31151E+004   -1.70657E+005    8.74504E+003    3.33025E+002    1.53461E+005
             896    3.22124E+005    1.06655E+005   -2.53802E+005    5.90311E+003   -2.53802E+005    3.60457E+005    4.70815E+004   -2.83279E+005    6.76280E+003   -1.11758E+004   -1.36831E+005    1.28609E+004   -3.18058E+002    1.68228E+005
             897    3.26107E+005    1.34583E+005   -2.36585E+005    3.96135E+003   -2.36585E+005    3.71169E+005    3.26802E+004   -2.56475E+005    4.57531E+003   -5.82093E+003   -9.67950E+004    1.47097E+004   -5.09664E+002    1.79226E+005
             898    3.28970E+005    1.57741E+005   -2.20240E+005    1.44319E+003   -2.20240E+005    3.77981E+005    2.03521E+004   -2.18798E+005    1.84425E+003   -4.49946E+003   -5.84011E+004    1.64788E+004   -4.03129E+002    1.86296E+005
             899    3.31245E+005    1.83742E+005   -1.98628E+005    7.73612E+002   -1.98628E+005    3.82371E+005    4.70412E+003   -1.39289E+005    8.62931E+002    4.45438E+001   -1.50198E+004    1.66568E+004   -1.81091E+002    1.90307E+005
             900    3.29198E+005    2.03338E+005    2.03338E+005   -1.45877E+003   -1.76395E+005    3.79734E+005   -8.49484E+003    1.69163E+005   -1.64780E+003    8.37847E+002    2.62945E+004    1.69718E+004    1.99465E+002    1.88670E+005
             901    3.29080E+005    2.26372E+005    2.26372E+005   -2.04836E+003   -1.50824E+005    3.77196E+005   -2.45000E+004    2.33218E+005   -2.53036E+003    5.11957E+003    7.09106E+004    1.58252E+004    3.47028E+002    1.84979E+005
             902    3.06253E+005    3.77611E+004   -2.78134E+005    1.74687E+004   -2.78134E+005    3.15895E+005    7.43013E+004   -3.04735E+005    1.74724E+004   -3.36357E+004   -2.06741E+005    1.29813E+002    3.55268E+002    1.32119E+005
             903    3.11249E+005    6.46480E+004   -2.69687E+005    1.16780E+004   -2.69687E+005    3.34335E+005    6.44536E+004   -3.00856E+005    1.18315E+004   -2.43842E+004   -1.80808E+005    4.42359E+003   -1.17657E+003    1.47612E+005
             904    3.18969E+005    9.01911E+004   -2.62558E+005    5.56365E+003   -2.62558E+005    3.52749E+005    5.56011E+004   -2.92067E+005    5.95034E+003   -1.90022E+004   -1.53751E+005    9.13070E+003   -1.55844E+003    1.62626E+005
             905    3.25338E+005    1.16697E+005   -2.50003E+005    4.00654E+003   -2.50003E+005    3.66700E+005    4.31001E+004   -2.76005E+005    4.48568E+003   -1.34953E+004   -1.20291E+005    1.29654E+004   -1.61910E+003    1.74817E+005
             906    3.30717E+005    1.40589E+005   -2.36876E+005    1.99191E+003   -2.36876E+005    3.77465E+005    3.14317E+004   -2.51702E+005    2.36752E+003   -1.00368E+004   -8.66260E+004    1.48189E+004   -1.30878E+003    1.84155E+005
             907    3.34840E+005    1.66440E+005   -2.18880E+005    1.42698E+003   -2.18880E+005    3.85320E+005    1.70042E+004   -2.09649E+005    1.65360E+003   -4.55808E+003   -4.81082E+004    1.63167E+004   -8.06084E+002    1.90711E+005
             908    3.35225E+005    1.87321E+005   -1.99697E+005    1.67204E+001   -1.99697E+005    3.87018E+005    4.11979E+003   -1.27871E+005    8.25633E+001   -1.69276E+003   -1.07492E+004    1.65418E+004   -7.85632E+001    1.92746E+005
             909    3.35636E+005    2.10461E+005    2.10461E+005   -4.40130E+002   -1.76577E+005    3.87039E+005   -1.11479E+004    1.80219E+005   -5.39448E+002    4.18462E+003    2.97986E+004    1.66148E+004    7.33412E+002    1.92373E+005
             910    3.30614E+005    2.26675E+005    2.26675E+005   -1.88224E+003   -1.52418E+005    3.79094E+005   -2.41248E+004    2.32418E+005   -2.15202E+003    6.36636E+003    6.81600E+004    1.55012E+004    1.32139E+003    1.86335E+005
             911    3.08141E+005    5.50634E+004   -2.70927E+005    1.55528E+004   -2.70927E+005    3.25990E+005    6.67703E+004   -3.02363E+005    1.56020E+004   -3.27729E+004   -1.83140E+005    1.55099E+003    1.69892E+002    1.44590E+005
             912    3.16292E+005    7.70768E+004   -2.67435E+005    9.81654E+003   -2.67435E+005    3.44512E+005    6.01806E+004   -2.99560E+005    1.01327E+004   -2.74118E+004   -1.63263E+005    5.52963E+003    3.25779E+002    1.58096E+005
             913    3.23785E+005    1.01987E+005   -2.59169E+005    5.14169E+003   -2.59169E+005    3.61156E+005    5.06799E+004   -2.88395E+005    5.74417E+003   -2.07293E+004   -1.37055E+005    9.79989E+003    4.90809E+002    1.70524E+005
             914    3.31563E+005    1.24976E+005   -2.50569E+005    1.69135E+003   -2.50569E+005    3.75545E+005    4.13004E+004   -2.72323E+005    2.38796E+003   -1.71881E+004   -1.09101E+005    1.34838E+004    2.71798E+002    1.81437E+005
             915    3.37663E+005    1.50086E+005   -2.36499E+005    7.24845E+002   -2.36499E+005    3.86585E+005    2.85627E+004   -2.44896E+005    1.29890E+003   -1.14348E+004   -7.55522E+004    1.56744E+004    2.40034E+002    1.89903E+005
             916    3.41680E+005    1.72339E+005   -2.21200E+005   -1.24857E+002   -2.21200E+005    3.93539E+005    1.63288E+004   -2.03725E+005    2.12615E+002   -7.27098E+003   -4.19279E+004    1.70757E+004    8.60869E+001    1.95239E+005
             917    3.44018E+005    1.95794E+005   -2.01428E+005    2.04676E+002   -2.01428E+005    3.97223E+005    1.80987E+003   -1.02369E+005    2.38577E+002   -3.18226E+002   -5.34996E+003    1.74243E+004   -5.21791E+001    1.97829E+005
             918    3.41517E+005    2.14028E+005    2.14028E+005   -2.43009E+002   -1.79813E+005    3.93841E+005   -1.13240E+004    1.82216E+005   -5.05079E+002    4.30725E+003    3.01698E+004    1.72673E+004   -1.38334E+002    1.95723E+005
             919    3.38777E+005    2.33035E+005    2.33035E+005   -2.42077E+002   -1.55552E+005    3.88587E+005   -2.57472E+004    2.36247E+005   -7.68666E+002    1.11000E+004    6.69101E+004    1.60790E+004   -2.53021E+002    1.91551E+005
             920    3.10171E+005    6.57557E+004   -2.67822E+005    1.18865E+004   -2.67822E+005    3.33578E+005    6.33932E+004   -2.99374E+005    1.18707E+004   -3.35496E+004   -1.68501E+005    2.42467E+003   -2.00086E+003    1.52504E+005
             921    3.18232E+005    8.65536E+004   -2.63814E+005    7.30483E+003   -2.63814E+005    3.50368E+005    5.66518E+004   -2.94779E+005    7.29303E+003   -2.85359E+004   -1.48713E+005    5.45932E+003   -2.89845E+003    1.64444E+005
             922    3.26330E+005    1.07551E+005   -2.58434E+005    2.22567E+003   -2.58434E+005    3.65985E+005    4.95523E+004   -2.84133E+005    2.31546E+003   -2.52811E+004   -1.25691E+005    9.39635E+003   -2.73980E+003    1.75679E+005
             923    3.37306E+005    1.32836E+005   -2.50748E+005   -4.47958E+002   -2.50748E+005    3.83584E+005    3.94531E+004   -2.67629E+005   -2.73431E+002   -2.13444E+004   -9.67414E+004    1.33600E+004   -2.29718E+003    1.87534E+005
             924    3.47900E+005    1.57842E+005   -2.41225E+005   -1.77309E+003   -2.41225E+005    3.99067E+005    2.83853E+004   -2.42384E+005   -1.57668E+003   -1.58833E+004   -6.76959E+004    1.63529E+004   -1.58411E+003    1.97141E+005
             925    3.54086E+005    1.82716E+005   -2.25476E+005   -1.09246E+003   -2.25476E+005    4.08192E+005    1.46174E+004   -1.96586E+005   -9.58689E+002   -7.47370E+003   -3.54198E+004    1.82460E+004   -8.05463E+002    2.02789E+005
             926    3.54824E+005    2.03126E+005   -2.06586E+005   -1.40017E+002   -2.06586E+005    4.09712E+005    1.19984E+003   -8.43634E+004   -1.18453E+002   -8.44918E+002   -2.63616E+003    1.88594E+004    1.22071E+000    2.03984E+005
             927    3.54272E+005    2.23505E+005    2.23505E+005    1.28773E+003   -1.85049E+005    4.08553E+005   -1.32479E+004    1.88819E+005    1.18352E+003    7.30616E+003    3.12539E+004    1.83133E+004    7.76214E+002    2.03095E+005
             928    3.47579E+005    2.37944E+005    2.37944E+005    1.46890E+003   -1.61133E+005    3.99077E+005   -2.60933E+004    2.36246E+005    1.27580E+003    1.38167E+004    6.31873E+004    1.65107E+004    1.45540E+003    1.97293E+005
             929    3.62596E+005    2.51194E+005    2.51194E+005    5.05741E+003   -1.65198E+005    4.16391E+005   -3.03511E+004    2.45223E+005    4.96776E+003    2.15035E+004    6.45821E+004    1.76756E+004    2.04828E+003    2.06304E+005
             930    3.70986E+005    2.36017E+005    2.36017E+005    3.41532E+003   -1.91817E+005    4.27834E+005   -1.58718E+004    1.97371E+005    3.37652E+003    1.11017E+004    3.31373E+004    2.02762E+004    1.21582E+003    2.12664E+005
             931    3.74410E+005    2.16032E+005   -2.16298E+005    7.90581E+001   -2.16298E+005    4.32331E+005    6.22968E+001   -4.46758E+004    7.22150E+001   -1.75302E+002   -8.38030E+001    2.11785E+004   -4.27720E+001    2.15125E+005
             932    3.71122E+005    1.90632E+005   -2.37297E+005   -3.59709E+003   -2.37297E+005    4.27929E+005    1.67542E+004   -2.01028E+005   -3.54651E+003   -1.24149E+004   -3.43014E+004    2.02479E+004   -1.19870E+003    2.12717E+005
             933    3.62024E+005    1.64493E+005   -2.51173E+005   -4.90553E+003   -2.51173E+005    4.15666E+005    3.05284E+004   -2.45987E+005   -4.83330E+003   -2.17331E+004   -6.50187E+004    1.76807E+004   -2.18099E+003    2.05927E+005
             934    3.47587E+005    1.35615E+005   -2.60139E+005   -4.37517E+003   -2.60139E+005    3.95754E+005    4.29662E+004   -2.72367E+005   -4.26903E+003   -3.07298E+004   -9.38998E+004    1.39576E+004   -2.54382E+003    1.94808E+005
             935    3.27672E+005    1.05853E+005   -2.61823E+005   -6.58926E+002   -2.61823E+005    3.67676E+005    5.22098E+004   -2.84625E+005   -5.57936E+002   -3.69590E+004   -1.19113E+005    9.69621E+003   -2.46752E+003    1.78889E+005
             936    3.11212E+005    8.14051E+004   -2.60951E+005    4.81876E+003   -2.60951E+005    3.42356E+005    5.82422E+004   -2.88846E+005    4.89405E+003   -3.44781E+004   -1.45143E+005    5.99892E+003   -2.07966E+003    1.61842E+005
             937    3.11386E+005    7.18368E+004   -2.65325E+005    1.14352E+004   -2.65325E+005    3.37161E+005    6.06842E+004   -2.97774E+005    1.14699E+004   -2.93406E+004   -1.64182E+005    2.86903E+003   -1.02633E+003    1.54470E+005
             938    3.83559E+005    6.38543E+004   -3.50410E+005   -7.60774E+003   -3.50410E+005    4.14264E+005    9.80545E+004   -3.68132E+005    6.20260E+004   -1.52468E+004   -3.40943E+005   -1.04675E+004    1.97957E+004    5.29055E+004
             939    3.58363E+005    5.27509E+004   -3.32766E+005   -9.79112E+003   -3.32766E+005    3.85517E+005    9.66021E+004   -3.45763E+005    5.14789E+004   -2.36003E+004   -3.17685E+005   -9.71450E+003    1.18829E+004    6.71187E+004
             940    3.32394E+005    4.37805E+004   -3.11157E+005   -7.19442E+003   -3.11157E+005    3.54937E+005    9.15235E+004   -3.23425E+005    4.27360E+004   -2.96757E+004   -2.87631E+005   -8.57705E+003    6.23151E+003    8.10050E+004
             941    3.14451E+005    3.52900E+004   -2.95476E+005   -3.82337E+002   -2.95476E+005    3.30766E+005    8.68561E+004   -3.09850E+005    3.43991E+004   -3.79410E+004   -2.57026E+005   -6.88998E+003    3.16889E+003    9.93759E+004
             942    3.03205E+005    2.81152E+004   -2.81206E+005    1.54874E+004   -2.81206E+005    3.09321E+005    7.92012E+004   -3.02612E+005    2.68918E+004   -4.01060E+004   -2.24390E+005   -4.68758E+003    1.20351E+003    1.17000E+005
             943    3.04232E+005    3.73799E+004   -2.74838E+005    2.07240E+004   -2.74838E+005    3.12217E+005    7.22446E+004   -3.03203E+005    2.09272E+004   -4.00033E+004   -1.97658E+005   -2.21262E+003    1.38550E+002    1.34621E+005
             944    3.08154E+005    5.65717E+004   -2.69936E+005    1.58073E+004   -2.69936E+005    3.26507E+005    6.58522E+004   -3.01998E+005    1.58086E+004   -3.45208E+004   -1.78844E+005    9.94861E+001   -8.69800E+002    1.46436E+005
             945    3.74522E+005    3.40764E+005    3.40764E+005   -1.59879E+004   -4.93020E+004    3.90066E+005   -9.18246E+004    3.71166E+005   -4.81360E+004    1.53167E+003    3.22078E+005   -6.24499E+003   -1.95490E+004    7.71691E+004
             946    3.45578E+005    3.07900E+005    3.07900E+005   -2.63569E+004   -4.79828E+004    3.55883E+005   -7.78535E+004    3.44051E+005   -2.71258E+004   -1.11367E+004    2.71823E+005    1.03932E+003   -1.21419E+004    1.06666E+005
             947    3.33623E+005    2.84210E+005    2.84210E+005   -1.29226E+004   -7.66972E+004    3.60907E+005   -6.48634E+004    3.19475E+005   -1.41154E+004   -9.82840E+003    2.18534E+005    6.18870E+003   -7.62644E+003    1.38886E+005
             948    3.19526E+005    2.48902E+005    2.48902E+005   -6.05870E+003   -1.09540E+005    3.58442E+005   -4.44343E+004    2.77894E+005   -7.42972E+003   -1.19970E+004    1.52730E+005    1.14893E+004   -4.07216E+003    1.58375E+005
             949    4.04181E+005    3.55531E+005    3.55531E+005   -2.47566E+004   -6.89157E+004    4.24447E+005   -8.72863E+004    3.98699E+005   -6.65062E+004   -1.30793E+004    3.41444E+005   -7.45616E+003   -3.04700E+004    6.56440E+004
             950    3.73376E+005    3.30611E+005    3.30611E+005   -3.65251E+004   -4.87061E+004    3.79317E+005   -8.17934E+004    3.72928E+005   -3.90933E+004   -1.23864E+004    2.96860E+005   -1.22690E+003   -2.34342E+004    1.05122E+005
             951    3.44378E+005    2.89610E+005    2.89610E+005   -2.40627E+004   -7.88940E+004    3.68504E+005   -6.22177E+004    3.34345E+005   -2.51569E+004   -2.09394E+004    2.32749E+005    3.30674E+003   -1.66323E+004    1.32020E+005
             952    3.33454E+005    2.63913E+005    2.63913E+005   -1.00190E+004   -1.07388E+005    3.71300E+005   -4.88353E+004    2.98871E+005   -1.17034E+004   -1.27203E+004    1.70930E+005    8.84433E+003   -1.06704E+004    1.60285E+005
             953    4.34103E+005    3.87344E+005    3.87344E+005   -1.93733E+004   -6.97490E+004    4.57093E+005   -9.94071E+004    4.27452E+005   -6.70559E+004   -8.56030E+003    3.73837E+005   -9.17574E+003   -3.20499E+004    6.60619E+004
             954    3.90193E+005    3.46053E+005    3.46053E+005   -4.10263E+004   -4.71809E+004    3.93234E+005   -8.59485E+004    3.90083E+005   -4.08443E+004   -1.95321E+004    3.18222E+005   -3.71863E+003   -2.33387E+004    9.80552E+004
             955    3.66996E+005    3.17679E+005    3.17679E+005   -2.31698E+004   -7.08109E+004    3.88490E+005   -7.45661E+004    3.59940E+005   -2.31151E+004   -1.60808E+004    2.62894E+005   -6.76118E+002   -1.74774E+004    1.34076E+005
             956    3.37801E+005    2.70917E+005    2.70917E+005   -1.18791E+004   -1.03138E+005    3.74055E+005   -5.19667E+004    3.08186E+005   -1.26667E+004   -1.80204E+004    1.86587E+005    4.79268E+003   -1.08857E+004    1.55871E+005
             957    4.71162E+005    4.03128E+005    4.03128E+005   -3.06115E+004   -9.81639E+004    5.01292E+005   -9.14509E+004    4.60077E+005   -9.38588E+004   -2.21655E+004    3.90377E+005   -1.04498E+004   -4.38604E+004    6.05171E+004
             958    4.30096E+005    3.77665E+005    3.77665E+005   -4.11781E+004   -6.28628E+004    4.40528E+005   -9.12080E+004    4.28863E+005   -5.92409E+004   -1.40952E+004    3.46960E+005   -7.45172E+003   -3.75823E+004    1.03084E+005
             959    3.80319E+005    3.23213E+005    3.23213E+005   -4.25479E+004   -7.01596E+004    3.93373E+005   -7.01685E+004    3.78054E+005   -4.07317E+004   -2.23078E+004    2.73545E+005   -6.48853E+003   -2.94954E+004    1.27263E+005
             960    3.57575E+005    2.93137E+005    2.93137E+005   -2.00777E+004   -9.64569E+004    3.89593E+005   -5.88673E+004    3.38484E+005   -1.97256E+004   -1.60382E+004    2.12366E+005   -1.68304E+003   -2.00990E+004    1.56648E+005
             961    5.09450E+005    4.51428E+005    4.51428E+005   -1.56989E+004   -9.17860E+004    5.43214E+005   -1.14648E+005    4.96425E+005   -8.84651E+004   -3.75397E+003    4.36162E+005   -1.25899E+004   -3.72976E+004    7.51049E+004
             962    4.47180E+005    3.93995E+005    3.93995E+005   -3.49593E+004   -6.94175E+004    4.63412E+005   -9.65393E+004    4.44178E+005   -6.68871E+004   -1.00856E+004    3.66590E+005   -1.01682E+004   -3.16727E+004    1.00238E+005
             963    4.15895E+005    3.64029E+005    3.64029E+005   -4.92815E+004   -5.44036E+004    4.18433E+005   -8.67814E+004    4.15825E+005   -4.76634E+004   -8.02687E+003    3.16034E+005   -1.26390E+004   -3.00142E+004    1.29558E+005
             964    3.72931E+005    3.10213E+005    3.10213E+005   -3.19929E+004   -8.72730E+004    3.97486E+005   -6.36490E+004    3.63542E+005   -3.01131E+004   -1.66410E+004    2.37701E+005   -1.03828E+004   -2.30816E+004    1.51502E+005
             965    5.24701E+005    4.42446E+005    4.42446E+005   -1.75901E+004   -1.29019E+005    5.71465E+005   -9.86123E+004    4.97023E+005   -1.23660E+005   -4.34833E+003    4.23845E+005   -1.60875E+004   -5.07261E+004    7.77635E+004
             966    4.75891E+005    4.18730E+005    4.18730E+005   -1.57526E+004   -8.98715E+004    5.08602E+005   -1.04369E+005    4.62637E+005   -8.60773E+004    6.60807E+003    3.92575E+005   -1.39182E+004   -4.01491E+004    9.61258E+004
             967    4.39393E+005    3.78979E+005    3.78979E+005   -4.45010E+004   -7.47632E+004    4.53742E+005   -8.65715E+004    4.37039E+005   -7.06284E+004   -7.40620E+003    3.37749E+005   -1.65998E+004   -3.27884E+004    1.21194E+005
             968    4.06646E+005    3.47995E+005    3.47995E+005   -4.55754E+004   -7.05729E+004    4.18568E+005   -7.72822E+004    4.04912E+005   -4.50429E+004   -3.31450E+003    2.80204E+005   -1.79765E+004   -2.52035E+004    1.51141E+005
             969    5.33367E+005    4.77157E+005    4.77157E+005    2.62144E+004   -1.11588E+005    5.88745E+005   -1.30595E+005    4.90861E+005   -1.08938E+005    4.02075E+004    4.60515E+005   -1.73284E+004   -2.80797E+004    8.08788E+004
             970    5.07812E+005    4.40545E+005    4.40545E+005   -1.18148E+004   -1.08747E+005    5.49291E+005   -1.06661E+005    4.86340E+005   -1.04468E+005    3.98405E+003    4.20467E+005   -2.06651E+004   -3.11744E+004    8.81050E+004
             971    4.72529E+005    4.20796E+005    4.20796E+005   -1.35970E+004   -8.23391E+004    5.03135E+005   -1.08287E+005    4.61078E+005   -7.74378E+004    1.90524E+004    3.83246E+005   -2.22900E+004   -2.67676E+004    1.19102E+005
             972    4.24758E+005    3.71476E+005    3.71476E+005   -3.33573E+004   -7.07366E+004    4.42213E+005   -8.91274E+004    4.21034E+005   -5.91470E+004    1.24221E+004    3.14107E+005   -2.59857E+004   -2.13390E+004    1.40595E+005
             973    4.63516E+005    4.31076E+005    4.31076E+005    2.80912E+004   -7.54566E+004    5.06533E+005   -1.27904E+005    4.36340E+005   -6.98962E+004    7.46264E+004    3.78980E+005   -2.72275E+004   -1.01486E+004    1.35167E+005
             974    5.12189E+005    4.59473E+005    4.59473E+005    2.51611E+004   -1.05344E+005    5.64817E+005   -1.26430E+005    4.72561E+005   -1.02258E+005    5.50770E+004    4.26471E+005   -2.22453E+004   -1.64159E+004    1.13906E+005
             975    5.59739E+005    4.91953E+005    4.91953E+005    1.96143E+004   -1.26289E+005    6.18242E+005   -1.28426E+005    5.14281E+005   -1.24090E+005    4.57370E+004    4.63632E+005   -1.81442E+004   -2.37485E+004    1.09818E+005
             976    5.96168E+005    4.96795E+005    4.96795E+005   -2.38460E+004   -1.53547E+005    6.50342E+005   -1.06467E+005    5.63097E+005   -1.50939E+005   -1.18771E+004    4.82218E+005   -1.36527E+004   -3.52969E+004    7.94605E+004
             977    4.16720E+005    3.71212E+005    3.71212E+005    8.01024E+003   -8.37366E+004    4.54948E+005   -9.84951E+004    3.93020E+005   -8.14682E+004    1.30807E+004    3.63873E+005   -8.56145E+003   -2.92878E+004    4.35911E+004
             978    4.47892E+005    3.95175E+005    3.95175E+005    1.18516E+004   -9.71594E+004    4.92335E+005   -1.03289E+005    4.16446E+005   -9.41213E+004    1.51874E+004    3.88801E+005   -8.40884E+003   -3.65298E+004    3.65899E+004
             979    4.82509E+005    4.12674E+005    4.12674E+005   -2.81490E+003   -1.16538E+005    5.29212E+005   -9.77739E+004    4.50852E+005   -1.12864E+005   -1.59796E+003    4.07784E+005   -7.83219E+003   -4.20400E+004    2.45225E+004
             980    5.23858E+005    4.50012E+005    4.50012E+005    1.25574E+003   -1.25636E+005    5.75648E+005   -1.08544E+005    4.87448E+005   -1.22242E+005    3.60757E+003    4.44266E+005   -7.10363E+003   -4.28838E+004    3.30862E+004
             981    5.49621E+005    4.65474E+005    4.65474E+005   -5.05368E+003   -1.38621E+005    6.04095E+005   -1.07266E+005    5.11157E+005   -1.35546E+005   -3.05003E+003    4.60395E+005   -6.46068E+003   -4.19568E+004    3.12817E+004
             982    6.03384E+005    5.32340E+005    5.32340E+005    2.04906E+004   -1.32949E+005    6.65290E+005   -1.39960E+005    5.56894E+005   -1.30825E+005    2.79121E+004    5.22794E+005   -5.89544E+003   -3.69823E+004    6.11082E+004
             983    5.84413E+005    5.14047E+005    5.14047E+005    3.87992E+004   -1.38479E+005    6.52526E+005   -1.38122E+005    5.18537E+005   -1.36646E+005    4.94572E+004    5.01556E+005   -8.76553E+003   -3.28485E+004    7.04903E+004
             984    3.90843E+005    3.59947E+005    3.59947E+005    3.95920E+003   -5.82817E+004    4.18229E+005   -1.01875E+005    3.79452E+005   -4.37150E+004    6.40893E+004    2.85250E+005   -3.14153E+004   -5.08178E+003    1.47585E+005
             985    3.33556E+005    2.79525E+005    2.79525E+005   -8.86089E+003   -8.57666E+004    3.65292E+005   -6.16326E+004    3.12661E+005   -1.85198E+004    4.01686E+004    1.63249E+005   -3.45176E+004   -2.03664E+003    1.65183E+005
             986    3.00997E+005    1.72742E+005   -1.74819E+005   -1.11287E+003   -1.74819E+005    3.47561E+005    1.06342E+003    2.72162E+004   -1.06489E+003    4.14679E+002   -2.54006E+003   -3.54903E+004    3.38838E+001    1.70112E+005
             987    3.28977E+005    8.63057E+004   -2.74314E+005    9.39013E+003   -2.74314E+005    3.60620E+005    5.95395E+004   -3.07755E+005    1.91361E+004   -3.92569E+004   -1.58498E+005   -3.45027E+004    1.73293E+003    1.63355E+005
             988    3.98363E+005    5.61813E+004   -3.69977E+005   -6.94818E+003   -3.69977E+005    4.26158E+005    1.06915E+005   -3.86868E+005    4.17467E+004   -6.64023E+004   -2.96088E+005   -3.13807E+004    4.91663E+003    1.48744E+005
             989    4.59417E+005    7.81060E+004   -4.25705E+005   -2.99421E+004   -4.25705E+005    5.03811E+005    1.25847E+005   -4.29411E+005    7.26229E+004   -7.15951E+004   -3.78568E+005   -2.71818E+004    9.48676E+003    1.28160E+005
             990    5.19059E+005    1.02377E+005   -4.71257E+005   -3.40065E+004   -4.71257E+005    5.73634E+005    1.34296E+005   -4.76181E+005    9.93783E+004   -6.48180E+004   -4.37447E+005   -2.23847E+004    1.63604E+004    1.15642E+005
             991    5.58292E+005    1.28044E+005   -4.90430E+005   -2.36891E+004   -4.90430E+005    6.18473E+005    1.28692E+005   -5.08711E+005    1.25753E+005   -4.24088E+004   -4.69419E+005   -1.78429E+004    2.50246E+004    9.38670E+004
             992    5.73276E+005    1.25276E+005   -5.13502E+005   -4.37219E+004   -5.13502E+005    6.38778E+005    1.43983E+005   -5.12575E+005    1.24441E+005   -5.77333E+004   -4.98655E+005   -6.03225E+003    2.19953E+004    7.99181E+004
             993    3.85106E+005    3.26258E+005    3.26258E+005   -3.01314E+004   -8.22565E+004    4.08514E+005   -7.12899E+004    3.77047E+005   -3.46320E+004    1.59182E+004    2.32583E+005   -2.73331E+004   -1.44349E+004    1.68314E+005
             994    3.65622E+005    2.90948E+005    2.90948E+005   -3.14755E+004   -1.06297E+005    3.97245E+005   -5.10585E+004    3.47766E+005   -3.03952E+004   -5.37123E+003    1.88942E+005   -1.73890E+004   -1.66585E+004    1.71943E+005
             995    3.52378E+005    2.73354E+005    2.73354E+005   -1.83510E+004   -1.18163E+005    3.91517E+005   -4.56133E+004    3.18167E+005   -1.72843E+004   -8.07569E+003    1.62200E+005   -8.33272E+003   -1.57167E+004    1.75665E+005
             996    3.31700E+005    2.44088E+005    2.44088E+005   -1.31903E+004   -1.30277E+005    3.74364E+005   -3.35402E+004    2.79178E+005   -1.33181E+004   -1.34696E+004    1.27408E+005    9.00272E+002   -1.20610E+004    1.72975E+005
             997    3.31022E+005    2.42336E+005    2.42336E+005   -5.70861E+003   -1.33541E+005    3.75877E+005   -3.43623E+004    2.66324E+005   -6.38363E+003   -7.89421E+003    1.17365E+005    7.00823E+003   -6.18423E+003    1.76834E+005
             998    3.18562E+005    2.23679E+005    2.23679E+005   -7.38521E+003   -1.39722E+005    3.63400E+005   -2.55240E+004    2.44115E+005   -8.55823E+003   -1.05047E+004    9.56350E+004    1.09652E+004   -6.12973E+003    1.73153E+005
             999    3.19853E+005    2.26002E+005    2.26002E+005   -2.37176E+003   -1.39561E+005    3.65564E+005   -2.80231E+004    2.38779E+005   -3.20364E+003   -4.02633E+003    9.12992E+004    1.34303E+004   -1.89651E+003    1.75827E+005
            1000    3.43030E+005    2.53196E+005    2.53196E+005   -1.69524E+004   -1.32745E+005    3.85941E+005   -3.44998E+004    2.93975E+005   -1.83496E+004    6.75361E+003    1.15095E+005   -3.00932E+004   -7.17578E+003    1.82309E+005
            1001    3.44598E+005    2.43098E+005    2.43098E+005   -1.25571E+004   -1.48791E+005    3.91888E+005   -2.72499E+004    2.73328E+005   -1.20936E+004   -5.54925E+002    9.43981E+004   -1.93466E+004   -7.75498E+003    1.89032E+005
            1002    3.29690E+005    2.18354E+005    2.18354E+005   -7.85777E+003   -1.59925E+005    3.78279E+005   -1.68570E+004    2.28209E+005   -7.39004E+003   -6.33605E+003    6.42971E+004   -8.60384E+003   -6.72167E+003    1.85538E+005
            1003    3.27722E+005    2.12759E+005    2.12759E+005   -2.66515E+003   -1.64389E+005    3.77148E+005   -1.52351E+004    2.04672E+005   -2.72835E+003   -3.62748E+003    5.20611E+004    1.29428E+003   -4.40731E+003    1.86446E+005
            1004    3.19015E+005    1.98957E+005    1.98957E+005   -2.06715E+003   -1.68880E+005    3.67837E+005   -9.33678E+003    1.73277E+005   -2.26550E+003   -4.94384E+003    3.52197E+004    7.54329E+003   -1.64192E+003    1.82646E+005
            1005    3.19418E+005    1.99127E+005    1.99127E+005   -6.63572E+002   -1.69266E+005    3.68393E+005   -9.73264E+003    1.68193E+005   -1.05501E+003   -1.54160E+003    3.17945E+004    1.17587E+004   -2.00735E+003    1.83035E+005
            1006    3.13027E+005    1.90462E+005    1.90462E+005   -8.13457E+002   -1.70781E+005    3.61243E+005   -6.28908E+003    1.46231E+005   -9.78819E+002   -3.01631E+003    2.28624E+004    1.42353E+004   -1.06429E+002    1.79589E+005
            1007    3.33134E+005    1.89585E+005   -1.95045E+005    2.11687E+003   -1.95045E+005    3.84630E+005    1.11453E+003   -1.17284E+005    2.13214E+003    2.59965E+002   -5.73571E+003   -2.96724E+004    5.64408E+002    1.89987E+005
            1008    3.33117E+005    1.80528E+005   -2.03838E+005    1.14967E+003   -2.03838E+005    3.84366E+005    7.38699E+003   -1.62036E+005    1.09395E+003   -5.94866E+002   -2.26601E+004   -1.83393E+004    1.43350E+003    1.90984E+005
            1009    3.30385E+005    1.79420E+005   -2.01703E+005    3.44716E+003   -2.01703E+005    3.81123E+005    6.27855E+003   -1.68273E+005    3.30196E+003    3.07793E+003   -2.52156E+004   -7.55394E+003    2.39521E+003    1.89876E+005
            1010    3.23632E+005    1.68687E+005   -2.04352E+005    1.37997E+003   -2.04352E+005    3.73039E+005    1.14281E+004   -1.81796E+005    1.44659E+003    2.08355E+003   -3.78145E+004    2.15899E+003    2.64093E+003    1.85415E+005
            1011    3.22819E+005    1.70854E+005   -2.01334E+005    2.61466E+003   -2.01334E+005    3.72188E+005    9.28872E+003   -1.77150E+005    2.90412E+003    5.13802E+003   -3.59083E+004    8.19288E+003    2.42356E+003    1.84747E+005
            1012    3.16332E+005    1.62824E+005   -2.01710E+005    6.07029E+002   -2.01710E+005    3.64534E+005    1.27596E+004   -1.81577E+005    1.04918E+003    2.75032E+003   -4.20782E+004    1.22014E+004    1.83696E+003    1.80437E+005
            1013    3.16353E+005    1.66809E+005   -1.97923E+005    1.96190E+003   -1.97923E+005    3.64733E+005    9.71734E+003   -1.73672E+005    2.41817E+003    4.34700E+003   -3.59172E+004    1.45072E+004    1.32842E+003    1.80643E+005
            1014    3.50242E+005    1.21636E+005   -2.69152E+005    1.64239E+004   -2.69152E+005    3.90788E+005    4.36973E+004   -3.11598E+005    1.83594E+004   -9.35476E+003   -1.40097E+005   -3.02162E+004    8.14174E+003    1.80967E+005
            1015    3.48500E+005    1.34111E+005   -2.57369E+005    1.90531E+004   -2.57369E+005    3.91481E+005    3.47351E+004   -3.01093E+005    1.85003E+004    2.97477E+003   -1.25680E+005   -1.98695E+004    1.04495E+004    1.83621E+005
            1016    3.40520E+005    1.32728E+005   -2.51401E+005    1.33805E+004   -2.51401E+005    3.84129E+005    3.50973E+004   -2.87474E+005    1.25016E+004    7.14639E+003   -1.24940E+005   -9.62467E+003    1.19515E+004    1.79875E+005
            1017    3.33052E+005    1.38387E+005   -2.39728E+005    1.01219E+004   -2.39728E+005    3.78115E+005    3.04065E+004   -2.68382E+005    1.01287E+004    1.18547E+004   -1.13203E+005    1.09239E+002    1.00189E+004    1.78135E+005
            1018    3.27276E+005    1.33304E+005   -2.38566E+005    5.63353E+003   -2.38566E+005    3.71869E+005    3.32095E+004   -2.61738E+005    6.26938E+003    9.95352E+003   -1.15851E+005    6.31157E+003    6.84331E+003    1.74617E+005
            1019    3.21732E+005    1.37835E+005   -2.28854E+005    6.11764E+003   -2.28854E+005    3.66689E+005    2.83004E+004   -2.49232E+005    7.20418E+003    1.10231E+004   -1.03128E+005    1.05526E+004    5.82496E+003    1.73653E+005
            1020    3.16794E+005    1.33763E+005   -2.27482E+005    2.99395E+003   -2.27482E+005    3.61245E+005    3.02419E+004   -2.43929E+005    4.02569E+003    6.57082E+003   -1.01322E+005    1.30410E+004    2.92377E+003    1.71707E+005
            1021    3.86539E+005    7.59515E+004   -3.30000E+005    3.36458E+004   -3.30000E+005    4.05951E+005    7.34675E+004   -3.81278E+005    4.07284E+004   -1.59200E+004   -2.45211E+005   -2.74495E+004    1.54521E+004    1.60897E+005
            1022    3.82085E+005    8.82850E+004   -3.17495E+005    3.53817E+004   -3.17495E+005    4.05780E+005    6.46093E+004   -3.73712E+005    3.45354E+004    9.60341E+002   -2.29324E+005   -1.79525E+004    1.90773E+004    1.65369E+005
            1023    3.64143E+005    1.00125E+005   -2.94757E+005    2.77883E+004   -2.94757E+005    3.94883E+005    5.56146E+004   -3.47422E+005    2.62579E+004    1.19382E+004   -2.05040E+005   -9.59446E+003    2.01395E+004    1.64028E+005
            1024    3.50470E+005    1.02855E+005   -2.82019E+005    1.87412E+004   -2.82019E+005    3.84873E+005    5.34743E+004   -3.26581E+005    1.85837E+004    1.50511E+004   -1.94058E+005   -9.30171E+002    1.76513E+004    1.60639E+005
            1025    3.39385E+005    1.06969E+005   -2.69473E+005    1.30936E+004   -2.69473E+005    3.76442E+005    4.98034E+004   -3.08083E+005    1.39659E+004    1.61786E+004   -1.79555E+005    5.08283E+003    1.12323E+004    1.60045E+005
            1026    3.30480E+005    1.06518E+005   -2.61285E+005    1.06933E+004   -2.61285E+005    3.67803E+005    4.80247E+004   -2.96725E+005    1.23609E+004    1.37989E+004   -1.70234E+005    8.89701E+003    1.01829E+004    1.58180E+005
            1027    3.21357E+005    1.09027E+005   -2.50770E+005    7.74096E+003   -2.50770E+005    3.59797E+005    4.46672E+004   -2.81941E+005    9.21407E+003    1.09173E+004   -1.54133E+005    1.13359E+004    4.79198E+003    1.59010E+005
            1028    4.36569E+005    6.89939E+004   -3.88891E+005    2.26656E+004   -3.88891E+005    4.57885E+005    9.90773E+004   -4.30986E+005    5.97335E+004   -2.11702E+004   -3.35795E+005   -2.61766E+004    2.16190E+004    1.36804E+005
            1029    4.16510E+005    6.53931E+004   -3.58644E+005    4.99050E+004   -3.58644E+005    4.24038E+005    8.11154E+004   -4.15861E+005    5.44189E+004    3.59935E+003   -3.01365E+005   -1.88045E+004    2.69195E+004    1.40430E+005
            1030    3.97822E+005    6.84926E+004   -3.42529E+005    4.06277E+004   -3.42529E+005    4.11022E+005    7.78030E+004   -3.95617E+005    3.83366E+004    1.24697E+004   -2.84215E+005   -1.23551E+004    2.73331E+004    1.40473E+005
            1031    3.71937E+005    7.98262E+004   -3.13558E+005    3.23789E+004   -3.13558E+005    3.93384E+005    6.71175E+004   -3.65035E+005    3.11801E+004    2.14102E+004   -2.53943E+005   -4.58598E+003    2.55160E+004    1.38703E+005
            1032    3.58533E+005    7.86836E+004   -3.05857E+005    1.92380E+004   -3.05857E+005    3.84540E+005    6.93117E+004   -3.47185E+005    1.95782E+004    1.92080E+004   -2.46721E+005    1.34323E+003    1.61206E+004    1.37773E+005
            1033    3.40516E+005    8.35983E+004   -2.84537E+005    1.91495E+004   -2.84537E+005    3.68135E+005    6.05963E+004   -3.26368E+005    2.06470E+004    1.88380E+004   -2.21274E+005    5.27330E+003    1.48727E+004    1.37977E+005
            1034    3.30328E+005    8.09176E+004   -2.78741E+005    1.10920E+004   -2.78741E+005    3.59659E+005    6.22439E+004   -3.13071E+005    1.25798E+004    1.16073E+004   -2.10919E+005    7.82220E+003    7.24221E+003    1.40286E+005
            1035    4.74601E+005    8.92412E+004   -4.21150E+005    6.88084E+003   -4.21150E+005    5.10391E+005    1.08343E+005   -4.58108E+005    8.48398E+004   -2.12467E+004   -3.88621E+005   -2.18589E+004    2.71151E+004    1.10175E+005
            1036    4.58065E+005    7.92398E+004   -4.01745E+005    2.93078E+004   -4.01745E+005    4.80985E+005    9.77325E+004   -4.51881E+005    7.57731E+004   -4.04234E+003   -3.64928E+005   -1.56396E+004    3.39896E+004    1.15773E+005
            1037    4.32000E+005    6.23350E+004   -3.77847E+005    4.54775E+004   -3.77847E+005    4.40182E+005    9.00115E+004   -4.31259E+005    5.93528E+004    9.83939E+003   -3.39227E+005   -1.22784E+004    3.14433E+004    1.17790E+005
            1038    4.08386E+005    5.61624E+004   -3.54292E+005    5.19936E+004   -3.54292E+005    4.10455E+005    8.20454E+004   -4.08338E+005    5.12907E+004    1.90432E+004   -3.16470E+005   -8.26106E+003    3.40406E+004    1.13534E+005
            1039    3.77638E+005    5.61660E+004   -3.31260E+005    3.57631E+004   -3.31260E+005    3.87426E+005    7.97770E+004   -3.76395E+005    3.51129E+004    1.89352E+004   -2.93379E+005   -3.31113E+003    2.15050E+004    1.13043E+005
            1040    3.63412E+005    5.86450E+004   -3.16820E+005    3.32011E+004   -3.16820E+005    3.75465E+005    7.49913E+004   -3.61400E+005    3.38773E+004    1.73821E+004   -2.76233E+005   -2.88040E+002    2.09370E+004    1.14641E+005
            1041    3.38962E+005    5.67005E+004   -2.98044E+005    2.25500E+004   -2.98044E+005    3.54744E+005    7.29310E+004   -3.35058E+005    2.33880E+004    1.12024E+004   -2.53383E+005    2.39222E+003    1.06979E+004    1.17127E+005
            1042    5.12120E+005    1.00989E+005   -4.57487E+005   -9.88839E+003   -4.57487E+005    5.58476E+005    1.22129E+005   -4.83996E+005    9.75333E+004   -2.74565E+004   -4.36463E+005   -1.93871E+004    2.94823E+004    9.03721E+004
            1043    4.86409E+005    9.77884E+004   -4.23028E+005    1.94686E+004   -4.23028E+005    5.20816E+005    1.01924E+005   -4.71909E+005    9.40541E+004   -6.33556E+001   -3.99762E+005   -1.38590E+004    3.99561E+004    9.12730E+004
            1044    4.69708E+005    7.45999E+004   -4.17466E+005    2.61231E+004   -4.17466E+005    4.92066E+005    1.05581E+005   -4.64030E+005    7.20228E+004    7.03493E+003   -3.95801E+005   -1.01542E+004    3.27375E+004    9.02241E+004
            1045    4.36881E+005    7.47802E+004   -3.80111E+005    3.61992E+004   -3.80111E+005    4.54892E+005    8.97107E+004   -4.33023E+005    7.12712E+004    1.70940E+004   -3.57497E+005   -7.80172E+003    3.89466E+004    8.67630E+004
            1046    4.10756E+005    5.16798E+004   -3.67615E+005    3.40332E+004   -3.67615E+005    4.19295E+005    9.39674E+004   -4.09902E+005    4.98557E+004    1.43943E+004   -3.46152E+005   -5.55591E+003    2.69050E+004    8.64476E+004
            1047    3.81176E+005    5.23230E+004   -3.37480E+005    3.44385E+004   -3.37480E+005    3.89803E+005    8.35728E+004   -3.80230E+005    5.00279E+004    1.32907E+004   -3.14037E+005   -3.36755E+003    2.61008E+004    8.69844E+004
            1048    3.60179E+005    3.66389E+004   -3.26776E+005    3.00779E+004   -3.26776E+005    3.63415E+005    8.66865E+004   -3.60045E+005    3.50563E+004    4.47401E+003   -2.99590E+005   -2.00553E+003    1.54647E+004    9.36495E+004
            1049    5.56984E+005    1.38962E+005   -4.78278E+005   -1.31577E+004   -4.78278E+005    6.17239E+005    1.17491E+005   -5.06997E+005    1.35078E+005   -2.65791E+004   -4.60973E+005   -2.00442E+004    3.83510E+004    8.07450E+004
            1050    5.34170E+005    1.20890E+005   -4.61850E+005    4.58411E+003   -4.61850E+005    5.82740E+005    1.12125E+005   -5.04488E+005    1.16980E+005   -6.01680E+003   -4.47340E+005   -1.45785E+004    4.25208E+004    7.09459E+004
            1051    5.06075E+005    1.11693E+005   -4.34963E+005    1.72140E+004   -4.34963E+005    5.46656E+005    1.02019E+005   -4.85635E+005    1.07691E+005    8.40434E+003   -4.22152E+005   -1.41020E+004    4.08317E+004    6.46233E+004
            1052    4.84916E+005    9.97354E+004   -4.19130E+005    2.25852E+004   -4.19130E+005    5.18866E+005    9.89366E+004   -4.70810E+005    9.57223E+004    1.49395E+004   -4.07472E+005   -1.08671E+004    4.24792E+004    5.85803E+004
            1053    4.41452E+005    8.51225E+004   -3.85749E+005    1.87735E+004   -3.85749E+005    4.70871E+005    9.39510E+004   -4.30020E+005    8.17896E+004    1.16833E+004   -3.75326E+005   -1.03226E+004    3.57714E+004    5.44639E+004
            1054    4.16470E+005    7.27708E+004   -3.69569E+005    1.49993E+004   -3.69569E+005    4.42340E+005    9.39329E+004   -4.07309E+005    7.02133E+004    5.14132E+003   -3.57153E+005   -8.48191E+003    3.13255E+004    6.11569E+004
            1055    3.82998E+005    6.02418E+004   -3.44487E+005    1.22585E+004   -3.44487E+005    4.04729E+005    9.06622E+004   -3.76146E+005    5.86178E+004   -2.88710E+002   -3.30316E+005   -7.80718E+003    2.25500E+004    6.62083E+004
            1056    4.20793E+005    8.47641E+004   -3.76521E+005   -1.36701E+004   -3.76521E+005    4.61285E+005    1.01809E+005   -3.93618E+005    8.24841E+004   -1.87669E+004   -3.69144E+005   -8.62745E+003    2.97086E+004    4.36032E+004
            1057    4.51779E+005    1.02442E+005   -3.94492E+005   -8.55878E+003   -3.94492E+005    4.96934E+005    1.00203E+005   -4.19420E+005    9.92760E+004   -1.08464E+004   -3.89038E+005   -8.22485E+003    3.74780E+004    3.10095E+004
            1058    4.92172E+005    1.15980E+005   -4.24699E+005   -2.76027E+003   -4.24699E+005    5.40679E+005    1.03826E+005   -4.58252E+005    1.12464E+005   -4.77400E+003   -4.19169E+005   -7.65781E+003    4.19047E+004    3.02136E+004
            1059    5.21029E+005    1.32408E+005   -4.41147E+005    2.94383E+003   -4.41147E+005    5.73555E+005    1.01932E+005   -4.82810E+005    1.28862E+005    1.10478E+003   -4.35762E+005   -6.88843E+003    4.38295E+004    2.93186E+004
            1060    5.61673E+005    1.35268E+005   -4.81291E+005    1.25161E+003   -4.81291E+005    6.16559E+005    1.14924E+005   -5.23857E+005    1.32540E+005   -2.85880E+003   -4.74453E+005   -6.51427E+003    4.00624E+004    4.45235E+004
            1061    5.64875E+005    1.41039E+005   -4.86718E+005   -1.94608E+004   -4.86718E+005    6.27757E+005    1.21713E+005   -5.09664E+005    1.38817E+005   -2.79139E+004   -4.76043E+005   -6.26692E+003    3.66862E+004    6.21623E+004
            1062    5.81932E+005    1.29600E+005   -5.18720E+005   -4.15695E+004   -5.18720E+005    6.48320E+005    1.43563E+005   -5.20612E+005    1.28707E+005   -5.03142E+004   -5.09083E+005   -4.16353E+003    2.36252E+004    6.39582E+004
            1063    2.92215E+005    2.50909E+005    2.50909E+005   -1.97140E+004   -5.89362E+004    3.09845E+005   -5.74195E+004    2.86203E+005   -1.96731E+004    3.12473E+004    1.60684E+005    1.63326E+003    2.96819E+003    1.40733E+005
            1064    3.05241E+005    2.57099E+005    2.57099E+005   -1.15481E+004   -7.48197E+004    3.31918E+005   -5.69103E+004    2.89931E+005   -1.15210E+004    4.25610E+004    1.39691E+005    4.38009E+003    2.70413E+003    1.58620E+005
            1065    3.28680E+005    2.58886E+005    2.58886E+005   -6.82538E+003   -1.08659E+005    3.67544E+005   -4.78006E+004    2.89866E+005   -6.81474E+003    3.51339E+004    1.15083E+005    8.39064E+003    3.08294E+003    1.79151E+005
            1066    3.45748E+005    2.54920E+005    2.54920E+005   -2.44013E+003   -1.38082E+005    3.93002E+005   -3.81327E+004    2.75559E+005   -2.45231E+003    2.72215E+004    8.96290E+004    1.24839E+004    2.93393E+003    1.93582E+005
            1067    3.34636E+005    2.47413E+005    2.47413E+005   -3.94276E+003   -1.32423E+005    3.79836E+005   -3.70156E+004    2.70132E+005   -4.36879E+003    2.01306E+004    9.52851E+004    1.29407E+004    6.16384E+002    1.85641E+005
            1068    3.24159E+005    2.39685E+005    2.39685E+005   -5.07544E+003   -1.27947E+005    3.67631E+005   -3.55541E+004    2.63553E+005   -5.38977E+003    1.30675E+004    9.89845E+004    1.24946E+004    1.54875E+003    1.78228E+005
            1069    3.21006E+005    2.38968E+005    2.38968E+005   -5.94270E+003   -1.24442E+005    3.63410E+005   -3.61945E+004    2.64617E+005   -6.71604E+003    9.37703E+003    1.05923E+005    1.28714E+004   -8.22400E+002    1.74559E+005
            1070    3.14910E+005    2.35594E+005    2.35594E+005   -5.77944E+003   -1.20619E+005    3.56213E+005   -3.63987E+004    2.61146E+005   -6.36901E+003    4.35822E+003    1.11207E+005    1.28925E+004    7.44633E+002    1.69303E+005
            1071    3.15360E+005    2.38704E+005    2.38704E+005   -6.72017E+003   -1.16983E+005    3.55687E+005   -3.83337E+004    2.66505E+005   -7.84133E+003    2.58755E+003    1.20255E+005    1.31307E+004   -1.83417E+003    1.67076E+005
            1072    3.12516E+005    2.38320E+005    2.38320E+005   -5.27698E+003   -1.14046E+005    3.52366E+005   -3.96657E+004    2.64606E+005   -6.27651E+003   -3.63305E+003    1.28907E+005    1.31167E+004   -7.24383E+002    1.62506E+005
            1073    3.19012E+005    2.46380E+005    2.46380E+005   -7.28469E+003   -1.11774E+005    3.58154E+005   -4.24402E+004    2.76383E+005   -8.96402E+003   -5.12190E+003    1.41407E+005    1.26417E+004   -4.86054E+003    1.62450E+005
            1074    3.19483E+005    2.53159E+005    2.53159E+005   -8.34450E+003   -1.02941E+005    3.56100E+005   -4.72910E+004    2.85329E+005   -8.77529E+003    2.56708E+004    1.24978E+005    9.39412E+003    3.68972E+002    1.70622E+005
            1075    3.18385E+005    2.52332E+005    2.52332E+005   -9.28165E+003   -1.02166E+005    3.54498E+005   -4.69615E+004    2.85430E+005   -9.54698E+003    1.79526E+004    1.32479E+005    9.03926E+003    1.73515E+003    1.67425E+005
            1076    3.14759E+005    2.51131E+005    2.51131E+005   -1.17119E+004   -9.76805E+004    3.48811E+005   -4.72460E+004    2.86508E+005   -1.24691E+004    1.23808E+004    1.41826E+005    9.23851E+003   -1.27282E+003    1.61474E+005
            1077    3.13087E+005    2.54980E+005    2.54980E+005   -1.02955E+004   -9.03671E+004    3.45347E+005   -5.14391E+004    2.88671E+005   -1.08641E+004    1.04737E+004    1.54708E+005    8.95641E+003    4.52529E+002    1.56467E+005
            1078    3.12581E+005    2.55043E+005    2.55043E+005   -1.41347E+004   -8.77870E+004    3.42830E+005   -5.10405E+004    2.92085E+005   -1.52786E+004    2.31791E+003    1.66082E+005    8.84520E+003   -3.04216E+003    1.49927E+005
            1079    3.15905E+005    2.64234E+005    2.64234E+005   -1.04930E+004   -8.09513E+004    3.45185E+005   -5.75964E+004    2.97445E+005   -1.14867E+004    1.18027E+003    1.83096E+005    8.47070E+003   -2.02784E+003    1.46071E+005
            1080    3.21379E+005    2.67092E+005    2.67092E+005   -1.66143E+004   -8.19264E+004    3.49019E+005   -5.61839E+004    3.05909E+005   -1.82600E+004   -9.83870E+003    1.96650E+005    7.70394E+003   -7.73422E+003    1.39618E+005
            1081    3.11661E+005    2.58639E+005    2.58639E+005   -1.44017E+004   -8.09066E+004    3.39546E+005   -5.44436E+004    2.95056E+005   -1.47492E+004    2.57190E+004    1.52361E+005    5.85495E+003   -3.00326E+002    1.57299E+005
            1082    3.11503E+005    2.60252E+005    2.60252E+005   -1.48197E+004   -7.79977E+004    3.38250E+005   -5.58115E+004    2.96570E+005   -1.49644E+004    2.18670E+004    1.60532E+005    5.37211E+003    1.59984E+003    1.54109E+005
            1083    3.11366E+005    2.64550E+005    2.64550E+005   -1.77766E+004   -6.94032E+004    3.33953E+005   -5.91232E+004    3.01511E+005   -1.84070E+004    2.00613E+004    1.75715E+005    5.18851E+003   -2.38702E+003    1.47372E+005
            1084    3.08498E+005    2.66840E+005    2.66840E+005   -1.73968E+004   -6.12297E+004    3.28070E+005   -6.27379E+004    3.01372E+005   -1.78325E+004    1.47723E+004    1.91274E+005    4.69564E+003   -5.86198E+002    1.38001E+005
            1085    3.13702E+005    2.75177E+005    2.75177E+005   -2.15225E+004   -5.31324E+004    3.28310E+005   -6.68408E+004    3.10088E+005   -2.26836E+004    1.20037E+004    2.11202E+005    4.08671E+003   -5.32129E+003    1.29718E+005
            1086    3.18536E+005    2.82437E+005    2.82437E+005   -2.01165E+004   -4.99775E+004    3.32415E+005   -7.07812E+004    3.15364E+005   -2.09136E+004    2.74638E+003    2.30511E+005    3.41276E+003   -4.42271E+003    1.20480E+005
            1087    3.34649E+005    2.96993E+005    2.96993E+005   -2.64163E+004   -4.78633E+004    3.44856E+005   -7.42378E+004    3.33097E+005   -2.82479E+004   -1.01434E+003    2.51975E+005    2.31204E+003   -1.18857E+004    1.15347E+005
            1088    3.11696E+005    2.65017E+005    2.65017E+005   -2.08374E+004   -6.73030E+004    3.32320E+005   -5.89588E+004    3.03757E+005   -2.09637E+004    2.60212E+004    1.71819E+005    2.27818E+003   -9.29431E+002    1.49244E+005
            1089    3.07580E+005    2.66905E+005    2.66905E+005   -2.19665E+004   -5.64723E+004    3.23377E+005   -6.28221E+004    3.03179E+005   -2.19681E+004    2.81994E+004    1.82235E+005    1.32523E+003    1.05957E+003    1.42156E+005
            1090    3.06309E+005    2.70600E+005    2.70600E+005   -2.73379E+004   -4.34455E+004    3.14045E+005   -6.66055E+004    3.05354E+005   -2.74323E+004    2.68166E+004    2.00432E+005    7.15869E+001   -2.71165E+003    1.30766E+005
            1091    3.07588E+005    2.80054E+005    2.80054E+005   -2.72042E+004   -2.78640E+004    3.07918E+005   -7.49952E+004    3.07587E+005   -2.77899E+004    2.65718E+004    2.26204E+005   -1.27411E+003   -2.34346E+003    1.16803E+005
            1092    3.20728E+005    2.90801E+005    2.90801E+005   -2.35310E+004   -3.59610E+004    3.26762E+005   -7.71029E+004    3.20185E+005   -3.57722E+004    1.62120E+004    2.50869E+005   -2.41242E+003   -7.28015E+003    1.04443E+005
            1093    3.33691E+005    3.06671E+005    3.06671E+005   -1.71048E+004   -3.61212E+004    3.42792E+005   -8.44816E+004    3.32468E+005   -3.58415E+004    1.38206E+004    2.75466E+005   -3.59796E+003   -8.48905E+003    9.51769E+004
            1094    3.55317E+005    3.20161E+005    3.20161E+005   -2.06716E+004   -4.80565E+004    3.68218E+005   -8.38109E+004    3.52931E+005   -4.72513E+004    1.50362E+003    2.97180E+005   -4.74859E+003   -1.64771E+004    8.39659E+004
            1095    3.86653E+005    3.52057E+005    3.52057E+005    1.31560E+004   -6.91091E+004    4.21166E+005   -9.87012E+004    3.66178E+005   -6.76613E+004    2.24232E+004    3.41342E+005   -8.40741E+003   -2.10834E+004    5.59804E+004
            1096    3.60245E+005    3.30305E+005    3.30305E+005    9.33263E+003   -5.93308E+004    3.89635E+005   -9.34355E+004    3.45059E+005   -5.83676E+004    2.33628E+004    3.15311E+005   -8.07437E+003   -1.39762E+004    6.63834E+004
            1097    3.34577E+005    3.11582E+005    3.11582E+005    1.15736E+004   -4.92252E+004    3.60807E+005   -9.13102E+004    3.21795E+005   -4.85830E+004    3.40605E+004    2.88453E+005   -7.23917E+003   -8.75192E+003    7.95514E+004
            1098    3.14878E+005    2.92710E+005    2.92710E+005    1.75470E+003   -4.15978E+004    3.34308E+005   -8.42891E+004    3.08057E+005   -4.11134E+004    3.68971E+004    2.57084E+005   -5.96922E+003   -4.88421E+003    9.52632E+004
            1099    3.02184E+005    2.78787E+005    2.78787E+005   -1.07997E+004   -3.45886E+004    3.13376E+005   -7.77996E+004    3.00067E+005   -3.42567E+004    4.19545E+004    2.25701E+005   -4.06236E+003   -2.60194E+003    1.12058E+005
            1100    3.03853E+005    2.68224E+005    2.68224E+005   -3.05735E+004   -4.04438E+004    3.08668E+005   -6.57357E+004    3.03492E+005   -3.07835E+004    3.29900E+004    1.95000E+005   -1.96883E+003   -5.58526E+002    1.31235E+005
            1101    3.03040E+005    2.57511E+005    2.57511E+005   -2.85488E+004   -6.00485E+004    3.17559E+005   -5.63045E+004    2.99323E+005   -2.85483E+004    2.04677E+004    1.76994E+005    1.60431E+002    4.97253E+002    1.38151E+005
            1102    3.62746E+005    5.16889E+004   -3.29935E+005    1.03997E+004   -3.29935E+005    3.81624E+005    8.92821E+004   -3.57402E+005    5.07292E+004   -8.41296E+003   -3.10163E+005   -6.25216E+003    1.70854E+004    7.78778E+004
            1103    3.40202E+005    3.90831E+004   -3.05205E+005    3.07577E+004   -3.05205E+005    3.44288E+005    7.84547E+004   -3.39972E+005    3.62615E+004    6.57051E+002   -2.72283E+005   -5.08289E+002    1.36153E+004    9.94964E+004
            1104    3.30322E+005    5.85870E+004   -2.88059E+005    2.30678E+004   -2.88059E+005    3.46646E+005    6.88015E+004   -3.25984E+005    2.45457E+004    4.67515E+003   -2.35625E+005    3.88275E+003    1.01607E+004    1.23617E+005
            1105    3.19528E+005    8.59830E+004   -2.63475E+005    1.37582E+004   -2.63475E+005    3.49458E+005    5.45781E+004   -3.00327E+005    1.55656E+004    8.24165E+003   -1.87541E+005    9.17751E+003    6.85159E+003    1.43627E+005
            1106    3.16905E+005    1.09965E+005   -2.45438E+005    7.73130E+003   -2.45438E+005    3.55403E+005    4.25804E+004   -2.75972E+005    9.37820E+003    5.84436E+003   -1.42964E+005    1.25557E+004    4.49890E+003    1.60430E+005
            1107    3.14602E+005    1.39606E+005   -2.19951E+005    4.69850E+003   -2.19951E+005    3.59557E+005    2.52155E+004   -2.34903E+005    5.73548E+003    5.92977E+003   -8.73118E+004    1.43275E+004    2.46893E+003    1.72882E+005
            1108    3.12676E+005    1.62692E+005   -1.97755E+005    4.78837E+002   -1.97755E+005    3.60447E+005    1.15280E+004   -1.73901E+005    8.96770E+002    1.05045E+003   -3.65311E+004    1.56691E+004    7.58455E+002    1.78532E+005
            1109    3.15462E+005    1.93847E+005    1.93847E+005   -5.06093E+002   -1.70138E+005    3.63985E+005   -7.73446E+003    1.54427E+005   -8.45742E+002    4.59641E+001    2.40032E+004    1.54683E+004   -9.37690E+002    1.80923E+005
            1110    3.12926E+005    2.14981E+005    2.14981E+005   -5.45874E+003   -1.43185E+005    3.58166E+005   -2.21124E+004    2.28090E+005   -6.51492E+003   -5.85852E+003    7.87106E+004    1.46402E+004   -2.70082E+003    1.73253E+005
            1111    3.37817E+005    4.29060E+004   -3.09178E+005    1.22886E+004   -3.09178E+005    3.52084E+005    8.46610E+004   -3.34674E+005    4.24027E+004   -1.33460E+004   -2.83040E+005   -5.22763E+003    9.93546E+003    8.73013E+004
            1112    3.24978E+005    3.51637E+004   -2.94635E+005    2.52959E+004   -2.94635E+005    3.29799E+005    7.80586E+004   -3.24640E+005    2.60852E+004   -8.76244E+003   -2.51499E+005    6.79563E+002    6.01921E+003    1.10915E+005
            1113    3.15109E+005    6.18519E+004   -2.73340E+005    1.68469E+004   -2.73340E+005    3.35192E+005    6.48805E+004   -3.07754E+005    1.76939E+004   -1.67063E+003   -2.10665E+005    5.25982E+003    3.18411E+003    1.30486E+005
            1114    3.14822E+005    8.78423E+004   -2.59019E+005    8.63578E+003   -2.59019E+005    3.46861E+005    5.41804E+004   -2.91111E+005    9.78163E+003    1.69892E+002   -1.72493E+005    1.00475E+004    1.86433E+003    1.49706E+005
            1115    3.13228E+005    1.16096E+005   -2.37280E+005    6.16209E+003   -2.37280E+005    3.53376E+005    3.83404E+004   -2.64279E+005    7.20358E+003    2.36263E+003   -1.24588E+005    1.33123E+004    9.99190E+002    1.64137E+005
            1116    3.13652E+005    1.40293E+005   -2.18671E+005    2.48059E+003   -2.18671E+005    3.58964E+005    2.52993E+004   -2.28998E+005    3.19197E+003    9.52393E+002   -8.00422E+004    1.49522E+004    5.81718E+002    1.74126E+005
            1117    3.15325E+005    1.69460E+005   -1.94289E+005    1.56736E+003   -1.94289E+005    3.63748E+005    7.75385E+003   -1.60825E+005    1.87582E+003    2.01130E+003   -2.71487E+004    1.62007E+004    4.31179E+002    1.80551E+005
            1118    3.13196E+005    1.90806E+005    1.90806E+005   -8.20601E+002   -1.70623E+005    3.61428E+005   -6.45402E+003    1.47452E+005   -9.53306E+002   -1.64601E+003    2.19614E+004    1.59516E+004    2.64044E+002    1.79617E+005
            1119    3.15847E+005    2.19440E+005    2.19440E+005   -2.15439E+003   -1.42218E+005    3.61658E+005   -2.50226E+004    2.28492E+005   -2.74955E+003    2.15927E+002    7.76015E+004    1.51510E+004    3.12733E-001    1.75920E+005
            1120    3.22485E+005    3.72779E+004   -2.95384E+005    1.58552E+004   -2.95384E+005    3.32662E+005    8.07505E+004   -3.20878E+005    3.70480E+004   -2.17604E+004   -2.57539E+005   -3.67241E+003    6.74396E+003    1.01496E+005
            1121    3.13349E+005    4.28652E+004   -2.78650E+005    2.58376E+004   -2.78650E+005    3.21515E+005    6.99823E+004   -3.12305E+005    2.68825E+004   -1.28931E+004   -2.23936E+005    2.08029E+003    5.55939E+003    1.20507E+005
            1122    3.13248E+005    6.89413E+004   -2.66758E+005    1.77282E+004   -2.66758E+005    3.35699E+005    6.00295E+004   -3.03615E+005    1.87785E+004   -8.45538E+003   -1.90412E+005    6.21771E+003    3.76309E+003    1.40429E+005
            1123    3.12211E+005    9.73725E+004   -2.48946E+005    1.09496E+004   -2.48946E+005    3.46319E+005    4.68747E+004   -2.83369E+005    1.21226E+004   -2.83801E+003   -1.49909E+005    1.05883E+004    2.37705E+003    1.56065E+005
            1124    3.14759E+005    1.21648E+005   -2.34518E+005    6.27138E+003   -2.34518E+005    3.56166E+005    3.55331E+004   -2.60371E+005    7.29809E+003   -2.63209E+003   -1.11265E+005    1.36604E+004    1.35430E+003    1.68848E+005
            1125    3.16453E+005    1.49208E+005   -2.13813E+005    3.81315E+003   -2.13813E+005    3.63021E+005    2.02637E+004   -2.20094E+005    4.43240E+003    4.77312E+002   -6.57008E+004    1.51645E+004    6.37446E+002    1.77759E+005
            1126    3.16304E+005    1.70518E+005   -1.94440E+005    3.80516E+002   -1.94440E+005    3.64958E+005    7.84728E+003   -1.54623E+005    5.92611E+002   -9.82167E+002   -2.31523E+004    1.63192E+004    1.19137E+002    1.81402E+005
            1127    3.18051E+005    1.96720E+005    1.96720E+005   -7.78733E+002   -1.70174E+005    3.66895E+005   -8.58896E+003    1.62020E+005   -1.05647E+003    1.18503E+003    2.56383E+004    1.60080E+004   -4.19439E+002    1.82327E+005
            1128    3.14801E+005    2.14874E+005    2.14874E+005   -4.80531E+003   -1.45775E+005    3.60649E+005   -2.14314E+004    2.25432E+005   -5.54288E+003   -7.43959E+002    7.05812E+004    1.52413E+004   -9.52471E+002    1.76018E+005
            1129    3.08063E+005    3.08313E+004   -2.80046E+005    2.51232E+004   -2.80046E+005    3.10877E+005    7.46971E+004   -3.07944E+005    3.06435E+004   -2.65718E+004   -2.28163E+005   -2.23439E+003    2.71926E+003    1.14628E+005
            1130    3.08169E+005    5.04771E+004   -2.72104E+005    1.92795E+004   -2.72104E+005    3.22581E+005    6.74492E+004   -3.04586E+005    1.96220E+004   -2.06287E+004   -2.01341E+005    3.10493E+003    1.09260E+003    1.33398E+005
            1131    3.09713E+005    7.85285E+004   -2.58517E+005    1.35542E+004   -2.58517E+005    3.37045E+005    5.54780E+004   -2.93785E+005    1.40477E+004   -1.28792E+004   -1.67602E+005    7.14662E+003   -2.84566E+002    1.49374E+005
            1132    3.14763E+005    1.04373E+005   -2.47441E+005    7.49520E+003   -2.47441E+005    3.51814E+005    4.51912E+004   -2.78131E+005    8.12054E+003   -9.05334E+003   -1.34641E+005    1.10010E+004   -5.27203E+002    1.63796E+005
            1133    3.18121E+005    1.31196E+005   -2.30608E+005    5.28650E+003   -2.30608E+005    3.61804E+005    3.13751E+004   -2.52145E+005    5.85296E+003   -4.60021E+003   -9.53780E+004    1.39370E+004   -5.91794E+002    1.74469E+005
            1134    3.20311E+005    1.53723E+005   -2.14236E+005    2.21174E+003   -2.14236E+005    3.67959E+005    1.94336E+004   -2.14409E+005    2.58180E+003   -3.31202E+003   -5.75706E+004    1.53114E+004   -3.55936E+002    1.81289E+005
            1135    3.22487E+005    1.79038E+005   -1.93220E+005    1.03592E+003   -1.93220E+005    3.72258E+005    4.38219E+003   -1.36324E+005    1.17017E+003    4.07865E+002   -1.47246E+004    1.63250E+004    6.70629E+001    1.85254E+005
            1136    3.20108E+005    1.97721E+005    1.97721E+005   -1.25061E+003   -1.71537E+005    3.69258E+005   -8.31116E+003    1.63830E+005   -1.37720E+003    2.52252E+002    2.60584E+004    1.59271E+004    4.57083E+002    1.83482E+005
            1137    3.20560E+005    2.20615E+005    2.20615E+005   -2.84321E+003   -1.46670E+005    3.67284E+005   -2.37005E+004    2.29081E+005   -3.22513E+003    4.32571E+003    7.00010E+004    1.51105E+004    8.20151E+002    1.80005E+005
            1138    3.05823E+005    3.84713E+004   -2.73145E+005    2.65344E+004   -2.73145E+005    3.11616E+005    6.93798E+004   -3.05298E+005    2.65456E+004   -3.17068E+004   -2.02978E+005   -4.21317E+002    1.87889E+003    1.30144E+005
            1139    3.08536E+005    6.47258E+004   -2.64080E+005    1.91060E+004   -2.64080E+005    3.28806E+005    6.00828E+004   -3.00808E+005    1.96022E+004   -2.24597E+004   -1.77391E+005    4.31814E+003    2.00705E+003    1.44726E+005
            1140    3.15072E+005    8.97110E+004   -2.56666E+005    1.28930E+004   -2.56666E+005    3.46377E+005    5.13541E+004   -2.92869E+005    1.35980E+004   -1.73571E+004   -1.50303E+005    8.13648E+003    1.38411E+003    1.59497E+005
            1141    3.19754E+005    1.16258E+005   -2.43590E+005    7.91972E+003   -2.43590E+005    3.59848E+005    3.98040E+004   -2.73640E+005    8.67596E+003   -1.07511E+004   -1.17337E+005    1.16214E+004    8.76626E+002    1.71296E+005
            1142    3.24421E+005    1.38993E+005   -2.31095E+005    4.20104E+003   -2.31095E+005    3.70088E+005    2.93002E+004   -2.48575E+005    4.86249E+003   -8.25731E+003   -8.45057E+004    1.43976E+004    4.63213E+002    1.80407E+005
            1143    3.27722E+005    1.63671E+005   -2.13435E+005    2.41862E+003   -2.13435E+005    3.77106E+005    1.57818E+004   -2.05790E+005    2.80751E+003   -3.24170E+003   -4.69113E+004    1.57609E+004    2.00152E+002    1.86591E+005
            1144    3.27993E+005    1.83347E+005   -1.95322E+005    1.01909E+002   -1.95322E+005    3.78669E+005    3.95786E+003   -1.25241E+005    1.81714E+002   -1.49534E+003   -1.05600E+004    1.66074E+004   -1.67410E+001    1.88549E+005
            1145    3.28205E+005    2.05273E+005    2.05273E+005   -9.12037E+002   -1.73200E+005    3.78473E+005   -1.03870E+004    1.76062E+005   -1.18103E+003    3.32616E+003    2.90158E+004    1.61939E+004   -2.68217E+002    1.88092E+005
            1146    3.23867E+005    2.20978E+005    2.20978E+005   -3.69081E+003   -1.50264E+005    3.71242E+005   -2.23413E+004    2.29255E+005   -4.25949E+003    4.80777E+003    6.64757E+004    1.52236E+004   -4.15384E+002    1.82346E+005
            1147    3.06547E+005    5.47719E+004   -2.66836E+005    2.20189E+004   -2.66836E+005    3.21608E+005    6.33485E+004   -3.02573E+005    2.20322E+004   -3.15126E+004   -1.80565E+005    1.19941E+003   -5.29433E+002    1.42479E+005
            1148    3.12331E+005    7.56205E+004   -2.62570E+005    1.50192E+004   -2.62570E+005    3.38191E+005    5.73102E+004   -2.98671E+005    1.51352E+004   -2.62284E+004   -1.60838E+005    4.87956E+003   -1.54715E+003    1.54999E+005
            1149    3.19216E+005    1.00559E+005   -2.54084E+005    1.02442E+004   -2.54084E+005    3.54643E+005    4.77602E+004   -2.88302E+005    1.04492E+004   -1.95799E+004   -1.34150E+005    8.50801E+003   -1.99995E+003    1.67532E+005
            1150    3.26341E+005    1.23831E+005   -2.45144E+005    5.61042E+003   -2.45144E+005    3.68975E+005    3.85672E+004   -2.71477E+005    5.90241E+003   -1.51300E+004   -1.06474E+005    1.18855E+004   -1.72073E+003    1.78286E+005
            1151    3.32523E+005    1.48773E+005   -2.31698E+005    3.28913E+003   -2.31698E+005    3.80472E+005    2.65452E+004   -2.43773E+005    3.56844E+003   -9.68396E+003   -7.35201E+004    1.47026E+004   -1.29979E+003    1.86924E+005
            1152    3.36303E+005    1.70301E+005   -2.17000E+005    1.10705E+003   -2.17000E+005    3.87301E+005    1.51974E+004   -2.01977E+005    1.29817E+003   -6.11823E+003   -4.07722E+004    1.63340E+004   -6.65339E+002    1.92167E+005
            1153    3.38764E+005    1.92901E+005   -1.98254E+005    3.76020E+002   -1.98254E+005    3.91155E+005    1.65892E+003   -1.01665E+005    4.19700E+002   -1.76845E+002   -5.21961E+003    1.70758E+004    3.91330E+000    1.94814E+005
            1154    3.36021E+005    2.09966E+005    2.09966E+005   -1.10193E+003   -1.77522E+005    3.87488E+005   -1.04471E+004    1.80156E+005   -1.21829E+003    3.36273E+003    2.91968E+004    1.65781E+004    6.30884E+002    1.92594E+005
            1155    3.33430E+005    2.28268E+005    2.28268E+005   -2.25768E+003   -1.54050E+005    3.82319E+005   -2.39867E+004    2.34442E+005   -2.50587E+003    9.49442E+003    6.49714E+004    1.51853E+004    1.20488E+003    1.88496E+005
            1156    3.10465E+005    6.65264E+004   -2.64840E+005    1.93140E+004   -2.64840E+005    3.31367E+005    5.96666E+004   -3.02230E+005    1.94129E+004   -3.18025E+004   -1.66610E+005    2.54138E+003    1.58035E+002    1.51293E+005
            1157    3.17006E+005    8.56156E+004   -2.61018E+005    1.41650E+004   -2.61018E+005    3.46634E+005    5.37459E+004   -2.98071E+005    1.44844E+004   -2.70549E+004   -1.48667E+005    6.02927E+003    1.67872E+002    1.62088E+005
            1158    3.24186E+005    1.05682E+005   -2.55962E+005    8.56585E+003   -2.55962E+005    3.61644E+005    4.72378E+004   -2.88632E+005    8.98386E+003   -2.41577E+004   -1.26540E+005    9.41896E+003   -4.04710E+002    1.73067E+005
            1159    3.33928E+005    1.30664E+005   -2.47993E+005    4.35569E+003   -2.47993E+005    3.78657E+005    3.76579E+004   -2.71806E+005    4.77990E+003   -2.01220E+004   -9.76316E+004    1.27177E+004   -6.54471E+002    1.84809E+005
            1160    3.44006E+005    1.55631E+005   -2.38503E+005    1.38472E+003   -2.38503E+005    3.94134E+005    2.71626E+004   -2.46007E+005    1.73939E+003   -1.47583E+004   -6.84690E+004    1.55998E+004   -6.55654E+002    1.94564E+005
            1161    3.49906E+005    1.80440E+005   -2.22815E+005    5.58348E+002   -2.22815E+005    4.03256E+005    1.39389E+004   -1.99551E+005    7.64764E+002   -6.79217E+003   -3.57894E+004    1.74384E+004   -4.04336E+002    2.00337E+005
            1162    3.50602E+005    2.00744E+005   -2.04092E+005   -6.29066E+001   -2.04092E+005    4.04836E+005    1.13712E+003   -8.40697E+004   -4.88638E+001   -7.70623E+002   -2.59187E+003    1.81420E+004   -3.57687E+001    2.01601E+005
            1163    3.49971E+005    2.20866E+005    2.20866E+005   -6.82789E+001   -1.82638E+005    4.03504E+005   -1.27201E+004    1.91477E+005   -2.58626E+002    6.71736E+003    3.17017E+004    1.75569E+004    3.08925E+002    2.00589E+005
            1164    3.43460E+005    2.35156E+005    2.35156E+005   -1.49803E+003   -1.58781E+005    3.93937E+005   -2.49589E+004    2.39829E+005   -1.84304E+003    1.27839E+004    6.39357E+004    1.58075E+004    5.86573E+002    1.94624E+005
            1165    3.60588E+005    2.47505E+005    2.47505E+005    4.12720E+002   -1.66270E+005    4.13775E+005   -2.72158E+004    2.48917E+005    4.17485E+002    1.94900E+004    6.17400E+004    1.61990E+004    2.46803E+003    2.05153E+005
            1166    3.68759E+005    2.33452E+005    2.33452E+005    9.29778E+002   -1.91732E+005    4.25184E+005   -1.42165E+004    2.00820E+005    9.25660E+002    1.00845E+004    3.16395E+004    1.86355E+004    1.33180E+003    2.11495E+005
            1167    3.72026E+005    2.14613E+005   -2.14965E+005    9.76199E+001   -2.14965E+005    4.29579E+005    8.47882E+001   -4.84322E+004    1.06094E+002   -2.36051E+002   -1.24407E+002    1.95055E+004    3.63394E+001    2.13902E+005
            1168    3.68854E+005    1.90540E+005   -2.34684E+005   -1.06011E+003   -2.34684E+005    4.25224E+005    1.50683E+004   -2.04396E+005   -1.05805E+003   -1.13182E+004   -3.28286E+004    1.86419E+004   -1.39087E+003    2.11515E+005
            1169    3.60021E+005    1.65635E+005   -2.47418E+005   -2.04007E+002   -2.47418E+005    4.13053E+005    2.73287E+004   -2.49608E+005   -2.04429E+002   -1.97399E+004   -6.20418E+004    1.61877E+004   -2.46453E+003    2.04787E+005
            1170    3.46280E+005    1.38008E+005   -2.55589E+005    2.20792E+003   -2.55589E+005    3.93597E+005    3.84579E+004   -2.76047E+005    2.19325E+003   -2.80825E+004   -8.94846E+004    1.26246E+004   -3.14993E+003    1.93955E+005
            1171    3.26772E+005    1.09169E+005   -2.56618E+005    6.46293E+003   -2.56618E+005    3.65787E+005    4.69951E+004   -2.86939E+005    6.43600E+003   -3.39772E+004   -1.13444E+005    8.69701E+003   -3.30052E+003    1.78289E+005
            1172    3.11142E+005    8.58626E+004   -2.55302E+005    1.28197E+004   -2.55302E+005    3.41165E+005    5.22067E+004   -2.90898E+005    1.27741E+004   -3.10048E+004   -1.38389E+005    4.94390E+003   -3.13677E+003    1.61820E+005
            1173    3.10802E+005    7.53356E+004   -2.59612E+005    1.94666E+004   -2.59612E+005    3.34947E+005    5.49365E+004   -2.99190E+005    1.94154E+004   -2.65582E+004   -1.57667E+005    2.38494E+003   -3.03039E+003    1.54081E+005
            1174    3.89070E+005    7.27834E+004   -3.51664E+005   -1.19303E+004   -3.51664E+005    4.24447E+005    9.69370E+004   -3.67450E+005    7.12516E+004   -1.98998E+004   -3.42163E+005   -8.62560E+003    2.16314E+004    5.23189E+004
            1175    3.60977E+005    5.99068E+004   -3.32241E+005   -1.38193E+004   -3.32241E+005    3.92148E+005    9.53847E+004   -3.43419E+005    5.89248E+004   -2.77548E+004   -3.17324E+005   -8.35883E+003    1.40698E+004    6.59224E+004
            1176    3.33683E+005    5.07371E+004   -3.09378E+005   -1.06516E+004   -3.09378E+005    3.60115E+005    8.97641E+004   -3.20607E+005    5.00640E+004   -3.27852E+004   -2.86571E+005   -7.44442E+003    8.62136E+003    7.88627E+004
            1177    3.13826E+005    4.07728E+004   -2.92944E+005   -3.76923E+003   -2.92944E+005    3.33717E+005    8.53136E+004   -3.06593E+005    4.02983E+004   -4.05750E+004   -2.55664E+005   -5.97708E+003    4.58189E+003    9.68121E+004
            1178    3.02599E+005    3.41410E+004   -2.78303E+005    1.33805E+004   -2.78303E+005    3.12444E+005    7.69273E+004   -3.00990E+005    3.37679E+004   -4.13911E+004   -2.23159E+005   -3.95170E+003    2.22833E+003    1.14243E+005
            1179    3.03162E+005    3.54012E+004   -2.71845E+005    2.70604E+004   -2.71845E+005    3.07247E+005    6.97946E+004   -3.02904E+005    2.73028E+004   -4.03169E+004   -1.96370E+005   -1.78857E+003    2.82947E+002    1.32187E+005
            1180    3.07747E+005    5.68310E+004   -2.65761E+005    2.46050E+004   -2.65761E+005    3.22592E+005    6.14417E+004   -3.03916E+005    2.46071E+004   -3.32376E+004   -1.75695E+005    1.23888E+002   -9.34248E+002    1.44713E+005
            1181    3.84076E+005    3.42729E+005    3.42729E+005   -1.31751E+004   -6.43812E+004    4.07110E+005   -8.83909E+004    3.76281E+005   -6.30481E+004    4.18757E+003    3.24033E+005   -4.87415E+003   -2.27298E+004    7.65203E+004
            1182    3.52539E+005    3.06213E+005    3.06213E+005   -4.18284E+004   -5.06563E+004    3.56870E+005   -7.12429E+004    3.52290E+005   -4.42571E+004   -1.30791E+004    2.71065E+005   -1.40563E+003   -1.80099E+004    1.04460E+005
            1183    3.34084E+005    2.81294E+005    2.81294E+005   -2.47863E+004   -7.50892E+004    3.56383E+005   -6.04728E+004    3.25400E+005   -2.60813E+004   -1.00109E+004    2.17511E+005    3.83476E+003   -1.27676E+004    1.35890E+005
            1184    3.15309E+005    2.43365E+005    2.43365E+005   -1.63183E+004   -1.07481E+005    3.50846E+005   -3.98554E+004    2.83305E+005   -1.74332E+004   -1.35991E+004    1.50599E+005    6.85776E+003   -8.50517E+003    1.54333E+005
            1185    4.08230E+005    3.61032E+005    3.61032E+005   -1.88745E+004   -7.05932E+004    4.31625E+005   -9.05213E+004    4.00760E+005   -6.91545E+004   -7.14185E+003    3.47860E+005   -5.93295E+003   -2.37455E+004    6.57468E+004
            1186    3.76798E+005    3.33535E+005    3.33535E+005   -4.11931E+004   -4.52995E+004    3.78835E+005   -8.23476E+004    3.76748E+005   -4.32029E+004   -1.10981E+004    3.01344E+005   -3.33842E+003   -1.76050E+004    1.03814E+005
            1187    3.45504E+005    2.92353E+005    2.92353E+005   -2.81784E+004   -7.36265E+004    3.65979E+005   -6.35160E+004    3.38681E+005   -2.86512E+004   -1.80924E+004    2.37292E+005    1.37304E+003   -1.28308E+004    1.30185E+005
            1188    3.31439E+005    2.63885E+005    2.63885E+005   -1.54832E+004   -1.02331E+005    3.66216E+005   -4.86900E+004    3.04219E+005   -1.60601E+004   -1.17476E+004    1.73878E+005    3.96352E+003   -8.52364E+003    1.57386E+005
            1189    4.47054E+005    3.92694E+005    3.92694E+005   -1.65863E+004   -8.43879E+004    4.77082E+005   -9.72401E+004    4.35261E+005   -8.20424E+004   -5.37251E+003    3.79135E+005   -6.38533E+003   -3.26832E+004    6.66485E+004
            1190    4.02249E+005    3.47077E+005    3.47077E+005   -4.80198E+004   -6.19613E+004    4.09038E+005   -7.90319E+004    4.01705E+005   -5.97866E+004   -2.25930E+004    3.19475E+005   -6.02739E+003   -2.82097E+004    9.69380E+004
            1191    3.72501E+005    3.18271E+005    3.18271E+005   -3.59712E+004   -7.01339E+004    3.88405E+005   -7.07221E+004    3.68952E+005   -3.59136E+004   -1.58954E+004    2.63975E+005   -1.91154E+003   -2.11677E+004    1.33005E+005
            1192    3.38601E+005    2.68671E+005    2.68671E+005   -2.47267E+004   -1.01834E+005    3.70504E+005   -4.73701E+004    3.17934E+005   -2.47447E+004   -1.87695E+004    1.85624E+005   -2.03581E+002   -1.49359E+004    1.53783E+005
            1193    4.73722E+005    4.14642E+005    4.14642E+005   -2.27894E+004   -8.85080E+004    5.03150E+005   -1.01115E+005    4.63299E+005   -8.66555E+004   -1.39693E+004    4.03969E+005   -7.30747E+003   -2.84530E+004    6.18848E+004
            1194    4.38176E+005    3.87774E+005    3.87774E+005   -3.92388E+004   -6.07714E+004    4.48546E+005   -9.59214E+004    4.36984E+005   -5.90627E+004   -1.22972E+004    3.59124E+005   -8.46430E+003   -2.48927E+004    1.03946E+005
            1195    3.89342E+005    3.33887E+005    3.33887E+005   -4.44368E+004   -6.56105E+004    3.99497E+005   -7.46131E+004    3.88044E+005   -4.33187E+004   -1.82638E+004    2.85422E+005   -5.96455E+003   -2.07861E+004    1.28741E+005
            1196    3.65506E+005    3.01117E+005    3.01117E+005   -2.76603E+004   -9.24520E+004    3.93569E+005   -6.03348E+004    3.52236E+005   -2.68786E+004   -1.29589E+004    2.20842E+005   -5.51548E+003   -1.60582E+004    1.57711E+005
            1197    5.18525E+005    4.56886E+005    4.56886E+005   -1.32835E+004   -9.92498E+004    5.56136E+005   -1.14784E+005    5.02116E+005   -9.68545E+004   -8.77647E+001    4.41295E+005   -7.49949E+003   -3.54834E+004    7.75214E+004
            1198    4.54108E+005    3.93258E+005    3.93258E+005   -3.81912E+004   -8.05425E+004    4.73800E+005   -9.15079E+004    4.49633E+005   -7.76474E+004   -1.39027E+004    3.66074E+005   -1.18247E+004   -3.30910E+004    9.97370E+004
            1199    4.19255E+005    3.65927E+005    3.65927E+005   -5.23043E+004   -5.43434E+004    4.20271E+005   -8.64265E+004    4.19244E+005   -5.11009E+004   -8.49484E+003    3.18875E+005   -9.69401E+003   -2.50801E+004    1.29963E+005
            1200    3.79948E+005    3.14344E+005    3.14344E+005   -4.02147E+004   -8.67130E+004    4.01057E+005   -6.24722E+004    3.73466E+005   -3.88727E+004   -1.46420E+004    2.40931E+005   -1.07567E+004   -1.94265E+004    1.53605E+005
            1201    5.22209E+005    4.64541E+005    4.64541E+005   -5.51074E+003   -9.75789E+004    5.62120E+005   -1.20484E+005    5.03461E+005   -9.64681E+004    9.45141E+003    4.48468E+005   -8.11661E+003   -2.17353E+004    8.29296E+004
            1202    4.84940E+005    4.35406E+005    4.35406E+005   -1.12121E+004   -8.04199E+004    5.15826E+005   -1.14591E+005    4.73638E+005   -7.78927E+004    1.25231E+004    4.09144E+005   -1.46280E+004   -2.52812E+004    1.02085E+005
            1203    4.41129E+005    3.87293E+005    3.87293E+005   -4.14521E+004   -6.52576E+004    4.52550E+005   -9.35276E+004    4.39681E+005   -6.09740E+004   -5.23352E+003    3.46790E+005   -1.52034E+004   -2.29710E+004    1.23381E+005
            1204    4.10250E+005    3.54155E+005    3.54155E+005   -4.08525E+004   -6.98034E+004    4.23959E+005   -8.11665E+004    4.07942E+005   -4.17656E+004    2.85492E+002    2.84980E+005   -1.66473E+004   -1.83900E+004    1.54562E+005
            1205    5.21125E+005    4.68050E+005    4.68050E+005    2.54536E+004   -1.06310E+005    5.74360E+005   -1.29065E+005    4.81460E+005   -1.04851E+005    3.93398E+004    4.52705E+005   -8.15733E+003   -2.71095E+004    7.72477E+004
            1206    5.07176E+005    4.50314E+005    4.50314E+005   -1.07712E+004   -9.29238E+004    5.43238E+005   -1.15540E+005    4.91872E+005   -9.11794E+004    8.29459E+003    4.29504E+005   -1.20980E+004   -2.25524E+004    9.31868E+004
            1207    4.79270E+005    4.33480E+005    4.33480E+005   -1.27322E+004   -7.31226E+004    5.06603E+005   -1.15875E+005    4.70595E+005   -7.00527E+004    2.26967E+004    3.94981E+005   -1.70228E+004   -1.82731E+004    1.23963E+005
            1208    4.33042E+005    3.85329E+005    3.85329E+005   -3.32171E+004   -6.08826E+004    4.46212E+005   -9.70765E+004    4.31047E+005   -5.13511E+004    1.70880E+004    3.25493E+005   -1.93759E+004   -1.38964E+004    1.47101E+005
            1209    4.41621E+005    4.26687E+005    4.26687E+005    2.76578E+004   -4.78008E+004    4.74488E+005   -1.35515E+005    4.26754E+005   -4.30918E+004    7.50159E+004    3.74620E+005   -1.98334E+004   -1.50555E+003    1.35085E+005
            1210    4.85514E+005    4.52828E+005    4.52828E+005    2.34053E+004   -7.40067E+004    5.26834E+005   -1.34075E+005    4.62755E+005   -7.17769E+004    5.22892E+004    4.21714E+005   -1.60389E+004   -5.37564E+003    1.11303E+005
            1211    5.29128E+005    4.80036E+005    4.80036E+005    1.38233E+004   -9.50645E+004    5.75101E+005   -1.32932E+005    5.02985E+005   -9.36726E+004    3.67608E+004    4.55707E+005   -1.35434E+004   -1.01436E+004    1.03189E+005
            1212    5.72312E+005    4.88025E+005    4.88025E+005   -3.78982E+004   -1.21484E+005    6.09509E+005   -1.09548E+005    5.58332E+005   -1.20123E+005   -3.01295E+004    4.78896E+005   -1.07472E+004   -1.51668E+004    6.70571E+004
            1213    4.24361E+005    3.74721E+005    3.74721E+005    7.53106E+003   -8.98745E+004    4.64595E+005   -9.74590E+004    3.98026E+005   -8.81988E+004    1.27772E+004    3.67799E+005   -6.06020E+003   -2.66390E+004    4.38105E+004
            1214    4.54606E+005    3.98979E+005    3.98979E+005    1.08148E+004   -1.01147E+005    5.00126E+005   -1.02882E+005    4.21880E+005   -9.89806E+004    1.41815E+004    3.93446E+005   -5.72304E+003   -3.19553E+004    3.62347E+004
            1215    4.88111E+005    4.18173E+005    4.18173E+005   -4.97974E+003   -1.15829E+005    5.34002E+005   -9.91216E+004    4.58490E+005   -1.13487E+005   -3.76938E+003    4.14621E+005   -5.16389E+003   -3.43301E+004    2.34022E+004
            1216    5.24238E+005    4.53547E+005    4.53547E+005   -2.50304E+003   -1.19208E+005    5.72755E+005   -1.10612E+005    4.93724E+005   -1.17108E+005   -4.19791E+002    4.49363E+005   -4.53439E+003   -3.40486E+004    3.09840E+004
            1217    5.47717E+005    4.71335E+005    4.71335E+005   -1.04113E+004   -1.24412E+005    5.95746E+005   -1.12171E+005    5.20010E+005   -1.22828E+005   -8.84162E+003    4.68181E+005   -4.04927E+003   -3.00378E+004    2.78109E+004
            1218    5.90019E+005    5.33176E+005    5.33176E+005    1.24405E+004   -1.07649E+005    6.40825E+005   -1.45989E+005    5.61526E+005   -1.06604E+005    1.89851E+004    5.25586E+005   -2.68670E+003   -2.57174E+004    5.79531E+004
            1219    5.58186E+005    5.04069E+005    5.04069E+005    3.00067E+004   -1.11143E+005    6.15212E+005   -1.40978E+005    5.15690E+005   -1.10003E+005    3.73888E+004    4.95547E+005   -3.57898E+003   -2.62099E+004    5.86252E+004
            1220    3.77521E+005    3.58180E+005    3.58180E+005    4.60620E+003   -3.94267E+004    3.97606E+005   -1.07786E+005    3.71678E+005   -2.32991E+004    6.50898E+004    2.81568E+005   -2.33967E+004    6.79674E+002    1.49520E+005
            1221    3.31045E+005    2.80573E+005    2.80573E+005   -1.84513E+003   -8.37297E+004    3.64303E+005   -6.49995E+004    3.06995E+005   -7.34344E+003    4.13591E+004    1.60983E+005   -2.57676E+004    1.04923E+003    1.68412E+005
            1222    3.04760E+005    1.74768E+005   -1.77139E+005   -7.69890E+002   -1.77139E+005    3.51907E+005    1.04691E+003   -4.87396E+004   -7.54172E+002    2.11812E+002   -2.59838E+003   -2.67931E+004    8.98487E+001    1.73896E+005
            1223    3.26481E+005    8.45075E+004   -2.75023E+005    2.94311E+003   -2.75023E+005    3.59530E+005    6.25240E+004   -3.02256E+005    8.28323E+003   -3.99200E+004   -1.55935E+005   -2.57123E+004   -7.84571E+002    1.66563E+005
            1224    3.84354E+005    3.71302E+004   -3.67599E+005   -7.52097E+003   -3.67599E+005    4.04729E+005    1.12663E+005   -3.78453E+005    2.14478E+004   -6.77650E+004   -2.91673E+005   -2.33946E+004   -7.55115E+002    1.50571E+005
            1225    4.35225E+005    4.89499E+004   -4.19957E+005   -2.89309E+004   -4.19957E+005    4.68907E+005    1.33313E+005   -4.19115E+005    4.44567E+004   -7.13121E+004   -3.73083E+005   -1.95093E+004    1.19462E+003    1.27633E+005
            1226    4.89563E+005    7.06171E+004   -4.62175E+005   -3.21596E+004   -4.62175E+005    5.32792E+005    1.41239E+005   -4.64350E+005    6.83274E+004   -6.15252E+004   -4.30520E+005   -1.65722E+004    4.82696E+003    1.12316E+005
            1227    5.23244E+005    9.19778E+004   -4.77640E+005   -1.83727E+004   -4.77640E+005    5.69618E+005    1.34678E+005   -4.96039E+005    9.07968E+004   -3.38185E+004   -4.61013E+005   -1.21462E+004    1.02377E+004    8.51814E+004
            1228    5.40998E+005    1.06730E+005   -4.90203E+005   -3.22612E+004   -4.90203E+005    5.96933E+005    1.38578E+005   -4.98398E+005    1.05676E+005   -4.14034E+004   -4.80007E+005   -9.78714E+003    1.93768E+004    6.51917E+004
            1229    3.95572E+005    3.38182E+005    3.38182E+005   -2.70423E+004   -8.19919E+004    4.20174E+005   -7.63827E+004    3.86846E+005   -3.10060E+004    1.87386E+004    2.41416E+005   -2.30745E+004   -9.27053E+003    1.74629E+005
            1230    3.69625E+005    2.95123E+005    2.95123E+005   -2.68133E+004   -1.08520E+005    4.03642E+005   -5.32633E+004    3.48427E+005   -2.66233E+004   -4.79249E+003    1.91206E+005   -1.81113E+004   -1.26005E+004    1.75111E+005
            1231    3.57337E+005    2.77207E+005    2.77207E+005   -2.07412E+004   -1.18971E+005    3.96178E+005   -4.58318E+004    3.24816E+005   -1.99692E+004   -8.14378E+003    1.65608E+005   -1.02630E+004   -1.20699E+004    1.77532E+005
            1232    3.34358E+005    2.48127E+005    2.48127E+005   -1.62930E+004   -1.27715E+005    3.75843E+005   -3.47063E+004    2.87912E+005   -1.59395E+004   -1.29436E+004    1.33002E+005   -3.65987E+003   -1.00590E+004    1.72921E+005
            1233    3.27366E+005    2.38863E+005    2.38863E+005   -1.04243E+004   -1.31870E+005    3.70734E+005   -3.21894E+004    2.69189E+005   -1.07043E+004   -9.34505E+003    1.16618E+005    2.54724E+003   -8.50332E+003    1.74062E+005
            1234    3.13203E+005    2.21781E+005    2.21781E+005   -8.44921E+003   -1.34874E+005    3.56655E+005   -2.61527E+004    2.45050E+005   -8.97664E+003   -1.04923E+004    9.79269E+004    6.80152E+003   -4.51123E+003    1.69611E+005
            1235    3.12607E+005    2.20140E+005    2.20140E+005   -6.46640E+003   -1.36496E+005    3.56635E+005   -2.57259E+004    2.39317E+005   -7.31335E+003   -5.45749E+003    8.99485E+004    9.69585E+003   -4.72495E+003    1.71359E+005
            1236    3.52818E+005    2.62411E+005    2.62411E+005   -1.42435E+004   -1.34909E+005    3.97320E+005   -3.77528E+004    3.00844E+005   -1.53965E+004    8.51670E+003    1.20138E+005   -2.39789E+004   -4.42926E+003    1.88853E+005
            1237    3.50906E+005    2.47545E+005    2.47545E+005   -1.09822E+004   -1.51918E+005    3.99463E+005   -2.82151E+004    2.75482E+005   -1.08050E+004    4.28180E+002    9.50220E+004   -1.79265E+004   -5.90011E+003    1.93158E+005
            1238    3.34578E+005    2.21952E+005    2.21952E+005   -1.08420E+004   -1.61461E+005    3.83413E+005   -1.65498E+004    2.38233E+005   -1.04951E+004   -5.50437E+003    6.56489E+004   -9.92027E+003   -5.30799E+003    1.88078E+005
            1239    3.27740E+005    2.14281E+005    2.14281E+005   -5.15257E+003   -1.62456E+005    3.76737E+005   -1.55574E+004    2.14654E+005   -5.04439E+003   -2.72964E+003    5.44462E+004   -2.93068E+003   -3.92449E+003    1.86131E+005
            1240    3.13975E+005    1.95363E+005    1.95363E+005   -5.20023E+003   -1.66474E+005    3.61837E+005   -7.89644E+003    1.79458E+005   -5.32419E+003   -5.13925E+003    3.41527E+004    3.31349E+003   -2.99937E+003    1.79786E+005
            1241    3.12727E+005    1.96135E+005    1.96135E+005   -1.74964E+003   -1.64397E+005    3.60532E+005   -9.99615E+003    1.72661E+005   -1.90853E+003   -9.90319E+002    3.28873E+004    7.52156E+003   -1.16544E+003    1.79299E+005
            1242    3.04576E+005    1.84774E+005    1.84774E+005   -3.25592E+003   -1.66632E+005    3.51406E+005   -4.96193E+003    1.50708E+005   -3.52695E+003   -3.41680E+003    2.18295E+004    1.04306E+004   -1.52502E+003    1.74922E+005
            1243    3.42743E+005    1.95094E+005   -2.00649E+005    9.05372E+002   -2.00649E+005    3.95743E+005    1.55007E+003   -1.09078E+005    9.72783E+002    2.91314E+002   -5.91430E+003   -2.54927E+004    1.83678E+002    1.96197E+005
            1244    3.39956E+005    1.84283E+005   -2.07974E+005    1.23949E+003   -2.07974E+005    3.92256E+005    7.48391E+003   -1.65435E+005    1.25239E+003   -7.09464E+002   -2.29947E+004   -1.92063E+004    1.12925E+003    1.94863E+005
            1245    3.34664E+005    1.81544E+005   -2.04467E+005    4.23574E+003   -2.04467E+005    3.86011E+005    6.22884E+003   -1.73897E+005    4.10449E+003    2.85474E+003   -2.56457E+004   -1.07294E+004    2.00959E+003    1.92174E+005
            1246    3.22739E+005    1.67619E+005   -2.04236E+005    2.98337E+003   -2.04236E+005    3.71855E+005    1.12114E+004   -1.87717E+005    2.90240E+003    1.98185E+003   -3.85183E+004   -3.35574E+003    2.60896E+003    1.84777E+005
            1247    3.17648E+005    1.67550E+005   -1.98520E+005    4.39411E+003   -1.98520E+005    3.66070E+005    8.85882E+003   -1.81572E+005    4.49284E+003    5.15139E+003   -3.62207E+004    3.11101E+003    2.54437E+003    1.81812E+005
            1248    3.09452E+005    1.58671E+005   -1.97747E+005    2.48723E+003   -1.97747E+005    3.56418E+005    1.21962E+004   -1.84542E+005    2.74984E+003    2.87931E+003   -4.22178E+004    7.41508E+003    2.19089E+003    1.76591E+005
            1249    3.07924E+005    1.62008E+005   -1.92880E+005    3.48739E+003   -1.92880E+005    3.54888E+005    9.12814E+003   -1.74960E+005    3.80966E+003    4.55371E+003   -3.57478E+004    1.03987E+004    1.57175E+003    1.75965E+005
            1250    3.59784E+005    1.23044E+005   -2.78570E+005    1.42939E+004   -2.78570E+005    4.01613E+005    4.70774E+004   -3.19544E+005    1.58580E+004   -1.16979E+004   -1.45392E+005   -2.39607E+004    4.88614E+003    1.87379E+005
            1251    3.54700E+005    1.36636E+005   -2.62336E+005    1.73286E+004   -2.62336E+005    3.98972E+005    3.61235E+004   -3.04382E+005    1.71016E+004    1.56806E+003   -1.27040E+005   -1.80191E+004    8.18722E+003    1.87846E+005
            1252    3.46105E+005    1.33501E+005   -2.56216E+005    1.53154E+004   -2.56216E+005    3.89717E+005    3.58001E+004   -2.95300E+005    1.47794E+004    5.73146E+003   -1.27911E+005   -1.02924E+004    8.79244E+003    1.82654E+005
            1253    3.35299E+005    1.36157E+005   -2.42932E+005    1.47570E+004   -2.42932E+005    3.79090E+005    3.06727E+004   -2.79001E+005    1.44499E+004    1.06533E+004   -1.17121E+005   -3.64231E+003    8.99020E+003    1.78248E+005
            1254    3.24301E+005    1.30607E+005   -2.36584E+005    1.06470E+004   -2.36584E+005    3.67190E+005    3.17766E+004   -2.67060E+005    1.09003E+004    9.92937E+003   -1.16159E+005    2.44526E+003    7.93712E+003    1.72184E+005
            1255    3.16847E+005    1.33401E+005   -2.26615E+005    9.81450E+003   -2.26615E+005    3.60016E+005    2.78001E+004   -2.53417E+005    1.04013E+004    1.07312E+004   -1.04533E+005    6.50294E+003    5.53658E+003    1.70221E+005
            1256    3.09892E+005    1.29977E+005   -2.22449E+005    7.42736E+003   -2.22449E+005    3.52426E+005    2.83479E+004   -2.45753E+005    8.29380E+003    7.13887E+003   -1.00476E+005    9.37387E+003    4.70012E+003    1.67328E+005
            1257    3.95665E+005    7.44370E+004   -3.42241E+005    2.83806E+004   -3.42241E+005    4.16678E+005    7.98078E+004   -3.89566E+005    3.38620E+004   -1.85522E+004   -2.54733E+005   -2.27574E+004    9.23794E+003    1.67166E+005
            1258    3.85696E+005    9.03654E+004   -3.21977E+005    2.99399E+004   -3.21977E+005    4.12342E+005    6.72238E+004   -3.74824E+005    3.02197E+004    3.44433E+002   -2.32236E+005   -1.84715E+004    1.44332E+004    1.68502E+005
            1259    3.69524E+005    1.00901E+005   -2.98653E+005    3.07985E+004   -2.98653E+005    3.99554E+005    5.56511E+004   -3.54096E+005    2.97709E+004    1.18512E+004   -2.08575E+005   -1.11981E+004    1.56922E+004    1.65906E+005
            1260    3.56179E+005    1.00308E+005   -2.87921E+005    2.37612E+004   -2.87921E+005    3.88229E+005    5.46174E+004   -3.36918E+005    2.30772E+004    1.42847E+004   -2.01214E+005   -5.08988E+003    1.47386E+004    1.60958E+005
            1261    3.38885E+005    1.05667E+005   -2.67407E+005    2.13791E+004   -2.67407E+005    3.73074E+005    4.67868E+004   -3.13975E+005    2.15030E+004    1.76461E+004   -1.79510E+005    5.25138E+002    1.35673E+004    1.57738E+005
            1262    3.28270E+005    1.02279E+005   -2.60789E+005    1.50692E+004   -2.60789E+005    3.63069E+005    4.78135E+004   -3.00505E+005    1.57721E+004    1.38037E+004   -1.73016E+005    4.60670E+003    8.85442E+003    1.55123E+005
            1263    3.16691E+005    1.06797E+005   -2.45620E+005    1.51147E+004   -2.45620E+005    3.52417E+005    4.12363E+004   -2.84455E+005    1.62810E+004    1.25797E+004   -1.52569E+005    7.34966E+003    8.02939E+003    1.54960E+005
            1264    4.44596E+005    5.92357E+004   -4.02600E+005    2.24738E+004   -4.02600E+005    4.61836E+005    1.06964E+005   -4.41157E+005    5.29628E+004   -2.66021E+004   -3.47251E+005   -1.91955E+004    1.37198E+004    1.42988E+005
            1265    4.19977E+005    6.20960E+004   -3.65921E+005    4.55247E+004   -3.65921E+005    4.28017E+005    8.61002E+004   -4.19240E+005    4.98205E+004   -8.01671E+002   -3.07319E+005   -1.64023E+004    1.99353E+004    1.44163E+005
            1266    4.04291E+005    6.73418E+004   -3.47022E+005    4.63792E+004   -3.47022E+005    4.14364E+005    7.77671E+004   -4.03065E+005    4.50589E+004    9.76104E+003   -2.88121E+005   -1.08498E+004    2.17858E+004    1.42805E+005
            1267    3.82492E+005    7.53567E+004   -3.23401E+005    4.04292E+004   -3.23401E+005    3.98757E+005    6.92049E+004   -3.78879E+005    3.92777E+004    1.70828E+004   -2.63975E+005   -6.65433E+003    1.99673E+004    1.40531E+005
            1268    3.63309E+005    7.70240E+004   -3.06000E+005    3.37131E+004   -3.06000E+005    3.83024E+005    6.50875E+004   -3.57432E+005    3.34210E+004    1.85743E+004   -2.47258E+005   -2.10329E+003    1.93384E+004    1.36656E+005
            1269    3.42011E+005    7.85395E+004   -2.86325E+005    2.69769E+004   -2.86325E+005    3.64865E+005    6.02696E+004   -3.33098E+005    2.74102E+004    1.66922E+004   -2.24911E+005    1.38903E+003    1.26073E+004    1.35907E+005
            1270    3.29860E+005    7.89570E+004   -2.75042E+005    2.36995E+004   -2.75042E+005    3.53999E+005    5.74617E+004   -3.19197E+005    2.48317E+004    1.20815E+004   -2.09298E+005    3.98942E+003    1.17801E+004    1.37051E+005
            1271    4.78275E+005    7.47672E+004   -4.33797E+005    6.94820E+003   -4.33797E+005    5.08564E+005    1.17360E+005   -4.67273E+005    7.21998E+004   -2.38328E+004   -4.00449E+005   -1.59034E+004    1.77061E+004    1.15207E+005
            1272    4.59379E+005    6.58543E+004   -4.11533E+005    2.74225E+004   -4.11533E+005    4.77387E+005    1.06085E+005   -4.55741E+005    6.27080E+004   -5.39412E+003   -3.75570E+005   -1.49379E+004    2.28980E+004    1.18193E+005
            1273    4.34095E+005    6.40057E+004   -3.78029E+005    4.76658E+004   -3.78029E+005    4.42034E+005    8.87857E+004   -4.33402E+005    6.18601E+004    1.26409E+004   -3.40858E+005   -1.01547E+004    2.75015E+004    1.17014E+005
            1274    4.15915E+005    5.14253E+004   -3.65060E+005    5.02814E+004   -3.65060E+005    4.16486E+005    8.77846E+004   -4.15911E+005    4.98698E+004    1.58715E+004   -3.29095E+005   -6.39837E+003    2.27270E+004    1.14640E+005
            1275    3.85840E+005    5.79427E+004   -3.32530E+005    4.85045E+004   -3.32530E+005    3.90473E+005    7.53609E+004   -3.85580E+005    4.92160E+004    1.97926E+004   -2.95091E+005   -3.66020E+003    2.48200E+004    1.12104E+005
            1276    3.66015E+005    5.40294E+004   -3.20571E+005    3.62061E+004   -3.20571E+005    3.74601E+005    7.67786E+004   -3.65037E+005    3.66801E+004    1.44719E+004   -2.81488E+005   -7.84592E+002    1.58167E+004    1.13367E+005
            1277    3.43052E+005    5.67541E+004   -2.96263E+005    3.58694E+004   -2.96263E+005    3.53017E+005    6.78798E+004   -3.41617E+005    3.74688E+004    1.16283E+004   -2.52736E+005    9.51410E+002    1.59246E+004    1.14794E+005
            1278    5.13072E+005    9.30889E+004   -4.64376E+005   -1.19553E+004   -4.64376E+005    5.57465E+005    1.27748E+005   -4.87991E+005    9.16575E+004   -3.25596E+004   -4.42340E+005   -1.17344E+004    2.13625E+004    9.52349E+004
            1279    4.97055E+005    8.87065E+004   -4.41902E+005    1.28860E+004   -4.41902E+005    5.30609E+005    1.13437E+005   -4.83788E+005    8.64105E+004   -8.26925E+003   -4.18451E+005   -1.38857E+004    2.51854E+004    9.75242E+004
            1280    4.77126E+005    8.59329E+004   -4.17517E+005    2.79935E+004   -4.17517E+005    5.03450E+005    1.01197E+005   -4.69114E+005    8.31550E+004    8.86866E+003   -3.95615E+005   -1.16559E+004    3.32343E+004    9.08397E+004
            1281    4.45296E+005    7.41606E+004   -3.90090E+005    3.34581E+004   -3.90090E+005    4.64250E+005    9.41570E+004   -4.41082E+005    7.21063E+004    1.48269E+004   -3.69404E+005   -9.46121E+003    2.70405E+004    8.73762E+004
            1282    4.22934E+005    6.98499E+004   -3.69152E+005    3.56353E+004   -3.69152E+005    4.39002E+005    8.78891E+004   -4.19804E+005    6.76859E+004    1.64543E+004   -3.47807E+005   -7.02663E+003    2.99118E+004    8.57676E+004
            1283    3.86514E+005    5.68142E+004   -3.41146E+005    3.28026E+004   -3.41146E+005    3.97960E+005    8.38430E+004   -3.84831E+005    5.56628E+004    1.17835E+004   -3.18975E+005   -5.29063E+003    2.06902E+004    8.59933E+004
            1284    3.68535E+005    5.30540E+004   -3.25990E+005    3.10517E+004   -3.25990E+005    3.79044E+005    8.06280E+004   -3.67053E+005    5.17829E+004    5.59775E+003   -2.99264E+005   -3.46503E+003    2.00218E+004    9.20608E+004
            1285    5.28519E+005    9.40938E+004   -4.80740E+005   -1.58230E+004   -4.80740E+005    5.74834E+005    1.34157E+005   -5.01827E+005    9.36562E+004   -2.95889E+004   -4.66537E+005   -2.88923E+003    1.55853E+004    7.87694E+004
            1286    5.34324E+005    1.00566E+005   -4.77943E+005   -2.95133E+003   -4.77943E+005    5.78509E+005    1.26776E+005   -5.11028E+005    9.94039E+004   -1.46703E+004   -4.65062E+005   -6.72769E+003    2.42783E+004    7.38353E+004
            1287    5.06740E+005    1.02265E+005   -4.43636E+005    1.17400E+004   -4.43636E+005    5.45901E+005    1.09877E+005   -4.88048E+005    1.00418E+005    1.44016E+003   -4.31489E+005   -6.01194E+003    3.09946E+004    6.76255E+004
            1288    4.90173E+005    9.51114E+004   -4.29812E+005    1.59832E+004   -4.29812E+005    5.24923E+005    1.06239E+005   -4.75484E+005    9.31137E+004    7.80385E+003   -4.19635E+005   -6.89691E+003    3.09687E+004    6.00089E+004
            1289    4.50069E+005    9.08685E+004   -3.92508E+005    1.44757E+004   -3.92508E+005    4.83376E+005    9.57212E+004   -4.35123E+005    8.86599E+004    6.70805E+003   -3.82531E+005   -6.01131E+003    3.18460E+004    5.56438E+004
            1290    4.23120E+005    7.77502E+004   -3.75214E+005    9.84960E+003   -3.75214E+005    4.52965E+005    9.58715E+004   -4.10594E+005    7.60666E+004   -2.15177E+002   -3.63466E+005   -6.18990E+003    2.65184E+004    6.14459E+004
            1291    3.90805E+005    7.07806E+004   -3.47320E+005    8.77688E+003   -3.47320E+005    4.18101E+005    8.92542E+004   -3.79502E+005    6.94274E+004   -3.98224E+003   -3.33208E+005   -5.30392E+003    2.30614E+004    6.60861E+004
            1292    4.28805E+005    9.14325E+004   -3.79754E+005   -1.24000E+004   -3.79754E+005    4.71186E+005    1.00240E+005   -3.99022E+005    8.97104E+004   -1.75972E+004   -3.72835E+005   -6.18397E+003    2.72276E+004    4.36133E+004
            1293    4.58006E+005    1.05154E+005   -3.98408E+005   -6.67019E+003   -3.98408E+005    5.03562E+005    9.99745E+004   -4.25634E+005    1.02978E+005   -9.00159E+003   -3.93900E+005   -5.72477E+003    3.19878E+004    3.06265E+004
            1294    4.97675E+005    1.16297E+005   -4.28962E+005    8.31846E+002   -4.28962E+005    5.45259E+005    1.03944E+005   -4.66087E+005    1.13952E+005   -1.02422E+003   -4.24761E+005   -5.13297E+003    3.49027E+004    2.86082E+004
            1295    5.21225E+005    1.24886E+005   -4.44746E+005    8.33866E+003   -4.44746E+005    5.69632E+005    1.03840E+005   -4.90605E+005    1.22841E+005    6.83275E+003   -4.41195E+005   -4.84774E+003    3.32483E+004    2.66234E+004
            1296    5.58731E+005    1.24975E+005   -4.82298E+005    1.00075E+004   -4.82298E+005    6.07272E+005    1.15772E+005   -5.31132E+005    1.23341E+005    6.69182E+003   -4.77348E+005   -4.82775E+003    3.07278E+004    4.04701E+004
            1297    5.50999E+005    1.20638E+005   -4.83129E+005   -7.46483E+003   -4.83129E+005    6.03766E+005    1.23319E+005   -5.15873E+005    1.19628E+005   -1.37281E+004   -4.75856E+005   -5.72366E+003    2.32989E+004    5.44686E+004
            1298    5.59175E+005    1.14372E+005   -5.00265E+005   -2.16516E+004   -5.00265E+005    6.14637E+005    1.35848E+005   -5.19959E+005    1.13359E+005   -2.75625E+004   -4.93340E+005   -6.67056E+003    2.27925E+004    5.33491E+004
            1299    2.94166E+005    2.50505E+005    2.50505E+005   -2.81394E+004   -5.70479E+004    3.07553E+005   -5.51058E+004    2.90944E+005   -2.81628E+004    3.09471E+004    1.62533E+005    1.94055E+003    1.11885E+003    1.38962E+005
            1300    3.05726E+005    2.56652E+005    2.56652E+005   -1.97537E+004   -7.17311E+004    3.28383E+005   -5.50556E+004    2.95539E+005   -1.97875E+004    4.29771E+004    1.41977E+005    4.17392E+003    1.97320E+003    1.56472E+005
            1301    3.27922E+005    2.58071E+005    2.58071E+005   -1.41865E+004   -1.05960E+005    3.64031E+005   -4.59749E+004    2.96903E+005   -1.42397E+004    3.52642E+004    1.16900E+005    7.36641E+003    2.31853E+003    1.77198E+005
            1302    3.44127E+005    2.53852E+005    2.53852E+005   -8.43719E+003   -1.35801E+005    3.89653E+005   -3.65378E+004    2.83308E+005   -8.47640E+003    2.70577E+004    9.10321E+004    1.08445E+004    2.55326E+003    1.91853E+005
            1303    3.32288E+005    2.43982E+005    2.43982E+005   -8.13443E+003   -1.32561E+005    3.76544E+005   -3.44289E+004    2.71927E+005   -8.30489E+003    1.91952E+004    9.23963E+004    1.09253E+004    1.67685E+003    1.84319E+005
            1304    3.20934E+005    2.36730E+005    2.36730E+005   -9.35408E+003   -1.26272E+005    3.63002E+005   -3.37013E+004    2.66270E+005   -9.90928E+003    1.25792E+004    9.84340E+004    1.11317E+004   -6.38339E+002    1.75896E+005
            1305    3.16178E+005    2.35105E+005    2.35105E+005   -9.03436E+003   -1.22051E+005    3.57156E+005   -3.46730E+004    2.64645E+005   -9.41570E+003    9.15175E+003    1.04283E+005    1.07219E+004    6.99813E+002    1.71718E+005
            1306    3.09941E+005    2.30643E+005    2.30643E+005   -1.09928E+004   -1.18807E+005    3.49450E+005   -3.36145E+004    2.62485E+005   -1.18118E+004    3.45703E+003    1.09198E+005    1.07249E+004   -2.04001E+003    1.66009E+005
            1307    3.09076E+005    2.34431E+005    2.34431E+005   -9.43600E+003   -1.13167E+005    3.47598E+005   -3.72762E+004    2.65449E+005   -1.00691E+004    2.61184E+003    1.19286E+005    1.02915E+004   -6.70429E+002    1.63254E+005
            1308    3.06900E+005    2.32387E+005    2.32387E+005   -1.27849E+004   -1.11797E+005    3.44183E+005   -3.59351E+004    2.67254E+005   -1.38907E+004   -4.99525E+003    1.26691E+005    9.76788E+003   -4.23106E+003    1.58383E+005
            1309    3.12945E+005    2.42752E+005    2.42752E+005   -1.06266E+004   -1.07060E+005    3.49812E+005   -4.16882E+004    2.76428E+005   -1.14922E+004   -4.92792E+003    1.41485E+005    8.70317E+003   -3.39921E+003    1.58358E+005
            1310    3.17389E+005    2.49261E+005    2.49261E+005   -1.33584E+004   -1.03428E+005    3.52689E+005   -4.41580E+004    2.86449E+005   -1.34959E+004    2.46168E+004    1.21353E+005    7.65311E+003    1.84279E+003    1.69364E+005
            1311    3.16209E+005    2.49421E+005    2.49421E+005   -1.46819E+004   -1.00976E+005    3.50398E+005   -4.45877E+004    2.87877E+005   -1.52706E+004    1.73468E+004    1.31687E+005    8.19319E+003   -1.26921E+003    1.65242E+005
            1312    3.10379E+005    2.47164E+005    2.47164E+005   -1.50653E+004   -9.55216E+004    3.42686E+005   -4.55257E+004    2.85470E+005   -1.54664E+004    1.22019E+004    1.39842E+005    7.71693E+003    3.34540E+002    1.58711E+005
            1313    3.09765E+005    2.50500E+005    2.50500E+005   -1.65706E+004   -8.90924E+004    3.39592E+005   -4.82789E+004    2.89726E+005   -1.75185E+004    9.75280E+003    1.52602E+005    7.67848E+003   -3.33050E+003    1.53513E+005
            1314    3.07383E+005    2.51308E+005    2.51308E+005   -1.67130E+004   -8.42158E+004    3.35524E+005   -5.01265E+004    2.89994E+005   -1.74586E+004    2.97496E+003    1.64863E+005    7.18822E+003   -1.84595E+003    1.46499E+005
            1315    3.13310E+005    2.59706E+005    2.59706E+005   -1.94417E+004   -7.91676E+004    3.38874E+005   -5.36991E+004    3.00099E+005   -2.07920E+004    6.86541E+002    1.81203E+005    6.55159E+003   -6.68160E+003    1.42567E+005
            1316    3.17524E+005    2.64997E+005    2.64997E+005   -2.00433E+004   -7.72366E+004    3.42234E+005   -5.59056E+004    3.05611E+005   -2.10319E+004   -8.27439E+003    1.97023E+005    5.48913E+003   -5.93256E+003    1.36255E+005
            1317    3.09826E+005    2.54767E+005    2.54767E+005   -1.99393E+004   -8.10653E+004    3.35833E+005   -5.12542E+004    2.95799E+005   -1.99734E+004    2.53294E+004    1.48407E+005    4.41479E+003    2.11166E+003    1.56145E+005
            1318    3.11546E+005    2.57815E+005    2.57815E+005   -2.23801E+004   -7.76772E+004    3.35492E+005   -5.25860E+004    3.00206E+005   -2.28423E+004    2.11677E+004    1.59433E+005    4.61913E+003   -2.14430E+003    1.52583E+005
            1319    3.08467E+005    2.61060E+005    2.61060E+005   -2.20428E+004   -6.76850E+004    3.28745E+005   -5.71108E+004    3.00729E+005   -2.22628E+004    2.02021E+004    1.73393E+005    3.86110E+003    7.71322E+001    1.45294E+005
            1320    3.08513E+005    2.62994E+005    2.62994E+005   -2.69527E+004   -6.12239E+004    3.24218E+005   -5.82725E+004    3.04186E+005   -2.77174E+004    1.36347E+004    1.88900E+005    3.22074E+003   -4.83736E+003    1.35896E+005
            1321    3.10829E+005    2.71865E+005    2.71865E+005   -2.57202E+004   -5.06994E+004    3.22565E+005   -6.51486E+004    3.08559E+005   -2.62481E+004    1.23994E+004    2.09294E+005    2.42664E+003   -3.29970E+003    1.27402E+005
            1322    3.20936E+005    2.78927E+005    2.78927E+005   -3.27306E+004   -5.05457E+004    3.29473E+005   -6.52169E+004    3.19821E+005   -3.41417E+004    1.32339E+003    2.28469E+005    1.44800E+003   -9.74206E+003    1.18040E+005
            1323    3.33719E+005    2.95455E+005    2.95455E+005   -3.17123E+004   -4.44500E+004    3.39905E+005   -7.30976E+004    3.33171E+005   -3.25616E+004   -8.51216E+001    2.51940E+005    2.73684E+002   -9.15815E+003    1.13078E+005
            1324    3.09631E+005    2.61227E+005    2.61227E+005   -2.66063E+004   -6.63614E+004    3.27589E+005   -5.60866E+004    3.03810E+005   -2.65872E+004    2.64510E+004    1.68396E+005    1.94847E+003    2.05529E+003    1.47600E+005
            1325    3.08211E+005    2.64798E+005    2.64798E+005   -2.98945E+004   -5.53515E+004    3.20150E+005   -5.98507E+004    3.05832E+005   -3.01365E+004    2.86311E+004    1.81058E+005    1.47336E+003   -2.41211E+003    1.40623E+005
            1326    3.04611E+005    2.67966E+005    2.67966E+005   -3.20034E+004   -4.10845E+004    3.09050E+005   -6.49592E+004    3.04306E+005   -3.21032E+004    2.81538E+004    1.98827E+005    3.56105E+002   -1.37345E+003    1.28760E+005
            1327    3.09177E+005    2.77800E+005    2.77800E+005   -2.48220E+004   -3.75407E+004    3.15340E+005   -7.18124E+004    3.08588E+005   -3.71856E+004    2.77128E+004    2.24910E+005   -8.11716E+002   -5.98743E+003    1.14869E+005
            1328    3.19911E+005    2.89118E+005    2.89118E+005   -2.01355E+004   -4.04790E+004    3.29597E+005   -7.61678E+004    3.18450E+005   -4.03441E+004    1.88861E+004    2.49961E+005   -1.90918E+003   -6.18395E+003    1.02675E+005
            1329    3.38617E+005    3.05799E+005    3.05799E+005   -1.45873E+004   -4.84978E+004    3.54297E+005   -8.09046E+004    3.34765E+005   -4.79907E+004    1.56453E+004    2.75059E+005   -2.87897E+003   -1.26048E+004    9.36428E+004
            1330    3.57067E+005    3.21035E+005    3.21035E+005   -1.63277E+004   -5.29184E+004    3.73954E+005   -8.39297E+004    3.52812E+005   -5.23399E+004    5.53398E+003    2.98595E+005   -3.99501E+003   -1.41208E+004    8.29783E+004
            1331    3.93217E+005    3.53744E+005    3.53744E+005    1.28366E+004   -7.64334E+004    4.30178E+005   -9.67158E+004    3.69371E+005   -7.53053E+004    2.22725E+004    3.43180E+005   -6.34613E+003   -2.03173E+004    5.61078E+004
            1332    3.65717E+005    3.30948E+005    3.30948E+005    9.00238E+003   -6.66946E+004    3.97642E+005   -9.10852E+004    3.47430E+005   -6.59691E+004    2.32648E+004    3.15960E+005   -6.26403E+003   -1.44515E+004    6.64668E+004
            1333    3.38096E+005    3.10623E+005    3.10623E+005    1.11293E+004   -5.60017E+004    3.66625E+005   -8.85837E+004    3.22586E+005   -5.55550E+004    3.37507E+004    2.87555E+005   -5.83628E+003   -9.44432E+003    7.93313E+004
            1334    3.17704E+005    2.91223E+005    2.91223E+005    1.21026E+003   -4.83481E+004    3.39571E+005   -8.13618E+004    3.08828E+005   -4.80856E+004    3.65077E+004    2.55663E+005   -4.69821E+003   -5.94516E+003    9.49378E+004
            1335    3.03806E+005    2.76690E+005    2.76690E+005   -1.13415E+004   -4.07515E+004    3.17441E+005   -7.48656E+004    3.00578E+005   -4.06043E+004    4.14558E+004    2.23745E+005   -3.24736E+003   -2.93955E+003    1.11533E+005
            1336    3.05347E+005    2.66003E+005    2.66003E+005   -3.79285E+004   -4.07386E+004    3.06742E+005   -6.24455E+004    3.05318E+005   -3.80174E+004    3.23264E+004    1.93027E+005   -1.39037E+003   -1.41611E+003    1.30572E+005
            1337    3.03890E+005    2.55601E+005    2.55601E+005   -3.52301E+004   -5.98498E+004    3.15451E+005   -5.35071E+004    3.01634E+005   -3.52356E+004    1.97805E+004    1.75977E+005    1.45441E+002    1.23925E+003    1.37025E+005
            1338    3.66718E+005    5.86925E+004   -3.31355E+005    6.42630E+003   -3.31355E+005    3.90047E+005    8.87453E+004   -3.58195E+005    5.79495E+004   -1.22472E+004   -3.11938E+005   -4.86532E+003    1.61239E+004    7.71399E+004
            1339    3.41479E+005    4.27703E+004   -3.04541E+005    3.07900E+004   -3.04541E+005    3.47312E+005    7.69936E+004   -3.41006E+005    4.22143E+004   -5.45268E+002   -2.72650E+005   -2.18273E+003    1.14236E+004    9.78056E+004
            1340    3.28393E+005    5.45172E+004   -2.86886E+005    2.67313E+004   -2.86886E+005    3.41403E+005    6.85457E+004   -3.25732E+005    2.77516E+004    2.83371E+003   -2.36222E+005    2.64024E+003    8.04531E+003    1.20970E+005
            1341    3.15811E+005    8.15175E+004   -2.60771E+005    1.93014E+004   -2.60771E+005    3.42288E+005    5.33174E+004   -3.01556E+005    2.02800E+004    7.29217E+003   -1.87524E+005    5.82709E+003    5.73299E+003    1.40099E+005
            1342    3.11054E+005    1.05818E+005   -2.41694E+005    1.06806E+004   -2.41694E+005    3.47512E+005    4.17320E+004   -2.75350E+005    1.16931E+004    6.19424E+003   -1.43083E+005    9.16933E+003    3.85494E+003    1.56336E+005
            1343    3.07177E+005    1.35035E+005   -2.15435E+005    7.08825E+003   -2.15435E+005    3.50470E+005    2.44371E+004   -2.34910E+005    7.81971E+003    6.06409E+003   -8.71951E+004    1.11370E+004    2.39351E+003    1.68429E+005
            1344    3.04246E+005    1.57977E+005   -1.92635E+005    1.87875E+003   -1.92635E+005    3.50612E+005    1.09264E+004   -1.74412E+005    2.22185E+003    1.27707E+003   -3.62782E+004    1.21549E+004    1.11777E+003    1.73850E+005
            1345    3.07061E+005    1.89407E+005    1.89407E+005   -8.89588E+002   -1.64831E+005    3.54237E+005   -7.89549E+003    1.54922E+005   -1.02845E+003    3.48678E+002    2.43662E+004    1.21922E+004   -1.29527E+002    1.76285E+005
            1346    3.05069E+005    2.10702E+005    2.10702E+005   -5.73463E+003   -1.38209E+005    3.48912E+005   -2.22528E+004    2.25228E+005   -6.32852E+003   -6.06340E+003    7.91503E+004    1.14202E+004   -1.51806E+003    1.68706E+005
            1347    3.41803E+005    5.25540E+004   -3.08756E+005    9.45007E+003   -3.08756E+005    3.61310E+005    8.22507E+004   -3.35606E+005    5.20903E+004   -1.58512E+004   -2.82991E+005   -3.70222E+003    1.23931E+004    8.60183E+004
            1348    3.28413E+005    4.07369E+004   -2.91743E+005    3.24471E+004   -2.91743E+005    3.32480E+005    7.28529E+004   -3.28178E+005    3.89887E+004   -8.01661E+003   -2.49531E+005   -6.18497E+002    1.03881E+004    1.08994E+005
            1349    3.14898E+005    6.11548E+004   -2.69433E+005    2.69891E+004   -2.69433E+005    3.30588E+005    6.04298E+004   -3.10687E+005    2.84206E+004   -1.02499E+003   -2.08685E+005    3.95950E+003    8.18518E+003    1.27552E+005
            1350    3.11302E+005    8.57738E+004   -2.53938E+005    1.76833E+004   -2.53938E+005    3.39712E+005    5.01603E+004   -2.93839E+005    1.89016E+004    8.11125E+002   -1.70194E+005    7.20000E+003    5.63504E+003    1.46054E+005
            1351    3.07150E+005    1.13772E+005   -2.31484E+005    1.14269E+004   -2.31484E+005    3.45256E+005    3.54283E+004   -2.64493E+005    1.25081E+004    3.85514E+003   -1.22648E+005    1.03176E+004    3.69680E+003    1.60008E+005
            1352    3.06120E+005    1.36616E+005   -2.13207E+005    5.60291E+003   -2.13207E+005    3.49824E+005    2.36627E+004   -2.28960E+005    6.35098E+003    1.56788E+003   -7.89069E+004    1.22602E+004    2.05747E+003    1.69668E+005
            1353    3.06944E+005    1.64846E+005   -1.89177E+005    2.52361E+003   -1.89177E+005    3.54023E+005    7.26904E+003   -1.60559E+005    2.77327E+003    2.23767E+003   -2.68181E+004    1.31617E+004    5.70304E+002    1.75911E+005
            1354    3.04882E+005    1.85341E+005    1.85341E+005   -2.65029E+003   -1.66429E+005    3.51770E+005   -5.42043E+003    1.49908E+005   -2.91184E+003   -2.01868E+003    2.11918E+004    1.32040E+004   -8.32729E+002    1.74993E+005
            1355    3.08273E+005    2.13486E+005    2.13486E+005   -5.37077E+003   -1.39065E+005    3.52551E+005   -2.30170E+004    2.27863E+005   -6.15096E+003   -1.04134E+003    7.62432E+004    1.23195E+004   -2.42459E+003    1.71431E+005
            1356    3.23059E+005    4.31129E+004   -2.94107E+005    1.26312E+004   -2.94107E+005    3.37219E+005    7.94542E+004   -3.19800E+005    4.29448E+004   -2.43417E+004   -2.56966E+005   -2.71497E+003    7.01185E+003    9.98394E+004
            1357    3.11871E+005    4.06407E+004   -2.75770E+005    3.13539E+004   -2.75770E+005    3.16411E+005    6.79253E+004   -3.11560E+005    3.18648E+004   -1.34918E+004   -2.22149E+005    5.37352E+002    4.14225E+003    1.18536E+005
            1358    3.09177E+005    6.59428E+004   -2.63493E+005    2.03664E+004   -2.63493E+005    3.29436E+005    5.90612E+004   -3.01480E+005    2.10766E+004   -9.13420E+003   -1.89126E+005    5.08396E+003    2.46765E+003    1.37535E+005
            1359    3.06998E+005    9.37587E+004   -2.44992E+005    1.48487E+004   -2.44992E+005    3.38751E+005    4.54614E+004   -2.82799E+005    1.55660E+004   -3.29450E+003   -1.48656E+005    8.21213E+003    1.39827E+003    1.52548E+005
            1360    3.08422E+005    1.18265E+005   -2.30072E+005    8.28660E+003   -2.30072E+005    3.48337E+005    3.45066E+004   -2.58433E+005    8.96596E+003   -2.02614E+003   -1.10460E+005    1.10756E+004    8.45772E+002    1.65009E+005
            1361    3.09313E+005    1.45286E+005   -2.09266E+005    5.34357E+003   -2.09266E+005    3.54552E+005    1.95456E+004   -2.19028E+005    5.81344E+003    6.95840E+002   -6.51462E+004    1.29357E+004    4.94133E+002    1.73660E+005
            1362    3.08617E+005    1.66295E+005   -1.89752E+005    1.19929E+003   -1.89752E+005    3.56047E+005    7.41931E+003   -1.54463E+005    1.39662E+003   -7.87051E+002   -2.28675E+004    1.36908E+004    3.44597E+002    1.77145E+005
            1363    3.10485E+005    1.92449E+005    1.92449E+005   -1.25389E+003   -1.65670E+005    3.58119E+005   -8.50847E+003    1.61629E+005   -1.38166E+003    1.29096E+003    2.56161E+004    1.37022E+004    2.04862E+002    1.78114E+005
            1364    3.07385E+005    2.10297E+005    2.10297E+005   -5.22364E+003   -1.41694E+005    3.51991E+005   -2.11267E+004    2.22106E+005   -5.65509E+003   -1.18808E+003    7.02233E+004    1.27169E+004   -9.24941E+001    1.71816E+005
            1365    3.08900E+005    3.85473E+004   -2.77926E+005    2.27982E+004   -2.77926E+005    3.16473E+005    7.21935E+004   -3.07995E+005    3.83936E+004   -2.80101E+004   -2.26964E+005   -1.22966E+003    5.20775E+003    1.12739E+005
            1366    3.08519E+005    5.03287E+004   -2.68431E+005    2.87103E+004   -2.68431E+005    3.18759E+005    6.31306E+004   -3.06808E+005    2.93929E+004   -1.99956E+004   -1.98789E+005    1.99194E+003    4.49319E+003    1.31497E+005
            1367    3.07500E+005    7.79719E+004   -2.54205E+005    2.05138E+004   -2.54205E+005    3.32177E+005    5.19063E+004   -2.95058E+005    2.14204E+004   -1.18312E+004   -1.65308E+005    6.13066E+003    3.69910E+003    1.46786E+005
            1368    3.10659E+005    1.02722E+005   -2.42780E+005    1.35172E+004   -2.42780E+005    3.45503E+005    4.21802E+004   -2.79592E+005    1.43719E+004   -8.52005E+003   -1.32392E+005    9.15452E+003    2.37449E+003    1.60765E+005
            1369    3.12539E+005    1.29337E+005   -2.25562E+005    8.59353E+003   -2.25562E+005    3.54899E+005    2.92105E+004   -2.51394E+005    9.30981E+003   -3.34104E+003   -9.36001E+004    1.17250E+004    1.49968E+003    1.71087E+005
            1370    3.14027E+005    1.50801E+005   -2.09730E+005    4.09134E+003   -2.09730E+005    3.60531E+005    1.82790E+004   -2.13822E+005    4.56111E+003   -2.83803E+003   -5.65601E+004    1.34833E+004    7.52451E+002    1.77696E+005
            1371    3.15646E+005    1.75280E+005   -1.89068E+005    1.49903E+003   -1.89068E+005    3.64348E+005    4.09622E+003   -1.35834E+005    1.60988E+003    5.82727E+002   -1.44812E+004    1.41056E+004    9.16314E+001    1.81468E+005
            1372    3.13498E+005    1.93327E+005    1.93327E+005   -2.50294E+003   -1.68253E+005    3.61579E+005   -7.52362E+003    1.64122E+005   -2.75459E+003   -8.43481E+001    2.54098E+004    1.40887E+004   -5.08352E+002    1.79777E+005
            1373    3.14241E+005    2.15577E+005    2.15577E+005   -5.10117E+003   -1.44208E+005    3.59785E+005   -2.20891E+004    2.27734E+005   -5.69525E+003    3.26903E+003    6.86935E+004    1.29815E+004   -1.23586E+003    1.76343E+005
            1374    3.04963E+005    3.64585E+004   -2.70917E+005    3.15760E+004   -2.70917E+005    3.07375E+005    6.76275E+004   -3.04876E+005    3.17316E+004   -3.28887E+004   -2.01725E+005    5.89665E+001    1.73910E+003    1.28325E+005
            1375    3.06436E+005    6.29924E+004   -2.60938E+005    2.43346E+004   -2.60938E+005    3.23931E+005    5.78704E+004   -3.00877E+005    2.45132E+004   -2.27496E+004   -1.75375E+005    3.04903E+003    1.17737E+002    1.42751E+005
            1376    3.11274E+005    8.77528E+004   -2.53058E+005    1.62296E+004   -2.53058E+005    3.40811E+005    4.96919E+004   -2.91915E+005    1.65667E+004   -1.71447E+004   -1.48498E+005    6.75680E+003   -5.06562E+002    1.56988E+005
            1377    3.15377E+005    1.13948E+005   -2.39883E+005    1.16336E+004   -2.39883E+005    3.53831E+005    3.81005E+004   -2.74127E+005    1.20178E+004   -1.06593E+004   -1.15660E+005    9.76627E+003   -7.06194E+002    1.68577E+005
            1378    3.19362E+005    1.36736E+005   -2.27167E+005    6.48957E+003   -2.27167E+005    3.63903E+005    2.79806E+004   -2.48080E+005    6.84915E+003   -7.52237E+003   -8.32685E+004    1.21838E+004   -5.66983E+002    1.77495E+005
            1379    3.22500E+005    1.61090E+005   -2.09877E+005    3.78567E+003   -2.09877E+005    3.70967E+005    1.50004E+004   -2.05694E+005    4.02795E+003   -2.88501E+003   -4.61442E+004    1.39151E+004   -3.08234E+002    1.83673E+005
            1380    3.22422E+005    1.80246E+005   -1.91982E+005    4.67690E+002   -1.91982E+005    3.72229E+005    3.75617E+003   -1.25463E+005    5.43146E+002   -1.39034E+003   -1.04213E+004    1.44758E+004    5.82751E+001    1.85494E+005
            1381    3.22825E+005    2.01893E+005    2.01893E+005   -1.69706E+003   -1.70327E+005    3.72219E+005   -9.95631E+003    1.75913E+005   -1.81306E+003    3.13380E+003    2.85482E+004    1.43069E+004    4.21661E+002    1.85117E+005
            1382    3.18325E+005    2.16942E+005    2.16942E+005   -5.19679E+003   -1.47744E+005    3.64687E+005   -2.13338E+004    2.27956E+005   -5.48045E+003    4.13415E+003    6.53476E+004    1.29875E+004    6.38926E+002    1.79254E+005
            1383    3.06698E+005    5.39937E+004   -2.64378E+005    2.91341E+004   -2.64378E+005    3.18372E+005    6.04166E+004   -3.04419E+005    2.92926E+004   -3.15969E+004   -1.78946E+005    1.40641E+003    1.50961E+003    1.41020E+005
            1384    3.12257E+005    7.54480E+004   -2.60004E+005    2.22153E+004   -2.60004E+005    3.35452E+005    5.41134E+004   -3.01794E+005    2.26219E+004   -2.57569E+004   -1.59205E+005    4.45224E+003    1.70063E+003    1.53657E+005
            1385    3.17490E+005    9.97726E+004   -2.51188E+005    1.60500E+004   -2.51188E+005    3.50961E+005    4.51219E+004   -2.91059E+005    1.66068E+004   -1.87615E+004   -1.33211E+005    7.73700E+003    1.31650E+003    1.65547E+005
            1386    3.23577E+005    1.22395E+005   -2.42360E+005    1.01397E+004   -2.42360E+005    3.64755E+005    3.66085E+004   -2.74336E+005    1.06923E+004   -1.46908E+004   -1.05827E+005    1.06208E+004    6.58750E+002    1.76162E+005
            1387    3.28618E+005    1.46930E+005   -2.28617E+005    6.20533E+003   -2.28617E+005    3.75547E+005    2.51605E+004   -2.45663E+005    6.65299E+003   -9.04289E+003   -7.30915E+004    1.29300E+004    3.01954E+002    1.84512E+005
            1388    3.32062E+005    1.68109E+005   -2.14174E+005    2.66750E+003   -2.14174E+005    3.82283E+005    1.44658E+004   -2.03550E+005    2.93785E+003   -5.79586E+003   -4.05395E+004    1.45448E+004    9.00421E+001    1.89775E+005
            1389    3.34142E+005    1.90303E+005   -1.95513E+005    5.66686E+002   -1.95513E+005    3.85816E+005    1.54775E+003   -1.02032E+005    5.96371E+002   -1.03110E+002   -5.13650E+003    1.51045E+004   -3.50377E+001    1.92299E+005
            1390    3.31609E+005    2.07160E+005    2.07160E+005   -2.27709E+003   -1.75167E+005    3.82328E+005   -9.90525E+003    1.81752E+005   -2.48754E+003    3.09912E+003    2.91042E+004    1.48035E+004   -1.23536E+002    1.90135E+005
            1391    3.29188E+005    2.25146E+005    2.25146E+005   -4.77451E+003   -1.51954E+005    3.77100E+005   -2.28056E+004    2.36130E+005   -5.19194E+003    8.94450E+003    6.46644E+004    1.34055E+004   -3.12179E+002    1.85951E+005
            1392    3.09578E+005    6.54895E+004   -2.61822E+005    2.62883E+004   -2.61822E+005    3.27311E+005    5.66812E+004   -3.03918E+005    2.62742E+004   -3.18836E+004   -1.64434E+005    1.96256E+003   -1.86955E+003    1.49617E+005
            1393    3.15756E+005    8.58423E+004   -2.57498E+005    2.04265E+004   -2.57498E+005    3.43340E+005    5.04096E+004   -2.99936E+005    2.04331E+004   -2.64595E+004   -1.45202E+005    4.37683E+003   -2.35058E+003    1.60998E+005
            1394    3.22220E+005    1.06180E+005   -2.52144E+005    1.37864E+004   -2.52144E+005    3.58324E+005    4.40592E+004   -2.90097E+005    1.38736E+004   -2.31480E+004   -1.22903E+005    7.56428E+003   -2.25856E+003    1.71876E+005
            1395    3.31659E+005    1.30934E+005   -2.44463E+005    8.84851E+003   -2.44463E+005    3.75398E+005    3.48936E+004   -2.73783E+005    8.99031E+003   -1.90682E+004   -9.46029E+004    1.07298E+004   -1.94256E+003    1.83511E+005
            1396    3.41293E+005    1.55336E+005   -2.35370E+005    4.62046E+003   -2.35370E+005    3.90706E+005    2.51376E+004   -2.47942E+005    4.77090E+003   -1.38905E+004   -6.62932E+004    1.33766E+004   -1.41565E+003    1.93103E+005
            1397    3.47007E+005    1.79510E+005   -2.20325E+005    2.24202E+003   -2.20325E+005    3.99835E+005    1.28579E+004   -2.01124E+005    2.34305E+003   -6.25120E+003   -3.46656E+004    1.52089E+004   -7.57252E+002    1.98824E+005
            1398    3.47569E+005    1.98993E+005   -2.02340E+005    6.79633E+001   -2.02340E+005    4.01333E+005    1.09294E+003   -8.57746E+004    8.48461E+001   -7.77319E+002   -2.58634E+003    1.58390E+004    1.52090E+000    2.00038E+005
            1399    3.47068E+005    2.18460E+005    2.18460E+005   -1.55987E+003   -1.81636E+005    4.00096E+005   -1.17549E+004    1.92968E+005   -1.63875E+003    6.27433E+003    3.06290E+004    1.53086E+004    7.28667E+002    1.99084E+005
            1400    3.40645E+005    2.32008E+005    2.32008E+005   -4.39786E+003   -1.58451E+005    3.90459E+005   -2.30531E+004    2.41329E+005   -4.54553E+003    1.18795E+004    6.18253E+004    1.35719E+004    1.31187E+003    1.93129E+005
            1401    3.58515E+005    2.46397E+005    2.46397E+005   -3.88980E+003   -1.64317E+005    4.10714E+005   -2.60637E+004    2.56938E+005   -3.92761E+003    1.93387E+004    6.27801E+004    1.38735E+004    2.01961E+003    2.03719E+005
            1402    3.66363E+005    2.32159E+005    2.32159E+005   -1.26028E+003   -1.90096E+005    4.22255E+005   -1.36011E+004    2.07483E+005   -1.27134E+003    9.88292E+003    3.21917E+004    1.59602E+004    1.20001E+003    2.10224E+005
            1403    3.69625E+005    2.13281E+005   -2.13525E+005    1.18465E+002   -2.13525E+005    4.26806E+005    4.16302E+001   -4.61712E+004    1.13277E+002   -1.69189E+002   -6.89786E+001    1.66577E+004   -4.04700E+001    2.12752E+005
            1404    3.66510E+005    1.88919E+005   -2.33424E+005    1.18468E+003   -2.33424E+005    4.22343E+005    1.44403E+004   -2.10997E+005    1.20541E+003   -1.11765E+004   -3.33499E+004    1.59453E+004   -1.17659E+003    2.10272E+005
            1405    3.58012E+005    1.63707E+005   -2.46339E+005    4.17665E+003   -2.46339E+005    4.10046E+005    2.61519E+004   -2.57713E+005    4.20256E+003   -1.94976E+004   -6.31606E+004    1.38656E+004   -2.13190E+003    2.03371E+005
            1406    3.44672E+005    1.35475E+005   -2.54745E+005    8.15101E+003   -2.54745E+005    3.90220E+005    3.70395E+004   -2.84026E+005    8.19472E+003   -2.80426E+004   -9.12707E+004    1.09655E+004   -2.54608E+003    1.92194E+005
            1407    3.26105E+005    1.06259E+005   -2.56032E+005    1.40116E+004   -2.56032E+005    3.62292E+005    4.52538E+004   -2.94535E+005    1.40557E+004   -3.41028E+004   -1.15714E+005    7.63682E+003   -2.51650E+003    1.76296E+005
            1408    3.11044E+005    8.22433E+004   -2.54989E+005    2.06514E+004   -2.54989E+005    3.37232E+005    5.06981E+004   -2.96855E+005    2.06908E+004   -3.17912E+004   -1.40994E+005    4.81709E+003   -2.16798E+003    1.59430E+005
            1409    3.11605E+005    7.22756E+004   -2.59263E+005    2.75837E+004   -2.59263E+005    3.31538E+005    5.31344E+004   -3.04269E+005    2.76172E+004   -2.70931E+004   -1.59927E+005    2.44305E+003   -1.00608E+003    1.51846E+005
            1410    3.95545E+005    7.95104E+004   -3.53492E+005   -1.11415E+004   -3.53492E+005    4.33002E+005    9.50409E+004   -3.71077E+005    7.83395E+004   -1.93582E+004   -3.44104E+005   -6.59845E+003    2.05151E+004    5.26980E+004
            1411    3.66794E+005    6.76639E+004   -3.32705E+005   -1.28703E+004   -3.32705E+005    4.00369E+005    9.26372E+004   -3.46053E+005    6.69096E+004   -2.70398E+004   -3.17781E+005   -6.59951E+003    1.46007E+004    6.60695E+004
            1412    3.37341E+005    5.74656E+004   -3.08420E+005   -9.74048E+003   -3.08420E+005    3.65886E+005    8.68983E+004   -3.21758E+005    5.69940E+004   -3.21509E+004   -2.85538E+005   -6.11548E+003    9.23895E+003    7.89323E+004
            1413    3.16946E+005    4.80728E+004   -2.91128E+005   -2.52290E+003   -2.91128E+005    3.39201E+005    8.18593E+004   -3.07663E+005    4.77947E+004   -3.95488E+004   -2.53824E+005   -4.93517E+003    5.60062E+003    9.66601E+004
            1414    3.04493E+005    4.07385E+004   -2.76050E+005    1.44404E+004   -2.76050E+005    3.16789E+005    7.36238E+004   -3.01922E+005    4.05681E+004   -4.05484E+004   -2.20891E+005   -3.27315E+003    2.60298E+003    1.13917E+005
            1415    3.05013E+005    3.63734E+004   -2.69508E+005    3.46280E+004   -2.69508E+005    3.05882E+005    6.61690E+004   -3.05002E+005    3.51996E+004   -3.94822E+004   -1.94224E+005   -1.43377E+003    8.51681E+002    1.31587E+005
            1416    3.08647E+005    5.59333E+004   -2.64259E+005    3.13763E+004   -2.64259E+005    3.20192E+005    5.89830E+004   -3.06438E+005    3.13747E+004   -3.30596E+004   -1.75264E+005    3.28105E+002   -8.27439E+002    1.43439E+005
            1417    3.87844E+005    3.45620E+005    3.45620E+005   -1.18858E+004   -6.67247E+004    4.12345E+005   -8.90033E+004    3.78975E+005   -6.60375E+004    5.30851E+003    3.27739E+005   -3.96605E+003   -1.63283E+004    7.64209E+004
            1418    3.54664E+005    3.09253E+005    3.09253E+005   -4.21747E+004   -4.85609E+004    3.57814E+005   -7.28391E+004    3.54535E+005   -4.70824E+004   -9.33654E+003    2.74936E+005   -1.29391E+003   -1.17422E+004    1.03926E+005
            1419    3.35307E+005    2.82644E+005    2.82644E+005   -2.98540E+004   -7.15682E+004    3.54212E+005   -6.04072E+004    3.29393E+005   -3.02380E+004   -8.84924E+003    2.20309E+005    1.27035E+003   -8.65498E+003    1.34572E+005
            1420    3.13964E+005    2.44092E+005    2.44092E+005   -1.91408E+004   -1.03405E+005    3.47497E+005   -4.05156E+004    2.86823E+005   -1.96561E+004   -1.20141E+004    1.53217E+005    4.48463E+003   -5.60263E+003    1.52530E+005
            1421    4.17099E+005    3.63267E+005    3.63267E+005   -2.02025E+004   -8.08268E+004    4.44094E+005   -8.74126E+004    4.07010E+005   -7.95272E+004   -8.64418E+003    3.50409E+005   -4.45796E+003   -2.35593E+004    6.54538E+004
            1422    3.84223E+005    3.35554E+005    3.35554E+005   -4.00720E+004   -5.67235E+004    3.92278E+005   -7.95862E+004    3.83409E+005   -5.51369E+004   -9.40743E+003    3.03303E+005   -2.83845E+003   -1.99410E+004    1.03651E+005
            1423    3.49260E+005    2.91805E+005    2.91805E+005   -3.89022E+004   -7.34413E+004    3.65247E+005   -5.98206E+004    3.45387E+005   -3.89946E+004   -1.89535E+004    2.37410E+005   -9.57873E+002   -1.50054E+004    1.29155E+005
            1424    3.31688E+005    2.63015E+005    2.63015E+005   -2.22259E+004   -1.00954E+005    3.63969E+005   -4.66118E+004    3.09602E+005   -2.25996E+004   -1.14348E+004    1.73870E+005    1.99798E+003   -1.02617E+004    1.56160E+005
            1425    4.49835E+005    3.98331E+005    3.98331E+005   -1.56918E+004   -8.03233E+004    4.78655E+005   -1.00772E+005    4.39206E+005   -7.92793E+004   -4.76691E+003    3.86363E+005   -5.26062E+003   -2.12592E+004    6.64184E+004
            1426    4.07004E+005    3.54752E+005    3.54752E+005   -4.34113E+004   -6.05524E+004    4.15304E+005   -8.35960E+004    4.06191E+005   -5.97801E+004   -1.75915E+004    3.28160E+005   -4.37591E+003   -1.73259E+004    9.79523E+004
            1427    3.78665E+005    3.24154E+005    3.24154E+005   -4.04505E+004   -6.71585E+004    3.91312E+005   -7.21816E+004    3.76537E+005   -3.99681E+004   -1.42798E+004    2.70793E+005   -3.76381E+003   -1.45312E+004    1.33494E+005
            1428    3.42323E+005    2.73656E+005    2.73656E+005   -2.73471E+004   -9.87312E+004    3.72387E+005   -4.91925E+004    3.24939E+005   -2.72145E+004   -1.65688E+004    1.91361E+005   -1.37782E+003   -1.04064E+004    1.54157E+005
            1429    4.79326E+005    4.15675E+005    4.15675E+005   -2.64195E+004   -9.37599E+004    5.09435E+005   -9.84986E+004    4.68506E+005   -9.22305E+004   -1.77604E+004    4.05487E+005   -5.61845E+003   -2.69177E+004    6.13234E+004
            1430    4.43250E+005    3.89769E+005    3.89769E+005   -3.80516E+004   -6.74483E+004    4.57217E+005   -9.47562E+004    4.41049E+005   -6.60998E+004   -1.05546E+004    3.60923E+005   -6.05451E+003   -2.40256E+004    1.04745E+005
            1431    3.93443E+005    3.34458E+005    3.34458E+005   -5.10704E+004   -6.64472E+004    4.00906E+005   -7.23136E+004    3.92766E+005   -5.00181E+004   -1.91082E+004    2.86067E+005   -6.61177E+003   -1.90842E+004    1.29168E+005
            1432    3.68582E+005    3.02930E+005    3.02930E+005   -3.13015E+004   -9.23740E+004    3.95304E+005   -5.97514E+004    3.56931E+005   -3.07167E+004   -1.23757E+004    2.22347E+005   -5.03319E+003   -1.37086E+004    1.58616E+005
            1433    5.17342E+005    4.65429E+005    4.65429E+005   -1.32818E+004   -8.33922E+004    5.48822E+005   -1.22918E+005    5.06488E+005   -8.25236E+004   -6.36385E+002    4.51915E+005   -6.35545E+003   -1.92019E+004    7.71325E+004
            1434    4.59482E+005    4.05678E+005    4.05678E+005   -3.34067E+004   -7.17924E+004    4.77471E+005   -1.00160E+005    4.55854E+005   -7.07438E+004   -7.84193E+003    3.79065E+005   -7.70674E+003   -1.82745E+004    1.03203E+005
            1435    4.26516E+005    3.74331E+005    3.74331E+005   -4.82798E+004   -5.59858E+004    4.30317E+005   -9.00219E+004    4.26360E+005   -5.09400E+004   -5.93870E+003    3.26944E+005   -1.02527E+004   -1.76465E+004    1.32728E+005
            1436    3.84401E+005    3.20381E+005    3.20381E+005   -3.69785E+004   -8.63000E+004    4.06681E+005   -6.57009E+004    3.77184E+005   -3.64170E+004   -1.30221E+004    2.46542E+005   -9.54141E+003   -1.34335E+004    1.55945E+005
            1437    5.16268E+005    4.57657E+005    4.57657E+005   -1.27771E+004   -9.46571E+004    5.52315E+005   -1.16741E+005    5.01346E+005   -9.34104E+004    1.49648E+003    4.42137E+005   -7.26090E+003   -2.42009E+004    8.08817E+004
            1438    4.78859E+005    4.34366E+005    4.34366E+005   -1.15503E+004   -7.17432E+004    5.06110E+005   -1.17024E+005    4.70235E+005   -7.07537E+004    1.29596E+004    4.08867E+005   -7.92138E+003   -1.89646E+004    1.01891E+005
            1439    4.44458E+005    3.91998E+005    3.91998E+005   -4.22708E+004   -6.19920E+004    4.53990E+005   -9.59118E+004    4.43472E+005   -5.92231E+004   -3.72331E+003    3.50682E+005   -1.14069E+004   -1.61676E+004    1.26512E+005
            1440    4.14924E+005    3.60179E+005    3.60179E+005   -3.79644E+004   -6.97018E+004    4.29881E+005   -8.41711E+004    4.12180E+005   -3.87944E+004    1.38112E+003    2.89927E+005   -1.28515E+004   -1.23764E+004    1.57842E+005
            1441    5.19401E+005    4.83530E+005    4.83530E+005    2.72579E+004   -8.17103E+004    5.65241E+005   -1.43026E+005    4.92689E+005   -8.09304E+004    4.20889E+004    4.67919E+005   -9.02363E+003   -1.37496E+004    8.18853E+004
            1442    4.99834E+005    4.51925E+005    4.51925E+005   -9.97077E+003   -7.87280E+004    5.30653E+005   -1.21076E+005    4.89025E+005   -7.71605E+004    8.26468E+003    4.32122E+005   -1.16666E+004   -1.35064E+004    9.25882E+004
            1443    4.69744E+005    4.33660E+005    4.33660E+005   -1.25916E+004   -5.64939E+004    4.90154E+005   -1.21525E+005    4.65095E+005   -5.40736E+004    2.36716E+004    3.94977E+005   -1.29121E+004   -1.08305E+004    1.25205E+005
            1444    4.26591E+005    3.84743E+005    3.84743E+005   -2.96602E+004   -5.30718E+004    4.37815E+005   -1.00670E+005    4.25142E+005   -3.94584E+004    1.71004E+004    3.24369E+005   -1.56777E+004   -7.79703E+003    1.48401E+005
            1445    4.41689E+005    4.35742E+005    4.35742E+005    2.67476E+004   -3.26330E+004    4.68375E+005   -1.43286E+005    4.32572E+005   -2.94923E+004    7.81912E+004    3.81158E+005   -1.47397E+004   -1.79607E+003    1.39545E+005
            1446    4.84787E+005    4.63589E+005    4.63589E+005    2.48844E+004   -5.68818E+004    5.20471E+005   -1.43864E+005    4.68896E+005   -5.54766E+004    5.68950E+004    4.30173E+005   -1.18567E+004   -4.22853E+003    1.16381E+005
            1447    5.30096E+005    4.95936E+005    4.95936E+005    1.97360E+004   -7.52210E+004    5.71157E+005   -1.46817E+005    5.10433E+005   -7.44781E+004    4.62331E+004    4.68696E+005   -9.48001E+003   -7.47115E+003    1.10337E+005
            1448    5.70219E+005    5.04285E+005    5.04285E+005   -2.58732E+004   -9.89496E+004    6.03235E+005   -1.26487E+005    5.59539E+005   -9.84035E+004   -1.47028E+004    4.92568E+005   -6.13269E+003   -1.28078E+004    7.69328E+004
            1449    4.29958E+005    3.78410E+005    3.78410E+005    9.71013E+003   -9.38805E+004    4.72290E+005   -9.80798E+004    4.00411E+005   -9.27811E+004    1.51105E+004    3.71910E+005   -4.43785E+003   -2.20866E+004    4.43451E+004
            1450    4.59984E+005    4.04339E+005    4.04339E+005    1.37123E+004   -1.02653E+005    5.06992E+005   -1.05133E+005    4.24933E+005   -1.01313E+005    1.72438E+004    3.99467E+005   -4.08948E+003   -2.55350E+004    3.70296E+004
            1451    4.90266E+005    4.22708E+005    4.22708E+005   -1.80817E+003   -1.13896E+005    5.36604E+005   -1.02335E+005    4.60093E+005   -1.12515E+005   -4.83033E+002    4.20002E+005   -3.82823E+003   -2.65434E+004    2.40635E+004
            1452    5.25833E+005    4.60240E+005    4.60240E+005    1.49623E+003   -1.13612E+005    5.73852E+005   -1.16041E+005    4.96284E+005   -1.12449E+005    3.69982E+003    4.56874E+005   -3.77994E+003   -2.52084E+004    3.19289E+004
            1453    5.43786E+005    4.75433E+005    4.75433E+005   -6.49642E+003   -1.14116E+005    5.89549E+005   -1.18273E+005    5.19008E+005   -1.13252E+005   -4.79287E+003    4.72865E+005   -4.01203E+003   -2.14481E+004    2.91420E+004
            1454    5.88689E+005    5.41050E+005    5.41050E+005    1.83306E+004   -9.66446E+004    6.37695E+005   -1.54245E+005    5.62590E+005   -9.60699E+004    2.51444E+004    5.33662E+005   -3.94322E+003   -1.83187E+004    5.93832E+004
            1455    5.61232E+005    5.22094E+005    5.22094E+005    3.80414E+004   -9.30964E+004    6.15190E+005   -1.55680E+005    5.25075E+005   -9.26938E+004    4.73573E+004    5.12375E+005   -5.49380E+003   -1.29919E+004    6.68385E+004
            1456    3.78685E+005    3.65011E+005    3.65011E+005    2.37710E+003   -2.79068E+004    3.92917E+005   -1.13160E+005    3.75946E+005   -1.38027E+004    6.72487E+004    2.86035E+005   -1.71211E+004   -2.76883E+002    1.53137E+005
            1457    3.34011E+005    2.85294E+005    2.85294E+005    2.73118E+002   -8.22394E+004    3.67533E+005   -6.77759E+004    3.09810E+005   -2.35868E+003    4.22170E+004    1.63469E+005   -1.89693E+004    1.23102E+002    1.71648E+005
            1458    3.08119E+005    1.76756E+005   -1.79029E+005   -9.56469E+002   -1.79029E+005    3.55785E+005    1.07673E+003   -3.71758E+004   -9.38442E+002    3.55609E+002   -2.64736E+003   -1.93851E+004    1.04617E+001    1.76827E+005
            1459    3.29323E+005    8.27864E+004   -2.79834E+005    6.39542E+002   -2.79834E+005    3.62621E+005    6.54694E+004   -3.04967E+005    3.29459E+003   -4.11659E+004   -1.58537E+005   -1.89646E+004   -2.40687E+002    1.69709E+005
            1460    3.85718E+005    2.49649E+004   -3.74949E+005   -5.19779E+003   -3.74949E+005    3.99914E+005    1.18394E+005   -3.83051E+005    1.13873E+004   -6.97921E+004   -2.96777E+005   -1.69055E+004    2.06787E+002    1.54253E+005
            1461    4.35730E+005    3.44118E+004   -4.29323E+005   -2.84210E+004   -4.29323E+005    4.63735E+005    1.41111E+005   -4.25358E+005    3.13493E+004   -7.46162E+004   -3.80066E+005   -1.47984E+004    1.54134E+003    1.32037E+005
            1462    4.89606E+005    5.26247E+004   -4.74622E+005   -3.43025E+004   -4.74622E+005    5.27247E+005    1.52100E+005   -4.71773E+005    5.13585E+004   -6.73377E+004   -4.40321E+005   -1.16244E+004    4.17574E+003    1.18010E+005
            1463    5.26292E+005    7.45158E+004   -4.94109E+005   -2.41012E+004   -4.94109E+005    5.68625E+005    1.47898E+005   -5.04873E+005    7.37499E+004   -4.28168E+004   -4.74627E+005   -9.47756E+003    7.93517E+003    9.33488E+004
            1464    5.44356E+005    8.01752E+004   -5.15177E+005   -4.28865E+004   -5.15177E+005    5.95353E+005    1.59296E+005   -5.11635E+005    7.99820E+004   -5.55702E+004   -5.02301E+005   -4.58621E+003    7.12513E+003    7.66173E+004
            1465    3.93209E+005    3.39262E+005    3.39262E+005   -1.86647E+004   -8.16306E+004    4.20893E+005   -7.96557E+004    3.81619E+005   -2.08333E+004    1.97035E+004    2.40097E+005   -1.70132E+004   -4.79856E+003    1.77507E+005
            1466    3.76854E+005    3.01880E+005    3.01880E+005   -2.64171E+004   -1.09625E+005    4.11505E+005   -5.52794E+004    3.55294E+005   -2.65559E+004   -2.91443E+003    1.95308E+005   -1.41260E+004   -8.30378E+003    1.79514E+005
            1467    3.62541E+005    2.81966E+005    2.81966E+005   -2.15406E+004   -1.19485E+005    4.01451E+005   -4.69803E+004    3.30755E+005   -2.11068E+004   -6.34246E+003    1.68390E+005   -1.02832E+004   -9.23064E+003    1.80309E+005
            1468    3.37378E+005    2.49940E+005    2.49940E+005   -2.05888E+004   -1.28088E+005    3.78029E+005   -3.37545E+004    2.94985E+005   -2.02240E+004   -1.23468E+004    1.33834E+005   -5.07408E+003   -8.59016E+003    1.74110E+005
            1469    3.29007E+005    2.41536E+005    2.41536E+005   -1.41954E+004   -1.29633E+005    3.71169E+005   -3.25694E+004    2.77627E+005   -1.41464E+004   -8.14244E+003    1.19997E+005   -8.00115E+002   -6.38658E+003    1.74065E+005
            1470    3.11017E+005    2.19600E+005    2.19600E+005   -1.36884E+004   -1.33505E+005    3.53105E+005   -2.41357E+004    2.50580E+005   -1.39504E+004   -1.07948E+004    9.71522E+004    3.08062E+003   -5.94440E+003    1.67923E+005
            1471    3.09357E+005    2.19186E+005    2.19186E+005   -9.14326E+003   -1.32887E+005    3.52074E+005   -2.57185E+004    2.43522E+005   -9.47294E+003   -4.85293E+003    9.14815E+004    5.79960E+003   -2.99025E+003    1.69142E+005
            1472    3.55845E+005    2.64476E+005    2.64476E+005   -1.00046E+004   -1.37568E+005    4.02044E+005   -3.89677E+004    2.97459E+005   -1.08997E+004    8.81575E+003    1.18987E+005   -1.90683E+004   -2.19639E+003    1.92200E+005
            1473    3.58006E+005    2.52977E+005    2.52977E+005   -1.02527E+004   -1.54682E+005    4.07660E+005   -2.93475E+004    2.80210E+005   -1.03135E+004    9.58602E+002    9.73973E+004   -1.54776E+004   -3.87260E+003    1.97391E+005
            1474    3.38850E+005    2.25118E+005    2.25118E+005   -9.63901E+003   -1.63344E+005    3.88462E+005   -1.73780E+004    2.39240E+005   -9.44722E+003   -5.32580E+003    6.69072E+004   -1.02486E+004   -3.84154E+003    1.90550E+005
            1475    3.29943E+005    2.15704E+005    2.15704E+005   -5.97865E+003   -1.63475E+005    3.79179E+005   -1.54165E+004    2.17920E+005   -5.86107E+003   -2.76316E+003    5.48737E+004   -4.45294E+003   -3.20219E+003    1.87316E+005
            1476    3.13495E+005    1.96067E+005    1.96067E+005   -5.43144E+003   -1.65120E+005    3.61187E+005   -8.50522E+003    1.82986E+005   -5.43804E+003   -4.83027E+003    3.57840E+004    2.80393E+002   -2.05236E+003    1.79436E+005
            1477    3.09480E+005    1.93888E+005    1.93888E+005   -2.70544E+003   -1.62848E+005    3.56736E+005   -9.44500E+003    1.73388E+005   -2.81888E+003   -1.26281E+003    3.24167E+004    4.34664E+003   -1.87918E+003    1.77502E+005
            1478    3.00128E+005    1.82854E+005    1.82854E+005   -3.19026E+003   -1.63383E+005    3.46237E+005   -5.42700E+003    1.51603E+005   -3.28333E+003   -3.16520E+003    2.27295E+004    7.04217E+003   -6.10668E+002    1.72485E+005
            1479    3.48123E+005    1.98133E+005   -2.03812E+005    1.54409E+003   -2.03812E+005    4.01946E+005    1.37825E+003   -1.16799E+005    1.55702E+003    1.53370E+002   -5.84514E+003   -1.88736E+004    2.80091E+002    2.00062E+005
            1480    3.47372E+005    1.88269E+005   -2.12563E+005    8.20491E+002   -2.12563E+005    4.00831E+005    7.82449E+003   -1.67335E+005    8.53710E+002   -1.00288E+003   -2.33243E+004   -1.52094E+004    7.02761E+002    1.99523E+005
            1481    3.39630E+005    1.84079E+005   -2.07665E+005    4.02782E+003   -2.07665E+005    3.91745E+005    6.51934E+003   -1.76076E+005    3.95808E+003    2.66893E+003   -2.61850E+004   -1.02808E+004    1.45778E+003    1.95067E+005
            1482    3.25393E+005    1.68637E+005   -2.06229E+005    3.28501E+003   -2.06229E+005    3.74865E+005    1.14357E+004   -1.91027E+005    3.21438E+003    1.64872E+003   -3.91702E+004   -4.68746E+003    1.93818E+003    1.86253E+005
            1483    3.17326E+005    1.66841E+005   -1.98749E+005    5.34817E+003   -1.98749E+005    3.65590E+005    8.85354E+003   -1.85630E+005    5.34749E+003    4.94340E+003   -3.68515E+004   -2.98867E+001    2.23730E+003    1.81583E+005
            1484    3.06425E+005    1.56457E+005   -1.96337E+005    3.47797E+003   -1.96337E+005    3.52794E+005    1.21341E+004   -1.87058E+005    3.59054E+003    2.69080E+003   -4.26836E+004    3.97423E+003    1.94694E+003    1.74869E+005
            1485    3.03622E+005    1.59265E+005   -1.90543E+005    4.66132E+003   -1.90543E+005    3.49808E+005    8.87237E+003   -1.77378E+005    4.84731E+003    4.47946E+003   -3.59439E+004    6.67287E+003    1.63797E+003    1.73586E+005
            1486    3.62140E+005    1.25523E+005   -2.80643E+005    8.56346E+003   -2.80643E+005    4.06166E+005    4.88523E+004   -3.15245E+005    9.65588E+003   -1.18005E+004   -1.44412E+005   -1.88892E+004    2.54866E+003    1.90756E+005
            1487    3.61371E+005    1.39232E+005   -2.67746E+005    1.55262E+004   -2.67746E+005    4.06979E+005    3.76627E+004   -3.08024E+005    1.56745E+004    1.12538E+003   -1.29788E+005   -1.54639E+004    5.04634E+003    1.91955E+005
            1488    3.50471E+005    1.35035E+005   -2.59672E+005    1.50422E+004   -2.59672E+005    3.94707E+005    3.65315E+004   -2.98716E+005    1.47298E+004    5.37724E+003   -1.29702E+005   -1.05278E+004    6.86816E+003    1.85075E+005
            1489    3.37959E+005    1.36709E+005   -2.44940E+005    1.64143E+004   -2.44940E+005    3.81649E+005    3.06056E+004   -2.83409E+005    1.61332E+004    1.05232E+004   -1.18473E+005   -4.91432E+003    7.01588E+003    1.79444E+005
            1490    3.25267E+005    1.28979E+005   -2.38263E+005    1.35383E+004   -2.38263E+005    3.67242E+005    3.19154E+004   -2.73116E+005    1.35110E+004    9.49313E+003   -1.18750E+005   -4.44051E+002    6.46309E+003    1.71945E+005
            1491    3.14812E+005    1.31612E+005   -2.25196E+005    1.33942E+004   -2.25196E+005    3.56808E+005    2.67300E+004   -2.57241E+005    1.36868E+004    1.08692E+004   -1.04746E+005    3.46649E+003    5.75323E+003    1.68593E+005
            1492    3.06758E+005    1.26823E+005   -2.21134E+005    1.02466E+004   -2.21134E+005    3.47956E+005    2.80215E+004   -2.49053E+005    1.06908E+004    6.88040E+003   -1.01636E+005    6.08266E+003    3.85822E+003    1.65066E+005
            1493    3.92545E+005    7.29113E+004   -3.42671E+005    2.18353E+004   -3.42671E+005    4.15583E+005    8.26416E+004   -3.84962E+005    2.47182E+004   -1.97391E+004   -2.52904E+005   -1.69369E+004    5.18040E+003    1.69747E+005
            1494    3.92255E+005    9.04396E+004   -3.29020E+005    2.87113E+004   -3.29020E+005    4.19460E+005    6.99564E+004   -3.81098E+005    2.91423E+004   -2.25360E+003   -2.36758E+005   -1.39613E+004    9.34344E+003    1.72894E+005
            1495    3.75042E+005    1.00766E+005   -3.04373E+005    3.06853E+004   -3.04373E+005    4.05139E+005    5.76404E+004   -3.59866E+005    3.01823E+004    9.48051E+003   -2.12584E+005   -1.04086E+004    1.16584E+004    1.68904E+005
            1496    3.60170E+005    9.99431E+004   -2.90622E+005    2.84223E+004   -2.90622E+005    3.90565E+005    5.40855E+004   -3.43644E+005    2.78661E+004    1.28538E+004   -2.02976E+005   -5.74149E+003    1.21047E+004    1.62415E+005
            1497    3.42789E+005    1.02900E+005   -2.71671E+005    2.64118E+004   -2.71671E+005    3.74572E+005    4.74530E+004   -3.22740E+005    2.62216E+004    1.55944E+004   -1.84175E+005   -1.89336E+003    1.04593E+004    1.58136E+005
            1498    3.28512E+005    1.00497E+005   -2.60053E+005    2.23131E+004   -2.60053E+005    3.60550E+005    4.57477E+004   -3.06513E+005    2.25898E+004    1.33309E+004   -1.73164E+005    1.57412E+003    9.75444E+003    1.53877E+005
            1499    3.15656E+005    1.03072E+005   -2.45850E+005    1.98777E+004   -2.45850E+005    3.48921E+005    4.09668E+004   -2.89409E+005    2.03758E+004    1.13400E+004   -1.54616E+005    4.08054E+003    6.16886E+003    1.53136E+005
            1500    4.35983E+005    4.56694E+004   -4.01951E+005    2.13804E+004   -4.01951E+005    4.47620E+005    1.11634E+005   -4.34457E+005    3.74461E+004   -2.62826E+004   -3.46065E+005   -1.51247E+004    7.65117E+003    1.44359E+005
            1501    4.23139E+005    6.07631E+004   -3.71258E+005    4.24003E+004   -3.71258E+005    4.32021E+005    8.93649E+004   -4.22241E+005    4.48929E+004   -9.00363E+002   -3.12087E+005   -1.25285E+004    1.27598E+004    1.47086E+005
            1502    4.08550E+005    6.72950E+004   -3.53216E+005    4.22175E+004   -3.53216E+005    4.20511E+005    8.12344E+004   -4.06813E+005    4.18288E+004    8.80365E+003   -2.94336E+005   -9.67727E+003    1.54328E+004    1.44824E+005
            1503    3.85249E+005    7.57009E+004   -3.24936E+005    4.28176E+004   -3.24936E+005    4.00637E+005    6.88058E+004   -3.82073E+005    4.20501E+004    1.73207E+004   -2.65788E+005   -5.47849E+003    1.64100E+004    1.41133E+005
            1504    3.68523E+005    7.43009E+004   -3.11658E+005    3.65180E+004   -3.11658E+005    3.85959E+005    6.69465E+004   -3.64128E+005    3.62229E+004    1.67655E+004   -2.53828E+005   -2.49197E+003    1.37260E+004    1.37066E+005
            1505    3.44388E+005    7.76178E+004   -2.86248E+005    3.46254E+004   -2.86248E+005    3.63865E+005    5.80014E+004   -3.38271E+005    3.49702E+004    1.65680E+004   -2.25543E+005    3.56514E+002    1.35642E+004    1.34955E+005
            1506    3.30796E+005    7.53638E+004   -2.76614E+005    2.78654E+004   -2.76614E+005    3.51977E+005    5.77948E+004   -3.22990E+005    2.84467E+004    1.05001E+004   -2.12331E+005    2.44069E+003    8.45890E+003    1.35669E+005
            1507    4.69288E+005    6.05588E+004   -4.33689E+005    5.84155E+003   -4.33689E+005    4.94248E+005    1.22430E+005   -4.62030E+005    5.84256E+004   -2.55177E+004   -4.00197E+005   -1.30484E+004    1.07447E+004    1.16177E+005
            1508    4.61551E+005    6.30561E+004   -4.15351E+005    2.72599E+004   -4.15351E+005    4.78407E+005    1.08345E+005   -4.58413E+005    6.13595E+004   -7.83724E+003   -3.78557E+005   -1.09097E+004    1.65956E+004    1.21067E+005
            1509    4.41689E+005    6.26394E+004   -3.88032E+005    4.40896E+004   -3.88032E+005    4.50672E+005    9.37678E+004   -4.40811E+005    6.06407E+004    8.45907E+003   -3.50403E+005   -1.00825E+004    1.82100E+004    1.20497E+005
            1510    4.21197E+005    5.95918E+004   -3.65935E+005    5.07934E+004   -3.65935E+005    4.25527E+005    8.51833E+004   -4.20990E+005    5.82885E+004    1.60363E+004   -3.29875E+005   -7.38095E+003    2.16269E+004    1.15159E+005
            1511    3.92086E+005    5.35437E+004   -3.39011E+005    5.26056E+004   -3.39011E+005    3.92554E+005    7.76204E+004   -3.92084E+005    5.24526E+004    1.71277E+004   -3.02442E+005   -4.79610E+003    1.65911E+004    1.12806E+005
            1512    3.72217E+005    5.46895E+004   -3.20986E+005    4.76738E+004   -3.20986E+005    3.75675E+005    7.28741E+004   -3.72068E+005    4.87860E+004    1.47800E+004   -2.82188E+005   -2.72073E+003    1.79981E+004    1.12703E+005
            1513    3.45539E+005    5.27034E+004   -2.98425E+005    4.12394E+004   -2.98425E+005    3.51128E+005    6.81606E+004   -3.45110E+005    4.18081E+004    9.66673E+003   -2.55957E+005   -7.53858E+002    1.08847E+004    1.13891E+005
            1514    5.01513E+005    6.91204E+004   -4.67983E+005   -1.19324E+004   -4.67983E+005    5.37103E+005    1.36932E+005   -4.86449E+005    6.82121E+004   -3.19423E+004   -4.47064E+005   -9.44755E+003    1.21273E+004    9.46450E+004
            1515    4.87933E+005    7.61436E+004   -4.39487E+005    1.49813E+004   -4.39487E+005    5.15631E+005    1.16121E+005   -4.79195E+005    7.53422E+004   -6.58850E+003   -4.17116E+005   -6.69456E+003    1.77662E+004    9.68109E+004
            1516    4.80169E+005    7.35239E+004   -4.29514E+005    2.39401E+004   -4.29514E+005    5.03037E+005    1.10683E+005   -4.74358E+005    7.26535E+004    4.06917E+003   -4.08772E+005   -6.48574E+003    1.84180E+004    9.30278E+004
            1517    4.48694E+005    7.72911E+004   -3.92106E+005    3.25318E+004   -3.92106E+005    4.69397E+005    9.40942E+004   -4.43630E+005    7.59916E+004    1.32365E+004   -3.71511E+005   -5.28683E+003    2.40903E+004    8.82956E+004
            1518    4.27778E+005    6.76728E+004   -3.77188E+005    3.11691E+004   -3.77188E+005    4.44860E+005    9.27819E+004   -4.24253E+005    6.67902E+004    1.18099E+004   -3.56946E+005   -4.50768E+003    1.92637E+004    8.66836E+004
            1519    3.93672E+005    6.70391E+004   -3.43461E+005    3.08897E+004   -3.43461E+005    4.10500E+005    8.18439E+004   -3.89911E+005    6.58401E+004    9.93797E+003   -3.21310E+005   -3.22394E+003    2.10758E+004    8.61126E+004
            1520    3.72004E+005    5.55630E+004   -3.29744E+005    2.73514E+004   -3.29744E+005    3.85307E+005    8.22764E+004   -3.69586E+005    5.49715E+004    1.92742E+003   -3.03728E+005   -2.45292E+003    1.40397E+004    9.18792E+004
            1521    5.32807E+005    9.35218E+004   -4.84770E+005   -1.37782E+004   -4.84770E+005    5.78291E+005    1.35009E+005   -5.07637E+005    9.21414E+004   -2.72121E+004   -4.69955E+005   -1.17197E+004    1.89124E+004    8.01844E+004
            1522    5.26446E+005    8.97715E+004   -4.75228E+005    1.50641E+003   -4.75228E+005    5.65000E+005    1.27983E+005   -5.09399E+005    8.88204E+004   -9.60373E+003   -4.63167E+005   -7.61299E+003    1.91233E+004    7.26316E+004
            1523    5.08231E+005    9.64312E+004   -4.47809E+005    1.44460E+004   -4.47809E+005    5.44240E+005    1.12310E+005   -4.93024E+005    9.52685E+004    4.92081E+003   -4.37121E+005   -7.48456E+003    2.17753E+004    6.63514E+004
            1524    4.92930E+005    9.44801E+004   -4.31909E+005    1.88118E+004   -4.31909E+005    5.26389E+005    1.06206E+005   -4.79602E+005    9.31507E+004    1.08471E+004   -4.22615E+005   -5.77344E+003    2.51331E+004    5.95724E+004
            1525    4.54803E+005    9.14130E+004   -3.96675E+005    1.52188E+004   -3.96675E+005    4.88088E+005    9.66811E+004   -4.40099E+005    9.01368E+004    7.80423E+003   -3.87984E+005   -5.64925E+003    2.36254E+004    5.49614E+004
            1526    4.30078E+005    8.38858E+004   -3.78052E+005    1.07995E+004   -3.78052E+005    4.61938E+005    9.44556E+004   -4.15761E+005    8.26546E+004    8.33876E+002   -3.66855E+005   -4.72115E+003    2.32454E+004    6.13852E+004
            1527    3.96362E+005    7.56700E+004   -3.49996E+005    8.47246E+003   -3.49996E+005    4.25666E+005    8.86177E+004   -3.83231E+005    7.48105E+004   -4.10075E+003   -3.36563E+005   -4.57565E+003    1.83955E+004    6.59089E+004
            1528    4.34189E+005    9.45103E+004   -3.83991E+005   -1.51363E+004   -3.83991E+005    4.78501E+005    1.01539E+005   -4.01227E+005    9.34158E+004   -2.05538E+004   -3.77479E+005   -4.40255E+003    2.22221E+004    4.44105E+004
            1529    4.62950E+005    1.06568E+005   -4.03454E+005   -9.76731E+003   -4.03454E+005    5.10022E+005    1.02218E+005   -4.28171E+005    1.05203E+005   -1.22566E+004   -3.99599E+005   -3.82456E+003    2.58769E+004    3.13142E+004
            1530    4.99742E+005    1.12459E+005   -4.35015E+005   -3.33449E+003   -4.35015E+005    5.47474E+005    1.08630E+005   -4.68109E+005    1.11146E+005   -5.37174E+003   -4.31665E+005   -3.51559E+003    2.63493E+004    2.97174E+004
            1531    5.21395E+005    1.18144E+005   -4.50999E+005    3.60271E+003   -4.50999E+005    5.69143E+005    1.09751E+005   -4.91878E+005    1.16978E+005    1.88863E+003   -4.48119E+005   -3.22597E+003    2.53148E+004    2.80192E+004
            1532    5.55687E+005    1.10874E+005   -4.90836E+005    3.01289E+003   -4.90836E+005    6.01710E+005    1.25650E+005   -5.31364E+005    1.10127E+005   -7.44187E+002   -4.86332E+005   -3.39692E+003    2.06470E+004    4.30099E+004
            1533    5.46870E+005    1.04934E+005   -4.92660E+005   -1.71507E+004   -4.92660E+005    5.97595E+005    1.34959E+005   -5.14852E+005    1.04391E+005   -2.48248E+004   -4.84442E+005   -3.54821E+003    1.74791E+004    5.99380E+004
            1534    5.57795E+005    9.03047E+004   -5.20382E+005   -3.77476E+004   -5.20382E+005    6.10686E+005    1.55942E+005   -5.23168E+005    9.01052E+004   -4.55611E+004   -5.12369E+005   -3.08814E+003    1.00120E+004    6.09956E+004
            1535    2.94743E+005    2.48209E+005    2.48209E+005   -3.39698E+004   -5.76688E+004    3.05878E+005   -5.21901E+004    2.92588E+005   -3.39526E+004    3.11884E+004    1.59334E+005    1.09051E+003    1.99764E+003    1.38860E+005
            1536    3.06521E+005    2.54405E+005    2.54405E+005   -2.52463E+004   -7.33085E+004    3.27713E+005   -5.19500E+004    2.97867E+005   -2.52505E+004    4.24162E+004    1.38684E+005    3.07612E+003    1.77184E+003    1.56586E+005
            1537    3.28125E+005    2.55995E+005    2.55995E+005   -1.93137E+004   -1.07092E+005    3.63087E+005   -4.31965E+004    2.99957E+005   -1.93301E+004    3.47189E+004    1.14201E+005    5.80864E+003    2.11562E+003    1.77028E+005
            1538    3.43673E+005    2.51917E+005    2.51917E+005   -1.28912E+004   -1.36453E+005    3.88370E+005   -3.41908E+004    2.86899E+005   -1.29198E+004    2.65774E+004    8.89149E+004    8.54233E+003    2.03482E+003    1.91461E+005
            1539    3.30721E+005    2.42751E+005    2.42751E+005   -1.25506E+004   -1.30851E+005    3.73602E+005   -3.31166E+004    2.76728E+005   -1.27994E+004    1.93005E+004    9.28488E+004    8.97561E+003    3.07207E+002    1.82878E+005
            1540    3.18315E+005    2.34157E+005    2.34157E+005   -1.23111E+004   -1.25223E+005    3.59380E+005   -3.22075E+004    2.67343E+005   -1.25242E+004    1.24462E+004    9.67006E+004    8.69021E+003    7.71865E+002    1.74423E+005
            1541    3.13364E+005    2.32476E+005    2.32476E+005   -1.28108E+004   -1.20542E+005    3.53018E+005   -3.30410E+004    2.66652E+005   -1.33559E+004    8.98119E+003    1.03498E+005    8.78590E+003   -1.76845E+003    1.69718E+005
            1542    3.06033E+005    2.28122E+005    2.28122E+005   -1.32287E+004   -1.16090E+005    3.44212E+005   -3.29342E+004    2.62691E+005   -1.36094E+004    3.82381E+003    1.08588E+005    8.35639E+003   -3.27687E+002    1.63647E+005
            1543    3.05609E+005    2.31126E+005    2.31126E+005   -1.40135E+004   -1.11277E+005    3.42403E+005   -3.52782E+004    2.67306E+005   -1.47643E+004    2.46036E+003    1.18139E+005    8.07803E+003   -3.44316E+003    1.60722E+005
            1544    3.03125E+005    2.30681E+005    2.30681E+005   -1.50579E+004   -1.08045E+005    3.38726E+005   -3.58595E+004    2.68104E+005   -1.56191E+004   -4.05876E+003    1.27256E+005    7.29600E+003   -2.24845E+003    1.55793E+005
            1545    3.10401E+005    2.39952E+005    2.39952E+005   -1.67201E+004   -1.05038E+005    3.44989E+005   -3.93980E+004    2.79971E+005   -1.75465E+004   -4.92175E+003    1.40662E+005    6.23015E+003   -6.17502E+003    1.55912E+005
            1546    3.17007E+005    2.48431E+005    2.48431E+005   -1.90432E+004   -1.01723E+005    3.50155E+005   -4.25551E+004    2.91230E+005   -1.93225E+004    2.49577E+004    1.22030E+005    6.45965E+003   -1.21112E+002    1.68014E+005
            1547    3.14332E+005    2.46993E+005    2.46993E+005   -1.86891E+004   -1.00007E+005    3.47000E+005   -4.27654E+004    2.89212E+005   -1.88726E+004    1.74964E+004    1.29672E+005    6.12488E+003    8.15314E+002    1.64016E+005
            1548    3.09296E+005    2.44966E+005    2.44966E+005   -2.06740E+004   -9.45915E+004    3.39558E+005   -4.32336E+004    2.88401E+005   -2.12613E+004    1.20879E+004    1.38874E+005    6.15149E+003   -2.67262E+003    1.57177E+005
            1549    3.07235E+005    2.48292E+005    2.48292E+005   -2.02433E+004   -8.67478E+004    3.35040E+005   -4.71004E+004    2.90370E+005   -2.06238E+004    1.02706E+004    1.51654E+005    5.50627E+003   -9.07955E+002    1.51644E+005
            1550    3.06459E+005    2.48501E+005    2.48501E+005   -2.40007E+004   -8.32605E+004    3.31762E+005   -4.70800E+004    2.93150E+005   -2.48218E+004    2.54160E+003    1.63520E+005    5.04651E+003   -5.19556E+003    1.44559E+005
            1551    3.11547E+005    2.58425E+005    2.58425E+005   -2.35710E+004   -7.60165E+004    3.34441E+005   -5.29458E+004    3.01375E+005   -2.41400E+004    1.50140E+003    1.81476E+005    4.11561E+003   -3.86638E+003    1.40597E+005
            1552    3.18373E+005    2.62838E+005    2.62838E+005   -2.95311E+004   -7.63518E+004    3.39190E+005   -5.23185E+004    3.10485E+005   -3.03686E+004   -8.88600E+003    1.96210E+005    2.97912E+003   -9.28200E+003    1.34343E+005
            1553    3.10838E+005    2.54283E+005    2.54283E+005   -2.65270E+004   -7.97182E+004    3.34001E+005   -4.93460E+004    3.00342E+005   -2.68157E+004    2.56025E+004    1.49251E+005    4.10032E+003   -1.00653E+003    1.54972E+005
            1554    3.09859E+005    2.55489E+005    2.55489E+005   -2.64621E+004   -7.62490E+004    3.31738E+005   -5.09259E+004    3.00662E+005   -2.65640E+004    2.18446E+004    1.57497E+005    3.54773E+003    8.60741E+002    1.51284E+005
            1555    3.08975E+005    2.59369E+005    2.59369E+005   -2.88112E+004   -6.68734E+004    3.26242E+005   -5.45614E+004    3.03633E+005   -2.94478E+004    2.05613E+004    1.72571E+005    3.34949E+003   -3.96810E+003    1.43961E+005
            1556    3.06719E+005    2.61411E+005    2.61411E+005   -3.03258E+004   -5.83643E+004    3.19775E+005   -5.75736E+004    3.03815E+005   -3.06846E+004    1.52413E+004    1.88164E+005    2.62392E+003   -1.77296E+003    1.34280E+005
            1557    3.12556E+005    2.70389E+005    2.70389E+005   -3.36155E+004   -5.00677E+004    3.20457E+005   -6.22354E+004    3.11580E+005   -3.51838E+004    1.32346E+004    2.08655E+005    1.91458E+003   -7.41773E+003    1.25857E+005
            1558    3.20389E+005    2.78839E+005    2.78839E+005   -3.61240E+004   -4.67144E+004    3.25553E+005   -6.53335E+004    3.19995E+005   -3.71586E+004    3.91170E+003    2.29247E+005    1.03816E+003   -5.86981E+003    1.16655E+005
            1559    3.38355E+005    2.95441E+005    2.95441E+005   -3.80889E+004   -4.75418E+004    3.42982E+005   -6.99366E+004    3.38058E+005   -4.37236E+004    1.16564E+003    2.52368E+005   -7.80515E+001   -1.29441E+004    1.11934E+005
            1560    3.12212E+005    2.61080E+005    2.61080E+005   -3.36686E+004   -6.60700E+004    3.27150E+005   -5.37803E+004    3.08396E+005   -3.38608E+004    2.62416E+004    1.68960E+005    1.82669E+003   -1.78341E+003    1.47081E+005
            1561    3.08172E+005    2.62977E+005    2.62977E+005   -3.46178E+004   -5.47824E+004    3.17759E+005   -5.78589E+004    3.06683E+005   -3.46422E+004    2.87697E+004    1.79449E+005    1.07138E+003    3.57683E+002    1.39864E+005
            1562    3.06976E+005    2.66704E+005    2.66704E+005   -3.78447E+004   -4.26437E+004    3.09347E+005   -6.20718E+004    3.06892E+005   -3.94347E+004    2.78863E+004    1.97764E+005    3.02637E+002   -4.24136E+003    1.28262E+005
            1563    3.09813E+005    2.76624E+005    2.76624E+005   -2.44112E+004   -4.12773E+004    3.17902E+005   -7.03120E+004    3.08778E+005   -4.11959E+004    2.81367E+004    2.23995E+005   -6.68573E+002   -3.50378E+003    1.14308E+005
            1564    3.24199E+005    2.88443E+005    2.88443E+005   -2.00929E+004   -4.94263E+004    3.37869E+005   -7.29746E+004    3.21193E+005   -4.90942E+004    1.84945E+004    2.49523E+005   -1.49608E+003   -8.84363E+003    1.02154E+005
            1565    3.40718E+005    3.06166E+005    3.06166E+005   -1.35390E+004   -5.22577E+004    3.58424E+005   -8.01231E+004    3.35715E+005   -5.20091E+004    1.65320E+004    2.75846E+005   -2.37019E+003   -9.01570E+003    9.32966E+004
            1566    3.64218E+005    3.21954E+005    3.21954E+005   -1.65214E+004   -6.34558E+004    3.85410E+005   -8.06589E+004    3.57319E+005   -6.27598E+004    5.04865E+003    2.99688E+005   -3.06213E+003   -1.58309E+004    8.26342E+004
            1567    3.99348E+005    3.56871E+005    3.56871E+005    1.47793E+004   -8.19604E+004    4.38831E+005   -9.65632E+004    3.71588E+005   -8.11734E+004    2.43875E+004    3.46476E+005   -4.76186E+003   -1.76505E+004    5.65467E+004
            1568    3.70526E+005    3.32411E+005    3.32411E+005    1.06645E+004   -7.26931E+004    4.05104E+005   -9.01274E+004    3.48479E+005   -7.21835E+004    2.50078E+004    3.17558E+005   -4.90346E+003   -1.28720E+004    6.64704E+004
            1569    3.42462E+005    3.11386E+005    3.11386E+005    1.28003E+004   -6.24401E+004    3.73826E+005   -8.72488E+004    3.23071E+005   -6.21219E+004    3.54418E+004    2.88427E+005   -4.64185E+003   -9.05574E+003    7.90942E+004
            1570    3.20702E+005    2.90885E+005    2.90885E+005    2.70345E+003   -5.46084E+004    3.45494E+005   -7.96601E+004    3.08864E+005   -5.44298E+004    3.78511E+004    2.55559E+005   -3.94139E+003   -5.52460E+003    9.43551E+004
            1571    3.06632E+005    2.76077E+005    2.76077E+005   -1.00440E+004   -4.76055E+004    3.23682E+005   -7.28090E+004    3.01391E+005   -4.75192E+004    4.25203E+004    2.23426E+005   -2.78866E+003   -3.37457E+003    1.10819E+005
            1572    3.07073E+005    2.65070E+005    2.65070E+005   -3.93440E+004   -4.45946E+004    3.09665E+005   -6.03771E+004    3.06972E+005   -4.44903E+004    3.31221E+004    1.92500E+005   -1.40794E+003   -1.07823E+003    1.29730E+005
            1573    3.05627E+005    2.54484E+005    2.54484E+005   -4.25390E+004   -5.90767E+004    3.13560E+005   -5.09560E+004    3.04618E+005   -4.25419E+004    2.04807E+004    1.74929E+005    2.49682E+000   -4.74748E+002    1.36440E+005
            1574    3.73075E+005    6.69262E+004   -3.32639E+005    6.59200E+003   -3.32639E+005    3.99565E+005    8.63735E+004   -3.61854E+005    6.62708E+004   -1.19993E+004   -3.13392E+005   -3.74035E+003    1.57301E+004    7.71293E+004
            1575    3.46698E+005    5.34106E+004   -3.04960E+005    2.87494E+004   -3.04960E+005    3.58370E+005    7.42665E+004   -3.44717E+005    5.25021E+004   -1.98208E+003   -2.73320E+005   -1.25147E+003    1.39406E+004    9.70149E+004
            1576    3.31732E+005    5.41962E+004   -2.85661E+005    3.72996E+004   -2.85661E+005    3.39857E+005    6.47217E+004   -3.30761E+005    3.86484E+004    2.94462E+003   -2.35758E+005    7.38819E+002    1.13975E+004    1.19552E+005
            1577    3.15497E+005    8.00515E+004   -2.58718E+005    2.67028E+004   -2.58718E+005    3.38770E+005    5.06547E+004   -3.05100E+005    2.76621E+004    7.25780E+003   -1.86884E+005    4.08170E+003    8.33837E+003    1.38095E+005
            1578    3.08341E+005    1.03509E+005   -2.38871E+005    1.69144E+004   -2.38871E+005    3.42380E+005    3.94827E+004   -2.78955E+005    1.76724E+004    6.13220E+003   -1.42253E+005    5.99246E+003    5.73327E+003    1.53845E+005
            1579    3.02663E+005    1.32410E+005   -2.12226E+005    1.03351E+004   -2.12226E+005    3.44636E+005    2.31603E+004   -2.36930E+005    1.08910E+004    6.32447E+003   -8.66964E+004    7.97728E+003    3.33497E+003    1.65612E+005
            1580    2.98838E+005    1.54663E+005   -1.89610E+005    2.79840E+003   -1.89610E+005    3.44273E+005    1.07162E+004   -1.75417E+005    3.01067E+003    1.19976E+003   -3.63592E+004    8.65587E+003    1.09829E+003    1.70874E+005
            1581    3.01578E+005    1.85831E+005    1.85831E+005   -1.79143E+003   -1.62043E+005    3.47874E+005   -7.33192E+003    1.54997E+005   -1.97528E+003    9.13704E+001    2.38797E+004    8.94423E+003   -1.11484E+003    1.73288E+005
            1582    3.00448E+005    2.06975E+005    2.06975E+005   -1.00508E+004   -1.35940E+005    3.42915E+005   -2.03281E+004    2.28699E+005   -1.05768E+004   -6.53481E+003    7.80959E+004    7.75283E+003   -3.48728E+003    1.65863E+005
            1583    3.45508E+005    5.82688E+004   -3.09209E+005    9.05106E+003   -3.09209E+005    3.67478E+005    8.06297E+004   -3.37486E+005    5.79510E+004   -1.61114E+004   -2.83729E+005   -3.26348E+003    1.02794E+004    8.58337E+004
            1584    3.29225E+005    4.32793E+004   -2.92178E+005    3.04407E+004   -2.92178E+005    3.35457E+005    7.28192E+004   -3.28662E+005    4.27208E+004   -1.05281E+004   -2.50650E+005   -3.46558E+002    7.25761E+003    1.07936E+005
            1585    3.14269E+005    5.78387E+004   -2.68699E+005    3.16641E+004   -2.68699E+005    3.26537E+005    5.97319E+004   -3.11802E+005    3.22560E+004   -2.37982E+003   -2.09072E+005    2.11652E+003    4.93634E+003    1.25960E+005
            1586    3.09133E+005    8.25399E+004   -2.52696E+005    2.11094E+004   -2.52696E+005    3.35236E+005    4.96822E+004   -2.94927E+005    2.17948E+004   -1.24969E+002   -1.70716E+005    5.34640E+003    3.66001E+003    1.43893E+005
            1587    3.03505E+005    1.10265E+005   -2.29464E+005    1.49238E+004   -2.29464E+005    3.39729E+005    3.47583E+004   -2.66553E+005    1.54915E+004    3.13517E+003   -1.22902E+005    7.33537E+003    2.45023E+003    1.57417E+005
            1588    3.01307E+005    1.33372E+005   -2.10446E+005    7.59148E+003   -2.10446E+005    3.43818E+005    2.31609E+004   -2.30025E+005    8.03311E+003    1.50127E+003   -7.90172E+004    9.18381E+003    1.54572E+003    1.66807E+005
            1589    3.01474E+005    1.61683E+005   -1.85968E+005    3.36100E+003   -1.85968E+005    3.47651E+005    6.97476E+003   -1.61500E+005    3.54454E+003    2.24479E+003   -2.67136E+004    9.87196E+003    7.47072E+002    1.72930E+005
            1590    2.99304E+005    1.82431E+005    1.82431E+005   -2.66961E+003   -1.62877E+005    3.45308E+005   -5.62781E+003    1.49438E+005   -2.76000E+003   -1.89730E+003    2.15407E+004    1.00257E+004   -6.88944E+001    1.71961E+005
            1591    3.03398E+005    2.11003E+005    2.11003E+005   -7.28200E+003   -1.35445E+005    3.46449E+005   -2.27588E+004    2.29436E+005   -7.62593E+003   -6.65451E+002    7.65676E+004    8.89460E+003   -9.81586E+002    1.68582E+005
            1592    3.26887E+005    5.08133E+004   -2.93444E+005    1.27365E+004   -2.93444E+005    3.44258E+005    7.66315E+004   -3.21841E+005    5.05977E+004   -2.40839E+004   -2.56408E+005   -2.26068E+003    8.08167E+003    9.95679E+004
            1593    3.13890E+005    4.33157E+004   -2.74490E+005    3.53320E+004   -2.74490E+005    3.17806E+005    6.52809E+004   -3.13662E+005    4.00412E+004   -1.43752E+004   -2.21509E+005    9.32199E+002    7.42518E+003    1.17221E+005
            1594    3.09610E+005    6.51392E+004   -2.61083E+005    2.86871E+004   -2.61083E+005    3.26223E+005    5.57524E+004   -3.04726E+005    2.95634E+004   -9.06915E+003   -1.87751E+005    3.31173E+003    5.91717E+003    1.35889E+005
            1595    3.04795E+005    9.24351E+004   -2.41979E+005    2.02303E+004   -2.41979E+005    3.34414E+005    4.31046E+004   -2.84582E+005    2.10648E+004   -3.02795E+003   -1.47351E+005    6.43679E+003    4.26275E+003    1.50371E+005
            1596    3.04607E+005    1.16104E+005   -2.26746E+005    1.26908E+004   -2.26746E+005    3.42850E+005    3.26502E+004   -2.60477E+005    1.33471E+004   -2.02889E+003   -1.09269E+005    8.38935E+003    2.73281E+003    1.62446E+005
            1597    3.04402E+005    1.42820E+005   -2.05773E+005    7.55263E+003   -2.05773E+005    3.48593E+005    1.84666E+004   -2.19749E+005    7.98702E+003    1.02100E+003   -6.44079E+004    1.00452E+004    1.51462E+003    1.70847E+005
            1598    3.03229E+005    1.63170E+005   -1.86625E+005    1.70528E+003   -1.86625E+005    3.49795E+005    7.24992E+003   -1.54607E+005    1.84142E+003   -8.24114E+002   -2.27671E+004    1.07334E+004    3.48746E+002    1.74217E+005
            1599    3.05066E+005    1.88949E+005    1.88949E+005   -2.07322E+003   -1.62878E+005    3.51827E+005   -7.99911E+003    1.61399E+005   -2.27227E+003    1.07738E+003    2.51922E+004    1.07582E+004   -7.78087E+002    1.75159E+005
            1600    3.02682E+005    2.06647E+005    2.06647E+005   -8.55502E+003   -1.39454E+005    3.46101E+005   -1.95462E+004    2.24308E+005   -9.05136E+003   -1.51034E+003    6.92002E+004    9.70760E+003   -1.99766E+003    1.69048E+005
            1601    3.10607E+005    4.39270E+004   -2.76757E+005    2.26819E+004   -2.76757E+005    3.20684E+005    7.00493E+004   -3.08966E+005    4.38663E+004   -2.80606E+004   -2.25954E+005   -1.34024E+003    3.92780E+003    1.12333E+005
            1602    3.07604E+005    4.79126E+004   -2.67203E+005    3.22951E+004   -2.67203E+005    3.15116E+005    6.23318E+004   -3.06711E+005    3.27527E+004   -2.14206E+004   -1.98327E+005    1.79388E+003    2.26751E+003    1.30104E+005
            1603    3.05519E+005    7.55075E+004   -2.52263E+005    2.46124E+004   -2.52263E+005    3.27771E+005    5.07143E+004   -2.95755E+005    2.49447E+004   -1.27165E+004   -1.64371E+005    4.25455E+003    9.67976E+002    1.45093E+005
            1604    3.07574E+005    1.00390E+005   -2.40473E+005    1.63365E+004   -2.40473E+005    3.40863E+005    4.12488E+004   -2.79935E+005    1.67578E+004   -8.78329E+003   -1.31721E+005    7.15759E+003    6.35887E+002    1.58683E+005
            1605    3.08685E+005    1.26691E+005   -2.23061E+005    1.13260E+004   -2.23061E+005    3.49752E+005    2.83482E+004   -2.52867E+005    1.16834E+004   -3.71584E+003   -9.30121E+004    9.12181E+003    3.03761E+002    1.68770E+005
            1606    3.09532E+005    1.48237E+005   -2.06908E+005    5.50590E+003   -2.06908E+005    3.55146E+005    1.77218E+004   -2.14327E+005    5.76448E+003   -2.73644E+003   -5.61933E+004    1.06170E+004    2.28663E+002    1.75202E+005
            1607    3.10965E+005    1.72640E+005   -1.86288E+005    1.95232E+003   -1.86288E+005    3.58928E+005    3.89845E+003   -1.36499E+005    2.04405E+003    5.99065E+002   -1.43385E+004    1.12826E+004    2.13367E+002    1.78951E+005
            1608    3.08653E+005    1.90531E+005    1.90531E+005   -2.89395E+003   -1.65424E+005    3.55955E+005   -7.40433E+003    1.63866E+005   -2.98246E+003   -1.02675E+002    2.52981E+004    1.11295E+004    1.82793E+002    1.77171E+005
            1609    3.09880E+005    2.12951E+005    2.12951E+005   -6.93466E+003   -1.41458E+005    3.54409E+005   -2.15193E+004    2.28844E+005   -7.18397E+003    3.48463E+003    6.82571E+004    1.00857E+004    8.68921E+001    1.73897E+005
            1610    3.07038E+005    3.94763E+004   -2.69439E+005    3.56872E+004   -2.69439E+005    3.08915E+005    6.47584E+004   -3.06985E+005    3.87643E+004   -3.26859E+004   -2.00353E+005   -9.12995E+001    3.23741E+003    1.27858E+005
            1611    3.06896E+005    6.25052E+004   -2.59175E+005    3.04151E+004   -2.59175E+005    3.21681E+005    5.54184E+004   -3.03087E+005    3.10131E+004   -2.29707E+004   -1.74298E+005    2.98576E+003    3.51163E+003    1.41584E+005
            1612    3.10726E+005    8.69791E+004   -2.50933E+005    2.24858E+004   -2.50933E+005    3.37912E+005    4.71560E+004   -2.95098E+005    2.30548E+004   -1.71857E+004   -1.47337E+005    5.39804E+003    2.79081E+003    1.55611E+005
            1613    3.13135E+005    1.12834E+005   -2.37348E+005    1.57344E+004   -2.37348E+005    3.50183E+005    3.62598E+004   -2.76087E+005    1.62877E+004   -1.03483E+004   -1.14719E+005    7.98120E+003    1.91743E+003    1.66802E+005
            1614    3.16201E+005    1.35020E+005   -2.24645E+005    9.62861E+003   -2.24645E+005    3.59665E+005    2.66656E+004   -2.50315E+005    1.00719E+004   -7.53664E+003   -8.25320E+004    9.89548E+003    1.12592E+003    1.75528E+005
            1615    3.18546E+005    1.59065E+005   -2.07187E+005    5.36754E+003   -2.07187E+005    3.66252E+005    1.42517E+004   -2.06898E+005    5.63312E+003   -2.66903E+003   -4.57191E+004    1.11900E+004    5.51328E+002    1.81490E+005
            1616    3.18312E+005    1.77897E+005   -1.89580E+005    7.26333E+002   -1.89580E+005    3.67477E+005    3.65228E+003   -1.25893E+005    7.77481E+002   -1.40442E+003   -1.03299E+004    1.18127E+004    4.03150E+001    1.83303E+005
            1617    3.18621E+005    1.99227E+005    1.99227E+005   -2.65328E+003   -1.68082E+005    3.67309E+005   -9.49701E+003    1.76800E+005   -2.83761E+003    3.01889E+003    2.83097E+004    1.15562E+004   -4.71751E+002    1.82844E+005
            1618    3.14762E+005    2.14326E+005    2.14326E+005   -7.83431E+003   -1.45869E+005    3.60196E+005   -2.02076E+004    2.30236E+005   -8.22161E+003    4.03804E+003    6.48063E+004    1.05446E+004   -9.99031E+002    1.77154E+005
            1619    3.07459E+005    5.33953E+004   -2.62899E+005    3.48873E+004   -2.62899E+005    3.16295E+005    5.82056E+004   -3.06202E+005    3.49195E+004   -3.17947E+004   -1.77742E+005    8.93979E+002    2.88624E+001    1.40286E+005
            1620    3.11207E+005    7.41296E+004   -2.58021E+005    2.68256E+004   -2.58021E+005    3.32150E+005    5.23552E+004   -3.02960E+005    2.69079E+004   -2.62185E+004   -1.57755E+005    3.27025E+003   -9.15910E+002    1.52428E+005
            1621    3.15808E+005    9.87484E+004   -2.48909E+005    2.02374E+004   -2.48909E+005    3.47657E+005    4.33076E+004   -2.92617E+005    2.03701E+004   -1.90253E+004   -1.31268E+005    5.74361E+003   -1.19654E+003    1.64377E+005
            1622    3.21192E+005    1.21419E+005   -2.39840E+005    1.34766E+004   -2.39840E+005    3.61259E+005    3.49815E+004   -2.75717E+005    1.36688E+004   -1.45200E+004   -1.04093E+005    8.27393E+003   -9.81795E+002    1.74750E+005
            1623    3.25978E+005    1.45811E+005   -2.26316E+005    8.75959E+003   -2.26316E+005    3.72128E+005    2.39151E+004   -2.47459E+005    8.94208E+003   -8.92776E+003   -7.17597E+004    1.03243E+004   -7.23598E+002    1.83076E+005
            1624    3.28996E+005    1.66652E+005   -2.11988E+005    4.01775E+003   -2.11988E+005    3.78640E+005    1.37724E+004   -2.04793E+005    4.14305E+003   -5.64069E+003   -3.98197E+004    1.16881E+004   -3.65127E+002    1.88175E+005
            1625    3.31094E+005    1.88584E+005   -1.93711E+005    7.82524E+002   -1.93711E+005    3.82295E+005    1.44808E+003   -1.03235E+005    8.10742E+002   -8.25696E+001   -5.07242E+003    1.22672E+004    3.10609E+001    1.90737E+005
            1626    3.28445E+005    2.04986E+005    2.04986E+005   -3.22066E+003   -1.73642E+005    3.78627E+005   -9.37448E+003    1.82588E+005   -3.29860E+003    2.95126E+003    2.84708E+004    1.18900E+004    3.85304E+002    1.88504E+005
            1627    3.26392E+005    2.22854E+005    2.22854E+005   -6.90357E+003   -1.50752E+005    3.73607E+005   -2.17327E+004    2.37586E+005   -7.06902E+003    8.83946E+003    6.34277E+004    1.06939E+004    6.59706E+002    1.84468E+005
            1628    3.11484E+005    6.52358E+004   -2.61256E+005    3.26597E+004   -2.61256E+005    3.26491E+005    5.44534E+004   -3.07616E+005    3.28045E+004   -3.18939E+004   -1.64271E+005    1.93832E+003    9.96859E+002    1.49146E+005
            1629    3.16435E+005    8.45171E+004   -2.56835E+005    2.67134E+004   -2.56835E+005    3.41352E+005    4.85349E+004   -3.04215E+005    2.69676E+004   -2.67597E+004   -1.45813E+005    4.24183E+003    7.46883E+002    1.59811E+005
            1630    3.22019E+005    1.04535E+005   -2.51430E+005    1.96292E+004   -2.51430E+005    3.55964E+005    4.24220E+004   -2.95220E+005    1.98998E+004   -2.34523E+004   -1.23714E+005    6.48530E+003    7.84839E+001    1.70579E+005
            1631    3.30315E+005    1.29239E+005   -2.43389E+005    1.34221E+004   -2.43389E+005    3.72627E+005    3.35759E+004   -2.78813E+005    1.36697E+004   -1.92039E+004   -9.51936E+004    8.80371E+003   -3.38639E+002    1.82137E+005
            1632    3.39310E+005    1.53720E+005   -2.34135E+005    7.82496E+003   -2.34135E+005    3.87856E+005    2.41967E+004   -2.52753E+005    8.02201E+003   -1.39353E+004   -6.66767E+004    1.08773E+004   -4.53048E+002    1.91793E+005
            1633    3.44560E+005    1.77968E+005   -2.18896E+005    3.95548E+003   -2.18896E+005    3.96864E+005    1.23241E+004   -2.05190E+005    4.06807E+003   -6.23810E+003   -3.48024E+004    1.22503E+004   -3.03492E+002    1.97530E+005
            1634    3.45012E+005    1.97542E+005   -2.00838E+005    1.35550E+002   -2.00838E+005    3.98380E+005    1.05369E+003   -8.60423E+004    1.43132E+002   -7.53013E+002   -2.55120E+003    1.27967E+004   -2.75985E+001    1.98776E+005
            1635    3.44532E+005    2.17027E+005    2.17027E+005   -3.03040E+003   -1.80027E+005    3.97054E+005   -1.13230E+004    1.96843E+005   -3.13332E+003    6.27473E+003    3.08275E+004    1.23542E+004    2.40556E+002    1.97756E+005
            1636    3.38513E+005    2.30723E+005    2.30723E+005   -7.47865E+003   -1.56774E+005    3.87497E+005   -2.21566E+004    2.46239E+005   -7.67139E+003    1.19537E+004    6.21876E+004    1.10357E+004    3.92146E+002    1.91773E+005
            1637    3.57378E+005    2.44591E+005    2.44591E+005   -7.15278E+003   -1.64456E+005    4.09046E+005   -2.43275E+004    2.60471E+005   -7.16317E+003    1.89033E+004    6.12424E+004    1.10497E+004    1.78757E+003    2.03115E+005
            1638    3.64819E+005    2.30715E+005    2.30715E+005   -3.03452E+003   -1.89662E+005    4.20377E+005   -1.26729E+004    2.10709E+005   -3.04334E+003    9.67994E+003    3.13820E+004    1.26531E+004    9.69178E+002    2.09524E+005
            1639    3.67878E+005    2.12253E+005   -2.12536E+005    1.47419E+002   -2.12536E+005    4.24789E+005    4.54669E+001   -4.89749E+004    1.51940E+002   -1.94867E+002   -9.34733E+001    1.32595E+004    2.86048E+001    2.11980E+005
            1640    3.64952E+005    1.88488E+005   -2.31952E+005    3.01195E+003   -2.31952E+005    4.20440E+005    1.34837E+004   -2.14188E+005    3.01709E+003   -1.09117E+004   -3.25566E+004    1.26537E+004   -1.03457E+003    2.09557E+005
            1641    3.56868E+005    1.63872E+005   -2.44489E+005    7.49750E+003   -2.44489E+005    4.08362E+005    2.43731E+004   -2.61237E+005    7.51081E+003   -1.90833E+004   -6.15470E+004    1.10396E+004   -1.78164E+003    2.02764E+005
            1642    3.44240E+005    1.36337E+005   -2.52650E+005    1.26804E+004   -2.52650E+005    3.88987E+005    3.45444E+004   -2.87490E+005    1.26943E+004   -2.74424E+004   -8.88852E+004    8.63340E+003   -2.20759E+003    1.91843E+005
            1643    3.26249E+005    1.07575E+005   -2.53811E+005    1.90158E+004   -2.53811E+005    3.61386E+005    4.24069E+004   -2.97353E+005    1.90239E+004   -3.35159E+004   -1.12729E+005    6.00064E+003   -2.28074E+003    1.76180E+005
            1644    3.11983E+005    8.41516E+004   -2.52649E+005    2.64637E+004   -2.52649E+005    3.36801E+005    4.73447E+004   -2.99629E+005    2.64567E+004   -3.09507E+004   -1.37540E+005    3.43424E+003   -2.09595E+003    1.59696E+005
            1645    3.12555E+005    7.37973E+004   -2.56913E+005    3.35971E+004   -2.56913E+005    3.30710E+005    4.98394E+004   -3.06658E+005    3.35749E+004   -2.66080E+004   -1.56485E+005    1.69078E+003   -2.05976E+003    1.52056E+005
            1646    4.01609E+005    8.51082E+004   -3.56529E+005   -1.32045E+004   -3.56529E+005    4.41637E+005    9.48750E+004   -3.73066E+005    8.42978E+004   -2.15766E+004   -3.47346E+005   -4.80825E+003    1.79177E+004    5.30148E+004
            1647    3.71529E+005    7.31708E+004   -3.34499E+005   -1.49574E+004   -3.34499E+005    4.07670E+005    9.20953E+004   -3.46823E+005    7.26581E+004   -2.92727E+004   -3.19671E+005   -5.05932E+003    1.28611E+004    6.61800E+004
            1648    3.41559E+005    6.38039E+004   -3.09156E+005   -1.15992E+004   -3.09156E+005    3.72960E+005    8.56503E+004   -3.22023E+005    6.34860E+004   -3.39833E+004   -2.86454E+005   -4.71946E+003    8.87760E+003    7.85476E+004
            1649    3.19778E+005    5.38184E+004   -2.91113E+005   -4.52055E+003   -2.91113E+005    3.44931E+005    8.06050E+004   -3.07462E+005    5.36497E+004   -4.14040E+004   -2.54061E+005   -3.91408E+003    5.23336E+003    9.60175E+004
            1650    3.07005E+005    4.72261E+004   -2.75524E+005    1.28399E+004   -2.75524E+005    3.22750E+005    7.18194E+004   -3.02627E+005    4.71478E+004   -4.18322E+004   -2.20774E+005   -2.62349E+003    2.96500E+003    1.13056E+005
            1651    3.06711E+005    4.12660E+004   -2.68843E+005    3.43518E+004   -2.68843E+005    3.10109E+005    6.44085E+004   -3.06535E+005    4.12104E+004   -4.04553E+004   -1.93981E+005   -1.17478E+003    8.75780E+002    1.30752E+005
            1652    3.10382E+005    5.58004E+004   -2.62823E+005    3.86019E+004   -2.62823E+005    3.18624E+005    5.61403E+004   -3.09307E+005    3.86021E+004   -3.32374E+004   -1.73786E+005    7.71249E+001   -1.87561E+001    1.42975E+005
            1653    3.93827E+005    3.47820E+005    3.47820E+005   -1.05772E+004   -7.37901E+004    4.21610E+005   -8.78177E+004    3.82163E+005   -7.31950E+004    6.67610E+003    3.29972E+005   -2.63001E+003   -1.54819E+004    7.66780E+004
            1654    3.59654E+005    3.09857E+005    3.09857E+005   -4.28782E+004   -5.63378E+004    3.66194E+005   -7.02135E+004    3.59086E+005   -5.53012E+004   -9.82687E+003    2.75769E+005   -1.40477E+003   -1.31650E+004    1.03610E+005
            1655    3.37482E+005    2.82907E+005    2.82907E+005   -3.62293E+004   -7.03323E+004    3.53239E+005   -5.87818E+004    3.33573E+005   -3.66717E+004   -7.80927E+003    2.20826E+005    7.24114E+002   -9.73324E+003    1.34043E+005
            1656    3.13972E+005    2.42996E+005    2.42996E+005   -2.46073E+004   -1.02631E+005    3.45627E+005   -3.85859E+004    2.90936E+005   -2.48744E+004   -1.22285E+004    1.52861E+005    2.09308E+003   -6.65565E+003    1.51581E+005
            1657    4.19675E+005    3.67598E+005    3.67598E+005   -1.71152E+004   -7.99527E+004    4.47551E+005   -9.01768E+004    4.08890E+005   -7.94886E+004   -5.44196E+003    3.55461E+005   -3.26486E+003   -1.38917E+004    6.59772E+004
            1658    3.87571E+005    3.39396E+005    3.39396E+005   -3.92579E+004   -5.65163E+004    3.95912E+005   -8.12072E+004    3.86705E+005   -5.61798E+004   -8.22058E+003    3.08022E+005   -2.51253E+003   -1.07927E+004    1.03870E+005
            1659    3.52603E+005    2.95905E+005    2.95905E+005   -4.14107E+004   -7.02185E+004    3.66123E+005   -6.14252E+004    3.49941E+005   -4.14109E+004   -1.62762E+004    2.41963E+005   -9.61794E+002   -8.71990E+003    1.29471E+005
            1660    3.33823E+005    2.65553E+005    2.65553E+005   -2.53552E+004   -9.89158E+004    3.64469E+005   -4.70940E+004    3.14803E+005   -2.53796E+004   -1.04667E+004    1.77128E+005   -2.67637E+001   -6.19696E+003    1.56110E+005
            1661    4.54633E+005    4.00720E+005    4.00720E+005   -1.43887E+004   -8.51416E+004    4.85861E+005   -1.00396E+005    4.41991E+005   -8.43653E+004   -3.20058E+003    3.88755E+005   -3.51774E+003   -1.90655E+004    6.71647E+004
            1662    4.11104E+005    3.55150E+005    3.55150E+005   -4.45843E+004   -6.64517E+004    4.21602E+005   -8.13713E+004    4.09793E+005   -6.57285E+004   -1.89206E+004    3.28763E+005   -3.70601E+003   -1.68016E+004    9.79279E+004
            1663    3.81362E+005    3.25369E+005    3.25369E+005   -4.46557E+004   -6.64004E+004    3.91769E+005   -7.14376E+004    3.79964E+005   -4.44601E+004   -1.30275E+004    2.71801E+005   -2.57676E+003   -1.28105E+004    1.33986E+005
            1664    3.44374E+005    2.74060E+005    2.74060E+005   -3.17809E+004   -9.89500E+004    3.73010E+005   -4.77764E+004    3.29148E+005   -3.15772E+004   -1.66849E+004    1.91591E+005   -2.35842E+003   -9.18096E+003    1.54512E+005
            1665    4.80242E+005    4.22258E+005    4.22258E+005   -2.24242E+004   -8.70084E+004    5.09266E+005   -1.04275E+005    4.70323E+005   -8.65206E+004   -1.35495E+004    4.12895E+005   -4.15735E+003   -1.41549E+004    6.24007E+004
            1666    4.47298E+005    3.96190E+005    3.96190E+005   -3.72791E+004   -6.37616E+004    4.59951E+005   -9.83829E+004    4.45529E+005   -6.32571E+004   -9.74399E+003    3.68150E+005   -4.99437E+003   -1.28842E+004    1.05851E+005
            1667    3.98294E+005    3.40887E+005    3.40887E+005   -5.02262E+004   -6.42188E+004    4.05106E+005   -7.54806E+004    3.97740E+005   -4.98511E+004   -1.60638E+004    2.92357E+005   -4.86290E+003   -1.15303E+004    1.31000E+005
            1668    3.73018E+005    3.07371E+005    3.07371E+005   -3.22481E+004   -9.18663E+004    3.99237E+005   -6.10854E+004    3.62066E+005   -3.19362E+004   -1.12039E+004    2.26396E+005   -5.31947E+003   -8.99439E+003    1.60214E+005
            1669    5.17329E+005    4.65781E+005    4.65781E+005   -1.23111E+004   -8.34272E+004    5.49208E+005   -1.23348E+005    5.06157E+005   -8.28067E+004    9.12271E+002    4.51937E+005   -4.34304E+003   -1.75847E+004    7.84297E+004
            1670    4.57773E+005    4.03720E+005    4.03720E+005   -3.57776E+004   -7.03663E+004    4.74086E+005   -9.91920E+004    4.54819E+005   -6.96728E+004   -1.02316E+004    3.77480E+005   -5.88078E+003   -1.57385E+004    1.02971E+005
            1671    4.27115E+005    3.76099E+005    3.76099E+005   -4.89990E+004   -5.30045E+004    4.29104E+005   -9.13652E+004    4.27073E+005   -4.94401E+004   -4.85942E+003    3.28395E+005   -5.98014E+003   -1.20187E+004    1.34144E+005
            1672    3.87932E+005    3.23085E+005    3.23085E+005   -3.78943E+004   -8.71040E+004    4.10189E+005   -6.60289E+004    3.80815E+005   -3.76616E+004   -1.23718E+004    2.48120E+005   -7.61845E+003   -9.57241E+003    1.58071E+005
            1673    5.17540E+005    4.69241E+005    4.69241E+005   -7.13752E+003   -8.14312E+004    5.50672E+005   -1.26891E+005    5.05334E+005   -8.10969E+004    8.02465E+003    4.53744E+005   -5.06078E+003   -9.43319E+003    8.40081E+004
            1674    4.81461E+005    4.41426E+005    4.41426E+005   -1.10731E+004   -6.45347E+004    5.05961E+005   -1.21939E+005    4.74714E+005   -6.37218E+004    1.39806E+004    4.15559E+005   -7.97538E+003   -1.15835E+004    1.04411E+005
            1675    4.43115E+005    3.95125E+005    3.95125E+005   -4.12747E+004   -5.44133E+004    4.49538E+005   -9.98123E+004    4.42677E+005   -5.18053E+004   -2.33946E+003    3.53582E+005   -8.43574E+003   -9.94377E+003    1.27943E+005
            1676    4.15436E+005    3.62658E+005    3.62658E+005   -3.35487E+004   -6.96504E+004    4.32309E+005   -8.64864E+004    4.11885E+005   -3.42170E+004    2.51640E+003    2.91160E+005   -9.90481E+003   -7.81094E+003    1.60044E+005
            1677    5.09577E+005    4.78541E+005    4.78541E+005    2.72080E+004   -7.40699E+004    5.52611E+005   -1.43893E+005    4.86153E+005   -7.38501E+004    4.21478E+004    4.63381E+005   -3.85835E+003   -9.32791E+003    8.08449E+004
            1678    4.96457E+005    4.56051E+005    4.56051E+005   -9.91109E+003   -6.61158E+004    5.22167E+005   -1.26675E+005    4.89222E+005   -6.57097E+004    1.03293E+004    4.35405E+005   -5.53241E+003   -8.39634E+003    9.55205E+004
            1679    4.70255E+005    4.38505E+005    4.38505E+005   -1.30070E+004   -4.84831E+004    4.86989E+005   -1.25672E+005    4.67230E+005   -4.71029E+004    2.51490E+004    3.98969E+005   -8.79025E+003   -6.57102E+003    1.27551E+005
            1680    4.28590E+005    3.90138E+005    3.90138E+005   -2.91265E+004   -4.72041E+004    4.37342E+005   -1.04603E+005    4.27730E+005   -3.29698E+004    1.87909E+004    3.27986E+005   -1.01749E+004   -5.03253E+003    1.51676E+005
            1681    4.32805E+005    4.33804E+005    4.33804E+005    2.49216E+004   -1.94985E+004    4.53302E+005   -1.46409E+005    4.27632E+005   -1.74449E+004    7.77883E+004    3.78883E+005   -9.72633E+003    6.35640E+002    1.39802E+005
            1682    4.73226E+005    4.59940E+005    4.59940E+005    2.30633E+004   -4.27456E+004    5.02686E+005   -1.46753E+005    4.62763E+005   -4.18588E+004    5.51739E+004    4.26943E+005   -8.10075E+003   -1.05888E+003    1.15530E+005
            1683    5.15919E+005    4.88550E+005    4.88550E+005    1.55752E+004   -6.16138E+004    5.50164E+005   -1.47504E+005    5.02681E+005   -6.11243E+004    4.08939E+004    4.62742E+005   -6.86378E+003   -3.67860E+003    1.07378E+005
            1684    5.59006E+005    4.96672E+005    4.96672E+005   -3.28689E+004   -8.77504E+004    5.84422E+005   -1.25351E+005    5.52896E+005   -8.71228E+004   -2.36893E+004    4.86865E+005   -6.33928E+003   -6.65191E+003    7.10839E+004
            1685    4.34632E+005    3.81470E+005    3.81470E+005    9.55483E+003   -9.63172E+004    4.77787E+005   -9.82359E+004    4.04063E+005   -9.57292E+004    1.50340E+004    3.75403E+005   -2.68555E+003   -1.64874E+004    4.47894E+004
            1686    4.62540E+005    4.06925E+005    4.06925E+005    1.33518E+004   -1.02541E+005    5.09466E+005   -1.05912E+005    4.28006E+005   -1.01879E+005    1.69102E+004    4.02704E+005   -2.28782E+003   -1.81859E+004    3.72357E+004
            1687    4.91919E+005    4.26112E+005    4.26112E+005   -2.40202E+003   -1.11048E+005    5.37160E+005   -1.04220E+005    4.63757E+005   -1.10385E+005   -1.06079E+003    4.24107E+005   -1.91482E+003   -1.86937E+004    2.39786E+004
            1688    5.23424E+005    4.61879E+005    4.61879E+005    3.89504E+002   -1.06864E+005    5.68743E+005   -1.18468E+005    4.97792E+005   -1.06360E+005    2.56067E+003    4.59204E+005   -1.71946E+003   -1.67956E+004    3.15835E+004
            1689    5.41156E+005    4.78251E+005    4.78251E+005   -7.61334E+003   -1.04979E+005    5.83229E+005   -1.21886E+005    5.20900E+005   -1.04612E+005   -5.95460E+003    4.76225E+005   -1.59831E+003   -1.44299E+004    2.83790E+004
            1690    5.81195E+005    5.42033E+005    5.42033E+005    1.62475E+004   -8.20370E+004    6.24071E+005   -1.58748E+005    5.62040E+005   -8.18672E+004    2.29825E+004    5.35129E+005   -1.19631E+003   -1.02249E+004    5.91158E+004
            1691    5.44933E+005    5.14377E+005    5.14377E+005    3.56108E+004   -7.86149E+004    5.92992E+005   -1.57124E+005    5.16958E+005   -7.83884E+004    4.37878E+004    5.05973E+005   -1.40646E+003   -1.14992E+004    6.20176E+004
            1692    3.73698E+005    3.64492E+005    3.64492E+005    2.89314E+003   -2.02314E+004    3.84724E+005   -1.15718E+005    3.72083E+005   -4.60889E+003    6.73042E+004    2.84459E+005   -1.15064E+004    1.36775E+003    1.54169E+005
            1693    3.33431E+005    2.85951E+005    2.85951E+005    3.80773E+003   -8.19966E+004    3.67947E+005   -6.92539E+004    3.07083E+005    2.56053E+003    4.25644E+004    1.62637E+005   -1.25500E+004    1.06539E+003    1.73089E+005
            1694    3.09973E+005    1.77764E+005   -1.80162E+005   -7.53313E+002   -1.80162E+005    3.57925E+005    1.05046E+003   -5.04597E+004   -7.50898E+002    2.48592E+002   -2.64908E+003   -1.31916E+004    5.37292E+001    1.78470E+005
            1695    3.28670E+005    8.27456E+004   -2.80266E+005   -2.88837E+003   -2.80266E+005    3.63011E+005    6.68028E+004   -3.02004E+005   -1.68728E+003   -4.12207E+004   -1.57500E+005   -1.24627E+004   -9.41294E+002    1.71148E+005
            1696    3.80451E+005    1.72745E+004   -3.74095E+005   -5.59543E+003   -3.74095E+005    3.91370E+005    1.20805E+005   -3.78900E+005    2.37736E+003   -6.99415E+004   -2.94852E+005   -1.15397E+004   -1.39400E+003    1.55196E+005
            1697    4.25867E+005    2.04676E+004   -4.26916E+005   -2.64529E+004   -4.26916E+005    4.47384E+005    1.44301E+005   -4.19992E+005    1.86147E+004   -7.41355E+004   -3.77381E+005   -9.42022E+003   -8.04769E+002    1.32172E+005
            1698    4.77022E+005    3.87022E+004   -4.69752E+005   -3.20716E+004   -4.69752E+005    5.08454E+005    1.54374E+005   -4.64989E+005    3.77991E+004   -6.48155E+004   -4.36105E+005   -8.43094E+003    8.82784E+002    1.16688E+005
            1699    5.10405E+005    5.90086E+004   -4.86565E+005   -2.07110E+004   -4.86565E+005    5.45574E+005    1.49423E+005   -4.96108E+005    5.86259E+004   -3.83734E+004   -4.68520E+005   -6.04225E+003    3.70210E+003    8.98213E+004
            1700    5.25815E+005    6.86436E+004   -5.02143E+005   -3.74905E+004   -5.02143E+005    5.70786E+005    1.56996E+005   -5.00858E+005    6.84513E+004   -4.82554E+004   -4.91185E+005   -3.99702E+003    7.76406E+003    7.01245E+004
            1701    3.96890E+005    3.43878E+005    3.43878E+005   -1.62995E+004   -8.16211E+004    4.25499E+005   -8.19858E+004    3.84517E+005   -1.73947E+004    2.05083E+004    2.42844E+005   -1.23547E+004   -3.30128E+003    1.80494E+005
            1702    3.78123E+005    3.03742E+005    3.03742E+005   -2.19843E+004   -1.10922E+005    4.14664E+005   -5.69454E+004    3.53422E+005   -2.21857E+004   -2.58890E+003    1.95611E+005   -1.07206E+004   -5.05984E+003    1.81663E+005
            1703    3.66361E+005    2.85273E+005    2.85273E+005   -2.07978E+004   -1.20668E+005    4.05940E+005   -4.79358E+004    3.33614E+005   -2.06309E+004   -5.85448E+003    1.70293E+005   -7.44405E+003   -5.96156E+003    1.82664E+005
            1704    3.40539E+005    2.53290E+005    2.53290E+005   -2.05165E+004   -1.28030E+005    3.81320E+005   -3.49145E+004    2.98614E+005   -2.03304E+004   -1.13278E+004    1.36402E+005   -4.43657E+003   -5.68398E+003    1.75666E+005
            1705    3.30222E+005    2.42384E+005    2.42384E+005   -1.60929E+004   -1.29628E+005    3.72012E+005   -3.22211E+004    2.80990E+005   -1.60413E+004   -7.69974E+003    1.20404E+005   -1.00783E+003   -5.38848E+003    1.74554E+005
            1706    3.11446E+005    2.21280E+005    2.21280E+005   -1.51448E+004   -1.31615E+005    3.52895E+005   -2.48400E+004    2.55045E+005   -1.52250E+004   -9.72449E+003    9.94695E+004    1.56089E+003   -3.55297E+003    1.67729E+005
            1707    3.07815E+005    2.18051E+005    2.18051E+005   -1.18050E+004   -1.31663E+005    3.49714E+005   -2.48609E+004    2.46445E+005   -1.20391E+004   -4.60270E+003    9.12244E+004    3.79859E+003   -3.79709E+003    1.68040E+005
            1708    3.60080E+005    2.68328E+005    2.68328E+005   -8.20420E+003   -1.38834E+005    4.07162E+005   -4.04298E+004    2.99343E+005   -8.57939E+003    9.34869E+003    1.20520E+005   -1.28659E+004   -1.56800E+003    1.95346E+005
            1709    3.61883E+005    2.55548E+005    2.55548E+005   -8.43800E+003   -1.56968E+005    4.12516E+005   -3.00474E+004    2.79824E+005   -8.51804E+003    1.35845E+003    9.73017E+004   -1.11890E+004   -2.26729E+003    2.00265E+005
            1710    3.43644E+005    2.28331E+005    2.28331E+005   -1.05447E+004   -1.65506E+005    3.93837E+005   -1.74267E+004    2.44235E+005   -1.04566E+004   -4.90256E+003    6.76393E+004   -8.20591E+003   -2.69793E+003    1.93366E+005
            1711    3.32922E+005    2.18004E+005    2.18004E+005   -6.50110E+003   -1.64499E+005    3.82503E+005   -1.56680E+004    2.21791E+005   -6.42912E+003   -2.36226E+003    5.57955E+004   -4.85684E+003   -2.20159E+003    1.88959E+005
            1712    3.14536E+005    1.96501E+005    1.96501E+005   -6.84509E+003   -1.65787E+005    3.62288E+005   -7.95621E+003    1.87062E+005   -6.82037E+003   -4.86799E+003    3.55570E+004   -1.28713E+003   -1.89132E+003    1.80000E+005
            1713    3.08938E+005    1.94150E+005    1.94150E+005   -3.58242E+003   -1.61853E+005    3.56003E+005   -9.57161E+003    1.77780E+005   -3.60243E+003   -9.96101E+002    3.33134E+004    1.51924E+003   -1.00035E+003    1.77162E+005
            1714    2.97867E+005    1.81191E+005    1.81191E+005   -4.45324E+003   -1.62384E+005    3.43575E+005   -4.78445E+003    1.54356E+005   -4.52181E+003   -3.35138E+003    2.22265E+004    3.90997E+003   -1.19448E+003    1.71259E+005
            1715    3.52462E+005    2.00647E+005   -2.06321E+005    7.26313E+002   -2.06321E+005    4.06968E+005    1.64930E+003   -1.09914E+005    7.53253E+002    2.31434E+002   -5.93258E+003   -1.36556E+004    2.37400E+001    2.03001E+005
            1716    3.51513E+005    1.90666E+005   -2.14959E+005    5.94769E+002   -2.14959E+005    4.05625E+005    7.89924E+003   -1.67680E+005    6.20441E+002   -9.06077E+002   -2.34121E+004   -1.16121E+004    4.66252E+002    2.02166E+005
            1717    3.43958E+005    1.86507E+005   -2.10237E+005    4.03361E+003   -2.10237E+005    3.96744E+005    6.56570E+003   -1.77864E+005    4.00686E+003    2.63224E+003   -2.63362E+004   -8.06672E+003    9.47416E+002    1.97677E+005
            1718    3.27947E+005    1.69907E+005   -2.07874E+005    3.61298E+003   -2.07874E+005    3.77781E+005    1.14514E+004   -1.93496E+005    3.56866E+003    1.61397E+003   -3.95369E+004   -4.41712E+003    1.44962E+003    1.87712E+005
            1719    3.18322E+005    1.67165E+005   -1.99509E+005    5.99312E+003   -1.99509E+005    3.66674E+005    8.78353E+003   -1.88467E+005    5.98077E+003    4.86823E+003   -3.71996E+004   -7.67958E+002    1.56315E+003    1.82119E+005
            1720    3.05806E+005    1.55779E+005   -1.96180E+005    4.52234E+003   -1.96180E+005    3.51959E+005    1.19596E+004   -1.90153E+005    4.56609E+003    2.60356E+003   -4.30484E+004    2.02878E+003    1.59219E+003    1.74470E+005
            1721    3.01497E+005    1.57800E+005   -1.89452E+005    5.66836E+003   -1.89452E+005    3.47253E+005    8.66116E+003   -1.79895E+005    5.75868E+003    4.40164E+003   -3.61438E+004    4.35366E+003    1.25529E+003    1.72374E+005
            1722    3.66260E+005    1.26361E+005   -2.84591E+005    7.40397E+003   -2.84591E+005    4.10952E+005    5.02753E+004   -3.18233E+005    7.89055E+003   -1.26432E+004   -1.46073E+005   -1.28583E+004    1.73710E+003    1.93801E+005
            1723    3.64844E+005    1.41046E+005   -2.70435E+005    1.35626E+004   -2.70435E+005    4.11480E+005    3.86089E+004   -3.08406E+005    1.36587E+004    3.23179E+002   -1.29809E+005   -1.11476E+004    3.33815E+003    1.94814E+005
            1724    3.55173E+005    1.36534E+005   -2.63463E+005    1.49552E+004   -2.63463E+005    3.99997E+005    3.73244E+004   -3.02746E+005    1.48554E+004    4.43975E+003   -1.31268E+005   -8.23942E+003    4.35871E+003    1.87926E+005
            1725    3.41350E+005    1.37135E+005   -2.47926E+005    1.75129E+004   -2.47926E+005    3.85062E+005    3.10926E+004   -2.88192E+005    1.73349E+004    9.56124E+003   -1.20174E+005   -5.12577E+003    5.10057E+003    1.81166E+005
            1726    3.26908E+005    1.28810E+005   -2.39638E+005    1.56742E+004   -2.39638E+005    3.68448E+005    3.17182E+004   -2.77436E+005    1.55924E+004    8.82433E+003   -1.19571E+005   -1.68866E+003    5.00708E+003    1.72612E+005
            1727    3.15264E+005    1.30087E+005   -2.26350E+005    1.59440E+004   -2.26350E+005    3.56437E+005    2.67730E+004   -2.62333E+005    1.59994E+004    1.00736E+004   -1.06392E+005    9.42433E+002    4.16139E+003    1.68372E+005
            1728    3.05398E+005    1.25258E+005   -2.20348E+005    1.31641E+004   -2.20348E+005    3.45606E+005    2.73084E+004   -2.52464E+005    1.33666E+004    6.50607E+003   -1.01798E+005    3.24595E+003    3.74348E+003    1.63986E+005
            1729    3.95529E+005    7.24852E+004   -3.47483E+005    1.79443E+004   -3.47483E+005    4.19969E+005    8.56846E+004   -3.86933E+005    1.92909E+004   -2.03258E+004   -2.56019E+005   -1.18879E+004    3.17361E+003    1.72753E+005
            1730    3.92665E+005    9.16899E+004   -3.30641E+005    2.34006E+004   -3.30641E+005    4.22331E+005    7.18501E+004   -3.78958E+005    2.37568E+004   -2.10810E+003   -2.37199E+005   -1.05005E+004    5.73113E+003    1.74871E+005
            1731    3.78157E+005    1.01918E+005   -3.07244E+005    2.94083E+004   -3.07244E+005    4.09162E+005    5.86393E+004   -3.62018E+005    2.92242E+004    9.33392E+003   -2.14476E+005   -7.42467E+003    7.50507E+003    1.71007E+005
            1732    3.63553E+005    9.97935E+004   -2.94279E+005    2.80607E+004   -2.94279E+005    3.94072E+005    5.54748E+004   -3.47091E+005    2.77924E+004    1.21135E+004   -2.06330E+005   -4.60823E+003    8.09343E+003    1.63831E+005
            1733    3.44524E+005    1.02828E+005   -2.72663E+005    2.88890E+004   -2.72663E+005    3.75490E+005    4.69820E+004   -3.25948E+005    2.87677E+004    1.53490E+004   -1.85063E+005   -1.59260E+003    8.23751E+003    1.58589E+005
            1734    3.30414E+005    9.85808E+004   -2.62445E+005    2.49251E+004   -2.62445E+005    3.61026E+005    4.63132E+004   -3.11128E+005    2.50198E+004    1.22563E+004   -1.76216E+005    6.97344E+002    6.42475E+003    1.53794E+005
            1735    3.15467E+005    1.01888E+005   -2.45213E+005    2.40479E+004   -2.45213E+005    3.47101E+005    3.97590E+004   -2.92667E+005    2.43775E+004    1.10685E+004   -1.54723E+005    2.68151E+003    6.22771E+003    1.52218E+005
            1736    4.38288E+005    3.87982E+004   -4.07255E+005    2.28321E+004   -4.07255E+005    4.46053E+005    1.15208E+005   -4.37633E+005    3.24476E+004   -2.83509E+004   -3.49721E+005   -1.02858E+004    4.97524E+003    1.47412E+005
            1737    4.23192E+005    5.91716E+004   -3.73929E+005    3.86052E+004   -3.73929E+005    4.33100E+005    9.20506E+004   -4.22065E+005    4.01616E+004   -2.87556E+003   -3.13438E+005   -9.81378E+003    8.49797E+003    1.49353E+005
            1738    4.11724E+005    6.73453E+004   -3.56221E+005    4.25385E+004   -3.56221E+005    4.23567E+005    8.21126E+004   -4.10038E+005    4.25211E+004    7.43019E+003   -2.96289E+005   -7.60065E+003    1.05955E+004    1.47051E+005
            1739    3.90293E+005    7.45682E+004   -3.30042E+005    4.41559E+004   -3.30042E+005    4.04610E+005    7.04392E+004   -3.87614E+005    4.37845E+004    1.53487E+004   -2.70451E+005   -5.85161E+003    1.10772E+004    1.42877E+005
            1740    3.71376E+005    7.38649E+004   -3.12683E+005    4.13864E+004   -3.12683E+005    3.86548E+005    6.58107E+004   -3.68160E+005    4.10564E+004    1.61964E+004   -2.54685E+005   -3.18569E+003    1.16328E+004    1.37544E+005
            1741    3.47852E+005    7.51156E+004   -2.89503E+005    3.87190E+004   -2.89503E+005    3.64619E+005    5.85562E+004   -3.43528E+005    3.86565E+004    1.49954E+004   -2.29321E+005   -1.26113E+003    8.69201E+003    1.35078E+005
            1742    3.32534E+005    7.42695E+004   -2.76387E+005    3.44355E+004   -2.76387E+005    3.50657E+005    5.58941E+004   -3.27102E+005    3.47174E+004    1.01313E+004   -2.12531E+005    5.94019E+002    8.91146E+003    1.35009E+005
            1743    4.67899E+005    4.88675E+004   -4.38541E+005    7.04118E+003   -4.38541E+005    4.87408E+005    1.27544E+005   -4.63665E+005    4.80150E+004   -2.64071E+004   -4.04240E+005   -7.43631E+003    6.12257E+003    1.18653E+005
            1744    4.59464E+005    5.22907E+004   -4.19114E+005    2.73984E+004   -4.19114E+005    4.71405E+005    1.13142E+005   -4.57944E+005    5.11620E+004   -8.21505E+003   -3.82372E+005   -7.57533E+003    9.51383E+003    1.22377E+005
            1745    4.40439E+005    5.82447E+004   -3.88387E+005    4.55855E+004   -3.88387E+005    4.46632E+005    9.48523E+004   -4.40029E+005    5.76812E+004    8.75965E+003   -3.50998E+005   -5.28028E+003    1.28468E+004    1.21091E+005
            1746    4.25094E+005    5.59251E+004   -3.72726E+005    4.87211E+004   -3.72726E+005    4.28651E+005    8.93598E+004   -4.24957E+005    5.55012E+004    1.33829E+004   -3.36964E+005   -4.23218E+003    1.20737E+004    1.16821E+005
            1747    3.95125E+005    5.81037E+004   -3.40115E+005    5.18427E+004   -3.40115E+005    3.98219E+005    7.67228E+004   -3.95014E+005    5.69598E+004    1.64495E+004   -3.03578E+005   -2.78166E+003    1.47638E+004    1.13172E+005
            1748    3.75711E+005    5.20887E+004   -3.25474E+005    4.83575E+004   -3.25474E+005    3.77563E+005    7.50093E+004   -3.75669E+005    5.01185E+004    1.21030E+004   -2.87249E+005   -1.44641E+003    1.01569E+004    1.13146E+005
            1749    3.49178E+005    5.38611E+004   -2.99071E+005    4.62287E+004   -2.99071E+005    3.52932E+005    6.63270E+004   -3.48990E+005    4.89502E+004    8.84602E+003   -2.56777E+005   -3.42350E+002    1.17411E+004    1.13571E+005
            1750    5.00504E+005    6.32410E+004   -4.70805E+005   -1.24699E+004   -4.70805E+005    5.34046E+005    1.40011E+005   -4.87371E+005    6.27731E+004   -3.39454E+004   -4.48862E+005   -6.71590E+003    7.98548E+003    9.75319E+004
            1751    4.91026E+005    7.03037E+004   -4.46688E+005    1.34172E+004   -4.46688E+005    5.16992E+005    1.20989E+005   -4.83529E+005    6.94459E+004   -8.52626E+003   -4.23887E+005   -8.19490E+003    1.17859E+004    9.91596E+004
            1752    4.78878E+005    7.31586E+004   -4.27608E+005    2.58729E+004   -4.27608E+005    5.00767E+005    1.09526E+005   -4.73583E+005    7.24289E+004    5.97661E+003   -4.06982E+005   -6.33424E+003    1.56083E+004    9.32381E+004
            1753    4.52571E+005    7.43814E+004   -3.98011E+005    3.17158E+004   -3.98011E+005    4.72393E+005    9.73047E+004   -4.48012E+005    7.37703E+004    1.25587E+004   -3.78243E+005   -5.53972E+003    1.40716E+004    8.89561E+004
            1754    4.31656E+005    7.28613E+004   -3.77659E+005    3.22645E+004   -3.77659E+005    4.50520E+005    9.08444E+004   -4.27329E+005    7.21588E+004    1.29429E+004   -3.57635E+005   -4.09205E+003    1.72824E+004    8.67990E+004
            1755    3.97587E+005    6.78819E+004   -3.47353E+005    2.98515E+004   -3.47353E+005    4.15235E+005    8.32066E+004   -3.93463E+005    6.74701E+004    8.96168E+003   -3.26052E+005   -3.33074E+003    1.26105E+004    8.62291E+004
            1756    3.77241E+005    6.32385E+004   -3.30576E+005    2.75575E+004   -3.30576E+005    3.93814E+005    7.99265E+004   -3.73417E+005    6.26662E+004    2.28653E+003   -3.04732E+005   -2.21258E+003    1.39642E+004    9.17740E+004
            1757    5.20857E+005    7.02684E+004   -4.88630E+005   -1.67835E+004   -4.88630E+005    5.58898E+005    1.45048E+005   -5.04099E+005    7.02428E+004   -3.13572E+004   -4.74030E+005   -6.50273E+002    3.72348E+003    8.16321E+004
            1758    5.26600E+005    7.98761E+004   -4.83148E+005   -2.73925E+003   -4.83148E+005    5.63024E+005    1.35337E+005   -5.11714E+005    7.95980E+004   -1.46944E+004   -4.70915E+005   -3.55864E+003    1.12381E+004    7.49310E+004
            1759    5.05238E+005    8.82791E+004   -4.51023E+005    1.13203E+004   -4.51023E+005    5.39302E+005    1.17141E+005   -4.91791E+005    8.78711E+004    1.00384E+003   -4.40298E+005   -2.97614E+003    1.43976E+004    6.82851E+004
            1760    4.94502E+005    8.99890E+004   -4.37565E+005    1.54118E+004   -4.37565E+005    5.27554E+005    1.10722E+005   -4.81605E+005    8.94653E+004    7.16634E+003   -4.28796E+005   -3.51100E+003    1.59056E+004    6.06086E+004
            1761    4.57421E+005    9.14657E+004   -4.00140E+005    1.29253E+004   -4.00140E+005    4.91605E+005    9.85829E+004   -4.41867E+005    9.08001E+004    5.18384E+003   -3.91733E+005   -2.91435E+003    1.78105E+004    5.59795E+004
            1762    4.33698E+005    8.47764E+004   -3.82126E+005    8.15405E+003   -3.82126E+005    4.66903E+005    9.63986E+004   -4.18061E+005    8.42224E+004   -1.93435E+003   -3.71484E+005   -3.08968E+003    1.57303E+004    6.18976E+004
            1763    4.01145E+005    8.01361E+004   -3.52643E+005    6.72790E+003   -3.52643E+005    4.32779E+005    8.85930E+004   -3.85596E+005    7.95930E+004   -5.99752E+003   -3.39375E+005   -2.60077E+003    1.50859E+004    6.63679E+004
            1764    4.38818E+005    9.72881E+004   -3.86642E+005   -1.45982E+004   -3.86642E+005    4.83930E+005    1.01317E+005   -4.04818E+005    9.66909E+004   -2.00619E+004   -3.80581E+005   -2.78337E+003    1.67061E+004    4.47371E+004
            1765    4.65733E+005    1.06292E+005   -4.06295E+005   -9.11752E+003   -4.06295E+005    5.12586E+005    1.03040E+005   -4.31767E+005    1.05625E+005   -1.16252E+004   -4.03121E+005   -2.42344E+003    1.82197E+004    3.14837E+004
            1766    5.01078E+005    1.10324E+005   -4.37351E+005   -1.90155E+003   -4.37351E+005    5.47675E+005    1.09643E+005   -4.71542E+005    1.09667E+005   -3.89298E+003   -4.34702E+005   -2.07376E+003    1.87882E+004    2.93997E+004
            1767    5.19802E+005    1.11783E+005   -4.52925E+005    5.56407E+003   -4.52925E+005    5.64707E+005    1.11859E+005   -4.94493E+005    1.11284E+005    3.94742E+003   -4.50809E+005   -2.09944E+003    1.64846E+004    2.72604E+004
            1768    5.52102E+005    1.03277E+005   -4.90711E+005    6.78197E+003   -4.90711E+005    5.93988E+005    1.26884E+005   -5.32632E+005    1.02914E+005    3.26663E+003   -4.86832E+005   -2.17921E+003    1.43519E+004    4.17133E+004
            1769    5.39980E+005    9.34017E+004   -4.91423E+005   -1.17596E+004   -4.91423E+005    5.84825E+005    1.36594E+005   -5.16181E+005    9.32120E+004   -1.86185E+004   -4.84375E+005   -2.68354E+003    9.66187E+003    5.70261E+004
            1770    5.44930E+005    7.91541E+004   -5.11481E+005   -2.82493E+004   -5.11481E+005    5.90635E+005    1.53525E+005   -5.20311E+005    7.89878E+004   -3.49282E+004   -5.04636E+005   -2.77723E+003    8.78181E+003    5.65252E+004
            1771    2.96948E+005    2.48520E+005    2.48520E+005   -3.96757E+004   -5.64676E+004    3.04988E+005   -5.07923E+004    2.95877E+005   -3.97475E+004    3.17366E+004    1.60388E+005    1.19042E+003   -1.83031E+002    1.38222E+005
            1772    3.07727E+005    2.54508E+005    2.54508E+005   -3.07675E+004   -7.15957E+004    3.26103E+005   -5.07148E+004    3.01543E+005   -3.08095E+004    4.31616E+004    1.39792E+005    2.47688E+003    7.82784E+002    1.55691E+005
            1773    3.28458E+005    2.55815E+005    2.55815E+005   -2.42967E+004   -1.05684E+005    3.61500E+005   -4.19448E+004    3.04506E+005   -2.43342E+004    3.52419E+004    1.14927E+005    4.25317E+003    1.16363E+003    1.76238E+005
            1774    3.43264E+005    2.51503E+005    2.51503E+005   -1.69932E+004   -1.35257E+005    3.86761E+005   -3.30842E+004    2.91845E+005   -1.70151E+004    2.68515E+004    8.94162E+004    6.24988E+003    1.49263E+003    1.90721E+005
            1775    3.29878E+005    2.41354E+005    2.41354E+005   -1.53851E+004   -1.30702E+005    3.72056E+005   -3.17556E+004    2.78796E+005   -1.54609E+004    1.93355E+004    9.13923E+004    6.36660E+003    9.11784E+002    1.82378E+005
            1776    3.17182E+005    2.33116E+005    2.33116E+005   -1.57542E+004   -1.24024E+005    3.57141E+005   -3.11126E+004    2.70660E+005   -1.60125E+004    1.26679E+004    9.66825E+004    6.49011E+003   -9.67255E+002    1.73383E+005
            1777    3.11476E+005    2.31035E+005    2.31035E+005   -1.52320E+004   -1.19104E+005    3.50139E+005   -3.22331E+004    2.68138E+005   -1.53851E+004    9.33491E+003    1.02750E+005    6.07859E+003    2.20317E+002    1.68582E+005
            1778    3.04337E+005    2.26321E+005    2.26321E+005   -1.69489E+004   -1.14940E+005    3.41261E+005   -3.14776E+004    2.65195E+005   -1.73401E+004    3.83349E+003    1.07939E+005    5.93909E+003   -2.46742E+003    1.62282E+005
            1779    3.03548E+005    2.30046E+005    2.30046E+005   -1.65406E+004   -1.08974E+005    3.39019E+005   -3.48439E+004    2.69042E+005   -1.67799E+004    3.00808E+003    1.18303E+005    5.29258E+003   -9.73956E+002    1.59257E+005
            1780    3.01674E+005    2.28783E+005    2.28783E+005   -1.97485E+004   -1.06862E+005    3.35645E+005   -3.40577E+004    2.71135E+005   -2.01892E+004   -4.19694E+003    1.26559E+005    4.66637E+003   -4.19047E+003    1.54321E+005
            1781    3.09568E+005    2.40116E+005    2.40116E+005   -1.96607E+004   -1.02422E+005    3.42537E+005   -3.93444E+004    2.83030E+005   -1.99183E+004   -4.16023E+003    1.42112E+005    3.52659E+003   -3.08100E+003    1.54723E+005
            1782    3.16546E+005    2.46902E+005    2.46902E+005   -2.24427E+004   -1.01759E+005    3.48662E+005   -4.09001E+004    2.92910E+005   -2.25053E+004    2.49963E+004    1.20209E+005    4.45517E+003    1.03607E+003    1.67625E+005
            1783    3.14098E+005    2.46172E+005    2.46172E+005   -2.29732E+004   -9.89434E+004    3.45116E+005   -4.14186E+004    2.92336E+005   -2.32801E+004    1.78395E+004    1.29696E+005    4.78826E+003   -1.68584E+003    1.63073E+005
            1784    3.07834E+005    2.43625E+005    2.43625E+005   -2.35993E+004   -9.29778E+004    3.36602E+005   -4.23492E+004    2.89448E+005   -2.37589E+004    1.27526E+004    1.38054E+005    4.27538E+003    2.70812E+000    1.56096E+005
            1785    3.06821E+005    2.47006E+005    2.47006E+005   -2.49337E+004   -8.56262E+004    3.32632E+005   -4.54820E+004    2.92855E+005   -2.54345E+004    1.07283E+004    1.51152E+005    4.15331E+003   -3.73111E+003    1.50489E+005
            1786    3.05265E+005    2.47983E+005    2.47983E+005   -2.68861E+004   -8.05587E+004    3.28541E+005   -4.68459E+004    2.94367E+005   -2.71778E+004    3.86642E+003    1.63849E+005    3.50627E+003   -1.82415E+003    1.43312E+005
            1787    3.12045E+005    2.57539E+005    2.57539E+005   -2.93938E+004   -7.46713E+004    3.32210E+005   -5.11580E+004    3.04523E+005   -3.00263E+004    2.22569E+003    1.81275E+005    2.90409E+003   -6.26212E+003    1.39470E+005
            1788    3.18888E+005    2.64070E+005    2.64070E+005   -3.27043E+004   -7.30853E+004    3.37156E+005   -5.27602E+004    3.13059E+005   -3.30282E+004   -6.91793E+003    1.98227E+005    1.88439E+003   -4.82176E+003    1.33525E+005
            1789    3.10661E+005    2.52749E+005    2.52749E+005   -3.03013E+004   -7.96223E+004    3.32371E+005   -4.76084E+004    3.01664E+005   -3.03117E+004    2.59011E+004    1.47236E+005    2.51447E+003    1.39755E+003    1.54686E+005
            1790    3.11230E+005    2.55024E+005    2.55024E+005   -3.17403E+004   -7.59442E+004    3.30969E+005   -4.91133E+004    3.04047E+005   -3.20717E+004    2.19099E+004    1.57502E+005    2.81945E+003   -2.68063E+003    1.50776E+005
            1791    3.08490E+005    2.58328E+005    2.58328E+005   -3.20193E+004   -6.55629E+004    3.23891E+005   -5.35821E+004    3.04347E+005   -3.21254E+004    2.11362E+004    1.71735E+005    2.22204E+003   -3.71317E+001    1.43310E+005
            1792    3.08478E+005    2.60547E+005    2.60547E+005   -3.61472E+004   -5.84996E+004    3.19047E+005   -5.53000E+004    3.06648E+005   -3.68715E+004    1.51010E+004    1.87671E+005    1.84239E+003   -5.13184E+003    1.33690E+005
            1793    3.12704E+005    2.70141E+005    2.70141E+005   -3.71458E+004   -4.77138E+004    3.17854E+005   -6.17603E+004    3.12302E+005   -3.76432E+004    1.40498E+004    2.08874E+005    1.18001E+003   -2.74068E+003    1.25243E+005
            1794    3.23702E+005    2.78525E+005    2.78525E+005   -4.13288E+004   -4.88935E+004    3.27418E+005   -6.27674E+004    3.23503E+005   -4.46760E+004    3.69605E+003    2.29282E+005    4.63441E+002   -8.60083E+003    1.16074E+005
            1795    3.40013E+005    2.96845E+005    2.96845E+005   -3.93939E+004   -4.68208E+004    3.43666E+005   -7.02101E+004    3.39831E+005   -4.61384E+004    2.33755E+003    2.54431E+005   -3.95787E+002   -6.60507E+003    1.11589E+005
            1796    3.12097E+005    2.59565E+005    2.59565E+005   -3.78968E+004   -6.53521E+004    3.24917E+005   -5.21055E+004    3.09362E+005   -3.78854E+004    2.69705E+004    1.67231E+005    9.80725E+002    1.55628E+003    1.46536E+005
            1797    3.10196E+005    2.62707E+005    2.62707E+005   -4.02401E+004   -5.42612E+004    3.16969E+005   -5.60687E+004    3.09482E+005   -4.05830E+004    2.94143E+004    1.79375E+005    8.55153E+002   -2.87065E+003    1.39415E+005
            1798    3.07515E+005    2.66058E+005    2.66058E+005   -3.96088E+004   -4.32726E+004    3.09330E+005   -6.10588E+004    3.07466E+005   -4.31604E+004    2.89545E+004    1.97382E+005    1.37051E+002   -1.06326E+003    1.27603E+005
            1799    3.12710E+005    2.76471E+005    2.76471E+005   -2.32124E+004   -4.78122E+004    3.24283E+005   -6.84820E+004    3.10521E+005   -4.75809E+004    2.89877E+004    2.24039E+005   -4.97841E+002   -5.59010E+003    1.13798E+005
            1800    3.25608E+005    2.88829E+005    2.88829E+005   -1.83833E+004   -5.24893E+004    3.41319E+005   -7.26522E+004    3.21553E+005   -5.24114E+004    2.01722E+004    2.50196E+005   -1.13412E+003   -4.69299E+003    1.01777E+005
            1801    3.45398E+005    3.07066E+005    3.07066E+005   -1.23103E+004   -5.95005E+004    3.66567E+005   -7.84185E+004    3.38031E+005   -5.91730E+004    1.76053E+004    2.76823E+005   -1.61691E+003   -1.00610E+004    9.30899E+004
            1802    3.66814E+005    3.24124E+005    3.24124E+005   -1.42797E+004   -6.56787E+004    3.89803E+005   -8.13886E+004    3.58578E+005   -6.54302E+004    7.33169E+003    3.02264E+005   -2.24488E+003   -9.55942E+003    8.27124E+004
            1803    4.03793E+005    3.58845E+005    3.58845E+005    1.47020E+004   -8.56656E+004    4.44511E+005   -9.59606E+004    3.74153E+005   -8.52424E+004    2.44153E+004    3.48709E+005   -3.05719E+003   -1.32858E+004    5.69771E+004
            1804    3.75177E+005    3.34012E+005    3.34012E+005    1.06151E+004   -7.73243E+004    4.11336E+005   -8.91008E+004    3.50846E+005   -7.70319E+004    2.51171E+004    3.19217E+005   -3.22106E+003   -1.03147E+004    6.69234E+004
            1805    3.46071E+005    3.11950E+005    3.11950E+005    1.28079E+004   -6.70789E+004    3.79029E+005   -8.58930E+004    3.24338E+005   -6.69110E+004    3.56070E+004    2.88983E+005   -3.07550E+003   -7.10094E+003    7.93740E+004
            1806    3.24074E+005    2.91116E+005    2.91116E+005    2.78935E+003   -5.96268E+004    3.50743E+005   -7.80927E+004    3.10115E+005   -5.95336E+004    3.81306E+004    2.55681E+005   -2.53703E+003   -4.92983E+003    9.45487E+004
            1807    3.09071E+005    2.75765E+005    2.75765E+005   -9.85073E+003   -5.23613E+004    3.28126E+005   -7.11844E+004    3.02389E+005   -5.23271E+004    4.29103E+004    2.22970E+005   -1.75648E+003   -2.55267E+003    1.10840E+005
            1808    3.09399E+005    2.64672E+005    2.64672E+005   -3.92995E+004   -4.98831E+004    3.14555E+005   -5.84964E+004    3.08991E+005   -4.98712E+004    3.34718E+004    1.91889E+005   -8.08489E+002   -1.65769E+003    1.29708E+005
            1809    3.07093E+005    2.53935E+005    2.53935E+005   -4.73543E+004   -5.86513E+004    3.12586E+005   -4.93097E+004    3.06625E+005   -4.73584E+004    2.08426E+004    1.74445E+005    2.76089E+001    5.12301E+002    1.36118E+005
            1810    3.76755E+005    7.04360E+004   -3.34912E+005    4.56051E+003   -3.34912E+005    4.05348E+005    8.66387E+004   -3.63458E+005    7.01203E+004   -1.40550E+004   -3.15981E+005   -2.52250E+003    1.10182E+004    7.72473E+004
            1811    3.49416E+005    5.59243E+004   -3.06674E+005    2.78689E+004   -3.06674E+005    3.62598E+005    7.42935E+004   -3.46868E+005    5.57030E+004   -3.00330E+003   -2.75580E+005   -1.56817E+003    8.13950E+003    9.68483E+004
            1812    3.33118E+005    5.09877E+004   -2.87340E+005    4.03132E+004   -2.87340E+005    3.38327E+005    6.53463E+004   -3.32733E+005    4.11474E+004    8.97515E+002   -2.38084E+005    7.19818E+002    6.11317E+003    1.19028E+005
            1813    3.16091E+005    7.72641E+004   -2.59462E+005    3.08659E+004   -2.59462E+005    3.36726E+005    5.04439E+004   -3.08290E+005    3.11639E+004    6.05147E+003   -1.88547E+005    1.95571E+003    4.79803E+003    1.37170E+005
            1814    3.07541E+005    1.00985E+005   -2.39013E+005    1.97698E+004   -2.39013E+005    3.39998E+005    3.94194E+004   -2.81861E+005    2.01141E+004    5.27912E+003   -1.43651E+005    4.06091E+003    3.49503E+003    1.52628E+005
            1815    3.00548E+005    1.30062E+005   -2.11465E+005    1.26734E+004   -2.11465E+005    3.41527E+005    2.29099E+004   -2.40183E+005    1.28977E+004    5.77572E+003   -8.74030E+004    4.81524E+003    2.23649E+003    1.64162E+005
            1816    2.95987E+005    1.52844E+005   -1.88036E+005    3.83365E+003   -1.88036E+005    3.40880E+005    1.04527E+004   -1.77505E+005    3.95280E+003    1.14200E+003   -3.64528E+004    5.84522E+003    1.02207E+003    1.69289E+005
            1817    2.98678E+005    1.84533E+005    1.84533E+005   -2.37638E+003   -1.59934E+005    3.44467E+005   -7.40751E+003    1.57607E+005   -2.41943E+003    2.74758E+002    2.43672E+004    5.50154E+003   -2.41753E+002    1.71722E+005
            1818    2.98216E+005    2.06562E+005    2.06562E+005   -1.14162E+004   -1.33288E+005    3.39850E+005   -2.06194E+004    2.31314E+005   -1.16110E+004   -5.76700E+003    7.92360E+004    5.23645E+003   -1.54746E+003    1.64405E+005
            1819    3.49480E+005    6.39204E+004   -3.10305E+005    7.58705E+003   -3.10305E+005    3.74225E+005    7.95991E+004   -3.39039E+005    6.36589E+004   -1.75277E+004   -2.84928E+005   -1.92279E+003    9.49985E+003    8.57339E+004
            1820    3.32949E+005    5.05122E+004   -2.92068E+005    3.03336E+004   -2.92068E+005    3.42580E+005    7.04073E+004   -3.31569E+005    4.99584E+004   -1.04706E+004   -2.50710E+005   -5.30557E+002    8.75521E+003    1.07611E+005
            1821    3.16046E+005    5.72694E+004   -2.68116E+005    3.76780E+004   -2.68116E+005    3.25386E+005    5.77229E+004   -3.14675E+005    3.87748E+004   -2.97113E+003   -2.08972E+005    1.73379E+003    7.38582E+003    1.25078E+005
            1822    3.09019E+005    8.12747E+004   -2.51366E+005    2.67814E+004   -2.51366E+005    3.32641E+005    4.77701E+004   -2.97920E+005    2.72896E+004   -4.15356E+002   -1.70185E+005    3.18675E+003    5.33471E+003    1.42694E+005
            1823    3.01666E+005    1.08776E+005   -2.27708E+005    1.85464E+004   -2.27708E+005    3.36484E+005    3.34617E+004   -2.68694E+005    1.89975E+004    3.01531E+003   -1.22398E+005    5.21769E+003    3.64500E+003    1.55876E+005
            1824    2.98413E+005    1.31414E+005   -2.08566E+005    1.00069E+004   -2.08566E+005    3.39980E+005    2.23816E+004   -2.32205E+005    1.02875E+004    1.28995E+003   -7.87222E+004    6.06693E+003    2.05905E+003    1.65050E+005
            1825    2.98031E+005    1.59616E+005   -1.84004E+005    4.12841E+003   -1.84004E+005    3.43620E+005    6.75315E+003   -1.63016E+005    4.22859E+003    2.20808E+003   -2.66961E+004    6.97111E+003    5.98212E+002    1.71053E+005
            1826    2.95831E+005    1.80126E+005    1.80126E+005   -3.74080E+003   -1.61128E+005    3.41254E+005   -5.08580E+003    1.51348E+005   -3.84734E+003   -2.02422E+003    2.11290E+004    6.69565E+003   -8.61268E+002    1.70096E+005
            1827    3.00539E+005    2.08956E+005    2.08956E+005   -9.70322E+003   -1.33751E+005    3.42707E+005   -2.18339E+004    2.31428E+005   -1.00222E+004   -5.60324E+002    7.60842E+004    6.30575E+003   -2.45303E+003    1.66831E+005
            1828    3.29130E+005    5.48394E+004   -2.94006E+005    1.10174E+004   -2.94006E+005    3.48845E+005    7.60497E+004   -3.22468E+005    5.47407E+004   -2.56748E+004   -2.57215E+005   -1.47703E+003    5.50738E+003    9.92168E+004
            1829    3.14938E+005    4.38162E+004   -2.74419E+005    3.71151E+004   -2.74419E+005    3.18235E+005    6.44960E+004   -3.14778E+005    4.34190E+004   -1.51126E+004   -2.21794E+005    1.11768E+002    3.46347E+003    1.16775E+005
            1830    3.09085E+005    6.26219E+004   -2.60843E+005    3.15066E+004   -2.60843E+005    3.23465E+005    5.55716E+004   -3.05531E+005    3.18615E+004   -1.03833E+004   -1.88193E+005    2.55086E+003    2.25160E+003    1.34890E+005
            1831    3.03532E+005    9.00636E+004   -2.41171E+005    2.36660E+004   -2.41171E+005    3.31234E+005    4.24803E+004   -2.86500E+005    2.39395E+004   -3.88240E+003   -1.47498E+005    4.06181E+003    1.56727E+003    1.49086E+005
            1832    3.02370E+005    1.13910E+005   -2.25552E+005    1.49020E+004   -2.25552E+005    3.39462E+005    3.22465E+004   -2.61992E+005    1.51839E+004   -2.47032E+003   -1.09453E+005    5.98965E+003    1.14354E+003    1.60904E+005
            1833    3.01412E+005    1.40609E+005   -2.04190E+005    9.24695E+003   -2.04190E+005    3.44800E+005    1.81114E+004   -2.21778E+005    9.42997E+003    6.65994E+002   -6.44301E+004    6.88603E+003    6.96345E+002    1.69136E+005
            1834    2.99840E+005    1.61203E+005   -1.84641E+005    2.35487E+003   -1.84641E+005    3.45844E+005    7.02761E+003   -1.55839E+005    2.44076E+003   -8.26667E+002   -2.26969E+004    7.64000E+003    4.11220E+002    1.72402E+005
            1835    3.01717E+005    1.87202E+005    1.87202E+005   -2.67699E+003   -1.60706E+005    3.47908E+005   -7.93953E+003    1.63027E+005   -2.72398E+003    1.22387E+003    2.53187E+004    7.39315E+003    4.78482E+001    1.73376E+005
            1836    2.99638E+005    2.05238E+005    2.05238E+005   -9.77684E+003   -1.37023E+005    3.42261E+005   -1.94794E+004    2.25601E+005   -9.94440E+003   -1.04678E+003    6.94294E+004    6.88304E+003   -3.56197E+002    1.67299E+005
            1837    3.12927E+005    4.93672E+004   -2.76637E+005    2.13253E+004   -2.76637E+005    3.26004E+005    6.86480E+004   -3.10081E+005    4.92342E+004   -2.91438E+004   -2.26034E+005   -6.29613E+002    4.75222E+003    1.11823E+005
            1838    3.09515E+005    4.83065E+004   -2.66300E+005    3.78585E+004   -2.66300E+005    3.14607E+005    6.00451E+004   -3.09118E+005    3.89100E+004   -2.14370E+004   -1.97608E+005    1.14157E+003    4.68044E+003    1.29641E+005
            1839    3.05743E+005    7.48568E+004   -2.51046E+005    2.94600E+004   -2.51046E+005    3.25903E+005    4.89099E+004   -2.98019E+005    3.00242E+004   -1.29654E+004   -1.63788E+005    3.45887E+003    4.08558E+003    1.44122E+005
            1840    3.06504E+005    9.92584E+004   -2.38883E+005    2.06852E+004   -2.38883E+005    3.38142E+005    3.96466E+004   -2.82481E+005    2.10971E+004   -9.05927E+003   -1.30978E+005    4.97341E+003    2.79191E+003    1.57477E+005
            1841    3.06419E+005    1.25387E+005   -2.21154E+005    1.39611E+004   -2.21154E+005    3.46541E+005    2.72686E+004   -2.54449E+005    1.43044E+004   -3.68952E+003   -9.24206E+004    6.69932E+003    1.84167E+003    1.67286E+005
            1842    3.06621E+005    1.46510E+005   -2.05031E+005    7.22025E+003   -2.05031E+005    3.51541E+005    1.71000E+004   -2.16124E+005    7.42699E+003   -2.88968E+003   -5.58373E+004    7.58565E+003    9.34082E+002    1.73575E+005
            1843    3.07666E+005    1.70753E+005   -1.84352E+005    2.34856E+003   -1.84352E+005    3.55105E+005    3.75030E+003   -1.37416E+005    2.39792E+003    6.12419E+002   -1.42613E+004    8.17604E+003    1.51336E+002    1.77207E+005
            1844    3.05479E+005    1.88518E+005    1.88518E+005   -3.87300E+003   -1.63718E+005    3.52236E+005   -6.97572E+003    1.65565E+005   -3.99118E+003   -1.26418E+002    2.50448E+004    7.98829E+003   -6.34674E+002    1.75480E+005
            1845    3.07083E+005    2.10963E+005    2.10963E+005   -8.97817E+003   -1.39881E+005    3.50843E+005   -2.07013E+004    2.30469E+005   -9.25818E+003    3.53737E+003    6.78246E+004    7.38355E+003   -1.50313E+003    1.72251E+005
            1846    3.08118E+005    4.29518E+004   -2.69062E+005    3.50058E+004   -2.69062E+005    3.12014E+005    6.37015E+004   -3.07887E+005    4.28691E+004   -3.37528E+004   -2.00221E+005    5.20875E+001    1.54030E+003    1.27269E+005
            1847    3.06998E+005    6.12036E+004   -2.58286E+005    3.44729E+004   -2.58286E+005    3.19489E+005    5.42030E+004   -3.04363E+005    3.45586E+004   -2.35424E+004   -1.73625E+005    1.65438E+003    2.06824E+002    1.40971E+005
            1848    3.09592E+005    8.54875E+004   -2.49774E+005    2.53137E+004   -2.49774E+005    3.35261E+005    4.63241E+004   -2.96003E+005    2.54509E+004   -1.77868E+004   -1.46637E+005    3.83325E+003   -2.21382E+002    1.54661E+005
            1849    3.11540E+005    1.11374E+005   -2.35990E+005    1.86896E+004   -2.35990E+005    3.47364E+005    3.53089E+004   -2.77886E+005    1.88387E+004   -1.08314E+004   -1.13934E+005    5.49332E+003   -2.71925E+002    1.65727E+005
            1850    3.14007E+005    1.33627E+005   -2.23086E+005    1.15480E+004   -2.23086E+005    3.56713E+005    2.59702E+004   -2.51637E+005    1.16993E+004   -7.65623E+003   -8.19535E+004    7.10031E+003   -1.57463E+002    1.74276E+005
            1851    3.16078E+005    1.57594E+005   -2.05661E+005    6.62414E+003   -2.05661E+005    3.63254E+005    1.38142E+004   -2.08571E+005    6.72481E+003   -2.82200E+003   -4.53455E+004    8.08923E+003   -6.22576E+001    1.80188E+005
            1852    3.15575E+005    1.76335E+005   -1.87974E+005    1.02264E+003   -1.87974E+005    3.64309E+005    3.53873E+003   -1.26886E+005    1.05679E+003   -1.39631E+003   -1.02767E+004    8.54473E+003    9.76960E+001    1.81899E+005
            1853    3.16029E+005    1.97693E+005    1.97693E+005   -3.36381E+003   -1.66572E+005    3.64264E+005   -9.25236E+003    1.78035E+005   -3.41010E+003    3.10358E+003    2.80636E+004    8.33663E+003    2.20919E+002    1.81510E+005
            1854    3.12246E+005    2.12688E+005    2.12688E+005   -9.27415E+003   -1.44356E+005    3.57044E+005   -1.96859E+004    2.31322E+005   -9.39062E+003    4.19399E+003    6.42542E+004    7.54267E+003    2.63842E+002    1.75802E+005
            1855    3.09028E+005    5.29607E+004   -2.62400E+005    3.98802E+004   -2.62400E+005    3.15361E+005    5.65196E+004   -3.08404E+005    4.01302E+004   -3.23249E+004   -1.77364E+005    8.94243E+002    2.01203E+003    1.39868E+005
            1856    3.12445E+005    7.38531E+004   -2.57429E+005    3.19511E+004   -2.57429E+005    3.31282E+005    5.05416E+004   -3.06028E+005    3.22482E+004   -2.64355E+004   -1.57437E+005    2.71642E+003    2.27448E+003    1.51978E+005
            1857    3.15834E+005    9.79285E+004   -2.48088E+005    2.46953E+004   -2.48088E+005    3.46017E+005    4.18215E+004   -2.95812E+005    2.50017E+004   -1.92089E+004   -1.31257E+005    4.58944E+003    1.77956E+003    1.63519E+005
            1858    3.20345E+005    1.20308E+005   -2.38915E+005    1.71198E+004   -2.38915E+005    3.59223E+005    3.38292E+004   -2.79107E+005    1.73804E+004   -1.48033E+004   -1.04065E+005    6.18106E+003    1.02395E+003    1.73808E+005
            1859    3.24234E+005    1.44559E+005   -2.25087E+005    1.12105E+004   -2.25087E+005    3.69645E+005    2.31058E+004   -2.50339E+005    1.14106E+004   -9.01485E+003   -7.17131E+004    7.60863E+003    5.35462E+002    1.81956E+005
            1860    3.26901E+005    1.65348E+005   -2.10729E+005    5.39808E+003   -2.10729E+005    3.76077E+005    1.33274E+004   -2.07361E+005    5.51434E+003   -5.73258E+003   -3.97640E+004    8.55789E+003    2.19214E+002    1.87063E+005
            1861    3.28700E+005    1.87216E+005   -1.92312E+005    9.37479E+002   -1.92312E+005    3.79528E+005    1.38635E+003   -1.04148E+005    9.49342E+002   -7.62999E+001   -5.03210E+003    8.94395E+003   -1.51665E+001    1.89537E+005
            1862    3.26230E+005    2.03699E+005    2.03699E+005   -4.28823E+003   -1.72291E+005    3.75990E+005   -9.04020E+003    1.85191E+005   -4.38058E+003    3.01528E+003    2.84859E+004    8.72104E+003   -2.22366E+002    1.87355E+005
            1863    3.24435E+005    2.21582E+005    2.21582E+005   -9.09833E+003   -1.49391E+005    3.70973E+005   -2.10307E+004    2.40449E+005   -9.28438E+003    8.96016E+003    6.34165E+004    7.88495E+003   -5.16590E+002    1.83284E+005
            1864    3.12099E+005    6.46712E+004   -2.60110E+005    3.75345E+004   -2.60110E+005    3.24782E+005    5.26349E+004   -3.09428E+005    3.75272E+004   -3.24132E+004   -1.63019E+005    1.04079E+003   -1.23968E+003    1.48676E+005
            1865    3.16604E+005    8.45720E+004   -2.55447E+005    3.08730E+004   -2.55447E+005    3.40019E+005    4.66673E+004   -3.06106E+005    3.08732E+004   -2.68979E+004   -1.43977E+005    2.46592E+003   -1.51681E+003    1.59587E+005
            1866    3.21565E+005    1.04605E+005   -2.49875E+005    2.30821E+004   -2.49875E+005    3.54480E+005    4.07290E+004   -2.96949E+005    2.31189E+004   -2.34934E+004   -1.21813E+005    4.38563E+003   -1.37695E+003    1.70214E+005
            1867    3.29510E+005    1.29184E+005   -2.41909E+005    1.63982E+004   -2.41909E+005    3.71094E+005    3.21090E+004   -2.80880E+005    1.64605E+004   -1.91756E+004   -9.36118E+004    6.25528E+003   -1.11644E+003    1.81652E+005
            1868    3.38049E+005    1.53366E+005   -2.32740E+005    1.00008E+004   -2.32740E+005    3.86106E+005    2.31244E+004   -2.54807E+005    1.00654E+004   -1.38856E+004   -6.55529E+004    7.82627E+003   -8.01599E+002    1.91146E+005
            1869    3.43044E+005    1.77326E+005   -2.17706E+005    5.12793E+003   -2.17706E+005    3.95032E+005    1.17507E+004   -2.07027E+005    5.17014E+003   -6.19296E+003   -3.42293E+004    8.92022E+003   -4.32285E+002    1.96813E+005
            1870    3.43344E+005    1.96572E+005   -1.99881E+005    2.40098E+002   -1.99881E+005    3.96453E+005    1.02325E+003   -8.75102E+004    2.47067E+002   -7.65174E+002   -2.55164E+003    9.29506E+003    8.69449E+000    1.98006E+005
            1871    3.43007E+005    2.15869E+005    2.15869E+005   -4.06111E+003   -1.79362E+005    3.95231E+005   -1.08156E+004    1.98589E+005   -4.09447E+003    6.26685E+003    3.02743E+004    8.97945E+003    4.20178E+002    1.97044E+005
            1872    3.37191E+005    2.29331E+005    2.29331E+005   -9.44063E+003   -1.56398E+005    3.85729E+005   -2.11643E+004    2.48101E+005   -9.50407E+003    1.18831E+004    6.11139E+004    7.95029E+003    7.40197E+002    1.91113E+005
            1873    3.56440E+005    2.44059E+005    2.44059E+005   -1.01205E+004   -1.63377E+005    4.07436E+005   -2.35204E+004    2.65519E+005   -1.01389E+004    1.90782E+004    6.16218E+004    7.94048E+003    1.19697E+003    2.02443E+005
            1874    3.63476E+005    2.30000E+005    2.30000E+005   -4.54995E+003   -1.88696E+005    4.18696E+005   -1.22515E+004    2.14901E+005   -4.55434E+003    9.71443E+003    3.15944E+004    9.14266E+003    7.43646E+002    2.08860E+005
            1875    3.66439E+005    2.11450E+005   -2.11678E+005    1.53598E+002   -2.11678E+005    4.23128E+005    2.47288E+001   -4.75858E+004    1.50721E+002   -1.57466E+002   -6.74410E+001    9.50910E+003   -3.69415E+001    2.11350E+005
            1876    3.63632E+005    1.87526E+005   -2.31249E+005    4.56250E+003   -2.31249E+005    4.18776E+005    1.30535E+004   -2.18336E+005    4.57171E+003   -1.09784E+004   -3.27538E+004    9.13311E+003   -7.13967E+002    2.08903E+005
            1877    3.55960E+005    1.62810E+005   -2.43963E+005    1.05054E+004   -2.43963E+005    4.06773E+005    2.35494E+004   -2.66298E+005    1.05178E+004   -1.91958E+004   -6.19702E+004    7.93517E+003   -1.28933E+003    2.02098E+005
            1878    3.43836E+005    1.34998E+005   -2.52350E+005    1.67850E+004   -2.52350E+005    3.87348E+005    3.35227E+004   -2.92577E+005    1.68096E+004   -2.77888E+004   -8.95887E+004    6.31363E+003   -1.47451E+003    1.91078E+005
            1879    3.26586E+005    1.06051E+005   -2.53701E+005    2.41168E+004   -2.53701E+005    3.59751E+005    4.11777E+004   -3.02136E+005    2.41502E+004   -3.40075E+004   -1.13676E+005    4.40977E+003   -1.30556E+003    1.75340E+005
            1880    3.12823E+005    8.21985E+004   -2.52767E+005    3.17900E+004   -2.52767E+005    3.34966E+005    4.62596E+004   -3.03483E+005    3.18315E+004   -3.18614E+004   -1.38749E+005    2.84242E+003   -9.30127E+002    1.58684E+005
            1881    3.14115E+005    7.20641E+004   -2.57105E+005    3.94029E+004   -2.57105E+005    3.29169E+005    4.85460E+004   -3.10260E+005    3.94409E+004   -2.73659E+004   -1.57713E+005    1.33997E+003    3.20713E+001    1.51108E+005
            1882    4.06184E+005    8.87144E+004   -3.58642E+005   -1.29424E+004   -3.58642E+005    4.47357E+005    9.42901E+004   -3.75931E+005    8.82810E+004   -2.14487E+004   -3.49703E+005   -3.27449E+003    1.33654E+004    5.35623E+004
            1883    3.76308E+005    7.81418E+004   -3.35871E+005   -1.46162E+004   -3.35871E+005    4.14013E+005    9.07818E+004   -3.49169E+005    7.78434E+004   -2.90867E+004   -3.21102E+005   -3.44816E+003    1.03339E+004    6.66316E+004
            1884    3.45368E+005    6.86346E+004   -3.09719E+005   -1.13830E+004   -3.09719E+005    3.78353E+005    8.41557E+004   -3.23511E+005    6.84604E+004   -3.39925E+004   -2.86935E+005   -3.35449E+003    6.94478E+003    7.89715E+004
            1885    3.23361E+005    5.93093E+004   -2.91088E+005   -4.17987E+003   -2.91088E+005    3.50397E+005    7.86527E+004   -3.08868E+005    5.92159E+004   -4.13050E+004   -2.53869E+005   -2.75522E+003    4.63215E+003    9.62987E+004
            1886    3.09718E+005    5.23419E+004   -2.75156E+005    1.30275E+004   -2.75156E+005    3.27498E+005    6.99290E+004   -3.04028E+005    5.23049E+004   -4.19289E+004   -2.20163E+005   -1.86685E+003    2.34098E+003    1.13219E+005
            1887    3.09185E+005    4.69646E+004   -2.68242E+005    3.45454E+004   -2.68242E+005    3.15207E+005    6.22441E+004   -3.08623E+005    4.69559E+004   -4.05525E+004   -1.93136E+005   -8.60971E+002    1.18969E+003    1.30763E+005
            1888    3.12078E+005    5.51670E+004   -2.62518E+005    4.36329E+004   -2.62518E+005    3.17685E+005    5.45727E+004   -3.11598E+005    4.36327E+004   -3.36777E+004   -1.73673E+005    1.32481E+002   -2.88481E+002    1.42588E+005
            1889    3.95823E+005    3.49866E+005    3.49866E+005   -1.00123E+004   -7.40856E+004    4.23951E+005   -8.85893E+004    3.83895E+005   -7.39684E+004    7.25922E+003    3.32477E+005   -1.55389E+003   -6.87375E+003    7.69111E+004
            1890    3.61508E+005    3.12223E+005    3.12223E+005   -4.15526E+004   -5.65506E+004    3.68773E+005   -7.13732E+004    3.60807E+005   -5.64563E+004   -7.92005E+003    2.78496E+005   -8.58617E+002   -4.82923E+003    1.03801E+005
            1891    3.39273E+005    2.84644E+005    2.84644E+005   -3.85392E+004   -6.87040E+004    3.53348E+005   -5.91336E+004    3.36236E+005   -3.85796E+004   -7.05027E+003    2.23031E+005   -8.01970E+001   -3.87785E+003    1.34009E+005
            1892    3.14773E+005    2.44529E+005    2.44529E+005   -2.63105E+004   -1.00811E+005    3.45340E+005   -3.91358E+004    2.93938E+005   -2.63765E+004   -1.10101E+004    1.54794E+005    1.19145E+003   -2.66847E+003    1.51417E+005
            1893    4.23031E+005    3.68723E+005    3.68723E+005   -1.77570E+004   -8.32253E+004    4.51948E+005   -8.92468E+004    4.11401E+005   -8.29295E+004   -6.07299E+003    3.56743E+005   -1.62926E+003   -1.14059E+004    6.61551E+004
            1894    3.90535E+005    3.40396E+005    3.40396E+005   -3.84330E+004   -6.08781E+004    4.01274E+005   -8.03615E+004    3.89080E+005   -6.05253E+004   -7.31768E+003    3.08928E+005   -1.48874E+003   -1.01125E+004    1.04140E+005
            1895    3.54413E+005    2.96068E+005    2.96068E+005   -4.49657E+004   -7.03582E+004    3.66426E+005   -6.02480E+004    3.52358E+005   -4.49669E+004   -1.65260E+004    2.42237E+005   -9.52860E+002   -7.50149E+003    1.29500E+005
            1896    3.34796E+005    2.65996E+005    2.65996E+005   -2.79273E+004   -9.84403E+004    3.64436E+005   -4.65428E+004    3.17438E+005   -2.79601E+004   -9.80809E+003    1.77396E+005    1.14216E+002   -5.19735E+003    1.56241E+005
            1897    4.55564E+005    4.03788E+005    4.03788E+005   -1.39279E+004   -8.19713E+004    4.85759E+005   -1.02629E+005    4.43916E+005   -8.18247E+004   -2.77201E+003    3.92485E+005   -1.98789E+003   -8.04091E+003    6.73532E+004
            1898    4.13650E+005    3.59305E+005    3.59305E+005   -4.24986E+004   -6.52523E+004    4.24557E+005   -8.38513E+004    4.12238E+005   -6.51237E+004   -1.65328E+004    3.33210E+005   -2.26925E+003   -6.73385E+003    9.87911E+004
            1899    3.84526E+005    3.28603E+005    3.28603E+005   -4.54633E+004   -6.55934E+004    3.94196E+005   -7.25154E+004    3.83338E+005   -4.53493E+004   -1.23544E+004    2.75250E+005   -2.30923E+003   -6.12433E+003    1.34707E+005
            1900    3.46829E+005    2.77019E+005    2.77019E+005   -3.24447E+004   -9.78588E+004    3.74878E+005   -4.89053E+004    3.32522E+005   -3.23835E+004   -1.52663E+004    1.94366E+005   -1.47345E+003   -4.55856E+003    1.55343E+005
            1901    4.80754E+005    4.22108E+005    4.22108E+005   -2.39499E+004   -8.71013E+004    5.09209E+005   -1.03686E+005    4.71287E+005   -8.68229E+004   -1.50279E+004    4.12907E+005   -2.01122E+003   -1.16976E+004    6.24375E+004
            1902    4.47829E+005    3.96459E+005    3.96459E+005   -3.67858E+004   -6.46524E+004    4.61111E+005   -9.83402E+004    4.45872E+005   -6.44039E+004   -8.81740E+003    3.68242E+005   -2.71950E+003   -1.03519E+004    1.06433E+005
            1903    3.99220E+005    3.41102E+005    3.41102E+005   -5.08600E+004   -6.50006E+004    4.06103E+005   -7.50805E+004    3.98656E+005   -5.06784E+004   -1.65974E+004    2.92517E+005   -3.09673E+003   -7.90352E+003    1.31545E+005
            1904    3.74701E+005    3.08791E+005    3.08791E+005   -3.28124E+004   -9.19698E+004    4.00761E+005   -6.13364E+004    3.63972E+005   -3.26939E+004   -1.04558E+004    2.27159E+005   -2.74855E+003   -5.74677E+003    1.61287E+005
            1905    5.16921E+005    4.70050E+005    4.70050E+005   -1.21536E+004   -7.57105E+004    5.45760E+005   -1.27395E+005    5.08019E+005   -7.56038E+004    1.01721E+003    4.56772E+005   -2.36354E+003   -6.34131E+003    7.86677E+004
            1906    4.60331E+005    4.09333E+005    4.09333E+005   -3.37285E+004   -6.65136E+004    4.75847E+005   -1.03030E+005    4.57693E+005   -6.62667E+004   -7.49748E+003    3.82855E+005   -3.81719E+003   -6.78882E+003    1.04805E+005
            1907    4.29206E+005    3.79233E+005    3.79233E+005   -4.67142E+004   -5.31595E+004    4.32393E+005   -9.31198E+004    4.29097E+005   -4.75294E+004   -4.36897E+003    3.31258E+005   -4.84766E+003   -6.81457E+003    1.35418E+005
            1908    3.89438E+005    3.25658E+005    3.25658E+005   -3.55001E+004   -8.69453E+004    4.12604E+005   -6.77376E+004    3.81681E+005   -3.54559E+004   -1.13924E+004    2.50061E+005   -4.49184E+003   -5.01752E+003    1.59475E+005
            1909    5.12143E+005    4.65269E+005    4.65269E+005   -1.00634E+004   -7.70853E+004    5.42355E+005   -1.26040E+005    5.02135E+005   -7.69135E+004    5.00338E+003    4.50031E+005   -2.35232E+003   -9.18385E+003    8.32792E+004
            1910    4.77621E+005    4.40746E+005    4.40746E+005   -1.09999E+004   -5.91088E+004    4.99855E+005   -1.23546E+005    4.72124E+005   -5.89814E+004    1.47491E+004    4.14870E+005   -2.89358E+003   -6.24719E+003    1.04795E+005
            1911    4.43515E+005    3.96852E+005    3.96852E+005   -4.29068E+004   -5.03264E+004    4.47179E+005   -1.01206E+005    4.43376E+005   -4.89995E+004   -2.11905E+003    3.54738E+005   -4.71652E+003   -5.61302E+003    1.29448E+005
            1912    4.16744E+005    3.65019E+005    3.65019E+005   -3.14363E+004   -6.94135E+004    4.34433E+005   -8.80565E+004    4.12824E+005   -3.16222E+004    3.08590E+003    2.92706E+005   -5.44480E+003   -4.23149E+003    1.61654E+005
            1913    5.09256E+005    4.84420E+005    4.84420E+005    2.77382E+004   -6.47370E+004    5.49157E+005   -1.49140E+005    4.89828E+005   -6.45478E+004    4.32124E+004    4.68756E+005   -4.31410E+003   -6.11988E+003    8.28987E+004
            1914    4.93364E+005    4.56097E+005    4.56097E+005   -9.98620E+003   -6.06399E+004    5.16737E+005   -1.28490E+005    4.87462E+005   -6.01914E+004    1.00218E+004    4.35640E+005   -5.52401E+003   -4.98149E+003    9.53536E+004
            1915    4.66328E+005    4.38421E+005    4.38421E+005   -1.40302E+004   -4.06438E+004    4.79065E+005   -1.27916E+005    4.64615E+005   -3.99837E+004    2.52224E+004    3.98508E+005   -5.32621E+003   -3.78975E+003    1.28321E+005
            1916    4.25996E+005    3.89881E+005    3.89881E+005   -2.61517E+004   -4.54246E+004    4.35306E+005   -1.06102E+005    4.25014E+005   -2.76375E+004    1.86422E+004    3.27300E+005   -6.59609E+003   -2.31716E+003    1.52348E+005
            1917    4.32517E+005    4.37146E+005    4.37146E+005    2.37497E+004   -1.22430E+004    4.49389E+005   -1.49551E+005    4.29129E+005   -1.14104E+004    7.89274E+004    3.81136E+005   -5.81534E+003   -8.74161E+001    1.41631E+005
            1918    4.72609E+005    4.64270E+005    4.64270E+005    2.32206E+004   -3.45828E+004    4.98852E+005   -1.50969E+005    4.64557E+005   -3.42792E+004    5.69718E+004    4.30215E+005   -4.51164E+003   -7.57868E+002    1.17758E+005
            1919    5.16287E+005    4.95635E+005    4.95635E+005    1.81543E+004   -5.22362E+004    5.47871E+005   -1.53851E+005    5.05322E+005   -5.20743E+004    4.52122E+004    4.68415E+005   -3.74860E+003   -1.61574E+003    1.10703E+005
            1920    5.58000E+005    5.04593E+005    5.04593E+005   -2.79165E+004   -7.58100E+004    5.80403E+005   -1.33622E+005    5.53348E+005   -7.57716E+004   -1.69508E+004    4.93589E+005   -1.39209E+003   -3.40178E+003    7.56801E+004
            1921    4.37097E+005    3.83331E+005    3.83331E+005    1.04249E+004   -9.76716E+004    4.81003E+005   -9.86948E+004    4.05354E+005   -9.74605E+004    1.59799E+004    3.77565E+005   -1.75111E+003   -9.87137E+003    4.51713E+004
            1922    4.64721E+005    4.09477E+005    4.09477E+005    1.44749E+004   -1.02581E+005    5.12058E+005   -1.07124E+005    4.29634E+005   -1.02328E+005    1.81069E+004    4.05593E+005   -1.59163E+003   -1.12136E+004    3.77018E+004
            1923    4.91942E+005    4.27877E+005    4.27877E+005   -1.24022E+003   -1.09017E+005    5.36894E+005   -1.05873E+005    4.64250E+005   -1.08789E+005    1.46456E+002    4.26262E+005   -1.55767E+003   -1.07908E+004    2.44197E+004
            1924    5.23336E+005    4.64496E+005    4.64496E+005    1.81255E+003   -1.03481E+005    5.67977E+005   -1.20942E+005    4.98661E+005   -1.03284E+005    4.04904E+003    4.62062E+005   -1.63559E+003   -1.02695E+004    3.21408E+004
            1925    5.38353E+005    4.79487E+005    4.79487E+005   -6.47662E+003   -9.92080E+004    5.78695E+005   -1.24601E+005    5.19928E+005   -9.90796E+004   -4.75479E+003    4.77637E+005   -1.94422E+003   -7.67983E+003    2.90696E+004
            1926    5.79361E+005    5.44294E+005    5.44294E+005    1.80221E+004   -7.65268E+004    6.20820E+005   -1.61930E+005    5.61610E+005   -7.64275E+004    2.48825E+004    5.37334E+005   -1.94009E+003   -7.14082E+003    5.97458E+004
            1927    5.46891E+005    5.22536E+005    5.22536E+005    3.81567E+004   -7.05411E+004    5.93077E+005   -1.63384E+005    5.21750E+005   -7.04755E+004    4.71824E+004    5.13445E+005   -2.64338E+003   -3.32467E+003    6.56555E+004
            1928    3.73962E+005    3.66859E+005    3.66859E+005    1.84021E+003   -1.54463E+004    3.82306E+005   -1.17751E+005    3.73062E+005   -5.26553E+002    6.79419E+004    2.85838E+005   -6.61997E+003    2.04109E+002    1.55596E+005
            1929    3.34577E+005    2.87601E+005    2.87601E+005    5.07371E+003   -8.18637E+004    3.69464E+005   -7.02702E+004    3.07587E+005    4.69519E+003    4.27504E+004    1.63365E+005   -7.47110E+003    1.58065E+002    1.74345E+005
            1930    3.11351E+005    1.78578E+005   -1.80940E+005   -8.68130E+002   -1.80940E+005    3.59517E+005    1.07677E+003   -4.49820E+004   -8.64688E+002    3.16947E+002   -2.68258E+003   -7.46268E+003   -3.72319E+000    1.79597E+005
            1931    3.29801E+005    8.25062E+004   -2.81965E+005   -4.13020E+003   -2.81965E+005    3.64471E+005    6.78630E+004   -3.02570E+005   -3.74509E+003   -4.15534E+004   -1.58291E+005   -7.49163E+003   -2.19074E+002    1.72365E+005
            1932    3.80809E+005    1.20710E+004   -3.76703E+005   -4.39238E+003   -3.76703E+005    3.88774E+005    1.23008E+005   -3.80007E+005   -1.96408E+003   -7.05564E+004   -2.96504E+005   -6.46399E+003   -2.27729E+002    1.56668E+005
            1933    4.25756E+005    1.36565E+004   -4.30306E+005   -2.54550E+004   -4.30306E+005    4.43962E+005    1.47368E+005   -4.21686E+005    1.28525E+004   -7.51909E+004   -3.79766E+005   -5.90406E+003    2.37818E+001    1.33953E+005
            1934    4.76765E+005    3.01860E+004   -4.74900E+005   -3.26948E+004   -4.74900E+005    5.05086E+005    1.59136E+005   -4.67300E+005    2.99357E+004   -6.73494E+004   -4.39995E+005   -4.27237E+003    6.99639E+002    1.19258E+005
            1935    5.11410E+005    5.04833E+004   -4.93655E+005   -2.29019E+004   -4.93655E+005    5.44138E+005    1.55358E+005   -4.99358E+005    5.03206E+004   -4.20592E+004   -4.74335E+005   -3.76182E+003    1.74479E+003    9.33785E+004
            1936    5.28295E+005    5.83531E+004   -5.12745E+005   -4.15048E+004   -5.12745E+005    5.71098E+005    1.65299E+005   -5.06405E+005    5.82908E+004   -5.37571E+004   -5.00430E+005   -2.63369E+003    1.29578E+003    7.51654E+004
            1937    3.96133E+005    3.44441E+005    3.44441E+005   -1.23636E+004   -8.18309E+004    4.26272E+005   -8.34155E+004    3.82067E+005   -1.27357E+004    2.07561E+004    2.42226E+005   -6.94270E+003   -1.25122E+003    1.81828E+005
            1938    3.81124E+005    3.06521E+005    3.06521E+005   -2.11552E+004   -1.11732E+005    4.18253E+005   -5.78781E+004    3.55678E+005   -2.12255E+004   -2.05232E+003    1.96912E+005   -6.37486E+003   -2.96487E+003    1.83792E+005
            1939    3.68686E+005    2.87278E+005    2.87278E+005   -2.00412E+004   -1.21520E+005    4.08799E+005   -4.85722E+004    3.35040E+005   -2.00043E+004   -5.34425E+003    1.71065E+005   -5.38423E+003   -3.45964E+003    1.84287E+005
            1940    3.42789E+005    2.54711E+005    2.54711E+005   -2.14585E+004   -1.28938E+005    3.83650E+005   -3.47715E+004    3.01227E+005   -2.13780E+004   -1.11907E+004    1.36883E+005   -3.35537E+003   -3.62826E+003    1.76912E+005
            1941    3.32089E+005    2.44203E+005    2.44203E+005   -1.71199E+004   -1.29493E+005    3.73696E+005   -3.25301E+004    2.84336E+005   -1.70790E+004   -7.27464E+003    1.21944E+005   -1.69813E+003   -2.81879E+003    1.75300E+005
            1942    3.11795E+005    2.21212E+005    2.21212E+005   -1.70849E+004   -1.31661E+005    3.52872E+005   -2.41554E+004    2.57604E+005   -1.70939E+004   -9.78437E+003    9.93446E+004    1.73647E+002   -3.02725E+003    1.67758E+005
            1943    3.07718E+005    2.18612E+005    2.18612E+005   -1.32244E+004   -1.30500E+005    3.49112E+005   -2.49628E+004    2.49439E+005   -1.32598E+004   -4.22535E+003    9.23735E+004    1.47101E+003   -1.45245E+003    1.67722E+005
            1944    3.61414E+005    2.69242E+005    2.69242E+005   -6.40124E+003   -1.39938E+005    4.09180E+005   -4.09674E+004    2.97791E+005   -6.57592E+003    9.42521E+003    1.20053E+005   -7.89746E+003   -4.74888E+002    1.96780E+005
            1945    3.64918E+005    2.57851E+005    2.57851E+005   -7.88446E+003   -1.58219E+005    4.16070E+005   -3.05827E+004    2.81399E+005   -7.91020E+003    1.58158E+003    9.80766E+004   -6.81801E+003   -1.42062E+003    2.02239E+005
            1946    3.46044E+005    2.30028E+005    2.30028E+005   -9.52644E+003   -1.66709E+005    3.96737E+005   -1.79310E+004    2.43941E+005   -9.50794E+003   -4.69761E+003    6.79985E+004   -4.95002E+003   -1.34955E+003    1.94945E+005
            1947    3.35165E+005    2.19518E+005    2.19518E+005   -6.69127E+003   -1.65538E+005    3.85056E+005   -1.57630E+004    2.23724E+005   -6.66392E+003   -2.14843E+003    5.61013E+004   -2.74912E+003   -1.40100E+003    1.90290E+005
            1948    3.15778E+005    1.97735E+005    1.97735E+005   -6.87464E+003   -1.65944E+005    3.63680E+005   -8.30543E+003    1.89122E+005   -6.86696E+003   -4.49328E+003    3.62765E+004   -8.47760E+002   -9.24294E+002    1.80690E+005
            1949    3.09058E+005    1.94223E+005    1.94223E+005   -4.03053E+003   -1.61883E+005    3.56106E+005   -9.43659E+003    1.79210E+005   -4.04378E+003   -8.58673E+002    3.32122E+004    1.04175E+003   -1.00464E+003    1.77230E+005
            1950    2.97175E+005    1.81250E+005    1.81250E+005   -4.66082E+003   -1.61487E+005    3.42737E+005   -5.03432E+003    1.56603E+005   -4.67386E+003   -3.02801E+003    2.28048E+004    2.32129E+003   -2.92209E+002    1.70864E+005
            1951    3.54779E+005    2.01966E+005   -2.07673E+005    1.07129E+003   -2.07673E+005    4.09638E+005    1.54529E+003   -1.14007E+005    1.07140E+003    1.65410E+002   -5.87267E+003   -7.76310E+003    1.30181E+002    2.04650E+005
            1952    3.54971E+005    1.92509E+005   -2.17112E+005    4.33609E+002   -2.17112E+005    4.09621E+005    8.05621E+003   -1.68752E+005    4.43720E+002   -1.08627E+003   -2.35261E+004   -6.95873E+003    2.59569E+002    2.04384E+005
            1953    3.46926E+005    1.88064E+005   -2.12112E+005    3.83927E+003   -2.12112E+005    4.00176E+005    6.73616E+003   -1.78755E+005    3.82983E+003    2.49135E+003   -2.65297E+004   -5.52945E+003    5.91163E+002    1.99484E+005
            1954    3.30461E+005    1.71101E+005   -2.09569E+005    3.62686E+003   -2.09569E+005    3.80670E+005    1.16136E+004   -1.95235E+005    3.61182E+003    1.37358E+003   -3.98261E+004   -3.48630E+003    8.08527E+002    1.89184E+005
            1955    3.19635E+005    1.67624E+005   -2.00521E+005    6.32374E+003   -2.00521E+005    3.68145E+005    8.85780E+003   -1.90676E+005    6.30875E+003    4.63622E+003   -3.75184E+004   -1.55593E+003    1.06865E+003    1.82853E+005
            1956    3.05998E+005    1.55559E+005   -1.96552E+005    4.95905E+003   -1.96552E+005    3.52111E+005    1.20112E+004   -1.92060E+005    4.96337E+003    2.36245E+003   -4.33595E+004    3.71829E+002    9.42348E+002    1.74562E+005
            1957    3.00801E+005    1.57115E+005   -1.89257E+005    6.31851E+003   -1.89257E+005    3.46371E+005    8.60783E+003   -1.82040E+005    6.34150E+003    4.20222E+003   -3.63672E+004    1.75127E+003    9.05137E+002    1.71981E+005
            1958    3.67268E+005    1.27471E+005   -2.85461E+005    4.68179E+003   -2.85461E+005    4.12931E+005    5.11028E+004   -3.15875E+005    4.88495E+003   -1.25519E+004   -1.45641E+005   -7.71048E+003    5.72518E+002    1.95251E+005
            1959    3.67603E+005    1.42306E+005   -2.72639E+005    1.22816E+004   -2.72639E+005    4.14944E+005    3.93505E+004   -3.09124E+005    1.23350E+004    3.45826E+002   -1.30732E+005   -6.67479E+003    1.68666E+003    1.96718E+005
            1960    3.57259E+005    1.37645E+005   -2.65029E+005    1.39238E+004   -2.65029E+005    4.02674E+005    3.78199E+004   -3.03111E+005    1.38921E+004    4.37103E+003   -1.31723E+005   -4.91631E+003    2.50926E+003    1.89415E+005
            1961    3.43467E+005    1.37988E+005   -2.49496E+005    1.74706E+004   -2.49496E+005    3.87484E+005    3.13457E+004   -2.89823E+005    1.74170E+004    9.42775E+003   -1.20882E+005   -2.73614E+003    2.83111E+003    1.82426E+005
            1962    3.28463E+005    1.28798E+005   -2.41120E+005    1.63529E+004   -2.41120E+005    3.69919E+005    3.19898E+004   -2.79970E+005    1.63257E+004    8.48169E+003   -1.20777E+005   -9.91046E+002    2.87788E+003    1.73279E+005
            1963    3.15724E+005    1.29849E+005   -2.26738E+005    1.72538E+004   -2.26738E+005    3.56587E+005    2.65452E+004   -2.64538E+005    1.72863E+004    9.84767E+003   -1.06770E+005    7.99770E+002    2.80271E+003    1.68458E+005
            1964    3.05316E+005    1.24202E+005   -2.20780E+005    1.46287E+004   -2.20780E+005    3.44982E+005    2.73165E+004   -2.55090E+005    1.46988E+004    6.09071E+003   -1.02739E+005    1.99617E+003    2.00089E+003    1.63645E+005
            1965    3.94484E+005    7.23698E+004   -3.47721E+005    1.48388E+004   -3.47721E+005    4.20091E+005    8.68374E+004   -3.84876E+005    1.53247E+004   -2.07076E+004   -2.55129E+005   -7.07460E+003    1.44186E+003    1.73937E+005
            1966    3.95372E+005    9.19270E+004   -3.33575E+005    2.24583E+004   -3.33575E+005    4.25502E+005    7.30634E+004   -3.81277E+005    2.25948E+004   -3.13254E+003   -2.38652E+005   -6.39839E+003    3.36257E+003    1.76985E+005
            1967    3.80341E+005    1.02309E+005   -3.09595E+005    2.83074E+004   -3.09595E+005    4.11903E+005    5.96595E+004   -3.63611E+005    2.82788E+004    8.40528E+003   -2.15663E+005   -5.47504E+003    4.45329E+003    1.72680E+005
            1968    3.65842E+005    1.00171E+005   -2.95991E+005    2.91013E+004   -2.95991E+005    3.96162E+005    5.55731E+004   -3.49801E+005    2.89925E+004    1.14570E+004   -2.07169E+005   -3.69371E+003    5.07520E+003    1.65110E+005
            1969    3.46966E+005    1.02186E+005   -2.75075E+005    3.03515E+004   -2.75075E+005    3.77261E+005    4.75124E+004   -3.29607E+005    3.02664E+004    1.44079E+004   -1.87211E+005   -2.16069E+003    4.69576E+003    1.59380E+005
            1970    3.31443E+005    9.81405E+004   -2.62891E+005    2.76102E+004   -2.62891E+005    3.61032E+005    4.57134E+004   -3.13886E+005    2.75965E+004    1.18441E+004   -1.76581E+005   -4.66316E+002    4.80966E+003    1.53909E+005
            1971    3.16334E+005    1.00379E+005   -2.46369E+005    2.64604E+004   -2.46369E+005    3.46749E+005    3.98432E+004   -2.95952E+005    2.65069E+004    1.02673E+004   -1.56304E+005    7.25475E+002    3.10177E+003    1.52011E+005
            1972    4.34658E+005    3.28725E+004   -4.06986E+005    2.22780E+004   -4.06986E+005    4.39859E+005    1.17279E+005   -4.34368E+005    2.52027E+004   -2.79971E+004   -3.49041E+005   -5.95496E+003    2.16914E+003    1.48131E+005
            1973    4.23779E+005    5.85564E+004   -3.76010E+005    3.60871E+004   -3.76010E+005    4.34567E+005    9.37889E+004   -4.22436E+005    3.64012E+004   -2.74896E+003   -3.15019E+005   -4.85848E+003    4.16689E+003    1.50770E+005
            1974    4.12572E+005    6.71583E+004   -3.58570E+005    3.94490E+004   -3.58570E+005    4.25728E+005    8.39875E+004   -4.10470E+005    3.94316E+004    6.96661E+003   -2.98361E+005   -4.07039E+003    5.66045E+003    1.48187E+005
            1975    3.91348E+005    7.47484E+004   -3.31185E+005    4.37319E+004   -3.31185E+005    4.05934E+005    7.09017E+004   -3.88569E+005    4.36041E+004    1.50603E+004   -2.71369E+005   -2.36756E+003    6.62955E+003    1.43727E+005
            1976    3.74085E+005    7.28671E+004   -3.15821E+005    4.17123E+004   -3.15821E+005    3.88688E+005    6.70805E+004   -3.71149E+005    4.16367E+004    1.49960E+004   -2.57874E+005   -1.49905E+003    5.88478E+003    1.38313E+005
            1977    3.49317E+005    7.47071E+004   -2.90117E+005    4.12904E+004   -2.90117E+005    3.64824E+005    5.80399E+004   -3.45693E+005    4.13664E+004    1.44516E+004   -2.29938E+005   -2.00725E+002    6.64718E+003    1.35230E+005
            1978    3.34204E+005    7.25056E+004   -2.78235E+005    3.65196E+004   -2.78235E+005    3.50741E+005    5.64034E+004   -3.29803E+005    3.66254E+004    8.92673E+003   -2.14763E+005    6.13827E+002    3.98862E+003    1.34961E+005
            1979    4.64558E+005    4.32368E+004   -4.38298E+005    7.18153E+003   -4.38298E+005    4.81535E+005    1.29293E+005   -4.61394E+005    4.25359E+004   -2.67510E+004   -4.03665E+005   -6.08584E+003    3.90280E+003    1.19272E+005
            1980    4.59502E+005    4.96977E+004   -4.20341E+005    2.78446E+004   -4.20341E+005    4.70038E+005    1.14266E+005   -4.58330E+005    4.91586E+004   -8.99222E+003   -3.82965E+005   -4.96147E+003    5.93589E+003    1.23799E+005
            1981    4.42865E+005    5.65559E+004   -3.92237E+005    4.44510E+004   -3.92237E+005    4.48793E+005    9.70768E+004   -4.42492E+005    5.56619E+004    7.56464E+003   -3.54457E+005   -5.19042E+003    7.00876E+003    1.22632E+005
            1982    4.26059E+005    5.73909E+004   -3.72678E+005    4.92541E+004   -3.72678E+005    4.30069E+005    8.86776E+004   -4.25884E+005    5.70733E+004    1.37555E+004   -3.36862E+005   -3.68017E+003    9.13458E+003    1.17243E+005
            1983    3.98160E+005    5.76017E+004   -3.43577E+005    5.14955E+004   -3.43577E+005    4.01178E+005    7.81598E+004   -3.98055E+005    5.74112E+004    1.54119E+004   -3.07302E+005   -2.77148E+003    6.78308E+003    1.13883E+005
            1984    3.78222E+005    5.48772E+004   -3.25825E+005    4.98671E+004   -3.25825E+005    3.80702E+005    7.36936E+004   -3.78148E+005    5.43419E+004    1.22547E+004   -2.87678E+005   -1.71588E+003    8.97558E+003    1.13207E+005
            1985    3.51324E+005    5.12467E+004   -3.01085E+005    4.92226E+004   -3.01085E+005    3.52332E+005    6.68719E+004   -3.51311E+005    5.07528E+004    7.84648E+003   -2.59215E+005   -8.59577E+002    4.73445E+003    1.13634E+005
            1986    4.95171E+005    5.25828E+004   -4.71763E+005   -1.21277E+004   -4.71763E+005    5.24345E+005    1.43769E+005   -4.85522E+005    5.24559E+004   -3.37144E+004   -4.50049E+005   -3.30157E+003    4.18709E+003    9.74234E+004
            1987    4.86297E+005    6.30495E+004   -4.45900E+005    1.40322E+004   -4.45900E+005    5.08949E+005    1.22939E+005   -4.80692E+005    6.29792E+004   -8.62397E+003   -4.23173E+005   -1.80193E+003    5.45283E+003    9.95400E+004
            1988    4.80227E+005    6.73585E+004   -4.33073E+005    2.40093E+004   -4.33073E+005    5.00432E+005    1.13902E+005   -4.75795E+005    6.72299E+004    3.54435E+003   -4.12480E+005   -2.54607E+003    6.80140E+003    9.45743E+004
            1989    4.52346E+005    7.36623E+004   -3.98416E+005    3.12030E+004   -3.98416E+005    4.72078E+005    9.78503E+004   -4.47830E+005    7.34425E+004    1.15826E+004   -3.78576E+005   -1.91251E+003    9.96644E+003    8.96701E+004
            1990    4.33995E+005    7.11211E+004   -3.81877E+005    3.02180E+004   -3.81877E+005    4.52998E+005    9.35128E+004   -4.29626E+005    7.09808E+004    1.06944E+004   -3.62214E+005   -1.91000E+003    7.71643E+003    8.75328E+004
            1991    4.00223E+005    7.11660E+004   -3.48464E+005    2.90171E+004   -3.48464E+005    4.19630E+005    8.27602E+004   -3.95184E+005    7.08850E+004    7.98849E+003   -3.27154E+005   -1.26432E+003    1.01869E+004    8.66154E+004
            1992    3.79531E+005    6.39940E+004   -3.33166E+005    2.58559E+004   -3.33166E+005    3.97160E+005    8.11055E+004   -3.75184E+005    6.38908E+004    4.73356E+002   -3.07681E+005   -1.09933E+003    6.07297E+003    9.20266E+004
            1993    5.20444E+005    6.90689E+004   -4.88206E+005   -1.47747E+004   -4.88206E+005    5.57275E+005    1.44637E+005   -5.04913E+005    6.86682E+004   -2.90312E+004   -4.73549E+005   -6.03471E+003    8.76097E+003    8.15505E+004
            1994    5.21695E+005    7.32338E+004   -4.81370E+005   -4.10676E+002   -4.81370E+005    5.54604E+005    1.36182E+005   -5.09803E+005    7.30886E+004   -1.21757E+004   -4.69460E+005   -3.20727E+003    6.23734E+003    7.44964E+004
            1995    5.05333E+005    8.47487E+004   -4.52739E+005    1.27054E+004   -4.52739E+005    5.37488E+005    1.18428E+005   -4.93581E+005    8.45431E+004    2.62319E+003   -4.42452E+005   -3.35503E+003    8.45586E+003    6.79462E+004
            1996    4.94187E+005    8.78185E+004   -4.38092E+005    1.66549E+004   -4.38092E+005    5.25910E+005    1.11206E+005   -4.82457E+005    8.76038E+004    8.41454E+003   -4.29637E+005   -2.32084E+003    1.00911E+004    6.06897E+004
            1997    4.59059E+005    9.05115E+004   -4.02270E+005    1.32666E+004   -4.02270E+005    4.92781E+005    9.94972E+004   -4.44083E+005    9.02960E+004    5.61024E+003   -3.94398E+005   -2.36918E+003    9.74374E+003    5.59183E+004
            1998    4.36248E+005    8.63051E+004   -3.83574E+005    8.59969E+003   -3.83574E+005    4.69879E+005    9.62229E+004   -4.20252E+005    8.60603E+004   -1.51436E+003   -3.73215E+005   -1.81654E+003    1.05671E+004    6.21429E+004
            1999    4.03897E+005    8.17309E+004   -3.54452E+005    6.61429E+003   -3.54452E+005    4.36182E+005    8.87021E+004   -3.87712E+005    8.15648E+004   -6.09575E+003   -3.41575E+005   -1.87933E+003    8.27480E+003    6.65276E+004
            2000    4.41289E+005    9.82425E+004   -3.88843E+005   -1.57008E+004   -3.88843E+005    4.87086E+005    1.02101E+005   -4.06167E+005    9.80328E+004   -2.12639E+004   -3.83071E+005   -1.64891E+003    9.93929E+003    4.52140E+004
            2001    4.67475E+005    1.06101E+005   -4.08584E+005   -1.03245E+004   -4.08584E+005    5.14684E+005    1.04269E+005   -4.33016E+005    1.05850E+005   -1.28998E+004   -4.05757E+005   -1.31576E+003    1.12660E+004    3.19206E+004
            2002    5.01226E+005    1.07508E+005   -4.39955E+005   -3.61517E+003   -4.39955E+005    5.47463E+005    1.12021E+005   -4.72303E+005    1.07291E+005   -5.68885E+003   -4.37665E+005   -1.23683E+003    1.07646E+004    3.00171E+004
            2003    5.18738E+005    1.07642E+005   -4.55203E+005    3.68533E+003   -4.55203E+005    5.62845E+005    1.14625E+005   -4.94481E+005    1.07454E+005    1.96841E+003   -4.53298E+005   -1.16927E+003    1.01525E+004    2.80342E+004
            2004    5.50012E+005    9.62960E+004   -4.94067E+005    3.88636E+003   -4.94067E+005    5.90363E+005    1.31295E+005   -5.32124E+005    9.61895E+004    1.55622E+002   -4.90230E+005   -1.42628E+003    7.59292E+003    4.29716E+004
            2005    5.36879E+005    8.58004E+004   -4.94572E+005   -1.56649E+004   -4.94572E+005    5.80372E+005    1.41479E+005   -5.14640E+005    8.57196E+004   -2.31615E+004   -4.86994E+005   -1.59184E+003    6.44303E+003    5.94656E+004
            2006    5.44153E+005    6.97296E+004   -5.19120E+005   -3.48431E+004   -5.19120E+005    5.88850E+005    1.61411E+005   -5.20821E+005    6.96894E+004   -4.23733E+004   -5.11550E+005   -1.88663E+003    3.16205E+003    5.99981E+004
            2007    2.97839E+005    2.47719E+005    2.47719E+005   -4.30678E+004   -5.67046E+004    3.04423E+005   -4.93155E+004    2.97136E+005   -4.30752E+004    3.20443E+004    1.58977E+005    3.27923E+002    1.28947E+003    1.38339E+005
            2008    3.08643E+005    2.53760E+005    2.53760E+005   -3.39361E+004   -7.22520E+004    3.26012E+005   -4.91908E+004    3.03223E+005   -3.39350E+004    4.31457E+004    1.38362E+005    1.25682E+003    8.73295E+002    1.55892E+005
            2009    3.28921E+005    2.55108E+005    2.55108E+005   -2.71819E+004   -1.06090E+005    3.61198E+005   -4.06119E+004    3.06520E+005   -2.71843E+004    3.52325E+004    1.13788E+005    2.50976E+003    1.01860E+003    1.76254E+005
            2010    3.43274E+005    2.50815E+005    2.50815E+005   -1.94303E+004   -1.35430E+005    3.86245E+005   -3.19848E+004    2.94064E+005   -1.94392E+004    2.68504E+004    8.85431E+004    3.68252E+003    8.70823E+002    1.90604E+005
            2011    3.29465E+005    2.40981E+005    2.40981E+005   -1.79157E+004   -1.29873E+005    3.70854E+005   -3.10638E+004    2.81633E+005   -1.79836E+004    1.95753E+004    9.15997E+004    3.98451E+003   -1.57665E+002    1.81839E+005
            2012    3.16317E+005    2.32252E+005    2.32252E+005   -1.74706E+004   -1.23446E+005    3.55698E+005   -3.04453E+004    2.71844E+005   -1.75060E+004    1.28816E+004    9.59602E+004    3.77775E+003    5.28894E+002    1.72880E+005
            2013    3.10643E+005    2.30252E+005    2.30252E+005   -1.75845E+004   -1.18236E+005    3.48488E+005   -3.14773E+004    2.70126E+005   -1.77399E+004    9.57001E+003    1.02602E+005    3.85723E+003   -1.55829E+003    1.67835E+005
            2014    3.03114E+005    2.25713E+005    2.25713E+005   -1.85547E+004   -1.13510E+005    3.39223E+005   -3.12161E+004    2.66434E+005   -1.86179E+004    4.37158E+003    1.07895E+005    3.48133E+003    6.01608E+001    1.61468E+005
            2015    3.02672E+005    2.29159E+005    2.29159E+005   -1.91755E+004   -1.07981E+005    3.37140E+005   -3.40010E+004    2.70951E+005   -1.93750E+004    3.34590E+003    1.18032E+005    3.32622E+003   -2.58162E+003    1.58411E+005
            2016    3.00962E+005    2.28930E+005    2.28930E+005   -2.14745E+004   -1.04962E+005    3.33892E+005   -3.41646E+004    2.73031E+005   -2.15690E+004   -3.31513E+003    1.27378E+005    2.74825E+003   -9.86426E+002    1.53572E+005
            2017    3.09390E+005    2.39671E+005    2.39671E+005   -2.26912E+004   -1.01502E+005    3.41173E+005   -3.84924E+004    2.85466E+005   -2.28682E+004   -3.68515E+003    1.42030E+005    2.19008E+003   -3.82365E+003    1.54129E+005
            2018    3.16827E+005    2.46757E+005    2.46757E+005   -2.56464E+004   -1.00931E+005    3.47688E+005   -4.00600E+004    2.95680E+005   -2.57354E+004    2.53552E+004    1.20560E+005    2.90484E+003   -5.88865E+002    1.67147E+005
            2019    3.13686E+005    2.45391E+005    2.45391E+005   -2.52020E+004   -9.84324E+004    3.43823E+005   -4.05855E+004    2.93515E+005   -2.52255E+004    1.81186E+004    1.28863E+005    2.62125E+003    7.20350E+002    1.62720E+005
            2020    3.08013E+005    2.43102E+005    2.43102E+005   -2.67283E+004   -9.24750E+004    3.35577E+005   -4.12998E+004    2.91591E+005   -2.69220E+004    1.29035E+004    1.37918E+005    2.74640E+003   -2.30859E+003    1.55606E+005
            2021    3.06359E+005    2.46568E+005    2.46568E+005   -2.71099E+004   -8.43870E+004    3.30955E+005   -4.50238E+004    2.93948E+005   -2.71715E+004    1.11873E+004    1.51056E+005    2.26205E+003   -7.77911E+001    1.49934E+005
            2022    3.05726E+005    2.47360E+005    2.47360E+005   -3.05758E+004   -8.01086E+004    3.27468E+005   -4.55585E+004    2.96497E+005   -3.08336E+004    3.89757E+003    1.63611E+005    2.04935E+003   -3.78940E+003    1.42772E+005
            2023    3.12328E+005    2.57893E+005    2.57893E+005   -3.17891E+004   -7.29906E+004    3.30884E+005   -5.10378E+004    3.06124E+005   -3.18871E+004    2.87227E+003    1.82128E+005    1.41800E+003   -1.63577E+003    1.39000E+005
            2024    3.20164E+005    2.63834E+005    2.63834E+005   -3.69441E+004   -7.27111E+004    3.36545E+005   -5.13930E+004    3.15622E+005   -3.71699E+004   -6.93841E+003    1.98287E+005    8.62275E+002   -5.61215E+003    1.33132E+005
            2025    3.11732E+005    2.52820E+005    2.52820E+005   -3.40095E+004   -7.89387E+004    3.31759E+005   -4.66240E+004    3.04320E+005   -3.41383E+004    2.62762E+004    1.47734E+005    1.93022E+003   -1.43301E+003    1.54294E+005
            2026    3.10971E+005    2.54294E+005    2.54294E+005   -3.42183E+004   -7.50940E+004    3.29388E+005   -4.83272E+004    3.04840E+005   -3.42173E+004    2.24811E+004    1.56718E+005    1.43979E+003    1.09814E+003    1.50386E+005
            2027    3.09602E+005    2.58066E+005    2.58066E+005   -3.58591E+004   -6.51333E+004    3.23200E+005   -5.23580E+004    3.06465E+005   -3.61499E+004    2.15203E+004    1.71704E+005    1.47170E+003   -3.31698E+003    1.42913E+005
            2028    3.08431E+005    2.60393E+005    2.60393E+005   -3.86713E+004   -5.66196E+004    3.17013E+005   -5.50342E+004    3.07252E+005   -3.87262E+004    1.60870E+004    1.87742E+005    1.01223E+003   -2.19331E+002    1.33226E+005
            2029    3.14519E+005    2.70106E+005    2.70106E+005   -4.07922E+004   -4.79121E+004    3.18018E+005   -6.04673E+004    3.14338E+005   -4.22336E+004    1.46253E+004    2.09010E+005    7.10752E+002   -5.15989E+003    1.24860E+005
            2030    3.24465E+005    2.79362E+005    2.79362E+005   -4.33781E+004   -4.68010E+004    3.26163E+005   -6.30608E+004    3.24424E+005   -4.63684E+004    5.12002E+003    2.30431E+005    2.50575E+002   -2.29349E+003    1.15822E+005
            2031    3.42897E+005    2.97461E+005    2.97461E+005   -3.86653E+004   -5.18286E+004    3.49290E+005   -6.89890E+004    3.42328E+005   -5.11959E+004    3.07099E+003    2.55092E+005   -2.56037E+002   -7.65646E+003    1.11455E+005
            2032    3.13998E+005    2.59842E+005    2.59842E+005   -4.17751E+004   -6.52216E+004    3.25064E+005   -5.09486E+004    3.12019E+005   -4.19331E+004    2.71163E+004    1.67663E+005    9.71037E+002   -2.11868E+003    1.46461E+005
            2033    3.10758E+005    2.62207E+005    2.62207E+005   -4.31405E+004   -5.36930E+004    3.15900E+005   -5.51244E+004    3.10354E+005   -4.31376E+004    2.97321E+004    1.78779E+005    4.92896E+002    7.92636E+002    1.39262E+005
            2034    3.09509E+005    2.66005E+005    2.66005E+005   -3.92650E+004   -4.75759E+004    3.13581E+005   -5.97212E+004    3.09258E+005   -4.71527E+004    2.90589E+004    1.97257E+005    2.56231E+002   -3.27128E+003    1.27601E+005
            2035    3.13783E+005    2.76495E+005    2.76495E+005   -2.29946E+004   -4.98543E+004    3.26349E+005   -6.78820E+004    3.11181E+005   -4.98435E+004    2.93893E+004    2.24100E+005   -1.79788E+002   -1.33371E+003    1.13778E+005
            2036    3.28503E+005    2.89146E+005    2.89146E+005   -1.83646E+004   -5.69421E+004    3.46088E+005   -7.12799E+004    3.23348E+005   -5.68005E+004    2.01222E+004    2.50518E+005   -5.06143E+002   -5.55806E+003    1.01815E+005
            2037    3.47118E+005    3.07979E+005    3.07979E+005   -1.18546E+004   -6.11518E+004    3.69131E+005   -7.83242E+004    3.39108E+005   -6.11054E+004    1.81268E+004    2.77951E+005   -9.20938E+002   -3.94712E+003    9.32174E+004
            2038    3.70591E+005    3.25118E+005    3.25118E+005   -1.44314E+004   -7.01957E+004    3.95313E+005   -8.01635E+004    3.60971E+005   -6.99863E+004    7.15444E+003    3.03323E+005   -1.14480E+003   -8.62858E+003    8.28610E+004
            2039    4.07174E+005    3.60715E+005    3.60715E+005    1.54650E+004   -8.83020E+004    4.49017E+005   -9.59593E+004    3.75658E+005   -8.81307E+004    2.52725E+004    3.50736E+005   -1.96879E+003   -8.49272E+003    5.73502E+004
            2040    3.78097E+005    3.35084E+005    3.35084E+005    1.12710E+004   -8.04283E+004    4.15513E+005   -8.86423E+004    3.51749E+005   -8.03181E+004    2.58493E+004    3.20396E+005   -2.08701E+003   -6.29703E+003    6.71436E+004
            2041    3.49117E+005    3.12776E+005    3.12776E+005    1.34261E+004   -7.07268E+004    3.83502E+005   -8.51583E+004    3.25102E+005   -7.06515E+004    3.63005E+004    2.89826E+005   -2.05359E+003   -4.81745E+003    7.95233E+004
            2042    3.26442E+005    2.91355E+005    2.91355E+005    3.33414E+003   -6.32433E+004    3.54598E+005   -7.71485E+004    3.10611E+005   -6.32060E+004    3.87076E+004    2.55944E+005   -1.76213E+003   -2.89761E+003    9.45379E+004
            2043    3.11394E+005    2.75874E+005    2.75874E+005   -9.38097E+003   -5.63279E+004    3.32202E+005   -7.00552E+004    3.03279E+005   -5.63085E+004    4.33991E+004    2.23075E+005   -1.28949E+003   -2.07966E+003    1.10768E+005
            2044    3.10967E+005    2.64513E+005    2.64513E+005   -3.88218E+004   -5.35613E+004    3.18074E+005   -5.73766E+004    3.10179E+005   -5.35526E+004    3.39203E+004    1.91762E+005   -6.75650E+002   -5.65302E+002    1.29519E+005
            2045    3.08715E+005    2.53751E+005    2.53751E+005   -5.14743E+004   -5.83401E+004    3.12091E+005   -4.79788E+004    3.08543E+005   -5.14918E+004    2.13155E+004    1.74113E+005   -6.24303E+001   -8.26394E+002    1.36052E+005
            2046    3.80103E+005    7.39159E+004   -3.36044E+005    4.68730E+003   -3.36044E+005    4.09960E+005    8.58136E+004   -3.65514E+005    7.37506E+004   -1.39763E+004   -3.17215E+005   -1.46646E+003    8.03530E+003    7.75169E+004
            2047    3.52369E+005    6.05082E+004   -3.07417E+005    2.70029E+004   -3.07417E+005    3.67925E+005    7.33019E+004   -3.48758E+005    6.02428E+004   -3.78967E+003   -2.76359E+005   -4.74468E+002    7.78720E+003    9.68400E+004
            2048    3.35390E+005    5.10452E+004   -2.87417E+005    4.48142E+004   -2.87417E+005    3.38462E+005    6.38526E+004   -3.35260E+005    4.59437E+004    8.18926E+002   -2.38320E+005   -6.86457E+001    6.70524E+003    1.18795E+005
            2049    3.16849E+005    7.64652E+004   -2.59334E+005    3.43531E+004   -2.59334E+005    3.35799E+005    4.95051E+004   -3.10459E+005    3.46124E+004    5.56925E+003   -1.88697E+005    1.47437E+003    4.94549E+003    1.36734E+005
            2050    3.07282E+005    1.00016E+005   -2.38512E+005    2.27897E+004   -2.38512E+005    3.38529E+005    3.85688E+004   -2.84191E+005    2.29244E+004    4.96646E+003   -1.43597E+005    1.86376E+003    3.40158E+003    1.52004E+005
            2051    2.99508E+005    1.29099E+005   -2.10820E+005    1.43340E+004   -2.10820E+005    3.39919E+005    2.24624E+004   -2.42049E+005    1.44488E+004    5.59165E+003   -8.74275E+004    3.05451E+003    1.98314E+003    1.63412E+005
            2052    2.94493E+005    1.51730E+005   -1.87351E+005    4.41156E+003   -1.87351E+005    3.39081E+005    1.04030E+004   -1.79025E+005    4.44594E+003    9.53785E+002   -3.66088E+004    2.97431E+003    6.05378E+002    1.68468E+005
            2053    2.97173E+005    1.83589E+005    1.83589E+005   -2.87196E+003   -1.59113E+005    3.42702E+005   -7.20128E+003    1.58599E+005   -2.91286E+003    3.46544E+002    2.41702E+004    3.41948E+003   -7.46960E+002    1.70899E+005
            2054    2.97100E+005    2.05581E+005    2.05581E+005   -1.34390E+004   -1.32602E+005    3.38183E+005   -1.98467E+004    2.33454E+005   -1.35390E+004   -5.82862E+003    7.89079E+004    2.65059E+003   -2.21704E+003    1.63646E+005
            2055    3.51974E+005    6.66437E+004   -3.11185E+005    7.42178E+003   -3.11185E+005    3.77828E+005    7.90398E+004   -3.40493E+005    6.65731E+004   -1.77330E+004   -2.85959E+005   -1.37563E+003    4.97358E+003    8.59067E+004
            2056    3.34310E+005    5.20435E+004   -2.93101E+005    2.92035E+004   -2.93101E+005    3.45144E+005    7.06179E+004   -3.32548E+005    5.19757E+004   -1.18072E+004   -2.52022E+005   -2.02932E+002    3.21783E+003    1.07454E+005
            2057    3.16843E+005    5.51123E+004   -2.68695E+005    4.06897E+004   -2.68695E+005    3.23808E+005    5.76311E+004   -3.16103E+005    4.08176E+004   -3.78333E+003   -2.09928E+005    5.69624E+002    2.06817E+003    1.24762E+005
            2058    3.09085E+005    7.94847E+004   -2.51730E+005    2.90121E+004   -2.51730E+005    3.31215E+005    4.77446E+004   -2.99603E+005    2.91525E+004   -1.29337E+003   -1.71093E+005    2.07957E+003    1.73777E+003    1.42107E+005
            2059    3.00984E+005    1.07118E+005   -2.27612E+005    2.07370E+004   -2.27612E+005    3.34730E+005    3.32524E+004   -2.70920E+005    2.08317E+004    2.41559E+003   -1.23004E+005    2.61341E+003    1.25777E+003    1.55121E+005
            2060    2.97046E+005    1.30027E+005   -2.08018E+005    1.13085E+004   -2.08018E+005    3.38045E+005    2.22274E+004   -2.33963E+005    1.13980E+004    9.92972E+002   -7.90733E+004    3.71800E+003    8.77365E+002    1.64155E+005
            2061    2.96234E+005    1.58440E+005   -1.83059E+005    4.68271E+003   -1.83059E+005    3.41499E+005    6.64514E+003   -1.64528E+005    4.71830E+003    2.08353E+003   -2.67373E+004    3.72962E+003    4.64271E+002    1.70097E+005
            2062    2.94034E+005    1.79378E+005    1.79378E+005   -3.99252E+003   -1.59769E+005    3.39147E+005   -5.20572E+003    1.52808E+005   -4.00494E+003   -1.80168E+003    2.14238E+004    4.03946E+003    4.39952E+001    1.69127E+005
            2063    2.99171E+005    2.08525E+005    2.08525E+005   -1.09612E+004   -1.32244E+005    3.40768E+005   -2.17732E+004    2.33376E+005   -1.10146E+004   -2.40440E+002    7.65747E+004    3.32717E+003   -4.06178E+002    1.65957E+005
            2064    3.31779E+005    5.87503E+004   -2.94285E+005    1.10800E+004   -2.94285E+005    3.53035E+005    7.48183E+004   -3.23940E+005    5.86735E+004   -2.56674E+004   -2.57461E+005   -9.13510E+002    4.72563E+003    9.93585E+004
            2065    3.16801E+005    4.81815E+004   -2.74437E+005    3.62079E+004   -2.74437E+005    3.22618E+005    6.33491E+004   -3.16292E+005    4.75960E+004   -1.57146E+004   -2.21929E+005    4.91181E+002    4.90176E+003    1.16479E+005
            2066    3.10204E+005    6.22489E+004   -2.60357E+005    3.57443E+004   -2.60357E+005    3.22606E+005    5.41213E+004   -3.07641E+005    3.60790E+004   -1.05100E+004   -1.87933E+005    1.25293E+003    4.21071E+003    1.34478E+005
            2067    3.03290E+005    8.92879E+004   -2.40440E+005    2.66201E+004   -2.40440E+005    3.29728E+005    4.15108E+004   -2.88178E+005    2.68675E+004   -4.16361E+003   -1.47236E+005    2.74335E+003    3.09665E+003    1.48392E+005
            2068    3.01274E+005    1.12879E+005   -2.24574E+005    1.73637E+004   -2.24574E+005    3.37454E+005    3.14438E+004   -2.63837E+005    1.75191E+004   -2.72454E+003   -1.09126E+005    3.32459E+003    1.98184E+003    1.60038E+005
            2069    2.99697E+005    1.39523E+005   -2.03070E+005    1.05446E+004   -2.03070E+005    3.42593E+005    1.76675E+004   -2.23068E+005    1.06535E+004    5.89565E+002   -6.42455E+004    4.29172E+003    1.11465E+003    1.68129E+005
            2070    2.97818E+005    1.59928E+005   -1.83552E+005    2.73461E+003   -1.83552E+005    3.43480E+005    6.96324E+003   -1.56844E+005    2.76163E+003   -9.43550E+002   -2.27078E+004    4.37038E+003    2.03462E+002    1.71338E+005
            2071    2.99714E+005    1.85980E+005    1.85980E+005   -3.20697E+003   -1.59582E+005    3.45561E+005   -7.73031E+003    1.63908E+005   -3.26061E+003    1.28560E+003    2.51659E+004    4.57444E+003   -6.27979E+002    1.72303E+005
            2072    2.98054E+005    2.04026E+005    2.04026E+005   -1.15566E+004   -1.36100E+005    3.40126E+005   -1.87899E+004    2.27369E+005   -1.16815E+004   -1.04759E+003    6.90989E+004    3.95035E+003   -1.57153E+003    1.66336E+005
            2073    3.14593E+005    5.23317E+004   -2.76636E+005    2.12786E+004   -2.76636E+005    3.28968E+005    6.76753E+004   -3.11117E+005    5.23180E+004   -2.93281E+004   -2.26016E+005   -5.87833E+002    1.89816E+003    1.11872E+005
            2074    3.09912E+005    4.63137E+004   -2.66314E+005    4.08089E+004   -2.66314E+005    3.12628E+005    5.97304E+004   -3.09802E+005    4.09942E+004   -2.23431E+004   -1.97842E+005    7.52506E+002    7.01576E+002    1.29248E+005
            2075    3.05583E+005    7.34958E+004   -2.50718E+005    3.19900E+004   -2.50718E+005    3.24214E+005    4.84108E+004   -2.99142E+005    3.20352E+004   -1.35611E+004   -1.63706E+005    1.64604E+003   -1.60084E+000    1.43647E+005
            2076    3.05696E+005    9.79707E+004   -2.38375E+005    2.25538E+004   -2.38375E+005    3.36345E+005    3.92834E+004   -2.83609E+005    2.26330E+004   -9.53279E+003   -1.30950E+005    3.08087E+003    1.00754E+002    1.56779E+005
            2077    3.05162E+005    1.24103E+005   -2.20459E+005    1.57095E+004   -2.20459E+005    3.44562E+005    2.68823E+004   -2.56143E+005    1.57719E+004   -4.08955E+003   -9.23291E+004    3.76500E+003    5.02434E+001    1.66481E+005
            2078    3.04960E+005    1.45359E+005   -2.04103E+005    8.14600E+003   -2.04103E+005    3.49463E+005    1.68660E+004   -2.17269E+005    8.20001E+003   -3.02062E+003   -5.57773E+004    4.62876E+003    1.26272E+002    1.72661E+005
            2079    3.05840E+005    1.69666E+005   -1.83318E+005    2.66516E+003   -1.83318E+005    3.52984E+005    3.66251E+003   -1.38557E+005    2.68578E+003    5.50137E+002   -1.42234E+004    4.77424E+003    1.51608E+002    1.76272E+005
            2080    3.03621E+005    1.87548E+005    1.87548E+005   -4.23784E+003   -1.62509E+005    3.50056E+005   -6.93357E+003    1.66497E+005   -4.24991E+003    5.00257E+000    2.50456E+004    4.81961E+003    1.86863E+002    1.74513E+005
            2081    3.05532E+005    2.10147E+005    2.10147E+005   -1.01283E+004   -1.38651E+005    3.48798E+005   -2.04556E+004    2.31840E+005   -1.01680E+004    3.77914E+003    6.77558E+004    4.22884E+003    1.86169E+002    1.71383E+005
            2082    3.09938E+005    4.68451E+004   -2.68846E+005    3.50001E+004   -2.68846E+005    3.15691E+005    6.23335E+004   -3.09428E+005    4.67220E+004   -3.38363E+004   -1.99886E+005    1.43231E+000    2.37552E+003    1.27287E+005
            2083    3.08024E+005    6.09480E+004   -2.57970E+005    3.78615E+004   -2.57970E+005    3.18918E+005    5.30534E+004   -3.06068E+005    3.81857E+004   -2.38953E+004   -1.73451E+005    1.46303E+003    2.92208E+003    1.40643E+005
            2084    3.10049E+005    8.50652E+004   -2.49256E+005    2.88205E+004   -2.49256E+005    3.34321E+005    4.51233E+004   -2.98245E+005    2.90175E+004   -1.79953E+004   -1.46392E+005    2.37129E+003    2.46237E+003    1.54232E+005
            2085    3.11008E+005    1.10695E+005   -2.35262E+005    2.11492E+004   -2.35262E+005    3.45957E+005    3.44727E+004   -2.79724E+005    2.13164E+004   -1.09860E+004   -1.13749E+005    3.56834E+003    1.71490E+003    1.65082E+005
            2086    3.12902E+005    1.32736E+005   -2.22258E+005    1.34802E+004   -2.22258E+005    3.54994E+005    2.53475E+004   -2.53636E+005    1.35967E+004   -7.87451E+003   -8.17645E+004    4.28639E+003    1.00819E+003    1.73534E+005
            2087    3.14498E+005    1.56640E+005   -2.04669E+005    7.61596E+003   -2.04669E+005    3.61310E+005    1.34710E+004   -2.09985E+005    7.68506E+003   -2.86357E+003   -4.52344E+004    4.94519E+003    5.01196E+002    1.79333E+005
            2088    3.13871E+005    1.75329E+005   -1.87007E+005    1.20653E+003   -1.87007E+005    3.62335E+005    3.49036E+003   -1.27667E+005    1.21700E+003   -1.44197E+003   -1.02461E+004    5.15133E+003    2.09421E+001    1.81041E+005
            2089    3.14311E+005    1.96679E+005    1.96679E+005   -4.00860E+003   -1.65552E+005    3.62231E+005   -9.03931E+003    1.79366E+005   -4.05909E+003    3.16861E+003    2.80084E+004    5.09746E+003   -4.35630E+002    1.80614E+005
            2090    3.10919E+005    2.11785E+005    2.11785E+005   -1.08725E+004   -1.43446E+005    3.55231E+005   -1.91556E+004    2.33294E+005   -1.09771E+004    4.30794E+003    6.41360E+004    4.59928E+003   -9.22161E+002    1.75002E+005
            2091    3.10039E+005    5.24804E+004   -2.62029E+005    4.33358E+004   -2.62029E+005    3.14510E+005    5.54044E+004   -3.09735E+005    4.33370E+004   -3.26221E+004   -1.76928E+005    3.30578E+002   -2.96198E+002    1.39724E+005
            2092    3.12507E+005    7.31088E+004   -2.56842E+005    3.46629E+004   -2.56842E+005    3.29951E+005    4.96902E+004   -3.07119E+005    3.46621E+004   -2.68885E+004   -1.56844E+005    1.32553E+003   -1.02091E+003    1.51632E+005
            2093    3.15507E+005    9.73976E+004   -2.47349E+005    2.70391E+004   -2.47349E+005    3.44746E+005    4.09707E+004   -2.97077E+005    2.70468E+004   -1.95437E+004   -1.30415E+005    2.40867E+003   -1.03555E+003    1.63192E+005
            2094    3.19585E+005    1.19781E+005   -2.38046E+005    1.89993E+004   -2.38046E+005    3.57827E+005    3.30886E+004   -2.80340E+005    1.90283E+004   -1.49787E+004   -1.03315E+005    3.62136E+003   -6.93639E+002    1.73330E+005
            2095    3.23257E+005    1.43991E+005   -2.24260E+005    1.26697E+004   -2.24260E+005    3.68251E+005    2.25334E+004   -2.51798E+005    1.27018E+004   -9.16370E+003   -7.11382E+004    4.51503E+003   -4.36190E+002    1.81438E+005
            2096    3.25637E+005    1.64661E+005   -2.09879E+005    6.18083E+003   -2.09879E+005    3.74541E+005    1.30124E+004   -2.08493E+005    6.20532E+003   -5.78280E+003   -3.94597E+004    5.17551E+003   -1.99550E+002    1.86438E+005
            2097    3.27411E+005    1.86477E+005   -1.91562E+005    1.06857E+003   -1.91562E+005    3.78039E+005    1.33867E+003   -1.05103E+005    1.07552E+003   -8.30969E+001   -5.00842E+003    5.41201E+003    3.43000E+001    1.88926E+005
            2098    3.24911E+005    2.02842E+005    2.02842E+005   -4.83974E+003   -1.71589E+005    3.74430E+005   -8.80437E+003    1.86121E+005   -4.85291E+003    3.05444E+003    2.82116E+004    5.25601E+003    2.33215E+002    1.86717E+005
            2099    3.23372E+005    2.20752E+005    2.20752E+005   -1.03163E+004   -1.48799E+005    3.69552E+005   -2.05455E+004    2.41733E+005   -1.03451E+004    9.09055E+003    6.28910E+004    4.68394E+003    4.01720E+002    1.82743E+005
            2100    3.13643E+005    6.44595E+004   -2.60176E+005    4.11768E+004   -2.60176E+005    3.24636E+005    5.15133E+004   -3.11690E+005    4.12782E+004   -3.26598E+004   -1.63158E+005    9.50453E+002    1.36673E+003    1.48569E+005
            2101    3.17494E+005    8.38780E+004   -2.55426E+005    3.44642E+004   -2.55426E+005    3.39304E+005    4.56946E+004   -3.08665E+005    3.45759E+004   -2.72856E+004   -1.44374E+005    2.01767E+003    1.21084E+003    1.59171E+005
            2102    3.21924E+005    1.03801E+005   -2.49770E+005    2.63905E+004   -2.49770E+005    3.53572E+005    3.98595E+004   -2.99892E+005    2.64813E+004   -2.38292E+004   -1.22231E+005    2.93289E+003    6.42201E+002    1.69748E+005
            2103    3.29199E+005    1.28351E+005   -2.41603E+005    1.90228E+004   -2.41603E+005    3.69954E+005    3.14097E+004   -2.83821E+005    1.90923E+004   -1.94253E+004   -9.38962E+004    3.90244E+003    1.82368E+002    1.81134E+005
            2104    3.37314E+005    1.52583E+005   -2.32308E+005    1.18608E+004   -2.32308E+005    3.84890E+005    2.26213E+004   -2.57640E+005    1.19107E+004   -1.40517E+004   -6.57229E+004    4.79505E+003   -3.88688E+001    1.90636E+005
            2105    3.41990E+005    1.76595E+005   -2.17123E+005    6.12173E+003   -2.17123E+005    3.93718E+005    1.14687E+004   -2.09420E+005    6.14881E+003   -6.26720E+003   -3.42877E+004    5.38652E+003   -6.74689E+001    1.96284E+005
            2106    3.42206E+005    1.95924E+005   -1.99216E+005    2.76968E+002   -1.99216E+005    3.95139E+005    1.00506E+003   -8.77451E+004    2.78102E+002   -7.57484E+002   -2.53581E+003    5.63145E+003   -2.02155E+001    1.97487E+005
            2107    3.41910E+005    2.15281E+005    2.15281E+005   -4.92322E+003   -1.78608E+005    3.93889E+005   -1.05834E+004    2.00888E+005   -4.94859E+003    6.33951E+003    3.03593E+004    5.43903E+003    3.47388E+001    1.96501E+005
            2108    3.36382E+005    2.28873E+005    2.28873E+005   -1.12300E+004   -1.55594E+005    3.84467E+005   -2.06832E+004    2.50988E+005   -1.12790E+004    1.20587E+004    6.12698E+004    4.86385E+003    9.56437E+000    1.90584E+005
            2109    3.55985E+005    2.43348E+005    2.43348E+005   -1.18616E+004   -1.63320E+005    4.06668E+005   -2.27222E+004    2.67603E+005   -1.18650E+004    1.90442E+004    6.09873E+004    4.80338E+003    8.08253E+002    2.02191E+005
            2110    3.62733E+005    2.29368E+005    2.29368E+005   -5.48150E+003   -1.88405E+005    4.17773E+005   -1.18272E+004    2.16716E+005   -5.48549E+003    9.70864E+003    3.12585E+004    5.46776E+003    4.07748E+002    2.08536E+005
            2111    3.65566E+005    2.10937E+005   -2.11182E+005    1.69580E+002   -2.11182E+005    4.22119E+005    2.50459E+001   -4.89157E+004    1.71349E+002   -1.67899E+002   -7.85875E+001    5.75802E+003    2.90178E+001    2.10981E+005
            2112    3.62882E+005    1.87241E+005   -2.30601E+005    5.51724E+003   -2.30601E+005    4.17842E+005    1.26144E+004   -2.20109E+005    5.51914E+003   -1.09381E+004   -3.24242E+004    5.47061E+003   -4.63467E+002    2.08572E+005
            2113    3.55502E+005    1.62763E+005   -2.43233E+005    1.22744E+004   -2.43233E+005    4.05996E+005    2.27317E+004   -2.68374E+005    1.22798E+004   -1.91741E+004   -6.13008E+004    4.79770E+003   -7.76510E+002    2.01843E+005
            2114    3.43839E+005    1.35267E+005   -2.51576E+005    1.92376E+004   -2.51576E+005    3.86843E+005    3.23572E+004   -2.94703E+005    1.92417E+004   -2.77242E+004   -8.85890E+004    3.72286E+003   -9.92264E+002    1.90973E+005
            2115    3.27013E+005    1.06537E+005   -2.52930E+005    2.69279E+004   -2.52930E+005    3.59468E+005    3.98216E+004   -3.04042E+005    2.69285E+004   -3.39858E+004   -1.12408E+005    2.58418E+003   -1.09207E+003    1.75382E+005
            2116    3.13734E+005    8.29625E+004   -2.51949E+005    3.51101E+004   -2.51949E+005    3.34911E+005    4.46255E+004   -3.05362E+005    3.51058E+004   -3.17272E+004   -1.37255E+005    1.36580E+003   -1.04176E+003    1.58918E+005
            2117    3.15089E+005    7.26769E+004   -2.56292E+005    4.27860E+004   -2.56292E+005    3.28969E+005    4.69430E+004   -3.11875E+005    4.27798E+004   -2.74114E+004   -1.56197E+005    6.87784E+002   -1.23732E+003    1.51352E+005
            2118    4.09383E+005    9.12818E+004   -3.60386E+005   -1.37558E+004   -3.60386E+005    4.51668E+005    9.42867E+004   -3.77238E+005    9.11100E+004   -2.23424E+004   -3.51628E+005   -1.87142E+003    8.55926E+003    5.38703E+004
            2119    3.79232E+005    8.10133E+004   -3.37136E+005   -1.54562E+004   -3.37136E+005    4.18150E+005    9.05264E+004   -3.49993E+005    8.09039E+004   -3.00261E+004   -3.22457E+005   -2.10140E+003    6.29656E+003    6.68929E+004
            2120    3.48273E+005    7.21973E+004   -3.10496E+005   -1.21270E+004   -3.10496E+005    3.82693E+005    8.34751E+004   -3.24089E+005    7.21259E+004   -3.47859E+004   -2.87765E+005   -1.98743E+003    4.69344E+003    7.90380E+004
            2121    3.25670E+005    6.27091E+004   -2.91501E+005   -5.02149E+003   -2.91501E+005    3.54210E+005    7.79376E+004   -3.09222E+005    6.26749E+004   -4.21806E+004   -2.54307E+005   -1.70838E+003    2.77662E+003    9.62534E+004
            2122    3.11843E+005    5.61745E+004   -2.75272E+005    1.23257E+004   -2.75272E+005    3.31447E+005    6.89241E+004   -3.04792E+005    5.61590E+004   -4.26121E+004   -2.20319E+005   -1.17184E+003    1.81791E+003    1.13055E+005
            2123    3.10793E+005    5.05025E+004   -2.68261E+005    3.38965E+004   -2.68261E+005    3.18763E+005    6.12873E+004   -3.09793E+005    5.04983E+004   -4.11783E+004   -1.93182E+005   -5.48946E+002    5.48257E+002    1.30570E+005
            2124    3.13621E+005    5.50738E+004   -2.62163E+005    4.77122E+004   -2.62163E+005    3.17237E+005    5.31257E+004   -3.13426E+005    4.77160E+004   -3.39836E+004   -1.73109E+005   -4.70319E+001    4.08270E+002    1.42549E+005
            2125    3.97664E+005    3.50616E+005    3.50616E+005   -9.67072E+003   -7.60676E+004    4.26683E+005   -8.82925E+004    3.84896E+005   -7.60163E+004    7.65515E+003    3.33239E+005   -5.31289E+002   -4.51584E+003    7.70870E+004
            2126    3.63054E+005    3.12509E+005    3.12509E+005   -4.16293E+004   -5.88486E+004    3.71358E+005   -7.06770E+004    3.62134E+005   -5.87344E+004   -8.05909E+003    2.78825E+005   -2.91081E+002   -4.35234E+003    1.03832E+005
            2127    3.40104E+005    2.84899E+005    2.84899E+005   -4.03793E+004   -6.83094E+004    3.53208E+005   -5.87367E+004    3.37510E+005   -4.04304E+004   -6.62778E+003    2.23268E+005    1.60723E+002   -3.09366E+003    1.34010E+005
            2128    3.15071E+005    2.44421E+005    2.44421E+005   -2.78362E+004   -1.00698E+005    3.45119E+005   -3.86291E+004    2.95210E+005   -2.78465E+004   -1.10266E+004    1.54760E+005    1.94072E+002   -2.10344E+003    1.51327E+005
            2129    4.23831E+005    3.70215E+005    3.70215E+005   -1.68455E+004   -8.26803E+004    4.52896E+005   -9.02299E+004    4.12091E+005   -8.26702E+004   -5.10286E+003    3.58463E+005   -8.04989E+002   -1.49386E+003    6.63986E+004
            2130    3.91722E+005    3.41866E+005    3.41866E+005   -3.81509E+004   -6.05968E+004    4.02463E+005   -8.10393E+004    3.90271E+005   -6.05903E+004   -6.93477E+003    3.10643E+005   -5.55094E+002   -7.20995E+002    1.04354E+005
            2131    3.55733E+005    2.97621E+005    2.97621E+005   -4.56529E+004   -6.93814E+004    3.67003E+005   -6.08624E+004    3.53945E+005   -4.56499E+004   -1.56050E+004    2.43842E+005   -3.26263E+002   -1.01402E+003    1.29784E+005
            2132    3.35805E+005    2.67047E+005    2.67047E+005   -2.87035E+004   -9.80014E+004    3.65048E+005   -4.67806E+004    3.19117E+005   -2.87008E+004   -9.50146E+003    1.78544E+005   -3.87399E+002   -8.06853E+002    1.56442E+005
            2133    4.56607E+005    4.04351E+005    4.04351E+005   -1.36051E+004   -8.29691E+004    4.87321E+005   -1.02592E+005    4.44522E+005   -8.29116E+004   -2.34613E+003    3.93035E+005   -7.85820E+002   -5.23337E+003    6.76638E+004
            2134    4.14428E+005    3.59301E+005    3.59301E+005   -4.29265E+004   -6.63340E+004    4.25635E+005   -8.33470E+004    4.12937E+005   -6.62685E+004   -1.69482E+004    3.33258E+005   -6.50506E+002   -4.69198E+003    9.88843E+004
            2135    3.85215E+005    3.29018E+005    3.29018E+005   -4.63065E+004   -6.53795E+004    3.94398E+005   -7.24440E+004    3.84151E+005   -4.63133E+004   -1.18722E+004    2.75518E+005   -4.12350E+002   -3.17551E+003    1.35010E+005
            2136    3.47589E+005    2.77292E+005    2.77292E+005   -3.33345E+004   -9.81379E+004    3.75430E+005   -4.86066E+004    3.33589E+005   -3.33200E+004   -1.53279E+004    1.94468E+005   -7.23123E+002   -2.20771E+003    1.55659E+005
            2137    4.81019E+005    4.24207E+005    4.24207E+005   -2.28074E+004   -8.48062E+004    5.09013E+005   -1.05531E+005    4.71905E+005   -8.47890E+004   -1.38010E+004    4.15183E+005   -1.09577E+003   -1.28703E+003    6.28536E+004
            2138    4.49064E+005    3.98570E+005    3.98570E+005   -3.66401E+004   -6.31706E+004    4.61741E+005   -9.95866E+004    4.47296E+005   -6.31451E+004   -8.59762E+003    3.70502E+005   -1.11650E+003   -1.41139E+003    1.06892E+005
            2139    4.00654E+005    3.43110E+005    3.43110E+005   -5.03492E+004   -6.43720E+004    4.07482E+005   -7.61295E+004    4.00102E+005   -5.03519E+004   -1.56083E+004    2.94349E+005   -1.18417E+003   -1.89210E+003    1.32236E+005
            2140    3.75998E+005    3.10126E+005    3.10126E+005   -3.26051E+004   -9.20549E+004    4.02181E+005   -6.18221E+004    3.65199E+005   -3.25993E+004   -1.02176E+004    2.28283E+005   -1.49719E+003   -1.56293E+003    1.61904E+005
            2141    5.16181E+005    4.69754E+005    4.69754E+005   -1.19758E+004   -7.50759E+004    5.44830E+005   -1.27567E+005    5.07395E+005   -7.50326E+004    1.38239E+003    4.56353E+005   -1.04261E+003   -4.69710E+003    7.90980E+004
            2142    4.59120E+005    4.08521E+005    4.08521E+005   -3.45964E+004   -6.50818E+004    4.73603E+005   -1.02948E+005    4.56834E+005   -6.50542E+004   -8.23988E+003    3.82137E+005   -7.72085E+002   -3.50446E+003    1.04804E+005
            2143    4.29205E+005    3.79799E+005    3.79799E+005   -4.66546E+004   -5.21041E+004    4.31903E+005   -9.36802E+004    4.29127E+005   -4.66427E+004   -3.89877E+003    3.31582E+005   -8.18582E+002   -2.15288E+003    1.35998E+005
            2144    3.90378E+005    3.26444E+005    3.26444E+005   -3.52942E+004   -8.73494E+004    4.13794E+005   -6.79336E+004    3.82453E+005   -3.52876E+004   -1.13396E+004    2.50428E+005   -1.70392E+003   -1.90552E+003    1.60219E+005
            2145    5.12855E+005    4.68801E+005    4.68801E+005   -8.54024E+003   -7.33986E+004    5.42199E+005   -1.28954E+005    5.03504E+005   -7.33669E+004    6.81764E+003    4.53411E+005   -1.52276E+003   -5.00969E+002    8.43160E+004
            2146    4.78258E+005    4.42729E+005    4.42729E+005   -1.11218E+004   -5.66771E+004    4.99406E+005   -1.24977E+005    4.73340E+005   -5.66004E+004    1.48573E+004    4.16673E+005   -2.30540E+003   -2.52801E+003    1.05548E+005
            2147    4.43021E+005    3.97717E+005    3.97717E+005   -4.34653E+004   -4.71204E+004    4.44837E+005   -1.02377E+005    4.42987E+005   -4.66249E+004   -1.65755E+003    3.55413E+005   -1.90038E+003   -1.83907E+003    1.29959E+005
            2148    4.16839E+005    3.65718E+005    3.65718E+005   -2.98812E+004   -6.95281E+004    4.35246E+005   -8.87694E+004    4.12565E+005   -2.99212E+004    3.27685E+003    2.92953E+005   -2.23701E+003   -1.45992E+003    1.62381E+005
            2149    5.05865E+005    4.82957E+005    4.82957E+005    2.76754E+004   -6.16034E+004    5.44560E+005   -1.49676E+005    4.87665E+005   -6.16024E+004    4.32210E+004    4.67410E+005    2.73032E+002   -1.89687E+002    8.26826E+004
            2150    4.92053E+005    4.57335E+005    4.57335E+005   -1.00770E+004   -5.61225E+004    5.13457E+005   -1.30378E+005    4.87171E+005   -5.61199E+004    1.06965E+004    4.36559E+005    3.31583E+001   -9.06266E+002    9.63260E+004
            2151    4.66200E+005    4.39740E+005    4.39740E+005   -1.44598E+004   -3.75997E+004    4.77340E+005   -1.29227E+005    4.64906E+005   -3.75188E+004    2.56764E+004    3.99523E+005   -1.62810E+003   -7.12481E+002    1.29039E+005
            2152    4.26382E+005    3.91335E+005    3.91335E+005   -2.52867E+004   -4.41793E+004    4.35514E+005   -1.07290E+005    4.25439E+005   -2.53650E+004    1.90650E+004    3.28169E+005   -1.70855E+003   -8.61570E+002    1.53338E+005
            2153    4.30055E+005    4.36518E+005    4.36518E+005    2.26733E+004   -8.09529E+003    4.44613E+005   -1.50365E+005    4.27568E+005   -7.99223E+003    7.87120E+004    3.80376E+005   -1.76564E+003    3.64725E+002    1.41731E+005
            2154    4.69260E+005    4.63005E+005    4.63005E+005    2.24828E+004   -3.04965E+004    4.93501E+005   -1.51664E+005    4.62460E+005   -3.04445E+004    5.64040E+004    4.29032E+005   -1.73357E+003   -5.72571E+001    1.17530E+005
            2155    5.11933E+005    4.93041E+005    4.93041E+005    1.66684E+004   -4.82581E+004    5.41299E+005   -1.53817E+005    5.02545E+005   -4.82355E+004    4.34748E+004    4.66212E+005   -1.39001E+003   -9.14019E+002    1.09818E+005
            2156    5.54410E+005    5.01638E+005    5.01638E+005   -3.01126E+004   -7.29466E+004    5.74585E+005   -1.32860E+005    5.50669E+005   -7.28201E+004   -1.97461E+004    4.91145E+005   -2.51522E+003   -1.63070E+003    7.39409E+004
            2157    4.38536E+005    3.84380E+005    3.84380E+005    1.03864E+004   -9.82694E+004    4.82649E+005   -9.88322E+004    4.06562E+005   -9.82433E+004    1.59708E+004    3.78769E+005   -3.63283E+002   -3.53038E+003    4.53565E+004
            2158    4.65262E+005    4.10280E+005    4.10280E+005    1.43871E+004   -1.02182E+005    5.12462E+005   -1.07495E+005    4.30529E+005   -1.02159E+005    1.80352E+004    4.06609E+005   -2.19127E+002   -3.43134E+003    3.78271E+004
            2159    4.92210E+005    4.28928E+005    4.28928E+005   -1.35422E+003   -1.07792E+005    5.36720E+005   -1.06594E+005    4.65247E+005   -1.07764E+005    4.25799E+001    4.27504E+005   -6.43881E+001   -3.83633E+003    2.44770E+004
            2160    5.22224E+005    4.64927E+005    4.64927E+005    1.57917E+003   -1.00962E+005    5.65889E+005   -1.21848E+005    4.98814E+005   -1.00947E+005    3.82120E+003    4.62671E+005    3.49213E+000   -2.82693E+003    3.21553E+004
            2161    5.37266E+005    4.80237E+005    4.80237E+005   -6.62598E+003   -9.61783E+004    5.76415E+005   -1.25811E+005    5.20075E+005   -9.61613E+004   -4.89484E+003    4.78488E+005    1.59166E+002   -3.02747E+003    2.89902E+004
            2162    5.77056E+005    5.44660E+005    5.44660E+005    1.75966E+004   -7.19246E+004    6.16585E+005   -1.63444E+005    5.61114E+005   -7.19218E+004    2.44776E+004    5.37777E+005    2.18391E+002   -1.00626E+003    5.98329E+004
            2163    5.41466E+005    5.19750E+005    5.19750E+005    3.76053E+004   -6.60513E+004    5.85802E+005   -1.63768E+005    5.18434E+005   -6.60265E+004    4.63405E+004    5.10990E+005    3.95581E+002   -3.33166E+003    6.43304E+004
            2164    3.72660E+005    3.66712E+005    3.66712E+005    2.39344E+003   -1.37630E+004    3.80476E+005   -1.18448E+005    3.71871E+005    2.07972E+003    6.78952E+004    2.85368E+005   -2.22767E+003    5.55914E+002    1.55907E+005
            2165    3.34491E+005    2.87803E+005    2.87803E+005    6.12366E+003   -8.18968E+004    3.69700E+005   -7.06767E+004    3.06771E+005    6.07806E+003    4.28153E+004    1.63137E+005   -2.25060E+003    4.17210E+002    1.74759E+005
            2166    3.11920E+005    1.78892E+005   -1.81282E+005   -8.03121E+002   -1.81282E+005    3.60174E+005    1.06433E+003   -4.85396E+004   -8.03396E+002    2.88649E+002   -2.67824E+003   -2.58014E+003    2.30497E+001    1.80063E+005
            2167    3.29690E+005    8.26073E+004   -2.82102E+005   -5.21753E+003   -2.82102E+005    3.64709E+005    6.82373E+004   -3.01643E+005   -5.17607E+003   -4.15356E+004   -1.58000E+005   -2.19832E+003   -3.48648E+002    1.72781E+005
            2168    3.79426E+005    1.03611E+004   -3.76448E+005   -4.86296E+003   -3.76448E+005    3.86809E+005    1.23650E+005   -3.78738E+005   -4.50646E+003   -7.05145E+004   -2.95929E+005   -2.30506E+003   -5.56346E+002    1.56950E+005
            2169    4.23033E+005    9.31688E+003   -4.29570E+005   -2.44093E+004   -4.29570E+005    4.38887E+005    1.48221E+005   -4.19993E+005    9.23720E+003   -7.49943E+004   -3.78905E+005   -1.59296E+003   -4.14651E+002    1.34031E+005
            2170    4.73121E+005    2.62000E+004   -4.73235E+005   -3.17682E+004   -4.73235E+005    4.99434E+005    1.59601E+005   -4.65031E+005    2.61396E+004   -6.64398E+004   -4.38503E+005   -1.95446E+003    6.22076E+001    1.18863E+005
            2171    5.06661E+005    4.60942E+004   -4.91068E+005   -2.17425E+004   -4.91068E+005    5.37162E+005    1.55572E+005   -4.96290E+005    4.60798E+004   -4.06841E+004   -4.72112E+005   -1.11144E+003    9.16914E+002    9.23926E+004
            2172    5.22268E+005    5.44369E+004   -5.08569E+005   -3.98980E+004   -5.08569E+005    5.63006E+005    1.64677E+005   -5.02561E+005    5.44264E+004   -5.16643E+004   -4.96792E+005   -1.69232E+002    2.37599E+003    7.33226E+004
            2173    3.97069E+005    3.45660E+005    3.45660E+005   -1.14987E+004   -8.19003E+004    4.27561E+005   -8.40871E+004    3.82647E+005   -1.15392E+004    2.09395E+004    2.42861E+005   -2.51824E+003   -6.62003E+002    1.82694E+005
            2174    3.81470E+005    3.07081E+005    3.07081E+005   -1.96966E+004   -1.12103E+005    4.19185E+005   -5.84271E+004    3.54953E+005   -1.97101E+004   -1.93415E+003    1.96926E+005   -2.15067E+003   -7.62002E+002    1.84488E+005
            2175    3.69919E+005    2.88383E+005    2.88383E+005   -1.96320E+004   -1.21917E+005    4.10299E+005   -4.89447E+004    3.35827E+005   -1.96259E+004   -5.11933E+003    1.71579E+005   -1.26767E+003   -1.10302E+003    1.85145E+005
            2176    3.43914E+005    2.55855E+005    2.55855E+005   -2.12189E+004   -1.29054E+005    3.84910E+005   -3.51940E+004    3.02213E+005   -2.12130E+004   -1.07851E+004    1.37580E+005   -8.92749E+002   -9.87077E+002    1.77580E+005
            2177    3.32833E+005    2.44764E+005    2.44764E+005   -1.75585E+004   -1.29641E+005    3.74405E+005   -3.25215E+004    2.85492E+005   -1.75577E+004   -7.00166E+003    1.22124E+005   -9.58226E+001   -1.29017E+003    1.75712E+005
            2178    3.12365E+005    2.22048E+005    2.22048E+005   -1.75179E+004   -1.31247E+005    3.53295E+005   -2.44276E+004    2.59232E+005   -1.75198E+004   -9.33583E+003    1.00138E+005    2.68968E+002   -4.78136E+002    1.67952E+005
            2179    3.07646E+005    2.18570E+005    2.18570E+005   -1.40369E+004   -1.30255E+005    3.48826E+005   -2.47593E+004    2.50587E+005   -1.40528E+004   -4.01996E+003    9.23506E+004    8.18762E+002   -1.24433E+003    1.67615E+005
            2180    3.62623E+005    2.70303E+005    2.70303E+005   -5.76200E+003   -1.40378E+005    4.10680E+005   -4.13877E+004    2.98080E+005   -5.77200E+003    9.53312E+003    1.20402E+005   -2.40458E+003   -3.78847E+002    1.97699E+005
            2181    3.66165E+005    2.58653E+005    2.58653E+005   -7.22867E+003   -1.58994E+005    4.17646E+005   -3.08101E+004    2.81082E+005   -7.23673E+003    1.64968E+003    9.80172E+004   -2.35934E+003   -2.72690E+002    2.03173E+005
            2182    3.47685E+005    2.31081E+005    2.31081E+005   -9.68023E+003   -1.67527E+005    3.98608E+005   -1.79579E+004    2.45241E+005   -9.67622E+003   -4.63529E+003    6.81853E+004   -2.03161E+003   -5.97175E+002    1.95939E+005
            2183    3.36380E+005    2.20346E+005    2.20346E+005   -6.67122E+003   -1.66108E+005    3.86454E+005   -1.58556E+004    2.24507E+005   -6.66978E+003   -2.08860E+003    5.63253E+004   -1.53440E+003   -3.42907E+002    1.91001E+005
            2184    3.16568E+005    1.98133E+005    1.98133E+005   -7.19766E+003   -1.66439E+005    3.64572E+005   -8.16535E+003    1.90187E+005   -7.19451E+003   -4.54710E+003    3.62377E+004   -7.55586E+002   -4.68556E+002    1.81140E+005
            2185    3.09361E+005    1.94560E+005    1.94560E+005   -4.24927E+003   -1.61867E+005    3.56427E+005   -9.48147E+003    1.80477E+005   -4.24916E+003   -8.10040E+002    3.35036E+004   -2.36150E+002   -6.66041E+001    1.77386E+005
            2186    2.96925E+005    1.80999E+005    1.80999E+005   -5.00528E+003   -1.61435E+005    3.42434E+005   -4.85267E+003    1.57381E+005   -5.00760E+003   -3.09807E+003    2.26637E+004    4.08105E+002   -4.49281E+002    1.70731E+005
            2187    3.56020E+005    2.02688E+005   -2.08386E+005    7.87302E+002   -2.08386E+005    4.11075E+005    1.63675E+003   -1.11399E+005    7.89807E+002    2.02505E+002   -5.90257E+003   -2.71791E+003   -5.04483E+001    2.05497E+005
            2188    3.56232E+005    1.93264E+005   -2.17820E+005    3.12645E+002   -2.17820E+005    4.11084E+005    8.08129E+003   -1.68516E+005    3.14153E+002   -1.01751E+003   -2.35405E+004   -2.27122E+003    6.39204E+001    2.05221E+005
            2189    3.48386E+005    1.88913E+005   -2.12956E+005    3.77214E+003   -2.12956E+005    4.01868E+005    6.75697E+003   -1.78997E+005    3.77183E+003    2.51972E+003   -2.65625E+004   -1.44265E+003    1.30934E+002    2.00402E+005
            2190    3.31546E+005    1.71698E+005   -2.10225E+005    3.62292E+003   -2.10225E+005    3.81923E+005    1.16346E+004   -1.95737E+005    3.62136E+003    1.39687E+003   -3.99221E+004   -7.61069E+002    2.81848E+002    1.89839E+005
            2191    3.20407E+005    1.68014E+005   -2.01013E+005    6.42052E+003   -2.01013E+005    3.69027E+005    8.85962E+003   -1.91392E+005    6.42050E+003    4.63507E+003   -3.76344E+004   -6.15746E+000    2.44489E+002    1.83299E+005
            2192    3.06278E+005    1.55625E+005   -1.96778E+005    5.21665E+003   -1.96778E+005    3.52403E+005    1.19786E+004   -1.93008E+005    5.21889E+003    2.33837E+003   -4.34930E+004    4.58210E+002    3.59928E+002    1.74704E+005
            2193    3.00604E+005    1.56909E+005   -1.89203E+005    6.60393E+003   -1.89203E+005    3.46112E+005    8.56324E+003   -1.82919E+005    6.60802E+003    4.16731E+003   -3.64651E+004    9.88471E+002    2.30279E+002    1.71856E+005
            2194    3.68454E+005    1.27780E+005   -2.86552E+005    4.31103E+003   -2.86552E+005    4.14332E+005    5.14871E+004   -3.16627E+005    4.32621E+003   -1.27630E+004   -1.46024E+005   -2.50760E+003    4.09850E+002    1.96139E+005
            2195    3.68712E+005    1.42914E+005   -2.73476E+005    1.16177E+004   -2.73476E+005    4.16390E+005    3.96482E+004   -3.09141E+005    1.16242E+004    1.05337E+002   -1.30674E+005   -2.43666E+003    6.29938E+002    1.97642E+005
            2196    3.58839E+005    1.38221E+005   -2.66274E+005    1.37744E+004   -2.66274E+005    4.04496E+005    3.80929E+004   -3.04274E+005    1.37736E+004    4.09716E+003   -1.32149E+005   -2.08856E+003    8.43972E+002    1.90416E+005
            2197    3.44711E+005    1.38330E+005   -2.50512E+005    1.75778E+004   -2.50512E+005    3.88843E+005    3.15348E+004   -2.91078E+005    1.75701E+004    9.13944E+003   -1.21314E+005   -1.68774E+003    1.06234E+003    1.83144E+005
            2198    3.29341E+005    1.28968E+005   -2.41798E+005    1.68294E+004   -2.41798E+005    3.70766E+005    3.19999E+004   -2.81310E+005    1.68218E+004    8.24583E+003   -1.21067E+005   -8.87691E+002    1.09083E+003    1.73738E+005
            2199    3.16270E+005    1.29587E+005   -2.27362E+005    1.79498E+004   -2.27362E+005    3.56949E+005    2.66082E+004   -2.66193E+005    1.79466E+004    9.56361E+003   -1.07335E+005   -4.03767E+002    8.33585E+002    1.68630E+005
            2200    3.05298E+005    1.23874E+005   -2.20826E+005    1.54985E+004   -2.20826E+005    3.44701E+005    2.71511E+004   -2.56325E+005    1.55021E+004    5.90958E+003   -1.02865E+005    2.37388E+002    9.86422E+002    1.63540E+005
            2201    3.95202E+005    7.23652E+004   -3.49004E+005    1.34048E+004   -3.49004E+005    4.21369E+005    8.77447E+004   -3.85120E+005    1.34460E+004   -2.07968E+004   -2.55883E+005   -2.16507E+003    5.19602E+002    1.74815E+005
            2202    3.95389E+005    9.23194E+004   -3.34014E+005    2.06170E+004   -3.34014E+005    4.26334E+005    7.36926E+004   -3.80347E+005    2.06325E+004   -3.01994E+003   -2.38691E+005   -1.89450E+003    8.19613E+002    1.77619E+005
            2203    3.81254E+005    1.02704E+005   -3.10509E+005    2.76113E+004   -3.10509E+005    4.13213E+005    6.00646E+004   -3.64054E+005    2.76049E+004    8.36902E+003   -2.16168E+005   -1.05221E+003    1.27275E+003    1.73436E+005
            2204    3.66850E+005    1.00249E+005   -2.97142E+005    2.85929E+004   -2.97142E+005    3.97391E+005    5.60998E+004   -3.50582E+005    2.85858E+004    1.11974E+004   -2.08083E+005   -6.48299E+002    1.39712E+003    1.65703E+005
            2205    3.47707E+005    1.02297E+005   -2.75608E+005    3.07777E+004   -2.75608E+005    3.77905E+005    4.75112E+004   -3.30544E+005    3.07797E+004    1.42310E+004   -1.87544E+005   -1.10067E+001    1.74044E+003    1.59754E+005
            2206    3.32361E+005    9.76783E+004   -2.63906E+005    2.82720E+004   -2.63906E+005    3.61584E+005    4.59852E+004   -3.15432E+005    2.82780E+004    1.14062E+004   -1.77640E+005    2.68813E+002    1.07289E+003    1.54108E+005
            2207    3.16594E+005    1.00087E+005   -2.46448E+005    2.76510E+004   -2.46448E+005    3.46535E+005    3.95701E+004   -2.97079E+005    2.76772E+004    1.00524E+004   -1.56440E+005    7.18823E+002    1.71127E+003    1.51939E+005
            2208    4.35187E+005    3.03551E+004   -4.08396E+005    2.31377E+004   -4.08396E+005    4.38751E+005    1.18301E+005   -4.35052E+005    2.35403E+004   -2.85380E+004   -3.49905E+005   -2.15439E+003    9.23018E+002    1.49048E+005
            2209    4.23729E+005    5.83334E+004   -3.76733E+005    3.46661E+004   -3.76733E+005    4.35067E+005    9.45779E+004   -4.22238E+005    3.47769E+004   -3.26160E+003   -3.15249E+005   -2.59429E+003    1.78424E+003    1.51510E+005
            2210    4.13422E+005    6.72982E+004   -3.59463E+005    3.91853E+004   -3.59463E+005    4.26761E+005    8.43263E+004   -4.11263E+005    3.92066E+004    6.64792E+003   -2.98833E+005   -2.00471E+003    2.12117E+003    1.48960E+005
            2211    3.92711E+005    7.46215E+004   -3.32658E+005    4.36506E+004   -3.32658E+005    4.07280E+005    7.14621E+004   -3.89950E+005    4.36637E+004    1.45771E+004   -2.72627E+005   -1.97321E+003    2.12321E+003    1.44350E+005
            2212    3.74916E+005    7.29015E+004   -3.16206E+005    4.26907E+004   -3.16206E+005    3.89108E+005    6.68714E+004   -3.72163E+005    4.26663E+004    1.48602E+004   -2.58141E+005   -1.09664E+003    2.75148E+003    1.38615E+005
            2213    3.50627E+005    7.40615E+004   -2.91348E+005    4.23409E+004   -2.91348E+005    3.65409E+005    5.83151E+004   -3.47376E+005    4.23348E+004    1.39734E+004   -2.31253E+005   -8.04675E+002    1.34616E+003    1.35445E+005
            2214    3.34929E+005    7.22132E+004   -2.78350E+005    3.83766E+004   -2.78350E+005    3.50563E+005    5.59200E+004   -3.31051E+005    3.83819E+004    8.78064E+003   -2.14923E+005   -2.26210E+002    2.62745E+003    1.34926E+005
            2215    4.63777E+005    3.88731E+004   -4.39622E+005    7.88329E+003   -4.39622E+005    4.78495E+005    1.30955E+005   -4.61439E+005    3.88693E+004   -2.70377E+004   -4.04697E+005   -4.48552E+002    4.00806E+002    1.20038E+005
            2216    4.58753E+005    4.58389E+004   -4.21429E+005    2.83070E+004   -4.21429E+005    4.67268E+005    1.15761E+005   -4.57998E+005    4.58049E+004   -9.11956E+003   -3.83968E+005   -1.16869E+003    1.47201E+003    1.24268E+005
            2217    4.42191E+005    5.42777E+004   -3.92342E+005    4.52820E+004   -3.92342E+005    4.46620E+005    9.75942E+004   -4.41985E+005    5.42270E+004    7.50284E+003   -3.54513E+005   -9.34342E+001    2.32429E+003    1.22968E+005
            2218    4.27202E+005    5.58964E+004   -3.74855E+005    4.87074E+004   -3.74855E+005    4.30751E+005    9.00837E+004   -4.27066E+005    5.58901E+004    1.28567E+004   -3.38998E+005   -4.80018E+002    1.57233E+003    1.17896E+005
            2219    3.98792E+005    5.84650E+004   -3.43885E+005    5.12507E+004   -3.43885E+005    4.02350E+005    7.80564E+004   -3.98645E+005    5.82889E+004    1.51098E+004   -3.07568E+005   -1.37564E+002    3.75724E+003    1.14126E+005
            2220    3.79512E+005    5.46253E+004   -3.27496E+005    4.93518E+004   -3.27496E+005    3.82122E+005    7.45064E+004   -3.79430E+005    5.46117E+004    1.13364E+004   -2.89467E+005   -7.84959E+001    9.96388E+002    1.13510E+005
            2221    3.52503E+005    5.32954E+004   -3.01407E+005    4.88543E+004   -3.01407E+005    3.54703E+005    6.64192E+004   -3.52440E+005    5.27737E+004    7.51119E+003   -2.59543E+005    1.25030E+002    3.68482E+003    1.13672E+005
            2222    4.94705E+005    5.05043E+004   -4.72554E+005   -1.21771E+004   -4.72554E+005    5.23058E+005    1.44742E+005   -4.85650E+005    5.04639E+004   -3.42029E+004   -4.50488E+005   -1.79266E+003    1.11151E+003    9.83404E+004
            2223    4.86940E+005    6.11017E+004   -4.47737E+005    1.38604E+004   -4.47737E+005    5.08839E+005    1.24258E+005   -4.81744E+005    6.09693E+004   -8.89459E+003   -4.24850E+005   -2.98262E+003    2.92691E+003    1.00163E+005
            2224    4.79205E+005    6.64307E+004   -4.32248E+005    2.47622E+004   -4.32248E+005    4.98679E+005    1.13685E+005   -4.75104E+005    6.63817E+004    4.24197E+003   -4.11679E+005   -1.70605E+003    3.43965E+003    9.46865E+004
            2225    4.53469E+005    7.24462E+004   -4.00291E+005    3.10743E+004   -4.00291E+005    4.72737E+005    9.89236E+004   -4.49194E+005    7.23970E+004    1.14596E+004   -3.80627E+005   -1.72322E+003    2.11239E+003    8.99514E+004
            2226    4.34698E+005    7.20301E+004   -3.81884E+005    3.06379E+004   -3.81884E+005    4.53914E+005    9.30719E+004   -4.30231E+005    7.19847E+004    1.10797E+004   -3.62280E+005   -1.02505E+003    4.41960E+003    8.76629E+004
            2227    4.01527E+005    7.11524E+004   -3.49896E+005    2.87425E+004   -3.49896E+005    4.21048E+005    8.33337E+004   -3.96441E+005    7.11364E+004    7.70125E+003   -3.28839E+005   -1.00372E+003    1.55305E+003    8.67598E+004
            2228    3.81098E+005    6.60486E+004   -3.33499E+005    2.59830E+004   -3.33499E+005    3.99548E+005    8.04891E+004   -3.76315E+005    6.59982E+004    5.92944E+002   -3.08058E+005   -5.36525E+002    4.10936E+003    9.21102E+004
            2229    5.17285E+005    6.20862E+004   -4.89773E+005   -1.59225E+004   -4.89773E+005    5.51859E+005    1.47870E+005   -5.03797E+005    6.20395E+004   -3.06590E+004   -4.74990E+005    2.05444E+003   -2.59158E+003    8.23404E+004
            2230    5.21644E+005    7.02439E+004   -4.83648E+005   -1.72464E+003   -4.83648E+005    5.53892E+005    1.38376E+005   -5.10296E+005    7.02333E+004   -1.37951E+004   -4.71567E+005   -3.60196E+002    2.39097E+003    7.53075E+004
            2231    5.03962E+005    8.17793E+004   -4.53536E+005    1.17477E+004   -4.53536E+005    5.35315E+005    1.20003E+005   -4.92836E+005    8.17668E+004    1.39629E+003   -4.43172E+005    3.62762E+001    2.38634E+003    6.86300E+004
            2232    4.94499E+005    8.61520E+004   -4.39812E+005    1.56556E+004   -4.39812E+005    5.25964E+005    1.12668E+005   -4.83000E+005    8.61360E+004    7.31116E+003   -4.31452E+005   -5.89786E+002    2.79745E+003    6.10831E+004
            2233    4.59477E+005    9.00354E+004   -4.03240E+005    1.25956E+004   -4.03240E+005    4.93276E+005    1.00203E+005   -4.44438E+005    9.00048E+004    4.82401E+003   -3.95438E+005   -2.71582E+002    3.82850E+003    5.63154E+004
            2234    4.37308E+005    8.62949E+004   -3.84934E+005    7.82710E+003   -3.84934E+005    4.71229E+005    9.69374E+004   -4.21030E+005    8.62780E+004   -2.34100E+003   -3.74749E+005   -5.71735E+002    2.75544E+003    6.23710E+004
            2235    4.05339E+005    8.28791E+004   -3.55350E+005    6.12223E+003   -3.55350E+005    4.38229E+005    8.87829E+004   -3.88480E+005    8.28476E+004   -6.65660E+003   -3.42540E+005   -3.25035E+002    3.62183E+003    6.67541E+004
            2236    4.42675E+005    9.89524E+004   -3.89722E+005   -1.55415E+004   -3.89722E+005    4.88674E+005    1.02104E+005   -4.07316E+005    9.89262E+004   -2.11251E+004   -3.84112E+005   -4.74032E+002    3.54978E+003    4.53647E+004
            2237    4.68165E+005    1.05732E+005   -4.09491E+005   -1.01514E+004   -4.09491E+005    5.15223E+005    1.04637E+005   -4.34101E+005    1.05708E+005   -1.27363E+004   -4.06882E+005   -4.41491E+002    3.47768E+003    3.20252E+004
            2238    5.01344E+005    1.06493E+005   -4.40615E+005   -3.19790E+003   -4.40615E+005    5.47107E+005    1.12440E+005   -4.73202E+005    1.06466E+005   -5.26560E+003   -4.38521E+005   -3.19785E+002    3.79212E+003    3.00021E+004
            2239    5.17993E+005    1.05341E+005   -4.55758E+005    4.21573E+003   -4.55758E+005    5.61098E+005    1.15400E+005   -4.95048E+005    1.05326E+005    2.51631E+003   -4.54043E+005   -3.82500E+002    2.84310E+003    2.79101E+004
            2240    5.48574E+005    9.36153E+004   -4.93878E+005    4.98514E+003   -4.93878E+005    5.87493E+005    1.31759E+005   -5.32108E+005    9.36016E+004    1.30378E+003   -4.90183E+005   -3.07098E+002    2.82043E+003    4.26956E+004
            2241    5.34779E+005    8.21351E+004   -4.94224E+005   -1.40888E+004   -4.94224E+005    5.76359E+005    1.42059E+005   -5.14759E+005    8.21314E+004   -2.13819E+004   -4.86927E+005   -4.20080E+002    1.25991E+003    5.87266E+004
            2242    5.40113E+005    6.58443E+004   -5.16503E+005   -3.19998E+004   -5.16503E+005    5.82347E+005    1.60886E+005   -5.19610E+005    6.58381E+004   -3.92338E+004   -5.09263E+005   -5.18951E+001    1.84504E+003    5.87597E+004
            2243    2.98784E+005    2.47923E+005    2.47923E+005   -4.50823E+004   -5.63231E+004    3.04246E+005   -4.88391E+004    2.98308E+005   -4.51425E+004    3.23057E+004    1.59354E+005    4.20357E+002   -8.74731E+002    1.38191E+005
            2244    3.09219E+005    2.53868E+005    2.53868E+005   -3.58859E+004   -7.16981E+004    3.25566E+005   -4.87613E+004    3.04501E+005   -3.58948E+004    4.34520E+004    1.38727E+005    6.14570E+002   -1.30041E+002    1.55652E+005
            2245    3.29173E+005    2.55109E+005    2.55109E+005   -2.89365E+004   -1.05646E+005    3.60755E+005   -4.01756E+004    3.08085E+005   -2.89412E+004    3.54645E+004    1.14004E+005    8.75659E+002    2.61577E+001    1.76047E+005
            2246    3.43235E+005    2.50719E+005    2.50719E+005   -2.08735E+004   -1.35054E+005    3.85773E+005   -3.15972E+004    2.95743E+005   -2.08747E+004    2.69907E+004    8.86755E+004    1.29178E+003    2.98785E+002    1.90400E+005
            2247    3.29303E+005    2.40631E+005    2.40631E+005   -1.89328E+004   -1.29796E+005    3.70427E+005   -3.06341E+004    2.82494E+005   -1.89316E+004    1.96551E+004    9.11788E+004    1.22984E+003    4.72642E+002    1.81724E+005
            2248    3.16103E+005    2.32028E+005    2.32028E+005   -1.87315E+004   -1.23050E+005    3.55077E+005   -3.00821E+004    2.73144E+005   -1.87551E+004    1.30063E+004    9.59952E+004    1.38073E+003   -7.93111E+002    1.72609E+005
            2249    3.10220E+005    2.29940E+005    2.29940E+005   -1.84639E+004   -1.17775E+005    3.47715E+005   -3.12334E+004    2.70830E+005   -1.84596E+004    9.74015E+003    1.02420E+005    1.13506E+003    7.28874E+002    1.67564E+005
            2250    3.02802E+005    2.25321E+005    2.25321E+005   -1.98649E+004   -1.13147E+005    3.38468E+005   -3.07697E+004    2.67491E+005   -1.98992E+004    4.43189E+003    1.07776E+005    1.21315E+003   -1.40134E+003    1.61134E+005
            2251    3.02315E+005    2.29060E+005    2.29060E+005   -2.01149E+004   -1.07254E+005    3.36314E+005   -3.38969E+004    2.71833E+005   -2.01132E+004    3.58101E+003    1.18223E+005    9.10376E+002    5.53391E+002    1.58083E+005
            2252    3.00811E+005    2.28567E+005    2.28567E+005   -2.29933E+004   -1.04639E+005    3.33206E+005   -3.36449E+004    2.74173E+005   -2.30236E+004   -3.29211E+003    1.27250E+005    8.29816E+002   -1.79091E+003    1.53263E+005
            2253    3.09555E+005    2.40060E+005    2.40060E+005   -2.36994E+004   -1.00739E+005    3.40799E+005   -3.85407E+004    2.86772E+005   -2.37009E+004   -3.38141E+003    1.42704E+005    4.46920E+002    1.96380E+001    1.53949E+005
            2254    3.16832E+005    2.46385E+005    2.46385E+005   -2.68872E+004   -1.00903E+005    3.47289E+005   -3.95315E+004    2.96429E+005   -2.68834E+004    2.54474E+004    1.20030E+005    8.06062E+002    7.43652E+002    1.67078E+005
            2255    3.13810E+005    2.45261E+005    2.45261E+005   -2.67840E+004   -9.80550E+004    3.43316E+005   -4.01407E+004    2.94764E+005   -2.68209E+004    1.83073E+004    1.28936E+005    1.08387E+003   -1.29534E+003    1.62482E+005
            2256    3.07753E+005    2.42837E+005    2.42837E+005   -2.78556E+004   -9.18985E+004    3.34735E+005   -4.10276E+004    2.92191E+005   -2.78500E+004    1.32046E+004    1.37728E+005    7.48535E+002    9.87202E+002    1.55353E+005
            2257    3.06510E+005    2.46365E+005    2.46365E+005   -2.88160E+004   -8.39815E+004    3.30346E+005   -4.45224E+004    2.95029E+005   -2.88721E+004    1.14255E+004    1.51014E+005    8.89830E+002   -2.03621E+003    1.49666E+005
            2258    3.05666E+005    2.47456E+005    2.47456E+005   -3.17418E+004   -7.91406E+004    3.26596E+005   -4.55244E+004    2.97229E+005   -3.17395E+004    4.41881E+003    1.63894E+005    6.16694E+002    6.96931E+002    1.42505E+005
            2259    3.12792E+005    2.57849E+005    2.57849E+005   -3.37401E+004   -7.25278E+004    3.30377E+005   -5.05271E+004    3.07311E+005   -3.38070E+004    3.19856E+003    1.82190E+005    5.97692E+002   -2.58988E+003    1.38788E+005
            2260    3.20727E+005    2.64562E+005    2.64562E+005   -3.81100E+004   -7.15921E+004    3.36154E+005   -5.16201E+004    3.16759E+005   -3.81122E+004   -6.21697E+003    1.99189E+005    2.88030E+002   -2.82886E+001    1.33048E+005
            2261    3.11859E+005    2.52445E+005    2.52445E+005   -3.53985E+004   -7.88690E+004    3.31314E+005   -4.60592E+004    3.04931E+005   -3.53984E+004    2.64365E+004    1.47139E+005    3.20033E+002    1.35065E+003    1.54266E+005
            2262    3.11661E+005    2.54290E+005    2.54290E+005   -3.60936E+004   -7.49960E+004    3.29286E+005   -4.77335E+004    3.06128E+005   -3.61648E+004    2.25583E+004    1.56807E+005    7.30772E+002   -2.05535E+003    1.50293E+005
            2263    3.09664E+005    2.57897E+005    2.57897E+005   -3.71021E+004   -6.45975E+004    3.22494E+005   -5.20658E+004    3.06899E+005   -3.71008E+004    2.17666E+004    1.71531E+005    4.10146E+002    1.46076E+003    1.42798E+005
            2264    3.09301E+005    2.60326E+005    2.60326E+005   -4.06489E+004   -5.66778E+004    3.17004E+005   -5.43330E+004    3.08364E+005   -4.08197E+004    1.60923E+004    1.87727E+005    4.53719E+002   -2.76321E+003    1.33139E+005
            2265    3.14853E+005    2.70279E+005    2.70279E+005   -4.30770E+004   -4.60512E+004    3.16330E+005   -6.03835E+004    3.14822E+005   -4.30849E+004    1.49397E+004    2.09296E+005    2.38974E+002    8.90899E+002    1.24782E+005
            2266    3.25775E+005    2.79472E+005    2.79472E+005   -4.33657E+004   -4.91629E+004    3.28635E+005   -6.23144E+004    3.25659E+005   -4.87367E+004    5.08525E+003    2.30595E+005    1.02551E+002   -3.51493E+003    1.15763E+005
            2267    3.43704E+005    2.98211E+005    2.98211E+005   -3.86910E+004   -5.19130E+004    3.50124E+005   -6.92024E+004    3.43131E+005   -5.19116E+004    3.48023E+003    2.56038E+005   -1.12379E+002    9.10325E+001    1.11488E+005
            2268    3.14170E+005    2.59460E+005    2.59460E+005   -4.33657E+004   -6.49426E+004    3.24402E+005   -5.03838E+004    3.12497E+005   -4.34016E+004    2.73998E+004    1.67153E+005   -1.39704E+001    1.79057E+003    1.46350E+005
            2269    3.11706E+005    2.62262E+005    2.62262E+005   -4.51014E+004   -5.36117E+004    3.15874E+005   -5.45162E+004    3.11444E+005   -4.52640E+004    2.99688E+004    1.78844E+005    1.83661E+002   -2.01867E+003    1.39193E+005
            2270    3.09944E+005    2.65934E+005    2.65934E+005   -3.92630E+004   -4.85484E+004    3.14483E+005   -5.93743E+004    3.09631E+005   -4.85189E+004    2.94158E+004    1.97226E+005   -6.52088E+001    9.41712E+002    1.27476E+005
            2271    3.15048E+005    2.76620E+005    2.76620E+005   -2.26810E+004   -5.21102E+004    3.28730E+005   -6.72762E+004    3.11933E+005   -5.20683E+004    2.96581E+004    2.24239E+005   -1.59499E+002   -2.44074E+003    1.13716E+005
            2272    3.29244E+005    2.89466E+005    2.89466E+005   -1.78921E+004   -5.79906E+004    3.47456E+005   -7.11943E+004    3.23682E+005   -5.79878E+004    2.06537E+004    2.50917E+005   -3.19132E+002    1.12236E+002    1.01796E+005
            2273    3.48854E+005    3.08434E+005    3.08434E+005   -1.15331E+004   -6.34806E+004    3.71914E+005   -7.78067E+004    3.39988E+005   -6.34400E+004    1.84506E+004    2.78409E+005   -3.48130E+002   -3.43511E+003    9.32564E+004
            2274    3.71597E+005    3.26009E+005    3.26009E+005   -1.37790E+004   -7.08046E+004    3.96814E+005   -8.04752E+004    3.61556E+005   -7.08006E+004    7.86252E+003    3.04364E+005   -5.41434E+002   -8.55714E+002    8.29798E+004
            2275    4.08615E+005    3.61430E+005    3.61430E+005    1.54534E+004   -8.93915E+004    4.50821E+005   -9.58306E+004    3.76527E+005   -8.93752E+004    2.53042E+004    3.51563E+005   -4.65348E+002   -2.66490E+003    5.75408E+004
            2276    3.79794E+005    3.35747E+005    3.35747E+005    1.12658E+004   -8.19882E+004    4.17735E+005   -8.83414E+004    3.52628E+005   -8.19740E+004    2.59069E+004    3.21091E+005   -5.33827E+002   -2.38373E+003    6.73513E+004
            2277    3.50518E+005    3.13098E+005    3.13098E+005    1.34545E+004   -7.23573E+004    3.85455E+005   -8.47318E+004    3.25602E+005   -7.23512E+004    3.63999E+004    2.90147E+005   -4.91236E+002   -1.44796E+003    7.96794E+004
            2278    3.27843E+005    2.91588E+005    2.91588E+005    3.39410E+003   -6.50854E+004    3.56674E+005   -7.66324E+004    3.11135E+005   -6.50801E+004    3.88562E+004    2.56121E+005   -4.06825E+002   -1.30522E+003    9.46691E+004
            2279    3.12462E+005    2.75903E+005    2.75903E+005   -9.27940E+003   -5.80939E+004    3.33997E+005   -6.95098E+004    3.03706E+005   -5.80931E+004    4.36004E+004    2.23022E+005   -2.53517E+002   -4.19644E+002    1.10834E+005
            2280    3.12009E+005    2.64519E+005    2.64519E+005   -3.87539E+004   -5.55467E+004    3.20066E+005   -5.67395E+004    3.10989E+005   -5.55416E+004    3.41119E+004    1.91648E+005   -1.10299E+002   -7.05719E+002    1.29575E+005
            2281    3.09403E+005    2.53667E+005    2.53667E+005   -5.32417E+004   -5.81722E+004    3.11839E+005   -4.74177E+004    3.09315E+005   -5.32560E+004    2.15177E+004    1.73991E+005    1.97580E+001    5.74743E+002    1.36001E+005
            2282    3.81427E+005    7.49470E+004   -3.36938E+005    4.09679E+003   -3.36938E+005    4.11885E+005    8.59647E+004   -3.66181E+005    7.49380E+004   -1.46019E+004   -3.18230E+005   -4.80665E+002    1.86208E+003    7.76345E+004
            2283    3.53484E+005    6.12240E+004   -3.08232E+005    2.67530E+004   -3.08232E+005    3.69456E+005    7.34184E+004   -3.49672E+005    6.12194E+004   -4.12192E+003   -2.77353E+005   -5.38825E+002    6.21208E+002    9.69033E+004
            2284    3.36173E+005    4.90526E+004   -2.88268E+005    4.67460E+004   -2.88268E+005    3.37320E+005    6.41564E+004   -3.36155E+005    4.67829E+004    8.73412E+001   -2.39340E+005    2.51555E+002    1.48826E+002    1.18780E+005
            2285    3.17434E+005    7.55623E+004   -2.59889E+005    3.57770E+004   -2.59889E+005    3.35451E+005    4.95164E+004   -3.11750E+005    3.57777E+004    5.13861E+003   -1.89466E+005    4.91320E+001    3.31018E+002    1.36616E+005
            2286    3.07442E+005    9.92461E+004   -2.38893E+005    2.38063E+004   -2.38893E+005    3.38140E+005    3.86137E+004   -2.85481E+005    2.38183E+004    4.57625E+003   -1.44236E+005    8.84635E+002    3.78508E+002    1.51810E+005
            2287    2.99232E+005    1.28463E+005   -2.10875E+005    1.51588E+004   -2.10875E+005    3.39338E+005    2.24177E+004   -2.43425E+005    1.51627E+004    5.35224E+003   -8.77680E+004    5.86067E+002    3.30831E+002    1.63154E+005
            2288    2.93979E+005    1.51350E+005   -1.87101E+005    4.74563E+003   -1.87101E+005    3.38451E+005    1.03349E+004   -1.79862E+005    4.75175E+003    9.19371E+002   -3.66757E+004    1.20920E+003    2.73550E+002    1.68173E+005
            2289    2.96641E+005    1.83416E+005    1.83416E+005   -3.08216E+003   -1.58649E+005    3.42066E+005   -7.22830E+003    1.59634E+005   -3.08124E+003    3.96360E+002    2.43698E+004    7.53755E+002    1.64568E+002    1.70611E+005
            2290    2.96809E+005    2.05781E+005    2.05781E+005   -1.40076E+004   -1.31853E+005    3.37634E+005   -1.99733E+004    2.34779E+005   -1.40101E+004   -5.47458E+003    7.94046E+004    1.02078E+003    1.02995E+002    1.63392E+005
            2291    3.53457E+005    6.84544E+004   -3.11695E+005    7.01274E+003   -3.11695E+005    3.80149E+005    7.87426E+004   -3.41130E+005    6.84328E+004   -1.81650E+004   -2.86496E+005   -2.61409E+002    2.62867E+003    8.59716E+004
            2292    3.35718E+005    5.43218E+004   -2.93253E+005    2.91970E+004   -2.93253E+005    3.47575E+005    6.99113E+004   -3.33593E+005    5.42584E+004   -1.18050E+004   -2.52187E+005   -1.48082E+002    3.12418E+003    1.07469E+005
            2293    3.17678E+005    5.48648E+004   -2.68723E+005    4.26940E+004   -2.68723E+005    3.23588E+005    5.70548E+004   -3.17152E+005    4.29212E+004   -4.05392E+003   -2.10032E+005    4.97853E+002    2.97038E+003    1.24609E+005
            2294    3.09352E+005    7.90846E+004   -2.51542E+005    3.08748E+004   -2.51542E+005    3.30627E+005    4.71942E+004   -3.00726E+005    3.09063E+004   -1.44239E+003   -1.71046E+005    4.34730E+002    2.05357E+003    1.41877E+005
            2295    3.00699E+005    1.06654E+005   -2.27308E+005    2.19664E+004   -2.27308E+005    3.33962E+005    3.28956E+004   -2.71865E+005    2.20016E+004    2.25736E+003   -1.22946E+005    1.17975E+003    1.37609E+003    1.54782E+005
            2296    2.96423E+005    1.29477E+005   -2.07650E+005    1.21494E+004   -2.07650E+005    3.37128E+005    2.20079E+004   -2.34939E+005    1.21619E+004    8.60225E+002   -7.90459E+004    9.85278E+002    7.05917E+002    1.63754E+005
            2297    2.95436E+005    1.57927E+005   -1.82629E+005    4.94529E+003   -1.82629E+005    3.40555E+005    6.58562E+003   -1.65198E+005    4.94995E+003    2.05597E+003   -2.67628E+004    1.49548E+003    1.23250E+002    1.69660E+005
            2298    2.93218E+005    1.78824E+005    1.78824E+005   -4.32484E+003   -1.59367E+005    3.38190E+005   -5.04405E+003    1.53456E+005   -4.33249E+003   -1.83913E+003    2.13038E+004    1.14926E+003   -4.71833E+002    1.68694E+005
            2299    2.98564E+005    2.08119E+005    2.08119E+005   -1.18130E+004   -1.31766E+005    3.39885E+005   -2.15131E+004    2.34338E+005   -1.18380E+004   -9.73435E+001    7.64747E+004    1.32309E+003   -1.11636E+003    1.65561E+005
            2300    3.32793E+005    6.01435E+004   -2.94651E+005    1.05826E+004   -2.94651E+005    3.54794E+005    7.46416E+004   -3.24335E+005    6.01419E+004   -2.61745E+004   -2.57892E+005   -2.72667E+002    7.13625E+002    9.93396E+004
            2301    3.17441E+005    4.87862E+004   -2.74652E+005    3.64311E+004   -2.74652E+005    3.23438E+005    6.31448E+004   -3.16899E+005    4.87779E+004   -1.59813E+004   -2.22231E+005   -1.73042E+002   -3.82079E+002    1.16446E+005
            2302    3.10350E+005    6.12413E+004   -2.60538E+005    3.69570E+004   -2.60538E+005    3.21779E+005    5.41132E+004   -3.08202E+005    3.69559E+004   -1.10237E+004   -1.88272E+005    5.79763E+002   -6.80119E+002    1.34278E+005
            2303    3.03203E+005    8.84944E+004   -2.40428E+005    2.79056E+004   -2.40428E+005    3.28923E+005    4.13428E+004   -2.89108E+005    2.79046E+004   -4.49369E+003   -1.47439E+005    5.81099E+002   -4.84283E+002    1.48117E+005
            2304    3.00840E+005    1.12164E+005   -2.24434E+005    1.82333E+004   -2.24434E+005    3.36599E+005    3.13455E+004   -2.64701E+005    1.82389E+004   -2.96834E+003   -1.09307E+005    1.27247E+003   -1.96380E+002    1.59673E+005
            2305    2.98986E+005    1.38863E+005   -2.02762E+005    1.11999E+004   -2.02762E+005    3.41625E+005    1.75664E+004   -2.24072E+005    1.12026E+004    4.19047E+002   -6.43208E+004    1.18341E+003   -7.68346E+001    1.67713E+005
            2306    2.96964E+005    1.59412E+005   -1.83067E+005    2.96138E+003   -1.83067E+005    3.42479E+005    6.89773E+003   -1.57401E+005    2.96629E+003   -9.54282E+002   -2.27052E+004    1.58750E+003    1.44392E+002    1.70886E+005
            2307    2.98873E+005    1.85572E+005    1.85572E+005   -3.43329E+003   -1.58997E+005    3.44569E+005   -7.71407E+003    1.64632E+005   -3.43092E+003    1.33573E+003    2.52374E+004    1.30961E+003    2.65059E+002    1.71864E+005
            2308    2.97342E+005    2.03804E+005    2.03804E+005   -1.20966E+004   -1.35345E+005    3.39149E+005   -1.87873E+004    2.28239E+005   -1.20947E+004   -8.00824E+002    6.92575E+004    1.37316E+003    4.48731E+002    1.65911E+005
            2309    3.15648E+005    5.42326E+004   -2.76764E+005    2.08891E+004   -2.76764E+005    3.30996E+005    6.72140E+004   -3.11649E+005    5.42114E+004   -2.96912E+004   -2.26162E+005   -2.91905E+001    1.71026E+003    1.11804E+005
            2310    3.10822E+005    4.65526E+004   -2.66213E+005    4.26291E+004   -2.66213E+005    3.12765E+005    5.90104E+004   -3.10766E+005    4.30869E+004   -2.23830E+004   -1.97735E+005    2.30037E+002    2.28575E+003    1.29202E+005
            2311    3.05932E+005    7.32421E+004   -2.50528E+005    3.37252E+004   -2.50528E+005    3.23771E+005    4.78537E+004   -3.00110E+005    3.38126E+004   -1.37313E+004   -1.63642E+005    8.88465E+002    2.27039E+003    1.43429E+005
            2312    3.05604E+005    9.75961E+004   -2.38053E+005    2.41031E+004   -2.38053E+005    3.35649E+005    3.87846E+004   -2.84684E+005    2.41363E+004   -9.67972E+003   -1.30810E+005    9.16569E+002    1.50976E+003    1.56495E+005
            2313    3.04634E+005    1.23668E+005   -2.20026E+005    1.66844E+004   -2.20026E+005    3.43694E+005    2.65579E+004   -2.56960E+005    1.67137E+004   -4.17171E+003   -9.22156E+004    1.46790E+003    9.98140E+002    1.66098E+005
            2314    3.04192E+005    1.44829E+005   -2.03641E+005    8.79212E+003   -2.03641E+005    3.48470E+005    1.66732E+004   -2.18144E+005    8.80461E+003   -3.11938E+003   -5.57048E+004    1.43296E+003    4.57671E+002    1.72232E+005
            2315    3.04938E+005    1.69137E+005   -1.82799E+005    2.80601E+003   -1.82799E+005    3.51936E+005    3.61846E+003   -1.38984E+005    2.80812E+003    5.48011E+002   -1.42115E+004    1.71430E+003    2.48354E+001    1.75805E+005
            2316    3.02757E+005    1.87011E+005    1.87011E+005   -4.58301E+003   -1.62026E+005    3.49037E+005   -6.80058E+003    1.67216E+005   -4.59309E+003    9.81665E+000    2.49850E+004    1.55047E+003   -4.30284E+002    1.74063E+005
            2317    3.04821E+005    2.09679E+005    2.09679E+005   -1.09143E+004   -1.38146E+005    3.47825E+005   -2.02064E+004    2.32730E+005   -1.09385E+004    3.88577E+003    6.76719E+004    1.54843E+003   -9.05365E+002    1.70950E+005
            2318    3.10563E+005    4.82435E+004   -2.68865E+005    3.47086E+004   -2.68865E+005    3.17109E+005    6.19710E+004   -3.09898E+005    4.82424E+004   -3.42179E+004   -1.99938E+005    1.47338E+001   -2.59618E+002    1.27176E+005
            2319    3.08295E+005    6.03989E+004   -2.57836E+005    3.94488E+004   -2.57836E+005    3.18235E+005    5.26629E+004   -3.06687E+005    3.94572E+004   -2.41241E+004   -1.73322E+005    1.19538E+002   -1.18672E+003    1.40538E+005
            2320    3.09890E+005    8.45218E+004   -2.49043E+005    2.99106E+004   -2.49043E+005    3.33565E+005    4.48703E+004   -2.98774E+005    2.99037E+004   -1.82742E+004   -1.46240E+005    7.38562E+002   -1.18011E+003    1.54018E+005
            2321    3.10683E+005    1.10215E+005   -2.34970E+005    2.22354E+004   -2.34970E+005    3.45185E+005    3.41734E+004   -2.80537E+005    2.22303E+004   -1.12016E+004   -1.13549E+005    9.70783E+002   -8.34785E+002    1.64828E+005
            2322    3.12350E+005    1.32285E+005   -2.21892E+005    1.41988E+004   -2.21892E+005    3.54177E+005    2.51361E+004   -2.54313E+005    1.41980E+004   -7.98522E+003   -8.16212E+004    1.44722E+003   -4.56499E+002    1.73212E+005
            2323    3.13827E+005    1.56189E+005   -2.04282E+005    8.09085E+003   -2.04282E+005    3.60472E+005    1.33339E+004   -2.10765E+005    8.09129E+003   -2.95543E+003   -4.51376E+004    1.58175E+003   -2.11773E+002    1.78990E+005
            2324    3.13103E+005    1.74885E+005   -1.86561E+005    1.31164E+003   -1.86561E+005    3.61446E+005    3.45465E+003   -1.28082E+005    1.31370E+003   -1.44267E+003   -1.02350E+004    1.74660E+003    5.01700E+001    1.80661E+005
            2325    3.13596E+005    1.96272E+005    1.96272E+005   -4.26847E+003   -1.65111E+005    3.61383E+005   -8.96421E+003    1.79925E+005   -4.26617E+003    3.21519E+003    2.79436E+004    1.63764E+003    2.72623E+002    1.80260E+005
            2326    3.10256E+005    2.11392E+005    2.11392E+005   -1.14329E+004   -1.42962E+005    3.54354E+005   -1.89990E+004    2.33931E+005   -1.14301E+004    4.43357E+003    6.39935E+004    1.49562E+003    4.84916E+002    1.74650E+005
            2327    3.10818E+005    5.23838E+004   -2.62010E+005    4.51045E+004   -2.62010E+005    3.14394E+005    5.48406E+004   -3.10626E+005    4.52210E+004   -3.28485E+004   -1.76894E+005    2.79916E+002    1.31928E+003    1.39658E+005
            2328    3.13147E+005    7.30075E+004   -2.56789E+005    3.65097E+004   -2.56789E+005    3.29797E+005    4.90907E+004   -3.08308E+005    3.65742E+004   -2.70166E+004   -1.56830E+005    7.15072E+002    1.78828E+003    1.51547E+005
            2329    3.15716E+005    9.71013E+004   -2.47217E+005    2.86750E+004   -2.47217E+005    3.44318E+005    4.04801E+004   -2.98340E+005    2.87195E+004   -1.96780E+004   -1.30482E+005    1.10449E+003    1.49176E+003    1.62976E+005
            2330    3.19468E+005    1.19405E+005   -2.37860E+005    2.03426E+004   -2.37860E+005    3.57265E+005    3.27044E+004   -2.81672E+005    2.03676E+004   -1.51274E+004   -1.03353E+005    1.29506E+003    9.00857E+002    1.73087E+005
            2331    3.22807E+005    1.43577E+005   -2.23959E+005    1.35840E+004   -2.23959E+005    3.67537E+005    2.22661E+004   -2.52971E+005    1.36004E+004   -9.24627E+003   -7.11523E+004    1.58844E+003    4.98300E+002    1.81133E+005
            2332    3.25044E+005    1.64253E+005   -2.09543E+005    6.69877E+003   -2.09543E+005    3.73796E+005    1.28638E+004   -2.09536E+005    6.70687E+003   -5.84344E+003   -3.94549E+004    1.72624E+003    2.14702E+002    1.86132E+005
            2333    3.26709E+005    1.86073E+005   -1.91155E+005    1.12421E+003   -1.91155E+005    3.77228E+005    1.31911E+003   -1.05475E+005    1.12439E+003   -8.40201E+001   -4.99770E+003    1.82295E+003   -2.05376E+001    1.88589E+005
            2334    3.24277E+005    2.02490E+005    2.02490E+005   -5.23994E+003   -1.71174E+005    3.73664E+005   -8.69210E+003    1.87161E+005   -5.24735E+003    3.09732E+003    2.82263E+004    1.77032E+003   -2.27590E+002    1.86400E+005
            2335    3.22850E+005    2.20436E+005    2.20436E+005   -1.11427E+004   -1.48356E+005    3.68793E+005   -2.03124E+004    2.42914E+005   -1.11579E+004    9.18415E+003    6.29109E+004    1.63556E+003   -4.71201E+002    1.82419E+005
            2336    3.14062E+005    6.42637E+004   -2.59909E+005    4.29579E+004   -2.59909E+005    3.24173E+005    5.08958E+004   -3.12430E+005    4.29730E+004   -3.28863E+004   -1.62774E+005    4.57142E+001   -1.22353E+003    1.48495E+005
            2337    3.17730E+005    8.38687E+004   -2.55090E+005    3.59738E+004   -2.55090E+005    3.38959E+005    4.50824E+004   -3.09452E+005    3.59747E+004   -2.73945E+004   -1.43828E+005    2.53211E+002   -1.28712E+003    1.59161E+005
            2338    3.21924E+005    1.03787E+005   -2.49383E+005    2.76423E+004   -2.49383E+005    3.53170E+005    3.93177E+004   -3.00644E+005    2.76371E+004   -2.39216E+004   -1.21669E+005    7.57286E+002   -9.44592E+002    1.69684E+005
            2339    3.29048E+005    1.28306E+005   -2.41223E+005    2.00833E+004   -2.41223E+005    3.69529E+005    3.09447E+004   -2.84669E+005    2.00806E+004   -1.94857E+004   -9.34291E+004    1.21399E+003   -5.86035E+002    1.81023E+005
            2340    3.36977E+005    1.52448E+005   -2.31932E+005    1.26307E+004   -2.31932E+005    3.84380E+005    2.22843E+004   -2.58466E+005    1.26305E+004   -1.40909E+004   -6.53926E+004    1.56063E+003   -3.34991E+002    1.90464E+005
            2341    3.41543E+005    1.76383E+005   -2.16786E+005    6.53639E+003   -2.16786E+005    3.93169E+005    1.12889E+004   -2.10148E+005    6.53694E+003   -6.28415E+003   -3.41195E+004    1.80974E+003   -1.59044E+002    1.96083E+005
            2342    3.41699E+005    1.95628E+005   -1.98925E+005    3.14539E+002   -1.98925E+005    3.94553E+005    9.94429E+002   -8.82679E+004    3.15080E+002   -7.61894E+002   -2.53647E+003    1.88012E+003    1.47903E+001    1.97266E+005
            2343    3.41459E+005    2.14953E+005    2.14953E+005   -5.28777E+003   -1.78390E+005    3.93342E+005   -1.04250E+004    2.01585E+005   -5.28770E+003    6.36623E+003    3.01965E+004    1.81423E+003    1.68198E+002    1.96301E+005
            2344    3.36025E+005    2.28501E+005    2.28501E+005   -1.19276E+004   -1.55452E+005    3.83953E+005   -2.03739E+004    2.51761E+005   -1.19274E+004    1.20920E+004    6.09569E+004    1.58929E+003    3.21277E+002    1.90409E+005
            2345    3.55730E+005    2.43197E+005    2.43197E+005   -1.29064E+004   -1.62977E+005    4.06174E+005   -2.24379E+004    2.69301E+005   -1.29079E+004    1.91361E+004    6.10855E+004    1.57595E+003    1.99714E+002    2.01994E+005
            2346    3.62311E+005    2.29145E+005    2.29145E+005   -6.01544E+003   -1.88091E+005    4.17237E+005   -1.16795E+004    2.18123E+005   -6.01528E+003    9.73898E+003    3.13148E+004    1.84904E+003    1.75283E+002    2.08331E+005
            2347    3.65099E+005    2.10676E+005   -2.10903E+005    1.70332E+002   -2.10903E+005    4.21580E+005    1.89073E+001   -4.84189E+004    1.69767E+002   -1.55516E+002   -7.09730E+001    1.88383E+003   -3.26979E+001    2.10781E+005
            2348    3.62467E+005    1.86927E+005   -2.30381E+005    6.06356E+003   -2.30381E+005    4.17309E+005    1.24634E+004   -2.21503E+005    6.06422E+003   -1.09784E+004   -3.24761E+004    1.84289E+003   -1.33615E+002    2.08369E+005
            2349    3.55254E+005    1.62425E+005   -2.43081E+005    1.33316E+004   -2.43081E+005    4.05506E+005    2.24415E+004   -2.70070E+005    1.33321E+004   -1.92440E+004   -6.14127E+004    1.57651E+003   -2.63525E+002    2.01647E+005
            2350    3.43802E+005    1.34846E+005   -2.51515E+005    2.06856E+004   -2.51515E+005    3.86360E+005    3.19945E+004   -2.96427E+005    2.06879E+004   -2.78872E+004   -8.87842E+004    1.30193E+003   -2.33963E+002    1.90760E+005
            2351    3.27258E+005    1.06055E+005   -2.52944E+005    2.87221E+004   -2.52944E+005    3.58999E+005    3.93889E+004   -3.05669E+005    2.87266E+004   -3.42060E+004   -1.12687E+005    9.15215E+002   -6.48004E+001    1.75154E+005
            2352    3.14188E+005    8.23403E+004   -2.52056E+005    3.69966E+004   -2.52056E+005    3.34396E+005    4.42396E+004   -3.06697E+005    3.70062E+004   -3.20868E+004   -1.37638E+005    7.34884E+002    1.29005E+002    1.58645E+005
            2353    3.15825E+005    7.21216E+004   -2.56437E+005    4.48910E+004   -2.56437E+005    3.28559E+005    4.64749E+004   -3.13168E+005    4.49050E+004   -2.77157E+004   -1.56614E+005    2.87207E+002    7.10276E+002    1.51101E+005
            2354    4.10913E+005    9.23896E+004   -3.61161E+005   -1.36856E+004   -3.61161E+005    4.53550E+005    9.41522E+004   -3.78225E+005    9.23723E+004   -2.23208E+004   -3.52508E+005   -6.40480E+002    2.69586E+003    5.40921E+004
            2355    3.80949E+005    8.26912E+004   -3.37698E+005   -1.53580E+004   -3.37698E+005    4.20390E+005    9.01217E+004   -3.50836E+005    8.26769E+004   -2.99885E+004   -3.23054E+005   -6.41237E+002    2.36204E+003    6.70954E+004
            2356    3.49765E+005    7.39177E+004   -3.10823E+005   -1.20738E+004   -3.10823E+005    3.84741E+005    8.29932E+004   -3.24679E+005    7.39105E+004   -3.48226E+004   -2.88067E+005   -6.78511E+002    1.43812E+003    7.92386E+004
            2357    3.27128E+005    6.47036E+004   -2.91636E+005   -4.93241E+003   -2.91636E+005    3.56339E+005    7.72882E+004   -3.09787E+005    6.46987E+004   -4.21948E+004   -2.54369E+005   -5.30070E+002    1.19613E+003    9.64085E+004
            2358    3.13010E+005    5.80562E+004   -2.75290E+005    1.23598E+004   -2.75290E+005    3.33347E+005    6.82914E+004   -3.05370E+005    5.80549E+004   -4.27043E+004   -2.20225E+005   -3.62446E+002    4.41417E+002    1.13169E+005
            2359    3.11863E+005    5.25871E+004   -2.68184E+005    3.39333E+004   -2.68184E+005    3.20771E+005    6.05544E+004   -3.10604E+005    5.25860E+004   -4.12750E+004   -1.92974E+005   -1.77053E+002    4.68961E+002    1.30635E+005
            2360    3.14407E+005    5.48604E+004   -2.62160E+005    4.95651E+004   -2.62160E+005    3.17021E+005    5.25783E+004   -3.14306E+005    4.95669E+004   -3.41939E+004   -1.73108E+005    5.95313E+001   -2.93218E+002    1.42481E+005
            2361    3.97664E+005    3.50616E+005    3.50616E+005   -9.67072E+003   -7.60676E+004    4.26683E+005   -8.82925E+004    3.84896E+005   -7.60163E+004    7.65515E+003    3.33239E+005    5.31289E+002    4.51584E+003    7.70870E+004
            2362    3.63054E+005    3.12509E+005    3.12509E+005   -4.16293E+004   -5.88486E+004    3.71358E+005   -7.06770E+004    3.62134E+005   -5.87344E+004   -8.05909E+003    2.78825E+005    2.91081E+002    4.35234E+003    1.03832E+005
            2363    3.40104E+005    2.84899E+005    2.84899E+005   -4.03793E+004   -6.83094E+004    3.53208E+005   -5.87367E+004    3.37510E+005   -4.04304E+004   -6.62778E+003    2.23268E+005   -1.60723E+002    3.09366E+003    1.34010E+005
            2364    3.15071E+005    2.44421E+005    2.44421E+005   -2.78362E+004   -1.00698E+005    3.45119E+005   -3.86291E+004    2.95210E+005   -2.78465E+004   -1.10266E+004    1.54760E+005   -1.94072E+002    2.10344E+003    1.51327E+005
            2365    4.23831E+005    3.70215E+005    3.70215E+005   -1.68455E+004   -8.26803E+004    4.52896E+005   -9.02299E+004    4.12091E+005   -8.26702E+004   -5.10286E+003    3.58463E+005    8.04989E+002    1.49386E+003    6.63986E+004
            2366    3.91722E+005    3.41866E+005    3.41866E+005   -3.81509E+004   -6.05968E+004    4.02463E+005   -8.10393E+004    3.90271E+005   -6.05903E+004   -6.93477E+003    3.10643E+005    5.55094E+002    7.20995E+002    1.04354E+005
            2367    3.55733E+005    2.97621E+005    2.97621E+005   -4.56529E+004   -6.93814E+004    3.67003E+005   -6.08624E+004    3.53945E+005   -4.56499E+004   -1.56050E+004    2.43842E+005    3.26263E+002    1.01402E+003    1.29784E+005
            2368    3.35805E+005    2.67047E+005    2.67047E+005   -2.87035E+004   -9.80014E+004    3.65048E+005   -4.67806E+004    3.19117E+005   -2.87008E+004   -9.50146E+003    1.78544E+005    3.87399E+002    8.06853E+002    1.56442E+005
            2369    4.56607E+005    4.04351E+005    4.04351E+005   -1.36051E+004   -8.29691E+004    4.87321E+005   -1.02592E+005    4.44522E+005   -8.29116E+004   -2.34613E+003    3.93035E+005    7.85820E+002    5.23337E+003    6.76638E+004
            2370    4.14428E+005    3.59301E+005    3.59301E+005   -4.29265E+004   -6.63340E+004    4.25635E+005   -8.33470E+004    4.12937E+005   -6.62685E+004   -1.69482E+004    3.33258E+005    6.50506E+002    4.69198E+003    9.88843E+004
            2371    3.85215E+005    3.29018E+005    3.29018E+005   -4.63065E+004   -6.53795E+004    3.94398E+005   -7.24440E+004    3.84151E+005   -4.63133E+004   -1.18722E+004    2.75518E+005    4.12350E+002    3.17551E+003    1.35010E+005
            2372    3.47589E+005    2.77292E+005    2.77292E+005   -3.33345E+004   -9.81379E+004    3.75430E+005   -4.86066E+004    3.33589E+005   -3.33200E+004   -1.53279E+004    1.94468E+005    7.23123E+002    2.20771E+003    1.55659E+005
            2373    4.81019E+005    4.24207E+005    4.24207E+005   -2.28074E+004   -8.48062E+004    5.09013E+005   -1.05531E+005    4.71905E+005   -8.47890E+004   -1.38010E+004    4.15183E+005    1.09577E+003    1.28703E+003    6.28536E+004
            2374    4.49064E+005    3.98570E+005    3.98570E+005   -3.66401E+004   -6.31706E+004    4.61741E+005   -9.95866E+004    4.47296E+005   -6.31451E+004   -8.59762E+003    3.70502E+005    1.11650E+003    1.41139E+003    1.06892E+005
            2375    4.00654E+005    3.43110E+005    3.43110E+005   -5.03492E+004   -6.43720E+004    4.07482E+005   -7.61295E+004    4.00102E+005   -5.03519E+004   -1.56083E+004    2.94349E+005    1.18417E+003    1.89210E+003    1.32236E+005
            2376    3.75998E+005    3.10126E+005    3.10126E+005   -3.26051E+004   -9.20549E+004    4.02181E+005   -6.18221E+004    3.65199E+005   -3.25993E+004   -1.02176E+004    2.28283E+005    1.49719E+003    1.56293E+003    1.61904E+005
            2377    5.16181E+005    4.69754E+005    4.69754E+005   -1.19758E+004   -7.50759E+004    5.44830E+005   -1.27567E+005    5.07395E+005   -7.50326E+004    1.38239E+003    4.56353E+005    1.04261E+003    4.69710E+003    7.90980E+004
            2378    4.59120E+005    4.08521E+005    4.08521E+005   -3.45964E+004   -6.50818E+004    4.73603E+005   -1.02948E+005    4.56834E+005   -6.50542E+004   -8.23988E+003    3.82137E+005    7.72085E+002    3.50446E+003    1.04804E+005
            2379    4.29205E+005    3.79799E+005    3.79799E+005   -4.66546E+004   -5.21041E+004    4.31903E+005   -9.36802E+004    4.29127E+005   -4.66427E+004   -3.89877E+003    3.31582E+005    8.18582E+002    2.15288E+003    1.35998E+005
            2380    3.90378E+005    3.26444E+005    3.26444E+005   -3.52942E+004   -8.73494E+004    4.13794E+005   -6.79336E+004    3.82453E+005   -3.52876E+004   -1.13396E+004    2.50428E+005    1.70392E+003    1.90552E+003    1.60219E+005
            2381    5.12855E+005    4.68801E+005    4.68801E+005   -8.54024E+003   -7.33986E+004    5.42199E+005   -1.28954E+005    5.03504E+005   -7.33669E+004    6.81764E+003    4.53411E+005    1.52276E+003    5.00969E+002    8.43160E+004
            2382    4.78258E+005    4.42729E+005    4.42729E+005   -1.11218E+004   -5.66771E+004    4.99406E+005   -1.24977E+005    4.73340E+005   -5.66004E+004    1.48573E+004    4.16673E+005    2.30540E+003    2.52801E+003    1.05548E+005
            2383    4.43021E+005    3.97717E+005    3.97717E+005   -4.34653E+004   -4.71204E+004    4.44837E+005   -1.02377E+005    4.42987E+005   -4.66249E+004   -1.65755E+003    3.55413E+005    1.90038E+003    1.83907E+003    1.29959E+005
            2384    4.16839E+005    3.65718E+005    3.65718E+005   -2.98812E+004   -6.95281E+004    4.35246E+005   -8.87694E+004    4.12565E+005   -2.99212E+004    3.27685E+003    2.92953E+005    2.23701E+003    1.45992E+003    1.62381E+005
            2385    5.05865E+005    4.82957E+005    4.82957E+005    2.76754E+004   -6.16034E+004    5.44560E+005   -1.49676E+005    4.87665E+005   -6.16024E+004    4.32210E+004    4.67410E+005   -2.73032E+002    1.89687E+002    8.26826E+004
            2386    4.92053E+005    4.57335E+005    4.57335E+005   -1.00770E+004   -5.61225E+004    5.13457E+005   -1.30378E+005    4.87171E+005   -5.61199E+004    1.06965E+004    4.36559E+005   -3.31583E+001    9.06266E+002    9.63260E+004
            2387    4.66200E+005    4.39740E+005    4.39740E+005   -1.44598E+004   -3.75997E+004    4.77340E+005   -1.29227E+005    4.64906E+005   -3.75188E+004    2.56764E+004    3.99523E+005    1.62810E+003    7.12481E+002    1.29039E+005
            2388    4.26382E+005    3.91335E+005    3.91335E+005   -2.52867E+004   -4.41793E+004    4.35514E+005   -1.07290E+005    4.25439E+005   -2.53650E+004    1.90650E+004    3.28169E+005    1.70855E+003    8.61570E+002    1.53338E+005
            2389    4.30055E+005    4.36518E+005    4.36518E+005    2.26733E+004   -8.09529E+003    4.44613E+005   -1.50365E+005    4.27568E+005   -7.99223E+003    7.87120E+004    3.80376E+005    1.76564E+003   -3.64725E+002    1.41731E+005
            2390    4.69260E+005    4.63005E+005    4.63005E+005    2.24828E+004   -3.04965E+004    4.93501E+005   -1.51664E+005    4.62460E+005   -3.04445E+004    5.64040E+004    4.29032E+005    1.73357E+003    5.72571E+001    1.17530E+005
            2391    5.11933E+005    4.93041E+005    4.93041E+005    1.66684E+004   -4.82581E+004    5.41299E+005   -1.53817E+005    5.02545E+005   -4.82355E+004    4.34748E+004    4.66212E+005    1.39001E+003    9.14019E+002    1.09818E+005
            2392    5.54410E+005    5.01638E+005    5.01638E+005   -3.01126E+004   -7.29466E+004    5.74585E+005   -1.32860E+005    5.50669E+005   -7.28201E+004   -1.97461E+004    4.91145E+005    2.51522E+003    1.63070E+003    7.39409E+004
            2393    4.38536E+005    3.84380E+005    3.84380E+005    1.03864E+004   -9.82694E+004    4.82649E+005   -9.88322E+004    4.06562E+005   -9.82433E+004    1.59708E+004    3.78769E+005    3.63283E+002    3.53038E+003    4.53565E+004
            2394    4.65262E+005    4.10280E+005    4.10280E+005    1.43871E+004   -1.02182E+005    5.12462E+005   -1.07495E+005    4.30529E+005   -1.02159E+005    1.80352E+004    4.06609E+005    2.19127E+002    3.43134E+003    3.78271E+004
            2395    4.92210E+005    4.28928E+005    4.28928E+005   -1.35422E+003   -1.07792E+005    5.36720E+005   -1.06594E+005    4.65247E+005   -1.07764E+005    4.25799E+001    4.27504E+005    6.43881E+001    3.83633E+003    2.44770E+004
            2396    5.22224E+005    4.64927E+005    4.64927E+005    1.57917E+003   -1.00962E+005    5.65889E+005   -1.21848E+005    4.98814E+005   -1.00947E+005    3.82120E+003    4.62671E+005   -3.49213E+000    2.82693E+003    3.21553E+004
            2397    5.37266E+005    4.80237E+005    4.80237E+005   -6.62598E+003   -9.61783E+004    5.76415E+005   -1.25811E+005    5.20075E+005   -9.61613E+004   -4.89484E+003    4.78488E+005   -1.59166E+002    3.02747E+003    2.89902E+004
            2398    5.77056E+005    5.44660E+005    5.44660E+005    1.75966E+004   -7.19246E+004    6.16585E+005   -1.63444E+005    5.61114E+005   -7.19218E+004    2.44776E+004    5.37777E+005   -2.18391E+002    1.00626E+003    5.98329E+004
            2399    5.41466E+005    5.19750E+005    5.19750E+005    3.76053E+004   -6.60513E+004    5.85802E+005   -1.63768E+005    5.18434E+005   -6.60265E+004    4.63405E+004    5.10990E+005   -3.95581E+002    3.33166E+003    6.43304E+004
            2400    3.72660E+005    3.66712E+005    3.66712E+005    2.39344E+003   -1.37630E+004    3.80476E+005   -1.18448E+005    3.71871E+005    2.07972E+003    6.78952E+004    2.85368E+005    2.22767E+003   -5.55914E+002    1.55907E+005
            2401    3.34491E+005    2.87803E+005    2.87803E+005    6.12366E+003   -8.18968E+004    3.69700E+005   -7.06767E+004    3.06771E+005    6.07806E+003    4.28153E+004    1.63137E+005    2.25060E+003   -4.17210E+002    1.74759E+005
            2402    3.11920E+005    1.78892E+005   -1.81282E+005   -8.03121E+002   -1.81282E+005    3.60174E+005    1.06433E+003   -4.85396E+004   -8.03396E+002    2.88649E+002   -2.67824E+003    2.58014E+003   -2.30497E+001    1.80063E+005
            2403    3.29690E+005    8.26073E+004   -2.82102E+005   -5.21753E+003   -2.82102E+005    3.64709E+005    6.82373E+004   -3.01643E+005   -5.17607E+003   -4.15356E+004   -1.58000E+005    2.19832E+003    3.48648E+002    1.72781E+005
            2404    3.79426E+005    1.03611E+004   -3.76448E+005   -4.86296E+003   -3.76448E+005    3.86809E+005    1.23650E+005   -3.78738E+005   -4.50646E+003   -7.05145E+004   -2.95929E+005    2.30506E+003    5.56346E+002    1.56950E+005
            2405    4.23033E+005    9.31688E+003   -4.29570E+005   -2.44093E+004   -4.29570E+005    4.38887E+005    1.48221E+005   -4.19993E+005    9.23720E+003   -7.49943E+004   -3.78905E+005    1.59296E+003    4.14651E+002    1.34031E+005
            2406    4.73121E+005    2.62000E+004   -4.73235E+005   -3.17682E+004   -4.73235E+005    4.99434E+005    1.59601E+005   -4.65031E+005    2.61396E+004   -6.64398E+004   -4.38503E+005    1.95446E+003   -6.22076E+001    1.18863E+005
            2407    5.06661E+005    4.60942E+004   -4.91068E+005   -2.17425E+004   -4.91068E+005    5.37162E+005    1.55572E+005   -4.96290E+005    4.60798E+004   -4.06841E+004   -4.72112E+005    1.11144E+003   -9.16914E+002    9.23926E+004
            2408    5.22268E+005    5.44369E+004   -5.08569E+005   -3.98980E+004   -5.08569E+005    5.63006E+005    1.64677E+005   -5.02561E+005    5.44264E+004   -5.16643E+004   -4.96792E+005    1.69232E+002   -2.37599E+003    7.33226E+004
            2409    3.97069E+005    3.45660E+005    3.45660E+005   -1.14987E+004   -8.19003E+004    4.27561E+005   -8.40871E+004    3.82647E+005   -1.15392E+004    2.09395E+004    2.42861E+005    2.51824E+003    6.62003E+002    1.82694E+005
            2410    3.81470E+005    3.07081E+005    3.07081E+005   -1.96966E+004   -1.12103E+005    4.19185E+005   -5.84271E+004    3.54953E+005   -1.97101E+004   -1.93415E+003    1.96926E+005    2.15067E+003    7.62002E+002    1.84488E+005
            2411    3.69919E+005    2.88383E+005    2.88383E+005   -1.96320E+004   -1.21917E+005    4.10299E+005   -4.89447E+004    3.35827E+005   -1.96259E+004   -5.11933E+003    1.71579E+005    1.26767E+003    1.10302E+003    1.85145E+005
            2412    3.43914E+005    2.55855E+005    2.55855E+005   -2.12189E+004   -1.29054E+005    3.84910E+005   -3.51940E+004    3.02213E+005   -2.12130E+004   -1.07851E+004    1.37580E+005    8.92749E+002    9.87077E+002    1.77580E+005
            2413    3.32833E+005    2.44764E+005    2.44764E+005   -1.75585E+004   -1.29641E+005    3.74405E+005   -3.25215E+004    2.85492E+005   -1.75577E+004   -7.00166E+003    1.22124E+005    9.58226E+001    1.29017E+003    1.75712E+005
            2414    3.12365E+005    2.22048E+005    2.22048E+005   -1.75179E+004   -1.31247E+005    3.53295E+005   -2.44276E+004    2.59232E+005   -1.75198E+004   -9.33583E+003    1.00138E+005   -2.68968E+002    4.78136E+002    1.67952E+005
            2415    3.07646E+005    2.18570E+005    2.18570E+005   -1.40369E+004   -1.30255E+005    3.48826E+005   -2.47593E+004    2.50587E+005   -1.40528E+004   -4.01996E+003    9.23506E+004   -8.18762E+002    1.24433E+003    1.67615E+005
            2416    3.62623E+005    2.70303E+005    2.70303E+005   -5.76200E+003   -1.40378E+005    4.10680E+005   -4.13877E+004    2.98080E+005   -5.77200E+003    9.53312E+003    1.20402E+005    2.40458E+003    3.78847E+002    1.97699E+005
            2417    3.66165E+005    2.58653E+005    2.58653E+005   -7.22867E+003   -1.58994E+005    4.17646E+005   -3.08101E+004    2.81082E+005   -7.23673E+003    1.64968E+003    9.80172E+004    2.35934E+003    2.72690E+002    2.03173E+005
            2418    3.47685E+005    2.31081E+005    2.31081E+005   -9.68023E+003   -1.67527E+005    3.98608E+005   -1.79579E+004    2.45241E+005   -9.67622E+003   -4.63529E+003    6.81853E+004    2.03161E+003    5.97175E+002    1.95939E+005
            2419    3.36380E+005    2.20346E+005    2.20346E+005   -6.67122E+003   -1.66108E+005    3.86454E+005   -1.58556E+004    2.24507E+005   -6.66978E+003   -2.08860E+003    5.63253E+004    1.53440E+003    3.42907E+002    1.91001E+005
            2420    3.16568E+005    1.98133E+005    1.98133E+005   -7.19766E+003   -1.66439E+005    3.64572E+005   -8.16535E+003    1.90187E+005   -7.19451E+003   -4.54710E+003    3.62377E+004    7.55586E+002    4.68556E+002    1.81140E+005
            2421    3.09361E+005    1.94560E+005    1.94560E+005   -4.24927E+003   -1.61867E+005    3.56427E+005   -9.48147E+003    1.80477E+005   -4.24916E+003   -8.10040E+002    3.35036E+004    2.36150E+002    6.66041E+001    1.77386E+005
            2422    2.96925E+005    1.80999E+005    1.80999E+005   -5.00528E+003   -1.61435E+005    3.42434E+005   -4.85267E+003    1.57381E+005   -5.00760E+003   -3.09807E+003    2.26637E+004   -4.08105E+002    4.49281E+002    1.70731E+005
            2423    3.56020E+005    2.02688E+005   -2.08386E+005    7.87302E+002   -2.08386E+005    4.11075E+005    1.63675E+003   -1.11399E+005    7.89807E+002    2.02505E+002   -5.90257E+003    2.71791E+003    5.04483E+001    2.05497E+005
            2424    3.56232E+005    1.93264E+005   -2.17820E+005    3.12645E+002   -2.17820E+005    4.11084E+005    8.08129E+003   -1.68516E+005    3.14153E+002   -1.01751E+003   -2.35405E+004    2.27122E+003   -6.39204E+001    2.05221E+005
            2425    3.48386E+005    1.88913E+005   -2.12956E+005    3.77214E+003   -2.12956E+005    4.01868E+005    6.75697E+003   -1.78997E+005    3.77183E+003    2.51972E+003   -2.65625E+004    1.44265E+003   -1.30934E+002    2.00402E+005
            2426    3.31546E+005    1.71698E+005   -2.10225E+005    3.62292E+003   -2.10225E+005    3.81923E+005    1.16346E+004   -1.95737E+005    3.62136E+003    1.39687E+003   -3.99221E+004    7.61069E+002   -2.81848E+002    1.89839E+005
            2427    3.20407E+005    1.68014E+005   -2.01013E+005    6.42052E+003   -2.01013E+005    3.69027E+005    8.85962E+003   -1.91392E+005    6.42050E+003    4.63507E+003   -3.76344E+004    6.15746E+000   -2.44489E+002    1.83299E+005
            2428    3.06278E+005    1.55625E+005   -1.96778E+005    5.21665E+003   -1.96778E+005    3.52403E+005    1.19786E+004   -1.93008E+005    5.21889E+003    2.33837E+003   -4.34930E+004   -4.58210E+002   -3.59928E+002    1.74704E+005
            2429    3.00604E+005    1.56909E+005   -1.89203E+005    6.60393E+003   -1.89203E+005    3.46112E+005    8.56324E+003   -1.82919E+005    6.60802E+003    4.16731E+003   -3.64651E+004   -9.88471E+002   -2.30279E+002    1.71856E+005
            2430    3.68454E+005    1.27780E+005   -2.86552E+005    4.31103E+003   -2.86552E+005    4.14332E+005    5.14871E+004   -3.16627E+005    4.32621E+003   -1.27630E+004   -1.46024E+005    2.50760E+003   -4.09850E+002    1.96139E+005
            2431    3.68712E+005    1.42914E+005   -2.73476E+005    1.16177E+004   -2.73476E+005    4.16390E+005    3.96482E+004   -3.09141E+005    1.16242E+004    1.05337E+002   -1.30674E+005    2.43666E+003   -6.29938E+002    1.97642E+005
            2432    3.58839E+005    1.38221E+005   -2.66274E+005    1.37744E+004   -2.66274E+005    4.04496E+005    3.80929E+004   -3.04274E+005    1.37736E+004    4.09716E+003   -1.32149E+005    2.08856E+003   -8.43972E+002    1.90416E+005
            2433    3.44711E+005    1.38330E+005   -2.50512E+005    1.75778E+004   -2.50512E+005    3.88843E+005    3.15348E+004   -2.91078E+005    1.75701E+004    9.13944E+003   -1.21314E+005    1.68774E+003   -1.06234E+003    1.83144E+005
            2434    3.29341E+005    1.28968E+005   -2.41798E+005    1.68294E+004   -2.41798E+005    3.70766E+005    3.19999E+004   -2.81310E+005    1.68218E+004    8.24583E+003   -1.21067E+005    8.87691E+002   -1.09083E+003    1.73738E+005
            2435    3.16270E+005    1.29587E+005   -2.27362E+005    1.79498E+004   -2.27362E+005    3.56949E+005    2.66082E+004   -2.66193E+005    1.79466E+004    9.56361E+003   -1.07335E+005    4.03767E+002   -8.33585E+002    1.68630E+005
            2436    3.05298E+005    1.23874E+005   -2.20826E+005    1.54985E+004   -2.20826E+005    3.44701E+005    2.71511E+004   -2.56325E+005    1.55021E+004    5.90958E+003   -1.02865E+005   -2.37388E+002   -9.86422E+002    1.63540E+005
            2437    3.95202E+005    7.23652E+004   -3.49004E+005    1.34048E+004   -3.49004E+005    4.21369E+005    8.77447E+004   -3.85120E+005    1.34460E+004   -2.07968E+004   -2.55883E+005    2.16507E+003   -5.19602E+002    1.74815E+005
            2438    3.95389E+005    9.23194E+004   -3.34014E+005    2.06170E+004   -3.34014E+005    4.26334E+005    7.36926E+004   -3.80347E+005    2.06325E+004   -3.01994E+003   -2.38691E+005    1.89450E+003   -8.19613E+002    1.77619E+005
            2439    3.81254E+005    1.02704E+005   -3.10509E+005    2.76113E+004   -3.10509E+005    4.13213E+005    6.00646E+004   -3.64054E+005    2.76049E+004    8.36902E+003   -2.16168E+005    1.05221E+003   -1.27275E+003    1.73436E+005
            2440    3.66850E+005    1.00249E+005   -2.97142E+005    2.85929E+004   -2.97142E+005    3.97391E+005    5.60998E+004   -3.50582E+005    2.85858E+004    1.11974E+004   -2.08083E+005    6.48299E+002   -1.39712E+003    1.65703E+005
            2441    3.47707E+005    1.02297E+005   -2.75608E+005    3.07777E+004   -2.75608E+005    3.77905E+005    4.75112E+004   -3.30544E+005    3.07797E+004    1.42310E+004   -1.87544E+005    1.10067E+001   -1.74044E+003    1.59754E+005
            2442    3.32361E+005    9.76783E+004   -2.63906E+005    2.82720E+004   -2.63906E+005    3.61584E+005    4.59852E+004   -3.15432E+005    2.82780E+004    1.14062E+004   -1.77640E+005   -2.68813E+002   -1.07289E+003    1.54108E+005
            2443    3.16594E+005    1.00087E+005   -2.46448E+005    2.76510E+004   -2.46448E+005    3.46535E+005    3.95701E+004   -2.97079E+005    2.76772E+004    1.00524E+004   -1.56440E+005   -7.18823E+002   -1.71127E+003    1.51939E+005
            2444    4.35187E+005    3.03551E+004   -4.08396E+005    2.31377E+004   -4.08396E+005    4.38751E+005    1.18301E+005   -4.35052E+005    2.35403E+004   -2.85380E+004   -3.49905E+005    2.15439E+003   -9.23018E+002    1.49048E+005
            2445    4.23729E+005    5.83334E+004   -3.76733E+005    3.46661E+004   -3.76733E+005    4.35067E+005    9.45779E+004   -4.22238E+005    3.47769E+004   -3.26160E+003   -3.15249E+005    2.59429E+003   -1.78424E+003    1.51510E+005
            2446    4.13422E+005    6.72982E+004   -3.59463E+005    3.91853E+004   -3.59463E+005    4.26761E+005    8.43263E+004   -4.11263E+005    3.92066E+004    6.64792E+003   -2.98833E+005    2.00471E+003   -2.12117E+003    1.48960E+005
            2447    3.92711E+005    7.46215E+004   -3.32658E+005    4.36506E+004   -3.32658E+005    4.07280E+005    7.14621E+004   -3.89950E+005    4.36637E+004    1.45771E+004   -2.72627E+005    1.97321E+003   -2.12321E+003    1.44350E+005
            2448    3.74916E+005    7.29015E+004   -3.16206E+005    4.26907E+004   -3.16206E+005    3.89108E+005    6.68714E+004   -3.72163E+005    4.26663E+004    1.48602E+004   -2.58141E+005    1.09664E+003   -2.75148E+003    1.38615E+005
            2449    3.50627E+005    7.40615E+004   -2.91348E+005    4.23409E+004   -2.91348E+005    3.65409E+005    5.83151E+004   -3.47376E+005    4.23348E+004    1.39734E+004   -2.31253E+005    8.04675E+002   -1.34616E+003    1.35445E+005
            2450    3.34929E+005    7.22132E+004   -2.78350E+005    3.83766E+004   -2.78350E+005    3.50563E+005    5.59200E+004   -3.31051E+005    3.83819E+004    8.78064E+003   -2.14923E+005    2.26210E+002   -2.62745E+003    1.34926E+005
            2451    4.63777E+005    3.88731E+004   -4.39622E+005    7.88329E+003   -4.39622E+005    4.78495E+005    1.30955E+005   -4.61439E+005    3.88693E+004   -2.70377E+004   -4.04697E+005    4.48552E+002   -4.00806E+002    1.20038E+005
            2452    4.58753E+005    4.58389E+004   -4.21429E+005    2.83070E+004   -4.21429E+005    4.67268E+005    1.15761E+005   -4.57998E+005    4.58049E+004   -9.11956E+003   -3.83968E+005    1.16869E+003   -1.47201E+003    1.24268E+005
            2453    4.42191E+005    5.42777E+004   -3.92342E+005    4.52820E+004   -3.92342E+005    4.46620E+005    9.75942E+004   -4.41985E+005    5.42270E+004    7.50284E+003   -3.54513E+005    9.34342E+001   -2.32429E+003    1.22968E+005
            2454    4.27202E+005    5.58964E+004   -3.74855E+005    4.87074E+004   -3.74855E+005    4.30751E+005    9.00837E+004   -4.27066E+005    5.58901E+004    1.28567E+004   -3.38998E+005    4.80018E+002   -1.57233E+003    1.17896E+005
            2455    3.98792E+005    5.84650E+004   -3.43885E+005    5.12507E+004   -3.43885E+005    4.02350E+005    7.80564E+004   -3.98645E+005    5.82889E+004    1.51098E+004   -3.07568E+005    1.37564E+002   -3.75724E+003    1.14126E+005
            2456    3.79512E+005    5.46253E+004   -3.27496E+005    4.93518E+004   -3.27496E+005    3.82122E+005    7.45064E+004   -3.79430E+005    5.46117E+004    1.13364E+004   -2.89467E+005    7.84959E+001   -9.96388E+002    1.13510E+005
            2457    3.52503E+005    5.32954E+004   -3.01407E+005    4.88543E+004   -3.01407E+005    3.54703E+005    6.64192E+004   -3.52440E+005    5.27737E+004    7.51119E+003   -2.59543E+005   -1.25030E+002   -3.68482E+003    1.13672E+005
            2458    4.94705E+005    5.05043E+004   -4.72554E+005   -1.21771E+004   -4.72554E+005    5.23058E+005    1.44742E+005   -4.85650E+005    5.04639E+004   -3.42029E+004   -4.50488E+005    1.79266E+003   -1.11151E+003    9.83404E+004
            2459    4.86940E+005    6.11017E+004   -4.47737E+005    1.38604E+004   -4.47737E+005    5.08839E+005    1.24258E+005   -4.81744E+005    6.09693E+004   -8.89459E+003   -4.24850E+005    2.98262E+003   -2.92691E+003    1.00163E+005
            2460    4.79205E+005    6.64307E+004   -4.32248E+005    2.47622E+004   -4.32248E+005    4.98679E+005    1.13685E+005   -4.75104E+005    6.63817E+004    4.24197E+003   -4.11679E+005    1.70605E+003   -3.43965E+003    9.46865E+004
            2461    4.53469E+005    7.24462E+004   -4.00291E+005    3.10743E+004   -4.00291E+005    4.72737E+005    9.89236E+004   -4.49194E+005    7.23970E+004    1.14596E+004   -3.80627E+005    1.72322E+003   -2.11239E+003    8.99514E+004
            2462    4.34698E+005    7.20301E+004   -3.81884E+005    3.06379E+004   -3.81884E+005    4.53914E+005    9.30719E+004   -4.30231E+005    7.19847E+004    1.10797E+004   -3.62280E+005    1.02505E+003   -4.41960E+003    8.76629E+004
            2463    4.01527E+005    7.11524E+004   -3.49896E+005    2.87425E+004   -3.49896E+005    4.21048E+005    8.33337E+004   -3.96441E+005    7.11364E+004    7.70125E+003   -3.28839E+005    1.00372E+003   -1.55305E+003    8.67598E+004
            2464    3.81098E+005    6.60486E+004   -3.33499E+005    2.59830E+004   -3.33499E+005    3.99548E+005    8.04891E+004   -3.76315E+005    6.59982E+004    5.92944E+002   -3.08058E+005    5.36525E+002   -4.10936E+003    9.21102E+004
            2465    5.17285E+005    6.20862E+004   -4.89773E+005   -1.59225E+004   -4.89773E+005    5.51859E+005    1.47870E+005   -5.03797E+005    6.20395E+004   -3.06590E+004   -4.74990E+005   -2.05444E+003    2.59158E+003    8.23404E+004
            2466    5.21644E+005    7.02439E+004   -4.83648E+005   -1.72464E+003   -4.83648E+005    5.53892E+005    1.38376E+005   -5.10296E+005    7.02333E+004   -1.37951E+004   -4.71567E+005    3.60196E+002   -2.39097E+003    7.53075E+004
            2467    5.03962E+005    8.17793E+004   -4.53536E+005    1.17477E+004   -4.53536E+005    5.35315E+005    1.20003E+005   -4.92836E+005    8.17668E+004    1.39629E+003   -4.43172E+005   -3.62762E+001   -2.38634E+003    6.86300E+004
            2468    4.94499E+005    8.61520E+004   -4.39812E+005    1.56556E+004   -4.39812E+005    5.25964E+005    1.12668E+005   -4.83000E+005    8.61360E+004    7.31116E+003   -4.31452E+005    5.89786E+002   -2.79745E+003    6.10831E+004
            2469    4.59477E+005    9.00354E+004   -4.03240E+005    1.25956E+004   -4.03240E+005    4.93276E+005    1.00203E+005   -4.44438E+005    9.00048E+004    4.82401E+003   -3.95438E+005    2.71582E+002   -3.82850E+003    5.63154E+004
            2470    4.37308E+005    8.62949E+004   -3.84934E+005    7.82710E+003   -3.84934E+005    4.71229E+005    9.69374E+004   -4.21030E+005    8.62780E+004   -2.34100E+003   -3.74749E+005    5.71735E+002   -2.75544E+003    6.23710E+004
            2471    4.05339E+005    8.28791E+004   -3.55350E+005    6.12223E+003   -3.55350E+005    4.38229E+005    8.87829E+004   -3.88480E+005    8.28476E+004   -6.65660E+003   -3.42540E+005    3.25035E+002   -3.62183E+003    6.67541E+004
            2472    4.42675E+005    9.89524E+004   -3.89722E+005   -1.55415E+004   -3.89722E+005    4.88674E+005    1.02104E+005   -4.07316E+005    9.89262E+004   -2.11251E+004   -3.84112E+005    4.74032E+002   -3.54978E+003    4.53647E+004
            2473    4.68165E+005    1.05732E+005   -4.09491E+005   -1.01514E+004   -4.09491E+005    5.15223E+005    1.04637E+005   -4.34101E+005    1.05708E+005   -1.27363E+004   -4.06882E+005    4.41491E+002   -3.47768E+003    3.20252E+004
            2474    5.01344E+005    1.06493E+005   -4.40615E+005   -3.19790E+003   -4.40615E+005    5.47107E+005    1.12440E+005   -4.73202E+005    1.06466E+005   -5.26560E+003   -4.38521E+005    3.19785E+002   -3.79212E+003    3.00021E+004
            2475    5.17993E+005    1.05341E+005   -4.55758E+005    4.21573E+003   -4.55758E+005    5.61098E+005    1.15400E+005   -4.95048E+005    1.05326E+005    2.51631E+003   -4.54043E+005    3.82500E+002   -2.84310E+003    2.79101E+004
            2476    5.48574E+005    9.36153E+004   -4.93878E+005    4.98514E+003   -4.93878E+005    5.87493E+005    1.31759E+005   -5.32108E+005    9.36016E+004    1.30378E+003   -4.90183E+005    3.07098E+002   -2.82043E+003    4.26956E+004
            2477    5.34779E+005    8.21351E+004   -4.94224E+005   -1.40888E+004   -4.94224E+005    5.76359E+005    1.42059E+005   -5.14759E+005    8.21314E+004   -2.13819E+004   -4.86927E+005    4.20080E+002   -1.25991E+003    5.87266E+004
            2478    5.40113E+005    6.58443E+004   -5.16503E+005   -3.19998E+004   -5.16503E+005    5.82347E+005    1.60886E+005   -5.19610E+005    6.58381E+004   -3.92338E+004   -5.09263E+005    5.18951E+001   -1.84504E+003    5.87597E+004
            2479    2.98784E+005    2.47923E+005    2.47923E+005   -4.50823E+004   -5.63231E+004    3.04246E+005   -4.88391E+004    2.98308E+005   -4.51425E+004    3.23057E+004    1.59354E+005   -4.20357E+002    8.74731E+002    1.38191E+005
            2480    3.09219E+005    2.53868E+005    2.53868E+005   -3.58859E+004   -7.16981E+004    3.25566E+005   -4.87613E+004    3.04501E+005   -3.58948E+004    4.34520E+004    1.38727E+005   -6.14570E+002    1.30041E+002    1.55652E+005
            2481    3.29173E+005    2.55109E+005    2.55109E+005   -2.89365E+004   -1.05646E+005    3.60755E+005   -4.01756E+004    3.08085E+005   -2.89412E+004    3.54645E+004    1.14004E+005   -8.75659E+002   -2.61577E+001    1.76047E+005
            2482    3.43235E+005    2.50719E+005    2.50719E+005   -2.08735E+004   -1.35054E+005    3.85773E+005   -3.15972E+004    2.95743E+005   -2.08747E+004    2.69907E+004    8.86755E+004   -1.29178E+003   -2.98785E+002    1.90400E+005
            2483    3.29303E+005    2.40631E+005    2.40631E+005   -1.89328E+004   -1.29796E+005    3.70427E+005   -3.06341E+004    2.82494E+005   -1.89316E+004    1.96551E+004    9.11788E+004   -1.22984E+003   -4.72642E+002    1.81724E+005
            2484    3.16103E+005    2.32028E+005    2.32028E+005   -1.87315E+004   -1.23050E+005    3.55077E+005   -3.00821E+004    2.73144E+005   -1.87551E+004    1.30063E+004    9.59952E+004   -1.38073E+003    7.93111E+002    1.72609E+005
            2485    3.10220E+005    2.29940E+005    2.29940E+005   -1.84639E+004   -1.17775E+005    3.47715E+005   -3.12334E+004    2.70830E+005   -1.84596E+004    9.74015E+003    1.02420E+005   -1.13506E+003   -7.28874E+002    1.67564E+005
            2486    3.02802E+005    2.25321E+005    2.25321E+005   -1.98649E+004   -1.13147E+005    3.38468E+005   -3.07697E+004    2.67491E+005   -1.98992E+004    4.43189E+003    1.07776E+005   -1.21315E+003    1.40134E+003    1.61134E+005
            2487    3.02315E+005    2.29060E+005    2.29060E+005   -2.01149E+004   -1.07254E+005    3.36314E+005   -3.38969E+004    2.71833E+005   -2.01132E+004    3.58101E+003    1.18223E+005   -9.10376E+002   -5.53391E+002    1.58083E+005
            2488    3.00811E+005    2.28567E+005    2.28567E+005   -2.29933E+004   -1.04639E+005    3.33206E+005   -3.36449E+004    2.74173E+005   -2.30236E+004   -3.29211E+003    1.27250E+005   -8.29816E+002    1.79091E+003    1.53263E+005
            2489    3.09555E+005    2.40060E+005    2.40060E+005   -2.36994E+004   -1.00739E+005    3.40799E+005   -3.85407E+004    2.86772E+005   -2.37009E+004   -3.38141E+003    1.42704E+005   -4.46920E+002   -1.96380E+001    1.53949E+005
            2490    3.16832E+005    2.46385E+005    2.46385E+005   -2.68872E+004   -1.00903E+005    3.47289E+005   -3.95315E+004    2.96429E+005   -2.68834E+004    2.54474E+004    1.20030E+005   -8.06062E+002   -7.43652E+002    1.67078E+005
            2491    3.13810E+005    2.45261E+005    2.45261E+005   -2.67840E+004   -9.80550E+004    3.43316E+005   -4.01407E+004    2.94764E+005   -2.68209E+004    1.83073E+004    1.28936E+005   -1.08387E+003    1.29534E+003    1.62482E+005
            2492    3.07753E+005    2.42837E+005    2.42837E+005   -2.78556E+004   -9.18985E+004    3.34735E+005   -4.10276E+004    2.92191E+005   -2.78500E+004    1.32046E+004    1.37728E+005   -7.48535E+002   -9.87202E+002    1.55353E+005
            2493    3.06510E+005    2.46365E+005    2.46365E+005   -2.88160E+004   -8.39815E+004    3.30346E+005   -4.45224E+004    2.95029E+005   -2.88721E+004    1.14255E+004    1.51014E+005   -8.89830E+002    2.03621E+003    1.49666E+005
            2494    3.05666E+005    2.47456E+005    2.47456E+005   -3.17418E+004   -7.91406E+004    3.26596E+005   -4.55244E+004    2.97229E+005   -3.17395E+004    4.41881E+003    1.63894E+005   -6.16694E+002   -6.96931E+002    1.42505E+005
            2495    3.12792E+005    2.57849E+005    2.57849E+005   -3.37401E+004   -7.25278E+004    3.30377E+005   -5.05271E+004    3.07311E+005   -3.38070E+004    3.19856E+003    1.82190E+005   -5.97692E+002    2.58988E+003    1.38788E+005
            2496    3.20727E+005    2.64562E+005    2.64562E+005   -3.81100E+004   -7.15921E+004    3.36154E+005   -5.16201E+004    3.16759E+005   -3.81122E+004   -6.21697E+003    1.99189E+005   -2.88030E+002    2.82886E+001    1.33048E+005
            2497    3.11859E+005    2.52445E+005    2.52445E+005   -3.53985E+004   -7.88690E+004    3.31314E+005   -4.60592E+004    3.04931E+005   -3.53984E+004    2.64365E+004    1.47139E+005   -3.20033E+002   -1.35065E+003    1.54266E+005
            2498    3.11661E+005    2.54290E+005    2.54290E+005   -3.60936E+004   -7.49960E+004    3.29286E+005   -4.77335E+004    3.06128E+005   -3.61648E+004    2.25583E+004    1.56807E+005   -7.30772E+002    2.05535E+003    1.50293E+005
            2499    3.09664E+005    2.57897E+005    2.57897E+005   -3.71021E+004   -6.45975E+004    3.22494E+005   -5.20658E+004    3.06899E+005   -3.71008E+004    2.17666E+004    1.71531E+005   -4.10146E+002   -1.46076E+003    1.42798E+005
            2500    3.09301E+005    2.60326E+005    2.60326E+005   -4.06489E+004   -5.66778E+004    3.17004E+005   -5.43330E+004    3.08364E+005   -4.08197E+004    1.60923E+004    1.87727E+005   -4.53719E+002    2.76321E+003    1.33139E+005
            2501    3.14853E+005    2.70279E+005    2.70279E+005   -4.30770E+004   -4.60512E+004    3.16330E+005   -6.03835E+004    3.14822E+005   -4.30849E+004    1.49397E+004    2.09296E+005   -2.38974E+002   -8.90899E+002    1.24782E+005
            2502    3.25775E+005    2.79472E+005    2.79472E+005   -4.33657E+004   -4.91629E+004    3.28635E+005   -6.23144E+004    3.25659E+005   -4.87367E+004    5.08525E+003    2.30595E+005   -1.02551E+002    3.51493E+003    1.15763E+005
            2503    3.43704E+005    2.98211E+005    2.98211E+005   -3.86910E+004   -5.19130E+004    3.50124E+005   -6.92024E+004    3.43131E+005   -5.19116E+004    3.48023E+003    2.56038E+005    1.12379E+002   -9.10325E+001    1.11488E+005
            2504    3.14170E+005    2.59460E+005    2.59460E+005   -4.33657E+004   -6.49426E+004    3.24402E+005   -5.03838E+004    3.12497E+005   -4.34016E+004    2.73998E+004    1.67153E+005    1.39704E+001   -1.79057E+003    1.46350E+005
            2505    3.11706E+005    2.62262E+005    2.62262E+005   -4.51014E+004   -5.36117E+004    3.15874E+005   -5.45162E+004    3.11444E+005   -4.52640E+004    2.99688E+004    1.78844E+005   -1.83661E+002    2.01867E+003    1.39193E+005
            2506    3.09944E+005    2.65934E+005    2.65934E+005   -3.92630E+004   -4.85484E+004    3.14483E+005   -5.93743E+004    3.09631E+005   -4.85189E+004    2.94158E+004    1.97226E+005    6.52088E+001   -9.41712E+002    1.27476E+005
            2507    3.15048E+005    2.76620E+005    2.76620E+005   -2.26810E+004   -5.21102E+004    3.28730E+005   -6.72762E+004    3.11933E+005   -5.20683E+004    2.96581E+004    2.24239E+005    1.59499E+002    2.44074E+003    1.13716E+005
            2508    3.29244E+005    2.89466E+005    2.89466E+005   -1.78921E+004   -5.79906E+004    3.47456E+005   -7.11943E+004    3.23682E+005   -5.79878E+004    2.06537E+004    2.50917E+005    3.19132E+002   -1.12236E+002    1.01796E+005
            2509    3.48854E+005    3.08434E+005    3.08434E+005   -1.15331E+004   -6.34806E+004    3.71914E+005   -7.78067E+004    3.39988E+005   -6.34400E+004    1.84506E+004    2.78409E+005    3.48130E+002    3.43511E+003    9.32564E+004
            2510    3.71597E+005    3.26009E+005    3.26009E+005   -1.37790E+004   -7.08046E+004    3.96814E+005   -8.04752E+004    3.61556E+005   -7.08006E+004    7.86252E+003    3.04364E+005    5.41434E+002    8.55714E+002    8.29798E+004
            2511    4.08615E+005    3.61430E+005    3.61430E+005    1.54534E+004   -8.93915E+004    4.50821E+005   -9.58306E+004    3.76527E+005   -8.93752E+004    2.53042E+004    3.51563E+005    4.65348E+002    2.66490E+003    5.75408E+004
            2512    3.79794E+005    3.35747E+005    3.35747E+005    1.12658E+004   -8.19882E+004    4.17735E+005   -8.83414E+004    3.52628E+005   -8.19740E+004    2.59069E+004    3.21091E+005    5.33827E+002    2.38373E+003    6.73513E+004
            2513    3.50518E+005    3.13098E+005    3.13098E+005    1.34545E+004   -7.23573E+004    3.85455E+005   -8.47318E+004    3.25602E+005   -7.23512E+004    3.63999E+004    2.90147E+005    4.91236E+002    1.44796E+003    7.96794E+004
            2514    3.27843E+005    2.91588E+005    2.91588E+005    3.39410E+003   -6.50854E+004    3.56674E+005   -7.66324E+004    3.11135E+005   -6.50801E+004    3.88562E+004    2.56121E+005    4.06825E+002    1.30522E+003    9.46691E+004
            2515    3.12462E+005    2.75903E+005    2.75903E+005   -9.27940E+003   -5.80939E+004    3.33997E+005   -6.95098E+004    3.03706E+005   -5.80931E+004    4.36004E+004    2.23022E+005    2.53517E+002    4.19644E+002    1.10834E+005
            2516    3.12009E+005    2.64519E+005    2.64519E+005   -3.87539E+004   -5.55467E+004    3.20066E+005   -5.67395E+004    3.10989E+005   -5.55416E+004    3.41119E+004    1.91648E+005    1.10299E+002    7.05719E+002    1.29575E+005
            2517    3.09403E+005    2.53667E+005    2.53667E+005   -5.32417E+004   -5.81722E+004    3.11839E+005   -4.74177E+004    3.09315E+005   -5.32560E+004    2.15177E+004    1.73991E+005   -1.97580E+001   -5.74743E+002    1.36001E+005
            2518    3.81427E+005    7.49470E+004   -3.36938E+005    4.09679E+003   -3.36938E+005    4.11885E+005    8.59647E+004   -3.66181E+005    7.49380E+004   -1.46019E+004   -3.18230E+005    4.80665E+002   -1.86208E+003    7.76345E+004
            2519    3.53484E+005    6.12240E+004   -3.08232E+005    2.67530E+004   -3.08232E+005    3.69456E+005    7.34184E+004   -3.49672E+005    6.12194E+004   -4.12192E+003   -2.77353E+005    5.38825E+002   -6.21208E+002    9.69033E+004
            2520    3.36173E+005    4.90526E+004   -2.88268E+005    4.67460E+004   -2.88268E+005    3.37320E+005    6.41564E+004   -3.36155E+005    4.67829E+004    8.73412E+001   -2.39340E+005   -2.51555E+002   -1.48826E+002    1.18780E+005
            2521    3.17434E+005    7.55623E+004   -2.59889E+005    3.57770E+004   -2.59889E+005    3.35451E+005    4.95164E+004   -3.11750E+005    3.57777E+004    5.13861E+003   -1.89466E+005   -4.91320E+001   -3.31018E+002    1.36616E+005
            2522    3.07442E+005    9.92461E+004   -2.38893E+005    2.38063E+004   -2.38893E+005    3.38140E+005    3.86137E+004   -2.85481E+005    2.38183E+004    4.57625E+003   -1.44236E+005   -8.84635E+002   -3.78508E+002    1.51810E+005
            2523    2.99232E+005    1.28463E+005   -2.10875E+005    1.51588E+004   -2.10875E+005    3.39338E+005    2.24177E+004   -2.43425E+005    1.51627E+004    5.35224E+003   -8.77680E+004   -5.86067E+002   -3.30831E+002    1.63154E+005
            2524    2.93979E+005    1.51350E+005   -1.87101E+005    4.74563E+003   -1.87101E+005    3.38451E+005    1.03349E+004   -1.79862E+005    4.75175E+003    9.19371E+002   -3.66757E+004   -1.20920E+003   -2.73550E+002    1.68173E+005
            2525    2.96641E+005    1.83416E+005    1.83416E+005   -3.08216E+003   -1.58649E+005    3.42066E+005   -7.22830E+003    1.59634E+005   -3.08124E+003    3.96360E+002    2.43698E+004   -7.53755E+002   -1.64568E+002    1.70611E+005
            2526    2.96809E+005    2.05781E+005    2.05781E+005   -1.40076E+004   -1.31853E+005    3.37634E+005   -1.99733E+004    2.34779E+005   -1.40101E+004   -5.47458E+003    7.94046E+004   -1.02078E+003   -1.02995E+002    1.63392E+005
            2527    3.53457E+005    6.84544E+004   -3.11695E+005    7.01274E+003   -3.11695E+005    3.80149E+005    7.87426E+004   -3.41130E+005    6.84328E+004   -1.81650E+004   -2.86496E+005    2.61409E+002   -2.62867E+003    8.59716E+004
            2528    3.35718E+005    5.43218E+004   -2.93253E+005    2.91970E+004   -2.93253E+005    3.47575E+005    6.99113E+004   -3.33593E+005    5.42584E+004   -1.18050E+004   -2.52187E+005    1.48082E+002   -3.12418E+003    1.07469E+005
            2529    3.17678E+005    5.48648E+004   -2.68723E+005    4.26940E+004   -2.68723E+005    3.23588E+005    5.70548E+004   -3.17152E+005    4.29212E+004   -4.05392E+003   -2.10032E+005   -4.97853E+002   -2.97038E+003    1.24609E+005
            2530    3.09352E+005    7.90846E+004   -2.51542E+005    3.08748E+004   -2.51542E+005    3.30627E+005    4.71942E+004   -3.00726E+005    3.09063E+004   -1.44239E+003   -1.71046E+005   -4.34730E+002   -2.05357E+003    1.41877E+005
            2531    3.00699E+005    1.06654E+005   -2.27308E+005    2.19664E+004   -2.27308E+005    3.33962E+005    3.28956E+004   -2.71865E+005    2.20016E+004    2.25736E+003   -1.22946E+005   -1.17975E+003   -1.37609E+003    1.54782E+005
            2532    2.96423E+005    1.29477E+005   -2.07650E+005    1.21494E+004   -2.07650E+005    3.37128E+005    2.20079E+004   -2.34939E+005    1.21619E+004    8.60225E+002   -7.90459E+004   -9.85278E+002   -7.05917E+002    1.63754E+005
            2533    2.95436E+005    1.57927E+005   -1.82629E+005    4.94529E+003   -1.82629E+005    3.40555E+005    6.58562E+003   -1.65198E+005    4.94995E+003    2.05597E+003   -2.67628E+004   -1.49548E+003   -1.23250E+002    1.69660E+005
            2534    2.93218E+005    1.78824E+005    1.78824E+005   -4.32484E+003   -1.59367E+005    3.38190E+005   -5.04405E+003    1.53456E+005   -4.33249E+003   -1.83913E+003    2.13038E+004   -1.14926E+003    4.71833E+002    1.68694E+005
            2535    2.98564E+005    2.08119E+005    2.08119E+005   -1.18130E+004   -1.31766E+005    3.39885E+005   -2.15131E+004    2.34338E+005   -1.18380E+004   -9.73435E+001    7.64747E+004   -1.32309E+003    1.11636E+003    1.65561E+005
            2536    3.32793E+005    6.01435E+004   -2.94651E+005    1.05826E+004   -2.94651E+005    3.54794E+005    7.46416E+004   -3.24335E+005    6.01419E+004   -2.61745E+004   -2.57892E+005    2.72667E+002   -7.13625E+002    9.93396E+004
            2537    3.17441E+005    4.87862E+004   -2.74652E+005    3.64311E+004   -2.74652E+005    3.23438E+005    6.31448E+004   -3.16899E+005    4.87779E+004   -1.59813E+004   -2.22231E+005    1.73042E+002    3.82079E+002    1.16446E+005
            2538    3.10350E+005    6.12413E+004   -2.60538E+005    3.69570E+004   -2.60538E+005    3.21779E+005    5.41132E+004   -3.08202E+005    3.69559E+004   -1.10237E+004   -1.88272E+005   -5.79763E+002    6.80119E+002    1.34278E+005
            2539    3.03203E+005    8.84944E+004   -2.40428E+005    2.79056E+004   -2.40428E+005    3.28923E+005    4.13428E+004   -2.89108E+005    2.79046E+004   -4.49369E+003   -1.47439E+005   -5.81099E+002    4.84283E+002    1.48117E+005
            2540    3.00840E+005    1.12164E+005   -2.24434E+005    1.82333E+004   -2.24434E+005    3.36599E+005    3.13455E+004   -2.64701E+005    1.82389E+004   -2.96834E+003   -1.09307E+005   -1.27247E+003    1.96380E+002    1.59673E+005
            2541    2.98986E+005    1.38863E+005   -2.02762E+005    1.11999E+004   -2.02762E+005    3.41625E+005    1.75664E+004   -2.24072E+005    1.12026E+004    4.19047E+002   -6.43208E+004   -1.18341E+003    7.68346E+001    1.67713E+005
            2542    2.96964E+005    1.59412E+005   -1.83067E+005    2.96138E+003   -1.83067E+005    3.42479E+005    6.89773E+003   -1.57401E+005    2.96629E+003   -9.54282E+002   -2.27052E+004   -1.58750E+003   -1.44392E+002    1.70886E+005
            2543    2.98873E+005    1.85572E+005    1.85572E+005   -3.43329E+003   -1.58997E+005    3.44569E+005   -7.71407E+003    1.64632E+005   -3.43092E+003    1.33573E+003    2.52374E+004   -1.30961E+003   -2.65059E+002    1.71864E+005
            2544    2.97342E+005    2.03804E+005    2.03804E+005   -1.20966E+004   -1.35345E+005    3.39149E+005   -1.87873E+004    2.28239E+005   -1.20947E+004   -8.00824E+002    6.92575E+004   -1.37316E+003   -4.48731E+002    1.65911E+005
            2545    3.15648E+005    5.42326E+004   -2.76764E+005    2.08891E+004   -2.76764E+005    3.30996E+005    6.72140E+004   -3.11649E+005    5.42114E+004   -2.96912E+004   -2.26162E+005    2.91905E+001   -1.71026E+003    1.11804E+005
            2546    3.10822E+005    4.65526E+004   -2.66213E+005    4.26291E+004   -2.66213E+005    3.12765E+005    5.90104E+004   -3.10766E+005    4.30869E+004   -2.23830E+004   -1.97735E+005   -2.30037E+002   -2.28575E+003    1.29202E+005
            2547    3.05932E+005    7.32421E+004   -2.50528E+005    3.37252E+004   -2.50528E+005    3.23771E+005    4.78537E+004   -3.00110E+005    3.38126E+004   -1.37313E+004   -1.63642E+005   -8.88465E+002   -2.27039E+003    1.43429E+005
            2548    3.05604E+005    9.75961E+004   -2.38053E+005    2.41031E+004   -2.38053E+005    3.35649E+005    3.87846E+004   -2.84684E+005    2.41363E+004   -9.67972E+003   -1.30810E+005   -9.16569E+002   -1.50976E+003    1.56495E+005
            2549    3.04634E+005    1.23668E+005   -2.20026E+005    1.66844E+004   -2.20026E+005    3.43694E+005    2.65579E+004   -2.56960E+005    1.67137E+004   -4.17171E+003   -9.22156E+004   -1.46790E+003   -9.98140E+002    1.66098E+005
            2550    3.04192E+005    1.44829E+005   -2.03641E+005    8.79212E+003   -2.03641E+005    3.48470E+005    1.66732E+004   -2.18144E+005    8.80461E+003   -3.11938E+003   -5.57048E+004   -1.43296E+003   -4.57671E+002    1.72232E+005
            2551    3.04938E+005    1.69137E+005   -1.82799E+005    2.80601E+003   -1.82799E+005    3.51936E+005    3.61846E+003   -1.38984E+005    2.80812E+003    5.48011E+002   -1.42115E+004   -1.71430E+003   -2.48354E+001    1.75805E+005
            2552    3.02757E+005    1.87011E+005    1.87011E+005   -4.58301E+003   -1.62026E+005    3.49037E+005   -6.80058E+003    1.67216E+005   -4.59309E+003    9.81665E+000    2.49850E+004   -1.55047E+003    4.30284E+002    1.74063E+005
            2553    3.04821E+005    2.09679E+005    2.09679E+005   -1.09143E+004   -1.38146E+005    3.47825E+005   -2.02064E+004    2.32730E+005   -1.09385E+004    3.88577E+003    6.76719E+004   -1.54843E+003    9.05365E+002    1.70950E+005
            2554    3.10563E+005    4.82435E+004   -2.68865E+005    3.47086E+004   -2.68865E+005    3.17109E+005    6.19710E+004   -3.09898E+005    4.82424E+004   -3.42179E+004   -1.99938E+005   -1.47338E+001    2.59618E+002    1.27176E+005
            2555    3.08295E+005    6.03989E+004   -2.57836E+005    3.94488E+004   -2.57836E+005    3.18235E+005    5.26629E+004   -3.06687E+005    3.94572E+004   -2.41241E+004   -1.73322E+005   -1.19538E+002    1.18672E+003    1.40538E+005
            2556    3.09890E+005    8.45218E+004   -2.49043E+005    2.99106E+004   -2.49043E+005    3.33565E+005    4.48703E+004   -2.98774E+005    2.99037E+004   -1.82742E+004   -1.46240E+005   -7.38562E+002    1.18011E+003    1.54018E+005
            2557    3.10683E+005    1.10215E+005   -2.34970E+005    2.22354E+004   -2.34970E+005    3.45185E+005    3.41734E+004   -2.80537E+005    2.22303E+004   -1.12016E+004   -1.13549E+005   -9.70783E+002    8.34785E+002    1.64828E+005
            2558    3.12350E+005    1.32285E+005   -2.21892E+005    1.41988E+004   -2.21892E+005    3.54177E+005    2.51361E+004   -2.54313E+005    1.41980E+004   -7.98522E+003   -8.16212E+004   -1.44722E+003    4.56499E+002    1.73212E+005
            2559    3.13827E+005    1.56189E+005   -2.04282E+005    8.09085E+003   -2.04282E+005    3.60472E+005    1.33339E+004   -2.10765E+005    8.09129E+003   -2.95543E+003   -4.51376E+004   -1.58175E+003    2.11773E+002    1.78990E+005
            2560    3.13103E+005    1.74885E+005   -1.86561E+005    1.31164E+003   -1.86561E+005    3.61446E+005    3.45465E+003   -1.28082E+005    1.31370E+003   -1.44267E+003   -1.02350E+004   -1.74660E+003   -5.01700E+001    1.80661E+005
            2561    3.13596E+005    1.96272E+005    1.96272E+005   -4.26847E+003   -1.65111E+005    3.61383E+005   -8.96421E+003    1.79925E+005   -4.26617E+003    3.21519E+003    2.79436E+004   -1.63764E+003   -2.72623E+002    1.80260E+005
            2562    3.10256E+005    2.11392E+005    2.11392E+005   -1.14329E+004   -1.42962E+005    3.54354E+005   -1.89990E+004    2.33931E+005   -1.14301E+004    4.43357E+003    6.39935E+004   -1.49562E+003   -4.84916E+002    1.74650E+005
            2563    3.10818E+005    5.23838E+004   -2.62010E+005    4.51045E+004   -2.62010E+005    3.14394E+005    5.48406E+004   -3.10626E+005    4.52210E+004   -3.28485E+004   -1.76894E+005   -2.79916E+002   -1.31928E+003    1.39658E+005
            2564    3.13147E+005    7.30075E+004   -2.56789E+005    3.65097E+004   -2.56789E+005    3.29797E+005    4.90907E+004   -3.08308E+005    3.65742E+004   -2.70166E+004   -1.56830E+005   -7.15072E+002   -1.78828E+003    1.51547E+005
            2565    3.15716E+005    9.71013E+004   -2.47217E+005    2.86750E+004   -2.47217E+005    3.44318E+005    4.04801E+004   -2.98340E+005    2.87195E+004   -1.96780E+004   -1.30482E+005   -1.10449E+003   -1.49176E+003    1.62976E+005
            2566    3.19468E+005    1.19405E+005   -2.37860E+005    2.03426E+004   -2.37860E+005    3.57265E+005    3.27044E+004   -2.81672E+005    2.03676E+004   -1.51274E+004   -1.03353E+005   -1.29506E+003   -9.00857E+002    1.73087E+005
            2567    3.22807E+005    1.43577E+005   -2.23959E+005    1.35840E+004   -2.23959E+005    3.67537E+005    2.22661E+004   -2.52971E+005    1.36004E+004   -9.24627E+003   -7.11523E+004   -1.58844E+003   -4.98300E+002    1.81133E+005
            2568    3.25044E+005    1.64253E+005   -2.09543E+005    6.69877E+003   -2.09543E+005    3.73796E+005    1.28638E+004   -2.09536E+005    6.70687E+003   -5.84344E+003   -3.94549E+004   -1.72624E+003   -2.14702E+002    1.86132E+005
            2569    3.26709E+005    1.86073E+005   -1.91155E+005    1.12421E+003   -1.91155E+005    3.77228E+005    1.31911E+003   -1.05475E+005    1.12439E+003   -8.40201E+001   -4.99770E+003   -1.82295E+003    2.05376E+001    1.88589E+005
            2570    3.24277E+005    2.02490E+005    2.02490E+005   -5.23994E+003   -1.71174E+005    3.73664E+005   -8.69210E+003    1.87161E+005   -5.24735E+003    3.09732E+003    2.82263E+004   -1.77032E+003    2.27590E+002    1.86400E+005
            2571    3.22850E+005    2.20436E+005    2.20436E+005   -1.11427E+004   -1.48356E+005    3.68793E+005   -2.03124E+004    2.42914E+005   -1.11579E+004    9.18415E+003    6.29109E+004   -1.63556E+003    4.71201E+002    1.82419E+005
            2572    3.14062E+005    6.42637E+004   -2.59909E+005    4.29579E+004   -2.59909E+005    3.24173E+005    5.08958E+004   -3.12430E+005    4.29730E+004   -3.28863E+004   -1.62774E+005   -4.57142E+001    1.22353E+003    1.48495E+005
            2573    3.17730E+005    8.38687E+004   -2.55090E+005    3.59738E+004   -2.55090E+005    3.38959E+005    4.50824E+004   -3.09452E+005    3.59747E+004   -2.73945E+004   -1.43828E+005   -2.53211E+002    1.28712E+003    1.59161E+005
            2574    3.21924E+005    1.03787E+005   -2.49383E+005    2.76423E+004   -2.49383E+005    3.53170E+005    3.93177E+004   -3.00644E+005    2.76371E+004   -2.39216E+004   -1.21669E+005   -7.57286E+002    9.44592E+002    1.69684E+005
            2575    3.29048E+005    1.28306E+005   -2.41223E+005    2.00833E+004   -2.41223E+005    3.69529E+005    3.09447E+004   -2.84669E+005    2.00806E+004   -1.94857E+004   -9.34291E+004   -1.21399E+003    5.86035E+002    1.81023E+005
            2576    3.36977E+005    1.52448E+005   -2.31932E+005    1.26307E+004   -2.31932E+005    3.84380E+005    2.22843E+004   -2.58466E+005    1.26305E+004   -1.40909E+004   -6.53926E+004   -1.56063E+003    3.34991E+002    1.90464E+005
            2577    3.41543E+005    1.76383E+005   -2.16786E+005    6.53639E+003   -2.16786E+005    3.93169E+005    1.12889E+004   -2.10148E+005    6.53694E+003   -6.28415E+003   -3.41195E+004   -1.80974E+003    1.59044E+002    1.96083E+005
            2578    3.41699E+005    1.95628E+005   -1.98925E+005    3.14539E+002   -1.98925E+005    3.94553E+005    9.94429E+002   -8.82679E+004    3.15080E+002   -7.61894E+002   -2.53647E+003   -1.88012E+003   -1.47903E+001    1.97266E+005
            2579    3.41459E+005    2.14953E+005    2.14953E+005   -5.28777E+003   -1.78390E+005    3.93342E+005   -1.04250E+004    2.01585E+005   -5.28770E+003    6.36623E+003    3.01965E+004   -1.81423E+003   -1.68198E+002    1.96301E+005
            2580    3.36025E+005    2.28501E+005    2.28501E+005   -1.19276E+004   -1.55452E+005    3.83953E+005   -2.03739E+004    2.51761E+005   -1.19274E+004    1.20920E+004    6.09569E+004   -1.58929E+003   -3.21277E+002    1.90409E+005
            2581    3.55730E+005    2.43197E+005    2.43197E+005   -1.29064E+004   -1.62977E+005    4.06174E+005   -2.24379E+004    2.69301E+005   -1.29079E+004    1.91361E+004    6.10855E+004   -1.57595E+003   -1.99714E+002    2.01994E+005
            2582    3.62311E+005    2.29145E+005    2.29145E+005   -6.01544E+003   -1.88091E+005    4.17237E+005   -1.16795E+004    2.18123E+005   -6.01528E+003    9.73898E+003    3.13148E+004   -1.84904E+003   -1.75283E+002    2.08331E+005
            2583    3.65099E+005    2.10676E+005   -2.10903E+005    1.70332E+002   -2.10903E+005    4.21580E+005    1.89073E+001   -4.84189E+004    1.69767E+002   -1.55516E+002   -7.09730E+001   -1.88383E+003    3.26979E+001    2.10781E+005
            2584    3.62467E+005    1.86927E+005   -2.30381E+005    6.06356E+003   -2.30381E+005    4.17309E+005    1.24634E+004   -2.21503E+005    6.06422E+003   -1.09784E+004   -3.24761E+004   -1.84289E+003    1.33615E+002    2.08369E+005
            2585    3.55254E+005    1.62425E+005   -2.43081E+005    1.33316E+004   -2.43081E+005    4.05506E+005    2.24415E+004   -2.70070E+005    1.33321E+004   -1.92440E+004   -6.14127E+004   -1.57651E+003    2.63525E+002    2.01647E+005
            2586    3.43802E+005    1.34846E+005   -2.51515E+005    2.06856E+004   -2.51515E+005    3.86360E+005    3.19945E+004   -2.96427E+005    2.06879E+004   -2.78872E+004   -8.87842E+004   -1.30193E+003    2.33963E+002    1.90760E+005
            2587    3.27258E+005    1.06055E+005   -2.52944E+005    2.87221E+004   -2.52944E+005    3.58999E+005    3.93889E+004   -3.05669E+005    2.87266E+004   -3.42060E+004   -1.12687E+005   -9.15215E+002    6.48004E+001    1.75154E+005
            2588    3.14188E+005    8.23403E+004   -2.52056E+005    3.69966E+004   -2.52056E+005    3.34396E+005    4.42396E+004   -3.06697E+005    3.70062E+004   -3.20868E+004   -1.37638E+005   -7.34884E+002   -1.29005E+002    1.58645E+005
            2589    3.15825E+005    7.21216E+004   -2.56437E+005    4.48910E+004   -2.56437E+005    3.28559E+005    4.64749E+004   -3.13168E+005    4.49050E+004   -2.77157E+004   -1.56614E+005   -2.87207E+002   -7.10276E+002    1.51101E+005
            2590    4.10913E+005    9.23896E+004   -3.61161E+005   -1.36856E+004   -3.61161E+005    4.53550E+005    9.41522E+004   -3.78225E+005    9.23723E+004   -2.23208E+004   -3.52508E+005    6.40480E+002   -2.69586E+003    5.40921E+004
            2591    3.80949E+005    8.26912E+004   -3.37698E+005   -1.53580E+004   -3.37698E+005    4.20390E+005    9.01217E+004   -3.50836E+005    8.26769E+004   -2.99885E+004   -3.23054E+005    6.41237E+002   -2.36204E+003    6.70954E+004
            2592    3.49765E+005    7.39177E+004   -3.10823E+005   -1.20738E+004   -3.10823E+005    3.84741E+005    8.29932E+004   -3.24679E+005    7.39105E+004   -3.48226E+004   -2.88067E+005    6.78511E+002   -1.43812E+003    7.92386E+004
            2593    3.27128E+005    6.47036E+004   -2.91636E+005   -4.93241E+003   -2.91636E+005    3.56339E+005    7.72882E+004   -3.09787E+005    6.46987E+004   -4.21948E+004   -2.54369E+005    5.30070E+002   -1.19613E+003    9.64085E+004
            2594    3.13010E+005    5.80562E+004   -2.75290E+005    1.23598E+004   -2.75290E+005    3.33347E+005    6.82914E+004   -3.05370E+005    5.80549E+004   -4.27043E+004   -2.20225E+005    3.62446E+002   -4.41417E+002    1.13169E+005
            2595    3.11863E+005    5.25871E+004   -2.68184E+005    3.39333E+004   -2.68184E+005    3.20771E+005    6.05544E+004   -3.10604E+005    5.25860E+004   -4.12750E+004   -1.92974E+005    1.77053E+002   -4.68961E+002    1.30635E+005
            2596    3.14407E+005    5.48604E+004   -2.62160E+005    4.95651E+004   -2.62160E+005    3.17021E+005    5.25783E+004   -3.14306E+005    4.95669E+004   -3.41939E+004   -1.73108E+005   -5.95313E+001    2.93218E+002    1.42481E+005
            2597    3.95823E+005    3.49866E+005    3.49866E+005   -1.00123E+004   -7.40856E+004    4.23951E+005   -8.85893E+004    3.83895E+005   -7.39684E+004    7.25922E+003    3.32477E+005    1.55389E+003    6.87375E+003    7.69111E+004
            2598    3.61508E+005    3.12223E+005    3.12223E+005   -4.15526E+004   -5.65506E+004    3.68773E+005   -7.13732E+004    3.60807E+005   -5.64563E+004   -7.92005E+003    2.78496E+005    8.58617E+002    4.82923E+003    1.03801E+005
            2599    3.39273E+005    2.84644E+005    2.84644E+005   -3.85392E+004   -6.87040E+004    3.53348E+005   -5.91336E+004    3.36236E+005   -3.85796E+004   -7.05027E+003    2.23031E+005    8.01970E+001    3.87785E+003    1.34009E+005
            2600    3.14773E+005    2.44529E+005    2.44529E+005   -2.63105E+004   -1.00811E+005    3.45340E+005   -3.91358E+004    2.93938E+005   -2.63765E+004   -1.10101E+004    1.54794E+005   -1.19145E+003    2.66847E+003    1.51417E+005
            2601    4.23031E+005    3.68723E+005    3.68723E+005   -1.77570E+004   -8.32253E+004    4.51948E+005   -8.92468E+004    4.11401E+005   -8.29295E+004   -6.07299E+003    3.56743E+005    1.62926E+003    1.14059E+004    6.61551E+004
            2602    3.90535E+005    3.40396E+005    3.40396E+005   -3.84330E+004   -6.08781E+004    4.01274E+005   -8.03615E+004    3.89080E+005   -6.05253E+004   -7.31768E+003    3.08928E+005    1.48874E+003    1.01125E+004    1.04140E+005
            2603    3.54413E+005    2.96068E+005    2.96068E+005   -4.49657E+004   -7.03582E+004    3.66426E+005   -6.02480E+004    3.52358E+005   -4.49669E+004   -1.65260E+004    2.42237E+005    9.52860E+002    7.50149E+003    1.29500E+005
            2604    3.34796E+005    2.65996E+005    2.65996E+005   -2.79273E+004   -9.84403E+004    3.64436E+005   -4.65428E+004    3.17438E+005   -2.79601E+004   -9.80809E+003    1.77396E+005   -1.14216E+002    5.19735E+003    1.56241E+005
            2605    4.55564E+005    4.03788E+005    4.03788E+005   -1.39279E+004   -8.19713E+004    4.85759E+005   -1.02629E+005    4.43916E+005   -8.18247E+004   -2.77201E+003    3.92485E+005    1.98789E+003    8.04091E+003    6.73532E+004
            2606    4.13650E+005    3.59305E+005    3.59305E+005   -4.24986E+004   -6.52523E+004    4.24557E+005   -8.38513E+004    4.12238E+005   -6.51237E+004   -1.65328E+004    3.33210E+005    2.26925E+003    6.73385E+003    9.87911E+004
            2607    3.84526E+005    3.28603E+005    3.28603E+005   -4.54633E+004   -6.55934E+004    3.94196E+005   -7.25154E+004    3.83338E+005   -4.53493E+004   -1.23544E+004    2.75250E+005    2.30923E+003    6.12433E+003    1.34707E+005
            2608    3.46829E+005    2.77019E+005    2.77019E+005   -3.24447E+004   -9.78588E+004    3.74878E+005   -4.89053E+004    3.32522E+005   -3.23835E+004   -1.52663E+004    1.94366E+005    1.47345E+003    4.55856E+003    1.55343E+005
            2609    4.80754E+005    4.22108E+005    4.22108E+005   -2.39499E+004   -8.71013E+004    5.09209E+005   -1.03686E+005    4.71287E+005   -8.68229E+004   -1.50279E+004    4.12907E+005    2.01122E+003    1.16976E+004    6.24375E+004
            2610    4.47829E+005    3.96459E+005    3.96459E+005   -3.67858E+004   -6.46524E+004    4.61111E+005   -9.83402E+004    4.45872E+005   -6.44039E+004   -8.81740E+003    3.68242E+005    2.71950E+003    1.03519E+004    1.06433E+005
            2611    3.99220E+005    3.41102E+005    3.41102E+005   -5.08600E+004   -6.50006E+004    4.06103E+005   -7.50805E+004    3.98656E+005   -5.06784E+004   -1.65974E+004    2.92517E+005    3.09673E+003    7.90352E+003    1.31545E+005
            2612    3.74701E+005    3.08791E+005    3.08791E+005   -3.28124E+004   -9.19698E+004    4.00761E+005   -6.13364E+004    3.63972E+005   -3.26939E+004   -1.04558E+004    2.27159E+005    2.74855E+003    5.74677E+003    1.61287E+005
            2613    5.16921E+005    4.70050E+005    4.70050E+005   -1.21536E+004   -7.57105E+004    5.45760E+005   -1.27395E+005    5.08019E+005   -7.56038E+004    1.01721E+003    4.56772E+005    2.36354E+003    6.34131E+003    7.86677E+004
            2614    4.60331E+005    4.09333E+005    4.09333E+005   -3.37285E+004   -6.65136E+004    4.75847E+005   -1.03030E+005    4.57693E+005   -6.62667E+004   -7.49748E+003    3.82855E+005    3.81719E+003    6.78882E+003    1.04805E+005
            2615    4.29206E+005    3.79233E+005    3.79233E+005   -4.67142E+004   -5.31595E+004    4.32393E+005   -9.31198E+004    4.29097E+005   -4.75294E+004   -4.36897E+003    3.31258E+005    4.84766E+003    6.81457E+003    1.35418E+005
            2616    3.89438E+005    3.25658E+005    3.25658E+005   -3.55001E+004   -8.69453E+004    4.12604E+005   -6.77376E+004    3.81681E+005   -3.54559E+004   -1.13924E+004    2.50061E+005    4.49184E+003    5.01752E+003    1.59475E+005
            2617    5.12143E+005    4.65269E+005    4.65269E+005   -1.00634E+004   -7.70853E+004    5.42355E+005   -1.26040E+005    5.02135E+005   -7.69135E+004    5.00338E+003    4.50031E+005    2.35232E+003    9.18385E+003    8.32792E+004
            2618    4.77621E+005    4.40746E+005    4.40746E+005   -1.09999E+004   -5.91088E+004    4.99855E+005   -1.23546E+005    4.72124E+005   -5.89814E+004    1.47491E+004    4.14870E+005    2.89358E+003    6.24719E+003    1.04795E+005
            2619    4.43515E+005    3.96852E+005    3.96852E+005   -4.29068E+004   -5.03264E+004    4.47179E+005   -1.01206E+005    4.43376E+005   -4.89995E+004   -2.11905E+003    3.54738E+005    4.71652E+003    5.61302E+003    1.29448E+005
            2620    4.16744E+005    3.65019E+005    3.65019E+005   -3.14363E+004   -6.94135E+004    4.34433E+005   -8.80565E+004    4.12824E+005   -3.16222E+004    3.08590E+003    2.92706E+005    5.44480E+003    4.23149E+003    1.61654E+005
            2621    5.09256E+005    4.84420E+005    4.84420E+005    2.77382E+004   -6.47370E+004    5.49157E+005   -1.49140E+005    4.89828E+005   -6.45478E+004    4.32124E+004    4.68756E+005    4.31410E+003    6.11988E+003    8.28987E+004
            2622    4.93364E+005    4.56097E+005    4.56097E+005   -9.98620E+003   -6.06399E+004    5.16737E+005   -1.28490E+005    4.87462E+005   -6.01914E+004    1.00218E+004    4.35640E+005    5.52401E+003    4.98149E+003    9.53536E+004
            2623    4.66328E+005    4.38421E+005    4.38421E+005   -1.40302E+004   -4.06438E+004    4.79065E+005   -1.27916E+005    4.64615E+005   -3.99837E+004    2.52224E+004    3.98508E+005    5.32621E+003    3.78975E+003    1.28321E+005
            2624    4.25996E+005    3.89881E+005    3.89881E+005   -2.61517E+004   -4.54246E+004    4.35306E+005   -1.06102E+005    4.25014E+005   -2.76375E+004    1.86422E+004    3.27300E+005    6.59609E+003    2.31716E+003    1.52348E+005
            2625    4.32517E+005    4.37146E+005    4.37146E+005    2.37497E+004   -1.22430E+004    4.49389E+005   -1.49551E+005    4.29129E+005   -1.14104E+004    7.89274E+004    3.81136E+005    5.81534E+003    8.74161E+001    1.41631E+005
            2626    4.72609E+005    4.64270E+005    4.64270E+005    2.32206E+004   -3.45828E+004    4.98852E+005   -1.50969E+005    4.64557E+005   -3.42792E+004    5.69718E+004    4.30215E+005    4.51164E+003    7.57868E+002    1.17758E+005
            2627    5.16287E+005    4.95635E+005    4.95635E+005    1.81543E+004   -5.22362E+004    5.47871E+005   -1.53851E+005    5.05322E+005   -5.20743E+004    4.52122E+004    4.68415E+005    3.74860E+003    1.61574E+003    1.10703E+005
            2628    5.58000E+005    5.04593E+005    5.04593E+005   -2.79165E+004   -7.58100E+004    5.80403E+005   -1.33622E+005    5.53348E+005   -7.57716E+004   -1.69508E+004    4.93589E+005    1.39209E+003    3.40178E+003    7.56801E+004
            2629    4.37097E+005    3.83331E+005    3.83331E+005    1.04249E+004   -9.76716E+004    4.81003E+005   -9.86948E+004    4.05354E+005   -9.74605E+004    1.59799E+004    3.77565E+005    1.75111E+003    9.87137E+003    4.51713E+004
            2630    4.64721E+005    4.09477E+005    4.09477E+005    1.44749E+004   -1.02581E+005    5.12058E+005   -1.07124E+005    4.29634E+005   -1.02328E+005    1.81069E+004    4.05593E+005    1.59163E+003    1.12136E+004    3.77018E+004
            2631    4.91942E+005    4.27877E+005    4.27877E+005   -1.24022E+003   -1.09017E+005    5.36894E+005   -1.05873E+005    4.64250E+005   -1.08789E+005    1.46456E+002    4.26262E+005    1.55767E+003    1.07908E+004    2.44197E+004
            2632    5.23336E+005    4.64496E+005    4.64496E+005    1.81255E+003   -1.03481E+005    5.67977E+005   -1.20942E+005    4.98661E+005   -1.03284E+005    4.04904E+003    4.62062E+005    1.63559E+003    1.02695E+004    3.21408E+004
            2633    5.38353E+005    4.79487E+005    4.79487E+005   -6.47662E+003   -9.92080E+004    5.78695E+005   -1.24601E+005    5.19928E+005   -9.90796E+004   -4.75479E+003    4.77637E+005    1.94422E+003    7.67983E+003    2.90696E+004
            2634    5.79361E+005    5.44294E+005    5.44294E+005    1.80221E+004   -7.65268E+004    6.20820E+005   -1.61930E+005    5.61610E+005   -7.64275E+004    2.48825E+004    5.37334E+005    1.94009E+003    7.14082E+003    5.97458E+004
            2635    5.46891E+005    5.22536E+005    5.22536E+005    3.81567E+004   -7.05411E+004    5.93077E+005   -1.63384E+005    5.21750E+005   -7.04755E+004    4.71824E+004    5.13445E+005    2.64338E+003    3.32467E+003    6.56555E+004
            2636    3.73962E+005    3.66859E+005    3.66859E+005    1.84021E+003   -1.54463E+004    3.82306E+005   -1.17751E+005    3.73062E+005   -5.26553E+002    6.79419E+004    2.85838E+005    6.61997E+003   -2.04109E+002    1.55596E+005
            2637    3.34577E+005    2.87601E+005    2.87601E+005    5.07371E+003   -8.18637E+004    3.69464E+005   -7.02702E+004    3.07587E+005    4.69519E+003    4.27504E+004    1.63365E+005    7.47110E+003   -1.58065E+002    1.74345E+005
            2638    3.11351E+005    1.78578E+005   -1.80940E+005   -8.68130E+002   -1.80940E+005    3.59517E+005    1.07677E+003   -4.49820E+004   -8.64688E+002    3.16947E+002   -2.68258E+003    7.46268E+003    3.72319E+000    1.79597E+005
            2639    3.29801E+005    8.25062E+004   -2.81965E+005   -4.13020E+003   -2.81965E+005    3.64471E+005    6.78630E+004   -3.02570E+005   -3.74509E+003   -4.15534E+004   -1.58291E+005    7.49163E+003    2.19074E+002    1.72365E+005
            2640    3.80809E+005    1.20710E+004   -3.76703E+005   -4.39238E+003   -3.76703E+005    3.88774E+005    1.23008E+005   -3.80007E+005   -1.96408E+003   -7.05564E+004   -2.96504E+005    6.46399E+003    2.27729E+002    1.56668E+005
            2641    4.25756E+005    1.36565E+004   -4.30306E+005   -2.54550E+004   -4.30306E+005    4.43962E+005    1.47368E+005   -4.21686E+005    1.28525E+004   -7.51909E+004   -3.79766E+005    5.90406E+003   -2.37818E+001    1.33953E+005
            2642    4.76765E+005    3.01860E+004   -4.74900E+005   -3.26948E+004   -4.74900E+005    5.05086E+005    1.59136E+005   -4.67300E+005    2.99357E+004   -6.73494E+004   -4.39995E+005    4.27237E+003   -6.99639E+002    1.19258E+005
            2643    5.11410E+005    5.04833E+004   -4.93655E+005   -2.29019E+004   -4.93655E+005    5.44138E+005    1.55358E+005   -4.99358E+005    5.03206E+004   -4.20592E+004   -4.74335E+005    3.76182E+003   -1.74479E+003    9.33785E+004
            2644    5.28295E+005    5.83531E+004   -5.12745E+005   -4.15048E+004   -5.12745E+005    5.71098E+005    1.65299E+005   -5.06405E+005    5.82908E+004   -5.37571E+004   -5.00430E+005    2.63369E+003   -1.29578E+003    7.51654E+004
            2645    3.96133E+005    3.44441E+005    3.44441E+005   -1.23636E+004   -8.18309E+004    4.26272E+005   -8.34155E+004    3.82067E+005   -1.27357E+004    2.07561E+004    2.42226E+005    6.94270E+003    1.25122E+003    1.81828E+005
            2646    3.81124E+005    3.06521E+005    3.06521E+005   -2.11552E+004   -1.11732E+005    4.18253E+005   -5.78781E+004    3.55678E+005   -2.12255E+004   -2.05232E+003    1.96912E+005    6.37486E+003    2.96487E+003    1.83792E+005
            2647    3.68686E+005    2.87278E+005    2.87278E+005   -2.00412E+004   -1.21520E+005    4.08799E+005   -4.85722E+004    3.35040E+005   -2.00043E+004   -5.34425E+003    1.71065E+005    5.38423E+003    3.45964E+003    1.84287E+005
            2648    3.42789E+005    2.54711E+005    2.54711E+005   -2.14585E+004   -1.28938E+005    3.83650E+005   -3.47715E+004    3.01227E+005   -2.13780E+004   -1.11907E+004    1.36883E+005    3.35537E+003    3.62826E+003    1.76912E+005
            2649    3.32089E+005    2.44203E+005    2.44203E+005   -1.71199E+004   -1.29493E+005    3.73696E+005   -3.25301E+004    2.84336E+005   -1.70790E+004   -7.27464E+003    1.21944E+005    1.69813E+003    2.81879E+003    1.75300E+005
            2650    3.11795E+005    2.21212E+005    2.21212E+005   -1.70849E+004   -1.31661E+005    3.52872E+005   -2.41554E+004    2.57604E+005   -1.70939E+004   -9.78437E+003    9.93446E+004   -1.73647E+002    3.02725E+003    1.67758E+005
            2651    3.07718E+005    2.18612E+005    2.18612E+005   -1.32244E+004   -1.30500E+005    3.49112E+005   -2.49628E+004    2.49439E+005   -1.32598E+004   -4.22535E+003    9.23735E+004   -1.47101E+003    1.45245E+003    1.67722E+005
            2652    3.61414E+005    2.69242E+005    2.69242E+005   -6.40124E+003   -1.39938E+005    4.09180E+005   -4.09674E+004    2.97791E+005   -6.57592E+003    9.42521E+003    1.20053E+005    7.89746E+003    4.74888E+002    1.96780E+005
            2653    3.64918E+005    2.57851E+005    2.57851E+005   -7.88446E+003   -1.58219E+005    4.16070E+005   -3.05827E+004    2.81399E+005   -7.91020E+003    1.58158E+003    9.80766E+004    6.81801E+003    1.42062E+003    2.02239E+005
            2654    3.46044E+005    2.30028E+005    2.30028E+005   -9.52644E+003   -1.66709E+005    3.96737E+005   -1.79310E+004    2.43941E+005   -9.50794E+003   -4.69761E+003    6.79985E+004    4.95002E+003    1.34955E+003    1.94945E+005
            2655    3.35165E+005    2.19518E+005    2.19518E+005   -6.69127E+003   -1.65538E+005    3.85056E+005   -1.57630E+004    2.23724E+005   -6.66392E+003   -2.14843E+003    5.61013E+004    2.74912E+003    1.40100E+003    1.90290E+005
            2656    3.15778E+005    1.97735E+005    1.97735E+005   -6.87464E+003   -1.65944E+005    3.63680E+005   -8.30543E+003    1.89122E+005   -6.86696E+003   -4.49328E+003    3.62765E+004    8.47760E+002    9.24294E+002    1.80690E+005
            2657    3.09058E+005    1.94223E+005    1.94223E+005   -4.03053E+003   -1.61883E+005    3.56106E+005   -9.43659E+003    1.79210E+005   -4.04378E+003   -8.58673E+002    3.32122E+004   -1.04175E+003    1.00464E+003    1.77230E+005
            2658    2.97175E+005    1.81250E+005    1.81250E+005   -4.66082E+003   -1.61487E+005    3.42737E+005   -5.03432E+003    1.56603E+005   -4.67386E+003   -3.02801E+003    2.28048E+004   -2.32129E+003    2.92209E+002    1.70864E+005
            2659    3.54779E+005    2.01966E+005   -2.07673E+005    1.07129E+003   -2.07673E+005    4.09638E+005    1.54529E+003   -1.14007E+005    1.07140E+003    1.65410E+002   -5.87267E+003    7.76310E+003   -1.30181E+002    2.04650E+005
            2660    3.54971E+005    1.92509E+005   -2.17112E+005    4.33609E+002   -2.17112E+005    4.09621E+005    8.05621E+003   -1.68752E+005    4.43720E+002   -1.08627E+003   -2.35261E+004    6.95873E+003   -2.59569E+002    2.04384E+005
            2661    3.46926E+005    1.88064E+005   -2.12112E+005    3.83927E+003   -2.12112E+005    4.00176E+005    6.73616E+003   -1.78755E+005    3.82983E+003    2.49135E+003   -2.65297E+004    5.52945E+003   -5.91163E+002    1.99484E+005
            2662    3.30461E+005    1.71101E+005   -2.09569E+005    3.62686E+003   -2.09569E+005    3.80670E+005    1.16136E+004   -1.95235E+005    3.61182E+003    1.37358E+003   -3.98261E+004    3.48630E+003   -8.08527E+002    1.89184E+005
            2663    3.19635E+005    1.67624E+005   -2.00521E+005    6.32374E+003   -2.00521E+005    3.68145E+005    8.85780E+003   -1.90676E+005    6.30875E+003    4.63622E+003   -3.75184E+004    1.55593E+003   -1.06865E+003    1.82853E+005
            2664    3.05998E+005    1.55559E+005   -1.96552E+005    4.95905E+003   -1.96552E+005    3.52111E+005    1.20112E+004   -1.92060E+005    4.96337E+003    2.36245E+003   -4.33595E+004   -3.71829E+002   -9.42348E+002    1.74562E+005
            2665    3.00801E+005    1.57115E+005   -1.89257E+005    6.31851E+003   -1.89257E+005    3.46371E+005    8.60783E+003   -1.82040E+005    6.34150E+003    4.20222E+003   -3.63672E+004   -1.75127E+003   -9.05137E+002    1.71981E+005
            2666    3.67268E+005    1.27471E+005   -2.85461E+005    4.68179E+003   -2.85461E+005    4.12931E+005    5.11028E+004   -3.15875E+005    4.88495E+003   -1.25519E+004   -1.45641E+005    7.71048E+003   -5.72518E+002    1.95251E+005
            2667    3.67603E+005    1.42306E+005   -2.72639E+005    1.22816E+004   -2.72639E+005    4.14944E+005    3.93505E+004   -3.09124E+005    1.23350E+004    3.45826E+002   -1.30732E+005    6.67479E+003   -1.68666E+003    1.96718E+005
            2668    3.57259E+005    1.37645E+005   -2.65029E+005    1.39238E+004   -2.65029E+005    4.02674E+005    3.78199E+004   -3.03111E+005    1.38921E+004    4.37103E+003   -1.31723E+005    4.91631E+003   -2.50926E+003    1.89415E+005
            2669    3.43467E+005    1.37988E+005   -2.49496E+005    1.74706E+004   -2.49496E+005    3.87484E+005    3.13457E+004   -2.89823E+005    1.74170E+004    9.42775E+003   -1.20882E+005    2.73614E+003   -2.83111E+003    1.82426E+005
            2670    3.28463E+005    1.28798E+005   -2.41120E+005    1.63529E+004   -2.41120E+005    3.69919E+005    3.19898E+004   -2.79970E+005    1.63257E+004    8.48169E+003   -1.20777E+005    9.91046E+002   -2.87788E+003    1.73279E+005
            2671    3.15724E+005    1.29849E+005   -2.26738E+005    1.72538E+004   -2.26738E+005    3.56587E+005    2.65452E+004   -2.64538E+005    1.72863E+004    9.84767E+003   -1.06770E+005   -7.99770E+002   -2.80271E+003    1.68458E+005
            2672    3.05316E+005    1.24202E+005   -2.20780E+005    1.46287E+004   -2.20780E+005    3.44982E+005    2.73165E+004   -2.55090E+005    1.46988E+004    6.09071E+003   -1.02739E+005   -1.99617E+003   -2.00089E+003    1.63645E+005
            2673    3.94484E+005    7.23698E+004   -3.47721E+005    1.48388E+004   -3.47721E+005    4.20091E+005    8.68374E+004   -3.84876E+005    1.53247E+004   -2.07076E+004   -2.55129E+005    7.07460E+003   -1.44186E+003    1.73937E+005
            2674    3.95372E+005    9.19270E+004   -3.33575E+005    2.24583E+004   -3.33575E+005    4.25502E+005    7.30634E+004   -3.81277E+005    2.25948E+004   -3.13254E+003   -2.38652E+005    6.39839E+003   -3.36257E+003    1.76985E+005
            2675    3.80341E+005    1.02309E+005   -3.09595E+005    2.83074E+004   -3.09595E+005    4.11903E+005    5.96595E+004   -3.63611E+005    2.82788E+004    8.40528E+003   -2.15663E+005    5.47504E+003   -4.45329E+003    1.72680E+005
            2676    3.65842E+005    1.00171E+005   -2.95991E+005    2.91013E+004   -2.95991E+005    3.96162E+005    5.55731E+004   -3.49801E+005    2.89925E+004    1.14570E+004   -2.07169E+005    3.69371E+003   -5.07520E+003    1.65110E+005
            2677    3.46966E+005    1.02186E+005   -2.75075E+005    3.03515E+004   -2.75075E+005    3.77261E+005    4.75124E+004   -3.29607E+005    3.02664E+004    1.44079E+004   -1.87211E+005    2.16069E+003   -4.69576E+003    1.59380E+005
            2678    3.31443E+005    9.81405E+004   -2.62891E+005    2.76102E+004   -2.62891E+005    3.61032E+005    4.57134E+004   -3.13886E+005    2.75965E+004    1.18441E+004   -1.76581E+005    4.66316E+002   -4.80966E+003    1.53909E+005
            2679    3.16334E+005    1.00379E+005   -2.46369E+005    2.64604E+004   -2.46369E+005    3.46749E+005    3.98432E+004   -2.95952E+005    2.65069E+004    1.02673E+004   -1.56304E+005   -7.25475E+002   -3.10177E+003    1.52011E+005
            2680    4.34658E+005    3.28725E+004   -4.06986E+005    2.22780E+004   -4.06986E+005    4.39859E+005    1.17279E+005   -4.34368E+005    2.52027E+004   -2.79971E+004   -3.49041E+005    5.95496E+003   -2.16914E+003    1.48131E+005
            2681    4.23779E+005    5.85564E+004   -3.76010E+005    3.60871E+004   -3.76010E+005    4.34567E+005    9.37889E+004   -4.22436E+005    3.64012E+004   -2.74896E+003   -3.15019E+005    4.85848E+003   -4.16689E+003    1.50770E+005
            2682    4.12572E+005    6.71583E+004   -3.58570E+005    3.94490E+004   -3.58570E+005    4.25728E+005    8.39875E+004   -4.10470E+005    3.94316E+004    6.96661E+003   -2.98361E+005    4.07039E+003   -5.66045E+003    1.48187E+005
            2683    3.91348E+005    7.47484E+004   -3.31185E+005    4.37319E+004   -3.31185E+005    4.05934E+005    7.09017E+004   -3.88569E+005    4.36041E+004    1.50603E+004   -2.71369E+005    2.36756E+003   -6.62955E+003    1.43727E+005
            2684    3.74085E+005    7.28671E+004   -3.15821E+005    4.17123E+004   -3.15821E+005    3.88688E+005    6.70805E+004   -3.71149E+005    4.16367E+004    1.49960E+004   -2.57874E+005    1.49905E+003   -5.88478E+003    1.38313E+005
            2685    3.49317E+005    7.47071E+004   -2.90117E+005    4.12904E+004   -2.90117E+005    3.64824E+005    5.80399E+004   -3.45693E+005    4.13664E+004    1.44516E+004   -2.29938E+005    2.00725E+002   -6.64718E+003    1.35230E+005
            2686    3.34204E+005    7.25056E+004   -2.78235E+005    3.65196E+004   -2.78235E+005    3.50741E+005    5.64034E+004   -3.29803E+005    3.66254E+004    8.92673E+003   -2.14763E+005   -6.13827E+002   -3.98862E+003    1.34961E+005
            2687    4.64558E+005    4.32368E+004   -4.38298E+005    7.18153E+003   -4.38298E+005    4.81535E+005    1.29293E+005   -4.61394E+005    4.25359E+004   -2.67510E+004   -4.03665E+005    6.08584E+003   -3.90280E+003    1.19272E+005
            2688    4.59502E+005    4.96977E+004   -4.20341E+005    2.78446E+004   -4.20341E+005    4.70038E+005    1.14266E+005   -4.58330E+005    4.91586E+004   -8.99222E+003   -3.82965E+005    4.96147E+003   -5.93589E+003    1.23799E+005
            2689    4.42865E+005    5.65559E+004   -3.92237E+005    4.44510E+004   -3.92237E+005    4.48793E+005    9.70768E+004   -4.42492E+005    5.56619E+004    7.56464E+003   -3.54457E+005    5.19042E+003   -7.00876E+003    1.22632E+005
            2690    4.26059E+005    5.73909E+004   -3.72678E+005    4.92541E+004   -3.72678E+005    4.30069E+005    8.86776E+004   -4.25884E+005    5.70733E+004    1.37555E+004   -3.36862E+005    3.68017E+003   -9.13458E+003    1.17243E+005
            2691    3.98160E+005    5.76017E+004   -3.43577E+005    5.14955E+004   -3.43577E+005    4.01178E+005    7.81598E+004   -3.98055E+005    5.74112E+004    1.54119E+004   -3.07302E+005    2.77148E+003   -6.78308E+003    1.13883E+005
            2692    3.78222E+005    5.48772E+004   -3.25825E+005    4.98671E+004   -3.25825E+005    3.80702E+005    7.36936E+004   -3.78148E+005    5.43419E+004    1.22547E+004   -2.87678E+005    1.71588E+003   -8.97558E+003    1.13207E+005
            2693    3.51324E+005    5.12467E+004   -3.01085E+005    4.92226E+004   -3.01085E+005    3.52332E+005    6.68719E+004   -3.51311E+005    5.07528E+004    7.84648E+003   -2.59215E+005    8.59577E+002   -4.73445E+003    1.13634E+005
            2694    4.95171E+005    5.25828E+004   -4.71763E+005   -1.21277E+004   -4.71763E+005    5.24345E+005    1.43769E+005   -4.85522E+005    5.24559E+004   -3.37144E+004   -4.50049E+005    3.30157E+003   -4.18709E+003    9.74234E+004
            2695    4.86297E+005    6.30495E+004   -4.45900E+005    1.40322E+004   -4.45900E+005    5.08949E+005    1.22939E+005   -4.80692E+005    6.29792E+004   -8.62397E+003   -4.23173E+005    1.80193E+003   -5.45283E+003    9.95400E+004
            2696    4.80227E+005    6.73585E+004   -4.33073E+005    2.40093E+004   -4.33073E+005    5.00432E+005    1.13902E+005   -4.75795E+005    6.72299E+004    3.54435E+003   -4.12480E+005    2.54607E+003   -6.80140E+003    9.45743E+004
            2697    4.52346E+005    7.36623E+004   -3.98416E+005    3.12030E+004   -3.98416E+005    4.72078E+005    9.78503E+004   -4.47830E+005    7.34425E+004    1.15826E+004   -3.78576E+005    1.91251E+003   -9.96644E+003    8.96701E+004
            2698    4.33995E+005    7.11211E+004   -3.81877E+005    3.02180E+004   -3.81877E+005    4.52998E+005    9.35128E+004   -4.29626E+005    7.09808E+004    1.06944E+004   -3.62214E+005    1.91000E+003   -7.71643E+003    8.75328E+004
            2699    4.00223E+005    7.11660E+004   -3.48464E+005    2.90171E+004   -3.48464E+005    4.19630E+005    8.27602E+004   -3.95184E+005    7.08850E+004    7.98849E+003   -3.27154E+005    1.26432E+003   -1.01869E+004    8.66154E+004
            2700    3.79531E+005    6.39940E+004   -3.33166E+005    2.58559E+004   -3.33166E+005    3.97160E+005    8.11055E+004   -3.75184E+005    6.38908E+004    4.73356E+002   -3.07681E+005    1.09933E+003   -6.07297E+003    9.20266E+004
            2701    5.20444E+005    6.90689E+004   -4.88206E+005   -1.47747E+004   -4.88206E+005    5.57275E+005    1.44637E+005   -5.04913E+005    6.86682E+004   -2.90312E+004   -4.73549E+005    6.03471E+003   -8.76097E+003    8.15505E+004
            2702    5.21695E+005    7.32338E+004   -4.81370E+005   -4.10676E+002   -4.81370E+005    5.54604E+005    1.36182E+005   -5.09803E+005    7.30886E+004   -1.21757E+004   -4.69460E+005    3.20727E+003   -6.23734E+003    7.44964E+004
            2703    5.05333E+005    8.47487E+004   -4.52739E+005    1.27054E+004   -4.52739E+005    5.37488E+005    1.18428E+005   -4.93581E+005    8.45431E+004    2.62319E+003   -4.42452E+005    3.35503E+003   -8.45586E+003    6.79462E+004
            2704    4.94187E+005    8.78185E+004   -4.38092E+005    1.66549E+004   -4.38092E+005    5.25910E+005    1.11206E+005   -4.82457E+005    8.76038E+004    8.41454E+003   -4.29637E+005    2.32084E+003   -1.00911E+004    6.06897E+004
            2705    4.59059E+005    9.05115E+004   -4.02270E+005    1.32666E+004   -4.02270E+005    4.92781E+005    9.94972E+004   -4.44083E+005    9.02960E+004    5.61024E+003   -3.94398E+005    2.36918E+003   -9.74374E+003    5.59183E+004
            2706    4.36248E+005    8.63051E+004   -3.83574E+005    8.59969E+003   -3.83574E+005    4.69879E+005    9.62229E+004   -4.20252E+005    8.60603E+004   -1.51436E+003   -3.73215E+005    1.81654E+003   -1.05671E+004    6.21429E+004
            2707    4.03897E+005    8.17309E+004   -3.54452E+005    6.61429E+003   -3.54452E+005    4.36182E+005    8.87021E+004   -3.87712E+005    8.15648E+004   -6.09575E+003   -3.41575E+005    1.87933E+003   -8.27480E+003    6.65276E+004
            2708    4.41289E+005    9.82425E+004   -3.88843E+005   -1.57008E+004   -3.88843E+005    4.87086E+005    1.02101E+005   -4.06167E+005    9.80328E+004   -2.12639E+004   -3.83071E+005    1.64891E+003   -9.93929E+003    4.52140E+004
            2709    4.67475E+005    1.06101E+005   -4.08584E+005   -1.03245E+004   -4.08584E+005    5.14684E+005    1.04269E+005   -4.33016E+005    1.05850E+005   -1.28998E+004   -4.05757E+005    1.31576E+003   -1.12660E+004    3.19206E+004
            2710    5.01226E+005    1.07508E+005   -4.39955E+005   -3.61517E+003   -4.39955E+005    5.47463E+005    1.12021E+005   -4.72303E+005    1.07291E+005   -5.68885E+003   -4.37665E+005    1.23683E+003   -1.07646E+004    3.00171E+004
            2711    5.18738E+005    1.07642E+005   -4.55203E+005    3.68533E+003   -4.55203E+005    5.62845E+005    1.14625E+005   -4.94481E+005    1.07454E+005    1.96841E+003   -4.53298E+005    1.16927E+003   -1.01525E+004    2.80342E+004
            2712    5.50012E+005    9.62960E+004   -4.94067E+005    3.88636E+003   -4.94067E+005    5.90363E+005    1.31295E+005   -5.32124E+005    9.61895E+004    1.55622E+002   -4.90230E+005    1.42628E+003   -7.59292E+003    4.29716E+004
            2713    5.36879E+005    8.58004E+004   -4.94572E+005   -1.56649E+004   -4.94572E+005    5.80372E+005    1.41479E+005   -5.14640E+005    8.57196E+004   -2.31615E+004   -4.86994E+005    1.59184E+003   -6.44303E+003    5.94656E+004
            2714    5.44153E+005    6.97296E+004   -5.19120E+005   -3.48431E+004   -5.19120E+005    5.88850E+005    1.61411E+005   -5.20821E+005    6.96894E+004   -4.23733E+004   -5.11550E+005    1.88663E+003   -3.16205E+003    5.99981E+004
            2715    2.97839E+005    2.47719E+005    2.47719E+005   -4.30678E+004   -5.67046E+004    3.04423E+005   -4.93155E+004    2.97136E+005   -4.30752E+004    3.20443E+004    1.58977E+005   -3.27923E+002   -1.28947E+003    1.38339E+005
            2716    3.08643E+005    2.53760E+005    2.53760E+005   -3.39361E+004   -7.22520E+004    3.26012E+005   -4.91908E+004    3.03223E+005   -3.39350E+004    4.31457E+004    1.38362E+005   -1.25682E+003   -8.73295E+002    1.55892E+005
            2717    3.28921E+005    2.55108E+005    2.55108E+005   -2.71819E+004   -1.06090E+005    3.61198E+005   -4.06119E+004    3.06520E+005   -2.71843E+004    3.52325E+004    1.13788E+005   -2.50976E+003   -1.01860E+003    1.76254E+005
            2718    3.43274E+005    2.50815E+005    2.50815E+005   -1.94303E+004   -1.35430E+005    3.86245E+005   -3.19848E+004    2.94064E+005   -1.94392E+004    2.68504E+004    8.85431E+004   -3.68252E+003   -8.70823E+002    1.90604E+005
            2719    3.29465E+005    2.40981E+005    2.40981E+005   -1.79157E+004   -1.29873E+005    3.70854E+005   -3.10638E+004    2.81633E+005   -1.79836E+004    1.95753E+004    9.15997E+004   -3.98451E+003    1.57665E+002    1.81839E+005
            2720    3.16317E+005    2.32252E+005    2.32252E+005   -1.74706E+004   -1.23446E+005    3.55698E+005   -3.04453E+004    2.71844E+005   -1.75060E+004    1.28816E+004    9.59602E+004   -3.77775E+003   -5.28894E+002    1.72880E+005
            2721    3.10643E+005    2.30252E+005    2.30252E+005   -1.75845E+004   -1.18236E+005    3.48488E+005   -3.14773E+004    2.70126E+005   -1.77399E+004    9.57001E+003    1.02602E+005   -3.85723E+003    1.55829E+003    1.67835E+005
            2722    3.03114E+005    2.25713E+005    2.25713E+005   -1.85547E+004   -1.13510E+005    3.39223E+005   -3.12161E+004    2.66434E+005   -1.86179E+004    4.37158E+003    1.07895E+005   -3.48133E+003   -6.01608E+001    1.61468E+005
            2723    3.02672E+005    2.29159E+005    2.29159E+005   -1.91755E+004   -1.07981E+005    3.37140E+005   -3.40010E+004    2.70951E+005   -1.93750E+004    3.34590E+003    1.18032E+005   -3.32622E+003    2.58162E+003    1.58411E+005
            2724    3.00962E+005    2.28930E+005    2.28930E+005   -2.14745E+004   -1.04962E+005    3.33892E+005   -3.41646E+004    2.73031E+005   -2.15690E+004   -3.31513E+003    1.27378E+005   -2.74825E+003    9.86426E+002    1.53572E+005
            2725    3.09390E+005    2.39671E+005    2.39671E+005   -2.26912E+004   -1.01502E+005    3.41173E+005   -3.84924E+004    2.85466E+005   -2.28682E+004   -3.68515E+003    1.42030E+005   -2.19008E+003    3.82365E+003    1.54129E+005
            2726    3.16827E+005    2.46757E+005    2.46757E+005   -2.56464E+004   -1.00931E+005    3.47688E+005   -4.00600E+004    2.95680E+005   -2.57354E+004    2.53552E+004    1.20560E+005   -2.90484E+003    5.88865E+002    1.67147E+005
            2727    3.13686E+005    2.45391E+005    2.45391E+005   -2.52020E+004   -9.84324E+004    3.43823E+005   -4.05855E+004    2.93515E+005   -2.52255E+004    1.81186E+004    1.28863E+005   -2.62125E+003   -7.20350E+002    1.62720E+005
            2728    3.08013E+005    2.43102E+005    2.43102E+005   -2.67283E+004   -9.24750E+004    3.35577E+005   -4.12998E+004    2.91591E+005   -2.69220E+004    1.29035E+004    1.37918E+005   -2.74640E+003    2.30859E+003    1.55606E+005
            2729    3.06359E+005    2.46568E+005    2.46568E+005   -2.71099E+004   -8.43870E+004    3.30955E+005   -4.50238E+004    2.93948E+005   -2.71715E+004    1.11873E+004    1.51056E+005   -2.26205E+003    7.77911E+001    1.49934E+005
            2730    3.05726E+005    2.47360E+005    2.47360E+005   -3.05758E+004   -8.01086E+004    3.27468E+005   -4.55585E+004    2.96497E+005   -3.08336E+004    3.89757E+003    1.63611E+005   -2.04935E+003    3.78940E+003    1.42772E+005
            2731    3.12328E+005    2.57893E+005    2.57893E+005   -3.17891E+004   -7.29906E+004    3.30884E+005   -5.10378E+004    3.06124E+005   -3.18871E+004    2.87227E+003    1.82128E+005   -1.41800E+003    1.63577E+003    1.39000E+005
            2732    3.20164E+005    2.63834E+005    2.63834E+005   -3.69441E+004   -7.27111E+004    3.36545E+005   -5.13930E+004    3.15622E+005   -3.71699E+004   -6.93841E+003    1.98287E+005   -8.62275E+002    5.61215E+003    1.33132E+005
            2733    3.11732E+005    2.52820E+005    2.52820E+005   -3.40095E+004   -7.89387E+004    3.31759E+005   -4.66240E+004    3.04320E+005   -3.41383E+004    2.62762E+004    1.47734E+005   -1.93022E+003    1.43301E+003    1.54294E+005
            2734    3.10971E+005    2.54294E+005    2.54294E+005   -3.42183E+004   -7.50940E+004    3.29388E+005   -4.83272E+004    3.04840E+005   -3.42173E+004    2.24811E+004    1.56718E+005   -1.43979E+003   -1.09814E+003    1.50386E+005
            2735    3.09602E+005    2.58066E+005    2.58066E+005   -3.58591E+004   -6.51333E+004    3.23200E+005   -5.23580E+004    3.06465E+005   -3.61499E+004    2.15203E+004    1.71704E+005   -1.47170E+003    3.31698E+003    1.42913E+005
            2736    3.08431E+005    2.60393E+005    2.60393E+005   -3.86713E+004   -5.66196E+004    3.17013E+005   -5.50342E+004    3.07252E+005   -3.87262E+004    1.60870E+004    1.87742E+005   -1.01223E+003    2.19331E+002    1.33226E+005
            2737    3.14519E+005    2.70106E+005    2.70106E+005   -4.07922E+004   -4.79121E+004    3.18018E+005   -6.04673E+004    3.14338E+005   -4.22336E+004    1.46253E+004    2.09010E+005   -7.10752E+002    5.15989E+003    1.24860E+005
            2738    3.24465E+005    2.79362E+005    2.79362E+005   -4.33781E+004   -4.68010E+004    3.26163E+005   -6.30608E+004    3.24424E+005   -4.63684E+004    5.12002E+003    2.30431E+005   -2.50575E+002    2.29349E+003    1.15822E+005
            2739    3.42897E+005    2.97461E+005    2.97461E+005   -3.86653E+004   -5.18286E+004    3.49290E+005   -6.89890E+004    3.42328E+005   -5.11959E+004    3.07099E+003    2.55092E+005    2.56037E+002    7.65646E+003    1.11455E+005
            2740    3.13998E+005    2.59842E+005    2.59842E+005   -4.17751E+004   -6.52216E+004    3.25064E+005   -5.09486E+004    3.12019E+005   -4.19331E+004    2.71163E+004    1.67663E+005   -9.71037E+002    2.11868E+003    1.46461E+005
            2741    3.10758E+005    2.62207E+005    2.62207E+005   -4.31405E+004   -5.36930E+004    3.15900E+005   -5.51244E+004    3.10354E+005   -4.31376E+004    2.97321E+004    1.78779E+005   -4.92896E+002   -7.92636E+002    1.39262E+005
            2742    3.09509E+005    2.66005E+005    2.66005E+005   -3.92650E+004   -4.75759E+004    3.13581E+005   -5.97212E+004    3.09258E+005   -4.71527E+004    2.90589E+004    1.97257E+005   -2.56231E+002    3.27128E+003    1.27601E+005
            2743    3.13783E+005    2.76495E+005    2.76495E+005   -2.29946E+004   -4.98543E+004    3.26349E+005   -6.78820E+004    3.11181E+005   -4.98435E+004    2.93893E+004    2.24100E+005    1.79788E+002    1.33371E+003    1.13778E+005
            2744    3.28503E+005    2.89146E+005    2.89146E+005   -1.83646E+004   -5.69421E+004    3.46088E+005   -7.12799E+004    3.23348E+005   -5.68005E+004    2.01222E+004    2.50518E+005    5.06143E+002    5.55806E+003    1.01815E+005
            2745    3.47118E+005    3.07979E+005    3.07979E+005   -1.18546E+004   -6.11518E+004    3.69131E+005   -7.83242E+004    3.39108E+005   -6.11054E+004    1.81268E+004    2.77951E+005    9.20938E+002    3.94712E+003    9.32174E+004
            2746    3.70591E+005    3.25118E+005    3.25118E+005   -1.44314E+004   -7.01957E+004    3.95313E+005   -8.01635E+004    3.60971E+005   -6.99863E+004    7.15444E+003    3.03323E+005    1.14480E+003    8.62858E+003    8.28610E+004
            2747    4.07174E+005    3.60715E+005    3.60715E+005    1.54650E+004   -8.83020E+004    4.49017E+005   -9.59593E+004    3.75658E+005   -8.81307E+004    2.52725E+004    3.50736E+005    1.96879E+003    8.49272E+003    5.73502E+004
            2748    3.78097E+005    3.35084E+005    3.35084E+005    1.12710E+004   -8.04283E+004    4.15513E+005   -8.86423E+004    3.51749E+005   -8.03181E+004    2.58493E+004    3.20396E+005    2.08701E+003    6.29703E+003    6.71436E+004
            2749    3.49117E+005    3.12776E+005    3.12776E+005    1.34261E+004   -7.07268E+004    3.83502E+005   -8.51583E+004    3.25102E+005   -7.06515E+004    3.63005E+004    2.89826E+005    2.05359E+003    4.81745E+003    7.95233E+004
            2750    3.26442E+005    2.91355E+005    2.91355E+005    3.33414E+003   -6.32433E+004    3.54598E+005   -7.71485E+004    3.10611E+005   -6.32060E+004    3.87076E+004    2.55944E+005    1.76213E+003    2.89761E+003    9.45379E+004
            2751    3.11394E+005    2.75874E+005    2.75874E+005   -9.38097E+003   -5.63279E+004    3.32202E+005   -7.00552E+004    3.03279E+005   -5.63085E+004    4.33991E+004    2.23075E+005    1.28949E+003    2.07966E+003    1.10768E+005
            2752    3.10967E+005    2.64513E+005    2.64513E+005   -3.88218E+004   -5.35613E+004    3.18074E+005   -5.73766E+004    3.10179E+005   -5.35526E+004    3.39203E+004    1.91762E+005    6.75650E+002    5.65302E+002    1.29519E+005
            2753    3.08715E+005    2.53751E+005    2.53751E+005   -5.14743E+004   -5.83401E+004    3.12091E+005   -4.79788E+004    3.08543E+005   -5.14918E+004    2.13155E+004    1.74113E+005    6.24303E+001    8.26394E+002    1.36052E+005
            2754    3.80103E+005    7.39159E+004   -3.36044E+005    4.68730E+003   -3.36044E+005    4.09960E+005    8.58136E+004   -3.65514E+005    7.37506E+004   -1.39763E+004   -3.17215E+005    1.46646E+003   -8.03530E+003    7.75169E+004
            2755    3.52369E+005    6.05082E+004   -3.07417E+005    2.70029E+004   -3.07417E+005    3.67925E+005    7.33019E+004   -3.48758E+005    6.02428E+004   -3.78967E+003   -2.76359E+005    4.74468E+002   -7.78720E+003    9.68400E+004
            2756    3.35390E+005    5.10452E+004   -2.87417E+005    4.48142E+004   -2.87417E+005    3.38462E+005    6.38526E+004   -3.35260E+005    4.59437E+004    8.18926E+002   -2.38320E+005    6.86457E+001   -6.70524E+003    1.18795E+005
            2757    3.16849E+005    7.64652E+004   -2.59334E+005    3.43531E+004   -2.59334E+005    3.35799E+005    4.95051E+004   -3.10459E+005    3.46124E+004    5.56925E+003   -1.88697E+005   -1.47437E+003   -4.94549E+003    1.36734E+005
            2758    3.07282E+005    1.00016E+005   -2.38512E+005    2.27897E+004   -2.38512E+005    3.38529E+005    3.85688E+004   -2.84191E+005    2.29244E+004    4.96646E+003   -1.43597E+005   -1.86376E+003   -3.40158E+003    1.52004E+005
            2759    2.99508E+005    1.29099E+005   -2.10820E+005    1.43340E+004   -2.10820E+005    3.39919E+005    2.24624E+004   -2.42049E+005    1.44488E+004    5.59165E+003   -8.74275E+004   -3.05451E+003   -1.98314E+003    1.63412E+005
            2760    2.94493E+005    1.51730E+005   -1.87351E+005    4.41156E+003   -1.87351E+005    3.39081E+005    1.04030E+004   -1.79025E+005    4.44594E+003    9.53785E+002   -3.66088E+004   -2.97431E+003   -6.05378E+002    1.68468E+005
            2761    2.97173E+005    1.83589E+005    1.83589E+005   -2.87196E+003   -1.59113E+005    3.42702E+005   -7.20128E+003    1.58599E+005   -2.91286E+003    3.46544E+002    2.41702E+004   -3.41948E+003    7.46960E+002    1.70899E+005
            2762    2.97100E+005    2.05581E+005    2.05581E+005   -1.34390E+004   -1.32602E+005    3.38183E+005   -1.98467E+004    2.33454E+005   -1.35390E+004   -5.82862E+003    7.89079E+004   -2.65059E+003    2.21704E+003    1.63646E+005
            2763    3.51974E+005    6.66437E+004   -3.11185E+005    7.42178E+003   -3.11185E+005    3.77828E+005    7.90398E+004   -3.40493E+005    6.65731E+004   -1.77330E+004   -2.85959E+005    1.37563E+003   -4.97358E+003    8.59067E+004
            2764    3.34310E+005    5.20435E+004   -2.93101E+005    2.92035E+004   -2.93101E+005    3.45144E+005    7.06179E+004   -3.32548E+005    5.19757E+004   -1.18072E+004   -2.52022E+005    2.02932E+002   -3.21783E+003    1.07454E+005
            2765    3.16843E+005    5.51123E+004   -2.68695E+005    4.06897E+004   -2.68695E+005    3.23808E+005    5.76311E+004   -3.16103E+005    4.08176E+004   -3.78333E+003   -2.09928E+005   -5.69624E+002   -2.06817E+003    1.24762E+005
            2766    3.09085E+005    7.94847E+004   -2.51730E+005    2.90121E+004   -2.51730E+005    3.31215E+005    4.77446E+004   -2.99603E+005    2.91525E+004   -1.29337E+003   -1.71093E+005   -2.07957E+003   -1.73777E+003    1.42107E+005
            2767    3.00984E+005    1.07118E+005   -2.27612E+005    2.07370E+004   -2.27612E+005    3.34730E+005    3.32524E+004   -2.70920E+005    2.08317E+004    2.41559E+003   -1.23004E+005   -2.61341E+003   -1.25777E+003    1.55121E+005
            2768    2.97046E+005    1.30027E+005   -2.08018E+005    1.13085E+004   -2.08018E+005    3.38045E+005    2.22274E+004   -2.33963E+005    1.13980E+004    9.92972E+002   -7.90733E+004   -3.71800E+003   -8.77365E+002    1.64155E+005
            2769    2.96234E+005    1.58440E+005   -1.83059E+005    4.68271E+003   -1.83059E+005    3.41499E+005    6.64514E+003   -1.64528E+005    4.71830E+003    2.08353E+003   -2.67373E+004   -3.72962E+003   -4.64271E+002    1.70097E+005
            2770    2.94034E+005    1.79378E+005    1.79378E+005   -3.99252E+003   -1.59769E+005    3.39147E+005   -5.20572E+003    1.52808E+005   -4.00494E+003   -1.80168E+003    2.14238E+004   -4.03946E+003   -4.39952E+001    1.69127E+005
            2771    2.99171E+005    2.08525E+005    2.08525E+005   -1.09612E+004   -1.32244E+005    3.40768E+005   -2.17732E+004    2.33376E+005   -1.10146E+004   -2.40440E+002    7.65747E+004   -3.32717E+003    4.06178E+002    1.65957E+005
            2772    3.31779E+005    5.87503E+004   -2.94285E+005    1.10800E+004   -2.94285E+005    3.53035E+005    7.48183E+004   -3.23940E+005    5.86735E+004   -2.56674E+004   -2.57461E+005    9.13510E+002   -4.72563E+003    9.93585E+004
            2773    3.16801E+005    4.81815E+004   -2.74437E+005    3.62079E+004   -2.74437E+005    3.22618E+005    6.33491E+004   -3.16292E+005    4.75960E+004   -1.57146E+004   -2.21929E+005   -4.91181E+002   -4.90176E+003    1.16479E+005
            2774    3.10204E+005    6.22489E+004   -2.60357E+005    3.57443E+004   -2.60357E+005    3.22606E+005    5.41213E+004   -3.07641E+005    3.60790E+004   -1.05100E+004   -1.87933E+005   -1.25293E+003   -4.21071E+003    1.34478E+005
            2775    3.03290E+005    8.92879E+004   -2.40440E+005    2.66201E+004   -2.40440E+005    3.29728E+005    4.15108E+004   -2.88178E+005    2.68675E+004   -4.16361E+003   -1.47236E+005   -2.74335E+003   -3.09665E+003    1.48392E+005
            2776    3.01274E+005    1.12879E+005   -2.24574E+005    1.73637E+004   -2.24574E+005    3.37454E+005    3.14438E+004   -2.63837E+005    1.75191E+004   -2.72454E+003   -1.09126E+005   -3.32459E+003   -1.98184E+003    1.60038E+005
            2777    2.99697E+005    1.39523E+005   -2.03070E+005    1.05446E+004   -2.03070E+005    3.42593E+005    1.76675E+004   -2.23068E+005    1.06535E+004    5.89565E+002   -6.42455E+004   -4.29172E+003   -1.11465E+003    1.68129E+005
            2778    2.97818E+005    1.59928E+005   -1.83552E+005    2.73461E+003   -1.83552E+005    3.43480E+005    6.96324E+003   -1.56844E+005    2.76163E+003   -9.43550E+002   -2.27078E+004   -4.37038E+003   -2.03462E+002    1.71338E+005
            2779    2.99714E+005    1.85980E+005    1.85980E+005   -3.20697E+003   -1.59582E+005    3.45561E+005   -7.73031E+003    1.63908E+005   -3.26061E+003    1.28560E+003    2.51659E+004   -4.57444E+003    6.27979E+002    1.72303E+005
            2780    2.98054E+005    2.04026E+005    2.04026E+005   -1.15566E+004   -1.36100E+005    3.40126E+005   -1.87899E+004    2.27369E+005   -1.16815E+004   -1.04759E+003    6.90989E+004   -3.95035E+003    1.57153E+003    1.66336E+005
            2781    3.14593E+005    5.23317E+004   -2.76636E+005    2.12786E+004   -2.76636E+005    3.28968E+005    6.76753E+004   -3.11117E+005    5.23180E+004   -2.93281E+004   -2.26016E+005    5.87833E+002   -1.89816E+003    1.11872E+005
            2782    3.09912E+005    4.63137E+004   -2.66314E+005    4.08089E+004   -2.66314E+005    3.12628E+005    5.97304E+004   -3.09802E+005    4.09942E+004   -2.23431E+004   -1.97842E+005   -7.52506E+002   -7.01576E+002    1.29248E+005
            2783    3.05583E+005    7.34958E+004   -2.50718E+005    3.19900E+004   -2.50718E+005    3.24214E+005    4.84108E+004   -2.99142E+005    3.20352E+004   -1.35611E+004   -1.63706E+005   -1.64604E+003    1.60084E+000    1.43647E+005
            2784    3.05696E+005    9.79707E+004   -2.38375E+005    2.25538E+004   -2.38375E+005    3.36345E+005    3.92834E+004   -2.83609E+005    2.26330E+004   -9.53279E+003   -1.30950E+005   -3.08087E+003   -1.00754E+002    1.56779E+005
            2785    3.05162E+005    1.24103E+005   -2.20459E+005    1.57095E+004   -2.20459E+005    3.44562E+005    2.68823E+004   -2.56143E+005    1.57719E+004   -4.08955E+003   -9.23291E+004   -3.76500E+003   -5.02434E+001    1.66481E+005
            2786    3.04960E+005    1.45359E+005   -2.04103E+005    8.14600E+003   -2.04103E+005    3.49463E+005    1.68660E+004   -2.17269E+005    8.20001E+003   -3.02062E+003   -5.57773E+004   -4.62876E+003   -1.26272E+002    1.72661E+005
            2787    3.05840E+005    1.69666E+005   -1.83318E+005    2.66516E+003   -1.83318E+005    3.52984E+005    3.66251E+003   -1.38557E+005    2.68578E+003    5.50137E+002   -1.42234E+004   -4.77424E+003   -1.51608E+002    1.76272E+005
            2788    3.03621E+005    1.87548E+005    1.87548E+005   -4.23784E+003   -1.62509E+005    3.50056E+005   -6.93357E+003    1.66497E+005   -4.24991E+003    5.00257E+000    2.50456E+004   -4.81961E+003   -1.86863E+002    1.74513E+005
            2789    3.05532E+005    2.10147E+005    2.10147E+005   -1.01283E+004   -1.38651E+005    3.48798E+005   -2.04556E+004    2.31840E+005   -1.01680E+004    3.77914E+003    6.77558E+004   -4.22884E+003   -1.86169E+002    1.71383E+005
            2790    3.09938E+005    4.68451E+004   -2.68846E+005    3.50001E+004   -2.68846E+005    3.15691E+005    6.23335E+004   -3.09428E+005    4.67220E+004   -3.38363E+004   -1.99886E+005   -1.43231E+000   -2.37552E+003    1.27287E+005
            2791    3.08024E+005    6.09480E+004   -2.57970E+005    3.78615E+004   -2.57970E+005    3.18918E+005    5.30534E+004   -3.06068E+005    3.81857E+004   -2.38953E+004   -1.73451E+005   -1.46303E+003   -2.92208E+003    1.40643E+005
            2792    3.10049E+005    8.50652E+004   -2.49256E+005    2.88205E+004   -2.49256E+005    3.34321E+005    4.51233E+004   -2.98245E+005    2.90175E+004   -1.79953E+004   -1.46392E+005   -2.37129E+003   -2.46237E+003    1.54232E+005
            2793    3.11008E+005    1.10695E+005   -2.35262E+005    2.11492E+004   -2.35262E+005    3.45957E+005    3.44727E+004   -2.79724E+005    2.13164E+004   -1.09860E+004   -1.13749E+005   -3.56834E+003   -1.71490E+003    1.65082E+005
            2794    3.12902E+005    1.32736E+005   -2.22258E+005    1.34802E+004   -2.22258E+005    3.54994E+005    2.53475E+004   -2.53636E+005    1.35967E+004   -7.87451E+003   -8.17645E+004   -4.28639E+003   -1.00819E+003    1.73534E+005
            2795    3.14498E+005    1.56640E+005   -2.04669E+005    7.61596E+003   -2.04669E+005    3.61310E+005    1.34710E+004   -2.09985E+005    7.68506E+003   -2.86357E+003   -4.52344E+004   -4.94519E+003   -5.01196E+002    1.79333E+005
            2796    3.13871E+005    1.75329E+005   -1.87007E+005    1.20653E+003   -1.87007E+005    3.62335E+005    3.49036E+003   -1.27667E+005    1.21700E+003   -1.44197E+003   -1.02461E+004   -5.15133E+003   -2.09421E+001    1.81041E+005
            2797    3.14311E+005    1.96679E+005    1.96679E+005   -4.00860E+003   -1.65552E+005    3.62231E+005   -9.03931E+003    1.79366E+005   -4.05909E+003    3.16861E+003    2.80084E+004   -5.09746E+003    4.35630E+002    1.80614E+005
            2798    3.10919E+005    2.11785E+005    2.11785E+005   -1.08725E+004   -1.43446E+005    3.55231E+005   -1.91556E+004    2.33294E+005   -1.09771E+004    4.30794E+003    6.41360E+004   -4.59928E+003    9.22161E+002    1.75002E+005
            2799    3.10039E+005    5.24804E+004   -2.62029E+005    4.33358E+004   -2.62029E+005    3.14510E+005    5.54044E+004   -3.09735E+005    4.33370E+004   -3.26221E+004   -1.76928E+005   -3.30578E+002    2.96198E+002    1.39724E+005
            2800    3.12507E+005    7.31088E+004   -2.56842E+005    3.46629E+004   -2.56842E+005    3.29951E+005    4.96902E+004   -3.07119E+005    3.46621E+004   -2.68885E+004   -1.56844E+005   -1.32553E+003    1.02091E+003    1.51632E+005
            2801    3.15507E+005    9.73976E+004   -2.47349E+005    2.70391E+004   -2.47349E+005    3.44746E+005    4.09707E+004   -2.97077E+005    2.70468E+004   -1.95437E+004   -1.30415E+005   -2.40867E+003    1.03555E+003    1.63192E+005
            2802    3.19585E+005    1.19781E+005   -2.38046E+005    1.89993E+004   -2.38046E+005    3.57827E+005    3.30886E+004   -2.80340E+005    1.90283E+004   -1.49787E+004   -1.03315E+005   -3.62136E+003    6.93639E+002    1.73330E+005
            2803    3.23257E+005    1.43991E+005   -2.24260E+005    1.26697E+004   -2.24260E+005    3.68251E+005    2.25334E+004   -2.51798E+005    1.27018E+004   -9.16370E+003   -7.11382E+004   -4.51503E+003    4.36190E+002    1.81438E+005
            2804    3.25637E+005    1.64661E+005   -2.09879E+005    6.18083E+003   -2.09879E+005    3.74541E+005    1.30124E+004   -2.08493E+005    6.20532E+003   -5.78280E+003   -3.94597E+004   -5.17551E+003    1.99550E+002    1.86438E+005
            2805    3.27411E+005    1.86477E+005   -1.91562E+005    1.06857E+003   -1.91562E+005    3.78039E+005    1.33867E+003   -1.05103E+005    1.07552E+003   -8.30969E+001   -5.00842E+003   -5.41201E+003   -3.43000E+001    1.88926E+005
            2806    3.24911E+005    2.02842E+005    2.02842E+005   -4.83974E+003   -1.71589E+005    3.74430E+005   -8.80437E+003    1.86121E+005   -4.85291E+003    3.05444E+003    2.82116E+004   -5.25601E+003   -2.33215E+002    1.86717E+005
            2807    3.23372E+005    2.20752E+005    2.20752E+005   -1.03163E+004   -1.48799E+005    3.69552E+005   -2.05455E+004    2.41733E+005   -1.03451E+004    9.09055E+003    6.28910E+004   -4.68394E+003   -4.01720E+002    1.82743E+005
            2808    3.13643E+005    6.44595E+004   -2.60176E+005    4.11768E+004   -2.60176E+005    3.24636E+005    5.15133E+004   -3.11690E+005    4.12782E+004   -3.26598E+004   -1.63158E+005   -9.50453E+002   -1.36673E+003    1.48569E+005
            2809    3.17494E+005    8.38780E+004   -2.55426E+005    3.44642E+004   -2.55426E+005    3.39304E+005    4.56946E+004   -3.08665E+005    3.45759E+004   -2.72856E+004   -1.44374E+005   -2.01767E+003   -1.21084E+003    1.59171E+005
            2810    3.21924E+005    1.03801E+005   -2.49770E+005    2.63905E+004   -2.49770E+005    3.53572E+005    3.98595E+004   -2.99892E+005    2.64813E+004   -2.38292E+004   -1.22231E+005   -2.93289E+003   -6.42201E+002    1.69748E+005
            2811    3.29199E+005    1.28351E+005   -2.41603E+005    1.90228E+004   -2.41603E+005    3.69954E+005    3.14097E+004   -2.83821E+005    1.90923E+004   -1.94253E+004   -9.38962E+004   -3.90244E+003   -1.82368E+002    1.81134E+005
            2812    3.37314E+005    1.52583E+005   -2.32308E+005    1.18608E+004   -2.32308E+005    3.84890E+005    2.26213E+004   -2.57640E+005    1.19107E+004   -1.40517E+004   -6.57229E+004   -4.79505E+003    3.88688E+001    1.90636E+005
            2813    3.41990E+005    1.76595E+005   -2.17123E+005    6.12173E+003   -2.17123E+005    3.93718E+005    1.14687E+004   -2.09420E+005    6.14881E+003   -6.26720E+003   -3.42877E+004   -5.38652E+003    6.74689E+001    1.96284E+005
            2814    3.42206E+005    1.95924E+005   -1.99216E+005    2.76968E+002   -1.99216E+005    3.95139E+005    1.00506E+003   -8.77451E+004    2.78102E+002   -7.57484E+002   -2.53581E+003   -5.63145E+003    2.02155E+001    1.97487E+005
            2815    3.41910E+005    2.15281E+005    2.15281E+005   -4.92322E+003   -1.78608E+005    3.93889E+005   -1.05834E+004    2.00888E+005   -4.94859E+003    6.33951E+003    3.03593E+004   -5.43903E+003   -3.47388E+001    1.96501E+005
            2816    3.36382E+005    2.28873E+005    2.28873E+005   -1.12300E+004   -1.55594E+005    3.84467E+005   -2.06832E+004    2.50988E+005   -1.12790E+004    1.20587E+004    6.12698E+004   -4.86385E+003   -9.56437E+000    1.90584E+005
            2817    3.55985E+005    2.43348E+005    2.43348E+005   -1.18616E+004   -1.63320E+005    4.06668E+005   -2.27222E+004    2.67603E+005   -1.18650E+004    1.90442E+004    6.09873E+004   -4.80338E+003   -8.08253E+002    2.02191E+005
            2818    3.62733E+005    2.29368E+005    2.29368E+005   -5.48150E+003   -1.88405E+005    4.17773E+005   -1.18272E+004    2.16716E+005   -5.48549E+003    9.70864E+003    3.12585E+004   -5.46776E+003   -4.07748E+002    2.08536E+005
            2819    3.65566E+005    2.10937E+005   -2.11182E+005    1.69580E+002   -2.11182E+005    4.22119E+005    2.50459E+001   -4.89157E+004    1.71349E+002   -1.67899E+002   -7.85875E+001   -5.75802E+003   -2.90178E+001    2.10981E+005
            2820    3.62882E+005    1.87241E+005   -2.30601E+005    5.51724E+003   -2.30601E+005    4.17842E+005    1.26144E+004   -2.20109E+005    5.51914E+003   -1.09381E+004   -3.24242E+004   -5.47061E+003    4.63467E+002    2.08572E+005
            2821    3.55502E+005    1.62763E+005   -2.43233E+005    1.22744E+004   -2.43233E+005    4.05996E+005    2.27317E+004   -2.68374E+005    1.22798E+004   -1.91741E+004   -6.13008E+004   -4.79770E+003    7.76510E+002    2.01843E+005
            2822    3.43839E+005    1.35267E+005   -2.51576E+005    1.92376E+004   -2.51576E+005    3.86843E+005    3.23572E+004   -2.94703E+005    1.92417E+004   -2.77242E+004   -8.85890E+004   -3.72286E+003    9.92264E+002    1.90973E+005
            2823    3.27013E+005    1.06537E+005   -2.52930E+005    2.69279E+004   -2.52930E+005    3.59468E+005    3.98216E+004   -3.04042E+005    2.69285E+004   -3.39858E+004   -1.12408E+005   -2.58418E+003    1.09207E+003    1.75382E+005
            2824    3.13734E+005    8.29625E+004   -2.51949E+005    3.51101E+004   -2.51949E+005    3.34911E+005    4.46255E+004   -3.05362E+005    3.51058E+004   -3.17272E+004   -1.37255E+005   -1.36580E+003    1.04176E+003    1.58918E+005
            2825    3.15089E+005    7.26769E+004   -2.56292E+005    4.27860E+004   -2.56292E+005    3.28969E+005    4.69430E+004   -3.11875E+005    4.27798E+004   -2.74114E+004   -1.56197E+005   -6.87784E+002    1.23732E+003    1.51352E+005
            2826    4.09383E+005    9.12818E+004   -3.60386E+005   -1.37558E+004   -3.60386E+005    4.51668E+005    9.42867E+004   -3.77238E+005    9.11100E+004   -2.23424E+004   -3.51628E+005    1.87142E+003   -8.55926E+003    5.38703E+004
            2827    3.79232E+005    8.10133E+004   -3.37136E+005   -1.54562E+004   -3.37136E+005    4.18150E+005    9.05264E+004   -3.49993E+005    8.09039E+004   -3.00261E+004   -3.22457E+005    2.10140E+003   -6.29656E+003    6.68929E+004
            2828    3.48273E+005    7.21973E+004   -3.10496E+005   -1.21270E+004   -3.10496E+005    3.82693E+005    8.34751E+004   -3.24089E+005    7.21259E+004   -3.47859E+004   -2.87765E+005    1.98743E+003   -4.69344E+003    7.90380E+004
            2829    3.25670E+005    6.27091E+004   -2.91501E+005   -5.02149E+003   -2.91501E+005    3.54210E+005    7.79376E+004   -3.09222E+005    6.26749E+004   -4.21806E+004   -2.54307E+005    1.70838E+003   -2.77662E+003    9.62534E+004
            2830    3.11843E+005    5.61745E+004   -2.75272E+005    1.23257E+004   -2.75272E+005    3.31447E+005    6.89241E+004   -3.04792E+005    5.61590E+004   -4.26121E+004   -2.20319E+005    1.17184E+003   -1.81791E+003    1.13055E+005
            2831    3.10793E+005    5.05025E+004   -2.68261E+005    3.38965E+004   -2.68261E+005    3.18763E+005    6.12873E+004   -3.09793E+005    5.04983E+004   -4.11783E+004   -1.93182E+005    5.48946E+002   -5.48257E+002    1.30570E+005
            2832    3.13621E+005    5.50738E+004   -2.62163E+005    4.77122E+004   -2.62163E+005    3.17237E+005    5.31257E+004   -3.13426E+005    4.77160E+004   -3.39836E+004   -1.73109E+005    4.70319E+001   -4.08270E+002    1.42549E+005
            2833    3.93827E+005    3.47820E+005    3.47820E+005   -1.05772E+004   -7.37901E+004    4.21610E+005   -8.78177E+004    3.82163E+005   -7.31950E+004    6.67610E+003    3.29972E+005    2.63001E+003    1.54819E+004    7.66780E+004
            2834    3.59654E+005    3.09857E+005    3.09857E+005   -4.28782E+004   -5.63378E+004    3.66194E+005   -7.02135E+004    3.59086E+005   -5.53012E+004   -9.82687E+003    2.75769E+005    1.40477E+003    1.31650E+004    1.03610E+005
            2835    3.37482E+005    2.82907E+005    2.82907E+005   -3.62293E+004   -7.03323E+004    3.53239E+005   -5.87818E+004    3.33573E+005   -3.66717E+004   -7.80927E+003    2.20826E+005   -7.24114E+002    9.73324E+003    1.34043E+005
            2836    3.13972E+005    2.42996E+005    2.42996E+005   -2.46073E+004   -1.02631E+005    3.45627E+005   -3.85859E+004    2.90936E+005   -2.48744E+004   -1.22285E+004    1.52861E+005   -2.09308E+003    6.65565E+003    1.51581E+005
            2837    4.19675E+005    3.67598E+005    3.67598E+005   -1.71152E+004   -7.99527E+004    4.47551E+005   -9.01768E+004    4.08890E+005   -7.94886E+004   -5.44196E+003    3.55461E+005    3.26486E+003    1.38917E+004    6.59772E+004
            2838    3.87571E+005    3.39396E+005    3.39396E+005   -3.92579E+004   -5.65163E+004    3.95912E+005   -8.12072E+004    3.86705E+005   -5.61798E+004   -8.22058E+003    3.08022E+005    2.51253E+003    1.07927E+004    1.03870E+005
            2839    3.52603E+005    2.95905E+005    2.95905E+005   -4.14107E+004   -7.02185E+004    3.66123E+005   -6.14252E+004    3.49941E+005   -4.14109E+004   -1.62762E+004    2.41963E+005    9.61794E+002    8.71990E+003    1.29471E+005
            2840    3.33823E+005    2.65553E+005    2.65553E+005   -2.53552E+004   -9.89158E+004    3.64469E+005   -4.70940E+004    3.14803E+005   -2.53796E+004   -1.04667E+004    1.77128E+005    2.67637E+001    6.19696E+003    1.56110E+005
            2841    4.54633E+005    4.00720E+005    4.00720E+005   -1.43887E+004   -8.51416E+004    4.85861E+005   -1.00396E+005    4.41991E+005   -8.43653E+004   -3.20058E+003    3.88755E+005    3.51774E+003    1.90655E+004    6.71647E+004
            2842    4.11104E+005    3.55150E+005    3.55150E+005   -4.45843E+004   -6.64517E+004    4.21602E+005   -8.13713E+004    4.09793E+005   -6.57285E+004   -1.89206E+004    3.28763E+005    3.70601E+003    1.68016E+004    9.79279E+004
            2843    3.81362E+005    3.25369E+005    3.25369E+005   -4.46557E+004   -6.64004E+004    3.91769E+005   -7.14376E+004    3.79964E+005   -4.44601E+004   -1.30275E+004    2.71801E+005    2.57676E+003    1.28105E+004    1.33986E+005
            2844    3.44374E+005    2.74060E+005    2.74060E+005   -3.17809E+004   -9.89500E+004    3.73010E+005   -4.77764E+004    3.29148E+005   -3.15772E+004   -1.66849E+004    1.91591E+005    2.35842E+003    9.18096E+003    1.54512E+005
            2845    4.80242E+005    4.22258E+005    4.22258E+005   -2.24242E+004   -8.70084E+004    5.09266E+005   -1.04275E+005    4.70323E+005   -8.65206E+004   -1.35495E+004    4.12895E+005    4.15735E+003    1.41549E+004    6.24007E+004
            2846    4.47298E+005    3.96190E+005    3.96190E+005   -3.72791E+004   -6.37616E+004    4.59951E+005   -9.83829E+004    4.45529E+005   -6.32571E+004   -9.74399E+003    3.68150E+005    4.99437E+003    1.28842E+004    1.05851E+005
            2847    3.98294E+005    3.40887E+005    3.40887E+005   -5.02262E+004   -6.42188E+004    4.05106E+005   -7.54806E+004    3.97740E+005   -4.98511E+004   -1.60638E+004    2.92357E+005    4.86290E+003    1.15303E+004    1.31000E+005
            2848    3.73018E+005    3.07371E+005    3.07371E+005   -3.22481E+004   -9.18663E+004    3.99237E+005   -6.10854E+004    3.62066E+005   -3.19362E+004   -1.12039E+004    2.26396E+005    5.31947E+003    8.99439E+003    1.60214E+005
            2849    5.17329E+005    4.65781E+005    4.65781E+005   -1.23111E+004   -8.34272E+004    5.49208E+005   -1.23348E+005    5.06157E+005   -8.28067E+004    9.12271E+002    4.51937E+005    4.34304E+003    1.75847E+004    7.84297E+004
            2850    4.57773E+005    4.03720E+005    4.03720E+005   -3.57776E+004   -7.03663E+004    4.74086E+005   -9.91920E+004    4.54819E+005   -6.96728E+004   -1.02316E+004    3.77480E+005    5.88078E+003    1.57385E+004    1.02971E+005
            2851    4.27115E+005    3.76099E+005    3.76099E+005   -4.89990E+004   -5.30045E+004    4.29104E+005   -9.13652E+004    4.27073E+005   -4.94401E+004   -4.85942E+003    3.28395E+005    5.98014E+003    1.20187E+004    1.34144E+005
            2852    3.87932E+005    3.23085E+005    3.23085E+005   -3.78943E+004   -8.71040E+004    4.10189E+005   -6.60289E+004    3.80815E+005   -3.76616E+004   -1.23718E+004    2.48120E+005    7.61845E+003    9.57241E+003    1.58071E+005
            2853    5.17540E+005    4.69241E+005    4.69241E+005   -7.13752E+003   -8.14312E+004    5.50672E+005   -1.26891E+005    5.05334E+005   -8.10969E+004    8.02465E+003    4.53744E+005    5.06078E+003    9.43319E+003    8.40081E+004
            2854    4.81461E+005    4.41426E+005    4.41426E+005   -1.10731E+004   -6.45347E+004    5.05961E+005   -1.21939E+005    4.74714E+005   -6.37218E+004    1.39806E+004    4.15559E+005    7.97538E+003    1.15835E+004    1.04411E+005
            2855    4.43115E+005    3.95125E+005    3.95125E+005   -4.12747E+004   -5.44133E+004    4.49538E+005   -9.98123E+004    4.42677E+005   -5.18053E+004   -2.33946E+003    3.53582E+005    8.43574E+003    9.94377E+003    1.27943E+005
            2856    4.15436E+005    3.62658E+005    3.62658E+005   -3.35487E+004   -6.96504E+004    4.32309E+005   -8.64864E+004    4.11885E+005   -3.42170E+004    2.51640E+003    2.91160E+005    9.90481E+003    7.81094E+003    1.60044E+005
            2857    5.09577E+005    4.78541E+005    4.78541E+005    2.72080E+004   -7.40699E+004    5.52611E+005   -1.43893E+005    4.86153E+005   -7.38501E+004    4.21478E+004    4.63381E+005    3.85835E+003    9.32791E+003    8.08449E+004
            2858    4.96457E+005    4.56051E+005    4.56051E+005   -9.91109E+003   -6.61158E+004    5.22167E+005   -1.26675E+005    4.89222E+005   -6.57097E+004    1.03293E+004    4.35405E+005    5.53241E+003    8.39634E+003    9.55205E+004
            2859    4.70255E+005    4.38505E+005    4.38505E+005   -1.30070E+004   -4.84831E+004    4.86989E+005   -1.25672E+005    4.67230E+005   -4.71029E+004    2.51490E+004    3.98969E+005    8.79025E+003    6.57102E+003    1.27551E+005
            2860    4.28590E+005    3.90138E+005    3.90138E+005   -2.91265E+004   -4.72041E+004    4.37342E+005   -1.04603E+005    4.27730E+005   -3.29698E+004    1.87909E+004    3.27986E+005    1.01749E+004    5.03253E+003    1.51676E+005
            2861    4.32805E+005    4.33804E+005    4.33804E+005    2.49216E+004   -1.94985E+004    4.53302E+005   -1.46409E+005    4.27632E+005   -1.74449E+004    7.77883E+004    3.78883E+005    9.72633E+003   -6.35640E+002    1.39802E+005
            2862    4.73226E+005    4.59940E+005    4.59940E+005    2.30633E+004   -4.27456E+004    5.02686E+005   -1.46753E+005    4.62763E+005   -4.18588E+004    5.51739E+004    4.26943E+005    8.10075E+003    1.05888E+003    1.15530E+005
            2863    5.15919E+005    4.88550E+005    4.88550E+005    1.55752E+004   -6.16138E+004    5.50164E+005   -1.47504E+005    5.02681E+005   -6.11243E+004    4.08939E+004    4.62742E+005    6.86378E+003    3.67860E+003    1.07378E+005
            2864    5.59006E+005    4.96672E+005    4.96672E+005   -3.28689E+004   -8.77504E+004    5.84422E+005   -1.25351E+005    5.52896E+005   -8.71228E+004   -2.36893E+004    4.86865E+005    6.33928E+003    6.65191E+003    7.10839E+004
            2865    4.34632E+005    3.81470E+005    3.81470E+005    9.55483E+003   -9.63172E+004    4.77787E+005   -9.82359E+004    4.04063E+005   -9.57292E+004    1.50340E+004    3.75403E+005    2.68555E+003    1.64874E+004    4.47894E+004
            2866    4.62540E+005    4.06925E+005    4.06925E+005    1.33518E+004   -1.02541E+005    5.09466E+005   -1.05912E+005    4.28006E+005   -1.01879E+005    1.69102E+004    4.02704E+005    2.28782E+003    1.81859E+004    3.72357E+004
            2867    4.91919E+005    4.26112E+005    4.26112E+005   -2.40202E+003   -1.11048E+005    5.37160E+005   -1.04220E+005    4.63757E+005   -1.10385E+005   -1.06079E+003    4.24107E+005    1.91482E+003    1.86937E+004    2.39786E+004
            2868    5.23424E+005    4.61879E+005    4.61879E+005    3.89504E+002   -1.06864E+005    5.68743E+005   -1.18468E+005    4.97792E+005   -1.06360E+005    2.56067E+003    4.59204E+005    1.71946E+003    1.67956E+004    3.15835E+004
            2869    5.41156E+005    4.78251E+005    4.78251E+005   -7.61334E+003   -1.04979E+005    5.83229E+005   -1.21886E+005    5.20900E+005   -1.04612E+005   -5.95460E+003    4.76225E+005    1.59831E+003    1.44299E+004    2.83790E+004
            2870    5.81195E+005    5.42033E+005    5.42033E+005    1.62475E+004   -8.20370E+004    6.24071E+005   -1.58748E+005    5.62040E+005   -8.18672E+004    2.29825E+004    5.35129E+005    1.19631E+003    1.02249E+004    5.91158E+004
            2871    5.44933E+005    5.14377E+005    5.14377E+005    3.56108E+004   -7.86149E+004    5.92992E+005   -1.57124E+005    5.16958E+005   -7.83884E+004    4.37878E+004    5.05973E+005    1.40646E+003    1.14992E+004    6.20176E+004
            2872    3.73698E+005    3.64492E+005    3.64492E+005    2.89314E+003   -2.02314E+004    3.84724E+005   -1.15718E+005    3.72083E+005   -4.60889E+003    6.73042E+004    2.84459E+005    1.15064E+004   -1.36775E+003    1.54169E+005
            2873    3.33431E+005    2.85951E+005    2.85951E+005    3.80773E+003   -8.19966E+004    3.67947E+005   -6.92539E+004    3.07083E+005    2.56053E+003    4.25644E+004    1.62637E+005    1.25500E+004   -1.06539E+003    1.73089E+005
            2874    3.09973E+005    1.77764E+005   -1.80162E+005   -7.53313E+002   -1.80162E+005    3.57925E+005    1.05046E+003   -5.04597E+004   -7.50898E+002    2.48592E+002   -2.64908E+003    1.31916E+004   -5.37292E+001    1.78470E+005
            2875    3.28670E+005    8.27456E+004   -2.80266E+005   -2.88837E+003   -2.80266E+005    3.63011E+005    6.68028E+004   -3.02004E+005   -1.68728E+003   -4.12207E+004   -1.57500E+005    1.24627E+004    9.41294E+002    1.71148E+005
            2876    3.80451E+005    1.72745E+004   -3.74095E+005   -5.59543E+003   -3.74095E+005    3.91370E+005    1.20805E+005   -3.78900E+005    2.37736E+003   -6.99415E+004   -2.94852E+005    1.15397E+004    1.39400E+003    1.55196E+005
            2877    4.25867E+005    2.04676E+004   -4.26916E+005   -2.64529E+004   -4.26916E+005    4.47384E+005    1.44301E+005   -4.19992E+005    1.86147E+004   -7.41355E+004   -3.77381E+005    9.42022E+003    8.04769E+002    1.32172E+005
            2878    4.77022E+005    3.87022E+004   -4.69752E+005   -3.20716E+004   -4.69752E+005    5.08454E+005    1.54374E+005   -4.64989E+005    3.77991E+004   -6.48155E+004   -4.36105E+005    8.43094E+003   -8.82784E+002    1.16688E+005
            2879    5.10405E+005    5.90086E+004   -4.86565E+005   -2.07110E+004   -4.86565E+005    5.45574E+005    1.49423E+005   -4.96108E+005    5.86259E+004   -3.83734E+004   -4.68520E+005    6.04225E+003   -3.70210E+003    8.98213E+004
            2880    5.25815E+005    6.86436E+004   -5.02143E+005   -3.74905E+004   -5.02143E+005    5.70786E+005    1.56996E+005   -5.00858E+005    6.84513E+004   -4.82554E+004   -4.91185E+005    3.99702E+003   -7.76406E+003    7.01245E+004
            2881    3.96890E+005    3.43878E+005    3.43878E+005   -1.62995E+004   -8.16211E+004    4.25499E+005   -8.19858E+004    3.84517E+005   -1.73947E+004    2.05083E+004    2.42844E+005    1.23547E+004    3.30128E+003    1.80494E+005
            2882    3.78123E+005    3.03742E+005    3.03742E+005   -2.19843E+004   -1.10922E+005    4.14664E+005   -5.69454E+004    3.53422E+005   -2.21857E+004   -2.58890E+003    1.95611E+005    1.07206E+004    5.05984E+003    1.81663E+005
            2883    3.66361E+005    2.85273E+005    2.85273E+005   -2.07978E+004   -1.20668E+005    4.05940E+005   -4.79358E+004    3.33614E+005   -2.06309E+004   -5.85448E+003    1.70293E+005    7.44405E+003    5.96156E+003    1.82664E+005
            2884    3.40539E+005    2.53290E+005    2.53290E+005   -2.05165E+004   -1.28030E+005    3.81320E+005   -3.49145E+004    2.98614E+005   -2.03304E+004   -1.13278E+004    1.36402E+005    4.43657E+003    5.68398E+003    1.75666E+005
            2885    3.30222E+005    2.42384E+005    2.42384E+005   -1.60929E+004   -1.29628E+005    3.72012E+005   -3.22211E+004    2.80990E+005   -1.60413E+004   -7.69974E+003    1.20404E+005    1.00783E+003    5.38848E+003    1.74554E+005
            2886    3.11446E+005    2.21280E+005    2.21280E+005   -1.51448E+004   -1.31615E+005    3.52895E+005   -2.48400E+004    2.55045E+005   -1.52250E+004   -9.72449E+003    9.94695E+004   -1.56089E+003    3.55297E+003    1.67729E+005
            2887    3.07815E+005    2.18051E+005    2.18051E+005   -1.18050E+004   -1.31663E+005    3.49714E+005   -2.48609E+004    2.46445E+005   -1.20391E+004   -4.60270E+003    9.12244E+004   -3.79859E+003    3.79709E+003    1.68040E+005
            2888    3.60080E+005    2.68328E+005    2.68328E+005   -8.20420E+003   -1.38834E+005    4.07162E+005   -4.04298E+004    2.99343E+005   -8.57939E+003    9.34869E+003    1.20520E+005    1.28659E+004    1.56800E+003    1.95346E+005
            2889    3.61883E+005    2.55548E+005    2.55548E+005   -8.43800E+003   -1.56968E+005    4.12516E+005   -3.00474E+004    2.79824E+005   -8.51804E+003    1.35845E+003    9.73017E+004    1.11890E+004    2.26729E+003    2.00265E+005
            2890    3.43644E+005    2.28331E+005    2.28331E+005   -1.05447E+004   -1.65506E+005    3.93837E+005   -1.74267E+004    2.44235E+005   -1.04566E+004   -4.90256E+003    6.76393E+004    8.20591E+003    2.69793E+003    1.93366E+005
            2891    3.32922E+005    2.18004E+005    2.18004E+005   -6.50110E+003   -1.64499E+005    3.82503E+005   -1.56680E+004    2.21791E+005   -6.42912E+003   -2.36226E+003    5.57955E+004    4.85684E+003    2.20159E+003    1.88959E+005
            2892    3.14536E+005    1.96501E+005    1.96501E+005   -6.84509E+003   -1.65787E+005    3.62288E+005   -7.95621E+003    1.87062E+005   -6.82037E+003   -4.86799E+003    3.55570E+004    1.28713E+003    1.89132E+003    1.80000E+005
            2893    3.08938E+005    1.94150E+005    1.94150E+005   -3.58242E+003   -1.61853E+005    3.56003E+005   -9.57161E+003    1.77780E+005   -3.60243E+003   -9.96101E+002    3.33134E+004   -1.51924E+003    1.00035E+003    1.77162E+005
            2894    2.97867E+005    1.81191E+005    1.81191E+005   -4.45324E+003   -1.62384E+005    3.43575E+005   -4.78445E+003    1.54356E+005   -4.52181E+003   -3.35138E+003    2.22265E+004   -3.90997E+003    1.19448E+003    1.71259E+005
            2895    3.52462E+005    2.00647E+005   -2.06321E+005    7.26313E+002   -2.06321E+005    4.06968E+005    1.64930E+003   -1.09914E+005    7.53253E+002    2.31434E+002   -5.93258E+003    1.36556E+004   -2.37400E+001    2.03001E+005
            2896    3.51513E+005    1.90666E+005   -2.14959E+005    5.94769E+002   -2.14959E+005    4.05625E+005    7.89924E+003   -1.67680E+005    6.20441E+002   -9.06077E+002   -2.34121E+004    1.16121E+004   -4.66252E+002    2.02166E+005
            2897    3.43958E+005    1.86507E+005   -2.10237E+005    4.03361E+003   -2.10237E+005    3.96744E+005    6.56570E+003   -1.77864E+005    4.00686E+003    2.63224E+003   -2.63362E+004    8.06672E+003   -9.47416E+002    1.97677E+005
            2898    3.27947E+005    1.69907E+005   -2.07874E+005    3.61298E+003   -2.07874E+005    3.77781E+005    1.14514E+004   -1.93496E+005    3.56866E+003    1.61397E+003   -3.95369E+004    4.41712E+003   -1.44962E+003    1.87712E+005
            2899    3.18322E+005    1.67165E+005   -1.99509E+005    5.99312E+003   -1.99509E+005    3.66674E+005    8.78353E+003   -1.88467E+005    5.98077E+003    4.86823E+003   -3.71996E+004    7.67958E+002   -1.56315E+003    1.82119E+005
            2900    3.05806E+005    1.55779E+005   -1.96180E+005    4.52234E+003   -1.96180E+005    3.51959E+005    1.19596E+004   -1.90153E+005    4.56609E+003    2.60356E+003   -4.30484E+004   -2.02878E+003   -1.59219E+003    1.74470E+005
            2901    3.01497E+005    1.57800E+005   -1.89452E+005    5.66836E+003   -1.89452E+005    3.47253E+005    8.66116E+003   -1.79895E+005    5.75868E+003    4.40164E+003   -3.61438E+004   -4.35366E+003   -1.25529E+003    1.72374E+005
            2902    3.66260E+005    1.26361E+005   -2.84591E+005    7.40397E+003   -2.84591E+005    4.10952E+005    5.02753E+004   -3.18233E+005    7.89055E+003   -1.26432E+004   -1.46073E+005    1.28583E+004   -1.73710E+003    1.93801E+005
            2903    3.64844E+005    1.41046E+005   -2.70435E+005    1.35626E+004   -2.70435E+005    4.11480E+005    3.86089E+004   -3.08406E+005    1.36587E+004    3.23179E+002   -1.29809E+005    1.11476E+004   -3.33815E+003    1.94814E+005
            2904    3.55173E+005    1.36534E+005   -2.63463E+005    1.49552E+004   -2.63463E+005    3.99997E+005    3.73244E+004   -3.02746E+005    1.48554E+004    4.43975E+003   -1.31268E+005    8.23942E+003   -4.35871E+003    1.87926E+005
            2905    3.41350E+005    1.37135E+005   -2.47926E+005    1.75129E+004   -2.47926E+005    3.85062E+005    3.10926E+004   -2.88192E+005    1.73349E+004    9.56124E+003   -1.20174E+005    5.12577E+003   -5.10057E+003    1.81166E+005
            2906    3.26908E+005    1.28810E+005   -2.39638E+005    1.56742E+004   -2.39638E+005    3.68448E+005    3.17182E+004   -2.77436E+005    1.55924E+004    8.82433E+003   -1.19571E+005    1.68866E+003   -5.00708E+003    1.72612E+005
            2907    3.15264E+005    1.30087E+005   -2.26350E+005    1.59440E+004   -2.26350E+005    3.56437E+005    2.67730E+004   -2.62333E+005    1.59994E+004    1.00736E+004   -1.06392E+005   -9.42433E+002   -4.16139E+003    1.68372E+005
            2908    3.05398E+005    1.25258E+005   -2.20348E+005    1.31641E+004   -2.20348E+005    3.45606E+005    2.73084E+004   -2.52464E+005    1.33666E+004    6.50607E+003   -1.01798E+005   -3.24595E+003   -3.74348E+003    1.63986E+005
            2909    3.95529E+005    7.24852E+004   -3.47483E+005    1.79443E+004   -3.47483E+005    4.19969E+005    8.56846E+004   -3.86933E+005    1.92909E+004   -2.03258E+004   -2.56019E+005    1.18879E+004   -3.17361E+003    1.72753E+005
            2910    3.92665E+005    9.16899E+004   -3.30641E+005    2.34006E+004   -3.30641E+005    4.22331E+005    7.18501E+004   -3.78958E+005    2.37568E+004   -2.10810E+003   -2.37199E+005    1.05005E+004   -5.73113E+003    1.74871E+005
            2911    3.78157E+005    1.01918E+005   -3.07244E+005    2.94083E+004   -3.07244E+005    4.09162E+005    5.86393E+004   -3.62018E+005    2.92242E+004    9.33392E+003   -2.14476E+005    7.42467E+003   -7.50507E+003    1.71007E+005
            2912    3.63553E+005    9.97935E+004   -2.94279E+005    2.80607E+004   -2.94279E+005    3.94072E+005    5.54748E+004   -3.47091E+005    2.77924E+004    1.21135E+004   -2.06330E+005    4.60823E+003   -8.09343E+003    1.63831E+005
            2913    3.44524E+005    1.02828E+005   -2.72663E+005    2.88890E+004   -2.72663E+005    3.75490E+005    4.69820E+004   -3.25948E+005    2.87677E+004    1.53490E+004   -1.85063E+005    1.59260E+003   -8.23751E+003    1.58589E+005
            2914    3.30414E+005    9.85808E+004   -2.62445E+005    2.49251E+004   -2.62445E+005    3.61026E+005    4.63132E+004   -3.11128E+005    2.50198E+004    1.22563E+004   -1.76216E+005   -6.97344E+002   -6.42475E+003    1.53794E+005
            2915    3.15467E+005    1.01888E+005   -2.45213E+005    2.40479E+004   -2.45213E+005    3.47101E+005    3.97590E+004   -2.92667E+005    2.43775E+004    1.10685E+004   -1.54723E+005   -2.68151E+003   -6.22771E+003    1.52218E+005
            2916    4.38288E+005    3.87982E+004   -4.07255E+005    2.28321E+004   -4.07255E+005    4.46053E+005    1.15208E+005   -4.37633E+005    3.24476E+004   -2.83509E+004   -3.49721E+005    1.02858E+004   -4.97524E+003    1.47412E+005
            2917    4.23192E+005    5.91716E+004   -3.73929E+005    3.86052E+004   -3.73929E+005    4.33100E+005    9.20506E+004   -4.22065E+005    4.01616E+004   -2.87556E+003   -3.13438E+005    9.81378E+003   -8.49797E+003    1.49353E+005
            2918    4.11724E+005    6.73453E+004   -3.56221E+005    4.25385E+004   -3.56221E+005    4.23567E+005    8.21126E+004   -4.10038E+005    4.25211E+004    7.43019E+003   -2.96289E+005    7.60065E+003   -1.05955E+004    1.47051E+005
            2919    3.90293E+005    7.45682E+004   -3.30042E+005    4.41559E+004   -3.30042E+005    4.04610E+005    7.04392E+004   -3.87614E+005    4.37845E+004    1.53487E+004   -2.70451E+005    5.85161E+003   -1.10772E+004    1.42877E+005
            2920    3.71376E+005    7.38649E+004   -3.12683E+005    4.13864E+004   -3.12683E+005    3.86548E+005    6.58107E+004   -3.68160E+005    4.10564E+004    1.61964E+004   -2.54685E+005    3.18569E+003   -1.16328E+004    1.37544E+005
            2921    3.47852E+005    7.51156E+004   -2.89503E+005    3.87190E+004   -2.89503E+005    3.64619E+005    5.85562E+004   -3.43528E+005    3.86565E+004    1.49954E+004   -2.29321E+005    1.26113E+003   -8.69201E+003    1.35078E+005
            2922    3.32534E+005    7.42695E+004   -2.76387E+005    3.44355E+004   -2.76387E+005    3.50657E+005    5.58941E+004   -3.27102E+005    3.47174E+004    1.01313E+004   -2.12531E+005   -5.94019E+002   -8.91146E+003    1.35009E+005
            2923    4.67899E+005    4.88675E+004   -4.38541E+005    7.04118E+003   -4.38541E+005    4.87408E+005    1.27544E+005   -4.63665E+005    4.80150E+004   -2.64071E+004   -4.04240E+005    7.43631E+003   -6.12257E+003    1.18653E+005
            2924    4.59464E+005    5.22907E+004   -4.19114E+005    2.73984E+004   -4.19114E+005    4.71405E+005    1.13142E+005   -4.57944E+005    5.11620E+004   -8.21505E+003   -3.82372E+005    7.57533E+003   -9.51383E+003    1.22377E+005
            2925    4.40439E+005    5.82447E+004   -3.88387E+005    4.55855E+004   -3.88387E+005    4.46632E+005    9.48523E+004   -4.40029E+005    5.76812E+004    8.75965E+003   -3.50998E+005    5.28028E+003   -1.28468E+004    1.21091E+005
            2926    4.25094E+005    5.59251E+004   -3.72726E+005    4.87211E+004   -3.72726E+005    4.28651E+005    8.93598E+004   -4.24957E+005    5.55012E+004    1.33829E+004   -3.36964E+005    4.23218E+003   -1.20737E+004    1.16821E+005
            2927    3.95125E+005    5.81037E+004   -3.40115E+005    5.18427E+004   -3.40115E+005    3.98219E+005    7.67228E+004   -3.95014E+005    5.69598E+004    1.64495E+004   -3.03578E+005    2.78166E+003   -1.47638E+004    1.13172E+005
            2928    3.75711E+005    5.20887E+004   -3.25474E+005    4.83575E+004   -3.25474E+005    3.77563E+005    7.50093E+004   -3.75669E+005    5.01185E+004    1.21030E+004   -2.87249E+005    1.44641E+003   -1.01569E+004    1.13146E+005
            2929    3.49178E+005    5.38611E+004   -2.99071E+005    4.62287E+004   -2.99071E+005    3.52932E+005    6.63270E+004   -3.48990E+005    4.89502E+004    8.84602E+003   -2.56777E+005    3.42350E+002   -1.17411E+004    1.13571E+005
            2930    5.00504E+005    6.32410E+004   -4.70805E+005   -1.24699E+004   -4.70805E+005    5.34046E+005    1.40011E+005   -4.87371E+005    6.27731E+004   -3.39454E+004   -4.48862E+005    6.71590E+003   -7.98548E+003    9.75319E+004
            2931    4.91026E+005    7.03037E+004   -4.46688E+005    1.34172E+004   -4.46688E+005    5.16992E+005    1.20989E+005   -4.83529E+005    6.94459E+004   -8.52626E+003   -4.23887E+005    8.19490E+003   -1.17859E+004    9.91596E+004
            2932    4.78878E+005    7.31586E+004   -4.27608E+005    2.58729E+004   -4.27608E+005    5.00767E+005    1.09526E+005   -4.73583E+005    7.24289E+004    5.97661E+003   -4.06982E+005    6.33424E+003   -1.56083E+004    9.32381E+004
            2933    4.52571E+005    7.43814E+004   -3.98011E+005    3.17158E+004   -3.98011E+005    4.72393E+005    9.73047E+004   -4.48012E+005    7.37703E+004    1.25587E+004   -3.78243E+005    5.53972E+003   -1.40716E+004    8.89561E+004
            2934    4.31656E+005    7.28613E+004   -3.77659E+005    3.22645E+004   -3.77659E+005    4.50520E+005    9.08444E+004   -4.27329E+005    7.21588E+004    1.29429E+004   -3.57635E+005    4.09205E+003   -1.72824E+004    8.67990E+004
            2935    3.97587E+005    6.78819E+004   -3.47353E+005    2.98515E+004   -3.47353E+005    4.15235E+005    8.32066E+004   -3.93463E+005    6.74701E+004    8.96168E+003   -3.26052E+005    3.33074E+003   -1.26105E+004    8.62291E+004
            2936    3.77241E+005    6.32385E+004   -3.30576E+005    2.75575E+004   -3.30576E+005    3.93814E+005    7.99265E+004   -3.73417E+005    6.26662E+004    2.28653E+003   -3.04732E+005    2.21258E+003   -1.39642E+004    9.17740E+004
            2937    5.20857E+005    7.02684E+004   -4.88630E+005   -1.67835E+004   -4.88630E+005    5.58898E+005    1.45048E+005   -5.04099E+005    7.02428E+004   -3.13572E+004   -4.74030E+005    6.50273E+002   -3.72348E+003    8.16321E+004
            2938    5.26600E+005    7.98761E+004   -4.83148E+005   -2.73925E+003   -4.83148E+005    5.63024E+005    1.35337E+005   -5.11714E+005    7.95980E+004   -1.46944E+004   -4.70915E+005    3.55864E+003   -1.12381E+004    7.49310E+004
            2939    5.05238E+005    8.82791E+004   -4.51023E+005    1.13203E+004   -4.51023E+005    5.39302E+005    1.17141E+005   -4.91791E+005    8.78711E+004    1.00384E+003   -4.40298E+005    2.97614E+003   -1.43976E+004    6.82851E+004
            2940    4.94502E+005    8.99890E+004   -4.37565E+005    1.54118E+004   -4.37565E+005    5.27554E+005    1.10722E+005   -4.81605E+005    8.94653E+004    7.16634E+003   -4.28796E+005    3.51100E+003   -1.59056E+004    6.06086E+004
            2941    4.57421E+005    9.14657E+004   -4.00140E+005    1.29253E+004   -4.00140E+005    4.91605E+005    9.85829E+004   -4.41867E+005    9.08001E+004    5.18384E+003   -3.91733E+005    2.91435E+003   -1.78105E+004    5.59795E+004
            2942    4.33698E+005    8.47764E+004   -3.82126E+005    8.15405E+003   -3.82126E+005    4.66903E+005    9.63986E+004   -4.18061E+005    8.42224E+004   -1.93435E+003   -3.71484E+005    3.08968E+003   -1.57303E+004    6.18976E+004
            2943    4.01145E+005    8.01361E+004   -3.52643E+005    6.72790E+003   -3.52643E+005    4.32779E+005    8.85930E+004   -3.85596E+005    7.95930E+004   -5.99752E+003   -3.39375E+005    2.60077E+003   -1.50859E+004    6.63679E+004
            2944    4.38818E+005    9.72881E+004   -3.86642E+005   -1.45982E+004   -3.86642E+005    4.83930E+005    1.01317E+005   -4.04818E+005    9.66909E+004   -2.00619E+004   -3.80581E+005    2.78337E+003   -1.67061E+004    4.47371E+004
            2945    4.65733E+005    1.06292E+005   -4.06295E+005   -9.11752E+003   -4.06295E+005    5.12586E+005    1.03040E+005   -4.31767E+005    1.05625E+005   -1.16252E+004   -4.03121E+005    2.42344E+003   -1.82197E+004    3.14837E+004
            2946    5.01078E+005    1.10324E+005   -4.37351E+005   -1.90155E+003   -4.37351E+005    5.47675E+005    1.09643E+005   -4.71542E+005    1.09667E+005   -3.89298E+003   -4.34702E+005    2.07376E+003   -1.87882E+004    2.93997E+004
            2947    5.19802E+005    1.11783E+005   -4.52925E+005    5.56407E+003   -4.52925E+005    5.64707E+005    1.11859E+005   -4.94493E+005    1.11284E+005    3.94742E+003   -4.50809E+005    2.09944E+003   -1.64846E+004    2.72604E+004
            2948    5.52102E+005    1.03277E+005   -4.90711E+005    6.78197E+003   -4.90711E+005    5.93988E+005    1.26884E+005   -5.32632E+005    1.02914E+005    3.26663E+003   -4.86832E+005    2.17921E+003   -1.43519E+004    4.17133E+004
            2949    5.39980E+005    9.34017E+004   -4.91423E+005   -1.17596E+004   -4.91423E+005    5.84825E+005    1.36594E+005   -5.16181E+005    9.32120E+004   -1.86185E+004   -4.84375E+005    2.68354E+003   -9.66187E+003    5.70261E+004
            2950    5.44930E+005    7.91541E+004   -5.11481E+005   -2.82493E+004   -5.11481E+005    5.90635E+005    1.53525E+005   -5.20311E+005    7.89878E+004   -3.49282E+004   -5.04636E+005    2.77723E+003   -8.78181E+003    5.65252E+004
            2951    2.96948E+005    2.48520E+005    2.48520E+005   -3.96757E+004   -5.64676E+004    3.04988E+005   -5.07923E+004    2.95877E+005   -3.97475E+004    3.17366E+004    1.60388E+005   -1.19042E+003    1.83031E+002    1.38222E+005
            2952    3.07727E+005    2.54508E+005    2.54508E+005   -3.07675E+004   -7.15957E+004    3.26103E+005   -5.07148E+004    3.01543E+005   -3.08095E+004    4.31616E+004    1.39792E+005   -2.47688E+003   -7.82784E+002    1.55691E+005
            2953    3.28458E+005    2.55815E+005    2.55815E+005   -2.42967E+004   -1.05684E+005    3.61500E+005   -4.19448E+004    3.04506E+005   -2.43342E+004    3.52419E+004    1.14927E+005   -4.25317E+003   -1.16363E+003    1.76238E+005
            2954    3.43264E+005    2.51503E+005    2.51503E+005   -1.69932E+004   -1.35257E+005    3.86761E+005   -3.30842E+004    2.91845E+005   -1.70151E+004    2.68515E+004    8.94162E+004   -6.24988E+003   -1.49263E+003    1.90721E+005
            2955    3.29878E+005    2.41354E+005    2.41354E+005   -1.53851E+004   -1.30702E+005    3.72056E+005   -3.17556E+004    2.78796E+005   -1.54609E+004    1.93355E+004    9.13923E+004   -6.36660E+003   -9.11784E+002    1.82378E+005
            2956    3.17182E+005    2.33116E+005    2.33116E+005   -1.57542E+004   -1.24024E+005    3.57141E+005   -3.11126E+004    2.70660E+005   -1.60125E+004    1.26679E+004    9.66825E+004   -6.49011E+003    9.67255E+002    1.73383E+005
            2957    3.11476E+005    2.31035E+005    2.31035E+005   -1.52320E+004   -1.19104E+005    3.50139E+005   -3.22331E+004    2.68138E+005   -1.53851E+004    9.33491E+003    1.02750E+005   -6.07859E+003   -2.20317E+002    1.68582E+005
            2958    3.04337E+005    2.26321E+005    2.26321E+005   -1.69489E+004   -1.14940E+005    3.41261E+005   -3.14776E+004    2.65195E+005   -1.73401E+004    3.83349E+003    1.07939E+005   -5.93909E+003    2.46742E+003    1.62282E+005
            2959    3.03548E+005    2.30046E+005    2.30046E+005   -1.65406E+004   -1.08974E+005    3.39019E+005   -3.48439E+004    2.69042E+005   -1.67799E+004    3.00808E+003    1.18303E+005   -5.29258E+003    9.73956E+002    1.59257E+005
            2960    3.01674E+005    2.28783E+005    2.28783E+005   -1.97485E+004   -1.06862E+005    3.35645E+005   -3.40577E+004    2.71135E+005   -2.01892E+004   -4.19694E+003    1.26559E+005   -4.66637E+003    4.19047E+003    1.54321E+005
            2961    3.09568E+005    2.40116E+005    2.40116E+005   -1.96607E+004   -1.02422E+005    3.42537E+005   -3.93444E+004    2.83030E+005   -1.99183E+004   -4.16023E+003    1.42112E+005   -3.52659E+003    3.08100E+003    1.54723E+005
            2962    3.16546E+005    2.46902E+005    2.46902E+005   -2.24427E+004   -1.01759E+005    3.48662E+005   -4.09001E+004    2.92910E+005   -2.25053E+004    2.49963E+004    1.20209E+005   -4.45517E+003   -1.03607E+003    1.67625E+005
            2963    3.14098E+005    2.46172E+005    2.46172E+005   -2.29732E+004   -9.89434E+004    3.45116E+005   -4.14186E+004    2.92336E+005   -2.32801E+004    1.78395E+004    1.29696E+005   -4.78826E+003    1.68584E+003    1.63073E+005
            2964    3.07834E+005    2.43625E+005    2.43625E+005   -2.35993E+004   -9.29778E+004    3.36602E+005   -4.23492E+004    2.89448E+005   -2.37589E+004    1.27526E+004    1.38054E+005   -4.27538E+003   -2.70812E+000    1.56096E+005
            2965    3.06821E+005    2.47006E+005    2.47006E+005   -2.49337E+004   -8.56262E+004    3.32632E+005   -4.54820E+004    2.92855E+005   -2.54345E+004    1.07283E+004    1.51152E+005   -4.15331E+003    3.73111E+003    1.50489E+005
            2966    3.05265E+005    2.47983E+005    2.47983E+005   -2.68861E+004   -8.05587E+004    3.28541E+005   -4.68459E+004    2.94367E+005   -2.71778E+004    3.86642E+003    1.63849E+005   -3.50627E+003    1.82415E+003    1.43312E+005
            2967    3.12045E+005    2.57539E+005    2.57539E+005   -2.93938E+004   -7.46713E+004    3.32210E+005   -5.11580E+004    3.04523E+005   -3.00263E+004    2.22569E+003    1.81275E+005   -2.90409E+003    6.26212E+003    1.39470E+005
            2968    3.18888E+005    2.64070E+005    2.64070E+005   -3.27043E+004   -7.30853E+004    3.37156E+005   -5.27602E+004    3.13059E+005   -3.30282E+004   -6.91793E+003    1.98227E+005   -1.88439E+003    4.82176E+003    1.33525E+005
            2969    3.10661E+005    2.52749E+005    2.52749E+005   -3.03013E+004   -7.96223E+004    3.32371E+005   -4.76084E+004    3.01664E+005   -3.03117E+004    2.59011E+004    1.47236E+005   -2.51447E+003   -1.39755E+003    1.54686E+005
            2970    3.11230E+005    2.55024E+005    2.55024E+005   -3.17403E+004   -7.59442E+004    3.30969E+005   -4.91133E+004    3.04047E+005   -3.20717E+004    2.19099E+004    1.57502E+005   -2.81945E+003    2.68063E+003    1.50776E+005
            2971    3.08490E+005    2.58328E+005    2.58328E+005   -3.20193E+004   -6.55629E+004    3.23891E+005   -5.35821E+004    3.04347E+005   -3.21254E+004    2.11362E+004    1.71735E+005   -2.22204E+003    3.71317E+001    1.43310E+005
            2972    3.08478E+005    2.60547E+005    2.60547E+005   -3.61472E+004   -5.84996E+004    3.19047E+005   -5.53000E+004    3.06648E+005   -3.68715E+004    1.51010E+004    1.87671E+005   -1.84239E+003    5.13184E+003    1.33690E+005
            2973    3.12704E+005    2.70141E+005    2.70141E+005   -3.71458E+004   -4.77138E+004    3.17854E+005   -6.17603E+004    3.12302E+005   -3.76432E+004    1.40498E+004    2.08874E+005   -1.18001E+003    2.74068E+003    1.25243E+005
            2974    3.23702E+005    2.78525E+005    2.78525E+005   -4.13288E+004   -4.88935E+004    3.27418E+005   -6.27674E+004    3.23503E+005   -4.46760E+004    3.69605E+003    2.29282E+005   -4.63441E+002    8.60083E+003    1.16074E+005
            2975    3.40013E+005    2.96845E+005    2.96845E+005   -3.93939E+004   -4.68208E+004    3.43666E+005   -7.02101E+004    3.39831E+005   -4.61384E+004    2.33755E+003    2.54431E+005    3.95787E+002    6.60507E+003    1.11589E+005
            2976    3.12097E+005    2.59565E+005    2.59565E+005   -3.78968E+004   -6.53521E+004    3.24917E+005   -5.21055E+004    3.09362E+005   -3.78854E+004    2.69705E+004    1.67231E+005   -9.80725E+002   -1.55628E+003    1.46536E+005
            2977    3.10196E+005    2.62707E+005    2.62707E+005   -4.02401E+004   -5.42612E+004    3.16969E+005   -5.60687E+004    3.09482E+005   -4.05830E+004    2.94143E+004    1.79375E+005   -8.55153E+002    2.87065E+003    1.39415E+005
            2978    3.07515E+005    2.66058E+005    2.66058E+005   -3.96088E+004   -4.32726E+004    3.09330E+005   -6.10588E+004    3.07466E+005   -4.31604E+004    2.89545E+004    1.97382E+005   -1.37051E+002    1.06326E+003    1.27603E+005
            2979    3.12710E+005    2.76471E+005    2.76471E+005   -2.32124E+004   -4.78122E+004    3.24283E+005   -6.84820E+004    3.10521E+005   -4.75809E+004    2.89877E+004    2.24039E+005    4.97841E+002    5.59010E+003    1.13798E+005
            2980    3.25608E+005    2.88829E+005    2.88829E+005   -1.83833E+004   -5.24893E+004    3.41319E+005   -7.26522E+004    3.21553E+005   -5.24114E+004    2.01722E+004    2.50196E+005    1.13412E+003    4.69299E+003    1.01777E+005
            2981    3.45398E+005    3.07066E+005    3.07066E+005   -1.23103E+004   -5.95005E+004    3.66567E+005   -7.84185E+004    3.38031E+005   -5.91730E+004    1.76053E+004    2.76823E+005    1.61691E+003    1.00610E+004    9.30899E+004
            2982    3.66814E+005    3.24124E+005    3.24124E+005   -1.42797E+004   -6.56787E+004    3.89803E+005   -8.13886E+004    3.58578E+005   -6.54302E+004    7.33169E+003    3.02264E+005    2.24488E+003    9.55942E+003    8.27124E+004
            2983    4.03793E+005    3.58845E+005    3.58845E+005    1.47020E+004   -8.56656E+004    4.44511E+005   -9.59606E+004    3.74153E+005   -8.52424E+004    2.44153E+004    3.48709E+005    3.05719E+003    1.32858E+004    5.69771E+004
            2984    3.75177E+005    3.34012E+005    3.34012E+005    1.06151E+004   -7.73243E+004    4.11336E+005   -8.91008E+004    3.50846E+005   -7.70319E+004    2.51171E+004    3.19217E+005    3.22106E+003    1.03147E+004    6.69234E+004
            2985    3.46071E+005    3.11950E+005    3.11950E+005    1.28079E+004   -6.70789E+004    3.79029E+005   -8.58930E+004    3.24338E+005   -6.69110E+004    3.56070E+004    2.88983E+005    3.07550E+003    7.10094E+003    7.93740E+004
            2986    3.24074E+005    2.91116E+005    2.91116E+005    2.78935E+003   -5.96268E+004    3.50743E+005   -7.80927E+004    3.10115E+005   -5.95336E+004    3.81306E+004    2.55681E+005    2.53703E+003    4.92983E+003    9.45487E+004
            2987    3.09071E+005    2.75765E+005    2.75765E+005   -9.85073E+003   -5.23613E+004    3.28126E+005   -7.11844E+004    3.02389E+005   -5.23271E+004    4.29103E+004    2.22970E+005    1.75648E+003    2.55267E+003    1.10840E+005
            2988    3.09399E+005    2.64672E+005    2.64672E+005   -3.92995E+004   -4.98831E+004    3.14555E+005   -5.84964E+004    3.08991E+005   -4.98712E+004    3.34718E+004    1.91889E+005    8.08489E+002    1.65769E+003    1.29708E+005
            2989    3.07093E+005    2.53935E+005    2.53935E+005   -4.73543E+004   -5.86513E+004    3.12586E+005   -4.93097E+004    3.06625E+005   -4.73584E+004    2.08426E+004    1.74445E+005   -2.76089E+001   -5.12301E+002    1.36118E+005
            2990    3.76755E+005    7.04360E+004   -3.34912E+005    4.56051E+003   -3.34912E+005    4.05348E+005    8.66387E+004   -3.63458E+005    7.01203E+004   -1.40550E+004   -3.15981E+005    2.52250E+003   -1.10182E+004    7.72473E+004
            2991    3.49416E+005    5.59243E+004   -3.06674E+005    2.78689E+004   -3.06674E+005    3.62598E+005    7.42935E+004   -3.46868E+005    5.57030E+004   -3.00330E+003   -2.75580E+005    1.56817E+003   -8.13950E+003    9.68483E+004
            2992    3.33118E+005    5.09877E+004   -2.87340E+005    4.03132E+004   -2.87340E+005    3.38327E+005    6.53463E+004   -3.32733E+005    4.11474E+004    8.97515E+002   -2.38084E+005   -7.19818E+002   -6.11317E+003    1.19028E+005
            2993    3.16091E+005    7.72641E+004   -2.59462E+005    3.08659E+004   -2.59462E+005    3.36726E+005    5.04439E+004   -3.08290E+005    3.11639E+004    6.05147E+003   -1.88547E+005   -1.95571E+003   -4.79803E+003    1.37170E+005
            2994    3.07541E+005    1.00985E+005   -2.39013E+005    1.97698E+004   -2.39013E+005    3.39998E+005    3.94194E+004   -2.81861E+005    2.01141E+004    5.27912E+003   -1.43651E+005   -4.06091E+003   -3.49503E+003    1.52628E+005
            2995    3.00548E+005    1.30062E+005   -2.11465E+005    1.26734E+004   -2.11465E+005    3.41527E+005    2.29099E+004   -2.40183E+005    1.28977E+004    5.77572E+003   -8.74030E+004   -4.81524E+003   -2.23649E+003    1.64162E+005
            2996    2.95987E+005    1.52844E+005   -1.88036E+005    3.83365E+003   -1.88036E+005    3.40880E+005    1.04527E+004   -1.77505E+005    3.95280E+003    1.14200E+003   -3.64528E+004   -5.84522E+003   -1.02207E+003    1.69289E+005
            2997    2.98678E+005    1.84533E+005    1.84533E+005   -2.37638E+003   -1.59934E+005    3.44467E+005   -7.40751E+003    1.57607E+005   -2.41943E+003    2.74758E+002    2.43672E+004   -5.50154E+003    2.41753E+002    1.71722E+005
            2998    2.98216E+005    2.06562E+005    2.06562E+005   -1.14162E+004   -1.33288E+005    3.39850E+005   -2.06194E+004    2.31314E+005   -1.16110E+004   -5.76700E+003    7.92360E+004   -5.23645E+003    1.54746E+003    1.64405E+005
            2999    3.49480E+005    6.39204E+004   -3.10305E+005    7.58705E+003   -3.10305E+005    3.74225E+005    7.95991E+004   -3.39039E+005    6.36589E+004   -1.75277E+004   -2.84928E+005    1.92279E+003   -9.49985E+003    8.57339E+004
            3000    3.32949E+005    5.05122E+004   -2.92068E+005    3.03336E+004   -2.92068E+005    3.42580E+005    7.04073E+004   -3.31569E+005    4.99584E+004   -1.04706E+004   -2.50710E+005    5.30557E+002   -8.75521E+003    1.07611E+005
            3001    3.16046E+005    5.72694E+004   -2.68116E+005    3.76780E+004   -2.68116E+005    3.25386E+005    5.77229E+004   -3.14675E+005    3.87748E+004   -2.97113E+003   -2.08972E+005   -1.73379E+003   -7.38582E+003    1.25078E+005
            3002    3.09019E+005    8.12747E+004   -2.51366E+005    2.67814E+004   -2.51366E+005    3.32641E+005    4.77701E+004   -2.97920E+005    2.72896E+004   -4.15356E+002   -1.70185E+005   -3.18675E+003   -5.33471E+003    1.42694E+005
            3003    3.01666E+005    1.08776E+005   -2.27708E+005    1.85464E+004   -2.27708E+005    3.36484E+005    3.34617E+004   -2.68694E+005    1.89975E+004    3.01531E+003   -1.22398E+005   -5.21769E+003   -3.64500E+003    1.55876E+005
            3004    2.98413E+005    1.31414E+005   -2.08566E+005    1.00069E+004   -2.08566E+005    3.39980E+005    2.23816E+004   -2.32205E+005    1.02875E+004    1.28995E+003   -7.87222E+004   -6.06693E+003   -2.05905E+003    1.65050E+005
            3005    2.98031E+005    1.59616E+005   -1.84004E+005    4.12841E+003   -1.84004E+005    3.43620E+005    6.75315E+003   -1.63016E+005    4.22859E+003    2.20808E+003   -2.66961E+004   -6.97111E+003   -5.98212E+002    1.71053E+005
            3006    2.95831E+005    1.80126E+005    1.80126E+005   -3.74080E+003   -1.61128E+005    3.41254E+005   -5.08580E+003    1.51348E+005   -3.84734E+003   -2.02422E+003    2.11290E+004   -6.69565E+003    8.61268E+002    1.70096E+005
            3007    3.00539E+005    2.08956E+005    2.08956E+005   -9.70322E+003   -1.33751E+005    3.42707E+005   -2.18339E+004    2.31428E+005   -1.00222E+004   -5.60324E+002    7.60842E+004   -6.30575E+003    2.45303E+003    1.66831E+005
            3008    3.29130E+005    5.48394E+004   -2.94006E+005    1.10174E+004   -2.94006E+005    3.48845E+005    7.60497E+004   -3.22468E+005    5.47407E+004   -2.56748E+004   -2.57215E+005    1.47703E+003   -5.50738E+003    9.92168E+004
            3009    3.14938E+005    4.38162E+004   -2.74419E+005    3.71151E+004   -2.74419E+005    3.18235E+005    6.44960E+004   -3.14778E+005    4.34190E+004   -1.51126E+004   -2.21794E+005   -1.11768E+002   -3.46347E+003    1.16775E+005
            3010    3.09085E+005    6.26219E+004   -2.60843E+005    3.15066E+004   -2.60843E+005    3.23465E+005    5.55716E+004   -3.05531E+005    3.18615E+004   -1.03833E+004   -1.88193E+005   -2.55086E+003   -2.25160E+003    1.34890E+005
            3011    3.03532E+005    9.00636E+004   -2.41171E+005    2.36660E+004   -2.41171E+005    3.31234E+005    4.24803E+004   -2.86500E+005    2.39395E+004   -3.88240E+003   -1.47498E+005   -4.06181E+003   -1.56727E+003    1.49086E+005
            3012    3.02370E+005    1.13910E+005   -2.25552E+005    1.49020E+004   -2.25552E+005    3.39462E+005    3.22465E+004   -2.61992E+005    1.51839E+004   -2.47032E+003   -1.09453E+005   -5.98965E+003   -1.14354E+003    1.60904E+005
            3013    3.01412E+005    1.40609E+005   -2.04190E+005    9.24695E+003   -2.04190E+005    3.44800E+005    1.81114E+004   -2.21778E+005    9.42997E+003    6.65994E+002   -6.44301E+004   -6.88603E+003   -6.96345E+002    1.69136E+005
            3014    2.99840E+005    1.61203E+005   -1.84641E+005    2.35487E+003   -1.84641E+005    3.45844E+005    7.02761E+003   -1.55839E+005    2.44076E+003   -8.26667E+002   -2.26969E+004   -7.64000E+003   -4.11220E+002    1.72402E+005
            3015    3.01717E+005    1.87202E+005    1.87202E+005   -2.67699E+003   -1.60706E+005    3.47908E+005   -7.93953E+003    1.63027E+005   -2.72398E+003    1.22387E+003    2.53187E+004   -7.39315E+003   -4.78482E+001    1.73376E+005
            3016    2.99638E+005    2.05238E+005    2.05238E+005   -9.77684E+003   -1.37023E+005    3.42261E+005   -1.94794E+004    2.25601E+005   -9.94440E+003   -1.04678E+003    6.94294E+004   -6.88304E+003    3.56197E+002    1.67299E+005
            3017    3.12927E+005    4.93672E+004   -2.76637E+005    2.13253E+004   -2.76637E+005    3.26004E+005    6.86480E+004   -3.10081E+005    4.92342E+004   -2.91438E+004   -2.26034E+005    6.29613E+002   -4.75222E+003    1.11823E+005
            3018    3.09515E+005    4.83065E+004   -2.66300E+005    3.78585E+004   -2.66300E+005    3.14607E+005    6.00451E+004   -3.09118E+005    3.89100E+004   -2.14370E+004   -1.97608E+005   -1.14157E+003   -4.68044E+003    1.29641E+005
            3019    3.05743E+005    7.48568E+004   -2.51046E+005    2.94600E+004   -2.51046E+005    3.25903E+005    4.89099E+004   -2.98019E+005    3.00242E+004   -1.29654E+004   -1.63788E+005   -3.45887E+003   -4.08558E+003    1.44122E+005
            3020    3.06504E+005    9.92584E+004   -2.38883E+005    2.06852E+004   -2.38883E+005    3.38142E+005    3.96466E+004   -2.82481E+005    2.10971E+004   -9.05927E+003   -1.30978E+005   -4.97341E+003   -2.79191E+003    1.57477E+005
            3021    3.06419E+005    1.25387E+005   -2.21154E+005    1.39611E+004   -2.21154E+005    3.46541E+005    2.72686E+004   -2.54449E+005    1.43044E+004   -3.68952E+003   -9.24206E+004   -6.69932E+003   -1.84167E+003    1.67286E+005
            3022    3.06621E+005    1.46510E+005   -2.05031E+005    7.22025E+003   -2.05031E+005    3.51541E+005    1.71000E+004   -2.16124E+005    7.42699E+003   -2.88968E+003   -5.58373E+004   -7.58565E+003   -9.34082E+002    1.73575E+005
            3023    3.07666E+005    1.70753E+005   -1.84352E+005    2.34856E+003   -1.84352E+005    3.55105E+005    3.75030E+003   -1.37416E+005    2.39792E+003    6.12419E+002   -1.42613E+004   -8.17604E+003   -1.51336E+002    1.77207E+005
            3024    3.05479E+005    1.88518E+005    1.88518E+005   -3.87300E+003   -1.63718E+005    3.52236E+005   -6.97572E+003    1.65565E+005   -3.99118E+003   -1.26418E+002    2.50448E+004   -7.98829E+003    6.34674E+002    1.75480E+005
            3025    3.07083E+005    2.10963E+005    2.10963E+005   -8.97817E+003   -1.39881E+005    3.50843E+005   -2.07013E+004    2.30469E+005   -9.25818E+003    3.53737E+003    6.78246E+004   -7.38355E+003    1.50313E+003    1.72251E+005
            3026    3.08118E+005    4.29518E+004   -2.69062E+005    3.50058E+004   -2.69062E+005    3.12014E+005    6.37015E+004   -3.07887E+005    4.28691E+004   -3.37528E+004   -2.00221E+005   -5.20875E+001   -1.54030E+003    1.27269E+005
            3027    3.06998E+005    6.12036E+004   -2.58286E+005    3.44729E+004   -2.58286E+005    3.19489E+005    5.42030E+004   -3.04363E+005    3.45586E+004   -2.35424E+004   -1.73625E+005   -1.65438E+003   -2.06824E+002    1.40971E+005
            3028    3.09592E+005    8.54875E+004   -2.49774E+005    2.53137E+004   -2.49774E+005    3.35261E+005    4.63241E+004   -2.96003E+005    2.54509E+004   -1.77868E+004   -1.46637E+005   -3.83325E+003    2.21382E+002    1.54661E+005
            3029    3.11540E+005    1.11374E+005   -2.35990E+005    1.86896E+004   -2.35990E+005    3.47364E+005    3.53089E+004   -2.77886E+005    1.88387E+004   -1.08314E+004   -1.13934E+005   -5.49332E+003    2.71925E+002    1.65727E+005
            3030    3.14007E+005    1.33627E+005   -2.23086E+005    1.15480E+004   -2.23086E+005    3.56713E+005    2.59702E+004   -2.51637E+005    1.16993E+004   -7.65623E+003   -8.19535E+004   -7.10031E+003    1.57463E+002    1.74276E+005
            3031    3.16078E+005    1.57594E+005   -2.05661E+005    6.62414E+003   -2.05661E+005    3.63254E+005    1.38142E+004   -2.08571E+005    6.72481E+003   -2.82200E+003   -4.53455E+004   -8.08923E+003    6.22576E+001    1.80188E+005
            3032    3.15575E+005    1.76335E+005   -1.87974E+005    1.02264E+003   -1.87974E+005    3.64309E+005    3.53873E+003   -1.26886E+005    1.05679E+003   -1.39631E+003   -1.02767E+004   -8.54473E+003   -9.76960E+001    1.81899E+005
            3033    3.16029E+005    1.97693E+005    1.97693E+005   -3.36381E+003   -1.66572E+005    3.64264E+005   -9.25236E+003    1.78035E+005   -3.41010E+003    3.10358E+003    2.80636E+004   -8.33663E+003   -2.20919E+002    1.81510E+005
            3034    3.12246E+005    2.12688E+005    2.12688E+005   -9.27415E+003   -1.44356E+005    3.57044E+005   -1.96859E+004    2.31322E+005   -9.39062E+003    4.19399E+003    6.42542E+004   -7.54267E+003   -2.63842E+002    1.75802E+005
            3035    3.09028E+005    5.29607E+004   -2.62400E+005    3.98802E+004   -2.62400E+005    3.15361E+005    5.65196E+004   -3.08404E+005    4.01302E+004   -3.23249E+004   -1.77364E+005   -8.94243E+002   -2.01203E+003    1.39868E+005
            3036    3.12445E+005    7.38531E+004   -2.57429E+005    3.19511E+004   -2.57429E+005    3.31282E+005    5.05416E+004   -3.06028E+005    3.22482E+004   -2.64355E+004   -1.57437E+005   -2.71642E+003   -2.27448E+003    1.51978E+005
            3037    3.15834E+005    9.79285E+004   -2.48088E+005    2.46953E+004   -2.48088E+005    3.46017E+005    4.18215E+004   -2.95812E+005    2.50017E+004   -1.92089E+004   -1.31257E+005   -4.58944E+003   -1.77956E+003    1.63519E+005
            3038    3.20345E+005    1.20308E+005   -2.38915E+005    1.71198E+004   -2.38915E+005    3.59223E+005    3.38292E+004   -2.79107E+005    1.73804E+004   -1.48033E+004   -1.04065E+005   -6.18106E+003   -1.02395E+003    1.73808E+005
            3039    3.24234E+005    1.44559E+005   -2.25087E+005    1.12105E+004   -2.25087E+005    3.69645E+005    2.31058E+004   -2.50339E+005    1.14106E+004   -9.01485E+003   -7.17131E+004   -7.60863E+003   -5.35462E+002    1.81956E+005
            3040    3.26901E+005    1.65348E+005   -2.10729E+005    5.39808E+003   -2.10729E+005    3.76077E+005    1.33274E+004   -2.07361E+005    5.51434E+003   -5.73258E+003   -3.97640E+004   -8.55789E+003   -2.19214E+002    1.87063E+005
            3041    3.28700E+005    1.87216E+005   -1.92312E+005    9.37479E+002   -1.92312E+005    3.79528E+005    1.38635E+003   -1.04148E+005    9.49342E+002   -7.62999E+001   -5.03210E+003   -8.94395E+003    1.51665E+001    1.89537E+005
            3042    3.26230E+005    2.03699E+005    2.03699E+005   -4.28823E+003   -1.72291E+005    3.75990E+005   -9.04020E+003    1.85191E+005   -4.38058E+003    3.01528E+003    2.84859E+004   -8.72104E+003    2.22366E+002    1.87355E+005
            3043    3.24435E+005    2.21582E+005    2.21582E+005   -9.09833E+003   -1.49391E+005    3.70973E+005   -2.10307E+004    2.40449E+005   -9.28438E+003    8.96016E+003    6.34165E+004   -7.88495E+003    5.16590E+002    1.83284E+005
            3044    3.12099E+005    6.46712E+004   -2.60110E+005    3.75345E+004   -2.60110E+005    3.24782E+005    5.26349E+004   -3.09428E+005    3.75272E+004   -3.24132E+004   -1.63019E+005   -1.04079E+003    1.23968E+003    1.48676E+005
            3045    3.16604E+005    8.45720E+004   -2.55447E+005    3.08730E+004   -2.55447E+005    3.40019E+005    4.66673E+004   -3.06106E+005    3.08732E+004   -2.68979E+004   -1.43977E+005   -2.46592E+003    1.51681E+003    1.59587E+005
            3046    3.21565E+005    1.04605E+005   -2.49875E+005    2.30821E+004   -2.49875E+005    3.54480E+005    4.07290E+004   -2.96949E+005    2.31189E+004   -2.34934E+004   -1.21813E+005   -4.38563E+003    1.37695E+003    1.70214E+005
            3047    3.29510E+005    1.29184E+005   -2.41909E+005    1.63982E+004   -2.41909E+005    3.71094E+005    3.21090E+004   -2.80880E+005    1.64605E+004   -1.91756E+004   -9.36118E+004   -6.25528E+003    1.11644E+003    1.81652E+005
            3048    3.38049E+005    1.53366E+005   -2.32740E+005    1.00008E+004   -2.32740E+005    3.86106E+005    2.31244E+004   -2.54807E+005    1.00654E+004   -1.38856E+004   -6.55529E+004   -7.82627E+003    8.01599E+002    1.91146E+005
            3049    3.43044E+005    1.77326E+005   -2.17706E+005    5.12793E+003   -2.17706E+005    3.95032E+005    1.17507E+004   -2.07027E+005    5.17014E+003   -6.19296E+003   -3.42293E+004   -8.92022E+003    4.32285E+002    1.96813E+005
            3050    3.43344E+005    1.96572E+005   -1.99881E+005    2.40098E+002   -1.99881E+005    3.96453E+005    1.02325E+003   -8.75102E+004    2.47067E+002   -7.65174E+002   -2.55164E+003   -9.29506E+003   -8.69449E+000    1.98006E+005
            3051    3.43007E+005    2.15869E+005    2.15869E+005   -4.06111E+003   -1.79362E+005    3.95231E+005   -1.08156E+004    1.98589E+005   -4.09447E+003    6.26685E+003    3.02743E+004   -8.97945E+003   -4.20178E+002    1.97044E+005
            3052    3.37191E+005    2.29331E+005    2.29331E+005   -9.44063E+003   -1.56398E+005    3.85729E+005   -2.11643E+004    2.48101E+005   -9.50407E+003    1.18831E+004    6.11139E+004   -7.95029E+003   -7.40197E+002    1.91113E+005
            3053    3.56440E+005    2.44059E+005    2.44059E+005   -1.01205E+004   -1.63377E+005    4.07436E+005   -2.35204E+004    2.65519E+005   -1.01389E+004    1.90782E+004    6.16218E+004   -7.94048E+003   -1.19697E+003    2.02443E+005
            3054    3.63476E+005    2.30000E+005    2.30000E+005   -4.54995E+003   -1.88696E+005    4.18696E+005   -1.22515E+004    2.14901E+005   -4.55434E+003    9.71443E+003    3.15944E+004   -9.14266E+003   -7.43646E+002    2.08860E+005
            3055    3.66439E+005    2.11450E+005   -2.11678E+005    1.53598E+002   -2.11678E+005    4.23128E+005    2.47288E+001   -4.75858E+004    1.50721E+002   -1.57466E+002   -6.74410E+001   -9.50910E+003    3.69415E+001    2.11350E+005
            3056    3.63632E+005    1.87526E+005   -2.31249E+005    4.56250E+003   -2.31249E+005    4.18776E+005    1.30535E+004   -2.18336E+005    4.57171E+003   -1.09784E+004   -3.27538E+004   -9.13311E+003    7.13967E+002    2.08903E+005
            3057    3.55960E+005    1.62810E+005   -2.43963E+005    1.05054E+004   -2.43963E+005    4.06773E+005    2.35494E+004   -2.66298E+005    1.05178E+004   -1.91958E+004   -6.19702E+004   -7.93517E+003    1.28933E+003    2.02098E+005
            3058    3.43836E+005    1.34998E+005   -2.52350E+005    1.67850E+004   -2.52350E+005    3.87348E+005    3.35227E+004   -2.92577E+005    1.68096E+004   -2.77888E+004   -8.95887E+004   -6.31363E+003    1.47451E+003    1.91078E+005
            3059    3.26586E+005    1.06051E+005   -2.53701E+005    2.41168E+004   -2.53701E+005    3.59751E+005    4.11777E+004   -3.02136E+005    2.41502E+004   -3.40075E+004   -1.13676E+005   -4.40977E+003    1.30556E+003    1.75340E+005
            3060    3.12823E+005    8.21985E+004   -2.52767E+005    3.17900E+004   -2.52767E+005    3.34966E+005    4.62596E+004   -3.03483E+005    3.18315E+004   -3.18614E+004   -1.38749E+005   -2.84242E+003    9.30127E+002    1.58684E+005
            3061    3.14115E+005    7.20641E+004   -2.57105E+005    3.94029E+004   -2.57105E+005    3.29169E+005    4.85460E+004   -3.10260E+005    3.94409E+004   -2.73659E+004   -1.57713E+005   -1.33997E+003   -3.20713E+001    1.51108E+005
            3062    4.06184E+005    8.87144E+004   -3.58642E+005   -1.29424E+004   -3.58642E+005    4.47357E+005    9.42901E+004   -3.75931E+005    8.82810E+004   -2.14487E+004   -3.49703E+005    3.27449E+003   -1.33654E+004    5.35623E+004
            3063    3.76308E+005    7.81418E+004   -3.35871E+005   -1.46162E+004   -3.35871E+005    4.14013E+005    9.07818E+004   -3.49169E+005    7.78434E+004   -2.90867E+004   -3.21102E+005    3.44816E+003   -1.03339E+004    6.66316E+004
            3064    3.45368E+005    6.86346E+004   -3.09719E+005   -1.13830E+004   -3.09719E+005    3.78353E+005    8.41557E+004   -3.23511E+005    6.84604E+004   -3.39925E+004   -2.86935E+005    3.35449E+003   -6.94478E+003    7.89715E+004
            3065    3.23361E+005    5.93093E+004   -2.91088E+005   -4.17987E+003   -2.91088E+005    3.50397E+005    7.86527E+004   -3.08868E+005    5.92159E+004   -4.13050E+004   -2.53869E+005    2.75522E+003   -4.63215E+003    9.62987E+004
            3066    3.09718E+005    5.23419E+004   -2.75156E+005    1.30275E+004   -2.75156E+005    3.27498E+005    6.99290E+004   -3.04028E+005    5.23049E+004   -4.19289E+004   -2.20163E+005    1.86685E+003   -2.34098E+003    1.13219E+005
            3067    3.09185E+005    4.69646E+004   -2.68242E+005    3.45454E+004   -2.68242E+005    3.15207E+005    6.22441E+004   -3.08623E+005    4.69559E+004   -4.05525E+004   -1.93136E+005    8.60971E+002   -1.18969E+003    1.30763E+005
            3068    3.12078E+005    5.51670E+004   -2.62518E+005    4.36329E+004   -2.62518E+005    3.17685E+005    5.45727E+004   -3.11598E+005    4.36327E+004   -3.36777E+004   -1.73673E+005   -1.32481E+002    2.88481E+002    1.42588E+005
            3069    3.87844E+005    3.45620E+005    3.45620E+005   -1.18858E+004   -6.67247E+004    4.12345E+005   -8.90033E+004    3.78975E+005   -6.60375E+004    5.30851E+003    3.27739E+005    3.96605E+003    1.63283E+004    7.64209E+004
            3070    3.54664E+005    3.09253E+005    3.09253E+005   -4.21747E+004   -4.85609E+004    3.57814E+005   -7.28391E+004    3.54535E+005   -4.70824E+004   -9.33654E+003    2.74936E+005    1.29391E+003    1.17422E+004    1.03926E+005
            3071    3.35307E+005    2.82644E+005    2.82644E+005   -2.98540E+004   -7.15682E+004    3.54212E+005   -6.04072E+004    3.29393E+005   -3.02380E+004   -8.84924E+003    2.20309E+005   -1.27035E+003    8.65498E+003    1.34572E+005
            3072    3.13964E+005    2.44092E+005    2.44092E+005   -1.91408E+004   -1.03405E+005    3.47497E+005   -4.05156E+004    2.86823E+005   -1.96561E+004   -1.20141E+004    1.53217E+005   -4.48463E+003    5.60263E+003    1.52530E+005
            3073    4.17099E+005    3.63267E+005    3.63267E+005   -2.02025E+004   -8.08268E+004    4.44094E+005   -8.74126E+004    4.07010E+005   -7.95272E+004   -8.64418E+003    3.50409E+005    4.45796E+003    2.35593E+004    6.54538E+004
            3074    3.84223E+005    3.35554E+005    3.35554E+005   -4.00720E+004   -5.67235E+004    3.92278E+005   -7.95862E+004    3.83409E+005   -5.51369E+004   -9.40743E+003    3.03303E+005    2.83845E+003    1.99410E+004    1.03651E+005
            3075    3.49260E+005    2.91805E+005    2.91805E+005   -3.89022E+004   -7.34413E+004    3.65247E+005   -5.98206E+004    3.45387E+005   -3.89946E+004   -1.89535E+004    2.37410E+005    9.57873E+002    1.50054E+004    1.29155E+005
            3076    3.31688E+005    2.63015E+005    2.63015E+005   -2.22259E+004   -1.00954E+005    3.63969E+005   -4.66118E+004    3.09602E+005   -2.25996E+004   -1.14348E+004    1.73870E+005   -1.99798E+003    1.02617E+004    1.56160E+005
            3077    4.49835E+005    3.98331E+005    3.98331E+005   -1.56918E+004   -8.03233E+004    4.78655E+005   -1.00772E+005    4.39206E+005   -7.92793E+004   -4.76691E+003    3.86363E+005    5.26062E+003    2.12592E+004    6.64184E+004
            3078    4.07004E+005    3.54752E+005    3.54752E+005   -4.34113E+004   -6.05524E+004    4.15304E+005   -8.35960E+004    4.06191E+005   -5.97801E+004   -1.75915E+004    3.28160E+005    4.37591E+003    1.73259E+004    9.79523E+004
            3079    3.78665E+005    3.24154E+005    3.24154E+005   -4.04505E+004   -6.71585E+004    3.91312E+005   -7.21816E+004    3.76537E+005   -3.99681E+004   -1.42798E+004    2.70793E+005    3.76381E+003    1.45312E+004    1.33494E+005
            3080    3.42323E+005    2.73656E+005    2.73656E+005   -2.73471E+004   -9.87312E+004    3.72387E+005   -4.91925E+004    3.24939E+005   -2.72145E+004   -1.65688E+004    1.91361E+005    1.37782E+003    1.04064E+004    1.54157E+005
            3081    4.79326E+005    4.15675E+005    4.15675E+005   -2.64195E+004   -9.37599E+004    5.09435E+005   -9.84986E+004    4.68506E+005   -9.22305E+004   -1.77604E+004    4.05487E+005    5.61845E+003    2.69177E+004    6.13234E+004
            3082    4.43250E+005    3.89769E+005    3.89769E+005   -3.80516E+004   -6.74483E+004    4.57217E+005   -9.47562E+004    4.41049E+005   -6.60998E+004   -1.05546E+004    3.60923E+005    6.05451E+003    2.40256E+004    1.04745E+005
            3083    3.93443E+005    3.34458E+005    3.34458E+005   -5.10704E+004   -6.64472E+004    4.00906E+005   -7.23136E+004    3.92766E+005   -5.00181E+004   -1.91082E+004    2.86067E+005    6.61177E+003    1.90842E+004    1.29168E+005
            3084    3.68582E+005    3.02930E+005    3.02930E+005   -3.13015E+004   -9.23740E+004    3.95304E+005   -5.97514E+004    3.56931E+005   -3.07167E+004   -1.23757E+004    2.22347E+005    5.03319E+003    1.37086E+004    1.58616E+005
            3085    5.17342E+005    4.65429E+005    4.65429E+005   -1.32818E+004   -8.33922E+004    5.48822E+005   -1.22918E+005    5.06488E+005   -8.25236E+004   -6.36385E+002    4.51915E+005    6.35545E+003    1.92019E+004    7.71325E+004
            3086    4.59482E+005    4.05678E+005    4.05678E+005   -3.34067E+004   -7.17924E+004    4.77471E+005   -1.00160E+005    4.55854E+005   -7.07438E+004   -7.84193E+003    3.79065E+005    7.70674E+003    1.82745E+004    1.03203E+005
            3087    4.26516E+005    3.74331E+005    3.74331E+005   -4.82798E+004   -5.59858E+004    4.30317E+005   -9.00219E+004    4.26360E+005   -5.09400E+004   -5.93870E+003    3.26944E+005    1.02527E+004    1.76465E+004    1.32728E+005
            3088    3.84401E+005    3.20381E+005    3.20381E+005   -3.69785E+004   -8.63000E+004    4.06681E+005   -6.57009E+004    3.77184E+005   -3.64170E+004   -1.30221E+004    2.46542E+005    9.54141E+003    1.34335E+004    1.55945E+005
            3089    5.16268E+005    4.57657E+005    4.57657E+005   -1.27771E+004   -9.46571E+004    5.52315E+005   -1.16741E+005    5.01346E+005   -9.34104E+004    1.49648E+003    4.42137E+005    7.26090E+003    2.42009E+004    8.08817E+004
            3090    4.78859E+005    4.34366E+005    4.34366E+005   -1.15503E+004   -7.17432E+004    5.06110E+005   -1.17024E+005    4.70235E+005   -7.07537E+004    1.29596E+004    4.08867E+005    7.92138E+003    1.89646E+004    1.01891E+005
            3091    4.44458E+005    3.91998E+005    3.91998E+005   -4.22708E+004   -6.19920E+004    4.53990E+005   -9.59118E+004    4.43472E+005   -5.92231E+004   -3.72331E+003    3.50682E+005    1.14069E+004    1.61676E+004    1.26512E+005
            3092    4.14924E+005    3.60179E+005    3.60179E+005   -3.79644E+004   -6.97018E+004    4.29881E+005   -8.41711E+004    4.12180E+005   -3.87944E+004    1.38112E+003    2.89927E+005    1.28515E+004    1.23764E+004    1.57842E+005
            3093    5.19401E+005    4.83530E+005    4.83530E+005    2.72579E+004   -8.17103E+004    5.65241E+005   -1.43026E+005    4.92689E+005   -8.09304E+004    4.20889E+004    4.67919E+005    9.02363E+003    1.37496E+004    8.18853E+004
            3094    4.99834E+005    4.51925E+005    4.51925E+005   -9.97077E+003   -7.87280E+004    5.30653E+005   -1.21076E+005    4.89025E+005   -7.71605E+004    8.26468E+003    4.32122E+005    1.16666E+004    1.35064E+004    9.25882E+004
            3095    4.69744E+005    4.33660E+005    4.33660E+005   -1.25916E+004   -5.64939E+004    4.90154E+005   -1.21525E+005    4.65095E+005   -5.40736E+004    2.36716E+004    3.94977E+005    1.29121E+004    1.08305E+004    1.25205E+005
            3096    4.26591E+005    3.84743E+005    3.84743E+005   -2.96602E+004   -5.30718E+004    4.37815E+005   -1.00670E+005    4.25142E+005   -3.94584E+004    1.71004E+004    3.24369E+005    1.56777E+004    7.79703E+003    1.48401E+005
            3097    4.41689E+005    4.35742E+005    4.35742E+005    2.67476E+004   -3.26330E+004    4.68375E+005   -1.43286E+005    4.32572E+005   -2.94923E+004    7.81912E+004    3.81158E+005    1.47397E+004    1.79607E+003    1.39545E+005
            3098    4.84787E+005    4.63589E+005    4.63589E+005    2.48844E+004   -5.68818E+004    5.20471E+005   -1.43864E+005    4.68896E+005   -5.54766E+004    5.68950E+004    4.30173E+005    1.18567E+004    4.22853E+003    1.16381E+005
            3099    5.30096E+005    4.95936E+005    4.95936E+005    1.97360E+004   -7.52210E+004    5.71157E+005   -1.46817E+005    5.10433E+005   -7.44781E+004    4.62331E+004    4.68696E+005    9.48001E+003    7.47115E+003    1.10337E+005
            3100    5.70219E+005    5.04285E+005    5.04285E+005   -2.58732E+004   -9.89496E+004    6.03235E+005   -1.26487E+005    5.59539E+005   -9.84035E+004   -1.47028E+004    4.92568E+005    6.13269E+003    1.28078E+004    7.69328E+004
            3101    4.29958E+005    3.78410E+005    3.78410E+005    9.71013E+003   -9.38805E+004    4.72290E+005   -9.80798E+004    4.00411E+005   -9.27811E+004    1.51105E+004    3.71910E+005    4.43785E+003    2.20866E+004    4.43451E+004
            3102    4.59984E+005    4.04339E+005    4.04339E+005    1.37123E+004   -1.02653E+005    5.06992E+005   -1.05133E+005    4.24933E+005   -1.01313E+005    1.72438E+004    3.99467E+005    4.08948E+003    2.55350E+004    3.70296E+004
            3103    4.90266E+005    4.22708E+005    4.22708E+005   -1.80817E+003   -1.13896E+005    5.36604E+005   -1.02335E+005    4.60093E+005   -1.12515E+005   -4.83033E+002    4.20002E+005    3.82823E+003    2.65434E+004    2.40635E+004
            3104    5.25833E+005    4.60240E+005    4.60240E+005    1.49623E+003   -1.13612E+005    5.73852E+005   -1.16041E+005    4.96284E+005   -1.12449E+005    3.69982E+003    4.56874E+005    3.77994E+003    2.52084E+004    3.19289E+004
            3105    5.43786E+005    4.75433E+005    4.75433E+005   -6.49642E+003   -1.14116E+005    5.89549E+005   -1.18273E+005    5.19008E+005   -1.13252E+005   -4.79287E+003    4.72865E+005    4.01203E+003    2.14481E+004    2.91420E+004
            3106    5.88689E+005    5.41050E+005    5.41050E+005    1.83306E+004   -9.66446E+004    6.37695E+005   -1.54245E+005    5.62590E+005   -9.60699E+004    2.51444E+004    5.33662E+005    3.94322E+003    1.83187E+004    5.93832E+004
            3107    5.61232E+005    5.22094E+005    5.22094E+005    3.80414E+004   -9.30964E+004    6.15190E+005   -1.55680E+005    5.25075E+005   -9.26938E+004    4.73573E+004    5.12375E+005    5.49380E+003    1.29919E+004    6.68385E+004
            3108    3.78685E+005    3.65011E+005    3.65011E+005    2.37710E+003   -2.79068E+004    3.92917E+005   -1.13160E+005    3.75946E+005   -1.38027E+004    6.72487E+004    2.86035E+005    1.71211E+004    2.76883E+002    1.53137E+005
            3109    3.34011E+005    2.85294E+005    2.85294E+005    2.73118E+002   -8.22394E+004    3.67533E+005   -6.77759E+004    3.09810E+005   -2.35868E+003    4.22170E+004    1.63469E+005    1.89693E+004   -1.23102E+002    1.71648E+005
            3110    3.08119E+005    1.76756E+005   -1.79029E+005   -9.56469E+002   -1.79029E+005    3.55785E+005    1.07673E+003   -3.71758E+004   -9.38442E+002    3.55609E+002   -2.64736E+003    1.93851E+004   -1.04617E+001    1.76827E+005
            3111    3.29323E+005    8.27864E+004   -2.79834E+005    6.39542E+002   -2.79834E+005    3.62621E+005    6.54694E+004   -3.04967E+005    3.29459E+003   -4.11659E+004   -1.58537E+005    1.89646E+004    2.40687E+002    1.69709E+005
            3112    3.85718E+005    2.49649E+004   -3.74949E+005   -5.19779E+003   -3.74949E+005    3.99914E+005    1.18394E+005   -3.83051E+005    1.13873E+004   -6.97921E+004   -2.96777E+005    1.69055E+004   -2.06787E+002    1.54253E+005
            3113    4.35730E+005    3.44118E+004   -4.29323E+005   -2.84210E+004   -4.29323E+005    4.63735E+005    1.41111E+005   -4.25358E+005    3.13493E+004   -7.46162E+004   -3.80066E+005    1.47984E+004   -1.54134E+003    1.32037E+005
            3114    4.89606E+005    5.26247E+004   -4.74622E+005   -3.43025E+004   -4.74622E+005    5.27247E+005    1.52100E+005   -4.71773E+005    5.13585E+004   -6.73377E+004   -4.40321E+005    1.16244E+004   -4.17574E+003    1.18010E+005
            3115    5.26292E+005    7.45158E+004   -4.94109E+005   -2.41012E+004   -4.94109E+005    5.68625E+005    1.47898E+005   -5.04873E+005    7.37499E+004   -4.28168E+004   -4.74627E+005    9.47756E+003   -7.93517E+003    9.33488E+004
            3116    5.44356E+005    8.01752E+004   -5.15177E+005   -4.28865E+004   -5.15177E+005    5.95353E+005    1.59296E+005   -5.11635E+005    7.99820E+004   -5.55702E+004   -5.02301E+005    4.58621E+003   -7.12513E+003    7.66173E+004
            3117    3.93209E+005    3.39262E+005    3.39262E+005   -1.86647E+004   -8.16306E+004    4.20893E+005   -7.96557E+004    3.81619E+005   -2.08333E+004    1.97035E+004    2.40097E+005    1.70132E+004    4.79856E+003    1.77507E+005
            3118    3.76854E+005    3.01880E+005    3.01880E+005   -2.64171E+004   -1.09625E+005    4.11505E+005   -5.52794E+004    3.55294E+005   -2.65559E+004   -2.91443E+003    1.95308E+005    1.41260E+004    8.30378E+003    1.79514E+005
            3119    3.62541E+005    2.81966E+005    2.81966E+005   -2.15406E+004   -1.19485E+005    4.01451E+005   -4.69803E+004    3.30755E+005   -2.11068E+004   -6.34246E+003    1.68390E+005    1.02832E+004    9.23064E+003    1.80309E+005
            3120    3.37378E+005    2.49940E+005    2.49940E+005   -2.05888E+004   -1.28088E+005    3.78029E+005   -3.37545E+004    2.94985E+005   -2.02240E+004   -1.23468E+004    1.33834E+005    5.07408E+003    8.59016E+003    1.74110E+005
            3121    3.29007E+005    2.41536E+005    2.41536E+005   -1.41954E+004   -1.29633E+005    3.71169E+005   -3.25694E+004    2.77627E+005   -1.41464E+004   -8.14244E+003    1.19997E+005    8.00115E+002    6.38658E+003    1.74065E+005
            3122    3.11017E+005    2.19600E+005    2.19600E+005   -1.36884E+004   -1.33505E+005    3.53105E+005   -2.41357E+004    2.50580E+005   -1.39504E+004   -1.07948E+004    9.71522E+004   -3.08062E+003    5.94440E+003    1.67923E+005
            3123    3.09357E+005    2.19186E+005    2.19186E+005   -9.14326E+003   -1.32887E+005    3.52074E+005   -2.57185E+004    2.43522E+005   -9.47294E+003   -4.85293E+003    9.14815E+004   -5.79960E+003    2.99025E+003    1.69142E+005
            3124    3.55845E+005    2.64476E+005    2.64476E+005   -1.00046E+004   -1.37568E+005    4.02044E+005   -3.89677E+004    2.97459E+005   -1.08997E+004    8.81575E+003    1.18987E+005    1.90683E+004    2.19639E+003    1.92200E+005
            3125    3.58006E+005    2.52977E+005    2.52977E+005   -1.02527E+004   -1.54682E+005    4.07660E+005   -2.93475E+004    2.80210E+005   -1.03135E+004    9.58602E+002    9.73973E+004    1.54776E+004    3.87260E+003    1.97391E+005
            3126    3.38850E+005    2.25118E+005    2.25118E+005   -9.63901E+003   -1.63344E+005    3.88462E+005   -1.73780E+004    2.39240E+005   -9.44722E+003   -5.32580E+003    6.69072E+004    1.02486E+004    3.84154E+003    1.90550E+005
            3127    3.29943E+005    2.15704E+005    2.15704E+005   -5.97865E+003   -1.63475E+005    3.79179E+005   -1.54165E+004    2.17920E+005   -5.86107E+003   -2.76316E+003    5.48737E+004    4.45294E+003    3.20219E+003    1.87316E+005
            3128    3.13495E+005    1.96067E+005    1.96067E+005   -5.43144E+003   -1.65120E+005    3.61187E+005   -8.50522E+003    1.82986E+005   -5.43804E+003   -4.83027E+003    3.57840E+004   -2.80393E+002    2.05236E+003    1.79436E+005
            3129    3.09480E+005    1.93888E+005    1.93888E+005   -2.70544E+003   -1.62848E+005    3.56736E+005   -9.44500E+003    1.73388E+005   -2.81888E+003   -1.26281E+003    3.24167E+004   -4.34664E+003    1.87918E+003    1.77502E+005
            3130    3.00128E+005    1.82854E+005    1.82854E+005   -3.19026E+003   -1.63383E+005    3.46237E+005   -5.42700E+003    1.51603E+005   -3.28333E+003   -3.16520E+003    2.27295E+004   -7.04217E+003    6.10668E+002    1.72485E+005
            3131    3.48123E+005    1.98133E+005   -2.03812E+005    1.54409E+003   -2.03812E+005    4.01946E+005    1.37825E+003   -1.16799E+005    1.55702E+003    1.53370E+002   -5.84514E+003    1.88736E+004   -2.80091E+002    2.00062E+005
            3132    3.47372E+005    1.88269E+005   -2.12563E+005    8.20491E+002   -2.12563E+005    4.00831E+005    7.82449E+003   -1.67335E+005    8.53710E+002   -1.00288E+003   -2.33243E+004    1.52094E+004   -7.02761E+002    1.99523E+005
            3133    3.39630E+005    1.84079E+005   -2.07665E+005    4.02782E+003   -2.07665E+005    3.91745E+005    6.51934E+003   -1.76076E+005    3.95808E+003    2.66893E+003   -2.61850E+004    1.02808E+004   -1.45778E+003    1.95067E+005
            3134    3.25393E+005    1.68637E+005   -2.06229E+005    3.28501E+003   -2.06229E+005    3.74865E+005    1.14357E+004   -1.91027E+005    3.21438E+003    1.64872E+003   -3.91702E+004    4.68746E+003   -1.93818E+003    1.86253E+005
            3135    3.17326E+005    1.66841E+005   -1.98749E+005    5.34817E+003   -1.98749E+005    3.65590E+005    8.85354E+003   -1.85630E+005    5.34749E+003    4.94340E+003   -3.68515E+004    2.98867E+001   -2.23730E+003    1.81583E+005
            3136    3.06425E+005    1.56457E+005   -1.96337E+005    3.47797E+003   -1.96337E+005    3.52794E+005    1.21341E+004   -1.87058E+005    3.59054E+003    2.69080E+003   -4.26836E+004   -3.97423E+003   -1.94694E+003    1.74869E+005
            3137    3.03622E+005    1.59265E+005   -1.90543E+005    4.66132E+003   -1.90543E+005    3.49808E+005    8.87237E+003   -1.77378E+005    4.84731E+003    4.47946E+003   -3.59439E+004   -6.67287E+003   -1.63797E+003    1.73586E+005
            3138    3.62140E+005    1.25523E+005   -2.80643E+005    8.56346E+003   -2.80643E+005    4.06166E+005    4.88523E+004   -3.15245E+005    9.65588E+003   -1.18005E+004   -1.44412E+005    1.88892E+004   -2.54866E+003    1.90756E+005
            3139    3.61371E+005    1.39232E+005   -2.67746E+005    1.55262E+004   -2.67746E+005    4.06979E+005    3.76627E+004   -3.08024E+005    1.56745E+004    1.12538E+003   -1.29788E+005    1.54639E+004   -5.04634E+003    1.91955E+005
            3140    3.50471E+005    1.35035E+005   -2.59672E+005    1.50422E+004   -2.59672E+005    3.94707E+005    3.65315E+004   -2.98716E+005    1.47298E+004    5.37724E+003   -1.29702E+005    1.05278E+004   -6.86816E+003    1.85075E+005
            3141    3.37959E+005    1.36709E+005   -2.44940E+005    1.64143E+004   -2.44940E+005    3.81649E+005    3.06056E+004   -2.83409E+005    1.61332E+004    1.05232E+004   -1.18473E+005    4.91432E+003   -7.01588E+003    1.79444E+005
            3142    3.25267E+005    1.28979E+005   -2.38263E+005    1.35383E+004   -2.38263E+005    3.67242E+005    3.19154E+004   -2.73116E+005    1.35110E+004    9.49313E+003   -1.18750E+005    4.44051E+002   -6.46309E+003    1.71945E+005
            3143    3.14812E+005    1.31612E+005   -2.25196E+005    1.33942E+004   -2.25196E+005    3.56808E+005    2.67300E+004   -2.57241E+005    1.36868E+004    1.08692E+004   -1.04746E+005   -3.46649E+003   -5.75323E+003    1.68593E+005
            3144    3.06758E+005    1.26823E+005   -2.21134E+005    1.02466E+004   -2.21134E+005    3.47956E+005    2.80215E+004   -2.49053E+005    1.06908E+004    6.88040E+003   -1.01636E+005   -6.08266E+003   -3.85822E+003    1.65066E+005
            3145    3.92545E+005    7.29113E+004   -3.42671E+005    2.18353E+004   -3.42671E+005    4.15583E+005    8.26416E+004   -3.84962E+005    2.47182E+004   -1.97391E+004   -2.52904E+005    1.69369E+004   -5.18040E+003    1.69747E+005
            3146    3.92255E+005    9.04396E+004   -3.29020E+005    2.87113E+004   -3.29020E+005    4.19460E+005    6.99564E+004   -3.81098E+005    2.91423E+004   -2.25360E+003   -2.36758E+005    1.39613E+004   -9.34344E+003    1.72894E+005
            3147    3.75042E+005    1.00766E+005   -3.04373E+005    3.06853E+004   -3.04373E+005    4.05139E+005    5.76404E+004   -3.59866E+005    3.01823E+004    9.48051E+003   -2.12584E+005    1.04086E+004   -1.16584E+004    1.68904E+005
            3148    3.60170E+005    9.99431E+004   -2.90622E+005    2.84223E+004   -2.90622E+005    3.90565E+005    5.40855E+004   -3.43644E+005    2.78661E+004    1.28538E+004   -2.02976E+005    5.74149E+003   -1.21047E+004    1.62415E+005
            3149    3.42789E+005    1.02900E+005   -2.71671E+005    2.64118E+004   -2.71671E+005    3.74572E+005    4.74530E+004   -3.22740E+005    2.62216E+004    1.55944E+004   -1.84175E+005    1.89336E+003   -1.04593E+004    1.58136E+005
            3150    3.28512E+005    1.00497E+005   -2.60053E+005    2.23131E+004   -2.60053E+005    3.60550E+005    4.57477E+004   -3.06513E+005    2.25898E+004    1.33309E+004   -1.73164E+005   -1.57412E+003   -9.75444E+003    1.53877E+005
            3151    3.15656E+005    1.03072E+005   -2.45850E+005    1.98777E+004   -2.45850E+005    3.48921E+005    4.09668E+004   -2.89409E+005    2.03758E+004    1.13400E+004   -1.54616E+005   -4.08054E+003   -6.16886E+003    1.53136E+005
            3152    4.35983E+005    4.56694E+004   -4.01951E+005    2.13804E+004   -4.01951E+005    4.47620E+005    1.11634E+005   -4.34457E+005    3.74461E+004   -2.62826E+004   -3.46065E+005    1.51247E+004   -7.65117E+003    1.44359E+005
            3153    4.23139E+005    6.07631E+004   -3.71258E+005    4.24003E+004   -3.71258E+005    4.32021E+005    8.93649E+004   -4.22241E+005    4.48929E+004   -9.00363E+002   -3.12087E+005    1.25285E+004   -1.27598E+004    1.47086E+005
            3154    4.08550E+005    6.72950E+004   -3.53216E+005    4.22175E+004   -3.53216E+005    4.20511E+005    8.12344E+004   -4.06813E+005    4.18288E+004    8.80365E+003   -2.94336E+005    9.67727E+003   -1.54328E+004    1.44824E+005
            3155    3.85249E+005    7.57009E+004   -3.24936E+005    4.28176E+004   -3.24936E+005    4.00637E+005    6.88058E+004   -3.82073E+005    4.20501E+004    1.73207E+004   -2.65788E+005    5.47849E+003   -1.64100E+004    1.41133E+005
            3156    3.68523E+005    7.43009E+004   -3.11658E+005    3.65180E+004   -3.11658E+005    3.85959E+005    6.69465E+004   -3.64128E+005    3.62229E+004    1.67655E+004   -2.53828E+005    2.49197E+003   -1.37260E+004    1.37066E+005
            3157    3.44388E+005    7.76178E+004   -2.86248E+005    3.46254E+004   -2.86248E+005    3.63865E+005    5.80014E+004   -3.38271E+005    3.49702E+004    1.65680E+004   -2.25543E+005   -3.56514E+002   -1.35642E+004    1.34955E+005
            3158    3.30796E+005    7.53638E+004   -2.76614E+005    2.78654E+004   -2.76614E+005    3.51977E+005    5.77948E+004   -3.22990E+005    2.84467E+004    1.05001E+004   -2.12331E+005   -2.44069E+003   -8.45890E+003    1.35669E+005
            3159    4.69288E+005    6.05588E+004   -4.33689E+005    5.84155E+003   -4.33689E+005    4.94248E+005    1.22430E+005   -4.62030E+005    5.84256E+004   -2.55177E+004   -4.00197E+005    1.30484E+004   -1.07447E+004    1.16177E+005
            3160    4.61551E+005    6.30561E+004   -4.15351E+005    2.72599E+004   -4.15351E+005    4.78407E+005    1.08345E+005   -4.58413E+005    6.13595E+004   -7.83724E+003   -3.78557E+005    1.09097E+004   -1.65956E+004    1.21067E+005
            3161    4.41689E+005    6.26394E+004   -3.88032E+005    4.40896E+004   -3.88032E+005    4.50672E+005    9.37678E+004   -4.40811E+005    6.06407E+004    8.45907E+003   -3.50403E+005    1.00825E+004   -1.82100E+004    1.20497E+005
            3162    4.21197E+005    5.95918E+004   -3.65935E+005    5.07934E+004   -3.65935E+005    4.25527E+005    8.51833E+004   -4.20990E+005    5.82885E+004    1.60363E+004   -3.29875E+005    7.38095E+003   -2.16269E+004    1.15159E+005
            3163    3.92086E+005    5.35437E+004   -3.39011E+005    5.26056E+004   -3.39011E+005    3.92554E+005    7.76204E+004   -3.92084E+005    5.24526E+004    1.71277E+004   -3.02442E+005    4.79610E+003   -1.65911E+004    1.12806E+005
            3164    3.72217E+005    5.46895E+004   -3.20986E+005    4.76738E+004   -3.20986E+005    3.75675E+005    7.28741E+004   -3.72068E+005    4.87860E+004    1.47800E+004   -2.82188E+005    2.72073E+003   -1.79981E+004    1.12703E+005
            3165    3.45539E+005    5.27034E+004   -2.98425E+005    4.12394E+004   -2.98425E+005    3.51128E+005    6.81606E+004   -3.45110E+005    4.18081E+004    9.66673E+003   -2.55957E+005    7.53858E+002   -1.08847E+004    1.13891E+005
            3166    5.01513E+005    6.91204E+004   -4.67983E+005   -1.19324E+004   -4.67983E+005    5.37103E+005    1.36932E+005   -4.86449E+005    6.82121E+004   -3.19423E+004   -4.47064E+005    9.44755E+003   -1.21273E+004    9.46450E+004
            3167    4.87933E+005    7.61436E+004   -4.39487E+005    1.49813E+004   -4.39487E+005    5.15631E+005    1.16121E+005   -4.79195E+005    7.53422E+004   -6.58850E+003   -4.17116E+005    6.69456E+003   -1.77662E+004    9.68109E+004
            3168    4.80169E+005    7.35239E+004   -4.29514E+005    2.39401E+004   -4.29514E+005    5.03037E+005    1.10683E+005   -4.74358E+005    7.26535E+004    4.06917E+003   -4.08772E+005    6.48574E+003   -1.84180E+004    9.30278E+004
            3169    4.48694E+005    7.72911E+004   -3.92106E+005    3.25318E+004   -3.92106E+005    4.69397E+005    9.40942E+004   -4.43630E+005    7.59916E+004    1.32365E+004   -3.71511E+005    5.28683E+003   -2.40903E+004    8.82956E+004
            3170    4.27778E+005    6.76728E+004   -3.77188E+005    3.11691E+004   -3.77188E+005    4.44860E+005    9.27819E+004   -4.24253E+005    6.67902E+004    1.18099E+004   -3.56946E+005    4.50768E+003   -1.92637E+004    8.66836E+004
            3171    3.93672E+005    6.70391E+004   -3.43461E+005    3.08897E+004   -3.43461E+005    4.10500E+005    8.18439E+004   -3.89911E+005    6.58401E+004    9.93797E+003   -3.21310E+005    3.22394E+003   -2.10758E+004    8.61126E+004
            3172    3.72004E+005    5.55630E+004   -3.29744E+005    2.73514E+004   -3.29744E+005    3.85307E+005    8.22764E+004   -3.69586E+005    5.49715E+004    1.92742E+003   -3.03728E+005    2.45292E+003   -1.40397E+004    9.18792E+004
            3173    5.32807E+005    9.35218E+004   -4.84770E+005   -1.37782E+004   -4.84770E+005    5.78291E+005    1.35009E+005   -5.07637E+005    9.21414E+004   -2.72121E+004   -4.69955E+005    1.17197E+004   -1.89124E+004    8.01844E+004
            3174    5.26446E+005    8.97715E+004   -4.75228E+005    1.50641E+003   -4.75228E+005    5.65000E+005    1.27983E+005   -5.09399E+005    8.88204E+004   -9.60373E+003   -4.63167E+005    7.61299E+003   -1.91233E+004    7.26316E+004
            3175    5.08231E+005    9.64312E+004   -4.47809E+005    1.44460E+004   -4.47809E+005    5.44240E+005    1.12310E+005   -4.93024E+005    9.52685E+004    4.92081E+003   -4.37121E+005    7.48456E+003   -2.17753E+004    6.63514E+004
            3176    4.92930E+005    9.44801E+004   -4.31909E+005    1.88118E+004   -4.31909E+005    5.26389E+005    1.06206E+005   -4.79602E+005    9.31507E+004    1.08471E+004   -4.22615E+005    5.77344E+003   -2.51331E+004    5.95724E+004
            3177    4.54803E+005    9.14130E+004   -3.96675E+005    1.52188E+004   -3.96675E+005    4.88088E+005    9.66811E+004   -4.40099E+005    9.01368E+004    7.80423E+003   -3.87984E+005    5.64925E+003   -2.36254E+004    5.49614E+004
            3178    4.30078E+005    8.38858E+004   -3.78052E+005    1.07995E+004   -3.78052E+005    4.61938E+005    9.44556E+004   -4.15761E+005    8.26546E+004    8.33876E+002   -3.66855E+005    4.72115E+003   -2.32454E+004    6.13852E+004
            3179    3.96362E+005    7.56700E+004   -3.49996E+005    8.47246E+003   -3.49996E+005    4.25666E+005    8.86177E+004   -3.83231E+005    7.48105E+004   -4.10075E+003   -3.36563E+005    4.57565E+003   -1.83955E+004    6.59089E+004
            3180    4.34189E+005    9.45103E+004   -3.83991E+005   -1.51363E+004   -3.83991E+005    4.78501E+005    1.01539E+005   -4.01227E+005    9.34158E+004   -2.05538E+004   -3.77479E+005    4.40255E+003   -2.22221E+004    4.44105E+004
            3181    4.62950E+005    1.06568E+005   -4.03454E+005   -9.76731E+003   -4.03454E+005    5.10022E+005    1.02218E+005   -4.28171E+005    1.05203E+005   -1.22566E+004   -3.99599E+005    3.82456E+003   -2.58769E+004    3.13142E+004
            3182    4.99742E+005    1.12459E+005   -4.35015E+005   -3.33449E+003   -4.35015E+005    5.47474E+005    1.08630E+005   -4.68109E+005    1.11146E+005   -5.37174E+003   -4.31665E+005    3.51559E+003   -2.63493E+004    2.97174E+004
            3183    5.21395E+005    1.18144E+005   -4.50999E+005    3.60271E+003   -4.50999E+005    5.69143E+005    1.09751E+005   -4.91878E+005    1.16978E+005    1.88863E+003   -4.48119E+005    3.22597E+003   -2.53148E+004    2.80192E+004
            3184    5.55687E+005    1.10874E+005   -4.90836E+005    3.01289E+003   -4.90836E+005    6.01710E+005    1.25650E+005   -5.31364E+005    1.10127E+005   -7.44187E+002   -4.86332E+005    3.39692E+003   -2.06470E+004    4.30099E+004
            3185    5.46870E+005    1.04934E+005   -4.92660E+005   -1.71507E+004   -4.92660E+005    5.97595E+005    1.34959E+005   -5.14852E+005    1.04391E+005   -2.48248E+004   -4.84442E+005    3.54821E+003   -1.74791E+004    5.99380E+004
            3186    5.57795E+005    9.03047E+004   -5.20382E+005   -3.77476E+004   -5.20382E+005    6.10686E+005    1.55942E+005   -5.23168E+005    9.01052E+004   -4.55611E+004   -5.12369E+005    3.08814E+003   -1.00120E+004    6.09956E+004
            3187    2.94743E+005    2.48209E+005    2.48209E+005   -3.39698E+004   -5.76688E+004    3.05878E+005   -5.21901E+004    2.92588E+005   -3.39526E+004    3.11884E+004    1.59334E+005   -1.09051E+003   -1.99764E+003    1.38860E+005
            3188    3.06521E+005    2.54405E+005    2.54405E+005   -2.52463E+004   -7.33085E+004    3.27713E+005   -5.19500E+004    2.97867E+005   -2.52505E+004    4.24162E+004    1.38684E+005   -3.07612E+003   -1.77184E+003    1.56586E+005
            3189    3.28125E+005    2.55995E+005    2.55995E+005   -1.93137E+004   -1.07092E+005    3.63087E+005   -4.31965E+004    2.99957E+005   -1.93301E+004    3.47189E+004    1.14201E+005   -5.80864E+003   -2.11562E+003    1.77028E+005
            3190    3.43673E+005    2.51917E+005    2.51917E+005   -1.28912E+004   -1.36453E+005    3.88370E+005   -3.41908E+004    2.86899E+005   -1.29198E+004    2.65774E+004    8.89149E+004   -8.54233E+003   -2.03482E+003    1.91461E+005
            3191    3.30721E+005    2.42751E+005    2.42751E+005   -1.25506E+004   -1.30851E+005    3.73602E+005   -3.31166E+004    2.76728E+005   -1.27994E+004    1.93005E+004    9.28488E+004   -8.97561E+003   -3.07207E+002    1.82878E+005
            3192    3.18315E+005    2.34157E+005    2.34157E+005   -1.23111E+004   -1.25223E+005    3.59380E+005   -3.22075E+004    2.67343E+005   -1.25242E+004    1.24462E+004    9.67006E+004   -8.69021E+003   -7.71865E+002    1.74423E+005
            3193    3.13364E+005    2.32476E+005    2.32476E+005   -1.28108E+004   -1.20542E+005    3.53018E+005   -3.30410E+004    2.66652E+005   -1.33559E+004    8.98119E+003    1.03498E+005   -8.78590E+003    1.76845E+003    1.69718E+005
            3194    3.06033E+005    2.28122E+005    2.28122E+005   -1.32287E+004   -1.16090E+005    3.44212E+005   -3.29342E+004    2.62691E+005   -1.36094E+004    3.82381E+003    1.08588E+005   -8.35639E+003    3.27687E+002    1.63647E+005
            3195    3.05609E+005    2.31126E+005    2.31126E+005   -1.40135E+004   -1.11277E+005    3.42403E+005   -3.52782E+004    2.67306E+005   -1.47643E+004    2.46036E+003    1.18139E+005   -8.07803E+003    3.44316E+003    1.60722E+005
            3196    3.03125E+005    2.30681E+005    2.30681E+005   -1.50579E+004   -1.08045E+005    3.38726E+005   -3.58595E+004    2.68104E+005   -1.56191E+004   -4.05876E+003    1.27256E+005   -7.29600E+003    2.24845E+003    1.55793E+005
            3197    3.10401E+005    2.39952E+005    2.39952E+005   -1.67201E+004   -1.05038E+005    3.44989E+005   -3.93980E+004    2.79971E+005   -1.75465E+004   -4.92175E+003    1.40662E+005   -6.23015E+003    6.17502E+003    1.55912E+005
            3198    3.17007E+005    2.48431E+005    2.48431E+005   -1.90432E+004   -1.01723E+005    3.50155E+005   -4.25551E+004    2.91230E+005   -1.93225E+004    2.49577E+004    1.22030E+005   -6.45965E+003    1.21112E+002    1.68014E+005
            3199    3.14332E+005    2.46993E+005    2.46993E+005   -1.86891E+004   -1.00007E+005    3.47000E+005   -4.27654E+004    2.89212E+005   -1.88726E+004    1.74964E+004    1.29672E+005   -6.12488E+003   -8.15314E+002    1.64016E+005
            3200    3.09296E+005    2.44966E+005    2.44966E+005   -2.06740E+004   -9.45915E+004    3.39558E+005   -4.32336E+004    2.88401E+005   -2.12613E+004    1.20879E+004    1.38874E+005   -6.15149E+003    2.67262E+003    1.57177E+005
            3201    3.07235E+005    2.48292E+005    2.48292E+005   -2.02433E+004   -8.67478E+004    3.35040E+005   -4.71004E+004    2.90370E+005   -2.06238E+004    1.02706E+004    1.51654E+005   -5.50627E+003    9.07955E+002    1.51644E+005
            3202    3.06459E+005    2.48501E+005    2.48501E+005   -2.40007E+004   -8.32605E+004    3.31762E+005   -4.70800E+004    2.93150E+005   -2.48218E+004    2.54160E+003    1.63520E+005   -5.04651E+003    5.19556E+003    1.44559E+005
            3203    3.11547E+005    2.58425E+005    2.58425E+005   -2.35710E+004   -7.60165E+004    3.34441E+005   -5.29458E+004    3.01375E+005   -2.41400E+004    1.50140E+003    1.81476E+005   -4.11561E+003    3.86638E+003    1.40597E+005
            3204    3.18373E+005    2.62838E+005    2.62838E+005   -2.95311E+004   -7.63518E+004    3.39190E+005   -5.23185E+004    3.10485E+005   -3.03686E+004   -8.88600E+003    1.96210E+005   -2.97912E+003    9.28200E+003    1.34343E+005
            3205    3.10838E+005    2.54283E+005    2.54283E+005   -2.65270E+004   -7.97182E+004    3.34001E+005   -4.93460E+004    3.00342E+005   -2.68157E+004    2.56025E+004    1.49251E+005   -4.10032E+003    1.00653E+003    1.54972E+005
            3206    3.09859E+005    2.55489E+005    2.55489E+005   -2.64621E+004   -7.62490E+004    3.31738E+005   -5.09259E+004    3.00662E+005   -2.65640E+004    2.18446E+004    1.57497E+005   -3.54773E+003   -8.60741E+002    1.51284E+005
            3207    3.08975E+005    2.59369E+005    2.59369E+005   -2.88112E+004   -6.68734E+004    3.26242E+005   -5.45614E+004    3.03633E+005   -2.94478E+004    2.05613E+004    1.72571E+005   -3.34949E+003    3.96810E+003    1.43961E+005
            3208    3.06719E+005    2.61411E+005    2.61411E+005   -3.03258E+004   -5.83643E+004    3.19775E+005   -5.75736E+004    3.03815E+005   -3.06846E+004    1.52413E+004    1.88164E+005   -2.62392E+003    1.77296E+003    1.34280E+005
            3209    3.12556E+005    2.70389E+005    2.70389E+005   -3.36155E+004   -5.00677E+004    3.20457E+005   -6.22354E+004    3.11580E+005   -3.51838E+004    1.32346E+004    2.08655E+005   -1.91458E+003    7.41773E+003    1.25857E+005
            3210    3.20389E+005    2.78839E+005    2.78839E+005   -3.61240E+004   -4.67144E+004    3.25553E+005   -6.53335E+004    3.19995E+005   -3.71586E+004    3.91170E+003    2.29247E+005   -1.03816E+003    5.86981E+003    1.16655E+005
            3211    3.38355E+005    2.95441E+005    2.95441E+005   -3.80889E+004   -4.75418E+004    3.42982E+005   -6.99366E+004    3.38058E+005   -4.37236E+004    1.16564E+003    2.52368E+005    7.80515E+001    1.29441E+004    1.11934E+005
            3212    3.12212E+005    2.61080E+005    2.61080E+005   -3.36686E+004   -6.60700E+004    3.27150E+005   -5.37803E+004    3.08396E+005   -3.38608E+004    2.62416E+004    1.68960E+005   -1.82669E+003    1.78341E+003    1.47081E+005
            3213    3.08172E+005    2.62977E+005    2.62977E+005   -3.46178E+004   -5.47824E+004    3.17759E+005   -5.78589E+004    3.06683E+005   -3.46422E+004    2.87697E+004    1.79449E+005   -1.07138E+003   -3.57683E+002    1.39864E+005
            3214    3.06976E+005    2.66704E+005    2.66704E+005   -3.78447E+004   -4.26437E+004    3.09347E+005   -6.20718E+004    3.06892E+005   -3.94347E+004    2.78863E+004    1.97764E+005   -3.02637E+002    4.24136E+003    1.28262E+005
            3215    3.09813E+005    2.76624E+005    2.76624E+005   -2.44112E+004   -4.12773E+004    3.17902E+005   -7.03120E+004    3.08778E+005   -4.11959E+004    2.81367E+004    2.23995E+005    6.68573E+002    3.50378E+003    1.14308E+005
            3216    3.24199E+005    2.88443E+005    2.88443E+005   -2.00929E+004   -4.94263E+004    3.37869E+005   -7.29746E+004    3.21193E+005   -4.90942E+004    1.84945E+004    2.49523E+005    1.49608E+003    8.84363E+003    1.02154E+005
            3217    3.40718E+005    3.06166E+005    3.06166E+005   -1.35390E+004   -5.22577E+004    3.58424E+005   -8.01231E+004    3.35715E+005   -5.20091E+004    1.65320E+004    2.75846E+005    2.37019E+003    9.01570E+003    9.32966E+004
            3218    3.64218E+005    3.21954E+005    3.21954E+005   -1.65214E+004   -6.34558E+004    3.85410E+005   -8.06589E+004    3.57319E+005   -6.27598E+004    5.04865E+003    2.99688E+005    3.06213E+003    1.58309E+004    8.26342E+004
            3219    3.99348E+005    3.56871E+005    3.56871E+005    1.47793E+004   -8.19604E+004    4.38831E+005   -9.65632E+004    3.71588E+005   -8.11734E+004    2.43875E+004    3.46476E+005    4.76186E+003    1.76505E+004    5.65467E+004
            3220    3.70526E+005    3.32411E+005    3.32411E+005    1.06645E+004   -7.26931E+004    4.05104E+005   -9.01274E+004    3.48479E+005   -7.21835E+004    2.50078E+004    3.17558E+005    4.90346E+003    1.28720E+004    6.64704E+004
            3221    3.42462E+005    3.11386E+005    3.11386E+005    1.28003E+004   -6.24401E+004    3.73826E+005   -8.72488E+004    3.23071E+005   -6.21219E+004    3.54418E+004    2.88427E+005    4.64185E+003    9.05574E+003    7.90942E+004
            3222    3.20702E+005    2.90885E+005    2.90885E+005    2.70345E+003   -5.46084E+004    3.45494E+005   -7.96601E+004    3.08864E+005   -5.44298E+004    3.78511E+004    2.55559E+005    3.94139E+003    5.52460E+003    9.43551E+004
            3223    3.06632E+005    2.76077E+005    2.76077E+005   -1.00440E+004   -4.76055E+004    3.23682E+005   -7.28090E+004    3.01391E+005   -4.75192E+004    4.25203E+004    2.23426E+005    2.78866E+003    3.37457E+003    1.10819E+005
            3224    3.07073E+005    2.65070E+005    2.65070E+005   -3.93440E+004   -4.45946E+004    3.09665E+005   -6.03771E+004    3.06972E+005   -4.44903E+004    3.31221E+004    1.92500E+005    1.40794E+003    1.07823E+003    1.29730E+005
            3225    3.05627E+005    2.54484E+005    2.54484E+005   -4.25390E+004   -5.90767E+004    3.13560E+005   -5.09560E+004    3.04618E+005   -4.25419E+004    2.04807E+004    1.74929E+005   -2.49682E+000    4.74748E+002    1.36440E+005
            3226    3.73075E+005    6.69262E+004   -3.32639E+005    6.59200E+003   -3.32639E+005    3.99565E+005    8.63735E+004   -3.61854E+005    6.62708E+004   -1.19993E+004   -3.13392E+005    3.74035E+003   -1.57301E+004    7.71293E+004
            3227    3.46698E+005    5.34106E+004   -3.04960E+005    2.87494E+004   -3.04960E+005    3.58370E+005    7.42665E+004   -3.44717E+005    5.25021E+004   -1.98208E+003   -2.73320E+005    1.25147E+003   -1.39406E+004    9.70149E+004
            3228    3.31732E+005    5.41962E+004   -2.85661E+005    3.72996E+004   -2.85661E+005    3.39857E+005    6.47217E+004   -3.30761E+005    3.86484E+004    2.94462E+003   -2.35758E+005   -7.38819E+002   -1.13975E+004    1.19552E+005
            3229    3.15497E+005    8.00515E+004   -2.58718E+005    2.67028E+004   -2.58718E+005    3.38770E+005    5.06547E+004   -3.05100E+005    2.76621E+004    7.25780E+003   -1.86884E+005   -4.08170E+003   -8.33837E+003    1.38095E+005
            3230    3.08341E+005    1.03509E+005   -2.38871E+005    1.69144E+004   -2.38871E+005    3.42380E+005    3.94827E+004   -2.78955E+005    1.76724E+004    6.13220E+003   -1.42253E+005   -5.99246E+003   -5.73327E+003    1.53845E+005
            3231    3.02663E+005    1.32410E+005   -2.12226E+005    1.03351E+004   -2.12226E+005    3.44636E+005    2.31603E+004   -2.36930E+005    1.08910E+004    6.32447E+003   -8.66964E+004   -7.97728E+003   -3.33497E+003    1.65612E+005
            3232    2.98838E+005    1.54663E+005   -1.89610E+005    2.79840E+003   -1.89610E+005    3.44273E+005    1.07162E+004   -1.75417E+005    3.01067E+003    1.19976E+003   -3.63592E+004   -8.65587E+003   -1.09829E+003    1.70874E+005
            3233    3.01578E+005    1.85831E+005    1.85831E+005   -1.79143E+003   -1.62043E+005    3.47874E+005   -7.33192E+003    1.54997E+005   -1.97528E+003    9.13704E+001    2.38797E+004   -8.94423E+003    1.11484E+003    1.73288E+005
            3234    3.00448E+005    2.06975E+005    2.06975E+005   -1.00508E+004   -1.35940E+005    3.42915E+005   -2.03281E+004    2.28699E+005   -1.05768E+004   -6.53481E+003    7.80959E+004   -7.75283E+003    3.48728E+003    1.65863E+005
            3235    3.45508E+005    5.82688E+004   -3.09209E+005    9.05106E+003   -3.09209E+005    3.67478E+005    8.06297E+004   -3.37486E+005    5.79510E+004   -1.61114E+004   -2.83729E+005    3.26348E+003   -1.02794E+004    8.58337E+004
            3236    3.29225E+005    4.32793E+004   -2.92178E+005    3.04407E+004   -2.92178E+005    3.35457E+005    7.28192E+004   -3.28662E+005    4.27208E+004   -1.05281E+004   -2.50650E+005    3.46558E+002   -7.25761E+003    1.07936E+005
            3237    3.14269E+005    5.78387E+004   -2.68699E+005    3.16641E+004   -2.68699E+005    3.26537E+005    5.97319E+004   -3.11802E+005    3.22560E+004   -2.37982E+003   -2.09072E+005   -2.11652E+003   -4.93634E+003    1.25960E+005
            3238    3.09133E+005    8.25399E+004   -2.52696E+005    2.11094E+004   -2.52696E+005    3.35236E+005    4.96822E+004   -2.94927E+005    2.17948E+004   -1.24969E+002   -1.70716E+005   -5.34640E+003   -3.66001E+003    1.43893E+005
            3239    3.03505E+005    1.10265E+005   -2.29464E+005    1.49238E+004   -2.29464E+005    3.39729E+005    3.47583E+004   -2.66553E+005    1.54915E+004    3.13517E+003   -1.22902E+005   -7.33537E+003   -2.45023E+003    1.57417E+005
            3240    3.01307E+005    1.33372E+005   -2.10446E+005    7.59148E+003   -2.10446E+005    3.43818E+005    2.31609E+004   -2.30025E+005    8.03311E+003    1.50127E+003   -7.90172E+004   -9.18381E+003   -1.54572E+003    1.66807E+005
            3241    3.01474E+005    1.61683E+005   -1.85968E+005    3.36100E+003   -1.85968E+005    3.47651E+005    6.97476E+003   -1.61500E+005    3.54454E+003    2.24479E+003   -2.67136E+004   -9.87196E+003   -7.47072E+002    1.72930E+005
            3242    2.99304E+005    1.82431E+005    1.82431E+005   -2.66961E+003   -1.62877E+005    3.45308E+005   -5.62781E+003    1.49438E+005   -2.76000E+003   -1.89730E+003    2.15407E+004   -1.00257E+004    6.88944E+001    1.71961E+005
            3243    3.03398E+005    2.11003E+005    2.11003E+005   -7.28200E+003   -1.35445E+005    3.46449E+005   -2.27588E+004    2.29436E+005   -7.62593E+003   -6.65451E+002    7.65676E+004   -8.89460E+003    9.81586E+002    1.68582E+005
            3244    3.26887E+005    5.08133E+004   -2.93444E+005    1.27365E+004   -2.93444E+005    3.44258E+005    7.66315E+004   -3.21841E+005    5.05977E+004   -2.40839E+004   -2.56408E+005    2.26068E+003   -8.08167E+003    9.95679E+004
            3245    3.13890E+005    4.33157E+004   -2.74490E+005    3.53320E+004   -2.74490E+005    3.17806E+005    6.52809E+004   -3.13662E+005    4.00412E+004   -1.43752E+004   -2.21509E+005   -9.32199E+002   -7.42518E+003    1.17221E+005
            3246    3.09610E+005    6.51392E+004   -2.61083E+005    2.86871E+004   -2.61083E+005    3.26223E+005    5.57524E+004   -3.04726E+005    2.95634E+004   -9.06915E+003   -1.87751E+005   -3.31173E+003   -5.91717E+003    1.35889E+005
            3247    3.04795E+005    9.24351E+004   -2.41979E+005    2.02303E+004   -2.41979E+005    3.34414E+005    4.31046E+004   -2.84582E+005    2.10648E+004   -3.02795E+003   -1.47351E+005   -6.43679E+003   -4.26275E+003    1.50371E+005
            3248    3.04607E+005    1.16104E+005   -2.26746E+005    1.26908E+004   -2.26746E+005    3.42850E+005    3.26502E+004   -2.60477E+005    1.33471E+004   -2.02889E+003   -1.09269E+005   -8.38935E+003   -2.73281E+003    1.62446E+005
            3249    3.04402E+005    1.42820E+005   -2.05773E+005    7.55263E+003   -2.05773E+005    3.48593E+005    1.84666E+004   -2.19749E+005    7.98702E+003    1.02100E+003   -6.44079E+004   -1.00452E+004   -1.51462E+003    1.70847E+005
            3250    3.03229E+005    1.63170E+005   -1.86625E+005    1.70528E+003   -1.86625E+005    3.49795E+005    7.24992E+003   -1.54607E+005    1.84142E+003   -8.24114E+002   -2.27671E+004   -1.07334E+004   -3.48746E+002    1.74217E+005
            3251    3.05066E+005    1.88949E+005    1.88949E+005   -2.07322E+003   -1.62878E+005    3.51827E+005   -7.99911E+003    1.61399E+005   -2.27227E+003    1.07738E+003    2.51922E+004   -1.07582E+004    7.78087E+002    1.75159E+005
            3252    3.02682E+005    2.06647E+005    2.06647E+005   -8.55502E+003   -1.39454E+005    3.46101E+005   -1.95462E+004    2.24308E+005   -9.05136E+003   -1.51034E+003    6.92002E+004   -9.70760E+003    1.99766E+003    1.69048E+005
            3253    3.10607E+005    4.39270E+004   -2.76757E+005    2.26819E+004   -2.76757E+005    3.20684E+005    7.00493E+004   -3.08966E+005    4.38663E+004   -2.80606E+004   -2.25954E+005    1.34024E+003   -3.92780E+003    1.12333E+005
            3254    3.07604E+005    4.79126E+004   -2.67203E+005    3.22951E+004   -2.67203E+005    3.15116E+005    6.23318E+004   -3.06711E+005    3.27527E+004   -2.14206E+004   -1.98327E+005   -1.79388E+003   -2.26751E+003    1.30104E+005
            3255    3.05519E+005    7.55075E+004   -2.52263E+005    2.46124E+004   -2.52263E+005    3.27771E+005    5.07143E+004   -2.95755E+005    2.49447E+004   -1.27165E+004   -1.64371E+005   -4.25455E+003   -9.67976E+002    1.45093E+005
            3256    3.07574E+005    1.00390E+005   -2.40473E+005    1.63365E+004   -2.40473E+005    3.40863E+005    4.12488E+004   -2.79935E+005    1.67578E+004   -8.78329E+003   -1.31721E+005   -7.15759E+003   -6.35887E+002    1.58683E+005
            3257    3.08685E+005    1.26691E+005   -2.23061E+005    1.13260E+004   -2.23061E+005    3.49752E+005    2.83482E+004   -2.52867E+005    1.16834E+004   -3.71584E+003   -9.30121E+004   -9.12181E+003   -3.03761E+002    1.68770E+005
            3258    3.09532E+005    1.48237E+005   -2.06908E+005    5.50590E+003   -2.06908E+005    3.55146E+005    1.77218E+004   -2.14327E+005    5.76448E+003   -2.73644E+003   -5.61933E+004   -1.06170E+004   -2.28663E+002    1.75202E+005
            3259    3.10965E+005    1.72640E+005   -1.86288E+005    1.95232E+003   -1.86288E+005    3.58928E+005    3.89845E+003   -1.36499E+005    2.04405E+003    5.99065E+002   -1.43385E+004   -1.12826E+004   -2.13367E+002    1.78951E+005
            3260    3.08653E+005    1.90531E+005    1.90531E+005   -2.89395E+003   -1.65424E+005    3.55955E+005   -7.40433E+003    1.63866E+005   -2.98246E+003   -1.02675E+002    2.52981E+004   -1.11295E+004   -1.82793E+002    1.77171E+005
            3261    3.09880E+005    2.12951E+005    2.12951E+005   -6.93466E+003   -1.41458E+005    3.54409E+005   -2.15193E+004    2.28844E+005   -7.18397E+003    3.48463E+003    6.82571E+004   -1.00857E+004   -8.68921E+001    1.73897E+005
            3262    3.07038E+005    3.94763E+004   -2.69439E+005    3.56872E+004   -2.69439E+005    3.08915E+005    6.47584E+004   -3.06985E+005    3.87643E+004   -3.26859E+004   -2.00353E+005    9.12995E+001   -3.23741E+003    1.27858E+005
            3263    3.06896E+005    6.25052E+004   -2.59175E+005    3.04151E+004   -2.59175E+005    3.21681E+005    5.54184E+004   -3.03087E+005    3.10131E+004   -2.29707E+004   -1.74298E+005   -2.98576E+003   -3.51163E+003    1.41584E+005
            3264    3.10726E+005    8.69791E+004   -2.50933E+005    2.24858E+004   -2.50933E+005    3.37912E+005    4.71560E+004   -2.95098E+005    2.30548E+004   -1.71857E+004   -1.47337E+005   -5.39804E+003   -2.79081E+003    1.55611E+005
            3265    3.13135E+005    1.12834E+005   -2.37348E+005    1.57344E+004   -2.37348E+005    3.50183E+005    3.62598E+004   -2.76087E+005    1.62877E+004   -1.03483E+004   -1.14719E+005   -7.98120E+003   -1.91743E+003    1.66802E+005
            3266    3.16201E+005    1.35020E+005   -2.24645E+005    9.62861E+003   -2.24645E+005    3.59665E+005    2.66656E+004   -2.50315E+005    1.00719E+004   -7.53664E+003   -8.25320E+004   -9.89548E+003   -1.12592E+003    1.75528E+005
            3267    3.18546E+005    1.59065E+005   -2.07187E+005    5.36754E+003   -2.07187E+005    3.66252E+005    1.42517E+004   -2.06898E+005    5.63312E+003   -2.66903E+003   -4.57191E+004   -1.11900E+004   -5.51328E+002    1.81490E+005
            3268    3.18312E+005    1.77897E+005   -1.89580E+005    7.26333E+002   -1.89580E+005    3.67477E+005    3.65228E+003   -1.25893E+005    7.77481E+002   -1.40442E+003   -1.03299E+004   -1.18127E+004   -4.03150E+001    1.83303E+005
            3269    3.18621E+005    1.99227E+005    1.99227E+005   -2.65328E+003   -1.68082E+005    3.67309E+005   -9.49701E+003    1.76800E+005   -2.83761E+003    3.01889E+003    2.83097E+004   -1.15562E+004    4.71751E+002    1.82844E+005
            3270    3.14762E+005    2.14326E+005    2.14326E+005   -7.83431E+003   -1.45869E+005    3.60196E+005   -2.02076E+004    2.30236E+005   -8.22161E+003    4.03804E+003    6.48063E+004   -1.05446E+004    9.99031E+002    1.77154E+005
            3271    3.07459E+005    5.33953E+004   -2.62899E+005    3.48873E+004   -2.62899E+005    3.16295E+005    5.82056E+004   -3.06202E+005    3.49195E+004   -3.17947E+004   -1.77742E+005   -8.93979E+002   -2.88624E+001    1.40286E+005
            3272    3.11207E+005    7.41296E+004   -2.58021E+005    2.68256E+004   -2.58021E+005    3.32150E+005    5.23552E+004   -3.02960E+005    2.69079E+004   -2.62185E+004   -1.57755E+005   -3.27025E+003    9.15910E+002    1.52428E+005
            3273    3.15808E+005    9.87484E+004   -2.48909E+005    2.02374E+004   -2.48909E+005    3.47657E+005    4.33076E+004   -2.92617E+005    2.03701E+004   -1.90253E+004   -1.31268E+005   -5.74361E+003    1.19654E+003    1.64377E+005
            3274    3.21192E+005    1.21419E+005   -2.39840E+005    1.34766E+004   -2.39840E+005    3.61259E+005    3.49815E+004   -2.75717E+005    1.36688E+004   -1.45200E+004   -1.04093E+005   -8.27393E+003    9.81795E+002    1.74750E+005
            3275    3.25978E+005    1.45811E+005   -2.26316E+005    8.75959E+003   -2.26316E+005    3.72128E+005    2.39151E+004   -2.47459E+005    8.94208E+003   -8.92776E+003   -7.17597E+004   -1.03243E+004    7.23598E+002    1.83076E+005
            3276    3.28996E+005    1.66652E+005   -2.11988E+005    4.01775E+003   -2.11988E+005    3.78640E+005    1.37724E+004   -2.04793E+005    4.14305E+003   -5.64069E+003   -3.98197E+004   -1.16881E+004    3.65127E+002    1.88175E+005
            3277    3.31094E+005    1.88584E+005   -1.93711E+005    7.82524E+002   -1.93711E+005    3.82295E+005    1.44808E+003   -1.03235E+005    8.10742E+002   -8.25696E+001   -5.07242E+003   -1.22672E+004   -3.10609E+001    1.90737E+005
            3278    3.28445E+005    2.04986E+005    2.04986E+005   -3.22066E+003   -1.73642E+005    3.78627E+005   -9.37448E+003    1.82588E+005   -3.29860E+003    2.95126E+003    2.84708E+004   -1.18900E+004   -3.85304E+002    1.88504E+005
            3279    3.26392E+005    2.22854E+005    2.22854E+005   -6.90357E+003   -1.50752E+005    3.73607E+005   -2.17327E+004    2.37586E+005   -7.06902E+003    8.83946E+003    6.34277E+004   -1.06939E+004   -6.59706E+002    1.84468E+005
            3280    3.11484E+005    6.52358E+004   -2.61256E+005    3.26597E+004   -2.61256E+005    3.26491E+005    5.44534E+004   -3.07616E+005    3.28045E+004   -3.18939E+004   -1.64271E+005   -1.93832E+003   -9.96859E+002    1.49146E+005
            3281    3.16435E+005    8.45171E+004   -2.56835E+005    2.67134E+004   -2.56835E+005    3.41352E+005    4.85349E+004   -3.04215E+005    2.69676E+004   -2.67597E+004   -1.45813E+005   -4.24183E+003   -7.46883E+002    1.59811E+005
            3282    3.22019E+005    1.04535E+005   -2.51430E+005    1.96292E+004   -2.51430E+005    3.55964E+005    4.24220E+004   -2.95220E+005    1.98998E+004   -2.34523E+004   -1.23714E+005   -6.48530E+003   -7.84839E+001    1.70579E+005
            3283    3.30315E+005    1.29239E+005   -2.43389E+005    1.34221E+004   -2.43389E+005    3.72627E+005    3.35759E+004   -2.78813E+005    1.36697E+004   -1.92039E+004   -9.51936E+004   -8.80371E+003    3.38639E+002    1.82137E+005
            3284    3.39310E+005    1.53720E+005   -2.34135E+005    7.82496E+003   -2.34135E+005    3.87856E+005    2.41967E+004   -2.52753E+005    8.02201E+003   -1.39353E+004   -6.66767E+004   -1.08773E+004    4.53048E+002    1.91793E+005
            3285    3.44560E+005    1.77968E+005   -2.18896E+005    3.95548E+003   -2.18896E+005    3.96864E+005    1.23241E+004   -2.05190E+005    4.06807E+003   -6.23810E+003   -3.48024E+004   -1.22503E+004    3.03492E+002    1.97530E+005
            3286    3.45012E+005    1.97542E+005   -2.00838E+005    1.35550E+002   -2.00838E+005    3.98380E+005    1.05369E+003   -8.60423E+004    1.43132E+002   -7.53013E+002   -2.55120E+003   -1.27967E+004    2.75985E+001    1.98776E+005
            3287    3.44532E+005    2.17027E+005    2.17027E+005   -3.03040E+003   -1.80027E+005    3.97054E+005   -1.13230E+004    1.96843E+005   -3.13332E+003    6.27473E+003    3.08275E+004   -1.23542E+004   -2.40556E+002    1.97756E+005
            3288    3.38513E+005    2.30723E+005    2.30723E+005   -7.47865E+003   -1.56774E+005    3.87497E+005   -2.21566E+004    2.46239E+005   -7.67139E+003    1.19537E+004    6.21876E+004   -1.10357E+004   -3.92146E+002    1.91773E+005
            3289    3.57378E+005    2.44591E+005    2.44591E+005   -7.15278E+003   -1.64456E+005    4.09046E+005   -2.43275E+004    2.60471E+005   -7.16317E+003    1.89033E+004    6.12424E+004   -1.10497E+004   -1.78757E+003    2.03115E+005
            3290    3.64819E+005    2.30715E+005    2.30715E+005   -3.03452E+003   -1.89662E+005    4.20377E+005   -1.26729E+004    2.10709E+005   -3.04334E+003    9.67994E+003    3.13820E+004   -1.26531E+004   -9.69178E+002    2.09524E+005
            3291    3.67878E+005    2.12253E+005   -2.12536E+005    1.47419E+002   -2.12536E+005    4.24789E+005    4.54669E+001   -4.89749E+004    1.51940E+002   -1.94867E+002   -9.34733E+001   -1.32595E+004   -2.86048E+001    2.11980E+005
            3292    3.64952E+005    1.88488E+005   -2.31952E+005    3.01195E+003   -2.31952E+005    4.20440E+005    1.34837E+004   -2.14188E+005    3.01709E+003   -1.09117E+004   -3.25566E+004   -1.26537E+004    1.03457E+003    2.09557E+005
            3293    3.56868E+005    1.63872E+005   -2.44489E+005    7.49750E+003   -2.44489E+005    4.08362E+005    2.43731E+004   -2.61237E+005    7.51081E+003   -1.90833E+004   -6.15470E+004   -1.10396E+004    1.78164E+003    2.02764E+005
            3294    3.44240E+005    1.36337E+005   -2.52650E+005    1.26804E+004   -2.52650E+005    3.88987E+005    3.45444E+004   -2.87490E+005    1.26943E+004   -2.74424E+004   -8.88852E+004   -8.63340E+003    2.20759E+003    1.91843E+005
            3295    3.26249E+005    1.07575E+005   -2.53811E+005    1.90158E+004   -2.53811E+005    3.61386E+005    4.24069E+004   -2.97353E+005    1.90239E+004   -3.35159E+004   -1.12729E+005   -6.00064E+003    2.28074E+003    1.76180E+005
            3296    3.11983E+005    8.41516E+004   -2.52649E+005    2.64637E+004   -2.52649E+005    3.36801E+005    4.73447E+004   -2.99629E+005    2.64567E+004   -3.09507E+004   -1.37540E+005   -3.43424E+003    2.09595E+003    1.59696E+005
            3297    3.12555E+005    7.37973E+004   -2.56913E+005    3.35971E+004   -2.56913E+005    3.30710E+005    4.98394E+004   -3.06658E+005    3.35749E+004   -2.66080E+004   -1.56485E+005   -1.69078E+003    2.05976E+003    1.52056E+005
            3298    4.01609E+005    8.51082E+004   -3.56529E+005   -1.32045E+004   -3.56529E+005    4.41637E+005    9.48750E+004   -3.73066E+005    8.42978E+004   -2.15766E+004   -3.47346E+005    4.80825E+003   -1.79177E+004    5.30148E+004
            3299    3.71529E+005    7.31708E+004   -3.34499E+005   -1.49574E+004   -3.34499E+005    4.07670E+005    9.20953E+004   -3.46823E+005    7.26581E+004   -2.92727E+004   -3.19671E+005    5.05932E+003   -1.28611E+004    6.61800E+004
            3300    3.41559E+005    6.38039E+004   -3.09156E+005   -1.15992E+004   -3.09156E+005    3.72960E+005    8.56503E+004   -3.22023E+005    6.34860E+004   -3.39833E+004   -2.86454E+005    4.71946E+003   -8.87760E+003    7.85476E+004
            3301    3.19778E+005    5.38184E+004   -2.91113E+005   -4.52055E+003   -2.91113E+005    3.44931E+005    8.06050E+004   -3.07462E+005    5.36497E+004   -4.14040E+004   -2.54061E+005    3.91408E+003   -5.23336E+003    9.60175E+004
            3302    3.07005E+005    4.72261E+004   -2.75524E+005    1.28399E+004   -2.75524E+005    3.22750E+005    7.18194E+004   -3.02627E+005    4.71478E+004   -4.18322E+004   -2.20774E+005    2.62349E+003   -2.96500E+003    1.13056E+005
            3303    3.06711E+005    4.12660E+004   -2.68843E+005    3.43518E+004   -2.68843E+005    3.10109E+005    6.44085E+004   -3.06535E+005    4.12104E+004   -4.04553E+004   -1.93981E+005    1.17478E+003   -8.75780E+002    1.30752E+005
            3304    3.10382E+005    5.58004E+004   -2.62823E+005    3.86019E+004   -2.62823E+005    3.18624E+005    5.61403E+004   -3.09307E+005    3.86021E+004   -3.32374E+004   -1.73786E+005   -7.71249E+001    1.87561E+001    1.42975E+005
            3305    3.84076E+005    3.42729E+005    3.42729E+005   -1.31751E+004   -6.43812E+004    4.07110E+005   -8.83909E+004    3.76281E+005   -6.30481E+004    4.18757E+003    3.24033E+005    4.87415E+003    2.27298E+004    7.65203E+004
            3306    3.52539E+005    3.06213E+005    3.06213E+005   -4.18284E+004   -5.06563E+004    3.56870E+005   -7.12429E+004    3.52290E+005   -4.42571E+004   -1.30791E+004    2.71065E+005    1.40563E+003    1.80099E+004    1.04460E+005
            3307    3.34084E+005    2.81294E+005    2.81294E+005   -2.47863E+004   -7.50892E+004    3.56383E+005   -6.04728E+004    3.25400E+005   -2.60813E+004   -1.00109E+004    2.17511E+005   -3.83476E+003    1.27676E+004    1.35890E+005
            3308    3.15309E+005    2.43365E+005    2.43365E+005   -1.63183E+004   -1.07481E+005    3.50846E+005   -3.98554E+004    2.83305E+005   -1.74332E+004   -1.35991E+004    1.50599E+005   -6.85776E+003    8.50517E+003    1.54333E+005
            3309    4.08230E+005    3.61032E+005    3.61032E+005   -1.88745E+004   -7.05932E+004    4.31625E+005   -9.05213E+004    4.00760E+005   -6.91545E+004   -7.14185E+003    3.47860E+005    5.93295E+003    2.37455E+004    6.57468E+004
            3310    3.76798E+005    3.33535E+005    3.33535E+005   -4.11931E+004   -4.52995E+004    3.78835E+005   -8.23476E+004    3.76748E+005   -4.32029E+004   -1.10981E+004    3.01344E+005    3.33842E+003    1.76050E+004    1.03814E+005
            3311    3.45504E+005    2.92353E+005    2.92353E+005   -2.81784E+004   -7.36265E+004    3.65979E+005   -6.35160E+004    3.38681E+005   -2.86512E+004   -1.80924E+004    2.37292E+005   -1.37304E+003    1.28308E+004    1.30185E+005
            3312    3.31439E+005    2.63885E+005    2.63885E+005   -1.54832E+004   -1.02331E+005    3.66216E+005   -4.86900E+004    3.04219E+005   -1.60601E+004   -1.17476E+004    1.73878E+005   -3.96352E+003    8.52364E+003    1.57386E+005
            3313    4.47054E+005    3.92694E+005    3.92694E+005   -1.65863E+004   -8.43879E+004    4.77082E+005   -9.72401E+004    4.35261E+005   -8.20424E+004   -5.37251E+003    3.79135E+005    6.38533E+003    3.26832E+004    6.66485E+004
            3314    4.02249E+005    3.47077E+005    3.47077E+005   -4.80198E+004   -6.19613E+004    4.09038E+005   -7.90319E+004    4.01705E+005   -5.97866E+004   -2.25930E+004    3.19475E+005    6.02739E+003    2.82097E+004    9.69380E+004
            3315    3.72501E+005    3.18271E+005    3.18271E+005   -3.59712E+004   -7.01339E+004    3.88405E+005   -7.07221E+004    3.68952E+005   -3.59136E+004   -1.58954E+004    2.63975E+005    1.91154E+003    2.11677E+004    1.33005E+005
            3316    3.38601E+005    2.68671E+005    2.68671E+005   -2.47267E+004   -1.01834E+005    3.70504E+005   -4.73701E+004    3.17934E+005   -2.47447E+004   -1.87695E+004    1.85624E+005    2.03581E+002    1.49359E+004    1.53783E+005
            3317    4.73722E+005    4.14642E+005    4.14642E+005   -2.27894E+004   -8.85080E+004    5.03150E+005   -1.01115E+005    4.63299E+005   -8.66555E+004   -1.39693E+004    4.03969E+005    7.30747E+003    2.84530E+004    6.18848E+004
            3318    4.38176E+005    3.87774E+005    3.87774E+005   -3.92388E+004   -6.07714E+004    4.48546E+005   -9.59214E+004    4.36984E+005   -5.90627E+004   -1.22972E+004    3.59124E+005    8.46430E+003    2.48927E+004    1.03946E+005
            3319    3.89342E+005    3.33887E+005    3.33887E+005   -4.44368E+004   -6.56105E+004    3.99497E+005   -7.46131E+004    3.88044E+005   -4.33187E+004   -1.82638E+004    2.85422E+005    5.96455E+003    2.07861E+004    1.28741E+005
            3320    3.65506E+005    3.01117E+005    3.01117E+005   -2.76603E+004   -9.24520E+004    3.93569E+005   -6.03348E+004    3.52236E+005   -2.68786E+004   -1.29589E+004    2.20842E+005    5.51548E+003    1.60582E+004    1.57711E+005
            3321    5.18525E+005    4.56886E+005    4.56886E+005   -1.32835E+004   -9.92498E+004    5.56136E+005   -1.14784E+005    5.02116E+005   -9.68545E+004   -8.77647E+001    4.41295E+005    7.49949E+003    3.54834E+004    7.75214E+004
            3322    4.54108E+005    3.93258E+005    3.93258E+005   -3.81912E+004   -8.05425E+004    4.73800E+005   -9.15079E+004    4.49633E+005   -7.76474E+004   -1.39027E+004    3.66074E+005    1.18247E+004    3.30910E+004    9.97370E+004
            3323    4.19255E+005    3.65927E+005    3.65927E+005   -5.23043E+004   -5.43434E+004    4.20271E+005   -8.64265E+004    4.19244E+005   -5.11009E+004   -8.49484E+003    3.18875E+005    9.69401E+003    2.50801E+004    1.29963E+005
            3324    3.79948E+005    3.14344E+005    3.14344E+005   -4.02147E+004   -8.67130E+004    4.01057E+005   -6.24722E+004    3.73466E+005   -3.88727E+004   -1.46420E+004    2.40931E+005    1.07567E+004    1.94265E+004    1.53605E+005
            3325    5.22209E+005    4.64541E+005    4.64541E+005   -5.51074E+003   -9.75789E+004    5.62120E+005   -1.20484E+005    5.03461E+005   -9.64681E+004    9.45141E+003    4.48468E+005    8.11661E+003    2.17353E+004    8.29296E+004
            3326    4.84940E+005    4.35406E+005    4.35406E+005   -1.12121E+004   -8.04199E+004    5.15826E+005   -1.14591E+005    4.73638E+005   -7.78927E+004    1.25231E+004    4.09144E+005    1.46280E+004    2.52812E+004    1.02085E+005
            3327    4.41129E+005    3.87293E+005    3.87293E+005   -4.14521E+004   -6.52576E+004    4.52550E+005   -9.35276E+004    4.39681E+005   -6.09740E+004   -5.23352E+003    3.46790E+005    1.52034E+004    2.29710E+004    1.23381E+005
            3328    4.10250E+005    3.54155E+005    3.54155E+005   -4.08525E+004   -6.98034E+004    4.23959E+005   -8.11665E+004    4.07942E+005   -4.17656E+004    2.85492E+002    2.84980E+005    1.66473E+004    1.83900E+004    1.54562E+005
            3329    5.21125E+005    4.68050E+005    4.68050E+005    2.54536E+004   -1.06310E+005    5.74360E+005   -1.29065E+005    4.81460E+005   -1.04851E+005    3.93398E+004    4.52705E+005    8.15733E+003    2.71095E+004    7.72477E+004
            3330    5.07176E+005    4.50314E+005    4.50314E+005   -1.07712E+004   -9.29238E+004    5.43238E+005   -1.15540E+005    4.91872E+005   -9.11794E+004    8.29459E+003    4.29504E+005    1.20980E+004    2.25524E+004    9.31868E+004
            3331    4.79270E+005    4.33480E+005    4.33480E+005   -1.27322E+004   -7.31226E+004    5.06603E+005   -1.15875E+005    4.70595E+005   -7.00527E+004    2.26967E+004    3.94981E+005    1.70228E+004    1.82731E+004    1.23963E+005
            3332    4.33042E+005    3.85329E+005    3.85329E+005   -3.32171E+004   -6.08826E+004    4.46212E+005   -9.70765E+004    4.31047E+005   -5.13511E+004    1.70880E+004    3.25493E+005    1.93759E+004    1.38964E+004    1.47101E+005
            3333    4.41621E+005    4.26687E+005    4.26687E+005    2.76578E+004   -4.78008E+004    4.74488E+005   -1.35515E+005    4.26754E+005   -4.30918E+004    7.50159E+004    3.74620E+005    1.98334E+004    1.50555E+003    1.35085E+005
            3334    4.85514E+005    4.52828E+005    4.52828E+005    2.34053E+004   -7.40067E+004    5.26834E+005   -1.34075E+005    4.62755E+005   -7.17769E+004    5.22892E+004    4.21714E+005    1.60389E+004    5.37564E+003    1.11303E+005
            3335    5.29128E+005    4.80036E+005    4.80036E+005    1.38233E+004   -9.50645E+004    5.75101E+005   -1.32932E+005    5.02985E+005   -9.36726E+004    3.67608E+004    4.55707E+005    1.35434E+004    1.01436E+004    1.03189E+005
            3336    5.72312E+005    4.88025E+005    4.88025E+005   -3.78982E+004   -1.21484E+005    6.09509E+005   -1.09548E+005    5.58332E+005   -1.20123E+005   -3.01295E+004    4.78896E+005    1.07472E+004    1.51668E+004    6.70571E+004
            3337    4.24361E+005    3.74721E+005    3.74721E+005    7.53106E+003   -8.98745E+004    4.64595E+005   -9.74590E+004    3.98026E+005   -8.81988E+004    1.27772E+004    3.67799E+005    6.06020E+003    2.66390E+004    4.38105E+004
            3338    4.54606E+005    3.98979E+005    3.98979E+005    1.08148E+004   -1.01147E+005    5.00126E+005   -1.02882E+005    4.21880E+005   -9.89806E+004    1.41815E+004    3.93446E+005    5.72304E+003    3.19553E+004    3.62347E+004
            3339    4.88111E+005    4.18173E+005    4.18173E+005   -4.97974E+003   -1.15829E+005    5.34002E+005   -9.91216E+004    4.58490E+005   -1.13487E+005   -3.76938E+003    4.14621E+005    5.16389E+003    3.43301E+004    2.34022E+004
            3340    5.24238E+005    4.53547E+005    4.53547E+005   -2.50304E+003   -1.19208E+005    5.72755E+005   -1.10612E+005    4.93724E+005   -1.17108E+005   -4.19791E+002    4.49363E+005    4.53439E+003    3.40486E+004    3.09840E+004
            3341    5.47717E+005    4.71335E+005    4.71335E+005   -1.04113E+004   -1.24412E+005    5.95746E+005   -1.12171E+005    5.20010E+005   -1.22828E+005   -8.84162E+003    4.68181E+005    4.04927E+003    3.00378E+004    2.78109E+004
            3342    5.90019E+005    5.33176E+005    5.33176E+005    1.24405E+004   -1.07649E+005    6.40825E+005   -1.45989E+005    5.61526E+005   -1.06604E+005    1.89851E+004    5.25586E+005    2.68670E+003    2.57174E+004    5.79531E+004
            3343    5.58186E+005    5.04069E+005    5.04069E+005    3.00067E+004   -1.11143E+005    6.15212E+005   -1.40978E+005    5.15690E+005   -1.10003E+005    3.73888E+004    4.95547E+005    3.57898E+003    2.62099E+004    5.86252E+004
            3344    3.77521E+005    3.58180E+005    3.58180E+005    4.60620E+003   -3.94267E+004    3.97606E+005   -1.07786E+005    3.71678E+005   -2.32991E+004    6.50898E+004    2.81568E+005    2.33967E+004   -6.79674E+002    1.49520E+005
            3345    3.31045E+005    2.80573E+005    2.80573E+005   -1.84513E+003   -8.37297E+004    3.64303E+005   -6.49995E+004    3.06995E+005   -7.34344E+003    4.13591E+004    1.60983E+005    2.57676E+004   -1.04923E+003    1.68412E+005
            3346    3.04760E+005    1.74768E+005   -1.77139E+005   -7.69890E+002   -1.77139E+005    3.51907E+005    1.04691E+003   -4.87396E+004   -7.54172E+002    2.11812E+002   -2.59838E+003    2.67931E+004   -8.98487E+001    1.73896E+005
            3347    3.26481E+005    8.45075E+004   -2.75023E+005    2.94311E+003   -2.75023E+005    3.59530E+005    6.25240E+004   -3.02256E+005    8.28323E+003   -3.99200E+004   -1.55935E+005    2.57123E+004    7.84571E+002    1.66563E+005
            3348    3.84354E+005    3.71302E+004   -3.67599E+005   -7.52097E+003   -3.67599E+005    4.04729E+005    1.12663E+005   -3.78453E+005    2.14478E+004   -6.77650E+004   -2.91673E+005    2.33946E+004    7.55115E+002    1.50571E+005
            3349    4.35225E+005    4.89499E+004   -4.19957E+005   -2.89309E+004   -4.19957E+005    4.68907E+005    1.33313E+005   -4.19115E+005    4.44567E+004   -7.13121E+004   -3.73083E+005    1.95093E+004   -1.19462E+003    1.27633E+005
            3350    4.89563E+005    7.06171E+004   -4.62175E+005   -3.21596E+004   -4.62175E+005    5.32792E+005    1.41239E+005   -4.64350E+005    6.83274E+004   -6.15252E+004   -4.30520E+005    1.65722E+004   -4.82696E+003    1.12316E+005
            3351    5.23244E+005    9.19778E+004   -4.77640E+005   -1.83727E+004   -4.77640E+005    5.69618E+005    1.34678E+005   -4.96039E+005    9.07968E+004   -3.38185E+004   -4.61013E+005    1.21462E+004   -1.02377E+004    8.51814E+004
            3352    5.40998E+005    1.06730E+005   -4.90203E+005   -3.22612E+004   -4.90203E+005    5.96933E+005    1.38578E+005   -4.98398E+005    1.05676E+005   -4.14034E+004   -4.80007E+005    9.78714E+003   -1.93768E+004    6.51917E+004
            3353    3.95572E+005    3.38182E+005    3.38182E+005   -2.70423E+004   -8.19919E+004    4.20174E+005   -7.63827E+004    3.86846E+005   -3.10060E+004    1.87386E+004    2.41416E+005    2.30745E+004    9.27053E+003    1.74629E+005
            3354    3.69625E+005    2.95123E+005    2.95123E+005   -2.68133E+004   -1.08520E+005    4.03642E+005   -5.32633E+004    3.48427E+005   -2.66233E+004   -4.79249E+003    1.91206E+005    1.81113E+004    1.26005E+004    1.75111E+005
            3355    3.57337E+005    2.77207E+005    2.77207E+005   -2.07412E+004   -1.18971E+005    3.96178E+005   -4.58318E+004    3.24816E+005   -1.99692E+004   -8.14378E+003    1.65608E+005    1.02630E+004    1.20699E+004    1.77532E+005
            3356    3.34358E+005    2.48127E+005    2.48127E+005   -1.62930E+004   -1.27715E+005    3.75843E+005   -3.47063E+004    2.87912E+005   -1.59395E+004   -1.29436E+004    1.33002E+005    3.65987E+003    1.00590E+004    1.72921E+005
            3357    3.27366E+005    2.38863E+005    2.38863E+005   -1.04243E+004   -1.31870E+005    3.70734E+005   -3.21894E+004    2.69189E+005   -1.07043E+004   -9.34505E+003    1.16618E+005   -2.54724E+003    8.50332E+003    1.74062E+005
            3358    3.13203E+005    2.21781E+005    2.21781E+005   -8.44921E+003   -1.34874E+005    3.56655E+005   -2.61527E+004    2.45050E+005   -8.97664E+003   -1.04923E+004    9.79269E+004   -6.80152E+003    4.51123E+003    1.69611E+005
            3359    3.12607E+005    2.20140E+005    2.20140E+005   -6.46640E+003   -1.36496E+005    3.56635E+005   -2.57259E+004    2.39317E+005   -7.31335E+003   -5.45749E+003    8.99485E+004   -9.69585E+003    4.72495E+003    1.71359E+005
            3360    3.52818E+005    2.62411E+005    2.62411E+005   -1.42435E+004   -1.34909E+005    3.97320E+005   -3.77528E+004    3.00844E+005   -1.53965E+004    8.51670E+003    1.20138E+005    2.39789E+004    4.42926E+003    1.88853E+005
            3361    3.50906E+005    2.47545E+005    2.47545E+005   -1.09822E+004   -1.51918E+005    3.99463E+005   -2.82151E+004    2.75482E+005   -1.08050E+004    4.28180E+002    9.50220E+004    1.79265E+004    5.90011E+003    1.93158E+005
            3362    3.34578E+005    2.21952E+005    2.21952E+005   -1.08420E+004   -1.61461E+005    3.83413E+005   -1.65498E+004    2.38233E+005   -1.04951E+004   -5.50437E+003    6.56489E+004    9.92027E+003    5.30799E+003    1.88078E+005
            3363    3.27740E+005    2.14281E+005    2.14281E+005   -5.15257E+003   -1.62456E+005    3.76737E+005   -1.55574E+004    2.14654E+005   -5.04439E+003   -2.72964E+003    5.44462E+004    2.93068E+003    3.92449E+003    1.86131E+005
            3364    3.13975E+005    1.95363E+005    1.95363E+005   -5.20023E+003   -1.66474E+005    3.61837E+005   -7.89644E+003    1.79458E+005   -5.32419E+003   -5.13925E+003    3.41527E+004   -3.31349E+003    2.99937E+003    1.79786E+005
            3365    3.12727E+005    1.96135E+005    1.96135E+005   -1.74964E+003   -1.64397E+005    3.60532E+005   -9.99615E+003    1.72661E+005   -1.90853E+003   -9.90319E+002    3.28873E+004   -7.52156E+003    1.16544E+003    1.79299E+005
            3366    3.04576E+005    1.84774E+005    1.84774E+005   -3.25592E+003   -1.66632E+005    3.51406E+005   -4.96193E+003    1.50708E+005   -3.52695E+003   -3.41680E+003    2.18295E+004   -1.04306E+004    1.52502E+003    1.74922E+005
            3367    3.42743E+005    1.95094E+005   -2.00649E+005    9.05372E+002   -2.00649E+005    3.95743E+005    1.55007E+003   -1.09078E+005    9.72783E+002    2.91314E+002   -5.91430E+003    2.54927E+004   -1.83678E+002    1.96197E+005
            3368    3.39956E+005    1.84283E+005   -2.07974E+005    1.23949E+003   -2.07974E+005    3.92256E+005    7.48391E+003   -1.65435E+005    1.25239E+003   -7.09464E+002   -2.29947E+004    1.92063E+004   -1.12925E+003    1.94863E+005
            3369    3.34664E+005    1.81544E+005   -2.04467E+005    4.23574E+003   -2.04467E+005    3.86011E+005    6.22884E+003   -1.73897E+005    4.10449E+003    2.85474E+003   -2.56457E+004    1.07294E+004   -2.00959E+003    1.92174E+005
            3370    3.22739E+005    1.67619E+005   -2.04236E+005    2.98337E+003   -2.04236E+005    3.71855E+005    1.12114E+004   -1.87717E+005    2.90240E+003    1.98185E+003   -3.85183E+004    3.35574E+003   -2.60896E+003    1.84777E+005
            3371    3.17648E+005    1.67550E+005   -1.98520E+005    4.39411E+003   -1.98520E+005    3.66070E+005    8.85882E+003   -1.81572E+005    4.49284E+003    5.15139E+003   -3.62207E+004   -3.11101E+003   -2.54437E+003    1.81812E+005
            3372    3.09452E+005    1.58671E+005   -1.97747E+005    2.48723E+003   -1.97747E+005    3.56418E+005    1.21962E+004   -1.84542E+005    2.74984E+003    2.87931E+003   -4.22178E+004   -7.41508E+003   -2.19089E+003    1.76591E+005
            3373    3.07924E+005    1.62008E+005   -1.92880E+005    3.48739E+003   -1.92880E+005    3.54888E+005    9.12814E+003   -1.74960E+005    3.80966E+003    4.55371E+003   -3.57478E+004   -1.03987E+004   -1.57175E+003    1.75965E+005
            3374    3.59784E+005    1.23044E+005   -2.78570E+005    1.42939E+004   -2.78570E+005    4.01613E+005    4.70774E+004   -3.19544E+005    1.58580E+004   -1.16979E+004   -1.45392E+005    2.39607E+004   -4.88614E+003    1.87379E+005
            3375    3.54700E+005    1.36636E+005   -2.62336E+005    1.73286E+004   -2.62336E+005    3.98972E+005    3.61235E+004   -3.04382E+005    1.71016E+004    1.56806E+003   -1.27040E+005    1.80191E+004   -8.18722E+003    1.87846E+005
            3376    3.46105E+005    1.33501E+005   -2.56216E+005    1.53154E+004   -2.56216E+005    3.89717E+005    3.58001E+004   -2.95300E+005    1.47794E+004    5.73146E+003   -1.27911E+005    1.02924E+004   -8.79244E+003    1.82654E+005
            3377    3.35299E+005    1.36157E+005   -2.42932E+005    1.47570E+004   -2.42932E+005    3.79090E+005    3.06727E+004   -2.79001E+005    1.44499E+004    1.06533E+004   -1.17121E+005    3.64231E+003   -8.99020E+003    1.78248E+005
            3378    3.24301E+005    1.30607E+005   -2.36584E+005    1.06470E+004   -2.36584E+005    3.67190E+005    3.17766E+004   -2.67060E+005    1.09003E+004    9.92937E+003   -1.16159E+005   -2.44526E+003   -7.93712E+003    1.72184E+005
            3379    3.16847E+005    1.33401E+005   -2.26615E+005    9.81450E+003   -2.26615E+005    3.60016E+005    2.78001E+004   -2.53417E+005    1.04013E+004    1.07312E+004   -1.04533E+005   -6.50294E+003   -5.53658E+003    1.70221E+005
            3380    3.09892E+005    1.29977E+005   -2.22449E+005    7.42736E+003   -2.22449E+005    3.52426E+005    2.83479E+004   -2.45753E+005    8.29380E+003    7.13887E+003   -1.00476E+005   -9.37387E+003   -4.70012E+003    1.67328E+005
            3381    3.95665E+005    7.44370E+004   -3.42241E+005    2.83806E+004   -3.42241E+005    4.16678E+005    7.98078E+004   -3.89566E+005    3.38620E+004   -1.85522E+004   -2.54733E+005    2.27574E+004   -9.23794E+003    1.67166E+005
            3382    3.85696E+005    9.03654E+004   -3.21977E+005    2.99399E+004   -3.21977E+005    4.12342E+005    6.72238E+004   -3.74824E+005    3.02197E+004    3.44433E+002   -2.32236E+005    1.84715E+004   -1.44332E+004    1.68502E+005
            3383    3.69524E+005    1.00901E+005   -2.98653E+005    3.07985E+004   -2.98653E+005    3.99554E+005    5.56511E+004   -3.54096E+005    2.97709E+004    1.18512E+004   -2.08575E+005    1.11981E+004   -1.56922E+004    1.65906E+005
            3384    3.56179E+005    1.00308E+005   -2.87921E+005    2.37612E+004   -2.87921E+005    3.88229E+005    5.46174E+004   -3.36918E+005    2.30772E+004    1.42847E+004   -2.01214E+005    5.08988E+003   -1.47386E+004    1.60958E+005
            3385    3.38885E+005    1.05667E+005   -2.67407E+005    2.13791E+004   -2.67407E+005    3.73074E+005    4.67868E+004   -3.13975E+005    2.15030E+004    1.76461E+004   -1.79510E+005   -5.25138E+002   -1.35673E+004    1.57738E+005
            3386    3.28270E+005    1.02279E+005   -2.60789E+005    1.50692E+004   -2.60789E+005    3.63069E+005    4.78135E+004   -3.00505E+005    1.57721E+004    1.38037E+004   -1.73016E+005   -4.60670E+003   -8.85442E+003    1.55123E+005
            3387    3.16691E+005    1.06797E+005   -2.45620E+005    1.51147E+004   -2.45620E+005    3.52417E+005    4.12363E+004   -2.84455E+005    1.62810E+004    1.25797E+004   -1.52569E+005   -7.34966E+003   -8.02939E+003    1.54960E+005
            3388    4.44596E+005    5.92357E+004   -4.02600E+005    2.24738E+004   -4.02600E+005    4.61836E+005    1.06964E+005   -4.41157E+005    5.29628E+004   -2.66021E+004   -3.47251E+005    1.91955E+004   -1.37198E+004    1.42988E+005
            3389    4.19977E+005    6.20960E+004   -3.65921E+005    4.55247E+004   -3.65921E+005    4.28017E+005    8.61002E+004   -4.19240E+005    4.98205E+004   -8.01671E+002   -3.07319E+005    1.64023E+004   -1.99353E+004    1.44163E+005
            3390    4.04291E+005    6.73418E+004   -3.47022E+005    4.63792E+004   -3.47022E+005    4.14364E+005    7.77671E+004   -4.03065E+005    4.50589E+004    9.76104E+003   -2.88121E+005    1.08498E+004   -2.17858E+004    1.42805E+005
            3391    3.82492E+005    7.53567E+004   -3.23401E+005    4.04292E+004   -3.23401E+005    3.98757E+005    6.92049E+004   -3.78879E+005    3.92777E+004    1.70828E+004   -2.63975E+005    6.65433E+003   -1.99673E+004    1.40531E+005
            3392    3.63309E+005    7.70240E+004   -3.06000E+005    3.37131E+004   -3.06000E+005    3.83024E+005    6.50875E+004   -3.57432E+005    3.34210E+004    1.85743E+004   -2.47258E+005    2.10329E+003   -1.93384E+004    1.36656E+005
            3393    3.42011E+005    7.85395E+004   -2.86325E+005    2.69769E+004   -2.86325E+005    3.64865E+005    6.02696E+004   -3.33098E+005    2.74102E+004    1.66922E+004   -2.24911E+005   -1.38903E+003   -1.26073E+004    1.35907E+005
            3394    3.29860E+005    7.89570E+004   -2.75042E+005    2.36995E+004   -2.75042E+005    3.53999E+005    5.74617E+004   -3.19197E+005    2.48317E+004    1.20815E+004   -2.09298E+005   -3.98942E+003   -1.17801E+004    1.37051E+005
            3395    4.78275E+005    7.47672E+004   -4.33797E+005    6.94820E+003   -4.33797E+005    5.08564E+005    1.17360E+005   -4.67273E+005    7.21998E+004   -2.38328E+004   -4.00449E+005    1.59034E+004   -1.77061E+004    1.15207E+005
            3396    4.59379E+005    6.58543E+004   -4.11533E+005    2.74225E+004   -4.11533E+005    4.77387E+005    1.06085E+005   -4.55741E+005    6.27080E+004   -5.39412E+003   -3.75570E+005    1.49379E+004   -2.28980E+004    1.18193E+005
            3397    4.34095E+005    6.40057E+004   -3.78029E+005    4.76658E+004   -3.78029E+005    4.42034E+005    8.87857E+004   -4.33402E+005    6.18601E+004    1.26409E+004   -3.40858E+005    1.01547E+004   -2.75015E+004    1.17014E+005
            3398    4.15915E+005    5.14253E+004   -3.65060E+005    5.02814E+004   -3.65060E+005    4.16486E+005    8.77846E+004   -4.15911E+005    4.98698E+004    1.58715E+004   -3.29095E+005    6.39837E+003   -2.27270E+004    1.14640E+005
            3399    3.85840E+005    5.79427E+004   -3.32530E+005    4.85045E+004   -3.32530E+005    3.90473E+005    7.53609E+004   -3.85580E+005    4.92160E+004    1.97926E+004   -2.95091E+005    3.66020E+003   -2.48200E+004    1.12104E+005
            3400    3.66015E+005    5.40294E+004   -3.20571E+005    3.62061E+004   -3.20571E+005    3.74601E+005    7.67786E+004   -3.65037E+005    3.66801E+004    1.44719E+004   -2.81488E+005    7.84592E+002   -1.58167E+004    1.13367E+005
            3401    3.43052E+005    5.67541E+004   -2.96263E+005    3.58694E+004   -2.96263E+005    3.53017E+005    6.78798E+004   -3.41617E+005    3.74688E+004    1.16283E+004   -2.52736E+005   -9.51410E+002   -1.59246E+004    1.14794E+005
            3402    5.13072E+005    9.30889E+004   -4.64376E+005   -1.19553E+004   -4.64376E+005    5.57465E+005    1.27748E+005   -4.87991E+005    9.16575E+004   -3.25596E+004   -4.42340E+005    1.17344E+004   -2.13625E+004    9.52349E+004
            3403    4.97055E+005    8.87065E+004   -4.41902E+005    1.28860E+004   -4.41902E+005    5.30609E+005    1.13437E+005   -4.83788E+005    8.64105E+004   -8.26925E+003   -4.18451E+005    1.38857E+004   -2.51854E+004    9.75242E+004
            3404    4.77126E+005    8.59329E+004   -4.17517E+005    2.79935E+004   -4.17517E+005    5.03450E+005    1.01197E+005   -4.69114E+005    8.31550E+004    8.86866E+003   -3.95615E+005    1.16559E+004   -3.32343E+004    9.08397E+004
            3405    4.45296E+005    7.41606E+004   -3.90090E+005    3.34581E+004   -3.90090E+005    4.64250E+005    9.41570E+004   -4.41082E+005    7.21063E+004    1.48269E+004   -3.69404E+005    9.46121E+003   -2.70405E+004    8.73762E+004
            3406    4.22934E+005    6.98499E+004   -3.69152E+005    3.56353E+004   -3.69152E+005    4.39002E+005    8.78891E+004   -4.19804E+005    6.76859E+004    1.64543E+004   -3.47807E+005    7.02663E+003   -2.99118E+004    8.57676E+004
            3407    3.86514E+005    5.68142E+004   -3.41146E+005    3.28026E+004   -3.41146E+005    3.97960E+005    8.38430E+004   -3.84831E+005    5.56628E+004    1.17835E+004   -3.18975E+005    5.29063E+003   -2.06902E+004    8.59933E+004
            3408    3.68535E+005    5.30540E+004   -3.25990E+005    3.10517E+004   -3.25990E+005    3.79044E+005    8.06280E+004   -3.67053E+005    5.17829E+004    5.59775E+003   -2.99264E+005    3.46503E+003   -2.00218E+004    9.20608E+004
            3409    5.28519E+005    9.40938E+004   -4.80740E+005   -1.58230E+004   -4.80740E+005    5.74834E+005    1.34157E+005   -5.01827E+005    9.36562E+004   -2.95889E+004   -4.66537E+005    2.88923E+003   -1.55853E+004    7.87694E+004
            3410    5.34324E+005    1.00566E+005   -4.77943E+005   -2.95133E+003   -4.77943E+005    5.78509E+005    1.26776E+005   -5.11028E+005    9.94039E+004   -1.46703E+004   -4.65062E+005    6.72769E+003   -2.42783E+004    7.38353E+004
            3411    5.06740E+005    1.02265E+005   -4.43636E+005    1.17400E+004   -4.43636E+005    5.45901E+005    1.09877E+005   -4.88048E+005    1.00418E+005    1.44016E+003   -4.31489E+005    6.01194E+003   -3.09946E+004    6.76255E+004
            3412    4.90173E+005    9.51114E+004   -4.29812E+005    1.59832E+004   -4.29812E+005    5.24923E+005    1.06239E+005   -4.75484E+005    9.31137E+004    7.80385E+003   -4.19635E+005    6.89691E+003   -3.09687E+004    6.00089E+004
            3413    4.50069E+005    9.08685E+004   -3.92508E+005    1.44757E+004   -3.92508E+005    4.83376E+005    9.57212E+004   -4.35123E+005    8.86599E+004    6.70805E+003   -3.82531E+005    6.01131E+003   -3.18460E+004    5.56438E+004
            3414    4.23120E+005    7.77502E+004   -3.75214E+005    9.84960E+003   -3.75214E+005    4.52965E+005    9.58715E+004   -4.10594E+005    7.60666E+004   -2.15177E+002   -3.63466E+005    6.18990E+003   -2.65184E+004    6.14459E+004
            3415    3.90805E+005    7.07806E+004   -3.47320E+005    8.77688E+003   -3.47320E+005    4.18101E+005    8.92542E+004   -3.79502E+005    6.94274E+004   -3.98224E+003   -3.33208E+005    5.30392E+003   -2.30614E+004    6.60861E+004
            3416    4.28805E+005    9.14325E+004   -3.79754E+005   -1.24000E+004   -3.79754E+005    4.71186E+005    1.00240E+005   -3.99022E+005    8.97104E+004   -1.75972E+004   -3.72835E+005    6.18397E+003   -2.72276E+004    4.36133E+004
            3417    4.58006E+005    1.05154E+005   -3.98408E+005   -6.67019E+003   -3.98408E+005    5.03562E+005    9.99745E+004   -4.25634E+005    1.02978E+005   -9.00159E+003   -3.93900E+005    5.72477E+003   -3.19878E+004    3.06265E+004
            3418    4.97675E+005    1.16297E+005   -4.28962E+005    8.31846E+002   -4.28962E+005    5.45259E+005    1.03944E+005   -4.66087E+005    1.13952E+005   -1.02422E+003   -4.24761E+005    5.13297E+003   -3.49027E+004    2.86082E+004
            3419    5.21225E+005    1.24886E+005   -4.44746E+005    8.33866E+003   -4.44746E+005    5.69632E+005    1.03840E+005   -4.90605E+005    1.22841E+005    6.83275E+003   -4.41195E+005    4.84774E+003   -3.32483E+004    2.66234E+004
            3420    5.58731E+005    1.24975E+005   -4.82298E+005    1.00075E+004   -4.82298E+005    6.07272E+005    1.15772E+005   -5.31132E+005    1.23341E+005    6.69182E+003   -4.77348E+005    4.82775E+003   -3.07278E+004    4.04701E+004
            3421    5.50999E+005    1.20638E+005   -4.83129E+005   -7.46483E+003   -4.83129E+005    6.03766E+005    1.23319E+005   -5.15873E+005    1.19628E+005   -1.37281E+004   -4.75856E+005    5.72366E+003   -2.32989E+004    5.44686E+004
            3422    5.59175E+005    1.14372E+005   -5.00265E+005   -2.16516E+004   -5.00265E+005    6.14637E+005    1.35848E+005   -5.19959E+005    1.13359E+005   -2.75625E+004   -4.93340E+005    6.67056E+003   -2.27925E+004    5.33491E+004
            3423    2.94166E+005    2.50505E+005    2.50505E+005   -2.81394E+004   -5.70479E+004    3.07553E+005   -5.51058E+004    2.90944E+005   -2.81628E+004    3.09471E+004    1.62533E+005   -1.94055E+003   -1.11885E+003    1.38962E+005
            3424    3.05726E+005    2.56652E+005    2.56652E+005   -1.97537E+004   -7.17311E+004    3.28383E+005   -5.50556E+004    2.95539E+005   -1.97875E+004    4.29771E+004    1.41977E+005   -4.17392E+003   -1.97320E+003    1.56472E+005
            3425    3.27922E+005    2.58071E+005    2.58071E+005   -1.41865E+004   -1.05960E+005    3.64031E+005   -4.59749E+004    2.96903E+005   -1.42397E+004    3.52642E+004    1.16900E+005   -7.36641E+003   -2.31853E+003    1.77198E+005
            3426    3.44127E+005    2.53852E+005    2.53852E+005   -8.43719E+003   -1.35801E+005    3.89653E+005   -3.65378E+004    2.83308E+005   -8.47640E+003    2.70577E+004    9.10321E+004   -1.08445E+004   -2.55326E+003    1.91853E+005
            3427    3.32288E+005    2.43982E+005    2.43982E+005   -8.13443E+003   -1.32561E+005    3.76544E+005   -3.44289E+004    2.71927E+005   -8.30489E+003    1.91952E+004    9.23963E+004   -1.09253E+004   -1.67685E+003    1.84319E+005
            3428    3.20934E+005    2.36730E+005    2.36730E+005   -9.35408E+003   -1.26272E+005    3.63002E+005   -3.37013E+004    2.66270E+005   -9.90928E+003    1.25792E+004    9.84340E+004   -1.11317E+004    6.38339E+002    1.75896E+005
            3429    3.16178E+005    2.35105E+005    2.35105E+005   -9.03436E+003   -1.22051E+005    3.57156E+005   -3.46730E+004    2.64645E+005   -9.41570E+003    9.15175E+003    1.04283E+005   -1.07219E+004   -6.99813E+002    1.71718E+005
            3430    3.09941E+005    2.30643E+005    2.30643E+005   -1.09928E+004   -1.18807E+005    3.49450E+005   -3.36145E+004    2.62485E+005   -1.18118E+004    3.45703E+003    1.09198E+005   -1.07249E+004    2.04001E+003    1.66009E+005
            3431    3.09076E+005    2.34431E+005    2.34431E+005   -9.43600E+003   -1.13167E+005    3.47598E+005   -3.72762E+004    2.65449E+005   -1.00691E+004    2.61184E+003    1.19286E+005   -1.02915E+004    6.70429E+002    1.63254E+005
            3432    3.06900E+005    2.32387E+005    2.32387E+005   -1.27849E+004   -1.11797E+005    3.44183E+005   -3.59351E+004    2.67254E+005   -1.38907E+004   -4.99525E+003    1.26691E+005   -9.76788E+003    4.23106E+003    1.58383E+005
            3433    3.12945E+005    2.42752E+005    2.42752E+005   -1.06266E+004   -1.07060E+005    3.49812E+005   -4.16882E+004    2.76428E+005   -1.14922E+004   -4.92792E+003    1.41485E+005   -8.70317E+003    3.39921E+003    1.58358E+005
            3434    3.17389E+005    2.49261E+005    2.49261E+005   -1.33584E+004   -1.03428E+005    3.52689E+005   -4.41580E+004    2.86449E+005   -1.34959E+004    2.46168E+004    1.21353E+005   -7.65311E+003   -1.84279E+003    1.69364E+005
            3435    3.16209E+005    2.49421E+005    2.49421E+005   -1.46819E+004   -1.00976E+005    3.50398E+005   -4.45877E+004    2.87877E+005   -1.52706E+004    1.73468E+004    1.31687E+005   -8.19319E+003    1.26921E+003    1.65242E+005
            3436    3.10379E+005    2.47164E+005    2.47164E+005   -1.50653E+004   -9.55216E+004    3.42686E+005   -4.55257E+004    2.85470E+005   -1.54664E+004    1.22019E+004    1.39842E+005   -7.71693E+003   -3.34540E+002    1.58711E+005
            3437    3.09765E+005    2.50500E+005    2.50500E+005   -1.65706E+004   -8.90924E+004    3.39592E+005   -4.82789E+004    2.89726E+005   -1.75185E+004    9.75280E+003    1.52602E+005   -7.67848E+003    3.33050E+003    1.53513E+005
            3438    3.07383E+005    2.51308E+005    2.51308E+005   -1.67130E+004   -8.42158E+004    3.35524E+005   -5.01265E+004    2.89994E+005   -1.74586E+004    2.97496E+003    1.64863E+005   -7.18822E+003    1.84595E+003    1.46499E+005
            3439    3.13310E+005    2.59706E+005    2.59706E+005   -1.94417E+004   -7.91676E+004    3.38874E+005   -5.36991E+004    3.00099E+005   -2.07920E+004    6.86541E+002    1.81203E+005   -6.55159E+003    6.68160E+003    1.42567E+005
            3440    3.17524E+005    2.64997E+005    2.64997E+005   -2.00433E+004   -7.72366E+004    3.42234E+005   -5.59056E+004    3.05611E+005   -2.10319E+004   -8.27439E+003    1.97023E+005   -5.48913E+003    5.93256E+003    1.36255E+005
            3441    3.09826E+005    2.54767E+005    2.54767E+005   -1.99393E+004   -8.10653E+004    3.35833E+005   -5.12542E+004    2.95799E+005   -1.99734E+004    2.53294E+004    1.48407E+005   -4.41479E+003   -2.11166E+003    1.56145E+005
            3442    3.11546E+005    2.57815E+005    2.57815E+005   -2.23801E+004   -7.76772E+004    3.35492E+005   -5.25860E+004    3.00206E+005   -2.28423E+004    2.11677E+004    1.59433E+005   -4.61913E+003    2.14430E+003    1.52583E+005
            3443    3.08467E+005    2.61060E+005    2.61060E+005   -2.20428E+004   -6.76850E+004    3.28745E+005   -5.71108E+004    3.00729E+005   -2.22628E+004    2.02021E+004    1.73393E+005   -3.86110E+003   -7.71322E+001    1.45294E+005
            3444    3.08513E+005    2.62994E+005    2.62994E+005   -2.69527E+004   -6.12239E+004    3.24218E+005   -5.82725E+004    3.04186E+005   -2.77174E+004    1.36347E+004    1.88900E+005   -3.22074E+003    4.83736E+003    1.35896E+005
            3445    3.10829E+005    2.71865E+005    2.71865E+005   -2.57202E+004   -5.06994E+004    3.22565E+005   -6.51486E+004    3.08559E+005   -2.62481E+004    1.23994E+004    2.09294E+005   -2.42664E+003    3.29970E+003    1.27402E+005
            3446    3.20936E+005    2.78927E+005    2.78927E+005   -3.27306E+004   -5.05457E+004    3.29473E+005   -6.52169E+004    3.19821E+005   -3.41417E+004    1.32339E+003    2.28469E+005   -1.44800E+003    9.74206E+003    1.18040E+005
            3447    3.33719E+005    2.95455E+005    2.95455E+005   -3.17123E+004   -4.44500E+004    3.39905E+005   -7.30976E+004    3.33171E+005   -3.25616E+004   -8.51216E+001    2.51940E+005   -2.73684E+002    9.15815E+003    1.13078E+005
            3448    3.09631E+005    2.61227E+005    2.61227E+005   -2.66063E+004   -6.63614E+004    3.27589E+005   -5.60866E+004    3.03810E+005   -2.65872E+004    2.64510E+004    1.68396E+005   -1.94847E+003   -2.05529E+003    1.47600E+005
            3449    3.08211E+005    2.64798E+005    2.64798E+005   -2.98945E+004   -5.53515E+004    3.20150E+005   -5.98507E+004    3.05832E+005   -3.01365E+004    2.86311E+004    1.81058E+005   -1.47336E+003    2.41211E+003    1.40623E+005
            3450    3.04611E+005    2.67966E+005    2.67966E+005   -3.20034E+004   -4.10845E+004    3.09050E+005   -6.49592E+004    3.04306E+005   -3.21032E+004    2.81538E+004    1.98827E+005   -3.56105E+002    1.37345E+003    1.28760E+005
            3451    3.09177E+005    2.77800E+005    2.77800E+005   -2.48220E+004   -3.75407E+004    3.15340E+005   -7.18124E+004    3.08588E+005   -3.71856E+004    2.77128E+004    2.24910E+005    8.11716E+002    5.98743E+003    1.14869E+005
            3452    3.19911E+005    2.89118E+005    2.89118E+005   -2.01355E+004   -4.04790E+004    3.29597E+005   -7.61678E+004    3.18450E+005   -4.03441E+004    1.88861E+004    2.49961E+005    1.90918E+003    6.18395E+003    1.02675E+005
            3453    3.38617E+005    3.05799E+005    3.05799E+005   -1.45873E+004   -4.84978E+004    3.54297E+005   -8.09046E+004    3.34765E+005   -4.79907E+004    1.56453E+004    2.75059E+005    2.87897E+003    1.26048E+004    9.36428E+004
            3454    3.57067E+005    3.21035E+005    3.21035E+005   -1.63277E+004   -5.29184E+004    3.73954E+005   -8.39297E+004    3.52812E+005   -5.23399E+004    5.53398E+003    2.98595E+005    3.99501E+003    1.41208E+004    8.29783E+004
            3455    3.93217E+005    3.53744E+005    3.53744E+005    1.28366E+004   -7.64334E+004    4.30178E+005   -9.67158E+004    3.69371E+005   -7.53053E+004    2.22725E+004    3.43180E+005    6.34613E+003    2.03173E+004    5.61078E+004
            3456    3.65717E+005    3.30948E+005    3.30948E+005    9.00238E+003   -6.66946E+004    3.97642E+005   -9.10852E+004    3.47430E+005   -6.59691E+004    2.32648E+004    3.15960E+005    6.26403E+003    1.44515E+004    6.64668E+004
            3457    3.38096E+005    3.10623E+005    3.10623E+005    1.11293E+004   -5.60017E+004    3.66625E+005   -8.85837E+004    3.22586E+005   -5.55550E+004    3.37507E+004    2.87555E+005    5.83628E+003    9.44432E+003    7.93313E+004
            3458    3.17704E+005    2.91223E+005    2.91223E+005    1.21026E+003   -4.83481E+004    3.39571E+005   -8.13618E+004    3.08828E+005   -4.80856E+004    3.65077E+004    2.55663E+005    4.69821E+003    5.94516E+003    9.49378E+004
            3459    3.03806E+005    2.76690E+005    2.76690E+005   -1.13415E+004   -4.07515E+004    3.17441E+005   -7.48656E+004    3.00578E+005   -4.06043E+004    4.14558E+004    2.23745E+005    3.24736E+003    2.93955E+003    1.11533E+005
            3460    3.05347E+005    2.66003E+005    2.66003E+005   -3.79285E+004   -4.07386E+004    3.06742E+005   -6.24455E+004    3.05318E+005   -3.80174E+004    3.23264E+004    1.93027E+005    1.39037E+003    1.41611E+003    1.30572E+005
            3461    3.03890E+005    2.55601E+005    2.55601E+005   -3.52301E+004   -5.98498E+004    3.15451E+005   -5.35071E+004    3.01634E+005   -3.52356E+004    1.97805E+004    1.75977E+005   -1.45441E+002   -1.23925E+003    1.37025E+005
            3462    3.66718E+005    5.86925E+004   -3.31355E+005    6.42630E+003   -3.31355E+005    3.90047E+005    8.87453E+004   -3.58195E+005    5.79495E+004   -1.22472E+004   -3.11938E+005    4.86532E+003   -1.61239E+004    7.71399E+004
            3463    3.41479E+005    4.27703E+004   -3.04541E+005    3.07900E+004   -3.04541E+005    3.47312E+005    7.69936E+004   -3.41006E+005    4.22143E+004   -5.45268E+002   -2.72650E+005    2.18273E+003   -1.14236E+004    9.78056E+004
            3464    3.28393E+005    5.45172E+004   -2.86886E+005    2.67313E+004   -2.86886E+005    3.41403E+005    6.85457E+004   -3.25732E+005    2.77516E+004    2.83371E+003   -2.36222E+005   -2.64024E+003   -8.04531E+003    1.20970E+005
            3465    3.15811E+005    8.15175E+004   -2.60771E+005    1.93014E+004   -2.60771E+005    3.42288E+005    5.33174E+004   -3.01556E+005    2.02800E+004    7.29217E+003   -1.87524E+005   -5.82709E+003   -5.73299E+003    1.40099E+005
            3466    3.11054E+005    1.05818E+005   -2.41694E+005    1.06806E+004   -2.41694E+005    3.47512E+005    4.17320E+004   -2.75350E+005    1.16931E+004    6.19424E+003   -1.43083E+005   -9.16933E+003   -3.85494E+003    1.56336E+005
            3467    3.07177E+005    1.35035E+005   -2.15435E+005    7.08825E+003   -2.15435E+005    3.50470E+005    2.44371E+004   -2.34910E+005    7.81971E+003    6.06409E+003   -8.71951E+004   -1.11370E+004   -2.39351E+003    1.68429E+005
            3468    3.04246E+005    1.57977E+005   -1.92635E+005    1.87875E+003   -1.92635E+005    3.50612E+005    1.09264E+004   -1.74412E+005    2.22185E+003    1.27707E+003   -3.62782E+004   -1.21549E+004   -1.11777E+003    1.73850E+005
            3469    3.07061E+005    1.89407E+005    1.89407E+005   -8.89588E+002   -1.64831E+005    3.54237E+005   -7.89549E+003    1.54922E+005   -1.02845E+003    3.48678E+002    2.43662E+004   -1.21922E+004    1.29527E+002    1.76285E+005
            3470    3.05069E+005    2.10702E+005    2.10702E+005   -5.73463E+003   -1.38209E+005    3.48912E+005   -2.22528E+004    2.25228E+005   -6.32852E+003   -6.06340E+003    7.91503E+004   -1.14202E+004    1.51806E+003    1.68706E+005
            3471    3.41803E+005    5.25540E+004   -3.08756E+005    9.45007E+003   -3.08756E+005    3.61310E+005    8.22507E+004   -3.35606E+005    5.20903E+004   -1.58512E+004   -2.82991E+005    3.70222E+003   -1.23931E+004    8.60183E+004
            3472    3.28413E+005    4.07369E+004   -2.91743E+005    3.24471E+004   -2.91743E+005    3.32480E+005    7.28529E+004   -3.28178E+005    3.89887E+004   -8.01661E+003   -2.49531E+005    6.18497E+002   -1.03881E+004    1.08994E+005
            3473    3.14898E+005    6.11548E+004   -2.69433E+005    2.69891E+004   -2.69433E+005    3.30588E+005    6.04298E+004   -3.10687E+005    2.84206E+004   -1.02499E+003   -2.08685E+005   -3.95950E+003   -8.18518E+003    1.27552E+005
            3474    3.11302E+005    8.57738E+004   -2.53938E+005    1.76833E+004   -2.53938E+005    3.39712E+005    5.01603E+004   -2.93839E+005    1.89016E+004    8.11125E+002   -1.70194E+005   -7.20000E+003   -5.63504E+003    1.46054E+005
            3475    3.07150E+005    1.13772E+005   -2.31484E+005    1.14269E+004   -2.31484E+005    3.45256E+005    3.54283E+004   -2.64493E+005    1.25081E+004    3.85514E+003   -1.22648E+005   -1.03176E+004   -3.69680E+003    1.60008E+005
            3476    3.06120E+005    1.36616E+005   -2.13207E+005    5.60291E+003   -2.13207E+005    3.49824E+005    2.36627E+004   -2.28960E+005    6.35098E+003    1.56788E+003   -7.89069E+004   -1.22602E+004   -2.05747E+003    1.69668E+005
            3477    3.06944E+005    1.64846E+005   -1.89177E+005    2.52361E+003   -1.89177E+005    3.54023E+005    7.26904E+003   -1.60559E+005    2.77327E+003    2.23767E+003   -2.68181E+004   -1.31617E+004   -5.70304E+002    1.75911E+005
            3478    3.04882E+005    1.85341E+005    1.85341E+005   -2.65029E+003   -1.66429E+005    3.51770E+005   -5.42043E+003    1.49908E+005   -2.91184E+003   -2.01868E+003    2.11918E+004   -1.32040E+004    8.32729E+002    1.74993E+005
            3479    3.08273E+005    2.13486E+005    2.13486E+005   -5.37077E+003   -1.39065E+005    3.52551E+005   -2.30170E+004    2.27863E+005   -6.15096E+003   -1.04134E+003    7.62432E+004   -1.23195E+004    2.42459E+003    1.71431E+005
            3480    3.23059E+005    4.31129E+004   -2.94107E+005    1.26312E+004   -2.94107E+005    3.37219E+005    7.94542E+004   -3.19800E+005    4.29448E+004   -2.43417E+004   -2.56966E+005    2.71497E+003   -7.01185E+003    9.98394E+004
            3481    3.11871E+005    4.06407E+004   -2.75770E+005    3.13539E+004   -2.75770E+005    3.16411E+005    6.79253E+004   -3.11560E+005    3.18648E+004   -1.34918E+004   -2.22149E+005   -5.37352E+002   -4.14225E+003    1.18536E+005
            3482    3.09177E+005    6.59428E+004   -2.63493E+005    2.03664E+004   -2.63493E+005    3.29436E+005    5.90612E+004   -3.01480E+005    2.10766E+004   -9.13420E+003   -1.89126E+005   -5.08396E+003   -2.46765E+003    1.37535E+005
            3483    3.06998E+005    9.37587E+004   -2.44992E+005    1.48487E+004   -2.44992E+005    3.38751E+005    4.54614E+004   -2.82799E+005    1.55660E+004   -3.29450E+003   -1.48656E+005   -8.21213E+003   -1.39827E+003    1.52548E+005
            3484    3.08422E+005    1.18265E+005   -2.30072E+005    8.28660E+003   -2.30072E+005    3.48337E+005    3.45066E+004   -2.58433E+005    8.96596E+003   -2.02614E+003   -1.10460E+005   -1.10756E+004   -8.45772E+002    1.65009E+005
            3485    3.09313E+005    1.45286E+005   -2.09266E+005    5.34357E+003   -2.09266E+005    3.54552E+005    1.95456E+004   -2.19028E+005    5.81344E+003    6.95840E+002   -6.51462E+004   -1.29357E+004   -4.94133E+002    1.73660E+005
            3486    3.08617E+005    1.66295E+005   -1.89752E+005    1.19929E+003   -1.89752E+005    3.56047E+005    7.41931E+003   -1.54463E+005    1.39662E+003   -7.87051E+002   -2.28675E+004   -1.36908E+004   -3.44597E+002    1.77145E+005
            3487    3.10485E+005    1.92449E+005    1.92449E+005   -1.25389E+003   -1.65670E+005    3.58119E+005   -8.50847E+003    1.61629E+005   -1.38166E+003    1.29096E+003    2.56161E+004   -1.37022E+004   -2.04862E+002    1.78114E+005
            3488    3.07385E+005    2.10297E+005    2.10297E+005   -5.22364E+003   -1.41694E+005    3.51991E+005   -2.11267E+004    2.22106E+005   -5.65509E+003   -1.18808E+003    7.02233E+004   -1.27169E+004    9.24941E+001    1.71816E+005
            3489    3.08900E+005    3.85473E+004   -2.77926E+005    2.27982E+004   -2.77926E+005    3.16473E+005    7.21935E+004   -3.07995E+005    3.83936E+004   -2.80101E+004   -2.26964E+005    1.22966E+003   -5.20775E+003    1.12739E+005
            3490    3.08519E+005    5.03287E+004   -2.68431E+005    2.87103E+004   -2.68431E+005    3.18759E+005    6.31306E+004   -3.06808E+005    2.93929E+004   -1.99956E+004   -1.98789E+005   -1.99194E+003   -4.49319E+003    1.31497E+005
            3491    3.07500E+005    7.79719E+004   -2.54205E+005    2.05138E+004   -2.54205E+005    3.32177E+005    5.19063E+004   -2.95058E+005    2.14204E+004   -1.18312E+004   -1.65308E+005   -6.13066E+003   -3.69910E+003    1.46786E+005
            3492    3.10659E+005    1.02722E+005   -2.42780E+005    1.35172E+004   -2.42780E+005    3.45503E+005    4.21802E+004   -2.79592E+005    1.43719E+004   -8.52005E+003   -1.32392E+005   -9.15452E+003   -2.37449E+003    1.60765E+005
            3493    3.12539E+005    1.29337E+005   -2.25562E+005    8.59353E+003   -2.25562E+005    3.54899E+005    2.92105E+004   -2.51394E+005    9.30981E+003   -3.34104E+003   -9.36001E+004   -1.17250E+004   -1.49968E+003    1.71087E+005
            3494    3.14027E+005    1.50801E+005   -2.09730E+005    4.09134E+003   -2.09730E+005    3.60531E+005    1.82790E+004   -2.13822E+005    4.56111E+003   -2.83803E+003   -5.65601E+004   -1.34833E+004   -7.52451E+002    1.77696E+005
            3495    3.15646E+005    1.75280E+005   -1.89068E+005    1.49903E+003   -1.89068E+005    3.64348E+005    4.09622E+003   -1.35834E+005    1.60988E+003    5.82727E+002   -1.44812E+004   -1.41056E+004   -9.16314E+001    1.81468E+005
            3496    3.13498E+005    1.93327E+005    1.93327E+005   -2.50294E+003   -1.68253E+005    3.61579E+005   -7.52362E+003    1.64122E+005   -2.75459E+003   -8.43481E+001    2.54098E+004   -1.40887E+004    5.08352E+002    1.79777E+005
            3497    3.14241E+005    2.15577E+005    2.15577E+005   -5.10117E+003   -1.44208E+005    3.59785E+005   -2.20891E+004    2.27734E+005   -5.69525E+003    3.26903E+003    6.86935E+004   -1.29815E+004    1.23586E+003    1.76343E+005
            3498    3.04963E+005    3.64585E+004   -2.70917E+005    3.15760E+004   -2.70917E+005    3.07375E+005    6.76275E+004   -3.04876E+005    3.17316E+004   -3.28887E+004   -2.01725E+005   -5.89665E+001   -1.73910E+003    1.28325E+005
            3499    3.06436E+005    6.29924E+004   -2.60938E+005    2.43346E+004   -2.60938E+005    3.23931E+005    5.78704E+004   -3.00877E+005    2.45132E+004   -2.27496E+004   -1.75375E+005   -3.04903E+003   -1.17737E+002    1.42751E+005
            3500    3.11274E+005    8.77528E+004   -2.53058E+005    1.62296E+004   -2.53058E+005    3.40811E+005    4.96919E+004   -2.91915E+005    1.65667E+004   -1.71447E+004   -1.48498E+005   -6.75680E+003    5.06562E+002    1.56988E+005
            3501    3.15377E+005    1.13948E+005   -2.39883E+005    1.16336E+004   -2.39883E+005    3.53831E+005    3.81005E+004   -2.74127E+005    1.20178E+004   -1.06593E+004   -1.15660E+005   -9.76627E+003    7.06194E+002    1.68577E+005
            3502    3.19362E+005    1.36736E+005   -2.27167E+005    6.48957E+003   -2.27167E+005    3.63903E+005    2.79806E+004   -2.48080E+005    6.84915E+003   -7.52237E+003   -8.32685E+004   -1.21838E+004    5.66983E+002    1.77495E+005
            3503    3.22500E+005    1.61090E+005   -2.09877E+005    3.78567E+003   -2.09877E+005    3.70967E+005    1.50004E+004   -2.05694E+005    4.02795E+003   -2.88501E+003   -4.61442E+004   -1.39151E+004    3.08234E+002    1.83673E+005
            3504    3.22422E+005    1.80246E+005   -1.91982E+005    4.67690E+002   -1.91982E+005    3.72229E+005    3.75617E+003   -1.25463E+005    5.43146E+002   -1.39034E+003   -1.04213E+004   -1.44758E+004   -5.82751E+001    1.85494E+005
            3505    3.22825E+005    2.01893E+005    2.01893E+005   -1.69706E+003   -1.70327E+005    3.72219E+005   -9.95631E+003    1.75913E+005   -1.81306E+003    3.13380E+003    2.85482E+004   -1.43069E+004   -4.21661E+002    1.85117E+005
            3506    3.18325E+005    2.16942E+005    2.16942E+005   -5.19679E+003   -1.47744E+005    3.64687E+005   -2.13338E+004    2.27956E+005   -5.48045E+003    4.13415E+003    6.53476E+004   -1.29875E+004   -6.38926E+002    1.79254E+005
            3507    3.06698E+005    5.39937E+004   -2.64378E+005    2.91341E+004   -2.64378E+005    3.18372E+005    6.04166E+004   -3.04419E+005    2.92926E+004   -3.15969E+004   -1.78946E+005   -1.40641E+003   -1.50961E+003    1.41020E+005
            3508    3.12257E+005    7.54480E+004   -2.60004E+005    2.22153E+004   -2.60004E+005    3.35452E+005    5.41134E+004   -3.01794E+005    2.26219E+004   -2.57569E+004   -1.59205E+005   -4.45224E+003   -1.70063E+003    1.53657E+005
            3509    3.17490E+005    9.97726E+004   -2.51188E+005    1.60500E+004   -2.51188E+005    3.50961E+005    4.51219E+004   -2.91059E+005    1.66068E+004   -1.87615E+004   -1.33211E+005   -7.73700E+003   -1.31650E+003    1.65547E+005
            3510    3.23577E+005    1.22395E+005   -2.42360E+005    1.01397E+004   -2.42360E+005    3.64755E+005    3.66085E+004   -2.74336E+005    1.06923E+004   -1.46908E+004   -1.05827E+005   -1.06208E+004   -6.58750E+002    1.76162E+005
            3511    3.28618E+005    1.46930E+005   -2.28617E+005    6.20533E+003   -2.28617E+005    3.75547E+005    2.51605E+004   -2.45663E+005    6.65299E+003   -9.04289E+003   -7.30915E+004   -1.29300E+004   -3.01954E+002    1.84512E+005
            3512    3.32062E+005    1.68109E+005   -2.14174E+005    2.66750E+003   -2.14174E+005    3.82283E+005    1.44658E+004   -2.03550E+005    2.93785E+003   -5.79586E+003   -4.05395E+004   -1.45448E+004   -9.00421E+001    1.89775E+005
            3513    3.34142E+005    1.90303E+005   -1.95513E+005    5.66686E+002   -1.95513E+005    3.85816E+005    1.54775E+003   -1.02032E+005    5.96371E+002   -1.03110E+002   -5.13650E+003   -1.51045E+004    3.50377E+001    1.92299E+005
            3514    3.31609E+005    2.07160E+005    2.07160E+005   -2.27709E+003   -1.75167E+005    3.82328E+005   -9.90525E+003    1.81752E+005   -2.48754E+003    3.09912E+003    2.91042E+004   -1.48035E+004    1.23536E+002    1.90135E+005
            3515    3.29188E+005    2.25146E+005    2.25146E+005   -4.77451E+003   -1.51954E+005    3.77100E+005   -2.28056E+004    2.36130E+005   -5.19194E+003    8.94450E+003    6.46644E+004   -1.34055E+004    3.12179E+002    1.85951E+005
            3516    3.09578E+005    6.54895E+004   -2.61822E+005    2.62883E+004   -2.61822E+005    3.27311E+005    5.66812E+004   -3.03918E+005    2.62742E+004   -3.18836E+004   -1.64434E+005   -1.96256E+003    1.86955E+003    1.49617E+005
            3517    3.15756E+005    8.58423E+004   -2.57498E+005    2.04265E+004   -2.57498E+005    3.43340E+005    5.04096E+004   -2.99936E+005    2.04331E+004   -2.64595E+004   -1.45202E+005   -4.37683E+003    2.35058E+003    1.60998E+005
            3518    3.22220E+005    1.06180E+005   -2.52144E+005    1.37864E+004   -2.52144E+005    3.58324E+005    4.40592E+004   -2.90097E+005    1.38736E+004   -2.31480E+004   -1.22903E+005   -7.56428E+003    2.25856E+003    1.71876E+005
            3519    3.31659E+005    1.30934E+005   -2.44463E+005    8.84851E+003   -2.44463E+005    3.75398E+005    3.48936E+004   -2.73783E+005    8.99031E+003   -1.90682E+004   -9.46029E+004   -1.07298E+004    1.94256E+003    1.83511E+005
            3520    3.41293E+005    1.55336E+005   -2.35370E+005    4.62046E+003   -2.35370E+005    3.90706E+005    2.51376E+004   -2.47942E+005    4.77090E+003   -1.38905E+004   -6.62932E+004   -1.33766E+004    1.41565E+003    1.93103E+005
            3521    3.47007E+005    1.79510E+005   -2.20325E+005    2.24202E+003   -2.20325E+005    3.99835E+005    1.28579E+004   -2.01124E+005    2.34305E+003   -6.25120E+003   -3.46656E+004   -1.52089E+004    7.57252E+002    1.98824E+005
            3522    3.47569E+005    1.98993E+005   -2.02340E+005    6.79633E+001   -2.02340E+005    4.01333E+005    1.09294E+003   -8.57746E+004    8.48461E+001   -7.77319E+002   -2.58634E+003   -1.58390E+004   -1.52090E+000    2.00038E+005
            3523    3.47068E+005    2.18460E+005    2.18460E+005   -1.55987E+003   -1.81636E+005    4.00096E+005   -1.17549E+004    1.92968E+005   -1.63875E+003    6.27433E+003    3.06290E+004   -1.53086E+004   -7.28667E+002    1.99084E+005
            3524    3.40645E+005    2.32008E+005    2.32008E+005   -4.39786E+003   -1.58451E+005    3.90459E+005   -2.30531E+004    2.41329E+005   -4.54553E+003    1.18795E+004    6.18253E+004   -1.35719E+004   -1.31187E+003    1.93129E+005
            3525    3.58515E+005    2.46397E+005    2.46397E+005   -3.88980E+003   -1.64317E+005    4.10714E+005   -2.60637E+004    2.56938E+005   -3.92761E+003    1.93387E+004    6.27801E+004   -1.38735E+004   -2.01961E+003    2.03719E+005
            3526    3.66363E+005    2.32159E+005    2.32159E+005   -1.26028E+003   -1.90096E+005    4.22255E+005   -1.36011E+004    2.07483E+005   -1.27134E+003    9.88292E+003    3.21917E+004   -1.59602E+004   -1.20001E+003    2.10224E+005
            3527    3.69625E+005    2.13281E+005   -2.13525E+005    1.18465E+002   -2.13525E+005    4.26806E+005    4.16302E+001   -4.61712E+004    1.13277E+002   -1.69189E+002   -6.89786E+001   -1.66577E+004    4.04700E+001    2.12752E+005
            3528    3.66510E+005    1.88919E+005   -2.33424E+005    1.18468E+003   -2.33424E+005    4.22343E+005    1.44403E+004   -2.10997E+005    1.20541E+003   -1.11765E+004   -3.33499E+004   -1.59453E+004    1.17659E+003    2.10272E+005
            3529    3.58012E+005    1.63707E+005   -2.46339E+005    4.17665E+003   -2.46339E+005    4.10046E+005    2.61519E+004   -2.57713E+005    4.20256E+003   -1.94976E+004   -6.31606E+004   -1.38656E+004    2.13190E+003    2.03371E+005
            3530    3.44672E+005    1.35475E+005   -2.54745E+005    8.15101E+003   -2.54745E+005    3.90220E+005    3.70395E+004   -2.84026E+005    8.19472E+003   -2.80426E+004   -9.12707E+004   -1.09655E+004    2.54608E+003    1.92194E+005
            3531    3.26105E+005    1.06259E+005   -2.56032E+005    1.40116E+004   -2.56032E+005    3.62292E+005    4.52538E+004   -2.94535E+005    1.40557E+004   -3.41028E+004   -1.15714E+005   -7.63682E+003    2.51650E+003    1.76296E+005
            3532    3.11044E+005    8.22433E+004   -2.54989E+005    2.06514E+004   -2.54989E+005    3.37232E+005    5.06981E+004   -2.96855E+005    2.06908E+004   -3.17912E+004   -1.40994E+005   -4.81709E+003    2.16798E+003    1.59430E+005
            3533    3.11605E+005    7.22756E+004   -2.59263E+005    2.75837E+004   -2.59263E+005    3.31538E+005    5.31344E+004   -3.04269E+005    2.76172E+004   -2.70931E+004   -1.59927E+005   -2.44305E+003    1.00608E+003    1.51846E+005
            3534    3.95545E+005    7.95104E+004   -3.53492E+005   -1.11415E+004   -3.53492E+005    4.33002E+005    9.50409E+004   -3.71077E+005    7.83395E+004   -1.93582E+004   -3.44104E+005    6.59845E+003   -2.05151E+004    5.26980E+004
            3535    3.66794E+005    6.76639E+004   -3.32705E+005   -1.28703E+004   -3.32705E+005    4.00369E+005    9.26372E+004   -3.46053E+005    6.69096E+004   -2.70398E+004   -3.17781E+005    6.59951E+003   -1.46007E+004    6.60695E+004
            3536    3.37341E+005    5.74656E+004   -3.08420E+005   -9.74048E+003   -3.08420E+005    3.65886E+005    8.68983E+004   -3.21758E+005    5.69940E+004   -3.21509E+004   -2.85538E+005    6.11548E+003   -9.23895E+003    7.89323E+004
            3537    3.16946E+005    4.80728E+004   -2.91128E+005   -2.52290E+003   -2.91128E+005    3.39201E+005    8.18593E+004   -3.07663E+005    4.77947E+004   -3.95488E+004   -2.53824E+005    4.93517E+003   -5.60062E+003    9.66601E+004
            3538    3.04493E+005    4.07385E+004   -2.76050E+005    1.44404E+004   -2.76050E+005    3.16789E+005    7.36238E+004   -3.01922E+005    4.05681E+004   -4.05484E+004   -2.20891E+005    3.27315E+003   -2.60298E+003    1.13917E+005
            3539    3.05013E+005    3.63734E+004   -2.69508E+005    3.46280E+004   -2.69508E+005    3.05882E+005    6.61690E+004   -3.05002E+005    3.51996E+004   -3.94822E+004   -1.94224E+005    1.43377E+003   -8.51681E+002    1.31587E+005
            3540    3.08647E+005    5.59333E+004   -2.64259E+005    3.13763E+004   -2.64259E+005    3.20192E+005    5.89830E+004   -3.06438E+005    3.13747E+004   -3.30596E+004   -1.75264E+005   -3.28105E+002    8.27439E+002    1.43439E+005
            3541    3.74522E+005    3.40764E+005    3.40764E+005   -1.59879E+004   -4.93020E+004    3.90066E+005   -9.18246E+004    3.71166E+005   -4.81360E+004    1.53167E+003    3.22078E+005    6.24499E+003    1.95490E+004    7.71691E+004
            3542    3.45578E+005    3.07900E+005    3.07900E+005   -2.63569E+004   -4.79828E+004    3.55883E+005   -7.78535E+004    3.44051E+005   -2.71258E+004   -1.11367E+004    2.71823E+005   -1.03932E+003    1.21419E+004    1.06666E+005
            3543    3.33623E+005    2.84210E+005    2.84210E+005   -1.29226E+004   -7.66972E+004    3.60907E+005   -6.48634E+004    3.19475E+005   -1.41154E+004   -9.82840E+003    2.18534E+005   -6.18870E+003    7.62644E+003    1.38886E+005
            3544    3.19526E+005    2.48902E+005    2.48902E+005   -6.05870E+003   -1.09540E+005    3.58442E+005   -4.44343E+004    2.77894E+005   -7.42972E+003   -1.19970E+004    1.52730E+005   -1.14893E+004    4.07216E+003    1.58375E+005
            3545    4.04181E+005    3.55531E+005    3.55531E+005   -2.47566E+004   -6.89157E+004    4.24447E+005   -8.72863E+004    3.98699E+005   -6.65062E+004   -1.30793E+004    3.41444E+005    7.45616E+003    3.04700E+004    6.56440E+004
            3546    3.73376E+005    3.30611E+005    3.30611E+005   -3.65251E+004   -4.87061E+004    3.79317E+005   -8.17934E+004    3.72928E+005   -3.90933E+004   -1.23864E+004    2.96860E+005    1.22690E+003    2.34342E+004    1.05122E+005
            3547    3.44378E+005    2.89610E+005    2.89610E+005   -2.40627E+004   -7.88940E+004    3.68504E+005   -6.22177E+004    3.34345E+005   -2.51569E+004   -2.09394E+004    2.32749E+005   -3.30674E+003    1.66323E+004    1.32020E+005
            3548    3.33454E+005    2.63913E+005    2.63913E+005   -1.00190E+004   -1.07388E+005    3.71300E+005   -4.88353E+004    2.98871E+005   -1.17034E+004   -1.27203E+004    1.70930E+005   -8.84433E+003    1.06704E+004    1.60285E+005
            3549    4.34103E+005    3.87344E+005    3.87344E+005   -1.93733E+004   -6.97490E+004    4.57093E+005   -9.94071E+004    4.27452E+005   -6.70559E+004   -8.56030E+003    3.73837E+005    9.17574E+003    3.20499E+004    6.60619E+004
            3550    3.90193E+005    3.46053E+005    3.46053E+005   -4.10263E+004   -4.71809E+004    3.93234E+005   -8.59485E+004    3.90083E+005   -4.08443E+004   -1.95321E+004    3.18222E+005    3.71863E+003    2.33387E+004    9.80552E+004
            3551    3.66996E+005    3.17679E+005    3.17679E+005   -2.31698E+004   -7.08109E+004    3.88490E+005   -7.45661E+004    3.59940E+005   -2.31151E+004   -1.60808E+004    2.62894E+005    6.76118E+002    1.74774E+004    1.34076E+005
            3552    3.37801E+005    2.70917E+005    2.70917E+005   -1.18791E+004   -1.03138E+005    3.74055E+005   -5.19667E+004    3.08186E+005   -1.26667E+004   -1.80204E+004    1.86587E+005   -4.79268E+003    1.08857E+004    1.55871E+005
            3553    4.71162E+005    4.03128E+005    4.03128E+005   -3.06115E+004   -9.81639E+004    5.01292E+005   -9.14509E+004    4.60077E+005   -9.38588E+004   -2.21655E+004    3.90377E+005    1.04498E+004    4.38604E+004    6.05171E+004
            3554    4.30096E+005    3.77665E+005    3.77665E+005   -4.11781E+004   -6.28628E+004    4.40528E+005   -9.12080E+004    4.28863E+005   -5.92409E+004   -1.40952E+004    3.46960E+005    7.45172E+003    3.75823E+004    1.03084E+005
            3555    3.80319E+005    3.23213E+005    3.23213E+005   -4.25479E+004   -7.01596E+004    3.93373E+005   -7.01685E+004    3.78054E+005   -4.07317E+004   -2.23078E+004    2.73545E+005    6.48853E+003    2.94954E+004    1.27263E+005
            3556    3.57575E+005    2.93137E+005    2.93137E+005   -2.00777E+004   -9.64569E+004    3.89593E+005   -5.88673E+004    3.38484E+005   -1.97256E+004   -1.60382E+004    2.12366E+005    1.68304E+003    2.00990E+004    1.56648E+005
            3557    5.09450E+005    4.51428E+005    4.51428E+005   -1.56989E+004   -9.17860E+004    5.43214E+005   -1.14648E+005    4.96425E+005   -8.84651E+004   -3.75397E+003    4.36162E+005    1.25899E+004    3.72976E+004    7.51049E+004
            3558    4.47180E+005    3.93995E+005    3.93995E+005   -3.49593E+004   -6.94175E+004    4.63412E+005   -9.65393E+004    4.44178E+005   -6.68871E+004   -1.00856E+004    3.66590E+005    1.01682E+004    3.16727E+004    1.00238E+005
            3559    4.15895E+005    3.64029E+005    3.64029E+005   -4.92815E+004   -5.44036E+004    4.18433E+005   -8.67814E+004    4.15825E+005   -4.76634E+004   -8.02687E+003    3.16034E+005    1.26390E+004    3.00142E+004    1.29558E+005
            3560    3.72931E+005    3.10213E+005    3.10213E+005   -3.19929E+004   -8.72730E+004    3.97486E+005   -6.36490E+004    3.63542E+005   -3.01131E+004   -1.66410E+004    2.37701E+005    1.03828E+004    2.30816E+004    1.51502E+005
            3561    5.24701E+005    4.42446E+005    4.42446E+005   -1.75901E+004   -1.29019E+005    5.71465E+005   -9.86123E+004    4.97023E+005   -1.23660E+005   -4.34833E+003    4.23845E+005    1.60875E+004    5.07261E+004    7.77635E+004
            3562    4.75891E+005    4.18730E+005    4.18730E+005   -1.57526E+004   -8.98715E+004    5.08602E+005   -1.04369E+005    4.62637E+005   -8.60773E+004    6.60807E+003    3.92575E+005    1.39182E+004    4.01491E+004    9.61258E+004
            3563    4.39393E+005    3.78979E+005    3.78979E+005   -4.45010E+004   -7.47632E+004    4.53742E+005   -8.65715E+004    4.37039E+005   -7.06284E+004   -7.40620E+003    3.37749E+005    1.65998E+004    3.27884E+004    1.21194E+005
            3564    4.06646E+005    3.47995E+005    3.47995E+005   -4.55754E+004   -7.05729E+004    4.18568E+005   -7.72822E+004    4.04912E+005   -4.50429E+004   -3.31450E+003    2.80204E+005    1.79765E+004    2.52035E+004    1.51141E+005
            3565    5.33367E+005    4.77157E+005    4.77157E+005    2.62144E+004   -1.11588E+005    5.88745E+005   -1.30595E+005    4.90861E+005   -1.08938E+005    4.02075E+004    4.60515E+005    1.73284E+004    2.80797E+004    8.08788E+004
            3566    5.07812E+005    4.40545E+005    4.40545E+005   -1.18148E+004   -1.08747E+005    5.49291E+005   -1.06661E+005    4.86340E+005   -1.04468E+005    3.98405E+003    4.20467E+005    2.06651E+004    3.11744E+004    8.81050E+004
            3567    4.72529E+005    4.20796E+005    4.20796E+005   -1.35970E+004   -8.23391E+004    5.03135E+005   -1.08287E+005    4.61078E+005   -7.74378E+004    1.90524E+004    3.83246E+005    2.22900E+004    2.67676E+004    1.19102E+005
            3568    4.24758E+005    3.71476E+005    3.71476E+005   -3.33573E+004   -7.07366E+004    4.42213E+005   -8.91274E+004    4.21034E+005   -5.91470E+004    1.24221E+004    3.14107E+005    2.59857E+004    2.13390E+004    1.40595E+005
            3569    4.63516E+005    4.31076E+005    4.31076E+005    2.80912E+004   -7.54566E+004    5.06533E+005   -1.27904E+005    4.36340E+005   -6.98962E+004    7.46264E+004    3.78980E+005    2.72275E+004    1.01486E+004    1.35167E+005
            3570    5.12189E+005    4.59473E+005    4.59473E+005    2.51611E+004   -1.05344E+005    5.64817E+005   -1.26430E+005    4.72561E+005   -1.02258E+005    5.50770E+004    4.26471E+005    2.22453E+004    1.64159E+004    1.13906E+005
            3571    5.59739E+005    4.91953E+005    4.91953E+005    1.96143E+004   -1.26289E+005    6.18242E+005   -1.28426E+005    5.14281E+005   -1.24090E+005    4.57370E+004    4.63632E+005    1.81442E+004    2.37485E+004    1.09818E+005
            3572    5.96168E+005    4.96795E+005    4.96795E+005   -2.38460E+004   -1.53547E+005    6.50342E+005   -1.06467E+005    5.63097E+005   -1.50939E+005   -1.18771E+004    4.82218E+005    1.36527E+004    3.52969E+004    7.94605E+004
            3573    4.16720E+005    3.71212E+005    3.71212E+005    8.01024E+003   -8.37366E+004    4.54948E+005   -9.84951E+004    3.93020E+005   -8.14682E+004    1.30807E+004    3.63873E+005    8.56145E+003    2.92878E+004    4.35911E+004
            3574    4.47892E+005    3.95175E+005    3.95175E+005    1.18516E+004   -9.71594E+004    4.92335E+005   -1.03289E+005    4.16446E+005   -9.41213E+004    1.51874E+004    3.88801E+005    8.40884E+003    3.65298E+004    3.65899E+004
            3575    4.82509E+005    4.12674E+005    4.12674E+005   -2.81490E+003   -1.16538E+005    5.29212E+005   -9.77739E+004    4.50852E+005   -1.12864E+005   -1.59796E+003    4.07784E+005    7.83219E+003    4.20400E+004    2.45225E+004
            3576    5.23858E+005    4.50012E+005    4.50012E+005    1.25574E+003   -1.25636E+005    5.75648E+005   -1.08544E+005    4.87448E+005   -1.22242E+005    3.60757E+003    4.44266E+005    7.10363E+003    4.28838E+004    3.30862E+004
            3577    5.49621E+005    4.65474E+005    4.65474E+005   -5.05368E+003   -1.38621E+005    6.04095E+005   -1.07266E+005    5.11157E+005   -1.35546E+005   -3.05003E+003    4.60395E+005    6.46068E+003    4.19568E+004    3.12817E+004
            3578    6.03384E+005    5.32340E+005    5.32340E+005    2.04906E+004   -1.32949E+005    6.65290E+005   -1.39960E+005    5.56894E+005   -1.30825E+005    2.79121E+004    5.22794E+005    5.89544E+003    3.69823E+004    6.11082E+004
            3579    5.84413E+005    5.14047E+005    5.14047E+005    3.87992E+004   -1.38479E+005    6.52526E+005   -1.38122E+005    5.18537E+005   -1.36646E+005    4.94572E+004    5.01556E+005    8.76553E+003    3.28485E+004    7.04903E+004
            3580    3.90843E+005    3.59947E+005    3.59947E+005    3.95920E+003   -5.82817E+004    4.18229E+005   -1.01875E+005    3.79452E+005   -4.37150E+004    6.40893E+004    2.85250E+005    3.14153E+004    5.08178E+003    1.47585E+005
            3581    3.33556E+005    2.79525E+005    2.79525E+005   -8.86089E+003   -8.57666E+004    3.65292E+005   -6.16326E+004    3.12661E+005   -1.85198E+004    4.01686E+004    1.63249E+005    3.45176E+004    2.03664E+003    1.65183E+005
            3582    3.00997E+005    1.72742E+005   -1.74819E+005   -1.11287E+003   -1.74819E+005    3.47561E+005    1.06342E+003    2.72162E+004   -1.06489E+003    4.14679E+002   -2.54006E+003    3.54903E+004   -3.38838E+001    1.70112E+005
            3583    3.28977E+005    8.63057E+004   -2.74314E+005    9.39013E+003   -2.74314E+005    3.60620E+005    5.95395E+004   -3.07755E+005    1.91361E+004   -3.92569E+004   -1.58498E+005    3.45027E+004   -1.73293E+003    1.63355E+005
            3584    3.98363E+005    5.61813E+004   -3.69977E+005   -6.94818E+003   -3.69977E+005    4.26158E+005    1.06915E+005   -3.86868E+005    4.17467E+004   -6.64023E+004   -2.96088E+005    3.13807E+004   -4.91663E+003    1.48744E+005
            3585    4.59417E+005    7.81060E+004   -4.25705E+005   -2.99421E+004   -4.25705E+005    5.03811E+005    1.25847E+005   -4.29411E+005    7.26229E+004   -7.15951E+004   -3.78568E+005    2.71818E+004   -9.48676E+003    1.28160E+005
            3586    5.19059E+005    1.02377E+005   -4.71257E+005   -3.40065E+004   -4.71257E+005    5.73634E+005    1.34296E+005   -4.76181E+005    9.93783E+004   -6.48180E+004   -4.37447E+005    2.23847E+004   -1.63604E+004    1.15642E+005
            3587    5.58292E+005    1.28044E+005   -4.90430E+005   -2.36891E+004   -4.90430E+005    6.18473E+005    1.28692E+005   -5.08711E+005    1.25753E+005   -4.24088E+004   -4.69419E+005    1.78429E+004   -2.50246E+004    9.38670E+004
            3588    5.73276E+005    1.25276E+005   -5.13502E+005   -4.37219E+004   -5.13502E+005    6.38778E+005    1.43983E+005   -5.12575E+005    1.24441E+005   -5.77333E+004   -4.98655E+005    6.03225E+003   -2.19953E+004    7.99181E+004
            3589    3.85106E+005    3.26258E+005    3.26258E+005   -3.01314E+004   -8.22565E+004    4.08514E+005   -7.12899E+004    3.77047E+005   -3.46320E+004    1.59182E+004    2.32583E+005    2.73331E+004    1.44349E+004    1.68314E+005
            3590    3.65622E+005    2.90948E+005    2.90948E+005   -3.14755E+004   -1.06297E+005    3.97245E+005   -5.10585E+004    3.47766E+005   -3.03952E+004   -5.37123E+003    1.88942E+005    1.73890E+004    1.66585E+004    1.71943E+005
            3591    3.52378E+005    2.73354E+005    2.73354E+005   -1.83510E+004   -1.18163E+005    3.91517E+005   -4.56133E+004    3.18167E+005   -1.72843E+004   -8.07569E+003    1.62200E+005    8.33272E+003    1.57167E+004    1.75665E+005
            3592    3.31700E+005    2.44088E+005    2.44088E+005   -1.31903E+004   -1.30277E+005    3.74364E+005   -3.35402E+004    2.79178E+005   -1.33181E+004   -1.34696E+004    1.27408E+005   -9.00272E+002    1.20610E+004    1.72975E+005
            3593    3.31022E+005    2.42336E+005    2.42336E+005   -5.70861E+003   -1.33541E+005    3.75877E+005   -3.43623E+004    2.66324E+005   -6.38363E+003   -7.89421E+003    1.17365E+005   -7.00823E+003    6.18423E+003    1.76834E+005
            3594    3.18562E+005    2.23679E+005    2.23679E+005   -7.38521E+003   -1.39722E+005    3.63400E+005   -2.55240E+004    2.44115E+005   -8.55823E+003   -1.05047E+004    9.56350E+004   -1.09652E+004    6.12973E+003    1.73153E+005
            3595    3.19853E+005    2.26002E+005    2.26002E+005   -2.37176E+003   -1.39561E+005    3.65564E+005   -2.80231E+004    2.38779E+005   -3.20364E+003   -4.02633E+003    9.12992E+004   -1.34303E+004    1.89651E+003    1.75827E+005
            3596    3.43030E+005    2.53196E+005    2.53196E+005   -1.69524E+004   -1.32745E+005    3.85941E+005   -3.44998E+004    2.93975E+005   -1.83496E+004    6.75361E+003    1.15095E+005    3.00932E+004    7.17578E+003    1.82309E+005
            3597    3.44598E+005    2.43098E+005    2.43098E+005   -1.25571E+004   -1.48791E+005    3.91888E+005   -2.72499E+004    2.73328E+005   -1.20936E+004   -5.54925E+002    9.43981E+004    1.93466E+004    7.75498E+003    1.89032E+005
            3598    3.29690E+005    2.18354E+005    2.18354E+005   -7.85777E+003   -1.59925E+005    3.78279E+005   -1.68570E+004    2.28209E+005   -7.39004E+003   -6.33605E+003    6.42971E+004    8.60384E+003    6.72167E+003    1.85538E+005
            3599    3.27722E+005    2.12759E+005    2.12759E+005   -2.66515E+003   -1.64389E+005    3.77148E+005   -1.52351E+004    2.04672E+005   -2.72835E+003   -3.62748E+003    5.20611E+004   -1.29428E+003    4.40731E+003    1.86446E+005
            3600    3.19015E+005    1.98957E+005    1.98957E+005   -2.06715E+003   -1.68880E+005    3.67837E+005   -9.33678E+003    1.73277E+005   -2.26550E+003   -4.94384E+003    3.52197E+004   -7.54329E+003    1.64192E+003    1.82646E+005
            3601    3.19418E+005    1.99127E+005    1.99127E+005   -6.63572E+002   -1.69266E+005    3.68393E+005   -9.73264E+003    1.68193E+005   -1.05501E+003   -1.54160E+003    3.17945E+004   -1.17587E+004    2.00735E+003    1.83035E+005
            3602    3.13027E+005    1.90462E+005    1.90462E+005   -8.13457E+002   -1.70781E+005    3.61243E+005   -6.28908E+003    1.46231E+005   -9.78819E+002   -3.01631E+003    2.28624E+004   -1.42353E+004    1.06429E+002    1.79589E+005
            3603    3.33134E+005    1.89585E+005   -1.95045E+005    2.11687E+003   -1.95045E+005    3.84630E+005    1.11453E+003   -1.17284E+005    2.13214E+003    2.59965E+002   -5.73571E+003    2.96724E+004   -5.64408E+002    1.89987E+005
            3604    3.33117E+005    1.80528E+005   -2.03838E+005    1.14967E+003   -2.03838E+005    3.84366E+005    7.38699E+003   -1.62036E+005    1.09395E+003   -5.94866E+002   -2.26601E+004    1.83393E+004   -1.43350E+003    1.90984E+005
            3605    3.30385E+005    1.79420E+005   -2.01703E+005    3.44716E+003   -2.01703E+005    3.81123E+005    6.27855E+003   -1.68273E+005    3.30196E+003    3.07793E+003   -2.52156E+004    7.55394E+003   -2.39521E+003    1.89876E+005
            3606    3.23632E+005    1.68687E+005   -2.04352E+005    1.37997E+003   -2.04352E+005    3.73039E+005    1.14281E+004   -1.81796E+005    1.44659E+003    2.08355E+003   -3.78145E+004   -2.15899E+003   -2.64093E+003    1.85415E+005
            3607    3.22819E+005    1.70854E+005   -2.01334E+005    2.61466E+003   -2.01334E+005    3.72188E+005    9.28872E+003   -1.77150E+005    2.90412E+003    5.13802E+003   -3.59083E+004   -8.19288E+003   -2.42356E+003    1.84747E+005
            3608    3.16332E+005    1.62824E+005   -2.01710E+005    6.07029E+002   -2.01710E+005    3.64534E+005    1.27596E+004   -1.81577E+005    1.04918E+003    2.75032E+003   -4.20782E+004   -1.22014E+004   -1.83696E+003    1.80437E+005
            3609    3.16353E+005    1.66809E+005   -1.97923E+005    1.96190E+003   -1.97923E+005    3.64733E+005    9.71734E+003   -1.73672E+005    2.41817E+003    4.34700E+003   -3.59172E+004   -1.45072E+004   -1.32842E+003    1.80643E+005
            3610    3.50242E+005    1.21636E+005   -2.69152E+005    1.64239E+004   -2.69152E+005    3.90788E+005    4.36973E+004   -3.11598E+005    1.83594E+004   -9.35476E+003   -1.40097E+005    3.02162E+004   -8.14174E+003    1.80967E+005
            3611    3.48500E+005    1.34111E+005   -2.57369E+005    1.90531E+004   -2.57369E+005    3.91481E+005    3.47351E+004   -3.01093E+005    1.85003E+004    2.97477E+003   -1.25680E+005    1.98695E+004   -1.04495E+004    1.83621E+005
            3612    3.40520E+005    1.32728E+005   -2.51401E+005    1.33805E+004   -2.51401E+005    3.84129E+005    3.50973E+004   -2.87474E+005    1.25016E+004    7.14639E+003   -1.24940E+005    9.62467E+003   -1.19515E+004    1.79875E+005
            3613    3.33052E+005    1.38387E+005   -2.39728E+005    1.01219E+004   -2.39728E+005    3.78115E+005    3.04065E+004   -2.68382E+005    1.01287E+004    1.18547E+004   -1.13203E+005   -1.09239E+002   -1.00189E+004    1.78135E+005
            3614    3.27276E+005    1.33304E+005   -2.38566E+005    5.63353E+003   -2.38566E+005    3.71869E+005    3.32095E+004   -2.61738E+005    6.26938E+003    9.95352E+003   -1.15851E+005   -6.31157E+003   -6.84331E+003    1.74617E+005
            3615    3.21732E+005    1.37835E+005   -2.28854E+005    6.11764E+003   -2.28854E+005    3.66689E+005    2.83004E+004   -2.49232E+005    7.20418E+003    1.10231E+004   -1.03128E+005   -1.05526E+004   -5.82496E+003    1.73653E+005
            3616    3.16794E+005    1.33763E+005   -2.27482E+005    2.99395E+003   -2.27482E+005    3.61245E+005    3.02419E+004   -2.43929E+005    4.02569E+003    6.57082E+003   -1.01322E+005   -1.30410E+004   -2.92377E+003    1.71707E+005
            3617    3.86539E+005    7.59515E+004   -3.30000E+005    3.36458E+004   -3.30000E+005    4.05951E+005    7.34675E+004   -3.81278E+005    4.07284E+004   -1.59200E+004   -2.45211E+005    2.74495E+004   -1.54521E+004    1.60897E+005
            3618    3.82085E+005    8.82850E+004   -3.17495E+005    3.53817E+004   -3.17495E+005    4.05780E+005    6.46093E+004   -3.73712E+005    3.45354E+004    9.60341E+002   -2.29324E+005    1.79525E+004   -1.90773E+004    1.65369E+005
            3619    3.64143E+005    1.00125E+005   -2.94757E+005    2.77883E+004   -2.94757E+005    3.94883E+005    5.56146E+004   -3.47422E+005    2.62579E+004    1.19382E+004   -2.05040E+005    9.59446E+003   -2.01395E+004    1.64028E+005
            3620    3.50470E+005    1.02855E+005   -2.82019E+005    1.87412E+004   -2.82019E+005    3.84873E+005    5.34743E+004   -3.26581E+005    1.85837E+004    1.50511E+004   -1.94058E+005    9.30171E+002   -1.76513E+004    1.60639E+005
            3621    3.39385E+005    1.06969E+005   -2.69473E+005    1.30936E+004   -2.69473E+005    3.76442E+005    4.98034E+004   -3.08083E+005    1.39659E+004    1.61786E+004   -1.79555E+005   -5.08283E+003   -1.12323E+004    1.60045E+005
            3622    3.30480E+005    1.06518E+005   -2.61285E+005    1.06933E+004   -2.61285E+005    3.67803E+005    4.80247E+004   -2.96725E+005    1.23609E+004    1.37989E+004   -1.70234E+005   -8.89701E+003   -1.01829E+004    1.58180E+005
            3623    3.21357E+005    1.09027E+005   -2.50770E+005    7.74096E+003   -2.50770E+005    3.59797E+005    4.46672E+004   -2.81941E+005    9.21407E+003    1.09173E+004   -1.54133E+005   -1.13359E+004   -4.79198E+003    1.59010E+005
            3624    4.36569E+005    6.89939E+004   -3.88891E+005    2.26656E+004   -3.88891E+005    4.57885E+005    9.90773E+004   -4.30986E+005    5.97335E+004   -2.11702E+004   -3.35795E+005    2.61766E+004   -2.16190E+004    1.36804E+005
            3625    4.16510E+005    6.53931E+004   -3.58644E+005    4.99050E+004   -3.58644E+005    4.24038E+005    8.11154E+004   -4.15861E+005    5.44189E+004    3.59935E+003   -3.01365E+005    1.88045E+004   -2.69195E+004    1.40430E+005
            3626    3.97822E+005    6.84926E+004   -3.42529E+005    4.06277E+004   -3.42529E+005    4.11022E+005    7.78030E+004   -3.95617E+005    3.83366E+004    1.24697E+004   -2.84215E+005    1.23551E+004   -2.73331E+004    1.40473E+005
            3627    3.71937E+005    7.98262E+004   -3.13558E+005    3.23789E+004   -3.13558E+005    3.93384E+005    6.71175E+004   -3.65035E+005    3.11801E+004    2.14102E+004   -2.53943E+005    4.58598E+003   -2.55160E+004    1.38703E+005
            3628    3.58533E+005    7.86836E+004   -3.05857E+005    1.92380E+004   -3.05857E+005    3.84540E+005    6.93117E+004   -3.47185E+005    1.95782E+004    1.92080E+004   -2.46721E+005   -1.34323E+003   -1.61206E+004    1.37773E+005
            3629    3.40516E+005    8.35983E+004   -2.84537E+005    1.91495E+004   -2.84537E+005    3.68135E+005    6.05963E+004   -3.26368E+005    2.06470E+004    1.88380E+004   -2.21274E+005   -5.27330E+003   -1.48727E+004    1.37977E+005
            3630    3.30328E+005    8.09176E+004   -2.78741E+005    1.10920E+004   -2.78741E+005    3.59659E+005    6.22439E+004   -3.13071E+005    1.25798E+004    1.16073E+004   -2.10919E+005   -7.82220E+003   -7.24221E+003    1.40286E+005
            3631    4.74601E+005    8.92412E+004   -4.21150E+005    6.88084E+003   -4.21150E+005    5.10391E+005    1.08343E+005   -4.58108E+005    8.48398E+004   -2.12467E+004   -3.88621E+005    2.18589E+004   -2.71151E+004    1.10175E+005
            3632    4.58065E+005    7.92398E+004   -4.01745E+005    2.93078E+004   -4.01745E+005    4.80985E+005    9.77325E+004   -4.51881E+005    7.57731E+004   -4.04234E+003   -3.64928E+005    1.56396E+004   -3.39896E+004    1.15773E+005
            3633    4.32000E+005    6.23350E+004   -3.77847E+005    4.54775E+004   -3.77847E+005    4.40182E+005    9.00115E+004   -4.31259E+005    5.93528E+004    9.83939E+003   -3.39227E+005    1.22784E+004   -3.14433E+004    1.17790E+005
            3634    4.08386E+005    5.61624E+004   -3.54292E+005    5.19936E+004   -3.54292E+005    4.10455E+005    8.20454E+004   -4.08338E+005    5.12907E+004    1.90432E+004   -3.16470E+005    8.26106E+003   -3.40406E+004    1.13534E+005
            3635    3.77638E+005    5.61660E+004   -3.31260E+005    3.57631E+004   -3.31260E+005    3.87426E+005    7.97770E+004   -3.76395E+005    3.51129E+004    1.89352E+004   -2.93379E+005    3.31113E+003   -2.15050E+004    1.13043E+005
            3636    3.63412E+005    5.86450E+004   -3.16820E+005    3.32011E+004   -3.16820E+005    3.75465E+005    7.49913E+004   -3.61400E+005    3.38773E+004    1.73821E+004   -2.76233E+005    2.88040E+002   -2.09370E+004    1.14641E+005
            3637    3.38962E+005    5.67005E+004   -2.98044E+005    2.25500E+004   -2.98044E+005    3.54744E+005    7.29310E+004   -3.35058E+005    2.33880E+004    1.12024E+004   -2.53383E+005   -2.39222E+003   -1.06979E+004    1.17127E+005
            3638    5.12120E+005    1.00989E+005   -4.57487E+005   -9.88839E+003   -4.57487E+005    5.58476E+005    1.22129E+005   -4.83996E+005    9.75333E+004   -2.74565E+004   -4.36463E+005    1.93871E+004   -2.94823E+004    9.03721E+004
            3639    4.86409E+005    9.77884E+004   -4.23028E+005    1.94686E+004   -4.23028E+005    5.20816E+005    1.01924E+005   -4.71909E+005    9.40541E+004   -6.33556E+001   -3.99762E+005    1.38590E+004   -3.99561E+004    9.12730E+004
            3640    4.69708E+005    7.45999E+004   -4.17466E+005    2.61231E+004   -4.17466E+005    4.92066E+005    1.05581E+005   -4.64030E+005    7.20228E+004    7.03493E+003   -3.95801E+005    1.01542E+004   -3.27375E+004    9.02241E+004
            3641    4.36881E+005    7.47802E+004   -3.80111E+005    3.61992E+004   -3.80111E+005    4.54892E+005    8.97107E+004   -4.33023E+005    7.12712E+004    1.70940E+004   -3.57497E+005    7.80172E+003   -3.89466E+004    8.67630E+004
            3642    4.10756E+005    5.16798E+004   -3.67615E+005    3.40332E+004   -3.67615E+005    4.19295E+005    9.39674E+004   -4.09902E+005    4.98557E+004    1.43943E+004   -3.46152E+005    5.55591E+003   -2.69050E+004    8.64476E+004
            3643    3.81176E+005    5.23230E+004   -3.37480E+005    3.44385E+004   -3.37480E+005    3.89803E+005    8.35728E+004   -3.80230E+005    5.00279E+004    1.32907E+004   -3.14037E+005    3.36755E+003   -2.61008E+004    8.69844E+004
            3644    3.60179E+005    3.66389E+004   -3.26776E+005    3.00779E+004   -3.26776E+005    3.63415E+005    8.66865E+004   -3.60045E+005    3.50563E+004    4.47401E+003   -2.99590E+005    2.00553E+003   -1.54647E+004    9.36495E+004
            3645    5.56984E+005    1.38962E+005   -4.78278E+005   -1.31577E+004   -4.78278E+005    6.17239E+005    1.17491E+005   -5.06997E+005    1.35078E+005   -2.65791E+004   -4.60973E+005    2.00442E+004   -3.83510E+004    8.07450E+004
            3646    5.34170E+005    1.20890E+005   -4.61850E+005    4.58411E+003   -4.61850E+005    5.82740E+005    1.12125E+005   -5.04488E+005    1.16980E+005   -6.01680E+003   -4.47340E+005    1.45785E+004   -4.25208E+004    7.09459E+004
            3647    5.06075E+005    1.11693E+005   -4.34963E+005    1.72140E+004   -4.34963E+005    5.46656E+005    1.02019E+005   -4.85635E+005    1.07691E+005    8.40434E+003   -4.22152E+005    1.41020E+004   -4.08317E+004    6.46233E+004
            3648    4.84916E+005    9.97354E+004   -4.19130E+005    2.25852E+004   -4.19130E+005    5.18866E+005    9.89366E+004   -4.70810E+005    9.57223E+004    1.49395E+004   -4.07472E+005    1.08671E+004   -4.24792E+004    5.85803E+004
            3649    4.41452E+005    8.51225E+004   -3.85749E+005    1.87735E+004   -3.85749E+005    4.70871E+005    9.39510E+004   -4.30020E+005    8.17896E+004    1.16833E+004   -3.75326E+005    1.03226E+004   -3.57714E+004    5.44639E+004
            3650    4.16470E+005    7.27708E+004   -3.69569E+005    1.49993E+004   -3.69569E+005    4.42340E+005    9.39329E+004   -4.07309E+005    7.02133E+004    5.14132E+003   -3.57153E+005    8.48191E+003   -3.13255E+004    6.11569E+004
            3651    3.82998E+005    6.02418E+004   -3.44487E+005    1.22585E+004   -3.44487E+005    4.04729E+005    9.06622E+004   -3.76146E+005    5.86178E+004   -2.88710E+002   -3.30316E+005    7.80718E+003   -2.25500E+004    6.62083E+004
            3652    4.20793E+005    8.47641E+004   -3.76521E+005   -1.36701E+004   -3.76521E+005    4.61285E+005    1.01809E+005   -3.93618E+005    8.24841E+004   -1.87669E+004   -3.69144E+005    8.62745E+003   -2.97086E+004    4.36032E+004
            3653    4.51779E+005    1.02442E+005   -3.94492E+005   -8.55878E+003   -3.94492E+005    4.96934E+005    1.00203E+005   -4.19420E+005    9.92760E+004   -1.08464E+004   -3.89038E+005    8.22485E+003   -3.74780E+004    3.10095E+004
            3654    4.92172E+005    1.15980E+005   -4.24699E+005   -2.76027E+003   -4.24699E+005    5.40679E+005    1.03826E+005   -4.58252E+005    1.12464E+005   -4.77400E+003   -4.19169E+005    7.65781E+003   -4.19047E+004    3.02136E+004
            3655    5.21029E+005    1.32408E+005   -4.41147E+005    2.94383E+003   -4.41147E+005    5.73555E+005    1.01932E+005   -4.82810E+005    1.28862E+005    1.10478E+003   -4.35762E+005    6.88843E+003   -4.38295E+004    2.93186E+004
            3656    5.61673E+005    1.35268E+005   -4.81291E+005    1.25161E+003   -4.81291E+005    6.16559E+005    1.14924E+005   -5.23857E+005    1.32540E+005   -2.85880E+003   -4.74453E+005    6.51427E+003   -4.00624E+004    4.45235E+004
            3657    5.64875E+005    1.41039E+005   -4.86718E+005   -1.94608E+004   -4.86718E+005    6.27757E+005    1.21713E+005   -5.09664E+005    1.38817E+005   -2.79139E+004   -4.76043E+005    6.26692E+003   -3.66862E+004    6.21623E+004
            3658    5.81932E+005    1.29600E+005   -5.18720E+005   -4.15695E+004   -5.18720E+005    6.48320E+005    1.43563E+005   -5.20612E+005    1.28707E+005   -5.03142E+004   -5.09083E+005    4.16353E+003   -2.36252E+004    6.39582E+004
            3659    2.92215E+005    2.50909E+005    2.50909E+005   -1.97140E+004   -5.89362E+004    3.09845E+005   -5.74195E+004    2.86203E+005   -1.96731E+004    3.12473E+004    1.60684E+005   -1.63326E+003   -2.96819E+003    1.40733E+005
            3660    3.05241E+005    2.57099E+005    2.57099E+005   -1.15481E+004   -7.48197E+004    3.31918E+005   -5.69103E+004    2.89931E+005   -1.15210E+004    4.25610E+004    1.39691E+005   -4.38009E+003   -2.70413E+003    1.58620E+005
            3661    3.28680E+005    2.58886E+005    2.58886E+005   -6.82538E+003   -1.08659E+005    3.67544E+005   -4.78006E+004    2.89866E+005   -6.81474E+003    3.51339E+004    1.15083E+005   -8.39064E+003   -3.08294E+003    1.79151E+005
            3662    3.45748E+005    2.54920E+005    2.54920E+005   -2.44013E+003   -1.38082E+005    3.93002E+005   -3.81327E+004    2.75559E+005   -2.45231E+003    2.72215E+004    8.96290E+004   -1.24839E+004   -2.93393E+003    1.93582E+005
            3663    3.34636E+005    2.47413E+005    2.47413E+005   -3.94276E+003   -1.32423E+005    3.79836E+005   -3.70156E+004    2.70132E+005   -4.36879E+003    2.01306E+004    9.52851E+004   -1.29407E+004   -6.16384E+002    1.85641E+005
            3664    3.24159E+005    2.39685E+005    2.39685E+005   -5.07544E+003   -1.27947E+005    3.67631E+005   -3.55541E+004    2.63553E+005   -5.38977E+003    1.30675E+004    9.89845E+004   -1.24946E+004   -1.54875E+003    1.78228E+005
            3665    3.21006E+005    2.38968E+005    2.38968E+005   -5.94270E+003   -1.24442E+005    3.63410E+005   -3.61945E+004    2.64617E+005   -6.71604E+003    9.37703E+003    1.05923E+005   -1.28714E+004    8.22400E+002    1.74559E+005
            3666    3.14910E+005    2.35594E+005    2.35594E+005   -5.77944E+003   -1.20619E+005    3.56213E+005   -3.63987E+004    2.61146E+005   -6.36901E+003    4.35822E+003    1.11207E+005   -1.28925E+004   -7.44633E+002    1.69303E+005
            3667    3.15360E+005    2.38704E+005    2.38704E+005   -6.72017E+003   -1.16983E+005    3.55687E+005   -3.83337E+004    2.66505E+005   -7.84133E+003    2.58755E+003    1.20255E+005   -1.31307E+004    1.83417E+003    1.67076E+005
            3668    3.12516E+005    2.38320E+005    2.38320E+005   -5.27698E+003   -1.14046E+005    3.52366E+005   -3.96657E+004    2.64606E+005   -6.27651E+003   -3.63305E+003    1.28907E+005   -1.31167E+004    7.24383E+002    1.62506E+005
            3669    3.19012E+005    2.46380E+005    2.46380E+005   -7.28469E+003   -1.11774E+005    3.58154E+005   -4.24402E+004    2.76383E+005   -8.96402E+003   -5.12190E+003    1.41407E+005   -1.26417E+004    4.86054E+003    1.62450E+005
            3670    3.19483E+005    2.53159E+005    2.53159E+005   -8.34450E+003   -1.02941E+005    3.56100E+005   -4.72910E+004    2.85329E+005   -8.77529E+003    2.56708E+004    1.24978E+005   -9.39412E+003   -3.68972E+002    1.70622E+005
            3671    3.18385E+005    2.52332E+005    2.52332E+005   -9.28165E+003   -1.02166E+005    3.54498E+005   -4.69615E+004    2.85430E+005   -9.54698E+003    1.79526E+004    1.32479E+005   -9.03926E+003   -1.73515E+003    1.67425E+005
            3672    3.14759E+005    2.51131E+005    2.51131E+005   -1.17119E+004   -9.76805E+004    3.48811E+005   -4.72460E+004    2.86508E+005   -1.24691E+004    1.23808E+004    1.41826E+005   -9.23851E+003    1.27282E+003    1.61474E+005
            3673    3.13087E+005    2.54980E+005    2.54980E+005   -1.02955E+004   -9.03671E+004    3.45347E+005   -5.14391E+004    2.88671E+005   -1.08641E+004    1.04737E+004    1.54708E+005   -8.95641E+003   -4.52529E+002    1.56467E+005
            3674    3.12581E+005    2.55043E+005    2.55043E+005   -1.41347E+004   -8.77870E+004    3.42830E+005   -5.10405E+004    2.92085E+005   -1.52786E+004    2.31791E+003    1.66082E+005   -8.84520E+003    3.04216E+003    1.49927E+005
            3675    3.15905E+005    2.64234E+005    2.64234E+005   -1.04930E+004   -8.09513E+004    3.45185E+005   -5.75964E+004    2.97445E+005   -1.14867E+004    1.18027E+003    1.83096E+005   -8.47070E+003    2.02784E+003    1.46071E+005
            3676    3.21379E+005    2.67092E+005    2.67092E+005   -1.66143E+004   -8.19264E+004    3.49019E+005   -5.61839E+004    3.05909E+005   -1.82600E+004   -9.83870E+003    1.96650E+005   -7.70394E+003    7.73422E+003    1.39618E+005
            3677    3.11661E+005    2.58639E+005    2.58639E+005   -1.44017E+004   -8.09066E+004    3.39546E+005   -5.44436E+004    2.95056E+005   -1.47492E+004    2.57190E+004    1.52361E+005   -5.85495E+003    3.00326E+002    1.57299E+005
            3678    3.11503E+005    2.60252E+005    2.60252E+005   -1.48197E+004   -7.79977E+004    3.38250E+005   -5.58115E+004    2.96570E+005   -1.49644E+004    2.18670E+004    1.60532E+005   -5.37211E+003   -1.59984E+003    1.54109E+005
            3679    3.11366E+005    2.64550E+005    2.64550E+005   -1.77766E+004   -6.94032E+004    3.33953E+005   -5.91232E+004    3.01511E+005   -1.84070E+004    2.00613E+004    1.75715E+005   -5.18851E+003    2.38702E+003    1.47372E+005
            3680    3.08498E+005    2.66840E+005    2.66840E+005   -1.73968E+004   -6.12297E+004    3.28070E+005   -6.27379E+004    3.01372E+005   -1.78325E+004    1.47723E+004    1.91274E+005   -4.69564E+003    5.86198E+002    1.38001E+005
            3681    3.13702E+005    2.75177E+005    2.75177E+005   -2.15225E+004   -5.31324E+004    3.28310E+005   -6.68408E+004    3.10088E+005   -2.26836E+004    1.20037E+004    2.11202E+005   -4.08671E+003    5.32129E+003    1.29718E+005
            3682    3.18536E+005    2.82437E+005    2.82437E+005   -2.01165E+004   -4.99775E+004    3.32415E+005   -7.07812E+004    3.15364E+005   -2.09136E+004    2.74638E+003    2.30511E+005   -3.41276E+003    4.42271E+003    1.20480E+005
            3683    3.34649E+005    2.96993E+005    2.96993E+005   -2.64163E+004   -4.78633E+004    3.44856E+005   -7.42378E+004    3.33097E+005   -2.82479E+004   -1.01434E+003    2.51975E+005   -2.31204E+003    1.18857E+004    1.15347E+005
            3684    3.11696E+005    2.65017E+005    2.65017E+005   -2.08374E+004   -6.73030E+004    3.32320E+005   -5.89588E+004    3.03757E+005   -2.09637E+004    2.60212E+004    1.71819E+005   -2.27818E+003    9.29431E+002    1.49244E+005
            3685    3.07580E+005    2.66905E+005    2.66905E+005   -2.19665E+004   -5.64723E+004    3.23377E+005   -6.28221E+004    3.03179E+005   -2.19681E+004    2.81994E+004    1.82235E+005   -1.32523E+003   -1.05957E+003    1.42156E+005
            3686    3.06309E+005    2.70600E+005    2.70600E+005   -2.73379E+004   -4.34455E+004    3.14045E+005   -6.66055E+004    3.05354E+005   -2.74323E+004    2.68166E+004    2.00432E+005   -7.15869E+001    2.71165E+003    1.30766E+005
            3687    3.07588E+005    2.80054E+005    2.80054E+005   -2.72042E+004   -2.78640E+004    3.07918E+005   -7.49952E+004    3.07587E+005   -2.77899E+004    2.65718E+004    2.26204E+005    1.27411E+003    2.34346E+003    1.16803E+005
            3688    3.20728E+005    2.90801E+005    2.90801E+005   -2.35310E+004   -3.59610E+004    3.26762E+005   -7.71029E+004    3.20185E+005   -3.57722E+004    1.62120E+004    2.50869E+005    2.41242E+003    7.28015E+003    1.04443E+005
            3689    3.33691E+005    3.06671E+005    3.06671E+005   -1.71048E+004   -3.61212E+004    3.42792E+005   -8.44816E+004    3.32468E+005   -3.58415E+004    1.38206E+004    2.75466E+005    3.59796E+003    8.48905E+003    9.51769E+004
            3690    3.55317E+005    3.20161E+005    3.20161E+005   -2.06716E+004   -4.80565E+004    3.68218E+005   -8.38109E+004    3.52931E+005   -4.72513E+004    1.50362E+003    2.97180E+005    4.74859E+003    1.64771E+004    8.39659E+004
            3691    3.86653E+005    3.52057E+005    3.52057E+005    1.31560E+004   -6.91091E+004    4.21166E+005   -9.87012E+004    3.66178E+005   -6.76613E+004    2.24232E+004    3.41342E+005    8.40741E+003    2.10834E+004    5.59804E+004
            3692    3.60245E+005    3.30305E+005    3.30305E+005    9.33263E+003   -5.93308E+004    3.89635E+005   -9.34355E+004    3.45059E+005   -5.83676E+004    2.33628E+004    3.15311E+005    8.07437E+003    1.39762E+004    6.63834E+004
            3693    3.34577E+005    3.11582E+005    3.11582E+005    1.15736E+004   -4.92252E+004    3.60807E+005   -9.13102E+004    3.21795E+005   -4.85830E+004    3.40605E+004    2.88453E+005    7.23917E+003    8.75192E+003    7.95514E+004
            3694    3.14878E+005    2.92710E+005    2.92710E+005    1.75470E+003   -4.15978E+004    3.34308E+005   -8.42891E+004    3.08057E+005   -4.11134E+004    3.68971E+004    2.57084E+005    5.96922E+003    4.88421E+003    9.52632E+004
            3695    3.02184E+005    2.78787E+005    2.78787E+005   -1.07997E+004   -3.45886E+004    3.13376E+005   -7.77996E+004    3.00067E+005   -3.42567E+004    4.19545E+004    2.25701E+005    4.06236E+003    2.60194E+003    1.12058E+005
            3696    3.03853E+005    2.68224E+005    2.68224E+005   -3.05735E+004   -4.04438E+004    3.08668E+005   -6.57357E+004    3.03492E+005   -3.07835E+004    3.29900E+004    1.95000E+005    1.96883E+003    5.58526E+002    1.31235E+005
            3697    3.03040E+005    2.57511E+005    2.57511E+005   -2.85488E+004   -6.00485E+004    3.17559E+005   -5.63045E+004    2.99323E+005   -2.85483E+004    2.04677E+004    1.76994E+005   -1.60431E+002   -4.97253E+002    1.38151E+005
            3698    3.62746E+005    5.16889E+004   -3.29935E+005    1.03997E+004   -3.29935E+005    3.81624E+005    8.92821E+004   -3.57402E+005    5.07292E+004   -8.41296E+003   -3.10163E+005    6.25216E+003   -1.70854E+004    7.78778E+004
            3699    3.40202E+005    3.90831E+004   -3.05205E+005    3.07577E+004   -3.05205E+005    3.44288E+005    7.84547E+004   -3.39972E+005    3.62615E+004    6.57051E+002   -2.72283E+005    5.08289E+002   -1.36153E+004    9.94964E+004
            3700    3.30322E+005    5.85870E+004   -2.88059E+005    2.30678E+004   -2.88059E+005    3.46646E+005    6.88015E+004   -3.25984E+005    2.45457E+004    4.67515E+003   -2.35625E+005   -3.88275E+003   -1.01607E+004    1.23617E+005
            3701    3.19528E+005    8.59830E+004   -2.63475E+005    1.37582E+004   -2.63475E+005    3.49458E+005    5.45781E+004   -3.00327E+005    1.55656E+004    8.24165E+003   -1.87541E+005   -9.17751E+003   -6.85159E+003    1.43627E+005
            3702    3.16905E+005    1.09965E+005   -2.45438E+005    7.73130E+003   -2.45438E+005    3.55403E+005    4.25804E+004   -2.75972E+005    9.37820E+003    5.84436E+003   -1.42964E+005   -1.25557E+004   -4.49890E+003    1.60430E+005
            3703    3.14602E+005    1.39606E+005   -2.19951E+005    4.69850E+003   -2.19951E+005    3.59557E+005    2.52155E+004   -2.34903E+005    5.73548E+003    5.92977E+003   -8.73118E+004   -1.43275E+004   -2.46893E+003    1.72882E+005
            3704    3.12676E+005    1.62692E+005   -1.97755E+005    4.78837E+002   -1.97755E+005    3.60447E+005    1.15280E+004   -1.73901E+005    8.96770E+002    1.05045E+003   -3.65311E+004   -1.56691E+004   -7.58455E+002    1.78532E+005
            3705    3.15462E+005    1.93847E+005    1.93847E+005   -5.06093E+002   -1.70138E+005    3.63985E+005   -7.73446E+003    1.54427E+005   -8.45742E+002    4.59641E+001    2.40032E+004   -1.54683E+004    9.37690E+002    1.80923E+005
            3706    3.12926E+005    2.14981E+005    2.14981E+005   -5.45874E+003   -1.43185E+005    3.58166E+005   -2.21124E+004    2.28090E+005   -6.51492E+003   -5.85852E+003    7.87106E+004   -1.46402E+004    2.70082E+003    1.73253E+005
            3707    3.37817E+005    4.29060E+004   -3.09178E+005    1.22886E+004   -3.09178E+005    3.52084E+005    8.46610E+004   -3.34674E+005    4.24027E+004   -1.33460E+004   -2.83040E+005    5.22763E+003   -9.93546E+003    8.73013E+004
            3708    3.24978E+005    3.51637E+004   -2.94635E+005    2.52959E+004   -2.94635E+005    3.29799E+005    7.80586E+004   -3.24640E+005    2.60852E+004   -8.76244E+003   -2.51499E+005   -6.79563E+002   -6.01921E+003    1.10915E+005
            3709    3.15109E+005    6.18519E+004   -2.73340E+005    1.68469E+004   -2.73340E+005    3.35192E+005    6.48805E+004   -3.07754E+005    1.76939E+004   -1.67063E+003   -2.10665E+005   -5.25982E+003   -3.18411E+003    1.30486E+005
            3710    3.14822E+005    8.78423E+004   -2.59019E+005    8.63578E+003   -2.59019E+005    3.46861E+005    5.41804E+004   -2.91111E+005    9.78163E+003    1.69892E+002   -1.72493E+005   -1.00475E+004   -1.86433E+003    1.49706E+005
            3711    3.13228E+005    1.16096E+005   -2.37280E+005    6.16209E+003   -2.37280E+005    3.53376E+005    3.83404E+004   -2.64279E+005    7.20358E+003    2.36263E+003   -1.24588E+005   -1.33123E+004   -9.99190E+002    1.64137E+005
            3712    3.13652E+005    1.40293E+005   -2.18671E+005    2.48059E+003   -2.18671E+005    3.58964E+005    2.52993E+004   -2.28998E+005    3.19197E+003    9.52393E+002   -8.00422E+004   -1.49522E+004   -5.81718E+002    1.74126E+005
            3713    3.15325E+005    1.69460E+005   -1.94289E+005    1.56736E+003   -1.94289E+005    3.63748E+005    7.75385E+003   -1.60825E+005    1.87582E+003    2.01130E+003   -2.71487E+004   -1.62007E+004   -4.31179E+002    1.80551E+005
            3714    3.13196E+005    1.90806E+005    1.90806E+005   -8.20601E+002   -1.70623E+005    3.61428E+005   -6.45402E+003    1.47452E+005   -9.53306E+002   -1.64601E+003    2.19614E+004   -1.59516E+004   -2.64044E+002    1.79617E+005
            3715    3.15847E+005    2.19440E+005    2.19440E+005   -2.15439E+003   -1.42218E+005    3.61658E+005   -2.50226E+004    2.28492E+005   -2.74955E+003    2.15927E+002    7.76015E+004   -1.51510E+004   -3.12733E-001    1.75920E+005
            3716    3.22485E+005    3.72779E+004   -2.95384E+005    1.58552E+004   -2.95384E+005    3.32662E+005    8.07505E+004   -3.20878E+005    3.70480E+004   -2.17604E+004   -2.57539E+005    3.67241E+003   -6.74396E+003    1.01496E+005
            3717    3.13349E+005    4.28652E+004   -2.78650E+005    2.58376E+004   -2.78650E+005    3.21515E+005    6.99823E+004   -3.12305E+005    2.68825E+004   -1.28931E+004   -2.23936E+005   -2.08029E+003   -5.55939E+003    1.20507E+005
            3718    3.13248E+005    6.89413E+004   -2.66758E+005    1.77282E+004   -2.66758E+005    3.35699E+005    6.00295E+004   -3.03615E+005    1.87785E+004   -8.45538E+003   -1.90412E+005   -6.21771E+003   -3.76309E+003    1.40429E+005
            3719    3.12211E+005    9.73725E+004   -2.48946E+005    1.09496E+004   -2.48946E+005    3.46319E+005    4.68747E+004   -2.83369E+005    1.21226E+004   -2.83801E+003   -1.49909E+005   -1.05883E+004   -2.37705E+003    1.56065E+005
            3720    3.14759E+005    1.21648E+005   -2.34518E+005    6.27138E+003   -2.34518E+005    3.56166E+005    3.55331E+004   -2.60371E+005    7.29809E+003   -2.63209E+003   -1.11265E+005   -1.36604E+004   -1.35430E+003    1.68848E+005
            3721    3.16453E+005    1.49208E+005   -2.13813E+005    3.81315E+003   -2.13813E+005    3.63021E+005    2.02637E+004   -2.20094E+005    4.43240E+003    4.77312E+002   -6.57008E+004   -1.51645E+004   -6.37446E+002    1.77759E+005
            3722    3.16304E+005    1.70518E+005   -1.94440E+005    3.80516E+002   -1.94440E+005    3.64958E+005    7.84728E+003   -1.54623E+005    5.92611E+002   -9.82167E+002   -2.31523E+004   -1.63192E+004   -1.19137E+002    1.81402E+005
            3723    3.18051E+005    1.96720E+005    1.96720E+005   -7.78733E+002   -1.70174E+005    3.66895E+005   -8.58896E+003    1.62020E+005   -1.05647E+003    1.18503E+003    2.56383E+004   -1.60080E+004    4.19439E+002    1.82327E+005
            3724    3.14801E+005    2.14874E+005    2.14874E+005   -4.80531E+003   -1.45775E+005    3.60649E+005   -2.14314E+004    2.25432E+005   -5.54288E+003   -7.43959E+002    7.05812E+004   -1.52413E+004    9.52471E+002    1.76018E+005
            3725    3.08063E+005    3.08313E+004   -2.80046E+005    2.51232E+004   -2.80046E+005    3.10877E+005    7.46971E+004   -3.07944E+005    3.06435E+004   -2.65718E+004   -2.28163E+005    2.23439E+003   -2.71926E+003    1.14628E+005
            3726    3.08169E+005    5.04771E+004   -2.72104E+005    1.92795E+004   -2.72104E+005    3.22581E+005    6.74492E+004   -3.04586E+005    1.96220E+004   -2.06287E+004   -2.01341E+005   -3.10493E+003   -1.09260E+003    1.33398E+005
            3727    3.09713E+005    7.85285E+004   -2.58517E+005    1.35542E+004   -2.58517E+005    3.37045E+005    5.54780E+004   -2.93785E+005    1.40477E+004   -1.28792E+004   -1.67602E+005   -7.14662E+003    2.84566E+002    1.49374E+005
            3728    3.14763E+005    1.04373E+005   -2.47441E+005    7.49520E+003   -2.47441E+005    3.51814E+005    4.51912E+004   -2.78131E+005    8.12054E+003   -9.05334E+003   -1.34641E+005   -1.10010E+004    5.27203E+002    1.63796E+005
            3729    3.18121E+005    1.31196E+005   -2.30608E+005    5.28650E+003   -2.30608E+005    3.61804E+005    3.13751E+004   -2.52145E+005    5.85296E+003   -4.60021E+003   -9.53780E+004   -1.39370E+004    5.91794E+002    1.74469E+005
            3730    3.20311E+005    1.53723E+005   -2.14236E+005    2.21174E+003   -2.14236E+005    3.67959E+005    1.94336E+004   -2.14409E+005    2.58180E+003   -3.31202E+003   -5.75706E+004   -1.53114E+004    3.55936E+002    1.81289E+005
            3731    3.22487E+005    1.79038E+005   -1.93220E+005    1.03592E+003   -1.93220E+005    3.72258E+005    4.38219E+003   -1.36324E+005    1.17017E+003    4.07865E+002   -1.47246E+004   -1.63250E+004   -6.70629E+001    1.85254E+005
            3732    3.20108E+005    1.97721E+005    1.97721E+005   -1.25061E+003   -1.71537E+005    3.69258E+005   -8.31116E+003    1.63830E+005   -1.37720E+003    2.52252E+002    2.60584E+004   -1.59271E+004   -4.57083E+002    1.83482E+005
            3733    3.20560E+005    2.20615E+005    2.20615E+005   -2.84321E+003   -1.46670E+005    3.67284E+005   -2.37005E+004    2.29081E+005   -3.22513E+003    4.32571E+003    7.00010E+004   -1.51105E+004   -8.20151E+002    1.80005E+005
            3734    3.05823E+005    3.84713E+004   -2.73145E+005    2.65344E+004   -2.73145E+005    3.11616E+005    6.93798E+004   -3.05298E+005    2.65456E+004   -3.17068E+004   -2.02978E+005    4.21317E+002   -1.87889E+003    1.30144E+005
            3735    3.08536E+005    6.47258E+004   -2.64080E+005    1.91060E+004   -2.64080E+005    3.28806E+005    6.00828E+004   -3.00808E+005    1.96022E+004   -2.24597E+004   -1.77391E+005   -4.31814E+003   -2.00705E+003    1.44726E+005
            3736    3.15072E+005    8.97110E+004   -2.56666E+005    1.28930E+004   -2.56666E+005    3.46377E+005    5.13541E+004   -2.92869E+005    1.35980E+004   -1.73571E+004   -1.50303E+005   -8.13648E+003   -1.38411E+003    1.59497E+005
            3737    3.19754E+005    1.16258E+005   -2.43590E+005    7.91972E+003   -2.43590E+005    3.59848E+005    3.98040E+004   -2.73640E+005    8.67596E+003   -1.07511E+004   -1.17337E+005   -1.16214E+004   -8.76626E+002    1.71296E+005
            3738    3.24421E+005    1.38993E+005   -2.31095E+005    4.20104E+003   -2.31095E+005    3.70088E+005    2.93002E+004   -2.48575E+005    4.86249E+003   -8.25731E+003   -8.45057E+004   -1.43976E+004   -4.63213E+002    1.80407E+005
            3739    3.27722E+005    1.63671E+005   -2.13435E+005    2.41862E+003   -2.13435E+005    3.77106E+005    1.57818E+004   -2.05790E+005    2.80751E+003   -3.24170E+003   -4.69113E+004   -1.57609E+004   -2.00152E+002    1.86591E+005
            3740    3.27993E+005    1.83347E+005   -1.95322E+005    1.01909E+002   -1.95322E+005    3.78669E+005    3.95786E+003   -1.25241E+005    1.81714E+002   -1.49534E+003   -1.05600E+004   -1.66074E+004    1.67410E+001    1.88549E+005
            3741    3.28205E+005    2.05273E+005    2.05273E+005   -9.12037E+002   -1.73200E+005    3.78473E+005   -1.03870E+004    1.76062E+005   -1.18103E+003    3.32616E+003    2.90158E+004   -1.61939E+004    2.68217E+002    1.88092E+005
            3742    3.23867E+005    2.20978E+005    2.20978E+005   -3.69081E+003   -1.50264E+005    3.71242E+005   -2.23413E+004    2.29255E+005   -4.25949E+003    4.80777E+003    6.64757E+004   -1.52236E+004    4.15384E+002    1.82346E+005
            3743    3.06547E+005    5.47719E+004   -2.66836E+005    2.20189E+004   -2.66836E+005    3.21608E+005    6.33485E+004   -3.02573E+005    2.20322E+004   -3.15126E+004   -1.80565E+005   -1.19941E+003    5.29433E+002    1.42479E+005
            3744    3.12331E+005    7.56205E+004   -2.62570E+005    1.50192E+004   -2.62570E+005    3.38191E+005    5.73102E+004   -2.98671E+005    1.51352E+004   -2.62284E+004   -1.60838E+005   -4.87956E+003    1.54715E+003    1.54999E+005
            3745    3.19216E+005    1.00559E+005   -2.54084E+005    1.02442E+004   -2.54084E+005    3.54643E+005    4.77602E+004   -2.88302E+005    1.04492E+004   -1.95799E+004   -1.34150E+005   -8.50801E+003    1.99995E+003    1.67532E+005
            3746    3.26341E+005    1.23831E+005   -2.45144E+005    5.61042E+003   -2.45144E+005    3.68975E+005    3.85672E+004   -2.71477E+005    5.90241E+003   -1.51300E+004   -1.06474E+005   -1.18855E+004    1.72073E+003    1.78286E+005
            3747    3.32523E+005    1.48773E+005   -2.31698E+005    3.28913E+003   -2.31698E+005    3.80472E+005    2.65452E+004   -2.43773E+005    3.56844E+003   -9.68396E+003   -7.35201E+004   -1.47026E+004    1.29979E+003    1.86924E+005
            3748    3.36303E+005    1.70301E+005   -2.17000E+005    1.10705E+003   -2.17000E+005    3.87301E+005    1.51974E+004   -2.01977E+005    1.29817E+003   -6.11823E+003   -4.07722E+004   -1.63340E+004    6.65339E+002    1.92167E+005
            3749    3.38764E+005    1.92901E+005   -1.98254E+005    3.76020E+002   -1.98254E+005    3.91155E+005    1.65892E+003   -1.01665E+005    4.19700E+002   -1.76845E+002   -5.21961E+003   -1.70758E+004   -3.91330E+000    1.94814E+005
            3750    3.36021E+005    2.09966E+005    2.09966E+005   -1.10193E+003   -1.77522E+005    3.87488E+005   -1.04471E+004    1.80156E+005   -1.21829E+003    3.36273E+003    2.91968E+004   -1.65781E+004   -6.30884E+002    1.92594E+005
            3751    3.33430E+005    2.28268E+005    2.28268E+005   -2.25768E+003   -1.54050E+005    3.82319E+005   -2.39867E+004    2.34442E+005   -2.50587E+003    9.49442E+003    6.49714E+004   -1.51853E+004   -1.20488E+003    1.88496E+005
            3752    3.10465E+005    6.65264E+004   -2.64840E+005    1.93140E+004   -2.64840E+005    3.31367E+005    5.96666E+004   -3.02230E+005    1.94129E+004   -3.18025E+004   -1.66610E+005   -2.54138E+003   -1.58035E+002    1.51293E+005
            3753    3.17006E+005    8.56156E+004   -2.61018E+005    1.41650E+004   -2.61018E+005    3.46634E+005    5.37459E+004   -2.98071E+005    1.44844E+004   -2.70549E+004   -1.48667E+005   -6.02927E+003   -1.67872E+002    1.62088E+005
            3754    3.24186E+005    1.05682E+005   -2.55962E+005    8.56585E+003   -2.55962E+005    3.61644E+005    4.72378E+004   -2.88632E+005    8.98386E+003   -2.41577E+004   -1.26540E+005   -9.41896E+003    4.04710E+002    1.73067E+005
            3755    3.33928E+005    1.30664E+005   -2.47993E+005    4.35569E+003   -2.47993E+005    3.78657E+005    3.76579E+004   -2.71806E+005    4.77990E+003   -2.01220E+004   -9.76316E+004   -1.27177E+004    6.54471E+002    1.84809E+005
            3756    3.44006E+005    1.55631E+005   -2.38503E+005    1.38472E+003   -2.38503E+005    3.94134E+005    2.71626E+004   -2.46007E+005    1.73939E+003   -1.47583E+004   -6.84690E+004   -1.55998E+004    6.55654E+002    1.94564E+005
            3757    3.49906E+005    1.80440E+005   -2.22815E+005    5.58348E+002   -2.22815E+005    4.03256E+005    1.39389E+004   -1.99551E+005    7.64764E+002   -6.79217E+003   -3.57894E+004   -1.74384E+004    4.04336E+002    2.00337E+005
            3758    3.50602E+005    2.00744E+005   -2.04092E+005   -6.29066E+001   -2.04092E+005    4.04836E+005    1.13712E+003   -8.40697E+004   -4.88638E+001   -7.70623E+002   -2.59187E+003   -1.81420E+004    3.57687E+001    2.01601E+005
            3759    3.49971E+005    2.20866E+005    2.20866E+005   -6.82789E+001   -1.82638E+005    4.03504E+005   -1.27201E+004    1.91477E+005   -2.58626E+002    6.71736E+003    3.17017E+004   -1.75569E+004   -3.08925E+002    2.00589E+005
            3760    3.43460E+005    2.35156E+005    2.35156E+005   -1.49803E+003   -1.58781E+005    3.93937E+005   -2.49589E+004    2.39829E+005   -1.84304E+003    1.27839E+004    6.39357E+004   -1.58075E+004   -5.86573E+002    1.94624E+005
            3761    3.60588E+005    2.47505E+005    2.47505E+005    4.12720E+002   -1.66270E+005    4.13775E+005   -2.72158E+004    2.48917E+005    4.17485E+002    1.94900E+004    6.17400E+004   -1.61990E+004   -2.46803E+003    2.05153E+005
            3762    3.68759E+005    2.33452E+005    2.33452E+005    9.29778E+002   -1.91732E+005    4.25184E+005   -1.42165E+004    2.00820E+005    9.25660E+002    1.00845E+004    3.16395E+004   -1.86355E+004   -1.33180E+003    2.11495E+005
            3763    3.72026E+005    2.14613E+005   -2.14965E+005    9.76199E+001   -2.14965E+005    4.29579E+005    8.47882E+001   -4.84322E+004    1.06094E+002   -2.36051E+002   -1.24407E+002   -1.95055E+004   -3.63394E+001    2.13902E+005
            3764    3.68854E+005    1.90540E+005   -2.34684E+005   -1.06011E+003   -2.34684E+005    4.25224E+005    1.50683E+004   -2.04396E+005   -1.05805E+003   -1.13182E+004   -3.28286E+004   -1.86419E+004    1.39087E+003    2.11515E+005
            3765    3.60021E+005    1.65635E+005   -2.47418E+005   -2.04007E+002   -2.47418E+005    4.13053E+005    2.73287E+004   -2.49608E+005   -2.04429E+002   -1.97399E+004   -6.20418E+004   -1.61877E+004    2.46453E+003    2.04787E+005
            3766    3.46280E+005    1.38008E+005   -2.55589E+005    2.20792E+003   -2.55589E+005    3.93597E+005    3.84579E+004   -2.76047E+005    2.19325E+003   -2.80825E+004   -8.94846E+004   -1.26246E+004    3.14993E+003    1.93955E+005
            3767    3.26772E+005    1.09169E+005   -2.56618E+005    6.46293E+003   -2.56618E+005    3.65787E+005    4.69951E+004   -2.86939E+005    6.43600E+003   -3.39772E+004   -1.13444E+005   -8.69701E+003    3.30052E+003    1.78289E+005
            3768    3.11142E+005    8.58626E+004   -2.55302E+005    1.28197E+004   -2.55302E+005    3.41165E+005    5.22067E+004   -2.90898E+005    1.27741E+004   -3.10048E+004   -1.38389E+005   -4.94390E+003    3.13677E+003    1.61820E+005
            3769    3.10802E+005    7.53356E+004   -2.59612E+005    1.94666E+004   -2.59612E+005    3.34947E+005    5.49365E+004   -2.99190E+005    1.94154E+004   -2.65582E+004   -1.57667E+005   -2.38494E+003    3.03039E+003    1.54081E+005
            3770    3.89070E+005    7.27834E+004   -3.51664E+005   -1.19303E+004   -3.51664E+005    4.24447E+005    9.69370E+004   -3.67450E+005    7.12516E+004   -1.98998E+004   -3.42163E+005    8.62560E+003   -2.16314E+004    5.23189E+004
            3771    3.60977E+005    5.99068E+004   -3.32241E+005   -1.38193E+004   -3.32241E+005    3.92148E+005    9.53847E+004   -3.43419E+005    5.89248E+004   -2.77548E+004   -3.17324E+005    8.35883E+003   -1.40698E+004    6.59224E+004
            3772    3.33683E+005    5.07371E+004   -3.09378E+005   -1.06516E+004   -3.09378E+005    3.60115E+005    8.97641E+004   -3.20607E+005    5.00640E+004   -3.27852E+004   -2.86571E+005    7.44442E+003   -8.62136E+003    7.88627E+004
            3773    3.13826E+005    4.07728E+004   -2.92944E+005   -3.76923E+003   -2.92944E+005    3.33717E+005    8.53136E+004   -3.06593E+005    4.02983E+004   -4.05750E+004   -2.55664E+005    5.97708E+003   -4.58189E+003    9.68121E+004
            3774    3.02599E+005    3.41410E+004   -2.78303E+005    1.33805E+004   -2.78303E+005    3.12444E+005    7.69273E+004   -3.00990E+005    3.37679E+004   -4.13911E+004   -2.23159E+005    3.95170E+003   -2.22833E+003    1.14243E+005
            3775    3.03162E+005    3.54012E+004   -2.71845E+005    2.70604E+004   -2.71845E+005    3.07247E+005    6.97946E+004   -3.02904E+005    2.73028E+004   -4.03169E+004   -1.96370E+005    1.78857E+003   -2.82947E+002    1.32187E+005
            3776    3.07747E+005    5.68310E+004   -2.65761E+005    2.46050E+004   -2.65761E+005    3.22592E+005    6.14417E+004   -3.03916E+005    2.46071E+004   -3.32376E+004   -1.75695E+005   -1.23888E+002    9.34248E+002    1.44713E+005
            3777    3.72621E+005    3.42805E+005    3.42805E+005   -1.65444E+004   -4.18011E+004    3.84607E+005   -9.48200E+004    3.70688E+005   -4.06906E+004    1.98629E+003    3.23164E+005    5.06975E+003    1.99476E+004    7.93555E+004
            3778    3.49753E+005    3.10734E+005    3.10734E+005   -2.26323E+004   -5.33749E+004    3.64109E+005   -7.82424E+004    3.46694E+005   -2.38208E+004   -1.42073E+004    2.72755E+005   -2.73590E+003    1.30584E+004    1.10445E+005
            3779    3.40851E+005    2.90437E+005    2.90437E+005   -7.11853E+003   -8.14447E+004    3.71881E+005   -6.72912E+004    3.21852E+005   -9.90549E+003   -8.81165E+003    2.20591E+005   -1.19512E+004    7.78305E+003    1.44559E+005
            3780    3.30137E+005    2.55883E+005    2.55883E+005   -6.85456E+003   -1.14687E+005    3.70570E+005   -4.47802E+004    2.86295E+005   -9.04996E+003   -1.00801E+004    1.53471E+005   -1.50019E+004    5.02853E+003    1.64983E+005
            3781    3.89939E+005    3.56458E+005    3.56458E+005   -2.09395E+004   -4.49152E+004    4.01373E+005   -9.68678E+004    3.88275E+005   -4.31822E+004   -8.31382E+003    3.42100E+005    6.63288E+003    2.41067E+004    6.81984E+004
            3782    3.64994E+005    3.32511E+005    3.32511E+005   -1.61381E+004   -4.68839E+004    3.79395E+005   -8.98296E+004    3.62064E+005   -1.63479E+004   -1.22046E+004    2.98041E+005   -4.29467E+002    1.43142E+004    1.08090E+005
            3783    3.44819E+005    2.97280E+005    2.97280E+005   -3.22995E+003   -7.91835E+004    3.76463E+005   -7.16222E+004    3.25189E+005   -5.29807E+003   -1.69272E+004    2.37092E+005   -1.03423E+004    7.36271E+003    1.37489E+005
            3784    3.41238E+005    2.73552E+005    2.73552E+005   -3.65489E+002   -1.08703E+005    3.82255E+005   -5.48280E+004    2.98703E+005   -2.11158E+003   -7.85831E+003    1.74454E+005   -1.37581E+004    3.91251E+003    1.66940E+005
            3785    4.28184E+005    3.83129E+005    3.83129E+005   -1.87948E+004   -6.72007E+004    4.50329E+005   -9.90444E+004    4.21962E+005   -6.37733E+004   -6.93155E+003    3.67838E+005    8.01426E+003    3.81252E+004    6.78283E+004
            3786    3.87413E+005    3.40491E+005    3.40491E+005   -4.00927E+004   -5.34079E+004    3.93899E+005   -8.23302E+004    3.86898E+005   -3.90030E+004   -2.51786E+004    3.11172E+005    4.05665E+003    2.90472E+004    9.92230E+004
            3787    3.65549E+005    3.16350E+005    3.16350E+005   -1.30009E+004   -7.69564E+004    3.93307E+005   -7.54643E+004    3.52631E+005   -1.51739E+004   -1.74568E+004    2.59024E+005   -6.54967E+003    1.86330E+004    1.37405E+005
            3788    3.43427E+005    2.73240E+005    2.73240E+005   -1.04807E+004   -1.08555E+005    3.81796E+005   -5.14013E+004    3.09490E+005   -1.27615E+004   -1.63904E+004    1.83356E+005   -1.04452E+004    1.23655E+004    1.61213E+005
            3789    4.49759E+005    3.99826E+005    3.99826E+005   -2.26217E+004   -7.30023E+004    4.72828E+005   -1.01401E+005    4.43344E+005   -6.91236E+004   -1.33719E+004    3.86697E+005    1.01807E+004    3.97308E+004    6.26326E+004
            3790    4.11625E+005    3.72661E+005    3.72661E+005   -3.61581E+004   -4.17152E+004    4.14376E+005   -9.82624E+004    4.11541E+005   -3.38429E+004   -1.38600E+004    3.42490E+005    9.16056E+003    3.04366E+004    1.03116E+005
            3791    3.69258E+005    3.23656E+005    3.23656E+005   -1.47099E+004   -7.02108E+004    3.93867E+005   -7.95784E+004    3.59694E+005   -1.47275E+004   -2.09148E+004    2.74378E+005   -5.15882E+002    1.93720E+004    1.28862E+005
            3792    3.58234E+005    2.98243E+005    2.98243E+005   -6.31865E+003   -9.64480E+004    3.94691E+005   -6.51589E+004    3.31252E+005   -7.37865E+003   -1.13039E+004    2.14159E+005   -5.65420E+003    1.22791E+004    1.61058E+005
            3793    5.08164E+005    4.39455E+005    4.39455E+005   -1.47453E+004   -1.09370E+005    5.48825E+005   -1.05113E+005    4.87748E+005   -1.03214E+005   -1.08572E+003    4.19640E+005    1.08586E+004    5.67439E+004    7.70478E+004
            3794    4.38679E+005    3.75225E+005    3.75225E+005   -4.16534E+004   -8.24112E+004    4.57636E+005   -8.37201E+004    4.34389E+005   -7.50784E+004   -1.75614E+004    3.43800E+005    1.76076E+004    5.31518E+004    9.72277E+004
            3795    3.94470E+005    3.44990E+005    3.44990E+005   -3.77896E+004   -6.02136E+004    4.05204E+005   -8.23289E+004    3.93032E+005   -3.42527E+004   -1.59833E+004    2.97223E+005    9.74935E+003    3.81596E+004    1.24899E+005
            3796    3.60149E+005    2.98174E+005    2.98174E+005   -2.39397E+004   -9.06758E+004    3.88850E+005   -6.11860E+004    3.45825E+005   -2.29283E+004   -1.75664E+004    2.24053E+005    3.66003E+003    2.63746E+004    1.50417E+005
            3797    5.10129E+005    4.46679E+005    4.46679E+005   -4.81190E+003   -1.06707E+005    5.53386E+005   -1.11720E+005    4.86436E+005   -1.03345E+005    9.89910E+003    4.28606E+005    1.17986E+004    4.03869E+004    8.03418E+004
            3798    4.77010E+005    4.21242E+005    4.21242E+005   -1.13385E+004   -9.03345E+004    5.11577E+005   -1.06523E+005    4.61949E+005   -8.44876E+004    1.25708E+004    3.91486E+005    2.08632E+004    4.52846E+004    1.00510E+005
            3799    4.28627E+005    3.71673E+005    3.71673E+005   -4.50109E+004   -6.79730E+004    4.39646E+005   -8.62298E+004    4.27240E+005   -5.93870E+004   -1.15206E+004    3.29597E+005    2.19452E+004    4.29786E+004    1.17975E+005
            3800    3.94147E+005    3.37873E+005    3.37873E+005   -4.16762E+004   -6.94062E+004    4.07280E+005   -7.55970E+004    3.91943E+005   -3.78551E+004   -4.50251E+003    2.69149E+005    1.74108E+004    3.45825E+004    1.48020E+005
            3801    5.39542E+005    4.44411E+005    4.44411E+005    1.76060E+004   -1.62035E+005    6.06446E+005   -9.99942E+004    4.64741E+005   -1.55209E+005    2.94638E+004    4.25727E+005    1.50326E+004    6.18289E+004    6.98837E+004
            3802    5.19669E+005    4.34145E+005    4.34145E+005   -1.57596E+004   -1.34676E+005    5.68821E+005   -9.45696E+004    4.87626E+005   -1.28998E+005    2.06486E+003    4.10642E+005    2.05071E+004    4.89967E+004    8.93131E+004
            3803    4.88097E+005    4.19888E+005    4.19888E+005   -1.72938E+004   -1.06750E+005    5.26638E+005   -9.86149E+004    4.69119E+005   -1.00558E+005    1.59799E+004    3.80423E+005    2.60652E+004    4.08510E+004    1.18776E+005
            3804    4.34515E+005    3.72785E+005    3.72785E+005   -3.83055E+004   -8.18723E+004    4.54658E+005   -8.42025E+004    4.29560E+005   -7.36933E+004    1.14232E+004    3.14878E+005    2.69835E+004    3.19582E+004    1.39519E+005
            3805    4.55509E+005    4.05423E+005    4.05423E+005    2.51501E+004   -9.94081E+004    5.04831E+005   -1.10388E+005    4.14521E+005   -9.18943E+004    6.52395E+004    3.57820E+005    3.41082E+004    1.32553E+004    1.25436E+005
            3806    5.04350E+005    4.31236E+005    4.31236E+005    1.86649E+004   -1.31010E+005    5.62246E+005   -1.06297E+005    4.50163E+005   -1.26299E+005    4.28826E+004    4.02307E+005    2.85243E+004    2.08306E+004    1.03295E+005
            3807    5.47440E+005    4.57009E+005    4.57009E+005    7.51160E+003   -1.52648E+005    6.09658E+005   -1.03958E+005    4.90427E+005   -1.48977E+005    2.71057E+004    4.33744E+005    2.43357E+004    2.72173E+004    9.61435E+004
            3808    5.88641E+005    4.65566E+005    4.65566E+005   -4.91719E+004   -1.76226E+005    6.41792E+005   -8.00559E+004    5.56521E+005   -1.72050E+005   -4.40669E+004    4.56284E+005    2.11178E+004    3.18382E+004    6.15126E+004
            3809    4.09834E+005    3.68565E+005    3.68565E+005    3.45818E+003   -7.47301E+004    4.43295E+005   -9.90978E+004    3.92524E+005   -7.21024E+004    8.15093E+003    3.61245E+005    1.05089E+004    2.86623E+004    4.36461E+004
            3810    4.40159E+005    3.89640E+005    3.89640E+005    6.03764E+003   -9.09115E+004    4.80552E+005   -1.01589E+005    4.15104E+005   -8.70938E+004    8.93580E+003    3.82924E+005    1.08961E+004    3.87311E+004    3.59649E+004
            3811    4.74582E+005    4.05044E+005    4.05044E+005   -9.14355E+003   -1.12799E+005    5.17842E+005   -9.43671E+004    4.48038E+005   -1.08019E+005   -8.30555E+003    3.99426E+005    1.04597E+004    4.58992E+004    2.40562E+004
            3812    5.16513E+005    4.36811E+005    4.36811E+005   -6.79305E+003   -1.30241E+005    5.67052E+005   -9.99257E+004    4.81615E+005   -1.24851E+005   -4.79988E+003    4.29428E+005    9.74111E+003    5.30078E+004    3.14961E+004
            3813    5.47740E+005    4.52688E+005    4.52688E+005   -1.52840E+004   -1.49769E+005    6.02457E+005   -9.58781E+004    5.08565E+005   -1.44762E+005   -1.38809E+004    4.46278E+005    9.63352E+003    5.25105E+004    2.80871E+004
            3814    5.99988E+005    5.09242E+005    5.09242E+005    3.09783E+003   -1.53524E+005    6.62766E+005   -1.19605E+005    5.51110E+005   -1.48556E+005    9.40401E+003    4.97968E+005    8.47508E+003    5.64107E+004    5.59862E+004
            3815    5.82896E+005    4.80199E+005    4.80199E+005    1.47610E+004   -1.73583E+005    6.53782E+005   -1.07126E+005    5.07337E+005   -1.68407E+005    2.08367E+004    4.68947E+005    1.35235E+004    5.52920E+004    5.36328E+004
            3816    3.83307E+005    3.39717E+005    3.39717E+005    3.80414E+003   -7.78316E+004    4.17549E+005   -8.85633E+004    3.62967E+005   -6.06273E+004    5.69691E+004    2.69348E+005    3.95382E+004    7.07904E+003    1.39255E+005
            3817    3.25086E+005    2.66090E+005    2.66090E+005   -1.14820E+004   -9.15489E+004    3.57639E+005   -5.43530E+004    3.01682E+005   -2.76290E+004    3.66495E+004    1.54039E+005    4.31660E+004    2.62892E+003    1.57705E+005
            3818    2.93025E+005    1.68070E+005   -1.70287E+005   -1.02631E+003   -1.70287E+005    3.38356E+005    1.08118E+003   -2.76771E+004   -9.68315E+002    2.35259E+002   -2.51049E+003    4.46350E+004   -9.69645E+001    1.63178E+005
            3819    3.21174E+005    9.23836E+004   -2.61051E+005    1.29571E+004   -2.61051E+005    3.53435E+005    5.19035E+004   -2.97851E+005    2.88429E+004   -3.51643E+004   -1.49389E+005    4.33509E+004   -3.17716E+003    1.56023E+005
            3820    3.90368E+005    7.64972E+004   -3.48729E+005   -6.59958E+003   -3.48729E+005    4.25226E+005    9.29437E+004   -3.69675E+005    5.95267E+004   -5.94526E+004   -2.78905E+005    3.95730E+004   -6.99014E+003    1.40377E+005
            3821    4.50902E+005    1.02428E+005   -3.98770E+005   -2.60509E+004   -3.98770E+005    5.01198E+005    1.07464E+005   -4.06560E+005    9.48460E+004   -6.11932E+004   -3.56046E+005    3.43488E+004   -1.30628E+004    1.18275E+005
            3822    5.08883E+005    1.29079E+005   -4.39531E+005   -2.68737E+004   -4.39531E+005    5.68610E+005    1.12442E+005   -4.50217E+005    1.24362E+005   -5.14659E+004   -4.10221E+005    2.91168E+004   -1.99969E+004    1.04114E+005
            3823    5.41846E+005    1.51009E+005   -4.53048E+005   -9.83346E+003   -4.53048E+005    6.04057E+005    1.03958E+005   -4.83599E+005    1.47352E+005   -2.16586E+004   -4.37566E+005    2.30152E+004   -2.83350E+004    7.69500E+004
            3824    5.70699E+005    1.80567E+005   -4.62948E+005   -1.82538E+004   -4.62948E+005    6.43515E+005    1.00212E+005   -4.83014E+005    1.75787E+005   -2.48926E+004   -4.51530E+005    2.17312E+004   -4.52527E+004    5.83881E+004
            3825    3.89019E+005    3.25136E+005    3.25136E+005   -4.20778E+004   -8.25278E+004    4.07664E+005   -6.68435E+004    3.84245E+005   -4.76196E+004    1.40214E+004    2.34129E+005    3.05121E+004    2.18674E+004    1.64615E+005
            3826    3.54369E+005    2.80747E+005    2.80747E+005   -2.67880E+004   -1.06781E+005    3.87528E+005   -4.90594E+004    3.33134E+005   -2.39284E+004   -8.57287E+003    1.79680E+005    1.76111E+004    2.44826E+004    1.67614E+005
            3827    3.45966E+005    2.66119E+005    2.66119E+005   -8.57057E+003   -1.22426E+005    3.88545E+005   -4.50407E+004    2.99241E+005   -8.19321E+003   -1.02908E+004    1.53606E+005    2.22652E+003    1.55088E+004    1.75531E+005
            3828    3.38181E+005    2.50525E+005    2.50525E+005   -3.32797E+003   -1.33374E+005    3.83900E+005   -3.79410E+004    2.72748E+005   -3.98023E+003   -1.19567E+004    1.29760E+005   -6.63298E+003    6.75798E+003    1.78027E+005
            3829    3.39668E+005    2.46157E+005    2.46157E+005   -2.36486E+003   -1.40881E+005    3.87038E+005   -3.43039E+004    2.63868E+005   -3.72350E+003   -8.47259E+003    1.15108E+005   -1.18595E+004    6.94276E+003    1.82666E+005
            3830    3.30087E+005    2.33515E+005    2.33515E+005    4.19770E+002   -1.44199E+005    3.77713E+005   -2.99119E+004    2.41667E+005   -4.86833E+002   -8.45623E+003    9.86789E+004   -1.50975E+004    1.45094E+003    1.80351E+005
            3831    3.31683E+005    2.32988E+005    2.32988E+005   -1.50476E+003   -1.46506E+005    3.79494E+005   -2.83258E+004    2.43342E+005   -2.75413E+003   -3.87280E+003    9.16043E+004   -1.64737E+004    2.78062E+003    1.82726E+005
            3832    3.37827E+005    2.50149E+005    2.50149E+005   -2.30611E+004   -1.27588E+005    3.77736E+005   -3.31665E+004    2.98051E+005   -2.37904E+004    6.19179E+003    1.17098E+005    3.11422E+004    1.08105E+004    1.77334E+005
            3833    3.35577E+005    2.35617E+005    2.35617E+005   -1.06013E+004   -1.46615E+005    3.82232E+005   -2.61335E+004    2.61813E+005   -9.34021E+003   -1.41199E+003    8.91526E+004    1.50156E+004    1.18382E+004    1.84872E+005
            3834    3.30653E+005    2.17173E+005    2.17173E+005   -4.71944E+003   -1.62853E+005    3.80026E+005   -1.65335E+004    2.17764E+005   -4.75753E+003   -5.97281E+003    6.03310E+004   -5.55006E+002    6.59627E+003    1.86978E+005
            3835    3.37383E+005    2.19849E+005    2.19849E+005   -1.23714E+002   -1.68590E+005    3.88440E+005   -1.70450E+004    2.05875E+005   -4.39941E+002   -1.87394E+003    5.34488E+004   -8.86360E+003    2.19965E+003    1.92001E+005
            3836    3.30603E+005    2.05043E+005    2.05043E+005   -2.76751E+003   -1.76187E+005    3.81231E+005   -8.69613E+003    1.77771E+005   -3.35763E+003   -4.38575E+003    3.38318E+004   -1.38168E+004    2.71034E+003    1.89104E+005
            3837    3.32821E+005    2.08420E+005    2.08420E+005    1.11214E+003   -1.75479E+005    3.83899E+005   -1.13509E+004    1.72008E+005    8.67508E+002    6.40985E+001    3.31210E+004   -1.66801E+004   -3.15077E+000    1.90498E+005
            3838    3.25954E+005    1.97795E+005    1.97795E+005   -2.26200E+003   -1.78330E+005    3.76125E+005   -5.73431E+003    1.56270E+005   -2.69078E+003   -2.62440E+003    2.25181E+004   -1.77820E+004    1.07298E+003    1.86780E+005
            3839    3.23822E+005    1.84345E+005   -1.89547E+005    1.20833E+003   -1.89547E+005    3.73892E+005    1.33125E+003   -1.06211E+005    1.22965E+003    4.48612E+002   -5.67201E+003    3.31418E+004   -5.60635E+002    1.83958E+005
            3840    3.24768E+005    1.76198E+005   -1.98531E+005    1.41366E+003   -1.98531E+005    3.74728E+005    6.97322E+003   -1.58379E+005    1.25631E+003   -3.40192E+002   -2.18358E+004    1.67094E+004   -1.91981E+003    1.86303E+005
            3841    3.31954E+005    1.80854E+005   -2.02149E+005    2.58928E+003   -2.02149E+005    3.83003E+005    6.23523E+003   -1.63448E+005    2.56166E+003    3.00335E+003   -2.42707E+004    1.05780E+003   -2.56184E+003    1.90996E+005
            3842    3.32743E+005    1.74249E+005   -2.09412E+005    3.29408E+002   -2.09412E+005    3.83661E+005    1.16112E+004   -1.80964E+005    5.61507E+002    1.85434E+003   -3.72495E+004   -7.30004E+003   -2.31939E+003    1.90667E+005
            3843    3.33799E+005    1.76950E+005   -2.07988E+005    1.48254E+003   -2.07988E+005    3.84938E+005    9.85189E+003   -1.78249E+005    1.88522E+003    4.50250E+003   -3.59434E+004   -1.25675E+004   -1.83948E+003    1.90963E+005
            3844    3.29317E+005    1.69934E+005   -2.09648E+005   -1.70148E+002   -2.09648E+005    3.79582E+005    1.32947E+004   -1.85417E+005    3.37279E+002    2.08985E+003   -4.23113E+004   -1.56307E+004   -1.30366E+003    1.87807E+005
            3845    3.28747E+005    1.73296E+005   -2.05778E+005    1.12628E+003   -2.05778E+005    3.79074E+005    1.04520E+004   -1.77686E+005    1.56327E+003    3.57030E+003   -3.64895E+004   -1.69927E+004   -7.16953E+002    1.87686E+005
            3846    3.45604E+005    1.17043E+005   -2.65573E+005    2.39471E+004   -2.65573E+005    3.82616E+005    4.15278E+004   -3.15492E+005    2.53788E+004   -8.74847E+003   -1.41214E+005    3.14867E+004   -1.19003E+004    1.75889E+005
            3847    3.39041E+005    1.32155E+005   -2.49358E+005    1.74556E+004   -2.49358E+005    3.81513E+005    3.32493E+004   -2.90314E+005    1.57210E+004    4.28817E+003   -1.19757E+005    1.59343E+004   -1.58906E+004    1.79345E+005
            3848    3.38061E+005    1.35739E+005   -2.47981E+005    5.96061E+003   -2.47981E+005    3.83720E+005    3.54271E+004   -2.72917E+005    5.88248E+003    7.14820E+003   -1.19312E+005    5.99332E+002   -1.13413E+004    1.80799E+005
            3849    3.40244E+005    1.42159E+005   -2.45453E+005    3.87768E+003   -2.45453E+005    3.87613E+005    3.31388E+004   -2.64949E+005    4.65904E+003    9.87421E+003   -1.13950E+005   -7.86523E+003   -6.86225E+003    1.83235E+005
            3850    3.36505E+005    1.39442E+005   -2.44064E+005    1.79845E+003   -2.44064E+005    3.83507E+005    3.42746E+004   -2.60844E+005    3.24697E+003    8.60311E+003   -1.14674E+005   -1.30385E+004   -6.13985E+003    1.80783E+005
            3851    3.33455E+005    1.42690E+005   -2.38203E+005    1.06043E+003   -2.38203E+005    3.80892E+005    3.14842E+004   -2.51030E+005    2.31744E+003    8.49872E+003   -1.05269E+005   -1.58748E+004   -2.67678E+003    1.80865E+005
            3852    3.28504E+005    1.39639E+005   -2.35425E+005    1.19536E+003   -2.35425E+005    3.75065E+005    3.15303E+004   -2.48896E+005    2.59363E+003    4.99934E+003   -1.02184E+005   -1.70330E+004   -2.50158E+003    1.78689E+005
            3853    3.91351E+005    7.90923E+004   -3.29388E+005    4.22225E+004   -3.29388E+005    4.08481E+005    6.93578E+004   -3.87414E+005    5.26596E+004   -1.35012E+004   -2.47232E+005    3.12121E+004   -2.23938E+004    1.57329E+005
            3854    3.70863E+005    8.91172E+004   -3.06626E+005    3.29503E+004   -3.06626E+005    3.95743E+005    6.15195E+004   -3.61108E+005    2.97785E+004    4.94742E+003   -2.19284E+005    1.95970E+004   -2.84178E+004    1.60728E+005
            3855    3.53225E+005    1.04172E+005   -2.84233E+005    1.77819E+004   -2.84233E+005    3.88406E+005    5.40930E+004   -3.28168E+005    1.66998E+004    1.48024E+004   -1.93781E+005    4.84256E+003   -2.17871E+004    1.62652E+005
            3856    3.51684E+005    1.05133E+005   -2.85456E+005    6.07646E+003   -2.85456E+005    3.90589E+005    5.80822E+004   -3.17954E+005    6.79004E+003    1.36743E+004   -1.94711E+005   -4.43564E+003   -1.20206E+004    1.64471E+005
            3857    3.44104E+005    1.12853E+005   -2.71584E+005    7.60403E+003   -2.71584E+005    3.84437E+005    5.03753E+004   -3.04604E+005    9.42529E+003    1.63432E+004   -1.76895E+005   -9.71509E+003   -1.13002E+004    1.65014E+005
            3858    3.38254E+005    1.09333E+005   -2.69939E+005    5.09978E+002   -2.69939E+005    3.79271E+005    5.33654E+004   -2.94829E+005    2.22132E+003    1.10688E+004   -1.73386E+005   -1.31767E+004   -4.51112E+003    1.64685E+005
            3859    3.31086E+005    1.14286E+005   -2.57621E+005    5.02498E+003   -2.57621E+005    3.71907E+005    4.61032E+004   -2.86092E+005    7.01125E+003    9.95045E+003   -1.55271E+005   -1.45149E+004   -4.63530E+003    1.65429E+005
            3860    4.48886E+005    8.61638E+004   -3.89722E+005    2.61187E+004   -3.89722E+005    4.75886E+005    9.24800E+004   -4.39715E+005    7.91435E+004   -2.04493E+004   -3.36134E+005    2.73035E+004   -3.20854E+004    1.35595E+005
            3861    4.06781E+005    6.08897E+004   -3.50320E+005    5.18815E+004   -3.50320E+005    4.11210E+005    7.91830E+004   -4.06556E+005    4.95073E+004    4.73122E+003   -2.91788E+005    1.92391E+004   -3.83798E+004    1.37521E+005
            3862    3.80527E+005    7.17331E+004   -3.27640E+005    3.07168E+004   -3.27640E+005    3.99373E+005    7.50634E+004   -3.75505E+005    2.87901E+004    1.42813E+004   -2.68262E+005    6.33047E+003   -3.22424E+004    1.38349E+005
            3863    3.67104E+005    7.91886E+004   -3.15906E+005    1.46457E+004   -3.15906E+005    3.95095E+005    7.40240E+004   -3.53999E+005    1.54085E+004    1.70382E+004   -2.54519E+005   -2.85023E+003   -1.78447E+004    1.41989E+005
            3864    3.59198E+005    8.31048E+004   -3.05919E+005    1.31667E+004   -3.05919E+005    3.89024E+005    6.98825E+004   -3.43374E+005    1.56467E+004    1.75847E+004   -2.42879E+005   -7.95435E+003   -1.67937E+004    1.42182E+005
            3865    3.43862E+005    8.36045E+004   -2.92691E+005    5.19363E+003   -2.92691E+005    3.76296E+005    6.79643E+004   -3.22815E+005    7.46161E+003    1.37610E+004   -2.25115E+005   -1.11351E+004   -7.28048E+003    1.43890E+005
            3866    3.37936E+005    8.47544E+004   -2.84938E+005    8.05977E+003   -2.84938E+005    3.69692E+005    6.40412E+004   -3.17457E+005    1.08409E+004    9.34986E+003   -2.12314E+005   -1.24305E+004   -7.22067E+003    1.46189E+005
            3867    4.90592E+005    1.13688E+005   -4.19952E+005    1.14922E+004   -4.19952E+005    5.33640E+005    9.82571E+004   -4.65731E+005    1.07791E+005   -1.68363E+004   -3.85726E+005    2.56538E+004   -4.02619E+004    1.09936E+005
            3868    4.51005E+005    7.56384E+004   -3.96261E+005    3.04471E+004   -3.96261E+005    4.71899E+005    9.67251E+004   -4.45869E+005    6.82238E+004   -4.74419E+002   -3.57925E+005    2.31263E+004   -4.46563E+004    1.13684E+005
            3869    4.12376E+005    5.63803E+004   -3.57351E+005    5.36567E+004   -3.57351E+005    4.13732E+005    8.24381E+004   -4.12356E+005    5.08772E+004    1.99289E+004   -3.18120E+005    1.40582E+004   -4.48031E+004    1.12164E+005
            3870    3.90926E+005    5.48721E+004   -3.51060E+005    2.28966E+004   -3.51060E+005    4.05932E+005    9.10970E+004   -3.87968E+005    2.16202E+004    1.95902E+004   -3.14501E+005    3.90942E+003   -2.50671E+004    1.13421E+005
            3871    3.73170E+005    6.30652E+004   -3.27377E+005    2.57115E+004   -3.27377E+005    3.90442E+005    7.95335E+004   -3.68929E+005    2.65058E+004    2.31253E+004   -2.88232E+005   -1.39886E+003   -2.40159E+004    1.14765E+005
            3872    3.57641E+005    5.87525E+004   -3.21461E+005    8.23683E+003   -3.21461E+005    3.80213E+005    8.48239E+004   -3.49480E+005    9.67217E+003    1.53437E+004   -2.79488E+005   -5.61884E+003   -1.11922E+004    1.18535E+005
            3873    3.43451E+005    6.18578E+004   -3.02559E+005    1.51464E+004   -3.02559E+005    3.64416E+005    7.51848E+004   -3.36193E+005    1.74576E+004    1.23021E+004   -2.55314E+005   -7.07845E+003   -1.07802E+004    1.21703E+005
            3874    5.26152E+005    1.38007E+005   -4.45436E+005   -6.97775E+003   -4.45436E+005    5.83443E+005    1.04802E+005   -4.78019E+005    1.33348E+005   -2.64575E+004   -4.21297E+005    1.70398E+004   -4.77755E+004    9.05244E+004
            3875    4.92856E+005    1.01861E+005   -4.29568E+005    1.24837E+004   -4.29568E+005    5.31429E+005    1.05074E+005   -4.74106E+005    9.70377E+004   -9.54539E+003   -4.02715E+005    1.80383E+004   -4.39871E+004    9.70885E+004
            3876    4.64994E+005    9.24508E+004   -4.00349E+005    3.06602E+004   -4.00349E+005    4.92800E+005    9.24128E+004   -4.55620E+005    8.53709E+004    1.11035E+004   -3.73713E+005    1.68927E+004   -5.48502E+004    8.97394E+004
            3877    4.20494E+005    5.46167E+004   -3.75536E+005    3.45820E+004   -3.75536E+005    4.30153E+005    9.54459E+004   -4.19418E+005    5.06351E+004    1.58309E+004   -3.52804E+005    1.18969E+004   -3.51081E+004    8.71014E+004
            3878    4.05786E+005    5.07821E+004   -3.60671E+005    3.92000E+004   -3.60671E+005    4.11453E+005    9.02297E+004   -4.05414E+005    4.79163E+004    1.90966E+004   -3.37702E+005    7.34190E+003   -3.33579E+004    8.70706E+004
            3879    3.71127E+005    3.61678E+004   -3.38223E+005    2.95510E+004   -3.38223E+005    3.74391E+005    9.08348E+004   -3.70994E+005    2.86584E+004    1.33522E+004   -3.14515E+005    3.90025E+003   -1.88648E+004    8.92046E+004
            3880    3.61176E+005    3.68181E+004   -3.28048E+005    2.93211E+004   -3.28048E+005    3.64866E+005    8.73028E+004   -3.61000E+005    3.00666E+004    7.65843E+003   -2.99634E+005    1.54200E+003   -1.60858E+004    9.63467E+004
            3881    5.32855E+005    1.35445E+005   -4.54410E+005   -7.86642E+003   -4.54410E+005    5.89855E+005    1.08944E+005   -4.86584E+005    1.32137E+005   -1.96346E+004   -4.39334E+005    9.15415E+003   -4.29378E+004    7.13458E+004
            3882    5.30926E+005    1.21606E+005   -4.59652E+005   -2.41619E+002   -4.59652E+005    5.81258E+005    1.12762E+005   -4.97988E+005    1.17760E+005   -1.15298E+004   -4.44517E+005    1.19033E+004   -4.47041E+004    7.13854E+004
            3883    4.97367E+005    1.11702E+005   -4.27439E+005    1.35062E+004   -4.27439E+005    5.39141E+005    1.00744E+005   -4.74817E+005    1.06564E+005    2.86567E+003   -4.11661E+005    9.79684E+003   -5.13392E+004    6.73490E+004
            3884    4.70371E+005    8.66552E+004   -4.14863E+005    1.64762E+004   -4.14863E+005    5.01518E+005    1.03910E+005   -4.58371E+005    8.22574E+004    8.06417E+003   -4.02053E+005    1.09860E+004   -4.40226E+004    6.04009E+004
            3885    4.31210E+005    7.51627E+004   -3.82505E+005    1.61728E+004   -3.82505E+005    4.57668E+005    9.70566E+004   -4.21989E+005    7.15214E+004    8.01514E+003   -3.70706E+005    8.76736E+003   -3.89259E+004    5.67200E+004
            3886    4.04857E+005    5.54587E+004   -3.69365E+005    1.20206E+004   -3.69365E+005    4.24824E+005    1.00629E+005   -3.99563E+005    5.31351E+004    1.53875E+003   -3.56560E+005    8.38686E+003   -2.83705E+004    6.30071E+004
            3887    3.77495E+005    4.85811E+004   -3.46030E+005    1.16320E+004   -3.46030E+005    3.94611E+005    9.52724E+004   -3.73395E+005    4.71509E+004   -1.76179E+003   -3.31206E+005    6.73007E+003   -2.14632E+004    6.81783E+004
            3888    4.14560E+005    7.74899E+004   -3.73186E+005   -8.10391E+003   -3.73186E+005    4.50676E+005    1.01267E+005   -3.93936E+005    7.47342E+004   -1.26656E+004   -3.65869E+005    1.09418E+004   -2.97996E+004    4.31113E+004
            3889    4.43431E+005    9.57811E+004   -3.88427E+005   -2.14255E+003   -3.88427E+005    4.84208E+005    9.82627E+004   -4.18052E+005    9.17941E+004   -3.93573E+003   -3.82646E+005    1.10368E+004   -3.93841E+004    3.03976E+004
            3890    4.85613E+005    1.16113E+005   -4.15358E+005    5.21096E+003   -4.15358E+005    5.31471E+005    9.80116E+004   -4.55795E+005    1.11172E+005    3.75319E+003   -4.08960E+005    1.08160E+004   -4.76841E+004    2.85392E+004
            3891    5.13831E+005    1.36999E+005   -4.27563E+005    1.27507E+004   -4.27563E+005    5.64562E+005    9.26043E+004   -4.78248E+005    1.31684E+005    1.15070E+004   -4.21004E+005    1.04067E+004   -5.18127E+004    2.68205E+004
            3892    5.60303E+005    1.54390E+005   -4.62246E+005    1.56592E+004   -4.62246E+005    6.16636E+005    9.73991E+004   -5.19511E+005    1.49137E+005    1.26770E+004   -4.54011E+005    1.09105E+004   -5.43720E+004    3.92056E+004
            3893    5.61766E+005    1.65063E+005   -4.60328E+005    1.51639E+003   -4.60328E+005    6.25392E+005    9.79161E+004   -5.03882E+005    1.60710E+005   -3.92178E+003   -4.50537E+005    1.26995E+004   -4.90004E+004    5.09874E+004
            3894    5.84934E+005    1.82393E+005   -4.73845E+005   -7.30195E+003   -4.73845E+005    6.56238E+005    9.95847E+004   -5.08488E+005    1.77410E+005   -1.22560E+004   -4.63908E+005    1.48095E+004   -5.32056E+004    4.95702E+004
            3895    2.94017E+005    2.56650E+005    2.56650E+005   -1.25391E+004   -5.71068E+004    3.13757E+005   -6.23346E+004    2.86269E+005   -1.25413E+004    3.25242E+004    1.67021E+005   -2.19384E+003   -1.51298E+003    1.41708E+005
            3896    3.06019E+005    2.62763E+005    2.62763E+005   -4.27349E+003   -7.11694E+004    3.33933E+005   -6.24402E+004    2.88872E+005   -4.32144E+003    4.54600E+004    1.46182E+005   -5.11078E+003   -2.01537E+003    1.59080E+005
            3897    3.29573E+005    2.63838E+005    2.63838E+005    3.25444E+002   -1.05698E+005    3.69536E+005   -5.28218E+004    2.87268E+005    2.13753E+002    3.79662E+004    1.20285E+005   -9.32076E+003   -2.23765E+003    1.79846E+005
            3898    3.47151E+005    2.59255E+005    2.59255E+005    3.90899E+003   -1.36024E+005    3.95278E+005   -4.23800E+004    2.71869E+005    3.81057E+003    2.97142E+004    9.36152E+004   -1.37921E+004   -2.56014E+003    1.94520E+005
            3899    3.38422E+005    2.50448E+005    2.50448E+005    6.27723E+002   -1.34697E+005    3.85145E+005   -3.87931E+004    2.66462E+005    4.23263E+002    2.14147E+004    9.45413E+004   -1.35773E+004   -2.05705E+003    1.88539E+005
            3900    3.29774E+005    2.45344E+005    2.45344E+005   -1.86581E+003   -1.29092E+005    3.74436E+005   -3.81286E+004    2.65470E+005   -2.56073E+003    1.51722E+004    1.01774E+005   -1.40793E+004    2.18267E+002    1.81481E+005
            3901    3.27297E+005    2.45463E+005    2.45463E+005   -2.92565E+003   -1.25410E+005    3.70873E+005   -3.90426E+004    2.67927E+005   -3.35183E+003    1.20084E+004    1.08471E+005   -1.39750E+004   -1.79377E+003    1.78424E+005
            3902    3.23263E+005    2.42135E+005    2.42135E+005   -5.33080E+003   -1.23609E+005    3.65744E+005   -3.77319E+004    2.67643E+005   -6.10244E+003    6.37196E+003    1.12926E+005   -1.44404E+004   -4.60094E+002    1.74197E+005
            3903    3.23536E+005    2.46976E+005    2.46976E+005   -1.83640E+003   -1.18770E+005    3.65746E+005   -4.21231E+004    2.69436E+005   -2.55022E+003    5.91238E+003    1.23007E+005   -1.49734E+004   -1.44585E+003    1.72456E+005
            3904    3.22773E+005    2.45751E+005    2.45751E+005   -5.91211E+003   -1.18160E+005    3.63911E+005   -4.05597E+004    2.73383E+005   -7.31435E+003   -1.67757E+003    1.30671E+005   -1.53681E+004    1.30065E+003    1.68498E+005
            3905    3.28146E+005    2.56045E+005    2.56045E+005   -4.40009E+002   -1.13737E+005    3.69782E+005   -4.72892E+004    2.78752E+005   -1.70638E+003   -1.15747E+003    1.44731E+005   -1.55708E+004    2.02234E+002    1.68906E+005
            3906    3.21966E+005    2.55815E+005    2.55815E+005   -2.21262E+003   -1.04993E+005    3.60808E+005   -4.95366E+004    2.81342E+005   -2.35124E+003    2.67345E+004    1.24226E+005   -9.51635E+003   -2.41179E+003    1.73385E+005
            3907    3.23271E+005    2.57784E+005    2.57784E+005   -4.37333E+003   -1.03423E+005    3.61207E+005   -4.99959E+004    2.86020E+005   -5.03107E+003    1.92821E+004    1.35737E+005   -1.05119E+004    4.04454E+002    1.70478E+005
            3908    3.19372E+005    2.57224E+005    2.57224E+005   -5.23767E+003   -9.83577E+004    3.55582E+005   -5.12097E+004    2.86355E+005   -5.69067E+003    1.42498E+004    1.45070E+005   -1.05561E+004   -1.67176E+003    1.64859E+005
            3909    3.20177E+005    2.61289E+005    2.61289E+005   -6.86933E+003   -9.32036E+004    3.54492E+005   -5.37386E+004    2.92221E+005   -7.76344E+003    1.13965E+004    1.57583E+005   -1.10848E+004    6.64012E+001    1.60838E+005
            3910    3.18059E+005    2.62973E+005    2.62973E+005   -3.90428E+003   -8.89691E+004    3.51942E+005   -5.66999E+004    2.90770E+005   -4.78425E+003    5.04355E+003    1.69840E+005   -1.17165E+004   -1.14401E+003    1.54781E+005
            3911    3.24345E+005    2.71572E+005    2.71572E+005   -6.63518E+003   -8.46727E+004    3.56245E+005   -6.00880E+004    3.02120E+005   -8.43344E+003    2.37818E+003    1.86319E+005   -1.22086E+004    2.51302E+003    1.51431E+005
            3912    3.26362E+005    2.76258E+005    2.76258E+005   -2.49762E+003   -8.27426E+004    3.59000E+005   -6.36724E+004    3.02950E+005   -4.19851E+003   -6.05473E+003    2.01271E+005   -1.24818E+004    1.50428E+003    1.45414E+005
            3913    3.12624E+005    2.61212E+005    2.61212E+005   -7.10332E+003   -8.20834E+004    3.43296E+005   -5.73418E+004    2.91344E+005   -7.11709E+003    2.72702E+004    1.51872E+005   -5.56348E+003   -2.75869E+003    1.59818E+005
            3914    3.16310E+005    2.65709E+005    2.65709E+005   -1.04903E+004   -7.93625E+004    3.45072E+005   -5.86188E+004    2.98733E+005   -1.08738E+004    2.28980E+004    1.63832E+005   -5.87056E+003    6.65494E+002    1.57252E+005
            3915    3.14324E+005    2.70193E+005    2.70193E+005   -1.00182E+004   -6.96887E+004    3.39882E+005   -6.34953E+004    3.01183E+005   -1.01978E+004    2.17432E+004    1.78941E+005   -5.44690E+003   -1.64877E+003    1.50499E+005
            3916    3.15003E+005    2.72539E+005    2.72539E+005   -1.54526E+004   -6.38705E+004    3.36409E+005   -6.44051E+004    3.06464E+005   -1.59265E+004    1.46361E+004    1.94506E+005   -5.00269E+003    8.90185E+002    1.41851E+005
            3917    3.15945E+005    2.81407E+005    2.81407E+005   -1.04407E+004   -5.40945E+004    3.35502E+005   -7.22906E+004    3.09050E+005   -1.08064E+004    1.31240E+004    2.14554E+005   -4.83122E+003   -4.94389E+002    1.33894E+005
            3918    3.25276E+005    2.88020E+005    2.88020E+005   -1.72915E+004   -5.40912E+004    3.42111E+005   -7.22125E+004    3.20543E+005   -1.82813E+004    1.31821E+003    2.33601E+005   -4.56834E+003    4.55161E+003    1.24884E+005
            3919    3.33844E+005    3.02764E+005    3.02764E+005   -1.05949E+004   -4.83529E+004    3.51117E+005   -8.12722E+004    3.28988E+005   -1.13883E+004   -2.61321E+002    2.55466E+005   -4.15877E+003    4.40210E+003    1.19688E+005
            3920    3.10594E+005    2.67274E+005    2.67274E+005   -1.23765E+004   -6.70132E+004    3.34287E+005   -6.26280E+004    2.99495E+005   -1.23438E+004    2.80186E+004    1.72209E+005   -2.58147E+003   -2.56243E+003    1.50764E+005
            3921    3.10034E+005    2.71650E+005    2.71650E+005   -1.63053E+004   -5.65358E+004    3.28186E+005   -6.62696E+004    3.04079E+005   -1.64150E+004    2.97523E+004    1.85472E+005   -1.89594E+003    9.19691E+002    1.44383E+005
            3922    3.06463E+005    2.75621E+005    2.75621E+005   -1.77408E+004   -4.24476E+004    3.18068E+005   -7.18108E+004    3.04210E+005   -1.77581E+004    2.91122E+004    2.04078E+005   -7.89174E+002   -6.21573E+001    1.32799E+005
            3923    3.10384E+005    2.85353E+005    2.85353E+005   -2.28223E+004   -2.71932E+004    3.12546E+005   -7.84458E+004    3.10315E+005   -2.29108E+004    2.78944E+004    2.30354E+005    4.54512E+002    2.61426E+003    1.18968E+005
            3924    3.18722E+005    2.96032E+005    2.96032E+005   -2.20237E+004   -2.33522E+004    3.19384E+005   -8.35519E+004    3.18715E+005   -2.29740E+004    1.87703E+004    2.54859E+005    1.59916E+003    2.52115E+003    1.06803E+005
            3925    3.35174E+005    3.11311E+005    3.11311E+005   -1.75793E+004   -2.98128E+004    3.41124E+005   -8.79729E+004    3.34672E+005   -2.96084E+004    1.44795E+004    2.79048E+005    2.60985E+003    7.93023E+003    9.75168E+004
            3926    3.48879E+005    3.24280E+005    3.24280E+005   -1.90948E+004   -2.98529E+004    3.54133E+005   -9.17775E+004    3.48505E+005   -2.94240E+004    4.24193E+003    3.00515E+005    3.80392E+003    1.03585E+004    8.65365E+004
            3927    3.81518E+005    3.51084E+005    3.51084E+005    9.17747E+003   -6.04536E+004    4.11537E+005   -9.99358E+004    3.66811E+005   -5.87759E+004    1.81436E+004    3.40440E+005    9.99987E+003    1.92691E+004    5.64487E+004
            3928    3.57453E+005    3.31346E+005    3.31346E+005    6.09742E+003   -5.13523E+004    3.82699E+005   -9.53638E+004    3.46838E+005   -5.01491E+004    2.01308E+004    3.16110E+005    9.16534E+003    1.16006E+004    6.77565E+004
            3929    3.33159E+005    3.13419E+005    3.13419E+005    8.48290E+003   -4.21627E+004    3.55582E+005   -9.32464E+004    3.24328E+005   -4.12056E+004    3.12338E+004    2.89711E+005    8.23589E+003    6.31313E+003    8.14245E+004
            3930    3.15288E+005    2.95716E+005    2.95716E+005   -8.64890E+002   -3.54310E+004    3.31147E+005   -8.64733E+004    3.10982E+005   -3.46057E+004    3.50321E+004    2.58994E+005    6.57958E+003    3.33290E+003    9.77054E+004
            3931    3.02578E+005    2.81888E+005    2.81888E+005   -1.27740E+004   -2.80280E+004    3.09916E+005   -8.03620E+004    3.01711E+005   -2.70574E+004    4.08156E+004    2.27328E+005    4.73237E+003    1.43107E+003    1.14640E+005
            3932    3.04885E+005    2.71272E+005    2.71272E+005   -2.38504E+004   -4.25172E+004    3.13789E+005   -6.83014E+004    3.03595E+005   -2.39955E+004    3.25417E+004    1.96358E+005    2.17685E+003    4.49940E+002    1.33723E+005
            3933    3.04113E+005    2.61411E+005    2.61411E+005   -2.02042E+004   -6.10678E+004    3.22479E+005   -6.00463E+004    2.97842E+005   -2.02185E+004    2.05816E+004    1.79776E+005    1.14920E+002   -1.63467E+003    1.40207E+005
            3934    3.56999E+005    3.68664E+004   -3.33199E+005    9.11198E+003   -3.33199E+005    3.70066E+005    9.57403E+004   -3.54559E+005    3.61012E+004   -1.03684E+004   -3.12954E+005    5.85531E+003   -1.27925E+004    7.97408E+004
            3935    3.37526E+005    3.49228E+004   -3.09961E+005    1.96916E+004   -3.09961E+005    3.44884E+005    8.51156E+004   -3.36752E+005    1.98420E+004    4.02398E+002   -2.75591E+005    1.13075E+002   -6.81672E+003    1.03068E+005
            3936    3.31393E+005    5.92243E+004   -2.95606E+005    5.87861E+003   -2.95606E+005    3.54830E+005    7.68343E+004   -3.21520E+005    7.34405E+003    2.34839E+003   -2.40195E+005   -8.08776E+003   -3.26559E+003    1.28490E+005
            3937    3.25895E+005    8.66149E+004   -2.72651E+005    3.95369E+003   -2.72651E+005    3.59266E+005    6.06940E+004   -3.00922E+005    5.69460E+003    3.98876E+003   -1.91765E+005   -1.29737E+004   -1.53965E+003    1.49487E+005
            3938    3.26066E+005    1.12800E+005   -2.54555E+005    5.81945E+002   -2.54555E+005    3.67356E+005    4.70577E+004   -2.77343E+005    1.90504E+003    3.16800E+003   -1.46246E+005   -1.52144E+004   -6.57190E+002    1.66819E+005
            3939    3.25971E+005    1.44100E+005   -2.28931E+005    1.09279E+003   -2.28931E+005    3.73031E+005    2.79130E+004   -2.38344E+005    2.01347E+003    3.70793E+003   -8.94603E+004   -1.74209E+004   -3.91491E+002    1.79649E+005
            3940    3.24811E+005    1.69111E+005   -2.05365E+005   -1.00599E+001   -2.05365E+005    3.74475E+005    1.20880E+004   -1.78740E+005    3.90397E+002    3.89179E+002   -3.70437E+004   -1.75703E+004   -3.59893E+002    1.85449E+005
            3941    3.27838E+005    2.02130E+005    2.02130E+005    8.86085E+002   -1.76168E+005    3.78297E+005   -8.94943E+003    1.57309E+005    7.50891E+002    1.21160E+003    2.48858E+004   -1.82112E+004   -4.65805E+002    1.87893E+005
            3942    3.24159E+005    2.24131E+005    2.24131E+005    1.74330E+002   -1.47582E+005    3.71712E+005   -2.55744E+004    2.27595E+005   -4.79045E+002   -3.94691E+003    8.11493E+004   -1.70460E+004   -3.47011E+002    1.80045E+005
            3943    3.36819E+005    3.39269E+004   -3.13342E+005    1.19515E+004   -3.13342E+005    3.47269E+005    8.91546E+004   -3.35201E+005    3.35479E+004   -1.45572E+004   -2.86454E+005    4.28378E+003   -8.15755E+003    8.92016E+004
            3944    3.29492E+005    3.82163E+004   -2.99329E+005    2.14704E+004   -2.99329E+005    3.37546E+005    7.98809E+004   -3.28532E+005    2.19720E+004   -7.30767E+003   -2.54307E+005   -1.17220E+003   -5.28748E+003    1.14570E+005
            3945    3.22130E+005    6.58096E+004   -2.79877E+005    1.18916E+004   -2.79877E+005    3.45687E+005    6.73920E+004   -3.11735E+005    1.34630E+004   -1.56764E+003   -2.14071E+005   -8.39113E+003   -3.48958E+003    1.35329E+005
            3946    3.23340E+005    9.08423E+004   -2.66212E+005    6.82948E+003   -2.66212E+005    3.57054E+005    5.61799E+004   -2.97259E+005    8.54945E+003   -2.03672E+003   -1.75053E+005   -1.29953E+004   -1.94598E+003    1.55083E+005
            3947    3.23007E+005    1.20458E+005   -2.44504E+005    4.57701E+003   -2.44504E+005    3.64962E+005    3.98230E+004   -2.69914E+005    5.80252E+003    1.15377E+003   -1.26425E+005   -1.51033E+004   -9.74132E+002    1.70054E+005
            3948    3.24315E+005    1.45261E+005   -2.26087E+005    1.48878E+003   -2.26087E+005    3.71348E+005    2.64459E+004   -2.34696E+005    2.33016E+003   -4.52485E+002   -8.12154E+004   -1.72155E+004   -4.36162E+002    1.80310E+005
            3949    3.26321E+005    1.75194E+005   -2.01259E+005    1.02088E+003   -2.01259E+005    3.76453E+005    8.34809E+003   -1.64831E+005    1.26709E+003    1.38286E+003   -2.76942E+004   -1.73851E+004    1.23995E+001    1.86848E+005
            3950    3.24551E+005    1.97521E+005    1.97521E+005   -1.81745E+003   -1.76978E+005    3.74499E+005   -6.24165E+003    1.56226E+005   -2.09373E+003   -1.22287E+003    2.20416E+004   -1.79384E+004    2.81443E+002    1.86015E+005
            3951    3.26616E+005    2.26298E+005    2.26298E+005   -1.78254E+003   -1.47862E+005    3.74161E+005   -2.55512E+004    2.34201E+005   -2.60780E+003    7.01408E+002    7.85601E+004   -1.67898E+004    7.45097E+002    1.82117E+005
            3952    3.21042E+005    2.64298E+004   -3.00364E+005    1.45989E+004   -3.00364E+005    3.26794E+005    8.64451E+004   -3.20551E+005    2.61426E+004   -2.38513E+004   -2.61626E+005    3.01349E+003   -3.36315E+003    1.03413E+005
            3953    3.14848E+005    4.31990E+004   -2.84484E+005    1.57304E+004   -2.84484E+005    3.27683E+005    7.51848E+004   -3.12136E+005    1.58694E+004   -1.39601E+004   -2.27464E+005   -2.05780E+003   -2.13728E+002    1.24197E+005
            3954    3.16965E+005    7.01087E+004   -2.74036E+005    5.92676E+003   -2.74036E+005    3.44145E+005    6.60001E+004   -3.01821E+005    6.63568E+003   -1.03021E+004   -1.94334E+005   -8.57501E+003    8.69682E+002    1.44882E+005
            3955    3.18838E+005    9.81936E+004   -2.57045E+005    4.31133E+003   -2.57045E+005    3.55239E+005    5.15134E+004   -2.85163E+005    5.19512E+003   -6.39520E+003   -1.53340E+005   -1.29515E+004    1.21269E+003    1.60955E+005
            3956    3.23091E+005    1.24274E+005   -2.42190E+005    1.58662E+003   -2.42190E+005    3.66464E+005    3.87766E+004   -2.62426E+005    2.26079E+003   -4.76301E+003   -1.13828E+005   -1.49264E+004    1.10877E+003    1.74170E+005
            3957    3.26032E+005    1.53026E+005   -2.21201E+005    1.44954E+003   -2.21201E+005    3.74227E+005    2.22420E+004   -2.23424E+005    1.91039E+003   -1.31400E+003   -6.73223E+004   -1.68775E+004    6.76101E+002    1.83358E+005
            3958    3.26269E+005    1.75864E+005   -2.00599E+005    1.83909E+002   -2.00599E+005    3.76464E+005    8.18381E+003   -1.58746E+005    3.63962E+002   -1.40657E+003   -2.35088E+004   -1.70454E+004    9.18296E+001    1.87126E+005
            3959    3.28203E+005    2.03546E+005    2.03546E+005    2.82084E+002   -1.75089E+005    3.78634E+005   -9.57970E+003    1.65047E+005    1.70157E+002    2.18086E+003    2.63881E+004   -1.75019E+004   -6.13901E+002    1.88112E+005
            3960    3.24093E+005    2.22379E+005    2.22379E+005   -7.87627E+002   -1.49365E+005    3.71744E+005   -2.40757E+004    2.26009E+005   -1.18704E+003    9.05609E+002    7.25087E+004   -1.63558E+004   -1.09168E+003    1.81612E+005
            3961    3.09582E+005    2.48061E+004   -2.85194E+005    2.39690E+004   -2.85194E+005    3.10000E+005    7.88063E+004   -3.09580E+005    2.40519E+004   -2.81479E+004   -2.32323E+005    1.30044E+003   -2.19991E+003    1.16550E+005
            3962    3.13445E+005    5.23799E+004   -2.77356E+005    1.67549E+004   -2.77356E+005    3.29736E+005    6.94070E+004   -3.08841E+005    1.70625E+004   -2.08341E+004   -2.04449E+005   -3.27778E+003   -8.81041E+002    1.36753E+005
            3963    3.16270E+005    8.14365E+004   -2.64450E+005    9.97688E+003   -2.64450E+005    3.45886E+005    5.76788E+004   -2.97281E+005    1.07360E+004   -1.31151E+004   -1.70657E+005   -8.74504E+003   -3.33025E+002    1.53461E+005
            3964    3.22124E+005    1.06655E+005   -2.53802E+005    5.90311E+003   -2.53802E+005    3.60457E+005    4.70815E+004   -2.83279E+005    6.76280E+003   -1.11758E+004   -1.36831E+005   -1.28609E+004    3.18058E+002    1.68228E+005
            3965    3.26107E+005    1.34583E+005   -2.36585E+005    3.96135E+003   -2.36585E+005    3.71169E+005    3.26802E+004   -2.56475E+005    4.57531E+003   -5.82093E+003   -9.67950E+004   -1.47097E+004    5.09664E+002    1.79226E+005
            3966    3.28970E+005    1.57741E+005   -2.20240E+005    1.44319E+003   -2.20240E+005    3.77981E+005    2.03521E+004   -2.18798E+005    1.84425E+003   -4.49946E+003   -5.84011E+004   -1.64788E+004    4.03129E+002    1.86296E+005
            3967    3.31245E+005    1.83742E+005   -1.98628E+005    7.73612E+002   -1.98628E+005    3.82371E+005    4.70412E+003   -1.39289E+005    8.62931E+002    4.45438E+001   -1.50198E+004   -1.66568E+004    1.81091E+002    1.90307E+005
            3968    3.29198E+005    2.03338E+005    2.03338E+005   -1.45877E+003   -1.76395E+005    3.79734E+005   -8.49484E+003    1.69163E+005   -1.64780E+003    8.37847E+002    2.62945E+004   -1.69718E+004   -1.99465E+002    1.88670E+005
            3969    3.29080E+005    2.26372E+005    2.26372E+005   -2.04836E+003   -1.50824E+005    3.77196E+005   -2.45000E+004    2.33218E+005   -2.53036E+003    5.11957E+003    7.09106E+004   -1.58252E+004   -3.47028E+002    1.84979E+005
            3970    3.06253E+005    3.77611E+004   -2.78134E+005    1.74687E+004   -2.78134E+005    3.15895E+005    7.43013E+004   -3.04735E+005    1.74724E+004   -3.36357E+004   -2.06741E+005   -1.29813E+002   -3.55268E+002    1.32119E+005
            3971    3.11249E+005    6.46480E+004   -2.69687E+005    1.16780E+004   -2.69687E+005    3.34335E+005    6.44536E+004   -3.00856E+005    1.18315E+004   -2.43842E+004   -1.80808E+005   -4.42359E+003    1.17657E+003    1.47612E+005
            3972    3.18969E+005    9.01911E+004   -2.62558E+005    5.56365E+003   -2.62558E+005    3.52749E+005    5.56011E+004   -2.92067E+005    5.95034E+003   -1.90022E+004   -1.53751E+005   -9.13070E+003    1.55844E+003    1.62626E+005
            3973    3.25338E+005    1.16697E+005   -2.50003E+005    4.00654E+003   -2.50003E+005    3.66700E+005    4.31001E+004   -2.76005E+005    4.48568E+003   -1.34953E+004   -1.20291E+005   -1.29654E+004    1.61910E+003    1.74817E+005
            3974    3.30717E+005    1.40589E+005   -2.36876E+005    1.99191E+003   -2.36876E+005    3.77465E+005    3.14317E+004   -2.51702E+005    2.36752E+003   -1.00368E+004   -8.66260E+004   -1.48189E+004    1.30878E+003    1.84155E+005
            3975    3.34840E+005    1.66440E+005   -2.18880E+005    1.42698E+003   -2.18880E+005    3.85320E+005    1.70042E+004   -2.09649E+005    1.65360E+003   -4.55808E+003   -4.81082E+004   -1.63167E+004    8.06084E+002    1.90711E+005
            3976    3.35225E+005    1.87321E+005   -1.99697E+005    1.67204E+001   -1.99697E+005    3.87018E+005    4.11979E+003   -1.27871E+005    8.25633E+001   -1.69276E+003   -1.07492E+004   -1.65418E+004    7.85632E+001    1.92746E+005
            3977    3.35636E+005    2.10461E+005    2.10461E+005   -4.40130E+002   -1.76577E+005    3.87039E+005   -1.11479E+004    1.80219E+005   -5.39448E+002    4.18462E+003    2.97986E+004   -1.66148E+004   -7.33412E+002    1.92373E+005
            3978    3.30614E+005    2.26675E+005    2.26675E+005   -1.88224E+003   -1.52418E+005    3.79094E+005   -2.41248E+004    2.32418E+005   -2.15202E+003    6.36636E+003    6.81600E+004   -1.55012E+004   -1.32139E+003    1.86335E+005
            3979    3.08141E+005    5.50634E+004   -2.70927E+005    1.55528E+004   -2.70927E+005    3.25990E+005    6.67703E+004   -3.02363E+005    1.56020E+004   -3.27729E+004   -1.83140E+005   -1.55099E+003   -1.69892E+002    1.44590E+005
            3980    3.16292E+005    7.70768E+004   -2.67435E+005    9.81654E+003   -2.67435E+005    3.44512E+005    6.01806E+004   -2.99560E+005    1.01327E+004   -2.74118E+004   -1.63263E+005   -5.52963E+003   -3.25779E+002    1.58096E+005
            3981    3.23785E+005    1.01987E+005   -2.59169E+005    5.14169E+003   -2.59169E+005    3.61156E+005    5.06799E+004   -2.88395E+005    5.74417E+003   -2.07293E+004   -1.37055E+005   -9.79989E+003   -4.90809E+002    1.70524E+005
            3982    3.31563E+005    1.24976E+005   -2.50569E+005    1.69135E+003   -2.50569E+005    3.75545E+005    4.13004E+004   -2.72323E+005    2.38796E+003   -1.71881E+004   -1.09101E+005   -1.34838E+004   -2.71798E+002    1.81437E+005
            3983    3.37663E+005    1.50086E+005   -2.36499E+005    7.24845E+002   -2.36499E+005    3.86585E+005    2.85627E+004   -2.44896E+005    1.29890E+003   -1.14348E+004   -7.55522E+004   -1.56744E+004   -2.40034E+002    1.89903E+005
            3984    3.41680E+005    1.72339E+005   -2.21200E+005   -1.24857E+002   -2.21200E+005    3.93539E+005    1.63288E+004   -2.03725E+005    2.12615E+002   -7.27098E+003   -4.19279E+004   -1.70757E+004   -8.60869E+001    1.95239E+005
            3985    3.44018E+005    1.95794E+005   -2.01428E+005    2.04676E+002   -2.01428E+005    3.97223E+005    1.80987E+003   -1.02369E+005    2.38577E+002   -3.18226E+002   -5.34996E+003   -1.74243E+004    5.21791E+001    1.97829E+005
            3986    3.41517E+005    2.14028E+005    2.14028E+005   -2.43009E+002   -1.79813E+005    3.93841E+005   -1.13240E+004    1.82216E+005   -5.05079E+002    4.30725E+003    3.01698E+004   -1.72673E+004    1.38334E+002    1.95723E+005
            3987    3.38777E+005    2.33035E+005    2.33035E+005   -2.42077E+002   -1.55552E+005    3.88587E+005   -2.57472E+004    2.36247E+005   -7.68666E+002    1.11000E+004    6.69101E+004   -1.60790E+004    2.53021E+002    1.91551E+005
            3988    3.10171E+005    6.57557E+004   -2.67822E+005    1.18865E+004   -2.67822E+005    3.33578E+005    6.33932E+004   -2.99374E+005    1.18707E+004   -3.35496E+004   -1.68501E+005   -2.42467E+003    2.00086E+003    1.52504E+005
            3989    3.18232E+005    8.65536E+004   -2.63814E+005    7.30483E+003   -2.63814E+005    3.50368E+005    5.66518E+004   -2.94779E+005    7.29303E+003   -2.85359E+004   -1.48713E+005   -5.45932E+003    2.89845E+003    1.64444E+005
            3990    3.26330E+005    1.07551E+005   -2.58434E+005    2.22567E+003   -2.58434E+005    3.65985E+005    4.95523E+004   -2.84133E+005    2.31546E+003   -2.52811E+004   -1.25691E+005   -9.39635E+003    2.73980E+003    1.75679E+005
            3991    3.37306E+005    1.32836E+005   -2.50748E+005   -4.47958E+002   -2.50748E+005    3.83584E+005    3.94531E+004   -2.67629E+005   -2.73431E+002   -2.13444E+004   -9.67414E+004   -1.33600E+004    2.29718E+003    1.87534E+005
            3992    3.47900E+005    1.57842E+005   -2.41225E+005   -1.77309E+003   -2.41225E+005    3.99067E+005    2.83853E+004   -2.42384E+005   -1.57668E+003   -1.58833E+004   -6.76959E+004   -1.63529E+004    1.58411E+003    1.97141E+005
            3993    3.54086E+005    1.82716E+005   -2.25476E+005   -1.09246E+003   -2.25476E+005    4.08192E+005    1.46174E+004   -1.96586E+005   -9.58689E+002   -7.47370E+003   -3.54198E+004   -1.82460E+004    8.05463E+002    2.02789E+005
            3994    3.54824E+005    2.03126E+005   -2.06586E+005   -1.40017E+002   -2.06586E+005    4.09712E+005    1.19984E+003   -8.43634E+004   -1.18453E+002   -8.44918E+002   -2.63616E+003   -1.88594E+004   -1.22071E+000    2.03984E+005
            3995    3.54272E+005    2.23505E+005    2.23505E+005    1.28773E+003   -1.85049E+005    4.08553E+005   -1.32479E+004    1.88819E+005    1.18352E+003    7.30616E+003    3.12539E+004   -1.83133E+004   -7.76214E+002    2.03095E+005
            3996    3.47579E+005    2.37944E+005    2.37944E+005    1.46890E+003   -1.61133E+005    3.99077E+005   -2.60933E+004    2.36246E+005    1.27580E+003    1.38167E+004    6.31873E+004   -1.65107E+004   -1.45540E+003    1.97293E+005
            3997    3.62596E+005    2.51194E+005    2.51194E+005    5.05741E+003   -1.65198E+005    4.16391E+005   -3.03511E+004    2.45223E+005    4.96776E+003    2.15035E+004    6.45821E+004   -1.76756E+004   -2.04828E+003    2.06304E+005
            3998    3.70986E+005    2.36017E+005    2.36017E+005    3.41532E+003   -1.91817E+005    4.27834E+005   -1.58718E+004    1.97371E+005    3.37652E+003    1.11017E+004    3.31373E+004   -2.02762E+004   -1.21582E+003    2.12664E+005
            3999    3.74410E+005    2.16032E+005   -2.16298E+005    7.90581E+001   -2.16298E+005    4.32331E+005    6.22968E+001   -4.46758E+004    7.22150E+001   -1.75302E+002   -8.38030E+001   -2.11785E+004    4.27720E+001    2.15125E+005
            4000    3.71122E+005    1.90632E+005   -2.37297E+005   -3.59709E+003   -2.37297E+005    4.27929E+005    1.67542E+004   -2.01028E+005   -3.54651E+003   -1.24149E+004   -3.43014E+004   -2.02479E+004    1.19870E+003    2.12717E+005
            4001    3.62024E+005    1.64493E+005   -2.51173E+005   -4.90553E+003   -2.51173E+005    4.15666E+005    3.05284E+004   -2.45987E+005   -4.83330E+003   -2.17331E+004   -6.50187E+004   -1.76807E+004    2.18099E+003    2.05927E+005
            4002    3.47587E+005    1.35615E+005   -2.60139E+005   -4.37517E+003   -2.60139E+005    3.95754E+005    4.29662E+004   -2.72367E+005   -4.26903E+003   -3.07298E+004   -9.38998E+004   -1.39576E+004    2.54382E+003    1.94808E+005
            4003    3.27672E+005    1.05853E+005   -2.61823E+005   -6.58926E+002   -2.61823E+005    3.67676E+005    5.22098E+004   -2.84625E+005   -5.57936E+002   -3.69590E+004   -1.19113E+005   -9.69621E+003    2.46752E+003    1.78889E+005
            4004    3.11212E+005    8.14051E+004   -2.60951E+005    4.81876E+003   -2.60951E+005    3.42356E+005    5.82422E+004   -2.88846E+005    4.89405E+003   -3.44781E+004   -1.45143E+005   -5.99892E+003    2.07966E+003    1.61842E+005
            4005    3.11386E+005    7.18368E+004   -2.65325E+005    1.14352E+004   -2.65325E+005    3.37161E+005    6.06842E+004   -2.97774E+005    1.14699E+004   -2.93406E+004   -1.64182E+005   -2.86903E+003    1.02633E+003    1.54470E+005
            4006    3.83559E+005    6.38543E+004   -3.50410E+005   -7.60774E+003   -3.50410E+005    4.14264E+005    9.80545E+004   -3.68132E+005    6.20260E+004   -1.52468E+004   -3.40943E+005    1.04675E+004   -1.97957E+004    5.29055E+004
            4007    3.58363E+005    5.27509E+004   -3.32766E+005   -9.79112E+003   -3.32766E+005    3.85517E+005    9.66021E+004   -3.45763E+005    5.14789E+004   -2.36003E+004   -3.17685E+005    9.71450E+003   -1.18829E+004    6.71187E+004
            4008    3.32394E+005    4.37805E+004   -3.11157E+005   -7.19442E+003   -3.11157E+005    3.54937E+005    9.15235E+004   -3.23425E+005    4.27360E+004   -2.96757E+004   -2.87631E+005    8.57705E+003   -6.23151E+003    8.10050E+004
            4009    3.14451E+005    3.52900E+004   -2.95476E+005   -3.82337E+002   -2.95476E+005    3.30766E+005    8.68561E+004   -3.09850E+005    3.43991E+004   -3.79410E+004   -2.57026E+005    6.88998E+003   -3.16889E+003    9.93759E+004
            4010    3.03205E+005    2.81152E+004   -2.81206E+005    1.54874E+004   -2.81206E+005    3.09321E+005    7.92012E+004   -3.02612E+005    2.68918E+004   -4.01060E+004   -2.24390E+005    4.68758E+003   -1.20351E+003    1.17000E+005
            4011    3.04232E+005    3.73799E+004   -2.74838E+005    2.07240E+004   -2.74838E+005    3.12217E+005    7.22446E+004   -3.03203E+005    2.09272E+004   -4.00033E+004   -1.97658E+005    2.21262E+003   -1.38550E+002    1.34621E+005
            4012    3.08154E+005    5.65717E+004   -2.69936E+005    1.58073E+004   -2.69936E+005    3.26507E+005    6.58522E+004   -3.01998E+005    1.58086E+004   -3.45208E+004   -1.78844E+005   -9.94861E+001    8.69800E+002    1.46436E+005
            4013    3.68894E+005    3.50552E+005    3.50552E+005   -1.60979E+004   -2.05453E+004    3.71097E+005   -1.04636E+005    3.68834E+005   -1.69023E+004    6.17975E+002    3.30193E+005    4.54101E+003    1.05947E+004    8.36321E+004
            4014    3.52126E+005    3.26095E+005    3.26095E+005    4.22439E+003   -4.99974E+004    3.76092E+005   -9.34406E+004    3.42545E+005    1.73727E+003   -5.00950E+003    2.83594E+005   -1.13652E+004    1.98621E+003    1.18607E+005
            4015    3.51623E+005    3.06688E+005    3.06688E+005    3.66674E+003   -7.88564E+004    3.85545E+005   -7.71662E+004    3.28758E+005    1.39020E+003    1.38389E+003    2.28725E+005   -1.56776E+004   -2.12470E+001    1.54076E+005
            4016    3.44073E+005    2.71320E+005    2.71320E+005    3.77959E+003   -1.16818E+005    3.88138E+005   -5.27606E+004    2.90470E+005    2.61900E+003   -4.22320E+003    1.59886E+005   -1.66179E+004   -1.06282E+003    1.74832E+005
            4017    3.92794E+005    3.60215E+005    3.60215E+005   -2.71396E+004   -3.78003E+004    3.98016E+005   -9.84252E+004    3.92468E+005   -3.56088E+004   -1.46610E+004    3.45545E+005    7.11928E+003    2.13469E+004    7.07931E+004
            4018    3.74981E+005    3.44865E+005    3.44865E+005   -5.52175E+003   -5.06298E+004    3.95495E+005   -9.62379E+004    3.68803E+005   -9.62666E+003   -8.37007E+003    3.06710E+005   -1.04820E+004    1.01984E+004    1.15897E+005
            4019    3.61359E+005    3.11328E+005    3.11328E+005   -6.97001E+003   -8.14770E+004    3.92805E+005   -7.42935E+004    3.43433E+005   -1.08889E+004   -9.45864E+003    2.43228E+005   -1.54646E+004    6.19220E+003    1.47799E+005
            4020    3.58965E+005    2.86395E+005    2.86395E+005   -2.12273E+003   -1.15593E+005    4.01988E+005   -5.62265E+004    3.14651E+005   -4.25812E+003   -5.45875E+003    1.78396E+005   -1.60663E+004    3.85336E+003    1.77439E+005
            4021    4.09954E+005    3.82134E+005    3.82134E+005   -1.96343E+004   -3.55424E+004    4.17676E+005   -1.08986E+005    4.09258E+005   -3.07093E+004   -1.02191E+004    3.67886E+005    1.10266E+004    2.74552E+004    6.90543E+004
            4022    3.76799E+005    3.51506E+005    3.51506E+005    3.83531E+003   -4.88725E+004    4.00378E+005   -1.02156E+005    3.68368E+005    1.75446E+003   -1.60893E+004    3.20803E+005   -8.12269E+003    1.02735E+004    1.05924E+005
            4023    3.73159E+005    3.33676E+005    3.33676E+005    5.94521E+003   -7.24544E+004    4.06130E+005   -8.90554E+004    3.53910E+005    2.83724E+003   -4.22049E+003    2.68550E+005   -1.47824E+004    4.44528E+003    1.48329E+005
            4024    3.57573E+005    2.90962E+005    2.90962E+005    5.48253E+003   -1.10109E+005    4.01070E+005   -6.21118E+004    3.11174E+005    3.99117E+003   -9.25120E+003    1.91595E+005   -1.50391E+004    1.23718E+003    1.72550E+005
            4025    4.44504E+005    3.88517E+005    3.88517E+005   -3.15875E+004   -7.69141E+004    4.65431E+005   -9.33384E+004    4.39260E+005   -6.94984E+004   -2.47635E+004    3.74277E+005    1.68330E+004    4.70315E+004    6.05872E+004
            4026    4.06103E+005    3.70645E+005    3.70645E+005   -2.05365E+004   -4.88928E+004    4.19538E+005   -1.00405E+005    4.03866E+005   -2.20663E+004   -1.67547E+004    3.40036E+005   -1.85642E+003    2.76136E+004    1.05512E+005
            4027    3.77442E+005    3.30046E+005    3.30046E+005   -1.30312E+004   -7.42714E+004    4.04318E+005   -8.09145E+004    3.66014E+005   -1.74332E+004   -1.40139E+004    2.74191E+005   -1.08095E+004    1.73718E+004    1.38019E+005
            4028    3.71383E+005    3.06462E+005    3.06462E+005   -4.69363E+003   -1.04677E+005    4.11140E+005   -6.56971E+004    3.39065E+005   -7.05710E+003   -9.63301E+003    2.13781E+005   -1.13756E+004    1.13271E+004    1.71082E+005
            4029    4.71282E+005    4.22942E+005    4.22942E+005   -1.38077E+004   -7.65811E+004    4.99523E+005   -1.10851E+005    4.61736E+005   -6.60511E+004   -4.95095E+003    4.03555E+005    2.46117E+004    5.40650E+004    7.29163E+004
            4030    3.94857E+005    3.67108E+005    3.67108E+005   -1.56441E+004   -3.88313E+004    4.05940E+005   -1.04211E+005    3.93321E+005   -1.32945E+004   -1.57485E+004    3.41676E+005    8.14168E+003    2.90459E+004    9.36324E+004
            4031    3.84024E+005    3.53263E+005    3.53263E+005   -1.15077E+003   -5.47418E+004    4.08004E+005   -9.91234E+004    3.75473E+005   -2.74056E+003   -3.51419E+003    3.03625E+005   -5.19903E+003    1.55000E+004    1.32382E+005
            4032    3.64460E+005    3.10883E+005    3.10883E+005    6.41622E+002   -9.04975E+004    4.01380E+005   -7.36757E+004    3.37362E+005   -2.43005E+002   -1.01015E+004    2.31372E+005   -6.06345E+003    8.82943E+003    1.59647E+005
            4033    5.27453E+005    4.15367E+005    4.15367E+005   -2.03424E+004   -1.71031E+005    5.86398E+005   -7.46647E+004    4.75285E+005   -1.52904E+005   -7.95997E+003    3.84858E+005    3.49925E+004    9.07307E+004    7.65622E+004
            4034    4.39504E+005    3.80107E+005    3.80107E+005   -2.67807E+004   -8.60065E+004    4.66114E+005   -8.91067E+004    4.30389E+005   -7.19663E+004   -1.05303E+004    3.49817E+005    2.70906E+004    6.85591E+004    8.38619E+004
            4035    3.89647E+005    3.41089E+005    3.41089E+005   -4.39776E+004   -5.29824E+004    3.94071E+005   -8.13762E+004    3.89412E+005   -3.94536E+004   -1.57709E+004    2.99353E+005    1.13392E+004    4.68206E+004    1.11856E+005
            4036    3.67682E+005    3.17837E+005    3.17837E+005   -1.90841E+004   -7.43493E+004    3.92186E+005   -7.48011E+004    3.58158E+005   -1.66791E+004   -8.02209E+003    2.49105E+005    7.78511E+003    3.12982E+004    1.45664E+005
            4037    5.34092E+005    4.58269E+005    4.58269E+005    2.99670E+004   -1.40164E+005    5.98433E+005   -1.16024E+005    4.67023E+005   -1.30321E+005    4.46114E+004    4.33782E+005    3.46743E+004    5.81065E+004    8.44304E+004
            4038    5.03107E+005    4.14451E+005    4.14451E+005   -1.56057E+004   -1.38816E+005    5.53267E+005   -8.66763E+004    4.67319E+005   -1.21819E+005   -4.44348E+003    3.86291E+005    4.14054E+004    7.04461E+004    8.32124E+004
            4039    4.56399E+005    3.90483E+005    3.90483E+005   -2.27933E+004   -9.93545E+004    4.89838E+005   -8.94451E+004    4.41603E+005   -8.51701E+004    5.86693E+003    3.47638E+005    3.58137E+004    6.31634E+004    1.09960E+005
            4040    4.04401E+005    3.41041E+005    3.41041E+005   -4.56820E+004   -7.89794E+004    4.20020E+005   -7.21265E+004    4.01300E+005   -6.54558E+004    1.27314E+003    2.80562E+005    3.29437E+004    5.35169E+004    1.29872E+005
            4041    5.11224E+005    4.23858E+005    4.23858E+005    2.10086E+004   -1.51243E+005    5.75101E+005   -9.78748E+004    4.38419E+005   -1.42098E+005    6.40458E+004    3.71677E+005    4.37589E+004    3.70287E+004    1.30312E+005
            4042    5.70743E+005    4.54242E+005    4.54242E+005    1.83863E+004   -1.91786E+005    6.46028E+005   -9.36139E+004    4.71059E+005   -1.83659E+005    4.86459E+004    4.15855E+005    3.87241E+004    5.07881E+004    1.14597E+005
            4043    6.25596E+005    4.86728E+005    4.86728E+005    1.40316E+004   -2.22684E+005    7.09412E+005   -9.26918E+004    5.09117E+005   -2.14051E+005    4.25851E+004    4.49541E+005    3.57342E+004    6.41863E+004    1.14404E+005
            4044    6.60117E+005    4.83195E+005    4.83195E+005   -2.25751E+004   -2.63554E+005    7.46749E+005   -6.56887E+004    5.47140E+005   -2.51254E+005   -6.89328E+003    4.55214E+005    2.97883E+004    8.82878E+004    8.85662E+004
            4045    4.05256E+005    3.73604E+005    3.73604E+005    8.85272E+003   -6.26415E+004    4.36246E+005   -1.06605E+005    3.90688E+005   -5.99477E+004    1.35445E+004    3.66218E+005    1.21084E+004    2.48278E+004    4.56241E+004
            4046    4.32355E+005    3.93149E+005    3.93149E+005    1.36607E+004   -7.75270E+004    4.70676E+005   -1.09761E+005    4.09873E+005   -7.36314E+004    1.67146E+004    3.86199E+005    1.32853E+004    3.55768E+004    3.89088E+004
            4047    4.66160E+005    4.06076E+005    4.06076E+005    2.51300E+003   -1.04182E+005    5.10258E+005   -1.01469E+005    4.37403E+005   -9.86645E+004    3.50186E+003    3.99570E+005    1.38233E+004    4.67354E+004    2.83226E+004
            4048    5.05786E+005    4.35244E+005    4.35244E+005    8.34465E+003   -1.23368E+005    5.58613E+005   -1.06740E+005    4.64794E+005   -1.17127E+005    1.12354E+004    4.26112E+005    1.33668E+004    5.52108E+004    3.77918E+004
            4049    5.43370E+005    4.47365E+005    4.47365E+005    4.30064E+003   -1.58903E+005    6.06268E+005   -9.75874E+004    4.83436E+005   -1.51018E+005    7.23132E+003    4.36549E+005    1.31205E+004    6.63702E+004    3.75259E+004
            4050    6.08333E+005    5.12828E+005    5.12828E+005    2.87431E+004   -1.70027E+005    6.82855E+005   -1.23848E+005    5.27483E+005   -1.63611E+005    3.89396E+004    4.96215E+005    1.05079E+004    6.50228E+004    6.90538E+004
            4051    6.14203E+005    4.93961E+005    4.93961E+005    4.25436E+004   -2.05469E+005    6.99430E+005   -1.10345E+005    4.80434E+005   -1.96539E+005    5.82199E+004    4.69355E+005    1.38662E+004    7.72802E+004    8.18067E+004
            4052    4.19520E+005    3.50870E+005    3.50870E+005   -6.87619E+001   -1.13784E+005    4.64655E+005   -7.90057E+004    3.82474E+005   -9.90975E+004    5.46246E+004    2.81490E+005    4.80993E+004    2.31834E+004    1.38409E+005
            4053    3.34728E+005    2.67725E+005    2.67725E+005   -2.30085E+004   -9.82052E+004    3.65930E+005   -4.88370E+004    3.14871E+005   -4.96041E+004    3.42486E+004    1.61867E+005    5.21290E+004    1.10047E+004    1.52215E+005
            4054    2.85561E+005    1.63981E+005   -1.65755E+005   -1.49359E+003   -1.65755E+005    3.29736E+005    1.08921E+003    5.29417E+004   -1.40929E+003    3.65456E+002   -2.22380E+003    5.35714E+004   -2.76465E+000    1.55917E+005
            4055    3.29551E+005    9.85125E+004   -2.62326E+005    2.27376E+004   -2.62326E+005    3.60839E+005    4.70253E+004   -3.09025E+005    4.90353E+004   -3.33005E+004   -1.56811E+005    5.21769E+004   -1.04647E+004    1.50449E+005
            4056    4.28016E+005    1.13405E+005   -3.60819E+005   -3.16083E+003   -3.60819E+005    4.74224E+005    8.35248E+004   -3.89836E+005    9.83545E+004   -5.65142E+004   -2.92415E+005    4.88022E+004   -2.26944E+004    1.39451E+005
            4057    5.11028E+005    1.55903E+005   -4.20566E+005   -2.31864E+004   -4.20566E+005    5.76469E+005    9.59498E+004   -4.31441E+005    1.46909E+005   -6.18594E+004   -3.72899E+005    4.36270E+004   -3.56723E+004    1.24307E+005
            4058    5.84459E+005    1.94076E+005   -4.68438E+005   -2.58330E+004   -4.68438E+005    6.62515E+005    1.00065E+005   -4.77078E+005    1.86012E+005   -5.68127E+004   -4.29394E+005    3.97362E+004   -5.02639E+004    1.16938E+005
            4059    6.27753E+005    2.28677E+005   -4.84896E+005   -1.77253E+004   -4.84896E+005    7.13572E+005    9.13148E+004   -5.00158E+005    2.19916E+005   -3.98465E+004   -4.54014E+005    3.31228E+004   -6.73548E+004    1.00956E+005
            4060    6.21761E+005    2.03263E+005   -5.03955E+005   -4.32574E+004   -5.03955E+005    7.07218E+005    1.14650E+005   -4.92260E+005    1.97741E+005   -6.17563E+004   -4.79934E+005    9.96096E+003   -6.13456E+004    8.99475E+004
            4061    3.62535E+005    2.99159E+005    2.99159E+005   -4.44092E+004   -7.97546E+004    3.78913E+005   -5.83316E+004    3.58628E+005   -3.91156E+004    6.65967E+003    2.07451E+005    2.95097E+004    3.87848E+004    1.55674E+005
            4062    3.42746E+005    2.71651E+005    2.71651E+005   -7.44069E+003   -1.10908E+005    3.82560E+005   -5.11007E+004    3.04519E+005   -6.99712E+003   -6.54944E+003    1.66849E+005    2.14284E+003    1.89972E+004    1.69542E+005
            4063    3.61894E+005    2.82574E+005    2.82574E+005    2.87020E+003   -1.26148E+005    4.08722E+005   -5.30989E+004    3.03266E+005    1.98103E+003   -2.74857E+003    1.60064E+005   -9.84843E+003    4.54396E+003    1.86953E+005
            4064    3.55766E+005    2.61589E+005    2.61589E+005   -3.77037E+003   -1.42674E+005    4.04263E+005   -3.83813E+004    2.84374E+005   -5.62272E+003   -8.13622E+003    1.28903E+005   -1.46379E+004    7.06765E+003    1.89152E+005
            4065    3.59411E+005    2.64149E+005    2.64149E+005    5.00794E+003   -1.46155E+005    4.10303E+005   -4.10006E+004    2.72760E+005    4.05202E+003   -1.75671E+003    1.20707E+005   -1.78338E+004    3.52444E+001    1.94853E+005
            4066    3.49311E+005    2.46561E+005    2.46561E+005   -3.27268E+003   -1.52592E+005    3.99153E+005   -3.02323E+004    2.61535E+005   -4.68048E+003   -5.24724E+003    1.00625E+005   -1.83718E+004    2.38609E+003    1.91346E+005
            4067    3.48412E+005    2.47390E+005    2.47390E+005    3.40528E+003   -1.51630E+005    3.99020E+005   -3.30549E+004    2.51165E+005    2.74856E+003    1.02550E+003    9.53907E+004   -1.85795E+004   -1.00117E+003    1.92879E+005
            4068    3.19505E+005    2.32269E+005    2.32269E+005   -2.50776E+004   -1.25344E+005    3.57613E+005   -2.72823E+004    2.80691E+005   -2.17420E+004    1.90162E+003    1.01687E+005    2.94143E+004    2.06238E+004    1.68658E+005
            4069    3.37009E+005    2.34232E+005    2.34232E+005   -1.15074E+003   -1.51827E+005    3.86059E+005   -2.70849E+004    2.41741E+005   -8.96992E+002   -9.91523E+002    8.31431E+004    3.00793E+003    8.61913E+003    1.88197E+005
            4070    3.49615E+005    2.31367E+005    2.31367E+005    2.42223E+002   -1.70842E+005    4.02209E+005   -2.02556E+004    2.21721E+005    2.97544E+001   -3.13395E+003    6.38711E+004   -8.05615E+003    1.33487E+003    1.98110E+005
            4071    3.56767E+005    2.30477E+005    2.30477E+005   -6.15237E+002   -1.80416E+005    4.10893E+005   -1.64817E+004    2.13451E+005   -1.21499E+003   -1.78599E+003    5.24460E+004   -1.31906E+004    2.90495E+003    2.03162E+005
            4072    3.51512E+005    2.19619E+005    2.19619E+005    1.37445E+003   -1.85877E+005    4.05496E+005   -1.17057E+004    1.78939E+005    1.25162E+003   -2.51615E+003    3.63815E+004   -1.63065E+004   -6.58599E+002    2.01147E+005
            4073    3.51693E+005    2.19111E+005    2.19111E+005   -5.62956E+002   -1.86522E+005    4.05633E+005   -1.06754E+004    1.84064E+005   -9.91932E+002   -1.78341E+002    3.31964E+004   -1.73164E+004    1.04175E+003    2.01365E+005
            4074    3.43374E+005    2.09444E+005    2.09444E+005    9.10324E+002   -1.86870E+005    3.96313E+005   -7.82804E+003    1.54192E+005    8.54455E+002   -1.39289E+003    2.40226E+004   -1.77869E+004   -7.33784E+002    1.96944E+005
            4075    3.08388E+005    1.75612E+005   -1.80442E+005    2.29839E+003   -1.80442E+005    3.56054E+005    8.43854E+002   -1.10367E+005    2.21585E+003    4.06002E+002   -5.15342E+003    2.82212E+004   -8.55296E+002    1.75753E+005
            4076    3.30656E+005    1.80016E+005   -2.01596E+005   -1.58817E+002   -2.01596E+005    3.81611E+005    7.24620E+003   -1.51571E+005   -1.81800E+002   -3.67165E+002   -2.11896E+004    1.41882E+003   -1.62216E+003    1.90510E+005
            4077    3.51821E+005    1.92146E+005   -2.13885E+005    6.15705E+002   -2.13885E+005    4.06031E+005    7.04125E+003   -1.62093E+005    7.98926E+002    2.38831E+003   -2.43110E+004   -9.39737E+003   -1.39681E+003    2.02348E+005
            4078    3.53025E+005    1.85196E+005   -2.21968E+005   -1.36513E+003   -2.21968E+005    4.07164E+005    1.27125E+004   -1.85121E+005   -1.03085E+003    9.41112E+002   -3.80476E+004   -1.47600E+004   -9.53974E+002    2.02092E+005
            4079    3.55395E+005    1.88312E+005   -2.21601E+005    2.30744E+002   -2.21601E+005    4.09912E+005    1.10194E+004   -1.85423E+005    6.47276E+002    3.33264E+003   -3.70382E+004   -1.77853E+004   -7.54674E+002    2.03164E+005
            4080    3.48554E+005    1.79815E+005   -2.22013E+005   -1.33997E+003   -2.22013E+005    4.01828E+005    1.45128E+004   -1.92836E+005   -9.11540E+002    9.34794E+002   -4.35618E+004   -1.85409E+004   -3.33478E+002    1.98794E+005
            4081    3.46518E+005    1.82260E+005   -2.17331E+005    3.54004E+002   -2.17331E+005    3.99591E+005    1.15725E+004   -1.85870E+005    7.20170E+002    2.36269E+003   -3.78002E+004   -1.87486E+004   -1.28621E+002    1.97881E+005
            4082    3.26786E+005    1.14658E+005   -2.47276E+005    2.61146E+004   -2.47276E+005    3.61933E+005    3.55012E+004   -2.97955E+005    2.29923E+004   -3.84583E+003   -1.25650E+005    3.03409E+004   -2.24704E+004    1.67020E+005
            4083    3.36380E+005    1.37102E+005   -2.45206E+005    5.37986E+003   -2.45206E+005    3.82307E+005    3.42413E+004   -2.68398E+005    4.89714E+003    3.57197E+003   -1.11193E+005    4.03641E+003   -1.22898E+004    1.81956E+005
            4084    3.54278E+005    1.42595E+005   -2.60828E+005   -3.79012E+002   -2.60828E+005    4.03424E+005    3.95373E+004   -2.77227E+005    1.51980E+002    3.55233E+003   -1.22316E+005   -7.31784E+003   -4.73362E+003    1.91362E+005
            4085    3.57557E+005    1.51289E+005   -2.56706E+005    2.08155E+003   -2.56706E+005    4.07995E+005    3.44453E+004   -2.73045E+005    3.27689E+003    7.36080E+003   -1.13974E+005   -1.28295E+004   -5.38444E+003    1.94099E+005
            4086    3.55805E+005    1.46371E+005   -2.59737E+005   -2.79007E+003   -2.59737E+005    4.06108E+005    3.87186E+004   -2.70725E+005   -1.79581E+003    4.48037E+003   -1.18840E+005   -1.60587E+004   -1.26468E+003    1.92653E+005
            4087    3.51578E+005    1.50322E+005   -2.51187E+005    1.52584E+003   -2.51187E+005    4.01509E+005    3.31130E+004   -2.65457E+005    2.70987E+003    5.76900E+003   -1.07818E+005   -1.70603E+004   -1.86843E+003    1.91624E+005
            4088    3.44925E+005    1.45309E+005   -2.48814E+005   -2.02443E+003   -2.48814E+005    3.94124E+005    3.51765E+004   -2.58417E+005   -1.19264E+003    1.41542E+003   -1.05752E+005   -1.74721E+004    2.64524E+002    1.88719E+005
            4089    3.66610E+005    7.40353E+004   -3.03154E+005    5.18699E+004   -3.03154E+005    3.77189E+005    5.90830E+004   -3.65097E+005    4.83520E+004   -5.92813E+003   -2.19673E+005    3.09987E+004   -4.17098E+004    1.48398E+005
            4090    3.52063E+005    9.28014E+004   -2.92958E+005    1.10086E+004   -2.92958E+005    3.85759E+005    6.30493E+004   -3.29653E+005    9.85181E+003    4.59386E+003   -2.03594E+005    4.78433E+003   -2.40115E+004    1.60920E+005
            4091    3.62309E+005    1.06070E+005   -2.97534E+005   -3.60664E+002   -2.97534E+005    4.03604E+005    6.39417E+004   -3.24240E+005    8.11864E+002    6.85677E+003   -1.99494E+005   -8.22644E+003   -8.33536E+003    1.72710E+005
            4092    3.65503E+005    1.12166E+005   -2.95721E+005    2.10129E+003   -2.95721E+005    4.07887E+005    6.04849E+004   -3.24959E+005    4.68252E+003    8.89825E+003   -1.95035E+005   -1.37045E+004   -9.63042E+003    1.75122E+005
            4093    3.60217E+005    1.14959E+005   -2.89759E+005   -4.28197E+003   -2.89759E+005    4.04718E+005    5.96941E+004   -3.10925E+005   -2.36520E+003    7.75472E+003   -1.84472E+005   -1.70274E+004   -1.97167E+003    1.76792E+005
            4094    3.55749E+005    1.14816E+005   -2.83916E+005    9.89113E+002   -2.83916E+005    3.98731E+005    5.60371E+004   -3.10631E+005    3.42145E+003    6.07779E+003   -1.77611E+005   -1.76646E+004   -3.45224E+003    1.75428E+005
            4095    3.45874E+005    1.16231E+005   -2.73407E+005   -2.65713E+003   -2.73407E+005    3.89638E+005    5.32780E+004   -2.94337E+005   -1.17179E+003    2.94271E+003   -1.61605E+005   -1.77699E+004    5.11123E+002    1.75371E+005
            4096    4.23125E+005    8.74422E+004   -3.59797E+005    3.41693E+004   -3.59797E+005    4.47239E+005    7.93951E+004   -4.15480E+005    7.32982E+004   -7.91038E+003   -3.03573E+005    3.63423E+004   -5.61187E+004    1.25967E+005
            4097    3.72550E+005    6.38259E+004   -3.23445E+005    3.23908E+004   -3.23445E+005    3.87271E+005    7.57428E+004   -3.69548E+005    2.80381E+004    1.03884E+004   -2.65655E+005    1.21511E+004   -3.88052E+004    1.32224E+005
            4098    3.76275E+005    7.04406E+004   -3.34990E+005    3.01248E+003   -3.34990E+005    4.05431E+005    8.71790E+004   -3.62307E+005    3.67103E+003    7.72893E+003   -2.72937E+005   -3.13542E+003   -1.42709E+004    1.45249E+005
            4099    3.74398E+005    8.49104E+004   -3.21353E+005    9.78803E+003   -3.21353E+005    4.06263E+005    7.55515E+004   -3.56846E+005    1.24034E+004    1.45868E+004   -2.53645E+005   -9.05245E+003   -1.54296E+004    1.50385E+005
            4100    3.68064E+005    8.18645E+004   -3.21859E+005   -4.99129E+003   -3.21859E+005    4.03724E+005    8.16620E+004   -3.43853E+005   -2.74846E+003    9.38891E+003   -2.51626E+005   -1.32587E+004   -4.20902E+003    1.52515E+005
            4101    3.59081E+005    8.75733E+004   -3.05655E+005    4.83553E+003   -3.05655E+005    3.93228E+005    7.10821E+004   -3.36617E+005    7.79380E+003    9.63480E+003   -2.30675E+005   -1.43743E+004   -5.60213E+003    1.53748E+005
            4102    3.48955E+005    8.41664E+004   -3.00349E+005   -3.78310E+003   -3.00349E+005    3.84516E+005    7.33219E+004   -3.22574E+005   -1.89368E+003    2.15786E+003   -2.20230E+005   -1.49047E+004   -5.80131E+000    1.55490E+005
            4103    4.68219E+005    1.16700E+005   -3.93652E+005    1.60697E+004   -3.93652E+005    5.10352E+005    8.69608E+004   -4.42897E+005    1.01974E+005   -8.36244E+003   -3.54494E+005    3.73124E+004   -6.77398E+004    1.01840E+005
            4104    4.09921E+005    5.80388E+004   -3.61554E+005    3.79567E+004   -3.61554E+005    4.19593E+005    8.85194E+004   -4.08812E+005    5.01601E+004    7.64160E+003   -3.23360E+005    1.56824E+004   -5.47476E+004    1.04661E+005
            4105    3.88717E+005    4.73981E+004   -3.58947E+005    9.34184E+003   -3.58947E+005    4.06345E+005    1.00736E+005   -3.84492E+005    9.92438E+003    8.65558E+003   -3.20787E+005   -1.33914E+003   -2.19522E+004    1.16473E+005
            4106    3.93690E+005    5.93255E+004   -3.54261E+005    1.59387E+004   -3.54261E+005    4.13586E+005    9.29989E+004   -3.88257E+005    2.05510E+004    1.40738E+004   -3.13621E+005   -7.99089E+003   -2.20346E+004    1.20824E+005
            4107    3.72790E+005    5.68823E+004   -3.42167E+005   -2.85143E+003   -3.42167E+005    3.99050E+005    9.60455E+004   -3.61787E+005    7.04599E+002    9.30848E+003   -2.98150E+005   -1.23394E+004   -7.65718E+003    1.24339E+005
            4108    3.71378E+005    6.05882E+004   -3.34618E+005    7.13986E+003   -3.34618E+005    3.95206E+005    8.89633E+004   -3.62573E+005    1.19610E+004    7.90019E+003   -2.86751E+005   -1.31869E+004   -8.59308E+003    1.27992E+005
            4109    3.49931E+005    5.74283E+004   -3.18459E+005   -2.12816E+003   -3.18459E+005    3.75887E+005    8.77196E+004   -3.38246E+005    7.34579E+002    1.20923E+003   -2.65103E+005   -1.33276E+004   -1.31818E+003    1.30535E+005
            4110    5.19637E+005    1.41899E+005   -4.35664E+005   -6.03371E+003   -4.35664E+005    5.77563E+005    9.99330E+004   -4.68634E+005    1.27687E+005   -2.14023E+004   -4.06084E+005    4.01850E+004   -6.83172E+004    8.87271E+004
            4111    4.62158E+005    1.11668E+005   -3.86193E+005    2.91446E+004   -3.86193E+005    4.97861E+005    8.17935E+004   -4.45127E+005    9.49906E+004    1.48762E+004   -3.55247E+005    3.19232E+004   -7.63851E+004    8.15826E+004
            4112    4.18734E+005    3.75832E+004   -3.87536E+005    2.45056E+004   -3.87536E+005    4.25119E+005    1.08482E+005   -4.18274E+005    2.62338E+004    1.46671E+004   -3.66348E+005    1.43678E+004   -3.70205E+004    8.34537E+004
            4113    4.08255E+005    4.30828E+004   -3.68665E+005    3.60049E+004   -3.68665E+005    4.11748E+005    9.65258E+004   -4.08117E+005    3.44558E+004    2.25967E+004   -3.46630E+005    4.68056E+003   -3.39202E+004    8.62303E+004
            4114    3.89472E+005    3.75205E+004   -3.67235E+005    4.90124E+003   -3.67235E+005    4.04756E+005    1.08271E+005   -3.86381E+005    5.32233E+003    1.47451E+004   -3.44881E+005   -2.05618E+003   -1.58602E+004    9.10862E+004
            4115    3.75700E+005    4.05266E+004   -3.47754E+005    1.39541E+004   -3.47754E+005    3.88281E+005    9.77578E+004   -3.73577E+005    1.65337E+004    1.24959E+004   -3.22303E+005   -5.05824E+003   -1.36597E+004    9.49658E+004
            4116    3.60030E+005    3.45704E+004   -3.41132E+005    8.54649E+002   -3.41132E+005    3.75702E+005    1.01902E+005   -3.56452E+005    2.43638E+003    2.05255E+003   -3.10196E+005   -6.00119E+003   -5.01075E+003    1.02988E+005
            4117    5.85478E+005    1.93471E+005   -4.67895E+005   -1.58438E+004   -4.67895E+005    6.61366E+005    9.67559E+004   -4.90013E+005    1.83145E+005   -3.37437E+004   -4.39669E+005    3.20201E+004   -7.16497E+004    9.02785E+004
            4118    5.36230E+005    1.56158E+005   -4.39256E+005    5.60692E+003   -4.39256E+005    5.95413E+005    9.24969E+004   -4.85156E+005    1.43129E+005   -6.06701E+003   -4.14553E+005    2.82568E+004   -7.88655E+004    7.39892E+004
            4119    4.80162E+005    1.09458E+005   -4.10828E+005    1.52450E+004   -4.10828E+005    5.20286E+005    9.53751E+004   -4.58670E+005    9.75348E+004    9.11234E+003   -3.92772E+005    2.82315E+004   -6.08129E+004    6.37829E+004
            4120    4.57891E+005    8.23601E+004   -4.02494E+005    2.25566E+004   -4.02494E+005    4.84854E+005    9.91925E+004   -4.48978E+005    7.41044E+004    1.70004E+004   -3.88682E+005    1.93725E+004   -4.96888E+004    5.80971E+004
            4121    4.17917E+005    5.61902E+004   -3.79270E+005    1.85572E+004   -3.79270E+005    4.35461E+005    1.01508E+005   -4.14079E+005    5.01071E+004    1.34432E+004   -3.68073E+005    1.54018E+004   -3.40230E+004    5.65190E+004
            4122    4.01739E+005    4.27769E+004   -3.71273E+005    1.69048E+004   -3.71273E+005    4.14050E+005    1.03864E+005   -3.99858E+005    3.95249E+004    7.46676E+003   -3.58583E+005    1.05522E+004   -2.45702E+004    6.45347E+004
            4123    3.74980E+005    3.10713E+004   -3.52226E+005    1.38410E+004   -3.52226E+005    3.83298E+005    1.02438E+005   -3.74087E+005    2.84921E+004    1.34961E+003   -3.37156E+005    8.43987E+003   -1.42661E+004    7.13557E+004
            4124    4.08852E+005    6.48865E+004   -3.77899E+005   -1.46742E+004   -3.77899E+005    4.42785E+005    1.09229E+005   -3.90863E+005    6.20526E+004   -1.92797E+004   -3.70459E+005    1.27808E+004   -2.60263E+004    4.52173E+004
            4125    4.37130E+005    8.52498E+004   -3.92191E+005   -1.16234E+004   -3.92191E+005    4.77441E+005    1.06188E+005   -4.11927E+005    8.10143E+004   -1.34940E+004   -3.86085E+005    1.37176E+004   -3.73844E+004    3.34511E+004
            4126    4.75761E+005    1.06218E+005   -4.16326E+005   -8.22607E+003   -4.16326E+005    5.22545E+005    1.06111E+005   -4.43175E+005    1.00634E+005   -1.01235E+004   -4.08844E+005    1.42593E+004   -4.81487E+004    3.35503E+004
            4127    5.08671E+005    1.36187E+005   -4.28274E+005   -5.39031E+003   -4.28274E+005    5.64462E+005    9.91589E+004   -4.61122E+005    1.29333E+005   -7.56086E+003   -4.19249E+005    1.46479E+004   -5.76668E+004    3.43541E+004
            4128    5.56576E+005    1.57393E+005   -4.62971E+005   -7.39927E+003   -4.62971E+005    6.20364E+005    1.04326E+005   -4.97079E+005    1.50379E+005   -1.28964E+004   -4.50459E+005    1.39663E+004   -6.31334E+004    5.05668E+004
            4129    5.83375E+005    1.85744E+005   -4.73982E+005   -2.62301E+004   -4.73982E+005    6.59725E+005    1.04823E+005   -4.84609E+005    1.78858E+005   -3.75118E+004   -4.55814E+005    1.38315E+004   -6.54477E+004    6.97636E+004
            4130    6.09420E+005    1.82946E+005   -5.08213E+005   -4.81053E+004   -5.08213E+005    6.91160E+005    1.24457E+005   -4.95420E+005    1.78961E+005   -6.02968E+004   -4.92037E+005    8.87674E+003   -5.15696E+004    7.35690E+004
            4131    2.93987E+005    2.58874E+005    2.58874E+005   -3.56723E+003   -5.88183E+004    3.17693E+005   -6.54963E+004    2.81949E+005   -3.54242E+003    3.63935E+004    1.63638E+005   -1.30126E+003   -2.21508E+003    1.45535E+005
            4132    3.08416E+005    2.64753E+005    2.64753E+005    4.41556E+003   -7.58649E+004    3.40618E+005   -6.44345E+004    2.83443E+005    4.39864E+003    4.73710E+004    1.41534E+005   -4.22183E+003   -1.59226E+003    1.63605E+005
            4133    3.33244E+005    2.66059E+005    2.66059E+005    8.45565E+003   -1.10294E+005    3.76353E+005   -5.47403E+004    2.79315E+005    8.35348E+003    3.98988E+004    1.15969E+005   -9.01394E+003   -1.72201E+003    1.84045E+005
            4134    3.51269E+005    2.61437E+005    2.61437E+005    1.06945E+004   -1.40043E+005    4.01480E+005   -4.40296E+004    2.62120E+005    1.05305E+004    3.18831E+004    8.96751E+004   -1.37670E+004   -1.62434E+003    1.98145E+005
            4135    3.43150E+005    2.57719E+005    2.57719E+005    4.98378E+003   -1.32931E+005    3.90650E+005   -4.32572E+004    2.69269E+005    4.20733E+003    2.61061E+004    9.94582E+004   -1.42146E+004    1.41732E+003    1.91201E+005
            4136    3.36038E+005    2.52362E+005    2.52362E+005   -1.48085E+003   -1.28715E+005    3.81076E+005   -4.07220E+004    2.73376E+005   -1.76097E+003    1.92939E+004    1.04633E+005   -1.29622E+004   -1.85623E+003    1.85189E+005
            4137    3.35953E+005    2.52656E+005    2.52656E+005   -2.60607E+003   -1.27947E+005    3.80603E+005   -4.07010E+004    2.75448E+005   -2.89117E+003    1.50567E+004    1.09937E+005   -1.30144E+004   -2.10706E+003    1.83771E+005
            4138    3.32143E+005    2.51328E+005    2.51328E+005   -2.76454E+002   -1.25154E+005    3.76482E+005   -4.19656E+004    2.71228E+005   -5.97978E+002    1.06156E+004    1.15879E+005   -1.37478E+004   -2.42098E+003    1.80137E+005
            4139    3.35225E+005    2.56227E+005    2.56227E+005   -2.57503E+003   -1.22457E+005    3.78684E+005   -4.37317E+004    2.80528E+005   -3.27657E+003    8.53476E+003    1.25937E+005   -1.44969E+004   -1.05259E+003    1.79288E+005
            4140    3.34202E+005    2.57845E+005    2.57845E+005    1.60992E+003   -1.20170E+005    3.78015E+005   -4.64282E+004    2.77246E+005    9.24652E+002    3.18311E+003    1.35177E+005   -1.54825E+004   -1.99134E+003    1.76290E+005
            4141    3.43279E+005    2.67613E+005    2.67613E+005   -2.09298E+003   -1.18803E+005    3.86417E+005   -4.89057E+004    2.93385E+005   -3.48520E+003    1.42909E+003    1.48773E+005   -1.60938E+004    7.14743E+002    1.77579E+005
            4142    3.27128E+005    2.64151E+005    2.64151E+005    4.11715E+003   -1.03141E+005    3.67292E+005   -5.50422E+004    2.83313E+005    3.36317E+003    3.16012E+004    1.30162E+005   -1.11065E+004    1.33993E+003    1.76392E+005
            4143    3.29052E+005    2.65610E+005    2.65610E+005   -1.63799E+003   -1.01913E+005    3.67523E+005   -5.40198E+004    2.91585E+005   -2.00744E+003    2.43120E+004    1.39755E+005   -1.11249E+004   -2.00782E+003    1.74005E+005
            4144    3.27826E+005    2.65627E+005    2.65627E+005   -4.73770E+003   -9.90061E+004    3.64633E+005   -5.39609E+004    2.94942E+005   -5.18055E+003    1.91250E+004    1.47938E+005   -1.15159E+004   -2.34592E+003    1.70040E+005
            4145    3.27645E+005    2.71375E+005    2.71375E+005   -8.45669E+002   -9.22731E+004    3.63648E+005   -5.94186E+004    2.96848E+005   -1.35231E+003    1.80729E+004    1.61535E+005   -1.23941E+004   -3.06379E+003    1.66450E+005
            4146    3.29492E+005    2.73694E+005    2.73694E+005   -5.55293E+003   -8.97172E+004    3.63411E+005   -5.94746E+004    3.03863E+005   -6.70805E+003    1.07022E+004    1.74430E+005   -1.32848E+004   -1.19137E+003    1.61319E+005
            4147    3.33658E+005    2.84601E+005    2.84601E+005    1.13737E+003   -8.31041E+004    3.67705E+005   -6.75448E+004    3.08340E+005   -8.87557E+001    1.04457E+004    1.92277E+005   -1.41940E+004   -2.18067E+003    1.58766E+005
            4148    3.41208E+005    2.89465E+005    2.89465E+005   -5.64450E+003   -8.41559E+004    3.73620E+005   -6.65547E+004    3.19924E+005   -8.03689E+003    2.44653E+002    2.07456E+005   -1.49833E+004    1.25479E+003    1.53865E+005
            4149    3.17507E+005    2.69056E+005    2.69056E+005    2.06369E+002   -8.12410E+004    3.50297E+005   -6.26736E+004    2.92587E+005   -2.73096E+002    3.03634E+004    1.57931E+005   -6.64744E+003    1.56578E+003    1.62840E+005
            4150    3.20246E+005    2.73027E+005    2.73027E+005   -2.98162E+003   -7.81010E+004    3.51128E+005   -6.39815E+004    2.99445E+005   -3.21700E+003    2.65331E+004    1.68628E+005   -6.85471E+003   -1.48844E+003    1.60319E+005
            4151    3.21683E+005    2.78141E+005    2.78141E+005   -6.40551E+003   -7.09063E+004    3.49047E+005   -6.69429E+004    3.06624E+005   -6.74844E+003    2.41196E+004    1.83458E+005   -7.04945E+003   -1.48842E+003    1.54989E+005
            4152    3.19299E+005    2.82157E+005    2.82157E+005   -1.99483E+003   -6.33762E+004    3.45534E+005   -7.22621E+004    3.05599E+005   -2.32896E+003    1.94388E+004    1.99677E+005   -7.82083E+003   -2.93051E+003    1.47037E+005
            4153    3.25594E+005    2.92162E+005    2.92162E+005   -5.46960E+003   -5.55844E+004    3.47746E+005   -7.70360E+004    3.16743E+005   -6.59667E+003    1.65159E+004    2.21189E+005   -8.73860E+003   -3.69311E+002    1.39793E+005
            4154    3.29712E+005    3.00958E+005    3.00958E+005    1.09081E+003   -5.21254E+004    3.53083E+005   -8.33076E+004    3.19835E+005   -1.91120E+002    8.37739E+003    2.41737E+005   -9.92042E+003   -1.44796E+003    1.31503E+005
            4155    3.45898E+005    3.16326E+005    3.16326E+005   -4.28085E+003   -5.02634E+004    3.66589E+005   -8.72606E+004    3.38919E+005   -7.06745E+003    4.22664E+003    2.64623E+005   -1.06527E+004    2.95502E+003    1.27023E+005
            4156    3.16425E+005    2.75177E+005    2.75177E+005   -5.89015E+003   -6.75350E+004    3.42712E+005   -6.72505E+004    3.02470E+005   -5.97640E+003    3.03685E+004    1.77359E+005   -1.68972E+003    1.66139E+003    1.54745E+005
            4157    3.14120E+005    2.78591E+005    2.78591E+005   -8.83694E+003   -5.67222E+004    3.35313E+005   -7.10105E+004    3.05746E+005   -8.83492E+003    3.20835E+004    1.89783E+005   -1.15207E+003   -9.66957E+002    1.47951E+005
            4158    3.13450E+005    2.82678E+005    2.82678E+005   -1.52262E+004   -4.42928E+004    3.26971E+005   -7.43864E+004    3.10396E+005   -1.52379E+004    2.99652E+004    2.08432E+005    2.60431E+002   -7.97106E+002    1.36977E+005
            4159    3.13964E+005    2.92664E+005    2.92664E+005   -1.24386E+004   -2.94679E+004    3.22132E+005   -8.35858E+004    3.12922E+005   -1.27706E+004    2.88476E+004    2.34681E+005    1.52958E+003   -2.34152E+003    1.23672E+005
            4160    3.26336E+005    3.03981E+005    3.03981E+005   -1.80778E+004   -2.64698E+004    3.30451E+005   -8.64779E+004    3.26093E+005   -1.84964E+004    1.76493E+004    2.60281E+005    2.04952E+003    2.10021E+002    1.11857E+005
            4161    3.36827E+005    3.20025E+005    3.20025E+005   -1.28248E+004   -2.06432E+004    3.40669E+005   -9.55191E+004    3.36623E+005   -1.33374E+004    1.44006E+004    2.85494E+005    2.42165E+003    1.07826E+003    1.02715E+005
            4162    3.55995E+005    3.32895E+005    3.32895E+005   -2.18662E+004   -2.43212E+004    3.57217E+005   -9.55693E+004    3.55976E+005   -2.22370E+004    1.35106E+003    3.07594E+005    3.00649E+003    7.09752E+003    9.12683E+004
            4163    3.78785E+005    3.57134E+005    3.57134E+005    1.33612E+004   -4.89382E+004    4.06072E+005   -1.07186E+005    3.66992E+005   -4.71631E+004    2.24485E+004    3.46272E+005    1.09388E+004    1.48034E+004    5.83447E+004
            4164    3.56536E+005    3.37673E+005    3.37673E+005    1.03866E+004   -4.22582E+004    3.79931E+005   -1.01934E+005    3.47630E+005   -4.07663E+004    2.44988E+004    3.22069E+005    9.87700E+003    7.27892E+003    6.93725E+004
            4165    3.34253E+005    3.20578E+005    3.20578E+005    1.29891E+004   -3.51244E+004    3.55703E+005   -9.94809E+004    3.26326E+005   -3.38384E+004    3.61220E+004    2.96159E+005    8.71421E+003    2.99531E+003    8.31953E+004
            4166    3.16562E+005    3.02582E+005    3.02582E+005    3.98758E+003   -2.93152E+004    3.31897E+005   -9.24181E+004    3.12585E+005   -2.79756E+004    4.01740E+004    2.65056E+005    7.32196E+003    1.13132E+003    9.91718E+004
            4167    3.04615E+005    2.88914E+005    2.88914E+005   -8.24740E+003   -2.26442E+004    3.11558E+005   -8.60074E+004    3.03848E+005   -2.12351E+004    4.60535E+004    2.33204E+005    5.16096E+003    9.70268E+002    1.16278E+005
            4168    3.06369E+005    2.78090E+005    2.78090E+005   -1.60540E+004   -3.91906E+004    3.17281E+005   -7.42819E+004    3.04394E+005   -1.62442E+004    3.77288E+004    2.01361E+005    2.98988E+003    8.63147E+002    1.35784E+005
            4169    3.04817E+005    2.65998E+005    2.65998E+005   -1.28797E+004   -5.94097E+004    3.25407E+005   -6.45694E+004    2.96669E+005   -1.28819E+004    2.52777E+004    1.81313E+005    3.75673E+002   -2.09466E+001    1.42777E+005
            4170    3.60507E+005    2.69714E+004   -3.40488E+005    1.26379E+004   -3.40488E+005    3.67460E+005    1.00293E+005   -3.59865E+005    2.54415E+004   -7.09957E+003   -3.19221E+005    6.31215E+003   -8.37713E+003    8.36652E+004
            4171    3.46473E+005    3.74271E+004   -3.22162E+005    9.50420E+003   -3.22162E+005    3.59590E+005    9.17437E+004   -3.43928E+005    1.14509E+004   -1.91241E+003   -2.84770E+005   -6.07999E+003   -4.26661E+003    1.09410E+005
            4172    3.44587E+005    5.98537E+004   -3.08606E+005    5.69433E+003   -3.08606E+005    3.68460E+005    8.10194E+004   -3.34810E+005    8.66201E+003   -3.99104E+003   -2.47729E+005   -1.25100E+004   -2.34993E+003    1.36140E+005
            4173    3.39937E+005    8.92754E+004   -2.85127E+005    4.17511E+003   -2.85127E+005    3.74402E+005    6.38921E+004   -3.14604E+005    6.09687E+003   -2.11252E+002   -1.97562E+005   -1.43803E+004   -9.76199E+002    1.57800E+005
            4174    3.40848E+005    1.16809E+005   -2.66747E+005    1.45519E+003   -2.66747E+005    3.83556E+005    4.94945E+004   -2.91819E+005    2.97857E+003   -1.09864E+003   -1.50363E+005   -1.69727E+004   -4.36147E+002    1.75506E+005
            4175    3.40986E+005    1.50009E+005   -2.40027E+005    1.63300E+003   -2.40027E+005    3.90036E+005    2.94616E+004   -2.51265E+005    2.40250E+003    1.21722E+003   -9.20044E+004   -1.70048E+004   -3.69357E+001    1.88504E+005
            4176    3.40337E+005    1.76981E+005   -2.15433E+005   -8.32026E+002   -2.15433E+005    3.92413E+005    1.30947E+004   -1.85342E+005   -5.27766E+002   -6.62103E+002   -3.80941E+004   -1.81132E+004    1.01973E+002    1.94456E+005
            4177    3.43175E+005    2.11018E+005    2.11018E+005   -4.82055E+002   -1.84939E+005    3.95956E+005   -8.53232E+003    1.68303E+005   -7.41478E+002    1.13488E+003    2.52036E+004   -1.73901E+004    3.31949E+002    1.96836E+005
            4178    3.39993E+005    2.35249E+005    2.35249E+005   -2.85994E+003   -1.54126E+005    3.89375E+005   -2.60880E+004    2.45136E+005   -3.70230E+003   -1.34393E+003    8.33102E+004   -1.79043E+004    3.52118E+002    1.89087E+005
            4179    3.39164E+005    2.30179E+004   -3.21193E+005    1.26872E+004   -3.21193E+005    3.44211E+005    9.51628E+004   -3.38810E+005    2.03998E+004   -1.34078E+004   -2.92480E+005    5.34103E+003   -2.18122E+003    9.39382E+004
            4180    3.32527E+005    3.75054E+004   -3.11151E+005    2.47132E+003   -3.11151E+005    3.48657E+005    9.03915E+004   -3.28336E+005    3.23779E+003   -1.19150E+004   -2.62497E+005   -5.82166E+003    5.36253E+002    1.20628E+005
            4181    3.28837E+005    6.27819E+004   -2.92827E+005    2.62095E+002   -2.92827E+005    3.55609E+005    7.65942E+004   -3.15046E+005    1.71598E+003   -1.02596E+004   -2.21239E+005   -1.20314E+004    1.80322E+003    1.42018E+005
            4182    3.33055E+005    9.09996E+004   -2.78475E+005   -1.31582E+003   -2.78475E+005    3.69475E+005    6.29305E+004   -3.02199E+005   -3.19844E+002   -7.84745E+003   -1.80624E+005   -1.37884E+004    2.01197E+003    1.62413E+005
            4183    3.34864E+005    1.22331E+005   -2.56663E+005   -7.81734E+002   -2.56663E+005    3.78994E+005    4.50380E+004   -2.76599E+005    1.11099E+001   -4.33943E+003   -1.30786E+005   -1.62780E+004    1.68977E+003    1.77739E+005
            4184    3.37295E+005    1.49956E+005   -2.36431E+005   -8.45266E+002   -2.36431E+005    3.86386E+005    2.91067E+004   -2.41951E+005   -3.96374E+002   -3.29643E+003   -8.36274E+004   -1.64093E+004    1.04975E+003    1.88204E+005
            4185    3.40148E+005    1.82216E+005   -2.10195E+005    5.17553E+002   -2.10195E+005    3.92411E+005    9.15373E+003   -1.71261E+005    7.13991E+002    4.19202E+002   -2.85944E+004   -1.74368E+004    2.04706E+002    1.94883E+005
            4186    3.38184E+005    2.06587E+005    2.06587E+005    4.45188E+002   -1.83708E+005    3.90295E+005   -7.77461E+003    1.55594E+005    3.87012E+002   -1.32726E+002    2.30696E+004   -1.68263E+004   -6.45142E+002    1.94071E+005
            4187    3.39752E+005    2.37420E+005    2.37420E+005    1.91234E+003   -1.52057E+005    3.89477E+005   -2.90919E+004    2.40134E+005    1.52751E+003    4.55559E+003    8.11925E+004   -1.71885E+004   -1.46905E+003    1.90109E+005
            4188    3.26924E+005    2.32395E+004   -3.07649E+005    1.51609E+004   -3.07649E+005    3.30888E+005    8.97494E+004   -3.26699E+005    2.00633E+004   -2.27113E+004   -2.66600E+005    4.17332E+003    1.21270E+002    1.08141E+005
            4189    3.22950E+005    4.51106E+004   -2.94460E+005    8.80071E+003   -2.94460E+005    3.39571E+005    8.01829E+004   -3.18309E+005    9.42804E+003   -1.60618E+004   -2.33915E+005   -5.52430E+003    4.38424E+002    1.29797E+005
            4190    3.27179E+005    7.02085E+004   -2.84390E+005    5.78704E+003   -2.84390E+005    3.54598E+005    6.94647E+004   -3.12428E+005    7.05200E+003   -1.58779E+004   -1.99568E+005   -1.12995E+004    9.14785E+002    1.50755E+005
            4191    3.29817E+005    1.00397E+005   -2.66762E+005    4.42421E+003   -2.66762E+005    3.67159E+005    5.39803E+004   -2.95869E+005    5.26803E+003   -1.00713E+004   -1.57138E+005   -1.30171E+004    1.30931E+003    1.67478E+005
            4192    3.34610E+005    1.27562E+005   -2.51674E+005    1.96408E+003   -2.51674E+005    3.79236E+005    4.07158E+004   -2.73481E+005    2.63637E+003   -8.35599E+003   -1.16428E+005   -1.53201E+004    1.19054E+003    1.80985E+005
            4193    3.37876E+005    1.57954E+005   -2.29755E+005    1.80106E+003   -2.29755E+005    3.87709E+005    2.33331E+004   -2.33296E+005    2.13207E+003   -3.31171E+003   -6.88198E+004   -1.55473E+004    8.77291E+002    1.90399E+005
            4194    3.38575E+005    1.82327E+005   -2.08354E+005   -3.90713E+002   -2.08354E+005    3.90681E+005    8.80606E+003   -1.63028E+005   -2.68222E+002   -2.10838E+003   -2.40416E+004   -1.64780E+004    2.81237E+002    1.94331E+005
            4195    3.40310E+005    2.10839E+005    2.10839E+005   -4.92760E+002   -1.81733E+005    3.92572E+005   -9.53769E+003    1.73400E+005   -6.41381E+002    2.49602E+003    2.67584E+004   -1.59335E+004   -2.03219E+002    1.95256E+005
            4196    3.36523E+005    2.31386E+005    2.31386E+005   -2.58076E+003   -1.54283E+005    3.85670E+005   -2.48406E+004    2.39257E+005   -3.00509E+003    3.41255E+003    7.41144E+004   -1.62129E+004   -8.54193E+002    1.88824E+005
            4197    3.13862E+005    2.76554E+004   -2.92311E+005    1.50671E+004   -2.92311E+005    3.19966E+005    8.31962E+004   -3.13293E+005    1.60663E+004   -2.89859E+004   -2.36669E+005    2.88630E+003    1.87150E+003    1.21044E+005
            4198    3.17448E+005    5.26411E+004   -2.86362E+005    3.88960E+003   -2.86362E+005    3.39004E+005    7.66106E+004   -3.08857E+005    4.03495E+003   -2.41994E+004   -2.09667E+005   -5.22009E+003    2.68730E+003    1.41701E+005
            4199    3.22320E+005    7.97466E+004   -2.74388E+005    1.83522E+003   -2.74388E+005    3.54135E+005    6.42688E+004   -3.00017E+005    2.32976E+003   -2.00506E+004   -1.75086E+005   -1.08390E+004    3.04037E+003    1.58644E+005
            4200    3.30053E+005    1.07268E+005   -2.62940E+005    5.50559E+002   -2.62940E+005    3.70208E+005    5.17071E+004   -2.87205E+005    9.27953E+002   -1.58797E+004   -1.40169E+005   -1.25165E+004    2.67426E+003    1.73805E+005
            4201    3.35586E+005    1.36516E+005   -2.45727E+005    4.90374E+002   -2.45727E+005    3.82243E+005    3.62402E+004   -2.61809E+005    7.89628E+002   -1.01268E+004   -9.93835E+004   -1.46172E+004    2.11275E+003    1.85205E+005
            4202    3.39171E+005    1.61782E+005   -2.27985E+005    3.82449E+001   -2.27985E+005    3.89767E+005    2.20547E+004   -2.24343E+005    2.04413E+002   -6.63331E+003   -5.97351E+004   -1.48883E+004    1.25111E+003    1.92473E+005
            4203    3.42076E+005    1.89498E+005   -2.05376E+005    5.03550E+002   -2.05376E+005    3.94875E+005    5.12474E+003   -1.43602E+005    5.62886E+002   -5.46176E+002   -1.53909E+004   -1.56477E+004    2.59571E+002    1.96675E+005
            4204    3.39776E+005    2.10555E+005    2.10555E+005   -3.39876E+001   -1.81422E+005    3.91977E+005   -9.69987E+003    1.71502E+005   -8.63094E+001    2.05339E+003    2.71325E+004   -1.52129E+004   -7.25109E+002    1.94991E+005
            4205    3.39387E+005    2.35098E+005    2.35098E+005    4.92841E+002   -1.54058E+005    3.89156E+005   -2.71778E+004    2.38550E+005    3.09141E+002    8.43338E+003    7.27909E+004   -1.53224E+004   -1.77179E+003    1.91258E+005
            4206    3.12247E+005    3.90449E+004   -2.84924E+005    1.41054E+004   -2.84924E+005    3.23969E+005    7.72579E+004   -3.09994E+005    1.41594E+004   -3.49455E+004   -2.10988E+005    8.87456E+002    8.00895E+002    1.35950E+005
            4207    3.18038E+005    6.57812E+004   -2.77276E+005    7.75219E+003   -2.77276E+005    3.43057E+005    6.79141E+004   -3.05785E+005    7.98306E+003   -2.63895E+004   -1.85336E+005   -5.53198E+003    1.29015E+003    1.51814E+005
            4208    3.26811E+005    9.05254E+004   -2.70595E+005    4.83127E+003   -2.70595E+005    3.61120E+005    5.84127E+004   -2.99932E+005    5.29524E+003   -2.35513E+004   -1.56982E+005   -1.04318E+004    1.96545E+003    1.67314E+005
            4209    3.33505E+005    1.18432E+005   -2.57296E+005    3.68982E+003   -2.57296E+005    3.75728E+005    4.50579E+004   -2.83705E+005    4.01010E+003   -1.69915E+004   -1.22192E+005   -1.22210E+004    2.13098E+003    1.79857E+005
            4210    3.39708E+005    1.43608E+005   -2.44042E+005    1.71654E+003   -2.44042E+005    3.87650E+005    3.29060E+004   -2.59226E+005    1.93000E+003   -1.30322E+004   -8.76158E+004   -1.39753E+004    1.90621E+003    1.89651E+005
            4211    3.44202E+005    1.70686E+005   -2.25380E+005    1.34939E+003   -2.25380E+005    3.96066E+005    1.77818E+004   -2.16195E+005    1.44726E+003   -6.21099E+003   -4.85818E+004   -1.43993E+004    1.17179E+003    1.96359E+005
            4212    3.45083E+005    1.92748E+005   -2.05654E+005   -1.83491E+002   -2.05654E+005    3.98401E+005    4.36320E+003   -1.30819E+005   -1.50037E+002   -2.03391E+003   -1.09056E+004   -1.49484E+004    1.81449E+002    1.98589E+005
            4213    3.45245E+005    2.16464E+005    2.16464E+005   -4.77272E+002   -1.81655E+005    3.98119E+005   -1.14439E+004    1.85386E+005   -5.32771E+002    5.01263E+003    2.98517E+004   -1.46107E+004   -7.44097E+002    1.98130E+005
            4214    3.40272E+005    2.33820E+005    2.33820E+005   -1.94966E+003   -1.56268E+005    3.90088E+005   -2.52010E+004    2.40302E+005   -2.08712E+003    8.87000E+003    6.88201E+004   -1.44401E+004   -1.76944E+003    1.92163E+005
            4215    3.12097E+005    5.47978E+004   -2.78093E+005    7.90364E+003   -2.78093E+005    3.32891E+005    7.17972E+004   -3.04019E+005    7.91872E+003   -3.57518E+004   -1.87559E+005   -9.59418E+002   -7.73060E+001    1.48122E+005
            4216    3.20105E+005    7.55355E+004   -2.74776E+005    2.49888E+003   -2.74776E+005    3.50311E+005    6.55805E+004   -3.00487E+005    2.76389E+003   -3.08620E+004   -1.68643E+005   -6.19587E+003    6.22537E+002    1.60834E+005
            4217    3.28934E+005    9.99113E+004   -2.67050E+005    1.29509E+003   -2.67050E+005    3.66962E+005    5.52813E+004   -2.92798E+005    1.70485E+003   -2.59193E+004   -1.41630E+005   -1.05859E+004    1.44252E+003    1.73692E+005
            4218    3.37222E+005    1.23939E+005   -2.57532E+005    8.66344E+002   -2.57532E+005    3.81471E+005    4.42420E+004   -2.79541E+005    1.22878E+003   -2.14526E+004   -1.12502E+005   -1.27098E+004    1.47222E+003    1.84714E+005
            4219    3.44376E+005    1.50759E+005   -2.43127E+005    1.09439E+003   -2.43127E+005    3.93886E+005    3.04246E+004   -2.54058E+005    1.30701E+003   -1.47564E+004   -7.78245E+004   -1.40916E+004    1.46063E+003    1.93859E+005
            4220    3.48849E+005    1.74907E+005   -2.26760E+005    4.02360E+002   -2.26760E+005    4.01667E+005    1.71501E+004   -2.12083E+005    5.07892E+002   -8.94519E+003   -4.30131E+004   -1.45581E+004    8.68751E+002    1.99571E+005
            4221    3.51622E+005    1.99984E+005   -2.06017E+005    1.85005E+002   -2.06017E+005    4.06001E+005    1.94922E+003   -1.05889E+005    2.03784E+002   -5.81692E+002   -5.46974E+003   -1.48327E+004    7.90215E+001    2.02443E+005
            4222    3.48946E+005    2.19461E+005    2.19461E+005   -8.34552E+002   -1.82861E+005    4.02322E+005   -1.19218E+004    1.90943E+005   -8.89192E+002    5.64413E+003    3.10105E+004   -1.46267E+004   -7.91810E+002    2.00223E+005
            4223    3.45928E+005    2.39489E+005    2.39489E+005   -8.58975E+002   -1.56984E+005    3.96473E+005   -2.72155E+004    2.45627E+005   -1.00962E+003    1.39127E+004    6.87433E+004   -1.42517E+004   -1.53237E+003    1.95791E+005
            4224    3.14611E+005    6.72653E+004   -2.74160E+005    4.02947E+003   -2.74160E+005    3.41425E+005    6.76218E+004   -2.99808E+005    4.09451E+003   -3.61161E+004   -1.70844E+005   -1.94395E+003   -7.53305E+002    1.56824E+005
            4225    3.22677E+005    8.63239E+004   -2.71083E+005   -1.19142E+003   -2.71083E+005    3.57407E+005    6.19836E+004   -2.94148E+005   -7.35755E+002   -3.17355E+004   -1.53480E+005   -6.67018E+003   -1.71493E+003    1.67751E+005
            4226    3.31065E+005    1.05988E+005   -2.66275E+005   -4.84839E+003   -2.66275E+005    3.72263E+005    5.50451E+004   -2.84594E+005   -4.07866E+003   -2.98712E+004   -1.31185E+005   -1.11264E+004   -1.61326E+003    1.78589E+005
            4227    3.41846E+005    1.30998E+005   -2.58017E+005   -5.55169E+003   -2.58017E+005    3.89015E+005    4.41900E+004   -2.69343E+005   -4.74983E+003   -2.62447E+004   -1.01575E+005   -1.41426E+004   -1.51557E+003    1.90171E+005
            4228    3.52279E+005    1.56843E+005   -2.47256E+005   -4.85530E+003   -2.47256E+005    4.04099E+005    3.17560E+004   -2.45298E+005   -4.22244E+003   -1.97083E+004   -7.13373E+004   -1.60678E+004   -1.15709E+003    1.99681E+005
            4229    3.58268E+005    1.83117E+005   -2.29867E+005   -2.41634E+003   -2.29867E+005    4.12984E+005    1.63889E+004   -2.00281E+005   -2.07512E+003   -9.69910E+003   -3.73925E+004   -1.69635E+004   -6.07058E+002    2.05309E+005
            4230    3.59015E+005    2.05501E+005   -2.09050E+005   -1.79454E+002   -2.09050E+005    4.14551E+005    1.24260E+003   -8.51152E+004   -1.64508E+002   -8.78464E+002   -2.68484E+003   -1.72360E+004    1.49799E+001    2.06555E+005
            4231    3.58469E+005    2.27705E+005    2.27705E+005    2.50908E+003   -1.85667E+005    4.13372E+005   -1.48488E+004    1.92290E+005    2.18671E+003    9.26092E+003    3.30987E+004   -1.69609E+004    6.82607E+002    2.05628E+005
            4232    3.52091E+005    2.44030E+005    2.44030E+005    4.10754E+003   -1.60177E+005    4.04207E+005   -2.93204E+004    2.40143E+005    3.50872E+003    1.76366E+004    6.68159E+004   -1.60989E+004    1.11098E+003    1.99895E+005
            4233    3.66368E+005    2.52921E+005    2.52921E+005    9.87840E+003   -1.68473E+005    4.21394E+005   -3.14422E+004    2.34466E+005    9.75134E+003    2.32128E+004    6.13626E+004   -1.76478E+004   -1.43580E+003    2.09073E+005
            4234    3.74481E+005    2.37763E+005    2.37763E+005    5.85894E+003   -1.94261E+005    4.32024E+005   -1.64538E+004    1.88238E+005    5.78457E+003    1.22493E+004    3.13276E+004   -2.00853E+004   -7.94499E+002    2.14860E+005
            4235    3.77612E+005    2.17794E+005   -2.18235E+005    1.16638E+001   -2.18235E+005    4.36029E+005    1.43275E+002   -4.63256E+004    2.38339E+001   -2.79195E+002   -1.74462E+002   -2.08845E+004   -5.42737E+001    2.17012E+005
            4236    3.74525E+005    1.93070E+005   -2.38957E+005   -6.11621E+003   -2.38957E+005    4.32027E+005    1.73344E+004   -1.91856E+005   -6.03665E+003   -1.34528E+004   -3.25138E+004   -2.00943E+004    8.11352E+002    2.14861E+005
            4237    3.65740E+005    1.67804E+005   -2.52830E+005   -9.85578E+003   -2.52830E+005    4.20634E+005    3.16272E+004   -2.34928E+005   -9.72865E+003   -2.35576E+004   -6.15953E+004   -1.76610E+004    1.45425E+003    2.08694E+005
            4238    3.51622E+005    1.40026E+005   -2.61890E+005   -1.10725E+004   -2.61890E+005    4.01916E+005    4.43118E+004   -2.62063E+005   -1.09450E+004   -3.27415E+004   -8.92490E+004   -1.39973E+004    1.90679E+003    1.98444E+005
            4239    3.31066E+005    1.10869E+005   -2.63469E+005   -9.15712E+003   -2.63469E+005    3.74338E+005    5.39188E+004   -2.75307E+005   -9.06780E+003   -3.87550E+004   -1.13934E+005   -9.44330E+003    1.94891E+003    1.83085E+005
            4240    3.14378E+005    8.72438E+004   -2.62508E+005   -3.43587E+003   -2.62508E+005    3.49752E+005    5.95666E+004   -2.82632E+005   -3.42831E+003   -3.54868E+004   -1.39785E+005   -4.84936E+003    1.94705E+003    1.66836E+005
            4241    3.13251E+005    7.60597E+004   -2.67189E+005    3.23486E+003   -2.67189E+005    3.43249E+005    6.26314E+004   -2.93283E+005    3.21286E+003   -3.09635E+004   -1.60144E+005   -1.83463E+003    1.89612E+003    1.58991E+005
            4242    3.80974E+005    5.35965E+004   -3.56227E+005   -1.28433E+004   -3.56227E+005    4.09824E+005    1.05158E+005   -3.67599E+005    5.16387E+004   -2.04144E+004   -3.46698E+005    1.16061E+004   -1.55656E+004    5.43068E+004
            4243    3.56961E+005    4.34872E+004   -3.39099E+005   -1.49819E+004   -3.39099E+005    3.82586E+005    1.03531E+005   -3.45941E+005    4.19405E+004   -2.88168E+004   -3.23717E+005    1.05105E+004   -7.57451E+003    6.85042E+004
            4244    3.33344E+005    3.73383E+004   -3.18145E+005   -1.25679E+004   -3.18145E+005    3.55483E+005    9.77916E+004   -3.24779E+005    3.59543E+004   -3.51192E+004   -2.94210E+005    9.14338E+003   -2.95902E+003    8.21528E+004
            4245    3.15689E+005    2.90617E+004   -3.02726E+005   -6.07531E+003   -3.02726E+005    3.31788E+005    9.32466E+004   -3.11244E+005    2.77552E+004   -4.38738E+004   -2.63621E+005    7.45527E+003   -1.11901E+003    1.00547E+005
            4246    3.05144E+005    2.26982E+004   -2.88392E+005    1.04355E+004   -2.88392E+005    3.11090E+005    8.50860E+004   -3.04588E+005    2.08904E+004   -4.54958E+004   -2.30653E+005    5.30409E+003   -1.03729E+003    1.18382E+005
            4247    3.05186E+005    3.42748E+004   -2.81129E+005    1.26950E+004   -2.81129E+005    3.15403E+005    7.80529E+004   -3.03463E+005    1.29072E+004   -4.48144E+004   -2.02252E+005    2.97426E+003   -7.40625E+002    1.36510E+005
            4248    3.09660E+005    5.65328E+004   -2.74085E+005    9.15875E+003   -2.74085E+005    3.30617E+005    6.94644E+004   -3.01345E+005    9.16935E+003   -3.78088E+004   -1.79754E+005    7.37862E+002    1.72066E+002    1.49292E+005
            4249    3.84141E+005    3.78383E+005    3.78383E+005    2.67383E+003   -1.36675E+004    3.92050E+005   -1.22463E+005    3.83357E+005   -2.61800E+003    1.61304E+004    3.53877E+005   -7.27302E+003    2.41587E+003    9.42185E+004
            4250    3.77598E+005    3.52046E+005    3.52046E+005   -2.83970E+003   -4.47647E+004    3.96810E+005   -1.01480E+005    3.72307E+005   -8.36907E+003    1.20308E+004    3.00780E+005   -1.53449E+004   -6.47983E+001    1.31898E+005
            4251    3.75057E+005    3.27661E+005    3.27661E+005   -3.46047E+003   -7.96379E+004    4.07298E+005   -8.15207E+004    3.57024E+005   -5.12804E+003    9.26800E+003    2.40422E+005   -1.31840E+004   -3.03621E+002    1.66512E+005
            4252    3.67346E+005    2.90647E+005    2.90647E+005   -3.67419E+003   -1.21041E+005    4.11688E+005   -5.53104E+004    3.20908E+005   -4.85026E+003    2.92473E+003    1.67857E+005   -1.56114E+004   -2.92287E+002    1.87676E+005
            4253    3.92995E+005    3.90644E+005    3.90644E+005    1.03608E+004   -1.39356E+004    4.04580E+005   -1.29023E+005    3.91300E+005    7.04639E+003    7.50655E+003    3.72516E+005   -7.92459E+003    2.81791E+003    8.33321E+004
            4254    3.90804E+005    3.76621E+005    3.76621E+005    1.32857E+004   -3.68204E+004    4.13441E+005   -1.17695E+005    3.83478E+005    8.05160E+003    1.72475E+004    3.27787E+005   -1.72847E+004   -1.96826E+003    1.32219E+005
            4255    3.80067E+005    3.38523E+005    3.38523E+005    7.26133E+003   -7.64063E+004    4.14930E+005   -8.97928E+004    3.58457E+005    5.86946E+003    4.70797E+003    2.58801E+005   -1.41957E+004   -2.78295E+003    1.62843E+005
            4256    3.81078E+005    3.11780E+005    3.11780E+005    8.80436E+003   -1.16067E+005    4.27847E+005   -6.81724E+004    3.30106E+005    7.87651E+003    7.15149E+003    1.89489E+005   -1.67943E+004   -2.51547E+003    1.92561E+005
            4257    4.19712E+005    4.10366E+005    4.10366E+005   -9.60274E+002   -1.72567E+004    4.27623E+005   -1.30716E+005    4.19000E+005   -8.35411E+003    6.18858E+003    3.94315E+005   -6.16303E+003    1.07395E+004    8.00009E+004
            4258    4.11002E+005    3.85403E+005    3.85403E+005   -2.14191E+003   -4.56032E+004    4.31006E+005   -1.12552E+005    4.05784E+005   -1.25489E+004    6.21647E+003    3.43990E+005   -1.85337E+004    3.06809E+003    1.25276E+005
            4259    4.05893E+005    3.61443E+005    3.61443E+005   -5.49310E+003   -7.45480E+004    4.35991E+005   -9.38007E+004    3.92350E+005   -8.27194E+003    5.37443E+003    2.84300E+005   -1.41538E+004    2.00956E+003    1.65675E+005
            4260    3.90148E+005    3.17265E+005    3.17265E+005   -4.87321E+003   -1.16541E+005    4.33806E+005   -6.52835E+004    3.51405E+005   -6.88354E+003    2.73685E+002    2.02460E+005   -1.73691E+004    1.25246E+003    1.90550E+005
            4261    4.16432E+005    4.11157E+005    4.11157E+005    4.91616E+003   -1.47685E+004    4.25925E+005   -1.33768E+005    4.15383E+005    4.03807E+003   -1.85859E+003    3.99125E+005   -2.66203E+003    1.36035E+004    6.92367E+004
            4262    4.17134E+005    4.10766E+005    4.10766E+005    2.24274E+004   -3.01734E+004    4.40940E+005   -1.34340E+005    4.09573E+005    1.54782E+004    1.80136E+004    3.69529E+005   -1.89001E+004   -2.22642E+002    1.27107E+005
            4263    3.99582E+005    3.67540E+005    3.67540E+005    1.22130E+004   -6.50212E+004    4.32561E+005   -1.04911E+005    3.82244E+005    1.04199E+004    6.84855E+003    2.97463E+005   -1.48804E+004   -3.22123E+003    1.58681E+005
            4264    4.00180E+005    3.42712E+005    3.42712E+005    1.47934E+004   -1.03197E+005    4.45909E+005   -8.47697E+004    3.57791E+005    1.35348E+004    9.31341E+003    2.31461E+005   -1.82102E+004   -3.41043E+003    1.92080E+005
            4265    4.54146E+005    4.25985E+005    4.25985E+005   -1.41255E+004   -4.10011E+004    4.66987E+005   -1.23620E+005    4.52351E+005   -3.82414E+004   -2.47150E+003    4.11572E+005    6.83556E+003    3.48841E+004    7.05590E+004
            4266    4.27019E+005    3.99290E+005    3.99290E+005   -8.08822E+003   -4.49766E+004    4.44266E+005   -1.15408E+005    4.23412E+005   -2.55482E+004    6.70880E+003    3.65065E+005   -1.54745E+004    1.26811E+004    1.15651E+005
            4267    4.20470E+005    3.82864E+005    3.82864E+005   -1.18738E+004   -5.93141E+004    4.42178E+005   -1.03892E+005    4.14384E+005   -1.71816E+004    9.54912E+003    3.19308E+005   -1.23589E+004    9.38351E+003    1.53977E+005
            4268    4.02052E+005    3.41020E+005    3.41020E+005   -8.22583E+003   -9.84935E+004    4.39513E+005   -7.81001E+004    3.78231E+005   -1.15074E+004    3.07548E+003    2.42732E+005   -1.57762E+004    6.39237E+003    1.82240E+005
            4269    4.06836E+005    3.91320E+005    3.91320E+005    3.84016E+003   -3.24415E+004    4.23761E+005   -1.20906E+005    4.03172E+005   -1.51463E+004   -1.37862E+003    3.79243E+005    2.30915E+004    3.60100E+004    5.69285E+004
            4270    3.97182E+005    4.07246E+005    4.07246E+005    2.66472E+004   -4.66628E+003    4.11912E+005   -1.43076E+005    3.94391E+005    2.18299E+004    2.70705E+004    3.80326E+005   -1.02539E+004    5.47020E+003    1.01127E+005
            4271    3.93571E+005    3.80767E+005    3.80767E+005    1.51289E+004   -3.57833E+004    4.16550E+005   -1.20037E+005    3.86059E+005    1.36090E+004    1.50853E+004    3.31418E+005   -9.95952E+003   -1.48227E+003    1.34237E+005
            4272    3.95074E+005    3.63564E+005    3.63564E+005    1.84022E+004   -6.73403E+004    4.30905E+005   -1.04875E+005    3.73269E+005    1.72591E+004    1.99393E+004    2.77428E+005   -1.46085E+004   -4.40384E+003    1.71647E+005
            4273    5.09962E+005    3.73051E+005    3.73051E+005   -1.21451E+004   -2.05266E+005    5.78317E+005   -5.18799E+004    4.14826E+005   -1.76649E+005   -1.45496E+004    3.46838E+005    4.59060E+004    1.06740E+005    3.69687E+004
            4274    4.31541E+005    3.63047E+005    3.63047E+005   -3.01794E+004   -9.86261E+004    4.61673E+005   -7.80806E+004    4.19067E+005   -8.62240E+004   -1.99198E+004    3.40386E+005    2.28651E+004    6.63181E+004    6.67298E+004
            4275    3.98088E+005    3.59883E+005    3.59883E+005   -2.37189E+004   -5.12609E+004    4.11144E+005   -9.49676E+004    3.95936E+005   -4.52852E+004    8.29451E+003    3.21894E+005    1.32760E+004    4.72209E+004    1.05258E+005
            4276    3.61613E+005    3.27457E+005    3.27457E+005   -1.98160E+004   -4.69654E+004    3.74422E+005   -8.68918E+004    3.59309E+005   -1.83837E+004    1.18682E+004    2.67191E+005    6.83448E+003    3.22660E+004    1.33755E+005
            4277    4.39207E+005    3.28465E+005    3.28465E+005   -3.92784E+003   -1.69453E+005    4.97918E+005   -5.16949E+004    3.58203E+005   -1.52008E+005    3.02209E+004    2.76872E+005    5.29932E+004    6.42366E+004    1.05052E+005
            4278    4.81730E+005    3.42692E+005    3.42692E+005   -7.86946E+003   -2.06612E+005    5.49304E+005   -4.27371E+004    3.71080E+005   -1.85915E+005    6.03902E+003    3.08087E+005    5.60011E+004    7.49992E+004    8.10796E+004
            4279    5.16494E+005    3.62658E+005    3.62658E+005   -1.61883E+004   -2.25667E+005    5.88325E+005   -4.02675E+004    4.02779E+005   -2.02080E+005   -1.19184E+004    3.34801E+005    6.05075E+004    7.88180E+004    7.03258E+004
            4280    5.42663E+005    3.66994E+005    3.66994E+005   -6.28259E+004   -2.42788E+005    6.09782E+005   -2.04600E+004    4.68100E+005   -2.14624E+005   -7.72306E+004    3.53235E+005    6.08794E+004    7.22805E+004    3.81670E+004
            4281    4.11716E+005    3.86456E+005    3.86456E+005    2.97860E+003   -4.86313E+004    4.35087E+005   -1.13601E+005    4.04342E+005   -4.58903E+004    7.38967E+003    3.79304E+005    1.21456E+004    1.70758E+004    4.90506E+004
            4282    4.36703E+005    4.02822E+005    4.02822E+005    5.08776E+003   -6.44947E+004    4.67317E+005   -1.14472E+005    4.23961E+005   -6.04788E+004    6.87397E+003    3.97020E+005    1.51422E+004    2.72414E+004    3.98656E+004
            4283    4.61429E+005    4.07582E+005    4.07582E+005   -8.17495E+003   -8.88716E+004    4.96454E+005   -1.03512E+005    4.45136E+005   -8.25420E+004   -9.73961E+003    4.02817E+005    1.83191E+004    3.78468E+004    2.62913E+004
            4284    4.97402E+005    4.24468E+005    4.24468E+005   -8.93784E+003   -1.18622E+005    5.43089E+005   -9.89693E+004    4.69020E+005   -1.09883E+005   -9.92647E+003    4.16717E+005    2.21968E+004    5.32647E+004    3.03131E+004
            4285    5.18445E+005    4.16128E+005    4.16128E+005   -2.11438E+004   -1.56599E+005    5.72727E+005   -7.94616E+004    4.76131E+005   -1.44597E+005   -2.35906E+004    4.06573E+005    2.58130E+004    6.69941E+004    2.29955E+004
            4286    5.93722E+005    4.50346E+005    4.50346E+005   -1.79227E+004   -2.17434E+005    6.67780E+005   -7.16633E+004    5.09680E+005   -1.98645E+005   -1.59638E+004    4.29598E+005    3.27483E+004    9.99153E+004    4.48896E+004
            4287    5.82699E+005    3.95153E+005    3.95153E+005   -1.52476E+004   -2.71801E+005    6.66954E+005   -3.60347E+004    4.24574E+005   -2.48193E+005   -1.74193E+004    3.73717E+005    5.08211E+004    1.00753E+005    4.01197E+004
            4288    3.68949E+005    2.79209E+005    2.79209E+005   -2.44282E+004   -1.31408E+005    4.10617E+005   -4.11243E+004    3.31264E+005   -1.14238E+005    2.95630E+004    2.08048E+005    5.21276E+004    4.72982E+004    1.19802E+005
            4289    3.02366E+005    2.26185E+005    2.26185E+005   -4.45802E+004   -1.00090E+005    3.26275E+005   -2.71715E+004    2.90569E+005   -5.96041E+004    2.06716E+004    1.20447E+005    5.18985E+004    2.53493E+004    1.37851E+005
            4290    2.63392E+005    1.50757E+005   -1.53381E+005   -2.12569E+003   -1.53381E+005    3.04137E+005    1.58332E+003    5.53227E+004   -1.81396E+003    4.22372E+001   -2.97825E+003    5.20777E+004    2.72261E+002    1.42866E+005
            4291    2.99305E+005    1.01067E+005   -2.22234E+005    4.52047E+004   -2.22234E+005    3.23300E+005    2.53208E+004   -2.87223E+005    6.10145E+004   -2.00879E+004   -1.16889E+005    5.23100E+004   -2.51801E+004    1.36227E+005
            4292    3.76847E+005    1.32226E+005   -2.87552E+005    2.16014E+004   -2.87552E+005    4.19778E+005    4.45750E+004   -3.37310E+005    1.14792E+005   -3.08766E+004   -2.17640E+005    5.28260E+004   -4.81533E+004    1.20250E+005
            4293    4.41537E+005    1.80902E+005   -3.21793E+005    3.23213E+003   -3.21793E+005    5.02695E+005    4.58865E+004   -3.46195E+005    1.62252E+005   -2.58224E+004   -2.74089E+005    5.53028E+004   -6.59807E+004    9.83511E+004
            4294    4.95282E+005    2.15085E+005   -3.50856E+005    3.43998E+003   -3.50856E+005    5.65941E+005    4.41104E+004   -3.70935E+005    1.93073E+005   -9.61464E+003   -3.15790E+005    5.87260E+004   -7.88666E+004    8.04466E+004
            4295    5.21752E+005    2.40058E+005   -3.55801E+005    1.91930E+004   -3.55801E+005    5.95860E+005    3.21833E+004   -3.93878E+005    2.15155E+005    2.08856E+004   -3.32590E+005    5.79957E+004   -8.69348E+004    5.19843E+004
            4296    5.87235E+005    2.97580E+005   -3.77022E+005    1.96892E+004   -3.77022E+005    6.74602E+005    1.99173E+004   -3.92837E+005    2.74258E+005    2.03119E+004   -3.54322E+005    5.54352E+004   -9.82223E+004    4.72836E+004
            4297    3.46497E+005    2.96392E+005    2.96392E+005   -7.19304E+003   -8.10937E+004    3.77486E+005   -6.93683E+004    3.28055E+005   -6.16132E+003    1.58423E+004    1.98424E+005    5.70406E+003    2.14778E+004    1.64054E+005
            4298    3.81724E+005    3.12960E+005    3.12960E+005    7.91260E+003   -1.15105E+005    4.28065E+005   -6.85893E+004    3.32532E+005    7.76887E+003    1.08013E+004    1.87198E+005   -1.10263E+004   -3.83717E+003    1.94632E+005
            4299    3.97400E+005    3.07234E+005    3.07234E+005   -5.69643E+003   -1.39890E+005    4.47124E+005   -5.38824E+004    3.40524E+005   -7.01875E+003    3.70010E+003    1.64966E+005   -1.28094E+004    5.02070E+003    2.07773E+005
            4300    3.88021E+005    2.91810E+005    2.91810E+005    6.59571E+003   -1.50046E+005    4.41856E+005   -4.94532E+004    3.03565E+005    6.31311E+003    2.04371E+003    1.40003E+005   -1.52754E+004   -2.90054E+003    2.09263E+005
            4301    3.88920E+005    2.84322E+005    2.84322E+005   -3.91665E+003   -1.58039E+005    4.42361E+005   -4.07888E+004    3.08018E+005   -4.73722E+003    1.48363E+003    1.25620E+005   -1.47176E+004    1.30265E+003    2.11647E+005
            4302    3.73003E+005    2.67162E+005    2.67162E+005    3.68758E+003   -1.59646E+005    4.26808E+005   -3.70679E+004    2.73226E+005    3.42856E+003    8.62659E+002    1.06913E+005   -1.49120E+004   -1.92950E+003    2.06132E+005
            4303    3.69933E+005    2.62375E+005    2.62375E+005   -2.50349E+003   -1.60288E+005    4.22663E+005   -3.31943E+004    2.77501E+005   -3.00034E+003    3.35461E+003    9.92285E+004   -1.41031E+004    6.99823E+001    2.05274E+005
            4304    3.26671E+005    2.38966E+005    2.38966E+005   -1.48741E+003   -1.32956E+005    3.71922E+005   -3.48408E+004    2.56106E+005   -1.05232E+003    7.95136E+003    9.76233E+004    4.33566E+003    1.06587E+004    1.80173E+005
            4305    3.79861E+005    2.68427E+005    2.68427E+005    6.13555E+003   -1.67181E+005    4.35608E+005   -3.57936E+004    2.66397E+005    6.18047E+003    7.62239E+003    9.35780E+004   -1.09309E+004   -2.68047E+003    2.13229E+005
            4306    3.85853E+005    2.54168E+005    2.54168E+005   -4.06856E+003   -1.89383E+005    4.43551E+005   -2.02387E+004    2.52462E+005   -4.67400E+003   -1.45269E+002    6.55354E+004   -1.36168E+004    2.66719E+003    2.18840E+005
            4307    3.90956E+005    2.55319E+005    2.55319E+005    5.27104E+003   -1.95209E+005    4.50529E+005   -2.17936E+004    2.24425E+005    5.21286E+003    3.20117E+003    5.69668E+004   -1.62892E+004   -1.48787E+003    2.23052E+005
            4308    3.80783E+005    2.37732E+005    2.37732E+005   -3.11739E+003   -2.01266E+005    4.38998E+005   -1.11163E+004    2.09904E+005   -3.45688E+003   -1.15849E+003    3.79643E+004   -1.60799E+004    7.82353E+002    2.18015E+005
            4309    3.76566E+005    2.36189E+005    2.36189E+005    3.48011E+003   -1.98264E+005    4.34453E+005   -1.38020E+004    1.87308E+005    3.43286E+003    2.65623E+003    3.53168E+004   -1.60647E+004   -8.65907E+002    2.16012E+005
            4310    3.64755E+005    2.22617E+005    2.22617E+005   -2.29482E+003   -1.98233E+005    4.20850E+005   -7.36300E+003    1.79360E+005   -2.46550E+003   -5.56243E+002    2.51107E+004   -1.51810E+004    1.83244E+002    2.09478E+005
            4311    3.25268E+005    1.85261E+005   -1.90305E+005    9.26028E+002   -1.90305E+005    3.75566E+005    1.37247E+003   -1.03044E+005    9.19844E+002    9.89683E+001   -5.13621E+003    5.32189E+003   -1.94998E+002    1.87689E+005
            4312    3.73021E+005    2.03930E+005   -2.26621E+005   -6.74693E+002   -2.26621E+005    4.30551E+005    7.78854E+003   -1.64476E+005   -5.92177E+002   -1.16149E+003   -2.16120E+004   -9.07945E+003   -5.33581E+002    2.14838E+005
            4313    3.87375E+005    2.10760E+005   -2.36279E+005    5.12501E+002   -2.36279E+005    4.47039E+005    8.33521E+003   -1.81360E+005    5.98767E+002    5.23700E+002   -2.61281E+004   -1.22376E+004   -5.35491E+001    2.22783E+005
            4314    3.87039E+005    2.03005E+005   -2.43353E+005   -8.51210E+002   -2.43353E+005    4.46357E+005    1.37331E+004   -2.05314E+005   -6.43277E+002   -8.36801E+002   -3.97192E+004   -1.48636E+004   -2.49397E+002    2.21824E+005
            4315    3.83700E+005    2.02245E+005   -2.40253E+005    2.87986E+002   -2.40253E+005    4.42498E+005    1.25734E+004   -2.04020E+005    4.46832E+002    1.21436E+003   -3.93813E+004   -1.48872E+004    1.69826E+002    2.19805E+005
            4316    3.73347E+005    1.92113E+005   -2.38221E+005   -7.63251E+002   -2.38221E+005    4.30335E+005    1.56238E+004   -2.10120E+005   -5.50914E+002   -8.74570E+002   -4.54459E+004   -1.50367E+004    6.66542E+001    2.13470E+005
            4317    3.67184E+005    1.92132E+005   -2.31232E+005    3.67552E+002   -2.31232E+005    4.23364E+005    1.29110E+004   -2.00205E+005    5.09974E+002    4.66277E+002   -3.97093E+004   -1.43481E+004    3.24113E+002    2.10231E+005
            4318    3.29441E+005    1.21400E+005   -2.50969E+005    2.57557E+003   -2.50969E+005    3.72369E+005    4.23314E+004   -2.74615E+005    1.99972E+003   -9.75425E+003   -1.19240E+005    5.10849E+003   -1.23139E+004    1.77563E+005
            4319    3.77604E+005    1.49868E+005   -2.80470E+005   -4.54389E+003   -2.80470E+005    4.30338E+005    4.50488E+004   -2.92760E+005   -4.39466E+003   -7.05035E+003   -1.23702E+005   -1.07070E+004    1.65496E+003    2.06808E+005
            4320    3.89965E+005    1.57413E+005   -2.86547E+005    6.08136E+002   -2.86547E+005    4.43960E+005    4.28422E+004   -3.05908E+005    1.53410E+003   -2.68015E+003   -1.27381E+005   -1.38988E+004   -2.81866E+003    2.12427E+005
            4321    3.91559E+005    1.61714E+005   -2.85544E+005   -4.56016E+003   -2.85544E+005    4.47257E+005    4.27967E+004   -2.94822E+005   -4.09149E+003   -1.12845E+003   -1.23170E+005   -1.66075E+004    1.53950E+003    2.14432E+005
            4322    3.85187E+005    1.57151E+005   -2.81771E+005   -2.10220E+001   -2.81771E+005    4.38922E+005    4.15470E+004   -2.99103E+005    8.12185E+002   -6.37202E+002   -1.24816E+005   -1.63165E+004   -4.91509E+002    2.09736E+005
            4323    3.76076E+005    1.57578E+005   -2.72087E+005   -2.72330E+003   -2.72087E+005    4.29665E+005    3.90772E+004   -2.82264E+005   -2.23449E+003   -5.83673E+002   -1.14414E+005   -1.62286E+004    1.26277E+003    2.06451E+005
            4324    3.66300E+005    1.52607E+005   -2.65318E+005    3.27076E+001   -2.65318E+005    4.17925E+005    3.75596E+004   -2.80122E+005    6.16039E+002   -2.78640E+003   -1.10508E+005   -1.52087E+004    3.47309E+002    2.01246E+005
            4325    3.41619E+005    7.19411E+004   -2.95093E+005    1.35981E+004   -2.95093E+005    3.67034E+005    6.98511E+004   -3.30130E+005    1.20046E+004   -1.46411E+004   -2.06917E+005    7.73228E+003   -2.42581E+004    1.54872E+005
            4326    3.85805E+005    9.43629E+004   -3.32615E+005   -9.06572E+003   -3.32615E+005    4.26978E+005    8.24391E+004   -3.52534E+005   -8.60309E+003   -1.44793E+004   -2.24235E+005   -1.04537E+004    2.10282E+003    1.85508E+005
            4327    3.98210E+005    1.15859E+005   -3.25364E+005    7.33219E+003   -3.25364E+005    4.41223E+005    6.73912E+004   -3.62635E+005    9.16822E+003   -3.13834E+003   -2.08203E+005   -1.32289E+004   -5.28114E+003    1.94282E+005
            4328    3.96193E+005    1.14715E+005   -3.28438E+005   -8.46948E+003   -3.28438E+005    4.43152E+005    7.40640E+004   -3.49040E+005   -7.55100E+003   -4.91379E+003   -2.09727E+005   -1.56849E+004    2.23095E+003    1.95619E+005
            4329    3.90739E+005    1.21629E+005   -3.14221E+005    4.71604E+003   -3.14221E+005    4.35850E+005    6.26252E+004   -3.48000E+005    6.17422E+003    1.00104E+002   -1.94150E+005   -1.53687E+004   -1.10900E+003    1.94092E+005
            4330    3.78307E+005    1.16712E+005   -3.07562E+005   -5.36937E+003   -3.07562E+005    4.24274E+005    6.54063E+004   -3.29407E+005   -4.52107E+003   -3.94944E+003   -1.87748E+005   -1.52372E+004    1.96034E+003    1.90377E+005
            4331    3.67926E+005    1.20319E+005   -2.91855E+005    3.41519E+003   -2.91855E+005    4.12175E+005    5.60402E+004   -3.21982E+005    4.38145E+003   -3.28958E+003   -1.69213E+005   -1.42956E+004    4.26567E+002    1.87878E+005
            4332    3.69330E+005    3.84191E+004   -3.36189E+005    2.76263E+004   -3.36189E+005    3.74608E+005    9.00479E+004   -3.68975E+005    2.65018E+004   -1.49606E+004   -2.81685E+005    9.98891E+003   -3.84521E+004    1.26161E+005
            4333    3.89486E+005    5.44114E+004   -3.65413E+005   -1.58219E+004   -3.65413E+005    4.19824E+005    1.08941E+005   -3.74840E+005   -1.41829E+004   -1.80233E+004   -2.94617E+005   -1.30037E+004    1.95152E+003    1.56631E+005
            4334    4.10826E+005    7.53357E+004   -3.66192E+005    4.79799E+003   -3.66192E+005    4.41528E+005    9.53527E+004   -3.96857E+005    9.17964E+003   -7.29237E+003   -2.87945E+005   -1.53453E+004   -7.37813E+003    1.67579E+005
            4335    4.00263E+005    7.86523E+004   -3.59851E+005   -1.41218E+004   -3.59851E+005    4.38504E+005    9.84403E+004   -3.74910E+005   -1.19265E+004   -7.49351E+003   -2.75901E+005   -1.83195E+004    3.08046E+003    1.71564E+005
            4336    3.99736E+005    8.37059E+004   -3.50759E+005    1.45337E+003   -3.50759E+005    4.34465E+005    8.85332E+004   -3.79990E+005    4.70508E+003   -3.52141E+003   -2.66783E+005   -1.74103E+004   -1.51521E+003    1.70619E+005
            4337    3.79527E+005    8.30618E+004   -3.33919E+005   -8.65707E+003   -3.33919E+005    4.16981E+005    8.65048E+004   -3.53277E+005   -6.84236E+003   -6.56056E+003   -2.46112E+005   -1.69419E+004    2.67151E+003    1.69155E+005
            4338    3.71942E+005    8.43009E+004   -3.22122E+005    1.32177E+003   -3.22122E+005    4.06423E+005    7.88331E+004   -3.50195E+005    3.32544E+003   -8.09859E+003   -2.31726E+005   -1.53339E+004    4.77989E+002    1.68266E+005
            4339    3.98260E+005    7.04458E+004   -3.49949E+005    2.16846E+004   -3.49949E+005    4.20395E+005    8.59397E+004   -3.91459E+005    6.22068E+004   -2.70666E+003   -3.17319E+005    1.86686E+004   -5.41735E+004    9.15487E+004
            4340    3.97332E+005    2.17224E+004   -3.91717E+005   -1.27365E+004   -3.91717E+005    4.13439E+005    1.27577E+005   -3.93949E+005   -1.08998E+004   -2.08838E+004   -3.50947E+005   -6.74494E+003   -4.31765E+003    1.22941E+005
            4341    4.21412E+005    5.05558E+004   -3.86907E+005    1.63735E+004   -3.86907E+005    4.37463E+005    1.06659E+005   -4.18276E+005    2.37098E+004   -5.70914E+003   -3.37978E+005   -1.07916E+004   -1.17794E+004    1.36357E+005
            4342    4.08978E+005    4.48929E+004   -3.90148E+005   -1.35110E+004   -3.90148E+005    4.35040E+005    1.19589E+005   -3.99434E+005   -1.05196E+004   -1.00578E+004   -3.38188E+005   -1.40953E+004    5.49238E+002    1.40414E+005
            4343    4.05419E+005    5.54328E+004   -3.71639E+005    7.94373E+003   -3.71639E+005    4.27072E+005    1.02754E+005   -3.99089E+005    1.26627E+004   -4.05879E+003   -3.16866E+005   -1.40777E+004   -3.03009E+003    1.41872E+005
            4344    3.87366E+005    5.05008E+004   -3.63142E+005   -8.91984E+003   -3.63142E+005    4.13643E+005    1.07187E+005   -3.76907E+005   -6.53378E+003   -9.98548E+003   -3.05042E+005   -1.38034E+004    2.11750E+003    1.43037E+005
            4345    3.74078E+005    5.46873E+004   -3.41672E+005    5.19805E+003   -3.41672E+005    3.96359E+005    9.39288E+004   -3.66604E+005    8.03625E+003   -9.92415E+003   -2.79899E+005   -1.27116E+004    6.12609E+001    1.43052E+005
            4346    4.47166E+005    1.23700E+005   -3.67999E+005    1.43464E+004   -3.67999E+005    4.91700E+005    7.66509E+004   -4.15453E+005    1.07595E+005    4.33877E+003   -3.41886E+005    2.64973E+004   -8.05415E+004    6.35268E+004
            4347    3.96734E+005    7.33454E+003   -3.99341E+005   -1.33583E+004   -3.99341E+005    4.06676E+005    1.35122E+005   -3.95518E+005   -1.03835E+004   -1.70846E+004   -3.77897E+005   -4.67839E+003   -1.34057E+004    8.97125E+004
            4348    4.35214E+005    3.85279E+004   -4.12699E+005    4.50604E+003   -4.12699E+005    4.51226E+005    1.23222E+005   -4.32207E+005    2.46988E+004   -7.20702E+003   -3.87156E+005   -1.26228E+004   -1.81088E+004    1.00743E+005
            4349    4.09861E+005    2.42032E+004   -4.05944E+005   -1.99420E+004   -4.05944E+005    4.30147E+005    1.33894E+005   -4.04461E+005   -1.12472E+004   -1.33860E+004   -3.77049E+005   -1.76129E+004   -2.17857E+003    1.06471E+005
            4350    4.17803E+005    3.41337E+004   -4.01112E+005   -3.26549E+003   -4.01112E+005    4.35246E+005    1.23415E+005   -4.14012E+005    9.82530E+003   -9.67264E+003   -3.70397E+005   -1.72174E+004   -4.66884E+003    1.09651E+005
            4351    3.88479E+005    2.60930E+004   -3.80493E+005   -1.30912E+004   -3.80493E+005    4.06586E+005    1.22497E+005   -3.83996E+005   -5.86856E+003   -1.50929E+004   -3.46530E+005   -1.62322E+004    9.09651E+002    1.11251E+005
            4352    3.82867E+005    2.90842E+004   -3.68272E+005   -1.75864E+003   -3.68272E+005    3.97356E+005    1.13649E+005   -3.80057E+005    6.07225E+003   -1.69173E+004   -3.30101E+005   -1.39414E+004   -6.53345E+002    1.15745E+005
            4353    4.95176E+005    1.87057E+005   -3.70241E+005    1.91490E+004   -3.70241E+005    5.57298E+005    5.46781E+004   -4.23635E+005    1.61258E+005    1.99367E+004   -3.45229E+005    4.42418E+004   -9.74035E+004    4.45004E+004
            4354    4.50155E+005    8.02743E+004   -4.02605E+005    5.44809E+003   -4.02605E+005    4.82879E+005    1.05627E+005   -4.35832E+005    6.35061E+004    8.57707E+003   -3.88965E+005    3.20329E+004   -5.50879E+004    5.02094E+004
            4355    4.38063E+005    4.81770E+004   -4.05318E+005    1.54816E+004   -4.05318E+005    4.53495E+005    1.13886E+005   -4.35306E+005    4.35213E+004    8.68001E+003   -3.93861E+005    1.16830E+004   -3.77548E+004    5.75494E+004
            4356    4.32056E+005    1.53832E+004   -4.18292E+005    1.21255E+004   -4.18292E+005    4.33675E+005    1.30261E+005   -4.32028E+005    1.36206E+004    3.51247E+003   -4.07916E+005    4.51656E+003   -2.16710E+004    6.23627E+004
            4357    4.14885E+005    1.57739E+004   -4.03578E+005    6.68994E+003   -4.03578E+005    4.19352E+005    1.27038E+005   -4.14661E+005    1.26879E+004   -1.17531E+003   -3.92627E+005   -1.93235E+003   -1.39317E+004    6.50192E+004
            4358    4.02819E+005    8.27418E+003   -3.99022E+005   -8.32745E+002   -3.99022E+005    4.07296E+005    1.30527E+005   -4.02588E+005    1.98563E+003   -9.00381E+003   -3.84562E+005   -2.97867E+003   -7.03132E+003    7.48259E+004
            4359    3.84314E+005    1.03701E+004   -3.78505E+005    1.07963E+003   -3.78505E+005    3.88875E+005    1.22352E+005   -3.84062E+005    5.92928E+003   -1.22735E+004   -3.60711E+005   -3.80724E+003   -4.28366E+003    8.06560E+004
            4360    4.16111E+005    5.34137E+004   -3.89291E+005   -6.20415E+003   -3.89291E+005    4.42705E+005    1.14027E+005   -4.06336E+005    5.00914E+004   -9.76543E+003   -3.82407E+005    1.41206E+004   -1.87556E+004    4.74167E+004
            4361    4.39139E+005    7.16360E+004   -3.99283E+005   -9.75381E+002   -3.99283E+005    4.70919E+005    1.09541E+005   -4.25317E+005    6.66868E+004   -8.60762E+002   -3.94448E+005    1.68131E+004   -2.94806E+004    3.33064E+004
            4362    4.73019E+005    9.68526E+004   -4.14925E+005    6.22170E+003   -4.14925E+005    5.11777E+005    1.03950E+005   -4.52862E+005    8.95942E+004    7.83867E+003   -4.09283E+005    2.06955E+004   -4.15752E+004    2.88673E+004
            4363    4.94041E+005    1.30672E+005   -4.10828E+005    1.53573E+004   -4.10828E+005    5.41500E+005    8.82662E+004   -4.62284E+005    1.20386E+005    1.82722E+004   -4.03456E+005    2.49686E+004   -5.53317E+004    2.36323E+004
            4364    5.39500E+005    1.73599E+005   -4.24963E+005    2.38271E+004   -4.24963E+005    5.98562E+005    7.58459E+004   -4.89349E+005    1.59387E+005    2.63841E+004   -4.13308E+005    3.17807E+004   -7.20762E+004    3.13388E+004
            4365    5.51722E+005    2.22713E+005   -4.01628E+005    2.03001E+004   -4.01628E+005    6.24341E+005    5.28716E+004   -4.56196E+005    2.05102E+005    2.04524E+004   -3.84170E+005    3.77640E+004   -8.70398E+004    4.02635E+004
            4366    6.13515E+005    2.93495E+005   -4.08340E+005    2.60668E+004   -4.08340E+005    7.01835E+005    2.95927E+004   -4.51351E+005    2.72954E+005    2.51527E+004   -3.86884E+005    4.06062E+004   -1.04809E+005    4.16958E+004
            4367    2.99664E+005    2.72725E+005    2.72725E+005    6.73272E+003   -5.19345E+004    3.24659E+005   -7.58409E+004    2.86312E+005    6.54028E+003    4.33713E+004    1.77611E+005   -1.74490E+003    3.78030E+003    1.47677E+005
            4368    3.11519E+005    2.79251E+005    2.79251E+005    1.58368E+004   -6.45970E+004    3.43848E+005   -7.68303E+004    2.86727E+005    1.53740E+004    5.83410E+004    1.56776E+005   -4.92126E+003    3.57771E+003    1.64487E+005
            4369    3.35433E+005    2.79114E+005    2.79114E+005    1.88750E+004   -9.94452E+004    3.78559E+005   -6.61811E+004    2.82406E+005    1.80762E+004    5.11446E+004    1.29323E+005   -9.32918E+003    4.13565E+003    1.84763E+005
            4370    3.52805E+005    2.72167E+005    2.72167E+005    1.91578E+004   -1.30854E+005    4.03021E+005   -5.34901E+004    2.65352E+005    1.83194E+004    4.17660E+004    1.00385E+005   -1.29283E+004    3.45283E+003    1.98808E+005
            4371    3.50073E+005    2.64697E+005    2.64697E+005   -2.04266E+001   -1.32227E+005    3.96924E+005   -4.41501E+004    2.85191E+005   -2.03034E+002    3.18753E+004    1.00778E+005   -1.01988E+004   -1.04313E+003    1.95149E+005
            4372    3.45993E+005    2.60110E+005    2.60110E+005   -2.27699E+003   -1.31997E+005    3.92107E+005   -4.19452E+004    2.82958E+005   -2.13893E+003    2.44428E+004    1.03532E+005   -9.36940E+003   -4.00841E+003    1.91777E+005
            4373    3.45381E+005    2.62604E+005    2.62604E+005    1.34769E+003   -1.28977E+005    3.91581E+005   -4.49916E+004    2.81495E+005    1.30435E+003    2.18692E+004    1.11801E+005   -1.05487E+004   -2.73430E+003    1.90238E+005
            4374    3.44231E+005    2.61959E+005    2.61959E+005   -2.72772E+003   -1.27192E+005    3.89152E+005   -4.40132E+004    2.86615E+005   -2.89852E+003    1.63474E+004    1.18591E+005   -1.13433E+004   -2.38063E+003    1.87350E+005
            4375    3.46989E+005    2.69369E+005    2.69369E+005    2.97729E+003   -1.23013E+005    3.92382E+005   -4.97778E+004    2.88341E+005    2.72046E+003    1.63034E+004    1.30309E+005   -1.24987E+004   -2.43589E+003    1.87247E+005
            4376    3.50552E+005    2.72045E+005    2.72045E+005   -2.96175E+003   -1.22684E+005    3.94729E+005   -4.87999E+004    2.99077E+005   -3.56252E+003    9.33897E+003    1.40623E+005   -1.34275E+004   -1.26323E+003    1.85513E+005
            4377    3.59273E+005    2.85532E+005    2.85532E+005    5.18940E+003   -1.19466E+005    4.04998E+005   -5.70851E+004    3.04584E+005    4.62851E+003    1.06901E+004    1.55937E+005   -1.45805E+004   -2.30286E+003    1.88334E+005
            4378    3.33043E+005    2.71960E+005    2.71960E+005    8.86207E+002   -9.98118E+004    3.71771E+005   -5.76780E+004    2.95769E+005    5.90471E+002    3.96212E+004    1.32822E+005   -9.12183E+003   -9.08424E+002    1.79646E+005
            4379    3.37376E+005    2.73566E+005    2.73566E+005   -3.00185E+003   -1.02321E+005    3.75887E+005   -5.60811E+004    3.01760E+005   -2.97229E+003    3.14508E+004    1.39765E+005   -8.61287E+003   -3.84691E+003    1.79732E+005
            4380    3.35044E+005    2.75641E+005    2.75641E+005    4.12475E+002   -9.74330E+004    3.73074E+005   -5.95403E+004    3.00287E+005    3.04172E+002    2.78283E+004    1.50488E+005   -9.24722E+003   -3.13550E+003    1.75869E+005
            4381    3.38785E+005    2.82414E+005    2.82414E+005   -3.17070E+003   -9.19090E+004    3.74323E+005   -6.24448E+004    3.10985E+005   -3.48265E+003    2.50936E+004    1.65723E+005   -9.70613E+003   -2.44827E+003    1.73073E+005
            4382    3.39215E+005    2.87518E+005    2.87518E+005    1.70974E+003   -8.73389E+004    3.74857E+005   -6.72962E+004    3.11247E+005    1.32845E+003    1.99791E+004    1.80581E+005   -1.05610E+004   -2.93735E+003    1.68889E+005
            4383    3.49945E+005    3.00011E+005    3.00011E+005   -3.05887E+003   -8.29824E+004    3.82993E+005   -7.13232E+004    3.28455E+005   -3.93574E+003    1.76468E+004    2.00259E+005   -1.14071E+004   -1.45059E+003    1.67641E+005
            4384    3.55004E+005    3.08909E+005    3.08909E+005    3.99452E+003   -8.08211E+004    3.89730E+005   -7.73607E+004    3.31036E+005    3.11943E+003    1.12284E+004    2.17734E+005   -1.25265E+004   -2.73628E+003    1.64469E+005
            4385    3.22582E+005    2.78272E+005    2.78272E+005    1.73683E+003   -7.61108E+004    3.54382E+005   -6.79659E+004    3.00337E+005    1.39674E+003    3.98603E+004    1.62641E+005   -7.45586E+003   -6.80153E+002    1.65946E+005
            4386    3.27926E+005    2.82475E+005    2.82475E+005   -3.49289E+003   -7.54557E+004    3.57931E+005   -6.78421E+004    3.09403E+005   -3.59771E+003    3.61068E+004    1.71017E+005   -7.74458E+003   -3.42657E+003    1.65516E+005
            4387    3.26749E+005    2.89504E+005    2.89504E+005    1.47187E+003   -6.55646E+004    3.55068E+005   -7.51370E+004    3.10707E+005    1.24340E+003    3.67957E+004    1.87372E+005   -8.84401E+003   -3.75708E+003    1.60413E+005
            4388    3.29798E+005    2.95284E+005    2.95284E+005   -4.04331E+003   -5.82639E+004    3.53548E+005   -7.76590E+004    3.19538E+005   -4.84211E+003    3.16831E+004    2.06136E+005   -9.86222E+003   -2.63841E+003    1.53095E+005
            4389    3.32634E+005    3.07881E+005    3.07881E+005    3.52240E+003   -4.72019E+004    3.55082E+005   -8.80670E+004    3.23761E+005    2.36390E+003    3.20893E+004    2.29748E+005   -1.10572E+004   -3.26276E+003    1.46536E+005
            4390    3.46240E+005    3.19362E+005    3.19362E+005   -3.51059E+003   -4.62740E+004    3.65636E+005   -8.98591E+004    3.40223E+005   -6.05481E+003    2.22560E+004    2.53376E+005   -1.21328E+004   -1.45899E+003    1.39849E+005
            4391    3.57685E+005    3.38952E+005    3.38952E+005    7.02592E+003   -3.98665E+004    3.78818E+005   -1.02037E+005    3.50670E+005    4.25285E+003    2.29744E+004    2.78884E+005   -1.36486E+004   -2.75813E+003    1.37508E+005
            4392    3.19027E+005    2.83571E+005    2.83571E+005    5.69201E+002   -6.21616E+004    3.45733E+005   -7.39930E+004    3.04684E+005    3.70904E+002    3.80486E+004    1.83560E+005   -3.94806E+003    5.22140E+002    1.56690E+005
            4393    3.19595E+005    2.87643E+005    2.87643E+005   -4.48095E+003   -5.37101E+004    3.41353E+005   -7.64840E+004    3.10893E+005   -4.56948E+003    3.87135E+004    1.95308E+005   -3.26838E+003   -9.07772E+002    1.51584E+005
            4394    3.16301E+005    2.93504E+005    2.93504E+005   -1.75572E+003   -4.03050E+004    3.33809E+005   -8.38145E+004    3.10951E+005   -1.74175E+003    3.87700E+004    2.14415E+005   -2.75256E+003   -2.66998E+003    1.41885E+005
            4395    3.20334E+005    3.05744E+005    3.05744E+005   -3.47442E+003   -2.46557E+004    3.30399E+005   -9.25379E+004    3.18753E+005   -3.63892E+003    3.79168E+004    2.43336E+005   -3.25343E+003   -2.04297E+003    1.29241E+005
            4396    3.29071E+005    3.20324E+005    3.20324E+005    1.67440E+003   -1.82625E+004    3.38586E+005   -1.01245E+005    3.27708E+005    1.25302E+003    3.02754E+004    2.72207E+005   -4.28004E+003   -2.49353E+003    1.18067E+005
            4397    3.47360E+005    3.39907E+005    3.39907E+005   -4.19861E+002   -1.40828E+004    3.53990E+005   -1.08468E+005    3.46754E+005   -2.57995E+003    2.66055E+004    3.01379E+005   -5.46388E+003   -4.75843E+002    1.09844E+005
            4398    3.61459E+005    3.57348E+005    3.57348E+005    6.17105E+003   -1.35827E+004    3.70931E+005   -1.16646E+005    3.60242E+005    4.02500E+003    1.82519E+004    3.27660E+005   -6.61968E+003   -6.29788E+002    1.00304E+005
            4399    3.86870E+005    3.69863E+005    3.69863E+005    8.25234E+003   -3.80913E+004    4.07955E+005   -1.13341E+005    3.80550E+005   -3.60822E+004    1.76897E+004    3.58417E+005    1.05014E+004    8.57977E+003    6.27399E+004
            4400    3.64612E+005    3.48948E+005    3.48948E+005    6.13731E+003   -3.41240E+004    3.83072E+005   -1.06987E+005    3.59560E+005   -3.20438E+004    2.13231E+004    3.31682E+005    9.55265E+003    2.22814E+003    7.50995E+004
            4401    3.42077E+005    3.29270E+005    3.29270E+005    8.56800E+003   -3.07787E+004    3.60048E+005   -1.02353E+005    3.36929E+005   -2.84200E+004    3.31729E+004    3.02306E+005    9.39218E+003   -1.16100E+003    8.93393E+004
            4402    3.25048E+005    3.10362E+005    3.10362E+005    1.62059E+002   -2.77349E+004    3.38097E+005   -9.42631E+004    3.22338E+005   -2.50324E+004    3.86390E+004    2.69183E+005    8.28181E+003   -1.44097E+003    1.05768E+005
            4403    3.12276E+005    2.95731E+005    2.95731E+005   -9.99793E+003   -2.27038E+004    3.18435E+005   -8.76763E+004    3.11693E+005   -1.83015E+004    4.56028E+004    2.35728E+005    6.61984E+003   -2.12375E+002    1.22479E+005
            4404    3.14474E+005    2.85507E+005    2.85507E+005   -1.36949E+004   -4.22870E+004    3.27794E+005   -7.65084E+004    3.11530E+005   -1.38083E+004    3.87277E+004    2.04606E+005    3.56706E+003    2.00975E+003    1.41249E+005
            4405    3.12527E+005    2.77133E+005    2.77133E+005   -5.33608E+003   -5.86050E+004    3.35738E+005   -7.10639E+004    3.02059E+005   -5.30703E+003    2.89346E+004    1.89564E+005    1.05207E+003    3.33064E+003    1.47379E+005
            4406    3.66527E+005    6.30714E+003   -3.63761E+005   -8.80626E+002   -3.63761E+005    3.70068E+005    1.19445E+005   -3.66369E+005    1.10199E+003   -2.02060E+004   -3.39231E+005   -3.05901E+003   -9.96181E+002    9.18018E+004
            4407    3.56564E+005    2.60785E+004   -3.45749E+005   -6.71385E+003   -3.45749E+005    3.71827E+005    1.08795E+005   -3.53147E+005   -2.77645E+003   -2.20131E+004   -3.01594E+005   -1.22150E+004    1.95160E+003    1.19394E+005
            4408    3.56610E+005    5.26066E+004   -3.29326E+005   -5.06934E+003   -3.29326E+005    3.81933E+005    9.39296E+004   -3.45883E+005   -3.63621E+003   -1.78309E+004   -2.60322E+005   -1.17529E+004    2.70507E+003    1.46389E+005
            4409    3.54438E+005    8.59641E+004   -3.04975E+005   -4.61921E+003   -3.04975E+005    3.90939E+005    7.45434E+004   -3.26838E+005   -3.55582E+003   -1.23422E+004   -2.07732E+005   -1.41741E+004    2.59520E+003    1.68357E+005
            4410    3.56939E+005    1.18183E+005   -2.83602E+005   -3.13430E+003   -2.83602E+005    4.01785E+005    5.61843E+004   -3.05096E+005   -2.59239E+003   -8.86000E+003   -1.57101E+005   -1.35457E+004    1.98000E+003    1.86100E+005
            4411    3.58384E+005    1.55129E+005   -2.54886E+005   -1.34774E+003   -2.54886E+005    4.10015E+005    3.37017E+004   -2.63247E+005   -1.02519E+003   -3.71082E+003   -9.63692E+004   -1.43891E+004    1.21415E+003    1.99142E+005
            4412    3.58193E+005    1.85684E+005   -2.27257E+005   -4.92952E+002   -2.27257E+005    4.12941E+005    1.40220E+004   -1.98130E+005   -3.55402E+002   -2.19433E+003   -3.95164E+004   -1.37999E+004    2.91664E+002    2.05155E+005
            4413    3.61120E+005    2.23069E+005    2.23069E+005    2.23402E+003   -1.93669E+005    4.16737E+005   -1.05447E+004    1.69494E+005    2.20627E+003    3.00669E+003    2.64211E+004   -1.44493E+004   -6.42852E+002    2.07535E+005
            4414    3.57118E+005    2.49803E+005    2.49803E+005    2.07295E+003   -1.59554E+005    4.09357E+005   -3.07738E+004    2.52781E+005    1.88098E+003    3.22159E+003    8.72189E+004   -1.36252E+004   -1.49898E+003    1.99833E+005
            4415    3.46883E+005    9.34227E+003   -3.40359E+005    3.63672E+003   -3.40359E+005    3.49701E+005    1.09127E+005   -3.46778E+005    5.03017E+003   -2.40462E+004   -3.08364E+005   -2.68719E+003    3.53882E+002    1.00594E+005
            4416    3.46663E+005    3.07069E+004   -3.29841E+005    1.02968E+003   -3.29841E+005    3.60548E+005    9.93682E+004   -3.43788E+005    4.40802E+003   -2.69772E+004   -2.75535E+005   -1.08101E+004    1.10270E+003    1.28133E+005
            4417    3.44833E+005    5.99531E+004   -3.09146E+005    4.76292E+003   -3.09146E+005    3.69100E+005    8.14768E+004   -3.34680E+005    6.03749E+003   -1.96380E+004   -2.30830E+005   -1.05791E+004    1.54321E+003    1.50425E+005
            4418    3.48607E+005    9.05170E+004   -2.93942E+005    1.58528E+003   -2.93942E+005    3.84459E+005    6.72800E+004   -3.21566E+005    2.53253E+003   -1.62918E+004   -1.88081E+005   -1.28288E+004    1.52653E+003    1.71199E+005
            4419    3.50356E+005    1.25189E+005   -2.69927E+005    2.87660E+003   -2.69927E+005    3.95116E+005    4.72873E+004   -2.96269E+005    3.34423E+003   -9.60133E+003   -1.35605E+005   -1.24712E+004    1.30170E+003    1.86728E+005
            4420    3.52738E+005    1.55313E+005   -2.48389E+005    2.87814E+002   -2.48389E+005    4.03702E+005    3.09294E+004   -2.57471E+005    5.76938E+002   -6.73054E+003   -8.66347E+004   -1.33139E+004    8.23084E+002    1.97373E+005
            4421    3.55363E+005    1.89647E+005   -2.20288E+005    4.21325E+002   -2.20288E+005    4.09935E+005    1.00730E+004   -1.81186E+005    4.89395E+002   -1.01697E+003   -2.96914E+004   -1.28741E+004    4.11070E+002    2.04057E+005
            4422    3.53874E+005    2.16452E+005    2.16452E+005   -1.62888E+003   -1.91849E+005    4.08301E+005   -7.65805E+003    1.73498E+005   -1.71281E+003    7.56682E+002    2.39303E+004   -1.34428E+004   -2.10752E+002    2.03375E+005
            4423    3.55449E+005    2.48721E+005    2.48721E+005   -1.85173E+003   -1.58086E+005    4.06807E+005   -2.95945E+004    2.59421E+005   -2.12497E+003    6.95705E+003    8.39514E+004   -1.26692E+004   -6.19808E+002    1.99292E+005
            4424    3.30157E+005    1.21130E+004   -3.22988E+005    1.99275E+003   -3.22988E+005    3.35101E+005    1.02961E+005   -3.29808E+005    2.05206E+003   -3.28514E+004   -2.78083E+005   -1.85616E+003    2.23048E+003    1.14109E+005
            4425    3.28470E+005    3.58048E+004   -3.10171E+005   -2.57913E+003   -3.10171E+005    3.45976E+005    9.23152E+004   -3.23367E+005   -1.21580E+003   -3.21959E+004   -2.43534E+005   -9.75191E+003    2.90995E+003    1.35906E+005
            4426    3.35271E+005    6.55162E+004   -2.98407E+005   -2.09236E+003   -2.98407E+005    3.63923E+005    7.83276E+004   -3.19389E+005   -1.59663E+003   -2.69681E+004   -2.06418E+005   -9.72855E+003    3.18136E+003    1.57790E+005
            4427    3.40016E+005    9.84602E+004   -2.80553E+005   -2.31606E+003   -2.80553E+005    3.79013E+005    6.14696E+004   -3.03588E+005   -1.91343E+003   -1.97411E+004   -1.62754E+005   -1.18779E+004    2.78335E+003    1.74971E+005
            4428    3.46459E+005    1.29251E+005   -2.63555E+005   -1.49292E+003   -2.63555E+005    3.92806E+005    4.52656E+004   -2.82359E+005   -1.28894E+003   -1.44939E+004   -1.20014E+005   -1.16469E+004    2.08742E+003    1.88778E+005
            4429    3.50834E+005    1.62273E+005   -2.40392E+005   -5.85074E+002   -2.40392E+005    4.02665E+005    2.62350E+004   -2.40895E+005   -4.65661E+002   -7.11757E+003   -7.11217E+004   -1.24163E+004    1.26690E+003    1.98369E+005
            4430    3.51971E+005    1.89196E+005   -2.16919E+005   -1.90239E+002   -2.16919E+005    4.06115E+005    9.30463E+003   -1.71801E+005   -1.44362E+002   -3.10090E+003   -2.46686E+004   -1.20952E+004    3.48240E+002    2.02408E+005
            4431    3.53811E+005    2.20046E+005    2.20046E+005    1.42277E+003   -1.88156E+005    4.08202E+005   -1.11042E+004    1.75889E+005    1.40116E+003    4.23398E+003    2.76775E+004   -1.25793E+004   -6.37837E+002    2.03374E+005
            4432    3.49270E+005    2.42229E+005    2.42229E+005    1.09703E+003   -1.58303E+005    4.00532E+005   -2.83408E+004    2.44869E+005    9.98000E+002    7.48178E+003    7.65427E+004   -1.19372E+004   -1.48356E+003    1.96889E+005
            4433    3.19190E+005    2.28155E+004   -3.04652E+005    5.56081E+003   -3.04652E+005    3.27468E+005    9.20920E+004   -3.18139E+005    5.54187E+003   -3.69007E+004   -2.44917E+005   -1.53138E+003    2.42148E+003    1.26434E+005
            4434    3.26019E+005    4.68430E+004   -2.98987E+005    2.72955E+003   -2.98987E+005    3.45830E+005    8.31381E+004   -3.19201E+005    3.53553E+003   -3.68142E+004   -2.16136E+005   -8.77085E+003    2.55694E+003    1.47217E+005
            4435    3.32912E+005    7.80733E+004   -2.85415E+005    4.66907E+003   -2.85415E+005    3.63488E+005    6.75575E+004   -3.13920E+005    5.00693E+003   -2.81981E+004   -1.79481E+005   -8.93451E+003    2.64381E+003    1.64881E+005
            4436    3.41242E+005    1.07752E+005   -2.73831E+005    2.05668E+003   -2.73831E+005    3.81584E+005    5.46741E+004   -3.00969E+005    2.29573E+003   -2.29428E+004   -1.43375E+005   -1.08008E+004    2.61527E+003    1.80642E+005
            4437    3.47296E+005    1.39672E+005   -2.55228E+005    2.67627E+003   -2.55228E+005    3.94901E+005    3.76267E+004   -2.75854E+005    2.77407E+003   -1.44891E+004   -1.01165E+005   -1.07109E+004    2.07406E+003    1.92311E+005
            4438    3.51368E+005    1.66788E+005   -2.36848E+005    5.75722E+002   -2.36848E+005    4.03636E+005    2.31613E+004   -2.35175E+005    6.30039E+002   -9.28840E+003   -6.08254E+004   -1.13856E+004    1.28331E+003    1.99833E+005
            4439    3.54279E+005    1.95957E+005   -2.12999E+005    4.16992E+002   -2.12999E+005    4.08956E+005    5.54170E+003   -1.49817E+005    4.25826E+002   -1.35622E+003   -1.56947E+004   -1.11708E+004    3.60457E+002    2.04046E+005
            4440    3.52255E+005    2.18535E+005    2.18535E+005   -1.27706E+003   -1.87758E+005    4.06293E+005   -9.83334E+003    1.83563E+005   -1.28885E+003    3.23016E+003    2.75587E+004   -1.15319E+004   -7.18587E+002    2.02452E+005
            4441    3.51531E+005    2.43910E+005    2.43910E+005   -1.74118E+003   -1.58764E+005    4.02674E+005   -2.78015E+004    2.52404E+005   -1.81188E+003    1.11747E+004    7.40418E+004   -1.10090E+004   -1.48584E+003    1.98550E+005
            4442    3.15759E+005    3.57780E+004   -2.95159E+005    2.83879E+003   -2.95159E+005    3.30937E+005    8.55141E+004   -3.11858E+005    2.81678E+003   -4.25035E+004   -2.16855E+005   -1.48260E+003    2.20452E+003    1.40627E+005
            4443    3.22733E+005    6.04775E+004   -2.88434E+005   -6.10592E+002   -2.88434E+005    3.48911E+005    7.61889E+004   -3.09321E+005   -4.16063E+002   -3.88001E+004   -1.89351E+005   -7.79944E+003    3.48890E+003    1.57077E+005
            4444    3.33247E+005    8.82730E+004   -2.80436E+005   -7.21033E+002   -2.80436E+005    3.68709E+005    6.42946E+004   -3.04745E+005   -6.30446E+002   -3.28935E+004   -1.59360E+005   -8.58670E+003    3.30094E+003    1.72901E+005
            4445    3.42129E+005    1.18605E+005   -2.67234E+005   -8.39834E+002   -2.67234E+005    3.85838E+005    4.98229E+004   -2.89306E+005   -7.95205E+002   -2.46227E+004   -1.24051E+005   -1.00949E+004    3.02311E+003    1.86097E+005
            4446    3.49636E+005    1.46235E+005   -2.52877E+005   -6.17884E+002   -2.52877E+005    3.99112E+005    3.57530E+004   -2.65629E+005   -5.99638E+002   -1.79427E+004   -8.87166E+004   -1.01910E+004    2.14027E+003    1.96115E+005
            4447    3.55106E+005    1.75218E+005   -2.33451E+005   -9.62641E+001   -2.33451E+005    4.08669E+005    1.94430E+004   -2.21590E+005   -9.47941E+001   -8.98088E+003   -4.92533E+004   -1.06283E+004    1.27593E+003    2.03058E+005
            4448    3.56257E+005    1.98926E+005   -2.12373E+005   -7.70682E+001   -2.12373E+005    4.11299E+005    4.50782E+003   -1.36251E+005   -7.61987E+001   -2.46436E+003   -1.09829E+004   -1.05380E+004    2.71425E+002    2.05335E+005
            4449    3.56435E+005    2.24138E+005    2.24138E+005    7.57559E+002   -1.86920E+005    4.11059E+005   -1.26585E+004    1.89278E+005    7.56410E+002    6.83566E+003    3.03834E+004   -1.07450E+004   -7.66656E+002    2.04909E+005
            4450    3.50689E+005    2.42461E+005    2.42461E+005    4.08624E+002   -1.59706E+005    4.02168E+005   -2.77213E+004    2.45743E+005    3.94911E+002    1.29014E+004    6.98675E+004   -1.04513E+004   -1.70727E+003    1.98773E+005
            4451    3.17819E+005    5.16382E+004   -2.87092E+005    4.56453E+003   -2.87092E+005    3.38730E+005    7.69630E+004   -3.09830E+005    4.62683E+003   -4.20586E+004   -1.93457E+005   -2.41832E+003    4.26583E+002    1.51461E+005
            4452    3.27521E+005    7.28434E+004   -2.84003E+005    2.88977E+003   -2.84003E+005    3.56846E+005    6.94232E+004   -3.10037E+005    3.00228E+003   -3.99549E+004   -1.71317E+005   -6.97602E+003    2.84451E+003    1.65686E+005
            4453    3.37036E+005    9.98595E+004   -2.74857E+005    3.51743E+003   -2.74857E+005    3.74716E+005    5.71599E+004   -3.03661E+005    3.51396E+003   -3.30537E+004   -1.41940E+005   -8.22848E+003    3.52829E+003    1.79051E+005
            4454    3.46732E+005    1.26610E+005   -2.65165E+005    2.19081E+003   -2.65165E+005    3.91775E+005    4.54548E+004   -2.89712E+005    2.07562E+003   -2.69652E+004   -1.11475E+005   -9.19521E+003    3.95315E+003    1.91035E+005
            4455    3.54804E+005    1.55484E+005   -2.50229E+005    1.95900E+003   -2.50229E+005    4.05713E+005    3.09289E+004   -2.62802E+005    1.83642E+003   -1.82569E+004   -7.63661E+004   -9.52149E+003    3.15204E+003    2.00529E+005
            4456    3.60114E+005    1.80827E+005   -2.33815E+005    6.37550E+002   -2.33815E+005    4.14642E+005    1.74500E+004   -2.18805E+005    5.57875E+002   -1.08225E+004   -4.20854E+004   -9.85990E+003    1.85439E+003    2.06492E+005
            4457    3.63107E+005    2.06452E+005   -2.12809E+005    1.55838E+002   -2.12809E+005    4.19262E+005    2.06712E+003   -1.09662E+005    1.54719E+002   -8.75170E+002   -5.48091E+003   -9.88232E+003    1.44881E+002    2.09385E+005
            4458    3.60388E+005    2.26322E+005    2.26322E+005   -9.86227E+002   -1.89206E+005    4.15527E+005   -1.20434E+004    1.96483E+005   -9.04265E+002    6.98309E+003    3.00512E+004   -9.91691E+003   -1.59902E+003    2.07204E+005
            4459    3.56715E+005    2.46575E+005    2.46575E+005   -1.46161E+003   -1.62232E+005    4.08807E+005   -2.76272E+004    2.53675E+005   -1.33725E+003    1.69365E+004    6.72824E+004   -9.60769E+003   -2.94163E+003    2.02612E+005
            4460    3.17824E+005    6.04002E+004   -2.84403E+005   -3.16554E+003   -2.84403E+005    3.44803E+005    7.57228E+004   -3.03023E+005   -2.86187E+003   -4.40034E+004   -1.80303E+005   -3.20390E+003   -3.13899E+003    1.58192E+005
            4461    3.26799E+005    7.96499E+004   -2.80551E+005   -3.03981E+003   -2.80551E+005    3.60201E+005    6.79803E+004   -3.01886E+005   -2.60401E+003   -4.12495E+004   -1.60087E+005   -7.21769E+003   -7.10017E+002    1.69736E+005
            4462    3.36040E+005    1.01366E+005   -2.74277E+005   -2.24370E+003   -2.74277E+005    3.75643E+005    5.83850E+004   -2.96778E+005   -1.85086E+003   -3.83385E+004   -1.34966E+005   -9.25370E+003    1.05190E+002    1.81174E+005
            4463    3.48101E+005    1.29427E+005   -2.65011E+005   -7.96075E+002   -2.65011E+005    3.94438E+005    4.54602E+004   -2.85011E+005   -5.51053E+002   -3.22550E+004   -1.03574E+005   -1.03180E+004    6.40267E+002    1.93650E+005
            4464    3.59477E+005    1.57994E+005   -2.53446E+005   -1.78436E+002   -2.53446E+005    4.11441E+005    3.18768E+004   -2.62088E+005   -5.39224E+001   -2.35106E+004   -7.20658E+004   -1.06637E+004    7.38994E+002    2.03988E+005
            4465    3.66278E+005    1.86509E+005   -2.35461E+005    3.34835E+002   -2.35461E+005    4.21970E+005    1.62056E+004   -2.14901E+005    3.76058E+002   -1.14985E+004   -3.74943E+004   -1.06749E+004    5.58917E+002    2.10310E+005
            4466    3.67470E+005    2.10319E+005   -2.13995E+005   -1.56912E+002   -2.13995E+005    4.24314E+005    1.27777E+003   -8.79830E+004   -1.57232E+002   -1.03973E+003   -2.63635E+003   -1.05712E+004    6.50620E+001    2.11892E+005
            4467    3.66781E+005    2.33363E+005    2.33363E+005   -3.18222E+002   -1.89375E+005    4.22738E+005   -1.45565E+004    2.07703E+005   -3.52593E+002    1.08166E+004    3.32056E+004   -1.05711E+004   -5.01356E+002    2.10805E+005
            4468    3.59761E+005    2.50179E+005    2.50179E+005   -6.51730E+002   -1.62013E+005    4.12192E+005   -2.91715E+004    2.57187E+005   -7.44715E+002    2.10812E+004    6.71782E+004   -1.05340E+004   -8.79868E+002    2.04520E+005
            4469    3.68057E+005    2.61120E+005    2.61120E+005    1.57442E+004   -1.62083E+005    4.23202E+005   -3.82604E+004    2.38531E+005    1.50704E+004    3.06839E+004    6.90271E+004   -1.54086E+004    2.54237E+003    2.10096E+005
            4470    3.76313E+005    2.42565E+005    2.42565E+005    8.67620E+003   -1.91529E+005    4.34094E+005   -1.99040E+004    1.92522E+005    8.32975E+003    1.60932E+004    3.52890E+004   -1.65702E+004    1.22896E+003    2.16183E+005
            4471    3.79571E+005    2.19010E+005   -2.19280E+005    1.46605E+002   -2.19280E+005    4.38290E+005    4.10573E+001   -4.95517E+004    1.37040E+002   -1.87855E+002   -7.23567E+001   -1.69022E+004    7.02929E+001    2.18492E+005
            4472    3.76329E+005    1.90265E+005   -2.43797E+005   -8.96219E+003   -2.43797E+005    4.34061E+005    2.08315E+004   -1.96106E+005   -8.60121E+003   -1.73845E+004   -3.65087E+004   -1.66059E+004   -1.27786E+003    2.16164E+005
            4473    3.67285E+005    1.61213E+005   -2.61058E+005   -1.58187E+004   -2.61058E+005    4.22272E+005    3.85545E+004   -2.38948E+005   -1.51424E+004   -3.09676E+004   -6.95536E+004   -1.54527E+004   -2.50683E+003    2.09613E+005
            4474    3.52983E+005    1.30241E+005   -2.73025E+005   -2.01112E+004   -2.73025E+005    4.03266E+005    5.42983E+004   -2.65091E+005   -1.92368E+004   -4.28841E+004   -1.00774E+005   -1.31408E+004   -3.59243E+003    1.98965E+005
            4475    3.32825E+005    9.91179E+004   -2.76942E+005   -2.03065E+004   -2.76942E+005    3.76060E+005    6.60437E+004   -2.78096E+005   -1.94539E+004   -5.06889E+004   -1.27988E+005   -9.99260E+003   -4.00501E+003    1.83539E+005
            4476    3.15225E+005    7.39830E+004   -2.76729E+005   -1.70059E+004   -2.76729E+005    3.50712E+005    7.32505E+004   -2.83343E+005   -1.63536E+004   -4.79272E+004   -1.55471E+005   -6.24592E+003   -4.46265E+003    1.66565E+005
            4477    3.16278E+005    6.62595E+004   -2.80823E+005   -8.88378E+003   -2.80823E+005    3.47082E+005    7.44824E+004   -2.95175E+005   -8.67054E+003   -4.08127E+004   -1.73964E+005   -1.85345E+003   -5.01030E+003    1.60108E+005
            4478    3.88479E+005    4.25770E+004   -3.68039E+005   -6.32722E+003   -3.68039E+005    4.10616E+005    1.10596E+005   -3.81462E+005    3.99863E+004   -1.37771E+004   -3.57998E+005    1.20149E+004   -9.36938E+003    5.86927E+004
            4479    3.65446E+005    3.67911E+004   -3.49352E+005   -8.90032E+003   -3.49352E+005    3.86143E+005    1.07154E+005   -3.58935E+005    3.43097E+004   -2.33046E+004   -3.32466E+005    1.10399E+004   -2.38012E+003    7.40621E+004
            4480    3.41485E+005    3.33337E+004   -3.26578E+005   -7.12573E+003   -3.26578E+005    3.59912E+005    1.00123E+005   -3.36029E+005    3.06257E+004   -3.11604E+004   -2.99836E+005    1.01987E+004    1.13912E+003    8.88662E+004
            4481    3.24418E+005    2.84648E+004   -3.09715E+005   -1.07918E+003   -3.09715E+005    3.38179E+005    9.41097E+004   -3.21370E+005    2.54721E+004   -4.10231E+004   -2.66778E+005    9.03998E+003    1.35412E+003    1.07390E+005
            4482    3.12966E+005    2.32468E+004   -2.95445E+005    1.14622E+004   -2.95445E+005    3.18692E+005    8.69119E+004   -3.12466E+005    1.79614E+004   -4.54160E+004   -2.33281E+005    6.67220E+003   -2.54463E+002    1.24629E+005
            4483    3.12752E+005    3.57059E+004   -2.89524E+005    9.04431E+003   -2.89524E+005    3.25230E+005    8.15912E+004   -3.10180E+005    9.12380E+003   -4.74585E+004   -2.06439E+005    3.79084E+003   -2.67080E+003    1.41748E+005
            4484    3.15093E+005    5.34697E+004   -2.85107E+005   -4.58570E+002   -2.85107E+005    3.38577E+005    7.73653E+004   -3.04449E+005   -5.05771E+002   -4.40585E+004   -1.87532E+005    1.47525E+003   -4.20919E+003    1.53290E+005
            4485    4.05859E+005    4.24686E+005    4.24686E+005    2.93365E+004    9.07659E+003    4.15610E+005   -1.54366E+005    4.04719E+005    1.40652E+004    5.96017E+004    3.89432E+005   -9.88161E+003   -2.52818E+003    1.13326E+005
            4486    3.97422E+005    3.83927E+005    3.83927E+005    2.32632E+003   -2.76226E+004    4.11549E+005   -1.19543E+005    3.94871E+005    1.73938E+003    3.48168E+004    3.22074E+005   -5.26711E+003   -1.53700E+003    1.46903E+005
            4487    3.94918E+005    3.56835E+005    3.56835E+005    9.78338E+003   -7.28686E+004    4.29703E+005   -9.79165E+004    3.74710E+005    9.50025E+003    2.71475E+004    2.57102E+005   -7.22417E+003   -1.86479E+003    1.81241E+005
            4488    3.88503E+005    3.13381E+005    3.13381E+005    3.30989E+003   -1.22415E+005    4.35796E+005   -6.47588E+004    3.37970E+005    3.22680E+003    1.34358E+004    1.77614E+005   -5.83356E+003   -1.15141E+003    2.01737E+005
            4489    4.35592E+005    4.48259E+005    4.48259E+005    2.86075E+004   -1.69092E+003    4.49950E+005   -1.58392E+005    4.33212E+005    2.83246E+003    5.43737E+004    4.17970E+005   -1.17442E+004   -2.17332E+003    1.09108E+005
            4490    4.34221E+005    4.15662E+005    4.15662E+005   -1.12786E+004   -2.54918E+004    4.41153E+005   -1.26297E+005    4.33698E+005   -1.32523E+004    3.73570E+004    3.54787E+005   -5.66562E+003   -8.67075E+002    1.51726E+005
            4491    4.16702E+005    3.72950E+005    3.72950E+005   -4.58427E+003   -7.41610E+004    4.47111E+005   -9.80683E+004    4.03322E+005   -5.15889E+003    1.98538E+004    2.79510E+005   -7.84275E+003   -8.90938E+002    1.81579E+005
            4492    4.14175E+005    3.37278E+005    3.37278E+005   -7.53206E+003   -1.22129E+005    4.59408E+005   -6.92058E+004    3.75950E+005   -7.69678E+003    1.41817E+004    2.01132E+005   -6.06026E+003   -4.61116E+002    2.09691E+005
            4493    4.54472E+005    4.85521E+005    4.85521E+005    4.63944E+004    1.71194E+004    4.68402E+005   -1.83012E+005    4.52344E+005    2.50922E+004    7.06845E+004    4.53259E+005   -1.45908E+004   -4.06995E+003    1.15431E+005
            4494    4.44391E+005    4.37078E+005    4.37078E+005    5.49658E+003   -1.90998E+004    4.56178E+005   -1.41158E+005    4.42855E+005    4.26094E+003    3.95794E+004    3.79635E+005   -6.73225E+003   -2.31559E+003    1.51036E+005
            4495    4.36444E+005    4.06805E+005    4.06805E+005    1.67586E+004   -6.45902E+004    4.71395E+005   -1.19658E+005    4.18875E+005    1.62965E+004    3.12014E+004    3.11476E+005   -9.17178E+003   -2.98880E+003    1.89078E+005
            4496    4.22735E+005    3.53030E+005    3.53030E+005    6.63964E+003   -1.18016E+005    4.71046E+005   -8.05515E+004    3.77946E+005    6.53483E+003    1.60051E+004    2.19114E+005   -6.92454E+003   -1.94006E+003    2.12354E+005
            4497    4.88894E+005    5.06001E+005    5.06001E+005    4.17893E+004   -4.30988E+003    5.10311E+005   -1.81160E+005    4.83968E+005    5.50051E+002    6.61820E+004    4.76748E+005   -1.51750E+004   -2.55558E+003    1.13267E+005
            4498    4.93650E+005    4.75905E+005    4.75905E+005   -9.39645E+003   -2.56906E+004    5.01595E+005   -1.46939E+005    4.93044E+005   -2.25126E+004    4.77521E+004    4.15578E+005   -7.20668E+003   -8.76963E+002    1.60680E+005
            4499    4.63376E+005    4.24366E+005    4.24366E+005   -9.79036E+003   -6.35421E+004    4.87908E+005   -1.17011E+005    4.56283E+005   -1.09885E+004    2.95657E+004    3.32456E+005   -9.71040E+003   -1.36509E+003    1.90402E+005
            4500    4.53142E+005    3.82444E+005    3.82444E+005   -1.34268E+004   -1.11805E+005    4.94249E+005   -8.57376E+004    4.28114E+005   -1.37653E+004    2.07787E+004    2.50199E+005   -7.18838E+003   -1.56602E+002    2.18655E+005
            4501    5.05553E+005    5.54782E+005    5.54782E+005    6.59566E+004    3.40166E+004    5.20765E+005   -2.18252E+005    5.03275E+005    4.29204E+004    9.35540E+004    5.18281E+005   -1.65581E+004   -6.40157E+003    1.29326E+005
            4502    4.86749E+005    4.97525E+005    4.97525E+005    1.95338E+004    2.46733E+003    4.95057E+005   -1.73175E+005    4.86075E+005    1.64440E+004    6.79537E+004    4.35128E+005   -9.21907E+003   -5.41287E+003    1.63501E+005
            4503    4.67672E+005    4.60398E+005    4.60398E+005    3.00093E+004   -3.72703E+004    4.97668E+005   -1.51046E+005    4.56594E+005    2.93712E+004    5.60468E+004    3.67719E+005   -1.16495E+004   -6.36783E+003    1.93238E+005
            4504    4.52949E+005    4.03903E+005    4.03903E+005    1.69501E+004   -9.43086E+004    4.98212E+005   -1.08848E+005    4.20525E+005    1.68622E+004    3.31704E+004    2.76512E+005   -8.73686E+003   -4.30729E+003    2.17124E+005
            4505    5.64384E+005    5.72634E+005    5.72634E+005    5.77907E+004   -3.08093E+004    6.03444E+005   -1.99872E+005    5.48409E+005   -2.90563E+004    9.58855E+004    5.32787E+005   -1.31659E+004   -1.69548E+003    1.37744E+005
            4506    5.43053E+005    5.25754E+005    5.25754E+005    2.51369E+004   -5.15757E+004    5.77330E+005   -1.66439E+005    5.30657E+005   -5.04573E+004    8.64869E+004    4.63286E+005   -9.23759E+003    1.49377E+003    1.65642E+005
            4507    5.09531E+005    4.80500E+005    4.80500E+005   -1.88268E+004   -3.86577E+004    5.19157E+005   -1.41005E+005    5.08662E+005   -3.10823E+004    5.85423E+004    3.95555E+005   -1.05929E+004   -9.42117E+001    1.89271E+005
            4508    4.86315E+005    4.33125E+005    4.33125E+005   -2.81532E+004   -7.48564E+004    5.07982E+005   -1.10039E+005    4.81231E+005   -2.94118E+004    4.63215E+004    3.13206E+005   -7.55784E+003    2.02023E+003    2.15363E+005
            4509    4.71532E+005    5.87005E+005    5.87005E+005    1.16901E+005    1.14057E+005    4.72948E+005   -2.72654E+005    4.71513E+005    1.16905E+005    1.61490E+005    5.39568E+005   -7.86621E+003   -1.95133E+004    1.40508E+005
            4510    4.82813E+005    5.53841E+005    5.53841E+005    7.88830E+004    6.35386E+004    4.90302E+005   -2.32088E+005    4.82264E+005    6.84262E+004    1.27471E+005    5.00366E+005   -1.23654E+004   -1.44363E+004    1.49967E+005
            4511    4.70158E+005    5.22179E+005    5.22179E+005    6.71667E+004    3.82129E+004    4.83966E+005   -2.09186E+005    4.68146E+005    6.67064E+004    1.17845E+005    4.43007E+005   -1.48297E+004   -1.75950E+004    1.77470E+005
            4512    4.52743E+005    4.63781E+005    4.63781E+005    4.60765E+004   -1.73190E+004    4.81100E+005   -1.64179E+005    4.42592E+005    4.65376E+004    8.46766E+004    3.61324E+005   -1.16670E+004   -1.35797E+004    1.96193E+005
            4513    5.21899E+005    4.62817E+005    4.62817E+005    2.72326E+004   -1.15639E+005    5.78456E+005   -1.24804E+005    4.74825E+005   -1.11865E+005    9.99993E+004    3.86276E+005    2.58614E+004    3.54515E+004    1.62387E+005
            4514    5.83099E+005    5.04384E+005    5.04384E+005    4.51932E+004   -1.51664E+005    6.56048E+005   -1.32638E+005    4.99686E+005   -1.46745E+005    9.78637E+004    4.46794E+005    2.88712E+004    4.53977E+004    1.46497E+005
            4515    6.58829E+005    5.49061E+005    5.49061E+005    5.85326E+004   -1.99782E+005    7.48843E+005   -1.35937E+005    5.25274E+005   -1.94204E+005    1.07086E+005    4.94929E+005    3.26358E+004    5.18992E+004    1.46889E+005
            4516    7.64023E+005    5.69550E+005    5.69550E+005    4.92130E+004   -3.07602E+005    8.77152E+005   -1.03720E+005    5.20474E+005   -2.97539E+005    7.84489E+004    5.30251E+005    4.24550E+004    7.90280E+004    1.21413E+005
            4517    4.27803E+005    4.39079E+005    4.39079E+005    5.33870E+004   -2.10623E+004    4.60142E+005   -1.57135E+005    4.12850E+005   -2.08400E+004    6.46962E+004    4.27548E+005    4.18397E+003    5.88756E+003    6.54336E+004
            4518    4.52396E+005    4.66360E+005    4.66360E+005    6.91286E+004   -2.60545E+004    4.92415E+005   -1.69811E+005    4.28991E+005   -2.57052E+004    7.95462E+004    4.55593E+005    5.28537E+003    9.32707E+003    6.38984E+004
            4519    4.79341E+005    4.84054E+005    4.84054E+005    6.97051E+004   -4.09324E+004    5.24986E+005   -1.70942E+005    4.49246E+005   -4.01165E+004    7.74311E+004    4.75512E+005    8.57825E+003    1.39027E+004    5.74114E+004
            4520    5.08313E+005    5.12544E+005    5.12544E+005    8.37105E+004   -4.89442E+004    5.61488E+005   -1.82437E+005    4.66927E+005   -4.78712E+004    9.39677E+004    5.01213E+005    8.74415E+003    2.07661E+004    6.61518E+004
            4521    5.41012E+005    5.22722E+005    5.22722E+005    7.99731E+004   -8.03261E+004    6.03048E+005   -1.74123E+005    4.83088E+005   -7.76259E+004    8.96293E+004    5.10366E+005    1.65572E+004    3.13148E+004    6.72473E+004
            4522    5.80839E+005    5.63447E+005    5.63447E+005    1.00134E+005   -8.81856E+004    6.51633E+005   -1.91798E+005    5.04971E+005   -8.43753E+004    1.17035E+005    5.42736E+005    1.28948E+004    4.76714E+004    8.66594E+004
            4523    6.70223E+005    5.80226E+005    5.80226E+005    1.20623E+005   -1.88808E+005    7.69035E+005   -1.70680E+005    4.63372E+005   -1.77654E+005    1.41304E+005    5.48391E+005    3.86459E+004    7.99076E+004    9.70637E+004
            4524    4.35902E+005    3.81750E+005    3.81750E+005   -1.68803E+004   -8.37059E+004    4.65456E+005   -9.37214E+004    4.24148E+005   -8.01029E+004    7.61192E+004    2.85148E+005    2.39485E+004    2.69406E+004    1.68681E+005
            4525    3.60494E+005    2.92274E+005    2.92274E+005   -4.27484E+004   -8.91900E+004    3.81464E+005   -5.34451E+004    3.53669E+005   -4.30800E+004    4.42305E+004    1.59185E+005    2.30087E+004    1.45726E+004    1.79681E+005
            4526    3.18344E+005    1.83769E+005   -1.83821E+005   -1.15887E+003   -1.83821E+005    3.67590E+005    4.03806E+002    7.00909E+004   -1.03168E+003    4.78836E+002   -6.58573E+002    2.25921E+004    5.44474E+002    1.82400E+005
            4527    3.54375E+005    9.01941E+004   -2.86375E+005    4.05779E+004   -2.86375E+005    3.76569E+005    5.18676E+004   -3.46432E+005    4.07792E+004   -4.20995E+004   -1.54282E+005    2.32343E+004   -1.44713E+004    1.77560E+005
            4528    4.41151E+005    8.49784E+004   -3.87427E+005    1.38175E+004   -3.87427E+005    4.72406E+005    9.62105E+004   -4.27952E+005    8.12469E+004   -7.79925E+004   -2.91886E+005    2.46308E+004   -2.68432E+004    1.68785E+005
            4529    5.18200E+005    1.21713E+005   -4.55167E+005   -2.91092E+004   -4.55167E+005    5.76880E+005    1.20855E+005   -4.64837E+005    1.17208E+005   -9.52166E+004   -3.84556E+005    2.78122E+004   -3.90624E+004    1.54196E+005
            4530    5.95371E+005    1.61787E+005   -5.11717E+005   -5.55465E+004   -5.11717E+005    6.73505E+005    1.35159E+005   -4.93486E+005    1.56605E+005   -1.09619E+005   -4.52463E+005    3.08948E+004   -4.66214E+004    1.47639E+005
            4531    6.77206E+005    2.21749E+005   -5.52176E+005   -6.83166E+004   -5.52176E+005    7.73924E+005    1.32915E+005   -5.06156E+005    2.14211E+005   -1.08902E+005   -5.04053E+005    3.33641E+004   -6.64378E+004    1.33919E+005
            4532    6.90331E+005    2.37884E+005   -5.56007E+005   -9.69320E+004   -5.56007E+005    7.93891E+005    1.38352E+005   -4.44569E+005    2.26456E+005   -1.26079E+005   -5.15431E+005    2.89510E+004   -8.98390E+004    1.10595E+005
            4533    4.40204E+005    4.07367E+005    4.07367E+005    3.81359E+004   -7.97893E+004    4.87156E+005   -1.21905E+005    4.02302E+005    3.87860E+004    6.43678E+004    2.62560E+005   -1.05297E+004   -1.21913E+004    2.22108E+005
            4534    4.58170E+005    3.70073E+005    3.70073E+005   -1.91665E+004   -1.34852E+005    5.04925E+005   -7.20180E+004    4.23399E+005   -1.95031E+004    2.41049E+004    2.11452E+005   -6.30697E+003    1.95267E+003    2.34250E+005
            4535    4.46408E+005    3.56676E+005    3.56676E+005    1.63907E+004   -1.48779E+005    5.05455E+005   -7.47623E+004    3.67567E+005    1.64157E+004    2.33271E+004    1.84544E+005   -8.74598E+003   -3.42674E+003    2.39348E+005
            4536    4.35634E+005    3.26559E+005    3.26559E+005   -8.50850E+003   -1.65897E+005    4.92456E+005   -5.07180E+004    3.62854E+005   -8.68878E+003    8.27878E+003    1.52564E+005   -7.33735E+003    2.37205E+002    2.35274E+005
            4537    4.20881E+005    3.13558E+005    3.13558E+005    9.24250E+003   -1.66753E+005    4.80311E+005   -5.20157E+004    3.20881E+005    9.20616E+003    1.15458E+004    1.35295E+005   -7.41710E+003   -1.45213E+003    2.31920E+005
            4538    4.03412E+005    2.89469E+005    2.89469E+005   -4.59374E+003   -1.70431E+005    4.59900E+005   -3.81483E+004    3.11575E+005   -4.69740E+003    4.94529E+003    1.14197E+005   -6.65549E+003   -7.15361E+001    2.23253E+005
            4539    3.91849E+005    2.81754E+005    2.81754E+005    5.58822E+003   -1.66723E+005    4.48477E+005   -4.02063E+004    2.85861E+005    5.55571E+003    9.91980E+003    1.05144E+005   -6.32568E+003   -8.81124E+002    2.19029E+005
            4540    4.19652E+005    3.20794E+005    3.20794E+005    1.86529E+004   -1.58364E+005    4.79158E+005   -6.03612E+004    3.17724E+005    1.89303E+004    3.09572E+004    1.31196E+005   -8.04216E+003   -5.98619E+003    2.34100E+005
            4541    4.45228E+005    3.11525E+005    3.11525E+005   -1.07953E+004   -1.96493E+005    5.08018E+005   -3.47457E+004    3.40129E+005   -1.08967E+004    1.31569E+004    1.01977E+005   -4.98443E+003    1.29370E+003    2.50030E+005
            4542    4.38008E+005    2.93425E+005    2.93425E+005    6.78225E+003   -2.10767E+005    5.04193E+005   -2.98134E+004    2.70162E+005    6.80365E+003    7.59627E+003    7.50403E+004   -7.30889E+003   -1.36468E+003    2.49721E+005
            4543    4.32600E+005    2.81181E+005    2.81181E+005   -4.84953E+003   -2.16492E+005    4.97674E+005   -1.99465E+004    2.74466E+005   -4.90486E+003    4.88372E+003    5.98606E+004   -6.33750E+003    2.38697E+002    2.47228E+005
            4544    4.14988E+005    2.61306E+005    2.61306E+005    2.69271E+003   -2.17364E+005    4.78670E+005   -1.55449E+004    2.14950E+005    2.69364E+003    2.36196E+003    4.15792E+004   -6.57191E+003   -5.52656E+002    2.38439E+005
            4545    4.04353E+005    2.53022E+005    2.53022E+005   -2.57150E+003   -2.13161E+005    4.66183E+005   -1.24299E+004    2.22342E+005   -2.59894E+003    3.14192E+003    3.67466E+004   -5.94073E+003    3.20065E+001    2.32408E+005
            4546    3.87710E+005    2.37866E+005    2.37866E+005    1.22705E+003   -2.09574E+005    4.47440E+005   -9.83982E+003    1.79849E+005    1.22437E+003    1.56528E+003    2.67298E+004   -5.82663E+003   -2.81409E+002    2.23290E+005
            4547    4.16931E+005    2.37087E+005   -2.44303E+005    1.78330E+003   -2.44303E+005    4.81390E+005    1.81108E+003   -1.41131E+005    1.82672E+003   -1.38623E+002   -7.12132E+003   -7.40994E+003   -5.67247E+002    2.40555E+005
            4548    4.36755E+005    2.38363E+005   -2.65762E+005   -1.52022E+003   -2.65762E+005    5.04125E+005    9.63985E+003   -1.90952E+005   -1.53048E+003   -3.61005E+003   -2.37790E+004   -5.26996E+003    4.78023E+002    2.51805E+005
            4549    4.40227E+005    2.38618E+005   -2.69373E+005    7.11232E+002   -2.69373E+005    5.07991E+005    1.00145E+004   -2.10575E+005    7.43046E+002   -8.28610E+002   -2.99579E+004   -7.60724E+003   -6.93573E+001    2.53463E+005
            4550    4.29203E+005    2.24677E+005   -2.70304E+005   -1.35793E+003   -2.70304E+005    4.94981E+005    1.56615E+004   -2.27778E+005   -1.34804E+003   -3.35637E+003   -4.22802E+004   -6.88340E+003    3.94316E+002    2.46627E+005
            4551    4.18018E+005    2.19319E+005   -2.62672E+005    7.24634E+002   -2.62672E+005    4.81992E+005    1.42093E+004   -2.27006E+005    7.56771E+002   -5.56578E+002   -4.28282E+004   -6.99151E+003    8.34987E+001    2.39964E+005
            4552    4.01529E+005    2.06004E+005   -2.56787E+005   -1.03018E+003   -2.56787E+005    4.62792E+005    1.72711E+004   -2.27182E+005   -1.00870E+003   -2.94924E+003   -4.78553E+004   -6.47412E+003    2.77136E+002    2.30212E+005
            4553    3.90095E+005    2.03144E+005   -2.46558E+005    6.53266E+002   -2.46558E+005    4.49702E+005    1.42535E+004   -2.16609E+005    6.78714E+002   -1.31486E+003   -4.21243E+004   -6.10330E+003    1.17327E+002    2.23839E+005
            4554    4.23675E+005    1.44587E+005   -3.36369E+005   -1.83581E+004   -3.36369E+005    4.80956E+005    7.00465E+004   -3.41673E+005   -1.86510E+004   -3.57035E+004   -1.55785E+005   -7.87097E+003    6.67437E+003    2.32682E+005
            4555    4.46222E+005    1.74659E+005   -3.30319E+005    1.08388E+004   -3.30319E+005    5.04978E+005    4.82736E+004   -3.68837E+005    1.09629E+004   -1.59920E+004   -1.39792E+005   -5.17908E+003   -1.12604E+003    2.44704E+005
            4556    4.42991E+005    1.74032E+005   -3.30793E+005   -6.93551E+003   -3.30793E+005    5.04825E+005    5.45655E+004   -3.43704E+005   -6.92974E+003   -1.55501E+004   -1.41217E+005   -7.77860E+003    2.05826E+003    2.44334E+005
            4557    4.36307E+005    1.77677E+005   -3.18427E+005    5.61641E+003   -3.18427E+005    4.96104E+005    4.50446E+004   -3.46614E+005    5.72712E+003   -7.04650E+003   -1.33814E+005   -6.60919E+003   -2.37197E+001    2.39708E+005
            4558    4.19215E+005    1.67833E+005   -3.09926E+005   -3.58677E+003   -3.09926E+005    4.77759E+005    4.85600E+004   -3.25032E+005   -3.53240E+003   -8.66245E+003   -1.33485E+005   -6.92300E+003    1.05901E+003    2.30468E+005
            4559    4.05265E+005    1.67295E+005   -2.94241E+005    3.44890E+003   -2.94241E+005    4.61536E+005    4.11658E+004   -3.16734E+005    3.53159E+003   -5.32375E+003   -1.21705E+005   -6.10159E+003    2.31582E+002    2.23215E+005
            4560    3.88866E+005    1.59251E+005   -2.84329E+005   -2.16790E+003   -2.84329E+005    4.43579E+005    4.24153E+004   -2.98163E+005   -2.11724E+003   -8.73222E+003   -1.16396E+005   -6.00655E+003    7.04062E+002    2.15065E+005
            4561    4.37048E+005    6.67933E+004   -4.12014E+005   -3.45220E+004   -4.12014E+005    4.78807E+005    1.26581E+005   -4.09356E+005   -3.49705E+004   -6.56766E+004   -2.79096E+005   -9.69660E+003    1.04931E+004    2.13974E+005
            4562    4.66728E+005    1.08323E+005   -3.97603E+005    1.61846E+004   -3.97603E+005    5.05926E+005    9.10318E+004   -4.45572E+005    1.66252E+004   -3.52913E+004   -2.54429E+005   -7.19518E+003   -8.14535E+002    2.27731E+005
            4563    4.51724E+005    1.19601E+005   -3.84165E+005   -1.51538E+004   -3.84165E+005    5.03766E+005    9.32390E+004   -4.02636E+005   -1.50770E+004   -2.70321E+004   -2.37608E+005   -9.03801E+003    3.51095E+003    2.28597E+005
            4564    4.46009E+005    1.24134E+005   -3.69105E+005    5.81309E+003   -3.69105E+005    4.93239E+005    7.97193E+004   -4.08400E+005    6.10094E+003   -1.67850E+004   -2.28474E+005   -8.03111E+003    6.69333E+002    2.22522E+005
            4565    4.23930E+005    1.24333E+005   -3.49967E+005   -7.95608E+003   -3.49967E+005    4.74300E+005    7.78636E+004   -3.73068E+005   -7.81532E+003   -1.45584E+004   -2.11217E+005   -7.66725E+003    1.69739E+003    2.15627E+005
            4566    4.09848E+005    1.21755E+005   -3.34440E+005    2.69675E+003   -3.34440E+005    4.56196E+005    6.99961E+004   -3.67818E+005    2.90088E+003   -1.26182E+004   -2.00271E+005   -7.01924E+003    6.28158E+002    2.07734E+005
            4567    3.89292E+005    1.21391E+005   -3.15249E+005   -4.42186E+003   -3.15249E+005    4.36640E+005    6.60931E+004   -3.38806E+005   -4.31118E+003   -1.39864E+004   -1.79982E+005   -6.38687E+003    1.10632E+003    2.01799E+005
            4568    4.58445E+005   -5.40444E+002   -4.80210E+005   -4.64425E+004   -4.80210E+005    4.79669E+005    1.75731E+005   -4.53232E+005   -4.68317E+004   -9.83503E+004   -3.82011E+005   -1.16527E+004    1.41760E+004    1.92726E+005
            4569    4.94212E+005    5.75300E+004   -4.50914E+005    2.77160E+004   -4.50914E+005    5.08444E+005    1.21889E+005   -4.92183E+005    2.98417E+004   -5.08757E+004   -3.44634E+005   -7.93719E+003   -1.38940E+003    2.06180E+005
            4570    4.64399E+005    6.37947E+004   -4.35803E+005   -1.72804E+004   -4.35803E+005    4.99598E+005    1.29763E+005   -4.48060E+005   -1.69924E+004   -4.38468E+004   -3.28450E+005   -9.71538E+003    5.11255E+003    2.04892E+005
            4571    4.60212E+005    8.06596E+004   -4.08976E+005    1.46923E+004   -4.08976E+005    4.89636E+005    1.04541E+005   -4.49390E+005    1.53122E+004   -2.51779E+004   -3.03759E+005   -7.58109E+003    3.79872E+002    2.00911E+005
            4572    4.32548E+005    7.73206E+004   -3.91550E+005   -8.05690E+003   -3.91550E+005    4.68870E+005    1.07429E+005   -4.12947E+005   -7.75604E+003   -2.51944E+004   -2.89336E+005   -7.77465E+003    2.42708E+003    1.93406E+005
            4573    4.15658E+005    8.26491E+004   -3.64988E+005    8.79019E+003   -3.64988E+005    4.47637E+005    9.11828E+004   -4.00494E+005    9.14088E+003   -1.91264E+004   -2.63563E+005   -6.39670E+003    6.36681E+002    1.87252E+005
            4574    3.92784E+005    7.93195E+004   -3.48619E+005   -4.53046E+003   -3.48619E+005    4.27938E+005    9.12765E+004   -3.71838E+005   -4.32274E+003   -2.35524E+004   -2.45954E+005   -6.26845E+003    1.55465E+003    1.82615E+005
            4575    4.75512E+005   -4.48478E+004   -5.29385E+005   -6.34443E+004   -5.29385E+005    4.84537E+005    2.12559E+005   -4.74692E+005   -6.09363E+004   -1.19350E+005   -4.57391E+005   -1.34138E+004    1.39037E+004    1.70843E+005
            4576    5.19523E+005    3.11972E+004   -5.02472E+005    1.64294E+003   -5.02472E+005    5.33669E+005    1.56544E+005   -5.17626E+005    2.75103E+004   -7.05117E+004   -4.26630E+005   -1.10947E+004    1.38092E+003    1.80917E+005
            4577    4.72828E+005    1.91439E+004   -4.76021E+005   -2.92521E+004   -4.76021E+005    4.95165E+005    1.62043E+005   -4.67207E+005   -2.81180E+004   -5.86639E+004   -3.99348E+005   -1.12069E+004    5.91721E+003    1.78587E+005
            4578    4.74597E+005    3.59900E+004   -4.52961E+005    5.84360E+003   -4.52961E+005    4.88951E+005    1.37043E+005   -4.72435E+005    8.71115E+003   -3.95146E+004   -3.80324E+005   -1.04595E+004    1.82378E+003    1.73197E+005
            4579    4.35927E+005    3.64074E+004   -4.23568E+005   -1.65243E+004   -4.23568E+005    4.59976E+005    1.34562E+005   -4.28607E+005   -1.55969E+004   -3.68114E+004   -3.51277E+005   -9.29538E+003    3.06725E+003    1.67068E+005
            4580    4.26089E+005    4.17418E+004   -4.02514E+005    2.72454E+003   -4.02514E+005    4.44256E+005    1.19349E+005   -4.22042E+005    3.98921E+003   -3.08069E+004   -3.31230E+005   -8.25252E+003    1.29579E+003    1.62711E+005
            4581    3.92710E+005    4.09142E+004   -3.74516E+005   -9.36872E+003   -3.74516E+005    4.15430E+005    1.14323E+005   -3.85368E+005   -8.79122E+003   -3.30024E+004   -3.01176E+005   -7.10231E+003    1.93204E+003    1.58180E+005
            4582    4.89152E+005   -6.11073E+004   -5.63079E+005   -8.78450E+004   -5.63079E+005    5.01972E+005    2.37344E+005   -4.87503E+005   -6.25129E+004   -1.38438E+005   -5.11081E+005   -9.84460E+003    1.37542E+004    1.47751E+005
            4583    5.47571E+005    5.37758E+004   -5.31093E+005   -3.06189E+004   -5.31093E+005    5.84868E+005    1.69312E+005   -5.32643E+005    5.30526E+004   -8.29612E+004   -4.78027E+005   -7.02833E+003   -3.45438E+003    1.54206E+005
            4584    4.91918E+005   -1.03327E+004   -5.11939E+005   -3.03195E+004   -5.11939E+005    5.01606E+005    1.84197E+005   -4.91003E+005   -1.46864E+004   -7.70867E+004   -4.60818E+005   -1.01215E+004    4.32072E+003    1.48919E+005
            4585    4.89334E+005    2.68287E+004   -4.78639E+005   -7.21577E+003   -4.78639E+005    5.05468E+005    1.53009E+005   -4.86659E+005    2.52864E+004   -5.40357E+004   -4.30277E+005   -7.51453E+003    2.17554E+002    1.43277E+005
            4586    4.54123E+005    2.04412E+003   -4.58492E+005   -1.10668E+004   -4.58492E+005    4.60536E+005    1.55838E+005   -4.53697E+005   -4.17958E+003   -5.19016E+004   -4.11434E+005   -7.69767E+003    2.30798E+003    1.38246E+005
            4587    4.33808E+005    1.66957E+004   -4.24734E+005    1.02726E+003   -4.24734E+005    4.41430E+005    1.35670E+005   -4.33170E+005    1.45329E+004   -4.28818E+004   -3.78662E+005   -5.97178E+003    7.73725E+002    1.32611E+005
            4588    4.04799E+005    5.48663E+003   -4.04440E+005   -4.97185E+003   -4.04440E+005    4.09926E+005    1.34642E+005   -4.04494E+005   -2.00252E+003   -4.61384E+004   -3.55784E+005   -5.65282E+003    1.66010E+003    1.31988E+005
            4589    5.17807E+005   -2.23762E+004   -5.73598E+005   -9.73883E+004   -5.73598E+005    5.51222E+005    2.31121E+005   -5.05366E+005   -2.25554E+004   -1.32220E+005   -5.38587E+005    3.61476E+003   -8.84059E+003    1.23997E+005
            4590    5.26326E+005   -2.33085E+003   -5.63510E+005   -8.08621E+004   -5.63510E+005    5.61179E+005    2.15568E+005   -5.12897E+005   -5.39214E+003   -1.10060E+005   -5.31251E+005   -1.53422E+004   -1.34177E+003    1.20921E+005
            4591    4.95924E+005   -2.11399E+004   -5.38609E+005   -6.74837E+004   -5.38609E+005    5.17469E+005    2.09078E+005   -4.91017E+005   -2.50119E+004   -9.53482E+004   -5.06873E+005   -1.40313E+004    3.37200E+003    1.18422E+005
            4592    4.89204E+005   -9.03689E+003   -5.20678E+005   -5.75215E+004   -5.20678E+005    5.11641E+005    1.95745E+005   -4.83754E+005   -1.41046E+004   -7.98989E+004   -4.93233E+005   -1.59014E+004    2.93799E+003    1.09799E+005
            4593    4.54361E+005   -1.27320E+004   -4.84822E+005   -5.05560E+004   -4.84822E+005    4.72090E+005    1.82703E+005   -4.50798E+005   -1.71259E+004   -7.18027E+004   -4.59182E+005   -1.31561E+004    3.08260E+003    1.02734E+005
            4594    4.38929E+005   -5.75309E+003   -4.61905E+005   -4.25095E+004   -4.61905E+005    4.56151E+005    1.70056E+005   -4.35446E+005   -9.29511E+003   -6.53907E+004   -4.35481E+005   -1.16478E+004    2.01550E+003    1.02250E+005
            4595    4.07679E+005   -7.33120E+003   -4.28221E+005   -3.51805E+004   -4.28221E+005    4.20890E+005    1.56911E+005   -4.05531E+005   -1.00281E+004   -5.98405E+004   -4.00864E+005   -8.92301E+003    1.60872E+003    1.00316E+005
            4596    4.31097E+005    2.31580E+004   -4.43177E+005   -5.92002E+004   -4.43177E+005    4.66335E+005    1.59740E+005   -4.12837E+005    2.28280E+004   -6.99285E+004   -4.32119E+005    5.34865E+003   -6.72390E+003    6.38808E+004
            4597    4.56298E+005    3.33785E+004   -4.64873E+005   -6.73665E+004   -4.64873E+005    4.98252E+005    1.66287E+005   -4.30194E+005    3.27946E+004   -7.56372E+004   -4.56019E+005    7.21694E+003   -1.08029E+004    5.77604E+004
            4598    4.89041E+005    4.40726E+004   -4.93766E+005   -7.58246E+004   -4.93766E+005    5.37839E+005    1.75173E+005   -4.54172E+005    4.31877E+004   -8.46199E+004   -4.84086E+005    8.78398E+003   -1.61028E+004    6.10696E+004
            4599    5.15219E+005    6.47745E+004   -5.07301E+005   -7.98477E+004   -5.07301E+005    5.72075E+005    1.74125E+005   -4.66168E+005    6.29824E+004   -8.90017E+004   -4.96355E+005    1.38098E+004   -2.29359E+004    6.41713E+004
            4600    5.56785E+005    8.67681E+004   -5.35299E+005   -8.36109E+004   -5.35299E+005    6.22067E+005    1.77381E+005   -4.92806E+005    8.39730E+004   -9.70050E+004   -5.19110E+005    1.70325E+004   -3.36532E+004    7.83676E+004
            4601    5.86300E+005    1.29794E+005   -5.34893E+005   -9.12350E+004   -5.34893E+005    6.64688E+005    1.65445E+005   -4.78088E+005    1.24135E+005   -1.10354E+005   -5.10115E+005    2.90560E+004   -4.72394E+004    9.30711E+004
            4602    6.29825E+005    1.81938E+005   -5.39880E+005   -1.02072E+005   -5.39880E+005    7.21818E+005    1.53338E+005   -4.47630E+005    1.72842E+005   -1.23863E+005   -5.08992E+005    3.34281E+004   -7.04842E+004    9.62550E+004
            4603    3.06594E+005    2.80887E+005    2.80887E+005    6.69462E+003   -5.01522E+004    3.31039E+005   -7.91432E+004    2.94385E+005    6.54506E+003    6.23720E+004    1.68512E+005   -2.35768E+003    1.70913E+003    1.56702E+005
            4604    3.24116E+005    2.83846E+005    2.83846E+005    1.15299E+004   -7.46504E+004    3.58496E+005   -7.35752E+004    2.96653E+005    1.12583E+004    6.67897E+004    1.42678E+005   -3.65829E+003    3.15966E+003    1.75047E+005
            4605    3.48441E+005    2.81095E+005    2.81095E+005    1.25368E+004   -1.12642E+005    3.93737E+005   -6.03300E+004    2.90984E+005    1.22271E+004    5.56399E+004    1.13123E+005   -4.95262E+003    3.78675E+003    1.94602E+005
            4606    3.66628E+005    2.73218E+005    2.73218E+005    1.18499E+004   -1.45877E+005    4.19095E+005   -4.63970E+004    2.72971E+005    1.15648E+004    4.29374E+004    8.46888E+004   -6.31066E+003    3.23332E+003    2.08349E+005
            4607    3.64237E+005    2.70007E+005    2.70007E+005   -4.90313E+003   -1.43105E+005    4.13112E+005   -4.06660E+004    2.95975E+005   -4.83823E+003    3.56190E+004    9.12173E+004   -2.61549E+003   -3.33917E+003    2.04644E+005
            4608    3.55947E+005    2.69089E+005    2.69089E+005    2.31700E+003   -1.35078E+005    4.04168E+005   -4.54427E+004    2.86453E+005    2.33103E+003    3.20359E+004    1.01961E+005   -3.78671E+003   -1.32375E+003    1.98998E+005
            4609    3.57132E+005    2.72281E+005    2.72281E+005   -2.65195E+003   -1.31366E+005    4.03647E+005   -4.60878E+004    2.97802E+005   -2.64199E+003    2.82032E+004    1.12702E+005   -3.78036E+003   -1.38061E+003    1.97312E+005
            4610    3.54822E+005    2.73615E+005    2.73615E+005    1.35725E+003   -1.27665E+005    4.01280E+005   -4.91026E+004    2.94647E+005    1.34374E+003    2.43916E+004    1.21572E+005   -4.26033E+003   -1.04498E+003    1.94616E+005
            4611    3.61827E+005    2.82249E+005    2.82249E+005   -3.12178E+003   -1.24712E+005    4.06961E+005   -5.14719E+004    3.10607E+005   -3.16480E+003    2.25540E+004    1.35026E+005   -4.51464E+003   -7.58598E+002    1.95493E+005
            4612    3.64905E+005    2.87812E+005    2.87812E+005    1.87268E+003   -1.23178E+005    4.10990E+005   -5.55024E+004    3.10905E+005    1.82393E+003    1.79895E+004    1.46694E+005   -4.96802E+003   -9.53074E+002    1.95083E+005
            4613    3.80892E+005    3.03192E+005    3.03192E+005   -4.53886E+003   -1.22804E+005    4.25996E+005   -5.86165E+004    3.35697E+005   -4.63539E+003    1.68562E+004    1.63629E+005   -5.27771E+003   -5.60510E+002    1.99863E+005
            4614    3.45019E+005    2.77412E+005    2.77412E+005   -4.83780E+003   -1.07208E+005    3.84620E+005   -5.51221E+004    3.07967E+005   -4.76637E+003    4.68170E+004    1.23316E+005   -2.69828E+003   -3.60781E+003    1.88431E+005
            4615    3.45469E+005    2.83695E+005    2.83695E+005    3.03763E+003   -1.02137E+005    3.85833E+005   -6.15320E+004    3.06217E+005    3.05331E+003    4.31322E+004    1.38411E+005   -3.86014E+003   -1.80972E+003    1.86897E+005
            4616    3.45591E+005    2.86809E+005    2.86809E+005   -2.39961E+003   -9.59179E+004    3.82727E+005   -6.28304E+004    3.15185E+005   -2.39415E+003    3.81856E+004    1.52700E+005   -3.98404E+003   -1.89406E+003    1.82545E+005
            4617    3.47667E+005    2.96769E+005    2.96769E+005    4.03546E+003   -8.75103E+004    3.84280E+005   -7.10982E+004    3.18815E+005    3.99220E+003    3.82002E+004    1.71102E+005   -4.76460E+003   -1.58429E+003    1.80201E+005
            4618    3.53499E+005    3.03310E+005    3.03310E+005   -2.15225E+003   -8.39017E+004    3.87211E+005   -7.24186E+004    3.31214E+005   -2.26570E+003    3.10780E+004    1.88444E+005   -5.02950E+003   -1.14589E+003    1.76785E+005
            4619    3.62714E+005    3.19966E+005    3.19966E+005    6.13936E+003   -7.71467E+004    3.97113E+005   -8.29862E+004    3.40187E+005    5.99234E+003    3.22398E+004    2.10727E+005   -5.79692E+003   -1.50975E+003    1.77221E+005
            4620    3.77439E+005    3.31505E+005    3.31505E+005   -3.00725E+003   -7.76947E+004    4.09199E+005   -8.36009E+004    3.60246E+005   -3.29209E+003    2.32765E+004    2.30818E+005   -6.18734E+003   -8.65924E+002    1.76115E+005
            4621    3.31668E+005    2.84625E+005    2.84625E+005   -4.59888E+003   -7.73939E+004    3.62019E+005   -6.75441E+004    3.12928E+005   -4.55819E+003    5.26157E+004    1.54575E+005   -2.88217E+003   -2.54734E+003    1.73652E+005
            4622    3.32723E+005    2.92387E+005    2.92387E+005    1.60521E+003   -7.04643E+004    3.62851E+005   -7.45092E+004    3.14433E+005    1.59991E+003    5.22306E+004    1.69697E+005   -3.46592E+003   -1.73191E+003    1.71610E+005
            4623    3.36427E+005    3.01517E+005    3.01517E+005   -3.94778E+003   -5.90648E+004    3.60582E+005   -7.95014E+004    3.26036E+005   -4.00646E+003    5.19689E+004    1.90542E+005   -3.43215E+003   -1.21463E+003    1.66384E+005
            4624    3.36061E+005    3.09383E+005    3.09383E+005    3.31521E+002   -4.83728E+004    3.57756E+005   -8.71139E+004    3.27980E+005    2.61526E+002    4.87628E+004    2.12317E+005   -3.44200E+003   -1.42351E+003    1.59018E+005
            4625    3.48094E+005    3.25042E+005    3.25042E+005   -5.64785E+003   -3.81718E+004    3.63214E+005   -9.37408E+004    3.44650E+005   -5.88008E+003    4.73043E+004    2.39798E+005   -3.79726E+003   -9.48948E+002    1.53843E+005
            4626    3.57713E+005    3.40296E+005    3.40296E+005    1.02482E+003   -3.33737E+004    3.73669E+005   -1.02649E+005    3.53963E+005    7.76046E+002    4.07708E+004    2.66400E+005   -4.11778E+003   -1.38468E+003    1.48739E+005
            4627    3.83726E+005    3.64615E+005    3.64615E+005   -7.42735E+003   -2.98135E+004    3.94429E+005   -1.09125E+005    3.82253E+005   -8.08472E+003    3.93956E+004    2.96064E+005   -4.66504E+003   -9.61593E+002    1.49285E+005
            4628    3.25381E+005    2.92889E+005    2.92889E+005   -1.80558E+003   -5.62964E+004    3.49186E+005   -7.82625E+004    3.14869E+005   -1.78705E+003    5.71444E+004    1.79430E+005   -3.07296E+003   -2.31289E+003    1.63498E+005
            4629    3.21635E+005    3.00218E+005    3.00218E+005    3.43016E+003   -4.15322E+004    3.41750E+005   -8.73720E+004    3.14448E+005    3.37651E+003    6.32067E+004    1.95533E+005   -3.87354E+003   -1.96698E+003    1.57465E+005
            4630    3.20447E+005    3.08140E+005    3.08140E+005    5.61949E+002   -2.37884E+004    3.31928E+005   -9.49710E+004    3.18356E+005    2.99495E+002    6.46469E+004    2.19967E+005   -4.33163E+003   -1.89690E+003    1.46470E+005
            4631    3.21361E+005    3.23884E+005    3.23884E+005    8.31423E+003   -2.96981E+003    3.26854E+005   -1.09743E+005    3.20915E+005    6.51279E+003    6.84008E+004    2.54315E+005   -5.53037E+003   -1.56691E+003    1.33258E+005
            4632    3.38363E+005    3.42166E+005    3.42166E+005    9.56970E+003   -1.68306E+003    3.43849E+005   -1.16684E+005    3.37942E+005    1.73172E+003    5.96575E+004    2.88663E+005   -6.08323E+003   -1.05020E+003    1.22897E+005
            4633    3.56474E+005    3.68527E+005    3.68527E+005    1.91750E+004    5.33384E+003    3.63193E+005   -1.31012E+005    3.55869E+005    9.25544E+003    6.03557E+004    3.23424E+005   -7.18769E+003   -1.38952E+003    1.17833E+005
            4634    3.85187E+005    3.92873E+005    3.92873E+005    1.76253E+004   -1.53837E+003    3.94411E+005   -1.36320E+005    3.84112E+005    1.62982E+003    5.16853E+004    3.55644E+005   -7.81902E+003   -1.06328E+003    1.12651E+005
            4635    3.99740E+005    4.13497E+005    4.13497E+005    5.09311E+004   -1.51767E+004    4.28673E+005   -1.49750E+005    3.87155E+005   -1.50139E+004    6.59852E+004    3.98280E+005    3.62098E+003    2.59341E+003    7.26561E+004
            4636    3.72554E+005    3.83672E+005    3.83672E+005    4.38971E+004   -1.47133E+004    3.98385E+005   -1.37619E+005    3.61963E+005   -1.45411E+004    6.30242E+004    3.64372E+005    3.33800E+003    4.35173E+002    7.86577E+004
            4637    3.45529E+005    3.57363E+005    3.57363E+005    4.44810E+004   -1.34820E+004    3.70845E+005   -1.29454E+005    3.34328E+005   -1.31539E+004    7.25142E+004    3.29002E+005    4.25860E+003   -9.45313E+002    8.98807E+004
            4638    3.24312E+005    3.31808E+005    3.31808E+005    3.21026E+004   -1.24945E+004    3.44303E+005   -1.17139E+005    3.17303E+005   -1.21500E+004    7.37879E+004    2.89778E+005    3.84187E+003   -8.96901E+002    1.04136E+005
            4639    3.11502E+005    3.13876E+005    3.13876E+005    1.58608E+004   -9.55524E+003    3.23431E+005   -1.06727E+005    3.09156E+005   -9.04338E+003    7.77129E+004    2.51512E+005    4.08475E+003    2.37981E+002    1.21343E+005
            4640    3.11930E+005    2.99680E+005    2.99680E+005   -6.02934E+003   -1.81189E+004    3.17799E+005   -9.18438E+004    3.11402E+005   -6.17485E+003    6.60393E+004    2.15667E+005    2.48394E+003    1.40903E+003    1.40080E+005
            4641    3.08751E+005    2.86257E+005    2.86257E+005   -1.94660E+003   -3.95905E+004    3.25847E+005   -8.15732E+004    3.03524E+005   -2.04316E+003    5.56234E+004    1.91139E+005   -5.60568E+002    2.93595E+003    1.48094E+005
            4642    3.86433E+005   -3.18656E+003   -4.02397E+005   -3.01554E+004   -4.02397E+005    3.99211E+005    1.45246E+005   -3.84307E+005   -5.24579E+003   -5.96678E+004   -3.70826E+005   -7.70183E+003    8.44559E+002    1.03980E+005
            4643    3.82693E+005    1.26065E+004   -3.73999E+005    4.65894E+003   -3.73999E+005    3.86605E+005    1.18911E+005   -3.82508E+005    8.82867E+003   -4.35823E+004   -3.21980E+005   -4.61712E+003    8.77394E+002    1.31079E+005
            4644    3.79904E+005    4.42994E+004   -3.55004E+005    1.95262E+003   -3.55004E+005    3.99303E+005    1.02917E+005   -3.74539E+005    2.54794E+003   -3.42406E+004   -2.77059E+005   -6.22274E+003    1.00499E+003    1.58072E+005
            4645    3.76661E+005    8.40993E+004   -3.25655E+005    5.51163E+003   -3.25655E+005    4.09755E+005    7.86815E+004   -3.57510E+005    5.69815E+003   -2.28309E+004   -2.18912E+005   -5.31584E+003    7.95134E+002    1.79751E+005
            4646    3.77371E+005    1.20597E+005   -3.01933E+005    1.58221E+003   -3.01933E+005    4.22529E+005    5.99180E+004   -3.31021E+005    1.69974E+003   -1.61175E+004   -1.65336E+005   -5.84308E+003    6.35489E+002    1.97537E+005
            4647    3.77757E+005    1.61154E+005   -2.70095E+005    2.26245E+003   -2.70095E+005    4.31249E+005    3.55594E+004   -2.86664E+005    2.31188E+003   -7.89363E+003   -1.01096E+005   -5.35833E+003    3.68695E+002    2.10453E+005
            4648    3.77338E+005    1.94874E+005   -2.40105E+005   -7.46181E+002   -2.40105E+005    4.34979E+005    1.53257E+004   -2.10292E+005   -7.29340E+002   -3.94374E+003   -4.13042E+004   -5.66448E+003    2.09254E+002    2.16611E+005
            4649    3.80212E+005    2.34761E+005    2.34761E+005   -1.40593E+003   -2.03838E+005    4.38598E+005   -9.83913E+003    1.93952E+005   -1.42066E+003    3.46690E+003    2.74712E+004   -5.32413E+003   -4.92188E+001    2.18905E+005
            4650    3.77201E+005    2.64900E+005    2.64900E+005   -2.94765E+003   -1.66468E+005    4.31369E+005   -3.18282E+004    2.78915E+005   -3.00388E+003    6.66011E+003    9.18283E+004   -5.71924E+003   -2.64738E+002    2.11354E+005
            4651    3.55633E+005   -4.94032E+003   -3.70075E+005   -2.47742E+004   -3.70075E+005    3.65134E+005    1.33263E+005   -3.54385E+005   -6.74982E+003   -6.03858E+004   -3.32654E+005   -6.28358E+003    7.76565E+002    1.07617E+005
            4652    3.58276E+005    1.25871E+004   -3.52612E+005   -1.68501E+003   -3.52612E+005    3.65199E+005    1.13903E+005   -3.57636E+005   -8.81537E+002   -4.98350E+004   -2.90993E+005   -4.30633E+003    1.42222E+003    1.36554E+005
            4653    3.55475E+005    4.94087E+004   -3.30397E+005   -5.68725E+003   -3.30397E+005    3.79806E+005    9.55585E+004   -3.45672E+005   -5.42537E+003   -3.77433E+004   -2.43507E+005   -5.50787E+003    1.49683E+003    1.59407E+005
            4654    3.62036E+005    8.66022E+004   -3.11723E+005   -2.68450E+003   -3.11723E+005    3.98326E+005    7.59353E+004   -3.35898E+005   -2.58466E+003   -2.86056E+004   -1.96616E+005   -5.09006E+003    1.26046E+003    1.80473E+005
            4655    3.64577E+005    1.25659E+005   -2.85714E+005   -2.59490E+003   -2.85714E+005    4.11373E+005    5.42164E+004   -3.07299E+005   -2.54073E+003   -1.81560E+004   -1.41952E+005   -5.29342E+003    9.41161E+002    1.96068E+005
            4656    3.68224E+005    1.59838E+005   -2.61495E+005   -1.34788E+003   -2.61495E+005    4.21333E+005    3.43348E+004   -2.69814E+005   -1.32185E+003   -1.14865E+004   -9.01960E+004   -5.12020E+003    5.86146E+002    2.06890E+005
            4657    3.71251E+005    1.97387E+005   -2.30835E+005    5.11232E+002   -2.30835E+005    4.28221E+005    1.09790E+004   -1.92254E+005    5.23811E+002   -2.46404E+003   -3.09968E+004   -5.23170E+003    1.29729E+002    2.13570E+005
            4658    3.69806E+005    2.27102E+005    2.27102E+005    6.64617E+002   -1.99647E+005    4.26749E+005   -9.37338E+003    1.74903E+005    6.60654E+002    2.51531E+003    2.49442E+004   -5.06539E+003   -2.05472E+002    2.13019E+005
            4659    3.70825E+005    2.62492E+005    2.62492E+005    3.58144E+003   -1.62319E+005    4.24811E+005   -3.45846E+004    2.65818E+005    3.56245E+003    1.23545E+004    8.78369E+004   -5.38930E+003   -7.26647E+002    2.08953E+005
            4660    3.35935E+005   -2.22480E+003   -3.45949E+005   -1.83868E+004   -3.45949E+005    3.43724E+005    1.22187E+005   -3.35058E+005   -4.16060E+003   -6.62231E+004   -2.96177E+005   -6.00674E+003    8.22607E+002    1.17955E+005
            4661    3.41959E+005    2.26497E+004   -3.27338E+005    5.98201E+003   -3.27338E+005    3.49988E+005    9.95689E+004   -3.41043E+005    6.42202E+003   -5.08181E+004   -2.54311E+005   -3.59811E+003    1.02999E+003    1.42080E+005
            4662    3.48862E+005    5.87208E+004   -3.15269E+005    1.35448E+003   -3.15269E+005    3.73990E+005    8.50645E+004   -3.38005E+005    1.54970E+003   -4.10489E+004   -2.15694E+005   -4.99302E+003    1.17528E+003    1.65197E+005
            4663    3.54106E+005    9.69530E+004   -2.94342E+005    4.05286E+003   -2.94342E+005    3.91295E+005    6.44455E+004   -3.24949E+005    4.11668E+003   -2.88767E+004   -1.68576E+005   -4.37330E+003    9.80217E+002    1.82681E+005
            4664    3.60470E+005    1.31153E+005   -2.76301E+005    1.07604E+003   -2.76301E+005    4.07454E+005    4.80238E+004   -3.00414E+005    1.11454E+003   -2.07059E+004   -1.24480E+005   -4.83631E+003    8.20803E+002    1.96941E+005
            4665    3.64537E+005    1.66944E+005   -2.50948E+005    1.72125E+003   -2.50948E+005    4.17892E+005    2.74277E+004   -2.57614E+005    1.73695E+003   -1.05749E+004   -7.34451E+004   -4.56874E+003    4.86059E+002    2.06515E+005
            4666    3.65847E+005    1.96127E+005   -2.25991E+005   -5.65937E+002   -2.25991E+005    4.22117E+005    1.01432E+004   -1.79220E+005   -5.60612E+002   -4.32887E+003   -2.55402E+004   -4.80986E+003    1.68672E+002    2.10737E+005
            4667    3.67716E+005    2.28930E+005    2.28930E+005   -8.71330E+002   -1.95178E+005    4.24107E+005   -1.09602E+004    1.92890E+005   -8.77848E+002    5.17407E+003    2.85845E+004   -4.60206E+003   -1.70987E+002    2.11680E+005
            4668    3.63472E+005    2.53247E+005    2.53247E+005   -2.13419E+003   -1.62883E+005    4.16130E+005   -2.94102E+004    2.63664E+005   -2.15460E+003    1.10040E+004    7.93811E+004   -4.84252E+003   -5.42486E+002    2.05177E+005
            4669    3.18664E+005    2.40923E+002   -3.22268E+005   -7.59372E+003   -3.22268E+005    3.22509E+005    1.09874E+005   -3.18447E+005   -5.15628E+003   -6.85339E+004   -2.55931E+005   -4.85378E+003    1.49109E+003    1.29690E+005
            4670    3.31534E+005    3.42068E+004   -3.13291E+005   -4.43515E+002   -3.13291E+005    3.47498E+005    9.31760E+004   -3.27423E+005   -3.20989E+002   -5.66149E+004   -2.22592E+005   -3.49138E+003    1.40491E+003    1.52546E+005
            4671    3.39698E+005    7.13781E+004   -2.99571E+005   -3.67931E+003   -2.99571E+005    3.70949E+005    7.72908E+004   -3.20234E+005   -3.63036E+003   -4.34641E+004   -1.84778E+005   -4.44739E+003    1.71408E+003    1.71407E+005
            4672    3.51051E+005    1.06191E+005   -2.86168E+005   -1.79881E+003   -2.86168E+005    3.92360E+005    6.05919E+004   -3.10243E+005   -1.77804E+003   -3.32189E+004   -1.46779E+005   -4.22366E+003    1.26043E+003    1.87727E+005
            4673    3.58170E+005    1.41205E+005   -2.66370E+005   -1.77544E+003   -2.66370E+005    4.07575E+005    4.23136E+004   -2.82322E+005   -1.77028E+003   -2.14296E+004   -1.03741E+005   -4.41134E+003    1.02805E+003    1.99536E+005
            4674    3.63395E+005    1.71132E+005   -2.46339E+005   -9.35699E+002   -2.46339E+005    4.17470E+005    2.53808E+004   -2.42890E+005   -9.32507E+002   -1.29984E+004   -6.22117E+004   -4.30318E+003    5.62783E+002    2.07234E+005
            4675    3.66618E+005    2.02475E+005   -2.20717E+005    3.49743E+002   -2.20717E+005    4.23192E+005    5.96424E+003   -1.56262E+005    3.51049E+002   -2.17426E+003   -1.60695E+004   -4.39970E+003    1.39517E+002    2.11436E+005
            4676    3.64494E+005    2.26910E+005    2.26910E+005    5.83588E+002   -1.93560E+005    4.20471E+005   -1.13113E+004    1.85634E+005    5.82271E+002    5.15592E+003    2.81958E+004   -4.32367E+003   -2.52697E+002    2.09875E+005
            4677    3.63343E+005    2.54455E+005    2.54455E+005    2.45151E+003   -1.62043E+005    4.16499E+005   -3.16211E+004    2.57098E+005    2.44940E+003    1.62708E+004    7.61431E+004   -4.54273E+003   -7.70174E+002    2.06035E+005
            4678    3.18285E+005    1.83690E+004   -3.09586E+005   -1.94254E+003   -3.09586E+005    3.27955E+005    9.77197E+004   -3.16822E+005   -1.63437E+003   -6.96649E+004   -2.21860E+005   -4.21772E+003    1.83861E+003    1.45025E+005
            4679    3.30768E+005    5.29131E+004   -2.99412E+005    4.45185E+003   -2.99412E+005    3.52325E+005    8.06824E+004   -3.22636E+005    4.48836E+003   -5.53341E+004   -1.91202E+005   -3.01658E+003    1.38559E+003    1.62489E+005
            4680    3.43621E+005    8.61470E+004   -2.91762E+005    1.89990E+003   -2.91762E+005    3.77909E+005    6.79051E+004   -3.19119E+005    1.90050E+003   -4.46440E+004   -1.60972E+005   -3.94073E+003    1.89290E+003    1.79727E+005
            4681    3.53413E+005    1.20242E+005   -2.76811E+005    3.33884E+003   -2.76811E+005    3.97053E+005    5.10768E+004   -3.05131E+005    3.32388E+003   -3.21775E+004   -1.24377E+005   -3.60689E+003    1.61083E+003    1.93063E+005
            4682    3.61669E+005    1.50270E+005   -2.62061E+005    1.48014E+003   -2.62061E+005    4.12331E+005    3.67703E+004   -2.79179E+005    1.46191E+003   -2.27043E+004   -8.90685E+004   -3.85865E+003    1.34168E+003    2.03439E+005
            4683    3.67048E+005    1.80788E+005   -2.41447E+005    1.48576E+003   -2.41447E+005    4.22236E+005    1.97244E+004   -2.33495E+005    1.47482E+003   -1.14139E+004   -4.92342E+004   -3.77720E+003    7.60259E+002    2.10235E+005
            4684    3.68448E+005    2.05595E+005   -2.19780E+005   -3.66691E+002   -2.19780E+005    4.25376E+005    4.85064E+003   -1.39898E+005   -3.67658E+002   -3.08291E+003   -1.11013E+004   -3.89483E+003    1.24729E+002    2.12614E+005
            4685    3.68520E+005    2.31761E+005    2.31761E+005   -8.91455E+002   -1.93128E+005    4.24889E+005   -1.25803E+004    2.01653E+005   -8.84223E+002    8.22714E+003    3.03981E+004   -3.81130E+003   -4.82411E+002    2.12121E+005
            4686    3.62574E+005    2.50982E+005    2.50982E+005   -2.15303E+003   -1.64379E+005    4.15361E+005   -2.81498E+004    2.59874E+005   -2.13447E+003    1.64090E+004    7.01747E+004   -3.90706E+003   -1.17572E+003    2.05895E+005
            4687    3.20080E+005    4.12014E+004   -2.98372E+005   -2.21940E+003   -2.98372E+005    3.39573E+005    8.64633E+004   -3.13351E+005   -2.22545E+003   -6.52295E+004   -1.91935E+005   -2.73217E+003    2.04100E+003    1.57490E+005
            4688    3.32896E+005    6.89441E+004   -2.93666E+005   -1.88595E+003   -2.93666E+005    3.62611E+005    7.55361E+004   -3.15266E+005   -1.87540E+003   -5.64144E+004   -1.68318E+005   -3.26226E+003    1.48825E+003    1.72415E+005
            4689    3.45123E+005    1.00493E+005   -2.84434E+005   -2.62228E+003   -2.84434E+005    3.84927E+005    6.21880E+004   -3.07492E+005   -2.65280E+003   -4.49562E+004   -1.38955E+005   -3.53676E+003    2.10577E+003    1.86599E+005
            4690    3.57040E+005    1.30214E+005   -2.74204E+005   -2.62386E+003   -2.74204E+005    4.04418E+005    4.88711E+004   -2.93158E+005   -2.63973E+003   -3.49126E+004   -1.09061E+005   -3.65839E+003    1.41790E+003    1.98745E+005
            4691    3.66071E+005    1.60562E+005   -2.58624E+005   -1.91687E+003   -2.58624E+005    4.19187E+005    3.33262E+004   -2.64586E+005   -1.93388E+003   -2.33602E+004   -7.46845E+004   -3.71260E+003    1.12618E+003    2.07982E+005
            4692    3.72279E+005    1.87076E+005   -2.41743E+005   -1.29914E+003   -2.41743E+005    4.28818E+005    1.86553E+004   -2.20726E+005   -1.30604E+003   -1.34322E+004   -4.12276E+004   -3.68112E+003    5.44034E+002    2.13926E+005
            4693    3.75420E+005    2.13586E+005   -2.19894E+005    2.84501E+002   -2.19894E+005    4.33480E+005    2.00776E+003   -1.13280E+005    2.82587E+002   -1.03472E+003   -5.27114E+003   -3.70163E+003    1.03476E+002    2.16698E+005
            4694    3.72539E+005    2.34084E+005    2.34084E+005    9.92979E+002   -1.95570E+005    4.29654E+005   -1.31689E+004    1.96436E+005    9.96541E+002    9.03607E+003    2.94740E+004   -3.72473E+003   -3.49903E+002    2.14551E+005
            4695    3.68227E+005    2.55197E+005    2.55197E+005    2.39300E+003   -1.67278E+005    4.22475E+005   -3.01039E+004    2.55202E+005    2.40406E+003    2.17101E+004    6.61976E+004   -3.75113E+003   -8.80232E+002    2.10029E+005
            4696    3.25741E+005    5.81146E+004   -2.91985E+005    2.14459E+003   -2.91985E+005    3.50099E+005    7.72418E+004   -3.14649E+005    2.15747E+003   -6.07186E+004   -1.73164E+005   -2.35102E+003    1.06245E+003    1.65750E+005
            4697    3.37601E+005    8.40286E+004   -2.86334E+005    4.19694E+003   -2.86334E+005    3.70362E+005    6.60361E+004   -3.15298E+005    4.16076E+003   -5.22537E+004   -1.50015E+005   -2.34447E+003    2.40349E+003    1.78592E+005
            4698    3.49297E+005    1.10745E+005   -2.79313E+005    4.59791E+003   -2.79313E+005    3.90058E+005    5.46565E+004   -3.09769E+005    4.53669E+003   -4.42441E+004   -1.24262E+005   -2.63222E+003    3.23274E+003    1.90850E+005
            4699    3.62384E+005    1.40971E+005   -2.69735E+005    4.99215E+003   -2.69735E+005    4.10706E+005    4.12573E+004   -2.96233E+005    4.92443E+003   -3.54242E+004   -9.32720E+004   -2.69767E+003    3.37916E+003    2.03271E+005
            4700    3.74938E+005    1.70139E+005   -2.59207E+005    3.68839E+003   -2.59207E+005    4.29346E+005    2.84599E+004   -2.70937E+005    3.63121E+003   -2.49945E+004   -6.40163E+004   -2.78072E+003    2.72361E+003    2.13755E+005
            4701    3.82170E+005    1.97644E+005   -2.42717E+005    2.25635E+003   -2.42717E+005    4.40362E+005    1.42722E+004   -2.21058E+005    2.22170E+003   -1.20641E+004   -3.29743E+004   -2.89605E+003    1.56112E+003    2.19910E+005
            4702    3.83646E+005    2.19571E+005   -2.23421E+005   -2.32109E+002   -2.23421E+005    4.42992E+005    1.36085E+003   -9.07582E+004   -2.31712E+002   -1.21672E+003   -2.63412E+003   -2.88813E+003    4.35562E-001    2.21476E+005
            4703    3.82719E+005    2.40728E+005    2.40728E+005   -2.19951E+003   -2.00443E+005    4.41172E+005   -1.26952E+004    2.13800E+005   -2.16472E+003    1.12454E+004    2.90048E+004   -2.81257E+003   -1.57732E+003    2.20385E+005
            4704    3.75121E+005    2.56025E+005    2.56025E+005   -4.16269E+003   -1.73973E+005    4.29998E+005   -2.59632E+004    2.65463E+005   -4.10253E+003    2.24393E+004    5.95530E+004   -2.80199E+003   -2.80543E+003    2.14166E+005
            4705    3.81467E+005    2.62633E+005    2.62633E+005    9.65213E+003   -1.76136E+005    4.38769E+005   -3.20498E+004    2.43934E+005    9.46045E+003    3.02031E+004    5.64859E+004   -6.59954E+003    2.36855E+003    2.18863E+005
            4706    3.89334E+005    2.46288E+005    2.46288E+005    5.00359E+003   -2.02861E+005    4.49149E+005   -1.61436E+004    1.96437E+005    4.91048E+003    1.52609E+004    2.82593E+004   -6.67573E+003    1.20636E+003    2.24375E+005
            4707    3.92221E+005    2.26560E+005    2.26560E+005    2.86358E+002   -2.26338E+005    4.52898E+005   -1.69435E+002   -4.32571E+004    2.88107E+002   -2.71136E+001    2.47312E+002   -6.64400E+003   -2.92327E+001    2.26351E+005
            4708    3.89249E+005    2.01861E+005   -2.47163E+005   -5.36792E+003   -2.47163E+005    4.49023E+005    1.68901E+004   -1.98618E+005   -5.27224E+003   -1.63342E+004   -2.90637E+004   -6.70827E+003   -1.23147E+003    2.24314E+005
            4709    3.80672E+005    1.75863E+005   -2.61981E+005   -9.43353E+003   -2.61981E+005    4.37844E+005    3.18505E+004   -2.43659E+005   -9.22357E+003   -3.01590E+004   -5.61690E+004   -6.83288E+003   -2.51248E+003    2.18398E+005
            4710    3.66653E+005    1.45804E+005   -2.73452E+005   -1.28055E+004   -2.73452E+005    4.19256E+005    4.68178E+004   -2.71644E+005   -1.25033E+004   -4.36372E+004   -8.43128E+004   -6.35066E+003   -3.47815E+003    2.08476E+005
            4711    3.46065E+005    1.13500E+005   -2.78087E+005   -1.33310E+004   -2.78087E+005    3.91586E+005    5.93060E+004   -2.86291E+005   -1.29853E+004   -5.36331E+004   -1.11300E+005   -5.40743E+003   -3.87431E+003    1.93482E+005
            4712    3.28322E+005    8.56859E+004   -2.80660E+005   -1.29999E+004   -2.80660E+005    3.66346E+005    6.93247E+004   -2.92049E+005   -1.26753E+004   -5.49910E+004   -1.40308E+005   -4.08263E+003   -3.96621E+003    1.77968E+005
            4713    3.21910E+005    6.65606E+004   -2.87353E+005   -1.19863E+004   -2.87353E+005    3.53914E+005    7.75930E+004   -2.99188E+005   -1.18141E+004   -5.53328E+004   -1.65632E+005   -1.29123E+003   -5.23219E+003    1.68007E+005
            4714    4.01064E+005    1.92865E+004   -4.11894E+005   -4.99658E+004   -4.11894E+005    4.31180E+005    1.47524E+005   -3.87268E+005    1.90325E+004   -6.28575E+004   -3.98748E+005    4.55678E+003   -3.07700E+003    6.76436E+004
            4715    3.72903E+005    1.62239E+004   -3.84786E+005   -4.84501E+004   -3.84786E+005    4.01010E+005    1.39004E+005   -3.59959E+005    1.59179E+004   -6.70308E+004   -3.65899E+005    4.60517E+003   -2.95867E+002    7.74581E+004
            4716    3.44155E+005    1.63469E+004   -3.53798E+005   -4.34750E+004   -3.53798E+005    3.70145E+005    1.26975E+005   -3.32155E+005    1.59949E+004   -7.05696E+004   -3.26351E+005    4.51136E+003    8.87753E+002    8.81671E+004
            4717    3.23776E+005    1.37356E+004   -3.31313E+005   -3.41421E+004   -3.31313E+005    3.45049E+005    1.17240E+005   -3.15664E+005    1.32159E+004   -7.73338E+004   -2.87602E+005    5.02906E+003    7.71052E+002    1.05359E+005
            4718    3.11890E+005    1.05390E+004   -3.11956E+005   -1.18805E+004   -3.11956E+005    3.22495E+005    1.04433E+005   -3.10070E+005    1.00662E+004   -7.55995E+004   -2.47765E+005    3.90674E+003   -6.55179E+002    1.23154E+005
            4719    3.11945E+005    1.48505E+004   -3.02329E+005    4.10317E+003   -3.02329E+005    3.17180E+005    9.44586E+004   -3.11528E+005    4.23987E+003   -7.24575E+004   -2.15158E+005    2.98177E+003   -2.24093E+003    1.41512E+005
            4720    3.16220E+005    4.12967E+004   -2.94387E+005   -2.11723E+003   -2.94387E+005    3.35684E+005    8.50693E+004   -3.09409E+005   -2.09363E+003   -6.33218E+004   -1.89792E+005    7.79552E+002   -4.61304E+003    1.55394E+005


  Minimum           2.63392E+005   -6.11073E+004   -5.73598E+005   -1.02072E+005   -5.73598E+005    3.04137E+005   -2.72654E+005   -5.32643E+005   -2.97539E+005   -1.38438E+005   -5.38587E+005   -6.08794E+004   -1.06740E+005    2.29955E+004
      At Element            4290            4582            4589            4602            4589            4290            4509            4583            4516            4582            4589             268             261            4285

  Maximum           7.64023E+005    5.87005E+005    5.87005E+005    1.20623E+005    1.14057E+005    8.77152E+005    2.37344E+005    5.63097E+005    2.74258E+005    1.61490E+005    5.48391E+005    6.08794E+004    1.06740E+005    2.53463E+005
      At Element            4516            4509            4509            4523            4509            4516            4582            3572            4296            4509            4523            4280            4273            4549

           Total    1.76013E+009    9.34816E+008   -8.83778E+007    4.47719E+005   -9.84484E+008    1.91930E+009    1.64067E+007   -7.86562E+007    7.69923E+006   -3.94505E+006   -5.29741E+007   -3.05176E-005    0.00000E+000    6.76003E+008


