********************************************************************************
Field Output Report, written Sun Apr 16 09:16:48 2023

Source 1
---------

   ODB: C:/Temp/23_shear.odb
   Step: Loading_step
   Frame: Increment      1: Step Time =    1.000

Loc 1 : Centroidal values from source 1

Output sorted by column "Element Label".

Field Output reported at element centroid for region: PART-1-1.Region_2

         Element         S.Mises     S.Max. Prin  S.Max. Prin(a)     S.Mid. Prin     S.Min. Prin        S.Tresca      S.Pressure     S.Third Inv           S.S11           S.S22           S.S33           S.S12           S.S13           S.S23
           Label          @Loc 1          @Loc 1          @Loc 1          @Loc 1          @Loc 1          @Loc 1          @Loc 1          @Loc 1          @Loc 1          @Loc 1          @Loc 1          @Loc 1          @Loc 1          @Loc 1
-------------------------------------------------------------------------------------------------------------------------------------------------------------------------------------------------------------------------------------------------
            4721    9.74434E+004    6.07308E+004    6.07308E+004   -1.63779E+003   -5.15573E+004    1.12288E+005   -2.51190E+003    5.60774E+004   -1.70187E+003   -4.46687E+004    5.39062E+004   -1.85995E+003    7.34229E+001    2.68149E+004
            4722    7.61237E+004    6.06451E+004    6.06451E+004    2.10603E+003   -2.54109E+004    8.60560E+004   -1.24467E+004    6.33903E+004    1.59838E+003   -2.48727E+004    6.06145E+004   -3.78823E+003    1.27445E+003    5.88444E+002
            4723    7.07616E+004    6.83455E+004    6.83455E+004    6.95409E+003   -9.04628E+003    7.73918E+004   -2.20844E+004    6.65063E+004    4.63106E+003   -3.36184E+003    6.49841E+004   -6.64328E+003    2.90044E+003   -1.48413E+004
            4724    6.56464E+004    7.20116E+004    7.20116E+004    1.51598E+004    1.65041E+002    7.18466E+004   -2.91121E+004    6.16140E+004    8.03975E+003    1.46955E+004    6.46012E+004   -9.29583E+003    3.86675E+003   -1.94792E+004
            4725    7.53430E+004    7.73538E+004    7.73538E+004    4.55267E+003   -2.96699E+002    7.76505E+004   -2.72033E+004    7.49907E+004    1.26699E+003    4.76187E+003    7.55809E+004   -2.47214E+003    1.23464E+003   -1.12339E+004
            4726    9.55497E+004    9.77351E+004    9.77351E+004    2.93719E+003    1.45105E+003    9.62841E+004   -3.40411E+004    9.55236E+004    2.20086E+003    2.33365E+003    9.75888E+004   -7.96704E+002    1.48787E+003   -3.41439E+003
            4727    7.74646E+004    7.60713E+004    7.60713E+004    1.63598E+003   -4.10339E+003    8.01747E+004   -2.45346E+004    7.69841E+004    5.54748E+002   -2.14000E+003    7.51891E+004   -2.32468E+003    5.75228E+002   -8.26417E+003
            4728    1.01802E+005    1.01330E+005    1.01330E+005    9.82146E+002   -1.86667E+003    1.03196E+005   -3.34817E+004    1.01712E+005    6.64633E+002   -1.49781E+003    1.01278E+005   -9.16252E+002    6.54823E+002   -2.19438E+003
            4729    8.03080E+004    7.27003E+004    7.27003E+004    1.20025E+003   -1.41887E+004    8.68890E+004   -1.99040E+004    7.68850E+004    8.28957E+002   -1.35984E+004    7.24813E+004   -2.36328E+003    2.81301E+001    4.34560E+003
            4730    9.94386E+004    9.84860E+004    9.84860E+004    1.87810E+003   -3.56006E+003    1.02046E+005   -3.22680E+004    9.91032E+004    1.77080E+003   -3.27027E+003    9.83035E+004   -7.84347E+002   -4.51779E+002    4.28040E+003
            4731    8.92081E+004    7.08342E+004    7.08342E+004    8.32432E+002   -2.96105E+004    1.00445E+005   -1.40187E+004    7.61320E+004    6.47601E+002   -1.95145E+004    6.09231E+004   -2.57051E+003   -3.71707E+001    2.99073E+004
            4732    8.91645E+004    8.63435E+004    8.63435E+004    8.00511E+002   -6.04750E+003    9.23910E+004   -2.70322E+004    8.85699E+004    7.82330E+002   -4.14758E+003    8.44618E+004   -8.49457E+002   -1.65301E+003    1.29210E+004
            4733    7.10340E+004    6.69357E+004    6.69357E+004    7.55399E+002   -8.11814E+003    7.50539E+004   -1.98577E+004    6.97707E+004    8.47315E+002   -2.43115E+003    6.11568E+004   -3.31792E+002   -2.75518E+003    1.98076E+004
            4734    5.26539E+004    4.05143E+004    4.05143E+004   -2.82153E+002   -1.89245E+004    5.94389E+004   -7.10255E+003    4.42586E+004   -1.72394E+002   -2.21288E+003    2.36929E+004   -1.58734E+003   -1.63464E+003    2.66736E+004
            4735    1.04102E+005    7.25166E+004    7.25166E+004    2.65213E+002   -4.68082E+004    1.19325E+005   -8.65788E+003    7.37611E+004    2.44317E+002   -1.56702E+004    4.13996E+004   -1.39388E+003   -6.05679E+001    5.23751E+004
            4736    1.18100E+005    7.27443E+004    7.27443E+004   -9.28847E+001   -6.35180E+004    1.36262E+005   -3.04446E+003    5.81370E+004   -1.23794E+002   -5.41004E+003    1.46672E+004   -2.93648E+003    3.85645E+001    6.73224E+004
            4737    1.59914E+005    9.35740E+004    9.35740E+004    2.57803E+001   -9.10736E+004    1.84648E+005   -8.42059E+002    4.54566E+004    1.06251E+001   -9.04900E+003    1.15646E+004   -2.75254E+003    8.25576E+001    9.17053E+004
            4738    1.93630E+005    1.09861E+005   -1.13713E+005   -5.88480E+001   -1.13713E+005    2.23574E+005    1.30389E+003   -5.94423E+004   -8.83607E+001   -1.33734E+004    9.55005E+003   -1.97929E+003    7.69848E+002    1.11178E+005
            4739    2.22536E+005    1.24778E+005   -1.32147E+005    1.88413E+002   -1.32147E+005    2.56924E+005    2.39355E+003   -8.31630E+004    1.82025E+002   -1.52705E+004    7.90783E+003   -6.32029E+002    6.75940E+002    1.27935E+005
            4740    2.48311E+005    1.39377E+005   -1.47301E+005    4.92508E+002   -1.47301E+005    2.86678E+005    2.47699E+003   -9.37346E+004    4.96495E+002   -1.43276E+004    6.40010E+003    3.11719E+002    8.14438E+002    1.42961E+005
            4741    1.43610E+005    8.49529E+004    8.49529E+004    4.68862E+002   -8.08632E+004    1.65816E+005   -1.51952E+003    4.60247E+004    4.18596E+002   -3.22839E+004    3.64238E+004   -1.67062E+003    1.14049E+003    7.54280E+004
            4742    1.86426E+005    1.00913E+005   -1.14193E+005    5.49253E+002   -1.14193E+005    2.15106E+005    4.24358E+003   -9.07789E+004    4.96974E+002   -4.46050E+004    3.13773E+004   -1.75131E+003    1.90433E+003    1.00588E+005
            4743    2.23023E+005    1.17231E+005   -1.39913E+005    7.78444E+002   -1.39913E+005    2.57144E+005    7.30139E+003   -1.21675E+005    7.41232E+002   -4.92560E+004    2.66106E+004   -1.43366E+003    2.39411E+003    1.22819E+005
            4744    2.55196E+005    1.34037E+005   -1.60231E+005    3.10221E+002   -1.60231E+005    2.94268E+005    8.62791E+003   -1.37679E+005    3.07960E+002   -4.88074E+004    2.26157E+004   -4.33863E+002    2.08928E+003    1.42719E+005
            4745    2.74166E+005    1.25436E+005   -1.90194E+005   -1.11513E+004   -1.90194E+005    3.15629E+005    2.53031E+004   -1.68082E+005   -1.12398E+004   -1.07567E+005    4.28976E+004    3.11752E+003   -6.24927E+003    1.38559E+005
            4746    2.24435E+005    9.85114E+004   -1.59536E+005   -9.78611E+003   -1.59536E+005    2.58047E+005    2.36036E+004   -1.45753E+005   -9.85181E+003   -1.06029E+005    4.50698E+004    2.93595E+003   -5.18896E+003    1.04428E+005
            4747    1.76310E+005    8.08048E+004   -1.22162E+005   -6.94810E+003   -1.22162E+005    2.02967E+005    1.61017E+004   -1.08295E+005   -6.91467E+003   -8.87972E+004    4.74067E+004    1.10726E+003   -3.46038E+003    7.51487E+004
            4748    1.28935E+005    6.95418E+004   -7.93037E+004   -2.07497E+003   -7.93037E+004    1.48846E+005    3.94562E+003   -5.19066E+004   -2.04137E+003   -6.15916E+004    5.17961E+004   -7.64569E+002   -1.38928E+003    4.81865E+004
            4749    9.45194E+004    9.44194E+004    9.44194E+004    1.05555E+003   -1.21476E+003    9.56341E+004   -3.14201E+004    9.44581E+004   -6.47651E+002    5.28694E+002    9.43791E+004   -9.93601E+002    1.16523E+003   -1.54926E+003
            4750    7.09843E+004    7.59142E+004    7.59142E+004    1.11325E+004    3.46364E+001    7.58796E+004   -2.90271E+004    6.89919E+004    9.49593E+002    1.06314E+004    7.55004E+004   -3.11377E+003    1.45304E+003   -4.95258E+003
            4751    5.65212E+004    6.67801E+004    6.67801E+004    2.42876E+004    2.63347E+003    6.41466E+004   -3.12337E+004    4.56822E+004    8.55530E+003    2.61771E+004    5.89687E+004   -1.13501E+004    3.42387E+003   -1.64250E+004
            4752    9.33878E+004    9.70112E+004    9.70112E+004    4.93900E+003    2.36118E+003    9.46500E+004   -3.47705E+004    9.33077E+004    3.01655E+003    4.34952E+003    9.69453E+004   -1.10869E+003    4.91397E+002    2.42797E+003
            4753    7.22168E+004    7.81760E+004    7.81760E+004    1.25768E+004    7.91326E+002    7.73847E+004   -3.05147E+004    7.00040E+004    2.39522E+003    1.12727E+004    7.78762E+004   -3.97063E+003    1.06670E+003    4.41411E+003
            4754    4.41178E+004    5.41000E+004    5.41000E+004    4.05115E+004    4.78634E+003    4.93137E+004   -3.31326E+004   -3.89752E+004    1.00319E+004    3.54434E+004    5.39225E+004   -1.25499E+004    2.37907E+003   -1.82980E+002
            4755    1.09517E+005    1.08527E+005    1.08527E+005    6.01259E+002   -2.51379E+003    1.11041E+005   -3.55382E+004    1.09417E+005   -1.66300E+003    1.51748E+002    1.08126E+005   -1.46728E+003   -1.49917E+003    6.40421E+003
            4756    8.69710E+004    9.21868E+004    9.21868E+004    1.25208E+004   -5.98675E+002    9.27855E+004   -3.47030E+004    8.47018E+004    1.54497E+003    1.48451E+004    8.77189E+004   -5.02359E+003   -2.29602E+002    1.85417E+004
            4757    6.17521E+004    7.29333E+004    7.29333E+004    3.06373E+004    2.07012E+003    7.08632E+004   -3.52136E+004    4.25864E+004    9.64546E+003    4.06755E+004    5.53198E+004   -1.45658E+004    5.51190E+002    2.26877E+004
            4758    2.54964E+005    1.51444E+005    1.51444E+005   -3.07783E+002   -1.42916E+005    2.94360E+005   -2.73975E+003    9.62302E+004   -3.13533E+002    1.49298E+004   -6.39703E+003    5.69052E+002   -7.10592E+002    1.46790E+005
            4759    2.63175E+005    1.64620E+005    1.64620E+005   -4.96074E+002   -1.38876E+005    3.03496E+005   -8.41582E+003    1.40408E+005   -4.92712E+002    4.83023E+004   -2.25621E+004   -4.42488E+002   -1.88953E+003    1.47541E+005
            4760    2.79642E+005    1.93414E+005    1.93414E+005    1.10974E+004   -1.28547E+005    3.21961E+005   -2.53215E+004    1.70615E+005    1.11945E+004    1.07003E+005   -4.22331E+004    3.18575E+003    6.25327E+003    1.42477E+005
            4761    2.76856E+005    1.63023E+005    1.63023E+005   -5.55551E+002   -1.56633E+005    3.19657E+005   -1.94482E+003    9.51787E+004   -5.64440E+002    1.12515E+004   -4.85260E+003    1.24899E+003   -5.76129E+002    1.59619E+005
            4762    2.91952E+005    1.79281E+005    1.79281E+005    1.35358E+002   -1.57609E+005    3.36891E+005   -7.26916E+003    1.39785E+005    1.28936E+002    3.85577E+004   -1.68791E+004    3.05042E+002   -1.23126E+003    1.66144E+005
            4763    3.23571E+005    2.12599E+005    2.12599E+005    9.42650E+003   -1.60535E+005    3.73135E+005   -2.04968E+004    1.73219E+005    9.50102E+003    8.67847E+004   -3.47952E+004    2.40085E+003    5.47147E+003    1.76288E+005
            4764    2.92654E+005    1.70869E+005    1.70869E+005   -1.56725E+002   -1.67050E+005    3.37919E+005   -1.22087E+003    8.09725E+004   -1.60891E+002    6.26897E+003   -2.44548E+003    1.58562E+003   -2.32094E+002    1.68896E+005
            4765    3.12267E+005    1.85718E+005    1.85718E+005   -2.20958E+002   -1.74798E+005    3.60516E+005   -3.56641E+003    1.18432E+005   -2.26897E+002    1.99661E+004   -9.04000E+003    8.29806E+002   -6.39216E+002    1.79670E+005
            4766    3.54225E+005    2.18874E+005    2.18874E+005    5.34342E+003   -1.90015E+005    4.08889E+005   -1.14011E+004    1.50625E+005    5.38089E+003    4.81727E+004   -1.93504E+004    1.53404E+003    3.09622E+003    2.01609E+005
            4767    2.97403E+005    1.71306E+005   -1.72105E+005   -9.79817E+001   -1.72105E+005    3.43411E+005    2.98936E+002   -4.30857E+004   -9.81034E+001   -1.14595E+003    3.47250E+002    1.64888E+003   -4.19938E+000    1.71696E+005
            4768    3.18566E+005    1.83297E+005   -1.84550E+005    1.01056E+002   -1.84550E+005    3.67847E+005    3.83836E+002   -6.04993E+004    1.00964E+002   -2.57771E+003    1.32524E+003    1.03771E+003   -4.71731E+000    1.83910E+005
            4769    3.64758E+005    2.09696E+005   -2.11489E+005   -2.16769E+002   -2.11489E+005    4.21185E+005    6.70045E+002   -6.47432E+004   -2.18331E+002   -2.97974E+003    1.18793E+003    1.14180E+003   -1.40276E+002    2.10579E+005
            4770    2.89184E+005    1.64897E+005   -1.69012E+005    4.20580E+002   -1.69012E+005    3.33909E+005    1.23158E+003   -8.53473E+004    4.26698E+002   -7.32006E+003    3.19864E+003    1.49793E+003    3.51553E+002    1.66864E+005
            4771    3.08293E+005    1.70756E+005   -1.85141E+005   -3.01375E+002   -1.85141E+005    3.55897E+005    4.89564E+003   -1.25224E+005   -2.95488E+002   -2.53244E+004    1.09330E+004    9.43596E+002    5.63313E+002    1.77019E+005
            4772    3.51735E+005    1.87649E+005   -2.18344E+005   -5.61790E+003   -2.18344E+005    4.05993E+005    1.21041E+004   -1.53366E+005   -5.65709E+003   -5.22363E+004    2.15811E+004    1.54443E+003   -3.36330E+003    1.99580E+005
            4773    2.71061E+005    1.52740E+005   -1.60219E+005    3.42028E+002   -1.60219E+005    3.12959E+005    2.37870E+003   -9.65236E+004    3.49453E+002   -1.26329E+004    5.14736E+003    1.09501E+003    5.36923E+002    1.56222E+005
            4774    2.85034E+005    1.53212E+005   -1.75651E+005    2.61379E+002   -1.75651E+005    3.28862E+005    7.39253E+003   -1.40815E+005    2.71169E+002   -4.06154E+004    1.81667E+004    4.05767E+002    1.40986E+003    1.61776E+005
            4775    3.19242E+005    1.56840E+005   -2.11228E+005   -9.58410E+003   -2.11228E+005    3.68068E+005    2.13238E+004   -1.75031E+005   -9.65907E+003   -9.02264E+004    3.59141E+004    2.46206E+003   -5.55836E+003    1.72786E+005
            4776    2.31269E+005    2.24243E+005    2.24243E+005    2.89674E+004   -3.11485E+004    2.55391E+005   -7.40205E+004    2.12598E+005    2.38272E+004    3.46821E+004    1.63552E+005   -2.93108E+004   -1.06005E+004    1.03998E+005
            4777    1.80194E+005    1.77325E+005    1.77325E+005    5.75373E+003   -1.04024E+004    1.87728E+005   -5.75588E+004    1.78553E+005    4.24366E+003    5.19048E+003    1.63242E+005   -6.88863E+003   -5.58884E+003    4.86577E+004
            4778    1.78644E+005    1.84896E+005    1.84896E+005    8.23588E+003    4.33251E+003    1.80564E+005   -6.58216E+004    1.78548E+005    7.87345E+003    6.41428E+003    1.83177E+005   -1.93725E+003   -5.96320E+003    1.63964E+004
            4779    1.69869E+005    1.66525E+005    1.66525E+005    2.23478E+004   -2.07382E+004    1.87263E+005   -5.60447E+004    1.56852E+005    1.63017E+004    4.07767E+004    1.11056E+005   -2.38871E+004   -5.45019E+003    8.12326E+004
            4780    1.49599E+005    1.48814E+005    1.48814E+005    5.23105E+003   -6.15137E+003    1.54966E+005   -4.92979E+004    1.48621E+005    1.32872E+003    1.31101E+004    1.33455E+005   -7.07999E+003   -3.89611E+003    4.52568E+004
            4781    1.60285E+005    1.57308E+005    1.57308E+005   -1.36742E+003   -4.53826E+003    1.61847E+005   -5.04676E+004    1.60214E+005   -2.83848E+003   -1.60783E+003    1.55849E+005   -2.09354E+003   -5.68898E+003    1.40595E+004
            4782    1.13616E+005    1.19530E+005    1.19530E+005    2.28017E+004   -5.58848E+003    1.25119E+005   -4.55813E+004    1.05182E+005    1.45021E+004    4.66426E+004    7.55991E+004   -1.84976E+004   -1.71378E+003    5.49883E+004
            4783    1.12018E+005    1.15294E+005    1.15294E+005    8.91350E+003   -1.61693E+003    1.16911E+005   -4.08635E+004    1.10896E+005    3.82963E+003    1.32222E+004    1.05539E+005   -6.03019E+003   -1.68844E+003    3.13722E+004
            4784    1.25222E+005    1.30143E+005    1.30143E+005    6.36110E+003    3.52799E+003    1.26615E+005   -4.66772E+004    1.25150E+005    5.12694E+003    5.91980E+003    1.28985E+005   -1.67992E+003   -2.79092E+003    1.16263E+004
            4785    8.19324E+004    5.68671E+003   -7.91310E+004   -4.26351E+002   -7.91310E+004    8.48177E+004    2.46236E+004   -8.14170E+004   -5.05622E+002    3.41489E+003   -7.67799E+004   -6.53045E+002    2.55345E+003    1.36615E+004
            4786    9.54582E+004    1.67211E+003   -9.55554E+004   -1.97074E+003   -9.55554E+004    9.72275E+004    3.19513E+004   -9.53017E+004   -1.94279E+003    1.00228E+003   -9.49135E+004   -5.74117E+002    1.57267E+003    7.69915E+003
            4787    1.05863E+005    3.08356E+003   -1.04665E+005   -7.93511E+002   -1.04665E+005    1.07748E+005    3.41248E+004   -1.05703E+005   -6.82280E+002    2.92972E+003   -1.04622E+005   -6.57931E+002    3.54394E+002    2.10813E+003
            4788    1.04224E+005   -1.09811E+003   -1.06029E+005   -2.52656E+003   -1.06029E+005    1.04931E+005    3.65511E+004   -1.04202E+005   -2.35049E+003   -1.30386E+003   -1.05999E+005   -4.90537E+002   -8.64383E+002   -1.53033E+003
            4789    1.02977E+005    1.78472E+003   -1.01932E+005    2.88012E+002   -1.01932E+005    1.03717E+005    3.32865E+004   -1.02952E+005    4.26099E+002    1.56373E+003   -1.01849E+005   -4.94788E+002   -1.41132E+003   -2.55567E+003
            4790    8.53489E+004    2.34654E+004   -7.14121E+004   -8.83761E+002   -7.14121E+004    9.48775E+004    1.62768E+004   -7.69331E+004   -8.54610E+002    8.36815E+003   -5.63440E+004   -1.64785E+003    8.26644E+002    3.46330E+004
            4791    8.34982E+004    1.42192E+004   -7.57488E+004   -7.43596E+002   -7.57488E+004    8.99680E+004    2.07577E+004   -8.03985E+004   -5.95989E+002    1.00663E+004   -7.17434E+004   -1.68828E+003    5.61275E+002    1.85133E+004
            4792    8.47103E+004    5.74823E+003   -8.24672E+004   -1.76228E+003   -8.24672E+004    8.82155E+004    2.61604E+004   -8.39563E+004   -1.26574E+003    5.04720E+003   -8.22627E+004   -1.87276E+003    7.81568E+001    4.22674E+003
            4793    8.81842E+004    3.86409E+003   -8.69578E+004   -1.67202E+003   -8.69578E+004    9.08218E+004    2.82552E+004   -8.77920E+004   -1.11874E+003    2.99376E+003   -8.66407E+004   -1.70885E+003   -6.33108E+002   -5.28731E+003
            4794    8.62180E+004   -5.12718E+002   -8.84592E+004   -4.08044E+003   -8.84592E+004    8.79465E+004    3.10174E+004   -8.60517E+004   -1.60136E+003   -3.55404E+003   -8.78969E+004   -1.73402E+003   -1.18078E+003   -6.78485E+003
            4795    1.06192E+005    4.85796E+004   -7.31386E+004    5.73916E+002   -7.31386E+004    1.21718E+005    7.99503E+003   -7.52636E+004    6.29033E+002    2.35359E+004   -4.81500E+004   -2.10594E+003    1.02149E+002    4.91321E+004
            4796    8.69262E+004    2.85431E+004   -6.93220E+004   -1.07683E+003   -6.93220E+004    9.78651E+004    1.39519E+004   -7.42276E+004   -9.11287E+002    2.10337E+004   -6.19780E+004   -2.41273E+003    1.71265E+002    2.57408E+004
            4797    7.85623E+004    1.56956E+004   -6.97511E+004   -6.42380E+002   -6.97511E+004    8.54466E+004    1.82326E+004   -7.45950E+004   -1.30512E+002    1.49736E+004   -6.95410E+004   -2.83805E+003   -2.42492E+002    4.21748E+003
            4798    7.44000E+004    3.46721E+003   -7.44033E+004   -4.04351E+003   -7.44033E+004    7.78705E+004    2.49932E+004   -7.35398E+004   -2.65378E+003    1.28725E+003   -7.36131E+004   -3.05148E+003   -9.99613E+002   -7.61633E+003
            4799    7.52180E+004    2.06914E+003   -7.62425E+004   -4.55644E+003   -7.62425E+004    7.83116E+004    2.62433E+004   -7.45572E+004   -9.07454E+002   -3.40421E+003   -7.44181E+004   -3.56098E+003   -1.47601E+003   -1.13528E+004
            4800    1.30150E+005    7.34128E+004   -7.68659E+004   -5.95964E+002   -7.68659E+004    1.50279E+005    1.34970E+003   -3.85857E+004   -5.17116E+002    4.52327E+004   -4.87647E+004   -2.35452E+003   -7.32901E+002    5.85737E+004
            4801    9.74205E+004    4.71029E+004   -6.49057E+004    1.14770E+002   -6.49057E+004    1.12009E+005    5.89601E+003   -6.33119E+004    2.41401E+002    4.04332E+004   -5.83627E+004   -2.38821E+003   -4.96393E+002    2.62530E+004
            4802    7.61021E+004    2.12915E+004   -6.36013E+004   -1.49656E+003   -6.36013E+004    8.48928E+004    1.46021E+004   -6.77639E+004   -9.67600E+002    2.06698E+004   -6.35086E+004   -3.43680E+003   -9.01756E+002    2.63819E+003
            4803    7.13604E+004    9.35891E+003   -6.71328E+004   -2.35238E+003   -6.71328E+004    7.64917E+004    2.00421E+004   -6.91486E+004   -9.41608E+002    5.56462E+003   -6.47492E+004   -4.25131E+003   -1.59086E+003   -1.29307E+004
            4804    6.46587E+004    5.69119E+002   -6.89175E+004   -1.05216E+004   -6.89175E+004    6.94867E+004    2.62900E+004   -6.24647E+004   -2.29176E+003   -1.20449E+004   -6.45333E+004   -5.53164E+003   -2.26497E+003   -1.54000E+004
            4805    6.67101E+004    1.12286E+003   -7.23532E+004   -1.55855E+004   -7.23532E+004    7.34760E+004    2.89386E+004   -6.17335E+004   -9.98948E+003   -1.50318E+004   -6.17945E+004   -1.09270E+004   -4.84666E+003   -2.29027E+004
            4806    6.93330E+004    1.03271E+004   -6.65630E+004   -8.80472E+003   -6.65630E+004    7.68901E+004    2.16802E+004   -6.29712E+004   -7.01812E+003    5.11648E+003   -6.31389E+004   -7.11088E+003   -3.91023E+003   -1.45110E+004
            4807    8.01510E+004    3.30778E+004   -5.84904E+004   -1.06013E+003   -5.84904E+004    9.15682E+004    8.82424E+003   -6.01968E+004   -7.58074E+002    3.27011E+004   -5.84157E+004   -3.44796E+003   -1.52451E+003   -1.67823E+003
            4808    1.02114E+005    6.01505E+004    6.01505E+004    2.59328E+003   -5.77492E+004    1.17900E+005   -1.66486E+003   -3.51835E+004    2.59650E+003    5.65384E+004   -5.41403E+004   -6.41091E+002    2.90557E+002    2.03012E+004
            4809    1.38798E+005    9.31120E+004    9.31120E+004    5.71274E+003   -6.69310E+004    1.60043E+005   -1.06313E+004    7.51722E+004    5.71813E+003    7.54312E+004   -4.92555E+004    1.20460E+003    2.05067E+003    5.01112E+004
            4810    1.80893E+005    1.25088E+005    1.25088E+005    6.51225E+003   -8.31202E+004    2.08208E+005   -1.61599E+004    1.12095E+005    6.53052E+003    9.05196E+004   -4.85704E+004    1.92148E+003    3.57057E+003    7.73624E+004
            4811    2.30544E+005    1.63018E+005    1.63018E+005    1.00960E+004   -1.02154E+005    2.65171E+005   -2.36533E+004    1.47498E+005    1.01625E+004    1.05988E+005   -4.51908E+004    2.92905E+003    5.34796E+003    1.08763E+005
            4812    2.30882E+005    1.45608E+005    1.45608E+005   -1.04254E+002   -1.20594E+005    2.66202E+005   -8.30309E+003    1.26175E+005   -7.77910E+001    5.19574E+004   -2.69704E+004   -1.23463E+003   -2.03963E+003    1.27095E+005
            4813    2.29820E+005    1.36413E+005    1.36413E+005   -3.38945E+002   -1.28918E+005    2.65332E+005   -2.38521E+003    8.64992E+004   -3.33530E+002    1.56268E+004   -8.13767E+003   -4.62761E+002   -8.61883E+002    1.32129E+005
            4814    1.92813E+005    1.19084E+005    1.19084E+005   -5.46981E+002   -1.03345E+005    2.22429E+005   -5.06394E+003    9.78297E+004   -5.05930E+002    4.81060E+004   -3.24083E+004   -1.55900E+003   -1.82126E+003    1.03646E+005
            4815    2.02743E+005    1.19528E+005    1.19528E+005    2.62663E+001   -1.14562E+005    2.34090E+005   -1.66417E+003    6.71587E+004    4.71763E+001    1.44680E+004   -9.52267E+003   -1.64107E+003   -7.00449E+002    1.16415E+005
            4816    1.75430E+005    1.01258E+005   -1.01311E+005   -1.52928E+002   -1.01311E+005    2.02569E+005    6.87594E+001    2.26737E+004   -1.17816E+002    1.06190E+004   -1.07075E+004   -2.57821E+003   -5.64800E+002    1.00687E+005
            4817    1.41286E+005    7.94579E+004   -8.36634E+004    2.01261E+002   -8.36634E+004    1.63121E+005    1.33477E+003   -5.16677E+004    2.19295E+002    7.23538E+003   -1.14590E+004   -3.17147E+003   -4.69121E+000    8.09609E+004
            4818    9.93726E+004    5.15797E+004   -6.29858E+004   -1.37101E+002   -6.29858E+004    1.14566E+005    3.84770E+003   -5.47591E+004   -1.12413E+002    1.55820E+003   -1.29889E+004   -3.09546E+003    1.22757E+002    5.67334E+004
            4819    4.31028E+004    1.54972E+004   -3.31038E+004    4.86692E+002   -3.31038E+004    4.86010E+004    5.70666E+003   -3.64860E+004    3.50194E+002    1.59802E+003   -1.90682E+004   -1.46359E+003    1.67260E+003    2.19102E+004
            4820    1.57287E+005    9.20737E+004    9.20737E+004    1.36281E+002   -8.95413E+004    1.81615E+005   -8.89559E+002    4.37698E+004    1.70249E+002    3.48836E+004   -3.23851E+004   -1.53287E+003   -8.94922E+002    8.43305E+004
            4821    1.23616E+005    6.34375E+004   -7.90439E+004   -3.73395E+002   -7.90439E+004    1.42481E+005    5.32661E+003   -6.97243E+004   -3.62129E+002    1.61808E+004   -3.17985E+004   -1.38433E+003    1.98387E+001    6.70652E+004
            4822    9.17930E+004    3.77407E+004   -6.69042E+004    1.40700E+001   -6.69042E+004    1.04645E+005    9.71645E+003   -7.09074E+004   -6.71199E-001    7.67387E+003   -3.68225E+004   -8.85545E+002    7.38365E+002    4.73449E+004
            4823    6.09587E+004    6.24144E+003   -5.78630E+004   -6.32682E+002   -5.78630E+004    6.41044E+004    1.74181E+004   -6.00774E+004   -7.12081E+002    5.53307E+002   -5.20954E+004   -1.98242E+002    3.04545E+003    1.80846E+004
            4824    2.32410E+005    2.51716E+005    2.51716E+005    2.15521E+004    1.71223E+004    2.34594E+005   -9.67968E+004    2.32315E+005    1.99254E+004    2.24658E+004    2.47999E+005    2.48591E+003    2.55553E+003    2.90504E+004
            4825    2.32112E+005    2.19634E+005    2.19634E+005   -1.05894E+004   -1.43231E+004    2.33957E+005   -6.49070E+004    2.32045E+005   -1.33223E+004   -1.06680E+004    2.18711E+005    8.26190E+002   -1.06656E+004    1.00339E+004
            4826    2.06394E+005    2.15511E+005    2.15511E+005    1.08041E+004    7.47106E+003    2.08040E+005   -7.79288E+004    2.06333E+005    1.09519E+004    8.44642E+003    2.14388E+005   -8.17934E+002   -6.28379E+003    1.38525E+004
            4827    2.09971E+005    2.03169E+005    2.03169E+005   -5.58668E+003   -7.99677E+003    2.11166E+005   -6.31951E+004    2.09940E+005   -6.19197E+003   -6.21985E+003    2.01997E+005   -1.74279E+003   -9.07233E+003    1.26915E+004
            4828    2.79548E+005    2.77488E+005    2.77488E+005    1.13612E+004   -1.37833E+004    2.91271E+005   -9.16886E+004    2.76987E+005    5.35491E+003    4.11604E+003    2.65595E+005    1.03335E+004   -2.97339E+003    5.70136E+004
            4829    2.67968E+005    2.59907E+005    2.59907E+005   -4.50708E+003   -1.14779E+004    2.71385E+005   -8.13075E+004    2.67764E+005   -5.79484E+003    4.87276E+002    2.49230E+005    8.91687E+002   -1.08699E+004    5.15587E+004
            4830    2.32174E+005    2.26592E+005    2.26592E+005    3.07608E+003   -1.33647E+004    2.39957E+005   -7.21013E+004    2.30859E+005    3.34908E+003   -5.87816E+003    2.18833E+005   -1.97207E+003   -7.84625E+003    4.16395E+004
            4831    2.15271E+005    2.08771E+005    2.08771E+005   -2.69365E+002   -1.22325E+004    2.21003E+005   -6.54230E+004    2.14522E+005   -1.23865E+003    1.88314E+003    1.95625E+005   -6.02675E+003   -8.30289E+003    5.12369E+004
            4832    2.80125E+005    2.68276E+005    2.68276E+005    3.00158E+004   -4.03116E+004    3.08588E+005   -8.59935E+004    2.59122E+005    2.41842E+004    1.54796E+004    2.18317E+005   -3.31742E+004   -1.66920E+004    1.07827E+005
            4833    3.28747E+005    3.24669E+005    3.24669E+005    3.96933E+004   -3.49969E+004    3.59666E+005   -1.09788E+005    3.08779E+005    3.41909E+004    1.52062E+004    2.79968E+005   -3.52470E+004   -2.34592E+004    1.11450E+005
            4834    3.50345E+005    3.51783E+005    3.51783E+005    3.78052E+004   -2.61248E+004    3.77908E+005   -1.21155E+005    3.36845E+005    2.98883E+004    1.53309E+004    3.18244E+005   -3.42004E+004   -2.71172E+004    9.91092E+004
            4835    3.87871E+005    4.01484E+005    4.01484E+005    4.54561E+004   -1.18533E+004    4.13337E+005   -1.45029E+005    3.78170E+005    3.99550E+004    2.93615E+004    3.65770E+005   -3.15223E+004   -3.09789E+004    1.07803E+005
            4836    3.61205E+005    4.21201E+005    4.21201E+005    7.80992E+004    4.42722E+004    3.76929E+005   -1.81191E+005    3.57616E+005    7.49603E+004    8.51493E+004    3.83463E+005   -2.84709E+004   -4.02705E+004    1.01715E+005
            4837    3.50570E+005    4.33234E+005    4.33234E+005    1.00490E+005    6.72113E+004    3.66022E+005   -2.00312E+005    3.46989E+005    8.69289E+004    1.12472E+005    4.01534E+005   -2.98486E+004   -5.20617E+004    8.26685E+004
            4838    3.27195E+005    4.27913E+005    4.27913E+005    1.25385E+005    8.06527E+004    3.47260E+005   -2.11317E+005    3.20207E+005    9.67068E+004    1.46302E+005    3.90941E+005   -3.05363E+004   -5.75484E+004    8.14105E+004
            4839    2.85938E+005    3.85546E+005    3.85546E+005    1.24983E+005    7.96494E+004    3.05897E+005   -1.96726E+005    2.77680E+005    9.36232E+004    1.52754E+005    3.43801E+005   -2.48695E+004   -5.81854E+004    7.84352E+004
            4840    3.19276E+005    3.26060E+005    3.26060E+005    3.54001E+004   -1.56751E+004    3.41735E+005   -1.15262E+005    3.09885E+005   -1.51391E+004    5.75325E+004    3.03392E+005   -3.65955E+003    5.23413E+003    7.79320E+004
            4841    2.96977E+005    3.92960E+005    3.92960E+005    1.27833E+005    7.20445E+004    3.20915E+005   -1.97612E+005    2.84828E+005    9.76171E+004    1.35549E+005    3.59671E+005   -9.15680E+002    7.61029E+004    5.95739E+004
            4842    3.52942E+005    3.47867E+005    3.47867E+005    2.38676E+004   -2.82262E+004    3.76094E+005   -1.14503E+005    3.44133E+005   -2.81606E+004    5.20668E+004    3.19603E+005    1.11917E+003    4.76627E+003    9.13247E+004
            4843    3.39841E+005    4.42090E+005    4.42090E+005    1.33701E+005    7.77434E+004    3.64347E+005   -2.17845E+005    3.29236E+005    1.06384E+005    1.48777E+005    3.98374E+005    1.73034E+003    8.20362E+004    8.28983E+004
            4844    3.76740E+005    3.65418E+005    3.65418E+005    9.95847E+003   -2.94968E+004    3.94915E+005   -1.15293E+005    3.72050E+005   -2.89860E+004    4.71866E+004    3.27680E+005    4.83838E+003    4.93555E+002    1.09572E+005
            4845    3.60808E+005    4.50617E+005    4.50617E+005    1.22635E+005    6.41325E+004    3.86485E+005   -2.12462E+005    3.49899E+005    9.90537E+004    1.48492E+005    3.89839E+005    2.41734E+003    8.19529E+004    1.11642E+005
            4846    3.53022E+005    3.25229E+005    3.25229E+005   -1.18612E+004   -4.18149E+004    3.67044E+005   -9.05177E+004    3.50146E+005   -4.09971E+004    3.20667E+004    2.80484E+005    5.54825E+003    9.75607E+002    1.14498E+005
            4847    3.66393E+005    4.59819E+005    4.59819E+005    1.24458E+005    6.87703E+004    3.91049E+005   -2.17682E+005    3.56686E+005    1.02893E+005    1.52283E+005    3.97871E+005    2.35332E+003    7.84698E+004    1.16722E+005
            4848    3.92935E+005    4.62086E+005    4.62086E+005    1.08253E+005    3.92029E+004    4.22883E+005   -2.03181E+005    3.78923E+005    7.44261E+004    1.50686E+005    3.84430E+005    2.07785E+002    7.82041E+004    1.38772E+005
            4849    4.95966E+005    5.77596E+005    5.77596E+005    1.03604E+005    6.22460E+004    5.15350E+005   -2.47815E+005    4.92064E+005    9.91143E+004    1.12664E+005    5.31667E+005    9.45155E+002    8.50558E+004    1.19515E+005
            4850    3.68860E+005    3.56103E+005    3.56103E+005   -2.96834E+003   -2.18231E+004    3.77926E+005   -1.10437E+005    3.67773E+005   -9.53940E+003    2.63931E+004    3.14458E+005    7.78094E+003   -4.94645E+003    1.17160E+005
            4851    3.24534E+005    2.94178E+005    2.94178E+005   -2.54379E+004   -3.50618E+004    3.29239E+005   -7.78926E+004    3.24213E+005   -3.09662E+004   -2.66928E+004    2.91337E+005    4.00241E+003   -8.18881E+003    2.91730E+004
            4852    5.48996E+004   -5.70661E+003   -6.83045E+004   -2.83398E+004   -6.83045E+004    6.25979E+004    3.41170E+004   -4.23120E+004   -1.34714E+004   -3.08922E+004   -5.79873E+004   -1.34601E+004   -4.46103E+003   -1.73310E+004
            4853    5.80404E+004    1.76853E+002   -6.44737E+004   -1.68539E+004   -6.44737E+004    6.46506E+004    2.70503E+004   -5.19567E+004   -2.48571E+003   -1.72404E+004   -6.14246E+004   -6.71497E+003   -2.42180E+003   -1.14594E+004
            4854    6.82680E+004   -2.53878E+003   -7.56638E+004   -1.36049E+004   -7.56638E+004    7.31250E+004    3.06025E+004   -6.62049E+004   -4.27314E+003   -1.24331E+004   -7.51013E+004   -4.13503E+003   -1.69774E+003   -5.63658E+003
            4855    8.57095E+004    2.64572E+001   -8.74737E+004   -3.67485E+003   -8.74737E+004    8.75002E+004    3.03740E+004   -8.55294E+004   -1.62992E+003   -2.19995E+003   -8.72922E+004   -1.89528E+003   -1.27611E+003   -3.69353E+003
            4856    9.53947E+004   -2.16411E+003   -9.81046E+004   -3.26504E+003   -9.81046E+004    9.59404E+004    3.45112E+004   -9.53804E+004   -2.37591E+003   -3.08325E+003   -9.80745E+004   -4.31694E+002   -1.38250E+003   -9.70802E+002
            4857    4.21968E+004   -5.45362E+003   -5.20101E+004   -4.11791E+004   -5.20101E+004    4.65565E+004    3.28810E+004    3.88805E+004   -1.18825E+004   -3.98001E+004   -4.69602E+004   -1.48398E+004   -2.84983E+003   -4.65442E+003
            4858    5.34607E+004   -8.82959E+002   -6.25440E+004   -2.91689E+004   -6.25440E+004    6.16611E+004    3.08653E+004   -2.79147E+004   -3.56581E+003   -2.68930E+004   -6.21371E+004   -8.14118E+003   -1.68467E+003    3.75255E+003
            4859    7.18631E+004    1.26681E+003   -7.64852E+004   -1.25040E+004   -7.64852E+004    7.77520E+004    2.92408E+004   -6.88000E+004   -9.32804E+002   -1.05247E+004   -7.62650E+004   -5.00051E+003   -8.55232E+002    3.77380E+003
            4860    8.65651E+004   -8.44397E+002   -9.06396E+004   -7.71405E+003   -9.06396E+004    8.97952E+004    3.30660E+004   -8.59486E+004   -1.79569E+003   -6.95168E+003   -9.04507E+004   -2.34710E+003   -5.51710E+002    3.95313E+003
            4861    1.01789E+005    2.35239E+003   -1.00101E+005    1.01087E+003   -1.00101E+005    1.02453E+005    3.22458E+004   -1.01769E+005    1.58074E+003    1.76882E+003   -1.00087E+005   -6.61381E+002   -1.58361E+002    1.17202E+003
            4862    6.47012E+004   -5.34051E+003   -7.92749E+004   -3.30057E+004   -7.92749E+004    7.39344E+004    3.92070E+004   -4.84315E+004   -1.59803E+004   -5.00097E+004   -5.16311E+004   -1.72292E+004   -9.40476E+002    2.63138E+004
            4863    6.86885E+004    5.74815E+002   -7.64676E+004   -2.16225E+004   -7.64676E+004    7.70424E+004    3.25051E+004   -5.97821E+004   -4.18122E+003   -2.66277E+004   -6.67063E+004   -9.64207E+003   -4.25878E+002    2.18243E+004
            4864    8.31776E+004   -2.75856E+003   -9.17574E+004   -1.59863E+004   -9.17574E+004    8.89988E+004    3.68341E+004   -8.07603E+004   -6.15097E+003   -1.75811E+004   -8.67702E+004   -5.96792E+003    6.59475E+001    1.91750E+004
            4865    9.98597E+004    5.89648E+002   -1.01973E+005   -5.05653E+003   -1.01973E+005    1.02563E+005    3.54801E+004   -9.94996E+004   -2.56641E+003   -3.27954E+003   -1.00594E+005   -2.89716E+003    6.21059E+002    1.16269E+004
            4866    1.07865E+005   -3.06032E+003   -1.11634E+005   -4.49284E+003   -1.11634E+005    1.08574E+005    3.97291E+004   -1.07843E+005   -3.52182E+003   -4.23749E+003   -1.11428E+005   -7.14457E+002    1.17115E+003    4.55036E+003
            4867    2.84492E+005   -8.08441E+004   -3.84763E+005   -1.24818E+005   -3.84763E+005    3.03919E+005    1.96808E+005   -2.76691E+005   -9.46877E+004   -1.54614E+005   -3.41123E+005   -2.48065E+004    5.78838E+004    8.05898E+004
            4868    3.04949E+005    1.63955E+004   -3.10666E+005   -3.41420E+004   -3.10666E+005    3.27061E+005    1.09471E+005   -2.95307E+005    1.57163E+004   -5.56643E+004   -2.88464E+005   -4.35767E+003   -5.15718E+003    7.51645E+004
            4869    2.82210E+005   -7.13077E+004   -3.76019E+005   -1.23635E+005   -3.76019E+005    3.04711E+005    1.90320E+005   -2.70971E+005   -9.46239E+004   -1.29533E+005   -3.46804E+005   -1.24009E+003   -7.19425E+004    5.19633E+004
            4870    2.35920E+005   -6.33739E+004   -3.10890E+005   -8.85923E+004   -3.10890E+005    2.47517E+005    1.54286E+005   -2.32859E+005   -7.63008E+004   -1.32788E+005   -2.53768E+005   -1.69213E+004    4.77731E+004    8.81131E+004
            4871    2.34792E+005    8.05419E+003   -2.43851E+005   -3.10925E+004   -2.43851E+005    2.51905E+005    8.89630E+004   -2.27275E+005    5.38580E+003   -4.83660E+004   -2.23909E+005   -8.83803E+003   -4.68581E+003    6.24149E+004
            4872    2.05424E+005   -5.42986E+004   -2.77518E+005   -9.64193E+004   -2.77518E+005    2.23219E+005    1.42745E+005   -1.95350E+005   -7.22557E+004   -9.73537E+004   -2.58626E+005   -3.76138E+003   -5.44571E+004    2.92875E+004
            4873    1.96742E+005   -8.27489E+002   -2.14317E+005   -4.03102E+004   -2.14317E+005    2.13489E+005    8.51515E+004   -1.87515E+005   -4.32684E+004   -7.70359E+004   -1.35150E+005   -1.04746E+004    2.61755E+004    9.97379E+004
            4874    1.42055E+005    1.28917E+004   -1.39898E+005   -1.18222E+004   -1.39898E+005    1.52790E+005    4.62763E+004   -1.37092E+005    2.35350E+003   -2.66584E+004   -1.14524E+005   -1.19866E+004   -3.23533E+003    5.35596E+004
            4875    1.03881E+005   -2.72019E+004   -1.41274E+005   -5.21144E+004   -1.41274E+005    1.14072E+005    7.35301E+004   -9.68116E+004   -3.76424E+004   -5.01469E+004   -1.32801E+005   -5.35180E+003   -2.76259E+004    1.14625E+004
            4876    1.80360E+005    1.11797E+005    1.11797E+005    2.79831E+003   -9.63879E+004    2.08185E+005   -6.06907E+003    7.82055E+004    2.95271E+003    5.20634E+003    1.00481E+004   -8.08072E+003   -1.27426E+003    1.03746E+005
            4877    9.14319E+004    6.09132E+004    6.09132E+004    5.44975E+002   -4.42813E+004    1.05194E+005   -5.72561E+003    5.77913E+004   -3.90984E+002    3.99186E+003    1.35759E+004   -1.30277E+004    1.11996E+002    5.06541E+004
            4878    2.14002E+004    2.30008E+004    2.30008E+004    1.21809E+004   -1.64887E+003    2.46497E+004   -1.11776E+004   -1.27117E+004    5.67699E+003    7.91407E+003    1.99418E+004   -5.76463E+003    4.11691E+003    6.60435E+003
            4879    1.99502E+005    2.25487E+005    2.25487E+005    4.43735E+004    1.16442E+004    2.13843E+005   -9.38349E+004    1.93323E+005    4.73134E+004    8.44480E+004    1.49743E+005   -1.09036E+004   -2.86190E+004    9.81835E+004
            4880    1.62261E+005    1.65260E+005    1.65260E+005    1.78959E+004   -8.62889E+003    1.73889E+005   -5.81758E+004    1.57272E+005   -1.29811E+003    3.30710E+004    1.42754E+005   -1.17356E+004    2.62589E+003    5.45081E+004
            4881    1.31313E+005    1.78932E+005    1.78932E+005    6.54190E+004    3.51160E+004    1.43816E+005   -9.31556E+004    1.23072E+005    4.75594E+004    6.41574E+004    1.67750E+005   -4.99755E+003    3.55175E+004    1.48040E+004
            4882    2.43323E+005    3.22750E+005    3.22750E+005    9.37117E+004    6.72970E+004    2.55453E+005   -1.61253E+005    2.40066E+005    7.93340E+004    1.37378E+005    2.67046E+005   -1.77710E+004   -4.81624E+004    8.86764E+004
            4883    2.49846E+005    2.58468E+005    2.58468E+005    3.38839E+004   -1.06503E+004    2.69119E+005   -9.39006E+004    2.40672E+005   -8.50204E+003    5.14686E+004    2.38735E+005   -8.28298E+003    5.33215E+003    6.38650E+004
            4884    2.28565E+005    3.09052E+005    3.09052E+005    1.07006E+005    6.09737E+004    2.48078E+005   -1.59010E+005    2.17767E+005    8.04335E+004    1.08864E+005    2.87733E+005   -3.04368E+003    6.04770E+004    3.34374E+004
            4885    1.91396E+005    5.56059E+003   -1.86928E+005    3.35795E+003   -1.86928E+005    1.92488E+005    5.93364E+004   -1.91368E+005    3.39709E+003    4.82485E+003   -1.86231E+005   -1.12678E+003    7.38242E+003    8.82553E+003
            4886    1.80505E+005    2.56702E+003   -1.81331E+005   -4.42339E+003   -1.81331E+005    1.83898E+005    6.10625E+004   -1.80200E+005   -2.56405E+003   -4.71768E+003   -1.75906E+005   -4.30862E+003    6.12318E+003    3.01939E+004
            4887    1.87294E+005    1.65112E+004   -1.80149E+005   -3.89032E+003   -1.80149E+005    1.96660E+005    5.58426E+004   -1.84770E+005   -1.12215E+003   -9.93628E+002   -1.65412E+005   -9.66539E+003    6.76491E+003    5.04954E+004
            4888    2.10159E+005    2.42335E+004   -2.01020E+005   -1.02111E+004   -2.01020E+005    2.25254E+005    6.23326E+004   -2.03663E+005   -6.12248E+003   -1.77439E+004   -1.63131E+005   -1.70109E+004    7.87775E+003    8.19561E+004
            4889    2.48328E+005    4.19393E+004   -2.35361E+005   -3.35045E+004   -2.35361E+005    2.77300E+005    7.56420E+004   -2.20242E+005   -2.87173E+004   -3.18187E+004   -1.66390E+005   -3.54879E+004    1.28757E+004    1.13805E+005
            4890    1.56542E+005   -4.08780E+003   -1.61476E+005   -5.79469E+003   -1.61476E+005    1.57388E+005    5.71195E+004   -1.56521E+005   -5.55483E+003   -5.08746E+003   -1.60716E+005   -1.03874E+003    5.03326E+003    9.63133E+003
            4891    1.52048E+005    5.00196E+003   -1.51757E+005   -4.90654E+003   -1.51757E+005    1.56759E+005    5.05540E+004   -1.51319E+005   -3.69290E+003   -1.15099E+003   -1.46818E+005   -4.21570E+003    4.14542E+003    2.68233E+004
            4892    1.47794E+005    4.48073E+003   -1.51110E+005   -1.25948E+004   -1.51110E+005    1.55590E+005    5.30746E+004   -1.45550E+005   -8.87487E+003   -1.63810E+004   -1.33968E+005   -8.98494E+003    3.66332E+003    4.75923E+004
            4893    1.53436E+005    1.52233E+004   -1.49788E+005   -1.14183E+004   -1.49788E+005    1.65012E+005    4.86612E+004   -1.48097E+005   -6.30290E+003   -2.47367E+004   -1.14944E+005   -1.47338E+004    4.23276E+003    6.50576E+004
            4894    1.86782E+005    2.35694E+004   -1.84721E+005   -3.21095E+004   -1.84721E+005    2.08290E+005    6.44202E+004   -1.66517E+005   -2.74542E+004   -5.18628E+004   -1.13944E+005   -2.87337E+004    6.51912E+003    9.36625E+004
            4895    1.36103E+005    3.60690E+003   -1.33400E+005    1.78039E+003   -1.33400E+005    1.37007E+005    4.26710E+004   -1.36076E+005    2.23365E+003    2.68353E+003   -1.32930E+005   -1.03145E+003    3.65192E+003    7.08496E+003
            4896    1.22279E+005    4.22801E+001   -1.25282E+005   -6.29538E+003   -1.25282E+005    1.25325E+005    4.38452E+004   -1.21909E+005   -2.43876E+003   -7.89282E+003   -1.21204E+005   -3.57321E+003    2.40480E+003    2.16746E+004
            4897    1.14178E+005    5.46137E+003   -1.14587E+005   -7.36357E+003   -1.14587E+005    1.20049E+005    3.88299E+004   -1.12540E+005   -1.17446E+003   -1.10093E+004   -1.04306E+005   -7.36905E+003    2.06371E+003    3.23644E+004
            4898    1.10884E+005    4.90849E+003   -1.14432E+005   -1.45920E+004   -1.14432E+005    1.19341E+005    4.13719E+004   -1.06924E+005   -4.98439E+003   -3.14791E+004   -8.76522E+004   -1.21677E+004    1.68834E+003    4.65363E+004
            4899    1.14330E+005    8.88905E+003   -1.18178E+005   -2.36328E+004   -1.18178E+005    1.27067E+005    4.43073E+004   -1.03128E+005   -1.63493E+004   -5.04316E+004   -6.61410E+004   -2.17057E+004    1.97383E+003    5.68694E+004
            4900    3.91266E+005   -2.42591E+004   -4.40035E+005   -7.90554E+004   -4.40035E+005    4.15775E+005    1.81116E+005   -3.82490E+005   -6.33414E+004   -7.50527E+004   -4.04955E+005   -4.15063E+004    4.76045E+004    9.71010E+004
            4901    4.02333E+005    1.29577E+003   -4.31507E+005   -6.88779E+004   -4.31507E+005    4.32803E+005    1.66363E+005   -3.88204E+005   -5.63599E+004   -5.01431E+004   -3.92586E+005   -4.67360E+004    4.53245E+004    1.06425E+005
            4902    4.02111E+005    1.92870E+004   -4.20076E+005   -7.03430E+004   -4.20076E+005    4.39363E+005    1.57044E+005   -3.78644E+005   -6.29545E+004   -3.21780E+004   -3.75999E+005   -4.89949E+004    4.21019E+004    1.16326E+005
            4903    3.62810E+005    4.47423E+004   -3.56567E+005   -5.17744E+004   -3.56567E+005    4.01309E+005    1.21200E+005   -3.32035E+005   -4.52672E+004   -1.18310E+004   -3.06501E+005   -4.68030E+004    3.14753E+004    1.21095E+005
            4904    3.17784E+005    4.37514E+004   -3.10038E+005   -4.88160E+004   -3.10038E+005    3.53790E+005    1.05034E+005   -2.85000E+005   -4.38063E+004   -2.50054E+004   -2.46291E+005   -4.25875E+004    2.21801E+004    1.27683E+005
            4905    2.43757E+005    2.96049E+004   -2.31355E+005   -9.53746E+003   -2.31355E+005    2.60960E+005    7.04291E+004   -2.36531E+005   -6.62027E+003   -2.56534E+003   -2.02102E+005   -1.67098E+004    1.13457E+004    7.99408E+004
            4906    2.16589E+005    1.08455E+004   -2.16673E+005   -1.29832E+004   -2.16673E+005    2.27518E+005    7.29368E+004   -2.13610E+005   -1.13541E+004   -4.64275E+003   -2.02814E+005   -9.21931E+003    8.54111E+003    5.30734E+004
            4907    2.03685E+005    8.56226E+003   -2.00956E+005   -3.65291E+003   -2.00956E+005    2.09518E+005    6.53488E+004   -2.02859E+005   -3.46609E+003    4.97888E+003   -1.97559E+005   -3.33617E+003    7.43228E+003    2.52061E+004
            4908    1.98102E+005   -5.38000E+003   -2.04141E+005   -6.70374E+003   -2.04141E+005    1.98761E+005    7.20748E+004   -1.98092E+005   -6.89158E+003   -5.81227E+003   -2.03520E+005   -5.88035E+002    7.03259E+003    8.53808E+003
            4909    2.95236E+005    2.80298E+004   -2.83166E+005   -7.01933E+003   -2.83166E+005    3.11196E+005    8.73852E+004   -2.90500E+005   -5.07829E+003   -1.08113E+003   -2.55996E+005   -1.55198E+004    1.57419E+004    8.50871E+004
            4910    2.46169E+005    1.85875E+004   -2.36305E+005    9.80843E+001   -2.36305E+005    2.54892E+005    7.25397E+004   -2.44599E+005    4.50090E+002    8.90978E+003   -2.26979E+005   -6.57471E+003    1.18170E+004    4.59382E+004
            4911    2.21972E+005    9.63763E+002   -2.21863E+005   -7.55015E+002   -2.21863E+005    2.22827E+005    7.38847E+004   -2.21957E+005   -8.95307E+002   -2.35151E+003   -2.18407E+005   -1.56250E+003    8.48737E+003    2.61495E+004
            4912    2.18181E+005    7.84677E+003   -2.10631E+005    7.25261E+003   -2.10631E+005    2.18478E+005    6.51773E+004   -2.18180E+005    6.97270E+003    7.64868E+003   -2.10153E+005   -4.06325E+001    8.57873E+003    5.52253E+003
            4913    3.09453E+005    2.02693E+004   -3.02172E+005   -7.59186E+003   -3.02172E+005    3.22441E+005    9.64982E+004   -3.06612E+005   -7.25581E+003   -3.08202E+003   -2.79157E+005   -1.05494E+004    1.55447E+004    8.08701E+004
            4914    2.70283E+005    6.05781E+003   -2.73690E+005   -1.39880E+004   -2.73690E+005    2.79748E+005    9.38733E+004   -2.68603E+005   -1.44463E+004   -6.48246E+003   -2.60691E+005   -3.37291E+003    1.09834E+004    5.77226E+004
            4915    2.36872E+005    8.14706E+003   -2.34256E+005   -3.33163E+003   -2.34256E+005    2.42403E+005    7.64801E+004   -2.36245E+005   -2.89049E+003    5.11344E+003   -2.31663E+005    1.95949E+003    7.51406E+003    2.37725E+004
            4916    2.08838E+005   -7.25305E+003   -2.17692E+005   -1.04931E+004   -2.17692E+005    2.10439E+005    7.84795E+004   -2.08782E+005   -8.65701E+003   -9.66719E+003   -2.17114E+005    1.35152E+003    5.01377E+003    9.79094E+003
            4917    3.56029E+005    1.51119E+004   -3.48315E+005   -1.77091E+002   -3.48315E+005    3.63427E+005    1.11127E+005   -3.55289E+005   -7.83375E+002   -1.34381E+004   -3.19159E+005   -8.02880E+003    1.80004E+004    9.67762E+004
            4918    2.90818E+005    1.36038E+004   -2.83037E+005    1.58628E+003   -2.83037E+005    2.96640E+005    8.92822E+004   -2.90259E+005    3.08983E+003   -1.75078E+003   -2.69186E+005    1.85390E+003    1.24764E+004    6.12601E+004
            4919    2.66244E+005    5.83708E+003   -2.65868E+005   -5.44375E+003   -2.65868E+005    2.71705E+005    8.84915E+004   -2.65705E+005    1.57185E+003   -9.26918E+003   -2.57777E+005    4.45714E+003    6.07278E+003    4.52684E+004
            4920    2.42623E+005    1.53115E+004   -2.29676E+005    1.05107E+004   -2.29676E+005    2.44988E+005    6.79513E+004   -2.42516E+005    1.35026E+004    1.16950E+004   -2.29052E+005    1.98592E+003    6.75509E+003    1.03250E+004
            4921    3.36016E+005   -2.87941E+003   -3.43148E+005   -1.15533E+004   -3.43148E+005    3.40269E+005    1.19194E+005   -3.35764E+005   -1.02488E+004   -4.05807E+004   -3.06752E+005    8.04993E+002    7.56034E+003    1.04710E+005
            4922    3.30321E+005    6.92630E+003   -3.37212E+005   -2.27038E+004   -3.37212E+005    3.44138E+005    1.17663E+005   -3.27312E+005   -2.20711E+004   -2.69004E+004   -3.04018E+005    3.72766E+003    2.42711E+003    1.01484E+005
            4923    2.91846E+005    9.63987E+003   -2.91682E+005   -1.03388E+004   -2.91682E+005    3.01322E+005    9.74604E+004   -2.90302E+005   -7.26191E+003   -3.91293E+003   -2.81206E+005    7.71389E+003   -1.77294E+003    5.48089E+004
            4924    2.53006E+005   -1.66046E+004   -2.72424E+005   -2.23277E+004   -2.72424E+005    2.55819E+005    1.03785E+005   -2.52861E+005   -1.96823E+004   -2.27036E+004   -2.68970E+005    3.53115E+003   -5.65101E+003    2.87433E+004
            4925    3.63022E+005    3.47371E+004   -3.32174E+005    2.68283E+004   -3.32174E+005    3.66911E+005    9.02030E+004   -3.62828E+005    3.04823E+004    2.88305E+004   -3.29922E+005    3.99011E+003   -4.39369E+002    2.85061E+004
            4926    5.36676E+005   -7.06183E+004   -6.29384E+005   -1.17930E+005   -6.29384E+005    5.58766E+005    2.72644E+005   -5.31954E+005   -1.16936E+005   -1.20256E+005   -5.80741E+005    3.23086E+002   -9.71526E+004    1.23987E+005
            4927    3.98551E+005    1.21688E+004   -3.91232E+005    2.28465E+003   -3.91232E+005    4.03401E+005    1.25593E+005   -3.98275E+005    4.75799E+003   -3.01889E+004   -3.51348E+005    5.35091E+003   -2.45270E+003    1.19932E+005
            4928    4.15580E+005   -4.54795E+004   -4.94047E+005   -1.22125E+005   -4.94047E+005    4.48567E+005    2.20550E+005   -3.99210E+005   -8.56462E+004   -1.63898E+005   -4.12107E+005   -1.11375E+002   -8.72422E+004    1.44590E+005
            4929    3.42851E+005    1.06726E+004   -3.40580E+005   -6.79844E+003   -3.40580E+005    3.51253E+005    1.12235E+005   -3.41847E+005    1.04856E+004   -5.57786E+004   -2.91413E+005    2.72120E+003   -2.21468E+003    1.18295E+005
            4930    3.88507E+005   -4.73308E+004   -4.65971E+005   -1.17034E+005   -4.65971E+005    4.18640E+005    2.10112E+005   -3.74049E+005   -8.10803E+004   -1.50046E+005   -3.99209E+005    6.62920E+002   -8.34784E+004    1.23839E+005
            4931    3.54626E+005    1.06649E+004   -3.53688E+005   -9.66465E+003   -3.53688E+005    3.64353E+005    1.17563E+005   -3.53311E+005    9.01105E+003   -5.06954E+004   -3.11004E+005    5.13622E+003    2.13089E+003    1.13724E+005
            4932    3.76436E+005   -4.61942E+004   -4.51242E+005   -1.12129E+005   -4.51242E+005    4.05048E+005    2.03189E+005   -3.63102E+005   -7.96086E+004   -1.43110E+005   -3.86847E+005    6.34517E+002   -8.09415E+004    1.19904E+005
            4933    3.54759E+005   -7.15162E+004   -4.50813E+005   -1.27172E+005   -4.50813E+005    3.79297E+005    2.16500E+005   -3.44731E+005   -1.02715E+005   -1.48501E+005   -3.98285E+005    2.36742E+003   -8.12820E+004    1.00153E+005
            4934    3.31077E+005   -7.24791E+004   -4.27896E+005   -1.28239E+005   -4.27896E+005    3.55416E+005    2.09538E+005   -3.20257E+005   -1.00994E+005   -1.42838E+005   -3.84781E+005    1.35103E+003   -8.04907E+004    8.11569E+004
            4935    3.64911E+005    3.37096E+004   -3.49159E+005   -5.34926E+003   -3.49159E+005    3.82869E+005    1.06933E+005   -3.60163E+005    3.36071E+004   -4.23167E+004   -3.12089E+005    1.62651E+003    1.36249E+003    1.06650E+005
            4936    3.53631E+005    2.12252E+004   -3.54006E+005   -2.69055E+004   -3.54006E+005    3.75231E+005    1.19895E+005   -3.46147E+005    2.12060E+004   -5.49273E+004   -3.25965E+005    1.27444E+001   -2.14976E+003    9.15574E+004
            4937    3.21779E+005   -7.75563E+004   -4.19956E+005   -1.23802E+005   -4.19956E+005    3.42400E+005    2.07105E+005   -3.14172E+005   -9.47914E+004   -1.41361E+005   -3.85162E+005   -3.06105E+004    5.97729E+004    7.53902E+004
            4938    3.58959E+005   -6.74394E+004   -4.44428E+005   -1.06732E+005   -4.44428E+005    3.76988E+005    2.06200E+005   -3.54072E+005   -9.19453E+004   -1.17781E+005   -4.08872E+005   -3.48002E+004    5.27143E+004    8.93676E+004
            4939    1.05203E+005    5.91966E+004   -6.22453E+004   -4.07410E+003   -6.22453E+004    1.21442E+005    2.37425E+003    4.38980E+004   -4.27152E+003   -5.49263E+004    5.20750E+004   -3.40270E+003    4.29805E+002    2.85029E+004
            4940    8.55833E+004    5.91633E+004    5.91633E+004    1.95214E+003   -3.92253E+004    9.83886E+004   -7.29670E+003    5.58381E+004    1.22068E+003   -3.83370E+004    5.90065E+004   -5.65183E+003    2.26638E+003    2.79205E+003
            4941    7.57588E+004    6.50253E+004    6.50253E+004    1.00853E+004   -2.13989E+004    8.64242E+004   -1.79039E+004    5.80364E+004    8.62187E+003   -1.77097E+004    6.27995E+004   -8.20958E+003    3.90129E+003   -1.20611E+004
            4942    6.70900E+004    6.59109E+004    6.59109E+004    1.55014E+004   -1.02373E+004    7.61482E+004   -2.37250E+004    5.41817E+004    1.26484E+004   -2.18085E+003    6.07074E+004   -1.05991E+004    4.51042E+003   -1.69388E+004
            4943    7.66779E+004    7.98624E+004    7.98624E+004    1.26237E+004   -3.64401E+003    8.35064E+004   -2.96140E+004    7.26415E+004    6.45055E+003    4.34766E+003    7.80438E+004   -8.49279E+003    3.08474E+003   -1.08627E+004
            4944    9.69257E+004    9.94040E+004    9.94040E+004    5.14651E+003    1.40478E+001    9.93900E+004   -3.48549E+004    9.66193E+004    4.10640E+003    1.21389E+003    9.92443E+004   -2.18007E+003    2.28372E+003   -3.15806E+003
            4945    8.03040E+004    8.04100E+004    8.04100E+004    9.94250E+003   -7.02035E+003    8.74304E+004   -2.77774E+004    7.61149E+004    6.33800E+003   -2.39000E+003    7.93842E+004   -7.29060E+003    2.17313E+003   -8.67265E+003
            4946    1.02930E+005    1.04989E+005    1.04989E+005    6.51140E+003   -1.88093E+003    1.06870E+005   -3.65397E+004    1.02156E+005    6.07114E+003   -1.39256E+003    1.04941E+005   -1.92143E+003    1.17047E+003   -1.88621E+003
            4947    8.50097E+004    7.69195E+004    7.69195E+004    5.64858E+003   -1.71710E+004    9.40905E+004   -2.17990E+004    7.76582E+004    3.78287E+003   -1.51282E+004    7.67425E+004   -6.23419E+003    6.12513E+002    4.01844E+003
            4948    1.02717E+005    1.02990E+005    1.02990E+005    5.42892E+003   -4.20333E+003    1.07194E+005   -3.47387E+004    1.01693E+005    4.97644E+003   -3.58530E+003    1.02825E+005   -2.12122E+003   -1.21530E+003    3.97738E+003
            4949    9.10070E+004    7.17893E+004    7.17893E+004    3.02668E+003   -3.14109E+004    1.03200E+005   -1.44684E+004    7.40601E+004    2.47005E+003   -2.20127E+004    6.29477E+004   -4.83871E+003   -3.78468E+002    2.87170E+004
            4950    9.07617E+004    8.99938E+004    8.99938E+004    4.70270E+003   -5.39415E+003    9.53879E+004   -2.97674E+004    8.94851E+004    4.63582E+003   -3.76890E+003    8.84354E+004   -1.92451E+003   -3.46010E+003    1.14504E+004
            4951    7.07210E+004    6.76804E+004    6.76804E+004    2.35528E+003   -7.41954E+003    7.50999E+004   -2.08720E+004    6.91767E+004    2.82738E+003   -2.63680E+003    6.24255E+004   -1.55535E+003   -5.32762E+003    1.82720E+004
            4952    4.78867E+004    3.72914E+004    3.72914E+004   -9.79474E+002   -1.64076E+004    5.36990E+004   -6.63475E+003    4.17193E+004   -5.91737E+002   -2.41837E+003    2.29144E+004   -2.59858E+003   -3.07091E+003    2.34220E+004
            4953    1.02338E+005    7.10223E+004    7.10223E+004    8.65232E+002   -4.64071E+004    1.17429E+005   -8.49348E+003    7.07085E+004    7.69372E+002   -1.73609E+004    4.20720E+004   -3.76681E+003   -6.83272E+002    5.04835E+004
            4954    1.08935E+005    6.70673E+004    6.70673E+004   -4.75821E+002   -5.86020E+004    1.25669E+005   -2.66314E+003    5.50912E+004   -5.21771E+002   -6.34102E+003    1.48522E+004   -5.07470E+003   -3.42967E+002    6.17237E+004
            4955    1.52256E+005    8.92868E+004    8.92868E+004    5.92183E+002   -8.65208E+004    1.75808E+005   -1.11937E+003    3.80281E+004    4.84225E+002   -9.34620E+003    1.22201E+004   -4.99944E+003    6.25397E+002    8.70938E+004
            4956    1.87475E+005    1.05550E+005   -1.10893E+005    6.64048E+002   -1.10893E+005    2.16443E+005    1.55980E+003   -7.05788E+004    5.27816E+002   -1.45300E+004    9.32283E+003   -4.20432E+003    1.63668E+003    1.07470E+005
            4957    2.18581E+005    1.21840E+005   -1.30469E+005    1.43507E+003   -1.30469E+005    2.52309E+005    2.39820E+003   -9.37280E+004    1.37179E+003   -1.65868E+004    8.02041E+003   -2.39871E+003    1.69081E+003    1.25520E+005
            4958    2.46426E+005    1.37515E+005   -1.46935E+005    1.78720E+003   -1.46935E+005    2.84449E+005    2.54430E+003   -1.05748E+005    1.77911E+003   -1.52637E+004    5.85165E+003   -4.76873E+002    1.47261E+003    1.41824E+005
            4959    1.44070E+005    8.10740E+004   -8.52729E+004   -4.43187E+002   -8.52729E+004    1.66347E+005    1.54736E+003   -4.68929E+004   -5.58502E+002   -3.81609E+004    3.40773E+004   -3.49394E+003    7.57646E+002    7.48374E+004
            4960    1.88526E+005    9.58986E+004   -1.21449E+005   -2.19237E+003   -1.21449E+005    2.17348E+005    9.24775E+003   -1.03964E+005   -2.21961E+003   -5.24288E+004    2.69052E+004   -1.75558E+003    7.16995E+002    1.01160E+005
            4961    2.25382E+005    1.11449E+005   -1.48229E+005   -3.47308E+003   -1.48229E+005    2.59678E+005    1.34175E+004   -1.31229E+005   -3.47325E+003   -5.69672E+004    2.01878E+004   -9.69348E+001    2.48446E+002    1.23975E+005
            4962    2.55598E+005    1.28136E+005   -1.66494E+005   -4.17760E+003   -1.66494E+005    2.94630E+005    1.41785E+004   -1.43039E+005   -4.18865E+003   -5.46830E+004    1.63363E+004    1.40011E+003   -5.27683E+002    1.42964E+005
            4963    2.69144E+005    1.20253E+005   -1.90156E+005   -2.17951E+004   -1.90156E+005    3.10409E+005    3.05658E+004   -1.41779E+005   -2.18800E+004   -1.12506E+005    4.26888E+004    2.79959E+003   -4.75818E+003    1.34304E+005
            4964    2.20660E+005    9.29368E+004   -1.61407E+005   -2.10794E+004   -1.61407E+005    2.54343E+005    2.98497E+004   -1.24128E+005   -2.11309E+004   -1.11680E+005    4.32615E+004    2.40376E+003   -4.14671E+003    1.00740E+005
            4965    1.75916E+005    7.72000E+004   -1.25639E+005   -1.48043E+004   -1.25639E+005    2.02839E+005    2.10812E+004   -9.54927E+004   -1.47842E+004   -9.43220E+004    4.58625E+004    7.85856E+002   -2.61150E+003    7.32489E+004
            4966    1.32127E+005    6.77665E+004   -8.47816E+004   -6.44245E+003   -8.47816E+004    1.52548E+005    7.81919E+003   -4.76396E+004   -6.42494E+003   -6.76352E+004    5.06025E+004   -1.56004E+003   -1.10432E+003    4.81561E+004
            4967    9.00989E+004    9.31709E+004    9.31709E+004    6.33322E+003    1.31279E+002    9.30396E+004   -3.32118E+004    8.96168E+004    5.25975E+003    1.31027E+003    9.30654E+004   -2.45845E+003    2.64171E+003   -1.47509E+003
            4968    6.82046E+004    7.57250E+004    7.57250E+004    1.88214E+004    1.20717E+002    7.56043E+004   -3.15557E+004    6.20318E+004    9.68345E+003    9.90112E+003    7.50826E+004   -9.64537E+003    3.17284E+003   -5.15476E+003
            4969    5.39338E+004    5.83667E+004    5.83667E+004    1.96957E+004   -3.24494E+003    6.16117E+004   -2.49392E+004    4.05527E+004    1.42653E+004    7.70248E+003    5.28498E+004   -1.21290E+004    3.91201E+003   -1.45665E+004
            4970    9.03811E+004    9.30347E+004    9.30347E+004    6.03061E+003   -3.81948E+002    9.34166E+004   -3.28944E+004    8.98672E+004    3.21550E+003    2.46502E+003    9.30028E+004   -3.18120E+003    9.02333E+001    1.69832E+003
            4971    6.99756E+004    7.53475E+004    7.53475E+004    1.90846E+004   -3.00788E+003    7.83554E+004   -3.04747E+004    6.13605E+004    7.97053E+003    8.32774E+003    7.51259E+004   -1.09882E+004    1.34654E+003    3.78314E+003
            4972    3.95249E+004    4.57918E+004    4.57918E+004    2.65832E+004    3.33787E+002    4.54580E+004   -2.42363E+004   -2.53676E+004    1.35886E+004    1.35819E+004    4.55382E+004   -1.32333E+004    2.13543E+003   -8.53918E+002
            4973    9.85881E+004    1.02633E+005    1.02633E+005    9.13112E+003   -3.55276E+002    1.02988E+005   -3.71363E+004    9.75533E+004    7.47550E+003    1.63872E+003    1.02295E+005   -3.76203E+003   -2.06686E+003    5.35854E+003
            4974    7.84582E+004    8.63398E+004    8.63398E+004    2.38743E+004   -1.71929E+003    8.80591E+004   -3.61649E+004    6.80692E+004    1.34793E+004    1.21597E+004    8.28558E+004   -1.30532E+004   -7.54988E+002    1.56676E+004
            4975    5.14669E+004    5.53738E+004    5.53738E+004    2.39082E+004   -4.01994E+003    5.93938E+004   -2.50874E+004    2.41207E+004    1.47058E+004    1.61116E+004    4.44447E+004   -1.51936E+004    2.44188E+002    1.92489E+004
            4976    2.53375E+005    1.51183E+005    1.51183E+005   -1.65134E+003   -1.41290E+005    2.92473E+005   -2.74721E+003    1.08281E+005   -1.64968E+003    1.58262E+004   -5.93484E+003   -1.71048E+002   -1.31513E+003    1.45825E+005
            4977    2.63634E+005    1.70942E+005    1.70942E+005    4.55078E+003   -1.33022E+005    3.03963E+005   -1.41568E+004    1.44104E+005    4.56659E+003    5.42017E+004   -1.62977E+004    1.47203E+003    8.00610E+002    1.47829E+005
            4978    2.73795E+005    1.92713E+005    1.92713E+005    2.21360E+004   -1.23100E+005    3.15812E+005   -3.05829E+004    1.41636E+005    2.22210E+004    1.11802E+005   -4.22742E+004    2.77709E+003    4.80051E+003    1.37731E+005
            4979    2.76403E+005    1.63325E+005    1.63325E+005   -1.54859E+003   -1.55779E+005    3.19104E+005   -1.99918E+003    1.06827E+005   -1.56086E+003    1.17372E+004   -4.17880E+003    1.16804E+003   -8.23456E+002    1.59347E+005
            4980    2.90515E+005    1.82506E+005    1.82506E+005    3.91608E+003   -1.52712E+005    3.35218E+005   -1.12365E+004    1.40525E+005    3.94341E+003    4.20115E+004   -1.22454E+004    2.04290E+003    1.09944E+003    1.65384E+005
            4981    3.17385E+005    2.10328E+005    2.10328E+005    1.75343E+004   -1.55987E+005    3.66316E+005   -2.39584E+004    1.42743E+005    1.76008E+004    9.06426E+004   -3.63682E+004    2.25287E+003    4.12722E+003    1.71734E+005
            4982    2.92670E+005    1.71056E+005    1.71056E+005   -8.17583E+002   -1.66874E+005    3.37930E+005   -1.12132E+003    9.07450E+004   -8.25314E+002    6.38246E+003   -2.19320E+003    1.91762E+003   -3.47036E+002    1.68899E+005
            4983    3.09221E+005    1.86042E+005    1.86042E+005    2.15205E+003   -1.70961E+005    3.57003E+005   -5.74454E+003    1.15609E+005    2.16996E+003    2.14493E+004   -6.38567E+003    2.04156E+003    7.50693E+002    1.77945E+005
            4984    3.48403E+005    2.15984E+005    2.15984E+005    9.91273E+003   -1.86277E+005    4.02261E+005   -1.32067E+004    1.21617E+005    9.94455E+003    5.05495E+004   -2.08740E+004    1.55504E+003    2.32583E+003    1.97915E+005
            4985    2.97493E+005    1.71385E+005   -1.72130E+005    1.96089E+001   -1.72130E+005    3.43515E+005    2.41947E+002   -4.70518E+004    1.98542E+001   -1.14155E+003    3.95859E+002    2.13877E+003    1.21923E+001    1.71742E+005
            4986    3.14912E+005    1.80974E+005   -1.82655E+005   -3.70951E+002   -1.82655E+005    3.63629E+005    6.83725E+002   -5.18729E+004   -3.73327E+002   -2.80171E+003    1.12386E+003    2.01686E+003   -9.88448E+001    1.81793E+005
            4987    3.59622E+005    2.06825E+005   -2.08431E+005   -5.67535E+002   -2.08431E+005    4.15255E+005    7.24434E+002   -4.50307E+004   -5.68487E+002   -2.36582E+003    7.61004E+002    1.25427E+003   -7.48207E+001    2.07618E+005
            4988    2.89168E+005    1.64530E+005   -1.69350E+005    1.02730E+003   -1.69350E+005    3.33879E+005    1.26414E+003   -9.51729E+004    1.03635E+003   -7.51421E+003    2.68545E+003    1.89805E+003    4.05434E+002    1.66850E+005
            4989    3.05078E+005    1.66739E+005   -1.85452E+005   -2.72524E+003   -1.85452E+005    3.52191E+005    7.14601E+003   -1.22768E+005   -2.74643E+003   -2.71017E+004    8.41015E+003    2.09458E+003   -8.51778E+002    1.75184E+005
            4990    3.46550E+005    1.84383E+005   -2.15727E+005   -1.01292E+004   -2.15727E+005    4.00110E+005    1.38243E+004   -1.25914E+005   -1.01621E+004   -5.37068E+004    2.23960E+004    1.57662E+003   -2.39761E+003    1.96383E+005
            4991    2.70523E+005    1.51931E+005   -1.60371E+005    1.53955E+003   -1.60371E+005    3.12302E+005    2.30024E+003   -1.08116E+005    1.55233E+003   -1.31361E+004    4.68304E+003    1.05149E+003    9.21614E+002    1.55890E+005
            4992    2.83443E+005    1.47826E+005   -1.79191E+005   -4.06703E+003   -1.79191E+005    3.27016E+005    1.18106E+004   -1.40833E+005   -4.09305E+003   -4.43618E+004    1.30230E+004    2.00702E+003   -1.03096E+003    1.60956E+005
            4993    3.13715E+005    1.52648E+005   -2.09414E+005   -1.83448E+004   -2.09414E+005    3.62062E+005    2.50369E+004   -1.43577E+005   -1.84127E+004   -9.35419E+004    3.68438E+004    2.29504E+003   -4.18817E+003    1.68819E+005
            4994    2.14106E+005    1.88646E+005    1.88646E+005    3.54917E+004   -5.60057E+004    2.44652E+005   -5.60440E+004    1.60344E+005    3.37055E+004   -8.72209E+003    1.43148E+005   -3.27035E+004   -1.43865E+004    8.86763E+004
            4995    1.75145E+005    1.73480E+005    1.73480E+005    2.18854E+004   -1.82483E+004    1.91728E+005   -5.90390E+004    1.64314E+005    1.32316E+004    3.77106E+003    1.60114E+005   -2.26218E+004   -1.52850E+004    4.23710E+004
            4996    1.78659E+005    1.80751E+005    1.80751E+005    6.45647E+003   -1.97467E+003    1.82725E+005   -6.17441E+004    1.78211E+005    4.76932E+003    2.60553E+003    1.77858E+005   -5.55033E+003   -1.78046E+004    1.33772E+004
            4997    1.53054E+005    1.35177E+005    1.35177E+005    2.78643E+004   -4.00867E+004    1.75264E+005   -4.09849E+004    1.10592E+005    2.52793E+004    4.16439E+003    9.35109E+004   -2.57208E+004   -7.07364E+003    7.01154E+004
            4998    1.36274E+005    1.41373E+005    1.41373E+005    2.76351E+004   -9.66787E+003    1.51041E+005   -5.31134E+004    1.23984E+005    1.95473E+004    1.17232E+004    1.28070E+005   -1.97097E+004   -8.39197E+003    3.87576E+004
            4999    1.46694E+005    1.51436E+005    1.51436E+005    1.19929E+004   -1.56678E+003    1.53003E+005   -5.39541E+004    1.45274E+005    1.11866E+004    1.00617E+003    1.49669E+005   -5.23113E+003   -1.02199E+004    1.20099E+004
            5000    9.92557E+004    9.32805E+004    9.32805E+004    2.23517E+004   -2.01487E+004    1.13429E+005   -3.18278E+004    7.42058E+004    1.87273E+004    1.54511E+004    6.13051E+004   -1.94671E+004   -3.03846E+003    4.73427E+004
            5001    1.05784E+005    1.08357E+005    1.08357E+005    2.06229E+004   -9.11233E+003    1.17469E+005   -3.99558E+004    9.56820E+004    1.11617E+004    8.56091E+003    1.00145E+005   -1.60993E+004   -5.01545E+003    2.69629E+004
            5002    1.20263E+005    1.23286E+005    1.23286E+005    7.48750E+003   -9.93133E+002    1.24279E+005   -4.32600E+004    1.19587E+005    4.79375E+003    2.98783E+003    1.21998E+005   -4.75354E+003   -7.79486E+003    9.33178E+003
            5003    8.28504E+004    5.25331E+003   -8.16054E+004   -3.45031E+003   -8.16054E+004    8.68587E+004    2.66008E+004   -8.18124E+004   -3.74596E+003    3.44709E+003   -7.95035E+004   -1.37110E+003    5.02250E+003    1.22067E+004
            5004    9.82295E+004    1.84974E+003   -9.99884E+004   -5.81694E+003   -9.99884E+004    1.01838E+005    3.46519E+004   -9.75529E+004   -5.69031E+003    1.13058E+003   -9.93959E+004   -1.59432E+003    3.32250E+003    6.87682E+003
            5005    1.08109E+005    2.87253E+003   -1.09527E+005   -6.29285E+003   -1.09527E+005    1.12400E+005    3.76491E+004   -1.07229E+005   -6.04225E+003    2.58120E+003   -1.09486E+005   -1.52707E+003    7.85841E+002    1.96225E+003
            5006    1.06822E+005   -4.20513E+002   -1.10015E+005   -6.19998E+003   -1.10015E+005    1.09594E+005    3.88785E+004   -1.06469E+005   -5.74707E+003   -9.06557E+002   -1.09982E+005   -1.59148E+003   -1.20149E+003   -1.43220E+003
            5007    1.01736E+005    1.09211E+003   -1.03700E+005   -5.32428E+003   -1.03700E+005    1.04792E+005    3.59773E+004   -1.01279E+005   -5.06634E+003    7.04542E+002   -1.03570E+005   -1.49775E+003   -2.80760E+003   -2.23546E+003
            5008    8.42149E+004    2.23474E+004   -7.14748E+004   -2.42369E+003   -7.14748E+004    9.38223E+004    1.71837E+004   -7.53407E+004   -2.39959E+003    9.31926E+003   -5.84707E+004   -3.15903E+003    2.25565E+003    3.21898E+004
            5009    8.62467E+004    1.49676E+004   -7.90028E+004   -3.45796E+003   -7.90028E+004    9.39704E+004    2.24977E+004   -8.16402E+004   -2.77912E+003    1.08653E+004   -7.55794E+004   -3.98684E+003    1.50263E+003    1.73654E+004
            5010    8.78548E+004    7.22008E+003   -8.67527E+004   -6.67099E+003   -8.67527E+004    9.39728E+004    2.87345E+004   -8.53315E+004   -5.24031E+003    5.63974E+003   -8.66031E+004   -4.23207E+003    1.26251E+002    3.70511E+003
            5011    9.10625E+004    5.61211E+003   -9.09056E+004   -6.51332E+003   -9.09056E+004    9.65177E+004    3.06023E+004   -8.92192E+004   -4.63552E+003    3.44718E+003   -9.06185E+004   -4.49350E+003   -1.37333E+003   -4.92501E+003
            5012    8.55914E+004   -2.36322E+002   -9.04113E+004   -1.02919E+004   -9.04113E+004    9.01750E+004    3.36465E+004   -8.42471E+004   -7.48771E+003   -3.64491E+003   -8.98069E+004   -4.77739E+003   -2.64635E+003   -6.55361E+003
            5013    1.05631E+005    4.92454E+004   -7.21255E+004   -9.69010E+002   -7.21255E+004    1.21371E+005    7.94972E+003   -7.01974E+004   -6.86450E+002    2.60253E+004   -4.91880E+004   -4.64566E+003    8.78112E+001    4.73693E+004
            5014    9.00254E+004    3.18602E+004   -7.02565E+004   -2.35483E+003   -7.02565E+004    1.02117E+005    1.35837E+004   -7.30871E+004   -1.59033E+003    2.46064E+004   -6.37673E+004   -5.38779E+003    1.80202E+002    2.47408E+004
            5015    8.24575E+004    1.91181E+004   -7.26084E+004   -4.63351E+003   -7.26084E+004    9.17265E+004    1.93746E+004   -7.41555E+004   -3.07920E+003    1.73970E+004   -7.24416E+004   -5.85333E+003   -7.71648E+002    3.82872E+003
            5016    7.82910E+004    7.90491E+003   -7.72288E+004   -8.32414E+003   -7.72288E+004    8.51337E+004    2.58827E+004   -7.43639E+004   -5.11737E+003    3.90348E+003   -7.64341E+004   -6.74169E+003   -1.92898E+003   -7.55382E+003
            5017    7.53662E+004    4.16350E+003   -7.76610E+004   -1.10851E+004   -7.76610E+004    8.18245E+004    2.81942E+004   -7.17714E+004   -6.73048E+003   -2.03492E+003   -7.58172E+004   -7.54581E+003   -3.15828E+003   -1.09530E+004
            5018    1.32500E+005    8.00112E+004    8.00112E+004    2.02188E+003   -7.29765E+004    1.52988E+005   -3.01887E+003    4.28634E+004    2.09747E+003    5.28126E+004   -4.58534E+004   -2.88003E+003   -1.34837E+002    5.83897E+004
            5019    1.02497E+005    5.41421E+004   -6.40327E+004    6.78463E+002   -6.40327E+004    1.18175E+005    3.07072E+003   -5.60972E+004    1.08246E+003    4.73619E+004   -5.76565E+004   -4.58524E+003   -7.70797E+002    2.66475E+004
            5020    8.22354E+004    2.87347E+004   -6.50965E+004   -5.55357E+003   -6.50965E+004    9.38312E+004    1.39718E+004   -6.28386E+004   -4.07943E+003    2.70979E+004   -6.49339E+004   -7.04002E+003   -2.25262E+003    2.95423E+003
            5021    7.61202E+004    1.65180E+004   -6.92237E+004   -9.60332E+003   -6.92237E+004    8.57418E+004    2.07697E+004   -6.48207E+004   -6.46176E+003    1.11189E+004   -6.69661E+004   -9.63821E+003   -3.65386E+003   -1.21379E+004
            5022    6.54270E+004    4.21285E+003   -6.94145E+004   -1.79396E+004   -6.94145E+004    7.36273E+004    2.77137E+004   -5.60063E+004   -1.17364E+004   -6.13203E+003   -6.52727E+004   -1.17166E+004   -4.57175E+003   -1.42428E+004
            5023    6.63028E+004    1.41803E+004   -6.16865E+004   -1.48518E+004   -6.16865E+004    7.58668E+004    2.07860E+004   -4.85690E+004   -1.31223E+004    5.76571E+003   -5.50015E+004   -1.05506E+004   -4.80285E+003   -1.90724E+004
            5024    7.62561E+004    2.70957E+004   -6.04825E+004   -8.78551E+003   -6.04825E+004    8.75782E+004    1.40574E+004   -5.14224E+004   -7.77339E+003    2.41273E+004   -5.85262E+004   -7.82743E+003   -4.10496E+003   -1.10767E+004
            5025    8.99005E+004    4.81290E+004   -5.55947E+004   -1.09998E+002   -5.55947E+004    1.03724E+005    2.52523E+003   -4.44206E+004    2.71270E+002    4.76432E+004   -5.54902E+004   -4.75652E+003   -2.35642E+003    9.29306E+002
            5026    1.11742E+005    7.30689E+004    7.30689E+004    7.75611E+003   -5.59566E+004    1.29026E+005   -8.28946E+003    3.10606E+004    7.82196E+003    6.89944E+004   -5.19480E+004   -2.05483E+003   -2.92474E+002    2.23802E+004
            5027    1.42291E+005    9.95658E+004    9.95658E+004    1.16099E+004   -6.45977E+004    1.64164E+005   -1.55260E+004    7.08727E+004    1.15834E+004    8.26071E+004   -4.76125E+004   -6.97010E+001    1.53424E+003    4.99561E+004
            5028    1.80426E+005    1.28651E+005    1.28651E+005    1.50131E+004   -7.93899E+004    2.08041E+005   -2.14249E+004    9.78092E+004    1.50196E+004    9.62250E+004   -4.69700E+004    1.43112E+003    2.89930E+003    7.53903E+004
            5029    2.26394E+005    1.64088E+005    1.64088E+005    2.07065E+004   -9.69062E+004    2.60994E+005   -2.92960E+004    1.25414E+005    2.07696E+004    1.11065E+005   -4.39466E+004    2.54549E+003    4.22253E+003    1.04875E+005
            5030    2.32882E+005    1.53504E+005    1.53504E+005    4.23477E+003   -1.14839E+005    2.68343E+005   -1.43001E+004    1.34676E+005    4.23537E+003    5.95133E+004   -2.08483E+004    3.69357E+002    8.02854E+001    1.28013E+005
            5031    2.26480E+005    1.35438E+005    1.35438E+005   -1.35456E+003   -1.25985E+005    2.61423E+005   -2.69954E+003    9.77800E+004   -1.30576E+003    1.70345E+004   -7.63008E+003   -1.98935E+003   -1.65620E+003    1.30104E+005
            5032    1.94935E+005    1.26794E+005    1.26794E+005    2.96646E+003   -9.79061E+004    2.24700E+005   -1.06182E+004    1.09206E+005    2.98174E+003    5.63492E+004   -2.74762E+004   -1.25015E+003   -6.30964E+002    1.04231E+005
            5033    1.97513E+005    1.17087E+005    1.17087E+005   -9.85782E+002   -1.10933E+005    2.28020E+005   -1.72288E+003    7.80378E+004   -8.78813E+002    1.54208E+004   -9.37335E+003   -3.64304E+003   -1.59651E+003    1.13266E+005
            5034    1.68130E+005    9.79141E+004    9.79141E+004   -5.26972E+002   -9.62191E+004    1.94133E+005   -3.89353E+002    4.88470E+004   -4.23585E+002    1.21447E+004   -1.05530E+004   -4.59391E+003   -8.70004E+002    9.62881E+004
            5035    1.32589E+005    7.50089E+004   -7.80770E+004    3.05245E+002   -7.80770E+004    1.53086E+005    9.20936E+002   -4.59434E+004    3.63068E+002    8.33840E+003   -1.14643E+004   -5.18535E+003   -2.61809E+001    7.57218E+004
            5036    8.97812E+004    4.61420E+004   -5.73127E+004    2.03644E+002   -5.73127E+004    1.03455E+005    3.65568E+003   -5.18275E+004    1.86757E+002    1.87708E+003   -1.30309E+004   -5.01342E+003    7.36038E+002    5.09370E+004
            5037    3.84054E+004    1.29277E+004   -2.98320E+004    1.73029E+003   -2.98320E+004    4.27597E+004    5.05800E+003   -3.44354E+004    1.27981E+003    1.58552E+003   -1.80393E+004   -2.39269E+003    3.02602E+003    1.87181E+004
            5038    1.57327E+005    9.56058E+004    9.56058E+004    1.29054E+003   -8.60143E+004    1.81620E+005   -3.62735E+003    6.38338E+004    1.38608E+003    3.99705E+004   -3.04746E+004   -3.14517E+003   -9.64640E+002    8.36381E+004
            5039    1.21451E+005    6.30054E+004   -7.70325E+004   -5.03162E+002   -7.70325E+004    1.40038E+005    4.84341E+003   -6.59610E+004   -3.92693E+002    1.80900E+004   -3.22276E+004   -4.05562E+003   -2.48407E+001    6.52113E+004
            5040    8.84155E+004    3.54970E+004   -6.52138E+004   -3.56878E+002   -6.52138E+004    1.00711E+005    1.00246E+004   -6.89566E+004   -4.59013E+002    7.97354E+003   -3.75882E+004   -3.09667E+003    2.01782E+003    4.47718E+004
            5041    5.95857E+004    5.26218E+003   -5.74618E+004   -1.61046E+003   -5.74618E+004    6.27240E+004    1.79367E+004   -5.86840E+004   -2.22275E+003    4.48141E+002   -5.20355E+004   -1.14583E+003    5.93043E+003    1.65279E+004
            5042    2.69384E+005    2.72169E+005    2.72169E+005    1.50166E+004   -7.97242E+003    2.80142E+005   -9.30711E+004    2.67164E+005    1.56379E+002    1.02726E+004    2.68784E+005    9.49559E+003   -1.32626E+004    2.72252E+004
            5043    2.43651E+005    2.43439E+005    2.43439E+005    4.95653E+003   -5.07059E+003    2.48510E+005   -8.11084E+004    2.43186E+005    3.93418E+003   -2.94387E+003    2.42335E+005    3.01111E+003   -1.05260E+004    1.27060E+004
            5044    2.22605E+005    2.21617E+005    2.21617E+005    2.30192E+003   -4.13792E+003    2.25755E+005   -7.32604E+004    2.22395E+005   -1.45935E+003    2.98896E+003    2.18252E+005   -1.83275E+003   -2.42452E+004    1.24381E+004
            5045    2.01729E+005    2.04832E+005    2.04832E+005    9.68779E+003   -2.89197E+003    2.07724E+005   -7.05427E+004    2.00843E+005    1.02592E+004   -1.39458E+003    2.02764E+005   -4.03725E+003   -1.61712E+004    1.18875E+004
            5046    3.19570E+005    3.25045E+005    3.25045E+005    1.59393E+004   -4.05215E+003    3.29097E+005   -1.12311E+005    3.18159E+005    3.10147E+003    2.68128E+004    3.07018E+005    2.66623E+003   -2.71357E+004    6.87361E+004
            5047    2.75269E+005    2.94119E+005    2.94119E+005    2.77300E+004    1.07558E+004    2.83363E+005   -1.10868E+005    2.74087E+005    2.43273E+004    2.96843E+004    2.78593E+005   -1.28550E+004   -2.07968E+004    5.96152E+004
            5048    2.41204E+005    2.39789E+005    2.39789E+005    1.48629E+004   -1.49252E+004    2.54714E+005   -7.99090E+004    2.37013E+005    7.97997E+003    3.21511E+003    2.28532E+005   -1.94107E+004   -2.67236E+004    4.15923E+004
            5049    2.05561E+005    2.12159E+005    2.12159E+005    3.06573E+004   -1.10621E+004    2.23221E+005   -7.72513E+004    1.95693E+005    2.31412E+004    1.04806E+004    1.98132E+005   -2.29537E+004   -1.81897E+004    4.72038E+004
            5050    2.66007E+005    2.38118E+005    2.38118E+005    4.56881E+004   -6.54322E+004    3.03550E+005   -7.27913E+004    2.02968E+005    4.38245E+004   -2.56043E+004    2.00154E+005   -3.78432E+004   -2.18976E+004    9.11265E+004
            5051    3.14653E+005    3.00905E+005    3.00905E+005    5.89007E+004   -5.47925E+004    3.55697E+005   -1.01671E+005    2.62070E+005    5.84700E+004   -1.91924E+004    2.65735E+005   -4.05479E+004   -3.27070E+004    9.26959E+004
            5052    3.37281E+005    3.45333E+005    3.45333E+005    7.33800E+004   -3.20761E+004    3.77409E+005   -1.28879E+005    2.96640E+005    7.19768E+004   -2.55072E+003    3.17211E+005   -3.95241E+004   -3.66751E+004    8.37975E+004
            5053    3.85684E+005    4.15893E+005    4.15893E+005    7.97918E+004   -5.19841E+003    4.21091E+005   -1.63495E+005    3.63709E+005    8.29972E+004    2.69647E+004    3.80524E+005   -3.64021E+004   -4.91499E+004    9.86524E+004
            5054    3.72924E+005    4.28366E+005    4.28366E+005    7.58887E+004    3.79018E+004    3.90464E+005   -1.80719E+005    3.68534E+005    7.94596E+004    7.33917E+004    3.89305E+005   -3.46772E+004   -6.21489E+004    9.30171E+004
            5055    3.56738E+005    4.45686E+005    4.45686E+005    1.07547E+005    7.28813E+004    3.72805E+005   -2.08705E+005    3.52919E+005    1.05592E+005    1.08072E+005    4.12450E+005   -3.36592E+004   -6.45955E+004    7.73275E+004
            5056    3.23661E+005    4.41314E+005    4.41314E+005    1.35614E+005    1.02273E+005    3.39041E+005   -2.26400E+005    3.19763E+005    1.25426E+005    1.44944E+005    4.08831E+005   -3.10713E+004   -6.18297E+004    7.12356E+004
            5057    2.74415E+005    4.00229E+005    4.00229E+005    1.41279E+005    1.12600E+005    2.87629E+005   -2.18036E+005    2.71013E+005    1.28296E+005    1.59097E+005    3.66714E+005   -2.56379E+004   -5.34583E+004    6.90654E+004
            5058    3.37661E+005    4.43663E+005    4.43663E+005    1.25622E+005    8.93166E+004    3.54346E+005   -2.19534E+005    3.33227E+005    1.05044E+005    1.36247E+005    4.17312E+005   -1.36919E+004    1.71556E+004    8.91215E+004
            5059    2.67860E+005    3.77790E+005    3.77790E+005    1.35864E+005    8.99340E+004    2.87856E+005   -2.01196E+005    2.58778E+005    1.28868E+005    1.38245E+005    3.36475E+005   -2.05123E+003    7.01087E+004    7.24547E+004
            5060    3.79446E+005    4.80426E+005    4.80426E+005    1.16494E+005    8.71674E+004    3.93258E+005   -2.28029E+005    3.76883E+005    9.64533E+004    1.40388E+005    4.47246E+005   -8.43991E+003    1.80792E+004    1.05215E+005
            5061    3.12040E+005    4.19939E+005    4.19939E+005    1.37433E+005    8.50065E+004    3.34933E+005   -2.14126E+005    3.01893E+005    1.32481E+005    1.47138E+005    3.62760E+005    2.00648E+003    8.17811E+004    9.56117E+004
            5062    4.07348E+005    4.92824E+005    4.92824E+005    9.57298E+004    7.59435E+004    4.16881E+005   -2.21499E+005    4.06265E+005    8.19255E+004    1.33758E+005    4.48815E+005   -3.34207E+003    1.72574E+004    1.24804E+005
            5063    3.37775E+005    4.25917E+005    4.25917E+005    1.24794E+005    6.06793E+004    3.65238E+005   -2.03797E+005    3.23657E+005    1.20626E+005    1.43463E+005    3.47302E+005    5.01574E+003    8.82067E+004    1.21035E+005
            5064    3.93105E+005    4.47479E+005    4.47479E+005    6.34876E+004    4.58545E+004    4.01625E+005   -1.85607E+005    3.92214E+005    4.86351E+004    1.09956E+005    3.98230E+005    7.34033E+002    1.78976E+004    1.27840E+005
            5065    3.44192E+005    4.27867E+005    4.27867E+005    1.20647E+005    5.59009E+004    3.71967E+005   -2.01472E+005    3.30071E+005    1.17094E+005    1.42634E+005    3.44687E+005    6.51324E+003    8.95778E+004    1.26002E+005
            5066    3.57668E+005    4.37178E+005    4.37178E+005    1.25765E+005    4.65408E+004    3.90637E+005   -2.03161E+005    3.37067E+005    1.25395E+005    1.48611E+005    3.35478E+005    6.77386E+003    8.61126E+004    1.48038E+005
            5067    4.43814E+005    5.46451E+005    5.46451E+005    1.55596E+005    6.39776E+004    4.82474E+005   -2.55342E+005    4.21743E+005    1.68935E+005    1.12641E+005    4.84448E+005    2.16225E+003    9.21517E+004    1.30387E+005
            5068    4.20373E+005    4.56078E+005    4.56078E+005    3.80072E+004    3.34400E+004    4.22638E+005   -1.75842E+005    4.20317E+005    3.95692E+004    7.87718E+004    4.09184E+005    8.67818E+003    2.41353E+004    1.30483E+005
            5069    3.76583E+005    3.70678E+005    3.70678E+005   -1.91429E+002   -1.13696E+004    3.82047E+005   -1.19706E+005    3.76209E+005    2.03729E+003   -7.45768E+003    3.64537E+005    6.62800E+003    3.58308E+004    3.10540E+004
            5070    5.21668E+004    4.54293E+003   -5.52937E+004   -1.93712E+004   -5.52937E+004    5.98367E+004    2.33740E+004   -3.63810E+004   -1.48298E+004   -6.10873E+003   -4.91835E+004   -1.22221E+004   -3.93061E+003   -1.49560E+004
            5071    5.88099E+004    4.11534E+003   -6.30012E+004   -2.04915E+004   -6.30012E+004    6.71165E+004    2.64591E+004   -4.48156E+004   -1.02851E+004   -8.89925E+003   -6.01930E+004   -1.33013E+004   -3.85475E+003   -1.03499E+004
            5072    6.82099E+004    4.74488E+002   -7.46486E+004   -1.65937E+004   -7.46486E+004    7.51231E+004    3.02559E+004   -6.31314E+004   -7.63758E+003   -9.16776E+003   -7.39625E+004   -8.80052E+003   -2.80327E+003   -5.68104E+003
            5073    8.42880E+004    2.33542E+003   -8.69640E+004   -8.79302E+003   -8.69640E+004    8.92994E+004    3.11405E+004   -8.26109E+004   -5.15484E+003   -1.53043E+003   -8.67363E+004   -5.35161E+003   -2.29853E+003   -3.57485E+003
            5074    9.42419E+004   -9.88960E+002   -9.70775E+004   -4.79770E+003   -9.70775E+004    9.60886E+004    3.42881E+004   -9.40685E+004   -3.57515E+003   -2.27294E+003   -9.70161E+004   -1.82102E+003   -2.11910E+003   -1.08583E+003
            5075    3.33379E+004   -3.89482E+002   -3.83330E+004   -2.49858E+004   -3.83330E+004    3.79435E+004    2.12361E+004    2.62278E+004   -1.37072E+004   -1.36128E+004   -3.63883E+004   -1.32271E+004   -2.43585E+003   -4.17006E+003
            5076    4.97337E+004   -1.02153E+003   -5.84364E+004   -3.07739E+004   -5.84364E+004    5.74148E+004    3.00773E+004    1.97886E+004   -1.50124E+004   -1.71115E+004   -5.81078E+004   -1.46942E+004   -2.56633E+003    3.40420E+003
            5077    6.68105E+004    1.80990E+003   -7.28784E+004   -1.88047E+004   -7.28784E+004    7.46883E+004    2.99577E+004   -5.89920E+004   -9.22182E+003   -7.93154E+003   -7.27199E+004   -1.02144E+004   -1.86204E+003    2.86578E+003
            5078    7.98385E+004   -1.43675E+003   -8.70107E+004   -1.45249E+004   -8.70107E+004    8.55739E+004    3.43241E+004   -7.73696E+004   -9.23311E+003   -6.84365E+003   -8.68955E+004   -6.39022E+003   -1.08314E+003    2.91173E+003
            5079    9.42716E+004    1.16051E+003   -9.63951E+004   -5.79252E+003   -9.63951E+004    9.75556E+004    3.36757E+004   -9.36921E+004   -5.11509E+003    4.67016E+002   -9.63790E+004   -2.06283E+003   -7.83105E+002    9.68816E+002
            5080    5.19970E+004    5.40823E+003   -5.45367E+004   -2.16235E+004   -5.45367E+004    5.99449E+004    2.35840E+004   -2.87448E+004   -1.49783E+004   -1.77662E+004   -3.80074E+004   -1.51357E+004   -1.21304E+002    2.26750E+004
            5081    6.58881E+004    7.07954E+003   -6.87151E+004   -2.51056E+004   -6.87151E+004    7.57946E+004    2.89137E+004   -4.19167E+004   -1.22043E+004   -1.31819E+004   -6.13549E+004   -1.70515E+004    3.54870E+002    1.91478E+004
            5082    7.84732E+004    2.55050E+003   -8.48739E+004   -2.05274E+004   -8.48739E+004    8.74244E+004    3.42836E+004   -7.02074E+004   -9.83189E+003   -1.20337E+004   -8.09852E+004   -1.21118E+004    1.27053E+003    1.63516E+004
            5083    9.40575E+004    4.37888E+003   -9.65292E+004   -1.12905E+004   -9.65292E+004    1.00908E+005    3.44803E+004   -9.10513E+004   -6.36775E+003   -1.64166E+003   -9.54314E+004   -7.57661E+003    2.17155E+003    9.74438E+003
            5084    1.02826E+005   -6.77450E+002   -1.06069E+005   -6.01504E+003   -1.06069E+005    1.05391E+005    3.75870E+004   -1.02514E+005   -4.21292E+003   -2.71149E+003   -1.05837E+005   -2.67538E+003    3.31426E+003    3.49279E+003
            5085    2.69266E+005   -1.14747E+005   -3.96382E+005   -1.41478E+005   -3.96382E+005    2.81635E+005    2.17536E+005   -2.66257E+005   -1.30089E+005   -1.59827E+005   -3.62691E+005   -2.50053E+004    5.26910E+004    6.88683E+004
            5086    3.23373E+005   -8.72967E+004   -4.27147E+005   -1.23256E+005   -4.27147E+005    3.39850E+005    2.12567E+005   -3.18829E+005   -1.03700E+005   -1.32146E+005   -4.01854E+005   -1.42533E+004   -1.50364E+004    8.57491E+004
            5087    2.54471E+005   -8.96878E+004   -3.62590E+005   -1.31807E+005   -3.62590E+005    2.72903E+005    1.94695E+005   -2.46445E+005   -1.25411E+005   -1.32292E+005   -3.26382E+005   -2.73777E+003   -6.52001E+004    6.56401E+004
            5088    2.17688E+005   -1.03265E+005   -3.23086E+005   -1.07596E+005   -3.23086E+005    2.19821E+005    1.77982E+005   -2.17591E+005   -1.11480E+005   -1.44734E+005   -2.77733E+005   -1.80211E+004    3.74660E+004    7.95510E+004
            5089    2.45638E+005   -6.40527E+004   -3.27324E+005   -1.04286E+005   -3.27324E+005    2.63271E+005    1.65221E+005   -2.38056E+005   -8.64549E+004   -1.03576E+005   -3.05631E+005   -1.73611E+004   -1.15610E+004    6.94130E+004
            5090    1.83020E+005   -7.23599E+004   -2.70180E+005   -1.06875E+005   -2.70180E+005    1.97820E+005    1.49805E+005   -1.75472E+005   -9.88712E+004   -1.01977E+005   -2.48567E+005   -6.29638E+003   -4.61017E+004    4.10196E+004
            5091    1.83546E+005   -1.89018E+004   -2.19863E+005   -6.10722E+004   -2.19863E+005    2.00961E+005    9.99456E+004   -1.72132E+005   -6.44740E+004   -8.59913E+004   -1.49372E+005   -1.31527E+004    1.88690E+004    9.35559E+004
            5092    1.50085E+005   -1.67899E+004   -1.83685E+005   -5.97996E+004   -1.83685E+005    1.66895E+005    8.67580E+004   -1.35142E+005   -4.74853E+004   -5.48240E+004   -1.57965E+005   -1.87900E+004   -5.66400E+003    5.75076E+004
            5093    9.48852E+004   -3.33474E+004   -1.38846E+005   -6.04905E+004   -1.38846E+005    1.05499E+005    7.75614E+004   -8.54742E+004   -5.21343E+004   -5.23540E+004   -1.28196E+005   -8.24614E+003   -2.24352E+004    2.25128E+004
            5094    1.73375E+005    1.07356E+005    1.07356E+005    3.13865E+003   -9.27824E+004    2.00139E+005   -5.90414E+003    7.20346E+004    3.35010E+003    4.69390E+003    9.66841E+003   -1.13926E+004   -1.29673E+003    9.93833E+004
            5095    9.92936E+004    7.01039E+004    7.01039E+004    8.56689E+003   -4.44448E+004    1.14549E+005   -1.14087E+004    5.01024E+004    6.71442E+003    7.82199E+003    1.96896E+004   -1.90916E+004    6.24654E+002    5.35704E+004
            5096    3.52230E+004    3.19388E+004    3.19388E+004    1.28375E+004   -8.70873E+003    4.06476E+004   -1.20225E+004   -1.65616E+004    8.45785E+003    8.31974E+003    1.92900E+004   -8.92678E+003    2.99601E+003    1.68901E+004
            5097    1.87015E+005    2.31992E+005    2.31992E+005    6.51257E+004    2.98511E+004    2.02141E+005   -1.08990E+005    1.79300E+005    6.89458E+004    9.32879E+004    1.64735E+005   -1.36115E+004   -2.09716E+004    9.24899E+004
            5098    1.69816E+005    2.16925E+005    2.16925E+005    7.25075E+004    2.98449E+004    1.87080E+005   -1.06426E+005    1.57066E+005    5.80677E+004    6.74145E+004    1.93795E+005   -1.87199E+004    7.55858E+003    5.88056E+004
            5099    1.17138E+005    1.75391E+005    1.75391E+005    7.53135E+004    4.65510E+004    1.28840E+005   -9.90852E+004    1.08759E+005    6.68903E+004    6.78617E+004    1.62504E+005   -7.92463E+003    2.85666E+004    2.60433E+004
            5100    2.25511E+005    3.33639E+005    3.33639E+005    1.11903E+005    1.04533E+005    2.29106E+005   -1.83359E+005    2.25240E+005    1.13219E+005    1.47552E+005    2.89304E+005   -1.85796E+004   -3.93679E+004    7.96475E+004
            5101    2.61919E+005    3.51122E+005    3.51122E+005    1.11331E+005    7.16127E+004    2.79509E+005   -1.78022E+005    2.55011E+005    9.22795E+004    1.12183E+005    3.29603E+005   -1.68851E+004    1.28572E+004    7.13089E+004
            5102    2.02516E+005    2.98624E+005    2.98624E+005    1.16927E+005    8.02915E+004    2.18332E+005   -1.65281E+005    1.94850E+005    1.09279E+005    1.12755E+005    2.73808E+005   -5.72420E+003    5.16381E+004    4.62050E+004
            5103    1.81066E+005    2.50217E+003   -1.84411E+005   -9.82227E+003   -1.84411E+005    1.86914E+005    6.39105E+004   -1.80119E+005   -1.04269E+004    1.41597E+003   -1.82721E+005   -3.61726E+003    1.52524E+004    7.78922E+003
            5104    1.69724E+005    2.37925E+003   -1.77705E+005   -2.07055E+004   -1.77705E+005    1.80085E+005    6.53438E+004   -1.66137E+005   -1.71521E+004   -6.72837E+003   -1.72151E+005   -1.18921E+004    1.40560E+004    2.60778E+004
            5105    1.75753E+005    1.96005E+004   -1.73559E+005   -2.30685E+004   -1.73559E+005    1.93159E+005    5.90088E+004   -1.63479E+005   -1.74438E+004    2.09909E+002   -1.59793E+005   -2.06715E+004    1.35826E+004    4.45943E+004
            5106    1.95593E+005    3.42038E+004   -1.87198E+005   -3.78616E+004   -1.87198E+005    2.21401E+005    6.36185E+004   -1.61388E+005   -3.20978E+004   -4.31570E+003   -1.54442E+005   -3.30629E+004    1.45681E+004    7.11842E+004
            5107    2.27682E+005    7.34916E+004   -1.88234E+005   -3.58313E+004   -1.88234E+005    2.61725E+005    5.01912E+004   -1.49028E+005   -3.47947E+004    2.26892E+004   -1.38468E+005   -3.41093E+004    1.40343E+004    9.61696E+004
            5108    1.52294E+005   -6.00372E+002   -1.56163E+005   -7.36315E+003   -1.56163E+005    1.55563E+005    5.47089E+004   -1.51956E+005   -6.49181E+003   -2.98502E+003   -1.54650E+005   -3.74691E+003    1.27996E+004    7.68563E+003
            5109    1.45313E+005    9.24071E+003   -1.45919E+005   -1.30217E+004   -1.45919E+005    1.55160E+005    4.99001E+004   -1.41400E+005   -9.06739E+003    5.99292E+002   -1.41232E+005   -1.11207E+004    1.05321E+004    2.29032E+004
            5110    1.39530E+005    1.20283E+004   -1.41081E+005   -2.10901E+004   -1.41081E+005    1.53109E+005    5.00476E+004   -1.30239E+005   -1.40693E+004   -9.77068E+003   -1.26303E+005   -1.84112E+004    9.48958E+003    4.11669E+004
            5111    1.43247E+005    2.78642E+004   -1.34546E+005   -2.61987E+004   -1.34546E+005    1.62411E+005    4.42936E+004   -1.16738E+005   -1.93904E+004   -7.15347E+003   -1.06337E+005   -2.72000E+004    8.70054E+003    5.56764E+004
            5112    1.66244E+005    4.96056E+004   -1.41293E+005   -2.83758E+004   -1.41293E+005    1.90899E+005    4.00212E+004   -1.12583E+005   -2.70998E+004   -3.15697E+003   -8.98068E+004   -2.61781E+004    7.24999E+003    8.04499E+004
            5113    1.23993E+005    1.74535E+003   -1.27212E+005   -8.86623E+003   -1.27212E+005    1.28958E+005    4.47777E+004   -1.22965E+005   -8.47052E+003    6.79771E+002   -1.26542E+005   -3.09863E+003    6.66869E+003    5.97003E+003
            5114    1.10310E+005    3.46085E+002   -1.18097E+005   -1.82964E+004   -1.18097E+005    1.18443E+005    4.53490E+004   -1.06679E+005   -1.35008E+004   -7.87681E+003   -1.14669E+005   -9.39835E+003    5.37850E+003    1.80807E+004
            5115    1.03362E+005    8.78261E+003   -1.06153E+005   -2.08276E+004   -1.06153E+005    1.14936E+005    3.93995E+004   -9.30788E+004   -1.33093E+004   -7.34094E+003   -9.75481E+004   -1.49676E+004    4.02226E+003    2.78603E+004
            5116    9.97727E+004    1.24100E+004   -1.01347E+005   -2.86858E+004   -1.01347E+005    1.13757E+005    3.92076E+004   -7.69478E+004   -2.07539E+004   -1.69975E+004   -7.98714E+004   -2.11942E+004    3.12148E+003    4.01943E+004
            5117    9.75337E+004    2.64106E+004   -8.56751E+004   -2.01241E+004   -8.56751E+004    1.12086E+005    2.64629E+004   -6.44657E+004   -1.77249E+004   -1.26664E+004   -4.89973E+004   -1.93457E+004    2.36175E+003    4.90292E+004
            5118    3.77542E+005   -3.74564E+004   -4.47282E+005   -1.13644E+005   -4.47282E+005    4.09826E+005    1.99461E+005   -3.59631E+005   -1.16214E+005   -6.75970E+004   -4.14572E+005   -4.22052E+004    6.05155E+004    8.23030E+004
            5119    3.73899E+005    1.96488E+003   -4.15485E+005   -1.11354E+005   -4.15485E+005    4.17450E+005    1.74958E+005   -3.31835E+005   -1.12101E+005   -3.00558E+004   -3.82717E+005   -4.82686E+004    5.19615E+004    8.66875E+004
            5120    3.75998E+005    3.77215E+004   -3.86848E+005   -9.59500E+004   -3.86848E+005    4.24570E+005    1.48359E+005   -3.15478E+005   -9.73869E+004    5.31525E+003   -3.53005E+005   -4.90158E+004    4.81938E+004    9.13931E+004
            5121    3.39631E+005    7.43304E+004   -3.13665E+005   -7.02314E+004   -3.13665E+005    3.87995E+005    1.03189E+005   -2.55218E+005   -7.01878E+004    3.80440E+004   -2.77422E+005   -4.67734E+004    3.51832E+004    9.65794E+004
            5122    2.95956E+005    7.92620E+004   -2.59851E+005   -5.36679E+004   -2.59851E+005    3.39113E+005    7.80857E+004   -2.11254E+005   -5.32207E+004    3.32613E+004   -2.14298E+005   -4.15292E+004    2.44511E+004    1.05304E+005
            5123    2.37357E+005    4.13431E+004   -2.24371E+005   -3.33283E+004   -2.24371E+005    2.65714E+005    7.21186E+004   -2.08364E+005   -2.73004E+004    7.93231E+003   -1.96988E+005   -3.67503E+004    2.47279E+004    6.93748E+004
            5124    2.14877E+005    1.54796E+004   -2.15125E+005   -2.05246E+004   -2.15125E+005    2.30605E+005    7.33900E+004   -2.07927E+005   -1.59979E+004   -3.46289E+003   -2.00709E+005   -2.01097E+004    2.09365E+004    4.84875E+004
            5125    2.05848E+005    1.13188E+004   -2.04196E+005   -9.61375E+003   -2.04196E+005    2.15515E+005    6.74970E+004   -2.03433E+005   -7.47523E+003    4.41299E+003   -1.99429E+005   -1.07020E+004    1.92720E+004    2.34255E+004
            5126    2.03956E+005    2.25037E+002   -2.06085E+005   -4.56757E+003   -2.06085E+005    2.06310E+005    7.01426E+004   -2.03829E+005   -3.32217E+003   -3.38622E+003   -2.03719E+005   -2.96440E+003    2.05291E+004    7.33092E+003
            5127    2.87670E+005    2.70032E+004   -2.91330E+005   -4.99933E+004   -2.91330E+005    3.18333E+005    1.04773E+005   -2.62947E+005   -4.60118E+004   -6.57469E+003   -2.61734E+005   -3.71724E+004    3.16473E+004    7.95934E+004
            5128    2.43736E+005    1.23117E+004   -2.46144E+005   -2.04400E+004   -2.46144E+005    2.58456E+005    8.47576E+004   -2.38710E+005   -1.86826E+004   -8.50821E+002   -2.34739E+005   -1.58796E+004    2.26932E+004    4.56612E+004
            5129    2.22227E+005   -5.00492E+003   -2.33022E+005   -1.70764E+004   -2.33022E+005    2.28017E+005    8.50344E+004   -2.21488E+005   -1.69762E+004   -1.00808E+004   -2.28046E+005   -6.72167E+003    1.90214E+004    2.65236E+004
            5130    2.19352E+005    1.99706E+003   -2.20286E+005   -3.98670E+003   -2.20286E+005    2.22283E+005    7.40919E+004   -2.19169E+005   -5.32039E+003    1.73557E+003   -2.18691E+005   -1.09440E+003    1.72424E+004    6.77533E+003
            5131    3.18823E+005    1.45189E+004   -3.27417E+005   -3.83058E+004   -3.27417E+005    3.41936E+005    1.17068E+005   -3.08746E+005   -3.57948E+004   -1.67465E+004   -2.98663E+005   -3.30782E+004    4.16946E+004    7.89108E+004
            5132    2.87372E+005   -4.22574E+003   -2.96616E+005   -1.45407E+004   -2.96616E+005    2.92391E+005    1.05128E+005   -2.86955E+005   -1.68818E+004   -1.83579E+004   -2.80143E+005   -8.48752E+003    2.73329E+004    6.11153E+004
            5133    2.59157E+005    4.14566E+003   -2.57597E+005   -1.10596E+003   -2.57597E+005    2.61743E+005    8.48524E+004   -2.59037E+005   -2.26292E+003    5.81695E+002   -2.52876E+005   -6.03986E+002    2.11953E+004    2.76012E+004
            5134    2.34626E+005    6.43947E+003   -2.34290E+005   -6.28574E+003   -2.34290E+005    2.40729E+005    7.80454E+004   -2.33847E+005    4.40533E+003   -6.19565E+003   -2.32346E+005    1.72853E+003    1.89869E+004    1.00839E+004
            5135    3.70741E+005   -1.32109E+004   -4.05000E+005   -5.96882E+004   -4.05000E+005    3.91789E+005    1.59300E+005   -3.64101E+005   -5.83500E+004   -5.19916E+004   -3.67557E+005   -2.85471E+004    3.69716E+004    1.05338E+005
            5136    3.10296E+005   -9.42124E+003   -3.26549E+005   -2.35676E+004   -3.26549E+005    3.17127E+005    1.19846E+005   -3.09569E+005   -2.13976E+004   -2.84176E+004   -3.09722E+005    2.02968E+003    1.69161E+004    6.89362E+004
            5137    2.85264E+005   -1.11737E+004   -3.04205E+005   -2.74017E+004   -3.04205E+005    2.93032E+005    1.14260E+005   -2.84223E+005   -2.17287E+004   -2.61737E+004   -2.94878E+005    6.34668E+003    8.71849E+003    5.03664E+004
            5138    2.61264E+005    5.16388E+003   -2.60827E+005   -4.56126E+003   -2.60827E+005    2.65991E+005    8.67416E+004   -2.60857E+005   -2.10378E+003    1.99845E+003   -2.60119E+005    4.08823E+003    3.23150E+003    1.32956E+004
            5139    3.81338E+005   -3.27059E+004   -4.18035E+005   -4.08173E+004   -4.18035E+005    3.85329E+005    1.63853E+005   -3.81144E+005   -3.71439E+004   -8.10570E+004   -3.73358E+005   -1.46144E+004    3.62921E+004    1.16366E+005
            5140    3.76990E+005   -3.63467E+003   -3.93236E+005   -3.02682E+004   -3.93236E+005    3.89601E+005    1.42379E+005   -3.74865E+005   -2.07063E+004   -4.85226E+004   -3.57910E+005    9.94037E+003    1.10176E+004    1.10093E+005
            5141    3.37201E+005    1.08944E+004   -3.37362E+005   -1.24275E+004   -3.37362E+005    3.48257E+005    1.12965E+005   -3.35379E+005   -3.36565E+003   -9.04345E+003   -3.26486E+005    1.04452E+004    6.17591E+003    5.96052E+004
            5142    2.96696E+005    3.19877E+003   -3.02914E+005   -1.66293E+004   -3.02914E+005    3.06113E+005    1.05448E+005   -2.95200E+005   -4.49842E+002   -1.56786E+004   -3.00216E+005    7.58795E+003    1.34504E+003    2.78309E+004
            5143    4.09931E+005    9.62201E+003   -4.10124E+005   -1.07674E+004   -4.10124E+005    4.19746E+005    1.37090E+005   -4.08788E+005   -1.84625E+004    7.02422E+003   -3.99831E+005    5.26848E+003   -5.48045E+004    3.23462E+004
            5144    4.70299E+005   -6.59083E+004   -5.81208E+005   -1.75130E+005   -5.81208E+005    5.15300E+005    2.74082E+005   -4.40386E+005   -1.91324E+005   -1.13892E+005   -5.17030E+005    1.22885E+003   -9.90415E+004    1.34720E+005
            5145    4.39342E+005   -3.14897E+004   -4.82563E+005   -5.59768E+004   -4.82563E+005    4.51073E+005    1.90010E+005   -4.37803E+005   -5.95760E+004   -7.40844E+004   -4.36369E+005    8.39573E+003   -4.70565E+004    1.28388E+005
            5146    3.67654E+005   -4.81002E+004   -4.54269E+005   -1.44225E+005   -4.54269E+005    4.06168E+005    2.15531E+005   -3.37603E+005   -1.43391E+005   -1.58320E+005   -3.44883E+005    3.57693E+003   -9.08469E+004    1.55518E+005
            5147    3.82530E+005   -3.46308E+004   -4.28932E+005   -5.93756E+004   -4.28932E+005    3.94301E+005    1.74313E+005   -3.80723E+005   -4.35482E+004   -1.05095E+005   -3.74296E+005    6.77257E+003   -4.27227E+004    1.26346E+005
            5148    3.42409E+005   -6.14794E+004   -4.36857E+005   -1.41638E+005   -4.36857E+005    3.75377E+005    2.13325E+005   -3.20262E+005   -1.40052E+005   -1.51950E+005   -3.47971E+005    2.41312E+003   -8.80728E+004    1.32989E+005
            5149    4.03534E+005   -4.95868E+004   -4.64820E+005   -7.41031E+004   -4.64820E+005    4.15234E+005    1.96170E+005   -4.01854E+005   -5.48436E+004   -1.16939E+005   -4.16728E+005   -3.25486E+002   -2.51838E+004    1.27269E+005
            5150    3.41525E+005   -6.28874E+004   -4.33939E+005   -1.32744E+005   -4.33939E+005    3.71052E+005    2.09857E+005   -3.24862E+005   -1.31858E+005   -1.50002E+005   -3.47711E+005    5.48964E+003   -8.65588E+004    1.30468E+005
            5151    3.32034E+005   -7.09700E+004   -4.28681E+005   -1.30330E+005   -4.28681E+005    3.57711E+005    2.09993E+005   -3.19768E+005   -1.24626E+005   -1.46799E+005   -3.58555E+005    3.87676E+003   -8.61670E+004    1.12398E+005
            5152    3.04664E+005   -8.40177E+004   -4.11256E+005   -1.35804E+005   -4.11256E+005    3.27238E+005    2.10359E+005   -2.94517E+005   -1.30482E+005   -1.43926E+005   -3.56670E+005    9.63086E+002   -7.87235E+004    9.29596E+004
            5153    3.99445E+005   -7.28427E+004   -4.84337E+005   -9.81434E+004   -4.84337E+005    4.11494E+005    2.18441E+005   -3.97636E+005   -8.05963E+004   -1.32607E+005   -4.42120E+005   -7.58340E+003   -1.34373E+004    1.21437E+005
            5154    3.77127E+005   -8.89152E+004   -4.80273E+005   -1.19202E+005   -4.80273E+005    3.91357E+005    2.29463E+005   -3.74377E+005   -1.00694E+005   -1.40086E+005   -4.47609E+005   -1.03923E+004   -1.61100E+004    1.04701E+005
            5155    3.19239E+005   -1.01524E+005   -4.36823E+005   -1.36530E+005   -4.36823E+005    3.35299E+005    2.24959E+005   -3.14877E+005   -1.26453E+005   -1.42714E+005   -4.05711E+005   -3.17033E+004    6.20205E+004    6.74537E+004
            5156    3.63800E+005   -6.86320E+004   -4.52001E+005   -1.11583E+005   -4.52001E+005    3.83369E+005    2.10739E+005   -3.58030E+005   -1.08232E+005   -1.06433E+005   -4.17552E+005   -3.82827E+004    6.67499E+004    7.82066E+004
            5157    1.06688E+005    5.87338E+004   -6.44004E+004   -6.11725E+003   -6.44004E+004    1.23134E+005    3.92795E+003    4.82022E+004   -6.26409E+003   -5.72874E+004    5.17677E+004   -2.97361E+003    2.68529E+002    2.84226E+004
            5158    8.68983E+004    5.86774E+004    5.86774E+004    5.00657E+002   -4.12128E+004    9.98903E+004   -5.98843E+003    5.69029E+004    1.21155E+002   -4.07309E+004    5.85750E+004   -4.09851E+003    1.53234E+003    2.59233E+003
            5159    7.64048E+004    6.37287E+004    6.37287E+004    7.49137E+003   -2.32602E+004    8.69890E+004   -1.59866E+004    5.98971E+004    6.76865E+003   -2.06186E+004    6.18098E+004   -5.57716E+003    2.37657E+003   -1.21162E+004
            5160    6.63471E+004    6.42335E+004    6.42335E+004    1.25686E+004   -1.05887E+004    7.48222E+004   -2.20711E+004    5.61096E+004    1.12168E+004   -4.52923E+003    5.95259E+004   -6.94496E+003    2.71694E+003   -1.72502E+004
            5161    7.53021E+004    7.83233E+004    7.83233E+004    1.54475E+004   -5.12783E+003    8.34511E+004   -2.95477E+004    6.85375E+004    1.31800E+004   -1.52991E+003    7.69929E+004   -6.98021E+003    2.38272E+003   -9.66190E+003
            5162    9.46709E+004    1.01265E+005    1.01265E+005    1.33649E+004    1.03148E+003    1.00233E+005   -3.85537E+004    9.28377E+004    1.25324E+004    2.02014E+003    1.01109E+005   -3.25553E+003    2.08995E+003   -3.17830E+003
            5163    8.11655E+004    7.96838E+004    7.96838E+004    1.22372E+004   -1.03961E+004    9.00799E+004   -2.71750E+004    7.35475E+004    1.03856E+004   -7.86640E+003    7.90057E+004   -6.45093E+003    1.53952E+003   -7.33895E+003
            5164    1.03064E+005    1.07145E+005    1.07145E+005    1.18847E+004   -2.26110E+003    1.09406E+005   -3.89229E+004    1.00845E+005    1.12393E+004   -1.57422E+003    1.07104E+005   -2.96725E+003    4.63888E+002   -2.05005E+003
            5165    8.65474E+004    7.69673E+004    7.69673E+004    8.58491E+003   -2.03375E+004    9.73048E+004   -2.17382E+004    7.44486E+004    7.52915E+003   -1.90624E+004    7.67479E+004   -5.41015E+003    4.47887E+002    4.58435E+003
            5166    1.01716E+005    1.04760E+005    1.04760E+005    1.22398E+004   -4.16014E+003    1.08920E+005   -3.76131E+004    9.86758E+004    1.18279E+004   -3.59618E+003    1.04608E+005   -2.66392E+003   -1.19681E+003    3.81213E+003
            5167    9.30676E+004    7.22526E+004    7.22526E+004    3.80707E+003   -3.37196E+004    1.05972E+005   -1.41134E+004    7.28693E+004    3.45180E+003   -2.45512E+004    6.34394E+004   -4.40415E+003   -9.05507E+002    2.90884E+004
            5168    9.08118E+004    9.11305E+004    9.11305E+004    9.06435E+003   -6.43251E+003    9.75630E+004   -3.12541E+004    8.77627E+004    8.98696E+003   -4.76023E+003    8.95356E+004   -2.38323E+003   -3.47524E+003    1.16778E+004
            5169    6.92614E+004    6.73602E+004    6.73602E+004    5.86623E+003   -7.67007E+003    7.50303E+004   -2.18521E+004    6.61865E+004    6.22521E+003   -3.03239E+003    6.23635E+004   -2.02878E+003   -4.63565E+003    1.79202E+004
            5170    4.77012E+004    3.69473E+004    3.69473E+004   -1.53509E+003   -1.64221E+004    5.33694E+004   -6.33003E+003    4.19768E+004   -1.28393E+003   -2.84812E+003    2.31221E+004   -2.26446E+003   -2.48966E+003    2.31312E+004
            5171    1.01900E+005    7.01211E+004    7.01211E+004    1.25020E+003   -4.69350E+004    1.17056E+005   -8.14544E+003    6.82392E+004    1.23956E+003   -1.89472E+004    4.21439E+004   -3.96474E+003   -1.43514E+003    4.97455E+004
            5172    1.06802E+005    6.54326E+004    6.54326E+004   -1.33887E+003   -5.77465E+004    1.23179E+005   -2.11573E+003    5.61222E+004   -1.31517E+003   -7.10257E+003    1.47649E+004   -4.68205E+003   -7.74582E+002    6.04262E+004
            5173    1.49980E+005    8.69079E+004    8.69079E+004    6.57402E+002   -8.62735E+004    1.73181E+005   -4.30593E+002   -2.84214E+004    6.09687E+002   -1.05288E+004    1.12109E+004   -4.39828E+003    2.02926E+002    8.57929E+004
            5174    1.86092E+005    1.03344E+005   -1.11466E+005    7.16681E+002   -1.11466E+005    2.14810E+005    2.46848E+003   -7.91540E+004    6.88754E+002   -1.56910E+004    7.59678E+003   -3.01340E+003    4.06553E+002    1.06729E+005
            5175    2.17154E+005    1.19790E+005   -1.30828E+005    1.45845E+003   -1.30828E+005    2.50618E+005    3.19304E+003   -9.95207E+004    1.45666E+003   -1.73045E+004    6.26870E+003   -1.21665E+003    6.88978E+001    1.24748E+005
            5176    2.44605E+005    1.35530E+005   -1.46792E+005    1.62210E+003   -1.46792E+005    2.82321E+005    3.21321E+003   -1.09149E+005    1.62115E+003   -1.56647E+004    4.40396E+003    2.09117E+002   -3.56449E+002    1.40803E+005
            5177    1.43312E+005    7.99813E+004   -8.55003E+004   -3.03624E+003   -8.55003E+004    1.65482E+005    2.85176E+003    2.57377E+004   -3.07161E+003   -4.00950E+004    3.46113E+004   -3.20901E+003   -3.01038E+002    7.37590E+004
            5178    1.86513E+005    9.51135E+004   -1.20153E+005   -6.82893E+003   -1.20153E+005    2.15266E+005    1.06227E+004   -8.40211E+004   -6.82722E+003   -5.37839E+004    2.87429E+004   -1.56491E+003   -3.27203E+002    9.93965E+004
            5179    2.22189E+005    1.10912E+005   -1.45487E+005   -9.37441E+003   -1.45487E+005    2.56399E+005    1.46500E+004   -1.05373E+005   -9.36929E+003   -5.76543E+004    2.30738E+004   -2.48946E+002   -8.45758E+002    1.21676E+005
            5180    2.51874E+005    1.27866E+005   -1.62839E+005   -9.82739E+003   -1.62839E+005    2.90704E+005    1.49335E+004   -1.13338E+005   -9.83556E+003   -5.49272E+004    1.99623E+004    6.54485E+002   -1.25075E+003    1.40439E+005
            5181    2.69028E+005    1.20049E+005   -1.90285E+005   -2.30477E+004   -1.90285E+005    3.10334E+005    3.10946E+004   -1.37749E+005   -2.30643E+004   -1.13282E+005    4.30622E+004    1.22906E+003   -1.65834E+003    1.34022E+005
            5182    2.20929E+005    9.28456E+004   -1.61895E+005   -2.26827E+004   -1.61895E+005    2.54740E+005    3.05773E+004   -1.19985E+005   -2.26909E+004   -1.12773E+005    4.37319E+004    8.72262E+002   -1.18584E+003    1.00487E+005
            5183    1.76693E+005    7.66630E+004   -1.27156E+005   -1.72573E+004   -1.27156E+005    2.03819E+005    2.25835E+004   -9.07048E+004   -1.72536E+004   -9.62580E+004    4.57610E+004   -1.43680E+002   -5.83680E+002    7.30947E+004
            5184    1.33246E+005    6.71018E+004   -8.67462E+004   -8.21088E+003   -8.67462E+004    1.53848E+005    9.28508E+003   -4.41070E+004   -8.24945E+003   -6.99598E+004    5.03540E+004   -1.95446E+003    2.29038E+001    4.79029E+004
            5185    9.07575E+004    9.48236E+004    9.48236E+004    1.04857E+004   -1.21801E+003    9.60416E+004   -3.46971E+004    8.90360E+004    9.23365E+003    6.92425E+001    9.47884E+004   -3.65497E+003    1.13716E+003   -1.33174E+003
            5186    6.85752E+004    7.41235E+004    7.41235E+004    1.65022E+004   -1.72327E+003    7.58468E+004   -2.96341E+004    6.27701E+004    1.27519E+004    2.31524E+003    7.38353E+004   -7.50467E+003    1.42682E+003   -4.07741E+003
            5187    5.27691E+004    5.64470E+004    5.64470E+004    1.42940E+004   -2.73354E+003    5.91806E+004   -2.26692E+004    4.59494E+004    1.10227E+004    5.47466E+003    5.15102E+004   -7.98742E+003    2.12843E+003   -1.51101E+004
            5188    8.70013E+004    9.45643E+004    9.45643E+004    1.51765E+004    1.55618E+003    9.30081E+004   -3.70990E+004    8.45526E+004    1.38197E+004    2.96191E+003    9.45153E+004   -4.07120E+003    5.57714E+002    2.05899E+003
            5189    6.75326E+004    7.33430E+004    7.33430E+004    1.86051E+004   -2.12445E+003    7.54675E+004   -2.99412E+004    5.97194E+004    1.48064E+004    1.89818E+003    7.31191E+004   -7.99731E+003    6.34197E+002    3.99413E+003
            5190    3.57385E+004    4.39822E+004    4.39822E+004    2.04886E+004    2.85383E+003    4.11284E+004   -2.24416E+004    2.23231E+004    1.10087E+004    1.25193E+004    4.37967E+004   -8.87504E+003    1.13602E+003   -1.75713E+003
            5191    1.00050E+005    1.03998E+005    1.03998E+005    1.25192E+004   -2.84548E+003    1.06844E+005   -3.78907E+004    9.73428E+004    1.12744E+004   -1.13246E+003    1.03530E+005   -4.70870E+003   -4.12928E+003    5.25177E+003
            5192    7.88913E+004    8.35759E+004    8.35759E+004    1.84168E+004   -4.13579E+003    8.77117E+004   -3.26190E+004    7.10780E+004    1.46598E+004    2.86803E+003    8.03290E+004   -9.38060E+003   -2.83266E+003    1.53832E+004
            5193    4.70532E+004    5.19335E+004    5.19335E+004    1.66389E+004   -1.48699E+003    5.34205E+004   -2.23618E+004    3.79109E+004    9.83178E+003    1.49830E+004    4.22706E+004   -1.04592E+004   -8.18683E+002    1.80008E+004
            5194    2.51392E+005    1.50766E+005    1.50766E+005   -1.32514E+003   -1.39404E+005    2.90170E+005   -3.34590E+003    1.09890E+005   -1.32257E+003    1.61747E+004   -4.81439E+003    4.17503E+002    4.74208E+002    1.44704E+005
            5195    2.59918E+005    1.67124E+005    1.67124E+005    9.80964E+003   -1.32884E+005    3.00008E+005   -1.46834E+004    1.13963E+005    9.81999E+003    5.42995E+004   -2.00693E+004    7.72332E+002    1.27930E+003    1.45315E+005
            5196    2.73654E+005    1.92591E+005    1.92591E+005    2.27011E+004   -1.23091E+005    3.15682E+005   -3.07336E+004    1.39246E+005    2.27180E+004    1.12337E+005   -4.28546E+004    1.24518E+003    1.58247E+003    1.37437E+005
            5197    2.73753E+005    1.62181E+005    1.62181E+005   -1.18583E+003   -1.53862E+005    3.16043E+005   -2.37751E+003    1.06297E+005   -1.17772E+003    1.18879E+004   -3.57769E+003    1.06500E+003    6.07508E+002    1.57827E+005
            5198    2.87152E+005    1.78920E+005    1.78920E+005    7.87957E+003   -1.52598E+005    3.31518E+005   -1.14004E+004    1.09302E+005    7.89411E+003    4.19853E+004   -1.56784E+004    1.07149E+003    1.20479E+003    1.63225E+005
            5199    3.16665E+005    2.09913E+005    2.09913E+005    1.78082E+004   -1.55580E+005    3.65493E+005   -2.40470E+004    1.41146E+005    1.78233E+004    9.08789E+004   -3.65613E+004    1.16282E+003    1.48203E+003    1.71268E+005
            5200    2.89571E+005    1.69385E+005    1.69385E+005   -5.21977E+002   -1.64967E+005    3.34353E+005   -1.29859E+003    8.82318E+004   -5.16211E+002    6.42047E+003   -2.00850E+003    1.20205E+003    3.98366E+002    1.67118E+005
            5201    3.06483E+005    1.83431E+005    1.83431E+005    3.88653E+003   -1.70452E+005    3.53883E+005   -5.62194E+003    9.01837E+004    3.89546E+003    2.13904E+004   -8.42004E+003    1.16228E+003    6.60274E+002    1.76308E+005
            5202    3.47134E+005    2.15128E+005    2.15128E+005    9.54381E+003   -1.85662E+005    4.00791E+005   -1.30033E+004    1.23319E+005    9.55263E+003    5.05058E+004   -2.10486E+004    1.03287E+003    8.64230E+002    1.97171E+005
            5203    2.94229E+005    1.69520E+005   -1.70226E+005   -2.75461E+001   -1.70226E+005    3.39746E+005    2.44649E+002   -4.38951E+004   -2.82297E+001   -1.15336E+003    4.47639E+002    1.20719E+003   -4.64151E+001    1.69867E+005
            5204    3.12462E+005    1.79595E+005   -1.81204E+005   -4.10236E+002   -1.81204E+005    3.60799E+005    6.72983E+002   -4.86909E+004   -4.11136E+002   -2.83736E+003    1.22955E+003    1.14534E+003   -6.57153E+001    1.80385E+005
            5205    3.57984E+005    2.06026E+005   -2.07339E+005   -3.36131E+002   -2.07339E+005    4.13364E+005    5.49700E+002   -4.97538E+004   -3.36584E+002   -2.27645E+003    9.63937E+002    9.58218E+002   -4.59130E+001    2.06674E+005
            5206    2.86055E+005    1.62572E+005   -1.67715E+005    7.21768E+002   -1.67715E+005    3.30286E+005    1.47372E+003   -9.31513E+004    7.15398E+002   -7.58493E+003    2.44837E+003    1.19013E+003   -4.39827E+002    1.65062E+005
            5207    3.02387E+005    1.66244E+005   -1.82903E+005   -5.05699E+003   -1.82903E+005    3.49146E+005    7.23878E+003   -9.64632E+004   -5.06818E+003   -2.71334E+004    1.04853E+004    1.17161E+003   -8.22755E+002    1.73551E+005
            5208    3.45216E+005    1.83769E+005   -2.14805E+005   -1.01776E+004   -2.14805E+005    3.98574E+005    1.37380E+004   -1.24046E+005   -1.01876E+004   -5.36436E+004    2.26173E+004    1.05580E+003   -9.68911E+002    1.95600E+005
            5209    2.67837E+005    1.49974E+005   -1.59225E+005    1.20381E+003   -1.59225E+005    3.09199E+005    2.68236E+003   -1.07829E+005    1.19640E+003   -1.32704E+004    4.02687E+003    9.77227E+002   -5.94552E+002    1.54353E+005
            5210    2.80158E+005    1.47709E+005   -1.75718E+005   -8.12747E+003   -1.75718E+005    3.23427E+005    1.20454E+004   -1.11414E+005   -8.14265E+003   -4.44625E+004    1.64689E+004    1.09356E+003   -1.20953E+003    1.58810E+005
            5211    3.12991E+005    1.52491E+005   -2.08739E+005   -1.82369E+004   -2.08739E+005    3.61230E+005    2.48286E+004   -1.42636E+005   -1.82536E+004   -9.36534E+004    3.74214E+004    1.23114E+003   -1.53816E+003    1.68294E+005
            5212    2.07184E+005    1.80910E+005    1.80910E+005    2.84887E+004   -5.49910E+004    2.35901E+005   -5.14692E+004    1.62299E+005    2.79206E+004   -1.24318E+004    1.38919E+005   -2.27004E+004   -1.13715E+004    8.67242E+004
            5213    1.69609E+005    1.67637E+005    1.67637E+005    3.22079E+004   -2.25986E+004    1.90236E+005   -5.90822E+004    1.47621E+005    2.99619E+004   -1.04556E+004    1.57740E+005   -1.77298E+004   -1.29331E+004    3.74035E+004
            5214    1.72634E+005    1.85203E+005    1.85203E+005    2.59906E+004    1.71717E+003    1.83486E+005   -7.09702E+004    1.68730E+005    2.51808E+004    5.08367E+003    1.82646E+005   -8.53802E+003   -1.58808E+004    1.24262E+004
            5215    1.46806E+005    1.28300E+005    1.28300E+005    1.84375E+004   -3.84327E+004    1.66733E+005   -3.61017E+004    1.17897E+005    1.75653E+004    1.59481E+003    8.91451E+004   -1.81666E+004   -7.04659E+003    6.80467E+004
            5216    1.36319E+005    1.35326E+005    1.35326E+005    2.35437E+004   -1.65414E+004    1.51867E+005   -4.74426E+004    1.21963E+005    2.18277E+004   -3.55837E+003    1.24059E+005   -1.47559E+004   -1.10307E+004    3.59338E+004
            5217    1.49208E+005    1.53381E+005    1.53381E+005    1.62280E+004   -5.49936E+003    1.58880E+005   -5.47032E+004    1.45585E+005    1.60455E+004   -2.91632E+003    1.50980E+005   -7.08743E+003   -1.45291E+004    1.08539E+004
            5218    9.28813E+004    8.80654E+004    8.80654E+004    1.65276E+004   -1.69038E+004    1.04969E+005   -2.92297E+004    7.74978E+004    1.46858E+004    1.49348E+004    5.80686E+004   -1.35554E+004   -3.01121E+003    4.53768E+004
            5219    1.01145E+005    1.03866E+005    1.03866E+005    2.34840E+004   -9.70257E+003    1.13569E+005   -3.92159E+004    8.75764E+004    2.08296E+004    3.44309E+000    9.68148E+004   -1.14662E+004   -4.74119E+003    2.56806E+004
            5220    1.14970E+005    1.25267E+005    1.25267E+005    2.17957E+004    1.50079E+003    1.23767E+005   -4.95213E+004    1.10832E+005    2.06605E+004    3.78501E+003    1.24118E+005   -5.90629E+003   -6.19259E+003    9.38602E+003
            5221    8.22471E+004    5.77062E+003   -8.22160E+004   -7.26530E+003   -8.22160E+004    8.79866E+004    2.79036E+004   -7.98732E+004   -7.54702E+003    3.92480E+003   -8.00884E+004   -1.53460E+003    4.82641E+003    1.24043E+004
            5222    9.69662E+004    1.98338E+003   -1.01203E+005   -1.19695E+004   -1.01203E+005    1.03187E+005    3.70632E+004   -9.46681E+004   -1.19276E+004    1.35770E+003   -1.00620E+005   -1.68867E+003    3.10682E+003    6.92491E+003
            5223    1.07946E+005    3.54840E+003   -1.11377E+005   -1.21242E+004   -1.11377E+005    1.14926E+005    3.99844E+004   -1.05341E+005   -1.19221E+004    3.29340E+003   -1.11324E+005   -1.87020E+003    1.33100E+003    1.98229E+003
            5224    1.05131E+005   -5.90279E+002   -1.11833E+005   -1.41234E+004   -1.11833E+005    1.11242E+005    4.21821E+004   -1.03144E+005   -1.38525E+004   -8.87429E+002   -1.11806E+005   -1.93868E+003   -9.27197E+002   -1.37190E+003
            5225    1.02026E+005    2.29075E+003   -1.05555E+005   -1.05667E+004   -1.05555E+005    1.07846E+005    3.79436E+004   -1.00179E+005   -1.02525E+004    1.90546E+003   -1.05484E+005   -2.09606E+003   -1.53668E+003   -2.19827E+003
            5226    8.47472E+004    2.28670E+004   -7.21566E+004   -4.39720E+003   -7.21566E+004    9.50236E+004    1.78956E+004   -7.38678E+004   -4.32891E+003    1.00788E+004   -5.94367E+004   -3.90607E+003    2.49716E+003    3.20374E+004
            5227    8.67168E+004    1.59162E+004   -7.99364E+004   -6.92995E+003   -7.99364E+004    9.58526E+004    2.36500E+004   -7.95121E+004   -6.36389E+003    1.20617E+004   -7.66480E+004   -4.17609E+003    1.70389E+003    1.71696E+004
            5228    8.88920E+004    8.48449E+003   -8.82138E+004   -1.00507E+004   -8.82138E+004    9.66983E+004    2.99267E+004   -8.43783E+004   -8.87617E+003    7.14667E+003   -8.80505E+004   -4.55059E+003    5.03385E+002    3.87319E+003
            5229    9.05969E+004    6.42938E+003   -9.18730E+004   -1.17334E+004   -9.18730E+004    9.83024E+004    3.23924E+004   -8.63570E+004   -1.03985E+004    4.83653E+003   -9.16151E+004   -4.84785E+003   -1.21771E+003   -4.73542E+003
            5230    8.59274E+004    1.14546E+003   -9.11430E+004   -1.34448E+004   -9.11430E+004    9.22884E+004    3.44808E+004   -8.30717E+004   -1.13623E+004   -1.39903E+003   -9.06810E+004   -5.28639E+003   -1.70957E+003   -6.05288E+003
            5231    1.07178E+005    5.14428E+004   -7.18404E+004   -8.13201E+002   -7.18404E+004    1.23283E+005    7.07026E+003   -6.84085E+004   -6.78499E+002    2.86411E+004   -4.91733E+004   -4.21633E+003    8.50222E+002    4.76039E+004
            5232    9.16262E+004    3.37888E+004   -7.06966E+004   -4.05014E+003   -7.06966E+004    1.04485E+005    1.36527E+004   -7.05281E+004   -3.51085E+003    2.69242E+004   -6.43714E+004   -4.84669E+003    3.13074E+002    2.47790E+004
            5233    8.45222E+004    2.17906E+004   -7.33220E+004   -6.81328E+003   -7.33220E+004    9.51126E+004    1.94482E+004   -7.23653E+004   -5.48786E+003    2.02676E+004   -7.31244E+004   -5.99389E+003   -6.60104E+002    4.27597E+003
            5234    7.82900E+004    9.49255E+003   -7.75621E+004   -1.29294E+004   -7.75621E+004    8.70546E+004    2.69996E+004   -7.05052E+004   -1.07586E+004    6.65630E+003   -7.68967E+004   -6.95971E+003   -2.03247E+003   -6.88725E+003
            5235    7.58879E+004    6.74987E+003   -7.73004E+004   -1.38129E+004   -7.73004E+004    8.40502E+004    2.81211E+004   -6.91920E+004   -1.07595E+004    2.26990E+003   -7.58738E+004   -7.81078E+003   -2.23086E+003   -1.00495E+004
            5236    1.32845E+005    8.09664E+004    8.09664E+004    5.04920E+003   -7.24272E+004    1.53394E+005   -4.52949E+003   -3.45579E+004    5.09625E+003    5.46309E+004   -4.61387E+004   -2.68993E+003    2.89061E+002    5.77617E+004
            5237    1.04183E+005    5.68207E+004   -6.33241E+004    2.04431E+003   -6.33241E+004    1.20145E+005    1.48634E+003   -5.55974E+004    2.30073E+003    5.03700E+004   -5.71297E+004   -3.74761E+003   -4.69306E+002    2.65325E+004
            5238    8.44759E+004    3.28150E+004   -6.39297E+004   -4.76205E+003   -6.39297E+004    9.67447E+004    1.19589E+004   -6.09191E+004   -4.02188E+003    3.18989E+004   -6.37537E+004   -5.24332E+003   -1.31255E+003    3.86131E+003
            5239    7.57957E+004    1.97276E+004   -6.64487E+004   -1.01236E+004   -6.64487E+004    8.61763E+004    1.89482E+004   -6.02637E+004   -9.02834E+003    1.70384E+004   -6.48548E+004   -6.37555E+003   -2.31347E+003   -1.08888E+004
            5240    6.42655E+004    6.35859E+003   -6.57498E+004   -1.45189E+004   -6.57498E+004    7.21084E+004    2.46367E+004   -5.58340E+004   -1.23169E+004    1.44462E+003   -6.30378E+004   -7.25445E+003   -2.17618E+003   -1.28837E+004
            5241    6.65097E+004    1.42851E+004   -6.10370E+004   -1.03963E+004   -6.10370E+004    7.53221E+004    1.90494E+004   -5.46816E+004   -9.38135E+003    6.88057E+003   -5.46475E+004   -6.80103E+003   -2.68838E+003   -2.01123E+004
            5242    7.66615E+004    2.80734E+004   -5.97158E+004   -5.98355E+003   -5.97158E+004    8.77892E+004    1.25420E+004   -5.53573E+004   -5.49656E+003    2.57847E+004   -5.79141E+004   -5.13139E+003   -2.48935E+003   -1.17417E+004
            5243    9.12723E+004    5.03249E+004   -5.49094E+004    2.70128E+003   -5.49094E+004    1.05234E+005    6.27743E+002   -4.99065E+004    2.90433E+003    5.00721E+004   -5.48596E+004   -3.41932E+003   -1.63727E+003    6.92738E+002
            5244    1.13151E+005    7.51999E+004    7.51999E+004    9.33990E+003   -5.54538E+004    1.30654E+005   -9.69535E+003    2.73588E+004    9.41307E+003    7.12153E+004   -5.15423E+004   -2.12925E+003   -6.81369E+002    2.22548E+004
            5245    1.43619E+005    1.01764E+005    1.01764E+005    1.40684E+004   -6.39797E+004    1.65744E+005   -1.72842E+004    6.67975E+004    1.40749E+004    8.50801E+004   -4.73023E+004   -1.06907E+003    2.10750E+002    4.98528E+004
            5246    1.81233E+005    1.30068E+005    1.30068E+005    1.70836E+004   -7.89741E+004    2.09042E+005   -2.27258E+004    9.40352E+004    1.70816E+004    9.81378E+004   -4.70420E+004    5.11181E+001    5.68601E+002    7.51997E+004
            5247    2.26754E+005    1.64914E+005    1.64914E+005    2.25704E+004   -9.65760E+004    2.61490E+005   -3.03028E+004    1.21257E+005    2.25810E+004    1.12452E+005   -4.41245E+004    9.76384E+002    1.26738E+003    1.04703E+005
            5248    2.29457E+005    1.50452E+005    1.50452E+005    1.00866E+004   -1.14342E+005    2.64794E+005   -1.53988E+004    1.07910E+005    1.00845E+004    6.00561E+004   -2.39443E+004    3.03968E+001    9.45663E+002    1.25555E+005
            5249    2.25076E+005    1.35686E+005    1.35686E+005   -1.27355E+003   -1.24081E+005    2.59767E+005   -3.44357E+003    1.02406E+005   -1.27396E+003    1.76783E+004   -6.07367E+003   -7.94195E+002    4.81948E+001    1.29337E+005
            5250    1.92689E+005    1.25373E+005    1.25373E+005    7.81597E+003   -9.70028E+004    2.22376E+005   -1.20622E+004    8.91450E+004    7.81178E+003    5.76639E+004   -2.92892E+004   -1.14024E+003    3.94577E+002    1.02328E+005
            5251    1.96012E+005    1.17435E+005    1.17435E+005   -9.77756E+002   -1.08818E+005    2.26253E+005   -2.54655E+003    8.47507E+004   -9.60824E+002    1.65462E+004   -7.94571E+003   -2.45481E+003   -3.18671E+002    1.12435E+005
            5252    1.66235E+005    9.73523E+004    9.73523E+004   -3.61686E+002   -9.45890E+004    1.91941E+005   -8.00541E+002    5.24761E+004   -3.24206E+002    1.30499E+004   -1.03240E+004   -3.95867E+003   -2.51126E+002    9.51741E+004
            5253    1.30039E+005    7.35622E+004   -7.65716E+004    7.27684E+002   -7.65716E+004    1.50134E+005    7.60569E+002   -4.83750E+004    7.53146E+002    8.77905E+003   -1.18139E+004   -4.68642E+003    1.90302E+002    7.42089E+004
            5254    8.78291E+004    4.53376E+004   -5.57953E+004    1.33253E+003   -5.57953E+004    1.01133E+005    3.04171E+003   -5.32169E+004    1.25732E+003    2.66281E+003   -1.30452E+004   -4.45624E+003    1.06360E+003    4.97472E+004
            5255    3.83521E+004    1.31512E+004   -2.93386E+004    2.71586E+003   -2.93386E+004    4.24898E+004    4.49050E+003   -3.49377E+004    2.44066E+003    2.12157E+003   -1.80337E+004   -2.07404E+003    2.39056E+003    1.85118E+004
            5256    1.56215E+005    9.59148E+004    9.59148E+004    3.85044E+003   -8.44535E+004    1.80368E+005   -5.10391E+003    5.16292E+004    3.87985E+003    4.19661E+004   -3.05342E+004   -2.78713E+003    6.10442E+001    8.25311E+004
            5257    1.20345E+005    6.34132E+004   -7.54004E+004   -4.22104E+002   -7.54004E+004    1.38814E+005    4.13642E+003   -6.22637E+004   -3.65772E+002    1.99322E+004   -3.19757E+004   -4.16476E+003    5.10997E+002    6.42322E+004
            5258    8.70786E+004    3.50646E+004   -6.42916E+004   -1.23625E+003   -6.42916E+004    9.93561E+004    1.01544E+004   -6.65491E+004   -1.38270E+003    8.70703E+003   -3.77876E+004   -3.70588E+003    2.40068E+003    4.37026E+004
            5259    5.79003E+004    5.09435E+003   -5.68751E+004   -4.15821E+003   -5.68751E+004    6.19695E+004    1.86463E+004   -5.62009E+004   -4.69084E+003    5.08643E+002   -5.17568E+004   -1.50396E+003    5.05580E+003    1.61454E+004
            5260    2.91739E+005    3.10797E+005    3.10797E+005    2.93706E+004    9.73739E+003    3.01059E+005   -1.16635E+005    2.90247E+005    1.04886E+004    3.20065E+004    3.07410E+005    4.05783E+003    3.81196E+003    3.04548E+004
            5261    2.50331E+005    2.50213E+005    2.50213E+005    7.71914E+002   -9.98691E+002    2.51211E+005   -8.33287E+004    2.50317E+005    1.48265E+003    1.36354E+003    2.47140E+005   -8.14736E+002   -2.40156E+004    1.36209E+004
            5262    2.22655E+005    2.35142E+005    2.35142E+005    1.87937E+004    6.67497E+003    2.28467E+005   -8.68701E+004    2.21911E+005    1.59137E+004    1.20534E+004    2.32643E+005   -7.01019E+003   -1.98898E+004    1.17991E+004
            5263    2.07413E+005    2.08669E+005    2.08669E+005    1.10724E+004   -7.33363E+003    2.16003E+005   -7.08027E+004    2.05564E+005    1.18778E+004   -4.13693E+003    2.04667E+005   -7.82860E+003   -2.61385E+004    9.57497E+003
            5264    3.25016E+005    3.52769E+005    3.52769E+005    3.86850E+004    1.78249E+004    3.34944E+005   -1.36426E+005    3.23505E+005    3.89149E+004    2.97923E+004    3.40571E+005   -4.99596E+003   -1.24673E+004    6.12713E+004
            5265    2.73118E+005    2.89676E+005    2.89676E+005    3.70664E+004   -1.35917E+002    2.89812E+005   -1.08869E+005    2.67328E+005    3.91761E+004    1.02195E+004    2.77211E+005   -1.36146E+004   -2.98154E+004    4.82308E+004
            5266    2.37199E+005    2.41548E+005    2.41548E+005    3.78383E+004   -1.88631E+004    2.60412E+005   -8.68412E+004    2.21167E+005    3.53226E+004   -9.83302E+003    2.35034E+005   -1.86879E+004   -1.98600E+004    3.20974E+004
            5267    2.07216E+005    2.04946E+005    2.04946E+005    2.98804E+004   -2.38402E+004    2.28786E+005   -7.03287E+004    1.90581E+005    2.89485E+004   -1.22584E+004    1.94296E+005   -1.96313E+004   -2.26143E+004    3.82830E+004
            5268    2.63411E+005    2.32331E+005    2.32331E+005    3.62100E+004   -6.70699E+004    2.99401E+005   -6.71571E+004    2.10012E+005    3.60998E+004   -3.28198E+004    1.98191E+005   -2.58827E+004   -1.80466E+004    8.98220E+004
            5269    3.13427E+005    2.99576E+005    2.99576E+005    5.84508E+004   -5.47170E+004    3.54293E+005   -1.01103E+005    2.61137E+005    5.85117E+004   -2.50773E+004    2.69876E+005   -2.65136E+004   -2.23087E+004    9.18416E+004
            5270    3.39202E+005    3.49355E+005    3.49355E+005    7.53064E+004   -3.00147E+004    3.79370E+005   -1.31549E+005    2.98954E+005    7.63291E+004   -7.48034E+003    3.25798E+005   -2.47396E+004   -2.81894E+004    8.30093E+004
            5271    3.91587E+005    4.34803E+005    4.34803E+005    9.83052E+004    4.98802E+003    4.29815E+005   -1.79365E+005    3.65291E+005    9.91594E+004    3.15320E+004    4.07405E+005   -2.19339E+004   -2.81647E+004    9.84586E+004
            5272    3.64033E+005    4.59352E+005    4.59352E+005    1.30011E+005    6.84724E+004    3.90880E+005   -2.19279E+005    3.52044E+005    1.29044E+005    9.65563E+004    4.32236E+005   -1.98170E+004   -2.22356E+004    9.49167E+004
            5273    3.43855E+005    4.81738E+005    4.81738E+005    1.65575E+005    1.15650E+005    3.66089E+005   -2.54321E+005    3.35555E+005    1.63529E+005    1.37788E+005    4.61646E+005   -1.73848E+004   -1.81630E+004    7.98529E+004
            5274    3.07913E+005    4.79910E+005    4.79910E+005    1.90597E+005    1.56274E+005    3.23637E+005   -2.75594E+005    3.03564E+005    1.87525E+005    1.79334E+005    4.59922E+005   -1.51192E+004   -1.42826E+004    7.53089E+004
            5275    2.58646E+005    4.36349E+005    4.36349E+005    1.89252E+005    1.67525E+005    2.68824E+005   -2.64375E+005    2.56581E+005    1.85956E+005    1.94057E+005    4.13112E+005   -1.14987E+004   -9.10466E+003    7.39976E+004
            5276    2.92738E+005    4.14094E+005    4.14094E+005    1.47337E+005    1.00922E+005    3.13172E+005   -2.20784E+005    2.84282E+005    1.43646E+005    1.30710E+005    3.87997E+005   -1.07802E+004    8.16147E+003    8.58511E+004
            5277    2.56833E+005    4.14106E+005    4.14106E+005    1.77757E+005    1.40794E+005    2.73312E+005   -2.44219E+005    2.50744E+005    1.75397E+005    1.68359E+005    3.88901E+005   -4.99475E+003    2.44823E+004    7.51758E+004
            5278    3.30397E+005    4.49766E+005    4.49766E+005    1.44367E+005    9.90492E+004    3.50717E+005   -2.31061E+005    3.23294E+005    1.41070E+005    1.35523E+005    4.16589E+005   -9.32631E+003    1.02020E+004    1.01848E+005
            5279    3.00524E+005    4.57566E+005    4.57566E+005    1.83694E+005    1.36075E+005    3.21490E+005   -2.59112E+005    2.91855E+005    1.81739E+005    1.79552E+005    4.16045E+005   -3.53429E+003    3.32819E+004    1.02531E+005
            5280    3.59684E+005    4.65746E+005    4.65746E+005    1.30220E+005    8.59931E+004    3.79752E+005   -2.27320E+005    3.53489E+005    1.28012E+005    1.32200E+005    4.21748E+005   -6.74669E+003    1.07256E+004    1.20862E+005
            5281    3.26265E+005    4.59748E+005    4.59748E+005    1.67929E+005    1.07489E+005    3.52260E+005   -2.45056E+005    3.13297E+005    1.65963E+005    1.74236E+005    3.94968E+005   -1.77822E+003    4.11623E+004    1.30051E+005
            5282    3.51616E+005    4.28211E+005    4.28211E+005    9.51315E+004    6.06067E+004    3.67605E+005   -1.94650E+005    3.47772E+005    9.39433E+004    1.12402E+005    3.77605E+005   -2.75174E+003    1.21015E+004    1.25967E+005
            5283    3.34485E+005    4.55196E+005    4.55196E+005    1.54982E+005    9.46519E+004    3.60544E+005   -2.34943E+005    3.21901E+005    1.54253E+005    1.68087E+005    3.82489E+005    1.49951E+003    4.83302E+004    1.36309E+005
            5284    3.53671E+005    4.48737E+005    4.48737E+005    1.39215E+005    6.32589E+004    3.85478E+005   -2.17071E+005    3.34573E+005    1.39924E+005    1.60249E+005    3.51039E+005    4.59013E+003    5.18873E+004    1.59428E+005
            5285    4.40359E+005    5.51103E+005    5.51103E+005    1.72752E+005    6.77272E+004    4.83376E+005   -2.63861E+005    4.10738E+005    1.78889E+005    1.14753E+005    4.97940E+005    2.02598E+003    5.88745E+004    1.38004E+005
            5286    3.94706E+005    4.52607E+005    4.52607E+005    8.89869E+004    3.28300E+004    4.19777E+005   -1.91475E+005    3.85565E+005    8.99760E+004    8.39205E+004    4.00527E+005    3.91566E+003    2.10817E+004    1.36692E+005
            5287    3.42468E+005    3.52851E+005    3.52851E+005    3.55198E+004   -1.01680E+004    3.63019E+005   -1.26067E+005    3.35509E+005    4.01089E+004   -6.37414E+003    3.44468E+005    4.14911E+003    3.76627E+004    3.66734E+004
            5288    5.07807E+004    2.46334E+003   -5.46586E+004   -1.46308E+004   -5.46586E+004    5.71220E+004    2.22754E+004   -4.35640E+004   -1.17180E+004   -6.52631E+003   -4.85818E+004   -8.11132E+003   -2.36879E+003   -1.61986E+004
            5289    5.54203E+004    3.05113E+003   -5.93334E+004   -1.57909E+004   -5.93334E+004    6.23846E+004    2.40244E+004   -4.73653E+004   -1.27317E+004   -1.90866E+003   -5.74328E+004   -7.65394E+003   -2.14564E+003   -9.70765E+003
            5290    6.63402E+004   -2.05546E+002   -7.39776E+004   -1.92231E+004   -7.39776E+004    7.37720E+004    3.11354E+004   -5.97301E+004   -1.47311E+004   -5.18150E+003   -7.34936E+004   -8.35168E+003   -2.26444E+003   -4.86463E+003
            5291    8.26239E+004    2.57008E+003   -8.71035E+004   -1.40587E+004   -8.71035E+004    8.96736E+004    3.28640E+004   -7.87258E+004   -1.19079E+004    2.40966E+002   -8.69252E+004   -5.72448E+003   -1.94206E+003   -3.18901E+003
            5292    9.16820E+004   -2.00862E+003   -9.87472E+004   -1.31378E+004   -9.87472E+004    9.67386E+004    3.79645E+004   -9.01435E+004   -1.27137E+004   -2.48672E+003   -9.86932E+004   -2.25797E+003   -1.98327E+003   -8.38543E+002
            5293    3.07087E+004   -1.99838E+003   -3.74578E+004   -1.97159E+004   -3.74578E+004    3.54594E+004    1.97240E+004   -3.25290E+003   -8.85326E+003   -1.46308E+004   -3.56879E+004   -9.12569E+003   -1.11357E+003   -5.50849E+003
            5294    4.71211E+004   -2.15088E+003   -5.54272E+004   -1.92172E+004   -5.54272E+004    5.32763E+004    2.55984E+004   -3.92034E+004   -1.26204E+004   -8.98682E+003   -5.51880E+004   -8.31199E+003   -2.86285E+002    3.31709E+003
            5295    6.75712E+004    3.69369E+003   -7.18197E+004   -1.70582E+004   -7.18197E+004    7.55134E+004    2.83947E+004   -5.97448E+004   -1.17416E+004   -1.76384E+003   -7.16788E+004   -9.06407E+003   -1.07227E+002    3.12496E+003
            5296    8.04510E+004    6.88573E+001   -8.70830E+004   -1.56543E+004   -8.70830E+004    8.71519E+004    3.42228E+004   -7.68793E+004   -1.22058E+004   -3.51171E+003   -8.69510E+004   -6.52700E+003    3.25204E+002    3.26495E+003
            5297    9.52146E+004    2.94250E+003   -9.80502E+004   -9.92179E+003   -9.80502E+004    1.00993E+005    3.50098E+004   -9.32293E+004   -9.39360E+003    2.39837E+003   -9.80343E+004   -2.57223E+003    6.68900E+002    1.02602E+003
            5298    4.68087E+004    7.82994E+002   -5.23228E+004   -1.70588E+004   -5.23228E+004    5.31058E+004    2.28662E+004   -3.79408E+004   -1.12141E+004   -2.04836E+004   -3.69009E+004   -1.08092E+004    2.61915E+002    2.10769E+004
            5299    5.94852E+004    3.91841E+003   -6.34536E+004   -1.81812E+004   -6.34536E+004    6.73720E+004    2.59054E+004   -4.88781E+004   -1.40402E+004   -6.32334E+003   -5.73528E+004   -9.57860E+003    8.43563E+002    1.81782E+004
            5300    7.52390E+004    1.33814E+003   -8.30834E+004   -2.31058E+004   -8.30834E+004    8.44215E+004    3.49503E+004   -6.53665E+004   -1.82466E+004   -7.14452E+003   -7.94599E+004   -1.04621E+004    1.50025E+003    1.60817E+004
            5301    9.11783E+004    4.22137E+003   -9.59091E+004   -1.76677E+004   -9.59091E+004    1.00130E+005    3.64518E+004   -8.49596E+004   -1.50429E+004    5.25210E+002   -9.48378E+004   -7.50650E+003    2.26714E+003    9.61194E+003
            5302    9.87136E+004   -2.58314E+003   -1.07780E+005   -1.71746E+004   -1.07780E+005    1.05197E+005    4.25127E+004   -9.62424E+004   -1.66673E+004   -3.30366E+003   -1.07567E+005   -2.96638E+003    2.61387E+003    3.71373E+003
            5303    2.55092E+005   -1.67474E+005   -4.32768E+005   -1.89276E+005   -4.32768E+005    2.65293E+005    2.63173E+005   -2.52983E+005   -1.86341E+005   -1.94316E+005   -4.08861E+005   -1.12213E+004    8.98127E+003    7.44941E+004
            5304    2.80561E+005   -9.70898E+004   -3.97981E+005   -1.43550E+005   -3.97981E+005    3.00891E+005    2.12874E+005   -2.71704E+005   -1.39872E+005   -1.26174E+005   -3.72575E+005   -1.09365E+004   -7.46149E+003    8.29922E+004
            5305    2.44349E+005   -1.37887E+005   -3.97650E+005   -1.72379E+005   -3.97650E+005    2.59762E+005    2.35972E+005   -2.38780E+005   -1.70114E+005   -1.61232E+005   -3.76571E+005   -5.17581E+003   -2.21176E+004    6.73830E+004
            5306    2.12612E+005   -1.29346E+005   -3.53551E+005   -1.54828E+005   -3.53551E+005    2.24204E+005    2.12575E+005   -2.09135E+005   -1.53847E+005   -1.72477E+005   -3.11401E+005   -8.30009E+003    4.44918E+003    8.69918E+004
            5307    2.14551E+005   -7.35614E+004   -3.06358E+005   -1.16566E+005   -3.06358E+005    2.32796E+005    1.65495E+005   -2.04514E+005   -1.13153E+005   -9.94127E+004   -2.83920E+005   -1.06399E+004   -4.90260E+003    6.81272E+004
            5308    1.74605E+005   -1.11972E+005   -2.96990E+005   -1.35104E+005   -2.96990E+005    1.85017E+005    1.81356E+005   -1.71106E+005   -1.32819E+005   -1.23753E+005   -2.87495E+005   -5.15568E+003   -1.34964E+004    3.85205E+004
            5309    1.94135E+005   -2.55134E+004   -2.42976E+005   -8.71169E+004   -2.42976E+005    2.17463E+005    1.18535E+005   -1.69964E+005   -8.69689E+004   -1.01395E+005   -1.67243E+005   -6.36495E+003    1.41486E+003    1.03388E+005
            5310    1.35732E+005   -2.23539E+004   -1.73709E+005   -6.27925E+004   -1.73709E+005    1.51355E+005    8.62851E+004   -1.21023E+005   -6.01244E+004   -5.25456E+004   -1.46185E+005   -1.00074E+004   -2.48909E+003    5.76999E+004
            5311    8.81455E+004   -5.72568E+004   -1.51812E+005   -7.19144E+004   -1.51812E+005    9.45555E+004    9.36612E+004   -8.53388E+004   -6.90562E+004   -6.36011E+004   -1.48326E+005   -4.99621E+003   -6.06147E+003    1.67192E+004
            5312    1.90715E+005    1.18691E+005    1.18691E+005    5.66549E+003   -1.01502E+005    2.20193E+005   -7.61827E+003    6.83649E+004    5.61710E+003    5.98316E+003    1.12545E+004   -5.99662E+003    2.90850E+002    1.09901E+005
            5313    9.59096E+004    6.78358E+004    6.78358E+004    8.35861E+003   -4.28071E+004    1.10643E+005   -1.11291E+004    4.85441E+004    7.89095E+003    7.47241E+003    1.80240E+004   -9.70923E+003    4.42985E+002    5.41854E+004
            5314    2.27895E+004    2.79875E+004    2.79875E+004    1.27518E+004    1.78835E+003    2.61992E+004   -1.41759E+004    1.48719E+004    1.04777E+004    9.95731E+003    2.20927E+004   -4.71690E+003    9.19572E+002    1.01465E+004
            5315    1.95347E+005    2.56456E+005    2.56456E+005    9.56844E+004    3.90499E+004    2.17406E+005   -1.30397E+005    1.75400E+005    9.54295E+004    1.10966E+005    1.84795E+005   -6.50755E+003   -1.12294E+003    1.01965E+005
            5316    1.51467E+005    2.04799E+005    2.04799E+005    7.72958E+004    3.73683E+004    1.67431E+005   -1.06488E+005    1.38867E+005    7.43227E+004    6.49629E+004    1.80177E+005   -1.01765E+004    2.89041E+003    5.86595E+004
            5317    1.10448E+005    1.92166E+005    1.92166E+005    9.06601E+004    7.45463E+004    1.17620E+005   -1.19124E+005    1.07756E+005    8.79238E+004    8.16622E+004    1.87787E+005   -5.04915E+003    7.91542E+003    2.07949E+004
            5318    2.19239E+005    3.65962E+005    3.65962E+005    1.60446E+005    1.35189E+005    2.30773E+005   -2.20532E+005    2.15929E+005    1.59156E+005    1.76911E+005    3.25529E+005   -8.65076E+003   -4.23396E+003    8.70748E+004
            5319    2.27846E+005    3.27702E+005    3.27702E+005    1.24469E+005    8.13912E+004    2.46310E+005   -1.77854E+005    2.18400E+005    1.20719E+005    1.07439E+005    3.05404E+005   -1.08961E+004    5.94234E+003    7.00340E+004
            5320    1.93831E+005    3.28261E+005    3.28261E+005    1.48269E+005    1.23058E+005    2.05203E+005   -1.99862E+005    1.90090E+005    1.45944E+005    1.36974E+005    3.16670E+005   -5.19033E+003    1.59462E+004    4.45998E+004
            5321    1.84783E+005    6.69352E+003   -1.87778E+005   -1.45126E+004   -1.87778E+005    1.94472E+005    6.51991E+004   -1.82016E+005   -1.61000E+004    5.61742E+003   -1.85115E+005   -4.89774E+003    2.03463E+004    6.40060E+003
            5322    1.71884E+005    7.23753E+003   -1.78011E+005   -2.36932E+004   -1.78011E+005    1.85249E+005    6.48223E+004   -1.65447E+005   -2.19348E+004    5.64076E+001   -1.72589E+005   -1.30561E+004    1.78099E+004    2.30054E+004
            5323    1.76696E+005    2.70390E+004   -1.69993E+005   -2.55928E+004   -1.69993E+005    1.97032E+005    5.61822E+004   -1.57558E+005   -2.30922E+004    1.30124E+004   -1.58467E+005   -1.99188E+004    1.62821E+004    3.96587E+004
            5324    1.90203E+005    4.17997E+004   -1.73540E+005   -2.84710E+004   -1.73540E+005    2.15340E+005    5.34039E+004   -1.56727E+005   -2.81301E+004    1.55180E+004   -1.47600E+005   -1.98771E+004    1.36030E+004    6.59395E+004
            5325    2.22972E+005    7.04206E+004   -1.84179E+005   -2.37041E+004   -1.84179E+005    2.54600E+005    4.58210E+004   -1.68710E+005   -2.33544E+004    2.17927E+004   -1.35901E+005   -2.41794E+004    1.16846E+004    9.62059E+004
            5326    1.46569E+005   -2.79912E+003   -1.58777E+005   -2.39047E+004   -1.58777E+005    1.55978E+005    6.18270E+004   -1.43091E+005   -2.43000E+004   -3.88193E+003   -1.57299E+005   -4.44653E+003    1.20752E+004    7.40767E+003
            5327    1.41138E+005    9.95716E+003   -1.44937E+005   -2.36064E+004   -1.44937E+005    1.54894E+005    5.28621E+004   -1.31702E+005   -2.17333E+004    3.80967E+003   -1.40663E+005   -1.14108E+004    1.07713E+004    2.11880E+004
            5328    1.34410E+005    1.36810E+004   -1.37151E+005   -3.00591E+004   -1.37151E+005    1.50832E+005    5.11763E+004   -1.16708E+005   -2.70317E+004   -2.04739E+003   -1.24450E+005   -1.66702E+004    8.95844E+003    3.84845E+004
            5329    1.34555E+005    2.94172E+004   -1.23574E+005   -2.36162E+004   -1.23574E+005    1.52991E+005    3.92576E+004   -1.06932E+005   -2.23328E+004    4.69080E+003   -1.00131E+005   -1.57725E+004    6.83685E+003    5.27049E+004
            5330    1.59207E+005    4.40708E+004   -1.37390E+005   -2.11463E+004   -1.37390E+005    1.81461E+005    3.81553E+004   -1.23281E+005   -2.04453E+004   -6.93772E+003   -8.70829E+004   -1.90284E+004    6.11414E+003    7.87940E+004
            5331    1.25504E+005    4.46695E+003   -1.29263E+005   -1.40426E+004   -1.29263E+005    1.33730E+005    4.62797E+004   -1.22376E+005   -1.41278E+004    3.62901E+003   -1.28340E+005   -3.64557E+003    8.68754E+003    5.68613E+003
            5332    1.11049E+005    2.99727E+003   -1.17664E+005   -1.97476E+004   -1.17664E+005    1.20661E+005    4.48047E+004   -1.05616E+005   -1.71621E+004   -3.04829E+003   -1.14204E+005   -9.31842E+003    7.39666E+003    1.75260E+004
            5333    1.03417E+005    1.24951E+004   -1.03095E+005   -1.93360E+004   -1.03095E+005    1.15591E+005    3.66454E+004   -9.13798E+004   -1.59049E+004    1.36869E+003   -9.54001E+004   -1.29143E+004    6.05179E+003    2.64182E+004
            5334    9.52149E+004    1.38242E+004   -9.32660E+004   -1.81652E+004   -9.32660E+004    1.07090E+005    3.25357E+004   -8.17430E+004   -1.63541E+004   -6.35038E+003   -7.49025E+004   -1.21491E+004    4.52455E+003    3.85053E+004
            5335    9.21314E+004    2.17060E+004   -8.25388E+004   -1.20329E+004   -8.25388E+004    1.04245E+005    2.42886E+004   -7.62474E+004   -1.05407E+004   -1.53410E+004   -4.69840E+004   -1.41267E+004    2.88466E+003    4.72169E+004
            5336    3.77844E+005   -5.77105E+004   -4.68482E+005   -1.35754E+005   -4.68482E+005    4.10772E+005    2.20649E+005   -3.59032E+005   -1.34693E+005   -8.08088E+004   -4.46445E+005   -2.45899E+004    2.82759E+004    8.49755E+004
            5337    3.78041E+005   -8.35027E+003   -4.27925E+005   -1.13818E+005   -4.27925E+005    4.19575E+005    1.83365E+005   -3.42523E+005   -1.14937E+005   -3.29571E+004   -4.02199E+005   -2.69845E+004    3.25549E+004    9.08494E+004
            5338    3.79558E+005    3.07000E+004   -3.96463E+005   -9.79527E+004   -3.96463E+005    4.27163E+005    1.54572E+005   -3.24770E+005   -9.81671E+004    3.67449E+003   -3.69223E+005   -2.95223E+004    2.85422E+004    9.58430E+004
            5339    3.43098E+005    7.21362E+004   -3.17419E+005   -6.01796E+004   -3.17419E+005    3.89555E+005    1.01821E+005   -2.76258E+005   -6.05072E+004    4.01402E+004   -2.85095E+005   -2.97791E+004    2.48595E+004    1.00047E+005
            5340    2.93703E+005    7.56637E+004   -2.59238E+005   -4.55021E+004   -2.59238E+005    3.34901E+005    7.63587E+004   -2.26248E+005   -4.52746E+004    3.22375E+004   -2.16039E+005   -2.79634E+004    1.73607E+004    1.07404E+005
            5341    2.28457E+005    4.74628E+004   -2.11583E+005   -3.88834E+004   -2.11583E+005    2.59045E+005    6.76678E+004   -1.86036E+005   -3.80711E+004    2.75470E+004   -1.92479E+005   -2.28223E+004    1.72878E+004    6.17897E+004
            5342    2.10370E+005    1.89970E+004   -2.14404E+005   -3.94055E+004   -2.14404E+005    2.33401E+005    7.82707E+004   -1.90813E+005   -3.64237E+004    4.82618E+003   -2.03215E+005   -2.19663E+004    1.93323E+004    4.19756E+004
            5343    2.02707E+005    1.22641E+004   -2.06291E+005   -2.44510E+004   -2.06291E+005    2.18555E+005    7.28259E+004   -1.95014E+005   -2.32197E+004    7.03037E+003   -2.02288E+005   -1.26834E+004    1.94715E+004    1.89074E+004
            5344    1.99827E+005   -3.95053E+003   -2.11523E+005   -2.04666E+004   -2.11523E+005    2.07572E+005    7.86467E+004   -1.98283E+005   -2.17092E+004   -5.23156E+003   -2.08999E+005   -4.76773E+003    2.09555E+004    6.05683E+003
            5345    2.82160E+005    3.80790E+004   -2.77564E+005   -4.98044E+004   -2.77564E+005    3.15643E+005    9.64299E+004   -2.48449E+005   -5.10089E+004    1.88406E+004   -2.57122E+005   -2.34418E+004    2.70176E+004    6.83565E+004
            5346    2.48415E+005    2.01492E+004   -2.49876E+005   -3.10496E+004   -2.49876E+005    2.70025E+005    8.69254E+004   -2.36102E+005   -2.97116E+004    8.94549E+003   -2.40010E+005   -2.02639E+004    2.74801E+004    3.81364E+004
            5347    2.29107E+005    5.22720E+002   -2.38404E+005   -2.05772E+004   -2.38404E+005    2.38927E+005    8.61528E+004   -2.26905E+005   -2.05084E+004   -4.46134E+003   -2.33489E+005   -9.70127E+003    2.44017E+004    2.14888E+004
            5348    2.29250E+005    7.23903E+003   -2.26569E+005   -2.16571E+003   -2.26569E+005    2.33808E+005    7.38317E+004   -2.28815E+005   -4.45144E+003    6.35892E+003   -2.23403E+005   -3.14068E+003    2.60871E+004    4.50444E+003
            5349    3.04324E+005    1.55462E+004   -3.21456E+005   -6.67283E+004   -3.21456E+005    3.37002E+005    1.24213E+005   -2.77601E+005   -6.70408E+004   -2.33614E+003   -3.03261E+005   -2.23145E+004    2.62840E+004    6.77624E+004
            5350    2.84084E+005   -6.97807E+003   -3.09559E+005   -4.85538E+004   -3.09559E+005    3.02581E+005    1.21697E+005   -2.77116E+005   -4.77792E+004   -2.13128E+004   -2.95999E+005   -1.61425E+004    2.32663E+004    5.60210E+004
            5351    2.59935E+005   -8.33607E+002   -2.70313E+005   -2.11091E+004   -2.70313E+005    2.69479E+005    9.74186E+004   -2.58147E+005   -2.20210E+004   -3.17928E+003   -2.67055E+005   -3.64323E+003    1.65859E+004    2.37175E+004
            5352    2.37059E+005   -9.88280E+003   -2.47564E+005   -1.11307E+004   -2.47564E+005    2.37681E+005    8.95257E+004   -2.37052E+005   -1.09290E+004   -1.13987E+004   -2.46249E+005   -9.63032E+002    1.48041E+004    9.51333E+003
            5353    3.58565E+005   -9.88146E+003   -3.98298E+005   -7.99183E+004   -3.98298E+005    3.88416E+005    1.62699E+005   -3.42665E+005   -8.31470E+004   -3.57439E+004   -3.69207E+005   -1.85901E+004    3.39944E+004    9.38580E+004
            5354    3.16760E+005   -1.70813E+004   -3.43822E+005   -3.80896E+004   -3.43822E+005    3.26741E+005    1.32998E+005   -3.15187E+005   -4.01425E+004   -3.19203E+004   -3.26930E+005   -8.09647E+003    2.55841E+004    6.70907E+004
            5355    2.94483E+005   -1.35683E+004   -3.15606E+005   -2.93086E+004   -3.15606E+005    3.02037E+005    1.19494E+005   -2.93534E+005   -2.69234E+004   -2.44748E+004   -3.07084E+005    3.93542E+003    1.41849E+004    4.79162E+004
            5356    2.72880E+005    7.94985E+003   -2.68400E+005    8.72256E+002   -2.68400E+005    2.76350E+005    8.65260E+004   -2.72673E+005    1.86972E+003    5.85444E+003   -2.67302E+005    2.34162E+003    1.16365E+004    1.28953E+004
            5357    3.63306E+005   -5.46062E+004   -4.35402E+005   -9.25661E+004   -4.35402E+005    3.80796E+005    1.94191E+005   -3.58804E+005   -9.13674E+004   -9.05757E+004   -4.00631E+005   -1.29012E+004    1.29641E+004    1.08164E+005
            5358    3.86766E+005   -3.62209E+004   -4.35628E+005   -6.28829E+004   -4.35628E+005    3.99407E+005    1.78244E+005   -3.84690E+005   -6.25225E+004   -7.37629E+004   -3.98447E+005   -2.03933E+003   -4.12102E+003    1.15944E+005
            5359    3.50311E+005   -9.85454E+003   -3.72536E+005   -3.60698E+004   -3.72536E+005    3.62682E+005    1.39487E+005   -3.48094E+005   -3.57336E+004   -2.16061E+004   -3.61121E+005    8.11360E+003   -1.53373E+004    6.09395E+004
            5360    3.11895E+005   -2.01228E+004   -3.33829E+005   -2.37761E+004   -3.33829E+005    3.13706E+005    1.25909E+005   -3.11847E+005   -2.22059E+004   -2.61029E+004   -3.29419E+005    3.38185E+003   -2.19472E+004    2.94478E+004
            5361    3.64632E+005    1.60055E+004   -3.77955E+005   -5.23161E+004   -3.77955E+005    3.93961E+005    1.38089E+005   -3.49794E+005   -5.93912E+004    1.22926E+004   -3.67167E+005    2.83675E+003   -4.75817E+004    3.74761E+004
            5362    4.68597E+005   -7.26238E+004   -5.89019E+005   -1.90875E+005   -5.89019E+005    5.16395E+005    2.84172E+005   -4.33078E+005   -1.97471E+005   -1.18656E+005   -5.36390E+005    1.23893E+003   -6.18258E+004    1.41799E+005
            5363    4.08800E+005   -2.40028E+004   -4.65860E+005   -1.01094E+005   -4.65860E+005    4.41857E+005    1.96986E+005   -3.91943E+005   -1.05011E+005   -7.32953E+004   -4.12651E+005    7.33930E+003   -3.99007E+004    1.37568E+005
            5364    3.63615E+005   -6.27316E+004   -4.62843E+005   -1.52564E+005   -4.62843E+005    4.00111E+005    2.26046E+005   -3.37266E+005   -1.52692E+005   -1.65471E+005   -3.59975E+005    2.33674E+003   -5.39790E+004    1.66311E+005
            5365    3.50928E+005   -5.35037E+004   -4.22891E+005   -9.39245E+004   -4.22891E+005    3.69388E+005    1.90107E+005   -3.45632E+005   -9.40314E+004   -1.16493E+005   -3.59795E+005    3.18543E+003   -3.27046E+004    1.35087E+005
            5366    3.35441E+005   -8.44394E+004   -4.48255E+005   -1.51241E+005   -4.48255E+005    3.63815E+005    2.27979E+005   -3.19958E+005   -1.52089E+005   -1.62497E+005   -3.69350E+005    3.22359E+003   -5.11803E+004    1.40928E+005
            5367    3.63655E+005   -7.39139E+004   -4.57078E+005   -1.16721E+005   -4.57078E+005    3.83164E+005    2.15904E+005   -3.57921E+005   -1.15072E+005   -1.27364E+005   -4.05277E+005   -3.65245E+003   -1.67569E+004    1.29820E+005
            5368    3.35387E+005   -9.06834E+004   -4.52991E+005   -1.53371E+005   -4.52991E+005    3.62308E+005    2.32349E+005   -3.21808E+005   -1.51857E+005   -1.68255E+005   -3.76934E+005    6.77646E+002   -4.73407E+004    1.39669E+005
            5369    3.20176E+005   -1.18579E+005   -4.62703E+005   -1.73610E+005   -4.62703E+005    3.44124E+005    2.51631E+005   -3.09266E+005   -1.71221E+005   -1.77455E+005   -4.06216E+005   -2.61902E+003   -3.97422E+004    1.21047E+005
            5370    2.93265E+005   -1.34431E+005   -4.48407E+005   -1.81563E+005   -4.48407E+005    3.13976E+005    2.54800E+005   -2.84556E+005   -1.79333E+005   -1.75748E+005   -4.09320E+005   -4.28641E+003   -3.07749E+004    9.89552E+004
            5371    3.51917E+005   -8.50852E+004   -4.57220E+005   -1.29793E+005   -4.57220E+005    3.72135E+005    2.24033E+005   -3.45442E+005   -1.26754E+005   -1.30261E+005   -4.15083E+005   -8.95068E+003   -8.79828E+003    1.17244E+005
            5372    3.28777E+005   -1.00131E+005   -4.50280E+005   -1.48158E+005   -4.50280E+005    3.50149E+005    2.32856E+005   -3.20742E+005   -1.44772E+005   -1.35641E+005   -4.18155E+005   -1.02698E+004   -8.74798E+003    1.00383E+005
            5373    3.02428E+005   -1.55632E+005   -4.73806E+005   -1.90074E+005   -4.73806E+005    3.18174E+005    2.73171E+005   -2.97968E+005   -1.86828E+005   -1.76892E+005   -4.55792E+005   -1.50865E+004    1.41131E+004    7.08738E+004
            5374    3.50499E+005   -1.14455E+005   -4.89447E+005   -1.70098E+005   -4.89447E+005    3.74992E+005    2.58000E+005   -3.40349E+005   -1.67716E+005   -1.38041E+005   -4.68244E+005   -1.97456E+004    1.98586E+004    8.24233E+004
            5375    1.07046E+005    5.86990E+004   -6.48511E+004   -6.30458E+003   -6.48511E+004    1.23550E+005    4.15223E+003    4.80375E+004   -6.43024E+003   -5.79207E+004    5.18942E+004   -2.74651E+003    2.71209E+002    2.81654E+004
            5376    8.74230E+004    5.85960E+004    5.85960E+004    2.95771E+002   -4.19235E+004    1.00519E+005   -5.65610E+003    5.66991E+004   -3.14694E+001   -4.15091E+004    5.85089E+004   -3.77298E+003    1.11839E+003    2.63575E+003
            5377    7.64442E+004    6.35978E+004    6.35978E+004    8.28117E+003   -2.36321E+004    8.72299E+004   -1.60823E+004    5.83567E+004    7.68797E+003   -2.11716E+004    6.17304E+004   -5.08790E+003    1.99171E+003   -1.21251E+004
            5378    6.64714E+004    6.40983E+004    6.40983E+004    1.28993E+004   -1.10233E+004    7.51216E+004   -2.19914E+004    5.54652E+004    1.17197E+004   -5.33162E+003    5.95863E+004   -6.32133E+003    2.01480E+003   -1.72070E+004
            5379    7.51989E+004    7.92067E+004    7.92067E+004    1.43243E+004   -3.21029E+003    8.24170E+004   -3.01069E+004    7.03753E+004    1.29322E+004   -5.76375E+002    7.79648E+004   -4.88574E+003    6.03214E+002   -9.86483E+003
            5380    9.53624E+004    1.02211E+005    1.02211E+005    1.72786E+004   -9.49850E+002    1.03161E+005   -3.95132E+004    9.13185E+004    1.70183E+004   -6.20830E+002    1.02142E+005   -2.17454E+003    2.58925E+002   -2.63687E+003
            5381    7.98728E+004    8.01952E+004    8.01952E+004    1.36635E+004   -8.38619E+003    8.85814E+004   -2.84908E+004    7.25371E+004    1.27863E+004   -6.81673E+003    7.95029E+004   -4.42986E+003    7.02177E+002   -7.66117E+003
            5382    1.01682E+005    1.07628E+005    1.07628E+005    1.89152E+004   -3.33879E+003    1.10966E+005   -4.10680E+004    9.59711E+004    1.87045E+004   -3.10589E+003    1.07605E+005   -2.16366E+003    2.52661E+002   -1.53406E+003
            5383    8.63844E+004    7.72547E+004    7.72547E+004    8.83709E+003   -1.98153E+004    9.70701E+004   -2.20922E+004    7.45105E+004    8.26998E+003   -1.90061E+004    7.70126E+004   -4.03132E+003   -3.77174E+002    4.77895E+003
            5384    1.01496E+005    1.05379E+005    1.05379E+005    1.67803E+004   -5.35950E+003    1.10738E+005   -3.89332E+004    9.58343E+004    1.66327E+004   -5.01763E+003    1.05185E+005   -2.04995E+003   -1.61020E+003    4.23060E+003
            5385    9.28476E+004    7.21162E+004    7.21162E+004    4.55096E+003   -3.37559E+004    1.05872E+005   -1.43038E+004    7.15190E+004    4.36436E+003   -2.48434E+004    6.33903E+004   -3.57490E+003   -1.13395E+003    2.89673E+004
            5386    8.94473E+004    9.12120E+004    9.12120E+004    1.38906E+004   -6.75192E+003    9.79640E+004   -3.27836E+004    8.38330E+004    1.38995E+004   -5.17629E+003    8.96276E+004   -1.90855E+003   -2.88875E+003    1.18554E+004
            5387    6.86826E+004    6.75321E+004    6.75321E+004    8.39106E+003   -7.79929E+003    7.53314E+004   -2.27080E+004    6.41750E+004    8.62328E+003   -3.13176E+003    6.26324E+004   -1.69236E+003   -3.64721E+003    1.80625E+004
            5388    4.74957E+004    3.65170E+004    3.65170E+004   -1.48967E+003   -1.67276E+004    5.32446E+004   -6.09992E+003    4.14358E+004   -1.36394E+003   -3.08150E+003    2.27452E+004   -1.90480E+003   -1.75998E+003    2.31665E+004
            5389    1.02184E+005    7.01325E+004    7.01325E+004    1.02321E+003   -4.72445E+004    1.17377E+005   -7.97040E+003    6.85344E+004    1.06668E+003   -1.93829E+004    4.22274E+004   -3.31711E+003   -1.64228E+003    4.98211E+004
            5390    1.06825E+005    6.50610E+004    6.50610E+004   -2.17027E+003   -5.81176E+004    1.23179E+005   -1.59104E+003    5.77332E+004   -2.13145E+003   -7.62749E+003    1.45321E+004   -4.01387E+003   -8.46084E+002    6.04472E+004
            5391    1.49287E+005    8.69210E+004    8.69210E+004   -4.79441E+002   -8.54556E+004    1.72377E+005   -3.28661E+002    4.32742E+004   -4.59507E+002   -1.06928E+004    1.21383E+004   -3.80241E+003   -5.04745E+002    8.53429E+004
            5392    1.84622E+005    1.03688E+005   -1.09480E+005   -6.37542E+002   -1.09480E+005    2.13168E+005    2.14312E+003   -6.13478E+004   -6.23767E+002   -1.53657E+004    9.56013E+003   -2.67446E+003   -4.00852E+002    1.05818E+005
            5393    2.15042E+005    1.19990E+005   -1.28281E+005   -3.72388E+002   -1.28281E+005    2.48271E+005    2.88774E+003   -8.05799E+004   -3.59954E+002   -1.69965E+004    8.69328E+003   -1.39173E+003   -5.91180E+002    1.23460E+005
            5394    2.41955E+005    1.35355E+005   -1.43994E+005   -3.80824E+002   -1.43994E+005    2.79348E+005    3.00663E+003   -8.84294E+004   -3.77270E+002   -1.54380E+004    6.79536E+003   -3.64839E+002   -6.32153E+002    1.39229E+005
            5395    1.42991E+005    7.94520E+004   -8.56514E+004   -4.55922E+003   -8.56514E+004    1.65103E+005    3.58624E+003    4.47328E+004   -4.56892E+003   -4.07743E+004    3.45846E+004   -2.75909E+003   -5.46058E+002    7.33970E+004
            5396    1.85592E+005    9.41053E+004   -1.20145E+005   -8.91686E+003   -1.20145E+005    2.14250E+005    1.16521E+004   -7.51073E+004   -8.91481E+003   -5.45738E+004    2.85322E+004   -1.48989E+003   -3.44022E+002    9.87259E+004
            5397    2.20968E+005    1.09822E+005   -1.45213E+005   -1.09983E+004   -1.45213E+005    2.55035E+005    1.54632E+004   -9.93224E+004   -1.09940E+004   -5.82246E+004    2.28291E+004   -3.86136E+002   -6.17986E+002    1.20904E+005
            5398    2.50472E+005    1.26588E+005   -1.62513E+005   -1.07665E+004   -1.62513E+005    2.89101E+005    1.55640E+004   -1.10600E+005   -1.07691E+004   -5.54050E+004    1.94820E+004    3.40637E+002   -9.14822E+002    1.39613E+005
            5399    2.67924E+005    1.20064E+005   -1.89079E+005   -2.41941E+004   -1.89079E+005    3.09143E+005    3.10695E+004   -1.30384E+005   -2.42044E+004   -1.13011E+005    4.40067E+004    9.66007E+002   -1.70359E+003    1.33135E+005
            5400    2.20319E+005    9.26974E+004   -1.61445E+005   -2.44294E+004   -1.61445E+005    2.54143E+005    3.10591E+004   -1.13034E+005   -2.44303E+004   -1.12977E+005    4.42298E+004    5.71756E+002   -1.36234E+003    9.98322E+004
            5401    1.76500E+005    7.67013E+004   -1.26953E+005   -1.83609E+004   -1.26953E+005    2.03655E+005    2.28710E+004   -8.57718E+004   -1.83554E+004   -9.65115E+004    4.62540E+004   -3.35065E+002   -6.46680E+002    7.26135E+004
            5402    1.33517E+005    6.70376E+004   -8.71339E+004   -9.59302E+003   -8.71339E+004    1.54172E+005    9.89643E+003   -2.89805E+004   -9.61531E+003   -7.05700E+004    5.04960E+004   -1.76061E+003   -2.90186E+002    4.76948E+004
            5403    8.94860E+004    9.64449E+004    9.64449E+004    1.80776E+004   -1.06255E+003    9.75074E+004   -3.78200E+004    8.46948E+004    1.78584E+004   -8.21740E+002    9.64232E+004   -2.10270E+003    9.72524E+002   -9.41740E+002
            5404    6.64018E+004    7.52466E+004    7.52466E+004    1.72824E+004    2.79825E+003    7.24484E+004   -3.17758E+004    6.26980E+004    1.51925E+004    5.20598E+003    7.49288E+004   -5.19028E+003    9.52745E+002   -4.50719E+003
            5405    5.21745E+004    5.65438E+004    5.65438E+004    1.54224E+004   -2.14758E+003    5.86914E+004   -2.32729E+004    4.47534E+004    1.29036E+004    5.20757E+003    5.17074E+004   -7.27679E+003    1.71043E+003   -1.51761E+004
            5406    8.93806E+004    9.66818E+004    9.66818E+004    1.67837E+004    1.54312E+002    9.65275E+004   -3.78733E+004    8.57960E+004    1.65645E+004    4.67860E+002    9.65875E+004   -2.13338E+003   -1.91020E+003    2.11456E+003
            5407    6.78405E+004    7.47943E+004    7.47943E+004    1.53420E+004    8.93439E+002    7.39008E+004   -3.03432E+004    6.42404E+004    1.25476E+004    3.93292E+003    7.45492E+004   -5.80862E+003   -1.18114E+003    3.84696E+003
            5408    3.55308E+004    4.44697E+004    4.44697E+004    2.01075E+004    3.70016E+003    4.07696E+004   -2.27591E+004    2.45588E+004    1.18505E+004    1.20815E+004    4.43453E+004   -8.23872E+003    3.48647E+002   -1.82428E+003
            5409    9.88096E+004    1.07176E+005    1.07176E+005    2.21174E+004   -1.21005E+003    1.08386E+005   -4.26944E+004    9.23040E+004    2.19723E+004   -7.04713E+002    1.06816E+005   -2.40049E+003   -2.46040E+003    5.51505E+003
            5410    7.57006E+004    8.53811E+004    8.53811E+004    2.02236E+004    2.33990E+003    8.30412E+004   -3.59815E+004    7.07095E+004    1.78306E+004    7.94093E+003    8.21730E+004   -6.76613E+003   -1.94461E+003    1.53603E+004
            5411    4.56258E+004    5.22854E+004    5.22854E+004    1.80190E+004    4.95656E+002    5.17897E+004   -2.36000E+004    3.68242E+004    1.25801E+004    1.53128E+004    4.29071E+004   -9.78231E+003   -8.46406E+002    1.77780E+004
            5412    2.48744E+005    1.48127E+005    1.48127E+005    6.78495E+002   -1.39063E+005    2.87190E+005   -3.24775E+003    8.94255E+004    6.76494E+002    1.60645E+004   -6.99777E+003   -2.01869E+002    6.17152E+002    1.43130E+005
            5413    2.58496E+005    1.66784E+005    1.66784E+005    1.05952E+004   -1.31592E+005    2.98376E+005   -1.52626E+004    1.11924E+005    1.05993E+004    5.47280E+004   -1.95395E+004    4.51308E+002    9.74582E+002    1.44489E+005
            5414    2.72494E+005    1.91563E+005    1.91563E+005    2.42632E+004   -1.22871E+005    3.14434E+005   -3.09850E+004    1.30880E+005    2.42743E+004    1.12253E+005   -4.35721E+004    9.96522E+002    1.75267E+003    1.36539E+005
            5415    2.71124E+005    1.59879E+005    1.59879E+005    5.04903E+002   -1.53171E+005    3.13050E+005   -2.40437E+003    8.56457E+004    5.06644E+002    1.19196E+004   -5.21312E+003    3.00484E+002    4.75940E+002    1.56289E+005
            5416    2.85626E+005    1.78507E+005    1.78507E+005    8.00514E+003   -1.51241E+005    3.29749E+005   -1.17571E+004    1.11245E+005    8.01283E+003    4.22859E+004   -1.50276E+004    7.60307E+002    9.05894E+002    1.62361E+005
            5417    3.15044E+005    2.08355E+005    2.08355E+005    1.86411E+004   -1.55313E+005    3.63667E+005   -2.38943E+004    1.32843E+005    1.86542E+004    9.04801E+004   -3.74514E+004    1.02190E+003    1.62126E+003    1.70201E+005
            5418    2.87206E+005    1.67692E+005    1.67692E+005    3.94614E+002   -1.63941E+005    3.31633E+005   -1.38219E+003    7.15679E+004    3.96138E+002    6.52668E+003   -2.77626E+003    5.42276E+002    2.29637E+002    1.65750E+005
            5419    3.04736E+005    1.82726E+005    1.82726E+005    3.96147E+003   -1.69138E+005    3.51864E+005   -5.84982E+003    9.24053E+004    3.96673E+003    2.15202E+004   -7.93743E+003    8.40316E+002    5.40925E+002    1.75311E+005
            5420    3.45207E+005    2.13751E+005    2.13751E+005    1.02880E+004   -1.84830E+005    3.98582E+005   -1.30696E+004    1.14251E+005    1.02964E+004    5.03337E+004   -2.14212E+004    8.96691E+002    9.78083E+002    1.96030E+005
            5421    2.91991E+005    1.68210E+005   -1.68952E+005   -1.29234E+002   -1.68952E+005    3.37162E+005    2.90649E+002   -3.95638E+004   -1.29439E+002   -1.19355E+003    4.51045E+002    5.96601E+002   -2.78824E+001    1.68578E+005
            5422    3.10653E+005    1.78569E+005   -1.80142E+005   -5.15843E+002   -1.80142E+005    3.58711E+005    6.96262E+002   -4.27907E+004   -5.16663E+002   -2.81275E+003    1.24063E+003    8.54141E+002   -8.19748E+001    1.79342E+005
            5423    3.56021E+005    2.04788E+005   -2.06310E+005   -5.80168E+002   -2.06310E+005    4.11098E+005    7.00566E+002   -4.09507E+004   -5.80522E+002   -2.35747E+003    8.36295E+002    8.36388E+002   -4.05755E+001    2.05541E+005
            5424    2.83651E+005    1.61597E+005   -1.65929E+005   -3.62607E+002   -1.65929E+005    3.27526E+005    1.56460E+003   -7.57799E+004   -3.64543E+002   -7.67087E+003    3.34161E+003    5.39204E+002   -2.91572E+002    1.63669E+005
            5425    3.00611E+005    1.64977E+005   -1.82114E+005   -5.00196E+003   -1.82114E+005    3.47091E+005    7.37970E+003   -9.88784E+004   -5.00809E+003   -2.72592E+004    1.01282E+004    8.49745E+002   -6.20809E+002    1.72533E+005
            5426    3.43347E+005    1.83067E+005   -2.13361E+005   -1.05787E+004   -2.13361E+005    3.96428E+005    1.36246E+004   -1.17335E+005   -1.05874E+004   -5.34013E+004    2.31150E+004    9.08204E+002   -1.00971E+003    1.94482E+005
            5427    2.65221E+005    1.49294E+005   -1.56934E+005   -5.85154E+002   -1.56934E+005    3.06228E+005    2.74160E+003   -8.80428E+004   -5.86731E+002   -1.33548E+004    5.71673E+003    2.55510E+002   -5.10659E+002    1.52816E+005
            5428    2.78566E+005    1.46371E+005   -1.75217E+005   -8.50593E+003   -1.75217E+005    3.21588E+005    1.24506E+004   -1.11243E+005   -8.51368E+003   -4.47460E+004    1.59080E+004    7.24215E+002   -9.66820E+002    1.57904E+005
            5429    3.11432E+005    1.52032E+005   -2.07456E+005   -1.95578E+004   -2.07456E+005    3.59488E+005    2.49938E+004   -1.33333E+005   -1.95708E+004   -9.34599E+004    3.80494E+004    1.01171E+003   -1.67163E+003    1.67274E+005
            5430    2.07640E+005    1.80157E+005    1.80157E+005    2.95834E+004   -5.67160E+004    2.36873E+005   -5.10081E+004    1.59056E+005    2.94304E+004   -1.58346E+004    1.39428E+005   -2.15688E+004   -1.16130E+004    8.59971E+004
            5431    1.70741E+005    1.69448E+005    1.69448E+005    2.49271E+004   -1.89501E+004    1.88398E+005   -5.84748E+004    1.57289E+005    2.48054E+004   -8.77734E+003    1.59396E+005   -1.32035E+004   -1.51800E+004    3.73084E+004
            5432    1.77583E+005    1.87938E+005    1.87938E+005    2.86056E+004   -3.51116E+003    1.91449E+005   -7.10109E+004    1.70865E+005    3.05677E+004   -2.39029E+003    1.84855E+005   -5.02887E+003   -1.93030E+004    1.10465E+004
            5433    1.45364E+005    1.27811E+005    1.27811E+005    2.19583E+004   -3.79300E+004    1.65741E+005   -3.72798E+004    1.12091E+005    2.12144E+004    9.06447E+002    8.97186E+004   -1.70997E+004   -6.30300E+003    6.74239E+004
            5434    1.33009E+005    1.38592E+005    1.38592E+005    2.72942E+004   -8.71384E+003    1.47306E+005   -5.23908E+004    1.21296E+005    2.62090E+004    3.37328E+003    1.27590E+005   -1.09277E+004   -7.98245E+003    3.66392E+004
            5435    1.48408E+005    1.58593E+005    1.58593E+005    3.09410E+004   -4.24692E+003    1.62840E+005   -6.17623E+004    1.38548E+005    3.14107E+004   -3.17527E+003    1.57051E+005   -4.07867E+003   -9.83328E+003    1.09208E+004
            5436    9.25441E+004    8.83934E+004    8.83934E+004    1.72498E+004   -1.62316E+004    1.04625E+005   -2.98039E+004    7.70330E+004    1.60429E+004    1.45331E+004    5.88355E+004   -1.29235E+004   -3.68925E+003    4.51827E+004
            5437    1.01785E+005    1.05926E+005    1.05926E+005    1.80247E+004   -5.59187E+003    1.11518E+005   -3.94529E+004    9.53241E+004    1.68461E+004    3.05106E+003    9.84614E+004   -8.56795E+003   -6.75192E+003    2.59873E+004
            5438    1.18826E+005    1.28270E+005    1.28270E+005    2.29858E+004   -5.70572E+002    1.28840E+005   -5.02283E+004    1.13393E+005    2.35304E+004    3.26597E+002    1.26828E+005   -2.93925E+003   -8.78182E+003    9.25066E+003
            5439    8.06044E+004    5.62836E+003   -8.21648E+004   -1.15038E+004   -8.21648E+004    8.77932E+004    2.93468E+004   -7.63450E+004   -1.16806E+004    3.80767E+003   -8.01674E+004   -1.40351E+003    3.76831E+003    1.23489E+004
            5440    9.59661E+004    1.99863E+003   -1.01869E+005   -1.64965E+004   -1.01869E+005    1.03868E+005    3.87889E+004   -9.18270E+004   -1.65249E+004    1.43955E+003   -1.01281E+005   -1.43975E+003    2.98797E+003    7.01226E+003
            5441    1.06167E+005    3.31443E+003   -1.12155E+005   -1.87627E+004   -1.12155E+005    1.15470E+005    4.25345E+004   -1.00806E+005   -1.86888E+004    3.18630E+003   -1.12101E+005   -1.42260E+003    1.17224E+003    2.11790E+003
            5442    1.04696E+005   -3.56512E+002   -1.13209E+005   -1.92396E+004   -1.13209E+005    1.12853E+005    4.42685E+004   -1.00758E+005   -1.91236E+004   -4.86163E+002   -1.13196E+005   -1.47789E+003    3.00452E+002   -1.19989E+003
            5443    1.00319E+005    1.56375E+003   -1.07236E+005   -1.83978E+004   -1.07236E+005    1.08799E+005    4.13566E+004   -9.56968E+004   -1.83143E+004    1.42952E+003   -1.07185E+005   -1.41886E+003   -1.12648E+003   -1.97305E+003
            5444    8.46300E+004    2.34724E+004   -7.20283E+004   -6.33469E+003   -7.20283E+004    9.55006E+004    1.82969E+004   -7.12978E+004   -6.34186E+003    1.07701E+004   -5.93189E+004   -3.20613E+003    2.27623E+003    3.21969E+004
            5445    8.69139E+004    1.64323E+004   -8.03804E+004   -9.07200E+003   -8.03804E+004    9.68126E+004    2.43400E+004   -7.78026E+004   -8.78597E+003    1.27280E+004   -7.69622E+004   -3.45195E+003    1.83698E+003    1.76121E+004
            5446    8.78196E+004    8.14949E+003   -8.85794E+004   -1.38535E+004   -8.85794E+004    9.67289E+004    3.14278E+004   -8.12634E+004   -1.32249E+004    7.34201E+003   -8.84005E+004   -3.71009E+003    5.39507E+002    4.06643E+003
            5447    9.05187E+004    6.57564E+003   -9.26182E+004   -1.44895E+004   -9.26182E+004    9.91939E+004    3.35107E+004   -8.47365E+004   -1.37001E+004    5.58854E+003   -9.24205E+004   -4.01298E+003   -1.21901E+002   -4.39350E+003
            5448    8.43541E+004   -1.85859E+002   -9.20017E+004   -1.79336E+004   -9.20017E+004    9.18159E+004    3.67071E+004   -7.99900E+004   -1.70062E+004   -1.51306E+003   -9.16019E+004   -4.08554E+003   -1.15237E+003   -5.81019E+003
            5449    1.06851E+005    5.13051E+004   -7.15915E+004   -6.84003E+002   -7.15915E+004    1.22897E+005    6.99012E+003   -6.84421E+004   -6.28547E+002    2.89527E+004   -4.92946E+004   -3.49843E+003    1.07948E+003    4.72367E+004
            5450    9.21106E+004    3.42899E+004   -7.08006E+004   -4.06570E+003   -7.08006E+004    1.05091E+005    1.35254E+004   -7.04556E+004   -3.79171E+003    2.76283E+004   -6.44129E+004   -3.81798E+003    8.48733E+002    2.49774E+004
            5451    8.41494E+004    2.20208E+004   -7.30846E+004   -8.28785E+003   -7.30846E+004    9.51054E+004    1.97839E+004   -7.01907E+004   -7.69089E+003    2.12064E+004   -7.28671E+004   -4.21055E+003   -1.26954E+002    4.52715E+003
            5452    7.81311E+004    9.55653E+003   -7.73015E+004   -1.27481E+004   -7.73015E+004    8.68580E+004    2.68310E+004   -7.04162E+004   -1.17784E+004    8.08462E+003   -7.67992E+004   -4.61704E+003   -4.44640E+002   -6.48532E+003
            5453    7.44372E+004    5.24742E+003   -7.71626E+004   -1.48074E+004   -7.71626E+004    8.24100E+004    2.89075E+004   -6.79492E+004   -1.37400E+004    2.90428E+003   -7.58869E+004   -4.79716E+003   -1.25098E+003   -9.89110E+003
            5454    1.32800E+005    8.13764E+004    8.13764E+004    6.11723E+003   -7.19595E+004    1.53336E+005   -5.17805E+003   -4.20821E+004    6.15165E+003    5.53791E+004   -4.59966E+004   -2.42673E+003    3.53764E+002    5.74687E+004
            5455    1.04510E+005    5.72056E+004   -6.32629E+004    3.11892E+003   -6.32629E+004    1.20469E+005    9.79441E+002   -5.85297E+004    3.28942E+003    5.08891E+004   -5.71168E+004   -3.16723E+003   -3.52078E+001    2.64716E+004
            5456    8.40117E+004    3.19957E+004   -6.41181E+004   -4.67825E+003   -6.41181E+004    9.61138E+004    1.22669E+004   -6.17208E+004   -4.21238E+003    3.14000E+004   -6.39884E+004   -4.11700E+003   -8.71795E+002    3.39882E+003
            5457    7.61049E+004    1.88926E+004   -6.71385E+004   -8.60073E+003   -6.71385E+004    8.60312E+004    1.89489E+004   -6.33928E+004   -7.71831E+003    1.63760E+004   -6.55044E+004   -5.20062E+003   -1.14151E+003   -1.14721E+004
            5458    6.33866E+004    3.70996E+003   -6.69019E+004   -1.49125E+004   -6.69019E+004    7.06119E+004    2.60348E+004   -5.67246E+004   -1.32302E+004   -9.94567E+002   -6.38797E+004   -6.06200E+003   -1.76636E+003   -1.37046E+004
            5459    6.62267E+004    1.49616E+004   -6.04810E+004   -1.19300E+004   -6.04810E+004    7.54426E+004    1.91498E+004   -5.16035E+004   -1.11750E+004    8.02123E+003   -5.42957E+004   -6.35183E+003   -2.54086E+003   -1.99159E+004
            5460    7.72870E+004    2.90595E+004   -5.95798E+004   -6.28291E+003   -5.95798E+004    8.86392E+004    1.22677E+004   -5.40585E+004   -5.84319E+003    2.69165E+004   -5.78765E+004   -4.88954E+003   -2.24616E+003   -1.15636E+004
            5461    9.17535E+004    5.10798E+004   -5.47514E+004    2.46789E+003   -5.47514E+004    1.05831E+005    4.01233E+002   -4.76772E+004    2.65659E+003    5.08415E+004   -5.47018E+004   -3.35994E+003   -1.64180E+003    6.27332E+002
            5462    1.13731E+005    7.60037E+004    7.60037E+004    1.05103E+004   -5.53211E+004    1.31325E+005   -1.03976E+004   -1.87184E+004    1.05768E+004    7.20865E+004   -5.14704E+004   -2.02461E+003   -6.36508E+002    2.21463E+004
            5463    1.43809E+005    1.02055E+005    1.02055E+005    1.51442E+004   -6.39393E+004    1.65995E+005   -1.77534E+004    6.23671E+004    1.51517E+004    8.56634E+004   -4.75548E+004   -1.01991E+003    1.26857E+002    4.95051E+004
            5464    1.81035E+005    1.30050E+005    1.30050E+005    1.88052E+004   -7.88437E+004    2.08893E+005   -2.33370E+004    8.73767E+004    1.87995E+004    9.85674E+004   -4.73558E+004   -1.46567E+002    7.69862E+002    7.47332E+004
            5465    2.26098E+005    1.64160E+005    1.64160E+005    2.38344E+004   -9.66645E+004    2.60824E+005   -3.04432E+004    1.14887E+005    2.38375E+004    1.12434E+005   -4.49420E+004    6.57292E+002    1.35270E+003    1.03987E+005
            5466    2.28229E+005    1.50268E+005    1.50268E+005    1.15301E+004   -1.13143E+005    2.63411E+005   -1.62181E+004    1.03149E+005    1.15272E+004    6.07115E+004   -2.35842E+004   -1.58313E+002    6.94418E+002    1.24777E+005
            5467    2.22725E+005    1.33015E+005    1.33015E+005    5.41246E+002   -1.24125E+005    2.57141E+005   -3.14373E+003    8.34295E+004    5.31406E+002    1.73745E+004   -8.47472E+003   -1.09575E+003    5.96846E+002    1.27913E+005
            5468    1.91770E+005    1.25286E+005    1.25286E+005    9.78354E+003   -9.60804E+004    2.21367E+005   -1.29965E+004    8.09912E+004    9.77911E+003    5.83309E+004   -2.91205E+004   -1.15043E+003    4.15811E+002    1.01673E+005
            5469    1.94449E+005    1.15569E+005    1.15569E+005    5.82926E+002   -1.08939E+005    2.24508E+005   -2.40448E+003    6.76679E+004    5.68515E+002    1.63662E+004   -9.72130E+003   -2.27395E+003    4.56468E+002    1.11469E+005
            5470    1.65264E+005    9.67215E+004    9.67215E+004    7.51461E+002   -9.41074E+004    1.90829E+005   -1.12185E+003    3.57057E+004    7.43180E+002    1.32798E+004   -1.06574E+004   -3.32801E+003    3.18251E+002    9.46018E+004
            5471    1.29457E+005    7.37202E+004   -7.57328E+004    1.61212E+003   -7.57328E+004    1.49453E+005    1.33478E+002   -5.08615E+004    1.60264E+003    9.47853E+003   -1.14816E+004   -4.12595E+003    4.49540E+002    7.38716E+004
            5472    8.77841E+004    4.57062E+004   -5.53277E+004    2.27107E+003   -5.53277E+004    1.01034E+005    2.45014E+003   -5.45470E+004    2.22309E+003    3.14467E+003   -1.27182E+004   -3.87890E+003    8.91943E+002    4.97348E+004
            5473    3.83047E+004    1.34169E+004   -2.90231E+004    2.98518E+003   -2.90231E+004    4.24400E+004    4.20699E+003   -3.48880E+004    2.85292E+003    2.37748E+003   -1.78514E+004   -1.70009E+003    1.67705E+003    1.85391E+004
            5474    1.55712E+005    9.57266E+004    9.57266E+004    5.64062E+003   -8.40738E+004    1.79800E+005   -5.76446E+003    2.38179E+004    5.64071E+003    4.25385E+004   -3.08858E+004   -2.45357E+003    5.19757E+002    8.20242E+004
            5475    1.20513E+005    6.35812E+004   -7.53808E+004    4.75278E+002   -7.53808E+004    1.38962E+005    3.77477E+003   -6.51655E+004    4.45919E+002    2.03960E+004   -3.21663E+004   -3.43928E+003    1.13345E+003    6.42183E+004
            5476    8.74683E+004    3.56190E+004   -6.43320E+004   -1.78502E+003   -6.43320E+004    9.99510E+004    1.01660E+004   -6.54676E+004   -1.91305E+003    9.15058E+003   -3.77355E+004   -3.18649E+003    2.18005E+003    4.39848E+004
            5477    5.71114E+004    5.03794E+003   -5.68407E+004   -6.15323E+003   -5.68407E+004    6.18787E+004    1.93187E+004   -5.45621E+004   -6.47175E+003    4.58331E+002   -5.19426E+004   -1.35220E+003    3.81902E+003    1.61424E+004
            5478    2.68108E+005    2.92708E+005    2.92708E+005    3.49633E+004    1.53180E+004    2.77390E+005   -1.14330E+005    2.66481E+005    3.49523E+004    1.83162E+004    2.89721E+005   -7.74153E+002    4.06832E+003    2.83323E+004
            5479    2.59231E+005    2.61833E+005    2.61833E+005    1.38121E+004   -7.31557E+003    2.69148E+005   -8.94431E+004    2.57283E+005    1.39829E+004   -6.58571E+003    2.60932E+005   -3.66878E+003   -1.30896E+004    7.30178E+003
            5480    2.22769E+005    2.31728E+005    2.31728E+005    2.26589E+004   -2.59074E+003    2.34318E+005   -8.39320E+004    2.19516E+005    2.46333E+004   -1.33947E+003    2.28502E+005   -5.76579E+003   -2.46015E+004    7.71900E+003
            5481    2.08988E+005    2.16265E+005    2.16265E+005    2.88776E+004   -9.11256E+003    2.25377E+005   -7.86766E+004    2.00998E+005    2.97470E+004   -8.05198E+003    2.14335E+005   -6.15301E+003   -1.76300E+004    7.10382E+003
            5482    3.08133E+005    3.48612E+005    3.48612E+005    6.68437E+004    1.95768E+004    3.29035E+005   -1.45011E+005    2.99814E+005    6.69006E+004    3.13297E+004    3.36802E+005   -2.78533E+003   -5.37876E+003    6.08908E+004
            5483    2.80001E+005    3.07914E+005    3.07914E+005    5.27801E+004    8.35705E+003    2.99557E+005   -1.23017E+005    2.71903E+005    5.24419E+004    1.69315E+004    2.99677E+005   -1.01306E+004   -1.48419E+004    4.57015E+004
            5484    2.36917E+005    2.41187E+005    2.41187E+005    3.54908E+004   -1.78551E+004    2.59042E+005   -8.62742E+004    2.22795E+005    3.58067E+004   -1.23090E+004    2.35325E+005   -1.29310E+004   -2.08701E+004    2.94326E+004
            5485    2.06100E+005    2.11795E+005    2.11795E+005    3.71640E+004   -1.55393E+004    2.27334E+005   -7.78066E+004    1.90032E+005    3.58490E+004   -5.96529E+003    2.03536E+005   -1.47768E+004   -1.43554E+004    3.79686E+004
            5486    2.65355E+005    2.32980E+005    2.32980E+005    4.06799E+004   -6.97585E+004    3.02738E+005   -6.79671E+004    2.03052E+005    4.01517E+004   -3.71894E+004    2.00939E+005   -2.37095E+004   -1.47594E+004    8.90760E+004
            5487    3.17532E+005    3.01765E+005    3.01765E+005    6.27837E+004   -5.85419E+004    3.60307E+005   -1.02002E+005    2.57027E+005    6.30471E+004   -3.08695E+004    2.73830E+005   -2.40733E+004   -2.05778E+004    9.08704E+004
            5488    3.47567E+005    3.58589E+005    3.58589E+005    8.31573E+004   -3.19237E+004    3.90512E+005   -1.36607E+005    2.99980E+005    8.27548E+004   -1.07948E+004    3.37862E+005   -2.21211E+004   -2.02291E+004    8.24838E+004
            5489    3.91241E+005    4.40717E+005    4.40717E+005    1.19006E+005    5.18755E+003    4.35530E+005   -1.88304E+005    3.50992E+005    1.18556E+005    3.14784E+004    4.14876E+005   -1.92465E+004   -1.74259E+004    9.97610E+004
            5490    3.59805E+005    4.63226E+005    4.63226E+005    1.49508E+005    7.04740E+004    3.92752E+005   -2.27736E+005    3.39441E+005    1.49589E+005    9.71152E+004    4.36503E+005   -1.62649E+004   -1.89715E+004    9.56690E+004
            5491    3.37500E+005    4.82597E+005    4.82597E+005    1.80525E+005    1.18322E+005    3.64275E+005   -2.60481E+005    3.24225E+005    1.80539E+005    1.37731E+005    4.63173E+005   -1.37320E+004   -1.82268E+004    7.85933E+004
            5492    3.00092E+005    4.77399E+005    4.77399E+005    1.99417E+005    1.59243E+005    3.18155E+005   -2.78686E+005    2.93951E+005    1.99290E+005    1.79524E+005    4.57245E+005   -1.16516E+004   -1.62605E+004    7.48870E+004
            5493    2.51226E+005    4.31377E+005    4.31377E+005    1.93031E+005    1.68999E+005    2.62378E+005   -2.64469E+005    2.48620E+005    1.93169E+005    1.93469E+005    4.06768E+005   -8.58881E+003   -1.29028E+004    7.49070E+004
            5494    3.03246E+005    4.49231E+005    4.49231E+005    1.76696E+005    1.22566E+005    3.26665E+005   -2.49498E+005    2.92078E+005    1.75338E+005    1.50744E+005    4.22412E+005   -7.01216E+003    6.91348E+003    8.93312E+004
            5495    2.49774E+005    4.09761E+005    4.09761E+005    1.82394E+005    1.42404E+005    2.67356E+005   -2.44853E+005    2.42415E+005    1.82317E+005    1.67666E+005    3.84576E+005   -2.16116E+003    2.27598E+004    7.46824E+004
            5496    3.38509E+005    4.83376E+005    4.83376E+005    1.77379E+005    1.19753E+005    3.63623E+005   -2.60169E+005    3.27199E+005    1.75954E+005    1.54973E+005    4.49581E+005   -7.07722E+003    8.31246E+003    1.05162E+005
            5497    2.94059E+005    4.56113E+005    4.56113E+005    1.92946E+005    1.38712E+005    3.17401E+005   -2.62590E+005    2.82476E+005    1.92917E+005    1.80234E+005    4.14619E+005   -1.69856E+003    2.82911E+004    1.03177E+005
            5498    3.66164E+005    4.95996E+005    4.95996E+005    1.64968E+005    1.02685E+005    3.93311E+005   -2.54550E+005    3.53952E+005    1.63916E+005    1.49089E+005    4.50643E+005   -5.79131E+003    8.92170E+003    1.25238E+005
            5499    3.22021E+005    4.61064E+005    4.61064E+005    1.80150E+005    1.09626E+005    3.51438E+005   -2.50280E+005    3.03908E+005    1.79885E+005    1.76417E+005    3.94538E+005   -9.98599E+002    3.29051E+004    1.33683E+005
            5500    3.51493E+005    4.46235E+005    4.46235E+005    1.25991E+005    7.01732E+004    3.76062E+005   -2.14133E+005    3.41307E+005    1.25238E+005    1.22810E+005    3.94352E+005   -3.67255E+003    1.04870E+004    1.29222E+005
            5501    3.30268E+005    4.59406E+005    4.59406E+005    1.71738E+005    9.87488E+004    3.60657E+005   -2.43298E+005    3.11336E+005    1.71902E+005    1.72092E+005    3.85899E+005    3.60984E+002    3.68504E+004    1.40533E+005
            5502    3.55915E+005    4.56616E+005    4.56616E+005    1.57519E+005    6.29751E+004    3.93641E+005   -2.25704E+005    3.25819E+005    1.57582E+005    1.65247E+005    3.54282E+005    1.09576E+003    4.15990E+004    1.67569E+005
            5503    4.41787E+005    5.60048E+005    5.60048E+005    1.89910E+005    7.09660E+004    4.89082E+005   -2.73641E+005    4.03338E+005    1.94346E+005    1.20818E+005    5.05760E+005    1.01425E+003    5.02644E+004    1.44118E+005
            5504    3.93982E+005    4.65349E+005    4.65349E+005    1.14749E+005    3.89884E+004    4.26361E+005   -2.06362E+005    3.77068E+005    1.15050E+005    9.05432E+004    4.13494E+005    8.92426E+002    1.39818E+004    1.38624E+005
            5505    3.42993E+005    3.59074E+005    3.59074E+005    5.20960E+004   -1.11359E+004    3.70210E+005   -1.33345E+005    3.29495E+005    5.40678E+004   -7.09515E+003    3.53061E+005    1.17321E+003    2.47309E+004    3.82107E+004
            5506    5.07824E+004    3.11218E+003   -5.42813E+004   -1.51754E+004   -5.42813E+004    5.73934E+004    2.21148E+004   -4.23619E+004   -1.28387E+004   -4.83583E+003   -4.86700E+004   -7.46386E+003   -1.78414E+003   -1.59948E+004
            5507    5.59257E+004    1.60641E+003   -6.05467E+004   -1.42903E+004   -6.05467E+004    6.21531E+004    2.44102E+004   -5.04548E+004   -1.07494E+004   -3.93351E+003   -5.85476E+004   -6.93189E+003   -7.89423E+002   -1.04043E+004
            5508    6.63915E+004   -1.95150E+003   -7.43119E+004   -1.62044E+004   -7.43119E+004    7.23604E+004    3.08226E+004   -6.28094E+004   -1.41143E+004   -4.38568E+003   -7.39679E+004   -5.07474E+003   -2.15260E+002   -4.86629E+003
            5509    8.34130E+004    2.23310E+003   -8.85483E+004   -1.52868E+004   -8.85483E+004    9.07814E+004    3.38673E+004   -7.91128E+004   -1.42326E+004    1.08122E+003   -8.84506E+004   -4.17326E+003   -9.86962E+001   -2.94713E+003
            5510    9.26827E+004   -1.69056E+003   -1.01069E+005   -1.69843E+004   -1.01069E+005    9.93783E+004    3.99146E+004   -8.97778E+004   -1.68414E+004   -1.83924E+003   -1.01063E+005   -1.47097E+003    1.05520E+002   -7.53108E+002
            5511    2.91546E+004   -3.57776E+003   -3.72252E+004   -1.94656E+004   -3.72252E+004    3.36474E+004    2.00895E+004   -1.33571E+004   -1.14238E+004   -1.32948E+004   -3.55500E+004   -8.44283E+003   -9.97381E+002   -5.55956E+003
            5512    4.48869E+004   -6.04082E+003   -5.66670E+004   -2.17325E+004   -5.66670E+004    5.06262E+004    2.81468E+004   -3.79357E+004   -1.46256E+004   -1.33316E+004   -5.64832E+004   -7.79100E+003   -5.60840E+002    2.82191E+003
            5513    6.52358E+004   -6.69769E+002   -7.24562E+004   -1.67960E+004   -7.24562E+004    7.17864E+004    2.99740E+004   -6.05025E+004   -1.45774E+004   -3.01780E+003   -7.23267E+004   -5.56190E+003    1.82593E+001    2.98501E+003
            5514    7.87829E+004   -3.03794E+003   -8.87586E+004   -1.95217E+004   -8.87586E+004    8.57207E+004    3.71061E+004   -7.47539E+004   -1.82830E+004   -4.41884E+003   -8.86164E+004   -4.36869E+003    3.33791E+002    3.41803E+003
            5515    9.39566E+004    1.42689E+003   -1.00953E+005   -1.86741E+004   -1.00953E+005    1.02380E+005    3.94002E+004   -8.89236E+004   -1.85614E+004    1.29901E+003   -1.00938E+005   -1.51567E+003    3.51816E+002    1.17796E+003
            5516    4.61235E+004    3.33399E+002   -5.19175E+004   -1.68611E+004   -5.19175E+004    5.22509E+004    2.28150E+004   -3.78324E+004   -1.26238E+004   -1.85780E+004   -3.72433E+004   -1.01442E+004    8.94532E+002    2.09864E+004
            5517    5.98685E+004    1.64088E+003   -6.50932E+004   -1.61004E+004   -6.50932E+004    6.67341E+004    2.65176E+004   -5.34566E+004   -1.12447E+004   -9.52346E+003   -5.87846E+004   -9.33215E+003    2.27932E+003    1.79124E+004
            5518    7.55683E+004   -1.70263E+003   -8.39830E+004   -1.76830E+004   -8.39830E+004    8.22804E+004    3.44562E+004   -7.16171E+004   -1.56945E+004   -7.39211E+003   -8.02820E+004   -6.42367E+003    3.26938E+003    1.61038E+004
            5519    9.30955E+004    3.31017E+003   -9.82989E+004   -1.71057E+004   -9.82989E+004    1.01609E+005    3.73648E+004   -8.78444E+004   -1.62753E+004    1.27982E+003   -9.70990E+004   -4.94469E+003    3.88639E+003    9.80812E+003
            5520    1.01507E+005   -2.03067E+003   -1.11300E+005   -1.99404E+004   -1.11300E+005    1.09270E+005    4.44238E+004   -9.78569E+004   -2.00304E+004   -2.29760E+003   -1.10943E+005   -1.73775E+003    4.53120E+003    3.70668E+003
            5521    2.48060E+005   -1.68819E+005   -4.27853E+005   -1.92462E+005   -4.27853E+005    2.59035E+005    2.63044E+005   -2.45506E+005   -1.92699E+005   -1.94011E+005   -4.02424E+005   -8.35952E+003    1.28320E+004    7.55404E+004
            5522    2.90295E+005   -1.18582E+005   -4.31533E+005   -1.71050E+005   -4.31533E+005    3.12951E+005    2.40389E+005   -2.79327E+005   -1.69720E+005   -1.45846E+005   -4.05600E+005   -6.93709E+003   -6.18596E+003    8.59674E+004
            5523    2.37240E+005   -1.39931E+005   -3.93434E+005   -1.76767E+005   -3.93434E+005    2.53503E+005    2.36710E+005   -2.30674E+005   -1.76757E+005   -1.60630E+005   -3.72744E+005   -2.22120E+003   -2.08747E+004    6.61542E+004
            5524    2.10857E+005   -1.26684E+005   -3.50775E+005   -1.56280E+005   -3.50775E+005    2.24091E+005    2.11246E+005   -2.06106E+005   -1.56733E+005   -1.72330E+005   -3.04677E+005   -5.63856E+003    8.27861E+003    9.00671E+004
            5525    2.23137E+005   -9.10388E+004   -3.33141E+005   -1.35735E+005   -3.33141E+005    2.42102E+005    1.86638E+005   -2.12712E+005   -1.34553E+005   -1.15070E+005   -3.10291E+005   -6.17403E+003   -4.48471E+003    7.05404E+004
            5526    1.68518E+005   -1.13099E+005   -2.91882E+005   -1.35965E+005   -2.91882E+005    1.78783E+005    1.80315E+005   -1.64974E+005   -1.35769E+005   -1.22447E+005   -2.82730E+005   -2.42315E+003   -1.42430E+004    3.66934E+004
            5527    1.99960E+005   -1.99430E+004   -2.44949E+005   -8.75777E+004   -2.44949E+005    2.25006E+005    1.17490E+005   -1.71233E+005   -8.77677E+004   -1.01487E+005   -1.63215E+005   -4.19155E+003    3.93303E+003    1.08073E+005
            5528    1.40009E+005   -3.23610E+004   -1.87865E+005   -7.18202E+004   -1.87865E+005    1.55504E+005    9.73488E+004   -1.26563E+005   -7.09454E+004   -6.10683E+004   -1.60033E+005   -5.45047E+003   -2.07224E+003    5.94040E+004
            5529    8.41359E+004   -5.92930E+004   -1.48664E+005   -7.09870E+004   -1.48664E+005    8.93712E+004    9.29814E+004   -8.22778E+004   -7.03790E+004   -6.28408E+004   -1.45724E+005   -2.34824E+003   -6.78008E+003    1.44067E+004
            5530    1.99514E+005    1.23446E+005    1.23446E+005    5.29211E+003   -1.06907E+005    2.30353E+005   -7.27711E+003    7.08375E+004    5.31015E+003    5.86543E+003    1.06558E+004   -3.63363E+003   -3.70349E+002    1.15094E+005
            5531    9.74173E+004    7.03394E+004    7.03394E+004    9.33655E+003   -4.20102E+004    1.12350E+005   -1.25552E+004    5.15520E+004    9.20694E+003    8.65602E+003    1.98027E+004   -5.21753E+003    2.02178E+002    5.56475E+004
            5532    1.83748E+004    2.58208E+004    2.58208E+004    1.20552E+004    4.95534E+003    2.08654E+004   -1.42771E+004    1.47787E+004    1.09197E+004    9.94279E+003    2.19688E+004   -2.45379E+003    9.18090E+002    7.81473E+003
            5533    2.00442E+005    2.57347E+005    2.57347E+005    9.57427E+004    3.30537E+004    2.24294E+005   -1.28715E+005    1.76274E+005    9.59628E+004    1.10411E+005    1.79770E+005   -4.34608E+003   -4.42818E+003    1.06520E+005
            5534    1.57044E+005    2.22132E+005    2.22132E+005    8.83533E+004    4.92222E+004    1.72910E+005   -1.19903E+005    1.45456E+005    8.73310E+004    7.51544E+004    1.97222E+005   -5.60964E+003    2.78147E+003    6.05057E+004
            5535    1.05791E+005    1.88424E+005    1.88424E+005    9.00381E+004    7.65258E+004    1.11898E+005   -1.18329E+005    1.03823E+005    8.95335E+004    8.09481E+004    1.84507E+005   -2.37337E+003    8.75519E+003    1.85830E+004
            5536    2.16780E+005    3.62592E+005    3.62592E+005    1.61502E+005    1.32953E+005    2.29640E+005   -2.19016E+005    2.12488E+005    1.61981E+005    1.76746E+005    3.18320E+005   -5.96764E+003   -8.86153E+003    8.99991E+004
            5537    2.36507E+005    3.56430E+005    3.56430E+005    1.45528E+005    1.00728E+005    2.55702E+005   -2.00895E+005    2.26663E+005    1.44250E+005    1.24520E+005    3.33915E+005   -6.39708E+003    4.87485E+003    7.21971E+004
            5538    1.87385E+005    3.23428E+005    3.23428E+005    1.50171E+005    1.24551E+005    1.98877E+005   -1.99383E+005    1.83383E+005    1.50034E+005    1.35808E+005    3.12307E+005   -2.43199E+003    1.61498E+004    4.26985E+004
            5539    1.83245E+005    3.87977E+003   -1.94535E+005   -3.16699E+004   -1.94535E+005    1.98415E+005    7.41084E+004   -1.75233E+005   -3.29587E+004    3.44254E+003   -1.92809E+005   -3.46926E+003    1.56686E+004    6.05830E+003
            5540    1.69724E+005    3.90800E+003   -1.81597E+005   -3.40996E+004   -1.81597E+005    1.85505E+005    7.05962E+004   -1.59722E+005   -3.37933E+004   -6.78495E+002   -1.77317E+005   -1.00637E+004    1.40915E+004    2.20466E+004
            5541    1.73827E+005    2.35515E+004   -1.70652E+005   -2.96240E+004   -1.70652E+005    1.94203E+005    5.89082E+004   -1.53866E+005   -2.90504E+004    1.32759E+004   -1.60950E+005   -1.29454E+004    1.18393E+004    3.88187E+004
            5542    1.89037E+005    3.55373E+004   -1.78083E+005   -3.24131E+004   -1.78083E+005    2.13620E+005    5.83194E+004   -1.57825E+005   -3.12684E+004    8.37223E+003   -1.52062E+005   -1.86294E+004    1.05509E+004    6.68560E+004
            5543    2.22391E+005    7.33354E+004   -1.81778E+005   -2.88128E+004   -1.81778E+005    2.55114E+005    4.57519E+004   -1.54729E+005   -2.85448E+004    2.70632E+004   -1.35774E+005   -2.27133E+004    1.04505E+004    9.49199E+004
            5544    1.50939E+005   -1.71625E+003   -1.64064E+005   -2.79811E+004   -1.64064E+005    1.62347E+005    6.45870E+004   -1.45664E+005   -2.92204E+004   -2.22041E+003   -1.62320E+005   -2.80097E+003    1.37260E+004    7.19947E+003
            5545    1.44111E+005    9.81003E+003   -1.48118E+005   -2.37418E+004   -1.48118E+005    1.57928E+005    5.40165E+004   -1.34897E+005   -2.38312E+004    5.64239E+003   -1.43861E+005   -8.11595E+003    1.19381E+004    2.10515E+004
            5546    1.35246E+005    1.15039E+004   -1.37824E+005   -2.35707E+004   -1.37824E+005    1.49328E+005    4.99636E+004   -1.24381E+005   -2.34196E+004   -1.07133E+003   -1.25400E+005   -1.04857E+004    1.02216E+004    3.85990E+004
            5547    1.35148E+005    2.56786E+004   -1.26133E+005   -1.89245E+004   -1.26133E+005    1.51812E+005    3.97930E+004   -1.16779E+005   -1.79707E+004    4.96290E+002   -1.01905E+005   -1.53059E+004    8.52627E+003    5.29405E+004
            5548    1.58637E+005    4.60172E+004   -1.35405E+005   -2.27837E+004   -1.35405E+005    1.81423E+005    3.73906E+004   -1.17255E+005   -2.25519E+004   -2.77849E+003   -8.68416E+004   -1.81534E+004    6.54812E+003    7.80023E+004
            5549    1.24130E+005    2.19508E+003   -1.33747E+005   -2.64292E+004   -1.33747E+005    1.35942E+005    5.26603E+004   -1.16352E+005   -2.67005E+004    1.81765E+003   -1.33098E+005   -2.14899E+003    6.40227E+003    5.87362E+003
            5550    1.08939E+005   -7.92453E+002   -1.20160E+005   -2.61063E+004   -1.20160E+005    1.19367E+005    4.90195E+004   -1.02002E+005   -2.54482E+004   -4.66703E+003   -1.16943E+005   -6.20075E+003    5.80974E+003    1.77625E+004
            5551    1.00388E+005    7.57759E+003   -1.03990E+005   -2.09640E+004   -1.03990E+005    1.11568E+005    3.91255E+004   -9.05621E+004   -1.97838E+004   -1.04096E+003   -9.65517E+004   -8.19283E+003    4.64877E+003    2.66333E+004
            5552    9.29908E+004    8.48722E+003   -9.58067E+004   -2.15379E+004   -9.58067E+004    1.04294E+005    3.62858E+004   -8.09562E+004   -1.93183E+004   -1.27092E+004   -7.68298E+004   -1.18018E+004    3.52430E+003    3.85609E+004
            5553    9.02448E+004    2.18010E+004   -8.10963E+004   -1.53918E+004   -8.10963E+004    1.02897E+005    2.48957E+004   -6.95698E+004   -1.43416E+004   -1.34354E+004   -4.69101E+004   -1.32658E+004    2.58331E+003    4.65658E+004
            5554    3.75415E+005   -6.26957E+004   -4.77703E+005   -1.61744E+005   -4.77703E+005    4.15008E+005    2.34048E+005   -3.44128E+005   -1.61075E+005   -8.43049E+004   -4.56763E+005   -1.97598E+004    1.92668E+004    8.68453E+004
            5555    3.84180E+005   -1.08758E+004   -4.40955E+005   -1.31746E+005   -4.40955E+005    4.30080E+005    1.94526E+005   -3.37245E+005   -1.31473E+005   -3.39114E+004   -4.18193E+005   -2.36290E+004    2.29746E+004    9.06206E+004
            5556    3.85837E+005    3.27805E+004   -4.03895E+005   -1.09030E+005   -4.03895E+005    4.36675E+005    1.60048E+005   -3.18749E+005   -1.09633E+005    7.96096E+003   -3.78472E+005   -2.58530E+004    2.57785E+004    9.51401E+004
            5557    3.48162E+005    7.62556E+004   -3.21252E+005   -7.04616E+004   -3.21252E+005    3.97508E+005    1.05153E+005   -2.63807E+005   -7.03618E+004    4.63393E+004   -2.91435E+005   -2.69233E+004    2.03066E+004    9.91852E+004
            5558    2.97224E+005    8.11832E+004   -2.58934E+005   -4.91019E+004   -2.58934E+005    3.40118E+005    7.56177E+004   -2.17502E+005   -4.92419E+004    4.02400E+004   -2.17851E+005   -2.61819E+004    1.68730E+004    1.06314E+005
            5559    2.31600E+005    4.48718E+004   -2.15474E+005   -3.23505E+004   -2.15474E+005    2.60346E+005    6.76509E+004   -1.99388E+005   -3.19794E+004    2.56019E+004   -1.96575E+005   -2.01945E+004    1.75657E+004    6.21948E+004
            5560    2.12683E+005    2.05001E+004   -2.14321E+005   -3.46349E+004   -2.14321E+005    2.34821E+005    7.61519E+004   -1.95611E+005   -3.49967E+004    1.15740E+004   -2.05033E+005   -1.38436E+004    1.85471E+004    3.92730E+004
            5561    2.07015E+005    1.49616E+004   -2.09795E+005   -2.69278E+004   -2.09795E+005    2.24757E+005    7.39204E+004   -1.97139E+005   -2.71194E+004    1.14796E+004   -2.06121E+005   -1.11253E+004    2.05302E+004    1.61109E+004
            5562    2.04577E+005   -1.77500E+003   -2.16874E+005   -2.47604E+004   -2.16874E+005    2.15099E+005    8.11364E+004   -2.01641E+005   -2.72030E+004   -2.28995E+003   -2.13916E+005   -3.58397E+003    2.31986E+004    4.63815E+003
            5563    2.85369E+005    3.12531E+004   -2.88098E+005   -5.80911E+004   -2.88098E+005    3.19351E+005    1.04979E+005   -2.50881E+005   -5.73003E+004    1.19307E+004   -2.69567E+005   -2.02224E+004    1.74649E+004    7.01148E+004
            5564    2.46395E+005    1.96528E+004   -2.52124E+005   -4.33423E+004   -2.52124E+005    2.71777E+005    9.19379E+004   -2.27193E+005   -4.29017E+004    1.34724E+004   -2.46384E+005   -1.31868E+004    1.64200E+004    3.32948E+004
            5565    2.27584E+005   -1.39087E+003   -2.44924E+005   -3.76426E+004   -2.44924E+005    2.43534E+005    9.46526E+004   -2.20947E+005   -3.68278E+004   -5.13187E+003   -2.41998E+005   -1.03670E+004    1.73902E+004    1.79071E+004
            5566    2.27536E+005    4.54699E+003   -2.34357E+005   -2.02136E+004   -2.34357E+005    2.38904E+005    8.33412E+004   -2.24475E+005   -2.14466E+004    4.15605E+003   -2.32733E+005   -3.18310E+003    1.83725E+004    2.75776E+003
            5567    3.09949E+005    1.35971E+004   -3.28361E+005   -6.59137E+004   -3.28361E+005    3.41958E+005    1.26893E+005   -2.85620E+005   -6.68036E+004   -2.98859E+003   -3.10886E+005   -1.68025E+004    2.30597E+004    6.92855E+004
            5568    2.82775E+005   -2.08120E+003   -3.08204E+005   -5.67646E+004   -3.08204E+005    3.06123E+005    1.22350E+005   -2.70492E+005   -5.79036E+004   -1.13616E+004   -2.97784E+005   -1.01162E+004    2.05500E+004    5.00468E+004
            5569    2.61136E+005    3.45659E+003   -2.72967E+005   -3.04268E+004   -2.72967E+005    2.76424E+005    9.99791E+004   -2.56120E+005   -3.10054E+004    1.12070E+003   -2.70053E+005   -6.91472E+003    1.86756E+004    1.95528E+004
            5570    2.36752E+005   -6.61646E+003   -2.47433E+005   -1.49667E+004   -2.47433E+005    2.40817E+005    8.96721E+004   -2.36420E+005   -1.64014E+004   -6.89011E+003   -2.45725E+005   -1.22490E+003    1.85075E+004    7.27227E+003
            5571    3.66373E+005   -2.04829E+004   -4.20197E+005   -1.00338E+005   -4.20197E+005    3.99715E+005    1.80339E+005   -3.45970E+005   -9.99335E+004   -4.70732E+004   -3.94012E+005   -1.45448E+004    1.44877E+004    9.68566E+004
            5572    3.12669E+005   -1.86432E+004   -3.52788E+005   -6.73000E+004   -3.52788E+005    3.34145E+005    1.46244E+005   -3.03976E+005   -6.71945E+004   -3.05609E+004   -3.40976E+005   -6.09572E+003    8.32045E+003    6.08684E+004
            5573    2.95604E+005   -2.36557E+004   -3.31497E+005   -4.98772E+004   -3.31497E+005    3.07841E+005    1.35010E+005   -2.92970E+005   -4.97171E+004   -3.11189E+004   -3.24194E+005   -2.78760E+003    3.02307E+003    4.67005E+004
            5574    2.75321E+005    4.09686E+003   -2.80013E+005   -1.44143E+004   -2.80013E+005    2.84110E+005    9.67768E+004   -2.73916E+005   -1.44082E+004    3.69035E+003   -2.79612E+005    4.24520E+002   -7.65146E+002    1.06268E+004
            5575    3.50321E+005   -5.88526E+004   -4.35711E+005   -1.19972E+005   -4.35711E+005    3.76859E+005    2.04845E+005   -3.38012E+005   -1.19568E+005   -9.66396E+004   -3.98329E+005   -8.84552E+003    6.58276E+003    1.12154E+005
            5576    3.62061E+005   -3.14640E+004   -4.22989E+005   -1.00265E+005   -4.22989E+005    3.91525E+005    1.84906E+005   -3.46893E+005   -1.00153E+005   -6.81357E+004   -3.86430E+005   -2.19698E+003   -2.66304E+003    1.13882E+005
            5577    3.29989E+005   -1.02955E+004   -3.63453E+005   -6.29679E+004   -3.63453E+005    3.53157E+005    1.45572E+005   -3.20326E+005   -6.32819E+004   -2.22137E+004   -3.51220E+005    1.23066E+003   -9.74788E+003    6.37256E+004
            5578    2.84208E+005   -1.69315E+004   -3.13991E+005   -4.46686E+004   -3.13991E+005    2.97059E+005    1.25197E+005   -2.81139E+005   -4.56421E+004   -1.99864E+004   -3.09963E+005    2.04067E+003   -1.60860E+004    2.98913E+004
            5579    3.69070E+005    1.38402E+004   -3.88755E+005   -6.64174E+004   -3.88755E+005    4.02595E+005    1.47111E+005   -3.48616E+005   -6.99479E+004    9.94322E+003   -3.81328E+005    1.93709E+003   -3.36344E+004    3.91212E+004
            5580    4.70685E+005   -7.37957E+004   -5.97194E+005   -2.08668E+005   -5.97194E+005    5.23398E+005    2.93219E+005   -4.23829E+005   -2.13720E+005   -1.22682E+005   -5.43256E+005    4.89899E+002   -5.37824E+004    1.48305E+005
            5581    4.17218E+005   -2.99268E+004   -4.84884E+005   -1.20176E+005   -4.84884E+005    4.54957E+005    2.11662E+005   -3.94349E+005   -1.21561E+005   -8.18336E+004   -4.31592E+005    2.50809E+003   -2.68722E+004    1.43610E+005
            5582    3.67213E+005   -6.16942E+004   -4.70001E+005   -1.66804E+005   -4.70001E+005    4.08307E+005    2.32833E+005   -3.30743E+005   -1.67151E+005   -1.70252E+005   -3.61096E+005    1.11108E+003   -4.62910E+004    1.74538E+005
            5583    3.50202E+005   -6.15015E+004   -4.36632E+005   -1.18302E+005   -4.36632E+005    3.75130E+005    2.05478E+005   -3.39606E+005   -1.18152E+005   -1.23035E+005   -3.75248E+005   -1.50139E+002   -1.96939E+004    1.37369E+005
            5584    3.36193E+005   -8.76898E+004   -4.57397E+005   -1.70010E+005   -4.57397E+005    3.69707E+005    2.38366E+005   -3.12287E+005   -1.70233E+005   -1.69504E+005   -3.75360E+005    3.30132E+002   -4.14799E+004    1.47915E+005
            5585    3.62729E+005   -8.49439E+004   -4.73140E+005   -1.42843E+005   -4.73140E+005    3.88196E+005    2.33642E+005   -3.52107E+005   -1.42022E+005   -1.37089E+005   -4.21816E+005   -3.95080E+003   -1.13918E+004    1.30955E+005
            5586    3.31897E+005   -9.77458E+004   -4.61572E+005   -1.75360E+005   -4.61572E+005    3.63826E+005    2.44893E+005   -3.10478E+005   -1.75035E+005   -1.75056E+005   -3.84588E+005   -6.82874E+002   -3.59444E+004    1.44187E+005
            5587    3.14242E+005   -1.23003E+005   -4.64168E+005   -1.86571E+005   -4.64168E+005    3.41166E+005    2.57914E+005   -2.99258E+005   -1.86231E+005   -1.80089E+005   -4.07421E+005   -1.49226E+003   -3.16253E+004    1.23044E+005
            5588    2.86901E+005   -1.36449E+005   -4.46212E+005   -1.89607E+005   -4.46212E+005    3.09763E+005    2.57423E+005   -2.75493E+005   -1.89518E+005   -1.76004E+005   -4.06747E+005   -1.88914E+003   -2.66728E+004    9.97672E+004
            5589    3.57213E+005   -1.01605E+005   -4.85602E+005   -1.63178E+005   -4.85602E+005    3.83997E+005    2.50128E+005   -3.44969E+005   -1.61721E+005   -1.46524E+005   -4.42139E+005   -7.46720E+003   -7.49092E+003    1.21297E+005
            5590    3.38715E+005   -1.20827E+005   -4.85452E+005   -1.80606E+005   -4.85452E+005    3.64624E+005    2.62295E+005   -3.26529E+005   -1.79222E+005   -1.55386E+005   -4.52277E+005   -7.32727E+003   -7.44946E+003    1.04506E+005
            5591    2.94105E+005   -1.57809E+005   -4.69874E+005   -1.97829E+005   -4.69874E+005    3.12065E+005    2.75170E+005   -2.87883E+005   -1.97688E+005   -1.76047E+005   -4.51776E+005   -1.16584E+004    1.65635E+004    7.00932E+004
            5592    3.45250E+005   -1.16575E+005   -4.90432E+005   -1.83623E+005   -4.90432E+005    3.73857E+005    2.63543E+005   -3.30122E+005   -1.83471E+005   -1.37618E+005   -4.69541E+005   -1.57726E+004    1.95122E+004    8.21661E+004
            5593    1.06672E+005    5.85701E+004   -6.45254E+004   -6.79429E+003   -6.45254E+004    1.23095E+005    4.24988E+003    5.06664E+004   -6.86523E+003   -5.76669E+004    5.17824E+004   -2.13026E+003    1.27129E+001    2.80807E+004
            5594    8.67075E+004    5.85433E+004    5.85433E+004    6.67752E+002   -4.11475E+004    9.96909E+004   -6.02118E+003    5.63621E+004    5.00823E+002   -4.09073E+004    5.84701E+004   -2.67879E+003    7.37893E+002    2.55314E+003
            5595    7.57814E+004    6.36416E+004    6.36416E+004    8.06557E+003   -2.26810E+004    8.63226E+004   -1.63420E+004    5.90816E+004    7.76990E+003   -2.05995E+004    6.18557E+004   -3.37047E+003    1.00906E+003   -1.21272E+004
            5596    6.53707E+004    6.44073E+004    6.44073E+004    1.30883E+004   -9.19063E+003    7.35980E+004   -2.27683E+004    5.58172E+004    1.25670E+004   -4.20623E+003    5.99442E+004   -4.07064E+003    1.22147E+003   -1.73064E+004
            5597    7.41132E+004    7.94759E+004    7.94759E+004    1.69646E+004   -2.39620E+003    8.18721E+004   -3.13481E+004    6.80662E+004    1.62944E+004   -5.13680E+002    7.82635E+004   -3.70946E+003    7.24910E+002   -9.75790E+003
            5598    9.35696E+004    1.04045E+005    1.04045E+005    2.25958E+004    1.83981E+003    1.02205E+005   -4.28268E+004    8.81640E+004    2.25306E+004    1.98960E+003    1.03960E+005   -1.18372E+003    3.10973E+002   -2.91259E+003
            5599    7.97936E+004    8.02210E+004    8.02210E+004    1.42754E+004   -8.47803E+003    8.86990E+004   -2.86728E+004    7.19338E+004    1.37195E+004   -7.30528E+003    7.96041E+004   -3.51725E+003   -1.11170E+002   -7.34506E+003
            5600    1.01222E+005    1.09000E+005    1.09000E+005    2.16834E+004   -1.94703E+003    1.10947E+005   -4.29120E+004    9.47128E+004    2.16319E+004   -1.85875E+003    1.08963E+005   -1.19710E+003   -9.90242E+002   -1.69600E+003
            5601    8.56027E+004    7.70740E+004    7.70740E+004    1.05027E+004   -1.94889E+004    9.65629E+004   -2.26959E+004    7.22787E+004    1.01856E+004   -1.89278E+004    7.68300E+004   -3.10714E+003   -3.46667E+002    4.80189E+003
            5602    9.97129E+004    1.05904E+005    1.05904E+005    2.13439E+004   -4.05005E+003    1.09955E+005   -4.10661E+004    9.20063E+004    2.13113E+004   -3.83576E+003    1.05723E+005   -1.23424E+003   -1.33349E+003    4.17813E+003
            5603    9.27905E+004    7.22467E+004    7.22467E+004    4.91084E+003   -3.35980E+004    1.05845E+005   -1.45198E+004    7.11594E+004    4.83654E+003   -2.47191E+004    6.34421E+004   -2.73329E+003   -1.25103E+003    2.91130E+004
            5604    8.88035E+004    9.15862E+004    9.15862E+004    1.65991E+004   -6.47774E+003    9.80639E+004   -3.39025E+004    8.16386E+004    1.66611E+004   -4.95003E+003    8.99964E+004   -1.28077E+003   -2.61354E+003    1.19817E+004
            5605    6.77834E+004    6.72686E+004    6.72686E+004    1.05046E+004   -7.78214E+003    7.50507E+004   -2.33304E+004    6.18583E+004    1.06272E+004   -3.06816E+003    6.24321E+004   -1.30118E+003   -2.60071E+003    1.81514E+004
            5606    4.79677E+004    3.69632E+004    3.69632E+004   -1.34573E+003   -1.68355E+004    5.37986E+004   -6.26067E+003    4.17582E+004   -1.28176E+003   -3.12121E+003    2.31850E+004   -1.40885E+003   -1.26856E+003    2.34030E+004
            5607    1.02057E+005    6.99944E+004    6.99944E+004    1.23149E+003   -4.72693E+004    1.17264E+005   -7.98553E+003    6.78537E+004    1.27610E+003   -1.93406E+004    4.20211E+004   -2.66330E+003   -1.47841E+003    4.98754E+004
            5608    1.07203E+005    6.52477E+004    6.52477E+004   -2.99214E+003   -5.83146E+004    1.23562E+005   -1.31365E+003    6.05142E+004   -2.95603E+003   -7.78749E+003    1.46845E+004   -3.10545E+003   -8.05006E+002    6.06680E+004
            5609    1.49009E+005    8.62153E+004    8.62153E+004   -1.86256E+003   -8.58296E+004    1.72045E+005    4.92300E+002    5.15360E+004   -1.84389E+003   -1.12484E+004    1.16154E+004   -3.09289E+003   -5.01723E+002    8.52021E+004
            5610    1.83648E+005    1.02060E+005   -1.09990E+005   -2.34817E+003   -1.09990E+005    2.12050E+005    3.42602E+003   -5.46888E+004   -2.33865E+003   -1.63168E+004    8.37740E+003   -2.24119E+003   -3.37625E+002    1.05279E+005
            5611    2.13636E+005    1.17808E+005   -1.28848E+005   -2.21945E+003   -1.28848E+005    2.46657E+005    4.41991E+003   -7.67325E+004   -2.21497E+003   -1.80965E+004    7.05176E+003   -1.18861E+003   -2.74172E+002    1.22679E+005
            5612    2.40354E+005    1.32948E+005   -1.44556E+005   -2.11148E+003   -1.44556E+005    2.77504E+005    4.57311E+003   -8.61654E+004   -2.10999E+003   -1.65850E+004    4.97566E+003   -3.86153E+002   -2.69629E+002    1.38332E+005
            5613    1.42756E+005    7.94458E+004   -8.53698E+004   -5.41390E+003   -8.53698E+004    1.64816E+005    3.77932E+003    5.31142E+004   -5.39064E+003   -4.07128E+004    3.47655E+004   -2.35503E+003   -1.00080E+003    7.32141E+004
            5614    1.84808E+005    9.41359E+004   -1.19240E+005   -9.87670E+003   -1.19240E+005    2.13376E+005    1.16602E+004   -6.49537E+004   -9.85712E+003   -5.42947E+004    2.91711E+004   -1.33509E+003   -9.59036E+002    9.81728E+004
            5615    2.19617E+005    1.09580E+005   -1.43942E+005   -1.19968E+004   -1.43942E+005    2.53522E+005    1.54528E+004   -9.08375E+004   -1.19848E+004   -5.79409E+004    2.35673E+004   -4.81857E+002   -1.18305E+003    1.20024E+005
            5616    2.48884E+005    1.26232E+005   -1.61080E+005   -1.17632E+004   -1.61080E+005    2.87312E+005    1.55372E+004   -1.01681E+005   -1.17620E+004   -5.51561E+004    2.03063E+004    1.23374E+002   -1.24492E+003    1.38607E+005
            5617    2.66845E+005    1.19423E+005   -1.88501E+005   -2.48738E+004   -1.88501E+005    3.07924E+005    3.13173E+004   -1.27262E+005   -2.48786E+004   -1.12871E+005    4.37974E+004    6.52827E+002   -8.40564E+002    1.32540E+005
            5618    2.19466E+005    9.23235E+004   -1.60872E+005   -2.50838E+004   -1.60872E+005    2.53196E+005    3.12108E+004   -1.09831E+005   -2.50847E+004   -1.12799E+005    4.42514E+004    2.89749E+002   -4.65959E+002    9.93001E+004
            5619    1.75899E+005    7.62138E+004   -1.26796E+005   -1.97374E+004   -1.26796E+005    2.03010E+005    2.34399E+004   -8.01467E+004   -1.97368E+004   -9.65442E+004    4.59613E+004   -3.85813E+002   -2.25510E+002    7.22918E+004
            5620    1.33063E+005    6.67907E+004   -8.68578E+004   -1.00986E+004   -8.68578E+004    1.53648E+005    1.00552E+004    1.51185E+004   -1.01214E+004   -7.04280E+004    5.03836E+004   -1.45764E+003    4.37769E+001    4.74444E+004
            5621    9.03609E+004    9.85892E+004    9.85892E+004    1.89980E+004    3.63962E+002    9.82252E+004   -3.93170E+004    8.58770E+004    1.89316E+004    4.62422E+002    9.85570E+004   -1.23126E+003   -1.18964E+003   -1.20550E+003
            5622    6.72204E+004    7.59522E+004    7.59522E+004    1.70753E+004    2.71048E+003    7.32417E+004   -3.19127E+004    6.36281E+004    1.58622E+004    4.17757E+003    7.56982E+004   -3.97448E+003   -4.78345E+002   -4.26100E+003
            5623    5.13806E+004    5.70195E+004    5.70195E+004    1.39975E+004    1.27787E+002    5.68917E+004   -2.37149E+004    4.68836E+004    1.25778E+004    6.22828E+003    5.23387E+004   -4.69101E+003    6.08192E+002   -1.52658E+004
            5624    8.81307E+004    9.96169E+004    9.96169E+004    2.25119E+004    3.54800E+003    9.60689E+004   -4.18923E+004    8.33525E+004    2.24143E+004    3.69688E+003    9.95656E+004   -1.40995E+003   -6.30182E+002    2.09085E+003
            5625    6.68734E+004    7.62253E+004    7.62253E+004    1.86094E+004    2.89367E+003    7.33316E+004   -3.25761E+004    6.25126E+004    1.74050E+004    4.32303E+003    7.60004E+004   -4.21222E+003   -3.07798E+002    3.97619E+003
            5626    3.33235E+004    4.52195E+004    4.52195E+004    1.85227E+004    7.87286E+003    3.73466E+004   -2.38717E+004    2.91082E+004    1.26183E+004    1.38884E+004    4.51083E+004   -5.31175E+003    1.71589E+002   -1.80482E+003
            5627    1.01173E+005    1.09884E+005    1.09884E+005    2.11935E+004   -3.12686E+002    1.10197E+005   -4.35883E+004    9.58255E+004    2.13805E+004    4.92914E+001    1.09335E+005   -1.61182E+003   -4.85001E+003    5.48832E+003
            5628    7.78151E+004    8.69739E+004    8.69739E+004    1.90466E+004    2.07300E+003    8.49009E+004   -3.60312E+004    7.34748E+004    1.81852E+004    6.27270E+003    8.36355E+004   -5.06779E+003   -3.60491E+003    1.56400E+004
            5629    4.48725E+004    5.35215E+004    5.35215E+004    1.50927E+004    4.20801E+003    4.93135E+004   -2.42741E+004    4.17443E+004    1.18590E+004    1.69737E+004    4.39895E+004   -6.52132E+003   -1.46664E+003    1.81228E+004
            5630    2.47074E+005    1.48545E+005    1.48545E+005    2.28390E+003   -1.36720E+005    2.85266E+005   -4.70303E+003    8.72569E+004    2.28287E+003    1.71250E+004   -5.29876E+003   -2.58824E+002    2.76682E+002    1.42191E+005
            5631    2.56864E+005    1.65339E+005    1.65339E+005    1.15169E+004   -1.31192E+005    2.96531E+005   -1.52212E+004    1.03202E+005    1.15173E+004    5.44960E+004   -2.03497E+004    2.05595E+002    1.19598E+003    1.43460E+005
            5632    2.71410E+005    1.90793E+005    1.90793E+005    2.44632E+004   -1.22403E+005    3.13196E+005   -3.09511E+004    1.29005E+005    2.44683E+004    1.11960E+005   -4.35747E+004    6.84459E+002    7.84825E+002    1.35920E+005
            5633    2.69405E+005    1.59988E+005    1.59988E+005    1.67658E+003   -1.51078E+005    3.11066E+005   -3.52886E+003    8.45714E+004    1.67686E+003    1.27209E+004   -3.81119E+003    1.09534E+002    2.17440E+002    1.55313E+005
            5634    2.83952E+005    1.77151E+005    1.77151E+005    8.90213E+003   -1.50690E+005    3.27841E+005   -1.17877E+004    1.01532E+005    8.90649E+003    4.21434E+004   -1.56866E+004    4.61577E+002    9.51306E+002    1.61347E+005
            5635    3.13709E+005    2.07635E+005    2.07635E+005    1.88770E+004   -1.54495E+005    3.62130E+005   -2.40057E+004    1.31414E+005    1.88830E+004    9.02913E+004   -3.71571E+004    7.56244E+002    8.17703E+002    1.69478E+005
            5636    2.85420E+005    1.67211E+005    1.67211E+005    9.69774E+002   -1.62359E+005    3.29571E+005   -1.94056E+003    7.08649E+004    9.70099E+002    6.91537E+003   -2.06378E+003    2.14700E+002    1.24159E+002    1.64724E+005
            5637    3.03153E+005    1.81580E+005    1.81580E+005    4.37163E+003   -1.68461E+005    3.50042E+005   -5.83020E+003    8.44910E+004    4.37456E+003    2.14484E+004   -8.33239E+003    5.52914E+002    4.63973E+002    1.74385E+005
            5638    3.43718E+005    2.12850E+005    2.12850E+005    1.00828E+004   -1.84010E+005    3.96860E+005   -1.29740E+004    1.15399E+005    1.00866E+004    5.01393E+004   -2.13038E+004    7.41258E+002    4.84391E+002    1.95186E+005
            5639    2.90175E+005    1.67149E+005   -1.67916E+005   -1.98289E+002   -1.67916E+005    3.35065E+005    3.21664E+002   -3.60235E+004   -1.98349E+002   -1.21211E+003    4.45465E+002    2.37884E+002   -2.07148E+001    1.67530E+005
            5640    3.09093E+005    1.77674E+005   -1.79236E+005   -4.81171E+002   -1.79236E+005    3.56910E+005    6.81257E+002   -4.41437E+004   -4.81419E+002   -2.80902E+003    1.24667E+003    5.69453E+002   -3.60935E+001    1.78442E+005
            5641    3.54439E+005    2.03960E+005   -2.05310E+005   -4.10059E+002   -2.05310E+005    4.09270E+005    5.86699E+002   -4.63939E+004   -4.10238E+002   -2.29417E+003    9.44312E+002    7.09162E+002   -2.33965E+001    2.04628E+005
            5642    2.81868E+005    1.59941E+005   -1.65526E+005   -1.06528E+003   -1.65526E+005    3.25467E+005    2.21653E+003   -7.43850E+004   -1.06565E+003   -8.13681E+003    2.55285E+003    2.08898E+002   -1.44185E+002    1.62646E+005
            5643    2.99045E+005    1.64263E+005   -1.81030E+005   -5.61899E+003   -1.81030E+005    3.45293E+005    7.46220E+003   -9.05183E+004   -5.62267E+003   -2.72202E+004    1.04563E+004    5.53732E+002   -5.90628E+002    1.71614E+005
            5644    3.41846E+005    1.82159E+005   -2.12537E+005   -1.07399E+004   -2.12537E+005    3.94696E+005    1.37059E+004   -1.15961E+005   -1.07442E+004   -5.32687E+004    2.28953E+004    7.43850E+002   -5.60878E+002    1.93637E+005
            5645    2.63477E+005    1.47168E+005   -1.57048E+005   -1.88404E+003   -1.57048E+005    3.04216E+005    3.92154E+003   -8.60146E+004   -1.88419E+003   -1.41851E+004    4.30471E+003    5.69888E+001   -2.39718E+002    1.51827E+005
            5646    2.76932E+005    1.45842E+005   -1.73886E+005   -9.34120E+003   -1.73886E+005    3.19728E+005    1.24619E+004   -1.02490E+005   -9.34529E+003   -4.46025E+004    1.65621E+004    4.33069E+002   -9.86643E+002    1.56908E+005
            5647    3.10111E+005    1.51394E+005   -2.06568E+005   -1.94836E+004   -2.06568E+005    3.57963E+005    2.48857E+004   -1.32680E+005   -1.94896E+004   -9.31474E+004    3.79799E+004    7.65873E+002   -8.25405E+002    1.66537E+005
            5648    2.08007E+005    1.82640E+005    1.82640E+005    3.06364E+004   -5.44149E+004    2.37055E+005   -5.29540E+004    1.61281E+005    3.05681E+004   -1.41411E+004    1.42435E+005   -1.51297E+004   -8.21683E+003    8.72988E+004
            5649    1.72092E+005    1.74043E+005    1.74043E+005    3.34556E+004   -1.78730E+004    1.91916E+005   -6.32086E+004    1.53398E+005    3.29601E+004   -8.64511E+003    1.65311E+005   -1.08270E+004   -9.80293E+003    3.75122E+004
            5650    1.78214E+005    1.97517E+005    1.97517E+005    3.99018E+004    4.13062E+003    1.93387E+005   -8.05166E+004    1.69853E+005    4.05932E+004    5.08100E+003    1.95876E+005   -3.51913E+003   -1.17459E+004    1.18479E+004
            5651    1.45750E+005    1.29830E+005    1.29830E+005    2.04742E+004   -3.56363E+004    1.65467E+005   -3.82227E+004    1.17474E+005    2.04920E+004    2.68959E+003    9.14866E+004   -1.21776E+004   -5.99413E+003    6.84823E+004
            5652    1.35523E+005    1.39896E+005    1.39896E+005    2.66909E+004   -1.02743E+004    1.50170E+005   -5.21041E+004    1.23394E+005    2.70056E+004    4.77622E+002    1.28829E+005   -8.41575E+003   -9.70471E+003    3.69614E+004
            5653    1.51065E+005    1.62475E+005    1.62475E+005    3.08488E+004   -2.46631E+003    1.64941E+005   -6.36192E+004    1.42443E+005    3.18935E+004   -1.58236E+003    1.60546E+005   -2.57206E+003   -1.20182E+004    1.13784E+004
            5654    9.19263E+004    9.01846E+004    9.01846E+004    1.75050E+004   -1.31530E+004    1.03338E+005   -3.15122E+004    7.91340E+004    1.69883E+004    1.71860E+004    6.03624E+004   -8.73087E+003   -2.70335E+003    4.59241E+004
            5655    1.01497E+005    1.08634E+005    1.08634E+005    2.43211E+004   -4.02235E+003    1.12656E+005   -4.29775E+004    9.19415E+004    2.36942E+004    3.67011E+003    1.01568E+005   -6.40500E+003   -4.08290E+003    2.64823E+004
            5656    1.18172E+005    1.33341E+005    1.33341E+005    3.08369E+004    4.08746E+003    1.29254E+005   -5.60886E+004    1.11050E+005    3.09661E+004    4.94873E+003    1.32351E+005   -2.20695E+003   -4.94883E+003    9.71266E+003
            5657    8.01118E+004    6.03100E+003   -8.22134E+004   -1.40579E+004   -8.22134E+004    8.82444E+004    3.00801E+004   -7.41203E+004   -1.41898E+004    4.17989E+003   -8.02303E+004   -1.03246E+003    3.06277E+003    1.25781E+004
            5658    9.44388E+004    1.93519E+003   -1.01812E+005   -2.08513E+004   -1.01812E+005    1.03747E+005    4.02427E+004   -8.79287E+004   -2.08836E+004    1.40885E+003   -1.01253E+005   -1.00924E+003    2.21607E+003    7.14098E+003
            5659    1.05673E+005    3.48193E+003   -1.12708E+005   -2.23371E+004   -1.12708E+005    1.16190E+005    4.38544E+004   -9.81930E+004   -2.23320E+004    3.40264E+003   -1.12634E+005   -1.02377E+003    1.70937E+003    2.18631E+003
            5660    1.03166E+005   -8.72128E+002   -1.13912E+005   -2.48371E+004   -1.13912E+005    1.13040E+005    4.65404E+004   -9.66014E+004   -2.47965E+004   -9.25637E+002   -1.13899E+005   -9.89180E+002    2.20354E+002   -1.18472E+003
            5661    1.00966E+005    2.03475E+003   -1.08516E+005   -2.11780E+004   -1.08516E+005    1.10551E+005    4.25532E+004   -9.46789E+004   -2.11402E+004    1.95600E+003   -1.08475E+005   -9.76613E+002    6.31561E+002   -2.01154E+003
            5662    8.44814E+004    2.32332E+004   -7.22741E+004   -7.31925E+003   -7.22741E+004    9.55072E+004    1.87867E+004   -7.03346E+004   -7.36863E+003    1.05006E+004   -5.94921E+004   -2.44537E+003    2.09471E+003    3.23441E+004
            5663    8.60240E+004    1.60729E+004   -8.03080E+004   -1.13048E+004   -8.03080E+004    9.63809E+004    2.51800E+004   -7.52430E+004   -1.11972E+004    1.25540E+004   -7.68967E+004   -2.42452E+003    1.50978E+003    1.76510E+004
            5664    8.74315E+004    7.90081E+003   -8.88550E+004   -1.55170E+004   -8.88550E+004    9.67558E+004    3.21571E+004   -7.99064E+004   -1.52956E+004    7.46423E+003   -8.86398E+004   -2.43432E+003    1.18541E+003    4.30462E+003
            5665    8.92748E+004    5.73426E+003   -9.29158E+004   -1.76848E+004   -9.29158E+004    9.86500E+004    3.49554E+004   -8.19255E+004   -1.74435E+004    5.30390E+003   -9.27268E+004   -2.36638E+003    2.98232E+001   -4.30800E+003
            5666    8.45705E+004   -6.87185E+002   -9.28838E+004   -1.89107E+004   -9.28838E+004    9.21966E+004    3.74939E+004   -7.99718E+004   -1.86031E+004   -1.35639E+003   -9.25222E+004   -2.33059E+003    3.96858E+002   -5.74591E+003
            5667    1.07124E+005    5.15457E+004   -7.16560E+004   -4.81888E+002   -7.16560E+004    1.23202E+005    6.86403E+003   -6.88286E+004   -4.84055E+002    2.91127E+004   -4.92208E+004   -2.75657E+003    1.26524E+003    4.74495E+004
            5668    9.15052E+004    3.38272E+004   -7.06857E+004   -4.97638E+003   -7.06857E+004    1.04513E+005    1.39450E+004   -6.89778E+004   -4.82846E+003    2.72974E+004   -6.43038E+004   -2.89144E+003    7.20794E+002    2.49431E+004
            5669    8.38680E+004    2.13133E+004   -7.33773E+004   -8.45008E+003   -7.33773E+004    9.46906E+004    2.01713E+004   -7.04236E+004   -8.10428E+003    2.07463E+004   -7.31560E+004   -3.24809E+003    5.08529E+002    4.49286E+003
            5670    7.69743E+004    7.84634E+003   -7.78383E+004   -1.45349E+004   -7.78383E+004    8.56846E+004    2.81756E+004   -6.90647E+004   -1.39742E+004    6.73803E+003   -7.72907E+004   -3.57462E+003   -4.76747E+002   -6.74868E+003
            5671    7.45920E+004    4.13446E+003   -7.81150E+004   -1.48489E+004   -7.81150E+004    8.22494E+004    2.96098E+004   -6.88353E+004   -1.40114E+004    2.02334E+003   -7.68414E+004   -3.94475E+003   -4.27417E+001   -1.00844E+004
            5672    1.32485E+005    8.10024E+004    8.10024E+004    7.15797E+003   -7.19476E+004    1.52950E+005   -5.40426E+003   -5.17318E+004    7.16488E+003    5.51712E+004   -4.61233E+004   -1.92400E+003    6.26524E+002    5.72640E+004
            5673    1.04044E+005    5.68851E+004   -6.30479E+004    3.01931E+003   -6.30479E+004    1.19933E+005    1.04783E+003   -5.82077E+004    3.12198E+003    5.06874E+004   -5.69528E+004   -2.47015E+003    1.01024E+001    2.63181E+004
            5674    8.39566E+004    3.20958E+004   -6.39580E+004   -4.57548E+003   -6.39580E+004    9.60539E+004    1.21459E+004   -6.16461E+004   -4.28962E+003    3.16697E+004   -6.38178E+004   -3.21905E+003   -2.80219E+002    3.65689E+003
            5675    7.51895E+004    1.85101E+004   -6.68329E+004   -1.03449E+004   -6.68329E+004    8.53430E+004    1.95559E+004   -6.07123E+004   -9.91887E+003    1.65330E+004   -6.52818E+004   -3.81938E+003   -1.04476E+003   -1.12133E+004
            5676    6.31195E+004    3.69327E+003   -6.66055E+004   -1.47939E+004   -6.66055E+004    7.02988E+004    2.59020E+004   -5.65297E+004   -1.38413E+004    7.06120E+001   -6.39354E+004   -4.34766E+003   -5.34633E+002   -1.32494E+004
            5677    6.56825E+004    1.36591E+004   -6.06835E+004   -1.05091E+004   -6.06835E+004    7.43426E+004    1.91778E+004   -5.42317E+004   -1.00787E+004    7.08777E+003   -5.45426E+004   -4.06404E+003   -1.17805E+003   -2.02111E+004
            5678    7.62825E+004    2.79862E+004   -5.93728E+004   -5.93007E+003   -5.93728E+004    8.73590E+004    1.24389E+004   -5.50374E+004   -5.72495E+003    2.61124E+004   -5.77041E+004   -3.20253E+003   -1.36706E+003   -1.17232E+004
            5679    9.11879E+004    5.06223E+004   -5.45009E+004    3.26259E+003   -5.45009E+004    1.05123E+005    2.05352E+002   -5.05542E+004    3.36238E+003    5.05047E+004   -5.44831E+004   -2.32535E+003   -9.46789E+002    5.32487E+002
            5680    1.13118E+005    7.54712E+004    7.54712E+004    1.05846E+004   -5.51452E+004    1.30616E+005   -1.03035E+004   -2.52953E+004    1.06284E+004    7.16149E+004   -5.13327E+004   -1.63482E+003   -5.62204E+002    2.19801E+004
            5681    1.43400E+005    1.01871E+005    1.01871E+005    1.60806E+004   -6.36772E+004    1.65548E+005   -1.80914E+004    5.70792E+004    1.60905E+004    8.55831E+004   -4.73993E+004   -1.03646E+003    5.33719E+000    4.92890E+004
            5682    1.80387E+005    1.29667E+005    1.29667E+005    1.96083E+004   -7.85119E+004    2.08179E+005   -2.35878E+004    8.34849E+004    1.96081E+004    9.84535E+004   -4.72982E+004   -2.91552E+002    1.32864E+002    7.43212E+004
            5683    2.25232E+005    1.63758E+005    1.63758E+005    2.48464E+004   -9.61108E+004    2.59869E+005   -3.08312E+004    1.10883E+005    2.48479E+004    1.12395E+005   -4.47490E+004    3.68402E+002    5.56716E+002    1.03484E+005
            5684    2.26822E+005    1.48902E+005    1.48902E+005    1.25158E+004   -1.12934E+005    2.61836E+005   -1.61611E+004    9.44771E+004    1.25068E+004    6.03797E+004   -2.44033E+004   -2.95466E+002    1.20418E+003    1.23858E+005
            5685    2.21264E+005    1.33582E+005    1.33582E+005    2.37494E+003   -1.21881E+005    2.55462E+005   -4.69202E+003    7.99118E+004    2.37101E+003    1.84988E+004   -6.79374E+003   -9.59351E+002    2.91458E+002    1.27100E+005
            5686    1.90850E+005    1.24392E+005    1.24392E+005    1.08256E+004   -9.59481E+004    2.20340E+005   -1.30898E+004    7.18526E+004    1.08082E+004    5.81117E+004   -2.96506E+004   -1.08901E+003    9.71296E+002    1.01043E+005
            5687    1.93300E+005    1.15893E+005    1.15893E+005    2.27455E+003   -1.07299E+005    2.23191E+005   -3.62287E+003    6.09727E+004    2.26616E+003    1.72367E+004   -8.63425E+003   -1.88878E+003    3.38238E+002    1.10827E+005
            5688    1.64700E+005    9.66721E+004    9.66721E+004    2.20993E+003   -9.35053E+004    1.90177E+005   -1.79225E+003   -3.70805E+004    2.19449E+003    1.37422E+004   -1.05600E+004   -2.78001E+003    4.49939E+002    9.42672E+004
            5689    1.29591E+005    7.37726E+004   -7.58005E+004    2.82912E+003   -7.58005E+004    1.49573E+005   -2.67077E+002   -5.78291E+004    2.81054E+003    9.71259E+003   -1.17219E+004   -3.26119E+003    5.31377E+002    7.39413E+004
            5690    8.83067E+004    4.60331E+004   -5.55466E+004    2.93995E+003   -5.55466E+004    1.01580E+005    2.19120E+003   -5.62770E+004    2.90410E+003    3.36148E+003   -1.28392E+004   -2.94728E+003    7.69016E+002    5.00499E+004
            5691    3.87542E+004    1.35916E+004   -2.93647E+004    2.97442E+003   -2.93647E+004    4.29562E+004    4.26622E+003   -3.52529E+004    2.91331E+003    2.45658E+003   -1.81685E+004   -1.26398E+003    1.16625E+003    1.87794E+004
            5692    1.55239E+005    9.55036E+004    9.55036E+004    6.53476E+003   -8.37491E+004    1.79253E+005   -6.09644E+003   -3.62242E+004    6.51637E+003    4.25904E+004   -3.08175E+004   -2.07089E+003    8.35050E+002    8.17357E+004
            5693    1.20399E+005    6.37366E+004   -7.50855E+004    8.27048E+002   -7.50855E+004    1.38822E+005    3.50729E+003   -6.55486E+004    7.96240E+002    2.05470E+004   -3.18652E+004   -2.88198E+003    1.06962E+003    6.42019E+004
            5694    8.73363E+004    3.57403E+004   -6.41540E+004   -2.22861E+003   -6.41540E+004    9.98943E+004    1.02141E+004   -6.44107E+004   -2.31547E+003    9.17384E+003   -3.75007E+004   -2.55359E+003    1.76825E+003    4.40622E+004
            5695    5.64008E+004    5.17881E+003   -5.66244E+004   -7.93743E+003   -5.66244E+004    6.18032E+004    1.97943E+004   -5.28032E+004   -8.09384E+003    5.34060E+002   -5.18233E+004   -1.07970E+003    2.62652E+003    1.62569E+004
            5696    2.66586E+005    3.02195E+005    3.02195E+005    4.90164E+004    2.39696E+004    2.78225E+005   -1.25060E+005    2.63919E+005    4.90373E+004    2.68485E+004    2.99295E+005   -3.14582E+002    3.09029E+003    2.80765E+004
            5697    2.44949E+005    2.56938E+005    2.56938E+005    3.03988E+004   -2.99454E+003    2.59932E+005   -9.47807E+004    2.39747E+005    3.07127E+004   -2.63980E+003    2.56269E+005   -2.26574E+003   -9.79850E+003    7.86346E+003
            5698    2.26065E+005    2.45919E+005    2.45919E+005    3.47740E+004    7.42243E+003    2.38497E+005   -9.60385E+004    2.22297E+005    3.54150E+004    8.04234E+003    2.44658E+005   -3.68476E+003   -1.45743E+004    7.48398E+003
            5699    2.07667E+005    2.19201E+005    2.19201E+005    3.39213E+004   -5.26847E+003    2.24470E+005   -8.26180E+004    1.99091E+005    3.56303E+004   -4.78811E+003    2.17012E+005   -3.44879E+003   -1.85916E+004    7.93394E+003
            5700    3.10294E+005    3.55288E+005    3.55288E+005    8.11948E+004    1.83993E+004    3.36889E+005   -1.51627E+005    2.95486E+005    8.07820E+004    2.94011E+004    3.44699E+005   -6.30835E+003   -3.69857E+003    5.85072E+004
            5701    2.72423E+005    3.00386E+005    3.00386E+005    6.47558E+004    2.09136E+003    2.98295E+005   -1.22411E+005    2.55441E+005    6.42025E+004    9.78101E+003    2.93250E+005   -1.07418E+004   -1.17160E+004    4.30765E+004
            5702    2.42385E+005    2.49037E+005    2.49037E+005    4.40994E+004   -1.85104E+004    2.67547E+005   -9.15419E+004    2.23078E+005    4.29228E+004   -1.36373E+004    2.45340E+005   -1.28635E+004   -1.30665E+004    2.65903E+004
            5703    2.06533E+005    2.09888E+005    2.09888E+005    3.81300E+004   -1.92746E+004    2.29163E+005   -7.62479E+004    1.87285E+005    3.83199E+004   -1.15437E+004    2.01968E+005   -1.23098E+004   -1.57900E+004    3.66351E+004
            5704    2.66469E+005    2.34754E+005    2.34754E+005    4.11274E+004   -6.91522E+004    3.03906E+005   -6.89098E+004    2.04782E+005    4.12582E+004   -3.81288E+004    2.03600E+005   -1.68497E+004   -1.22348E+004    8.97407E+004
            5705    3.21945E+005    3.07943E+005    3.07943E+005    6.65832E+004   -5.76000E+004    3.65543E+005   -1.05642E+005    2.59195E+005    6.65724E+004   -3.15378E+004    2.81891E+005   -1.62763E+004   -1.32412E+004    9.16791E+004
            5706    3.47654E+005    3.62038E+005    3.62038E+005    9.32951E+004   -3.05888E+004    3.92627E+005   -1.41581E+005    2.91394E+005    9.32217E+004   -1.11761E+004    3.42699E+005   -1.38006E+004   -1.25294E+004    8.29419E+004
            5707    3.92889E+005    4.47675E+005    4.47675E+005    1.31195E+005    7.93483E+003    4.39740E+005   -1.95602E+005    3.45191E+005    1.31184E+005    3.26088E+004    4.23012E+005   -1.14533E+004   -1.11632E+004    9.99108E+004
            5708    3.60501E+005    4.71024E+005    4.71024E+005    1.63916E+005    7.41089E+004    3.96915E+005   -2.36350E+005    3.33913E+005    1.63599E+005    9.97354E+004    4.45714E+005   -1.03370E+004   -8.47700E+003    9.61611E+004
            5709    3.37878E+005    4.92444E+005    4.92444E+005    1.95727E+005    1.24697E+005    3.67746E+005   -2.70956E+005    3.20428E+005    1.95389E+005    1.43458E+005    4.74021E+005   -7.75915E+003   -6.20534E+003    7.97154E+004
            5710    3.00416E+005    4.90240E+005    4.90240E+005    2.15995E+005    1.69156E+005    3.21084E+005   -2.91797E+005    2.92031E+005    2.15626E+005    1.89330E+005    4.70434E+005   -5.52970E+003   -3.28801E+003    7.70416E+004
            5711    2.53040E+005    4.45628E+005    4.45628E+005    2.08373E+005    1.79313E+005    2.66316E+005   -2.77772E+005    2.49244E+005    2.07962E+005    2.04973E+005    4.20380E+005   -3.84408E+003   -5.62567E+002    7.79293E+004
            5712    2.91110E+005    4.39105E+005    4.39105E+005    1.85035E+005    1.21462E+005    3.17643E+005   -2.48534E+005    2.74833E+005    1.84599E+005    1.49000E+005    4.12004E+005   -4.32105E+003    4.60123E+003    8.85999E+004
            5713    2.50577E+005    4.22845E+005    4.22845E+005    1.96234E+005    1.53736E+005    2.69109E+005   -2.57605E+005    2.42269E+005    1.96021E+005    1.76840E+005    3.99954E+005   -2.04653E+003    8.99193E+003    7.45331E+004
            5714    3.26782E+005    4.76366E+005    4.76366E+005    1.91117E+005    1.19824E+005    3.56542E+005   -2.62436E+005    3.08548E+005    1.90638E+005    1.54407E+005    4.42261E+005   -4.64315E+003    5.50240E+003    1.04702E+005
            5715    2.94991E+005    4.68928E+005    4.68928E+005    2.07301E+005    1.49214E+005    3.19714E+005   -2.75147E+005    2.81690E+005    2.07102E+005    1.89007E+005    4.29332E+005   -1.93844E+003    1.34575E+004    1.04452E+005
            5716    3.56260E+005    4.92903E+005    4.92903E+005    1.83406E+005    1.03464E+005    3.89439E+005   -2.59924E+005    3.35176E+005    1.82890E+005    1.49645E+005    4.47239E+005   -4.93633E+003    6.06102E+003    1.25118E+005
            5717    3.23168E+005    4.72111E+005    4.72111E+005    1.93633E+005    1.17755E+005    3.54356E+005   -2.61166E+005    3.02135E+005    1.93393E+005    1.83434E+005    4.06672E+005   -1.57513E+003    1.85296E+004    1.36246E+005
            5718    3.43581E+005    4.46989E+005    4.46989E+005    1.47432E+005    7.19398E+004    3.75050E+005   -2.22121E+005    3.24123E+005    1.46917E+005    1.25138E+005    3.94307E+005   -4.29113E+003    7.36470E+003    1.30085E+005
            5719    3.32265E+005    4.67856E+005    4.67856E+005    1.82797E+005    1.02939E+005    3.64917E+005   -2.51197E+005    3.09548E+005    1.82761E+005    1.76792E+005    3.94040E+005   -5.96695E+002    2.34934E+004    1.44693E+005
            5720    3.57562E+005    4.63613E+005    4.63613E+005    1.66949E+005    6.65981E+004    3.97015E+005   -2.32387E+005    3.23533E+005    1.67064E+005    1.70003E+005    3.60094E+005    6.07837E+002    2.65566E+004    1.72271E+005
            5721    4.45554E+005    5.67585E+005    5.67585E+005    2.01242E+005    7.15836E+004    4.96001E+005   -2.80137E+005    3.99687E+005    2.03031E+005    1.22341E+005    5.15038E+005    1.55968E+000    3.25939E+004    1.48656E+005
            5722    3.90394E+005    4.66903E+005    4.66903E+005    1.34697E+005    3.69118E+004    4.29991E+005   -2.12837E+005    3.61267E+005    1.34673E+005    9.09184E+004    4.12921E+005   -1.95293E+003    1.31451E+004    1.41853E+005
            5723    3.32620E+005    3.54402E+005    3.54402E+005    6.96438E+004   -1.11836E+004    3.65585E+005   -1.37621E+005    3.09345E+005    7.12373E+004   -6.97729E+003    3.48602E+005   -1.29080E+002    2.18713E+004    3.85520E+004
            5724    4.94347E+004    3.00187E+002   -5.46835E+004   -1.39109E+004   -5.46835E+004    5.49837E+004    2.27648E+004   -4.44790E+004   -1.26760E+004   -6.59381E+003   -4.90245E+004   -4.83056E+003   -1.07109E+003   -1.62384E+004
            5725    5.43798E+004   -3.58636E+002   -6.06949E+004   -1.54664E+004   -6.06949E+004    6.03362E+004    2.55066E+004   -4.93166E+004   -1.41067E+004   -3.57227E+003   -5.88409E+004   -4.63912E+003   -8.90469E+002   -1.01135E+004
            5726    6.49882E+004   -4.65940E+003   -7.55660E+004   -1.88371E+004   -7.55660E+004    7.09066E+004    3.30208E+004   -6.13622E+004   -1.74831E+004   -6.38829E+003   -7.51911E+004   -4.24000E+003   -5.91388E+002   -4.99706E+003
            5727    8.23972E+004    5.47718E+002   -8.97649E+004   -1.86850E+004   -8.97649E+004    9.03126E+004    3.59674E+004   -7.71005E+004   -1.84041E+004    1.65439E+002   -8.96635E+004   -2.32072E+003   -2.16185E+002   -3.00125E+003
            5728    9.17582E+004   -2.54945E+003   -1.02754E+005   -2.28376E+004   -1.02754E+005    1.00204E+005    4.27137E+004   -8.64931E+004   -2.27948E+004   -2.59816E+003   -1.02748E+005   -9.36884E+002   -1.73889E+002   -7.40281E+002
            5729    2.77810E+004   -6.12953E+003   -3.77986E+004   -1.75386E+004   -3.77986E+004    3.16691E+004    2.04889E+004   -2.14722E+004   -9.99025E+003   -1.52027E+004   -3.62738E+004   -5.55235E+003    1.67140E+000   -5.72437E+003
            5730    4.52531E+004   -7.70110E+003   -5.73151E+004   -1.83067E+004   -5.73151E+004    4.96140E+004    2.77743E+004   -4.23192E+004   -1.45174E+004   -1.17472E+004   -5.70582E+004   -5.17369E+003    9.47239E+002    3.14173E+003
            5731    6.64054E+004   -1.75256E+003   -7.41503E+004   -1.60744E+004   -7.41503E+004    7.23977E+004    3.06591E+004   -6.27879E+004   -1.43913E+004   -3.61455E+003   -7.39713E+004   -4.73851E+003    1.48647E+003    3.03820E+003
            5732    8.03141E+004   -3.83494E+003   -9.06467E+004   -1.89896E+004   -9.06467E+004    8.68118E+004    3.78238E+004   -7.69981E+004   -1.86214E+004   -4.39876E+003   -9.04511E+004   -2.59594E+003    1.99639E+003    3.40529E+003
            5733    9.63727E+004    2.32939E+003   -1.03074E+005   -1.94653E+004   -1.03074E+005    1.05404E+005    4.00700E+004   -9.05754E+004   -1.94919E+004    2.27359E+003   -1.02992E+005   -9.97059E+002    2.40654E+003    1.14745E+003
            5734    4.47127E+004   -3.80427E+003   -5.31881E+004   -1.54520E+004   -5.31881E+004    4.93839E+004    2.41481E+004   -4.10862E+004   -1.26623E+004   -2.16219E+004   -3.81602E+004   -6.81805E+003    6.46903E+002    2.12646E+004
            5735    5.82073E+004   -1.32508E+003   -6.59275E+004   -1.75645E+004   -6.59275E+004    6.46024E+004    2.82724E+004   -5.27382E+004   -1.56087E+004   -9.37096E+003   -5.98374E+004   -6.14673E+003    1.14592E+003    1.82558E+004
            5736    7.43141E+004   -4.78407E+003   -8.62522E+004   -2.21772E+004   -8.62522E+004    8.14681E+004    3.77378E+004   -6.95097E+004   -2.06550E+004   -9.94856E+003   -8.26099E+004   -5.60996E+003    1.80063E+003    1.63513E+004
            5737    9.23648E+004    9.82976E+002   -1.00568E+005   -2.15663E+004   -1.00568E+005    1.01551E+005    4.03839E+004   -8.58379E+004   -2.13190E+004   -3.52664E+002   -9.94800E+004   -3.00826E+003    2.43383E+003    9.98074E+003
            5738    1.01149E+005   -3.37456E+003   -1.14155E+005   -2.67199E+004   -1.14155E+005    1.10780E+005    4.80830E+004   -9.47984E+004   -2.67563E+004   -3.55600E+003   -1.13937E+005   -1.14426E+003    2.66644E+003    3.84956E+003
            5739    2.50264E+005   -1.78831E+005   -4.42314E+005   -2.07787E+005   -4.42314E+005    2.63483E+005    2.76311E+005   -2.46453E+005   -2.07412E+005   -2.05399E+005   -4.16122E+005   -3.61311E+003    3.56935E+002    7.87580E+004
            5740    2.78794E+005   -1.17013E+005   -4.21441E+005   -1.78569E+005   -4.21441E+005    3.04428E+005    2.39008E+005   -2.62844E+005   -1.78165E+005   -1.43846E+005   -3.95013E+005   -4.08978E+003   -4.32243E+003    8.55903E+004
            5741    2.38182E+005   -1.50464E+005   -4.05815E+005   -1.89666E+005   -4.05815E+005    2.55351E+005    2.48648E+005   -2.30756E+005   -1.89480E+005   -1.69308E+005   -3.87157E+005   -1.97474E+003   -7.91170E+003    6.59811E+004
            5742    2.15593E+005   -1.33593E+005   -3.64437E+005   -1.68307E+005   -3.64437E+005    2.30844E+005    2.22112E+005   -2.09167E+005   -1.68072E+005   -1.82144E+005   -3.16122E+005   -2.61418E+003   -1.14657E+003    9.38486E+004
            5743    2.14277E+005   -8.91637E+004   -3.24066E+005   -1.39309E+005   -3.24066E+005    2.34903E+005    1.84180E+005   -2.00427E+005   -1.38973E+005   -1.13162E+005   -3.00404E+005   -3.42278E+003   -2.96090E+003    7.06170E+004
            5744    1.69329E+005   -1.22024E+005   -3.01977E+005   -1.45781E+005   -3.01977E+005    1.79953E+005    1.89927E+005   -1.65518E+005   -1.45613E+005   -1.29676E+005   -2.94494E+005   -1.65565E+003   -4.37076E+003    3.56589E+004
            5745    2.06333E+005   -2.18951E+004   -2.54612E+005   -9.40331E+004   -2.54612E+005    2.32717E+005    1.23513E+005   -1.74372E+005   -9.39521E+004   -1.06885E+005   -1.69702E+005   -2.15880E+003   -1.17331E+003    1.11996E+005
            5746    1.37044E+005   -3.02479E+004   -1.83527E+005   -7.28267E+004   -1.83527E+005    1.53279E+005    9.55339E+004   -1.20760E+005   -7.25664E+004   -5.97372E+004   -1.54298E+005   -2.93124E+003   -1.56299E+003    6.01519E+004
            5747    8.43861E+004   -6.43526E+004   -1.53740E+005   -7.54539E+004   -1.53740E+005    8.93874E+004    9.78488E+004   -8.27194E+004   -7.52304E+004   -6.65694E+004   -1.51747E+005   -1.41186E+003   -1.79066E+003    1.30761E+004
            5748    2.06211E+005    1.27829E+005    1.27829E+005    6.06154E+003   -1.10261E+005    2.38091E+005   -7.87661E+003    7.02871E+004    6.05064E+003    6.27424E+003    1.13050E+004   -2.16679E+003    2.51525E+002    1.18999E+005
            5749    9.87960E+004    7.06787E+004    7.06787E+004    9.44807E+003   -4.32959E+004    1.13975E+005   -1.22769E+004    4.98592E+004    9.39977E+003    8.41182E+003    1.90192E+004   -2.76104E+003    2.64290E+002    5.66703E+004
            5750    1.63046E+004    2.54204E+004    2.54204E+004    1.17887E+004    7.35852E+003    1.80619E+004   -1.48559E+004    1.48574E+004    1.14101E+004    1.04444E+004    2.27131E+004   -1.23075E+003    2.84072E+002    6.36264E+003
            5751    2.06620E+005    2.67847E+005    2.67847E+005    1.03128E+005    3.60130E+004    2.31834E+005   -1.35663E+005    1.79519E+005    1.03028E+005    1.16833E+005    1.87128E+005   -2.21333E+003    1.37813E+003    1.10407E+005
            5752    1.52391E+005    2.16477E+005    2.16477E+005    8.97305E+004    4.73931E+004    1.69084E+005   -1.17867E+005    1.38202E+005    8.94374E+004    7.38278E+004    1.90335E+005   -3.04315E+003    1.84046E+003    6.10635E+004
            5753    1.06313E+005    1.95040E+005    1.95040E+005    9.60020E+004    8.27023E+004    1.12337E+005   -1.24581E+005    1.04417E+005    9.57941E+004    8.56681E+004    1.92282E+005   -1.46564E+003    2.40520E+003    1.72170E+004
            5754    2.21302E+005    3.76787E+005    3.76787E+005    1.74684E+005    1.40309E+005    2.36478E+005   -2.30593E+005    2.15172E+005    1.74423E+005    1.86893E+005    3.30463E+005   -2.67628E+003    1.32178E+003    9.37899E+004
            5755    2.26855E+005    3.46758E+005    3.46758E+005    1.49857E+005    9.86890E+004    2.48069E+005   -1.98435E+005    2.13284E+005    1.49499E+005    1.22370E+005    3.23435E+005   -3.52490E+003    3.42961E+003    7.23012E+004
            5756    1.88290E+005    3.34388E+005    3.34388E+005    1.60839E+005    1.34196E+005    2.00192E+005   -2.09808E+005    1.83977E+005    1.60670E+005    1.43679E+005    3.25075E+005   -1.72349E+003    5.23533E+003    4.18366E+004
            5757    1.87934E+005    5.91780E+003   -1.98897E+005   -3.43798E+004   -1.98897E+005    2.04814E+005    7.57862E+004   -1.77820E+005   -3.58993E+004    5.64798E+003   -1.97107E+005   -2.38547E+003    1.61295E+004    6.05042E+003
            5758    1.72804E+005    3.52841E+003   -1.84938E+005   -3.39472E+004   -1.84938E+005    1.88466E+005    7.17855E+004   -1.63281E+005   -3.48819E+004    3.18395E+002   -1.80793E+005   -6.22806E+003    1.42241E+004    2.21545E+004
            5759    1.76598E+005    2.25394E+004   -1.73955E+005   -2.84925E+004   -1.73955E+005    1.96495E+005    5.99695E+004   -1.58694E+005   -2.85807E+004    1.27703E+004   -1.64098E+005   -1.14113E+004    1.28299E+004    3.92592E+004
            5760    1.90781E+005    3.82322E+004   -1.77674E+005   -3.18287E+004   -1.77674E+005    2.15906E+005    5.70902E+004   -1.57674E+005   -3.21146E+004    1.37637E+004   -1.52920E+005   -1.34796E+004    1.08614E+004    6.64766E+004
            5761    2.23722E+005    7.20185E+004   -1.83894E+005   -2.53900E+004   -1.83894E+005    2.55913E+005    4.57552E+004   -1.64764E+005   -2.54676E+004    2.59409E+004   -1.37739E+005   -1.63176E+004    8.64241E+003    9.66253E+004
            5762    1.51164E+005   -3.54491E+003   -1.69079E+005   -3.83592E+004   -1.69079E+005    1.65534E+005    7.03277E+004   -1.41717E+005   -3.89295E+004   -3.95739E+003   -1.68096E+005   -1.96634E+003    9.04078E+003    7.51621E+003
            5763    1.43756E+005    6.88347E+003   -1.51858E+005   -3.04575E+004   -1.51858E+005    1.58742E+005    5.84775E+004   -1.32168E+005   -3.07067E+004    3.44896E+003   -1.48175E+005   -5.05541E+003    8.25734E+003    2.16563E+004
            5764    1.34472E+005    7.98351E+003   -1.41575E+005   -3.06462E+004   -1.41575E+005    1.49559E+005    5.47459E+004   -1.21012E+005   -3.00586E+004   -4.70904E+003   -1.29470E+005   -9.46773E+003    6.97576E+003    3.92532E+004
            5765    1.34350E+005    2.51274E+004   -1.26986E+005   -2.45451E+004   -1.26986E+005    1.52113E+005    4.21345E+004   -1.10664E+005   -2.41400E+004    1.65366E+003   -1.03917E+005   -1.07020E+004    5.51938E+003    5.33151E+004
            5766    1.58498E+005    4.28209E+004   -1.37893E+005   -2.24698E+004   -1.37893E+005    1.80714E+005    3.91808E+004   -1.22230E+005   -2.23213E+004   -6.50759E+003   -8.87134E+004   -1.27667E+004    4.62568E+003    7.92896E+004
            5767    1.28267E+005    3.64074E+003   -1.37044E+005   -2.65983E+004   -1.37044E+005    1.40684E+005    5.33338E+004   -1.19847E+005   -2.71411E+004    3.34396E+003   -1.36204E+005   -1.44588E+003    7.94982E+003    5.98908E+003
            5768    1.11774E+005   -1.39764E+003   -1.23134E+005   -2.51369E+004   -1.23134E+005    1.21736E+005    4.98894E+004   -1.05876E+005   -2.53954E+004   -4.51148E+003   -1.19761E+005   -3.87591E+003    7.03713E+003    1.81465E+004
            5769    1.02680E+005    6.60241E+003   -1.06684E+005   -1.97484E+004   -1.06684E+005    1.13287E+005    3.99435E+004   -9.46131E+004   -1.92903E+004   -1.54967E+003   -9.89905E+004   -7.09143E+003    6.04575E+003    2.70911E+004
            5770    9.41744E+004    8.59742E+003   -9.63859E+004   -1.93445E+004   -9.63859E+004    1.04983E+005    3.57110E+004   -8.40611E+004   -1.90352E+004   -1.03389E+004   -7.77589E+004   -8.01172E+003    4.66437E+003    3.90564E+004
            5771    9.03766E+004    1.89203E+004   -8.30051E+004   -1.26431E+004   -8.30051E+004    1.01925E+005    2.55760E+004   -7.64120E+004   -1.23355E+004   -1.62578E+004   -4.81346E+004   -9.36413E+003    2.80890E+003    4.73450E+004
            5772    3.76437E+005   -6.66813E+004   -4.83968E+005   -1.69927E+005   -4.83968E+005    4.17287E+005    2.40192E+005   -3.42345E+005   -1.69721E+005   -8.65440E+004   -4.64312E+005   -1.11489E+004    1.06000E+004    8.71587E+004
            5773    3.84945E+005   -1.20464E+004   -4.44576E+005   -1.39589E+005   -4.44576E+005    4.32529E+005    1.98737E+005   -3.32161E+005   -1.39551E+005   -3.37589E+004   -4.22901E+005   -1.33624E+004    1.28261E+004    9.25534E+004
            5774    3.92161E+005    3.19452E+004   -4.11973E+005   -1.12602E+005   -4.11973E+005    4.43919E+005    1.64210E+005   -3.23516E+005   -1.12505E+005    8.40285E+003   -3.88528E+005   -1.61279E+004    1.40120E+004    9.70225E+004
            5775    3.52473E+005    7.71804E+004   -3.24846E+005   -6.88954E+004   -3.24846E+005    4.02026E+005    1.05520E+005   -2.70591E+005   -6.90523E+004    4.85622E+004   -2.96071E+005   -1.78180E+004    1.46505E+004    1.00945E+005
            5776    2.99870E+005    8.00934E+004   -2.62686E+005   -4.88853E+004   -2.62686E+005    3.42779E+005    7.71592E+004   -2.23310E+005   -4.87885E+004    3.95938E+004   -2.22283E+005   -1.78661E+004    1.08869E+004    1.08571E+005
            5777    2.32341E+005    4.60807E+004   -2.17409E+005   -4.19319E+004   -2.17409E+005    2.63490E+005    7.10867E+004   -1.88967E+005   -4.13463E+004    2.92624E+004   -2.01176E+005   -1.56405E+004    1.11881E+004    6.07087E+004
            5778    2.12725E+005    1.60138E+004   -2.20092E+005   -4.33657E+004   -2.20092E+005    2.36105E+005    8.24812E+004   -1.92715E+005   -4.25553E+004    7.23915E+003   -2.12127E+005   -1.29012E+004    1.22099E+004    3.92739E+004
            5779    2.06747E+005    1.18859E+004   -2.14714E+005   -3.63484E+004   -2.14714E+005    2.26600E+005    7.97256E+004   -1.93470E+005   -3.66413E+004    1.00512E+004   -2.12587E+005   -7.00251E+003    1.33197E+004    1.54132E+004
            5780    2.04259E+005   -4.25438E+003   -2.23895E+005   -3.96415E+004   -2.23895E+005    2.19641E+005    8.92637E+004   -1.97185E+005   -4.06760E+004   -4.53772E+003   -2.22577E+005   -2.91903E+003    1.49401E+004    4.43501E+003
            5781    2.86357E+005    3.65152E+004   -2.86223E+005   -6.25621E+004   -2.86223E+005    3.22738E+005    1.04090E+005   -2.43045E+005   -6.28773E+004    2.02918E+004   -2.69684E+005   -1.54891E+004    1.64112E+004    6.72961E+004
            5782    2.48241E+005    1.92738E+004   -2.54773E+005   -4.49657E+004   -2.54773E+005    2.74046E+005    9.34882E+004   -2.28390E+005   -4.49113E+004    1.36612E+004   -2.49214E+005   -1.20615E+004    1.64905E+004    3.28343E+004
            5783    2.27555E+005    2.53175E+002   -2.45217E+005   -4.13048E+004   -2.45217E+005    2.45470E+005    9.54227E+004   -2.18771E+005   -4.19552E+004   -1.47418E+003   -2.42839E+005   -6.51237E+003    1.63217E+004    1.55983E+004
            5784    2.27073E+005    6.88681E+003   -2.35352E+005   -2.73277E+004   -2.35352E+005    2.42239E+005    8.52642E+004   -2.21162E+005   -2.87972E+004    6.68796E+003   -2.33684E+005   -2.64770E+003    1.84365E+004    2.11168E+003
            5785    3.11451E+005    1.37998E+004   -3.34313E+005   -8.20612E+004   -3.34313E+005    3.48113E+005    1.34192E+005   -2.75202E+005   -8.15030E+004   -7.90590E+002   -3.20281E+005   -1.46650E+004    1.27757E+004    6.59921E+004
            5786    2.85613E+005   -7.17343E+003   -3.18691E+005   -6.91656E+004   -3.18691E+005    3.11518E+005    1.31677E+005   -2.69846E+005   -6.85875E+004   -1.64905E+004   -3.09952E+005   -1.00539E+004    1.01510E+004    4.97222E+004
            5787    2.61679E+005    2.66048E+003   -2.79629E+005   -4.51548E+004   -2.79629E+005    2.82289E+005    1.07374E+005   -2.51567E+005   -4.50550E+004    1.28133E+003   -2.78349E+005   -5.04500E+003    8.58066E+003    1.62811E+004
            5788    2.35495E+005   -1.03818E+004   -2.55613E+005   -3.12406E+004   -2.55613E+005    2.45231E+005    9.90784E+004   -2.33403E+005   -3.14027E+004   -1.07422E+004   -2.55090E+005   -2.19151E+003    8.76299E+003    6.55193E+003
            5789    3.58339E+005   -1.62027E+004   -4.14575E+005   -1.18530E+005   -4.14575E+005    3.98372E+005    1.83102E+005   -3.22933E+005   -1.18535E+005   -4.12660E+004   -3.89506E+005   -1.19412E+004    1.20952E+004    9.52315E+004
            5790    3.04569E+005   -1.89127E+004   -3.50192E+005   -8.23118E+004   -3.50192E+005    3.31279E+005    1.50472E+005   -2.89159E+005   -8.21858E+004   -3.13217E+004   -3.37909E+005   -6.29450E+003    7.03039E+003    6.19323E+004
            5791    2.82909E+005   -1.87289E+004   -3.22759E+005   -6.72447E+004   -3.22759E+005    3.04030E+005    1.36244E+005   -2.73314E+005   -6.72175E+004   -2.52611E+004   -3.16254E+005   -2.42041E+003    3.22805E+003    4.38207E+004
            5792    2.59557E+005    5.00164E+003   -2.70590E+005   -3.07818E+004   -2.70590E+005    2.75592E+005    9.87902E+004   -2.53919E+005   -3.07694E+004    4.50719E+003   -2.70108E+005   -9.74178E+002    1.56414E+003    1.13872E+004
            5793    3.49864E+005   -6.23657E+004   -4.44264E+005   -1.39209E+005   -4.44264E+005    3.81898E+005    2.15279E+005   -3.30067E+005   -1.38727E+005   -9.82387E+004   -4.08872E+005   -8.66854E+003    4.34209E+003    1.10405E+005
            5794    3.67316E+005   -3.76115E+004   -4.37532E+005   -1.15224E+005   -4.37532E+005    3.99920E+005    1.96789E+005   -3.48143E+005   -1.15008E+005   -7.50435E+004   -4.00316E+005   -3.29982E+003   -3.71977E+003    1.16113E+005
            5795    3.32455E+005   -1.00106E+004   -3.71619E+005   -7.92066E+004   -3.71619E+005    3.61608E+005    1.53612E+005   -3.15637E+005   -7.93761E+004   -2.10095E+004   -3.60450E+005   -5.82485E+002   -8.41860E+003    6.19093E+004
            5796    2.85084E+005   -2.36096E+004   -3.24097E+005   -5.74355E+004   -3.24097E+005    3.00488E+005    1.35047E+005   -2.80516E+005   -5.80068E+004   -2.68717E+004   -3.20264E+005    1.75042E+002   -1.27958E+004    3.09187E+004
            5797    3.58176E+005    1.47539E+004   -3.82272E+005   -8.34175E+004   -3.82272E+005    3.97025E+005    1.50312E+005   -3.25785E+005   -8.60123E+004    1.03904E+004   -3.75313E+005    3.43318E+002   -2.82076E+004    4.09270E+004
            5798    4.75930E+005   -7.55458E+004   -6.06619E+005   -2.18690E+005   -6.06619E+005    5.31073E+005    3.00285E+005   -4.23276E+005   -2.20773E+005   -1.25110E+005   -5.54972E+005    9.10660E+001   -3.47790E+004    1.52828E+005
            5799    4.11727E+005   -2.67652E+004   -4.83362E+005   -1.40354E+005   -4.83362E+005    4.56597E+005    2.16827E+005   -3.73965E+005   -1.41140E+005   -8.13056E+004   -4.28036E+005    1.55178E+002   -2.22944E+004    1.47164E+005
            5800    3.70788E+005   -6.50880E+004   -4.78126E+005   -1.73969E+005   -4.78126E+005    4.13038E+005    2.39061E+005   -3.31858E+005   -1.73983E+005   -1.74819E+005   -3.68382E+005    1.09630E+002   -2.89026E+004    1.80137E+005
            5801    3.43116E+005   -6.12060E+004   -4.36337E+005   -1.38380E+005   -4.36337E+005    3.75131E+005    2.11974E+005   -3.22710E+005   -1.38174E+005   -1.25710E+005   -3.72039E+005   -1.61645E+003   -1.76323E+004    1.40268E+005
            5802    3.37087E+005   -9.20663E+004   -4.64200E+005   -1.79316E+005   -4.64200E+005    3.72134E+005    2.45194E+005   -3.10119E+005   -1.79385E+005   -1.73099E+005   -3.83098E+005   -2.82649E+002   -2.47909E+004    1.51619E+005
            5803    3.56338E+005   -8.54476E+004   -4.74801E+005   -1.64887E+005   -4.74801E+005    3.89353E+005    2.41712E+005   -3.35536E+005   -1.64293E+005   -1.39147E+005   -4.21696E+005   -4.47785E+003   -9.95857E+003    1.33239E+005
            5804    3.32626E+005   -1.03139E+005   -4.69053E+005   -1.85001E+005   -4.69053E+005    3.65914E+005    2.52398E+005   -3.08717E+005   -1.84889E+005   -1.79829E+005   -3.92474E+005   -7.59386E+002   -2.13007E+004    1.47320E+005
            5805    3.15177E+005   -1.31189E+005   -4.75043E+005   -1.99869E+005   -4.75043E+005    3.43854E+005    2.68700E+005   -2.97634E+005   -1.99572E+005   -1.87254E+005   -4.19273E+005   -1.94135E+003   -1.74020E+004    1.25552E+005
            5806    2.87685E+005   -1.46918E+005   -4.58794E+005   -2.03797E+005   -4.58794E+005    3.11876E+005    2.69836E+005   -2.74603E+005   -2.03561E+005   -1.84617E+005   -4.21330E+005   -2.13150E+003   -1.23274E+004    1.00641E+005
            5807    3.47227E+005   -1.02599E+005   -4.82169E+005   -1.80529E+005   -4.82169E+005    3.79570E+005    2.55099E+005   -3.26669E+005   -1.79899E+005   -1.47019E+005   -4.38379E+005   -5.65106E+003   -5.44253E+003    1.21092E+005
            5808    3.26600E+005   -1.20632E+005   -4.77439E+005   -1.93281E+005   -4.77439E+005    3.56807E+005    2.63784E+005   -3.07622E+005   -1.92784E+005   -1.54462E+005   -4.44106E+005   -4.91142E+003   -5.01317E+003    1.03693E+005
            5809    2.94760E+005   -1.68089E+005   -4.83005E+005   -2.13724E+005   -4.83005E+005    3.14916E+005    2.88272E+005   -2.86650E+005   -2.13322E+005   -1.86233E+005   -4.65263E+005   -5.57500E+003    3.26412E+003    7.24002E+004
            5810    3.45621E+005   -1.24061E+005   -5.01147E+005   -1.99429E+005   -5.01147E+005    3.77086E+005    2.74879E+005   -3.26355E+005   -1.99026E+005   -1.44225E+005   -4.81386E+005   -8.66917E+003    6.67023E+003    8.34491E+004
            5811    1.05973E+005    5.83762E+004   -6.39068E+004   -6.70178E+003   -6.39068E+004    1.22283E+005    4.07745E+003    5.09653E+004   -6.74527E+003   -5.70850E+004    5.15980E+004   -1.65910E+003    1.43540E+001    2.79707E+004
            5812    8.60912E+004    5.83293E+004    5.83293E+004    4.26680E+002   -4.06017E+004    9.89310E+004   -6.05144E+003    5.70005E+004    3.16788E+002   -4.04231E+004    5.82607E+004   -2.12566E+003    3.38367E+002    2.57747E+003
            5813    7.50110E+004    6.35454E+004    6.35454E+004    8.47599E+003   -2.18873E+004    8.54326E+004   -1.67114E+004    5.85756E+004    8.28285E+003   -1.99059E+004    6.17571E+004   -2.72292E+003    8.32111E+002   -1.21224E+004
            5814    6.49917E+004    6.44990E+004    6.44990E+004    1.29668E+004   -8.51368E+003    7.30127E+004   -2.29840E+004    5.61292E+004    1.25685E+004   -3.72665E+003    6.01103E+004   -3.27920E+003    6.11632E+002   -1.72248E+004
            5815    7.41190E+004    8.03471E+004    8.03471E+004    1.71102E+004   -1.21581E+003    8.15629E+004   -3.20805E+004    6.87388E+004    1.68664E+004    2.36742E+002    7.91384E+004   -2.05005E+003   -6.00547E+002   -9.83232E+003
            5816    9.45505E+004    1.04175E+005    1.04175E+005    2.35473E+004    1.10087E+002    1.04065E+005   -4.26107E+004    8.76502E+004    2.35221E+004    2.24054E+002    1.04086E+005   -9.53554E+002   -1.16660E+003   -2.74662E+003
            5817    7.86268E+004    8.07407E+004    8.07407E+004    1.63051E+004   -6.86860E+003    8.76093E+004   -3.00590E+004    7.03053E+004    1.61464E+004   -6.05902E+003    8.00897E+004   -1.91979E+003   -5.53311E+000   -7.51450E+003
            5818    1.00430E+005    1.08896E+005    1.08896E+005    2.52624E+004   -2.49263E+003    1.11389E+005   -4.38887E+004    9.11848E+004    2.52339E+004   -2.43927E+003    1.08871E+005   -9.14801E+002   -4.27416E+002   -1.59249E+003
            5819    8.51280E+004    7.73442E+004    7.73442E+004    1.11603E+004   -1.86886E+004    9.60328E+004   -2.32720E+004    7.18540E+004    1.10543E+004   -1.83227E+004    7.70843E+004   -1.92001E+003   -8.08480E+002    4.86567E+003
            5820    9.96220E+004    1.05952E+005    1.05952E+005    2.31905E+004   -4.62065E+003    1.10572E+005   -4.15072E+004    9.02490E+004    2.32031E+004   -4.43376E+003    1.05752E+005   -8.73352E+002   -1.69545E+003    4.24676E+003
            5821    9.21154E+004    7.20817E+004    7.20817E+004    5.86272E+003   -3.31147E+004    1.05196E+005   -1.49433E+004    6.95632E+004    5.83592E+003   -2.42734E+004    6.32673E+004   -1.89116E+003   -9.77132E+002    2.90832E+004
            5822    8.78294E+004    9.13044E+004    9.13044E+004    1.90474E+004   -6.45364E+003    9.77580E+004   -3.46327E+004    7.88323E+004    1.90797E+004   -4.93753E+003    8.97559E+004   -9.01883E+002   -1.80377E+003    1.20057E+004
            5823    6.77215E+004    6.75489E+004    6.75489E+004    1.15547E+004   -7.72061E+003    7.52695E+004   -2.37943E+004    6.10774E+004    1.16345E+004   -3.00232E+003    6.27508E+004   -9.28632E+002   -2.04563E+003    1.82187E+004
            5824    4.79299E+004    3.67882E+004    3.67882E+004   -1.06755E+003   -1.71037E+004    5.38918E+004   -6.20566E+003    4.12118E+004   -1.03913E+003   -3.22881E+003    2.28849E+004   -1.03743E+003   -8.48499E+002    2.35396E+004
            5825    1.02044E+005    7.00622E+004    7.00622E+004    1.26384E+003   -4.71803E+004    1.17242E+005   -8.04858E+003    6.79475E+004    1.30343E+003   -1.91848E+004    4.20271E+004   -1.99008E+003   -1.30078E+003    4.99447E+004
            5826    1.07547E+005    6.51588E+004    6.51588E+004   -3.51122E+003   -5.87853E+004    1.23944E+005   -9.54111E+002    6.13769E+004   -3.49127E+003   -8.03155E+003    1.43852E+004   -2.33285E+003   -6.03099E+002    6.09035E+004
            5827    1.49019E+005    8.61558E+004    8.61558E+004   -3.05922E+003   -8.58774E+004    1.72033E+005    9.26956E+002    5.97160E+004   -3.04199E+003   -1.14870E+004    1.17481E+004   -2.42498E+003   -5.13281E+002    8.51927E+004
            5828    1.83177E+005    1.02065E+005   -1.09450E+005   -3.78866E+003   -1.09450E+005    2.11515E+005    3.72468E+003    2.12977E+004   -3.77835E+003   -1.63920E+004    8.99628E+003   -1.84747E+003   -4.04427E+002    1.04976E+005
            5829    2.12699E+005    1.17754E+005   -1.27844E+005   -3.66348E+003   -1.27844E+005    2.45598E+005    4.58466E+003   -5.72383E+004   -3.65714E+003   -1.81132E+004    8.01639E+003   -1.09980E+003   -4.00027E+002    1.22096E+005
            5830    2.39062E+005    1.32905E+005   -1.43133E+005   -3.34865E+003   -1.43133E+005    2.76037E+005    4.52554E+003   -6.71398E+004   -3.34583E+003   -1.64404E+004    6.20962E+003   -5.18585E+002   -3.81118E+002    1.37552E+005
            5831    1.42368E+005    7.91235E+004   -8.52343E+004   -5.97508E+003   -8.52343E+004    1.64358E+005    4.02862E+003    5.61926E+004   -5.96065E+003   -4.05511E+004    3.44259E+004   -1.84398E+003   -7.90129E+002    7.31026E+004
            5832    1.84091E+005    9.32743E+004   -1.19282E+005   -1.09022E+004   -1.19282E+005    2.12556E+005    1.23032E+004   -5.97790E+004   -1.08941E+004   -5.44576E+004    2.84420E+004   -1.14192E+003   -5.74530E+002    9.78534E+004
            5833    2.18701E+005    1.08522E+005   -1.43956E+005   -1.30803E+004   -1.43956E+005    2.52478E+005    1.61713E+004   -8.72805E+004   -1.30767E+004   -5.82004E+004    2.27633E+004   -4.52864E+002   -4.94983E+002    1.19570E+005
            5834    2.47845E+005    1.25021E+005   -1.61100E+005   -1.27091E+004   -1.61100E+005    2.86121E+005    1.62628E+004   -9.93867E+004   -1.27087E+004   -5.55224E+004    1.94427E+004   -5.60987E+000   -4.10805E+002    1.38062E+005
            5835    2.65799E+005    1.19057E+005   -1.87664E+005   -2.47991E+004   -1.87664E+005    3.06721E+005    3.11354E+004   -1.26223E+005   -2.48020E+004   -1.12384E+005    4.37801E+004    5.21052E+002   -9.80046E+002    1.31990E+005
            5836    2.18592E+005    9.19396E+004   -1.60265E+005   -2.53958E+004   -1.60265E+005    2.52205E+005    3.12406E+004   -1.07838E+005   -2.53940E+004   -1.12382E+005    4.40542E+004    1.91212E+002   -8.59818E+002    9.89090E+004
            5837    1.75139E+005    7.60622E+004   -1.26075E+005   -1.96399E+004   -1.26075E+005    2.02138E+005    2.32177E+004   -7.90103E+004   -1.96373E+004   -9.59577E+004    4.59419E+004   -3.51271E+002   -4.14255E+002    7.19773E+004
            5838    1.32528E+005    6.65870E+004   -8.64413E+004   -1.06080E+004   -8.64413E+004    1.53028E+005    1.01541E+004    3.29801E+004   -1.06143E+004   -7.00106E+004    5.01626E+004   -1.16618E+003   -3.48760E+002    4.73553E+004
            5839    9.02626E+004    9.92893E+004    9.92893E+004    2.30264E+004   -3.67079E+002    9.96564E+004   -4.06495E+004    8.30213E+004    2.29810E+004   -3.11092E+002    9.92787E+004   -1.02956E+003   -5.63791E+001   -1.02464E+003
            5840    6.60712E+004    7.72499E+004    7.72499E+004    1.91948E+004    5.35507E+003    7.18948E+004   -3.39332E+004    6.26843E+004    1.88540E+004    5.96502E+003    7.69807E+004   -2.15867E+003    1.10728E+002   -4.37232E+003
            5841    5.06172E+004    5.74017E+004    5.74017E+004    1.45897E+004    1.53630E+003    5.58654E+004   -2.45093E+004    4.65993E+004    1.36958E+004    7.08659E+003    5.27454E+004   -3.73777E+003    5.99558E+002   -1.51929E+004
            5842    9.05097E+004    1.00225E+005    1.00225E+005    2.20117E+004    1.08530E+003    9.91399E+004   -4.11074E+004    8.48065E+004    2.20540E+004    1.18739E+003    1.00081E+005   -1.11965E+003   -2.71504E+003    2.18782E+003
            5843    6.78473E+004    7.75382E+004    7.75382E+004    1.73008E+004    4.03923E+003    7.34989E+004   -3.29594E+004    6.48344E+004    1.68919E+004    4.74527E+003    7.72410E+004   -2.58322E+003   -1.90245E+003    4.07357E+003
            5844    3.31899E+004    4.59380E+004    4.59380E+004    1.79853E+004    9.25584E+003    3.66821E+004   -2.43930E+004    3.04422E+004    1.29381E+004    1.43847E+004    4.58562E+004   -4.29404E+003   -4.43019E+002   -1.59040E+003
            5845    1.02114E+005    1.12062E+005    1.12062E+005    2.61601E+004   -8.38210E+002    1.12900E+005   -4.57946E+004    9.35652E+004    2.61482E+004   -4.89939E+002    1.11725E+005   -1.40345E+003   -2.02043E+003    5.66792E+003
            5846    7.73140E+004    8.94152E+004    8.94152E+004    2.21221E+004    4.96323E+003    8.44520E+004   -3.88335E+004    7.28427E+004    2.17167E+004    8.61018E+003    8.61736E+004   -3.18529E+003   -1.58272E+003    1.60023E+004
            5847    4.46459E+004    5.47889E+004    5.47889E+004    1.59099E+004    6.03087E+003    4.87580E+004   -2.55765E+004    4.20800E+004    1.36590E+004    1.79731E+004    4.50975E+004   -5.27705E+003   -8.80151E+002    1.85835E+004
            5848    2.45745E+005    1.47164E+005    1.47164E+005    3.46263E+003   -1.36590E+005    2.83754E+005   -4.67878E+003    6.91372E+004    3.46046E+003    1.70235E+004   -6.44759E+003   -4.22845E+002    3.65252E+002    1.41390E+005
            5849    2.55806E+005    1.65294E+005    1.65294E+005    1.24175E+004   -1.30024E+005    2.95318E+005   -1.58956E+004    1.00781E+005    1.24176E+004    5.48099E+004   -1.95406E+004    7.90267E+001    4.21774E+002    1.42902E+005
            5850    2.70334E+005    1.90124E+005    1.90124E+005    2.47614E+004   -1.21843E+005    3.11967E+005   -3.10143E+004    1.27096E+005    2.47647E+004    1.11624E+005   -4.33459E+004    5.39921E+002    1.02340E+003    1.35372E+005
            5851    2.67880E+005    1.58506E+005    1.58506E+005    2.47947E+003   -1.50812E+005    3.09318E+005   -3.39121E+003    6.65248E+004    2.47893E+003    1.25669E+004   -4.87220E+003   -1.43856E+002    2.77849E+002    1.54413E+005
            5852    2.82806E+005    1.76956E+005    1.76956E+005    9.44609E+003   -1.49563E+005    3.26519E+005   -1.22796E+004    1.00646E+005    9.44706E+003    4.24077E+004   -1.50160E+004    2.85313E+002    2.91070E+002    1.60714E+005
            5853    3.12470E+005    2.06785E+005    2.06785E+005    1.89327E+004   -1.53921E+005    3.60706E+005   -2.39323E+004    1.29961E+005    1.89374E+004    8.99488E+004   -3.70891E+004    6.22286E+002    8.93813E+002    1.68794E+005
            5854    2.83839E+005    1.65993E+005    1.65993E+005    1.37757E+003   -1.61755E+005    3.27748E+005   -1.87202E+003    5.63844E+004    1.37754E+003    6.85196E+003   -2.61343E+003   -1.59082E+001    1.34076E+002    1.63806E+005
            5855    3.01855E+005    1.81078E+005    1.81078E+005    4.67735E+003   -1.67465E+005    3.48543E+005   -6.09650E+003    8.34839E+004    4.67810E+003    2.15675E+004   -7.95606E+003    3.59301E+002    1.72575E+002    1.73645E+005
            5856    3.42352E+005    2.12107E+005    2.12107E+005    1.04023E+004   -1.83180E+005    3.95286E+005   -1.31098E+004    1.12602E+005    1.04054E+004    5.00577E+004   -2.11337E+004    5.89888E+002    5.31747E+002    1.94410E+005
            5857    2.88580E+005    1.66210E+005   -1.67013E+005   -2.48444E+002   -1.67013E+005    3.33223E+005    3.50380E+002   -3.36789E+004   -2.48445E+002   -1.23876E+003    4.36061E+002    1.11456E+001   -1.10746E+001    1.66610E+005
            5858    3.07762E+005    1.76900E+005   -1.78472E+005   -5.65277E+002   -1.78472E+005    3.55372E+005    7.12438E+002   -3.97323E+004   -5.65479E+002   -2.80857E+003    1.23674E+003    3.68995E+002   -4.66501E+001    1.77674E+005
            5859    3.53053E+005    2.03085E+005   -2.04586E+005   -5.70879E+002   -2.04586E+005    4.07670E+005    6.90674E+002   -4.06546E+004   -5.71047E+002   -2.34915E+003    8.48172E+002    5.64377E+002   -2.83264E+001    2.03828E+005
            5860    2.80296E+005    1.59387E+005   -1.64270E+005   -1.55435E+003   -1.64270E+005    3.23656E+005    2.14583E+003   -5.93553E+004   -1.55429E+003   -8.04923E+003    3.16603E+003   -2.48402E+001   -1.69257E+002    1.61731E+005
            5861    2.97762E+005    1.63281E+005   -1.80531E+005   -5.90640E+003   -1.80531E+005    3.43812E+005    7.71869E+003   -8.97520E+004   -5.90724E+003   -2.73454E+004    1.00966E+004    3.54311E+002   -1.94414E+002    1.70883E+005
            5862    3.40504E+005    1.81456E+005   -2.11691E+005   -1.07522E+004   -2.11691E+005    3.93148E+005    1.36623E+004   -1.14928E+005   -1.07554E+004   -5.30777E+004    2.28461E+004    5.96284E+002   -5.39213E+002    1.92872E+005
            5863    2.62005E+005    1.46883E+005   -1.55649E+005   -2.79569E+003   -1.55649E+005    3.02532E+005    3.85368E+003   -6.88807E+004   -2.79496E+003   -1.40978E+004    5.33172E+003   -1.79660E+002   -2.92787E+002    1.50953E+005
            5864    2.75802E+005    1.44736E+005   -1.73691E+005   -1.00287E+004   -1.73691E+005    3.18427E+005    1.29948E+004   -1.00495E+005   -1.00298E+004   -4.48583E+004    1.59037E+004    2.65265E+002   -3.54855E+002    1.56287E+005
            5865    3.08888E+005    1.50682E+005   -2.05880E+005   -1.98556E+004   -2.05880E+005    3.56561E+005    2.50179E+004   -1.30346E+005   -1.98603E+004   -9.29191E+004    3.77257E+004    6.10606E+002   -9.50961E+002    1.65879E+005
            5866    2.09644E+005    1.84547E+005    1.84547E+005    3.19494E+004   -5.44982E+004    2.39045E+005   -5.39993E+004    1.61551E+005    3.20546E+004   -1.41918E+004    1.44135E+005   -1.28175E+004   -7.57409E+003    8.83208E+004
            5867    1.72431E+005    1.75473E+005    1.75473E+005    3.38356E+004   -1.65332E+004    1.92006E+005   -6.42585E+004    1.54533E+005    3.43447E+004   -8.04540E+003    1.66476E+005   -6.47524E+003   -9.97622E+003    3.85194E+004
            5868    1.80224E+005    1.96713E+005    1.96713E+005    4.24309E+004   -1.37624E+003    1.98090E+005   -7.92560E+004    1.67606E+005    4.33552E+004   -5.75445E+002    1.94988E+005   -2.77810E+003   -1.23525E+004    1.17774E+004
            5869    1.47253E+005    1.32487E+005    1.32487E+005    2.30158E+004   -3.49229E+004    1.67410E+005   -4.01933E+004    1.17147E+005    2.28878E+004    3.79151E+003    9.39005E+004   -9.98530E+003   -4.25667E+003    6.96812E+004
            5870    1.36381E+005    1.44740E+005    1.44740E+005    3.16564E+004   -6.71652E+003    1.51457E+005   -5.65601E+004    1.23331E+005    3.16591E+004    3.98032E+003    1.34041E+005   -5.43254E+003   -5.39195E+003    3.80445E+004
            5871    1.54045E+005    1.66827E+005    1.66827E+005    3.76113E+004   -3.64466E+003    1.70472E+005   -6.69313E+004    1.40789E+005    3.78694E+004   -2.78090E+003    1.65705E+005   -2.36791E+003   -6.54879E+003    1.14484E+004
            5872    9.32209E+004    9.20374E+004    9.20374E+004    1.80310E+004   -1.26595E+004    1.04697E+005   -3.24696E+004    8.06200E+004    1.78809E+004    1.77351E+004    6.17929E+004   -7.32799E+003   -2.94096E+003    4.67918E+004
            5873    1.03075E+005    1.10440E+005    1.10440E+005    2.27244E+004   -3.08849E+003    1.13528E+005   -4.33585E+004    9.53878E+004    2.28979E+004    4.07932E+003    1.03098E+005   -4.12957E+003   -5.42021E+003    2.70163E+004
            5874    1.21446E+005    1.34038E+005    1.34038E+005    3.01473E+004    5.20052E+002    1.33518E+005   -5.49017E+004    1.12877E+005    3.05802E+004    1.28881E+003    1.32836E+005   -1.67799E+003   -6.92980E+003    9.78082E+003
            5875    7.91400E+004    5.69645E+003   -8.21054E+004   -1.62666E+004   -8.21054E+004    8.78018E+004    3.08919E+004   -7.17885E+004   -1.63299E+004    3.85732E+003   -8.02030E+004   -7.13942E+002    2.07697E+003    1.25427E+004
            5876    9.39375E+004    1.85528E+003   -1.01982E+005   -2.29045E+004   -1.01982E+005    1.03837E+005    4.10104E+004   -8.61253E+004   -2.29564E+004    1.35046E+003   -1.01425E+005   -6.58054E+002    2.17867E+003    7.14592E+003
            5877    1.04529E+005    3.29704E+003   -1.12711E+005   -2.58497E+004   -1.12711E+005    1.16008E+005    4.50880E+004   -9.47188E+004   -2.58530E+004    3.24317E+003   -1.12654E+005   -5.94207E+002    1.11203E+003    2.22275E+003
            5878    1.03229E+005   -6.05245E+002   -1.14375E+005   -2.66945E+004   -1.14375E+005    1.13770E+005    4.72251E+004   -9.53787E+004   -2.67007E+004   -6.29237E+002   -1.14345E+005   -5.59997E+002    1.29033E+003   -1.13904E+003
            5879    1.00114E+005    1.53220E+003   -1.09199E+005   -2.50800E+004   -1.09199E+005    1.10731E+005    4.42490E+004   -9.16361E+004   -2.50705E+004    1.48741E+003   -1.09164E+005   -5.02353E+002    7.27461E+001   -1.97560E+003
            5880    8.40677E+004    2.33032E+004   -7.20236E+004   -8.48638E+003   -7.20236E+004    9.53268E+004    1.90689E+004   -6.84388E+004   -8.51227E+003    1.04977E+004   -5.91922E+004   -1.78672E+003    1.48508E+003    3.24444E+004
            5881    8.57801E+004    1.59558E+004   -8.04066E+004   -1.23775E+004   -8.04066E+004    9.63624E+004    2.56094E+004   -7.40996E+004   -1.23612E+004    1.24810E+004   -7.69481E+004   -1.70993E+003    1.57585E+003    1.77851E+004
            5882    8.63524E+004    7.19439E+003   -8.89037E+004   -1.78199E+004   -8.89037E+004    9.60981E+004    3.31764E+004   -7.75509E+004   -1.77217E+004    6.90099E+003   -8.87086E+004   -1.66514E+003    7.14470E+002    4.22655E+003
            5883    8.92370E+004    5.43126E+003   -9.34279E+004   -1.88310E+004   -9.34279E+004    9.88591E+004    3.56092E+004   -8.13055E+004   -1.87085E+004    5.10658E+003   -9.32257E+004   -1.74147E+003    8.76655E+002   -4.36743E+003
            5884    8.35959E+004   -1.67106E+003   -9.35461E+004   -2.19668E+004   -9.35461E+004    9.18751E+004    3.90613E+004   -7.77574E+004   -2.18130E+004   -2.19791E+003   -9.31731E+004   -1.77374E+003   -1.01140E+002   -5.83260E+003
            5885    1.06613E+005    5.11653E+004   -7.14649E+004   -7.84235E+002   -7.14649E+004    1.22630E+005    7.02795E+003   -6.81179E+004   -7.89508E+002    2.87337E+004   -4.90280E+004   -2.02327E+003    9.82702E+002    4.73583E+004
            5886    9.12785E+004    3.35012E+004   -7.07484E+004   -5.17821E+003   -7.07484E+004    1.04250E+005    1.41418E+004   -6.88484E+004   -5.13283E+003    2.70162E+004   -6.43088E+004   -2.05376E+003    9.97769E+002    2.50221E+004
            5887    8.30547E+004    2.08470E+004   -7.32143E+004   -9.98405E+003   -7.32143E+004    9.40613E+004    2.07838E+004   -6.82729E+004   -9.83456E+003    2.04730E+004   -7.29897E+004   -2.16584E+003    2.11529E+002    4.57054E+003
            5888    7.67985E+004    7.72031E+003   -7.78930E+004   -1.50668E+004   -7.78930E+004    8.56133E+004    2.84132E+004   -6.85507E+004   -1.48290E+004    6.98404E+003   -7.73946E+004   -2.29294E+003    4.78106E+002   -6.49482E+003
            5889    7.36319E+004    3.37778E+003   -7.83290E+004   -1.71122E+004   -7.83290E+004    8.17067E+004    3.06878E+004   -6.67519E+004   -1.68699E+004    1.90151E+003   -7.70950E+004   -2.30880E+003   -3.70486E+002   -9.92177E+003
            5890    1.31960E+005    8.06905E+004    8.06905E+004    7.32947E+003   -7.16494E+004    1.52340E+005   -5.45688E+003   -5.27342E+004    7.33383E+003    5.48490E+004   -4.58122E+004   -1.58209E+003    5.23764E+002    5.71480E+004
            5891    1.03579E+005    5.64247E+004   -6.29295E+004    3.42699E+003   -6.29295E+004    1.19354E+005    1.02593E+003   -5.97948E+004    3.47601E+003    5.02465E+004   -5.68003E+004   -1.85827E+003    3.17658E+002    2.63197E+004
            5892    8.29162E+004    3.09042E+004   -6.39284E+004   -5.10308E+003   -6.39284E+004    9.48326E+004    1.27091E+004   -6.12136E+004   -4.97083E+003    3.06428E+004   -6.37992E+004   -2.17445E+003   -2.50339E+002    3.48868E+003
            5893    7.48668E+004    1.74792E+004   -6.71374E+004   -9.49744E+003   -6.71374E+004    8.46166E+004    1.97186E+004   -6.24358E+004   -9.25508E+003    1.56647E+004   -6.55653E+004   -2.58192E+003   -5.88203E+000   -1.14013E+004
            5894    6.20418E+004    1.39187E+003   -6.73154E+004   -1.53930E+004   -6.73154E+004    6.87073E+004    2.71055E+004   -5.65858E+004   -1.49768E+004   -1.85960E+003   -6.44802E+004   -2.88557E+003   -6.41774E+002   -1.35520E+004
            5895    6.48103E+004    1.26014E+004   -6.08364E+004   -1.16460E+004   -6.08364E+004    7.34378E+004    1.99604E+004   -5.30614E+004   -1.13945E+004    6.24479E+003   -5.47314E+004   -3.32155E+003   -1.16680E+003   -2.00792E+004
            5896    7.57695E+004    2.72557E+004   -5.94694E+004   -6.10258E+003   -5.94694E+004    8.67251E+004    1.27721E+004   -5.52112E+004   -5.95050E+003    2.54769E+004   -5.78427E+004   -2.61901E+003   -9.44838E+002   -1.16397E+004
            5897    9.03649E+004    4.98361E+004   -5.43415E+004    2.85527E+003   -5.43415E+004    1.04178E+005    5.50052E+002   -4.99466E+004    2.92094E+003    4.97564E+004   -5.43275E+004   -1.90173E+003   -8.28688E+002    4.87164E+002
            5898    1.12479E+005    7.49897E+004    7.49897E+004    1.10393E+004   -5.48854E+004    1.29875E+005   -1.03812E+004   -3.34611E+004    1.10651E+004    7.11491E+004   -5.10707E+004   -1.25413E+003   -2.93581E+002    2.19266E+004
            5899    1.42702E+005    1.01261E+005    1.01261E+005    1.61830E+004   -6.34876E+004    1.64748E+005   -1.79854E+004    5.48578E+004    1.61875E+004    8.50300E+004   -4.72613E+004   -7.47484E+002    6.46996E+001    4.90888E+004
            5900    1.79645E+005    1.29144E+005    1.29144E+005    2.00085E+004   -7.81960E+004    2.07340E+005   -2.36523E+004    8.08510E+004    2.00050E+004    9.80276E+004   -4.70758E+004   -2.88424E+002    5.19326E+002    7.40499E+004
            5901    2.24334E+005    1.62956E+005    1.62956E+005    2.47343E+004   -9.58828E+004    2.58839E+005   -3.06026E+004    1.09869E+005    2.47339E+004    1.11845E+005   -4.47709E+004    2.65118E+002    7.97079E+002    1.03037E+005
            5902    2.25868E+005    1.48962E+005    1.48962E+005    1.35638E+004   -1.11784E+005    2.60746E+005   -1.69141E+004    9.16017E+004    1.35612E+004    6.07045E+004   -2.35235E+004   -3.30498E+002    4.71191E+002    1.23382E+005
            5903    2.20206E+005    1.32419E+005    1.32419E+005    3.74187E+003   -1.21846E+005    2.54265E+005   -4.77165E+003    6.07943E+004    3.73662E+003    1.84262E+004   -7.84789E+003   -9.28576E+002    3.93605E+002    1.26448E+005
            5904    1.90055E+005    1.24278E+005    1.24278E+005    1.17688E+004   -9.51550E+004    2.19433E+005   -1.36306E+004    6.71319E+004    1.17616E+004    5.81690E+004   -2.90388E+004   -9.27310E+002    5.68990E+002    1.00674E+005
            5905    1.92672E+005    1.15349E+005    1.15349E+005    3.71370E+003   -1.07129E+005    2.22478E+005   -3.97792E+003    3.53406E+004    3.70428E+003    1.73873E+004   -9.15779E+003   -1.58462E+003    4.18295E+002    1.10432E+005
            5906    1.64489E+005    9.67725E+004    9.67725E+004    3.47155E+003   -9.31533E+004    1.89926E+005   -2.36357E+003   -5.12844E+004    3.46027E+003    1.40501E+004   -1.04196E+004   -2.17272E+003    4.04473E+002    9.41456E+004
            5907    1.29747E+005    7.42294E+004   -7.55031E+004    3.77314E+003   -7.55031E+004    1.49732E+005   -8.33146E+002   -6.05845E+004    3.76170E+003    1.01041E+004   -1.13663E+004   -2.53866E+003    4.26245E+002    7.40482E+004
            5908    8.87362E+004    4.65032E+004   -5.55553E+004    3.35818E+003   -5.55553E+004    1.02058E+005    1.89797E+003   -5.69065E+004    3.34048E+003    3.55094E+003   -1.25853E+004   -2.20920E+003    5.51498E+002    5.03373E+004
            5909    3.88234E+004    1.38515E+004   -2.93094E+004    2.76396E+003   -2.93094E+004    4.31610E+004    4.23131E+003   -3.49865E+004    2.73894E+003    2.58429E+003   -1.80172E+004   -9.18957E+002    7.62345E+002    1.89327E+004
            5910    1.54843E+005    9.53274E+004    9.53274E+004    7.34594E+003   -8.34619E+004    1.78789E+005   -6.40383E+003   -4.66676E+004    7.32965E+003    4.25246E+004   -3.06427E+004   -1.69481E+003    7.86644E+002    8.15449E+004
            5911    1.20430E+005    6.36633E+004   -7.51606E+004    1.27008E+003   -7.51606E+004    1.38824E+005    3.40908E+003   -6.72397E+004    1.23463E+003    2.04077E+004   -3.18696E+004   -2.18287E+003    1.08455E+003    6.42581E+004
            5912    8.75540E+004    3.58780E+004   -6.43003E+004   -2.42416E+003   -6.43003E+004    1.00178E+005    1.02822E+004   -6.41925E+004   -2.48368E+003    9.18517E+003   -3.75480E+004   -1.92307E+003    1.44764E+003    4.42474E+004
            5913    5.62942E+004    5.06327E+003   -5.68862E+004   -8.86038E+003   -5.68862E+004    6.19494E+004    2.02278E+004   -5.22049E+004   -8.95210E+003    4.10816E+002   -5.21420E+004   -7.74311E+002    1.99281E+003    1.63086E+004
            5914    2.56798E+005    2.95418E+005    2.95418E+005    6.36423E+004    1.93572E+004    2.76060E+005   -1.26139E+005    2.47988E+005    6.36195E+004    2.22847E+004    2.92513E+005   -1.61430E+003    4.24232E+003    2.78173E+004
            5915    2.48123E+005    2.62198E+005    2.62198E+005    4.04251E+004   -5.77945E+003    2.67978E+005   -9.89480E+004    2.38154E+005    4.04981E+004   -5.51845E+003    2.61864E+005   -2.49363E+003   -6.47012E+003    6.16059E+003
            5916    2.20752E+005    2.40468E+005    2.40468E+005    4.47882E+004    1.15773E+003    2.39310E+005   -9.54712E+004    2.10722E+005    4.53081E+004    1.57085E+003    2.39535E+005   -3.37280E+003   -1.18426E+004    6.95140E+003
            5917    2.13270E+005    2.26165E+005    2.26165E+005    4.21359E+004   -7.56705E+003    2.33732E+005   -8.69113E+004    1.99605E+005    4.26317E+004   -7.17097E+003    2.25273E+005   -3.33492E+003   -1.10472E+004    7.07535E+003
            5918    3.04023E+005    3.54158E+005    3.54158E+005    9.44016E+004    1.97691E+004    3.34389E+005   -1.56110E+005    2.82287E+005    9.41845E+004    3.05431E+004    3.43602E+005   -4.21541E+003   -4.42572E+002    5.84341E+004
            5919    2.74813E+005    3.09227E+005    3.09227E+005    7.32433E+004    7.50805E+003    3.01719E+005   -1.29993E+005    2.56212E+005    7.30135E+004    1.41350E+004    3.02830E+005   -6.90747E+003   -7.29418E+003    4.24487E+004
            5920    2.38127E+005    2.47789E+005    2.47789E+005    5.03656E+004   -1.66710E+004    2.64460E+005   -9.38280E+004    2.15314E+005    5.03445E+004   -1.32570E+004    2.44397E+005   -7.53929E+003   -1.01932E+004    2.69511E+004
            5921    2.09239E+005    2.18198E+005    2.18198E+005    4.43033E+004   -1.40130E+004    2.32211E+005   -8.28294E+004    1.89623E+005    4.42502E+004   -7.09323E+003    2.11331E+005   -7.75473E+003   -9.07496E+003    3.75178E+004
            5922    2.69587E+005    2.38098E+005    2.38098E+005    4.28926E+004   -6.95014E+004    3.07599E+005   -7.04962E+004    2.06015E+005    4.27372E+004   -3.86216E+004    2.07373E+005   -1.41077E+004   -8.92978E+003    9.07784E+004
            5923    3.23005E+005    3.08452E+005    3.08452E+005    6.97134E+004   -5.90811E+004    3.67533E+005   -1.06361E+005    2.54795E+005    6.96107E+004   -3.33692E+004    2.82842E+005   -1.38505E+004   -1.04221E+004    9.20136E+004
            5924    3.50826E+005    3.64874E+005    3.64874E+005    9.58148E+004   -3.19234E+004    3.96797E+005   -1.42922E+005    2.91146E+005    9.55737E+004   -1.31251E+004    3.46317E+005   -1.22067E+004   -9.53477E+003    8.24949E+004
            5925    3.94452E+005    4.50406E+005    4.50406E+005    1.38482E+005    7.00802E+003    4.43398E+005   -1.98632E+005    3.39634E+005    1.38183E+005    3.17803E+004    4.25933E+005   -1.02968E+004   -6.58935E+003    1.00673E+005
            5926    3.60283E+005    4.74644E+005    4.74644E+005    1.73675E+005    7.54290E+004    3.99215E+005   -2.41249E+005    3.28056E+005    1.73504E+005    1.01070E+005    4.49175E+005   -7.98741E+003   -6.24542E+003    9.71014E+004
            5927    3.36391E+005    4.95013E+005    4.95013E+005    2.03503E+005    1.26941E+005    3.68073E+005   -2.75152E+005    3.15882E+005    2.03401E+005    1.45554E+005    4.76503E+005   -5.55052E+003   -5.15876E+003    8.01192E+004
            5928    2.98278E+005    4.90657E+005    4.90657E+005    2.20670E+005    1.70461E+005    3.20196E+005   -2.93929E+005    2.88540E+005    2.20579E+005    1.90819E+005    4.70389E+005   -4.21478E+003   -4.12319E+003    7.77611E+004
            5929    2.50666E+005    4.44268E+005    4.44268E+005    2.10716E+005    1.79427E+005    2.64842E+005   -2.78137E+005    2.46215E+005    2.10668E+005    2.05648E+005    4.18095E+005   -2.77884E+003   -2.76834E+003    7.89403E+004
            5930    2.95286E+005    4.50389E+005    4.50389E+005    1.93391E+005    1.27833E+005    3.22555E+005   -2.57204E+005    2.78196E+005    1.93240E+005    1.55549E+005    4.22823E+005   -2.46786E+003    3.75625E+003    9.00944E+004
            5931    2.48341E+005    4.20999E+005    4.20999E+005    1.97476E+005    1.53670E+005    2.67329E+005   -2.57382E+005    2.39416E+005    1.97505E+005    1.76520E+005    3.98119E+005   -8.59766E+002    8.51041E+003    7.42911E+004
            5932    3.29466E+005    4.85578E+005    4.85578E+005    2.00424E+005    1.24911E+005    3.60667E+005   -2.70304E+005    3.09082E+005    2.00218E+005    1.59682E+005    4.51012E+005   -3.03860E+003    4.62037E+003    1.06065E+005
            5933    2.93022E+005    4.69180E+005    4.69180E+005    2.11555E+005    1.50410E+005    3.18770E+005   -2.77048E+005    2.78120E+005    2.11560E+005    1.89839E+005    4.29747E+005   -9.87976E+002    1.07650E+004    1.04395E+005
            5934    3.57619E+005    4.99976E+005    4.99976E+005    1.93823E+005    1.06912E+005    3.93064E+005   -2.66904E+005    3.32589E+005    1.93602E+005    1.53413E+005    4.53696E+005   -3.23848E+003    5.13191E+003    1.26575E+005
            5935    3.22323E+005    4.74367E+005    4.74367E+005    2.00220E+005    1.19292E+005    3.55075E+005   -2.64627E+005    2.98152E+005    2.00127E+005    1.85217E+005    4.08536E+005   -1.20364E+003    1.31046E+004    1.37366E+005
            5936    3.42920E+005    4.50224E+005    4.50224E+005    1.57888E+005    7.27582E+004    3.77466E+005   -2.26957E+005    3.17814E+005    1.57578E+005    1.26349E+005    3.96943E+005   -3.56859E+003    6.26970E+003    1.31265E+005
            5937    3.32007E+005    4.71933E+005    4.71933E+005    1.91736E+005    1.05238E+005    3.66695E+005   -2.56302E+005    3.05073E+005    1.91649E+005    1.79560E+005    3.97698E+005   -1.06582E+003    1.63557E+004    1.46435E+005
            5938    3.60179E+005    4.67806E+005    4.67806E+005    1.74081E+005    6.59468E+004    4.01859E+005   -2.35944E+005    3.20489E+005    1.73939E+005    1.71931E+005    3.61963E+005   -7.19284E+002    2.08791E+004    1.75770E+005
            5939    4.47777E+005    5.73339E+005    5.73339E+005    2.09782E+005    7.31676E+004    5.00171E+005   -2.85430E+005    3.96660E+005    2.10948E+005    1.24963E+005    5.20378E+005   -1.30187E+002    2.62444E+004    1.51318E+005
            5940    3.90276E+005    4.71770E+005    4.71770E+005    1.46505E+005    3.90125E+004    4.32758E+005   -2.19096E+005    3.54609E+005    1.46420E+005    9.31711E+004    4.17697E+005   -2.23257E+003    8.26414E+003    1.42856E+005
            5941    3.31842E+005    3.56723E+005    3.56723E+005    8.08387E+004   -1.15136E+004    3.68236E+005   -1.42016E+005    3.00829E+005    8.14527E+004   -7.20228E+003    3.51797E+005   -7.03981E+002    1.36847E+004    3.93390E+004
            5942    4.90474E+004   -6.90168E+002   -5.50957E+004   -1.42667E+004   -5.50957E+004    5.44056E+004    2.33508E+004   -4.45166E+004   -1.33604E+004   -7.04821E+003   -4.96439E+004   -3.86510E+003   -4.93371E+002   -1.60700E+004
            5943    5.45782E+004   -1.94324E+003   -6.14978E+004   -1.38677E+004   -6.14978E+004    5.95545E+004    2.57696E+004   -5.15235E+004   -1.28332E+004   -4.85173E+003   -5.96238E+004   -3.32966E+003    4.53695E+002   -1.03018E+004
            5944    6.56574E+004   -4.88048E+003   -7.61909E+004   -1.82417E+004   -7.61909E+004    7.13104E+004    3.31043E+004   -6.24879E+004   -1.77730E+004   -5.68402E+003   -7.58560E+004   -2.42598E+003    9.12307E+002   -4.78909E+003
            5945    8.34259E+004    6.65907E+002   -9.08945E+004   -1.91836E+004   -9.08945E+004    9.15604E+004    3.64707E+004   -7.78424E+004   -1.90077E+004    3.73218E+002   -9.07778E+004   -1.91527E+003    1.20857E+003   -2.99784E+003
            5946    9.30178E+004   -2.11651E+003   -1.03890E+005   -2.32713E+004   -1.03890E+005    1.01773E+005    4.30925E+004   -8.73559E+004   -2.32882E+004   -2.13655E+003   -1.03853E+005   -5.41788E+002    1.59441E+003   -7.51396E+002
            5947    2.62897E+004   -8.71430E+003   -3.83158E+004   -1.76873E+004   -3.83158E+004    2.96015E+004    2.15725E+004   -2.24348E+004   -1.19067E+004   -1.59090E+004   -3.69017E+004   -4.47442E+003   -2.72384E+002   -5.48126E+003
            5948    4.37585E+004   -1.13665E+004   -5.85462E+004   -1.92923E+004   -5.85462E+004    4.71797E+004    2.97350E+004   -4.20980E+004   -1.63924E+004   -1.44985E+004   -5.83141E+004   -3.82700E+003   -1.59988E+001    3.18639E+003
            5949    6.56736E+004   -3.37376E+003   -7.52135E+004   -1.82626E+004   -7.52135E+004    7.18398E+004    3.22833E+004   -6.17025E+004   -1.77629E+004   -4.02292E+003   -7.50641E+004   -2.71332E+003    3.86646E+002    3.21245E+003
            5950    7.98518E+004   -4.86163E+003   -9.21273E+004   -2.27102E+004   -9.21273E+004    8.72657E+004    3.98997E+004   -7.51645E+004   -2.24656E+004   -5.26039E+003   -9.19731E+004   -2.14679E+003    7.33392E+002    3.54301E+003
            5951    9.61202E+004    1.36112E+003   -1.04792E+005   -2.36500E+004   -1.04792E+005    1.06153E+005    4.23604E+004   -8.83432E+004   -2.36453E+004    1.33319E+003   -1.04769E+005   -6.12932E+002    8.83296E+002    1.19179E+003
            5952    4.51163E+004   -5.07530E+003   -5.43818E+004   -1.51638E+004   -5.43818E+004    4.93065E+004    2.48736E+004   -4.24658E+004   -1.35993E+004   -2.18349E+004   -3.91867E+004   -5.62849E+003    1.13023E+003    2.17930E+004
            5953    5.92663E+004   -3.33376E+003   -6.75516E+004   -1.49599E+004   -6.75516E+004    6.42178E+004    2.86151E+004   -5.66147E+004   -1.38277E+004   -1.08769E+004   -6.11407E+004   -4.79805E+003    2.42744E+003    1.86092E+004
            5954    7.62368E+004   -4.88408E+003   -8.76327E+004   -2.02477E+004   -8.76327E+004    8.27486E+004    3.75882E+004   -7.26303E+004   -2.00535E+004   -8.87131E+003   -8.38397E+004   -3.24996E+003    3.26497E+003    1.67471E+004
            5955    9.48251E+004    1.62817E+003   -1.02551E+005   -2.12749E+004   -1.02551E+005    1.04179E+005    4.07325E+004   -8.82744E+004   -2.12681E+004    4.11356E+002   -1.01341E+005   -2.56970E+003    3.82044E+003    1.01759E+004
            5956    1.03821E+005   -2.62044E+003   -1.16110E+005   -2.59150E+004   -1.16110E+005    1.13490E+005    4.82152E+004   -9.76783E+004   -2.61166E+004   -2.76897E+003   -1.15760E+005   -7.57887E+002    4.39946E+003    3.87516E+003
            5957    2.48045E+005   -1.78824E+005   -4.40817E+005   -2.09591E+005   -4.40817E+005    2.61994E+005    2.76411E+005   -2.43696E+005   -2.09556E+005   -2.06033E+005   -4.13643E+005   -2.77300E+003    2.91370E+003    7.97803E+004
            5958    2.82832E+005   -1.23320E+005   -4.32295E+005   -1.86182E+005   -4.32295E+005    3.08975E+005    2.47266E+005   -2.66425E+005   -1.86025E+005   -1.50294E+005   -4.05478E+005   -2.49074E+003   -3.44368E+003    8.69146E+004
            5959    2.35954E+005   -1.50425E+005   -4.03951E+005   -1.90773E+005   -4.03951E+005    2.53527E+005    2.48383E+005   -2.27998E+005   -1.90810E+005   -1.68962E+005   -3.85376E+005   -8.62448E+002   -7.87976E+003    6.55790E+004
            5960    2.15130E+005   -1.31755E+005   -3.62905E+005   -1.68539E+005   -3.62905E+005    2.31150E+005    2.21067E+005   -2.07877E+005   -1.68543E+005   -1.81939E+005   -3.12718E+005   -1.88251E+003    1.59267E+003    9.52681E+004
            5961    2.18385E+005   -9.45386E+004   -3.33738E+005   -1.45001E+005   -3.33738E+005    2.39199E+005    1.91092E+005   -2.04642E+005   -1.44873E+005   -1.18659E+005   -3.09745E+005   -2.00819E+003   -2.46777E+003    7.18094E+004
            5962    1.67483E+005   -1.21137E+005   -2.99347E+005   -1.45192E+005   -2.99347E+005    1.78210E+005    1.88559E+005   -1.63528E+005   -1.45222E+005   -1.28641E+005   -2.91813E+005   -7.67104E+002   -5.45716E+003    3.54266E+004
            5963    2.08545E+005   -1.92498E+004   -2.54799E+005   -9.36846E+004   -2.54799E+005    2.35549E+005    1.22578E+005   -1.74669E+005   -9.36914E+004   -1.06635E+005   -1.67407E+005   -1.51448E+003    7.48835E+002    1.13776E+005
            5964    1.39518E+005   -3.32510E+004   -1.89034E+005   -7.55889E+004   -1.89034E+005    1.55783E+005    9.92913E+004   -1.23778E+005   -7.54900E+004   -6.29298E+004   -1.59454E+005   -1.73219E+003   -1.12508E+003    6.10742E+004
            5965    8.33902E+004   -6.38933E+004   -1.52207E+005   -7.48164E+004   -1.52207E+005    8.83135E+004    9.69721E+004   -8.17575E+004   -7.47849E+004   -6.59520E+004   -1.50180E+005   -7.25638E+002   -2.68036E+003    1.29420E+004
            5966    2.09445E+005    1.29539E+005    1.29539E+005    5.80162E+003   -1.12286E+005    2.41825E+005   -7.68467E+003    7.18958E+004    5.80397E+003    6.24595E+003    1.10041E+004   -1.39062E+003   -1.32247E+002    1.20881E+005
            5967    1.00109E+005    7.20242E+004    7.20242E+004    9.68346E+003   -4.34492E+004    1.15473E+005   -1.27528E+004    5.16804E+004    9.66808E+003    8.91155E+003    1.96788E+004   -1.66765E+003    1.20743E+002    5.74602E+004
            5968    1.60808E+004    2.52887E+004    2.52887E+004    1.16650E+004    7.55028E+003    1.77384E+004   -1.48346E+004    1.48254E+004    1.14771E+004    1.04227E+004    2.26041E+004   -7.68509E+002    3.88986E+002    6.31699E+003
            5969    2.08570E+005    2.67609E+005    2.67609E+005    1.02807E+005    3.31170E+004    2.34492E+005   -1.34511E+005    1.79423E+005    1.02813E+005    1.16274E+005    1.84445E+005   -1.53456E+003   -7.96764E+002    1.12170E+005
            5970    1.55434E+005    2.23190E+005    2.23190E+005    9.32880E+004    5.09820E+004    1.72208E+005   -1.22487E+005    1.41587E+005    9.31772E+004    7.75449E+004    1.96737E+005   -1.75080E+003    1.49854E+003    6.20643E+004
            5971    1.05017E+005    1.93023E+005    1.93023E+005    9.51792E+004    8.20654E+004    1.10958E+005   -1.23423E+005    1.03151E+005    9.51690E+004    8.48865E+004    1.90212E+005   -7.24379E+002    3.44510E+003    1.70793E+004
            5972    2.20631E+005    3.75116E+005    3.75116E+005    1.74737E+005    1.38676E+005    2.36440E+005   -2.29510E+005    2.13850E+005    1.74741E+005    1.86838E+005    3.26950E+005   -2.03873E+003   -1.80272E+003    9.51896E+004
            5973    2.30921E+005    3.56915E+005    3.56915E+005    1.55920E+005    1.04676E+005    2.52239E+005   -2.05837E+005    2.17570E+005    1.55775E+005    1.28413E+005    3.33323E+005   -2.16620E+003    2.68426E+003    7.33920E+004
            5974    1.86279E+005    3.31892E+005    3.31892E+005    1.60672E+005    1.33532E+005    1.98360E+005   -2.08699E+005    1.81751E+005    1.60710E+005    1.42791E+005    3.22595E+005   -7.99149E+002    6.21055E+003    4.14465E+004
            5975    1.89155E+005    4.03666E+003   -2.04245E+005   -4.31506E+004   -2.04245E+005    2.08282E+005    8.11196E+004   -1.75163E+005   -4.36877E+004    3.81652E+003   -2.03488E+005   -1.57510E+003    9.54304E+003    6.19508E+003
            5976    1.73484E+005    1.60052E+003   -1.89437E+005   -4.17136E+004   -1.89437E+005    1.91037E+005    7.65166E+004   -1.60628E+005   -4.18773E+004   -1.57621E+003   -1.86096E+005   -5.41030E+003    8.79156E+003    2.26682E+004
            5977    1.77318E+005    2.16195E+004   -1.77117E+005   -3.50906E+004   -1.77117E+005    1.98736E+005    6.35293E+004   -1.54852E+005   -3.50645E+004    1.27770E+004   -1.68300E+005   -7.35662E+003    7.45640E+003    3.95722E+004
            5978    1.91851E+005    3.43530E+004   -1.82549E+005   -3.50854E+004   -1.82549E+005    2.16902E+005    6.10937E+004   -1.59664E+005   -3.48451E+004    9.17861E+003   -1.57615E+005   -1.04000E+004    6.37149E+003    6.81793E+004
            5979    2.25479E+005    7.18130E+004   -1.86580E+005   -2.97088E+004   -1.86580E+005    2.58393E+005    4.81585E+004   -1.60522E+005   -2.96550E+004    2.58870E+004   -1.40707E+005   -1.34950E+004    6.46941E+003    9.76104E+004
            5980    1.54580E+005   -2.50748E+003   -1.71855E+005   -3.83345E+004   -1.71855E+005    1.69348E+005    7.08990E+004   -1.44790E+005   -3.90590E+004   -2.87182E+003   -1.70766E+005   -1.22171E+003    9.87441E+003    7.64913E+003
            5981    1.46873E+005    7.79327E+003   -1.54583E+005   -3.10015E+004   -1.54583E+005    1.62376E+005    5.92636E+004   -1.34603E+005   -3.14640E+004    4.47564E+003   -1.50802E+005   -4.33100E+003    8.81085E+003    2.20616E+004
            5982    1.37012E+005    8.92448E+003   -1.43213E+005   -2.95541E+004   -1.43213E+005    1.52138E+005    5.46143E+004   -1.23954E+005   -2.99722E+004   -2.80364E+003   -1.31067E+005   -5.66098E+003    7.68310E+003    3.99763E+004
            5983    1.36064E+005    2.32306E+004   -1.29641E+005   -2.18039E+004   -1.29641E+005    1.52872E+005    4.27381E+004   -1.17450E+005   -2.19555E+004   -5.26664E+002   -1.05732E+005   -8.33638E+003    6.28609E+003    5.45080E+004
            5984    1.60290E+005    4.29838E+004   -1.39957E+005   -2.41479E+004   -1.39957E+005    1.82941E+005    4.03737E+004   -1.22055E+005   -2.42326E+004   -6.29470E+003   -9.05938E+004   -1.08780E+004    4.64853E+003    8.03266E+004
            5985    1.28753E+005    2.19506E+003   -1.40301E+005   -3.23312E+004   -1.40301E+005    1.42496E+005    5.68123E+004   -1.17643E+005   -3.24945E+004    1.90976E+003   -1.39852E+005   -9.91047E+002    4.38826E+003    6.15548E+003
            5986    1.12019E+005   -2.56762E+003   -1.25920E+005   -3.05322E+004   -1.25920E+005    1.23353E+005    5.30067E+004   -1.03721E+005   -3.04850E+004   -5.70090E+003   -1.22834E+005   -3.33164E+003    4.02338E+003    1.85750E+004
            5987    1.02662E+005    5.37918E+003   -1.08770E+005   -2.40006E+004   -1.08770E+005    1.14149E+005    4.24637E+004   -9.24704E+004   -2.38141E+004   -2.19886E+003   -1.01378E+005   -4.33930E+003    3.22399E+003    2.76396E+004
            5988    9.40589E+004    5.46310E+003   -9.93036E+004   -2.21202E+004   -9.93036E+004    1.04767E+005    3.86535E+004   -8.42124E+004   -2.16139E+004   -1.40917E+004   -8.02550E+004   -6.31080E+003    2.43503E+003    3.98888E+004
            5989    9.08728E+004    1.83251E+004   -8.46236E+004   -1.55700E+004   -8.46236E+004    1.02949E+005    2.72895E+004   -7.45167E+004   -1.52953E+004   -1.69597E+004   -4.96135E+004   -7.63639E+003    1.85934E+003    4.81288E+004
            5990    3.77156E+005   -6.79075E+004   -4.88145E+005   -1.79045E+005   -4.88145E+005    4.20237E+005    2.45032E+005   -3.37256E+005   -1.78753E+005   -8.79589E+004   -4.68385E+005   -9.31930E+003    6.71032E+003    8.83623E+004
            5991    3.87763E+005   -1.31534E+004   -4.49719E+005   -1.45311E+005   -4.49719E+005    4.36566E+005    2.02728E+005   -3.31089E+005   -1.45180E+005   -3.43510E+004   -4.28653E+005   -1.14855E+004    9.95594E+003    9.23935E+004
            5992    3.93486E+005    3.22214E+004   -4.14516E+005   -1.19381E+005   -4.14516E+005    4.46737E+005    1.67225E+005   -3.17005E+005   -1.19390E+005    9.11370E+003   -3.91399E+005   -1.33014E+004    1.18146E+004    9.73399E+004
            5993    3.56375E+005    7.75005E+004   -3.29662E+005   -7.44378E+004   -3.29662E+005    4.07163E+005    1.08866E+005   -2.67426E+005   -7.43290E+004    4.93646E+004   -3.01635E+005   -1.48775E+004    1.06319E+004    1.01514E+005
            5994    3.02365E+005    8.10332E+004   -2.65040E+005   -5.20020E+004   -2.65040E+005    3.46073E+005    7.86695E+004   -2.20462E+005   -5.21040E+004    4.10680E+004   -2.24972E+005   -1.52227E+004    1.00760E+004    1.09170E+005
            5995    2.33654E+005    4.47171E+004   -2.19388E+005   -3.95810E+004   -2.19388E+005    2.64105E+005    7.14173E+004   -1.94744E+005   -3.96724E+004    2.82656E+004   -2.02845E+005   -1.12172E+004    1.04299E+004    6.20852E+004
            5996    2.13921E+005    1.82398E+004   -2.20266E+005   -4.53505E+004   -2.20266E+005    2.38506E+005    8.24590E+004   -1.90854E+005   -4.56955E+004    1.10884E+004   -2.12770E+005   -8.24925E+003    1.16750E+004    3.88318E+004
            5997    2.07847E+005    1.25138E+004   -2.16386E+005   -3.94519E+004   -2.16386E+005    2.28900E+005    8.11079E+004   -1.92400E+005   -3.99314E+004    1.09510E+004   -2.14343E+005   -6.01363E+003    1.28204E+004    1.54475E+004
            5998    2.05157E+005   -2.61996E+003   -2.25196E+005   -4.36639E+004   -2.25196E+005    2.22576E+005    9.04934E+004   -1.95597E+005   -4.47430E+004   -2.74822E+003   -2.23989E+005   -1.62246E+003    1.42059E+004    4.32130E+003
            5999    2.89623E+005    3.26058E+004   -2.93613E+005   -6.67281E+004   -2.93613E+005    3.26219E+005    1.09245E+005   -2.46682E+005   -6.63679E+004    1.65267E+004   -2.77894E+005   -1.15025E+004    8.66166E+003    6.85812E+004
            6000    2.49798E+005    1.91170E+004   -2.59203E+005   -5.44476E+004   -2.59203E+005    2.78320E+005    9.81778E+004   -2.23406E+005   -5.41145E+004    1.48172E+004   -2.55236E+005   -8.61863E+003    8.74111E+003    3.09943E+004
            6001    2.28296E+005   -2.97441E+003   -2.51437E+005   -5.09252E+004   -2.51437E+005    2.48463E+005    1.01779E+005   -2.16527E+005   -5.07606E+004   -4.57291E+003   -2.50003E+005   -6.04410E+003    9.26734E+003    1.54736E+004
            6002    2.27879E+005    5.54075E+003   -2.41319E+005   -3.89970E+004   -2.41319E+005    2.46860E+005    9.15919E+004   -2.17762E+005   -3.94234E+004    5.46864E+003   -2.40821E+005   -1.74910E+003    9.94397E+003    1.38392E+003
            6003    3.10485E+005    1.41664E+004   -3.34006E+005   -8.58718E+004   -3.34006E+005    3.48172E+005    1.35237E+005   -2.70492E+005   -8.58293E+004    2.49401E+001   -3.19907E+005   -9.53340E+003    9.59563E+003    6.73110E+004
            6004    2.80675E+005   -3.81458E+003   -3.14453E+005   -7.90937E+004   -3.14453E+005    3.10639E+005    1.32454E+005   -2.56447E+005   -7.90204E+004   -1.18721E+004   -3.06469E+005   -7.63391E+003    8.97549E+003    4.77761E+004
            6005    2.56274E+005    2.83662E+003   -2.77082E+005   -5.39917E+004   -2.77082E+005    2.79919E+005    1.09412E+005   -2.41480E+005   -5.39691E+004    1.58079E+003   -2.75849E+005   -4.75610E+003    7.95461E+003    1.60949E+004
            6006    2.27334E+005   -6.87818E+003   -2.49885E+005   -4.24089E+004   -2.49885E+005    2.43007E+005    9.97241E+004   -2.20957E+005   -4.26931E+004   -7.04841E+003   -2.49431E+005   -1.32302E+003    8.11562E+003    5.70457E+003
            6007    3.63300E+005   -2.00862E+004   -4.24513E+005   -1.25780E+005   -4.24513E+005    4.04427E+005    1.90126E+005   -3.25922E+005   -1.25595E+005   -4.47143E+004   -4.00070E+005   -7.98787E+003    5.82848E+003    9.59439E+004
            6008    3.06193E+005   -1.91194E+004   -3.55829E+005   -9.40731E+004   -3.55829E+005    3.36710E+005    1.56341E+005   -2.84432E+005   -9.37774E+004   -3.03436E+004   -3.44901E+005   -5.96510E+003    3.40661E+003    5.94304E+004
            6009    2.84950E+005   -2.31156E+004   -3.31348E+005   -7.75290E+004   -3.31348E+005    3.08233E+005    1.43998E+005   -2.72891E+005   -7.73653E+004   -2.97911E+004   -3.24837E+005   -3.11580E+003    4.92012E+002    4.43015E+004
            6010    2.60826E+005    5.94369E+003   -2.75598E+005   -4.21928E+004   -2.75598E+005    2.81541E+005    1.03949E+005   -2.50538E+005   -4.21774E+004    5.60338E+003   -2.75273E+005   -8.97157E+002   -7.56786E+002    9.52495E+003
            6011    3.45651E+005   -6.27497E+004   -4.44060E+005   -1.51296E+005   -4.44060E+005    3.81311E+005    2.19369E+005   -3.18601E+005   -1.51033E+005   -9.94311E+004   -4.07642E+005   -5.36447E+003    4.82048E+002    1.12005E+005
            6012    3.59954E+005   -3.44840E+004   -4.32944E+005   -1.31296E+005   -4.32944E+005    3.98460E+005    1.99575E+005   -3.28696E+005   -1.31026E+005   -7.20261E+004   -3.95672E+005   -4.34734E+003   -3.63125E+003    1.15957E+005
            6013    3.24702E+005   -1.09268E+004   -3.68778E+005   -9.29614E+004   -3.68778E+005    3.57851E+005    1.57555E+005   -3.00028E+005   -9.30670E+004   -2.26325E+004   -3.56967E+005   -1.31635E+003   -7.65320E+003    6.33989E+004
            6014    2.73421E+005   -1.82988E+004   -3.14726E+005   -7.23988E+004   -3.14726E+005    2.96427E+005    1.35141E+005   -2.60968E+005   -7.28055E+004   -2.14917E+004   -3.11126E+005   -5.29633E+002   -1.06052E+004    3.03419E+004
            6015    3.59548E+005    1.54025E+004   -3.85948E+005   -9.32792E+004   -3.85948E+005    4.01351E+005    1.54608E+005   -3.19332E+005   -9.43268E+004    1.10058E+004   -3.80504E+005   -2.32996E+002   -1.79358E+004    4.15264E+004
            6016    4.79124E+005   -7.68327E+004   -6.13120E+005   -2.27259E+005   -6.13120E+005    5.36287E+005    3.05737E+005   -4.20860E+005   -2.28638E+005   -1.27605E+005   -5.60969E+005   -1.24247E+002   -2.84163E+004    1.55895E+005
            6017    4.14741E+005   -2.88640E+004   -4.90714E+005   -1.50105E+005   -4.90714E+005    4.61850E+005    2.23228E+005   -3.71622E+005   -1.50356E+005   -8.43111E+004   -4.35015E+005   -7.09672E+002   -1.43412E+004    1.49664E+005
            6018    3.73595E+005   -6.44060E+004   -4.82346E+005   -1.80812E+005   -4.82346E+005    4.17940E+005    2.42521E+005   -3.28922E+005   -1.80741E+005   -1.76668E+005   -3.70155E+005   -5.43180E+002   -2.36040E+004    1.83698E+005
            6019    3.43914E+005   -6.30822E+004   -4.41862E+005   -1.49171E+005   -4.41862E+005    3.78779E+005    2.18038E+005   -3.18288E+005   -1.48926E+005   -1.27653E+005   -3.77535E+005   -2.41793E+003   -1.02944E+004    1.41849E+005
            6020    3.38509E+005   -9.29565E+004   -4.68303E+005   -1.86157E+005   -4.68303E+005    3.75346E+005    2.49139E+005   -3.07598E+005   -1.86169E+005   -1.75558E+005   -3.85689E+005   -6.28269E+002   -2.01231E+004    1.54202E+005
            6021    3.55893E+005   -8.84048E+004   -4.79746E+005   -1.75453E+005   -4.79746E+005    3.91341E+005    2.47868E+005   -3.30644E+005   -1.75197E+005   -1.41757E+005   -4.26650E+005   -3.26482E+003   -6.13780E+003    1.33864E+005
            6022    3.33135E+005   -1.04489E+005   -4.72899E+005   -1.92857E+005   -4.72899E+005    3.68410E+005    2.56748E+005   -3.05050E+005   -1.92704E+005   -1.82034E+005   -3.95507E+005   -1.29513E+003   -1.62023E+004    1.49197E+005
            6023    3.13796E+005   -1.33033E+005   -4.76969E+005   -2.06267E+005   -4.76969E+005    3.43936E+005    2.72090E+005   -2.93630E+005   -2.06174E+005   -1.88848E+005   -4.21247E+005   -1.32976E+003   -1.27055E+004    1.26089E+005
            6024    2.85750E+005   -1.47693E+005   -4.58520E+005   -2.07227E+005   -4.58520E+005    3.10827E+005    2.71147E+005   -2.71264E+005   -2.07224E+005   -1.85176E+005   -4.21040E+005   -1.01592E+003   -1.00553E+004    1.00712E+005
            6025    3.48451E+005   -1.06001E+005   -4.88910E+005   -1.90434E+005   -4.88910E+005    3.82909E+005    2.61782E+005   -3.24215E+005   -1.90140E+005   -1.50671E+005   -4.44533E+005   -3.88136E+003   -4.59864E+003    1.22468E+005
            6026    3.30036E+005   -1.25998E+005   -4.87516E+005   -2.02342E+005   -4.87516E+005    3.61518E+005    2.71952E+005   -3.09219E+005   -2.02151E+005   -1.60123E+005   -4.53582E+005   -2.97550E+003   -4.31753E+003    1.05341E+005
            6027    2.92233E+005   -1.69200E+005   -4.82816E+005   -2.18149E+005   -4.82816E+005    3.13616E+005    2.90055E+005   -2.82789E+005   -2.18057E+005   -1.87400E+005   -4.64709E+005   -4.14820E+003    4.16826E+003    7.29335E+004
            6028    3.44455E+005   -1.25915E+005   -5.03492E+005   -2.06419E+005   -5.03492E+005    3.77578E+005    2.78609E+005   -3.22253E+005   -2.06291E+005   -1.46063E+005   -4.83472E+005   -6.46177E+003    5.90853E+003    8.41993E+004
            6029    1.05343E+005    5.81749E+004   -6.33666E+004   -6.82550E+003   -6.33666E+004    1.21541E+005    4.00573E+003    5.19878E+004   -6.84134E+003   -5.65400E+004    5.13642E+004   -1.10978E+003   -1.88615E+002    2.79449E+004
            6030    8.52586E+004    5.82642E+004    5.82642E+004    9.38580E+002   -3.97122E+004    9.79763E+004   -6.49686E+003    5.64095E+004    8.99537E+002   -3.96049E+004    5.81960E+004   -1.26713E+003    2.59307E+002    2.56624E+003
            6031    7.44130E+004    6.36821E+004    6.36821E+004    8.67364E+003   -2.09872E+004    8.46693E+004   -1.71229E+004    5.87127E+004    8.60578E+003   -1.91548E+004    6.19176E+004   -1.49343E+003    1.99555E+002   -1.20790E+004
            6032    6.42473E+004    6.48542E+004    6.48542E+004    1.36820E+004   -7.24818E+003    7.21024E+004   -2.37627E+004    5.57652E+004    1.35735E+004   -2.76013E+003    6.04747E+004   -1.75047E+003    4.15739E+002   -1.71797E+004
            6033    7.35758E+004    8.04234E+004    8.04234E+004    1.88556E+004   -1.06006E+003    8.14835E+004   -3.27397E+004    6.70982E+004    1.87231E+004    2.56411E+002    7.92395E+004   -1.66643E+003    1.74298E+002   -9.73264E+003
            6034    9.35796E+004    1.05014E+005    1.05014E+005    2.62493E+004    1.56735E+003    1.03447E+005   -4.42769E+004    8.57860E+004    2.62400E+004    1.65343E+003    1.04937E+005   -4.79837E+002   -1.15571E+002   -2.81428E+003
            6035    7.86708E+004    8.06689E+004    8.06689E+004    1.65858E+004   -7.13216E+003    8.78010E+004   -3.00408E+004    6.99218E+004    1.64836E+004   -6.39968E+003    8.00385E+004   -1.53562E+003   -6.59580E+002   -7.38240E+003
            6036    1.00317E+005    1.09344E+005    1.09344E+005    2.60783E+004   -2.02886E+003    1.11373E+005   -4.44645E+004    9.08048E+004    2.60908E+004   -1.99596E+003    1.09299E+005   -4.77507E+002   -1.34110E+003   -1.63819E+003
            6037    8.44940E+004    7.71333E+004    7.71333E+004    1.23726E+004   -1.84434E+004    9.55767E+004   -2.36875E+004    7.00647E+004    1.23187E+004   -1.81412E+004    7.68851E+004   -1.34426E+003   -3.72410E+002    4.83363E+003
            6038    9.86222E+004    1.05932E+005    1.05932E+005    2.53535E+004   -4.04704E+003    1.09979E+005   -4.24128E+004    8.79210E+004    2.53563E+004   -3.87718E+003    1.05759E+005   -5.14844E+002   -9.07831E+002    4.21807E+003
            6039    9.18843E+004    7.20615E+004    7.20615E+004    6.20767E+003   -3.29084E+004    1.04970E+005   -1.51203E+004    6.90380E+004    6.20859E+003   -2.40713E+004    6.32235E+004   -1.33267E+003   -9.69351E+002    2.91009E+004
            6040    8.76391E+004    9.14537E+004    9.14537E+004    2.00563E+004   -6.35314E+003    9.78068E+004   -3.50523E+004    7.79026E+004    2.00936E+004   -4.84971E+003    8.99129E+004   -5.82815E+002   -1.68246E+003    1.20093E+004
            6041    6.72561E+004    6.73232E+004    6.73232E+004    1.25072E+004   -7.72716E+003    7.50503E+004   -2.40344E+004    5.98106E+004    1.25394E+004   -2.99367E+003    6.25575E+004   -6.49204E+002   -1.29687E+003    1.82305E+004
            6042    4.82369E+004    3.71689E+004    3.71689E+004   -9.43836E+002   -1.70637E+004    5.42325E+004   -6.38712E+003    4.14937E+004   -9.26913E+002   -3.17844E+003    2.32667E+004   -7.15415E+002   -6.45435E+002    2.36583E+004
            6043    1.01795E+005    6.98526E+004    6.98526E+004    1.51476E+003   -4.71394E+004    1.16992E+005   -8.07599E+003    6.71019E+004    1.53289E+003   -1.90689E+004    4.17640E+004   -1.41086E+003   -8.82342E+002    4.99403E+004
            6044    1.07847E+005    6.53784E+004    6.53784E+004   -3.92477E+003   -5.88767E+004    1.24255E+005   -8.58989E+002    6.29036E+004   -3.91223E+003   -8.05559E+003    1.45448E+004   -1.67079E+003   -4.81772E+002    6.10672E+004
            6045    1.49074E+005    8.59461E+004   -8.61318E+004   -3.94893E+003   -8.61318E+004    1.72078E+005    1.37820E+003    6.35664E+004   -3.94090E+003   -1.17233E+004    1.15296E+004   -1.77316E+003   -3.53845E+002    8.52308E+004
            6046    1.82855E+005    1.01391E+005   -1.09750E+005   -4.93159E+003   -1.09750E+005    2.11141E+005    4.43027E+003    4.22515E+004   -4.92708E+003   -1.68184E+004    8.45466E+003   -1.40991E+003   -2.57594E+002    1.04802E+005
            6047    2.12033E+005    1.16732E+005   -1.28100E+005   -4.79726E+003   -1.28100E+005    2.44832E+005    5.38854E+003   -4.92720E+004   -4.79541E+003   -1.86223E+004    7.25213E+003   -8.90699E+002   -1.69882E+002    1.21727E+005
            6048    2.38125E+005    1.31608E+005   -1.43348E+005   -4.29174E+003   -1.43348E+005    2.74957E+005    5.34396E+003   -6.45111E+004   -4.29107E+003   -1.70156E+004    5.27477E+003   -4.56518E+002   -1.15639E+002    1.37025E+005
            6049    1.42136E+005    7.90083E+004   -8.50707E+004   -6.36096E+003   -8.50707E+004    1.64079E+005    4.14112E+003    5.86418E+004   -6.34884E+003   -4.03465E+004    3.42720E+004   -1.39996E+003   -7.04794E+002    7.30485E+004
            6050    1.83696E+005    9.32383E+004   -1.18870E+005   -1.14330E+004   -1.18870E+005    2.12108E+005    1.23548E+004   -5.19200E+004   -1.14257E+004   -5.41523E+004    2.85135E+004   -9.11167E+002   -5.72672E+002    9.76620E+004
            6051    2.18092E+005    1.08403E+005   -1.43388E+005   -1.36170E+004   -1.43388E+005    2.51791E+005    1.62004E+004   -8.20670E+004   -1.36125E+004   -5.79522E+004    2.29635E+004   -4.23405E+002   -6.04612E+002    1.19215E+005
            6052    2.47048E+005    1.24874E+005   -1.60343E+005   -1.31745E+004   -1.60343E+005    2.85217E+005    1.62147E+004   -9.41508E+004   -1.31733E+004   -5.52628E+004    1.97920E+004   -5.75405E+001   -6.21337E+002    1.37581E+005
            6053    2.64907E+005    1.18235E+005   -1.87476E+005   -2.55986E+004   -1.87476E+005    3.05711E+005    3.16133E+004   -1.23779E+005   -2.56000E+004   -1.12378E+005    4.31384E+004    3.54698E+002   -3.80689E+002    1.31598E+005
            6054    2.17764E+005    9.12959E+004   -1.59967E+005   -2.58790E+004   -1.59967E+005    2.51263E+005    3.15168E+004   -1.06285E+005   -2.58792E+004   -1.12208E+005    4.35366E+004    1.38458E+002   -2.08461E+002    9.85857E+004
            6055    1.74395E+005    7.54107E+004   -1.25886E+005   -2.04189E+004   -1.25886E+005    2.01297E+005    2.36314E+004   -7.60138E+004   -2.04180E+004   -9.57766E+004    4.53004E+004   -2.70460E+002   -2.46609E+002    7.17933E+004
            6056    1.31796E+005    6.62271E+004   -8.59553E+004   -1.06374E+004   -8.59553E+004    1.52182E+005    1.01219E+004    3.42837E+004   -1.06430E+004   -6.95394E+004    4.98168E+004   -8.01901E+002   -8.15300E+001    4.71990E+004
            6057    9.08381E+004    1.00258E+005    1.00258E+005    2.28694E+004    2.46923E+002    1.00011E+005   -4.11249E+004    8.41428E+004    2.28967E+004    2.70427E+002    1.00208E+005   -5.01787E+002   -1.74949E+003   -1.07324E+003
            6058    6.68204E+004    7.73997E+004    7.73997E+004    1.88831E+004    4.58891E+003    7.28108E+004   -3.36239E+004    6.32417E+004    1.86087E+004    5.11629E+003    7.71467E+004   -1.95888E+003   -1.09560E+003   -4.13471E+003
            6059    5.02873E+004    5.78240E+004    5.78240E+004    1.42826E+004    2.78290E+003    5.50411E+004   -2.49632E+004    4.71909E+004    1.39312E+004    7.69207E+003    5.32663E+004   -2.03300E+003   -1.55291E+002   -1.51079E+004
            6060    9.01252E+004    1.02294E+005    1.02294E+005    2.51751E+004    3.21941E+003    9.90745E+004   -4.35628E+004    8.37851E+004    2.51615E+004    3.28817E+003    1.02239E+005   -6.41145E+002   -5.63387E+002    2.24186E+003
            6061    6.78331E+004    7.85124E+004    7.85124E+004    1.96038E+004    4.35174E+003    7.41607E+004   -3.41560E+004    6.38017E+004    1.92822E+004    4.93440E+003    7.82514E+004   -2.22729E+003   -3.35729E+002    4.35151E+003
            6062    3.23033E+004    4.65602E+004    4.65602E+004    1.70675E+004    1.20366E+004    3.45236E+004   -2.52214E+004    3.14037E+004    1.39166E+004    1.52460E+004    4.65017E+004   -2.42988E+003   -1.44695E+002   -1.35225E+003
            6063    1.03298E+005    1.13399E+005    1.13399E+005    2.53899E+004   -3.29186E+002    1.13728E+005   -4.61532E+004    9.56888E+004    2.55506E+004   -2.47907E+001    1.12934E+005   -7.33201E+002   -3.85308E+003    5.76259E+003
            6064    7.89085E+004    9.00046E+004    9.00046E+004    2.13253E+004    3.81014E+003    8.61944E+004   -3.83800E+004    7.43437E+004    2.12136E+004    7.32120E+003    8.66052E+004   -2.81591E+003   -2.90736E+003    1.63289E+004
            6065    4.49855E+004    5.57159E+004    5.57159E+004    1.44187E+004    7.77994E+003    4.79360E+004   -2.59715E+004    4.38631E+004    1.37005E+004    1.84227E+004    4.57913E+004   -3.19444E+003   -1.28784E+003    1.90397E+004
            6066    2.44754E+005    1.47295E+005    1.47295E+005    4.33287E+003   -1.35317E+005    2.82612E+005   -5.43678E+003    6.67617E+004    4.33233E+003    1.75390E+004   -5.56096E+003   -3.88079E+002    1.11060E+002    1.40832E+005
            6067    2.54947E+005    1.64522E+005    1.64522E+005    1.28228E+004   -1.29819E+005    2.94341E+005   -1.58421E+004    9.59276E+004    1.28221E+004    5.45694E+004   -1.98653E+004   -9.43864E+000    5.82496E+002    1.42386E+005
            6068    2.69439E+005    1.89796E+005    1.89796E+005    2.52495E+004   -1.21150E+005    3.10945E+005   -3.12985E+004    1.25426E+005    2.52509E+004    1.11525E+005   -4.28807E+004    3.83982E+002    3.09537E+002    1.34949E+005
            6069    2.66754E+005    1.58483E+005    1.58483E+005    3.07633E+003   -1.49534E+005    3.08017E+005   -4.00869E+003    6.68347E+004    3.07620E+003    1.30018E+004   -4.05194E+003   -1.71014E+002    6.16742E+001    1.53772E+005
            6070    2.81760E+005    1.76112E+005    1.76112E+005    9.79053E+003   -1.49209E+005    3.25321E+005   -1.22313E+004    9.55290E+004    9.79123E+003    4.22254E+004   -1.53226E+004    1.62722E+002    4.94131E+002    1.60094E+005
            6071    3.11470E+005    2.06437E+005    2.06437E+005    1.94911E+004   -1.53122E+005    3.59559E+005   -2.42688E+004    1.27737E+005    1.94926E+004    8.99472E+004   -3.66336E+004    4.32744E+002    3.28939E+002    1.68270E+005
            6072    2.82616E+005    1.65617E+005    1.65617E+005    1.65660E+003   -1.60719E+005    3.26335E+005   -2.18484E+003    5.74749E+004    1.65656E+003    7.06475E+003   -2.16679E+003   -9.24478E+001    3.07517E+001    1.63102E+005
            6073    3.00721E+005    1.80282E+005    1.80282E+005    4.80722E+003   -1.66954E+005    3.47236E+005   -6.04529E+003    7.95709E+004    4.80779E+003    2.14742E+004   -8.14610E+003    2.12860E+002    2.40001E+002    1.72985E+005
            6074    3.41268E+005    2.11514E+005    2.11514E+005    1.04820E+004   -1.82521E+005    3.94035E+005   -1.31584E+004    1.11933E+005    1.04829E+004    4.99853E+004   -2.09930E+004    4.28221E+002    1.77402E+002    1.93794E+005
            6075    2.87330E+005    1.65488E+005   -1.66292E+005   -2.83159E+002   -1.66292E+005    3.31780E+005    3.62369E+002   -3.08735E+004   -2.83149E+002   -1.23951E+003    4.35551E+002   -7.40128E+001   -1.07538E+001    1.65888E+005
            6076    3.06594E+005    1.76231E+005   -1.77793E+005   -5.42713E+002   -1.77793E+005    3.54024E+005    7.01750E+002   -4.06706E+004   -5.42733E+002   -2.80087E+003    1.23835E+003    2.24508E+002   -6.89196E+000    1.77001E+005
            6077    3.51909E+005    2.02474E+005   -2.03875E+005   -4.64492E+002   -2.03875E+005    4.06349E+005    6.21835E+002   -4.44263E+004   -4.64516E+002   -2.30998E+003    9.08991E+002    4.13809E+002   -4.56231E+000    2.03168E+005
            6078    2.79090E+005    1.58320E+005   -1.63943E+005   -1.90066E+003   -1.63943E+005    3.22263E+005    2.50793E+003   -5.97070E+004   -1.90062E+003   -8.30889E+003    2.68571E+003   -9.80452E+001   -3.73788E+001    1.61038E+005
            6079    2.96656E+005    1.62760E+005   -1.79778E+005   -6.14676E+003   -1.79778E+005    3.42537E+005    7.72151E+003   -8.54341E+004   -6.14749E+003   -2.72631E+004    1.02460E+004    2.13408E+002   -3.14847E+002    1.70238E+005
            6080    3.39420E+005    1.80706E+005   -2.11193E+005   -1.11092E+004   -2.11193E+005    3.91899E+005    1.38651E+004   -1.12622E+005   -1.11103E+004   -5.30748E+004    2.25897E+004    4.26750E+002   -2.30391E+002    1.92262E+005
            6081    2.60899E+005    1.45628E+005   -1.55627E+005   -3.46614E+003   -1.55627E+005    3.01255E+005    4.48848E+003   -6.79065E+004   -3.46594E+003   -1.45270E+004    4.52746E+003   -2.07351E+002   -7.63633E+001    1.50326E+005
            6082    2.74793E+005    1.44395E+005   -1.72877E+005   -1.03477E+004   -1.72877E+005    3.17272E+005    1.29432E+004   -9.58900E+004   -1.03482E+004   -4.46766E+004    1.61953E+004    1.34852E+002   -4.88133E+002    1.55688E+005
            6083    3.07911E+005    1.49997E+005   -2.05442E+005   -2.01826E+004   -2.05442E+005    3.55439E+005    2.52093E+004   -1.28924E+005   -2.01841E+004   -9.28380E+004    3.73942E+004    4.40661E+002   -3.13150E+002    1.65360E+005
            6084    2.11606E+005    1.87961E+005    1.87961E+005    3.42416E+004   -5.33822E+004    2.41343E+005   -5.62735E+004    1.62550E+005    3.42874E+004   -1.29370E+004    1.47470E+005   -7.95172E+003   -4.71366E+003    8.96945E+004
            6085    1.75249E+005    1.79404E+005    1.79404E+005    3.78499E+004   -1.66078E+004    1.96012E+005   -6.68822E+004    1.54417E+005    3.77752E+004   -8.10825E+003    1.70980E+005   -5.94966E+003   -5.70886E+003    3.89338E+004
            6086    1.82505E+005    2.03673E+005    2.03673E+005    4.75584E+004    3.02224E+003    2.00651E+005   -8.47513E+004    1.69620E+005    4.78186E+004    3.79651E+003    2.02639E+005   -1.68530E+003   -6.71036E+003    1.21347E+004
            6087    1.48496E+005    1.34321E+005    1.34321E+005    2.37837E+004   -3.44690E+004    1.68790E+005   -4.12120E+004    1.18356E+005    2.38887E+004    4.37969E+003    9.53675E+004   -6.38061E+003   -3.68168E+003    7.07199E+004
            6088    1.37729E+005    1.44783E+005    1.44783E+005    3.18322E+004   -8.65025E+003    1.53434E+005   -5.59884E+004    1.23239E+005    3.20618E+004    1.95817E+003    1.33945E+005   -4.66762E+003   -6.04808E+003    3.84738E+004
            6089    1.54395E+005    1.68084E+005    1.68084E+005    3.83182E+004   -2.66864E+003    1.70753E+005   -6.79113E+004    1.41357E+005    3.87362E+004   -1.82659E+003    1.66824E+005   -1.20636E+003   -7.38756E+003    1.18643E+004
            6090    9.41038E+004    9.38268E+004    9.38268E+004    1.92059E+004   -1.18892E+004    1.05716E+005   -3.37145E+004    8.12783E+004    1.91340E+004    1.87592E+004    6.32503E+004   -4.47875E+003   -1.67931E+003    4.76934E+004
            6091    1.04289E+005    1.12812E+005    1.12812E+005    2.61516E+004   -2.93153E+003    1.15743E+005   -4.53440E+004    9.44994E+004    2.59728E+004    4.35954E+003    1.05700E+005   -3.67782E+003   -2.46321E+003    2.75121E+004
            6092    1.22151E+005    1.38129E+005    1.38129E+005    3.41773E+004    3.59092E+003    1.34538E+005   -5.86324E+004    1.13044E+005    3.42436E+004    4.36672E+003    1.37287E+005   -1.07855E+003   -2.98613E+003    1.00264E+004
            6093    7.90750E+004    5.91668E+003   -8.21483E+004   -1.72287E+004   -8.21483E+004    8.80650E+004    3.11534E+004   -7.08311E+004   -1.72777E+004    4.07028E+003   -8.02529E+004   -4.98972E+002    1.77369E+003    1.26052E+004
            6094    9.31239E+004    1.76888E+003   -1.01781E+005   -2.49034E+004   -1.01781E+005    1.03550E+005    4.16385E+004   -8.38627E+004   -2.49208E+004    1.26569E+003   -1.01260E+005   -4.31516E+002    1.26712E+003    7.16855E+003
            6095    1.04378E+005    3.32446E+003   -1.12866E+005   -2.70325E+004   -1.12866E+005    1.16191E+005    4.55248E+004   -9.36459E+004   -2.70560E+004    3.27844E+003   -1.12797E+005   -4.05640E+002    1.54722E+003    2.19127E+003
            6096    1.02336E+005   -1.04994E+003   -1.14538E+005   -2.92808E+004   -1.14538E+005    1.13488E+005    4.82896E+004   -9.29517E+004   -2.92773E+004   -1.06799E+003   -1.14523E+005   -3.90774E+002    4.28075E+002   -1.19148E+003
            6097    1.00668E+005    1.84154E+003   -1.09695E+005   -2.55758E+004   -1.09695E+005    1.11537E+005    4.44765E+004   -9.16878E+004   -2.55899E+004    1.79783E+003   -1.09638E+005   -4.26196E+002    1.35100E+003   -2.01183E+003
            6098    8.38787E+004    2.30426E+004   -7.21335E+004   -8.99664E+003   -7.21335E+004    9.51762E+004    1.93625E+004   -6.79075E+004   -9.03003E+003    1.02327E+004   -5.92902E+004   -1.20326E+003    1.34838E+003    3.24580E+004
            6099    8.51031E+004    1.56832E+004   -8.02289E+004   -1.37474E+004   -8.02289E+004    9.59121E+004    2.60977E+004   -7.22458E+004   -1.37380E+004    1.22504E+004   -7.68054E+004   -1.08864E+003    9.07857E+002    1.77445E+004
            6100    8.62015E+004    7.22151E+003   -8.89643E+004   -1.86923E+004   -8.89643E+004    9.61858E+004    3.34783E+004   -7.66751E+004   -1.86741E+004    6.98828E+003   -8.87492E+004   -1.05252E+003    1.15261E+003    4.32100E+003
            6101    8.85133E+004    5.20721E+003   -9.34373E+004   -2.09514E+004   -9.34373E+004    9.86445E+004    3.63938E+004   -7.90897E+004   -2.09141E+004    4.98233E+003   -9.32498E+004   -9.84885E+002    2.25536E+002   -4.29086E+003
            6102    8.40073E+004   -1.39235E+003   -9.39252E+004   -2.24502E+004   -9.39252E+004    9.25328E+004    3.92559E+004   -7.77294E+004   -2.24130E+004   -1.79743E+003   -9.35573E+004   -9.73590E+002    1.06612E+003   -5.70900E+003
            6103    1.06531E+005    5.11062E+004   -7.14236E+004   -7.36493E+002   -7.14236E+004    1.22530E+005    7.01796E+003   -6.82169E+004   -7.52464E+002    2.86038E+004   -4.89052E+004   -1.49231E+003    9.74366E+002    4.74178E+004
            6104    9.06136E+004    3.30665E+004   -7.05192E+004   -5.94637E+003   -7.05192E+004    1.03586E+005    1.44663E+004   -6.74198E+004   -5.91852E+003    2.65967E+004   -6.40772E+004   -1.40377E+003    5.12060E+002    2.49895E+004
            6105    8.27634E+004    2.03688E+004   -7.33128E+004   -1.01133E+004   -7.33128E+004    9.36816E+004    2.10191E+004   -6.83028E+004   -1.00591E+004    2.00833E+004   -7.30815E+004   -1.44378E+003    7.56654E+002    4.53810E+003
            6106    7.59472E+004    6.69478E+003   -7.80978E+004   -1.63203E+004   -7.80978E+004    8.47926E+004    2.92411E+004   -6.74050E+004   -1.62247E+004    6.07354E+003   -7.75721E+004   -1.49480E+003   -7.30968E+001   -6.64814E+003
            6107    7.38158E+004    2.83884E+003   -7.88169E+004   -1.68225E+004   -7.88169E+004    8.16558E+004    3.09335E+004   -6.75377E+004   -1.66688E+004    1.43375E+003   -7.75655E+004   -1.67733E+003    7.53373E+002   -1.00021E+004
            6108    1.31526E+005    8.03279E+004    8.03279E+004    7.63077E+003   -7.14999E+004    1.51828E+005   -5.48625E+003   -5.50478E+004    7.62707E+003    5.44660E+004   -4.56344E+004   -1.12803E+003    5.72284E+002    5.70640E+004
            6109    1.02910E+005    5.58856E+004   -6.27110E+004    3.04265E+003   -6.27110E+004    1.18597E+005    1.26092E+003   -5.88697E+004    3.06798E+003    4.97247E+004   -5.65755E+004   -1.27784E+003    1.28596E+002    2.62592E+004
            6110    8.25745E+004    3.05895E+004   -6.38273E+004   -5.10205E+003   -6.38273E+004    9.44168E+004    1.27799E+004   -6.12225E+004   -5.03316E+003    3.03814E+004   -6.36880E+004   -1.58804E+003    1.97535E+002    3.60772E+003
            6111    7.40909E+004    1.68803E+004   -6.70845E+004   -1.08932E+004   -6.70845E+004    8.39648E+004    2.03658E+004   -6.05979E+004   -1.07947E+004    1.52276E+004   -6.55302E+004   -1.80319E+003   -4.65344E+002   -1.12778E+004
            6112    6.19597E+004    1.35759E+003   -6.73018E+004   -1.55532E+004   -6.73018E+004    6.86594E+004    2.71658E+004   -5.64070E+004   -1.52943E+004   -1.58071E+003   -6.46224E+004   -2.06889E+003    2.54436E+002   -1.32687E+004
            6113    6.44360E+004    1.18009E+004   -6.09309E+004   -1.09793E+004   -6.09309E+004    7.27318E+004    2.00364E+004   -5.41970E+004   -1.08612E+004    5.58925E+003   -5.48374E+004   -1.86393E+003   -2.38121E+002   -2.01119E+004
            6114    7.48813E+004    2.63334E+004   -5.93085E+004   -6.17688E+003   -5.93085E+004    8.56419E+004    1.30506E+004   -5.52940E+004   -6.12545E+003    2.46606E+004   -5.76870E+004   -1.51745E+003   -5.67753E+002   -1.16274E+004
            6115    8.96266E+004    4.91964E+004   -5.40885E+004    3.21906E+003   -5.40885E+004    1.03285E+005    5.57682E+002   -5.13998E+004    3.24640E+003    4.91653E+004   -5.40847E+004   -1.15258E+003   -3.12065E+002    4.77364E+002
            6116    1.11629E+005    7.42694E+004    7.42694E+004    1.09471E+004   -5.46218E+004    1.28891E+005   -1.01982E+004   -3.47563E+004    1.09597E+004    7.04418E+004   -5.08068E+004   -8.69775E+002   -2.47311E+002    2.18424E+004
            6117    1.41982E+005    1.00892E+005    1.00892E+005    1.66791E+004   -6.30335E+004    1.63926E+005   -1.81793E+004    5.14304E+004    1.66815E+004    8.46575E+004   -4.68013E+004   -6.23997E+002    1.27992E+002    4.89607E+004
            6118    1.78843E+005    1.28766E+005    1.28766E+005    2.03776E+004   -7.76580E+004    2.06424E+005   -2.38286E+004    7.91661E+004    2.03774E+004    9.77157E+004   -4.66075E+004   -2.08409E+002    1.04786E+002    7.37928E+004
            6119    2.23496E+005    1.62801E+005    1.62801E+005    2.55692E+004   -9.50930E+004    2.57894E+005   -3.10923E+004    1.07411E+005    2.55695E+004    1.11790E+005   -4.40820E+004    1.74139E+002    2.88096E+002    1.02729E+005
            6120    2.25213E+005    1.48312E+005    1.48312E+005    1.40747E+004   -1.11696E+005    2.60008E+005   -1.68969E+004    8.63497E+004    1.40712E+004    6.04117E+004   -2.37921E+004   -3.08738E+002    6.11054E+002    1.22996E+005
            6121    2.19459E+005    1.32671E+005    1.32671E+005    4.82096E+003   -1.20735E+005    2.53406E+005   -5.58564E+003    5.49282E+004    4.81936E+003    1.89649E+004   -7.02733E+003   -7.55747E+002    1.67838E+002    1.26032E+005
            6122    1.89607E+005    1.23913E+005    1.23913E+005    1.23389E+004   -9.50128E+004    2.18926E+005   -1.37464E+004    6.10615E+004    1.23322E+004    5.79377E+004   -2.90306E+004   -7.73224E+002    5.81893E+002    1.00451E+005
            6123    1.92233E+005    1.15524E+005    1.15524E+005    4.82150E+003   -1.06447E+005    2.21971E+005   -4.63309E+003   -3.15249E+004    4.81769E+003    1.77626E+004   -8.68099E+003   -1.22791E+003    2.45637E+002    1.10188E+005
            6124    1.64397E+005    9.68318E+004    9.68318E+004    4.49162E+003   -9.29743E+004    1.89806E+005   -2.78304E+003   -5.92240E+004    4.48444E+003    1.42517E+004   -1.03870E+004   -1.66784E+003    3.34357E+002    9.40848E+004
            6125    1.30014E+005    7.43416E+004   -7.56662E+004    4.53372E+003   -7.56662E+004    1.50008E+005   -1.06968E+003   -6.40645E+004    4.52559E+003    1.02006E+004   -1.15171E+004   -1.83936E+003    3.62746E+002    7.41903E+004
            6126    8.91327E+004    4.66516E+004   -5.58293E+004    3.65147E+003   -5.58293E+004    1.02481E+005    1.84207E+003   -5.79056E+004    3.64013E+003    3.59156E+003   -1.27579E+004   -1.55973E+003    4.36929E+002    5.05591E+004
            6127    3.91026E+004    1.38535E+004   -2.96298E+004    2.64369E+003   -2.96298E+004    4.34833E+004    4.37753E+003   -3.52062E+004    2.62900E+003    2.55096E+003   -1.83126E+004   -6.31864E+002    5.68995E+002    1.90607E+004
            6128    1.54517E+005    9.52007E+004    9.52007E+004    7.77817E+003   -8.32088E+004    1.78409E+005   -6.59003E+003   -5.03484E+004    7.76915E+003    4.23712E+004   -3.03703E+004   -1.25176E+003    5.86497E+002    8.14417E+004
            6129    1.20281E+005    6.37219E+004   -7.49290E+004    1.42773E+003   -7.49290E+004    1.38651E+005    3.25981E+003   -6.72237E+004    1.41281E+003    2.03608E+004   -3.15530E+004   -1.62000E+003    7.10534E+002    6.42591E+004
            6130    8.74051E+004    3.59174E+004   -6.41491E+004   -2.72868E+003   -6.41491E+004    1.00067E+005    1.03201E+004   -6.34195E+004   -2.75434E+003    9.13747E+003   -3.73435E+004   -1.34602E+003    9.47337E+002    4.42808E+004
            6131    5.59975E+004    5.15477E+003   -5.67672E+004   -9.68269E+003   -5.67672E+004    6.19220E+004    2.04317E+004   -5.12879E+004   -9.71790E+003    4.77228E+002   -5.20545E+004   -5.54909E+002    1.22819E+003    1.63535E+004
            6132    2.55166E+005    2.98939E+005    2.98939E+005    7.25284E+004    2.24452E+004    2.76494E+005   -1.31304E+005    2.43737E+005    7.25186E+004    2.52915E+004    2.96103E+005   -9.79658E+002    2.16720E+003    2.77680E+004
            6133    2.41059E+005    2.59461E+005    2.59461E+005    5.05724E+004   -4.30603E+003    2.63767E+005   -1.01909E+005    2.26355E+005    5.05835E+004   -4.10120E+003    2.59245E+005   -1.64739E+003   -3.37303E+003    6.49808E+003
            6134    2.22870E+005    2.47883E+005    2.47883E+005    5.15078E+004    5.65226E+003    2.42231E+005   -1.01681E+005    2.11863E+005    5.17232E+004    5.91665E+003    2.47404E+005   -1.96123E+003   -7.38599E+003    6.91134E+003
            6135    2.10075E+005    2.25633E+005    2.25633E+005    4.75412E+004   -6.04614E+003    2.31679E+005   -8.90425E+004    1.93782E+005    4.79814E+004   -5.74348E+003    2.24890E+005   -1.77868E+003   -9.18342E+003    7.78504E+003
            6136    3.04734E+005    3.56797E+005    3.56797E+005    1.01633E+005    1.93785E+004    3.37419E+005   -1.59270E+005    2.78067E+005    1.01450E+005    2.98032E+004    3.46556E+005   -4.17826E+003   -8.18856E+002    5.78436E+004
            6137    2.71751E+005    3.06169E+005    3.06169E+005    8.03796E+004    4.56130E+003    3.01608E+005   -1.30370E+005    2.46216E+005    8.01280E+004    1.09493E+004    3.00033E+005   -6.00537E+003   -4.46058E+003    4.21265E+004
            6138    2.41813E+005    2.52346E+005    2.52346E+005    5.47696E+004   -1.73112E+004    2.69657E+005   -9.66015E+004    2.15580E+005    5.45257E+004   -1.41789E+004    2.49458E+005   -6.79773E+003   -6.74342E+003    2.63756E+004
            6139    2.08452E+005    2.16056E+005    2.16056E+005    4.73620E+004   -1.69824E+004    2.33038E+005   -8.21451E+004    1.84036E+005    4.74308E+004   -1.02527E+004    2.09257E+005   -6.51566E+003   -7.99069E+003    3.77866E+004
            6140    2.70151E+005    2.39974E+005    2.39974E+005    4.58928E+004   -6.85638E+004    3.08538E+005   -7.24342E+004    2.03796E+005    4.59565E+004   -3.79678E+004    2.09314E+005   -8.73502E+003   -6.47365E+003    9.16303E+004
            6141    3.25189E+005    3.12537E+005    3.12537E+005    7.27498E+004   -5.76050E+004    3.70142E+005   -1.09227E+005    2.55622E+005    7.27689E+004   -3.23416E+004    2.87254E+005   -8.39033E+003   -6.88566E+003    9.27314E+004
            6142    3.50982E+005    3.67130E+005    3.67130E+005    1.00931E+005   -3.06232E+004    3.97753E+005   -1.45813E+005    2.87079E+005    1.00859E+005   -1.21611E+004    3.48740E+005   -7.19260E+003   -5.62063E+003    8.30738E+004
            6143    3.94892E+005    4.53283E+005    4.53283E+005    1.43811E+005    8.53034E+003    4.44753E+005   -2.01875E+005    3.36499E+005    1.43736E+005    3.29650E+004    4.28924E+005   -6.03083E+003   -4.27065E+003    1.00967E+005
            6144    3.60478E+005    4.76624E+005    4.76624E+005    1.77989E+005    7.61949E+004    4.00430E+005   -2.43603E+005    3.25712E+005    1.77860E+005    1.01699E+005    4.51249E+005   -5.21031E+003   -2.84579E+003    9.74256E+004
            6145    3.36571E+005    4.97374E+005    4.97374E+005    2.07709E+005    1.28152E+005    3.69222E+005   -2.77745E+005    3.14354E+005    2.07633E+005    1.46779E+005    4.78822E+005   -3.31036E+003   -1.88749E+003    8.05961E+004
            6146    2.98469E+005    4.94447E+005    4.94447E+005    2.25464E+005    1.73355E+005    3.21092E+005   -2.97755E+005    2.87967E+005    2.25403E+005    1.94023E+005    4.73840E+005   -1.97419E+003   -3.46602E+002    7.86755E+004
            6147    2.51632E+005    4.48832E+005    4.48832E+005    2.15103E+005    1.82478E+005    2.66353E+005   -2.82138E+005    2.46807E+005    2.15038E+005    2.09394E+005    4.21980E+005   -1.27338E+003    7.75648E+002    8.01818E+004
            6148    2.91650E+005    4.47291E+005    4.47291E+005    1.96212E+005    1.27383E+005    3.19908E+005   -2.56962E+005    2.72463E+005    1.96151E+005    1.55250E+005    4.19485E+005   -1.62617E+003    2.38688E+003    9.00915E+004
            6149    2.49401E+005    4.25497E+005    4.25497E+005    2.01428E+005    1.56792E+005    2.68705E+005   -2.61239E+005    2.40167E+005    2.01409E+005    1.79387E+005    4.02921E+005   -7.23570E+002    3.97210E+003    7.44368E+004
            6150    3.26355E+005    4.84410E+005    4.84410E+005    2.05530E+005    1.25478E+005    3.58933E+005   -2.71806E+005    3.03061E+005    2.05451E+005    1.60361E+005    4.49605E+005   -1.94655E+003    2.90192E+003    1.06173E+005
            6151    2.94030E+005    4.73099E+005    4.73099E+005    2.15203E+005    1.52916E+005    3.20183E+005   -2.80406E+005    2.78600E+005    2.15187E+005    1.92213E+005    4.33818E+005   -7.61531E+002    5.97747E+003    1.04872E+005
            6152    3.55647E+005    5.00836E+005    5.00836E+005    2.01118E+005    1.07848E+005    3.92988E+005   -2.69934E+005    3.26387E+005    2.00994E+005    1.54587E+005    4.54221E+005   -2.62895E+003    3.30482E+003    1.27020E+005
            6153    3.23292E+005    4.77421E+005    4.77421E+005    2.03574E+005    1.20784E+005    3.56636E+005   -2.67260E+005    2.98010E+005    2.03535E+005    1.86835E+005    4.11410E+005   -8.35731E+002    8.54863E+003    1.38244E+005
            6154    3.41175E+005    4.52051E+005    4.52051E+005    1.66467E+005    7.42439E+004    3.77807E+005   -2.30920E+005    3.11227E+005    1.66274E+005    1.28172E+005    3.98315E+005   -3.12137E+003    4.24181E+003    1.31886E+005
            6155    3.33100E+005    4.74344E+005    4.74344E+005    1.94776E+005    1.05788E+005    3.68556E+005   -2.58303E+005    3.04588E+005    1.94745E+005    1.80485E+005    3.99679E+005   -7.41481E+002    1.11548E+004    1.47712E+005
            6156    3.61211E+005    4.71178E+005    4.71178E+005    1.78524E+005    6.74822E+004    4.03696E+005   -2.39062E+005    3.19283E+005    1.78490E+005    1.74031E+005    3.64663E+005   -3.97028E+002    1.28560E+004    1.77451E+005
            6157    4.50249E+005    5.77897E+005    5.77897E+005    2.15703E+005    7.37895E+004    5.04108E+005   -2.89130E+005    3.95021E+005    2.16133E+005    1.26032E+005    5.25225E+005   -2.65161E+002    1.61345E+004    1.53229E+005
            6158    3.89569E+005    4.72796E+005    4.72796E+005    1.54980E+005    3.81912E+004    4.34605E+005   -2.21989E+005    3.46776E+005    1.54895E+005    9.32893E+004    4.17783E+005   -2.36167E+003    7.30516E+003    1.44322E+005
            6159    3.28320E+005    3.55344E+005    3.55344E+005    8.99966E+004   -1.18226E+004    3.67166E+005   -1.44506E+005    2.89466E+005    9.04473E+004   -7.46865E+003    3.50539E+005   -8.56217E+002    1.16036E+004    3.95185E+004
            6160    4.83198E+004   -2.20474E+003   -5.52815E+004   -1.38454E+004   -5.52815E+004    5.30768E+004    2.37772E+004   -4.49998E+004   -1.35131E+004   -7.99015E+003   -4.98284E+004   -2.24722E+003   -3.57663E+002   -1.60146E+004
            6161    5.37420E+004   -2.85021E+003   -6.18059E+004   -1.55537E+004   -6.18059E+004    5.89556E+004    2.67366E+004   -5.01944E+004   -1.52010E+004   -4.98739E+003   -6.00214E+004   -2.23165E+003   -4.12602E+002   -1.00298E+004
            6162    6.48437E+004   -6.35371E+003   -7.69111E+004   -1.99309E+004   -7.69111E+004    7.05573E+004    3.43986E+004   -6.15225E+004   -1.96675E+004   -6.94811E+003   -7.65801E+004   -1.89126E+003   -1.40843E+002   -4.80280E+003
            6163    8.30099E+004    2.01031E+002   -9.15247E+004   -2.15695E+004   -9.15247E+004    9.17257E+004    3.76310E+004   -7.61798E+004   -2.15241E+004    6.42753E+001   -9.14333E+004   -9.90836E+002    1.29993E+002   -2.89071E+003
            6164    9.25580E+004   -2.64216E+003   -1.04708E+005   -2.62190E+004   -1.04708E+005    1.02066E+005    4.45232E+004   -8.54012E+004   -2.62106E+004   -2.65608E+003   -1.04703E+005   -4.56552E+002    1.95238E+002   -7.16261E+002
            6165    2.60258E+004   -9.77712E+003   -3.85374E+004   -1.66093E+004   -3.85374E+004    2.87603E+004    2.16413E+004   -2.38800E+004   -1.10931E+004   -1.66063E+004   -3.72244E+004   -2.65895E+003    4.65619E+002   -5.36364E+003
            6166    4.46005E+004   -1.18377E+004   -5.90861E+004   -1.77165E+004   -5.90861E+004    4.72484E+004    2.95468E+004   -4.37161E+004   -1.63442E+004   -1.35371E+004   -5.87591E+004   -2.62396E+003    1.24988E+003    3.55440E+003
            6167    6.67125E+004   -3.70429E+003   -7.61752E+004   -1.73228E+004   -7.61752E+004    7.24709E+004    3.24008E+004   -6.34710E+004   -1.70172E+004   -4.22826E+003   -7.59569E+004   -2.28477E+003    1.76225E+003    3.38409E+003
            6168    8.12567E+004   -4.51668E+003   -9.31524E+004   -2.21807E+004   -9.31524E+004    8.86357E+004    3.99499E+004   -7.67565E+004   -2.21829E+004   -4.73612E+003   -9.29307E+004   -1.17598E+003    2.16687E+003    3.67171E+003
            6169    9.78058E+004    2.15532E+003   -1.05834E+005   -2.32079E+004   -1.05834E+005    1.07989E+005    4.22954E+004   -8.99496E+004   -2.32750E+004    2.13100E+003   -1.05742E+005   -5.37176E+002    2.51906E+003    1.23516E+003
            6170    4.52300E+004   -6.66925E+003   -5.53512E+004   -1.46300E+004   -5.53512E+004    4.86819E+004    2.55501E+004   -4.36119E+004   -1.38459E+004   -2.30639E+004   -3.97407E+004   -3.45459E+003    5.04922E+002    2.23038E+004
            6171    5.91349E+004   -3.89727E+003   -6.86396E+004   -1.74734E+004   -6.86396E+004    6.47424E+004    3.00034E+004   -5.54636E+004   -1.68766E+004   -1.08629E+004   -6.22709E+004   -3.27424E+003    6.64093E+002    1.90932E+004
            6172    7.59496E+004   -6.39312E+003   -8.92977E+004   -2.30771E+004   -8.92977E+004    8.29045E+004    3.95893E+004   -7.16504E+004   -2.27126E+004   -1.04956E+004   -8.55598E+004   -2.86563E+003    1.08050E+003    1.70624E+004
            6173    9.49471E+004    8.47772E+002   -1.04123E+005   -2.42385E+004   -1.04123E+005    1.04971E+005    4.25047E+004   -8.70102E+004   -2.42050E+004   -2.65136E+002   -1.03044E+005   -1.45478E+003    1.50452E+003    1.04195E+004
            6174    1.04046E+005   -3.35338E+003   -1.18026E+005   -2.96543E+004   -1.18026E+005    1.14673E+005    5.03446E+004   -9.61307E+004   -2.96725E+004   -3.50629E+003   -1.17855E+005   -6.58283E+002    1.65769E+003    3.99229E+003
            6175    2.49173E+005   -1.81852E+005   -4.45589E+005   -2.14126E+005   -4.45589E+005    2.63737E+005    2.80522E+005   -2.44404E+005   -2.14067E+005   -2.09817E+005   -4.17682E+005   -1.14063E+003   -9.48990E+002    8.11130E+004
            6176    2.79285E+005   -1.22672E+005   -4.29072E+005   -1.88756E+005   -4.29072E+005    3.06401E+005    2.46833E+005   -2.60810E+005   -1.88703E+005   -1.49854E+005   -4.01943E+005   -1.46638E+003   -2.26137E+003    8.70130E+004
            6177    2.37055E+005   -1.53358E+005   -4.08255E+005   -1.94402E+005   -4.08255E+005    2.54897E+005    2.52005E+005   -2.28855E+005   -1.94388E+005   -1.71689E+005   -3.89939E+005   -6.79949E+002   -3.46492E+003    6.57353E+004
            6178    2.17333E+005   -1.33974E+005   -3.67858E+005   -1.72130E+005   -3.67858E+005    2.33884E+005    2.24654E+005   -2.09598E+005   -1.72083E+005   -1.85408E+005   -3.16472E+005   -8.56930E+002   -1.34716E+003    9.68235E+004
            6179    2.15458E+005   -9.34284E+004   -3.30269E+005   -1.45878E+005   -3.30269E+005    2.36841E+005    1.89859E+005   -2.00325E+005   -1.45835E+005   -1.17931E+005   -3.05810E+005   -1.18448E+003   -1.54105E+003    7.20561E+004
            6180    1.68458E+005   -1.23850E+005   -3.03211E+005   -1.48337E+005   -3.03211E+005    1.79361E+005    1.91799E+005   -1.64382E+005   -1.48320E+005   -1.31167E+005   -2.95911E+005   -5.70902E+002   -1.88592E+003    3.53910E+004
            6181    2.11213E+005   -1.97819E+004   -2.58480E+005   -9.57931E+004   -2.58480E+005    2.38698E+005    1.24685E+005   -1.76243E+005   -9.57721E+004   -1.08555E+005   -1.69728E+005   -8.28353E+002   -1.02409E+003    1.15352E+005
            6182    1.38830E+005   -3.18660E+004   -1.87354E+005   -7.58243E+004   -1.87354E+005    1.55488E+005    9.83480E+004   -1.21628E+005   -7.57896E+004   -6.22560E+004   -1.56999E+005   -9.85378E+002   -8.26512E+002    6.16219E+004
            6183    8.39337E+004   -6.53596E+004   -1.54284E+005   -7.64414E+004   -1.54284E+005    8.89241E+004    9.86949E+004   -8.22637E+004   -7.64188E+004   -6.72871E+004   -1.52379E+005   -4.55851E+002   -7.22403E+002    1.28544E+004
            6184    2.12140E+005    1.31300E+005    1.31300E+005    6.14008E+003   -1.13638E+005    2.44938E+005   -7.93400E+003    7.13491E+004    6.13749E+003    6.38862E+003    1.12759E+004   -8.65750E+002    1.64581E+002    1.22441E+005
            6185    1.01232E+005    7.24425E+004    7.24425E+004    9.78355E+003   -4.43461E+004    1.16789E+005   -1.26266E+004    5.07617E+004    9.77678E+003    8.76100E+003    1.93421E+004   -9.17224E+002    1.39951E+002    5.81465E+004
            6186    1.59666E+004    2.54490E+004    2.54490E+004    1.16697E+004    7.95138E+003    1.74976E+004   -1.50233E+004    1.49451E+004    1.16259E+004    1.05783E+004    2.28658E+004   -3.89759E+002    1.08723E+002    6.19762E+003
            6187    2.11194E+005    2.71574E+005    2.71574E+005    1.05059E+005    3.40202E+004    2.37554E+005   -1.36884E+005    1.81233E+005    1.05034E+005    1.18591E+005    1.87028E+005   -8.54751E+002    1.10630E+003    1.13727E+005
            6188    1.54053E+005    2.20923E+005    2.20923E+005    9.34730E+004    4.97277E+004    1.71195E+005   -1.21375E+005    1.39016E+005    9.34330E+004    7.69204E+004    1.93770E+005   -1.04973E+003    9.78578E+002    6.25278E+004
            6189    1.05715E+005    1.95725E+005    1.95725E+005    9.73252E+004    8.39658E+004    1.11760E+005   -1.25672E+005    1.03790E+005    9.73036E+004    8.66355E+004    1.93077E+005   -4.85842E+002    1.00846E+003    1.69680E+004
            6190    2.22756E+005    3.80277E+005    3.80277E+005    1.78816E+005    1.41052E+005    2.39224E+005   -2.33382E+005    2.15377E+005    1.78767E+005    1.90421E+005    3.30957E+005   -8.27684E+002    1.50378E+003    9.67605E+004
            6191    2.27723E+005    3.53299E+005    3.53299E+005    1.57194E+005    1.03540E+005    2.49758E+005   -2.04678E+005    2.12793E+005    1.57151E+005    1.27617E+005    3.29264E+005   -1.16475E+003    1.77369E+003    7.36339E+004
            6192    1.87341E+005    3.36017E+005    3.36017E+005    1.63987E+005    1.36420E+005    1.99597E+005   -2.12141E+005    1.82694E+005    1.63972E+005    1.45474E+005    3.26978E+005   -5.81767E+002    2.22277E+003    4.14420E+004
            6193    1.90835E+005    5.48143E+003   -2.05466E+005   -4.48217E+004   -2.05466E+005    2.10947E+005    8.16021E+004   -1.74962E+005   -4.53632E+004    5.27029E+003   -2.04713E+005   -1.29112E+003    9.44726E+003    6.33705E+003
            6194    1.74977E+005    2.73828E+003   -1.90600E+005   -4.31160E+004   -1.90600E+005    1.93339E+005    7.69927E+004   -1.60604E+005   -4.35443E+004   -1.23455E+002   -1.87310E+005   -3.09573E+003    8.44186E+003    2.29349E+004
            6195    1.78630E+005    2.13894E+004   -1.78610E+005   -3.49195E+004   -1.78610E+005    2.00000E+005    6.40467E+004   -1.56714E+005   -3.51472E+004    1.25039E+004   -1.69497E+005   -5.78850E+003    7.63060E+003    4.04608E+004
            6196    1.93408E+005    3.61911E+004   -1.83036E+005   -3.65318E+004   -1.83036E+005    2.19228E+005    6.11257E+004   -1.57930E+005   -3.67370E+004    1.16148E+004   -1.58255E+005   -7.39780E+003    6.61928E+003    6.86312E+004
            6197    2.27158E+005    7.17362E+004   -1.88348E+005   -2.88495E+004   -1.88348E+005    2.60085E+005    4.84873E+004   -1.64578E+005   -2.89281E+004    2.55272E+004   -1.42061E+005   -8.96475E+003    5.05356E+003    9.89241E+004
            6198    1.55689E+005   -3.49604E+003   -1.75357E+005   -4.37433E+004   -1.75357E+005    1.71861E+005    7.41986E+004   -1.43266E+005   -4.39184E+004   -3.87260E+003   -1.74805E+005   -1.13644E+003    5.02234E+003    7.81058E+003
            6199    1.47791E+005    6.89488E+003   -1.57437E+005   -3.54158E+004   -1.57437E+005    1.64332E+005    6.19859E+004   -1.33107E+005   -3.55313E+004    3.66475E+003   -1.54091E+005   -2.51791E+003    4.59650E+003    2.25082E+004
            6200    1.37554E+005    6.88380E+003   -1.46362E+005   -3.35738E+004   -1.46362E+005    1.53246E+005    5.76839E+004   -1.23061E+005   -3.34656E+004   -5.20949E+003   -1.34377E+005   -4.94958E+003    3.86531E+003    4.07020E+004
            6201    1.37071E+005    2.33833E+004   -1.31624E+005   -2.64078E+004   -1.31624E+005    1.55008E+005    4.48830E+004   -1.13881E+005   -2.62958E+004   -2.10005E+002   -1.08143E+005   -5.96766E+003    3.14353E+003    5.51892E+004
            6202    1.61787E+005    4.22063E+004   -1.42312E+005   -2.47627E+004   -1.42312E+005    1.84519E+005    4.16229E+004   -1.24316E+005   -2.47440E+004   -7.83805E+003   -9.22867E+004   -6.93471E+003    2.63357E+003    8.16908E+004
            6203    1.31289E+005    3.40981E+003   -1.41895E+005   -3.18017E+004   -1.41895E+005    1.45305E+005    5.67622E+004   -1.19957E+005   -3.20836E+004    3.13022E+003   -1.41333E+005   -8.25572E+002    5.62818E+003    6.25119E+003
            6204    1.14173E+005   -1.95624E+003   -1.27504E+005   -2.98908E+004   -1.27504E+005    1.25548E+005    5.31171E+004   -1.06068E+005   -3.01282E+004   -4.91463E+003   -1.24309E+005   -1.89904E+003    5.00591E+003    1.88789E+004
            6205    1.04481E+005    5.29116E+003   -1.10376E+005   -2.28389E+004   -1.10376E+005    1.15667E+005    4.26411E+004   -9.53883E+004   -2.29254E+004   -2.28335E+003   -1.02715E+005   -3.68522E+003    4.35913E+003    2.81615E+004
            6206    9.56965E+004    6.50541E+003   -1.00130E+005   -2.17239E+004   -1.00130E+005    1.06636E+005    3.84496E+004   -8.55491E+004   -2.18037E+004   -1.25184E+004   -8.10266E+004   -4.38241E+003    3.40016E+003    4.05053E+004
            6207    9.20720E+004    1.78641E+004   -8.59698E+004   -1.42755E+004   -8.59698E+004    1.03834E+005    2.74604E+004   -7.78616E+004   -1.42987E+004   -1.77818E+004   -5.03006E+004   -5.03366E+003    1.98525E+003    4.90121E+004
            6208    3.77302E+005   -6.95697E+004   -4.90578E+005   -1.83010E+005   -4.90578E+005    4.21008E+005    2.47719E+005   -3.35592E+005   -1.82952E+005   -8.92633E+004   -4.70942E+005   -4.73048E+003    3.72327E+003    8.86025E+004
            6209    3.88228E+005   -1.36941E+004   -4.51600E+005   -1.49585E+005   -4.51600E+005    4.37906E+005    2.04960E+005   -3.27931E+005   -1.49534E+005   -3.47938E+004   -4.30551E+005   -6.11075E+003    4.92620E+003    9.33734E+004
            6210    3.96598E+005    3.16637E+004   -4.18550E+005   -1.20846E+005   -4.18550E+005    4.50214E+005    1.69244E+005   -3.19863E+005   -1.20814E+005    8.94556E+003   -3.95864E+005   -7.85168E+003    6.50445E+003    9.79750E+004
            6211    3.57595E+005    7.78303E+004   -3.30799E+005   -7.50939E+004   -3.30799E+005    4.08629E+005    1.09354E+005   -2.67642E+005   -7.51180E+004    4.99722E+004   -3.02917E+005   -9.11999E+003    7.18960E+003    1.02363E+005
            6212    3.04837E+005    8.05368E+004   -2.68248E+005   -5.27737E+004   -2.68248E+005    3.48785E+005    8.01617E+004   -2.23574E+005   -5.27412E+004    4.04333E+004   -2.28177E+005   -9.58856E+003    5.72188E+003    1.10674E+005
            6213    2.35581E+005    4.46949E+004   -2.22670E+005   -4.55690E+004   -2.22670E+005    2.67365E+005    7.45147E+004   -1.90392E+005   -4.53689E+004    2.88287E+004   -2.07004E+005   -8.73585E+003    5.98393E+003    6.20154E+004
            6214    2.15239E+005    1.52847E+004   -2.24990E+005   -4.98174E+004   -2.24990E+005    2.40275E+005    8.65076E+004   -1.91131E+005   -4.96600E+004    8.08794E+003   -2.17951E+005   -6.56098E+003    6.20758E+003    3.96152E+004
            6215    2.09283E+005    1.18218E+004   -2.20291E+005   -4.59933E+004   -2.20291E+005    2.32113E+005    8.48210E+004   -1.90033E+005   -4.61052E+004    1.06176E+004   -2.18975E+005   -3.69210E+003    6.90285E+003    1.53673E+004
            6216    2.06447E+005   -4.32118E+003   -2.30174E+005   -5.11918E+004   -2.30174E+005    2.25852E+005    9.52289E+004   -1.93926E+005   -5.14748E+004   -4.45062E+003   -2.29761E+005   -1.57028E+003    7.60428E+003    4.41228E+003
            6217    2.89119E+005    3.49013E+004   -2.92325E+005   -7.14218E+004   -2.92325E+005    3.27226E+005    1.09615E+005   -2.38781E+005   -7.14276E+004    1.95369E+004   -2.76954E+005   -8.61050E+003    8.05876E+003    6.82181E+004
            6218    2.48411E+005    1.87604E+004   -2.58769E+005   -5.72277E+004   -2.58769E+005    2.77530E+005    9.90789E+004   -2.19889E+005   -5.72097E+004    1.46914E+004   -2.54718E+005   -6.22277E+003    7.74179E+003    3.17884E+004
            6219    2.26016E+005   -9.43932E+002   -2.49609E+005   -5.66644E+004   -2.49609E+005    2.48665E+005    1.02406E+005   -2.09710E+005   -5.68178E+004   -2.02719E+003   -2.48372E+005   -3.78025E+003    7.98719E+003    1.48163E+004
            6220    2.24552E+005    6.21411E+003   -2.39659E+005   -4.54244E+004   -2.39659E+005    2.45873E+005    9.29564E+004   -2.10562E+005   -4.57841E+004    6.16590E+003   -2.39251E+005   -1.42650E+003    8.74927E+003    1.72804E+003
            6221    3.12628E+005    1.33465E+004   -3.38389E+005   -9.21801E+004   -3.38389E+005    3.51735E+005    1.39074E+005   -2.67924E+005   -9.19590E+004   -4.33817E+001   -3.25220E+005   -8.22773E+003    6.09778E+003    6.61362E+004
            6222    2.83481E+005   -6.78056E+003   -3.20948E+005   -8.42677E+004   -3.20948E+005    3.14168E+005    1.37332E+005   -2.57994E+005   -8.40939E+004   -1.46551E+004   -3.13247E+005   -5.45809E+003    4.38720E+003    4.81984E+004
            6223    2.57879E+005    2.94491E+003   -2.81192E+005   -6.19779E+004   -2.81192E+005    2.84137E+005    1.13408E+005   -2.38430E+005   -6.18808E+004    1.99338E+003   -2.80338E+005   -3.62284E+003    4.05760E+003    1.47872E+004
            6224    2.27750E+005   -1.02627E+004   -2.55612E+005   -5.09446E+004   -2.55612E+005    2.45350E+005    1.05607E+005   -2.19351E+005   -5.09904E+004   -1.04383E+004   -2.55391E+005   -1.23495E+003    3.95881E+003    5.93465E+003
            6225    3.60198E+005   -1.82988E+004   -4.22080E+005   -1.33801E+005   -4.22080E+005    4.03781E+005    1.91393E+005   -3.14293E+005   -1.33646E+005   -4.28111E+004   -3.97723E+005   -6.86607E+003    4.27453E+003    9.58665E+004
            6226    3.02106E+005   -1.93364E+004   -3.54172E+005   -1.02009E+005   -3.54172E+005    3.34835E+005    1.58506E+005   -2.74877E+005   -1.01871E+005   -3.07612E+004   -3.42885E+005   -3.94555E+003    1.49544E+003    6.03637E+004
            6227    2.78605E+005   -2.02591E+004   -3.26369E+005   -8.76198E+004   -3.26369E+005    3.06109E+005    1.44749E+005   -2.59316E+005   -8.75027E+004   -2.65890E+004   -3.20156E+005   -2.87713E+003    1.74796E+002    4.31513E+004
            6228    2.52337E+005    4.77855E+003   -2.71355E+005   -5.27485E+004   -2.71355E+005    2.76134E+005    1.06442E+005   -2.36899E+005   -5.27393E+004    4.36307E+003   -2.70949E+005   -8.24537E+002   -9.25521E+002    1.05363E+004
            6229    3.46107E+005   -6.40566E+004   -4.47474E+005   -1.58128E+005   -4.47474E+005    3.83418E+005    2.23219E+005   -3.15366E+005   -1.57937E+005   -1.00231E+005   -4.11491E+005   -5.07158E+003    1.10914E+003    1.11741E+005
            6230    3.62012E+005   -3.71816E+004   -4.39034E+005   -1.38416E+005   -4.39034E+005    4.01853E+005    2.04877E+005   -3.27827E+005   -1.38318E+005   -7.48644E+004   -4.01449E+005   -2.62026E+003   -2.57705E+003    1.16978E+005
            6231    3.25906E+005   -9.84599E+003   -3.71608E+005   -1.00946E+005   -3.71608E+005    3.61762E+005    1.60800E+005   -2.95157E+005   -1.00909E+005   -2.11432E+004   -3.60348E+005   -2.21702E+003   -4.50724E+003    6.26458E+004
            6232    2.72569E+005   -2.29170E+004   -3.19762E+005   -8.07495E+004   -3.19762E+005    2.96845E+005    1.41143E+005   -2.58218E+005   -8.09160E+004   -2.62379E+004   -3.16274E+005   -3.29666E+002   -6.72126E+003    3.11242E+004
            6233    3.55810E+005    1.51981E+004   -3.84457E+005   -1.02124E+005   -3.84457E+005    3.99655E+005    1.57128E+005   -3.07547E+005   -1.02863E+005    1.06661E+004   -3.79186E+005   -3.20877E+002   -1.48419E+004    4.21325E+004
            6234    4.82421E+005   -7.75641E+004   -6.18496E+005   -2.32814E+005   -6.18496E+005    5.40932E+005    3.09625E+005   -4.20447E+005   -2.33316E+005   -1.28693E+005   -5.66866E+005   -2.17092E+002   -1.72924E+004    1.57833E+005
            6235    4.13845E+005   -2.73644E+004   -4.90996E+005   -1.58919E+005   -4.90996E+005    4.63632E+005    2.25760E+005   -3.62115E+005   -1.59031E+005   -8.38977E+004   -4.34351E+005   -1.40317E+003   -1.17725E+004    1.51343E+005
            6236    3.75603E+005   -6.59265E+004   -4.86462E+005   -1.84323E+005   -4.86462E+005    4.20535E+005    2.45570E+005   -3.29523E+005   -1.84297E+005   -1.78931E+005   -3.73483E+005   -3.71592E+002   -1.42436E+004    1.85861E+005
            6237    3.41725E+005   -6.29337E+004   -4.41925E+005   -1.57296E+005   -4.41925E+005    3.78991E+005    2.20718E+005   -3.10321E+005   -1.57161E+005   -1.28550E+005   -3.76444E+005   -1.97922E+003   -9.13554E+003    1.42988E+005
            6238    3.39611E+005   -9.43591E+004   -4.71607E+005   -1.90254E+005   -4.71607E+005    3.77248E+005    2.52073E+005   -3.06862E+005   -1.90215E+005   -1.77063E+005   -3.88942E+005   -7.49097E+002   -1.15917E+004    1.55619E+005
            6239    3.54519E+005   -8.83550E+004   -4.80659E+005   -1.83229E+005   -4.80659E+005    3.92304E+005    2.50748E+005   -3.24061E+005   -1.83040E+005   -1.42454E+005   -4.26749E+005   -2.96896E+003   -5.49345E+003    1.34950E+005
            6240    3.33720E+005   -1.06218E+005   -4.75836E+005   -1.96654E+005   -4.75836E+005    3.69618E+005    2.59569E+005   -3.04268E+005   -1.96621E+005   -1.83738E+005   -3.98349E+005   -6.70890E+002   -9.52984E+003    1.50151E+005
            6241    3.14694E+005   -1.34755E+005   -4.80132E+005   -2.09626E+005   -4.80132E+005    3.45377E+005    2.74838E+005   -2.93635E+005   -2.09581E+005   -1.90640E+005   -4.24293E+005   -9.47708E+002   -7.91649E+003    1.26905E+005
            6242    2.86751E+005   -1.50199E+005   -4.62424E+005   -2.10851E+005   -4.62424E+005    3.12225E+005    2.74491E+005   -2.71751E+005   -2.10828E+005   -1.87525E+005   -4.25121E+005   -8.23577E+002   -5.57859E+003    1.01115E+005
            6243    3.46193E+005   -1.06945E+005   -4.89329E+005   -1.97210E+005   -4.89329E+005    3.82384E+005    2.64495E+005   -3.18061E+005   -1.97073E+005   -1.51791E+005   -4.44620E+005   -2.78821E+003   -3.06886E+003    1.22826E+005
            6244    3.26782E+005   -1.26356E+005   -4.85911E+005   -2.07003E+005   -4.85911E+005    3.59555E+005    2.73090E+005   -3.03155E+005   -2.06917E+005   -1.60569E+005   -4.51783E+005   -2.09062E+003   -2.65697E+003    1.05349E+005
            6245    2.92506E+005   -1.72089E+005   -4.86543E+005   -2.22551E+005   -4.86543E+005    3.14454E+005    2.93728E+005   -2.82462E+005   -2.22486E+005   -1.90587E+005   -4.68109E+005   -2.03772E+003    4.61057E+002    7.38536E+004
            6246    3.44665E+005   -1.27669E+005   -5.06378E+005   -2.11058E+005   -5.06378E+005    3.78709E+005    2.81702E+005   -3.20769E+005   -2.10969E+005   -1.47837E+005   -4.86299E+005   -3.65357E+003    1.98260E+003    8.47899E+004
            6247    1.04766E+005    5.79547E+004   -6.29228E+004   -6.66046E+003   -6.29228E+004    1.20877E+005    3.87621E+003    5.15800E+004   -6.66842E+003   -5.60956E+004    5.11354E+004   -7.28427E+002   -4.04749E+001    2.78865E+004
            6248    8.48112E+004    5.80831E+004    5.80831E+004    8.65951E+002   -3.93556E+004    9.74387E+004   -6.53116E+003    5.65580E+004    8.45705E+002   -3.92659E+004    5.80137E+004   -9.04216E+002   -2.66614E+001    2.59922E+003
            6249    7.39259E+004    6.35541E+004    6.35541E+004    8.95802E+003   -2.05726E+004    8.41267E+004   -1.73132E+004    5.82457E+004    8.92076E+003   -1.87753E+004    6.17941E+004   -1.15682E+003    2.97317E+002   -1.20238E+004
            6250    6.40764E+004    6.47756E+004    6.47756E+004    1.34896E+004   -7.05276E+003    7.18284E+004   -2.37375E+004    5.59143E+004    1.33982E+004   -2.63840E+003    6.04527E+004   -1.42251E+003   -1.70897E+001   -1.70667E+004
            6251    7.35900E+004    8.07685E+004    8.07685E+004    1.88847E+004   -6.04394E+002    8.13729E+004   -3.30163E+004    6.74074E+004    1.88509E+004    6.04413E+002    7.95935E+004   -8.14988E+002   -8.36809E+002   -9.66874E+003
            6252    9.41104E+004    1.04961E+005    1.04961E+005    2.63310E+004    6.86914E+002    1.04275E+005   -4.39931E+004    8.57058E+004    2.63441E+004    7.65730E+002    1.04870E+005   -4.00055E+002   -1.27758E+003   -2.72903E+003
            6253    7.80077E+004    8.08572E+004    8.08572E+004    1.77693E+004   -6.36572E+003    8.72229E+004   -3.07536E+004    6.88240E+004    1.77473E+004   -5.71097E+003    8.02244E+004   -7.30545E+002   -1.64367E+001   -7.40078E+003
            6254    9.98650E+004    1.09221E+005    1.09221E+005    2.77224E+004   -2.17871E+003    1.11400E+005   -4.49216E+004    8.89252E+004    2.77186E+004   -2.15145E+003    1.09198E+005   -3.58882E+002   -2.14768E+002   -1.59619E+003
            6255    8.42409E+004    7.72008E+004    7.72008E+004    1.26870E+004   -1.81038E+004    9.53046E+004   -2.39280E+004    6.97816E+004    1.26770E+004   -1.78368E+004    7.69439E+004   -7.91093E+002   -6.98391E+002    4.85915E+003
            6256    9.86316E+004    1.05907E+005    1.05907E+005    2.59262E+004   -4.30094E+003    1.10208E+005   -4.25107E+004    8.72606E+004    2.59426E+004   -4.13550E+003    1.05725E+005   -3.45204E+002   -1.23177E+003    4.22847E+003
            6257    9.14173E+004    7.18582E+004    7.18582E+004    6.77733E+003   -3.26578E+004    1.04516E+005   -1.53259E+004    6.79005E+004    6.77493E+003   -2.38260E+004    6.30288E+004   -8.21995E+002   -5.04113E+002    2.90516E+004
            6258    8.71331E+004    9.12326E+004    9.12326E+004    2.11114E+004   -6.31356E+003    9.75462E+004   -3.53435E+004    7.64785E+004    2.11198E+004   -4.81272E+003    8.97234E+004   -3.76326E+002   -8.38974E+002    1.19949E+004
            6259    6.73162E+004    6.75229E+004    6.75229E+004    1.28709E+004   -7.67114E+003    7.51940E+004   -2.42409E+004    5.96282E+004    1.28931E+004   -2.94586E+003    6.27753E+004   -4.16264E+002   -1.05487E+003    1.82430E+004
            6260    4.81792E+004    3.70162E+004    3.70162E+004   -7.87552E+002   -1.72324E+004    5.42486E+004   -6.33207E+003    4.11138E+004   -7.82565E+002   -3.25635E+003    2.30351E+004   -4.78277E+002   -3.62492E+002    2.37194E+004
            6261    1.01742E+005    6.98666E+004    6.98666E+004    1.53601E+003   -4.70608E+004    1.16927E+005   -8.11395E+003    6.71336E+004    1.54867E+003   -1.89679E+004    4.17611E+004   -9.50132E+002   -7.14967E+002    4.99471E+004
            6262    1.08013E+005    6.53042E+004    6.53042E+004   -4.13395E+003   -5.91394E+004    1.24444E+005   -6.76955E+002    6.30859E+004   -4.13000E+003   -8.16942E+003    1.43303E+004   -1.10015E+003   -2.75801E+002    6.11861E+004
            6263    1.49144E+005    8.59136E+004   -8.62282E+004   -4.54914E+003   -8.62282E+004    1.72142E+005    1.62124E+003    6.63986E+004   -4.54490E+003   -1.18409E+004    1.15220E+004   -1.23747E+003   -2.62497E+002    8.52653E+004
            6264    1.82713E+005    1.01382E+005   -1.09589E+005   -5.68209E+003   -1.09589E+005    2.10971E+005    4.62977E+003    5.40695E+004   -5.67967E+003   -1.68584E+004    8.64880E+003   -1.02850E+003   -1.93592E+002    1.04707E+005
            6265    2.11621E+005    1.16648E+005   -1.27711E+005   -5.53348E+003   -1.27711E+005    2.44359E+005    5.53233E+003    6.14402E+003   -5.53195E+003   -1.86510E+004    7.58599E+003   -6.86488E+002   -1.71620E+002    1.21471E+005
            6266    2.37478E+005    1.31533E+005   -1.42681E+005   -4.88201E+003   -1.42681E+005    2.74214E+005    5.34348E+003   -4.89250E+004   -4.88111E+003   -1.69387E+004    5.78938E+003   -4.00442E+002   -1.67306E+002    1.36635E+005
            6267    1.41921E+005    7.88510E+004   -8.49753E+004   -6.58135E+003   -8.49753E+004    1.63826E+005    4.23521E+003    5.96717E+004   -6.57704E+003   -4.01789E+004    3.40503E+004   -9.27427E+002   -4.26258E+002    7.30154E+004
            6268    1.83348E+005    9.28030E+004   -1.18905E+005   -1.19643E+004   -1.18905E+005    2.11708E+005    1.26888E+004   -4.78545E+004   -1.19620E+004   -5.41440E+004    2.80395E+004   -6.33524E+002   -3.09353E+002    9.75502E+004
            6269    2.17607E+005    1.07832E+005   -1.43405E+005   -1.42056E+004   -1.43405E+005    2.51237E+005    1.65929E+004   -7.98185E+004   -1.42046E+004   -5.80061E+004    2.24321E+004   -2.91432E+002   -2.26828E+002    1.19005E+005
            6270    2.46420E+005    1.24139E+005   -1.60358E+005   -1.37272E+004   -1.60358E+005    2.84496E+005    1.66486E+004   -9.27528E+004   -1.37270E+004   -5.54330E+004    1.92141E+004   -6.48684E+001   -1.35922E+002    1.37264E+005
            6271    2.64235E+005    1.17995E+005   -1.86943E+005   -2.55540E+004   -1.86943E+005    3.04939E+005    3.15007E+004   -1.23104E+005   -2.55547E+004   -1.12035E+005    4.30879E+004    2.53128E+002   -4.67003E+002    1.31266E+005
            6272    2.17153E+005    9.09598E+004   -1.59610E+005   -2.61742E+004   -1.59610E+005    2.50570E+005    3.16082E+004   -1.04797E+005   -2.61734E+004   -1.11912E+005    4.32608E+004    6.16377E+001   -4.58680E+002    9.83689E+004
            6273    1.73797E+005    7.51829E+004   -1.25427E+005   -2.04166E+004   -1.25427E+005    2.00609E+005    2.35534E+004   -7.52405E+004   -2.04162E+004   -9.53458E+004    4.51017E+004   -1.81986E+002   -1.76740E+002    7.16212E+004
            6274    1.31321E+005    6.59482E+004   -8.56836E+004   -1.09479E+004   -8.56836E+004    1.51632E+005    1.02278E+004    3.82310E+004   -1.09478E+004   -6.92326E+004    4.94970E+004   -5.60453E+002   -2.82620E+002    4.71538E+004
            6275    9.08891E+004    1.00711E+005    1.00711E+005    2.48567E+004   -2.93745E+001    1.00740E+005   -4.18460E+004    8.26875E+004    2.48474E+004   -1.08688E+001    1.00701E+005   -4.82490E+002    4.38707E+001   -9.60777E+002
            6276    6.62930E+004    7.81708E+004    7.81708E+004    2.03071E+004    5.83842E+003    7.23324E+004   -3.47721E+004    6.25908E+004    2.02579E+004    6.11531E+003    7.79431E+004   -8.50696E+002    8.49167E+001   -4.04805E+003
            6277    4.99316E+004    5.78517E+004    5.78517E+004    1.44824E+004    3.26574E+003    5.45859E+004   -2.51999E+004    4.69698E+004    1.42679E+004    7.97991E+003    5.33519E+004   -1.69568E+003    1.84064E+002   -1.49619E+004
            6278    9.13230E+004    1.02387E+005    1.02387E+005    2.47024E+004    1.78949E+003    1.00598E+005   -4.29597E+004    8.44849E+004    2.47537E+004    1.85519E+003    1.02270E+005   -5.49058E+002   -2.18226E+003    2.34822E+003
            6279    6.83705E+004    7.91069E+004    7.91069E+004    1.90200E+004    4.71593E+003    7.43910E+004   -3.42809E+004    6.48745E+004    1.89982E+004    5.06013E+003    7.87845E+004   -1.08754E+003   -1.61060E+003    4.51737E+003
            6280    3.24854E+004    4.67213E+004    4.67213E+004    1.66614E+004    1.22594E+004    3.44619E+004   -2.52141E+004    3.18040E+004    1.36690E+004    1.52996E+004    4.66736E+004   -2.03260E+003   -5.55715E+002   -1.13083E+003
            6281    1.04312E+005    1.14977E+005    1.14977E+005    2.78300E+004   -6.04237E+002    1.15581E+005   -4.74007E+004    9.49890E+004    2.78223E+004   -2.87585E+002    1.14667E+005   -7.51196E+002   -8.89884E+002    5.87198E+003
            6282    7.91214E+004    9.17494E+004    9.17494E+004    2.32194E+004    5.15918E+003    8.65903E+004   -4.00427E+004    7.42683E+004    2.31480E+004    8.58079E+003    8.83992E+004   -1.40446E+003   -7.10709E+002    1.66565E+004
            6283    4.54169E+004    5.64655E+004    5.64655E+004    1.48654E+004    8.01102E+003    4.84545E+004   -2.64473E+004    4.42307E+004    1.42071E+004    1.88165E+004    4.63182E+004   -2.62886E+003   -4.95369E+002    1.94668E+004
            6284    2.44062E+005    1.46634E+005    1.46634E+005    4.88248E+003   -1.35183E+005    2.81816E+005   -5.44443E+003    5.32067E+004    4.88176E+003    1.74863E+004   -6.03478E+003   -3.43384E+002    1.57780E+002    1.40416E+005
            6285    2.54289E+005    1.64480E+005    1.64480E+005    1.33613E+004   -1.29105E+005    2.93585E+005   -1.62453E+004    9.43121E+004    1.33612E+004    5.47093E+004   -1.93345E+004   -1.42312E+001    1.53434E+002    1.42047E+005
            6286    2.68750E+005    1.89358E+005    1.89358E+005    2.54269E+004   -1.20799E+005    3.10157E+005   -3.13286E+004    1.24190E+005    2.54275E+004    1.11268E+005   -4.27095E+004    2.51257E+002    5.24710E+002    1.34617E+005
            6287    2.65887E+005    1.57681E+005    1.57681E+005    3.42793E+003   -1.49338E+005    3.07019E+005   -3.92361E+003    5.40260E+004    3.42760E+003    1.28942E+004   -4.55098E+003   -1.95846E+002    1.31086E+002    1.53261E+005
            6288    2.81006E+005    1.75964E+005    1.75964E+005    1.01592E+004   -1.48487E+005    3.24452E+005   -1.25454E+004    9.46425E+004    1.01593E+004    4.23766E+004   -1.48996E+004    8.08925E+001    6.59540E+001    1.59678E+005
            6289    3.10703E+005    2.05865E+005    2.05865E+005    1.94275E+004   -1.52810E+005    3.58676E+005   -2.41609E+004    1.27133E+005    1.94287E+004    8.96811E+004   -3.66272E+004    3.08526E+002    4.43645E+002    1.67849E+005
            6290    2.81657E+005    1.64900E+005    1.64900E+005    1.82609E+003   -1.60329E+005    3.25229E+005   -2.13258E+003    4.78291E+004    1.82599E+003    7.01592E+003   -2.44416E+003   -1.25285E+002    6.61368E+001    1.62546E+005
            6291    2.99887E+005    1.79952E+005    1.79952E+005    5.01899E+003   -1.66322E+005    3.46274E+005   -6.21609E+003    7.85378E+004    5.01907E+003    2.15555E+004   -7.92627E+003    1.22244E+002    5.00117E+001    1.72508E+005
            6292    3.40403E+005    2.11008E+005    2.11008E+005    1.05957E+004   -1.82030E+005    3.93038E+005   -1.31912E+004    1.10607E+005    1.05965E+004    4.98950E+004   -2.09179E+004    3.01039E+002    2.76813E+002    1.93303E+005
            6293    2.86344E+005    1.64906E+005   -1.65736E+005   -3.05297E+002   -1.65736E+005    3.30641E+005    3.78533E+002   -3.00081E+004   -3.05294E+002   -1.25679E+003    4.26481E+002   -1.09837E+002   -2.10986E+000    1.65318E+005
            6294    3.05747E+005    1.75737E+005   -1.77309E+005   -5.88979E+002   -1.77309E+005    3.53046E+005    7.20058E+002   -3.80618E+004   -5.89024E+002   -2.80213E+003    1.23098E+003    1.23143E+002   -3.18868E+001    1.76511E+005
            6295    3.51020E+005    2.01918E+005   -2.03405E+005   -5.61993E+002   -2.03405E+005    4.05323E+005    6.82886E+002   -4.06217E+004   -5.62053E+002   -2.34090E+003    8.54292E+002    2.89539E+002   -1.97223E+001    2.02655E+005
            6296    2.78144E+005    1.57958E+005   -1.63214E+005   -2.10985E+003   -1.63214E+005    3.21173E+005    2.45528E+003   -4.93595E+004   -2.10971E+003   -8.24193E+003    2.98580E+003   -1.33826E+002   -8.41385E+001    1.60488E+005
            6297    2.95832E+005    1.62131E+005   -1.79456E+005   -6.35194E+003   -1.79456E+005    3.41587E+005    7.89259E+003   -8.46559E+004   -6.35200E+003   -2.73480E+004    1.00222E+004    1.16312E+002   -4.02107E+001    1.69768E+005
            6298    3.38568E+005    1.80301E+005   -2.10614E+005   -1.10294E+004   -2.10614E+005    3.90915E+005    1.37807E+004   -1.12370E+005   -1.10303E+004   -5.29123E+004    2.26005E+004    3.07053E+002   -2.63684E+002    1.91776E+005
            6299    2.60070E+005    1.45416E+005   -1.54886E+005   -3.86807E+003   -1.54886E+005    3.00301E+005    4.44610E+003   -5.60333E+004   -3.86771E+003   -1.44621E+004    4.99154E+003   -2.14631E+002   -1.30404E+002    1.49835E+005
            6300    2.74063E+005    1.43691E+005   -1.72739E+005   -1.07904E+004   -1.72739E+005    3.16431E+005    1.32795E+004   -9.43948E+004   -1.07905E+004   -4.48185E+004    1.57706E+004    7.43322E+001   -1.17608E+002    1.55288E+005
            6301    3.07153E+005    1.49596E+005   -2.04971E+005   -2.03359E+004   -2.04971E+005    3.54568E+005    2.52370E+004   -1.27632E+005   -2.03370E+004   -9.26421E+004    3.72682E+004    2.94160E+002   -4.92285E+002    1.64955E+005
            6302    2.12690E+005    1.88758E+005    1.88758E+005    3.50586E+004   -5.39813E+004    2.42739E+005   -5.66116E+004    1.62010E+005    3.50868E+004   -1.32899E+004    1.48038E+005   -6.40411E+003   -3.74775E+003    9.03865E+004
            6303    1.74787E+005    1.79695E+005    1.79695E+005    3.95358E+004   -1.61514E+004    1.95846E+005   -6.76930E+004    1.52830E+005    3.96827E+004   -7.72122E+003    1.71118E+005   -2.91101E+003   -4.89234E+003    3.95838E+004
            6304    1.82394E+005    2.02250E+005    2.02250E+005    4.98802E+004    1.47713E+002    2.02102E+005   -8.40925E+004    1.66082E+005    5.00994E+004    9.16747E+002    2.01261E+005   -1.37654E+003   -5.96690E+003    1.22687E+004
            6305    1.50087E+005    1.36034E+005    1.36034E+005    2.46403E+004   -3.46401E+004    1.70674E+005   -4.20114E+004    1.19117E+005    2.46112E+004    4.65172E+003    9.67714E+004   -5.08361E+003   -2.16846E+003    7.16214E+004
            6306    1.39017E+005    1.48161E+005    1.48161E+005    3.45007E+004   -6.83634E+003    1.54998E+005   -5.86085E+004    1.24017E+005    3.45198E+004    3.82161E+003    1.37484E+005   -2.50476E+003   -2.65361E+003    3.90770E+004
            6307    1.56913E+005    1.71130E+005    1.71130E+005    4.12705E+004   -3.22495E+003    1.74355E+005   -6.97253E+004    1.41642E+005    4.13318E+004   -2.39111E+003    1.70235E+005   -1.22514E+003   -3.22218E+003    1.18618E+004
            6308    9.51407E+004    9.46835E+004    9.46835E+004    1.91872E+004   -1.21803E+004    1.06864E+005   -3.38968E+004    8.22387E+004    1.91889E+004    1.87866E+004    6.37149E+004   -3.72754E+003   -1.72573E+003    4.83063E+004
            6309    1.04935E+005    1.13531E+005    1.13531E+005    2.58713E+004   -2.74234E+003    1.16274E+005   -4.55534E+004    9.55492E+004    2.59852E+004    4.43168E+003    1.06243E+005   -1.82412E+003   -3.22927E+003    2.78940E+004
            6310    1.23434E+005    1.37944E+005    1.37944E+005    3.41139E+004    1.46960E+003    1.36475E+005   -5.78426E+004    1.13094E+005    3.42723E+004    2.23746E+003    1.37018E+005   -8.73234E+002   -4.12036E+003    1.01369E+004
            6311    7.86191E+004    5.73333E+003   -8.20613E+004   -1.81629E+004   -8.20613E+004    8.77946E+004    3.14970E+004   -6.97181E+004   -1.81758E+004    3.89352E+003   -8.02087E+004   -3.04209E+002    9.12356E+002    1.25703E+004
            6312    9.29913E+004    1.76963E+003   -1.01827E+005   -2.55713E+004   -1.01827E+005    1.03597E+005    4.18763E+004   -8.32014E+004   -2.55947E+004    1.27243E+003   -1.01307E+005   -2.68972E+002    1.35056E+003    7.15077E+003
            6313    1.03811E+005    3.29234E+003   -1.12718E+005   -2.85792E+004   -1.12718E+005    1.16010E+005    4.60015E+004   -9.17955E+004   -2.85811E+004    3.24828E+003   -1.12672E+005   -2.36107E+002    5.43787E+002    2.21899E+003
            6314    1.02494E+005   -7.44159E+002   -1.14619E+005   -2.97606E+004   -1.14619E+005    1.13874E+005    4.83745E+004   -9.25551E+004   -2.97763E+004   -7.57447E+002   -1.14590E+005   -2.26889E+002    1.22770E+003   -1.13508E+003
            6315    1.00220E+005    1.63008E+003   -1.09922E+005   -2.74778E+004   -1.09922E+005    1.11552E+005    4.52566E+004   -8.99471E+004   -2.74765E+004    1.59474E+003   -1.09888E+005   -1.93619E+002    2.80032E+001   -1.94852E+003
            6316    8.35762E+004    2.30647E+004   -7.19076E+004   -9.58326E+003   -7.19076E+004    9.49723E+004    1.94754E+004   -6.67841E+004   -9.58956E+003    1.02259E+004   -5.90625E+004   -8.00873E+002    6.80307E+002    3.24608E+004
            6317    8.49828E+004    1.56429E+004   -8.02322E+004   -1.41829E+004   -8.02322E+004    9.58751E+004    2.62574E+004   -7.17030E+004   -1.41943E+004    1.22186E+004   -7.67965E+004   -7.13722E+002    1.03170E+003    1.77685E+004
            6318    8.55829E+004    6.86431E+003   -8.88941E+004   -1.98682E+004   -8.88941E+004    9.57584E+004    3.39660E+004   -7.52929E+004   -1.98565E+004    6.66061E+003   -8.87021E+004   -6.24011E+002    3.52009E+002    4.25942E+003
            6319    8.85588E+004    5.09568E+003   -9.36421E+004   -2.12343E+004   -9.36421E+004    9.87378E+004    3.65936E+004   -7.90056E+004   -2.12278E+004    4.88716E+003   -9.34401E+004   -6.57483E+002    9.64479E+002   -4.32582E+003
            6320    8.34513E+004   -1.95722E+003   -9.41968E+004   -2.39313E+004   -9.41968E+004    9.22396E+004    4.00284E+004   -7.65259E+004   -2.39091E+004   -2.33685E+003   -9.38394E+004   -7.04671E+002   -4.58136E+001   -5.72884E+003
            6321    1.06163E+005    5.08824E+004   -7.12475E+004   -1.02925E+003   -7.12475E+004    1.22130E+005    7.13145E+003   -6.74176E+004   -1.03140E+003    2.83472E+004   -4.87102E+004   -9.29263E+002    4.80013E+002    4.73646E+004
            6322    9.04140E+004    3.28632E+004   -7.04991E+004   -6.09509E+003   -7.04991E+004    1.03362E+005    1.45770E+004   -6.72232E+004   -6.09654E+003    2.64011E+004   -6.40356E+004   -9.05309E+002    7.38181E+002    2.49979E+004
            6323    8.22296E+004    2.01050E+004   -7.31547E+004   -1.10753E+004   -7.31547E+004    9.32597E+004    2.13750E+004   -6.68425E+004   -1.10493E+004    1.98543E+004   -7.29300E+004   -9.08455E+002    7.19144E+001    4.56890E+003
            6324    7.59167E+004    6.75665E+003   -7.80960E+004   -1.66073E+004   -7.80960E+004    8.48526E+004    2.93155E+004   -6.70830E+004   -1.65675E+004    6.21160E+003   -7.75907E+004   -9.81674E+002    6.69458E+002   -6.48943E+003
            6325    7.32974E+004    2.59190E+003   -7.88950E+004   -1.83420E+004   -7.88950E+004    8.14869E+004    3.15484E+004   -6.60528E+004   -1.83016E+004    1.34210E+003   -7.76856E+004   -9.82871E+002   -2.55970E+002   -9.84132E+003
            6326    1.31120E+005    8.01125E+004    8.01125E+004    7.65914E+003   -7.12459E+004    1.51358E+005   -5.50861E+003   -5.49855E+004    7.65966E+003    5.42001E+004   -4.53340E+004   -7.86816E+002    2.88876E+002    5.70077E+004
            6327    1.02514E+005    5.55748E+004   -6.25470E+004    3.18920E+003   -6.25470E+004    1.18122E+005    1.26100E+003   -5.93698E+004    3.19567E+003    4.94060E+004   -5.63847E+004   -8.60138E+002    3.53935E+002    2.62558E+004
            6328    8.18995E+004    2.99405E+004   -6.37233E+004   -5.58488E+003   -6.37233E+004    9.36638E+004    1.31225E+004   -6.05263E+004   -5.56272E+003    2.97829E+004   -6.35878E+004   -8.85431E+002   -1.06782E+002    3.55800E+003
            6329    7.39065E+004    1.64610E+004   -6.71333E+004   -1.04647E+004   -6.71333E+004    8.35944E+004    2.03790E+004   -6.13167E+004   -1.04229E+004    1.48593E+004   -6.55734E+004   -1.03046E+003    3.97647E+002   -1.13051E+004
            6330    6.13427E+004    3.13901E+002   -6.75578E+004   -1.60719E+004   -6.75578E+004    6.78717E+004    2.77719E+004   -5.60934E+004   -1.60111E+004   -2.47847E+003   -6.48263E+004   -1.12451E+003   -3.07590E+002   -1.33191E+004
            6331    6.38973E+004    1.11529E+004   -6.10059E+004   -1.15969E+004   -6.10059E+004    7.21589E+004    2.04833E+004   -5.35773E+004   -1.15465E+004    5.03260E+003   -5.49360E+004   -1.42835E+003   -4.89497E+002   -1.99928E+004
            6332    7.44913E+004    2.58293E+004   -5.93209E+004   -6.20872E+003   -5.93209E+004    8.51502E+004    1.32334E+004   -5.54756E+004   -6.17514E+003    2.41930E+004   -5.77182E+004   -1.12479E+003   -2.42649E+002   -1.15585E+004
            6333    8.89609E+004    4.85858E+004   -5.39317E+004    2.95456E+003   -5.39317E+004    1.02517E+005    7.97120E+002   -5.10315E+004    2.96801E+003    4.85681E+004   -5.39275E+004   -8.38151E+002   -3.41623E+002    4.72445E+002
            6334    1.11032E+005    7.38540E+004    7.38540E+004    1.11745E+004   -5.43438E+004    1.28198E+005   -1.02282E+004   -3.74409E+004    1.11794E+004    7.00193E+004   -5.05140E+004   -5.60918E+002   -2.03204E+001    2.18239E+004
            6335    1.41370E+005    1.00423E+005    1.00423E+005    1.66813E+004   -6.27986E+004    1.63221E+005   -1.81018E+004    5.03585E+004    1.66822E+004    8.41819E+004   -4.65588E+004   -3.38472E+002    3.94977E+001    4.88559E+004
            6336    1.78269E+005    1.28442E+005    1.28442E+005    2.06990E+004   -7.73280E+004    2.05770E+005   -2.39378E+004    7.73464E+004    2.06978E+004    9.73911E+004   -4.62755E+004   -1.70879E+002    3.02071E+002    7.36560E+004
            6337    2.22868E+005    1.62302E+005    1.62302E+005    2.55675E+004   -9.48714E+004    2.57174E+005   -3.09995E+004    1.06618E+005    2.55674E+004    1.11397E+005   -4.39664E+004    1.14583E+002    3.73568E+002    1.02469E+005
            6338    2.24693E+005    1.48361E+005    1.48361E+005    1.46605E+004   -1.11051E+005    2.59412E+005   -1.73236E+004    8.45663E+004    1.46598E+004    6.05179E+004   -2.32070E+004   -2.33873E+002    2.03228E+002    1.22764E+005
            6339    2.18978E+005    1.32181E+005    1.32181E+005    5.50616E+003   -1.20672E+005    2.52854E+005   -5.67169E+003    3.29328E+004    5.50480E+003    1.89358E+004   -7.42553E+003   -6.04079E+002    1.71083E+002    1.25736E+005
            6340    1.89214E+005    1.23855E+005    1.23855E+005    1.28213E+004   -9.46210E+004    2.18476E+005   -1.40183E+004    5.77726E+004    1.28193E+004    5.78651E+004   -2.86294E+004   -5.19579E+002    2.97840E+002    1.00311E+005
            6341    1.91997E+005    1.15369E+005    1.15369E+005    5.57972E+003   -1.06326E+005    2.21695E+005   -4.87402E+003   -4.89178E+004    5.57737E+003    1.78536E+004   -8.80892E+003   -9.03348E+002    2.01941E+002    1.10039E+005
            6342    1.64372E+005    9.69605E+004    9.69605E+004    5.15606E+003   -9.28063E+004    1.89767E+005   -3.10340E+003   -6.29497E+004    5.15347E+003    1.43960E+004   -1.02393E+004   -1.13528E+003    2.00033E+002    9.40735E+004
            6343    1.30147E+005    7.46200E+004   -7.55292E+004    4.99859E+003   -7.55292E+004    1.50149E+005   -1.36314E+003   -6.51440E+004    4.99627E+003    1.03814E+004   -1.12883E+004   -1.25041E+003    2.05841E+002    7.42779E+004
            6344    8.93476E+004    4.69190E+004   -5.58110E+004    3.79450E+003   -5.58110E+004    1.02730E+005    1.69917E+003   -5.80001E+004    3.79139E+003    3.68537E+003   -1.25743E+004   -1.02935E+003    2.42731E+002    5.07068E+004
            6345    3.90999E+004    1.40077E+004   -2.95550E+004    2.49836E+003   -2.95550E+004    4.35628E+004    4.34963E+003   -3.49731E+004    2.49462E+003    2.62895E+003   -1.81725E+004   -4.18734E+002    3.11471E+002    1.91316E+004
            6346    1.54327E+005    9.51164E+004    9.51164E+004    8.19615E+003   -8.30679E+004    1.78184E+005   -6.74823E+003   -5.37332E+004    8.19055E+003    4.22618E+004   -3.02076E+004   -9.03467E+002    4.65417E+002    8.13845E+004
            6347    1.20273E+005    6.36428E+004   -7.49794E+004    1.64050E+003   -7.49794E+004    1.38622E+005    3.23201E+003   -6.80851E+004    1.62902E+003    2.02304E+004   -3.15555E+004   -1.07568E+003    6.20248E+002    6.42816E+004
            6348    8.74831E+004    3.59372E+004   -6.42254E+004   -2.79197E+003   -6.42254E+004    1.00163E+005    1.03601E+004   -6.33960E+004   -2.80896E+003    9.13220E+003   -3.74034E+004   -9.11056E+002    7.68787E+002    4.43342E+004
            6349    5.60410E+004    5.07782E+003   -5.69644E+004   -1.00162E+004   -5.69644E+004    6.20422E+004    2.06343E+004   -5.11596E+004   -1.00394E+004    4.05941E+002   -5.22693E+004   -3.52323E+002    9.90835E+002    1.63677E+004
            6350    2.51389E+005    2.96471E+005    2.96471E+005    7.98625E+004    2.08127E+004    2.75658E+005   -1.32382E+005    2.35013E+005    7.98651E+004    2.36857E+004    2.93595E+005   -1.07107E+003    2.82040E+003    2.78417E+004
            6351    2.42404E+005    2.61903E+005    2.61903E+005    5.61465E+004   -5.31683E+003    2.67220E+005   -1.04244E+005    2.23843E+005    5.61569E+004   -5.15540E+003    2.61731E+005   -1.29966E+003   -2.67229E+003    6.03595E+003
            6352    2.20007E+005    2.45015E+005    2.45015E+005    5.73641E+004    2.88809E+003    2.42127E+005   -1.01756E+005    2.03988E+005    5.74404E+004    3.12956E+003    2.44697E+005   -1.63812E+003   -4.65600E+003    6.95292E+003
            6353    2.13467E+005    2.29654E+005    2.29654E+005    5.13527E+004   -6.88950E+003    2.36544E+005   -9.13724E+004    1.94351E+005    5.14767E+004   -6.61705E+003    2.29258E+005   -1.56925E+003   -5.25379E+003    7.50783E+003
            6354    3.02467E+005    3.56464E+005    3.56464E+005    1.07418E+005    1.98824E+004    3.36581E+005   -1.61255E+005    2.71701E+005    1.07340E+005    3.02940E+004    3.46130E+005   -2.54462E+003    6.30282E+002    5.80555E+004
            6355    2.72594E+005    3.09990E+005    3.09990E+005    8.47233E+004    6.96703E+003    3.03023E+005   -1.33894E+005    2.45724E+005    8.46675E+004    1.30577E+004    3.03956E+005   -3.43140E+003   -3.12870E+003    4.21276E+004
            6356    2.39495E+005    2.51670E+005    2.51670E+005    5.89924E+004   -1.64652E+004    2.68136E+005   -9.80659E+004    2.10143E+005    5.89709E+004   -1.36143E+004    2.48841E+005   -3.56306E+003   -4.21577E+003    2.68648E+004
            6357    2.10303E+005    2.20778E+005    2.20778E+005    5.06118E+004   -1.43379E+004    2.35116E+005   -8.56839E+004    1.85642E+005    5.06361E+004   -7.80336E+003    2.14219E+005   -3.59381E+003   -4.44982E+003    3.82743E+004
            6358    2.72147E+005    2.41941E+005    2.41941E+005    4.68073E+004   -6.89482E+004    3.10889E+005   -7.32667E+004    2.04630E+005    4.67746E+004   -3.83061E+004    2.11332E+005   -6.94240E+003   -4.35378E+003    9.22756E+004
            6359    3.25739E+005    3.12981E+005    3.12981E+005    7.48031E+004   -5.82184E+004    3.71199E+005   -1.09855E+005    2.52796E+005    7.47589E+004   -3.29427E+004    2.87749E+005   -6.66606E+003   -4.63372E+003    9.31028E+004
            6360    3.52035E+005    3.68431E+005    3.68431E+005    1.02711E+005   -3.08373E+004    3.99268E+005   -1.46768E+005    2.86088E+005    1.02648E+005   -1.25571E+004    3.50214E+005   -5.70369E+003   -4.08633E+003    8.30637E+004
            6361    3.95486E+005    4.54607E+005    4.54607E+005    1.47015E+005    8.49276E+003    4.46114E+005   -2.03371E+005    3.33970E+005    1.46931E+005    3.30363E+004    4.30147E+005   -4.77752E+003   -2.35066E+003    1.01464E+005
            6362    3.60527E+005    4.78630E+005    4.78630E+005    1.82220E+005    7.72738E+004    4.01356E+005   -2.46041E+005    3.23389E+005    1.82164E+005    1.02906E+005    4.53053E+005   -3.60866E+003   -2.08278E+003    9.79708E+004
            6363    3.36082E+005    4.98972E+005    4.98972E+005    2.11078E+005    1.29661E+005    3.69312E+005   -2.79904E+005    3.12718E+005    2.11047E+005    1.48415E+005    4.80250E+005   -2.24247E+003   -1.35974E+003    8.09874E+004
            6364    2.97813E+005    4.95042E+005    4.95042E+005    2.27563E+005    1.74129E+005    3.20914E+005   -2.98911E+005    2.86729E+005    2.27543E+005    1.95050E+005    4.74141E+005   -1.49182E+003   -9.56909E+002    7.91708E+004
            6365    2.50901E+005    4.48657E+005    4.48657E+005    2.16185E+005    1.82691E+005    2.65966E+005   -2.82511E+005    2.45796E+005    2.16172E+005    2.10039E+005    4.21322E+005   -8.82597E+002   -4.04149E+002    8.07598E+004
            6366    2.93094E+005    4.50860E+005    4.50860E+005    1.98597E+005    1.29340E+005    3.21520E+005   -2.59599E+005    2.73761E+005    1.98581E+005    1.57395E+005    4.22821E+005   -8.09893E+002    1.86674E+003    9.06938E+004
            6367    2.48740E+005    4.25065E+005    4.25065E+005    2.02013E+005    1.56830E+005    2.68235E+005   -2.61303E+005    2.39245E+005    2.02019E+005    1.79428E+005    4.02462E+005   -3.30371E+002    3.23611E+003    7.44400E+004
            6368    3.27140E+005    4.86906E+005    4.86906E+005    2.08145E+005    1.26755E+005    3.60151E+005   -2.73935E+005    3.03078E+005    2.08116E+005    1.61827E+005    4.51863E+005   -1.16880E+003    2.28507E+003    1.06712E+005
            6369    2.93542E+005    4.73689E+005    4.73689E+005    2.17068E+005    1.53607E+005    3.20082E+005   -2.81455E+005    2.77471E+005    2.17065E+005    1.92865E+005    4.34434E+005   -4.74403E+002    4.14095E+003    1.04912E+005
            6370    3.55782E+005    5.02453E+005    5.02453E+005    2.04096E+005    1.08696E+005    3.93756E+005   -2.71748E+005    3.25087E+005    2.04051E+005    1.55613E+005    4.55580E+005   -1.51489E+003    2.64928E+003    1.27484E+005
            6371    3.23213E+005    4.78880E+005    4.78880E+005    2.06402E+005    1.21771E+005    3.57109E+005   -2.69018E+005    2.96710E+005    2.06375E+005    1.87925E+005    4.12753E+005   -7.10864E+002    5.16973E+003    1.38618E+005
            6372    3.40825E+005    4.52747E+005    4.52747E+005    1.70007E+005    7.43009E+004    3.78446E+005   -2.32352E+005    3.08350E+005    1.69925E+005    1.28403E+005    3.98728E+005   -2.01768E+003    3.24436E+003    1.32341E+005
            6373    3.33275E+005    4.76482E+005    4.76482E+005    1.98499E+005    1.07021E+005    3.69461E+005   -2.60667E+005    3.03042E+005    1.98458E+005    1.81942E+005    4.01601E+005   -8.18099E+002    6.94882E+003    1.48358E+005
            6374    3.62294E+005    4.73006E+005    4.73006E+005    1.81393E+005    6.74330E+004    4.05573E+005   -2.40611E+005    3.18054E+005    1.81342E+005    1.74879E+005    3.65612E+005   -6.49870E+002    9.62235E+003    1.78690E+005
            6375    4.51532E+005    5.80676E+005    5.80676E+005    2.19566E+005    7.44211E+004    5.06255E+005   -2.91554E+005    3.93673E+005    2.19812E+005    1.27032E+005    5.27819E+005   -2.34517E+002    1.22100E+004    1.54251E+005
            6376    3.89681E+005    4.74918E+005    4.74918E+005    1.60111E+005    3.90832E+004    4.35835E+005   -2.24704E+005    3.43416E+005    1.60069E+005    9.42555E+004    4.19787E+005   -1.65354E+003    3.98664E+003    1.44820E+005
            6377    3.28126E+005    3.56606E+005    3.56606E+005    9.58413E+004   -1.18267E+004    3.68433E+005   -1.46874E+005    2.84102E+005    9.59714E+004   -7.46064E+003    3.52110E+005   -6.25878E+002    6.27170E+003    3.97888E+004
            6378    4.81510E+004   -2.68141E+003   -5.54629E+004   -1.39359E+004   -5.54629E+004    5.27815E+004    2.40267E+004   -4.50468E+004   -1.37125E+004   -8.24554E+003   -5.01222E+004   -1.65324E+003    6.52849E+001   -1.58713E+004
            6379    5.39597E+004   -3.40833E+003   -6.20621E+004   -1.45296E+004   -6.20621E+004    5.86538E+004    2.66667E+004   -5.12852E+004   -1.43281E+004   -5.38131E+003   -6.02906E+004   -1.38792E+003    7.98898E+002   -1.00023E+004
            6380    6.53885E+004   -6.01839E+003   -7.71902E+004   -1.97736E+004   -7.71902E+004    7.11718E+004    3.43274E+004   -6.20067E+004   -1.96960E+004   -6.40948E+003   -7.68767E+004   -1.07495E+003    1.09011E+003   -4.57253E+003
            6381    8.36299E+004    2.82447E+002   -9.20436E+004   -2.13677E+004   -9.20436E+004    9.23260E+004    3.77096E+004   -7.69367E+004   -2.13551E+004    1.58366E+002   -9.19321E+004   -8.51529E+002    1.33658E+003   -2.83606E+003
            6382    9.33313E+004   -2.28432E+003   -1.05200E+005   -2.60476E+004   -1.05200E+005    1.02916E+005    4.45107E+004   -8.61214E+004   -2.60784E+004   -2.29092E+003   -1.05163E+005   -2.12158E+002    1.61305E+003   -6.80731E+002
            6383    2.53118E+004   -1.12022E+004   -3.87896E+004   -1.66360E+004   -3.87896E+004    2.75874E+004    2.22093E+004   -2.39462E+004   -1.20305E+004   -1.70227E+004   -3.75746E+004   -2.01804E+003   -9.68186E+001   -5.11655E+003
            6384    4.39858E+004   -1.37169E+004   -5.97301E+004   -1.80998E+004   -5.97301E+004    4.60131E+004    3.05156E+004   -4.34904E+004   -1.73257E+004   -1.47995E+004   -5.94216E+004   -1.66815E+003   -1.08337E+002    3.72277E+003
            6385    6.65226E+004   -4.09226E+003   -7.68339E+004   -1.90914E+004   -7.68339E+004    7.27416E+004    3.33392E+004   -6.25460E+004   -1.89887E+004   -4.37496E+003   -7.66539E+004   -1.24237E+003    5.01281E+001    3.60896E+003
            6386    8.10534E+004   -5.15054E+003   -9.40064E+004   -2.41201E+004   -9.40064E+004    8.88559E+004    4.10924E+004   -7.58137E+004   -2.40648E+004   -5.37177E+003   -9.38405E+004   -1.04738E+003    2.59671E+002    3.81923E+003
            6387    9.77480E+004    1.55589E+003   -1.06862E+005   -2.54698E+004   -1.06862E+005    1.08417E+005    4.35918E+004   -8.87410E+004   -2.54690E+004    1.53844E+003   -1.06845E+005   -2.43101E+002    3.22414E+002    1.28910E+003
            6388    4.58176E+004   -6.99533E+003   -5.60816E+004   -1.44460E+004   -5.60816E+004    4.90863E+004    2.58410E+004   -4.44239E+004   -1.41527E+004   -2.31462E+004   -4.02241E+004   -2.67736E+003    8.68160E+002    2.27256E+004
            6389    5.99878E+004   -4.57503E+003   -6.93746E+004   -1.57782E+004   -6.93746E+004    6.47996E+004    2.99093E+004   -5.75631E+004   -1.56809E+004   -1.12905E+004   -6.27564E+004   -2.20522E+003    1.82432E+003    1.94243E+004
            6390    7.72744E+004   -5.77630E+003   -8.99864E+004   -2.23310E+004   -8.99864E+004    8.42101E+004    3.93646E+004   -7.31232E+004   -2.23726E+004   -9.60854E+003   -8.61125E+004   -1.54448E+003    2.36716E+003    1.73981E+004
            6391    9.62954E+004    1.22227E+003   -1.05099E+005   -2.37486E+004   -1.05099E+005    1.06321E+005    4.25417E+004   -8.85610E+004   -2.38059E+004    1.13426E+002   -1.03933E+005   -1.30145E+003    2.72183E+003    1.05902E+004
            6392    1.05475E+005   -2.87439E+003   -1.18974E+005   -2.90558E+004   -1.18974E+005    1.16100E+005    5.03015E+004   -9.77550E+004   -2.91616E+004   -3.01676E+003   -1.18726E+005   -3.11520E+002    3.09675E+003    4.03869E+003
            6393    2.48492E+005   -1.81943E+005   -4.45270E+005   -2.14903E+005   -4.45270E+005    2.63327E+005    2.80706E+005   -2.43501E+005   -2.14892E+005   -2.10357E+005   -4.16868E+005   -9.34193E+002    5.85437E+002    8.16780E+004
            6394    2.80768E+005   -1.24600E+005   -4.32569E+005   -1.90851E+005   -4.32569E+005    3.07969E+005    2.49340E+005   -2.62303E+005   -1.90831E+005   -1.51970E+005   -4.05219E+005   -8.72795E+002   -1.71985E+003    8.75899E+004
            6395    2.36370E+005   -1.53375E+005   -4.07769E+005   -1.94935E+005   -4.07769E+005    2.54393E+005    2.52026E+005   -2.27931E+005   -1.94942E+005   -1.71702E+005   -3.89436E+005   -3.38675E+002   -3.05355E+003    6.57126E+004
            6396    2.17333E+005   -1.33141E+005   -3.67370E+005   -1.72242E+005   -3.67370E+005    2.34229E+005    2.24251E+005   -2.09199E+005   -1.72237E+005   -1.85362E+005   -3.15154E+005   -6.50945E+002    1.91581E+002    9.74855E+004
            6397    2.17183E+005   -9.51366E+004   -3.33763E+005   -1.47655E+005   -3.33763E+005    2.38626E+005    1.92185E+005   -2.02142E+005   -1.47640E+005   -1.19833E+005   -3.09081E+005   -6.47070E+002   -1.25108E+003    7.26565E+004
            6398    1.67842E+005   -1.23400E+005   -3.02215E+005   -1.48080E+005   -3.02215E+005    1.78816E+005    1.91232E+005   -1.63685E+005   -1.48089E+005   -1.30766E+005   -2.94840E+005   -2.44289E+002   -2.16718E+003    3.54897E+004
            6399    2.12208E+005   -1.86156E+004   -2.58562E+005   -9.55577E+004   -2.58562E+005    2.39947E+005    1.24245E+005   -1.76460E+005   -9.55573E+004   -1.08433E+005   -1.68745E+005   -5.74798E+002    1.44200E+002    1.16120E+005
            6400    1.40044E+005   -3.28151E+004   -1.89535E+005   -7.66561E+004   -1.89535E+005    1.56720E+005    9.96687E+004   -1.23123E+005   -7.66427E+004   -6.34493E+004   -1.58914E+005   -5.93796E+002   -5.67546E+002    6.21349E+004
            6401    8.36238E+004   -6.50428E+004   -1.53667E+005   -7.61552E+004   -1.53667E+005    8.86244E+004    9.82884E+004   -8.19380E+004   -7.61548E+004   -6.70241E+004   -1.51686E+005   -2.46863E+002   -1.12235E+003    1.30508E+004
            6402    2.13514E+005    1.32016E+005    1.32016E+005    5.98749E+003   -1.14508E+005    2.46524E+005   -7.83191E+003    7.23230E+004    5.98804E+003    6.37288E+003    1.11348E+004   -5.70486E+002   -7.04645E+001    1.23238E+005
            6403    1.02035E+005    7.31304E+004    7.31304E+004    9.80959E+003   -4.45765E+004    1.17707E+005   -1.27878E+004    5.18226E+004    9.80742E+003    8.96818E+003    1.95879E+004   -5.89414E+002    5.89997E+001    5.86104E+004
            6404    1.62063E+004    2.55793E+004    2.55793E+004    1.16661E+004    7.78483E+003    1.77945E+004   -1.50101E+004    1.51065E+004    1.16420E+004    1.05783E+004    2.28099E+004   -2.57259E+002    1.77661E+002    6.44508E+003
            6405    2.12092E+005    2.71523E+005    2.71523E+005    1.04924E+005    3.27673E+004    2.38756E+005   -1.36405E+005    1.81219E+005    1.04923E+005    1.18361E+005    1.85931E+005   -5.59624E+002   -8.87001E+001    1.14496E+005
            6406    1.55465E+005    2.23536E+005    2.23536E+005    9.46572E+004    5.08739E+004    1.72662E+005   -1.23022E+005    1.40558E+005    9.46434E+004    7.82706E+004    1.96153E+005   -5.69561E+002    7.59205E+002    6.30673E+004
            6407    1.05289E+005    1.94892E+005    1.94892E+005    9.69379E+004    8.35484E+004    1.11343E+005   -1.25126E+005    1.03348E+005    9.69415E+004    8.62716E+004    1.92165E+005   -2.35715E+002    1.41818E+003    1.71486E+004
            6408    2.22677E+005    3.79709E+005    3.79709E+005    1.78796E+005    1.40291E+005    2.39419E+005   -2.32932E+005    2.14995E+005    1.78791E+005    1.90430E+005    3.29575E+005   -7.27466E+002   -3.06356E+002    9.74113E+004
            6409    2.29416E+005    3.56902E+005    3.56902E+005    1.58990E+005    1.05451E+005    2.51451E+005   -2.07114E+005    2.14675E+005    1.58972E+005    1.29707E+005    3.32664E+005   -7.37970E+002    1.34038E+003    7.41984E+004
            6410    1.86662E+005    3.35101E+005    3.35101E+005    1.63919E+005    1.36085E+005    1.99016E+005   -2.11702E+005    1.81905E+005    1.63929E+005    1.45165E+005    3.26010E+005   -2.67772E+002    2.48244E+003    4.14737E+004
            6411    1.92185E+005    4.50731E+003   -2.08828E+005   -4.92337E+004   -2.08828E+005    2.13335E+005    8.45181E+004   -1.74039E+005   -4.93437E+004    4.30939E+003   -2.08520E+005   -7.12492E+002    4.28723E+003    6.38840E+003
            6412    1.75908E+005    1.46796E+003   -1.93534E+005   -4.67926E+004   -1.93534E+005    1.95001E+005    7.96194E+004   -1.59967E+005   -4.68225E+004   -1.45938E+003   -1.90576E+005   -2.63541E+003    3.98486E+003    2.33182E+004
            6413    1.79897E+005    2.12034E+004   -1.81057E+005   -3.89260E+004   -1.81057E+005    2.02260E+005    6.62598E+004   -1.54738E+005   -3.89091E+004    1.25071E+004   -1.72377E+005   -3.64659E+003    3.44192E+003    4.06924E+004
            6414    1.94710E+005    3.45534E+004   -1.86066E+005   -3.82397E+004   -1.86066E+005    2.20619E+005    6.32507E+004   -1.59474E+005   -3.81804E+004    9.55587E+003   -1.61127E+005   -4.94286E+003    2.86613E+003    6.96428E+004
            6415    2.28797E+005    7.16069E+004   -1.90571E+005   -3.12811E+004   -1.90571E+005    2.62178E+005    5.00817E+004   -1.63105E+005   -3.12695E+004    2.52115E+004   -1.44187E+005   -6.59813E+003    3.16081E+003    9.97822E+004
            6416    1.56997E+005   -2.83532E+003   -1.76323E+005   -4.40305E+004   -1.76323E+005    1.73487E+005    7.43961E+004   -1.44065E+005   -4.42639E+004   -3.19915E+003   -1.75725E+005   -5.00697E+002    5.55190E+003    7.91505E+003
            6417    1.49078E+005    7.35309E+003   -1.58506E+005   -3.56724E+004   -1.58506E+005    1.65859E+005    6.22749E+004   -1.34004E+005   -3.58471E+004    4.10363E+003   -1.55081E+005   -2.17177E+003    4.98854E+003    2.27959E+004
            6418    1.38951E+005    8.08923E+003   -1.46977E+005   -3.37639E+004   -1.46977E+005    1.55067E+005    5.75507E+004   -1.23529E+005   -3.39372E+004   -3.80586E+003   -1.34909E+005   -2.74173E+003    4.41202E+003    4.11531E+004
            6419    1.38159E+005    2.30435E+004   -1.32762E+005   -2.51671E+004   -1.32762E+005    1.55805E+005    4.49617E+004   -1.16853E+005   -2.52805E+004   -8.45782E+002   -1.08759E+005   -3.92267E+003    3.56097E+003    5.59712E+004
            6420    1.63156E+005    4.25393E+004   -1.43661E+005   -2.57210E+004   -1.43661E+005    1.86200E+005    4.22808E+004   -1.24340E+005   -2.57772E+004   -7.73812E+003   -9.33270E+004   -5.39246E+003    2.58201E+003    8.24735E+004
            6421    1.31887E+005    2.50260E+003   -1.44041E+005   -3.48821E+004   -1.44041E+005    1.46544E+005    5.88070E+004   -1.19063E+005   -3.49143E+004    2.22359E+003   -1.43730E+005   -4.30726E+002    1.94827E+003    6.35080E+003
            6422    1.14591E+005   -2.75226E+003   -1.29330E+005   -3.26552E+004   -1.29330E+005    1.26578E+005    5.49126E+004   -1.05263E+005   -3.26295E+004   -5.79430E+003   -1.26314E+005   -1.72753E+003    1.79390E+003    1.91621E+004
            6423    1.05001E+005    5.03927E+003   -1.11878E+005   -2.56163E+004   -1.11878E+005    1.16917E+005    4.41517E+004   -9.41153E+004   -2.55608E+004   -2.50331E+003   -1.04391E+005   -2.13182E+003    1.37912E+003    2.85333E+004
            6424    9.61507E+004    5.25319E+003   -1.01915E+005   -2.32075E+004   -1.01915E+005    1.07168E+005    3.99564E+004   -8.58785E+004   -2.30846E+004   -1.42235E+004   -8.25613E+004   -3.00063E+003    1.01997E+003    4.11169E+004
            6425    9.28990E+004    1.78147E+004   -8.72312E+004   -1.58867E+004   -8.72312E+004    1.05046E+005    2.84344E+004   -7.72298E+004   -1.58225E+004   -1.82071E+004   -5.12735E+004   -3.70841E+003    9.10088E+002    4.96943E+004
            6426    3.77650E+005   -7.00406E+004   -4.92068E+005   -1.85982E+005   -4.92068E+005    4.22027E+005    2.49363E+005   -3.33942E+005   -1.85893E+005   -8.99560E+004   -4.72242E+005   -4.37664E+003    2.32151E+003    8.92088E+004
            6427    3.89092E+005   -1.43696E+004   -4.53487E+005   -1.51618E+005   -4.53487E+005    4.39117E+005    2.06491E+005   -3.27583E+005   -1.51570E+005   -3.53795E+004   -4.32525E+005   -5.42871E+003    4.18763E+003    9.34014E+004
            6428    3.96853E+005    3.14131E+004   -4.19659E+005   -1.24175E+005   -4.19659E+005    4.51072E+005    1.70807E+005   -3.16417E+005   -1.24150E+005    8.65481E+003   -3.96926E+005   -6.31444E+003    5.07287E+003    9.83626E+004
            6429    3.59611E+005    7.74643E+004   -3.33674E+005   -7.76656E+004   -3.33674E+005    4.11138E+005    1.11292E+005   -2.67098E+005   -7.76367E+004    4.96929E+004   -3.05931E+005   -7.16649E+003    5.01079E+003    1.02779E+005
            6430    3.05841E+005    8.06804E+004   -2.69517E+005   -5.49234E+004   -2.69517E+005    3.50197E+005    8.12534E+004   -2.21291E+005   -5.49574E+004    4.06225E+004   -2.29425E+005   -7.36298E+003    4.95166E+003    1.11134E+005
            6431    2.35828E+005    4.45356E+004   -2.23052E+005   -4.55245E+004   -2.23052E+005    2.67587E+005    7.46801E+004   -1.90947E+005   -4.55696E+004    2.86047E+004   -2.07076E+005   -5.13101E+003    4.91829E+003    6.29751E+004
            6432    2.15192E+005    1.69516E+004   -2.24402E+005   -5.25507E+004   -2.24402E+005    2.41354E+005    8.66670E+004   -1.87324E+005   -5.26462E+004    1.01002E+004   -2.17455E+005   -4.10013E+003    5.71916E+003    3.96600E+004
            6433    2.08752E+005    1.20417E+004   -2.20239E+005   -4.83182E+004   -2.20239E+005    2.32281E+005    8.55052E+004   -1.87559E+005   -4.84544E+004    1.08787E+004   -2.18940E+005   -2.77870E+003    6.08899E+003    1.57238E+004
            6434    2.05692E+005   -3.02748E+003   -2.29549E+005   -5.44394E+004   -2.29549E+005    2.26522E+005    9.56720E+004   -1.90415E+005   -5.46889E+004   -3.12084E+003   -2.29206E+005   -7.61334E+002    6.69359E+003    4.40077E+003
            6435    2.91227E+005    3.30191E+004   -2.96407E+005   -7.31983E+004   -2.96407E+005    3.29426E+005    1.12195E+005   -2.41490E+005   -7.31235E+004    1.77280E+004   -2.81191E+005   -5.28344E+003    3.77119E+003    6.88898E+004
            6436    2.50165E+005    1.86524E+004   -2.61903E+005   -6.20533E+004   -2.61903E+005    2.80556E+005    1.01768E+005   -2.17850E+005   -6.19559E+004    1.49362E+004   -2.58285E+005   -4.47899E+003    4.02146E+003    3.11998E+004
            6437    2.27138E+005   -2.88122E+003   -2.53464E+005   -6.11076E+004   -2.53464E+005    2.50583E+005    1.05818E+005   -2.09336E+005   -6.10873E+004   -3.91286E+003   -2.52453E+005   -2.76489E+003    3.97288E+003    1.51702E+004
            6438    2.26101E+005    6.07925E+003   -2.43128E+005   -5.11188E+004   -2.43128E+005    2.49207E+005    9.60559E+004   -2.08873E+005   -5.12005E+004    6.05804E+003   -2.43025E+005   -9.36529E+002    4.29490E+003    1.28152E+003
            6439    3.11710E+005    1.36083E+004   -3.37858E+005   -9.49181E+004   -3.37858E+005    3.51467E+005    1.39723E+005   -2.63886E+005   -9.48795E+004    2.24531E+002   -3.24513E+005   -4.29556E+003    3.53220E+003    6.69702E+004
            6440    2.80705E+005   -5.19700E+003   -3.18471E+005   -8.97924E+004   -3.18471E+005    3.13274E+005    1.37820E+005   -2.49514E+005   -8.97109E+004   -1.28027E+004   -3.10947E+005   -4.23212E+003    3.53292E+003    4.77116E+004
            6441    2.54640E+005    2.68676E+003   -2.79630E+005   -6.73057E+004   -2.79630E+005    2.82317E+005    1.14750E+005   -2.31471E+005   -6.72851E+004    1.80086E+003   -2.78765E+005   -2.21532E+003    2.80161E+003    1.52381E+004
            6442    2.23496E+005   -7.68262E+003   -2.51945E+005   -5.76861E+004   -2.51945E+005    2.44262E+005    1.05771E+005   -2.10351E+005   -5.77153E+004   -7.82071E+003   -2.51777E+005   -8.92128E+002    2.86657E+003    5.51036E+003
            6443    3.62246E+005   -2.01352E+004   -4.26408E+005   -1.37083E+005   -4.26408E+005    4.06273E+005    1.94542E+005   -3.15378E+005   -1.37040E+005   -4.44497E+004   -4.02137E+005   -3.53714E+003    2.11234E+003    9.62221E+004
            6444    3.03150E+005   -1.95233E+004   -3.56763E+005   -1.06892E+005   -3.56763E+005    3.37240E+005    1.61059E+005   -2.72592E+005   -1.06779E+005   -3.05094E+004   -3.45891E+005   -3.66588E+003    1.36842E+003    5.95134E+004
            6445    2.79608E+005   -2.26623E+004   -3.30667E+005   -9.28156E+004   -3.30667E+005    3.08004E+005    1.48715E+005   -2.58672E+005   -9.27774E+004   -2.90463E+004   -3.24321E+005   -1.64349E+003   -8.51745E+001    4.37494E+004
            6446    2.53375E+005    6.07294E+003   -2.73455E+005   -5.88804E+004   -2.73455E+005    2.79528E+005    1.08754E+005   -2.33516E+005   -5.88717E+004    5.73116E+003   -2.73122E+005   -7.82047E+002   -5.33631E+002    9.62646E+003
            6447    3.44606E+005   -6.43348E+004   -4.47556E+005   -1.63160E+005   -4.47556E+005    3.83221E+005    2.25017E+005   -3.10241E+005   -1.63093E+005   -1.00887E+005   -4.11071E+005   -2.47332E+003   -7.07975E+002    1.12465E+005
            6448    3.59633E+005   -3.57089E+004   -4.37212E+005   -1.44631E+005   -4.37212E+005    4.01503E+005    2.05850E+005   -3.19234E+005   -1.44517E+005   -7.35641E+004   -3.99471E+005   -3.02293E+003   -2.42615E+003    1.17140E+005
            6449    3.22767E+005   -1.07913E+004   -3.70886E+005   -1.07609E+005   -3.70886E+005    3.60095E+005    1.63095E+005   -2.87268E+005   -1.07641E+005   -2.23659E+004   -3.59279E+005   -1.00416E+003   -4.38566E+003    6.34186E+004
            6450    2.68368E+005   -1.98295E+004   -3.15781E+005   -8.82363E+004   -3.15781E+005    2.95951E+005    1.41282E+005   -2.47587E+005   -8.83486E+004   -2.31073E+004   -3.12391E+005   -6.96649E+002   -5.67803E+003    3.08512E+004
            6451    3.56726E+005    1.57255E+004   -3.86252E+005   -1.07390E+005   -3.86252E+005    4.01977E+005    1.59305E+005   -3.03080E+005   -1.07603E+005    1.11865E+004   -3.81499E+005   -4.04547E+002   -8.02819E+003    4.24012E+004
            6452    4.84159E+005   -7.82823E+004   -6.21790E+005   -2.36638E+005   -6.21790E+005    5.43508E+005    3.12237E+005   -4.19668E+005   -2.36940E+005   -1.29868E+005   -5.69902E+005   -1.31732E+002   -1.33299E+004    1.59057E+005
            6453    4.14923E+005   -2.85181E+004   -4.94148E+005   -1.63595E+005   -4.94148E+005    4.65630E+005    2.28754E+005   -3.60230E+005   -1.63628E+005   -8.53030E+004   -4.37330E+005   -8.14477E+002   -6.45982E+003    1.52259E+005
            6454    3.76845E+005   -6.58234E+004   -4.88418E+005   -1.87275E+005   -4.88418E+005    4.22595E+005    2.47172E+005   -3.28276E+005   -1.87235E+005   -1.79725E+005   -3.74557E+005   -5.64736E+002   -1.10034E+004    1.87168E+005
            6455    3.42304E+005   -6.36929E+004   -4.44273E+005   -1.61563E+005   -4.44273E+005    3.80580E+005    2.23176E+005   -3.08391E+005   -1.61478E+005   -1.29387E+005   -3.78664E+005   -1.77682E+003   -4.63076E+003    1.43677E+005
            6456    3.40153E+005   -9.48349E+004   -4.73232E+005   -1.92843E+005   -4.73232E+005    3.78398E+005    2.53637E+005   -3.05885E+005   -1.92832E+005   -1.78044E+005   -3.90033E+005   -5.15850E+002   -9.20389E+003    1.56446E+005
            6457    3.54457E+005   -8.95645E+004   -4.82627E+005   -1.87272E+005   -4.82627E+005    3.93063E+005    2.53155E+005   -3.22006E+005   -1.87215E+005   -1.43593E+005   -4.28656E+005   -1.69966E+003   -2.84675E+003    1.35250E+005
            6458    3.34184E+005   -1.06627E+005   -4.77365E+005   -1.99292E+005   -4.77365E+005    3.70738E+005    2.61094E+005   -3.03198E+005   -1.99246E+005   -1.84564E+005   -3.99474E+005   -8.32426E+002   -7.13772E+003    1.50862E+005
            6459    3.14460E+005   -1.35713E+005   -4.81398E+005   -2.12321E+005   -4.81398E+005    3.45685E+005    2.76477E+005   -2.92337E+005   -2.12295E+005   -1.91601E+005   -4.25536E+005   -7.36132E+002   -5.07904E+003    1.27139E+005
            6460    2.86247E+005   -1.50735E+005   -4.62795E+005   -2.12418E+005   -4.62795E+005    3.12060E+005    2.75316E+005   -2.70681E+005   -2.12415E+005   -1.88063E+005   -4.25471E+005   -4.67771E+002   -3.80389E+003    1.01191E+005
            6461    3.46400E+005   -1.07741E+005   -4.90953E+005   -2.00079E+005   -4.90953E+005    3.83212E+005    2.66258E+005   -3.16889E+005   -2.00022E+005   -1.52761E+005   -4.45990E+005   -1.75740E+003   -2.39379E+003    1.23299E+005
            6462    3.27795E+005   -1.27772E+005   -4.88706E+005   -2.09527E+005   -4.88706E+005    3.60934E+005    2.75335E+005   -3.03558E+005   -2.09503E+005   -1.62204E+005   -4.54298E+005   -1.06892E+003   -2.19726E+003    1.05974E+005
            6463    2.91733E+005   -1.72874E+005   -4.87022E+005   -2.24631E+005   -4.87022E+005    3.14147E+005    2.94842E+005   -2.81124E+005   -2.24610E+005   -1.91597E+005   -4.68320E+005   -1.43768E+003    8.96730E+002    7.43186E+004
            6464    3.44285E+005   -1.28900E+005   -5.07774E+005   -2.14063E+005   -5.07774E+005    3.78874E+005    2.83579E+005   -3.19270E+005   -2.14029E+005   -1.49227E+005   -4.87481E+005   -2.59167E+003    1.78635E+003    8.52576E+004
            6465    1.04425E+005    5.78100E+004   -6.26676E+004   -6.73439E+003   -6.26676E+004    1.20478E+005    3.86399E+003    5.19909E+004   -6.73548E+003   -5.58258E+004    5.09693E+004   -3.93161E+002   -1.65768E+002    2.78788E+004
            6466    8.43813E+004    5.79985E+004    5.79985E+004    1.09939E+003   -3.89498E+004    9.69483E+004   -6.71604E+003    5.62070E+004    1.09532E+003   -3.88752E+004    5.79280E+004   -4.07995E+002    1.00089E+002    2.61032E+003
            6467    7.36530E+004    6.35761E+004    6.35761E+004    8.99237E+003   -2.01979E+004    8.37740E+004   -1.74569E+004    5.83282E+004    8.98527E+003   -1.84411E+004    6.18264E+004   -4.45455E+002   -1.07134E+002   -1.19792E+004
            6468    6.37327E+004    6.49101E+004    6.49101E+004    1.38191E+004   -6.50627E+003    7.14164E+004   -2.40743E+004    5.57086E+004    1.38108E+004   -2.18603E+003    6.05982E+004   -5.00074E+002    1.58785E+002   -1.70061E+004
            6469    7.33599E+004    8.07903E+004    8.07903E+004    1.96654E+004   -5.60800E+002    8.13511E+004   -3.32983E+004    6.66406E+004    1.96506E+004    6.01082E+002    7.96432E+004   -6.14414E+002    2.61036E+002   -9.58320E+003
            6470    9.36994E+004    1.05306E+005    1.05306E+005    2.74804E+004    1.30111E+003    1.04005E+005   -4.46958E+004    8.48680E+004    2.74803E+004    1.37337E+003    1.05234E+005   -1.51484E+002    2.23330E+002   -2.72506E+003
            6471    7.80378E+004    8.07842E+004    8.07842E+004    1.78234E+004   -6.52507E+003    8.73092E+004   -3.06942E+004    6.86782E+004    1.78124E+004   -5.89119E+003    8.01613E+004   -5.68503E+002   -5.87259E+002   -7.32036E+003
            6472    9.98406E+004    1.09339E+005    1.09339E+005    2.78968E+004   -2.04717E+003    1.11386E+005   -4.50628E+004    8.88633E+004    2.79074E+004   -2.02335E+003    1.09304E+005   -1.50773E+002   -9.74004E+002   -1.59720E+003
            6473    8.39145E+004    7.70639E+004    7.70639E+004    1.32525E+004   -1.79902E+004    9.50541E+004   -2.41087E+004    6.88755E+004    1.32462E+004   -1.77353E+004    7.68154E+004   -4.50840E+002   -5.82732E+001    4.85336E+003
            6474    9.81874E+004    1.05838E+005    1.05838E+005    2.67813E+004   -4.07057E+003    1.09908E+005   -4.28494E+004    8.62262E+004    2.67810E+004   -3.90767E+003    1.05675E+005   -1.68141E+002   -2.10948E+002    4.21733E+003
            6475    9.12965E+004    7.18271E+004    7.18271E+004    6.91254E+003   -3.25651E+004    1.04392E+005   -1.53915E+004    6.76643E+004    6.91588E+003   -2.37314E+004    6.29901E+004   -4.90170E+002   -5.02028E+002    2.90487E+004
            6476    8.70998E+004    9.12984E+004    9.12984E+004    2.14145E+004   -6.28186E+003    9.75803E+004   -3.54770E+004    7.62047E+004    2.14246E+004   -4.78632E+003    8.97928E+004   -2.04204E+002   -8.35060E+002    1.19854E+004
            6477    6.71061E+004    6.73899E+004    6.73899E+004    1.32325E+004   -7.68324E+003    7.50731E+004   -2.43130E+004    5.90762E+004    1.32358E+004   -2.95271E+003    6.26560E+004   -2.37076E+002   -4.21576E+002    1.82397E+004
            6478    4.83260E+004    3.72171E+004    3.72171E+004   -7.43004E+002   -1.71843E+004    5.44014E+004   -6.42990E+003    4.12912E+004   -7.39940E+002   -3.21536E+003    2.32450E+004   -2.64147E+002   -2.71144E+002    2.37641E+004
            6479    1.01604E+005    6.97405E+004    6.97405E+004    1.65749E+003   -4.70477E+004    1.16788E+005   -8.11677E+003    6.66768E+004    1.65951E+003   -1.89171E+004    4.16079E+004   -5.20259E+002   -3.00698E+002    4.99370E+004
            6480    1.08142E+005    6.54235E+004    6.54235E+004   -4.28825E+003   -5.91536E+004    1.24577E+005   -6.60564E+002    6.37268E+004   -4.28605E+003   -8.16116E+003    1.44289E+004   -6.50407E+002   -2.02850E+002    6.12523E+004
            6481    1.49191E+005    8.58561E+004   -8.63312E+004   -4.90138E+003   -8.63312E+004    1.72187E+005    1.79215E+003    6.77531E+004   -4.90035E+003   -1.19190E+004    1.14429E+004   -6.98850E+002   -1.29778E+002    8.52946E+004
            6482    1.82617E+005    1.01138E+005   -1.09718E+005   -6.15980E+003   -1.09718E+005    2.10856E+005    4.91330E+003    5.71885E+004   -6.15919E+003   -1.70103E+004    8.42960E+003   -5.84683E+002   -9.56097E+001    1.04656E+005
            6483    2.11353E+005    1.16253E+005   -1.27797E+005   -6.01224E+003   -1.27797E+005    2.44049E+005    5.85207E+003    3.18125E+004   -6.01201E+003   -1.88289E+004    7.28474E+003   -4.01159E+002   -5.59590E+001    1.21323E+005
            6484    2.37037E+005    1.30979E+005   -1.42726E+005   -5.27808E+003   -1.42726E+005    2.73705E+005    5.67489E+003   -4.64664E+004   -5.27803E+003   -1.71589E+004    5.41227E+003   -2.29127E+002   -2.62987E+001    1.36386E+005
            6485    1.41800E+005    7.87648E+004   -8.49169E+004   -6.74947E+003   -8.49169E+004    1.63682E+005    4.30055E+003    6.04947E+004   -6.74739E+003   -4.00788E+004    3.39245E+004   -5.62221E+002   -2.91880E+002    7.29960E+004
            6486    1.83157E+005    9.27576E+004   -1.18732E+005   -1.22209E+004   -1.18732E+005    2.11489E+005    1.27317E+004   -4.25629E+004   -1.22198E+004   -5.39797E+004    2.80043E+004   -3.89255E+002   -2.16366E+002    9.74752E+004
            6487    2.17317E+005    1.07753E+005   -1.43156E+005   -1.44888E+004   -1.43156E+005    2.50908E+005    1.66306E+004   -7.69156E+004   -1.44880E+004   -5.78725E+004    2.24687E+004   -2.10213E+002   -2.33844E+002    1.18848E+005
            6488    2.46035E+005    1.24067E+005   -1.59992E+005   -1.39570E+004   -1.59992E+005    2.84059E+005    1.66273E+004   -8.99232E+004   -1.39567E+004   -5.52880E+004    1.93626E+004   -6.03881E+001   -2.69648E+002    1.37037E+005
            6489    2.63767E+005    1.17556E+005   -1.86850E+005   -2.59582E+004   -1.86850E+005    3.04407E+005    3.17507E+004   -1.21889E+005   -2.59584E+004   -1.12020E+005    4.27262E+004    1.27419E+002   -1.02032E+002    1.31070E+005
            6490    2.16703E+005    9.06219E+004   -1.59434E+005   -2.63899E+004   -1.59434E+005    2.50055E+005    3.17339E+004   -1.04073E+005   -2.63899E+004   -1.11783E+005    4.29708E+004    6.42860E+001   -1.01162E+001    9.82078E+004
            6491    1.73383E+005    7.48335E+004   -1.25306E+005   -2.07993E+004   -1.25306E+005    2.00139E+005    2.37573E+004   -7.36681E+004   -2.07989E+004   -9.52147E+004    4.47418E+004   -1.07572E+002   -1.58798E+002    7.15329E+004
            6492    1.30913E+005    6.57427E+004   -8.54173E+004   -1.09428E+004   -8.54173E+004    1.51160E+005    1.02058E+004    3.84474E+004   -1.09436E+004   -6.89627E+004    4.92888E+004   -2.74474E+002   -2.28599E+000    4.70787E+004
            6493    9.11284E+004    1.01031E+005    1.01031E+005    2.46795E+004    1.47578E+002    1.00883E+005   -4.19527E+004    8.31994E+004    2.47019E+004    1.57523E+002    1.00998E+005   -1.50690E+002   -1.34094E+003   -9.45227E+002
            6494    6.66487E+004    7.81395E+004    7.81395E+004    2.00304E+004    5.38651E+003    7.27530E+004   -3.45188E+004    6.28744E+004    1.99948E+004    5.64656E+003    7.79151E+004   -7.98428E+002   -9.32913E+002   -3.90915E+003
            6495    4.97941E+004    5.80236E+004    5.80236E+004    1.43769E+004    3.78604E+003    5.42375E+004   -2.53955E+004    4.71591E+004    1.43395E+004    8.27561E+003    5.35714E+004   -5.67797E+002   -3.05472E+002   -1.48817E+004
            6496    9.13016E+004    1.03466E+005    1.03466E+005    2.61100E+004    2.75509E+003    1.00711E+005   -4.41102E+004    8.41785E+004    2.61082E+004    2.81407E+003    1.03408E+005   -2.18976E+002    1.65205E+002    2.39226E+003
            6497    6.85041E+004    7.96172E+004    7.96172E+004    2.00057E+004    4.78191E+003    7.48353E+004   -3.48016E+004    6.45313E+004    1.99479E+004    5.13546E+003    7.93215E+004   -9.29557E+002    1.52103E+002    4.69240E+003
            6498    3.21767E+004    4.70614E+004    4.70614E+004    1.60143E+004    1.38631E+004    3.31983E+004   -2.56463E+004    3.20143E+004    1.41540E+004    1.57524E+004    4.70323E+004   -7.35627E+002   -1.43044E+001   -9.54372E+002
            6499    1.04665E+005    1.15390E+005    1.15390E+005    2.76077E+004   -4.42296E+002    1.15832E+005   -4.75183E+004    9.56451E+004    2.76630E+004   -1.35272E+002    1.15027E+005   -2.20033E+002   -2.20061E+003    5.95022E+003
            6500    7.97501E+004    9.18157E+004    9.18157E+004    2.28201E+004    4.49943E+003    8.73163E+004   -3.97117E+004    7.47923E+004    2.28321E+004    7.92313E+003    8.83800E+004   -1.20033E+003   -1.67537E+003    1.68452E+004
            6501    4.56700E+004    5.69530E+004    5.69530E+004    1.43709E+004    8.72090E+003    4.82321E+004   -2.66816E+004    4.48736E+004    1.43413E+004    1.90638E+004    4.66397E+004   -1.02736E+003   -7.27697E+002    1.97318E+004
            6502    2.43590E+005    1.46634E+005    1.46634E+005    5.25014E+003   -1.34638E+005    2.81272E+005   -5.74904E+003    5.10718E+004    5.25007E+003    1.76781E+004   -5.68110E+003   -2.06255E+002    2.89195E+001    1.40150E+005
            6503    2.53872E+005    1.64107E+005    1.64107E+005    1.35560E+004   -1.29003E+005    2.93109E+005   -1.62199E+004    9.17496E+004    1.35558E+004    5.45769E+004   -1.94730E+004   -4.58913E+001    2.37876E+002    1.41800E+005
            6504    2.68280E+005    1.89195E+005    1.89195E+005    2.56699E+004   -1.20425E+005    3.09619E+005   -3.14799E+004    1.23400E+005    2.56701E+004    1.11208E+005   -4.24385E+004    1.52812E+002    2.83907E+001    1.34403E+005
            6505    2.65316E+005    1.57610E+005    1.57610E+005    3.67947E+003   -1.48749E+005    3.06359E+005   -4.18037E+003    5.41372E+004    3.67946E+003    1.30737E+004   -4.21208E+003   -1.17435E+002    5.27413E+000    1.52935E+005
            6506    2.80483E+005    1.75533E+005    1.75533E+005    1.02955E+004   -1.48319E+005    3.23852E+005   -1.25031E+004    9.21061E+004    1.02955E+004    4.22695E+004   -1.50558E+004    3.66726E+001    2.33192E+002    1.59369E+005
            6507    3.10181E+005    2.05698E+005    2.05698E+005    1.97342E+004   -1.52378E+005    3.58077E+005   -2.43513E+004    1.25943E+005    1.97344E+004    8.96862E+004   -3.63665E+004    1.66566E+002    5.37371E+001    1.67578E+005
            6508    2.81031E+005    1.64678E+005    1.64678E+005    1.94709E+003   -1.59828E+005    3.24506E+005   -2.26589E+003    4.83889E+004    1.94708E+003    7.10457E+003   -2.25400E+003   -8.68190E+001    2.45397E+000    1.62186E+005
            6509    2.99302E+005    1.79535E+005    1.79535E+005    5.05658E+003   -1.66063E+005    3.45599E+005   -6.17624E+003    7.67066E+004    5.05664E+003    2.14976E+004   -8.02554E+003    5.47657E+001    1.06188E+002    1.72168E+005
            6510    3.39835E+005    2.10706E+005    2.10706E+005    1.06549E+004   -1.81677E+005    3.92382E+005   -1.32280E+004    1.10165E+005    1.06549E+004    4.98639E+004   -2.08349E+004    1.68024E+002    8.01691E+000    1.92980E+005
            6511    2.85706E+005    1.64539E+005   -1.65365E+005   -3.21393E+002   -1.65365E+005    3.29905E+005    3.82571E+002   -2.82194E+004   -3.21387E+002   -1.25408E+003    4.27751E+002   -7.98107E+001   -6.81005E+000    1.64950E+005
            6512    3.05138E+005    1.75389E+005   -1.76954E+005   -5.78211E+002   -1.76954E+005    3.52343E+005    7.14295E+002   -3.84891E+004   -5.78204E+002   -2.79749E+003    1.23281E+003    6.43115E+001    1.03988E+001    1.76160E+005
            6513    3.50418E+005    2.01596E+005   -2.03033E+005   -5.06340E+002   -2.03033E+005    4.04628E+005    6.47811E+002   -4.27581E+004   -5.06331E+002   -2.32113E+003    8.84025E+002    1.65587E+002    5.89351E+000    2.02308E+005
            6514    2.77527E+005    1.57446E+005   -1.63013E+005   -2.25662E+003   -1.63013E+005    3.20460E+005    2.60778E+003   -4.95574E+004   -2.25662E+003   -8.35259E+003    2.78588E+003   -8.73136E+001   -7.47519E-001    1.60133E+005
            6515    2.95262E+005    1.61872E+005   -1.79058E+005   -6.44174E+003   -1.79058E+005    3.40930E+005    7.87604E+003   -8.25553E+004   -6.44183E+003   -2.72927E+004    1.01064E+004    5.61736E+001   -1.55394E+002    1.69436E+005
            6516    3.38001E+005    1.79899E+005   -2.10364E+005   -1.12321E+004   -2.10364E+005    3.90262E+005    1.38990E+004   -1.11085E+005   -1.12322E+004   -5.29181E+004    2.24534E+004    1.62958E+002   -4.74128E+001    1.91457E+005
            6517    2.59517E+005    1.44847E+005   -1.54816E+005   -4.15237E+003   -1.54816E+005    2.99663E+005    4.70706E+003   -5.51902E+004   -4.15235E+003   -1.46320E+004    4.66317E+003   -1.36375E+002   -1.63680E+001    1.49520E+005
            6518    2.73558E+005    1.43528E+005   -1.72325E+005   -1.09206E+004   -1.72325E+005    3.15852E+005    1.32391E+004   -9.20758E+004   -1.09206E+004   -4.47140E+004    1.59172E+004    1.90616E+001   -2.05600E+002    1.54989E+005
            6519    3.06645E+005    1.49226E+005   -2.04758E+005   -2.05136E+004   -2.04758E+005    3.53984E+005    2.53484E+004   -1.26915E+005   -2.05137E+004   -9.26044E+004    3.70728E+004    1.78855E+002   -2.40988E+001    1.64688E+005
            6520    2.13839E+005    1.90619E+005    1.90619E+005    3.62156E+004   -5.34560E+004    2.44075E+005   -5.77929E+004    1.62669E+005    3.62290E+004   -1.25962E+004    1.49746E+005   -2.77783E+003   -1.78969E+003    9.10711E+004
            6521    1.76403E+005    1.81659E+005    1.81659E+005    4.10656E+004   -1.62815E+004    1.97941E+005   -6.88144E+004    1.53223E+005    4.10421E+004   -7.85423E+003    1.73255E+005   -2.51859E+003   -2.13071E+003    3.97879E+004
            6522    1.83747E+005    2.05583E+005    2.05583E+005    5.19871E+004    2.02043E+003    2.03562E+005   -8.65301E+004    1.67409E+005    5.20234E+004    2.77915E+003    2.04788E+005   -5.94061E+002   -2.45531E+003    1.23710E+004
            6523    1.50720E+005    1.36953E+005    1.36953E+005    2.53176E+004   -3.44919E+004    1.71444E+005   -4.25928E+004    1.19263E+005    2.53455E+004    4.98873E+003    9.74440E+004   -2.20894E+003   -1.53835E+003    7.21442E+004
            6524    1.39400E+005    1.47847E+005    1.47847E+005    3.48044E+004   -7.91367E+003    1.55760E+005   -5.82458E+004    1.23331E+005    3.48555E+004    2.78869E+003    1.37093E+005   -1.95310E+003   -2.66334E+003    3.93291E+004
            6525    1.56610E+005    1.71266E+005    1.71266E+005    4.20544E+004   -2.90745E+003    1.74173E+005   -7.01376E+004    1.40955E+005    4.21365E+004   -2.06536E+003    1.70342E+005   -3.94801E+002   -3.24814E+003    1.20740E+004
            6526    9.57975E+004    9.57645E+004    9.57645E+004    1.98838E+004   -1.18806E+004    1.07645E+005   -3.45892E+004    8.26393E+004    1.98776E+004    1.93240E+004    6.45661E+004   -1.51465E+003   -5.90924E+002    4.88096E+004
            6527    1.05813E+005    1.14823E+005    1.14823E+005    2.71726E+004   -2.72065E+003    1.17544E+005   -4.64251E+004    9.55984E+004    2.71211E+004    4.53515E+003    1.07619E+005   -1.61556E+003   -7.04410E+002    2.81599E+004
            6528    1.24115E+005    1.40145E+005    1.40145E+005    3.58119E+004    2.88718E+003    1.37258E+005   -5.96147E+004    1.13651E+005    3.58157E+004    3.65782E+003    1.39371E+005   -3.83255E+002   -8.22755E+002    1.02348E+004
            6529    7.86443E+004    5.82783E+003   -8.20931E+004   -1.84515E+004   -8.20931E+004    8.79210E+004    3.15723E+004   -6.94297E+004   -1.84628E+004    3.98828E+003   -8.02423E+004   -1.82206E+002    8.33941E+002    1.25824E+004
            6530    9.26371E+004    1.71465E+003   -1.01707E+005   -2.63404E+004   -1.01707E+005    1.03422E+005    4.21109E+004   -8.22323E+004   -2.63416E+004    1.21707E+003   -1.01208E+005   -1.42271E+002    3.52344E+002    7.15271E+003
            6531    1.03772E+005    3.28157E+003   -1.12766E+005   -2.88889E+004   -1.12766E+005    1.16047E+005    4.61243E+004   -9.15009E+004   -2.88996E+004    3.23960E+003   -1.12713E+005   -1.26242E+002    9.58370E+002    2.19678E+003
            6532    1.02057E+005   -1.02129E+003   -1.14660E+005   -3.08147E+004   -1.14660E+005    1.13638E+005    4.88319E+004   -9.14782E+004   -3.08143E+004   -1.03364E+003   -1.14648E+005   -1.12810E+002   -3.31357E+001   -1.16406E+003
            6533    1.00480E+005    1.74031E+003   -1.10108E+005   -2.74695E+004   -1.10108E+005    1.11848E+005    4.52790E+004   -9.01593E+004   -2.74833E+004    1.70475E+003   -1.10059E+005   -1.48485E+002    1.10759E+003   -1.96669E+003
            6534    8.34907E+004    2.29403E+004   -7.19518E+004   -9.76378E+003   -7.19518E+004    9.48921E+004    1.95917E+004   -6.66046E+004   -9.77245E+003    1.01062E+004   -5.91089E+004   -4.33709E+002    6.54220E+002    3.24493E+004
            6535    8.46543E+004    1.55254E+004   -8.01087E+004   -1.47718E+004   -8.01087E+004    9.56341E+004    2.64517E+004   -7.08169E+004   -1.47699E+004    1.21103E+004   -7.66955E+004   -3.69612E+002    2.34681E+002    1.77376E+004
            6536    8.55543E+004    6.92205E+003   -8.88911E+004   -2.01421E+004   -8.88911E+004    9.58132E+004    3.40371E+004   -7.49751E+004   -2.01462E+004    6.72390E+003   -8.86889E+004   -3.81230E+002    7.50409E+002    4.30330E+003
            6537    8.82155E+004    5.02053E+003   -9.35911E+004   -2.21769E+004   -9.35911E+004    9.86116E+004    3.69158E+004   -7.79103E+004   -2.21727E+004    4.83153E+003   -9.34063E+004   -3.49786E+002   -1.07905E+002   -4.26278E+003
            6538    8.36880E+004   -1.74417E+003   -9.43211E+004   -2.40364E+004   -9.43211E+004    9.25769E+004    4.00339E+004   -7.65693E+004   -2.40404E+004   -2.09513E+003   -9.39661E+004   -3.49370E+002    9.16520E+002   -5.62903E+003
            6539    1.06100E+005    5.08485E+004   -7.12053E+004   -9.97490E+002   -7.12053E+004    1.22054E+005    7.11809E+003   -6.74568E+004   -1.00275E+003    2.82869E+004   -4.86384E+004   -5.78892E+002    5.04285E+002    4.73747E+004
            6540    9.00672E+004    3.26777E+004   -7.03413E+004   -6.48605E+003   -7.03413E+004    1.03019E+005    1.47166E+004   -6.64127E+004   -6.48168E+003    2.62112E+004   -6.38792E+004   -4.86885E+002    9.72123E+001    2.49771E+004
            6541    8.21057E+004    1.99388E+004   -7.31633E+004   -1.11091E+004   -7.31633E+004    9.31021E+004    2.14445E+004   -6.68414E+004   -1.11086E+004    1.97083E+004   -7.29332E+004   -4.75935E+002    5.88130E+002    4.56226E+003
            6542    7.55014E+004    6.33287E+003   -7.81339E+004   -1.72061E+004   -7.81339E+004    8.44668E+004    2.96690E+004   -6.64614E+004   -1.71990E+004    5.81731E+003   -7.76254E+004   -4.47197E+002   -1.92229E+002   -6.52828E+003
            6543    7.34084E+004    2.41788E+003   -7.90561E+004   -1.80636E+004   -7.90561E+004    8.14740E+004    3.15673E+004   -6.65103E+004   -1.80517E+004    1.19198E+003   -7.78421E+004   -5.54068E+002    7.92345E+002   -9.83501E+003
            6544    1.30886E+005    7.99309E+004    7.99309E+004    7.77427E+003   -7.11532E+004    1.51084E+005   -5.51732E+003   -5.58099E+004    7.77259E+003    5.39894E+004   -4.52100E+004   -4.32328E+002    3.06778E+002    5.69754E+004
            6545    1.02139E+005    5.52985E+004   -6.24014E+004    2.96330E+003   -6.24014E+004    1.17700E+005    1.37985E+003   -5.87507E+004    2.96675E+003    4.91258E+004   -5.62321E+004   -4.44234E+002   -6.58424E+000    2.62302E+004
            6546    8.17072E+004    2.97908E+004   -6.36401E+004   -5.56324E+003   -6.36401E+004    9.34308E+004    1.31375E+004   -6.05216E+004   -5.55526E+003    2.96413E+004   -6.34986E+004   -5.94849E+002    2.86597E+002    3.61099E+003
            6547    7.35130E+004    1.61668E+004   -6.70925E+004   -1.11422E+004   -6.70925E+004    8.32593E+004    2.06893E+004   -6.04070E+004   -1.11327E+004    1.46092E+004   -6.55445E+004   -6.47410E+002   -3.48845E+002   -1.12335E+004
            6548    6.13317E+004    3.44511E+002   -6.75294E+004   -1.60877E+004   -6.75294E+004    6.78740E+004    2.77576E+004   -5.60494E+004   -1.60447E+004   -2.35891E+003   -6.48691E+004   -7.81895E+002    4.47052E+002   -1.31633E+004
            6549    6.37473E+004    1.08611E+004   -6.09994E+004   -1.12569E+004   -6.09994E+004    7.18605E+004    2.04650E+004   -5.40437E+004   -1.12420E+004    4.78376E+003   -5.49369E+004   -5.55923E+002    1.48521E+002   -1.99701E+004
            6550    7.40613E+004    2.54175E+004   -5.92153E+004   -6.26658E+003   -5.92153E+004    8.46327E+004    1.33548E+004   -5.54128E+004   -6.26181E+003    2.38122E+004   -5.76148E+004   -4.66860E+002   -1.92771E+002   -1.15231E+004
            6551    8.85659E+004    4.82732E+004   -5.37683E+004    3.13139E+003   -5.37683E+004    1.02042E+005    7.87904E+002   -5.16176E+004    3.13429E+003    4.82680E+004   -5.37660E+004   -3.62344E+002    1.20005E+001    4.82036E+002
            6552    1.10551E+005    7.34730E+004    7.34730E+004    1.11278E+004   -5.41688E+004    1.27642E+005   -1.01440E+004   -3.78192E+004    1.11294E+004    6.96365E+004   -5.03340E+004   -3.05357E+002   -1.07713E+002    2.17892E+004
            6553    1.40954E+005    1.00216E+005    1.00216E+005    1.69466E+004   -6.25287E+004    1.62745E+005   -1.82113E+004    4.83532E+004    1.69466E+004    8.39592E+004   -4.62718E+004   -2.55853E+002    1.13743E+002    4.87992E+004
            6554    1.77820E+005    1.28215E+005    1.28215E+005    2.08588E+004   -7.70417E+004    2.05256E+005   -2.40105E+004    7.65193E+004    2.08588E+004    9.71789E+004   -4.60061E+004   -6.85283E+001    8.24933E+000    7.35325E+004
            6555    2.22415E+005    1.62209E+005    1.62209E+005    2.59759E+004   -9.44513E+004    2.56660E+005   -3.12446E+004    1.05399E+005    2.59760E+004    1.11338E+005   -4.35800E+004    6.15308E+001    9.68337E+001    1.02317E+005
            6556    2.24380E+005    1.48065E+005    1.48065E+005    1.49238E+004   -1.10993E+005    2.59058E+005   -1.73316E+004    8.16994E+004    1.49231E+004    6.03577E+004   -2.32860E+004   -1.57121E+002    2.46081E+002    1.22591E+005
            6557    2.18660E+005    1.32262E+005    1.32262E+005    5.96311E+003   -1.20224E+005    2.52487E+005   -6.00031E+003    2.00039E+004    5.96291E+003    1.91335E+004   -7.09550E+003   -3.42124E+002    5.46025E+001    1.25560E+005
            6558    1.89002E+005    1.23707E+005    1.23707E+005    1.31094E+004   -9.45269E+004    2.18234E+005   -1.40966E+004    5.41387E+004    1.31082E+004    5.77367E+004   -2.85551E+004   -3.47230E+002    2.32200E+002    1.00224E+005
            6559    1.91845E+005    1.15435E+005    1.15435E+005    6.05174E+003   -1.06082E+005    2.21518E+005   -5.13490E+003   -5.33489E+004    6.05122E+003    1.79796E+004   -8.62612E+003   -5.22817E+002    8.88018E+001    1.09956E+005
            6560    1.64369E+005    9.69872E+004    9.69872E+004    5.58907E+003   -9.27674E+004    1.89755E+005   -3.26962E+003   -6.55631E+004    5.58783E+003    1.44590E+004   -1.02380E+004   -6.93095E+002    1.42245E+002    9.40676E+004
            6561    1.30282E+005    7.46565E+004   -7.56311E+004    5.30147E+003   -7.56311E+004    1.50288E+005   -1.44229E+003   -6.64930E+004    5.29997E+003    1.04025E+004   -1.13756E+004   -7.25742E+002    1.58076E+002    7.43470E+004
            6562    8.95170E+004    4.69505E+004   -5.59586E+004    3.89745E+003   -5.59586E+004    1.02909E+005    1.70357E+003   -5.84413E+004    3.89532E+003    3.68083E+003   -1.26869E+004   -5.95525E+002    1.87895E+002    5.07959E+004
            6563    3.92298E+004    1.39811E+004   -2.97233E+004    2.44510E+003   -2.97233E+004    4.37044E+004    4.43234E+003   -3.50984E+004    2.44240E+003    2.59723E+003   -1.83366E+004   -2.31736E+002    2.37553E+002    1.91802E+004
            6564    1.54171E+005    9.50634E+004    9.50634E+004    8.38179E+003   -8.29378E+004    1.78001E+005   -6.83580E+003   -5.48822E+004    8.38072E+003    4.21646E+004   -3.00379E+004   -4.89636E+002    2.04362E+002    8.13482E+004
            6565    1.20191E+005    6.36762E+004   -7.48532E+004    1.69267E+003   -7.48532E+004    1.38529E+005    3.16143E+003   -6.79690E+004    1.69124E+003    2.02069E+004   -3.13824E+004   -6.27310E+002    2.32574E+002    6.42791E+004
            6566    8.73977E+004    3.59567E+004   -6.41350E+004   -2.92678E+003   -6.41350E+004    1.00092E+005    1.03684E+004   -6.30148E+004   -2.92926E+003    9.11187E+003   -3.72877E+004   -4.94134E+002    3.01435E+002    4.43401E+004
            6567    5.59137E+004    5.12311E+003   -5.68915E+004   -1.03282E+004   -5.68915E+004    6.20146E+004    2.06988E+004   -5.07672E+004   -1.03314E+004    4.42579E+002   -5.22077E+004   -2.04833E+002    3.80122E+002    1.63800E+004
            6568    2.50749E+005    2.97846E+005    2.97846E+005    8.38950E+004    2.19216E+004    2.75925E+005   -1.34554E+005    2.32563E+005    8.38928E+004    2.47676E+004    2.95003E+005   -4.41454E+002    7.12330E+002    2.78571E+004
            6569    2.39677E+005    2.60822E+005    2.60822E+005    6.06117E+004   -4.75901E+003    2.65581E+005   -1.05558E+005    2.18230E+005    6.06073E+004   -4.60670E+003    2.60674E+005   -6.64264E+002   -6.19528E+002    6.22202E+003
            6570    2.20889E+005    2.48094E+005    2.48094E+005    6.03884E+004    4.68490E+003    2.43409E+005   -1.04389E+005    2.04170E+005    6.04240E+004    4.89063E+003    2.47853E+005   -6.89267E+002   -2.79652E+003    6.95749E+003
            6571    2.11738E+005    2.29020E+005    2.29020E+005    5.41692E+004   -6.40289E+003    2.35423E+005   -9.22621E+004    1.90735E+005    5.42264E+004   -6.13877E+003    2.28699E+005   -6.39166E+002   -3.26834E+003    7.81042E+003
            6572    3.02667E+005    3.57528E+005    3.57528E+005    1.10479E+005    1.99180E+004    3.37610E+005   -1.62642E+005    2.69561E+005    1.10449E+005    3.02144E+004    3.47261E+005   -1.75944E+003   -2.81710E+002    5.79646E+004
            6573    2.71460E+005    3.08923E+005    3.08923E+005    8.79068E+004    5.91949E+003    3.03004E+005   -1.34250E+005    2.41152E+005    8.78558E+004    1.19774E+004    3.02916E+005   -2.44127E+003   -1.20272E+003    4.21960E+004
            6574    2.41038E+005    2.53617E+005    2.53617E+005    6.10708E+004   -1.67080E+004    2.70325E+005   -9.93265E+004    2.09887E+005    6.10355E+004   -1.39563E+004    2.50900E+005   -2.74010E+003   -2.61622E+003    2.67438E+004
            6575    2.09832E+005    2.19694E+005    2.19694E+005    5.24324E+004   -1.57489E+004    2.35443E+005   -8.54594E+004    1.82289E+005    5.24338E+004   -9.20319E+003    2.13147E+005   -2.61275E+003   -2.91989E+003    3.85119E+004
            6576    2.72451E+005    2.42892E+005    2.42892E+005    4.83954E+004   -6.85009E+004    3.11393E+005   -7.42622E+004    2.03333E+005    4.84091E+004   -3.78254E+004    2.12203E+005   -3.06896E+003   -2.38977E+003    9.27268E+004
            6577    3.26593E+005    3.14749E+005    3.14749E+005    7.62586E+004   -5.74886E+004    3.72237E+005   -1.11173E+005    2.52945E+005    7.62673E+004   -3.22862E+004    2.89538E+005   -2.95828E+003   -2.57389E+003    9.34483E+004
            6578    3.52066E+005    3.69367E+005    3.69367E+005    1.04825E+005   -3.02309E+004    3.99598E+005   -1.47987E+005    2.84342E+005    1.04813E+005   -1.19757E+004    3.51124E+005   -2.60221E+003   -1.86851E+003    8.33554E+004
            6579    3.95592E+005    4.55702E+005    4.55702E+005    1.49122E+005    9.15504E+003    4.46547E+005   -2.04660E+005    3.32615E+005    1.49109E+005    3.36669E+004    4.31203E+005   -2.21318E+003   -1.38126E+003    1.01659E+005
            6580    3.60456E+005    4.79107E+005    4.79107E+005    1.83591E+005    7.75164E+004    4.01591E+005   -2.46738E+005    3.22434E+005    1.83569E+005    1.03175E+005    4.53471E+005   -1.91012E+003   -6.85357E+002    9.81629E+004
            6581    3.35997E+005    4.99448E+005    4.99448E+005    2.12229E+005    1.29956E+005    3.69492E+005   -2.80544E+005    3.12104E+005    2.12219E+005    1.48762E+005    4.80653E+005   -1.09085E+003   -4.52013E+002    8.11836E+004
            6582    2.97774E+005    4.96037E+005    4.96037E+005    2.28872E+005    1.75006E+005    3.21031E+005   -2.99972E+005    2.86504E+005    2.28865E+005    1.96095E+005    4.74955E+005   -5.72832E+002    2.22866E+002    7.95200E+004
            6583    2.51211E+005    4.49966E+005    4.49966E+005    2.17416E+005    1.83534E+005    2.66432E+005   -2.83639E+005    2.45991E+005    2.17409E+005    2.11168E+005    4.22339E+005   -3.46597E+002    5.57912E+002    8.12224E+004
            6584    2.92084E+005    4.50083E+005    4.50083E+005    1.99570E+005    1.29261E+005    3.20822E+005   -2.59638E+005    2.72050E+005    1.99563E+005    1.57443E+005    4.21908E+005   -5.40744E+002    8.61236E+002    9.07996E+004
            6585    2.49196E+005    4.26442E+005    4.26442E+005    2.03062E+005    1.57671E+005    2.68772E+005   -2.62392E+005    2.39629E+005    2.03061E+005    1.80268E+005    4.03846E+005   -2.12491E+002    1.45134E+003    7.45686E+004
            6586    3.26328E+005    4.86914E+005    4.86914E+005    2.09890E+005    1.27194E+005    3.59720E+005   -2.74666E+005    3.01370E+005    2.09880E+005    1.62366E+005    4.51752E+005   -6.87714E+002    1.07526E+003    1.06822E+005
            6587    2.93937E+005    4.74785E+005    4.74785E+005    2.17930E+005    1.54215E+005    3.20569E+005   -2.82310E+005    2.77755E+005    2.17931E+005    1.93487E+005    4.35512E+005   -2.18187E+002    2.19139E+003    1.05083E+005
            6588    3.55401E+005    5.03229E+005    5.03229E+005    2.06668E+005    1.09289E+005    3.93940E+005   -2.73062E+005    3.23283E+005    2.06649E+005    1.56341E+005    4.56195E+005   -1.05157E+003    1.21033E+003    1.27728E+005
            6589    3.23569E+005    4.79685E+005    4.79685E+005    2.07177E+005    1.22069E+005    3.57616E+005   -2.69644E+005    2.96779E+005    2.07174E+005    1.88320E+005    4.13438E+005   -2.82782E+002    3.24495E+003    1.38895E+005
            6590    3.40403E+005    4.53721E+005    4.53721E+005    1.73102E+005    7.50550E+004    3.78666E+005   -2.33959E+005    3.06134E+005    1.73069E+005    1.29311E+005    3.99498E+005   -1.37433E+003    1.64192E+003    1.32624E+005
            6591    3.33623E+005    4.77177E+005    4.77177E+005    1.99343E+005    1.07152E+005    3.70025E+005   -2.61224E+005    3.02917E+005    1.99340E+005    1.82168E+005    4.02164E+005   -2.90468E+002    4.17402E+003    1.48702E+005
            6592    3.62688E+005    4.74359E+005    4.74359E+005    1.83167E+005    6.80946E+004    4.06264E+005   -2.41873E+005    3.17545E+005    1.83160E+005    1.75712E+005    3.66748E+005   -2.22763E+002    4.47125E+003    1.79216E+005
            6593    4.52619E+005    5.82690E+005    5.82690E+005    2.22027E+005    7.47827E+004    5.07908E+005   -2.93167E+005    3.93051E+005    2.22079E+005    1.27547E+005    5.29874E+005   -1.20313E+002    5.58362E+003    1.54919E+005
            6594    3.89518E+005    4.75399E+005    4.75399E+005    1.63337E+005    3.88543E+004    4.36544E+005   -2.25863E+005    3.40249E+005    1.63320E+005    9.43611E+004    4.19909E+005   -1.12988E+003    3.10282E+003    1.45378E+005
            6595    3.27031E+005    3.56252E+005    3.56252E+005    9.96690E+004   -1.19836E+004    3.68235E+005   -1.47979E+005    2.79045E+005    9.97469E+004   -7.60624E+003    3.51796E+005   -4.61963E+002    4.78979E+003    3.98652E+004
            6596    4.78423E+004   -3.26089E+003   -5.54913E+004   -1.37919E+004   -5.54913E+004    5.22304E+004    2.41814E+004   -4.51226E+004   -1.37555E+004   -8.61988E+003   -5.01687E+004   -7.32676E+002   -1.51384E+002   -1.57893E+004
            6597    5.35792E+004   -3.75658E+003   -6.22140E+004   -1.54415E+004   -6.22140E+004    5.84574E+004    2.71374E+004   -5.05919E+004   -1.54021E+004   -5.50821E+003   -6.05017E+004   -8.19532E+002   -4.32129E+002   -9.83329E+003
            6598    6.50120E+004   -6.67584E+003   -7.74935E+004   -2.05161E+004   -7.74935E+004    7.08177E+004    3.48951E+004   -6.15651E+004   -2.04888E+004   -6.99706E+003   -7.71996E+004   -6.63806E+002   -3.32919E+002   -4.53284E+003
            6599    8.34557E+004    1.18695E+002   -9.23250E+004   -2.25345E+004   -9.23250E+004    9.24437E+004    3.82469E+004   -7.60641E+004   -2.25310E+004    3.29359E+001   -9.22428E+004   -3.28577E+002   -2.54208E+002   -2.73871E+003
            6600    9.31138E+004   -2.58939E+003   -1.05581E+005   -2.73492E+004   -1.05581E+005    1.02991E+005    4.51730E+004   -8.52228E+004   -2.73489E+004   -2.59486E+003   -1.05575E+005   -1.78793E+002   -2.71736E+002   -6.58117E+002
            6601    2.53364E+004   -1.13877E+004   -3.88186E+004   -1.62944E+004   -3.88186E+004    2.74309E+004    2.21669E+004   -2.42327E+004   -1.15896E+004   -1.72547E+004   -3.76563E+004   -8.92412E+002    4.45725E+002   -5.00181E+003
            6602    4.44630E+004   -1.37814E+004   -5.99521E+004   -1.74202E+004   -5.99521E+004    4.61706E+004    3.03846E+004   -4.41262E+004   -1.71987E+004   -1.43711E+004   -5.95839E+004   -1.00819E+003    9.95408E+002    3.94060E+003
            6603    6.70207E+004   -4.19763E+003   -7.72023E+004   -1.84623E+004   -7.72023E+004    7.30047E+004    3.32874E+004   -6.34690E+004   -1.84486E+004   -4.43480E+003   -7.69789E+004   -8.72156E+002    1.31962E+003    3.73515E+003
            6604    8.17556E+004   -4.84539E+003   -9.44286E+004   -2.38471E+004   -9.44286E+004    8.95832E+004    4.10404E+004   -7.65471E+004   -2.38753E+004   -5.02258E+003   -9.42232E+004   -3.76561E+002    1.51599E+003    3.92238E+003
            6605    9.85179E+004    1.95686E+003   -1.07270E+005   -2.51253E+004   -1.07270E+005    1.09226E+005    4.34793E+004   -8.95517E+004   -2.51601E+004    1.93911E+003   -1.07217E+005   -2.38209E+002    1.72867E+003    1.32213E+003
            6606    4.61258E+004   -7.40010E+003   -5.66177E+004   -1.43792E+004   -5.66177E+004    4.92176E+004    2.61324E+004   -4.49148E+004   -1.42615E+004   -2.36475E+004   -4.04880E+004   -1.23306E+003    1.01385E+002    2.30451E+004
            6607    6.01006E+004   -4.63030E+003   -7.00205E+004   -1.71966E+004   -7.00205E+004    6.53902E+004    3.06158E+004   -5.70313E+004   -1.70733E+004   -1.13830E+004   -6.33911E+004   -1.28553E+003   -9.37274E+001    1.97131E+004
            6608    7.72391E+004   -6.50002E+003   -9.08422E+004   -2.35578E+004   -9.08422E+004    8.43421E+004    4.03000E+004   -7.28180E+004   -2.34860E+004   -1.04196E+004   -8.69944E+004   -1.14013E+003    1.05352E+001    1.75889E+004
            6609    9.64768E+004    9.36235E+002   -1.05926E+005   -2.52354E+004   -1.05926E+005    1.06862E+005    4.34084E+004   -8.79431E+004   -2.52277E+004   -1.62061E+002   -1.04836E+005   -4.86214E+002    1.65758E+002    1.07368E+004
            6610    1.05687E+005   -3.24338E+003   -1.19971E+005   -3.07710E+004   -1.19971E+005    1.16727E+005    5.13284E+004   -9.71185E+004   -3.07681E+004   -3.39079E+003   -1.19826E+005   -3.04113E+002    1.73919E+002    4.10004E+003
            6611    2.48873E+005   -1.82814E+005   -4.46711E+005   -2.16239E+005   -4.46711E+005    2.63896E+005    2.81921E+005   -2.43747E+005   -2.16233E+005   -2.11543E+005   -4.17988E+005   -2.69674E+002   -7.15825E+002    8.21842E+004
            6612    2.79747E+005   -1.24449E+005   -4.31713E+005   -1.91767E+005   -4.31713E+005    3.07264E+005    2.49310E+005   -2.60572E+005   -1.91762E+005   -1.51961E+005   -4.04206E+005   -4.39095E+002   -8.36944E+002    8.77187E+004
            6613    2.36846E+005   -1.54167E+005   -4.09100E+005   -1.95884E+005   -4.09100E+005    2.54933E+005    2.53051E+005   -2.28360E+005   -1.95884E+005   -1.72498E+005   -3.90769E+005   -1.83866E+002   -1.22747E+003    6.58448E+004
            6614    2.18160E+005   -1.33795E+005   -3.69011E+005   -1.73309E+005   -3.69011E+005    2.35216E+005    2.25371E+005   -2.09881E+005   -1.73302E+005   -1.86514E+005   -3.16298E+005   -2.32389E+002   -7.54682E+002    9.80791E+004
            6615    2.16300E+005   -9.47291E+004   -3.32655E+005   -1.47895E+005   -3.32655E+005    2.37926E+005    1.91759E+005   -2.00794E+005   -1.47890E+005   -1.19633E+005   -3.07755E+005   -3.81509E+002   -5.55419E+002    7.28278E+004
            6616    1.68287E+005   -1.24201E+005   -3.03513E+005   -1.49003E+005   -3.03513E+005    1.79312E+005    1.92239E+005   -1.64099E+005   -1.49002E+005   -1.31571E+005   -2.96144E+005   -1.82838E+002   -6.27975E+002    3.55890E+004
            6617    2.13241E+005   -1.87196E+004   -2.59881E+005   -9.62614E+004   -2.59881E+005    2.41162E+005    1.24954E+005   -1.77075E+005   -9.62578E+004   -1.09083E+005   -1.69522E+005   -2.66288E+002   -5.83436E+002    1.16730E+005
            6618    1.39935E+005   -3.22233E+004   -1.89001E+005   -7.67400E+004   -1.89001E+005    1.56778E+005    9.93215E+004   -1.22414E+005   -7.67365E+004   -6.31939E+004   -1.58034E+005   -2.93167E+002   -3.18808E+002    6.24169E+004
            6619    8.38999E+004   -6.54708E+004   -1.54407E+005   -7.66684E+004   -1.54407E+005    8.89364E+004    9.88488E+004   -8.21935E+004   -7.66666E+004   -6.74581E+004   -1.52422E+005   -1.28568E+002   -1.87517E+002    1.31380E+004
            6620    2.14572E+005    1.32706E+005    1.32706E+005    6.12748E+003   -1.15041E+005    2.47747E+005   -7.93107E+003    7.20225E+004    6.12698E+003    6.42600E+003    1.12402E+004   -2.81916E+002    1.03913E+002    1.23850E+005
            6621    1.02586E+005    7.33608E+004    7.33608E+004    9.86744E+003   -4.49902E+004    1.18351E+005   -1.27460E+004    5.14257E+004    9.86667E+003    8.90476E+003    1.94667E+004   -2.69819E+002    6.27730E+001    5.89387E+004
            6622    1.63211E+004    2.57145E+004    2.57145E+004    1.16885E+004    7.80046E+003    1.79140E+004   -1.50678E+004    1.52259E+004    1.16853E+004    1.06212E+004    2.28970E+004   -1.13974E+002    1.97260E+001    6.52110E+003
            6623    2.13108E+005    2.72916E+005    2.72916E+005    1.05616E+005    3.29863E+004    2.39929E+005   -1.37173E+005    1.81964E+005    1.05612E+005    1.19135E+005    1.86772E+005   -2.84872E+002    5.82758E+002    1.15097E+005
            6624    1.55110E+005    2.22788E+005    2.22788E+005    9.46709E+004    5.03387E+004    1.72449E+005   -1.22599E+005    1.39754E+005    9.46666E+004    7.80455E+004    1.95085E+005   -3.33181E+002    3.61106E+002    6.33220E+004
            6625    1.05620E+005    1.95847E+005    1.95847E+005    9.76183E+004    8.41308E+004    1.11716E+005   -1.25865E+005    1.03656E+005    9.76164E+004    8.68574E+004    1.93122E+005   -1.45926E+002    2.96270E+002    1.72299E+004
            6626    2.23473E+005    3.81432E+005    3.81432E+005    1.80056E+005    1.41010E+005    2.40422E+005   -2.34166E+005    2.15597E+005    1.80050E+005    1.91631E+005    3.30817E+005   -1.89264E+002    8.83039E+002    9.80114E+004
            6627    2.28437E+005    3.55762E+005    3.55762E+005    1.59403E+005    1.05052E+005    2.50710E+005   -2.06739E+005    2.13148E+005    1.59400E+005    1.29495E+005    3.31323E+005   -3.32427E+002    6.64143E+002    7.43605E+004
            6628    1.87141E+005    3.36464E+005    3.36464E+005    1.64868E+005    1.36922E+005    1.99543E+005   -2.12752E+005    1.82357E+005    1.64867E+005    1.46000E+005    3.27387E+005   -1.72207E+002    7.17407E+002    4.15733E+004
            6629    1.92375E+005    5.12050E+003   -2.08890E+005   -5.03296E+004   -2.08890E+005    2.14010E+005    8.46996E+004   -1.72978E+005   -5.04320E+004    4.92050E+003   -2.08587E+005   -5.15540E+002    4.06885E+003    6.49229E+003
            6630    1.76237E+005    2.20054E+003   -1.93680E+005   -4.79653E+004   -1.93680E+005    1.95881E+005    7.98151E+004   -1.58943E+005   -4.80542E+004   -6.59552E+002   -1.90732E+005   -1.11798E+003    3.66405E+003    2.34534E+004
            6631    1.80158E+005    2.12120E+004   -1.81360E+005   -3.90804E+004   -1.81360E+005    2.02572E+005    6.64094E+004   -1.54891E+005   -3.91410E+004    1.24281E+004   -1.72515E+005   -2.17391E+003    3.29669E+003    4.11667E+004
            6632    1.95313E+005    3.54555E+004   -1.86194E+005   -3.93003E+004   -1.86194E+005    2.21649E+005    6.33463E+004   -1.57944E+005   -3.93553E+004    1.05385E+004   -1.61222E+005   -2.91262E+003    2.95243E+003    6.99391E+004
            6633    2.29614E+005    7.17520E+004   -1.91307E+005   -3.10969E+004   -1.91307E+005    2.63059E+005    5.02172E+004   -1.64383E+005   -3.11164E+004    2.51350E+004   -1.44670E+005   -3.34372E+003    2.02424E+003    1.00383E+005
            6634    1.57757E+005   -3.34572E+003   -1.78155E+005   -4.63799E+004   -1.78155E+005    1.74809E+005    7.59600E+004   -1.43635E+005   -4.63918E+004   -3.71572E+003   -1.77773E+005   -5.19949E+002    1.45835E+003    7.98159E+003
            6635    1.49785E+005    7.04050E+003   -1.60042E+005   -3.77973E+004   -1.60042E+005    1.67083E+005    6.35997E+004   -1.33385E+005   -3.78041E+004    3.80264E+003   -1.56798E+005   -8.84125E+002    1.34982E+003    2.29940E+004
            6636    1.39444E+005    7.09031E+003   -1.48653E+005   -3.53884E+004   -1.48653E+005    1.55743E+005    5.89836E+004   -1.23579E+005   -3.53493E+004   -4.97336E+003   -1.36628E+005   -1.98761E+003    1.07241E+003    4.15240E+004
            6637    1.38931E+005    2.30895E+004   -1.34000E+005   -2.72798E+004   -1.34000E+005    1.57090E+005    4.60636E+004   -1.15531E+005   -2.72406E+004   -8.27333E+002   -1.10123E+005   -2.41959E+003    9.23389E+002    5.63482E+004
            6638    1.64168E+005    4.24033E+004   -1.44915E+005   -2.60517E+004   -1.44915E+005    1.87318E+005    4.28544E+004   -1.25440E+005   -2.60433E+004   -8.32227E+003   -9.41976E+004   -2.56258E+003    8.58427E+002    8.31917E+004
            6639    1.32879E+005    3.12095E+003   -1.44567E+005   -3.46941E+004   -1.44567E+005    1.47687E+005    5.87132E+004   -1.19847E+005   -3.47732E+004    2.84101E+003   -1.44208E+005   -3.70908E+002    2.96192E+003    6.40424E+003
            6640    1.15515E+005   -2.28012E+003   -1.29907E+005   -3.25208E+004   -1.29907E+005    1.27627E+005    5.49027E+004   -1.06046E+005   -3.25943E+004   -5.27996E+003   -1.26834E+005   -6.25055E+002    2.63784E+003    1.93248E+004
            6641    1.05758E+005    5.07409E+003   -1.12465E+005   -2.50055E+004   -1.12465E+005    1.17539E+005    4.41321E+004   -9.53981E+004   -2.50635E+004   -2.51008E+003   -1.04823E+005   -1.45291E+003    2.34739E+003    2.88256E+004
            6642    9.69580E+004    5.87372E+003   -1.02280E+005   -2.31437E+004   -1.02280E+005    1.08154E+005    3.98499E+004   -8.63472E+004   -2.31962E+004   -1.35285E+004   -8.28251E+004   -1.72470E+003    1.85232E+003    4.14573E+004
            6643    9.36260E+004    1.78523E+004   -8.78482E+004   -1.53413E+004   -8.78482E+004    1.05701E+005    2.84457E+004   -7.86514E+004   -1.53650E+004   -1.84566E+004   -5.15155E+004   -1.90297E+003    1.00124E+003    5.01574E+004
            6644    3.77538E+005   -7.08861E+004   -4.93029E+005   -1.87716E+005   -4.93029E+005    4.22143E+005    2.50544E+005   -3.33072E+005   -1.87714E+005   -9.07372E+004   -4.73180E+005   -1.20947E+003    1.02911E+003    8.93458E+004
            6645    3.89177E+005   -1.47877E+004   -4.54321E+005   -1.53523E+005   -4.54321E+005    4.39533E+005    2.07544E+005   -3.26140E+005   -1.53517E+005   -3.58385E+004   -4.33276E+005   -1.73661E+003    1.28381E+003    9.38253E+004
            6646    3.97950E+005    3.10144E+004   -4.21284E+005   -1.24896E+005   -4.21284E+005    4.52299E+005    1.71722E+005   -3.17427E+005   -1.24894E+005    8.36292E+003   -3.98634E+005   -2.53469E+003    2.15270E+003    9.85935E+004
            6647    3.59945E+005    7.75382E+004   -3.34066E+005   -7.82956E+004   -3.34066E+005    4.11605E+005    1.11608E+005   -2.66478E+005   -7.82991E+004    4.97725E+004   -3.06297E+005   -3.13389E+003    2.46816E+003    1.03162E+005
            6648    3.07172E+005    8.05159E+004   -2.71155E+005   -5.53138E+004   -2.71155E+005    3.51671E+005    8.19843E+004   -2.22856E+005   -5.53062E+004    4.03157E+004   -2.30962E+005   -3.48128E+003    1.97037E+003    1.11821E+005
            6649    2.37002E+005    4.43583E+004   -2.24931E+005   -4.80707E+004   -2.24931E+005    2.69290E+005    7.62146E+004   -1.89573E+005   -4.80275E+004    2.85926E+004   -2.09209E+005   -3.60403E+003    2.22103E+003    6.30245E+004
            6650    2.16136E+005    1.56098E+004   -2.26826E+005   -5.42910E+004   -2.26826E+005    2.42436E+005    8.85024E+004   -1.88062E+005   -5.42637E+004    8.72823E+003   -2.19972E+005   -2.42622E+003    2.01288E+003    4.00814E+004
            6651    2.09806E+005    1.18436E+004   -2.22279E+005   -5.12872E+004   -2.22279E+005    2.34122E+005    8.72407E+004   -1.86571E+005   -5.12943E+004    1.07588E+004   -2.21187E+005   -1.48542E+003    2.35028E+003    1.56933E+004
            6652    2.06612E+005   -4.03667E+003   -2.32141E+005   -5.75497E+004   -2.32141E+005    2.28104E+005    9.79090E+004   -1.90060E+005   -5.75805E+004   -4.13099E+003   -2.32016E+005   -6.04960E+002    2.51272E+003    4.49297E+003
            6653    2.90809E+005    3.38930E+004   -2.95782E+005   -7.56647E+004   -2.95782E+005    3.29675E+005    1.12518E+005   -2.37221E+005   -7.56598E+004    1.87001E+004   -2.80594E+005   -3.52584E+003    3.11431E+003    6.89548E+004
            6654    2.49166E+005    1.85572E+004   -2.61345E+005   -6.37337E+004   -2.61345E+005    2.79902E+005    1.02174E+005   -2.15245E+005   -6.37369E+004    1.48794E+004   -2.57664E+005   -2.13537E+003    2.69526E+003    3.16966E+004
            6655    2.25815E+005   -1.80591E+003   -2.52266E+005   -6.42297E+004   -2.52266E+005    2.50460E+005    1.06100E+005   -2.05014E+005   -6.42456E+004   -2.73698E+003   -2.51319E+005   -1.63187E+003    2.96400E+003    1.49620E+004
            6656    2.24124E+005    6.06286E+003   -2.42098E+005   -5.44275E+004   -2.42098E+005    2.48160E+005    9.68207E+004   -2.04515E+005   -5.44752E+004    6.04921E+003   -2.42036E+005   -4.84761E+002    3.09799E+003    1.58069E+003
            6657    3.12660E+005    1.30504E+004   -3.39819E+005   -9.72881E+004   -3.39819E+005    3.52870E+005    1.41352E+005   -2.63181E+005   -9.72435E+004   -1.06208E+002   -3.26707E+005   -3.55462E+003    2.40926E+003    6.66392E+004
            6658    2.82036E+005   -6.48535E+003   -3.21389E+005   -9.20262E+004   -3.21389E+005    3.14904E+005    1.39967E+005   -2.50255E+005   -9.20087E+004   -1.40191E+004   -3.13873E+005   -1.82855E+003    1.39870E+003    4.80257E+004
            6659    2.55566E+005    2.86571E+003   -2.81414E+005   -7.06947E+004   -2.81414E+005    2.84279E+005    1.16414E+005   -2.29877E+005   -7.06685E+004    2.05869E+003   -2.80633E+005   -1.76081E+003    1.51174E+003    1.47608E+004
            6660    2.23792E+005   -9.54524E+003   -2.54724E+005   -6.14363E+004   -2.54724E+005    2.45179E+005    1.08569E+005   -2.09605E+005   -6.14430E+004   -9.68276E+003   -2.54580E+005   -4.03361E+002    1.33646E+003    5.74829E+003
            6661    3.61111E+005   -1.95314E+004   -4.25479E+005   -1.40005E+005   -4.25479E+005    4.05947E+005    1.95005E+005   -3.10821E+005   -1.39960E+005   -4.39200E+004   -4.01135E+005   -3.06304E+003    1.26630E+003    9.63480E+004
            6662    3.01542E+005   -1.97070E+004   -3.56173E+005   -1.10350E+005   -3.56173E+005    3.36466E+005    1.62077E+005   -2.68223E+005   -1.10331E+005   -3.08032E+004   -3.45096E+005   -1.29874E+003   -1.06331E+002    6.00360E+004
            6663    2.77213E+005   -2.13103E+004   -3.28540E+005   -9.71139E+004   -3.28540E+005    3.07230E+005    1.48988E+005   -2.52269E+005   -9.70796E+004   -2.75949E+004   -3.22290E+005   -1.57462E+003   -3.92469E+002    4.33700E+004
            6664    2.49954E+005    5.20028E+003   -2.71962E+005   -6.36479E+004   -2.71962E+005    2.77163E+005    1.10137E+005   -2.27108E+005   -6.36507E+004    4.82680E+003   -2.71586E+005   -2.91551E+002   -9.60880E+002    1.01463E+004
            6665    3.44844E+005   -6.48431E+004   -4.48785E+005   -1.65389E+005   -4.48785E+005    3.83942E+005    2.26339E+005   -3.09194E+005   -1.65352E+005   -1.01282E+005   -4.12383E+005   -2.28934E+003    4.46631E+002    1.12464E+005
            6666    3.60347E+005   -3.69461E+004   -4.39651E+005   -1.47624E+005   -4.39651E+005    4.02705E+005    2.08074E+005   -3.18601E+005   -1.47615E+005   -7.48430E+004   -4.01764E+005   -8.65458E+002   -9.46323E+002    1.17563E+005
            6667    3.23351E+005   -1.01597E+004   -3.71882E+005   -1.10875E+005   -3.71882E+005    3.61722E+005    1.64306E+005   -2.84716E+005   -1.10856E+005   -2.15773E+004   -3.60484E+005   -1.33561E+003   -1.45415E+003    6.31742E+004
            6668    2.67907E+005   -2.19772E+004   -3.17977E+005   -9.21179E+004   -3.17977E+005    2.96000E+005    1.44024E+005   -2.45944E+005   -9.21390E+004   -2.53027E+004   -3.14630E+005   -1.17677E+002   -2.29951E+003    3.11879E+004
            6669    3.55526E+005    1.55643E+004   -3.85944E+005   -1.11082E+005   -3.85944E+005    4.01508E+005    1.60487E+005   -2.98037E+005   -1.11208E+005    1.09910E+004   -3.81245E+005   -1.88309E+002   -6.07314E+003    4.25733E+004
            6670    4.85612E+005   -7.86008E+004   -6.24118E+005   -2.38991E+005   -6.24118E+005    5.45517E+005    3.13903E+005   -4.19494E+005   -2.39049E+005   -1.30312E+005   -5.72350E+005   -1.29342E+002   -5.92938E+003    1.59748E+005
            6671    4.14816E+005   -2.79063E+004   -4.94395E+005   -1.67006E+005   -4.94395E+005    4.66489E+005    2.29769E+005   -3.56377E+005   -1.67016E+005   -8.50741E+004   -4.37217E+005   -8.45941E+002   -4.85112E+003    1.52901E+005
            6672    3.77588E+005   -6.65246E+004   -4.90094E+005   -1.88789E+005   -4.90094E+005    4.23570E+005    2.48469E+005   -3.28409E+005   -1.88787E+005   -1.80672E+005   -3.75950E+005   -1.55465E+002   -4.89490E+003    1.87870E+005
            6673    3.41574E+005   -6.37544E+004   -4.44382E+005   -1.64543E+005   -4.44382E+005    3.80627E+005    2.24226E+005   -3.05332E+005   -1.64521E+005   -1.29807E+005   -3.78352E+005   -8.83916E+002   -3.80245E+003    1.44078E+005
            6674    3.40620E+005   -9.54188E+004   -4.74558E+005   -1.94369E+005   -4.74558E+005    3.79139E+005    2.54782E+005   -3.05687E+005   -1.94359E+005   -1.78669E+005   -3.91318E+005   -3.92474E+002   -3.85742E+003    1.56894E+005
            6675    3.54097E+005   -8.95601E+004   -4.82971E+005   -1.89802E+005   -4.82971E+005    3.93411E+005    2.54111E+005   -3.19761E+005   -1.89767E+005   -1.43884E+005   -4.28682E+005   -1.33806E+003   -2.36197E+003    1.35664E+005
            6676    3.34393E+005   -1.07301E+005   -4.78450E+005   -2.00653E+005   -4.78450E+005    3.71149E+005    2.62135E+005   -3.02931E+005   -2.00650E+005   -1.85225E+005   -4.00529E+005   -2.36205E+002   -3.17518E+003    1.51124E+005
            6677    3.14791E+005   -1.36111E+005   -4.82265E+005   -2.13136E+005   -4.82265E+005    3.46154E+005    2.77171E+005   -2.92439E+005   -2.13133E+005   -1.92057E+005   -4.26322E+005   -2.97476E+002   -2.92096E+003    1.27384E+005
            6678    2.86656E+005   -1.51327E+005   -4.63888E+005   -2.13266E+005   -4.63888E+005    3.12561E+005    2.76160E+005   -2.70979E+005   -2.13265E+005   -1.88679E+005   -4.26537E+005   -2.46473E+002   -2.11704E+003    1.01365E+005
            6679    3.45881E+005   -1.08302E+005   -4.91517E+005   -2.02476E+005   -4.91517E+005    3.83215E+005    2.67432E+005   -3.15044E+005   -2.02459E+005   -1.53451E+005   -4.46385E+005   -1.02029E+003   -1.16524E+003    1.23518E+005
            6680    3.26965E+005   -1.28113E+005   -4.88585E+005   -2.11134E+005   -4.88585E+005    3.60472E+005    2.75944E+005   -3.01853E+005   -2.11123E+005   -1.62645E+005   -4.54064E+005   -7.85230E+002   -9.51309E+002    1.06072E+005
            6681    2.91701E+005   -1.73689E+005   -4.87923E+005   -2.25772E+005   -4.87923E+005    3.14234E+005    2.95795E+005   -2.80953E+005   -2.25765E+005   -1.92563E+005   -4.69056E+005   -6.17117E+002   -8.35834E+001    7.46497E+004
            6682    3.44239E+005   -1.29395E+005   -5.08484E+005   -2.15405E+005   -5.08484E+005    3.79089E+005    2.84428E+005   -3.18691E+005   -2.15393E+005   -1.49799E+005   -4.88092E+005   -1.18763E+003    3.80922E+002    8.55203E+004
            6683    1.04226E+005    5.77267E+004   -6.25213E+004   -6.68062E+003   -6.25213E+004    1.20248E+005    3.82507E+003    5.18352E+004   -6.68095E+003   -5.56760E+004    5.08817E+004   -1.27186E+002    5.01156E+001    2.78611E+004
            6684    8.42334E+004    5.79325E+004    5.79325E+004    1.06590E+003   -3.88375E+004    9.67700E+004   -6.72031E+003    5.62625E+004    1.06524E+003   -3.87654E+004    5.78611E+004   -1.86477E+002   -9.96294E+001    2.62496E+003
            6685    7.34911E+004    6.35255E+004    6.35255E+004    9.08089E+003   -2.00685E+004    8.35940E+004   -1.75126E+004    5.81701E+004    9.07958E+003   -1.83208E+004    6.17791E+004   -2.70152E+002    1.62270E+002   -1.19531E+004
            6686    6.36786E+004    6.48681E+004    6.48681E+004    1.37383E+004   -6.46009E+003    7.13282E+004   -2.40487E+004    5.57573E+004    1.37309E+004   -2.16150E+003    6.05768E+004   -3.61309E+002   -1.46077E+002   -1.69599E+004
            6687    7.33634E+004    8.08716E+004    8.08716E+004    1.96344E+004   -4.39016E+002    8.13107E+004   -3.33557E+004    6.67533E+004    1.96388E+004    6.99683E+002    7.97285E+004   -7.77607E+001   -5.98038E+002   -9.54976E+003
            6688    9.38578E+004    1.05271E+005    1.05271E+005    2.74570E+004    1.03355E+003    1.04237E+005   -4.45871E+004    8.48652E+004    2.74648E+004    1.10389E+003    1.05193E+005   -9.75376E+001   -8.06366E+002   -2.69659E+003
            6689    7.78301E+004    8.08274E+004    8.08274E+004    1.81789E+004   -6.29918E+003    8.71265E+004   -3.09024E+004    6.83291E+004    1.81800E+004   -5.68077E+003    8.02078E+004   -5.03793E+001    2.67963E+002   -7.31391E+003
            6690    9.96970E+004    1.09296E+005    1.09296E+005    2.83790E+004   -2.07715E+003    1.11373E+005   -4.51992E+004    8.82837E+004    2.83805E+004   -2.05452E+003    1.09272E+005   -7.85883E+001    3.61142E+002   -1.58147E+003
            6691    8.38417E+004    7.70709E+004    7.70709E+004    1.33223E+004   -1.79027E+004    9.49736E+004   -2.41635E+004    6.88050E+004    1.33239E+004   -1.76525E+004    7.68191E+004   -1.35635E+002   -3.49604E+002    4.86405E+003
            6692    9.81990E+004    1.05823E+005    1.05823E+005    2.69028E+004   -4.14787E+003    1.09971E+005   -4.28593E+004    8.60680E+004    2.69064E+004   -3.98552E+003    1.05657E+005   -6.91942E+001   -5.39028E+002    4.22112E+003
            6693    9.11427E+004    7.17473E+004    7.17473E+004    7.08482E+003   -3.24941E+004    1.04241E+005   -1.54460E+004    6.72883E+004    7.08444E+003   -2.36593E+004    6.29128E+004   -1.29568E+002    6.51363E+000    2.90321E+004
            6694    8.69439E+004    9.12189E+004    9.12189E+004    2.17088E+004   -6.26979E+003    9.74887E+004   -3.55526E+004    7.57758E+004    2.17086E+004   -4.77459E+003    8.97238E+004   -6.75522E+001    1.84814E+001    1.19797E+004
            6695    6.71392E+004    6.74601E+004    6.74601E+004    1.33166E+004   -7.66402E+003    7.51241E+004   -2.43709E+004    5.90590E+004    1.33184E+004   -2.93670E+003    6.27310E+004   -7.39254E+001   -3.01538E+002    1.82422E+004
            6696    4.82998E+004    3.71563E+004    3.71563E+004   -6.96716E+002   -1.72418E+004    5.43981E+004   -6.40594E+003    4.11590E+004   -6.96816E+002   -3.24368E+003    2.31583E+004   -9.15103E+001   -3.09980E+001    2.37805E+004
            6697    1.01587E+005    6.97448E+004    6.97448E+004    1.65761E+003   -4.70218E+004    1.16767E+005   -8.12688E+003    6.67027E+004    1.65855E+003   -1.88858E+004    4.16079E+004   -1.86948E+002   -1.97815E+002    4.99366E+004
            6698    1.08187E+005    6.53940E+004    6.53940E+004   -4.33916E+003   -5.92360E+004    1.24630E+005   -6.06289E+002    6.37304E+004   -4.33918E+003   -8.19481E+003    1.43529E+004   -1.91295E+002   -2.46515E+001    6.12864E+004
            6699    1.49218E+005    8.58476E+004   -8.63647E+004   -5.06820E+003   -8.63647E+004    1.72212E+005    1.86176E+003    6.84581E+004   -5.06801E+003   -1.19499E+004    1.14327E+004   -2.47344E+002   -5.54789E+001    8.53084E+004
            6700    1.82581E+005    1.01137E+005   -1.09675E+005   -6.37511E+003   -1.09675E+005    2.10812E+005    4.97099E+003    5.94953E+004   -6.37501E+003   -1.70155E+004    8.47756E+003   -2.17721E+002   -3.81209E+001    1.04632E+005
            6701    2.11227E+005    1.16219E+005   -1.27684E+005   -6.23032E+003   -1.27684E+005    2.43903E+005    5.89861E+003    4.05342E+004   -6.23023E+003   -1.88359E+004    7.37032E+003   -1.52605E+002   -4.35470E+001    1.21245E+005
            6702    2.36829E+005    1.30943E+005   -1.42524E+005   -5.45589E+003   -1.42524E+005    2.73466E+005    5.67898E+003   -3.83286E+004   -5.45581E+003   -1.71356E+004    5.55441E+003   -1.03770E+002   -5.54597E+001    1.36262E+005
            6703    1.41732E+005    7.87183E+004   -8.48826E+004   -6.81468E+003   -8.48826E+004    1.63601E+005    4.32635E+003    6.07973E+004   -6.81460E+003   -4.00185E+004    3.38540E+004   -1.61087E+002   -6.09622E+001    7.29863E+004
            6704    1.83046E+005    9.26270E+004   -1.18735E+005   -1.23877E+004   -1.18735E+005    2.11362E+005    1.28320E+004   -4.06141E+004   -1.23877E+004   -5.39639E+004    2.78555E+004   -1.17125E+002   -4.79286E+001    9.74417E+004
            6705    2.17160E+005    1.07580E+005   -1.43149E+005   -1.46687E+004   -1.43149E+005    2.50729E+005    1.67460E+004   -7.61000E+004   -1.46687E+004   -5.78723E+004    2.23031E+004   -4.76936E+001   -4.69298E+000    1.18782E+005
            6706    2.45823E+005    1.23830E+005   -1.59986E+005   -1.41252E+004   -1.59986E+005    2.83816E+005    1.67603E+004   -8.94756E+004   -1.41252E+004   -5.53310E+004    1.91752E+004   -1.28850E+001    5.50294E+001    1.36931E+005
            6707    2.63537E+005    1.17475E+005   -1.86668E+005   -2.59518E+004   -1.86668E+005    3.04143E+005    3.17151E+004   -1.21613E+005   -2.59519E+004   -1.11901E+005    4.27079E+004    5.53910E+001   -1.40105E+002    1.30957E+005
            6708    2.16492E+005    9.04982E+004   -1.59318E+005   -2.65075E+004   -1.59318E+005    2.49816E+005    3.17758E+004   -1.03514E+005   -2.65073E+004   -1.11683E+005    4.28633E+004   -9.24809E+000   -1.89551E+002    9.81368E+004
            6709    1.73173E+005    7.47447E+004   -1.25154E+005   -2.08072E+004   -1.25154E+005    1.99898E+005    2.37387E+004   -7.33889E+004   -2.08072E+004   -9.50680E+004    4.46591E+004   -3.19034E+001    1.45259E+001    7.14767E+004
            6710    1.30746E+005    6.56339E+004   -8.53318E+004   -1.10552E+004   -8.53318E+004    1.50966E+005    1.02510E+004    3.95473E+004   -1.10548E+004   -6.88623E+004    4.91641E+004   -1.23153E+002   -1.42962E+002    4.70645E+004
            6711    9.11662E+004    1.01204E+005    1.01204E+005    2.52790E+004    9.28695E+001    1.01112E+005   -4.21921E+004    8.27799E+004    2.52837E+004    1.01716E+002    1.01191E+005   -1.34172E+002    6.36850E+002   -9.10021E+002
            6712    6.64997E+004    7.83969E+004    7.83969E+004    2.04864E+004    5.77253E+003    7.26243E+004   -3.48853E+004    6.26782E+004    2.04902E+004    5.97863E+003    7.81870E+004   -1.38907E+001    4.69391E+002   -3.86316E+003
            6713    4.96805E+004    5.80097E+004    5.80097E+004    1.44282E+004    3.91349E+003    5.40962E+004   -2.54504E+004    4.70783E+004    1.44158E+004    8.34925E+003    5.35863E+004   -4.72007E+002    2.00651E+002   -1.48166E+004
            6714    9.16295E+004    1.03447E+005    1.03447E+005    2.59569E+004    2.31191E+003    1.01135E+005   -4.39051E+004    8.43462E+004    2.59743E+004    2.37086E+003    1.03370E+005   -1.35248E+002   -1.17438E+003    2.43057E+003
            6715    6.86426E+004    7.97704E+004    7.97704E+004    1.98453E+004    4.87967E+003    7.48907E+004   -3.48318E+004    6.48177E+004    1.98586E+004    5.18318E+003    7.94536E+004   -6.12394E+001   -8.90060E+002    4.75754E+003
            6716    3.22470E+004    4.70765E+004    4.70765E+004    1.58943E+004    1.38610E+004    3.32155E+004   -2.56106E+004    3.21023E+004    1.40366E+004    1.57451E+004    4.70501E+004   -5.59429E+002   -3.00119E+002   -8.67035E+002
            6717    1.05064E+005    1.15968E+005    1.15968E+005    2.83230E+004   -4.98214E+002    1.16467E+005   -4.79311E+004    9.55450E+004    2.83241E+004   -1.87718E+002    1.15657E+005   -2.27807E+002    5.56685E+002    5.98336E+003
            6718    7.98904E+004    9.24440E+004    9.24440E+004    2.34277E+004    4.92614E+003    8.75179E+004   -4.02659E+004    7.48390E+004    2.34283E+004    8.34958E+003    8.90200E+004   -9.09998E+001    4.10939E+002    1.69633E+004
            6719    4.58817E+004    5.72093E+004    5.72093E+004    1.45274E+004    8.68696E+003    4.85223E+004   -2.68079E+004    4.50340E+004    1.44474E+004    1.91712E+004    4.68049E+004   -7.29273E+002    8.42868E+001    1.98917E+004
            6720    2.43365E+005    1.46433E+005    1.46433E+005    5.41493E+003   -1.34579E+005    2.81013E+005   -5.75634E+003    4.49780E+004    5.41488E+003    1.76639E+004   -5.80979E+003   -8.58317E+001    4.84148E+001    1.40015E+005
            6721    2.53649E+005    1.64082E+005    1.64082E+005    1.37201E+004   -1.28771E+005    2.92853E+005   -1.63435E+004    9.12295E+004    1.37201E+004    5.46109E+004   -1.93004E+004    5.21267E+000   -2.89023E+001    1.41686E+005
            6722    2.68044E+005    1.89044E+005    1.89044E+005    2.57386E+004   -1.20307E+005    3.09350E+005   -3.14919E+004    1.22927E+005    2.57386E+004    1.11118E+005   -4.23803E+004    3.89870E+001    2.08823E+002    1.34291E+005
            6723    2.65030E+005    1.57358E+005    1.57358E+005    3.78524E+003   -1.48671E+005    3.06030E+005   -4.15732E+003    4.89943E+004    3.78521E+003    1.30406E+004   -4.35383E+003   -5.68828E+001    4.95191E+001    1.52767E+005
            6724    2.80223E+005    1.75476E+005    1.75476E+005    1.04111E+004   -1.48076E+005    3.23551E+005   -1.26036E+004    9.18398E+004    1.04111E+004    4.23144E+004   -1.49146E+004    9.10729E+000   -7.20401E+001    1.59225E+005
            6725    3.09920E+005    2.05497E+005    2.05497E+005    1.97073E+004   -1.52280E+005    3.57776E+005   -2.43080E+004    1.25723E+005    1.97074E+004    8.95899E+004   -3.63734E+004    6.20754E+001    1.63815E+002    1.67434E+005
            6726    2.80712E+005    1.64446E+005    1.64446E+005    1.99649E+003   -1.59691E+005    3.24138E+005   -2.25046E+003    4.48233E+004    1.99648E+003    7.08985E+003   -2.33494E+003   -3.66736E+001    2.45618E+001    1.62000E+005
            6727    2.99016E+005    1.79421E+005    1.79421E+005    5.12519E+003   -1.65848E+005    3.45269E+005   -6.23259E+003    7.63770E+004    5.12519E+003    2.15243E+004   -7.95169E+003    2.14507E+001   -2.13892E+001    1.72004E+005
            6728    3.39538E+005    2.10525E+005    2.10525E+005    1.06857E+004   -1.81515E+005    3.92040E+005   -1.32320E+004    1.09718E+005    1.06857E+004    4.98273E+004   -2.08169E+004    5.99580E+001    1.19874E+002    1.92811E+005
            6729    2.85376E+005    1.64344E+005   -1.65180E+005   -3.27602E+002   -1.65180E+005    3.29524E+005    3.87702E+002   -2.80311E+004   -3.27603E+002   -1.26004E+003    4.24539E+002   -3.18808E+001    3.10599E+000    1.64760E+005
            6730    3.04849E+005    1.75221E+005   -1.76789E+005   -5.92694E+002   -1.76789E+005    3.52009E+005    7.20114E+002   -3.76305E+004   -5.92698E+002   -2.79778E+003    1.23014E+003    1.61094E+001   -2.18294E+001    1.75993E+005
            6731    3.50112E+005    2.01405E+005   -2.02870E+005   -5.39601E+002   -2.02870E+005    4.04275E+005    6.68150E+002   -4.13902E+004   -5.39609E+002   -2.33097E+003    8.66130E+002    5.55599E+001   -1.29439E+001    2.02131E+005
            6732    2.77212E+005    1.57318E+005   -1.62778E+005   -2.31947E+003   -1.62778E+005    3.20097E+005    2.59309E+003   -4.55683E+004   -2.31945E+003   -8.33169E+003    2.87187E+003   -4.14806E+001   -3.37995E+001    1.59950E+005
            6733    2.94980E+005    1.61657E+005   -1.78947E+005   -6.50692E+003   -1.78947E+005    3.40604E+005    7.93226E+003   -8.23306E+004   -6.50691E+003   -2.73200E+004    1.00301E+004    1.77165E+001    5.20575E+001    1.69275E+005
            6734    3.37708E+005    1.79766E+005   -2.10158E+005   -1.11972E+004   -2.10158E+005    3.89924E+005    1.38630E+004   -1.11007E+005   -1.11972E+004   -5.28573E+004    2.24655E+004    6.62151E+001   -9.20281E+001    1.91290E+005
            6735    2.59244E+005    1.44764E+005   -1.54584E+005   -4.27275E+003   -1.54584E+005    2.99348E+005    4.69759E+003   -5.04602E+004   -4.27272E+003   -1.46131E+004    4.79308E+003   -5.67341E+001   -4.23037E+001    1.49359E+005
            6736    2.73307E+005    1.43292E+005   -1.72271E+005   -1.10586E+004   -1.72271E+005    3.15563E+005    1.33459E+004   -9.16041E+004   -1.10586E+004   -4.47546E+004    1.57754E+004    1.42408E+001    3.14962E+001    1.54852E+005
            6737    3.06387E+005    1.49097E+005   -2.04591E+005   -2.05637E+004   -2.04591E+005    3.53687E+005    2.53524E+004   -1.26440E+005   -2.05637E+004   -9.25319E+004    3.70382E+004    4.69640E+001   -2.03333E+002    1.64550E+005
            6738    2.14184E+005    1.90836E+005    1.90836E+005    3.65087E+004   -5.36954E+004    2.44532E+005   -5.78832E+004    1.62369E+005    3.65076E+004   -1.27384E+004    1.49880E+005   -1.59664E+003   -8.22765E+002    9.12932E+004
            6739    1.76167E+005    1.81680E+005    1.81680E+005    4.17424E+004   -1.61467E+004    1.97827E+005   -6.90920E+004    1.52454E+005    4.17515E+004   -7.69931E+003    1.73224E+005   -1.89823E+002   -1.11806E+003    3.99961E+004
            6740    1.83561E+005    2.05026E+005    2.05026E+005    5.28502E+004    1.16310E+003    2.03863E+005   -8.63465E+004    1.65966E+005    5.28622E+004    1.92546E+003    2.04252E+005   -3.36545E+002   -1.40043E+003    1.24330E+004
            6741    1.51291E+005    1.37513E+005    1.37513E+005    2.55275E+004   -3.45982E+004    1.72111E+005   -4.28142E+004    1.19601E+005    2.55183E+004    5.03308E+003    9.78911E+004   -1.30761E+003   -3.14990E+002    7.24422E+004
            6742    1.39896E+005    1.49009E+005    1.49009E+005    3.56014E+004   -7.31937E+003    1.56328E+005   -5.90970E+004    1.23729E+005    3.56004E+004    3.40622E+003    1.38284E+005   -2.58173E+002   -8.45588E+001    3.95158E+004
            6743    1.57503E+005    1.72328E+005    1.72328E+005    4.28958E+004   -3.03446E+003    1.75362E+005   -7.07297E+004    1.41214E+005    4.28934E+004   -2.19698E+003    1.71493E+005   -3.48100E+002   -9.17589E+001    1.20715E+004
            6744    9.61392E+004    9.59968E+004    9.59968E+004    1.98658E+004   -1.20387E+004    1.08036E+005   -3.46080E+004    8.29090E+004    1.98686E+004    1.92993E+004    6.46561E+004   -1.00357E+003   -5.25211E+002    4.90141E+004
            6745    1.05936E+005    1.14989E+005    1.14989E+005    2.72014E+004   -2.67756E+003    1.17667E+005   -4.65043E+004    9.57455E+004    2.72147E+004    4.57484E+003    1.07723E+005   -8.72332E+001   -1.14785E+003    2.82933E+004
            6746    1.24387E+005    1.39976E+005    1.39976E+005    3.58834E+004    2.22409E+003    1.37752E+005   -5.93613E+004    1.13443E+005    3.59047E+004    2.99646E+003    1.39183E+005   -2.13196E+002   -1.48722E+003    1.02831E+004
            6747    7.85086E+004    5.77281E+003   -8.20594E+004   -1.87082E+004   -8.20594E+004    8.78322E+004    3.16649E+004   -6.91047E+004   -1.87081E+004    3.93503E+003   -8.02217E+004   -4.81762E+001    5.01119E+000    1.25711E+004
            6748    9.26158E+004    1.72250E+003   -1.01717E+005   -2.64855E+004   -1.01717E+005    1.03440E+005    4.21602E+004   -8.20830E+004   -2.64890E+004    1.22645E+003   -1.01218E+005   -5.08431E+001    5.12523E+002    7.14581E+003
            6749    1.03599E+005    3.28088E+003   -1.12700E+005   -2.93295E+004   -1.12700E+005    1.15981E+005    4.62495E+004   -9.09288E+004   -2.93300E+004    3.23876E+003   -1.12657E+005   -4.56143E+001   -2.10751E+002    2.20791E+003
            6750    1.02125E+005   -8.95965E+002   -1.14660E+005   -3.08927E+004   -1.14660E+005    1.13764E+005    4.88163E+004   -9.13969E+004   -3.08982E+004   -9.07519E+002   -1.14643E+005   -5.43510E+001    6.85263E+002   -1.14019E+003
            6751    1.00343E+005    1.68890E+003   -1.10162E+005   -2.80492E+004   -1.10162E+005    1.11851E+005    4.55073E+004   -8.95940E+004   -2.80524E+004    1.65530E+003   -1.10125E+005   -2.59651E+001   -5.16279E+002   -1.93791E+003
            6752    8.33895E+004    2.29490E+004   -7.18689E+004   -9.93466E+003   -7.18689E+004    9.48179E+004    1.96182E+004   -6.62488E+004   -9.93408E+003    1.01073E+004   -5.90277E+004   -1.48145E+002   -9.89528E+000    3.24448E+004
            6753    8.46245E+004    1.55181E+004   -8.01055E+004   -1.48755E+004   -8.01055E+004    9.56236E+004    2.64876E+004   -7.06786E+004   -1.48783E+004    1.21044E+004   -7.66890E+004   -1.34033E+002    4.15855E+002    1.77415E+004
            6754    8.53550E+004    6.81132E+003   -8.88557E+004   -2.04957E+004   -8.88557E+004    9.56670E+004    3.41800E+004   -7.45329E+004   -2.04960E+004    6.61867E+003   -8.86627E+004   -7.40692E+001   -1.99490E+002    4.28582E+003
            6755    8.82398E+004    4.99331E+003   -9.36453E+004   -2.22109E+004   -9.36453E+004    9.86386E+004    3.69543E+004   -7.79323E+004   -2.22153E+004    4.80764E+003   -9.34553E+004   -9.45605E+001    5.96958E+002   -4.26928E+003
            6756    8.35074E+004   -1.92951E+003   -9.43962E+004   -2.44794E+004   -9.43962E+004    9.24667E+004    4.02684E+004   -7.61932E+004   -2.44821E+004   -2.27372E+003   -9.40493E+004   -1.14739E+002   -4.53193E+002   -5.62825E+003
            6757    1.05975E+005    5.07797E+004   -7.11399E+004   -1.09723E+003   -7.11399E+004    1.21920E+005    7.15248E+003   -6.71676E+004   -1.09686E+003    2.82044E+004   -4.85650E+004   -1.42815E+002   -2.89705E+001    4.73570E+004
            6758    9.00015E+004    3.26174E+004   -7.03267E+004   -6.52003E+003   -7.03267E+004    1.02944E+005    1.47431E+004   -6.63606E+004   -6.52204E+003    2.61508E+004   -6.38581E+004   -1.72870E+002    3.39951E+002    2.49770E+004
            6759    8.19267E+004    1.98565E+004   -7.30994E+004   -1.14099E+004   -7.30994E+004    9.29559E+004    2.15509E+004   -6.63594E+004   -1.14098E+004    1.96298E+004   -7.28728E+004   -1.73166E+002   -2.55460E+002    4.57411E+003
            6760    7.55002E+004    6.36504E+003   -7.81232E+004   -1.72625E+004   -7.81232E+004    8.44883E+004    2.96736E+004   -6.63846E+004   -1.72630E+004    5.86332E+003   -7.76210E+004   -2.31493E+002    4.82225E+002   -6.47157E+003
            6761    7.32400E+004    2.34293E+003   -7.90745E+004   -1.85539E+004   -7.90745E+004    8.14174E+004    3.17618E+004   -6.60166E+004   -1.85578E+004    1.15194E+003   -7.78796E+004   -1.85342E+002   -5.08865E+002   -9.77170E+003
            6762    1.30745E+005    7.98614E+004    7.98614E+004    7.78162E+003   -7.10593E+004    1.50921E+005   -5.52793E+003   -5.57430E+004    7.78188E+003    5.39001E+004   -4.50982E+004   -1.51509E+002   -1.29206E+001    5.69568E+004
            6763    1.02005E+005    5.52034E+004   -6.23362E+004    3.01216E+003   -6.23362E+004    1.17540E+005    1.37352E+003   -5.88877E+004    3.01156E+003    4.90250E+004   -5.61571E+004   -1.72633E+002    2.05599E+002    2.62298E+004
            6764    8.14864E+004    2.95966E+004   -6.35919E+004   -5.73038E+003   -6.35919E+004    9.31885E+004    1.32419E+004   -6.02512E+004   -5.73068E+003    2.94568E+004   -6.34518E+004   -9.36828E+001   -1.88433E+002    3.60288E+003
            6765    7.34585E+004    1.60625E+004   -6.70863E+004   -1.09909E+004   -6.70863E+004    8.31488E+004    2.06716E+004   -6.06253E+004   -1.09925E+004    1.45160E+004   -6.55382E+004   -1.31667E+002    4.22009E+002   -1.12290E+004
            6766    6.11329E+004    4.27162E+001   -6.75896E+004   -1.62627E+004   -6.75896E+004    6.76324E+004    2.79365E+004   -5.59183E+004   -1.62652E+004   -2.62335E+003   -6.49210E+004   -1.04971E+002   -3.52541E+002   -1.31603E+004
            6767    6.35698E+004    1.06559E+004   -6.10138E+004   -1.14415E+004   -6.10138E+004    7.16697E+004    2.05998E+004   -5.38521E+004   -1.14413E+004    4.60410E+003   -5.49622E+004   -3.44551E+002   -2.69772E+002   -1.99225E+004
            6768    7.39322E+004    2.52609E+004   -5.92067E+004   -6.25394E+003   -5.92067E+004    8.44675E+004    1.33999E+004   -5.54879E+004   -6.25186E+003    2.36640E+004   -5.76119E+004   -2.54311E+002    3.22647E+001   -1.14962E+004
            6769    8.83374E+004    4.80709E+004   -5.37068E+004    3.05260E+003   -5.37068E+004    1.01778E+005    8.61104E+002   -5.15040E+004    3.05301E+003    4.80678E+004   -5.37041E+004   -1.87614E+002   -1.46252E+002    4.84727E+002
            6770    1.10340E+005    7.33326E+004    7.33326E+004    1.12078E+004   -5.40644E+004    1.27397E+005   -1.01587E+004   -3.85885E+004    1.12078E+004    6.94914E+004   -5.02232E+004   -9.84374E+001    6.86648E+001    2.17850E+004
            6771    1.40735E+005    1.00053E+005    1.00053E+005    1.69441E+004   -6.24400E+004    1.62493E+005   -1.81857E+004    4.80067E+004    1.69441E+004    8.37907E+004   -4.61777E+004   -2.71856E+001   -3.66646E+001    4.87653E+004
            6772    1.77617E+005    1.28109E+005    1.28109E+005    2.09805E+004   -7.69167E+004    2.05026E+005   -2.40576E+004    7.58532E+004    2.09803E+004    9.70680E+004   -4.58757E+004   -5.11330E+001    1.28249E+002    7.34889E+004
            6773    2.22197E+005    1.62043E+005    1.62043E+005    2.59900E+004   -9.43681E+004    2.56411E+005   -3.12217E+004    1.05084E+005    2.59900E+004    1.11204E+005   -4.35286E+004    2.07124E+001    9.83124E+001    1.02231E+005
            6774    2.24211E+005    1.48070E+005    1.48070E+005    1.51043E+004   -1.10794E+005    2.58864E+005   -1.74602E+004    8.10669E+004    1.51043E+004    6.03761E+004   -2.30999E+004   -4.69425E+001   -1.22228E+001    1.22518E+005
            6775    2.18511E+005    1.32118E+005    1.32118E+005    6.16792E+003   -1.20197E+005    2.52315E+005   -6.02954E+003   -3.09798E+004    6.16783E+003    1.91226E+004   -7.20177E+003   -1.44000E+002    4.51995E+001    1.25469E+005
            6776    1.88879E+005    1.23680E+005    1.23680E+005    1.32583E+004   -9.44129E+004    2.18093E+005   -1.41750E+004    5.27954E+004    1.32583E+004    5.76970E+004   -2.84301E+004   -8.42330E+001    3.39422E+001    1.00183E+005
            6777    1.91779E+005    1.15396E+005    1.15396E+005    6.27597E+003   -1.06044E+005    2.21440E+005   -5.20919E+003   -5.60985E+004    6.27586E+003    1.80032E+004   -8.65146E+003   -1.91238E+002    4.62064E+001    1.09915E+005
            6778    1.64368E+005    9.70316E+004    9.70316E+004    5.77933E+003   -9.27185E+004    1.89750E+005   -3.36413E+003   -6.64518E+004    5.77931E+003    1.44971E+004   -1.01841E+004   -2.07023E+002    2.05540E+001    9.40688E+004
            6779    1.30323E+005    7.47444E+004   -7.55877E+004    5.42791E+003   -7.55877E+004    1.50332E+005   -1.52822E+003   -6.67378E+004    5.42797E+003    1.04537E+004   -1.12971E+004   -2.32214E+002    1.54826E+001    7.43748E+004
            6780    8.95758E+004    4.70351E+004   -5.59441E+004    3.92923E+003   -5.59441E+004    1.02979E+005    1.65995E+003   -5.84270E+004    3.92933E+003    3.71023E+003   -1.26194E+004   -1.83774E+002    1.57494E+001    5.08378E+004
            6781    3.92203E+004    1.40320E+004   -2.96884E+004    2.40069E+003   -2.96884E+004    4.37204E+004    4.41857E+003   -3.50129E+004    2.40085E+003    2.62383E+003   -1.82804E+004   -7.89148E+001    2.19198E+001    1.91993E+004
            6782    1.54113E+005    9.50347E+004    9.50347E+004    8.51273E+003   -8.28972E+004    1.77932E+005   -6.88340E+003   -5.58366E+004    8.51234E+003    4.21221E+004   -2.99842E+004   -1.93479E+002    1.27257E+002    8.13330E+004
            6783    1.20188E+005    6.36473E+004   -7.48727E+004    1.75838E+003   -7.48727E+004    1.38520E+005    3.15567E+003   -6.82439E+004    1.75752E+003    2.01621E+004   -3.13867E+004   -1.99282E+002    1.85930E+002    6.42850E+004
            6784    8.74210E+004    3.59570E+004   -6.41617E+004   -2.93840E+003   -6.41617E+004    1.00119E+005    1.03810E+004   -6.30291E+004   -2.93969E+003    9.10981E+003   -3.73132E+004   -1.79571E+002    2.24488E+002    4.43519E+004
            6785    5.59411E+004    5.09724E+003   -5.69605E+004   -1.04063E+004   -5.69605E+004    6.20577E+004    2.07565E+004   -5.07599E+004   -1.04082E+004    4.19372E+002   -5.22808E+004   -6.14478E+001    2.88026E+002    1.63831E+004
            6786    2.49762E+005    2.97214E+005    2.97214E+005    8.60812E+004    2.15049E+004    2.75709E+005   -1.34933E+005    2.29827E+005    8.60836E+004    2.43608E+004    2.94355E+005   -2.92162E+002    1.04034E+003    2.79028E+004
            6787    2.40061E+005    2.61529E+005    2.61529E+005    6.23622E+004   -5.02377E+003    2.66553E+005   -1.06289E+005    2.17206E+005    6.23648E+004   -4.88214E+003    2.61385E+005   -2.80092E+002   -8.41859E+002    6.12061E+003
            6788    2.20039E+005    2.47220E+005    2.47220E+005    6.22325E+004    3.88928E+003    2.43331E+005   -1.04447E+005    2.01505E+005    6.22317E+004    4.09304E+003    2.47017E+005   -4.08931E+002   -5.78650E+002    6.99259E+003
            6789    2.12795E+005    2.30282E+005    2.30282E+005    5.53272E+004   -6.61115E+003    2.36893E+005   -9.29992E+004    1.90879E+005    5.53304E+004   -6.35595E+003    2.30023E+005   -3.82000E+002   -9.41562E+002    7.74068E+003
            6790    3.02071E+005    3.57449E+005    3.57449E+005    1.12146E+005    2.00487E+004    3.37400E+005   -1.63215E+005    2.67639E+005    1.12144E+005    3.03563E+004    3.47143E+005   -4.36648E+002    5.08438E+002    5.80568E+004
            6791    2.71667E+005    3.09996E+005    3.09996E+005    8.92626E+004    6.59874E+003    3.03397E+005   -1.35286E+005    2.40836E+005    8.92645E+004    1.25973E+004    3.03995E+005   -4.68087E+002   -8.02055E+002    4.22315E+004
            6792    2.40353E+005    2.53415E+005    2.53415E+005    6.24309E+004   -1.64709E+004    2.69886E+005   -9.97917E+004    2.08073E+005    6.24312E+004   -1.37561E+004    2.50700E+005   -3.91624E+002   -5.39563E+002    2.69246E+004
            6793    2.10423E+005    2.21154E+005    2.21154E+005    5.34109E+004   -1.49493E+004    2.36103E+005   -8.65384E+004    1.82814E+005    5.34135E+004   -8.43896E+003    2.14641E+005   -4.43607E+002   -7.60735E+002    3.86572E+004
            6794    2.73078E+005    2.43523E+005    2.43523E+005    4.87220E+004   -6.86119E+004    3.12135E+005   -7.45443E+004    2.03543E+005    4.87168E+004   -3.79104E+004    2.12827E+005   -1.67009E+003   -8.74731E+002    9.29301E+004
            6795    3.26759E+005    3.14926E+005    3.14926E+005    7.69378E+004   -5.76277E+004    3.72554E+005   -1.11412E+005    2.52041E+005    7.69314E+004   -3.23982E+004    2.89703E+005   -1.56970E+003   -8.28775E+002    9.35858E+004
            6796    3.52314E+005    3.69766E+005    3.69766E+005    1.05431E+005   -3.02090E+004    3.99975E+005   -1.48329E+005    2.83956E+005    1.05427E+005   -1.19850E+004    3.51545E+005   -1.27405E+003   -8.73640E+002    8.33894E+004
            6797    3.95714E+005    4.56085E+005    4.56085E+005    1.50041E+005    9.22236E+003    4.46863E+005   -2.05116E+005    3.31877E+005    1.50036E+005    3.37812E+004    4.31532E+005   -1.04447E+003   -3.16039E+002    1.01826E+005
            6798    3.60467E+005    4.79723E+005    4.79723E+005    1.84776E+005    7.79046E+004    4.01818E+005   -2.47468E+005    3.21821E+005    1.84774E+005    1.03618E+005    4.54011E+005   -7.06190E+002   -4.79589E+002    9.83352E+004
            6799    3.35867E+005    4.99959E+005    4.99959E+005    2.13174E+005    1.30463E+005    3.69496E+005   -2.81199E+005    3.11694E+005    2.13172E+005    1.49328E+005    4.81096E+005   -4.49033E+002   -2.14844E+002    8.13257E+004
            6800    2.97621E+005    4.96272E+005    4.96272E+005    2.29478E+005    1.75274E+005    3.20998E+005   -3.00341E+005    2.86198E+005    2.29478E+005    1.96454E+005    4.75091E+005   -3.08103E+002   -3.16355E+002    7.96875E+004
            6801    2.51052E+005    4.49998E+005    4.49998E+005    2.17739E+005    1.83640E+005    2.66358E+005   -2.83793E+005    2.45761E+005    2.17739E+005    2.11420E+005    4.22219E+005   -1.67642E+002   -1.96023E+002    8.14097E+004
            6802    2.92428E+005    4.50900E+005    4.50900E+005    2.00076E+005    1.29709E+005    3.21191E+005   -2.60228E+005    2.72385E+005    2.00076E+005    1.57956E+005    4.22653E+005   -7.91532E+001    4.58452E+002    9.09654E+004
            6803    2.49059E+005    4.26393E+005    4.26393E+005    2.03247E+005    1.57707E+005    2.68686E+005   -2.62449E+005    2.39421E+005    2.03248E+005    1.80317E+005    4.03783E+005   -5.64118E+001    5.87868E+002    7.45890E+004
            6804    3.26490E+005    4.87427E+005    4.87427E+005    2.10443E+005    1.27451E+005    3.59976E+005   -2.75107E+005    3.01356E+005    2.10442E+005    1.62687E+005    4.52191E+005   -1.67283E+002    5.37924E+002    1.06968E+005
            6805    2.93850E+005    4.75027E+005    4.75027E+005    2.18459E+005    1.54448E+005    3.20579E+005   -2.82645E+005    2.77505E+005    2.18459E+005    1.93722E+005    4.35754E+005   -1.27304E+002    6.75052E+002    1.05107E+005
            6806    3.55382E+005    5.03523E+005    5.03523E+005    2.07317E+005    1.09467E+005    3.94056E+005   -2.73436E+005    3.22927E+005    2.07316E+005    1.56576E+005    4.56415E+005   -2.06353E+002    6.61445E+002    1.27842E+005
            6807    3.23573E+005    4.80158E+005    4.80158E+005    2.07966E+005    1.22403E+005    3.57756E+005   -2.70176E+005    2.96476E+005    2.07965E+005    1.88676E+005    4.13887E+005   -2.05288E+002    6.92483E+002    1.38984E+005
            6808    3.40294E+005    4.53858E+005    4.53858E+005    1.73982E+005    7.50642E+004    3.78794E+005   -2.34301E+005    3.05347E+005    1.73980E+005    1.29373E+005    3.99552E+005   -3.22254E+002    7.35584E+002    1.32744E+005
            6809    3.33692E+005    4.77819E+005    4.77819E+005    2.00366E+005    1.07544E+005    3.70275E+005   -2.61910E+005    3.02538E+005    2.00363E+005    1.82616E+005    4.02751E+005   -2.67317E+002    1.11139E+003    1.48861E+005
            6810    3.62968E+005    4.74877E+005    4.74877E+005    1.83956E+005    6.81319E+004    4.06745E+005   -2.42322E+005    3.17210E+005    1.83952E+005    1.75961E+005    3.67052E+005   -2.05456E+002    2.18396E+003    1.79517E+005
            6811    4.53024E+005    5.83507E+005    5.83507E+005    2.23122E+005    7.49500E+004    5.08557E+005   -2.93859E+005    3.92681E+005    2.23134E+005    1.27807E+005    5.30637E+005   -7.56440E+001    2.81322E+003    1.55187E+005
            6812    3.89569E+005    4.76013E+005    4.76013E+005    1.64797E+005    3.91183E+004    4.36895E+005   -2.26643E+005    3.39247E+005    1.64796E+005    9.46493E+004    4.20484E+005   -3.00936E+002    4.17181E+002    1.45523E+005
            6813    3.27027E+005    3.56669E+005    3.56669E+005    1.01428E+005   -1.19615E+004    3.68630E+005   -1.48712E+005    2.77324E+005    1.01429E+005   -7.58400E+003    3.52290E+005   -1.00289E+002    6.45063E+002    3.99301E+004
            6814    4.77882E+004   -3.40159E+003   -5.55330E+004   -1.38005E+004   -5.55330E+004    5.21314E+004    2.42450E+004   -4.51360E+004   -1.37860E+004   -8.70130E+003   -5.02478E+004   -3.55542E+002    1.62415E+002   -1.57325E+004
            6815    5.36581E+004   -3.89189E+003   -6.22641E+004   -1.50862E+004   -6.22641E+004    5.83722E+004    2.70807E+004   -5.09305E+004   -1.50850E+004   -5.59834E+003   -6.05588E+004   -2.13158E+002    6.69013E+002   -9.80566E+003
            6816    6.51987E+004   -6.53130E+003   -7.75681E+004   -2.04578E+004   -7.75681E+004    7.10368E+004    3.48524E+004   -6.17177E+004   -2.04638E+004   -6.81456E+003   -7.72788E+004   -1.85587E+002    7.66482E+002   -4.44545E+003
            6817    8.36544E+004    1.48074E+002   -9.24694E+004   -2.24001E+004   -9.24694E+004    9.26175E+004    3.82405E+004   -7.63562E+004   -2.24084E+004    6.62445E+001   -9.23792E+004   -2.00204E+002    8.67439E+002   -2.71341E+003
            6818    9.33668E+004   -2.44784E+003   -1.05711E+005   -2.72483E+004   -1.05711E+005    1.03263E+005    4.51357E+004   -8.54726E+004   -2.72611E+004   -2.45183E+003   -1.05694E+005   -1.87978E+001    1.00359E+003   -6.39647E+002
            6819    2.51208E+004   -1.18322E+004   -3.88944E+004   -1.63198E+004   -3.88944E+004    2.70622E+004    2.23488E+004   -2.41943E+004   -1.18724E+004   -1.74024E+004   -3.77717E+004   -4.64831E+002   -2.39240E+002   -4.90250E+003
            6820    4.42972E+004   -1.43714E+004   -6.01590E+004   -1.75205E+004   -6.01590E+004    4.57877E+004    3.06836E+004   -4.40443E+004   -1.74967E+004   -1.47558E+004   -5.97983E+004   -2.58670E+002   -5.21504E+002    4.01414E+003
            6821    6.69833E+004   -4.28643E+003   -7.74297E+004   -1.90794E+004   -7.74297E+004    7.31433E+004    3.35985E+004   -6.31492E+004   -1.90828E+004   -4.48952E+003   -7.72232E+004   -1.71642E+002   -6.11769E+002    3.82205E+003
            6822    8.16970E+004   -5.06869E+003   -9.47097E+004   -2.44380E+004   -9.47097E+004    8.96410E+004    4.14055E+004   -7.62699E+004   -2.44378E+004   -5.25047E+003   -9.45281E+004   -2.84659E+002   -5.96930E+002    3.97679E+003
            6823    9.85177E+004    1.76121E+003   -1.07616E+005   -2.58488E+004   -1.07616E+005    1.09377E+005    4.39011E+004   -8.91706E+004   -2.58542E+004    1.74470E+003   -1.07594E+005   -6.92821E-002   -6.66626E+002    1.34376E+003
            6824    4.63503E+004   -7.45008E+003   -5.68611E+004   -1.43437E+004   -5.68611E+004    4.94110E+004    2.62183E+004   -4.51754E+004   -1.43433E+004   -2.36839E+004   -4.06277E+004   -6.15613E+002    3.95847E+002    2.31958E+004
            6825    6.03809E+004   -4.78210E+003   -7.02189E+004   -1.66588E+004   -7.02189E+004    6.54368E+004    3.05533E+004   -5.76645E+004   -1.66785E+004   -1.14826E+004   -6.34987E+004   -3.78477E+002    9.61915E+002    1.98347E+004
            6826    7.76559E+004   -6.23963E+003   -9.10300E+004   -2.33684E+004   -9.10300E+004    8.47904E+004    4.02127E+004   -7.32224E+004   -2.33893E+004   -1.01167E+004   -8.71320E+004   -1.98234E+002    1.17942E+003    1.77091E+004
            6827    9.68692E+004    1.05058E+003   -1.06193E+005   -2.50424E+004   -1.06193E+005    1.07243E+005    4.33948E+004   -8.84299E+004   -2.50618E+004   -5.03529E+001   -1.05072E+005   -3.53506E+002    1.28573E+003    1.07996E+004
            6828    1.06105E+005   -3.07435E+003   -1.20227E+005   -3.05919E+004   -1.20227E+005    1.17153E+005    5.12979E+004   -9.75808E+004   -3.06154E+004   -3.21951E+003   -1.20059E+005    1.42751E+000    1.45395E+003    4.11943E+003
            6829    2.48724E+005   -1.82873E+005   -4.46688E+005   -2.16469E+005   -4.46688E+005    2.63815E+005    2.82010E+005   -2.43541E+005   -2.16469E+005   -2.11749E+005   -4.17811E+005   -2.25778E+002    3.62793E+002    8.23652E+004
            6830    2.80117E+005   -1.24886E+005   -4.32525E+005   -1.92196E+005   -4.32525E+005    3.07639E+005    2.49869E+005   -2.60975E+005   -1.92195E+005   -1.52466E+005   -4.04946E+005   -1.54366E+002   -4.02280E+002    8.78849E+004
            6831    2.36698E+005   -1.54194E+005   -4.09030E+005   -1.96056E+005   -4.09030E+005    2.54837E+005    2.53093E+005   -2.28146E+005   -1.96056E+005   -1.72539E+005   -3.90685E+005   -7.54796E+001   -6.22680E+002    6.58646E+004
            6832    2.18199E+005   -1.33568E+005   -3.68925E+005   -1.73362E+005   -3.68925E+005    2.35357E+005    2.25285E+005   -2.09800E+005   -1.73363E+005   -1.86523E+005   -3.15969E+005   -1.39263E+002    2.40026E+002    9.82808E+004
            6833    2.16769E+005   -9.51210E+004   -3.33533E+005   -1.48309E+005   -3.33533E+005    2.38412E+005    1.92321E+005   -2.01287E+005   -1.48309E+005   -1.20098E+005   -3.08556E+005   -7.20200E+001   -3.15983E+002    7.30126E+004
            6834    1.68147E+005   -1.24080E+005   -3.03276E+005   -1.48948E+005   -3.03276E+005    1.79196E+005    1.92101E+005   -1.63933E+005   -1.48949E+005   -1.31477E+005   -2.95877E+005   -1.82198E+001   -5.29513E+002    3.56474E+004
            6835    2.13543E+005   -1.83865E+004   -2.59922E+005   -9.61902E+004   -2.59922E+005    2.41536E+005    1.24833E+005   -1.77161E+005   -9.61906E+004   -1.09054E+005   -1.69254E+005   -1.12708E+002    2.37575E+002    1.16957E+005
            6836    1.40297E+005   -3.24390E+004   -1.89585E+005   -7.69234E+004   -1.89585E+005    1.57146E+005    9.96491E+004   -1.22859E+005   -7.69229E+004   -6.35018E+004   -1.58523E+005   -1.05670E+002   -1.17061E+002    6.25814E+004
            6837    8.38327E+004   -6.53759E+004   -1.54253E+005   -7.65939E+004   -1.54253E+005    8.88768E+004    9.87409E+004   -8.21186E+004   -7.65945E+004   -6.73916E+004   -1.52237E+005   -4.54271E+001   -3.41640E+002    1.32290E+004
            6838    2.14973E+005    1.32914E+005    1.32914E+005    6.07840E+003   -1.15296E+005    2.48210E+005   -7.89889E+003    7.23367E+004    6.07853E+003    6.41976E+003    1.11984E+004   -1.16426E+002   -7.08391E+001    1.24082E+005
            6839    1.02855E+005    7.35741E+004    7.35741E+004    9.86321E+003   -4.50843E+004    1.18658E+005   -1.27844E+004    5.17671E+004    9.86318E+003    8.96056E+003    1.95293E+004   -1.12273E+002   -7.71609E-001    5.90933E+004
            6840    1.64354E+004    2.57796E+004    2.57796E+004    1.16903E+004    7.72397E+003    1.80557E+004   -1.50646E+004    1.53021E+004    1.16893E+004    1.06235E+004    2.28811E+004   -4.59172E+001    6.32956E+001    6.62782E+003
            6841    2.13384E+005    2.72930E+005    2.72930E+005    1.05590E+005    3.26370E+004    2.40293E+005   -1.37052E+005    1.81976E+005    1.05590E+005    1.19085E+005    1.86482E+005   -9.42572E+001   -1.87175E+002    1.15324E+005
            6842    1.55516E+005    2.23478E+005    2.23478E+005    9.49568E+004    5.06040E+004    1.72874E+005   -1.23013E+005    1.40192E+005    9.49565E+004    7.83887E+004    1.95694E+005   -7.39197E+001    1.84059E+002    6.34917E+004
            6843    1.05524E+005    1.95634E+005    1.95634E+005    9.75157E+004    8.40051E+004    1.11629E+005   -1.25718E+005    1.03552E+005    9.75166E+004    8.67594E+004    1.92879E+005   -3.20297E+001    4.00819E+002    1.73146E+004
            6844    2.23489E+005    3.81318E+005    3.81318E+005    1.80063E+005    1.40797E+005    2.40520E+005   -2.34059E+005    2.15523E+005    1.80064E+005    1.91649E+005    3.30465E+005   -1.87625E+002   -3.46713E+002    9.82088E+004
            6845    2.28896E+005    3.56658E+005    3.56658E+005    1.59803E+005    1.05491E+005    2.51167E+005   -2.07317E+005    2.13665E+005    1.59802E+005    1.30004E+005    3.32146E+005   -1.32864E+002    3.04023E+002    7.45376E+004
            6846    1.86984E+005    3.36253E+005    3.36253E+005    1.64866E+005    1.36836E+005    1.99417E+005   -2.12652E+005    1.82168E+005    1.64867E+005    1.45937E+005    3.27151E+005   -3.61928E+001    6.20912E+002    4.16148E+004
            6847    1.92917E+005    4.84219E+003   -2.10019E+005   -5.16641E+004   -2.10019E+005    2.14861E+005    8.56135E+004   -1.72775E+005   -5.16640E+004    4.64534E+003   -2.09822E+005   -1.02771E+002    1.24081E+002    6.49754E+003
            6848    1.76618E+005    1.76899E+003   -1.94679E+005   -4.90213E+004   -1.94679E+005    1.96448E+005    8.06438E+004   -1.58899E+005   -4.90145E+004   -1.11036E+003   -1.91806E+005   -6.23530E+002    1.47338E+002    2.35791E+004
            6849    1.80679E+005    2.11523E+004   -1.82245E+005   -4.03328E+004   -1.82245E+005    2.03397E+005    6.71419E+004   -1.54364E+005   -4.03261E+004    1.24074E+004   -1.73507E+005   -7.01770E+002    1.18271E+002    4.12411E+004
            6850    1.95817E+005    3.49745E+004   -1.87207E+005   -3.97751E+004   -1.87207E+005    2.22182E+005    6.40026E+004   -1.58587E+005   -3.97666E+004    9.92883E+003   -1.62170E+005   -8.70737E+002   -9.21729E+000    7.02539E+004
            6851    2.30205E+005    7.16967E+004   -1.92098E+005   -3.18505E+004   -1.92098E+005    2.63794E+005    5.07505E+004   -1.64063E+005   -3.18467E+004    2.49934E+004   -1.45398E+005   -1.42592E+003    5.26395E+002    1.00678E+005
            6852    1.58035E+005   -3.10754E+003   -1.78329E+005   -4.65802E+004   -1.78329E+005    1.75222E+005    7.60056E+004   -1.43631E+005   -4.66061E+004   -3.47539E+003   -1.77935E+005    7.98163E+000    1.85454E+003    8.01722E+003
            6853    1.50072E+005    7.17834E+003   -1.60269E+005   -3.79090E+004   -1.60269E+005    1.67447E+005    6.36665E+004   -1.33509E+005   -3.79309E+004    3.92739E+003   -1.56996E+005   -5.52926E+002    1.65715E+003    2.30944E+004
            6854    1.39823E+005    7.53633E+003   -1.48767E+005   -3.55801E+004   -1.48767E+005    1.56303E+005    5.89370E+004   -1.23483E+005   -3.56018E+004   -4.50342E+003   -1.36706E+005   -3.71766E+002    1.52861E+003    4.16728E+004
            6855    1.39249E+005    2.30646E+004   -1.34284E+005   -2.69526E+004   -1.34284E+005    1.57349E+005    4.60573E+004   -1.16296E+005   -2.69691E+004   -9.74897E+002   -1.10228E+005   -6.32129E+002    1.18951E+003    5.66061E+004
            6856    1.64605E+005    4.25187E+004   -1.45340E+005   -2.63763E+004   -1.45340E+005    1.87859E+005    4.30659E+004   -1.25404E+005   -2.63849E+004   -8.30930E+003   -9.45034E+004   -1.23443E+003    7.89793E+002    8.34472E+004
            6857    1.33129E+005    2.82143E+003   -1.45312E+005   -3.56669E+004   -1.45312E+005    1.48133E+005    5.93858E+004   -1.19618E+005   -3.56688E+004    2.54119E+003   -1.45030E+005   -2.26404E+001   -4.67032E+002    6.43633E+003
            6858    1.15690E+005   -2.56929E+003   -1.30536E+005   -3.33477E+004   -1.30536E+005    1.27967E+005    5.54844E+004   -1.05876E+005   -3.33391E+004   -5.59726E+003   -1.27517E+005   -4.89037E+002   -3.97126E+002    1.94192E+004
            6859    1.05995E+005    5.01065E+003   -1.13008E+005   -2.59159E+004   -1.13008E+005    1.18019E+005    4.46379E+004   -9.50212E+004   -2.59112E+004   -2.58639E+003   -1.05416E+005   -3.31673E+002   -4.50790E+002    2.89516E+004
            6860    9.71742E+004    5.51202E+003   -1.02889E+005   -2.35946E+004   -1.02889E+005    1.08401E+005    4.03239E+004   -8.65202E+004   -2.35797E+004   -1.40458E+004   -8.33462E+004   -5.49141E+002   -3.85612E+002    4.16683E+004
            6861    9.39571E+004    1.78493E+004   -8.83108E+004   -1.58536E+004   -8.83108E+004    1.06160E+005    2.87717E+004   -7.85185E+004   -1.58432E+004   -1.86159E+004   -5.18560E+004   -7.89008E+002   -3.75160E+001    5.04028E+004
            6862    3.77610E+005   -7.10216E+004   -4.93382E+005   -1.88403E+005   -4.93382E+005    4.22361E+005    2.50936E+005   -3.32690E+005   -1.88391E+005   -9.09541E+004   -4.73461E+005   -1.40359E+003    4.55470E+002    8.95312E+004
            6863    3.89352E+005   -1.50182E+004   -4.54796E+005   -1.54031E+005   -4.54796E+005    4.39778E+005    2.07948E+005   -3.26060E+005   -1.54025E+005   -3.60684E+004   -4.33752E+005   -1.63840E+003    1.17199E+003    9.38548E+004
            6864    3.97977E+005    3.08795E+004   -4.21605E+005   -1.25869E+005   -4.21605E+005    4.52485E+005    1.72198E+005   -3.16412E+005   -1.25865E+005    8.18120E+003   -3.98911E+005   -1.66362E+003    1.15898E+003    9.87429E+004
            6865    3.60538E+005    7.73535E+004   -3.34976E+005   -7.90549E+004   -3.34976E+005    4.12329E+005    1.12226E+005   -2.66420E+005   -7.90517E+004    4.95927E+004   -3.07218E+005   -1.75379E+003    1.13137E+003    1.03300E+005
            6866    3.07433E+005    8.05172E+004   -2.71540E+005   -5.60518E+004   -2.71540E+005    3.52057E+005    8.23581E+004   -2.22012E+005   -5.60564E+004    4.02975E+004   -2.31315E+005   -1.66596E+003    1.25889E+003    1.11975E+005
            6867    2.37009E+005    4.43759E+004   -2.24951E+005   -4.82118E+004   -2.24951E+005    2.69327E+005    7.62624E+004   -1.89386E+005   -4.82183E+004    2.85474E+004   -2.09116E+005   -6.26591E+002    1.05284E+003    6.33407E+004
            6868    2.16008E+005    1.61490E+004   -2.26539E+005   -5.53291E+004   -2.26539E+005    2.42688E+005    8.85729E+004   -1.86474E+005   -5.53409E+004    9.31968E+003   -2.19697E+005   -8.14357E+002    1.53715E+003    4.01206E+004
            6869    2.09488E+005    1.18992E+004   -2.22129E+005   -5.21196E+004   -2.22129E+005    2.34028E+005    8.74497E+004   -1.85487E+005   -5.21309E+004    1.08201E+004   -2.21038E+005   -4.78518E+002    1.48946E+003    1.58378E+004
            6870    2.06229E+005   -3.54196E+003   -2.31747E+005   -5.87173E+004   -2.31747E+005    2.28205E+005    9.80019E+004   -1.88521E+005   -5.87334E+004   -3.63023E+003   -2.31642E+005   -1.10273E+002    1.67499E+003    4.48437E+003
            6871    2.91482E+005    3.33333E+004   -2.97046E+005   -7.61862E+004   -2.97046E+005    3.30379E+005    1.13300E+005   -2.38107E+005   -7.61838E+004    1.81565E+004   -2.81872E+005   -6.96965E+002    3.19931E+002    6.91568E+004
            6872    2.49784E+005    1.84884E+004   -2.62388E+005   -6.51729E+004   -2.62388E+005    2.80876E+005    1.03024E+005   -2.14688E+005   -6.51628E+004    1.48836E+004   -2.58793E+005   -1.13973E+003    6.78099E+002    3.15564E+004
            6873    2.26234E+005   -2.44244E+003   -2.53529E+005   -6.55488E+004   -2.53529E+005    2.51087E+005    1.07174E+005   -2.04986E+005   -6.55479E+004   -3.35774E+003   -2.52615E+005   -3.85969E+002    4.43780E+002    1.51153E+004
            6874    2.24744E+005    6.12632E+003   -2.43184E+005   -5.61321E+004   -2.43184E+005    2.49310E+005    9.77298E+004   -2.03948E+005   -5.61328E+004    6.11719E+003   -2.43174E+005   -2.46476E+002    5.60721E+002    1.42825E+003
            6875    3.12354E+005    1.31234E+004   -3.39647E+005   -9.82244E+004   -3.39647E+005    3.52771E+005    1.41583E+005   -2.61762E+005   -9.82245E+004   -6.10220E+001   -3.26463E+005   -2.55878E+002    2.73039E+002    6.69112E+004
            6876    2.81180E+005   -6.03540E+003   -3.20605E+005   -9.37020E+004   -3.20605E+005    3.14570E+005    1.40114E+005   -2.47511E+005   -9.36928E+004   -1.35323E+004   -3.13118E+005   -1.19257E+003    7.38873E+002    4.79384E+004
            6877    2.54554E+005    2.72163E+003   -2.80945E+005   -7.24193E+004   -2.80945E+005    2.83667E+005    1.16881E+005   -2.27522E+005   -7.24196E+004    1.93003E+003   -2.80153E+005   -1.22318E+002    3.05288E+002    1.49627E+004
            6878    2.22575E+005   -8.64424E+003   -2.53539E+005   -6.35678E+004   -2.53539E+005    2.44895E+005    1.08584E+005   -2.06486E+005   -6.35674E+004   -8.77439E+003   -2.53409E+005   -2.78097E+002    4.07940E+002    5.61554E+003
            6879    3.61651E+005   -2.01029E+004   -4.26720E+005   -1.41018E+005   -4.26720E+005    4.06617E+005    1.95947E+005   -3.11040E+005   -1.41018E+005   -4.44468E+004   -4.02375E+005   -1.27099E+002    3.19828E+002    9.64675E+004
            6880    3.01858E+005   -1.97694E+004   -3.56906E+005   -1.11703E+005   -3.56906E+005    3.37136E+005    1.62793E+005   -2.67532E+005   -1.11694E+005   -3.07568E+004   -3.45927E+005   -1.17164E+003    6.40088E+002    5.98303E+004
            6881    2.77491E+005   -2.20973E+004   -3.29848E+005   -9.87190E+004   -3.29848E+005    3.07751E+005    1.50222E+005   -2.51993E+005   -9.87190E+004   -2.84002E+004   -3.23545E+005   -9.16314E+000    1.35893E+002    4.35892E+004
            6882    2.50345E+005    5.68610E+003   -2.72557E+005   -6.55508E+004   -2.72557E+005    2.78243E+005    1.10807E+005   -2.25798E+005   -6.55500E+004    5.33355E+003   -2.72205E+005   -2.70845E+002    2.02382E+002    9.88433E+003
            6883    3.44444E+005   -6.49785E+004   -4.48854E+005   -1.66797E+005   -4.48854E+005    3.83875E+005    2.26876E+005   -3.07754E+005   -1.66797E+005   -1.01536E+005   -4.12295E+005   -6.00565E+001   -6.09485E+002    1.12681E+005
            6884    3.59771E+005   -3.64999E+004   -4.39146E+005   -1.49267E+005   -4.39146E+005    4.02646E+005    2.08304E+005   -3.16181E+005   -1.49254E+005   -7.44617E+004   -4.01197E+005   -1.05819E+003   -7.71552E+002    1.17639E+005
            6885    3.22482E+005   -1.05226E+004   -3.71754E+005   -1.12852E+005   -3.71754E+005    3.61231E+005    1.65043E+005   -2.82331E+005   -1.12859E+005   -2.20174E+004   -3.60252E+005    8.61437E+001   -1.39031E+003    6.34031E+004
            6886    2.66868E+005   -2.10180E+004   -3.16884E+005   -9.43441E+004   -3.16884E+005    2.95866E+005    1.44082E+005   -2.42605E+005   -9.43519E+004   -2.43304E+004   -3.13563E+005   -2.94417E+002   -1.58481E+003    3.11155E+004
            6887    3.55855E+005    1.57256E+004   -3.86512E+005   -1.12683E+005   -3.86512E+005    4.02238E+005    1.61156E+005   -2.96572E+005   -1.12685E+005    1.11523E+004   -3.81937E+005   -1.22104E+002   -8.07261E+002    4.26440E+004
            6888    4.86143E+005   -7.88147E+004   -6.25095E+005   -2.40069E+005   -6.25095E+005    5.46281E+005    3.14660E+005   -4.19313E+005   -2.40086E+005   -1.30644E+005   -5.73249E+005   -1.27115E+001   -3.15804E+003    1.60071E+005
            6889    4.15092E+005   -2.82840E+004   -4.95299E+005   -1.68390E+005   -4.95299E+005    4.67015E+005    2.30658E+005   -3.55743E+005   -1.68391E+005   -8.55042E+004   -4.38078E+005   -5.12477E+001   -6.68498E+002    1.53128E+005
            6890    3.77927E+005   -6.65329E+004   -4.90657E+005   -1.89613E+005   -4.90657E+005    4.24124E+005    2.48934E+005   -3.28068E+005   -1.89609E+005   -1.80898E+005   -3.76296E+005   -2.08405E+002   -2.60739E+003    1.88196E+005
            6891    3.41757E+005   -6.39732E+004   -4.45043E+005   -1.65700E+005   -4.45043E+005    3.81070E+005    2.24906E+005   -3.04797E+005   -1.65697E+005   -1.30048E+005   -3.78971E+005   -4.60762E+002   -3.62157E+002    1.44265E+005
            6892    3.40745E+005   -9.55836E+004   -4.74998E+005   -1.95064E+005   -4.74998E+005    3.79414E+005    2.55215E+005   -3.05420E+005   -1.95065E+005   -1.78945E+005   -3.91636E+005   -8.59501E+001   -2.25100E+003    1.57081E+005
            6893    3.54091E+005   -8.99299E+004   -4.83531E+005   -1.90869E+005   -4.83531E+005    3.93601E+005    2.54776E+005   -3.19236E+005   -1.90868E+005   -1.44245E+005   -4.29216E+005   -1.73030E+002   -2.26362E+002    1.35750E+005
            6894    3.34531E+005   -1.07416E+005   -4.78857E+005   -2.01298E+005   -4.78857E+005    3.71442E+005    2.62523E+005   -3.02698E+005   -2.01293E+005   -1.85450E+005   -4.00827E+005   -2.77745E+002   -1.64724E+003    1.51302E+005
            6895    3.14766E+005   -1.36416E+005   -4.82681E+005   -2.13877E+005   -4.82681E+005    3.46265E+005    2.77658E+005   -2.92145E+005   -2.13875E+005   -1.92374E+005   -4.26725E+005   -2.15189E+002   -8.00085E+002    1.27452E+005
            6896    2.86562E+005   -1.51518E+005   -4.64075E+005   -2.13727E+005   -4.64075E+005    3.12557E+005    2.76440E+005   -2.70737E+005   -2.13726E+005   -1.88880E+005   -4.26713E+005   -1.06157E+002   -5.48387E+002    1.01397E+005
            6897    3.45894E+005   -1.08463E+005   -4.91825E+005   -2.03099E+005   -4.91825E+005    3.83362E+005    2.67796E+005   -3.14733E+005   -2.03097E+005   -1.53670E+005   -4.46620E+005   -3.21512E+002   -5.68815E+002    1.23637E+005
            6898    3.27175E+005   -1.28401E+005   -4.89164E+005   -2.11670E+005   -4.89164E+005    3.60763E+005    2.76412E+005   -3.01923E+005   -2.11670E+005   -1.63006E+005   -4.54559E+005   -7.07828E+001   -5.65451E+002    1.06238E+005
            6899    2.91528E+005   -1.73974E+005   -4.88155E+005   -2.26391E+005   -4.88155E+005    3.14181E+005    2.96174E+005   -2.80631E+005   -2.26391E+005   -1.92937E+005   -4.69193E+005   -2.65741E+002    2.01243E+002    7.48188E+004
            6900    3.44134E+005   -1.29815E+005   -5.08925E+005   -2.16243E+005   -5.08925E+005    3.79110E+005    2.84994E+005   -3.18313E+005   -2.16242E+005   -1.50281E+005   -4.88460E+005   -5.35382E+002    4.33842E+002    8.56701E+004
            6901    1.04226E+005    5.77267E+004   -6.25213E+004   -6.68062E+003   -6.25213E+004    1.20248E+005    3.82507E+003    5.18352E+004   -6.68095E+003   -5.56760E+004    5.08817E+004    1.27186E+002   -5.01156E+001    2.78611E+004
            6902    8.42334E+004    5.79325E+004    5.79325E+004    1.06590E+003   -3.88375E+004    9.67700E+004   -6.72031E+003    5.62625E+004    1.06524E+003   -3.87654E+004    5.78611E+004    1.86477E+002    9.96294E+001    2.62496E+003
            6903    7.34911E+004    6.35255E+004    6.35255E+004    9.08089E+003   -2.00685E+004    8.35940E+004   -1.75126E+004    5.81701E+004    9.07958E+003   -1.83208E+004    6.17791E+004    2.70152E+002   -1.62270E+002   -1.19531E+004
            6904    6.36786E+004    6.48681E+004    6.48681E+004    1.37383E+004   -6.46009E+003    7.13282E+004   -2.40487E+004    5.57573E+004    1.37309E+004   -2.16150E+003    6.05768E+004    3.61309E+002    1.46077E+002   -1.69599E+004
            6905    7.33634E+004    8.08716E+004    8.08716E+004    1.96344E+004   -4.39016E+002    8.13107E+004   -3.33557E+004    6.67533E+004    1.96388E+004    6.99683E+002    7.97285E+004    7.77607E+001    5.98038E+002   -9.54976E+003
            6906    9.38578E+004    1.05271E+005    1.05271E+005    2.74570E+004    1.03355E+003    1.04237E+005   -4.45871E+004    8.48652E+004    2.74648E+004    1.10389E+003    1.05193E+005    9.75376E+001    8.06366E+002   -2.69659E+003
            6907    7.78301E+004    8.08274E+004    8.08274E+004    1.81789E+004   -6.29918E+003    8.71265E+004   -3.09024E+004    6.83291E+004    1.81800E+004   -5.68077E+003    8.02078E+004    5.03793E+001   -2.67963E+002   -7.31391E+003
            6908    9.96970E+004    1.09296E+005    1.09296E+005    2.83790E+004   -2.07715E+003    1.11373E+005   -4.51992E+004    8.82837E+004    2.83805E+004   -2.05452E+003    1.09272E+005    7.85883E+001   -3.61142E+002   -1.58147E+003
            6909    8.38417E+004    7.70709E+004    7.70709E+004    1.33223E+004   -1.79027E+004    9.49736E+004   -2.41635E+004    6.88050E+004    1.33239E+004   -1.76525E+004    7.68191E+004    1.35635E+002    3.49604E+002    4.86405E+003
            6910    9.81990E+004    1.05823E+005    1.05823E+005    2.69028E+004   -4.14787E+003    1.09971E+005   -4.28593E+004    8.60680E+004    2.69064E+004   -3.98552E+003    1.05657E+005    6.91942E+001    5.39028E+002    4.22112E+003
            6911    9.11427E+004    7.17473E+004    7.17473E+004    7.08482E+003   -3.24941E+004    1.04241E+005   -1.54460E+004    6.72883E+004    7.08444E+003   -2.36593E+004    6.29128E+004    1.29568E+002   -6.51363E+000    2.90321E+004
            6912    8.69439E+004    9.12189E+004    9.12189E+004    2.17088E+004   -6.26979E+003    9.74887E+004   -3.55526E+004    7.57758E+004    2.17086E+004   -4.77459E+003    8.97238E+004    6.75522E+001   -1.84814E+001    1.19797E+004
            6913    6.71392E+004    6.74601E+004    6.74601E+004    1.33166E+004   -7.66402E+003    7.51241E+004   -2.43709E+004    5.90590E+004    1.33184E+004   -2.93670E+003    6.27310E+004    7.39254E+001    3.01538E+002    1.82422E+004
            6914    4.82998E+004    3.71563E+004    3.71563E+004   -6.96716E+002   -1.72418E+004    5.43981E+004   -6.40594E+003    4.11590E+004   -6.96816E+002   -3.24368E+003    2.31583E+004    9.15103E+001    3.09980E+001    2.37805E+004
            6915    1.01587E+005    6.97448E+004    6.97448E+004    1.65761E+003   -4.70218E+004    1.16767E+005   -8.12688E+003    6.67027E+004    1.65855E+003   -1.88858E+004    4.16079E+004    1.86948E+002    1.97815E+002    4.99366E+004
            6916    1.08187E+005    6.53940E+004    6.53940E+004   -4.33916E+003   -5.92360E+004    1.24630E+005   -6.06289E+002    6.37304E+004   -4.33918E+003   -8.19481E+003    1.43529E+004    1.91295E+002    2.46515E+001    6.12864E+004
            6917    1.49218E+005    8.58476E+004   -8.63647E+004   -5.06820E+003   -8.63647E+004    1.72212E+005    1.86176E+003    6.84581E+004   -5.06801E+003   -1.19499E+004    1.14327E+004    2.47344E+002    5.54789E+001    8.53084E+004
            6918    1.82581E+005    1.01137E+005   -1.09675E+005   -6.37511E+003   -1.09675E+005    2.10812E+005    4.97099E+003    5.94953E+004   -6.37501E+003   -1.70155E+004    8.47756E+003    2.17721E+002    3.81209E+001    1.04632E+005
            6919    2.11227E+005    1.16219E+005   -1.27684E+005   -6.23032E+003   -1.27684E+005    2.43903E+005    5.89861E+003    4.05342E+004   -6.23023E+003   -1.88359E+004    7.37032E+003    1.52605E+002    4.35470E+001    1.21245E+005
            6920    2.36829E+005    1.30943E+005   -1.42524E+005   -5.45589E+003   -1.42524E+005    2.73466E+005    5.67898E+003   -3.83286E+004   -5.45581E+003   -1.71356E+004    5.55441E+003    1.03770E+002    5.54597E+001    1.36262E+005
            6921    1.41732E+005    7.87183E+004   -8.48826E+004   -6.81468E+003   -8.48826E+004    1.63601E+005    4.32635E+003    6.07973E+004   -6.81460E+003   -4.00185E+004    3.38540E+004    1.61087E+002    6.09622E+001    7.29863E+004
            6922    1.83046E+005    9.26270E+004   -1.18735E+005   -1.23877E+004   -1.18735E+005    2.11362E+005    1.28320E+004   -4.06141E+004   -1.23877E+004   -5.39639E+004    2.78555E+004    1.17125E+002    4.79286E+001    9.74417E+004
            6923    2.17160E+005    1.07580E+005   -1.43149E+005   -1.46687E+004   -1.43149E+005    2.50729E+005    1.67460E+004   -7.61000E+004   -1.46687E+004   -5.78723E+004    2.23031E+004    4.76936E+001    4.69298E+000    1.18782E+005
            6924    2.45823E+005    1.23830E+005   -1.59986E+005   -1.41252E+004   -1.59986E+005    2.83816E+005    1.67603E+004   -8.94756E+004   -1.41252E+004   -5.53310E+004    1.91752E+004    1.28850E+001   -5.50294E+001    1.36931E+005
            6925    2.63537E+005    1.17475E+005   -1.86668E+005   -2.59518E+004   -1.86668E+005    3.04143E+005    3.17151E+004   -1.21613E+005   -2.59519E+004   -1.11901E+005    4.27079E+004   -5.53910E+001    1.40105E+002    1.30957E+005
            6926    2.16492E+005    9.04982E+004   -1.59318E+005   -2.65075E+004   -1.59318E+005    2.49816E+005    3.17758E+004   -1.03514E+005   -2.65073E+004   -1.11683E+005    4.28633E+004    9.24809E+000    1.89551E+002    9.81368E+004
            6927    1.73173E+005    7.47447E+004   -1.25154E+005   -2.08072E+004   -1.25154E+005    1.99898E+005    2.37387E+004   -7.33889E+004   -2.08072E+004   -9.50680E+004    4.46591E+004    3.19034E+001   -1.45259E+001    7.14767E+004
            6928    1.30746E+005    6.56339E+004   -8.53318E+004   -1.10552E+004   -8.53318E+004    1.50966E+005    1.02510E+004    3.95473E+004   -1.10548E+004   -6.88623E+004    4.91641E+004    1.23153E+002    1.42962E+002    4.70645E+004
            6929    9.11662E+004    1.01204E+005    1.01204E+005    2.52790E+004    9.28695E+001    1.01112E+005   -4.21921E+004    8.27799E+004    2.52837E+004    1.01716E+002    1.01191E+005    1.34172E+002   -6.36850E+002   -9.10021E+002
            6930    6.64997E+004    7.83969E+004    7.83969E+004    2.04864E+004    5.77253E+003    7.26243E+004   -3.48853E+004    6.26782E+004    2.04902E+004    5.97863E+003    7.81870E+004    1.38907E+001   -4.69391E+002   -3.86316E+003
            6931    4.96805E+004    5.80097E+004    5.80097E+004    1.44282E+004    3.91349E+003    5.40962E+004   -2.54504E+004    4.70783E+004    1.44158E+004    8.34925E+003    5.35863E+004    4.72007E+002   -2.00651E+002   -1.48166E+004
            6932    9.16295E+004    1.03447E+005    1.03447E+005    2.59569E+004    2.31191E+003    1.01135E+005   -4.39051E+004    8.43462E+004    2.59743E+004    2.37086E+003    1.03370E+005    1.35248E+002    1.17438E+003    2.43057E+003
            6933    6.86426E+004    7.97704E+004    7.97704E+004    1.98453E+004    4.87967E+003    7.48907E+004   -3.48318E+004    6.48177E+004    1.98586E+004    5.18318E+003    7.94536E+004    6.12394E+001    8.90060E+002    4.75754E+003
            6934    3.22470E+004    4.70765E+004    4.70765E+004    1.58943E+004    1.38610E+004    3.32155E+004   -2.56106E+004    3.21023E+004    1.40366E+004    1.57451E+004    4.70501E+004    5.59429E+002    3.00119E+002   -8.67035E+002
            6935    1.05064E+005    1.15968E+005    1.15968E+005    2.83230E+004   -4.98214E+002    1.16467E+005   -4.79311E+004    9.55450E+004    2.83241E+004   -1.87718E+002    1.15657E+005    2.27807E+002   -5.56685E+002    5.98336E+003
            6936    7.98904E+004    9.24440E+004    9.24440E+004    2.34277E+004    4.92614E+003    8.75179E+004   -4.02659E+004    7.48390E+004    2.34283E+004    8.34958E+003    8.90200E+004    9.09998E+001   -4.10939E+002    1.69633E+004
            6937    4.58817E+004    5.72093E+004    5.72093E+004    1.45274E+004    8.68696E+003    4.85223E+004   -2.68079E+004    4.50340E+004    1.44474E+004    1.91712E+004    4.68049E+004    7.29273E+002   -8.42868E+001    1.98917E+004
            6938    2.43365E+005    1.46433E+005    1.46433E+005    5.41493E+003   -1.34579E+005    2.81013E+005   -5.75634E+003    4.49780E+004    5.41488E+003    1.76639E+004   -5.80979E+003    8.58317E+001   -4.84148E+001    1.40015E+005
            6939    2.53649E+005    1.64082E+005    1.64082E+005    1.37201E+004   -1.28771E+005    2.92853E+005   -1.63435E+004    9.12295E+004    1.37201E+004    5.46109E+004   -1.93004E+004   -5.21267E+000    2.89023E+001    1.41686E+005
            6940    2.68044E+005    1.89044E+005    1.89044E+005    2.57386E+004   -1.20307E+005    3.09350E+005   -3.14919E+004    1.22927E+005    2.57386E+004    1.11118E+005   -4.23803E+004   -3.89870E+001   -2.08823E+002    1.34291E+005
            6941    2.65030E+005    1.57358E+005    1.57358E+005    3.78524E+003   -1.48671E+005    3.06030E+005   -4.15732E+003    4.89943E+004    3.78521E+003    1.30406E+004   -4.35383E+003    5.68828E+001   -4.95191E+001    1.52767E+005
            6942    2.80223E+005    1.75476E+005    1.75476E+005    1.04111E+004   -1.48076E+005    3.23551E+005   -1.26036E+004    9.18398E+004    1.04111E+004    4.23144E+004   -1.49146E+004   -9.10729E+000    7.20401E+001    1.59225E+005
            6943    3.09920E+005    2.05497E+005    2.05497E+005    1.97073E+004   -1.52280E+005    3.57776E+005   -2.43080E+004    1.25723E+005    1.97074E+004    8.95899E+004   -3.63734E+004   -6.20754E+001   -1.63815E+002    1.67434E+005
            6944    2.80712E+005    1.64446E+005    1.64446E+005    1.99649E+003   -1.59691E+005    3.24138E+005   -2.25046E+003    4.48233E+004    1.99648E+003    7.08985E+003   -2.33494E+003    3.66736E+001   -2.45618E+001    1.62000E+005
            6945    2.99016E+005    1.79421E+005    1.79421E+005    5.12519E+003   -1.65848E+005    3.45269E+005   -6.23259E+003    7.63770E+004    5.12519E+003    2.15243E+004   -7.95169E+003   -2.14507E+001    2.13892E+001    1.72004E+005
            6946    3.39538E+005    2.10525E+005    2.10525E+005    1.06857E+004   -1.81515E+005    3.92040E+005   -1.32320E+004    1.09718E+005    1.06857E+004    4.98273E+004   -2.08169E+004   -5.99580E+001   -1.19874E+002    1.92811E+005
            6947    2.85376E+005    1.64344E+005   -1.65180E+005   -3.27602E+002   -1.65180E+005    3.29524E+005    3.87702E+002   -2.80311E+004   -3.27603E+002   -1.26004E+003    4.24539E+002    3.18808E+001   -3.10599E+000    1.64760E+005
            6948    3.04849E+005    1.75221E+005   -1.76789E+005   -5.92694E+002   -1.76789E+005    3.52009E+005    7.20114E+002   -3.76305E+004   -5.92698E+002   -2.79778E+003    1.23014E+003   -1.61094E+001    2.18294E+001    1.75993E+005
            6949    3.50112E+005    2.01405E+005   -2.02870E+005   -5.39601E+002   -2.02870E+005    4.04275E+005    6.68150E+002   -4.13902E+004   -5.39609E+002   -2.33097E+003    8.66130E+002   -5.55599E+001    1.29439E+001    2.02131E+005
            6950    2.77212E+005    1.57318E+005   -1.62778E+005   -2.31947E+003   -1.62778E+005    3.20097E+005    2.59309E+003   -4.55683E+004   -2.31945E+003   -8.33169E+003    2.87187E+003    4.14806E+001    3.37995E+001    1.59950E+005
            6951    2.94980E+005    1.61657E+005   -1.78947E+005   -6.50692E+003   -1.78947E+005    3.40604E+005    7.93226E+003   -8.23306E+004   -6.50691E+003   -2.73200E+004    1.00301E+004   -1.77165E+001   -5.20575E+001    1.69275E+005
            6952    3.37708E+005    1.79766E+005   -2.10158E+005   -1.11972E+004   -2.10158E+005    3.89924E+005    1.38630E+004   -1.11007E+005   -1.11972E+004   -5.28573E+004    2.24655E+004   -6.62151E+001    9.20281E+001    1.91290E+005
            6953    2.59244E+005    1.44764E+005   -1.54584E+005   -4.27275E+003   -1.54584E+005    2.99348E+005    4.69759E+003   -5.04602E+004   -4.27272E+003   -1.46131E+004    4.79308E+003    5.67341E+001    4.23037E+001    1.49359E+005
            6954    2.73307E+005    1.43292E+005   -1.72271E+005   -1.10586E+004   -1.72271E+005    3.15563E+005    1.33459E+004   -9.16041E+004   -1.10586E+004   -4.47546E+004    1.57754E+004   -1.42408E+001   -3.14962E+001    1.54852E+005
            6955    3.06387E+005    1.49097E+005   -2.04591E+005   -2.05637E+004   -2.04591E+005    3.53687E+005    2.53524E+004   -1.26440E+005   -2.05637E+004   -9.25319E+004    3.70382E+004   -4.69640E+001    2.03333E+002    1.64550E+005
            6956    2.14184E+005    1.90836E+005    1.90836E+005    3.65087E+004   -5.36954E+004    2.44532E+005   -5.78832E+004    1.62369E+005    3.65076E+004   -1.27384E+004    1.49880E+005    1.59664E+003    8.22765E+002    9.12932E+004
            6957    1.76167E+005    1.81680E+005    1.81680E+005    4.17424E+004   -1.61467E+004    1.97827E+005   -6.90920E+004    1.52454E+005    4.17515E+004   -7.69931E+003    1.73224E+005    1.89823E+002    1.11806E+003    3.99961E+004
            6958    1.83561E+005    2.05026E+005    2.05026E+005    5.28502E+004    1.16310E+003    2.03863E+005   -8.63465E+004    1.65966E+005    5.28622E+004    1.92546E+003    2.04252E+005    3.36545E+002    1.40043E+003    1.24330E+004
            6959    1.51291E+005    1.37513E+005    1.37513E+005    2.55275E+004   -3.45982E+004    1.72111E+005   -4.28142E+004    1.19601E+005    2.55183E+004    5.03308E+003    9.78911E+004    1.30761E+003    3.14990E+002    7.24422E+004
            6960    1.39896E+005    1.49009E+005    1.49009E+005    3.56014E+004   -7.31937E+003    1.56328E+005   -5.90970E+004    1.23729E+005    3.56004E+004    3.40622E+003    1.38284E+005    2.58173E+002    8.45588E+001    3.95158E+004
            6961    1.57503E+005    1.72328E+005    1.72328E+005    4.28958E+004   -3.03446E+003    1.75362E+005   -7.07297E+004    1.41214E+005    4.28934E+004   -2.19698E+003    1.71493E+005    3.48100E+002    9.17589E+001    1.20715E+004
            6962    9.61392E+004    9.59968E+004    9.59968E+004    1.98658E+004   -1.20387E+004    1.08036E+005   -3.46080E+004    8.29090E+004    1.98686E+004    1.92993E+004    6.46561E+004    1.00357E+003    5.25211E+002    4.90141E+004
            6963    1.05936E+005    1.14989E+005    1.14989E+005    2.72014E+004   -2.67756E+003    1.17667E+005   -4.65043E+004    9.57455E+004    2.72147E+004    4.57484E+003    1.07723E+005    8.72332E+001    1.14785E+003    2.82933E+004
            6964    1.24387E+005    1.39976E+005    1.39976E+005    3.58834E+004    2.22409E+003    1.37752E+005   -5.93613E+004    1.13443E+005    3.59047E+004    2.99646E+003    1.39183E+005    2.13196E+002    1.48722E+003    1.02831E+004
            6965    7.85086E+004    5.77281E+003   -8.20594E+004   -1.87082E+004   -8.20594E+004    8.78322E+004    3.16649E+004   -6.91047E+004   -1.87081E+004    3.93503E+003   -8.02217E+004    4.81762E+001   -5.01119E+000    1.25711E+004
            6966    9.26158E+004    1.72250E+003   -1.01717E+005   -2.64855E+004   -1.01717E+005    1.03440E+005    4.21602E+004   -8.20830E+004   -2.64890E+004    1.22645E+003   -1.01218E+005    5.08431E+001   -5.12523E+002    7.14581E+003
            6967    1.03599E+005    3.28088E+003   -1.12700E+005   -2.93295E+004   -1.12700E+005    1.15981E+005    4.62495E+004   -9.09288E+004   -2.93300E+004    3.23876E+003   -1.12657E+005    4.56143E+001    2.10751E+002    2.20791E+003
            6968    1.02125E+005   -8.95965E+002   -1.14660E+005   -3.08927E+004   -1.14660E+005    1.13764E+005    4.88163E+004   -9.13969E+004   -3.08982E+004   -9.07519E+002   -1.14643E+005    5.43510E+001   -6.85263E+002   -1.14019E+003
            6969    1.00343E+005    1.68890E+003   -1.10162E+005   -2.80492E+004   -1.10162E+005    1.11851E+005    4.55073E+004   -8.95940E+004   -2.80524E+004    1.65530E+003   -1.10125E+005    2.59651E+001    5.16279E+002   -1.93791E+003
            6970    8.33895E+004    2.29490E+004   -7.18689E+004   -9.93466E+003   -7.18689E+004    9.48179E+004    1.96182E+004   -6.62488E+004   -9.93408E+003    1.01073E+004   -5.90277E+004    1.48145E+002    9.89528E+000    3.24448E+004
            6971    8.46245E+004    1.55181E+004   -8.01055E+004   -1.48755E+004   -8.01055E+004    9.56236E+004    2.64876E+004   -7.06786E+004   -1.48783E+004    1.21044E+004   -7.66890E+004    1.34033E+002   -4.15855E+002    1.77415E+004
            6972    8.53550E+004    6.81132E+003   -8.88557E+004   -2.04957E+004   -8.88557E+004    9.56670E+004    3.41800E+004   -7.45329E+004   -2.04960E+004    6.61867E+003   -8.86627E+004    7.40692E+001    1.99490E+002    4.28582E+003
            6973    8.82398E+004    4.99331E+003   -9.36453E+004   -2.22109E+004   -9.36453E+004    9.86386E+004    3.69543E+004   -7.79323E+004   -2.22153E+004    4.80764E+003   -9.34553E+004    9.45605E+001   -5.96958E+002   -4.26928E+003
            6974    8.35074E+004   -1.92951E+003   -9.43962E+004   -2.44794E+004   -9.43962E+004    9.24667E+004    4.02684E+004   -7.61932E+004   -2.44821E+004   -2.27372E+003   -9.40493E+004    1.14739E+002    4.53193E+002   -5.62825E+003
            6975    1.05975E+005    5.07797E+004   -7.11399E+004   -1.09723E+003   -7.11399E+004    1.21920E+005    7.15248E+003   -6.71676E+004   -1.09686E+003    2.82044E+004   -4.85650E+004    1.42815E+002    2.89705E+001    4.73570E+004
            6976    9.00015E+004    3.26174E+004   -7.03267E+004   -6.52003E+003   -7.03267E+004    1.02944E+005    1.47431E+004   -6.63606E+004   -6.52204E+003    2.61508E+004   -6.38581E+004    1.72870E+002   -3.39951E+002    2.49770E+004
            6977    8.19267E+004    1.98565E+004   -7.30994E+004   -1.14099E+004   -7.30994E+004    9.29559E+004    2.15509E+004   -6.63594E+004   -1.14098E+004    1.96298E+004   -7.28728E+004    1.73166E+002    2.55460E+002    4.57411E+003
            6978    7.55002E+004    6.36504E+003   -7.81232E+004   -1.72625E+004   -7.81232E+004    8.44883E+004    2.96736E+004   -6.63846E+004   -1.72630E+004    5.86332E+003   -7.76210E+004    2.31493E+002   -4.82225E+002   -6.47157E+003
            6979    7.32400E+004    2.34293E+003   -7.90745E+004   -1.85539E+004   -7.90745E+004    8.14174E+004    3.17618E+004   -6.60166E+004   -1.85578E+004    1.15194E+003   -7.78796E+004    1.85342E+002    5.08865E+002   -9.77170E+003
            6980    1.30745E+005    7.98614E+004    7.98614E+004    7.78162E+003   -7.10593E+004    1.50921E+005   -5.52793E+003   -5.57430E+004    7.78188E+003    5.39001E+004   -4.50982E+004    1.51509E+002    1.29206E+001    5.69568E+004
            6981    1.02005E+005    5.52034E+004   -6.23362E+004    3.01216E+003   -6.23362E+004    1.17540E+005    1.37352E+003   -5.88877E+004    3.01156E+003    4.90250E+004   -5.61571E+004    1.72633E+002   -2.05599E+002    2.62298E+004
            6982    8.14864E+004    2.95966E+004   -6.35919E+004   -5.73038E+003   -6.35919E+004    9.31885E+004    1.32419E+004   -6.02512E+004   -5.73068E+003    2.94568E+004   -6.34518E+004    9.36828E+001    1.88433E+002    3.60288E+003
            6983    7.34585E+004    1.60625E+004   -6.70863E+004   -1.09909E+004   -6.70863E+004    8.31488E+004    2.06716E+004   -6.06253E+004   -1.09925E+004    1.45160E+004   -6.55382E+004    1.31667E+002   -4.22009E+002   -1.12290E+004
            6984    6.11329E+004    4.27162E+001   -6.75896E+004   -1.62627E+004   -6.75896E+004    6.76324E+004    2.79365E+004   -5.59183E+004   -1.62652E+004   -2.62335E+003   -6.49210E+004    1.04971E+002    3.52541E+002   -1.31603E+004
            6985    6.35698E+004    1.06559E+004   -6.10138E+004   -1.14415E+004   -6.10138E+004    7.16697E+004    2.05998E+004   -5.38521E+004   -1.14413E+004    4.60410E+003   -5.49622E+004    3.44551E+002    2.69772E+002   -1.99225E+004
            6986    7.39322E+004    2.52609E+004   -5.92067E+004   -6.25394E+003   -5.92067E+004    8.44675E+004    1.33999E+004   -5.54879E+004   -6.25186E+003    2.36640E+004   -5.76119E+004    2.54311E+002   -3.22647E+001   -1.14962E+004
            6987    8.83374E+004    4.80709E+004   -5.37068E+004    3.05260E+003   -5.37068E+004    1.01778E+005    8.61104E+002   -5.15040E+004    3.05301E+003    4.80678E+004   -5.37041E+004    1.87614E+002    1.46252E+002    4.84727E+002
            6988    1.10340E+005    7.33326E+004    7.33326E+004    1.12078E+004   -5.40644E+004    1.27397E+005   -1.01587E+004   -3.85885E+004    1.12078E+004    6.94914E+004   -5.02232E+004    9.84374E+001   -6.86648E+001    2.17850E+004
            6989    1.40735E+005    1.00053E+005    1.00053E+005    1.69441E+004   -6.24400E+004    1.62493E+005   -1.81857E+004    4.80067E+004    1.69441E+004    8.37907E+004   -4.61777E+004    2.71856E+001    3.66646E+001    4.87653E+004
            6990    1.77617E+005    1.28109E+005    1.28109E+005    2.09805E+004   -7.69167E+004    2.05026E+005   -2.40576E+004    7.58532E+004    2.09803E+004    9.70680E+004   -4.58757E+004    5.11330E+001   -1.28249E+002    7.34889E+004
            6991    2.22197E+005    1.62043E+005    1.62043E+005    2.59900E+004   -9.43681E+004    2.56411E+005   -3.12217E+004    1.05084E+005    2.59900E+004    1.11204E+005   -4.35286E+004   -2.07124E+001   -9.83124E+001    1.02231E+005
            6992    2.24211E+005    1.48070E+005    1.48070E+005    1.51043E+004   -1.10794E+005    2.58864E+005   -1.74602E+004    8.10669E+004    1.51043E+004    6.03761E+004   -2.30999E+004    4.69425E+001    1.22228E+001    1.22518E+005
            6993    2.18511E+005    1.32118E+005    1.32118E+005    6.16792E+003   -1.20197E+005    2.52315E+005   -6.02954E+003   -3.09798E+004    6.16783E+003    1.91226E+004   -7.20177E+003    1.44000E+002   -4.51995E+001    1.25469E+005
            6994    1.88879E+005    1.23680E+005    1.23680E+005    1.32583E+004   -9.44129E+004    2.18093E+005   -1.41750E+004    5.27954E+004    1.32583E+004    5.76970E+004   -2.84301E+004    8.42330E+001   -3.39422E+001    1.00183E+005
            6995    1.91779E+005    1.15396E+005    1.15396E+005    6.27597E+003   -1.06044E+005    2.21440E+005   -5.20919E+003   -5.60985E+004    6.27586E+003    1.80032E+004   -8.65146E+003    1.91238E+002   -4.62064E+001    1.09915E+005
            6996    1.64368E+005    9.70316E+004    9.70316E+004    5.77933E+003   -9.27185E+004    1.89750E+005   -3.36413E+003   -6.64518E+004    5.77931E+003    1.44971E+004   -1.01841E+004    2.07023E+002   -2.05540E+001    9.40688E+004
            6997    1.30323E+005    7.47444E+004   -7.55877E+004    5.42791E+003   -7.55877E+004    1.50332E+005   -1.52822E+003   -6.67378E+004    5.42797E+003    1.04537E+004   -1.12971E+004    2.32214E+002   -1.54826E+001    7.43748E+004
            6998    8.95758E+004    4.70351E+004   -5.59441E+004    3.92923E+003   -5.59441E+004    1.02979E+005    1.65995E+003   -5.84270E+004    3.92933E+003    3.71023E+003   -1.26194E+004    1.83774E+002   -1.57494E+001    5.08378E+004
            6999    3.92203E+004    1.40320E+004   -2.96884E+004    2.40069E+003   -2.96884E+004    4.37204E+004    4.41857E+003   -3.50129E+004    2.40085E+003    2.62383E+003   -1.82804E+004    7.89148E+001   -2.19198E+001    1.91993E+004
            7000    1.54113E+005    9.50347E+004    9.50347E+004    8.51273E+003   -8.28972E+004    1.77932E+005   -6.88340E+003   -5.58366E+004    8.51234E+003    4.21221E+004   -2.99842E+004    1.93479E+002   -1.27257E+002    8.13330E+004
            7001    1.20188E+005    6.36473E+004   -7.48727E+004    1.75838E+003   -7.48727E+004    1.38520E+005    3.15567E+003   -6.82439E+004    1.75752E+003    2.01621E+004   -3.13867E+004    1.99282E+002   -1.85930E+002    6.42850E+004
            7002    8.74210E+004    3.59570E+004   -6.41617E+004   -2.93840E+003   -6.41617E+004    1.00119E+005    1.03810E+004   -6.30291E+004   -2.93969E+003    9.10981E+003   -3.73132E+004    1.79571E+002   -2.24488E+002    4.43519E+004
            7003    5.59411E+004    5.09724E+003   -5.69605E+004   -1.04063E+004   -5.69605E+004    6.20577E+004    2.07565E+004   -5.07599E+004   -1.04082E+004    4.19372E+002   -5.22808E+004    6.14478E+001   -2.88026E+002    1.63831E+004
            7004    2.49762E+005    2.97214E+005    2.97214E+005    8.60812E+004    2.15049E+004    2.75709E+005   -1.34933E+005    2.29827E+005    8.60836E+004    2.43608E+004    2.94355E+005    2.92162E+002   -1.04034E+003    2.79028E+004
            7005    2.40061E+005    2.61529E+005    2.61529E+005    6.23622E+004   -5.02377E+003    2.66553E+005   -1.06289E+005    2.17206E+005    6.23648E+004   -4.88214E+003    2.61385E+005    2.80092E+002    8.41859E+002    6.12061E+003
            7006    2.20039E+005    2.47220E+005    2.47220E+005    6.22325E+004    3.88928E+003    2.43331E+005   -1.04447E+005    2.01505E+005    6.22317E+004    4.09304E+003    2.47017E+005    4.08931E+002    5.78650E+002    6.99259E+003
            7007    2.12795E+005    2.30282E+005    2.30282E+005    5.53272E+004   -6.61115E+003    2.36893E+005   -9.29992E+004    1.90879E+005    5.53304E+004   -6.35595E+003    2.30023E+005    3.82000E+002    9.41562E+002    7.74068E+003
            7008    3.02071E+005    3.57449E+005    3.57449E+005    1.12146E+005    2.00487E+004    3.37400E+005   -1.63215E+005    2.67639E+005    1.12144E+005    3.03563E+004    3.47143E+005    4.36648E+002   -5.08438E+002    5.80568E+004
            7009    2.71667E+005    3.09996E+005    3.09996E+005    8.92626E+004    6.59874E+003    3.03397E+005   -1.35286E+005    2.40836E+005    8.92645E+004    1.25973E+004    3.03995E+005    4.68087E+002    8.02055E+002    4.22315E+004
            7010    2.40353E+005    2.53415E+005    2.53415E+005    6.24309E+004   -1.64709E+004    2.69886E+005   -9.97917E+004    2.08073E+005    6.24312E+004   -1.37561E+004    2.50700E+005    3.91624E+002    5.39563E+002    2.69246E+004
            7011    2.10423E+005    2.21154E+005    2.21154E+005    5.34109E+004   -1.49493E+004    2.36103E+005   -8.65384E+004    1.82814E+005    5.34135E+004   -8.43896E+003    2.14641E+005    4.43607E+002    7.60735E+002    3.86572E+004
            7012    2.73078E+005    2.43523E+005    2.43523E+005    4.87220E+004   -6.86119E+004    3.12135E+005   -7.45443E+004    2.03543E+005    4.87168E+004   -3.79104E+004    2.12827E+005    1.67009E+003    8.74731E+002    9.29301E+004
            7013    3.26759E+005    3.14926E+005    3.14926E+005    7.69378E+004   -5.76277E+004    3.72554E+005   -1.11412E+005    2.52041E+005    7.69314E+004   -3.23982E+004    2.89703E+005    1.56970E+003    8.28775E+002    9.35858E+004
            7014    3.52314E+005    3.69766E+005    3.69766E+005    1.05431E+005   -3.02090E+004    3.99975E+005   -1.48329E+005    2.83956E+005    1.05427E+005   -1.19850E+004    3.51545E+005    1.27405E+003    8.73640E+002    8.33894E+004
            7015    3.95714E+005    4.56085E+005    4.56085E+005    1.50041E+005    9.22236E+003    4.46863E+005   -2.05116E+005    3.31877E+005    1.50036E+005    3.37812E+004    4.31532E+005    1.04447E+003    3.16039E+002    1.01826E+005
            7016    3.60467E+005    4.79723E+005    4.79723E+005    1.84776E+005    7.79046E+004    4.01818E+005   -2.47468E+005    3.21821E+005    1.84774E+005    1.03618E+005    4.54011E+005    7.06190E+002    4.79589E+002    9.83352E+004
            7017    3.35867E+005    4.99959E+005    4.99959E+005    2.13174E+005    1.30463E+005    3.69496E+005   -2.81199E+005    3.11694E+005    2.13172E+005    1.49328E+005    4.81096E+005    4.49033E+002    2.14844E+002    8.13257E+004
            7018    2.97621E+005    4.96272E+005    4.96272E+005    2.29478E+005    1.75274E+005    3.20998E+005   -3.00341E+005    2.86198E+005    2.29478E+005    1.96454E+005    4.75091E+005    3.08103E+002    3.16355E+002    7.96875E+004
            7019    2.51052E+005    4.49998E+005    4.49998E+005    2.17739E+005    1.83640E+005    2.66358E+005   -2.83793E+005    2.45761E+005    2.17739E+005    2.11420E+005    4.22219E+005    1.67642E+002    1.96023E+002    8.14097E+004
            7020    2.92428E+005    4.50900E+005    4.50900E+005    2.00076E+005    1.29709E+005    3.21191E+005   -2.60228E+005    2.72385E+005    2.00076E+005    1.57956E+005    4.22653E+005    7.91532E+001   -4.58452E+002    9.09654E+004
            7021    2.49059E+005    4.26393E+005    4.26393E+005    2.03247E+005    1.57707E+005    2.68686E+005   -2.62449E+005    2.39421E+005    2.03248E+005    1.80317E+005    4.03783E+005    5.64118E+001   -5.87868E+002    7.45890E+004
            7022    3.26490E+005    4.87427E+005    4.87427E+005    2.10443E+005    1.27451E+005    3.59976E+005   -2.75107E+005    3.01356E+005    2.10442E+005    1.62687E+005    4.52191E+005    1.67283E+002   -5.37924E+002    1.06968E+005
            7023    2.93850E+005    4.75027E+005    4.75027E+005    2.18459E+005    1.54448E+005    3.20579E+005   -2.82645E+005    2.77505E+005    2.18459E+005    1.93722E+005    4.35754E+005    1.27304E+002   -6.75052E+002    1.05107E+005
            7024    3.55382E+005    5.03523E+005    5.03523E+005    2.07317E+005    1.09467E+005    3.94056E+005   -2.73436E+005    3.22927E+005    2.07316E+005    1.56576E+005    4.56415E+005    2.06353E+002   -6.61445E+002    1.27842E+005
            7025    3.23573E+005    4.80158E+005    4.80158E+005    2.07966E+005    1.22403E+005    3.57756E+005   -2.70176E+005    2.96476E+005    2.07965E+005    1.88676E+005    4.13887E+005    2.05288E+002   -6.92483E+002    1.38984E+005
            7026    3.40294E+005    4.53858E+005    4.53858E+005    1.73982E+005    7.50642E+004    3.78794E+005   -2.34301E+005    3.05347E+005    1.73980E+005    1.29373E+005    3.99552E+005    3.22254E+002   -7.35584E+002    1.32744E+005
            7027    3.33692E+005    4.77819E+005    4.77819E+005    2.00366E+005    1.07544E+005    3.70275E+005   -2.61910E+005    3.02538E+005    2.00363E+005    1.82616E+005    4.02751E+005    2.67317E+002   -1.11139E+003    1.48861E+005
            7028    3.62968E+005    4.74877E+005    4.74877E+005    1.83956E+005    6.81319E+004    4.06745E+005   -2.42322E+005    3.17210E+005    1.83952E+005    1.75961E+005    3.67052E+005    2.05456E+002   -2.18396E+003    1.79517E+005
            7029    4.53024E+005    5.83507E+005    5.83507E+005    2.23122E+005    7.49500E+004    5.08557E+005   -2.93859E+005    3.92681E+005    2.23134E+005    1.27807E+005    5.30637E+005    7.56440E+001   -2.81322E+003    1.55187E+005
            7030    3.89569E+005    4.76013E+005    4.76013E+005    1.64797E+005    3.91183E+004    4.36895E+005   -2.26643E+005    3.39247E+005    1.64796E+005    9.46493E+004    4.20484E+005    3.00936E+002   -4.17181E+002    1.45523E+005
            7031    3.27027E+005    3.56669E+005    3.56669E+005    1.01428E+005   -1.19615E+004    3.68630E+005   -1.48712E+005    2.77324E+005    1.01429E+005   -7.58400E+003    3.52290E+005    1.00289E+002   -6.45063E+002    3.99301E+004
            7032    4.77882E+004   -3.40159E+003   -5.55330E+004   -1.38005E+004   -5.55330E+004    5.21314E+004    2.42450E+004   -4.51360E+004   -1.37860E+004   -8.70130E+003   -5.02478E+004    3.55542E+002   -1.62415E+002   -1.57325E+004
            7033    5.36581E+004   -3.89189E+003   -6.22641E+004   -1.50862E+004   -6.22641E+004    5.83722E+004    2.70807E+004   -5.09305E+004   -1.50850E+004   -5.59834E+003   -6.05588E+004    2.13158E+002   -6.69013E+002   -9.80566E+003
            7034    6.51987E+004   -6.53130E+003   -7.75681E+004   -2.04578E+004   -7.75681E+004    7.10368E+004    3.48524E+004   -6.17177E+004   -2.04638E+004   -6.81456E+003   -7.72788E+004    1.85587E+002   -7.66482E+002   -4.44545E+003
            7035    8.36544E+004    1.48074E+002   -9.24694E+004   -2.24001E+004   -9.24694E+004    9.26175E+004    3.82405E+004   -7.63562E+004   -2.24084E+004    6.62445E+001   -9.23792E+004    2.00204E+002   -8.67439E+002   -2.71341E+003
            7036    9.33668E+004   -2.44784E+003   -1.05711E+005   -2.72483E+004   -1.05711E+005    1.03263E+005    4.51357E+004   -8.54726E+004   -2.72611E+004   -2.45183E+003   -1.05694E+005    1.87978E+001   -1.00359E+003   -6.39647E+002
            7037    2.51208E+004   -1.18322E+004   -3.88944E+004   -1.63198E+004   -3.88944E+004    2.70622E+004    2.23488E+004   -2.41943E+004   -1.18724E+004   -1.74024E+004   -3.77717E+004    4.64831E+002    2.39240E+002   -4.90250E+003
            7038    4.42972E+004   -1.43714E+004   -6.01590E+004   -1.75205E+004   -6.01590E+004    4.57877E+004    3.06836E+004   -4.40443E+004   -1.74967E+004   -1.47558E+004   -5.97983E+004    2.58670E+002    5.21504E+002    4.01414E+003
            7039    6.69833E+004   -4.28643E+003   -7.74297E+004   -1.90794E+004   -7.74297E+004    7.31433E+004    3.35985E+004   -6.31492E+004   -1.90828E+004   -4.48952E+003   -7.72232E+004    1.71642E+002    6.11769E+002    3.82205E+003
            7040    8.16970E+004   -5.06869E+003   -9.47097E+004   -2.44380E+004   -9.47097E+004    8.96410E+004    4.14055E+004   -7.62699E+004   -2.44378E+004   -5.25047E+003   -9.45281E+004    2.84659E+002    5.96930E+002    3.97679E+003
            7041    9.85177E+004    1.76121E+003   -1.07616E+005   -2.58488E+004   -1.07616E+005    1.09377E+005    4.39011E+004   -8.91706E+004   -2.58542E+004    1.74470E+003   -1.07594E+005    6.92821E-002    6.66626E+002    1.34376E+003
            7042    4.63503E+004   -7.45008E+003   -5.68611E+004   -1.43437E+004   -5.68611E+004    4.94110E+004    2.62183E+004   -4.51754E+004   -1.43433E+004   -2.36839E+004   -4.06277E+004    6.15613E+002   -3.95847E+002    2.31958E+004
            7043    6.03809E+004   -4.78210E+003   -7.02189E+004   -1.66588E+004   -7.02189E+004    6.54368E+004    3.05533E+004   -5.76645E+004   -1.66785E+004   -1.14826E+004   -6.34987E+004    3.78477E+002   -9.61915E+002    1.98347E+004
            7044    7.76559E+004   -6.23963E+003   -9.10300E+004   -2.33684E+004   -9.10300E+004    8.47904E+004    4.02127E+004   -7.32224E+004   -2.33893E+004   -1.01167E+004   -8.71320E+004    1.98234E+002   -1.17942E+003    1.77091E+004
            7045    9.68692E+004    1.05058E+003   -1.06193E+005   -2.50424E+004   -1.06193E+005    1.07243E+005    4.33948E+004   -8.84299E+004   -2.50618E+004   -5.03529E+001   -1.05072E+005    3.53506E+002   -1.28573E+003    1.07996E+004
            7046    1.06105E+005   -3.07435E+003   -1.20227E+005   -3.05919E+004   -1.20227E+005    1.17153E+005    5.12979E+004   -9.75808E+004   -3.06154E+004   -3.21951E+003   -1.20059E+005   -1.42751E+000   -1.45395E+003    4.11943E+003
            7047    2.48724E+005   -1.82873E+005   -4.46688E+005   -2.16469E+005   -4.46688E+005    2.63815E+005    2.82010E+005   -2.43541E+005   -2.16469E+005   -2.11749E+005   -4.17811E+005    2.25778E+002   -3.62793E+002    8.23652E+004
            7048    2.80117E+005   -1.24886E+005   -4.32525E+005   -1.92196E+005   -4.32525E+005    3.07639E+005    2.49869E+005   -2.60975E+005   -1.92195E+005   -1.52466E+005   -4.04946E+005    1.54366E+002    4.02280E+002    8.78849E+004
            7049    2.36698E+005   -1.54194E+005   -4.09030E+005   -1.96056E+005   -4.09030E+005    2.54837E+005    2.53093E+005   -2.28146E+005   -1.96056E+005   -1.72539E+005   -3.90685E+005    7.54796E+001    6.22680E+002    6.58646E+004
            7050    2.18199E+005   -1.33568E+005   -3.68925E+005   -1.73362E+005   -3.68925E+005    2.35357E+005    2.25285E+005   -2.09800E+005   -1.73363E+005   -1.86523E+005   -3.15969E+005    1.39263E+002   -2.40026E+002    9.82808E+004
            7051    2.16769E+005   -9.51210E+004   -3.33533E+005   -1.48309E+005   -3.33533E+005    2.38412E+005    1.92321E+005   -2.01287E+005   -1.48309E+005   -1.20098E+005   -3.08556E+005    7.20200E+001    3.15983E+002    7.30126E+004
            7052    1.68147E+005   -1.24080E+005   -3.03276E+005   -1.48948E+005   -3.03276E+005    1.79196E+005    1.92101E+005   -1.63933E+005   -1.48949E+005   -1.31477E+005   -2.95877E+005    1.82198E+001    5.29513E+002    3.56474E+004
            7053    2.13543E+005   -1.83865E+004   -2.59922E+005   -9.61902E+004   -2.59922E+005    2.41536E+005    1.24833E+005   -1.77161E+005   -9.61906E+004   -1.09054E+005   -1.69254E+005    1.12708E+002   -2.37575E+002    1.16957E+005
            7054    1.40297E+005   -3.24390E+004   -1.89585E+005   -7.69234E+004   -1.89585E+005    1.57146E+005    9.96491E+004   -1.22859E+005   -7.69229E+004   -6.35018E+004   -1.58523E+005    1.05670E+002    1.17061E+002    6.25814E+004
            7055    8.38327E+004   -6.53759E+004   -1.54253E+005   -7.65939E+004   -1.54253E+005    8.88768E+004    9.87409E+004   -8.21186E+004   -7.65945E+004   -6.73916E+004   -1.52237E+005    4.54271E+001    3.41640E+002    1.32290E+004
            7056    2.14973E+005    1.32914E+005    1.32914E+005    6.07840E+003   -1.15296E+005    2.48210E+005   -7.89889E+003    7.23367E+004    6.07853E+003    6.41976E+003    1.11984E+004    1.16426E+002    7.08391E+001    1.24082E+005
            7057    1.02855E+005    7.35741E+004    7.35741E+004    9.86321E+003   -4.50843E+004    1.18658E+005   -1.27844E+004    5.17671E+004    9.86318E+003    8.96056E+003    1.95293E+004    1.12273E+002    7.71609E-001    5.90933E+004
            7058    1.64354E+004    2.57796E+004    2.57796E+004    1.16903E+004    7.72397E+003    1.80557E+004   -1.50646E+004    1.53021E+004    1.16893E+004    1.06235E+004    2.28811E+004    4.59172E+001   -6.32956E+001    6.62782E+003
            7059    2.13384E+005    2.72930E+005    2.72930E+005    1.05590E+005    3.26370E+004    2.40293E+005   -1.37052E+005    1.81976E+005    1.05590E+005    1.19085E+005    1.86482E+005    9.42572E+001    1.87175E+002    1.15324E+005
            7060    1.55516E+005    2.23478E+005    2.23478E+005    9.49568E+004    5.06040E+004    1.72874E+005   -1.23013E+005    1.40192E+005    9.49565E+004    7.83887E+004    1.95694E+005    7.39197E+001   -1.84059E+002    6.34917E+004
            7061    1.05524E+005    1.95634E+005    1.95634E+005    9.75157E+004    8.40051E+004    1.11629E+005   -1.25718E+005    1.03552E+005    9.75166E+004    8.67594E+004    1.92879E+005    3.20297E+001   -4.00819E+002    1.73146E+004
            7062    2.23489E+005    3.81318E+005    3.81318E+005    1.80063E+005    1.40797E+005    2.40520E+005   -2.34059E+005    2.15523E+005    1.80064E+005    1.91649E+005    3.30465E+005    1.87625E+002    3.46713E+002    9.82088E+004
            7063    2.28896E+005    3.56658E+005    3.56658E+005    1.59803E+005    1.05491E+005    2.51167E+005   -2.07317E+005    2.13665E+005    1.59802E+005    1.30004E+005    3.32146E+005    1.32864E+002   -3.04023E+002    7.45376E+004
            7064    1.86984E+005    3.36253E+005    3.36253E+005    1.64866E+005    1.36836E+005    1.99417E+005   -2.12652E+005    1.82168E+005    1.64867E+005    1.45937E+005    3.27151E+005    3.61928E+001   -6.20912E+002    4.16148E+004
            7065    1.92917E+005    4.84219E+003   -2.10019E+005   -5.16641E+004   -2.10019E+005    2.14861E+005    8.56135E+004   -1.72775E+005   -5.16640E+004    4.64534E+003   -2.09822E+005    1.02771E+002   -1.24081E+002    6.49754E+003
            7066    1.76618E+005    1.76899E+003   -1.94679E+005   -4.90213E+004   -1.94679E+005    1.96448E+005    8.06438E+004   -1.58899E+005   -4.90145E+004   -1.11036E+003   -1.91806E+005    6.23530E+002   -1.47338E+002    2.35791E+004
            7067    1.80679E+005    2.11523E+004   -1.82245E+005   -4.03328E+004   -1.82245E+005    2.03397E+005    6.71419E+004   -1.54364E+005   -4.03261E+004    1.24074E+004   -1.73507E+005    7.01770E+002   -1.18271E+002    4.12411E+004
            7068    1.95817E+005    3.49745E+004   -1.87207E+005   -3.97751E+004   -1.87207E+005    2.22182E+005    6.40026E+004   -1.58587E+005   -3.97666E+004    9.92883E+003   -1.62170E+005    8.70737E+002    9.21729E+000    7.02539E+004
            7069    2.30205E+005    7.16967E+004   -1.92098E+005   -3.18505E+004   -1.92098E+005    2.63794E+005    5.07505E+004   -1.64063E+005   -3.18467E+004    2.49934E+004   -1.45398E+005    1.42592E+003   -5.26395E+002    1.00678E+005
            7070    1.58035E+005   -3.10754E+003   -1.78329E+005   -4.65802E+004   -1.78329E+005    1.75222E+005    7.60056E+004   -1.43631E+005   -4.66061E+004   -3.47539E+003   -1.77935E+005   -7.98163E+000   -1.85454E+003    8.01722E+003
            7071    1.50072E+005    7.17834E+003   -1.60269E+005   -3.79090E+004   -1.60269E+005    1.67447E+005    6.36665E+004   -1.33509E+005   -3.79309E+004    3.92739E+003   -1.56996E+005    5.52926E+002   -1.65715E+003    2.30944E+004
            7072    1.39823E+005    7.53633E+003   -1.48767E+005   -3.55801E+004   -1.48767E+005    1.56303E+005    5.89370E+004   -1.23483E+005   -3.56018E+004   -4.50342E+003   -1.36706E+005    3.71766E+002   -1.52861E+003    4.16728E+004
            7073    1.39249E+005    2.30646E+004   -1.34284E+005   -2.69526E+004   -1.34284E+005    1.57349E+005    4.60573E+004   -1.16296E+005   -2.69691E+004   -9.74897E+002   -1.10228E+005    6.32129E+002   -1.18951E+003    5.66061E+004
            7074    1.64605E+005    4.25187E+004   -1.45340E+005   -2.63763E+004   -1.45340E+005    1.87859E+005    4.30659E+004   -1.25404E+005   -2.63849E+004   -8.30930E+003   -9.45034E+004    1.23443E+003   -7.89793E+002    8.34472E+004
            7075    1.33129E+005    2.82143E+003   -1.45312E+005   -3.56669E+004   -1.45312E+005    1.48133E+005    5.93858E+004   -1.19618E+005   -3.56688E+004    2.54119E+003   -1.45030E+005    2.26404E+001    4.67032E+002    6.43633E+003
            7076    1.15690E+005   -2.56929E+003   -1.30536E+005   -3.33477E+004   -1.30536E+005    1.27967E+005    5.54844E+004   -1.05876E+005   -3.33391E+004   -5.59726E+003   -1.27517E+005    4.89037E+002    3.97126E+002    1.94192E+004
            7077    1.05995E+005    5.01065E+003   -1.13008E+005   -2.59159E+004   -1.13008E+005    1.18019E+005    4.46379E+004   -9.50212E+004   -2.59112E+004   -2.58639E+003   -1.05416E+005    3.31673E+002    4.50790E+002    2.89516E+004
            7078    9.71742E+004    5.51202E+003   -1.02889E+005   -2.35946E+004   -1.02889E+005    1.08401E+005    4.03239E+004   -8.65202E+004   -2.35797E+004   -1.40458E+004   -8.33462E+004    5.49141E+002    3.85612E+002    4.16683E+004
            7079    9.39571E+004    1.78493E+004   -8.83108E+004   -1.58536E+004   -8.83108E+004    1.06160E+005    2.87717E+004   -7.85185E+004   -1.58432E+004   -1.86159E+004   -5.18560E+004    7.89008E+002    3.75160E+001    5.04028E+004
            7080    3.77610E+005   -7.10216E+004   -4.93382E+005   -1.88403E+005   -4.93382E+005    4.22361E+005    2.50936E+005   -3.32690E+005   -1.88391E+005   -9.09541E+004   -4.73461E+005    1.40359E+003   -4.55470E+002    8.95312E+004
            7081    3.89352E+005   -1.50182E+004   -4.54796E+005   -1.54031E+005   -4.54796E+005    4.39778E+005    2.07948E+005   -3.26060E+005   -1.54025E+005   -3.60684E+004   -4.33752E+005    1.63840E+003   -1.17199E+003    9.38548E+004
            7082    3.97977E+005    3.08795E+004   -4.21605E+005   -1.25869E+005   -4.21605E+005    4.52485E+005    1.72198E+005   -3.16412E+005   -1.25865E+005    8.18120E+003   -3.98911E+005    1.66362E+003   -1.15898E+003    9.87429E+004
            7083    3.60538E+005    7.73535E+004   -3.34976E+005   -7.90549E+004   -3.34976E+005    4.12329E+005    1.12226E+005   -2.66420E+005   -7.90517E+004    4.95927E+004   -3.07218E+005    1.75379E+003   -1.13137E+003    1.03300E+005
            7084    3.07433E+005    8.05172E+004   -2.71540E+005   -5.60518E+004   -2.71540E+005    3.52057E+005    8.23581E+004   -2.22012E+005   -5.60564E+004    4.02975E+004   -2.31315E+005    1.66596E+003   -1.25889E+003    1.11975E+005
            7085    2.37009E+005    4.43759E+004   -2.24951E+005   -4.82118E+004   -2.24951E+005    2.69327E+005    7.62624E+004   -1.89386E+005   -4.82183E+004    2.85474E+004   -2.09116E+005    6.26591E+002   -1.05284E+003    6.33407E+004
            7086    2.16008E+005    1.61490E+004   -2.26539E+005   -5.53291E+004   -2.26539E+005    2.42688E+005    8.85729E+004   -1.86474E+005   -5.53409E+004    9.31968E+003   -2.19697E+005    8.14357E+002   -1.53715E+003    4.01206E+004
            7087    2.09488E+005    1.18992E+004   -2.22129E+005   -5.21196E+004   -2.22129E+005    2.34028E+005    8.74497E+004   -1.85487E+005   -5.21309E+004    1.08201E+004   -2.21038E+005    4.78518E+002   -1.48946E+003    1.58378E+004
            7088    2.06229E+005   -3.54196E+003   -2.31747E+005   -5.87173E+004   -2.31747E+005    2.28205E+005    9.80019E+004   -1.88521E+005   -5.87334E+004   -3.63023E+003   -2.31642E+005    1.10273E+002   -1.67499E+003    4.48437E+003
            7089    2.91482E+005    3.33333E+004   -2.97046E+005   -7.61862E+004   -2.97046E+005    3.30379E+005    1.13300E+005   -2.38107E+005   -7.61838E+004    1.81565E+004   -2.81872E+005    6.96965E+002   -3.19931E+002    6.91568E+004
            7090    2.49784E+005    1.84884E+004   -2.62388E+005   -6.51729E+004   -2.62388E+005    2.80876E+005    1.03024E+005   -2.14688E+005   -6.51628E+004    1.48836E+004   -2.58793E+005    1.13973E+003   -6.78099E+002    3.15564E+004
            7091    2.26234E+005   -2.44244E+003   -2.53529E+005   -6.55488E+004   -2.53529E+005    2.51087E+005    1.07174E+005   -2.04986E+005   -6.55479E+004   -3.35774E+003   -2.52615E+005    3.85969E+002   -4.43780E+002    1.51153E+004
            7092    2.24744E+005    6.12632E+003   -2.43184E+005   -5.61321E+004   -2.43184E+005    2.49310E+005    9.77298E+004   -2.03948E+005   -5.61328E+004    6.11719E+003   -2.43174E+005    2.46476E+002   -5.60721E+002    1.42825E+003
            7093    3.12354E+005    1.31234E+004   -3.39647E+005   -9.82244E+004   -3.39647E+005    3.52771E+005    1.41583E+005   -2.61762E+005   -9.82245E+004   -6.10220E+001   -3.26463E+005    2.55878E+002   -2.73039E+002    6.69112E+004
            7094    2.81180E+005   -6.03540E+003   -3.20605E+005   -9.37020E+004   -3.20605E+005    3.14570E+005    1.40114E+005   -2.47511E+005   -9.36928E+004   -1.35323E+004   -3.13118E+005    1.19257E+003   -7.38873E+002    4.79384E+004
            7095    2.54554E+005    2.72163E+003   -2.80945E+005   -7.24193E+004   -2.80945E+005    2.83667E+005    1.16881E+005   -2.27522E+005   -7.24196E+004    1.93003E+003   -2.80153E+005    1.22318E+002   -3.05288E+002    1.49627E+004
            7096    2.22575E+005   -8.64424E+003   -2.53539E+005   -6.35678E+004   -2.53539E+005    2.44895E+005    1.08584E+005   -2.06486E+005   -6.35674E+004   -8.77439E+003   -2.53409E+005    2.78097E+002   -4.07940E+002    5.61554E+003
            7097    3.61651E+005   -2.01029E+004   -4.26720E+005   -1.41018E+005   -4.26720E+005    4.06617E+005    1.95947E+005   -3.11040E+005   -1.41018E+005   -4.44468E+004   -4.02375E+005    1.27099E+002   -3.19828E+002    9.64675E+004
            7098    3.01858E+005   -1.97694E+004   -3.56906E+005   -1.11703E+005   -3.56906E+005    3.37136E+005    1.62793E+005   -2.67532E+005   -1.11694E+005   -3.07568E+004   -3.45927E+005    1.17164E+003   -6.40088E+002    5.98303E+004
            7099    2.77491E+005   -2.20973E+004   -3.29848E+005   -9.87190E+004   -3.29848E+005    3.07751E+005    1.50222E+005   -2.51993E+005   -9.87190E+004   -2.84002E+004   -3.23545E+005    9.16314E+000   -1.35893E+002    4.35892E+004
            7100    2.50345E+005    5.68610E+003   -2.72557E+005   -6.55508E+004   -2.72557E+005    2.78243E+005    1.10807E+005   -2.25798E+005   -6.55500E+004    5.33355E+003   -2.72205E+005    2.70845E+002   -2.02382E+002    9.88433E+003
            7101    3.44444E+005   -6.49785E+004   -4.48854E+005   -1.66797E+005   -4.48854E+005    3.83875E+005    2.26876E+005   -3.07754E+005   -1.66797E+005   -1.01536E+005   -4.12295E+005    6.00565E+001    6.09485E+002    1.12681E+005
            7102    3.59771E+005   -3.64999E+004   -4.39146E+005   -1.49267E+005   -4.39146E+005    4.02646E+005    2.08304E+005   -3.16181E+005   -1.49254E+005   -7.44617E+004   -4.01197E+005    1.05819E+003    7.71552E+002    1.17639E+005
            7103    3.22482E+005   -1.05226E+004   -3.71754E+005   -1.12852E+005   -3.71754E+005    3.61231E+005    1.65043E+005   -2.82331E+005   -1.12859E+005   -2.20174E+004   -3.60252E+005   -8.61437E+001    1.39031E+003    6.34031E+004
            7104    2.66868E+005   -2.10180E+004   -3.16884E+005   -9.43441E+004   -3.16884E+005    2.95866E+005    1.44082E+005   -2.42605E+005   -9.43519E+004   -2.43304E+004   -3.13563E+005    2.94417E+002    1.58481E+003    3.11155E+004
            7105    3.55855E+005    1.57256E+004   -3.86512E+005   -1.12683E+005   -3.86512E+005    4.02238E+005    1.61156E+005   -2.96572E+005   -1.12685E+005    1.11523E+004   -3.81937E+005    1.22104E+002    8.07261E+002    4.26440E+004
            7106    4.86143E+005   -7.88147E+004   -6.25095E+005   -2.40069E+005   -6.25095E+005    5.46281E+005    3.14660E+005   -4.19313E+005   -2.40086E+005   -1.30644E+005   -5.73249E+005    1.27115E+001    3.15804E+003    1.60071E+005
            7107    4.15092E+005   -2.82840E+004   -4.95299E+005   -1.68390E+005   -4.95299E+005    4.67015E+005    2.30658E+005   -3.55743E+005   -1.68391E+005   -8.55042E+004   -4.38078E+005    5.12477E+001    6.68498E+002    1.53128E+005
            7108    3.77927E+005   -6.65329E+004   -4.90657E+005   -1.89613E+005   -4.90657E+005    4.24124E+005    2.48934E+005   -3.28068E+005   -1.89609E+005   -1.80898E+005   -3.76296E+005    2.08405E+002    2.60739E+003    1.88196E+005
            7109    3.41757E+005   -6.39732E+004   -4.45043E+005   -1.65700E+005   -4.45043E+005    3.81070E+005    2.24906E+005   -3.04797E+005   -1.65697E+005   -1.30048E+005   -3.78971E+005    4.60762E+002    3.62157E+002    1.44265E+005
            7110    3.40745E+005   -9.55836E+004   -4.74998E+005   -1.95064E+005   -4.74998E+005    3.79414E+005    2.55215E+005   -3.05420E+005   -1.95065E+005   -1.78945E+005   -3.91636E+005    8.59501E+001    2.25100E+003    1.57081E+005
            7111    3.54091E+005   -8.99299E+004   -4.83531E+005   -1.90869E+005   -4.83531E+005    3.93601E+005    2.54776E+005   -3.19236E+005   -1.90868E+005   -1.44245E+005   -4.29216E+005    1.73030E+002    2.26362E+002    1.35750E+005
            7112    3.34531E+005   -1.07416E+005   -4.78857E+005   -2.01298E+005   -4.78857E+005    3.71442E+005    2.62523E+005   -3.02698E+005   -2.01293E+005   -1.85450E+005   -4.00827E+005    2.77745E+002    1.64724E+003    1.51302E+005
            7113    3.14766E+005   -1.36416E+005   -4.82681E+005   -2.13877E+005   -4.82681E+005    3.46265E+005    2.77658E+005   -2.92145E+005   -2.13875E+005   -1.92374E+005   -4.26725E+005    2.15189E+002    8.00085E+002    1.27452E+005
            7114    2.86562E+005   -1.51518E+005   -4.64075E+005   -2.13727E+005   -4.64075E+005    3.12557E+005    2.76440E+005   -2.70737E+005   -2.13726E+005   -1.88880E+005   -4.26713E+005    1.06157E+002    5.48387E+002    1.01397E+005
            7115    3.45894E+005   -1.08463E+005   -4.91825E+005   -2.03099E+005   -4.91825E+005    3.83362E+005    2.67796E+005   -3.14733E+005   -2.03097E+005   -1.53670E+005   -4.46620E+005    3.21512E+002    5.68815E+002    1.23637E+005
            7116    3.27175E+005   -1.28401E+005   -4.89164E+005   -2.11670E+005   -4.89164E+005    3.60763E+005    2.76412E+005   -3.01923E+005   -2.11670E+005   -1.63006E+005   -4.54559E+005    7.07828E+001    5.65451E+002    1.06238E+005
            7117    2.91528E+005   -1.73974E+005   -4.88155E+005   -2.26391E+005   -4.88155E+005    3.14181E+005    2.96174E+005   -2.80631E+005   -2.26391E+005   -1.92937E+005   -4.69193E+005    2.65741E+002   -2.01243E+002    7.48188E+004
            7118    3.44134E+005   -1.29815E+005   -5.08925E+005   -2.16243E+005   -5.08925E+005    3.79110E+005    2.84994E+005   -3.18313E+005   -2.16242E+005   -1.50281E+005   -4.88460E+005    5.35382E+002   -4.33842E+002    8.56701E+004
            7119    1.04425E+005    5.78100E+004   -6.26676E+004   -6.73439E+003   -6.26676E+004    1.20478E+005    3.86399E+003    5.19909E+004   -6.73548E+003   -5.58258E+004    5.09693E+004    3.93161E+002    1.65768E+002    2.78788E+004
            7120    8.43813E+004    5.79985E+004    5.79985E+004    1.09939E+003   -3.89498E+004    9.69483E+004   -6.71604E+003    5.62070E+004    1.09532E+003   -3.88752E+004    5.79280E+004    4.07995E+002   -1.00089E+002    2.61032E+003
            7121    7.36530E+004    6.35761E+004    6.35761E+004    8.99237E+003   -2.01979E+004    8.37740E+004   -1.74569E+004    5.83282E+004    8.98527E+003   -1.84411E+004    6.18264E+004    4.45455E+002    1.07134E+002   -1.19792E+004
            7122    6.37327E+004    6.49101E+004    6.49101E+004    1.38191E+004   -6.50627E+003    7.14164E+004   -2.40743E+004    5.57086E+004    1.38108E+004   -2.18603E+003    6.05982E+004    5.00074E+002   -1.58785E+002   -1.70061E+004
            7123    7.33599E+004    8.07903E+004    8.07903E+004    1.96654E+004   -5.60800E+002    8.13511E+004   -3.32983E+004    6.66406E+004    1.96506E+004    6.01082E+002    7.96432E+004    6.14414E+002   -2.61036E+002   -9.58320E+003
            7124    9.36994E+004    1.05306E+005    1.05306E+005    2.74804E+004    1.30111E+003    1.04005E+005   -4.46958E+004    8.48680E+004    2.74803E+004    1.37337E+003    1.05234E+005    1.51484E+002   -2.23330E+002   -2.72506E+003
            7125    7.80378E+004    8.07842E+004    8.07842E+004    1.78234E+004   -6.52507E+003    8.73092E+004   -3.06942E+004    6.86782E+004    1.78124E+004   -5.89119E+003    8.01613E+004    5.68503E+002    5.87259E+002   -7.32036E+003
            7126    9.98406E+004    1.09339E+005    1.09339E+005    2.78968E+004   -2.04717E+003    1.11386E+005   -4.50628E+004    8.88633E+004    2.79074E+004   -2.02335E+003    1.09304E+005    1.50773E+002    9.74004E+002   -1.59720E+003
            7127    8.39145E+004    7.70639E+004    7.70639E+004    1.32525E+004   -1.79902E+004    9.50541E+004   -2.41087E+004    6.88755E+004    1.32462E+004   -1.77353E+004    7.68154E+004    4.50840E+002    5.82732E+001    4.85336E+003
            7128    9.81874E+004    1.05838E+005    1.05838E+005    2.67813E+004   -4.07057E+003    1.09908E+005   -4.28494E+004    8.62262E+004    2.67810E+004   -3.90767E+003    1.05675E+005    1.68141E+002    2.10948E+002    4.21733E+003
            7129    9.12965E+004    7.18271E+004    7.18271E+004    6.91254E+003   -3.25651E+004    1.04392E+005   -1.53915E+004    6.76643E+004    6.91588E+003   -2.37314E+004    6.29901E+004    4.90170E+002    5.02028E+002    2.90487E+004
            7130    8.70998E+004    9.12984E+004    9.12984E+004    2.14145E+004   -6.28186E+003    9.75803E+004   -3.54770E+004    7.62047E+004    2.14246E+004   -4.78632E+003    8.97928E+004    2.04204E+002    8.35060E+002    1.19854E+004
            7131    6.71061E+004    6.73899E+004    6.73899E+004    1.32325E+004   -7.68324E+003    7.50731E+004   -2.43130E+004    5.90762E+004    1.32358E+004   -2.95271E+003    6.26560E+004    2.37076E+002    4.21576E+002    1.82397E+004
            7132    4.83260E+004    3.72171E+004    3.72171E+004   -7.43004E+002   -1.71843E+004    5.44014E+004   -6.42990E+003    4.12912E+004   -7.39940E+002   -3.21536E+003    2.32450E+004    2.64147E+002    2.71144E+002    2.37641E+004
            7133    1.01604E+005    6.97405E+004    6.97405E+004    1.65749E+003   -4.70477E+004    1.16788E+005   -8.11677E+003    6.66768E+004    1.65951E+003   -1.89171E+004    4.16079E+004    5.20259E+002    3.00698E+002    4.99370E+004
            7134    1.08142E+005    6.54235E+004    6.54235E+004   -4.28825E+003   -5.91536E+004    1.24577E+005   -6.60564E+002    6.37268E+004   -4.28605E+003   -8.16116E+003    1.44289E+004    6.50407E+002    2.02850E+002    6.12523E+004
            7135    1.49191E+005    8.58561E+004   -8.63312E+004   -4.90138E+003   -8.63312E+004    1.72187E+005    1.79215E+003    6.77531E+004   -4.90035E+003   -1.19190E+004    1.14429E+004    6.98850E+002    1.29778E+002    8.52946E+004
            7136    1.82617E+005    1.01138E+005   -1.09718E+005   -6.15980E+003   -1.09718E+005    2.10856E+005    4.91330E+003    5.71885E+004   -6.15919E+003   -1.70103E+004    8.42960E+003    5.84683E+002    9.56097E+001    1.04656E+005
            7137    2.11353E+005    1.16253E+005   -1.27797E+005   -6.01224E+003   -1.27797E+005    2.44049E+005    5.85207E+003    3.18125E+004   -6.01201E+003   -1.88289E+004    7.28474E+003    4.01159E+002    5.59590E+001    1.21323E+005
            7138    2.37037E+005    1.30979E+005   -1.42726E+005   -5.27808E+003   -1.42726E+005    2.73705E+005    5.67489E+003   -4.64664E+004   -5.27803E+003   -1.71589E+004    5.41227E+003    2.29127E+002    2.62987E+001    1.36386E+005
            7139    1.41800E+005    7.87648E+004   -8.49169E+004   -6.74947E+003   -8.49169E+004    1.63682E+005    4.30055E+003    6.04947E+004   -6.74739E+003   -4.00788E+004    3.39245E+004    5.62221E+002    2.91880E+002    7.29960E+004
            7140    1.83157E+005    9.27576E+004   -1.18732E+005   -1.22209E+004   -1.18732E+005    2.11489E+005    1.27317E+004   -4.25629E+004   -1.22198E+004   -5.39797E+004    2.80043E+004    3.89255E+002    2.16366E+002    9.74752E+004
            7141    2.17317E+005    1.07753E+005   -1.43156E+005   -1.44888E+004   -1.43156E+005    2.50908E+005    1.66306E+004   -7.69156E+004   -1.44880E+004   -5.78725E+004    2.24687E+004    2.10213E+002    2.33844E+002    1.18848E+005
            7142    2.46035E+005    1.24067E+005   -1.59992E+005   -1.39570E+004   -1.59992E+005    2.84059E+005    1.66273E+004   -8.99232E+004   -1.39567E+004   -5.52880E+004    1.93626E+004    6.03881E+001    2.69648E+002    1.37037E+005
            7143    2.63767E+005    1.17556E+005   -1.86850E+005   -2.59582E+004   -1.86850E+005    3.04407E+005    3.17507E+004   -1.21889E+005   -2.59584E+004   -1.12020E+005    4.27262E+004   -1.27419E+002    1.02032E+002    1.31070E+005
            7144    2.16703E+005    9.06219E+004   -1.59434E+005   -2.63899E+004   -1.59434E+005    2.50055E+005    3.17339E+004   -1.04073E+005   -2.63899E+004   -1.11783E+005    4.29708E+004   -6.42860E+001    1.01162E+001    9.82078E+004
            7145    1.73383E+005    7.48335E+004   -1.25306E+005   -2.07993E+004   -1.25306E+005    2.00139E+005    2.37573E+004   -7.36681E+004   -2.07989E+004   -9.52147E+004    4.47418E+004    1.07572E+002    1.58798E+002    7.15329E+004
            7146    1.30913E+005    6.57427E+004   -8.54173E+004   -1.09428E+004   -8.54173E+004    1.51160E+005    1.02058E+004    3.84474E+004   -1.09436E+004   -6.89627E+004    4.92888E+004    2.74474E+002    2.28599E+000    4.70787E+004
            7147    9.11284E+004    1.01031E+005    1.01031E+005    2.46795E+004    1.47578E+002    1.00883E+005   -4.19527E+004    8.31994E+004    2.47019E+004    1.57523E+002    1.00998E+005    1.50690E+002    1.34094E+003   -9.45227E+002
            7148    6.66487E+004    7.81395E+004    7.81395E+004    2.00304E+004    5.38651E+003    7.27530E+004   -3.45188E+004    6.28744E+004    1.99948E+004    5.64656E+003    7.79151E+004    7.98428E+002    9.32913E+002   -3.90915E+003
            7149    4.97941E+004    5.80236E+004    5.80236E+004    1.43769E+004    3.78604E+003    5.42375E+004   -2.53955E+004    4.71591E+004    1.43395E+004    8.27561E+003    5.35714E+004    5.67797E+002    3.05472E+002   -1.48817E+004
            7150    9.13016E+004    1.03466E+005    1.03466E+005    2.61100E+004    2.75509E+003    1.00711E+005   -4.41102E+004    8.41785E+004    2.61082E+004    2.81407E+003    1.03408E+005    2.18976E+002   -1.65205E+002    2.39226E+003
            7151    6.85041E+004    7.96172E+004    7.96172E+004    2.00057E+004    4.78191E+003    7.48353E+004   -3.48016E+004    6.45313E+004    1.99479E+004    5.13546E+003    7.93215E+004    9.29557E+002   -1.52103E+002    4.69240E+003
            7152    3.21767E+004    4.70614E+004    4.70614E+004    1.60143E+004    1.38631E+004    3.31983E+004   -2.56463E+004    3.20143E+004    1.41540E+004    1.57524E+004    4.70323E+004    7.35627E+002    1.43044E+001   -9.54372E+002
            7153    1.04665E+005    1.15390E+005    1.15390E+005    2.76077E+004   -4.42296E+002    1.15832E+005   -4.75183E+004    9.56451E+004    2.76630E+004   -1.35272E+002    1.15027E+005    2.20033E+002    2.20061E+003    5.95022E+003
            7154    7.97501E+004    9.18157E+004    9.18157E+004    2.28201E+004    4.49943E+003    8.73163E+004   -3.97117E+004    7.47923E+004    2.28321E+004    7.92313E+003    8.83800E+004    1.20033E+003    1.67537E+003    1.68452E+004
            7155    4.56700E+004    5.69530E+004    5.69530E+004    1.43709E+004    8.72090E+003    4.82321E+004   -2.66816E+004    4.48736E+004    1.43413E+004    1.90638E+004    4.66397E+004    1.02736E+003    7.27697E+002    1.97318E+004
            7156    2.43590E+005    1.46634E+005    1.46634E+005    5.25014E+003   -1.34638E+005    2.81272E+005   -5.74904E+003    5.10718E+004    5.25007E+003    1.76781E+004   -5.68110E+003    2.06255E+002   -2.89195E+001    1.40150E+005
            7157    2.53872E+005    1.64107E+005    1.64107E+005    1.35560E+004   -1.29003E+005    2.93109E+005   -1.62199E+004    9.17496E+004    1.35558E+004    5.45769E+004   -1.94730E+004    4.58913E+001   -2.37876E+002    1.41800E+005
            7158    2.68280E+005    1.89195E+005    1.89195E+005    2.56699E+004   -1.20425E+005    3.09619E+005   -3.14799E+004    1.23400E+005    2.56701E+004    1.11208E+005   -4.24385E+004   -1.52812E+002   -2.83907E+001    1.34403E+005
            7159    2.65316E+005    1.57610E+005    1.57610E+005    3.67947E+003   -1.48749E+005    3.06359E+005   -4.18037E+003    5.41372E+004    3.67946E+003    1.30737E+004   -4.21208E+003    1.17435E+002   -5.27413E+000    1.52935E+005
            7160    2.80483E+005    1.75533E+005    1.75533E+005    1.02955E+004   -1.48319E+005    3.23852E+005   -1.25031E+004    9.21061E+004    1.02955E+004    4.22695E+004   -1.50558E+004   -3.66726E+001   -2.33192E+002    1.59369E+005
            7161    3.10181E+005    2.05698E+005    2.05698E+005    1.97342E+004   -1.52378E+005    3.58077E+005   -2.43513E+004    1.25943E+005    1.97344E+004    8.96862E+004   -3.63665E+004   -1.66566E+002   -5.37371E+001    1.67578E+005
            7162    2.81031E+005    1.64678E+005    1.64678E+005    1.94709E+003   -1.59828E+005    3.24506E+005   -2.26589E+003    4.83889E+004    1.94708E+003    7.10457E+003   -2.25400E+003    8.68190E+001   -2.45397E+000    1.62186E+005
            7163    2.99302E+005    1.79535E+005    1.79535E+005    5.05658E+003   -1.66063E+005    3.45599E+005   -6.17624E+003    7.67066E+004    5.05664E+003    2.14976E+004   -8.02554E+003   -5.47657E+001   -1.06188E+002    1.72168E+005
            7164    3.39835E+005    2.10706E+005    2.10706E+005    1.06549E+004   -1.81677E+005    3.92382E+005   -1.32280E+004    1.10165E+005    1.06549E+004    4.98639E+004   -2.08349E+004   -1.68024E+002   -8.01691E+000    1.92980E+005
            7165    2.85706E+005    1.64539E+005   -1.65365E+005   -3.21393E+002   -1.65365E+005    3.29905E+005    3.82571E+002   -2.82194E+004   -3.21387E+002   -1.25408E+003    4.27751E+002    7.98107E+001    6.81005E+000    1.64950E+005
            7166    3.05138E+005    1.75389E+005   -1.76954E+005   -5.78211E+002   -1.76954E+005    3.52343E+005    7.14295E+002   -3.84891E+004   -5.78204E+002   -2.79749E+003    1.23281E+003   -6.43115E+001   -1.03988E+001    1.76160E+005
            7167    3.50418E+005    2.01596E+005   -2.03033E+005   -5.06340E+002   -2.03033E+005    4.04628E+005    6.47811E+002   -4.27581E+004   -5.06331E+002   -2.32113E+003    8.84025E+002   -1.65587E+002   -5.89351E+000    2.02308E+005
            7168    2.77527E+005    1.57446E+005   -1.63013E+005   -2.25662E+003   -1.63013E+005    3.20460E+005    2.60778E+003   -4.95574E+004   -2.25662E+003   -8.35259E+003    2.78588E+003    8.73136E+001    7.47519E-001    1.60133E+005
            7169    2.95262E+005    1.61872E+005   -1.79058E+005   -6.44174E+003   -1.79058E+005    3.40930E+005    7.87604E+003   -8.25553E+004   -6.44183E+003   -2.72927E+004    1.01064E+004   -5.61736E+001    1.55394E+002    1.69436E+005
            7170    3.38001E+005    1.79899E+005   -2.10364E+005   -1.12321E+004   -2.10364E+005    3.90262E+005    1.38990E+004   -1.11085E+005   -1.12322E+004   -5.29181E+004    2.24534E+004   -1.62958E+002    4.74128E+001    1.91457E+005
            7171    2.59517E+005    1.44847E+005   -1.54816E+005   -4.15237E+003   -1.54816E+005    2.99663E+005    4.70706E+003   -5.51902E+004   -4.15235E+003   -1.46320E+004    4.66317E+003    1.36375E+002    1.63680E+001    1.49520E+005
            7172    2.73558E+005    1.43528E+005   -1.72325E+005   -1.09206E+004   -1.72325E+005    3.15852E+005    1.32391E+004   -9.20758E+004   -1.09206E+004   -4.47140E+004    1.59172E+004   -1.90616E+001    2.05600E+002    1.54989E+005
            7173    3.06645E+005    1.49226E+005   -2.04758E+005   -2.05136E+004   -2.04758E+005    3.53984E+005    2.53484E+004   -1.26915E+005   -2.05137E+004   -9.26044E+004    3.70728E+004   -1.78855E+002    2.40988E+001    1.64688E+005
            7174    2.13839E+005    1.90619E+005    1.90619E+005    3.62156E+004   -5.34560E+004    2.44075E+005   -5.77929E+004    1.62669E+005    3.62290E+004   -1.25962E+004    1.49746E+005    2.77783E+003    1.78969E+003    9.10711E+004
            7175    1.76403E+005    1.81659E+005    1.81659E+005    4.10656E+004   -1.62815E+004    1.97941E+005   -6.88144E+004    1.53223E+005    4.10421E+004   -7.85423E+003    1.73255E+005    2.51859E+003    2.13071E+003    3.97879E+004
            7176    1.83747E+005    2.05583E+005    2.05583E+005    5.19871E+004    2.02043E+003    2.03562E+005   -8.65301E+004    1.67409E+005    5.20234E+004    2.77915E+003    2.04788E+005    5.94061E+002    2.45531E+003    1.23710E+004
            7177    1.50720E+005    1.36953E+005    1.36953E+005    2.53176E+004   -3.44919E+004    1.71444E+005   -4.25928E+004    1.19263E+005    2.53455E+004    4.98873E+003    9.74440E+004    2.20894E+003    1.53835E+003    7.21442E+004
            7178    1.39400E+005    1.47847E+005    1.47847E+005    3.48044E+004   -7.91367E+003    1.55760E+005   -5.82458E+004    1.23331E+005    3.48555E+004    2.78869E+003    1.37093E+005    1.95310E+003    2.66334E+003    3.93291E+004
            7179    1.56610E+005    1.71266E+005    1.71266E+005    4.20544E+004   -2.90745E+003    1.74173E+005   -7.01376E+004    1.40955E+005    4.21365E+004   -2.06536E+003    1.70342E+005    3.94801E+002    3.24814E+003    1.20740E+004
            7180    9.57975E+004    9.57645E+004    9.57645E+004    1.98838E+004   -1.18806E+004    1.07645E+005   -3.45892E+004    8.26393E+004    1.98776E+004    1.93240E+004    6.45661E+004    1.51465E+003    5.90924E+002    4.88096E+004
            7181    1.05813E+005    1.14823E+005    1.14823E+005    2.71726E+004   -2.72065E+003    1.17544E+005   -4.64251E+004    9.55984E+004    2.71211E+004    4.53515E+003    1.07619E+005    1.61556E+003    7.04410E+002    2.81599E+004
            7182    1.24115E+005    1.40145E+005    1.40145E+005    3.58119E+004    2.88718E+003    1.37258E+005   -5.96147E+004    1.13651E+005    3.58157E+004    3.65782E+003    1.39371E+005    3.83255E+002    8.22755E+002    1.02348E+004
            7183    7.86443E+004    5.82783E+003   -8.20931E+004   -1.84515E+004   -8.20931E+004    8.79210E+004    3.15723E+004   -6.94297E+004   -1.84628E+004    3.98828E+003   -8.02423E+004    1.82206E+002   -8.33941E+002    1.25824E+004
            7184    9.26371E+004    1.71465E+003   -1.01707E+005   -2.63404E+004   -1.01707E+005    1.03422E+005    4.21109E+004   -8.22323E+004   -2.63416E+004    1.21707E+003   -1.01208E+005    1.42271E+002   -3.52344E+002    7.15271E+003
            7185    1.03772E+005    3.28157E+003   -1.12766E+005   -2.88889E+004   -1.12766E+005    1.16047E+005    4.61243E+004   -9.15009E+004   -2.88996E+004    3.23960E+003   -1.12713E+005    1.26242E+002   -9.58370E+002    2.19678E+003
            7186    1.02057E+005   -1.02129E+003   -1.14660E+005   -3.08147E+004   -1.14660E+005    1.13638E+005    4.88319E+004   -9.14782E+004   -3.08143E+004   -1.03364E+003   -1.14648E+005    1.12810E+002    3.31357E+001   -1.16406E+003
            7187    1.00480E+005    1.74031E+003   -1.10108E+005   -2.74695E+004   -1.10108E+005    1.11848E+005    4.52790E+004   -9.01593E+004   -2.74833E+004    1.70475E+003   -1.10059E+005    1.48485E+002   -1.10759E+003   -1.96669E+003
            7188    8.34907E+004    2.29403E+004   -7.19518E+004   -9.76378E+003   -7.19518E+004    9.48921E+004    1.95917E+004   -6.66046E+004   -9.77245E+003    1.01062E+004   -5.91089E+004    4.33709E+002   -6.54220E+002    3.24493E+004
            7189    8.46543E+004    1.55254E+004   -8.01087E+004   -1.47718E+004   -8.01087E+004    9.56341E+004    2.64517E+004   -7.08169E+004   -1.47699E+004    1.21103E+004   -7.66955E+004    3.69612E+002   -2.34681E+002    1.77376E+004
            7190    8.55543E+004    6.92205E+003   -8.88911E+004   -2.01421E+004   -8.88911E+004    9.58132E+004    3.40371E+004   -7.49751E+004   -2.01462E+004    6.72390E+003   -8.86889E+004    3.81230E+002   -7.50409E+002    4.30330E+003
            7191    8.82155E+004    5.02053E+003   -9.35911E+004   -2.21769E+004   -9.35911E+004    9.86116E+004    3.69158E+004   -7.79103E+004   -2.21727E+004    4.83153E+003   -9.34063E+004    3.49786E+002    1.07905E+002   -4.26278E+003
            7192    8.36880E+004   -1.74417E+003   -9.43211E+004   -2.40364E+004   -9.43211E+004    9.25769E+004    4.00339E+004   -7.65693E+004   -2.40404E+004   -2.09513E+003   -9.39661E+004    3.49370E+002   -9.16520E+002   -5.62903E+003
            7193    1.06100E+005    5.08485E+004   -7.12053E+004   -9.97490E+002   -7.12053E+004    1.22054E+005    7.11809E+003   -6.74568E+004   -1.00275E+003    2.82869E+004   -4.86384E+004    5.78892E+002   -5.04285E+002    4.73747E+004
            7194    9.00672E+004    3.26777E+004   -7.03413E+004   -6.48605E+003   -7.03413E+004    1.03019E+005    1.47166E+004   -6.64127E+004   -6.48168E+003    2.62112E+004   -6.38792E+004    4.86885E+002   -9.72123E+001    2.49771E+004
            7195    8.21057E+004    1.99388E+004   -7.31633E+004   -1.11091E+004   -7.31633E+004    9.31021E+004    2.14445E+004   -6.68414E+004   -1.11086E+004    1.97083E+004   -7.29332E+004    4.75935E+002   -5.88130E+002    4.56226E+003
            7196    7.55014E+004    6.33287E+003   -7.81339E+004   -1.72061E+004   -7.81339E+004    8.44668E+004    2.96690E+004   -6.64614E+004   -1.71990E+004    5.81731E+003   -7.76254E+004    4.47197E+002    1.92229E+002   -6.52828E+003
            7197    7.34084E+004    2.41788E+003   -7.90561E+004   -1.80636E+004   -7.90561E+004    8.14740E+004    3.15673E+004   -6.65103E+004   -1.80517E+004    1.19198E+003   -7.78421E+004    5.54068E+002   -7.92345E+002   -9.83501E+003
            7198    1.30886E+005    7.99309E+004    7.99309E+004    7.77427E+003   -7.11532E+004    1.51084E+005   -5.51732E+003   -5.58099E+004    7.77259E+003    5.39894E+004   -4.52100E+004    4.32328E+002   -3.06778E+002    5.69754E+004
            7199    1.02139E+005    5.52985E+004   -6.24014E+004    2.96330E+003   -6.24014E+004    1.17700E+005    1.37985E+003   -5.87507E+004    2.96675E+003    4.91258E+004   -5.62321E+004    4.44234E+002    6.58424E+000    2.62302E+004
            7200    8.17072E+004    2.97908E+004   -6.36401E+004   -5.56324E+003   -6.36401E+004    9.34308E+004    1.31375E+004   -6.05216E+004   -5.55526E+003    2.96413E+004   -6.34986E+004    5.94849E+002   -2.86597E+002    3.61099E+003
            7201    7.35130E+004    1.61668E+004   -6.70925E+004   -1.11422E+004   -6.70925E+004    8.32593E+004    2.06893E+004   -6.04070E+004   -1.11327E+004    1.46092E+004   -6.55445E+004    6.47410E+002    3.48845E+002   -1.12335E+004
            7202    6.13317E+004    3.44511E+002   -6.75294E+004   -1.60877E+004   -6.75294E+004    6.78740E+004    2.77576E+004   -5.60494E+004   -1.60447E+004   -2.35891E+003   -6.48691E+004    7.81895E+002   -4.47052E+002   -1.31633E+004
            7203    6.37473E+004    1.08611E+004   -6.09994E+004   -1.12569E+004   -6.09994E+004    7.18605E+004    2.04650E+004   -5.40437E+004   -1.12420E+004    4.78376E+003   -5.49369E+004    5.55923E+002   -1.48521E+002   -1.99701E+004
            7204    7.40613E+004    2.54175E+004   -5.92153E+004   -6.26658E+003   -5.92153E+004    8.46327E+004    1.33548E+004   -5.54128E+004   -6.26181E+003    2.38122E+004   -5.76148E+004    4.66860E+002    1.92771E+002   -1.15231E+004
            7205    8.85659E+004    4.82732E+004   -5.37683E+004    3.13139E+003   -5.37683E+004    1.02042E+005    7.87904E+002   -5.16176E+004    3.13429E+003    4.82680E+004   -5.37660E+004    3.62344E+002   -1.20005E+001    4.82036E+002
            7206    1.10551E+005    7.34730E+004    7.34730E+004    1.11278E+004   -5.41688E+004    1.27642E+005   -1.01440E+004   -3.78192E+004    1.11294E+004    6.96365E+004   -5.03340E+004    3.05357E+002    1.07713E+002    2.17892E+004
            7207    1.40954E+005    1.00216E+005    1.00216E+005    1.69466E+004   -6.25287E+004    1.62745E+005   -1.82113E+004    4.83532E+004    1.69466E+004    8.39592E+004   -4.62718E+004    2.55853E+002   -1.13743E+002    4.87992E+004
            7208    1.77820E+005    1.28215E+005    1.28215E+005    2.08588E+004   -7.70417E+004    2.05256E+005   -2.40105E+004    7.65193E+004    2.08588E+004    9.71789E+004   -4.60061E+004    6.85283E+001   -8.24933E+000    7.35325E+004
            7209    2.22415E+005    1.62209E+005    1.62209E+005    2.59759E+004   -9.44513E+004    2.56660E+005   -3.12446E+004    1.05399E+005    2.59760E+004    1.11338E+005   -4.35800E+004   -6.15308E+001   -9.68337E+001    1.02317E+005
            7210    2.24380E+005    1.48065E+005    1.48065E+005    1.49238E+004   -1.10993E+005    2.59058E+005   -1.73316E+004    8.16994E+004    1.49231E+004    6.03577E+004   -2.32860E+004    1.57121E+002   -2.46081E+002    1.22591E+005
            7211    2.18660E+005    1.32262E+005    1.32262E+005    5.96311E+003   -1.20224E+005    2.52487E+005   -6.00031E+003    2.00039E+004    5.96291E+003    1.91335E+004   -7.09550E+003    3.42124E+002   -5.46025E+001    1.25560E+005
            7212    1.89002E+005    1.23707E+005    1.23707E+005    1.31094E+004   -9.45269E+004    2.18234E+005   -1.40966E+004    5.41387E+004    1.31082E+004    5.77367E+004   -2.85551E+004    3.47230E+002   -2.32200E+002    1.00224E+005
            7213    1.91845E+005    1.15435E+005    1.15435E+005    6.05174E+003   -1.06082E+005    2.21518E+005   -5.13490E+003   -5.33489E+004    6.05122E+003    1.79796E+004   -8.62612E+003    5.22817E+002   -8.88018E+001    1.09956E+005
            7214    1.64369E+005    9.69872E+004    9.69872E+004    5.58907E+003   -9.27674E+004    1.89755E+005   -3.26962E+003   -6.55631E+004    5.58783E+003    1.44590E+004   -1.02380E+004    6.93095E+002   -1.42245E+002    9.40676E+004
            7215    1.30282E+005    7.46565E+004   -7.56311E+004    5.30147E+003   -7.56311E+004    1.50288E+005   -1.44229E+003   -6.64930E+004    5.29997E+003    1.04025E+004   -1.13756E+004    7.25742E+002   -1.58076E+002    7.43470E+004
            7216    8.95170E+004    4.69505E+004   -5.59586E+004    3.89745E+003   -5.59586E+004    1.02909E+005    1.70357E+003   -5.84413E+004    3.89532E+003    3.68083E+003   -1.26869E+004    5.95525E+002   -1.87895E+002    5.07959E+004
            7217    3.92298E+004    1.39811E+004   -2.97233E+004    2.44510E+003   -2.97233E+004    4.37044E+004    4.43234E+003   -3.50984E+004    2.44240E+003    2.59723E+003   -1.83366E+004    2.31736E+002   -2.37553E+002    1.91802E+004
            7218    1.54171E+005    9.50634E+004    9.50634E+004    8.38179E+003   -8.29378E+004    1.78001E+005   -6.83580E+003   -5.48822E+004    8.38072E+003    4.21646E+004   -3.00379E+004    4.89636E+002   -2.04362E+002    8.13482E+004
            7219    1.20191E+005    6.36762E+004   -7.48532E+004    1.69267E+003   -7.48532E+004    1.38529E+005    3.16143E+003   -6.79690E+004    1.69124E+003    2.02069E+004   -3.13824E+004    6.27310E+002   -2.32574E+002    6.42791E+004
            7220    8.73977E+004    3.59567E+004   -6.41350E+004   -2.92678E+003   -6.41350E+004    1.00092E+005    1.03684E+004   -6.30148E+004   -2.92926E+003    9.11187E+003   -3.72877E+004    4.94134E+002   -3.01435E+002    4.43401E+004
            7221    5.59137E+004    5.12311E+003   -5.68915E+004   -1.03282E+004   -5.68915E+004    6.20146E+004    2.06988E+004   -5.07672E+004   -1.03314E+004    4.42579E+002   -5.22077E+004    2.04833E+002   -3.80122E+002    1.63800E+004
            7222    2.50749E+005    2.97846E+005    2.97846E+005    8.38950E+004    2.19216E+004    2.75925E+005   -1.34554E+005    2.32563E+005    8.38928E+004    2.47676E+004    2.95003E+005    4.41454E+002   -7.12330E+002    2.78571E+004
            7223    2.39677E+005    2.60822E+005    2.60822E+005    6.06117E+004   -4.75901E+003    2.65581E+005   -1.05558E+005    2.18230E+005    6.06073E+004   -4.60670E+003    2.60674E+005    6.64264E+002    6.19528E+002    6.22202E+003
            7224    2.20889E+005    2.48094E+005    2.48094E+005    6.03884E+004    4.68490E+003    2.43409E+005   -1.04389E+005    2.04170E+005    6.04240E+004    4.89063E+003    2.47853E+005    6.89267E+002    2.79652E+003    6.95749E+003
            7225    2.11738E+005    2.29020E+005    2.29020E+005    5.41692E+004   -6.40289E+003    2.35423E+005   -9.22621E+004    1.90735E+005    5.42264E+004   -6.13877E+003    2.28699E+005    6.39166E+002    3.26834E+003    7.81042E+003
            7226    3.02667E+005    3.57528E+005    3.57528E+005    1.10479E+005    1.99180E+004    3.37610E+005   -1.62642E+005    2.69561E+005    1.10449E+005    3.02144E+004    3.47261E+005    1.75944E+003    2.81710E+002    5.79646E+004
            7227    2.71460E+005    3.08923E+005    3.08923E+005    8.79068E+004    5.91949E+003    3.03004E+005   -1.34250E+005    2.41152E+005    8.78558E+004    1.19774E+004    3.02916E+005    2.44127E+003    1.20272E+003    4.21960E+004
            7228    2.41038E+005    2.53617E+005    2.53617E+005    6.10708E+004   -1.67080E+004    2.70325E+005   -9.93265E+004    2.09887E+005    6.10355E+004   -1.39563E+004    2.50900E+005    2.74010E+003    2.61622E+003    2.67438E+004
            7229    2.09832E+005    2.19694E+005    2.19694E+005    5.24324E+004   -1.57489E+004    2.35443E+005   -8.54594E+004    1.82289E+005    5.24338E+004   -9.20319E+003    2.13147E+005    2.61275E+003    2.91989E+003    3.85119E+004
            7230    2.72451E+005    2.42892E+005    2.42892E+005    4.83954E+004   -6.85009E+004    3.11393E+005   -7.42622E+004    2.03333E+005    4.84091E+004   -3.78254E+004    2.12203E+005    3.06896E+003    2.38977E+003    9.27268E+004
            7231    3.26593E+005    3.14749E+005    3.14749E+005    7.62586E+004   -5.74886E+004    3.72237E+005   -1.11173E+005    2.52945E+005    7.62673E+004   -3.22862E+004    2.89538E+005    2.95828E+003    2.57389E+003    9.34483E+004
            7232    3.52066E+005    3.69367E+005    3.69367E+005    1.04825E+005   -3.02309E+004    3.99598E+005   -1.47987E+005    2.84342E+005    1.04813E+005   -1.19757E+004    3.51124E+005    2.60221E+003    1.86851E+003    8.33554E+004
            7233    3.95592E+005    4.55702E+005    4.55702E+005    1.49122E+005    9.15504E+003    4.46547E+005   -2.04660E+005    3.32615E+005    1.49109E+005    3.36669E+004    4.31203E+005    2.21318E+003    1.38126E+003    1.01659E+005
            7234    3.60456E+005    4.79107E+005    4.79107E+005    1.83591E+005    7.75164E+004    4.01591E+005   -2.46738E+005    3.22434E+005    1.83569E+005    1.03175E+005    4.53471E+005    1.91012E+003    6.85357E+002    9.81629E+004
            7235    3.35997E+005    4.99448E+005    4.99448E+005    2.12229E+005    1.29956E+005    3.69492E+005   -2.80544E+005    3.12104E+005    2.12219E+005    1.48762E+005    4.80653E+005    1.09085E+003    4.52013E+002    8.11836E+004
            7236    2.97774E+005    4.96037E+005    4.96037E+005    2.28872E+005    1.75006E+005    3.21031E+005   -2.99972E+005    2.86504E+005    2.28865E+005    1.96095E+005    4.74955E+005    5.72832E+002   -2.22866E+002    7.95200E+004
            7237    2.51211E+005    4.49966E+005    4.49966E+005    2.17416E+005    1.83534E+005    2.66432E+005   -2.83639E+005    2.45991E+005    2.17409E+005    2.11168E+005    4.22339E+005    3.46597E+002   -5.57912E+002    8.12224E+004
            7238    2.92084E+005    4.50083E+005    4.50083E+005    1.99570E+005    1.29261E+005    3.20822E+005   -2.59638E+005    2.72050E+005    1.99563E+005    1.57443E+005    4.21908E+005    5.40744E+002   -8.61236E+002    9.07996E+004
            7239    2.49196E+005    4.26442E+005    4.26442E+005    2.03062E+005    1.57671E+005    2.68772E+005   -2.62392E+005    2.39629E+005    2.03061E+005    1.80268E+005    4.03846E+005    2.12491E+002   -1.45134E+003    7.45686E+004
            7240    3.26328E+005    4.86914E+005    4.86914E+005    2.09890E+005    1.27194E+005    3.59720E+005   -2.74666E+005    3.01370E+005    2.09880E+005    1.62366E+005    4.51752E+005    6.87714E+002   -1.07526E+003    1.06822E+005
            7241    2.93937E+005    4.74785E+005    4.74785E+005    2.17930E+005    1.54215E+005    3.20569E+005   -2.82310E+005    2.77755E+005    2.17931E+005    1.93487E+005    4.35512E+005    2.18187E+002   -2.19139E+003    1.05083E+005
            7242    3.55401E+005    5.03229E+005    5.03229E+005    2.06668E+005    1.09289E+005    3.93940E+005   -2.73062E+005    3.23283E+005    2.06649E+005    1.56341E+005    4.56195E+005    1.05157E+003   -1.21033E+003    1.27728E+005
            7243    3.23569E+005    4.79685E+005    4.79685E+005    2.07177E+005    1.22069E+005    3.57616E+005   -2.69644E+005    2.96779E+005    2.07174E+005    1.88320E+005    4.13438E+005    2.82782E+002   -3.24495E+003    1.38895E+005
            7244    3.40403E+005    4.53721E+005    4.53721E+005    1.73102E+005    7.50550E+004    3.78666E+005   -2.33959E+005    3.06134E+005    1.73069E+005    1.29311E+005    3.99498E+005    1.37433E+003   -1.64192E+003    1.32624E+005
            7245    3.33623E+005    4.77177E+005    4.77177E+005    1.99343E+005    1.07152E+005    3.70025E+005   -2.61224E+005    3.02917E+005    1.99340E+005    1.82168E+005    4.02164E+005    2.90468E+002   -4.17402E+003    1.48702E+005
            7246    3.62688E+005    4.74359E+005    4.74359E+005    1.83167E+005    6.80946E+004    4.06264E+005   -2.41873E+005    3.17545E+005    1.83160E+005    1.75712E+005    3.66748E+005    2.22763E+002   -4.47125E+003    1.79216E+005
            7247    4.52619E+005    5.82690E+005    5.82690E+005    2.22027E+005    7.47827E+004    5.07908E+005   -2.93167E+005    3.93051E+005    2.22079E+005    1.27547E+005    5.29874E+005    1.20313E+002   -5.58362E+003    1.54919E+005
            7248    3.89518E+005    4.75399E+005    4.75399E+005    1.63337E+005    3.88543E+004    4.36544E+005   -2.25863E+005    3.40249E+005    1.63320E+005    9.43611E+004    4.19909E+005    1.12988E+003   -3.10282E+003    1.45378E+005
            7249    3.27031E+005    3.56252E+005    3.56252E+005    9.96690E+004   -1.19836E+004    3.68235E+005   -1.47979E+005    2.79045E+005    9.97469E+004   -7.60624E+003    3.51796E+005    4.61963E+002   -4.78979E+003    3.98652E+004
            7250    4.78423E+004   -3.26089E+003   -5.54913E+004   -1.37919E+004   -5.54913E+004    5.22304E+004    2.41814E+004   -4.51226E+004   -1.37555E+004   -8.61988E+003   -5.01687E+004    7.32676E+002    1.51384E+002   -1.57893E+004
            7251    5.35792E+004   -3.75658E+003   -6.22140E+004   -1.54415E+004   -6.22140E+004    5.84574E+004    2.71374E+004   -5.05919E+004   -1.54021E+004   -5.50821E+003   -6.05017E+004    8.19532E+002    4.32129E+002   -9.83329E+003
            7252    6.50120E+004   -6.67584E+003   -7.74935E+004   -2.05161E+004   -7.74935E+004    7.08177E+004    3.48951E+004   -6.15651E+004   -2.04888E+004   -6.99706E+003   -7.71996E+004    6.63806E+002    3.32919E+002   -4.53284E+003
            7253    8.34557E+004    1.18695E+002   -9.23250E+004   -2.25345E+004   -9.23250E+004    9.24437E+004    3.82469E+004   -7.60641E+004   -2.25310E+004    3.29359E+001   -9.22428E+004    3.28577E+002    2.54208E+002   -2.73871E+003
            7254    9.31138E+004   -2.58939E+003   -1.05581E+005   -2.73492E+004   -1.05581E+005    1.02991E+005    4.51730E+004   -8.52228E+004   -2.73489E+004   -2.59486E+003   -1.05575E+005    1.78793E+002    2.71736E+002   -6.58117E+002
            7255    2.53364E+004   -1.13877E+004   -3.88186E+004   -1.62944E+004   -3.88186E+004    2.74309E+004    2.21669E+004   -2.42327E+004   -1.15896E+004   -1.72547E+004   -3.76563E+004    8.92412E+002   -4.45725E+002   -5.00181E+003
            7256    4.44630E+004   -1.37814E+004   -5.99521E+004   -1.74202E+004   -5.99521E+004    4.61706E+004    3.03846E+004   -4.41262E+004   -1.71987E+004   -1.43711E+004   -5.95839E+004    1.00819E+003   -9.95408E+002    3.94060E+003
            7257    6.70207E+004   -4.19763E+003   -7.72023E+004   -1.84623E+004   -7.72023E+004    7.30047E+004    3.32874E+004   -6.34690E+004   -1.84486E+004   -4.43480E+003   -7.69789E+004    8.72156E+002   -1.31962E+003    3.73515E+003
            7258    8.17556E+004   -4.84539E+003   -9.44286E+004   -2.38471E+004   -9.44286E+004    8.95832E+004    4.10404E+004   -7.65471E+004   -2.38753E+004   -5.02258E+003   -9.42232E+004    3.76561E+002   -1.51599E+003    3.92238E+003
            7259    9.85179E+004    1.95686E+003   -1.07270E+005   -2.51253E+004   -1.07270E+005    1.09226E+005    4.34793E+004   -8.95517E+004   -2.51601E+004    1.93911E+003   -1.07217E+005    2.38209E+002   -1.72867E+003    1.32213E+003
            7260    4.61258E+004   -7.40010E+003   -5.66177E+004   -1.43792E+004   -5.66177E+004    4.92176E+004    2.61324E+004   -4.49148E+004   -1.42615E+004   -2.36475E+004   -4.04880E+004    1.23306E+003   -1.01385E+002    2.30451E+004
            7261    6.01006E+004   -4.63030E+003   -7.00205E+004   -1.71966E+004   -7.00205E+004    6.53902E+004    3.06158E+004   -5.70313E+004   -1.70733E+004   -1.13830E+004   -6.33911E+004    1.28553E+003    9.37274E+001    1.97131E+004
            7262    7.72391E+004   -6.50002E+003   -9.08422E+004   -2.35578E+004   -9.08422E+004    8.43421E+004    4.03000E+004   -7.28180E+004   -2.34860E+004   -1.04196E+004   -8.69944E+004    1.14013E+003   -1.05352E+001    1.75889E+004
            7263    9.64768E+004    9.36235E+002   -1.05926E+005   -2.52354E+004   -1.05926E+005    1.06862E+005    4.34084E+004   -8.79431E+004   -2.52277E+004   -1.62061E+002   -1.04836E+005    4.86214E+002   -1.65758E+002    1.07368E+004
            7264    1.05687E+005   -3.24338E+003   -1.19971E+005   -3.07710E+004   -1.19971E+005    1.16727E+005    5.13284E+004   -9.71185E+004   -3.07681E+004   -3.39079E+003   -1.19826E+005    3.04113E+002   -1.73919E+002    4.10004E+003
            7265    2.48873E+005   -1.82814E+005   -4.46711E+005   -2.16239E+005   -4.46711E+005    2.63896E+005    2.81921E+005   -2.43747E+005   -2.16233E+005   -2.11543E+005   -4.17988E+005    2.69674E+002    7.15825E+002    8.21842E+004
            7266    2.79747E+005   -1.24449E+005   -4.31713E+005   -1.91767E+005   -4.31713E+005    3.07264E+005    2.49310E+005   -2.60572E+005   -1.91762E+005   -1.51961E+005   -4.04206E+005    4.39095E+002    8.36944E+002    8.77187E+004
            7267    2.36846E+005   -1.54167E+005   -4.09100E+005   -1.95884E+005   -4.09100E+005    2.54933E+005    2.53051E+005   -2.28360E+005   -1.95884E+005   -1.72498E+005   -3.90769E+005    1.83866E+002    1.22747E+003    6.58448E+004
            7268    2.18160E+005   -1.33795E+005   -3.69011E+005   -1.73309E+005   -3.69011E+005    2.35216E+005    2.25371E+005   -2.09881E+005   -1.73302E+005   -1.86514E+005   -3.16298E+005    2.32389E+002    7.54682E+002    9.80791E+004
            7269    2.16300E+005   -9.47291E+004   -3.32655E+005   -1.47895E+005   -3.32655E+005    2.37926E+005    1.91759E+005   -2.00794E+005   -1.47890E+005   -1.19633E+005   -3.07755E+005    3.81509E+002    5.55419E+002    7.28278E+004
            7270    1.68287E+005   -1.24201E+005   -3.03513E+005   -1.49003E+005   -3.03513E+005    1.79312E+005    1.92239E+005   -1.64099E+005   -1.49002E+005   -1.31571E+005   -2.96144E+005    1.82838E+002    6.27975E+002    3.55890E+004
            7271    2.13241E+005   -1.87196E+004   -2.59881E+005   -9.62614E+004   -2.59881E+005    2.41162E+005    1.24954E+005   -1.77075E+005   -9.62578E+004   -1.09083E+005   -1.69522E+005    2.66288E+002    5.83436E+002    1.16730E+005
            7272    1.39935E+005   -3.22233E+004   -1.89001E+005   -7.67400E+004   -1.89001E+005    1.56778E+005    9.93215E+004   -1.22414E+005   -7.67365E+004   -6.31939E+004   -1.58034E+005    2.93167E+002    3.18808E+002    6.24169E+004
            7273    8.38999E+004   -6.54708E+004   -1.54407E+005   -7.66684E+004   -1.54407E+005    8.89364E+004    9.88488E+004   -8.21935E+004   -7.66666E+004   -6.74581E+004   -1.52422E+005    1.28568E+002    1.87517E+002    1.31380E+004
            7274    2.14572E+005    1.32706E+005    1.32706E+005    6.12748E+003   -1.15041E+005    2.47747E+005   -7.93107E+003    7.20225E+004    6.12698E+003    6.42600E+003    1.12402E+004    2.81916E+002   -1.03913E+002    1.23850E+005
            7275    1.02586E+005    7.33608E+004    7.33608E+004    9.86744E+003   -4.49902E+004    1.18351E+005   -1.27460E+004    5.14257E+004    9.86667E+003    8.90476E+003    1.94667E+004    2.69819E+002   -6.27730E+001    5.89387E+004
            7276    1.63211E+004    2.57145E+004    2.57145E+004    1.16885E+004    7.80046E+003    1.79140E+004   -1.50678E+004    1.52259E+004    1.16853E+004    1.06212E+004    2.28970E+004    1.13974E+002   -1.97260E+001    6.52110E+003
            7277    2.13108E+005    2.72916E+005    2.72916E+005    1.05616E+005    3.29863E+004    2.39929E+005   -1.37173E+005    1.81964E+005    1.05612E+005    1.19135E+005    1.86772E+005    2.84872E+002   -5.82758E+002    1.15097E+005
            7278    1.55110E+005    2.22788E+005    2.22788E+005    9.46709E+004    5.03387E+004    1.72449E+005   -1.22599E+005    1.39754E+005    9.46666E+004    7.80455E+004    1.95085E+005    3.33181E+002   -3.61106E+002    6.33220E+004
            7279    1.05620E+005    1.95847E+005    1.95847E+005    9.76183E+004    8.41308E+004    1.11716E+005   -1.25865E+005    1.03656E+005    9.76164E+004    8.68574E+004    1.93122E+005    1.45926E+002   -2.96270E+002    1.72299E+004
            7280    2.23473E+005    3.81432E+005    3.81432E+005    1.80056E+005    1.41010E+005    2.40422E+005   -2.34166E+005    2.15597E+005    1.80050E+005    1.91631E+005    3.30817E+005    1.89264E+002   -8.83039E+002    9.80114E+004
            7281    2.28437E+005    3.55762E+005    3.55762E+005    1.59403E+005    1.05052E+005    2.50710E+005   -2.06739E+005    2.13148E+005    1.59400E+005    1.29495E+005    3.31323E+005    3.32427E+002   -6.64143E+002    7.43605E+004
            7282    1.87141E+005    3.36464E+005    3.36464E+005    1.64868E+005    1.36922E+005    1.99543E+005   -2.12752E+005    1.82357E+005    1.64867E+005    1.46000E+005    3.27387E+005    1.72207E+002   -7.17407E+002    4.15733E+004
            7283    1.92375E+005    5.12050E+003   -2.08890E+005   -5.03296E+004   -2.08890E+005    2.14010E+005    8.46996E+004   -1.72978E+005   -5.04320E+004    4.92050E+003   -2.08587E+005    5.15540E+002   -4.06885E+003    6.49229E+003
            7284    1.76237E+005    2.20054E+003   -1.93680E+005   -4.79653E+004   -1.93680E+005    1.95881E+005    7.98151E+004   -1.58943E+005   -4.80542E+004   -6.59552E+002   -1.90732E+005    1.11798E+003   -3.66405E+003    2.34534E+004
            7285    1.80158E+005    2.12120E+004   -1.81360E+005   -3.90804E+004   -1.81360E+005    2.02572E+005    6.64094E+004   -1.54891E+005   -3.91410E+004    1.24281E+004   -1.72515E+005    2.17391E+003   -3.29669E+003    4.11667E+004
            7286    1.95313E+005    3.54555E+004   -1.86194E+005   -3.93003E+004   -1.86194E+005    2.21649E+005    6.33463E+004   -1.57944E+005   -3.93553E+004    1.05385E+004   -1.61222E+005    2.91262E+003   -2.95243E+003    6.99391E+004
            7287    2.29614E+005    7.17520E+004   -1.91307E+005   -3.10969E+004   -1.91307E+005    2.63059E+005    5.02172E+004   -1.64383E+005   -3.11164E+004    2.51350E+004   -1.44670E+005    3.34372E+003   -2.02424E+003    1.00383E+005
            7288    1.57757E+005   -3.34572E+003   -1.78155E+005   -4.63799E+004   -1.78155E+005    1.74809E+005    7.59600E+004   -1.43635E+005   -4.63918E+004   -3.71572E+003   -1.77773E+005    5.19949E+002   -1.45835E+003    7.98159E+003
            7289    1.49785E+005    7.04050E+003   -1.60042E+005   -3.77973E+004   -1.60042E+005    1.67083E+005    6.35997E+004   -1.33385E+005   -3.78041E+004    3.80264E+003   -1.56798E+005    8.84125E+002   -1.34982E+003    2.29940E+004
            7290    1.39444E+005    7.09031E+003   -1.48653E+005   -3.53884E+004   -1.48653E+005    1.55743E+005    5.89836E+004   -1.23579E+005   -3.53493E+004   -4.97336E+003   -1.36628E+005    1.98761E+003   -1.07241E+003    4.15240E+004
            7291    1.38931E+005    2.30895E+004   -1.34000E+005   -2.72798E+004   -1.34000E+005    1.57090E+005    4.60636E+004   -1.15531E+005   -2.72406E+004   -8.27333E+002   -1.10123E+005    2.41959E+003   -9.23389E+002    5.63482E+004
            7292    1.64168E+005    4.24033E+004   -1.44915E+005   -2.60517E+004   -1.44915E+005    1.87318E+005    4.28544E+004   -1.25440E+005   -2.60433E+004   -8.32227E+003   -9.41976E+004    2.56258E+003   -8.58427E+002    8.31917E+004
            7293    1.32879E+005    3.12095E+003   -1.44567E+005   -3.46941E+004   -1.44567E+005    1.47687E+005    5.87132E+004   -1.19847E+005   -3.47732E+004    2.84101E+003   -1.44208E+005    3.70908E+002   -2.96192E+003    6.40424E+003
            7294    1.15515E+005   -2.28012E+003   -1.29907E+005   -3.25208E+004   -1.29907E+005    1.27627E+005    5.49027E+004   -1.06046E+005   -3.25943E+004   -5.27996E+003   -1.26834E+005    6.25055E+002   -2.63784E+003    1.93248E+004
            7295    1.05758E+005    5.07409E+003   -1.12465E+005   -2.50055E+004   -1.12465E+005    1.17539E+005    4.41321E+004   -9.53981E+004   -2.50635E+004   -2.51008E+003   -1.04823E+005    1.45291E+003   -2.34739E+003    2.88256E+004
            7296    9.69580E+004    5.87372E+003   -1.02280E+005   -2.31437E+004   -1.02280E+005    1.08154E+005    3.98499E+004   -8.63472E+004   -2.31962E+004   -1.35285E+004   -8.28251E+004    1.72470E+003   -1.85232E+003    4.14573E+004
            7297    9.36260E+004    1.78523E+004   -8.78482E+004   -1.53413E+004   -8.78482E+004    1.05701E+005    2.84457E+004   -7.86514E+004   -1.53650E+004   -1.84566E+004   -5.15155E+004    1.90297E+003   -1.00124E+003    5.01574E+004
            7298    3.77538E+005   -7.08861E+004   -4.93029E+005   -1.87716E+005   -4.93029E+005    4.22143E+005    2.50544E+005   -3.33072E+005   -1.87714E+005   -9.07372E+004   -4.73180E+005    1.20947E+003   -1.02911E+003    8.93458E+004
            7299    3.89177E+005   -1.47877E+004   -4.54321E+005   -1.53523E+005   -4.54321E+005    4.39533E+005    2.07544E+005   -3.26140E+005   -1.53517E+005   -3.58385E+004   -4.33276E+005    1.73661E+003   -1.28381E+003    9.38253E+004
            7300    3.97950E+005    3.10144E+004   -4.21284E+005   -1.24896E+005   -4.21284E+005    4.52299E+005    1.71722E+005   -3.17427E+005   -1.24894E+005    8.36292E+003   -3.98634E+005    2.53469E+003   -2.15270E+003    9.85935E+004
            7301    3.59945E+005    7.75382E+004   -3.34066E+005   -7.82956E+004   -3.34066E+005    4.11605E+005    1.11608E+005   -2.66478E+005   -7.82991E+004    4.97725E+004   -3.06297E+005    3.13389E+003   -2.46816E+003    1.03162E+005
            7302    3.07172E+005    8.05159E+004   -2.71155E+005   -5.53138E+004   -2.71155E+005    3.51671E+005    8.19843E+004   -2.22856E+005   -5.53062E+004    4.03157E+004   -2.30962E+005    3.48128E+003   -1.97037E+003    1.11821E+005
            7303    2.37002E+005    4.43583E+004   -2.24931E+005   -4.80707E+004   -2.24931E+005    2.69290E+005    7.62146E+004   -1.89573E+005   -4.80275E+004    2.85926E+004   -2.09209E+005    3.60403E+003   -2.22103E+003    6.30245E+004
            7304    2.16136E+005    1.56098E+004   -2.26826E+005   -5.42910E+004   -2.26826E+005    2.42436E+005    8.85024E+004   -1.88062E+005   -5.42637E+004    8.72823E+003   -2.19972E+005    2.42622E+003   -2.01288E+003    4.00814E+004
            7305    2.09806E+005    1.18436E+004   -2.22279E+005   -5.12872E+004   -2.22279E+005    2.34122E+005    8.72407E+004   -1.86571E+005   -5.12943E+004    1.07588E+004   -2.21187E+005    1.48542E+003   -2.35028E+003    1.56933E+004
            7306    2.06612E+005   -4.03667E+003   -2.32141E+005   -5.75497E+004   -2.32141E+005    2.28104E+005    9.79090E+004   -1.90060E+005   -5.75805E+004   -4.13099E+003   -2.32016E+005    6.04960E+002   -2.51272E+003    4.49297E+003
            7307    2.90809E+005    3.38930E+004   -2.95782E+005   -7.56647E+004   -2.95782E+005    3.29675E+005    1.12518E+005   -2.37221E+005   -7.56598E+004    1.87001E+004   -2.80594E+005    3.52584E+003   -3.11431E+003    6.89548E+004
            7308    2.49166E+005    1.85572E+004   -2.61345E+005   -6.37337E+004   -2.61345E+005    2.79902E+005    1.02174E+005   -2.15245E+005   -6.37369E+004    1.48794E+004   -2.57664E+005    2.13537E+003   -2.69526E+003    3.16966E+004
            7309    2.25815E+005   -1.80591E+003   -2.52266E+005   -6.42297E+004   -2.52266E+005    2.50460E+005    1.06100E+005   -2.05014E+005   -6.42456E+004   -2.73698E+003   -2.51319E+005    1.63187E+003   -2.96400E+003    1.49620E+004
            7310    2.24124E+005    6.06286E+003   -2.42098E+005   -5.44275E+004   -2.42098E+005    2.48160E+005    9.68207E+004   -2.04515E+005   -5.44752E+004    6.04921E+003   -2.42036E+005    4.84761E+002   -3.09799E+003    1.58069E+003
            7311    3.12660E+005    1.30504E+004   -3.39819E+005   -9.72881E+004   -3.39819E+005    3.52870E+005    1.41352E+005   -2.63181E+005   -9.72435E+004   -1.06208E+002   -3.26707E+005    3.55462E+003   -2.40926E+003    6.66392E+004
            7312    2.82036E+005   -6.48535E+003   -3.21389E+005   -9.20262E+004   -3.21389E+005    3.14904E+005    1.39967E+005   -2.50255E+005   -9.20087E+004   -1.40191E+004   -3.13873E+005    1.82855E+003   -1.39870E+003    4.80257E+004
            7313    2.55566E+005    2.86571E+003   -2.81414E+005   -7.06947E+004   -2.81414E+005    2.84279E+005    1.16414E+005   -2.29877E+005   -7.06685E+004    2.05869E+003   -2.80633E+005    1.76081E+003   -1.51174E+003    1.47608E+004
            7314    2.23792E+005   -9.54524E+003   -2.54724E+005   -6.14363E+004   -2.54724E+005    2.45179E+005    1.08569E+005   -2.09605E+005   -6.14430E+004   -9.68276E+003   -2.54580E+005    4.03361E+002   -1.33646E+003    5.74829E+003
            7315    3.61111E+005   -1.95314E+004   -4.25479E+005   -1.40005E+005   -4.25479E+005    4.05947E+005    1.95005E+005   -3.10821E+005   -1.39960E+005   -4.39200E+004   -4.01135E+005    3.06304E+003   -1.26630E+003    9.63480E+004
            7316    3.01542E+005   -1.97070E+004   -3.56173E+005   -1.10350E+005   -3.56173E+005    3.36466E+005    1.62077E+005   -2.68223E+005   -1.10331E+005   -3.08032E+004   -3.45096E+005    1.29874E+003    1.06331E+002    6.00360E+004
            7317    2.77213E+005   -2.13103E+004   -3.28540E+005   -9.71139E+004   -3.28540E+005    3.07230E+005    1.48988E+005   -2.52269E+005   -9.70796E+004   -2.75949E+004   -3.22290E+005    1.57462E+003    3.92469E+002    4.33700E+004
            7318    2.49954E+005    5.20028E+003   -2.71962E+005   -6.36479E+004   -2.71962E+005    2.77163E+005    1.10137E+005   -2.27108E+005   -6.36507E+004    4.82680E+003   -2.71586E+005    2.91551E+002    9.60880E+002    1.01463E+004
            7319    3.44844E+005   -6.48431E+004   -4.48785E+005   -1.65389E+005   -4.48785E+005    3.83942E+005    2.26339E+005   -3.09194E+005   -1.65352E+005   -1.01282E+005   -4.12383E+005    2.28934E+003   -4.46631E+002    1.12464E+005
            7320    3.60347E+005   -3.69461E+004   -4.39651E+005   -1.47624E+005   -4.39651E+005    4.02705E+005    2.08074E+005   -3.18601E+005   -1.47615E+005   -7.48430E+004   -4.01764E+005    8.65458E+002    9.46323E+002    1.17563E+005
            7321    3.23351E+005   -1.01597E+004   -3.71882E+005   -1.10875E+005   -3.71882E+005    3.61722E+005    1.64306E+005   -2.84716E+005   -1.10856E+005   -2.15773E+004   -3.60484E+005    1.33561E+003    1.45415E+003    6.31742E+004
            7322    2.67907E+005   -2.19772E+004   -3.17977E+005   -9.21179E+004   -3.17977E+005    2.96000E+005    1.44024E+005   -2.45944E+005   -9.21390E+004   -2.53027E+004   -3.14630E+005    1.17677E+002    2.29951E+003    3.11879E+004
            7323    3.55526E+005    1.55643E+004   -3.85944E+005   -1.11082E+005   -3.85944E+005    4.01508E+005    1.60487E+005   -2.98037E+005   -1.11208E+005    1.09910E+004   -3.81245E+005    1.88309E+002    6.07314E+003    4.25733E+004
            7324    4.85612E+005   -7.86008E+004   -6.24118E+005   -2.38991E+005   -6.24118E+005    5.45517E+005    3.13903E+005   -4.19494E+005   -2.39049E+005   -1.30312E+005   -5.72350E+005    1.29342E+002    5.92938E+003    1.59748E+005
            7325    4.14816E+005   -2.79063E+004   -4.94395E+005   -1.67006E+005   -4.94395E+005    4.66489E+005    2.29769E+005   -3.56377E+005   -1.67016E+005   -8.50741E+004   -4.37217E+005    8.45941E+002    4.85112E+003    1.52901E+005
            7326    3.77588E+005   -6.65246E+004   -4.90094E+005   -1.88789E+005   -4.90094E+005    4.23570E+005    2.48469E+005   -3.28409E+005   -1.88787E+005   -1.80672E+005   -3.75950E+005    1.55465E+002    4.89490E+003    1.87870E+005
            7327    3.41574E+005   -6.37544E+004   -4.44382E+005   -1.64543E+005   -4.44382E+005    3.80627E+005    2.24226E+005   -3.05332E+005   -1.64521E+005   -1.29807E+005   -3.78352E+005    8.83916E+002    3.80245E+003    1.44078E+005
            7328    3.40620E+005   -9.54188E+004   -4.74558E+005   -1.94369E+005   -4.74558E+005    3.79139E+005    2.54782E+005   -3.05687E+005   -1.94359E+005   -1.78669E+005   -3.91318E+005    3.92474E+002    3.85742E+003    1.56894E+005
            7329    3.54097E+005   -8.95601E+004   -4.82971E+005   -1.89802E+005   -4.82971E+005    3.93411E+005    2.54111E+005   -3.19761E+005   -1.89767E+005   -1.43884E+005   -4.28682E+005    1.33806E+003    2.36197E+003    1.35664E+005
            7330    3.34393E+005   -1.07301E+005   -4.78450E+005   -2.00653E+005   -4.78450E+005    3.71149E+005    2.62135E+005   -3.02931E+005   -2.00650E+005   -1.85225E+005   -4.00529E+005    2.36205E+002    3.17518E+003    1.51124E+005
            7331    3.14791E+005   -1.36111E+005   -4.82265E+005   -2.13136E+005   -4.82265E+005    3.46154E+005    2.77171E+005   -2.92439E+005   -2.13133E+005   -1.92057E+005   -4.26322E+005    2.97476E+002    2.92096E+003    1.27384E+005
            7332    2.86656E+005   -1.51327E+005   -4.63888E+005   -2.13266E+005   -4.63888E+005    3.12561E+005    2.76160E+005   -2.70979E+005   -2.13265E+005   -1.88679E+005   -4.26537E+005    2.46473E+002    2.11704E+003    1.01365E+005
            7333    3.45881E+005   -1.08302E+005   -4.91517E+005   -2.02476E+005   -4.91517E+005    3.83215E+005    2.67432E+005   -3.15044E+005   -2.02459E+005   -1.53451E+005   -4.46385E+005    1.02029E+003    1.16524E+003    1.23518E+005
            7334    3.26965E+005   -1.28113E+005   -4.88585E+005   -2.11134E+005   -4.88585E+005    3.60472E+005    2.75944E+005   -3.01853E+005   -2.11123E+005   -1.62645E+005   -4.54064E+005    7.85230E+002    9.51309E+002    1.06072E+005
            7335    2.91701E+005   -1.73689E+005   -4.87923E+005   -2.25772E+005   -4.87923E+005    3.14234E+005    2.95795E+005   -2.80953E+005   -2.25765E+005   -1.92563E+005   -4.69056E+005    6.17117E+002    8.35834E+001    7.46497E+004
            7336    3.44239E+005   -1.29395E+005   -5.08484E+005   -2.15405E+005   -5.08484E+005    3.79089E+005    2.84428E+005   -3.18691E+005   -2.15393E+005   -1.49799E+005   -4.88092E+005    1.18763E+003   -3.80922E+002    8.55203E+004
            7337    1.04766E+005    5.79547E+004   -6.29228E+004   -6.66046E+003   -6.29228E+004    1.20877E+005    3.87621E+003    5.15800E+004   -6.66842E+003   -5.60956E+004    5.11354E+004    7.28427E+002    4.04749E+001    2.78865E+004
            7338    8.48112E+004    5.80831E+004    5.80831E+004    8.65951E+002   -3.93556E+004    9.74387E+004   -6.53116E+003    5.65580E+004    8.45705E+002   -3.92659E+004    5.80137E+004    9.04216E+002    2.66614E+001    2.59922E+003
            7339    7.39259E+004    6.35541E+004    6.35541E+004    8.95802E+003   -2.05726E+004    8.41267E+004   -1.73132E+004    5.82457E+004    8.92076E+003   -1.87753E+004    6.17941E+004    1.15682E+003   -2.97317E+002   -1.20238E+004
            7340    6.40764E+004    6.47756E+004    6.47756E+004    1.34896E+004   -7.05276E+003    7.18284E+004   -2.37375E+004    5.59143E+004    1.33982E+004   -2.63840E+003    6.04527E+004    1.42251E+003    1.70897E+001   -1.70667E+004
            7341    7.35900E+004    8.07685E+004    8.07685E+004    1.88847E+004   -6.04394E+002    8.13729E+004   -3.30163E+004    6.74074E+004    1.88509E+004    6.04413E+002    7.95935E+004    8.14988E+002    8.36809E+002   -9.66874E+003
            7342    9.41104E+004    1.04961E+005    1.04961E+005    2.63310E+004    6.86914E+002    1.04275E+005   -4.39931E+004    8.57058E+004    2.63441E+004    7.65730E+002    1.04870E+005    4.00055E+002    1.27758E+003   -2.72903E+003
            7343    7.80077E+004    8.08572E+004    8.08572E+004    1.77693E+004   -6.36572E+003    8.72229E+004   -3.07536E+004    6.88240E+004    1.77473E+004   -5.71097E+003    8.02244E+004    7.30545E+002    1.64367E+001   -7.40078E+003
            7344    9.98650E+004    1.09221E+005    1.09221E+005    2.77224E+004   -2.17871E+003    1.11400E+005   -4.49216E+004    8.89252E+004    2.77186E+004   -2.15145E+003    1.09198E+005    3.58882E+002    2.14768E+002   -1.59619E+003
            7345    8.42409E+004    7.72008E+004    7.72008E+004    1.26870E+004   -1.81038E+004    9.53046E+004   -2.39280E+004    6.97816E+004    1.26770E+004   -1.78368E+004    7.69439E+004    7.91093E+002    6.98391E+002    4.85915E+003
            7346    9.86316E+004    1.05907E+005    1.05907E+005    2.59262E+004   -4.30094E+003    1.10208E+005   -4.25107E+004    8.72606E+004    2.59426E+004   -4.13550E+003    1.05725E+005    3.45204E+002    1.23177E+003    4.22847E+003
            7347    9.14173E+004    7.18582E+004    7.18582E+004    6.77733E+003   -3.26578E+004    1.04516E+005   -1.53259E+004    6.79005E+004    6.77493E+003   -2.38260E+004    6.30288E+004    8.21995E+002    5.04113E+002    2.90516E+004
            7348    8.71331E+004    9.12326E+004    9.12326E+004    2.11114E+004   -6.31356E+003    9.75462E+004   -3.53435E+004    7.64785E+004    2.11198E+004   -4.81272E+003    8.97234E+004    3.76326E+002    8.38974E+002    1.19949E+004
            7349    6.73162E+004    6.75229E+004    6.75229E+004    1.28709E+004   -7.67114E+003    7.51940E+004   -2.42409E+004    5.96282E+004    1.28931E+004   -2.94586E+003    6.27753E+004    4.16264E+002    1.05487E+003    1.82430E+004
            7350    4.81792E+004    3.70162E+004    3.70162E+004   -7.87552E+002   -1.72324E+004    5.42486E+004   -6.33207E+003    4.11138E+004   -7.82565E+002   -3.25635E+003    2.30351E+004    4.78277E+002    3.62492E+002    2.37194E+004
            7351    1.01742E+005    6.98666E+004    6.98666E+004    1.53601E+003   -4.70608E+004    1.16927E+005   -8.11395E+003    6.71336E+004    1.54867E+003   -1.89679E+004    4.17611E+004    9.50132E+002    7.14967E+002    4.99471E+004
            7352    1.08013E+005    6.53042E+004    6.53042E+004   -4.13395E+003   -5.91394E+004    1.24444E+005   -6.76955E+002    6.30859E+004   -4.13000E+003   -8.16942E+003    1.43303E+004    1.10015E+003    2.75801E+002    6.11861E+004
            7353    1.49144E+005    8.59136E+004   -8.62282E+004   -4.54914E+003   -8.62282E+004    1.72142E+005    1.62124E+003    6.63986E+004   -4.54490E+003   -1.18409E+004    1.15220E+004    1.23747E+003    2.62497E+002    8.52653E+004
            7354    1.82713E+005    1.01382E+005   -1.09589E+005   -5.68209E+003   -1.09589E+005    2.10971E+005    4.62977E+003    5.40695E+004   -5.67967E+003   -1.68584E+004    8.64880E+003    1.02850E+003    1.93592E+002    1.04707E+005
            7355    2.11621E+005    1.16648E+005   -1.27711E+005   -5.53348E+003   -1.27711E+005    2.44359E+005    5.53233E+003    6.14402E+003   -5.53195E+003   -1.86510E+004    7.58599E+003    6.86488E+002    1.71620E+002    1.21471E+005
            7356    2.37478E+005    1.31533E+005   -1.42681E+005   -4.88201E+003   -1.42681E+005    2.74214E+005    5.34348E+003   -4.89250E+004   -4.88111E+003   -1.69387E+004    5.78938E+003    4.00442E+002    1.67306E+002    1.36635E+005
            7357    1.41921E+005    7.88510E+004   -8.49753E+004   -6.58135E+003   -8.49753E+004    1.63826E+005    4.23521E+003    5.96717E+004   -6.57704E+003   -4.01789E+004    3.40503E+004    9.27427E+002    4.26258E+002    7.30154E+004
            7358    1.83348E+005    9.28030E+004   -1.18905E+005   -1.19643E+004   -1.18905E+005    2.11708E+005    1.26888E+004   -4.78545E+004   -1.19620E+004   -5.41440E+004    2.80395E+004    6.33524E+002    3.09353E+002    9.75502E+004
            7359    2.17607E+005    1.07832E+005   -1.43405E+005   -1.42056E+004   -1.43405E+005    2.51237E+005    1.65929E+004   -7.98185E+004   -1.42046E+004   -5.80061E+004    2.24321E+004    2.91432E+002    2.26828E+002    1.19005E+005
            7360    2.46420E+005    1.24139E+005   -1.60358E+005   -1.37272E+004   -1.60358E+005    2.84496E+005    1.66486E+004   -9.27528E+004   -1.37270E+004   -5.54330E+004    1.92141E+004    6.48684E+001    1.35922E+002    1.37264E+005
            7361    2.64235E+005    1.17995E+005   -1.86943E+005   -2.55540E+004   -1.86943E+005    3.04939E+005    3.15007E+004   -1.23104E+005   -2.55547E+004   -1.12035E+005    4.30879E+004   -2.53128E+002    4.67003E+002    1.31266E+005
            7362    2.17153E+005    9.09598E+004   -1.59610E+005   -2.61742E+004   -1.59610E+005    2.50570E+005    3.16082E+004   -1.04797E+005   -2.61734E+004   -1.11912E+005    4.32608E+004   -6.16377E+001    4.58680E+002    9.83689E+004
            7363    1.73797E+005    7.51829E+004   -1.25427E+005   -2.04166E+004   -1.25427E+005    2.00609E+005    2.35534E+004   -7.52405E+004   -2.04162E+004   -9.53458E+004    4.51017E+004    1.81986E+002    1.76740E+002    7.16212E+004
            7364    1.31321E+005    6.59482E+004   -8.56836E+004   -1.09479E+004   -8.56836E+004    1.51632E+005    1.02278E+004    3.82310E+004   -1.09478E+004   -6.92326E+004    4.94970E+004    5.60453E+002    2.82620E+002    4.71538E+004
            7365    9.08891E+004    1.00711E+005    1.00711E+005    2.48567E+004   -2.93745E+001    1.00740E+005   -4.18460E+004    8.26875E+004    2.48474E+004   -1.08688E+001    1.00701E+005    4.82490E+002   -4.38707E+001   -9.60777E+002
            7366    6.62930E+004    7.81708E+004    7.81708E+004    2.03071E+004    5.83842E+003    7.23324E+004   -3.47721E+004    6.25908E+004    2.02579E+004    6.11531E+003    7.79431E+004    8.50696E+002   -8.49167E+001   -4.04805E+003
            7367    4.99316E+004    5.78517E+004    5.78517E+004    1.44824E+004    3.26574E+003    5.45859E+004   -2.51999E+004    4.69698E+004    1.42679E+004    7.97991E+003    5.33519E+004    1.69568E+003   -1.84064E+002   -1.49619E+004
            7368    9.13230E+004    1.02387E+005    1.02387E+005    2.47024E+004    1.78949E+003    1.00598E+005   -4.29597E+004    8.44849E+004    2.47537E+004    1.85519E+003    1.02270E+005    5.49058E+002    2.18226E+003    2.34822E+003
            7369    6.83705E+004    7.91069E+004    7.91069E+004    1.90200E+004    4.71593E+003    7.43910E+004   -3.42809E+004    6.48745E+004    1.89982E+004    5.06013E+003    7.87845E+004    1.08754E+003    1.61060E+003    4.51737E+003
            7370    3.24854E+004    4.67213E+004    4.67213E+004    1.66614E+004    1.22594E+004    3.44619E+004   -2.52141E+004    3.18040E+004    1.36690E+004    1.52996E+004    4.66736E+004    2.03260E+003    5.55715E+002   -1.13083E+003
            7371    1.04312E+005    1.14977E+005    1.14977E+005    2.78300E+004   -6.04237E+002    1.15581E+005   -4.74007E+004    9.49890E+004    2.78223E+004   -2.87585E+002    1.14667E+005    7.51196E+002    8.89884E+002    5.87198E+003
            7372    7.91214E+004    9.17494E+004    9.17494E+004    2.32194E+004    5.15918E+003    8.65903E+004   -4.00427E+004    7.42683E+004    2.31480E+004    8.58079E+003    8.83992E+004    1.40446E+003    7.10709E+002    1.66565E+004
            7373    4.54169E+004    5.64655E+004    5.64655E+004    1.48654E+004    8.01102E+003    4.84545E+004   -2.64473E+004    4.42307E+004    1.42071E+004    1.88165E+004    4.63182E+004    2.62886E+003    4.95369E+002    1.94668E+004
            7374    2.44062E+005    1.46634E+005    1.46634E+005    4.88248E+003   -1.35183E+005    2.81816E+005   -5.44443E+003    5.32067E+004    4.88176E+003    1.74863E+004   -6.03478E+003    3.43384E+002   -1.57780E+002    1.40416E+005
            7375    2.54289E+005    1.64480E+005    1.64480E+005    1.33613E+004   -1.29105E+005    2.93585E+005   -1.62453E+004    9.43121E+004    1.33612E+004    5.47093E+004   -1.93345E+004    1.42312E+001   -1.53434E+002    1.42047E+005
            7376    2.68750E+005    1.89358E+005    1.89358E+005    2.54269E+004   -1.20799E+005    3.10157E+005   -3.13286E+004    1.24190E+005    2.54275E+004    1.11268E+005   -4.27095E+004   -2.51257E+002   -5.24710E+002    1.34617E+005
            7377    2.65887E+005    1.57681E+005    1.57681E+005    3.42793E+003   -1.49338E+005    3.07019E+005   -3.92361E+003    5.40260E+004    3.42760E+003    1.28942E+004   -4.55098E+003    1.95846E+002   -1.31086E+002    1.53261E+005
            7378    2.81006E+005    1.75964E+005    1.75964E+005    1.01592E+004   -1.48487E+005    3.24452E+005   -1.25454E+004    9.46425E+004    1.01593E+004    4.23766E+004   -1.48996E+004   -8.08925E+001   -6.59540E+001    1.59678E+005
            7379    3.10703E+005    2.05865E+005    2.05865E+005    1.94275E+004   -1.52810E+005    3.58676E+005   -2.41609E+004    1.27133E+005    1.94287E+004    8.96811E+004   -3.66272E+004   -3.08526E+002   -4.43645E+002    1.67849E+005
            7380    2.81657E+005    1.64900E+005    1.64900E+005    1.82609E+003   -1.60329E+005    3.25229E+005   -2.13258E+003    4.78291E+004    1.82599E+003    7.01592E+003   -2.44416E+003    1.25285E+002   -6.61368E+001    1.62546E+005
            7381    2.99887E+005    1.79952E+005    1.79952E+005    5.01899E+003   -1.66322E+005    3.46274E+005   -6.21609E+003    7.85378E+004    5.01907E+003    2.15555E+004   -7.92627E+003   -1.22244E+002   -5.00117E+001    1.72508E+005
            7382    3.40403E+005    2.11008E+005    2.11008E+005    1.05957E+004   -1.82030E+005    3.93038E+005   -1.31912E+004    1.10607E+005    1.05965E+004    4.98950E+004   -2.09179E+004   -3.01039E+002   -2.76813E+002    1.93303E+005
            7383    2.86344E+005    1.64906E+005   -1.65736E+005   -3.05297E+002   -1.65736E+005    3.30641E+005    3.78533E+002   -3.00081E+004   -3.05294E+002   -1.25679E+003    4.26481E+002    1.09837E+002    2.10986E+000    1.65318E+005
            7384    3.05747E+005    1.75737E+005   -1.77309E+005   -5.88979E+002   -1.77309E+005    3.53046E+005    7.20058E+002   -3.80618E+004   -5.89024E+002   -2.80213E+003    1.23098E+003   -1.23143E+002    3.18868E+001    1.76511E+005
            7385    3.51020E+005    2.01918E+005   -2.03405E+005   -5.61993E+002   -2.03405E+005    4.05323E+005    6.82886E+002   -4.06217E+004   -5.62053E+002   -2.34090E+003    8.54292E+002   -2.89539E+002    1.97223E+001    2.02655E+005
            7386    2.78144E+005    1.57958E+005   -1.63214E+005   -2.10985E+003   -1.63214E+005    3.21173E+005    2.45528E+003   -4.93595E+004   -2.10971E+003   -8.24193E+003    2.98580E+003    1.33826E+002    8.41385E+001    1.60488E+005
            7387    2.95832E+005    1.62131E+005   -1.79456E+005   -6.35194E+003   -1.79456E+005    3.41587E+005    7.89259E+003   -8.46559E+004   -6.35200E+003   -2.73480E+004    1.00222E+004   -1.16312E+002    4.02107E+001    1.69768E+005
            7388    3.38568E+005    1.80301E+005   -2.10614E+005   -1.10294E+004   -2.10614E+005    3.90915E+005    1.37807E+004   -1.12370E+005   -1.10303E+004   -5.29123E+004    2.26005E+004   -3.07053E+002    2.63684E+002    1.91776E+005
            7389    2.60070E+005    1.45416E+005   -1.54886E+005   -3.86807E+003   -1.54886E+005    3.00301E+005    4.44610E+003   -5.60333E+004   -3.86771E+003   -1.44621E+004    4.99154E+003    2.14631E+002    1.30404E+002    1.49835E+005
            7390    2.74063E+005    1.43691E+005   -1.72739E+005   -1.07904E+004   -1.72739E+005    3.16431E+005    1.32795E+004   -9.43948E+004   -1.07905E+004   -4.48185E+004    1.57706E+004   -7.43322E+001    1.17608E+002    1.55288E+005
            7391    3.07153E+005    1.49596E+005   -2.04971E+005   -2.03359E+004   -2.04971E+005    3.54568E+005    2.52370E+004   -1.27632E+005   -2.03370E+004   -9.26421E+004    3.72682E+004   -2.94160E+002    4.92285E+002    1.64955E+005
            7392    2.12690E+005    1.88758E+005    1.88758E+005    3.50586E+004   -5.39813E+004    2.42739E+005   -5.66116E+004    1.62010E+005    3.50868E+004   -1.32899E+004    1.48038E+005    6.40411E+003    3.74775E+003    9.03865E+004
            7393    1.74787E+005    1.79695E+005    1.79695E+005    3.95358E+004   -1.61514E+004    1.95846E+005   -6.76930E+004    1.52830E+005    3.96827E+004   -7.72122E+003    1.71118E+005    2.91101E+003    4.89234E+003    3.95838E+004
            7394    1.82394E+005    2.02250E+005    2.02250E+005    4.98802E+004    1.47713E+002    2.02102E+005   -8.40925E+004    1.66082E+005    5.00994E+004    9.16747E+002    2.01261E+005    1.37654E+003    5.96690E+003    1.22687E+004
            7395    1.50087E+005    1.36034E+005    1.36034E+005    2.46403E+004   -3.46401E+004    1.70674E+005   -4.20114E+004    1.19117E+005    2.46112E+004    4.65172E+003    9.67714E+004    5.08361E+003    2.16846E+003    7.16214E+004
            7396    1.39017E+005    1.48161E+005    1.48161E+005    3.45007E+004   -6.83634E+003    1.54998E+005   -5.86085E+004    1.24017E+005    3.45198E+004    3.82161E+003    1.37484E+005    2.50476E+003    2.65361E+003    3.90770E+004
            7397    1.56913E+005    1.71130E+005    1.71130E+005    4.12705E+004   -3.22495E+003    1.74355E+005   -6.97253E+004    1.41642E+005    4.13318E+004   -2.39111E+003    1.70235E+005    1.22514E+003    3.22218E+003    1.18618E+004
            7398    9.51407E+004    9.46835E+004    9.46835E+004    1.91872E+004   -1.21803E+004    1.06864E+005   -3.38968E+004    8.22387E+004    1.91889E+004    1.87866E+004    6.37149E+004    3.72754E+003    1.72573E+003    4.83063E+004
            7399    1.04935E+005    1.13531E+005    1.13531E+005    2.58713E+004   -2.74234E+003    1.16274E+005   -4.55534E+004    9.55492E+004    2.59852E+004    4.43168E+003    1.06243E+005    1.82412E+003    3.22927E+003    2.78940E+004
            7400    1.23434E+005    1.37944E+005    1.37944E+005    3.41139E+004    1.46960E+003    1.36475E+005   -5.78426E+004    1.13094E+005    3.42723E+004    2.23746E+003    1.37018E+005    8.73234E+002    4.12036E+003    1.01369E+004
            7401    7.86191E+004    5.73333E+003   -8.20613E+004   -1.81629E+004   -8.20613E+004    8.77946E+004    3.14970E+004   -6.97181E+004   -1.81758E+004    3.89352E+003   -8.02087E+004    3.04209E+002   -9.12356E+002    1.25703E+004
            7402    9.29913E+004    1.76963E+003   -1.01827E+005   -2.55713E+004   -1.01827E+005    1.03597E+005    4.18763E+004   -8.32014E+004   -2.55947E+004    1.27243E+003   -1.01307E+005    2.68972E+002   -1.35056E+003    7.15077E+003
            7403    1.03811E+005    3.29234E+003   -1.12718E+005   -2.85792E+004   -1.12718E+005    1.16010E+005    4.60015E+004   -9.17955E+004   -2.85811E+004    3.24828E+003   -1.12672E+005    2.36107E+002   -5.43787E+002    2.21899E+003
            7404    1.02494E+005   -7.44159E+002   -1.14619E+005   -2.97606E+004   -1.14619E+005    1.13874E+005    4.83745E+004   -9.25551E+004   -2.97763E+004   -7.57447E+002   -1.14590E+005    2.26889E+002   -1.22770E+003   -1.13508E+003
            7405    1.00220E+005    1.63008E+003   -1.09922E+005   -2.74778E+004   -1.09922E+005    1.11552E+005    4.52566E+004   -8.99471E+004   -2.74765E+004    1.59474E+003   -1.09888E+005    1.93619E+002   -2.80032E+001   -1.94852E+003
            7406    8.35762E+004    2.30647E+004   -7.19076E+004   -9.58326E+003   -7.19076E+004    9.49723E+004    1.94754E+004   -6.67841E+004   -9.58956E+003    1.02259E+004   -5.90625E+004    8.00873E+002   -6.80307E+002    3.24608E+004
            7407    8.49828E+004    1.56429E+004   -8.02322E+004   -1.41829E+004   -8.02322E+004    9.58751E+004    2.62574E+004   -7.17030E+004   -1.41943E+004    1.22186E+004   -7.67965E+004    7.13722E+002   -1.03170E+003    1.77685E+004
            7408    8.55829E+004    6.86431E+003   -8.88941E+004   -1.98682E+004   -8.88941E+004    9.57584E+004    3.39660E+004   -7.52929E+004   -1.98565E+004    6.66061E+003   -8.87021E+004    6.24011E+002   -3.52009E+002    4.25942E+003
            7409    8.85588E+004    5.09568E+003   -9.36421E+004   -2.12343E+004   -9.36421E+004    9.87378E+004    3.65936E+004   -7.90056E+004   -2.12278E+004    4.88716E+003   -9.34401E+004    6.57483E+002   -9.64479E+002   -4.32582E+003
            7410    8.34513E+004   -1.95722E+003   -9.41968E+004   -2.39313E+004   -9.41968E+004    9.22396E+004    4.00284E+004   -7.65259E+004   -2.39091E+004   -2.33685E+003   -9.38394E+004    7.04671E+002    4.58136E+001   -5.72884E+003
            7411    1.06163E+005    5.08824E+004   -7.12475E+004   -1.02925E+003   -7.12475E+004    1.22130E+005    7.13145E+003   -6.74176E+004   -1.03140E+003    2.83472E+004   -4.87102E+004    9.29263E+002   -4.80013E+002    4.73646E+004
            7412    9.04140E+004    3.28632E+004   -7.04991E+004   -6.09509E+003   -7.04991E+004    1.03362E+005    1.45770E+004   -6.72232E+004   -6.09654E+003    2.64011E+004   -6.40356E+004    9.05309E+002   -7.38181E+002    2.49979E+004
            7413    8.22296E+004    2.01050E+004   -7.31547E+004   -1.10753E+004   -7.31547E+004    9.32597E+004    2.13750E+004   -6.68425E+004   -1.10493E+004    1.98543E+004   -7.29300E+004    9.08455E+002   -7.19144E+001    4.56890E+003
            7414    7.59167E+004    6.75665E+003   -7.80960E+004   -1.66073E+004   -7.80960E+004    8.48526E+004    2.93155E+004   -6.70830E+004   -1.65675E+004    6.21160E+003   -7.75907E+004    9.81674E+002   -6.69458E+002   -6.48943E+003
            7415    7.32974E+004    2.59190E+003   -7.88950E+004   -1.83420E+004   -7.88950E+004    8.14869E+004    3.15484E+004   -6.60528E+004   -1.83016E+004    1.34210E+003   -7.76856E+004    9.82871E+002    2.55970E+002   -9.84132E+003
            7416    1.31120E+005    8.01125E+004    8.01125E+004    7.65914E+003   -7.12459E+004    1.51358E+005   -5.50861E+003   -5.49855E+004    7.65966E+003    5.42001E+004   -4.53340E+004    7.86816E+002   -2.88876E+002    5.70077E+004
            7417    1.02514E+005    5.55748E+004   -6.25470E+004    3.18920E+003   -6.25470E+004    1.18122E+005    1.26100E+003   -5.93698E+004    3.19567E+003    4.94060E+004   -5.63847E+004    8.60138E+002   -3.53935E+002    2.62558E+004
            7418    8.18995E+004    2.99405E+004   -6.37233E+004   -5.58488E+003   -6.37233E+004    9.36638E+004    1.31225E+004   -6.05263E+004   -5.56272E+003    2.97829E+004   -6.35878E+004    8.85431E+002    1.06782E+002    3.55800E+003
            7419    7.39065E+004    1.64610E+004   -6.71333E+004   -1.04647E+004   -6.71333E+004    8.35944E+004    2.03790E+004   -6.13167E+004   -1.04229E+004    1.48593E+004   -6.55734E+004    1.03046E+003   -3.97647E+002   -1.13051E+004
            7420    6.13427E+004    3.13901E+002   -6.75578E+004   -1.60719E+004   -6.75578E+004    6.78717E+004    2.77719E+004   -5.60934E+004   -1.60111E+004   -2.47847E+003   -6.48263E+004    1.12451E+003    3.07590E+002   -1.33191E+004
            7421    6.38973E+004    1.11529E+004   -6.10059E+004   -1.15969E+004   -6.10059E+004    7.21589E+004    2.04833E+004   -5.35773E+004   -1.15465E+004    5.03260E+003   -5.49360E+004    1.42835E+003    4.89497E+002   -1.99928E+004
            7422    7.44913E+004    2.58293E+004   -5.93209E+004   -6.20872E+003   -5.93209E+004    8.51502E+004    1.32334E+004   -5.54756E+004   -6.17514E+003    2.41930E+004   -5.77182E+004    1.12479E+003    2.42649E+002   -1.15585E+004
            7423    8.89609E+004    4.85858E+004   -5.39317E+004    2.95456E+003   -5.39317E+004    1.02517E+005    7.97120E+002   -5.10315E+004    2.96801E+003    4.85681E+004   -5.39275E+004    8.38151E+002    3.41623E+002    4.72445E+002
            7424    1.11032E+005    7.38540E+004    7.38540E+004    1.11745E+004   -5.43438E+004    1.28198E+005   -1.02282E+004   -3.74409E+004    1.11794E+004    7.00193E+004   -5.05140E+004    5.60918E+002    2.03204E+001    2.18239E+004
            7425    1.41370E+005    1.00423E+005    1.00423E+005    1.66813E+004   -6.27986E+004    1.63221E+005   -1.81018E+004    5.03585E+004    1.66822E+004    8.41819E+004   -4.65588E+004    3.38472E+002   -3.94977E+001    4.88559E+004
            7426    1.78269E+005    1.28442E+005    1.28442E+005    2.06990E+004   -7.73280E+004    2.05770E+005   -2.39378E+004    7.73464E+004    2.06978E+004    9.73911E+004   -4.62755E+004    1.70879E+002   -3.02071E+002    7.36560E+004
            7427    2.22868E+005    1.62302E+005    1.62302E+005    2.55675E+004   -9.48714E+004    2.57174E+005   -3.09995E+004    1.06618E+005    2.55674E+004    1.11397E+005   -4.39664E+004   -1.14583E+002   -3.73568E+002    1.02469E+005
            7428    2.24693E+005    1.48361E+005    1.48361E+005    1.46605E+004   -1.11051E+005    2.59412E+005   -1.73236E+004    8.45663E+004    1.46598E+004    6.05179E+004   -2.32070E+004    2.33873E+002   -2.03228E+002    1.22764E+005
            7429    2.18978E+005    1.32181E+005    1.32181E+005    5.50616E+003   -1.20672E+005    2.52854E+005   -5.67169E+003    3.29328E+004    5.50480E+003    1.89358E+004   -7.42553E+003    6.04079E+002   -1.71083E+002    1.25736E+005
            7430    1.89214E+005    1.23855E+005    1.23855E+005    1.28213E+004   -9.46210E+004    2.18476E+005   -1.40183E+004    5.77726E+004    1.28193E+004    5.78651E+004   -2.86294E+004    5.19579E+002   -2.97840E+002    1.00311E+005
            7431    1.91997E+005    1.15369E+005    1.15369E+005    5.57972E+003   -1.06326E+005    2.21695E+005   -4.87402E+003   -4.89178E+004    5.57737E+003    1.78536E+004   -8.80892E+003    9.03348E+002   -2.01941E+002    1.10039E+005
            7432    1.64372E+005    9.69605E+004    9.69605E+004    5.15606E+003   -9.28063E+004    1.89767E+005   -3.10340E+003   -6.29497E+004    5.15347E+003    1.43960E+004   -1.02393E+004    1.13528E+003   -2.00033E+002    9.40735E+004
            7433    1.30147E+005    7.46200E+004   -7.55292E+004    4.99859E+003   -7.55292E+004    1.50149E+005   -1.36314E+003   -6.51440E+004    4.99627E+003    1.03814E+004   -1.12883E+004    1.25041E+003   -2.05841E+002    7.42779E+004
            7434    8.93476E+004    4.69190E+004   -5.58110E+004    3.79450E+003   -5.58110E+004    1.02730E+005    1.69917E+003   -5.80001E+004    3.79139E+003    3.68537E+003   -1.25743E+004    1.02935E+003   -2.42731E+002    5.07068E+004
            7435    3.90999E+004    1.40077E+004   -2.95550E+004    2.49836E+003   -2.95550E+004    4.35628E+004    4.34963E+003   -3.49731E+004    2.49462E+003    2.62895E+003   -1.81725E+004    4.18734E+002   -3.11471E+002    1.91316E+004
            7436    1.54327E+005    9.51164E+004    9.51164E+004    8.19615E+003   -8.30679E+004    1.78184E+005   -6.74823E+003   -5.37332E+004    8.19055E+003    4.22618E+004   -3.02076E+004    9.03467E+002   -4.65417E+002    8.13845E+004
            7437    1.20273E+005    6.36428E+004   -7.49794E+004    1.64050E+003   -7.49794E+004    1.38622E+005    3.23201E+003   -6.80851E+004    1.62902E+003    2.02304E+004   -3.15555E+004    1.07568E+003   -6.20248E+002    6.42816E+004
            7438    8.74831E+004    3.59372E+004   -6.42254E+004   -2.79197E+003   -6.42254E+004    1.00163E+005    1.03601E+004   -6.33960E+004   -2.80896E+003    9.13220E+003   -3.74034E+004    9.11056E+002   -7.68787E+002    4.43342E+004
            7439    5.60410E+004    5.07782E+003   -5.69644E+004   -1.00162E+004   -5.69644E+004    6.20422E+004    2.06343E+004   -5.11596E+004   -1.00394E+004    4.05941E+002   -5.22693E+004    3.52323E+002   -9.90835E+002    1.63677E+004
            7440    2.51389E+005    2.96471E+005    2.96471E+005    7.98625E+004    2.08127E+004    2.75658E+005   -1.32382E+005    2.35013E+005    7.98651E+004    2.36857E+004    2.93595E+005    1.07107E+003   -2.82040E+003    2.78417E+004
            7441    2.42404E+005    2.61903E+005    2.61903E+005    5.61465E+004   -5.31683E+003    2.67220E+005   -1.04244E+005    2.23843E+005    5.61569E+004   -5.15540E+003    2.61731E+005    1.29966E+003    2.67229E+003    6.03595E+003
            7442    2.20007E+005    2.45015E+005    2.45015E+005    5.73641E+004    2.88809E+003    2.42127E+005   -1.01756E+005    2.03988E+005    5.74404E+004    3.12956E+003    2.44697E+005    1.63812E+003    4.65600E+003    6.95292E+003
            7443    2.13467E+005    2.29654E+005    2.29654E+005    5.13527E+004   -6.88950E+003    2.36544E+005   -9.13724E+004    1.94351E+005    5.14767E+004   -6.61705E+003    2.29258E+005    1.56925E+003    5.25379E+003    7.50783E+003
            7444    3.02467E+005    3.56464E+005    3.56464E+005    1.07418E+005    1.98824E+004    3.36581E+005   -1.61255E+005    2.71701E+005    1.07340E+005    3.02940E+004    3.46130E+005    2.54462E+003   -6.30282E+002    5.80555E+004
            7445    2.72594E+005    3.09990E+005    3.09990E+005    8.47233E+004    6.96703E+003    3.03023E+005   -1.33894E+005    2.45724E+005    8.46675E+004    1.30577E+004    3.03956E+005    3.43140E+003    3.12870E+003    4.21276E+004
            7446    2.39495E+005    2.51670E+005    2.51670E+005    5.89924E+004   -1.64652E+004    2.68136E+005   -9.80659E+004    2.10143E+005    5.89709E+004   -1.36143E+004    2.48841E+005    3.56306E+003    4.21577E+003    2.68648E+004
            7447    2.10303E+005    2.20778E+005    2.20778E+005    5.06118E+004   -1.43379E+004    2.35116E+005   -8.56839E+004    1.85642E+005    5.06361E+004   -7.80336E+003    2.14219E+005    3.59381E+003    4.44982E+003    3.82743E+004
            7448    2.72147E+005    2.41941E+005    2.41941E+005    4.68073E+004   -6.89482E+004    3.10889E+005   -7.32667E+004    2.04630E+005    4.67746E+004   -3.83061E+004    2.11332E+005    6.94240E+003    4.35378E+003    9.22756E+004
            7449    3.25739E+005    3.12981E+005    3.12981E+005    7.48031E+004   -5.82184E+004    3.71199E+005   -1.09855E+005    2.52796E+005    7.47589E+004   -3.29427E+004    2.87749E+005    6.66606E+003    4.63372E+003    9.31028E+004
            7450    3.52035E+005    3.68431E+005    3.68431E+005    1.02711E+005   -3.08373E+004    3.99268E+005   -1.46768E+005    2.86088E+005    1.02648E+005   -1.25571E+004    3.50214E+005    5.70369E+003    4.08633E+003    8.30637E+004
            7451    3.95486E+005    4.54607E+005    4.54607E+005    1.47015E+005    8.49276E+003    4.46114E+005   -2.03371E+005    3.33970E+005    1.46931E+005    3.30363E+004    4.30147E+005    4.77752E+003    2.35066E+003    1.01464E+005
            7452    3.60527E+005    4.78630E+005    4.78630E+005    1.82220E+005    7.72738E+004    4.01356E+005   -2.46041E+005    3.23389E+005    1.82164E+005    1.02906E+005    4.53053E+005    3.60866E+003    2.08278E+003    9.79708E+004
            7453    3.36082E+005    4.98972E+005    4.98972E+005    2.11078E+005    1.29661E+005    3.69312E+005   -2.79904E+005    3.12718E+005    2.11047E+005    1.48415E+005    4.80250E+005    2.24247E+003    1.35974E+003    8.09874E+004
            7454    2.97813E+005    4.95042E+005    4.95042E+005    2.27563E+005    1.74129E+005    3.20914E+005   -2.98911E+005    2.86729E+005    2.27543E+005    1.95050E+005    4.74141E+005    1.49182E+003    9.56909E+002    7.91708E+004
            7455    2.50901E+005    4.48657E+005    4.48657E+005    2.16185E+005    1.82691E+005    2.65966E+005   -2.82511E+005    2.45796E+005    2.16172E+005    2.10039E+005    4.21322E+005    8.82597E+002    4.04149E+002    8.07598E+004
            7456    2.93094E+005    4.50860E+005    4.50860E+005    1.98597E+005    1.29340E+005    3.21520E+005   -2.59599E+005    2.73761E+005    1.98581E+005    1.57395E+005    4.22821E+005    8.09893E+002   -1.86674E+003    9.06938E+004
            7457    2.48740E+005    4.25065E+005    4.25065E+005    2.02013E+005    1.56830E+005    2.68235E+005   -2.61303E+005    2.39245E+005    2.02019E+005    1.79428E+005    4.02462E+005    3.30371E+002   -3.23611E+003    7.44400E+004
            7458    3.27140E+005    4.86906E+005    4.86906E+005    2.08145E+005    1.26755E+005    3.60151E+005   -2.73935E+005    3.03078E+005    2.08116E+005    1.61827E+005    4.51863E+005    1.16880E+003   -2.28507E+003    1.06712E+005
            7459    2.93542E+005    4.73689E+005    4.73689E+005    2.17068E+005    1.53607E+005    3.20082E+005   -2.81455E+005    2.77471E+005    2.17065E+005    1.92865E+005    4.34434E+005    4.74403E+002   -4.14095E+003    1.04912E+005
            7460    3.55782E+005    5.02453E+005    5.02453E+005    2.04096E+005    1.08696E+005    3.93756E+005   -2.71748E+005    3.25087E+005    2.04051E+005    1.55613E+005    4.55580E+005    1.51489E+003   -2.64928E+003    1.27484E+005
            7461    3.23213E+005    4.78880E+005    4.78880E+005    2.06402E+005    1.21771E+005    3.57109E+005   -2.69018E+005    2.96710E+005    2.06375E+005    1.87925E+005    4.12753E+005    7.10864E+002   -5.16973E+003    1.38618E+005
            7462    3.40825E+005    4.52747E+005    4.52747E+005    1.70007E+005    7.43009E+004    3.78446E+005   -2.32352E+005    3.08350E+005    1.69925E+005    1.28403E+005    3.98728E+005    2.01768E+003   -3.24436E+003    1.32341E+005
            7463    3.33275E+005    4.76482E+005    4.76482E+005    1.98499E+005    1.07021E+005    3.69461E+005   -2.60667E+005    3.03042E+005    1.98458E+005    1.81942E+005    4.01601E+005    8.18099E+002   -6.94882E+003    1.48358E+005
            7464    3.62294E+005    4.73006E+005    4.73006E+005    1.81393E+005    6.74330E+004    4.05573E+005   -2.40611E+005    3.18054E+005    1.81342E+005    1.74879E+005    3.65612E+005    6.49870E+002   -9.62235E+003    1.78690E+005
            7465    4.51532E+005    5.80676E+005    5.80676E+005    2.19566E+005    7.44211E+004    5.06255E+005   -2.91554E+005    3.93673E+005    2.19812E+005    1.27032E+005    5.27819E+005    2.34517E+002   -1.22100E+004    1.54251E+005
            7466    3.89681E+005    4.74918E+005    4.74918E+005    1.60111E+005    3.90832E+004    4.35835E+005   -2.24704E+005    3.43416E+005    1.60069E+005    9.42555E+004    4.19787E+005    1.65354E+003   -3.98664E+003    1.44820E+005
            7467    3.28126E+005    3.56606E+005    3.56606E+005    9.58413E+004   -1.18267E+004    3.68433E+005   -1.46874E+005    2.84102E+005    9.59714E+004   -7.46064E+003    3.52110E+005    6.25878E+002   -6.27170E+003    3.97888E+004
            7468    4.81510E+004   -2.68141E+003   -5.54629E+004   -1.39359E+004   -5.54629E+004    5.27815E+004    2.40267E+004   -4.50468E+004   -1.37125E+004   -8.24554E+003   -5.01222E+004    1.65324E+003   -6.52849E+001   -1.58713E+004
            7469    5.39597E+004   -3.40833E+003   -6.20621E+004   -1.45296E+004   -6.20621E+004    5.86538E+004    2.66667E+004   -5.12852E+004   -1.43281E+004   -5.38131E+003   -6.02906E+004    1.38792E+003   -7.98898E+002   -1.00023E+004
            7470    6.53885E+004   -6.01839E+003   -7.71902E+004   -1.97736E+004   -7.71902E+004    7.11718E+004    3.43274E+004   -6.20067E+004   -1.96960E+004   -6.40948E+003   -7.68767E+004    1.07495E+003   -1.09011E+003   -4.57253E+003
            7471    8.36299E+004    2.82447E+002   -9.20436E+004   -2.13677E+004   -9.20436E+004    9.23260E+004    3.77096E+004   -7.69367E+004   -2.13551E+004    1.58366E+002   -9.19321E+004    8.51529E+002   -1.33658E+003   -2.83606E+003
            7472    9.33313E+004   -2.28432E+003   -1.05200E+005   -2.60476E+004   -1.05200E+005    1.02916E+005    4.45107E+004   -8.61214E+004   -2.60784E+004   -2.29092E+003   -1.05163E+005    2.12158E+002   -1.61305E+003   -6.80731E+002
            7473    2.53118E+004   -1.12022E+004   -3.87896E+004   -1.66360E+004   -3.87896E+004    2.75874E+004    2.22093E+004   -2.39462E+004   -1.20305E+004   -1.70227E+004   -3.75746E+004    2.01804E+003    9.68186E+001   -5.11655E+003
            7474    4.39858E+004   -1.37169E+004   -5.97301E+004   -1.80998E+004   -5.97301E+004    4.60131E+004    3.05156E+004   -4.34904E+004   -1.73257E+004   -1.47995E+004   -5.94216E+004    1.66815E+003    1.08337E+002    3.72277E+003
            7475    6.65226E+004   -4.09226E+003   -7.68339E+004   -1.90914E+004   -7.68339E+004    7.27416E+004    3.33392E+004   -6.25460E+004   -1.89887E+004   -4.37496E+003   -7.66539E+004    1.24237E+003   -5.01281E+001    3.60896E+003
            7476    8.10534E+004   -5.15054E+003   -9.40064E+004   -2.41201E+004   -9.40064E+004    8.88559E+004    4.10924E+004   -7.58137E+004   -2.40648E+004   -5.37177E+003   -9.38405E+004    1.04738E+003   -2.59671E+002    3.81923E+003
            7477    9.77480E+004    1.55589E+003   -1.06862E+005   -2.54698E+004   -1.06862E+005    1.08417E+005    4.35918E+004   -8.87410E+004   -2.54690E+004    1.53844E+003   -1.06845E+005    2.43101E+002   -3.22414E+002    1.28910E+003
            7478    4.58176E+004   -6.99533E+003   -5.60816E+004   -1.44460E+004   -5.60816E+004    4.90863E+004    2.58410E+004   -4.44239E+004   -1.41527E+004   -2.31462E+004   -4.02241E+004    2.67736E+003   -8.68160E+002    2.27256E+004
            7479    5.99878E+004   -4.57503E+003   -6.93746E+004   -1.57782E+004   -6.93746E+004    6.47996E+004    2.99093E+004   -5.75631E+004   -1.56809E+004   -1.12905E+004   -6.27564E+004    2.20522E+003   -1.82432E+003    1.94243E+004
            7480    7.72744E+004   -5.77630E+003   -8.99864E+004   -2.23310E+004   -8.99864E+004    8.42101E+004    3.93646E+004   -7.31232E+004   -2.23726E+004   -9.60854E+003   -8.61125E+004    1.54448E+003   -2.36716E+003    1.73981E+004
            7481    9.62954E+004    1.22227E+003   -1.05099E+005   -2.37486E+004   -1.05099E+005    1.06321E+005    4.25417E+004   -8.85610E+004   -2.38059E+004    1.13426E+002   -1.03933E+005    1.30145E+003   -2.72183E+003    1.05902E+004
            7482    1.05475E+005   -2.87439E+003   -1.18974E+005   -2.90558E+004   -1.18974E+005    1.16100E+005    5.03015E+004   -9.77550E+004   -2.91616E+004   -3.01676E+003   -1.18726E+005    3.11520E+002   -3.09675E+003    4.03869E+003
            7483    2.48492E+005   -1.81943E+005   -4.45270E+005   -2.14903E+005   -4.45270E+005    2.63327E+005    2.80706E+005   -2.43501E+005   -2.14892E+005   -2.10357E+005   -4.16868E+005    9.34193E+002   -5.85437E+002    8.16780E+004
            7484    2.80768E+005   -1.24600E+005   -4.32569E+005   -1.90851E+005   -4.32569E+005    3.07969E+005    2.49340E+005   -2.62303E+005   -1.90831E+005   -1.51970E+005   -4.05219E+005    8.72795E+002    1.71985E+003    8.75899E+004
            7485    2.36370E+005   -1.53375E+005   -4.07769E+005   -1.94935E+005   -4.07769E+005    2.54393E+005    2.52026E+005   -2.27931E+005   -1.94942E+005   -1.71702E+005   -3.89436E+005    3.38675E+002    3.05355E+003    6.57126E+004
            7486    2.17333E+005   -1.33141E+005   -3.67370E+005   -1.72242E+005   -3.67370E+005    2.34229E+005    2.24251E+005   -2.09199E+005   -1.72237E+005   -1.85362E+005   -3.15154E+005    6.50945E+002   -1.91581E+002    9.74855E+004
            7487    2.17183E+005   -9.51366E+004   -3.33763E+005   -1.47655E+005   -3.33763E+005    2.38626E+005    1.92185E+005   -2.02142E+005   -1.47640E+005   -1.19833E+005   -3.09081E+005    6.47070E+002    1.25108E+003    7.26565E+004
            7488    1.67842E+005   -1.23400E+005   -3.02215E+005   -1.48080E+005   -3.02215E+005    1.78816E+005    1.91232E+005   -1.63685E+005   -1.48089E+005   -1.30766E+005   -2.94840E+005    2.44289E+002    2.16718E+003    3.54897E+004
            7489    2.12208E+005   -1.86156E+004   -2.58562E+005   -9.55577E+004   -2.58562E+005    2.39947E+005    1.24245E+005   -1.76460E+005   -9.55573E+004   -1.08433E+005   -1.68745E+005    5.74798E+002   -1.44200E+002    1.16120E+005
            7490    1.40044E+005   -3.28151E+004   -1.89535E+005   -7.66561E+004   -1.89535E+005    1.56720E+005    9.96687E+004   -1.23123E+005   -7.66427E+004   -6.34493E+004   -1.58914E+005    5.93796E+002    5.67546E+002    6.21349E+004
            7491    8.36238E+004   -6.50428E+004   -1.53667E+005   -7.61552E+004   -1.53667E+005    8.86244E+004    9.82884E+004   -8.19380E+004   -7.61548E+004   -6.70241E+004   -1.51686E+005    2.46863E+002    1.12235E+003    1.30508E+004
            7492    2.13514E+005    1.32016E+005    1.32016E+005    5.98749E+003   -1.14508E+005    2.46524E+005   -7.83191E+003    7.23230E+004    5.98804E+003    6.37288E+003    1.11348E+004    5.70486E+002    7.04645E+001    1.23238E+005
            7493    1.02035E+005    7.31304E+004    7.31304E+004    9.80959E+003   -4.45765E+004    1.17707E+005   -1.27878E+004    5.18226E+004    9.80742E+003    8.96818E+003    1.95879E+004    5.89414E+002   -5.89997E+001    5.86104E+004
            7494    1.62063E+004    2.55793E+004    2.55793E+004    1.16661E+004    7.78483E+003    1.77945E+004   -1.50101E+004    1.51065E+004    1.16420E+004    1.05783E+004    2.28099E+004    2.57259E+002   -1.77661E+002    6.44508E+003
            7495    2.12092E+005    2.71523E+005    2.71523E+005    1.04924E+005    3.27673E+004    2.38756E+005   -1.36405E+005    1.81219E+005    1.04923E+005    1.18361E+005    1.85931E+005    5.59624E+002    8.87001E+001    1.14496E+005
            7496    1.55465E+005    2.23536E+005    2.23536E+005    9.46572E+004    5.08739E+004    1.72662E+005   -1.23022E+005    1.40558E+005    9.46434E+004    7.82706E+004    1.96153E+005    5.69561E+002   -7.59205E+002    6.30673E+004
            7497    1.05289E+005    1.94892E+005    1.94892E+005    9.69379E+004    8.35484E+004    1.11343E+005   -1.25126E+005    1.03348E+005    9.69415E+004    8.62716E+004    1.92165E+005    2.35715E+002   -1.41818E+003    1.71486E+004
            7498    2.22677E+005    3.79709E+005    3.79709E+005    1.78796E+005    1.40291E+005    2.39419E+005   -2.32932E+005    2.14995E+005    1.78791E+005    1.90430E+005    3.29575E+005    7.27466E+002    3.06356E+002    9.74113E+004
            7499    2.29416E+005    3.56902E+005    3.56902E+005    1.58990E+005    1.05451E+005    2.51451E+005   -2.07114E+005    2.14675E+005    1.58972E+005    1.29707E+005    3.32664E+005    7.37970E+002   -1.34038E+003    7.41984E+004
            7500    1.86662E+005    3.35101E+005    3.35101E+005    1.63919E+005    1.36085E+005    1.99016E+005   -2.11702E+005    1.81905E+005    1.63929E+005    1.45165E+005    3.26010E+005    2.67772E+002   -2.48244E+003    4.14737E+004
            7501    1.92185E+005    4.50731E+003   -2.08828E+005   -4.92337E+004   -2.08828E+005    2.13335E+005    8.45181E+004   -1.74039E+005   -4.93437E+004    4.30939E+003   -2.08520E+005    7.12492E+002   -4.28723E+003    6.38840E+003
            7502    1.75908E+005    1.46796E+003   -1.93534E+005   -4.67926E+004   -1.93534E+005    1.95001E+005    7.96194E+004   -1.59967E+005   -4.68225E+004   -1.45938E+003   -1.90576E+005    2.63541E+003   -3.98486E+003    2.33182E+004
            7503    1.79897E+005    2.12034E+004   -1.81057E+005   -3.89260E+004   -1.81057E+005    2.02260E+005    6.62598E+004   -1.54738E+005   -3.89091E+004    1.25071E+004   -1.72377E+005    3.64659E+003   -3.44192E+003    4.06924E+004
            7504    1.94710E+005    3.45534E+004   -1.86066E+005   -3.82397E+004   -1.86066E+005    2.20619E+005    6.32507E+004   -1.59474E+005   -3.81804E+004    9.55587E+003   -1.61127E+005    4.94286E+003   -2.86613E+003    6.96428E+004
            7505    2.28797E+005    7.16069E+004   -1.90571E+005   -3.12811E+004   -1.90571E+005    2.62178E+005    5.00817E+004   -1.63105E+005   -3.12695E+004    2.52115E+004   -1.44187E+005    6.59813E+003   -3.16081E+003    9.97822E+004
            7506    1.56997E+005   -2.83532E+003   -1.76323E+005   -4.40305E+004   -1.76323E+005    1.73487E+005    7.43961E+004   -1.44065E+005   -4.42639E+004   -3.19915E+003   -1.75725E+005    5.00697E+002   -5.55190E+003    7.91505E+003
            7507    1.49078E+005    7.35309E+003   -1.58506E+005   -3.56724E+004   -1.58506E+005    1.65859E+005    6.22749E+004   -1.34004E+005   -3.58471E+004    4.10363E+003   -1.55081E+005    2.17177E+003   -4.98854E+003    2.27959E+004
            7508    1.38951E+005    8.08923E+003   -1.46977E+005   -3.37639E+004   -1.46977E+005    1.55067E+005    5.75507E+004   -1.23529E+005   -3.39372E+004   -3.80586E+003   -1.34909E+005    2.74173E+003   -4.41202E+003    4.11531E+004
            7509    1.38159E+005    2.30435E+004   -1.32762E+005   -2.51671E+004   -1.32762E+005    1.55805E+005    4.49617E+004   -1.16853E+005   -2.52805E+004   -8.45782E+002   -1.08759E+005    3.92267E+003   -3.56097E+003    5.59712E+004
            7510    1.63156E+005    4.25393E+004   -1.43661E+005   -2.57210E+004   -1.43661E+005    1.86200E+005    4.22808E+004   -1.24340E+005   -2.57772E+004   -7.73812E+003   -9.33270E+004    5.39246E+003   -2.58201E+003    8.24735E+004
            7511    1.31887E+005    2.50260E+003   -1.44041E+005   -3.48821E+004   -1.44041E+005    1.46544E+005    5.88070E+004   -1.19063E+005   -3.49143E+004    2.22359E+003   -1.43730E+005    4.30726E+002   -1.94827E+003    6.35080E+003
            7512    1.14591E+005   -2.75226E+003   -1.29330E+005   -3.26552E+004   -1.29330E+005    1.26578E+005    5.49126E+004   -1.05263E+005   -3.26295E+004   -5.79430E+003   -1.26314E+005    1.72753E+003   -1.79390E+003    1.91621E+004
            7513    1.05001E+005    5.03927E+003   -1.11878E+005   -2.56163E+004   -1.11878E+005    1.16917E+005    4.41517E+004   -9.41153E+004   -2.55608E+004   -2.50331E+003   -1.04391E+005    2.13182E+003   -1.37912E+003    2.85333E+004
            7514    9.61507E+004    5.25319E+003   -1.01915E+005   -2.32075E+004   -1.01915E+005    1.07168E+005    3.99564E+004   -8.58785E+004   -2.30846E+004   -1.42235E+004   -8.25613E+004    3.00063E+003   -1.01997E+003    4.11169E+004
            7515    9.28990E+004    1.78147E+004   -8.72312E+004   -1.58867E+004   -8.72312E+004    1.05046E+005    2.84344E+004   -7.72298E+004   -1.58225E+004   -1.82071E+004   -5.12735E+004    3.70841E+003   -9.10088E+002    4.96943E+004
            7516    3.77650E+005   -7.00406E+004   -4.92068E+005   -1.85982E+005   -4.92068E+005    4.22027E+005    2.49363E+005   -3.33942E+005   -1.85893E+005   -8.99560E+004   -4.72242E+005    4.37664E+003   -2.32151E+003    8.92088E+004
            7517    3.89092E+005   -1.43696E+004   -4.53487E+005   -1.51618E+005   -4.53487E+005    4.39117E+005    2.06491E+005   -3.27583E+005   -1.51570E+005   -3.53795E+004   -4.32525E+005    5.42871E+003   -4.18763E+003    9.34014E+004
            7518    3.96853E+005    3.14131E+004   -4.19659E+005   -1.24175E+005   -4.19659E+005    4.51072E+005    1.70807E+005   -3.16417E+005   -1.24150E+005    8.65481E+003   -3.96926E+005    6.31444E+003   -5.07287E+003    9.83626E+004
            7519    3.59611E+005    7.74643E+004   -3.33674E+005   -7.76656E+004   -3.33674E+005    4.11138E+005    1.11292E+005   -2.67098E+005   -7.76367E+004    4.96929E+004   -3.05931E+005    7.16649E+003   -5.01079E+003    1.02779E+005
            7520    3.05841E+005    8.06804E+004   -2.69517E+005   -5.49234E+004   -2.69517E+005    3.50197E+005    8.12534E+004   -2.21291E+005   -5.49574E+004    4.06225E+004   -2.29425E+005    7.36298E+003   -4.95166E+003    1.11134E+005
            7521    2.35828E+005    4.45356E+004   -2.23052E+005   -4.55245E+004   -2.23052E+005    2.67587E+005    7.46801E+004   -1.90947E+005   -4.55696E+004    2.86047E+004   -2.07076E+005    5.13101E+003   -4.91829E+003    6.29751E+004
            7522    2.15192E+005    1.69516E+004   -2.24402E+005   -5.25507E+004   -2.24402E+005    2.41354E+005    8.66670E+004   -1.87324E+005   -5.26462E+004    1.01002E+004   -2.17455E+005    4.10013E+003   -5.71916E+003    3.96600E+004
            7523    2.08752E+005    1.20417E+004   -2.20239E+005   -4.83182E+004   -2.20239E+005    2.32281E+005    8.55052E+004   -1.87559E+005   -4.84544E+004    1.08787E+004   -2.18940E+005    2.77870E+003   -6.08899E+003    1.57238E+004
            7524    2.05692E+005   -3.02748E+003   -2.29549E+005   -5.44394E+004   -2.29549E+005    2.26522E+005    9.56720E+004   -1.90415E+005   -5.46889E+004   -3.12084E+003   -2.29206E+005    7.61334E+002   -6.69359E+003    4.40077E+003
            7525    2.91227E+005    3.30191E+004   -2.96407E+005   -7.31983E+004   -2.96407E+005    3.29426E+005    1.12195E+005   -2.41490E+005   -7.31235E+004    1.77280E+004   -2.81191E+005    5.28344E+003   -3.77119E+003    6.88898E+004
            7526    2.50165E+005    1.86524E+004   -2.61903E+005   -6.20533E+004   -2.61903E+005    2.80556E+005    1.01768E+005   -2.17850E+005   -6.19559E+004    1.49362E+004   -2.58285E+005    4.47899E+003   -4.02146E+003    3.11998E+004
            7527    2.27138E+005   -2.88122E+003   -2.53464E+005   -6.11076E+004   -2.53464E+005    2.50583E+005    1.05818E+005   -2.09336E+005   -6.10873E+004   -3.91286E+003   -2.52453E+005    2.76489E+003   -3.97288E+003    1.51702E+004
            7528    2.26101E+005    6.07925E+003   -2.43128E+005   -5.11188E+004   -2.43128E+005    2.49207E+005    9.60559E+004   -2.08873E+005   -5.12005E+004    6.05804E+003   -2.43025E+005    9.36529E+002   -4.29490E+003    1.28152E+003
            7529    3.11710E+005    1.36083E+004   -3.37858E+005   -9.49181E+004   -3.37858E+005    3.51467E+005    1.39723E+005   -2.63886E+005   -9.48795E+004    2.24531E+002   -3.24513E+005    4.29556E+003   -3.53220E+003    6.69702E+004
            7530    2.80705E+005   -5.19700E+003   -3.18471E+005   -8.97924E+004   -3.18471E+005    3.13274E+005    1.37820E+005   -2.49514E+005   -8.97109E+004   -1.28027E+004   -3.10947E+005    4.23212E+003   -3.53292E+003    4.77116E+004
            7531    2.54640E+005    2.68676E+003   -2.79630E+005   -6.73057E+004   -2.79630E+005    2.82317E+005    1.14750E+005   -2.31471E+005   -6.72851E+004    1.80086E+003   -2.78765E+005    2.21532E+003   -2.80161E+003    1.52381E+004
            7532    2.23496E+005   -7.68262E+003   -2.51945E+005   -5.76861E+004   -2.51945E+005    2.44262E+005    1.05771E+005   -2.10351E+005   -5.77153E+004   -7.82071E+003   -2.51777E+005    8.92128E+002   -2.86657E+003    5.51036E+003
            7533    3.62246E+005   -2.01352E+004   -4.26408E+005   -1.37083E+005   -4.26408E+005    4.06273E+005    1.94542E+005   -3.15378E+005   -1.37040E+005   -4.44497E+004   -4.02137E+005    3.53714E+003   -2.11234E+003    9.62221E+004
            7534    3.03150E+005   -1.95233E+004   -3.56763E+005   -1.06892E+005   -3.56763E+005    3.37240E+005    1.61059E+005   -2.72592E+005   -1.06779E+005   -3.05094E+004   -3.45891E+005    3.66588E+003   -1.36842E+003    5.95134E+004
            7535    2.79608E+005   -2.26623E+004   -3.30667E+005   -9.28156E+004   -3.30667E+005    3.08004E+005    1.48715E+005   -2.58672E+005   -9.27774E+004   -2.90463E+004   -3.24321E+005    1.64349E+003    8.51745E+001    4.37494E+004
            7536    2.53375E+005    6.07294E+003   -2.73455E+005   -5.88804E+004   -2.73455E+005    2.79528E+005    1.08754E+005   -2.33516E+005   -5.88717E+004    5.73116E+003   -2.73122E+005    7.82047E+002    5.33631E+002    9.62646E+003
            7537    3.44606E+005   -6.43348E+004   -4.47556E+005   -1.63160E+005   -4.47556E+005    3.83221E+005    2.25017E+005   -3.10241E+005   -1.63093E+005   -1.00887E+005   -4.11071E+005    2.47332E+003    7.07975E+002    1.12465E+005
            7538    3.59633E+005   -3.57089E+004   -4.37212E+005   -1.44631E+005   -4.37212E+005    4.01503E+005    2.05850E+005   -3.19234E+005   -1.44517E+005   -7.35641E+004   -3.99471E+005    3.02293E+003    2.42615E+003    1.17140E+005
            7539    3.22767E+005   -1.07913E+004   -3.70886E+005   -1.07609E+005   -3.70886E+005    3.60095E+005    1.63095E+005   -2.87268E+005   -1.07641E+005   -2.23659E+004   -3.59279E+005    1.00416E+003    4.38566E+003    6.34186E+004
            7540    2.68368E+005   -1.98295E+004   -3.15781E+005   -8.82363E+004   -3.15781E+005    2.95951E+005    1.41282E+005   -2.47587E+005   -8.83486E+004   -2.31073E+004   -3.12391E+005    6.96649E+002    5.67803E+003    3.08512E+004
            7541    3.56726E+005    1.57255E+004   -3.86252E+005   -1.07390E+005   -3.86252E+005    4.01977E+005    1.59305E+005   -3.03080E+005   -1.07603E+005    1.11865E+004   -3.81499E+005    4.04547E+002    8.02819E+003    4.24012E+004
            7542    4.84159E+005   -7.82823E+004   -6.21790E+005   -2.36638E+005   -6.21790E+005    5.43508E+005    3.12237E+005   -4.19668E+005   -2.36940E+005   -1.29868E+005   -5.69902E+005    1.31732E+002    1.33299E+004    1.59057E+005
            7543    4.14923E+005   -2.85181E+004   -4.94148E+005   -1.63595E+005   -4.94148E+005    4.65630E+005    2.28754E+005   -3.60230E+005   -1.63628E+005   -8.53030E+004   -4.37330E+005    8.14477E+002    6.45982E+003    1.52259E+005
            7544    3.76845E+005   -6.58234E+004   -4.88418E+005   -1.87275E+005   -4.88418E+005    4.22595E+005    2.47172E+005   -3.28276E+005   -1.87235E+005   -1.79725E+005   -3.74557E+005    5.64736E+002    1.10034E+004    1.87168E+005
            7545    3.42304E+005   -6.36929E+004   -4.44273E+005   -1.61563E+005   -4.44273E+005    3.80580E+005    2.23176E+005   -3.08391E+005   -1.61478E+005   -1.29387E+005   -3.78664E+005    1.77682E+003    4.63076E+003    1.43677E+005
            7546    3.40153E+005   -9.48349E+004   -4.73232E+005   -1.92843E+005   -4.73232E+005    3.78398E+005    2.53637E+005   -3.05885E+005   -1.92832E+005   -1.78044E+005   -3.90033E+005    5.15850E+002    9.20389E+003    1.56446E+005
            7547    3.54457E+005   -8.95645E+004   -4.82627E+005   -1.87272E+005   -4.82627E+005    3.93063E+005    2.53155E+005   -3.22006E+005   -1.87215E+005   -1.43593E+005   -4.28656E+005    1.69966E+003    2.84675E+003    1.35250E+005
            7548    3.34184E+005   -1.06627E+005   -4.77365E+005   -1.99292E+005   -4.77365E+005    3.70738E+005    2.61094E+005   -3.03198E+005   -1.99246E+005   -1.84564E+005   -3.99474E+005    8.32426E+002    7.13772E+003    1.50862E+005
            7549    3.14460E+005   -1.35713E+005   -4.81398E+005   -2.12321E+005   -4.81398E+005    3.45685E+005    2.76477E+005   -2.92337E+005   -2.12295E+005   -1.91601E+005   -4.25536E+005    7.36132E+002    5.07904E+003    1.27139E+005
            7550    2.86247E+005   -1.50735E+005   -4.62795E+005   -2.12418E+005   -4.62795E+005    3.12060E+005    2.75316E+005   -2.70681E+005   -2.12415E+005   -1.88063E+005   -4.25471E+005    4.67771E+002    3.80389E+003    1.01191E+005
            7551    3.46400E+005   -1.07741E+005   -4.90953E+005   -2.00079E+005   -4.90953E+005    3.83212E+005    2.66258E+005   -3.16889E+005   -2.00022E+005   -1.52761E+005   -4.45990E+005    1.75740E+003    2.39379E+003    1.23299E+005
            7552    3.27795E+005   -1.27772E+005   -4.88706E+005   -2.09527E+005   -4.88706E+005    3.60934E+005    2.75335E+005   -3.03558E+005   -2.09503E+005   -1.62204E+005   -4.54298E+005    1.06892E+003    2.19726E+003    1.05974E+005
            7553    2.91733E+005   -1.72874E+005   -4.87022E+005   -2.24631E+005   -4.87022E+005    3.14147E+005    2.94842E+005   -2.81124E+005   -2.24610E+005   -1.91597E+005   -4.68320E+005    1.43768E+003   -8.96730E+002    7.43186E+004
            7554    3.44285E+005   -1.28900E+005   -5.07774E+005   -2.14063E+005   -5.07774E+005    3.78874E+005    2.83579E+005   -3.19270E+005   -2.14029E+005   -1.49227E+005   -4.87481E+005    2.59167E+003   -1.78635E+003    8.52576E+004
            7555    1.05343E+005    5.81749E+004   -6.33666E+004   -6.82550E+003   -6.33666E+004    1.21541E+005    4.00573E+003    5.19878E+004   -6.84134E+003   -5.65400E+004    5.13642E+004    1.10978E+003    1.88615E+002    2.79449E+004
            7556    8.52586E+004    5.82642E+004    5.82642E+004    9.38580E+002   -3.97122E+004    9.79763E+004   -6.49686E+003    5.64095E+004    8.99537E+002   -3.96049E+004    5.81960E+004    1.26713E+003   -2.59307E+002    2.56624E+003
            7557    7.44130E+004    6.36821E+004    6.36821E+004    8.67364E+003   -2.09872E+004    8.46693E+004   -1.71229E+004    5.87127E+004    8.60578E+003   -1.91548E+004    6.19176E+004    1.49343E+003   -1.99555E+002   -1.20790E+004
            7558    6.42473E+004    6.48542E+004    6.48542E+004    1.36820E+004   -7.24818E+003    7.21024E+004   -2.37627E+004    5.57652E+004    1.35735E+004   -2.76013E+003    6.04747E+004    1.75047E+003   -4.15739E+002   -1.71797E+004
            7559    7.35758E+004    8.04234E+004    8.04234E+004    1.88556E+004   -1.06006E+003    8.14835E+004   -3.27397E+004    6.70982E+004    1.87231E+004    2.56411E+002    7.92395E+004    1.66643E+003   -1.74298E+002   -9.73264E+003
            7560    9.35796E+004    1.05014E+005    1.05014E+005    2.62493E+004    1.56735E+003    1.03447E+005   -4.42769E+004    8.57860E+004    2.62400E+004    1.65343E+003    1.04937E+005    4.79837E+002    1.15571E+002   -2.81428E+003
            7561    7.86708E+004    8.06689E+004    8.06689E+004    1.65858E+004   -7.13216E+003    8.78010E+004   -3.00408E+004    6.99218E+004    1.64836E+004   -6.39968E+003    8.00385E+004    1.53562E+003    6.59580E+002   -7.38240E+003
            7562    1.00317E+005    1.09344E+005    1.09344E+005    2.60783E+004   -2.02886E+003    1.11373E+005   -4.44645E+004    9.08048E+004    2.60908E+004   -1.99596E+003    1.09299E+005    4.77507E+002    1.34110E+003   -1.63819E+003
            7563    8.44940E+004    7.71333E+004    7.71333E+004    1.23726E+004   -1.84434E+004    9.55767E+004   -2.36875E+004    7.00647E+004    1.23187E+004   -1.81412E+004    7.68851E+004    1.34426E+003    3.72410E+002    4.83363E+003
            7564    9.86222E+004    1.05932E+005    1.05932E+005    2.53535E+004   -4.04704E+003    1.09979E+005   -4.24128E+004    8.79210E+004    2.53563E+004   -3.87718E+003    1.05759E+005    5.14844E+002    9.07831E+002    4.21807E+003
            7565    9.18843E+004    7.20615E+004    7.20615E+004    6.20767E+003   -3.29084E+004    1.04970E+005   -1.51203E+004    6.90380E+004    6.20859E+003   -2.40713E+004    6.32235E+004    1.33267E+003    9.69351E+002    2.91009E+004
            7566    8.76391E+004    9.14537E+004    9.14537E+004    2.00563E+004   -6.35314E+003    9.78068E+004   -3.50523E+004    7.79026E+004    2.00936E+004   -4.84971E+003    8.99129E+004    5.82815E+002    1.68246E+003    1.20093E+004
            7567    6.72561E+004    6.73232E+004    6.73232E+004    1.25072E+004   -7.72716E+003    7.50503E+004   -2.40344E+004    5.98106E+004    1.25394E+004   -2.99367E+003    6.25575E+004    6.49204E+002    1.29687E+003    1.82305E+004
            7568    4.82369E+004    3.71689E+004    3.71689E+004   -9.43836E+002   -1.70637E+004    5.42325E+004   -6.38712E+003    4.14937E+004   -9.26913E+002   -3.17844E+003    2.32667E+004    7.15415E+002    6.45435E+002    2.36583E+004
            7569    1.01795E+005    6.98526E+004    6.98526E+004    1.51476E+003   -4.71394E+004    1.16992E+005   -8.07599E+003    6.71019E+004    1.53289E+003   -1.90689E+004    4.17640E+004    1.41086E+003    8.82342E+002    4.99403E+004
            7570    1.07847E+005    6.53784E+004    6.53784E+004   -3.92477E+003   -5.88767E+004    1.24255E+005   -8.58989E+002    6.29036E+004   -3.91223E+003   -8.05559E+003    1.45448E+004    1.67079E+003    4.81772E+002    6.10672E+004
            7571    1.49074E+005    8.59461E+004   -8.61318E+004   -3.94893E+003   -8.61318E+004    1.72078E+005    1.37820E+003    6.35664E+004   -3.94090E+003   -1.17233E+004    1.15296E+004    1.77316E+003    3.53845E+002    8.52308E+004
            7572    1.82855E+005    1.01391E+005   -1.09750E+005   -4.93159E+003   -1.09750E+005    2.11141E+005    4.43027E+003    4.22515E+004   -4.92708E+003   -1.68184E+004    8.45466E+003    1.40991E+003    2.57594E+002    1.04802E+005
            7573    2.12033E+005    1.16732E+005   -1.28100E+005   -4.79726E+003   -1.28100E+005    2.44832E+005    5.38854E+003   -4.92720E+004   -4.79541E+003   -1.86223E+004    7.25213E+003    8.90699E+002    1.69882E+002    1.21727E+005
            7574    2.38125E+005    1.31608E+005   -1.43348E+005   -4.29174E+003   -1.43348E+005    2.74957E+005    5.34396E+003   -6.45111E+004   -4.29107E+003   -1.70156E+004    5.27477E+003    4.56518E+002    1.15639E+002    1.37025E+005
            7575    1.42136E+005    7.90083E+004   -8.50707E+004   -6.36096E+003   -8.50707E+004    1.64079E+005    4.14112E+003    5.86418E+004   -6.34884E+003   -4.03465E+004    3.42720E+004    1.39996E+003    7.04794E+002    7.30485E+004
            7576    1.83696E+005    9.32383E+004   -1.18870E+005   -1.14330E+004   -1.18870E+005    2.12108E+005    1.23548E+004   -5.19200E+004   -1.14257E+004   -5.41523E+004    2.85135E+004    9.11167E+002    5.72672E+002    9.76620E+004
            7577    2.18092E+005    1.08403E+005   -1.43388E+005   -1.36170E+004   -1.43388E+005    2.51791E+005    1.62004E+004   -8.20670E+004   -1.36125E+004   -5.79522E+004    2.29635E+004    4.23405E+002    6.04612E+002    1.19215E+005
            7578    2.47048E+005    1.24874E+005   -1.60343E+005   -1.31745E+004   -1.60343E+005    2.85217E+005    1.62147E+004   -9.41508E+004   -1.31733E+004   -5.52628E+004    1.97920E+004    5.75405E+001    6.21337E+002    1.37581E+005
            7579    2.64907E+005    1.18235E+005   -1.87476E+005   -2.55986E+004   -1.87476E+005    3.05711E+005    3.16133E+004   -1.23779E+005   -2.56000E+004   -1.12378E+005    4.31384E+004   -3.54698E+002    3.80689E+002    1.31598E+005
            7580    2.17764E+005    9.12959E+004   -1.59967E+005   -2.58790E+004   -1.59967E+005    2.51263E+005    3.15168E+004   -1.06285E+005   -2.58792E+004   -1.12208E+005    4.35366E+004   -1.38458E+002    2.08461E+002    9.85857E+004
            7581    1.74395E+005    7.54107E+004   -1.25886E+005   -2.04189E+004   -1.25886E+005    2.01297E+005    2.36314E+004   -7.60138E+004   -2.04180E+004   -9.57766E+004    4.53004E+004    2.70460E+002    2.46609E+002    7.17933E+004
            7582    1.31796E+005    6.62271E+004   -8.59553E+004   -1.06374E+004   -8.59553E+004    1.52182E+005    1.01219E+004    3.42837E+004   -1.06430E+004   -6.95394E+004    4.98168E+004    8.01901E+002    8.15300E+001    4.71990E+004
            7583    9.08381E+004    1.00258E+005    1.00258E+005    2.28694E+004    2.46923E+002    1.00011E+005   -4.11249E+004    8.41428E+004    2.28967E+004    2.70427E+002    1.00208E+005    5.01787E+002    1.74949E+003   -1.07324E+003
            7584    6.68204E+004    7.73997E+004    7.73997E+004    1.88831E+004    4.58891E+003    7.28108E+004   -3.36239E+004    6.32417E+004    1.86087E+004    5.11629E+003    7.71467E+004    1.95888E+003    1.09560E+003   -4.13471E+003
            7585    5.02873E+004    5.78240E+004    5.78240E+004    1.42826E+004    2.78290E+003    5.50411E+004   -2.49632E+004    4.71909E+004    1.39312E+004    7.69207E+003    5.32663E+004    2.03300E+003    1.55291E+002   -1.51079E+004
            7586    9.01252E+004    1.02294E+005    1.02294E+005    2.51751E+004    3.21941E+003    9.90745E+004   -4.35628E+004    8.37851E+004    2.51615E+004    3.28817E+003    1.02239E+005    6.41145E+002    5.63387E+002    2.24186E+003
            7587    6.78331E+004    7.85124E+004    7.85124E+004    1.96038E+004    4.35174E+003    7.41607E+004   -3.41560E+004    6.38017E+004    1.92822E+004    4.93440E+003    7.82514E+004    2.22729E+003    3.35729E+002    4.35151E+003
            7588    3.23033E+004    4.65602E+004    4.65602E+004    1.70675E+004    1.20366E+004    3.45236E+004   -2.52214E+004    3.14037E+004    1.39166E+004    1.52460E+004    4.65017E+004    2.42988E+003    1.44695E+002   -1.35225E+003
            7589    1.03298E+005    1.13399E+005    1.13399E+005    2.53899E+004   -3.29186E+002    1.13728E+005   -4.61532E+004    9.56888E+004    2.55506E+004   -2.47907E+001    1.12934E+005    7.33201E+002    3.85308E+003    5.76259E+003
            7590    7.89085E+004    9.00046E+004    9.00046E+004    2.13253E+004    3.81014E+003    8.61944E+004   -3.83800E+004    7.43437E+004    2.12136E+004    7.32120E+003    8.66052E+004    2.81591E+003    2.90736E+003    1.63289E+004
            7591    4.49855E+004    5.57159E+004    5.57159E+004    1.44187E+004    7.77994E+003    4.79360E+004   -2.59715E+004    4.38631E+004    1.37005E+004    1.84227E+004    4.57913E+004    3.19444E+003    1.28784E+003    1.90397E+004
            7592    2.44754E+005    1.47295E+005    1.47295E+005    4.33287E+003   -1.35317E+005    2.82612E+005   -5.43678E+003    6.67617E+004    4.33233E+003    1.75390E+004   -5.56096E+003    3.88079E+002   -1.11060E+002    1.40832E+005
            7593    2.54947E+005    1.64522E+005    1.64522E+005    1.28228E+004   -1.29819E+005    2.94341E+005   -1.58421E+004    9.59276E+004    1.28221E+004    5.45694E+004   -1.98653E+004    9.43864E+000   -5.82496E+002    1.42386E+005
            7594    2.69439E+005    1.89796E+005    1.89796E+005    2.52495E+004   -1.21150E+005    3.10945E+005   -3.12985E+004    1.25426E+005    2.52509E+004    1.11525E+005   -4.28807E+004   -3.83982E+002   -3.09537E+002    1.34949E+005
            7595    2.66754E+005    1.58483E+005    1.58483E+005    3.07633E+003   -1.49534E+005    3.08017E+005   -4.00869E+003    6.68347E+004    3.07620E+003    1.30018E+004   -4.05194E+003    1.71014E+002   -6.16742E+001    1.53772E+005
            7596    2.81760E+005    1.76112E+005    1.76112E+005    9.79053E+003   -1.49209E+005    3.25321E+005   -1.22313E+004    9.55290E+004    9.79123E+003    4.22254E+004   -1.53226E+004   -1.62722E+002   -4.94131E+002    1.60094E+005
            7597    3.11470E+005    2.06437E+005    2.06437E+005    1.94911E+004   -1.53122E+005    3.59559E+005   -2.42688E+004    1.27737E+005    1.94926E+004    8.99472E+004   -3.66336E+004   -4.32744E+002   -3.28939E+002    1.68270E+005
            7598    2.82616E+005    1.65617E+005    1.65617E+005    1.65660E+003   -1.60719E+005    3.26335E+005   -2.18484E+003    5.74749E+004    1.65656E+003    7.06475E+003   -2.16679E+003    9.24478E+001   -3.07517E+001    1.63102E+005
            7599    3.00721E+005    1.80282E+005    1.80282E+005    4.80722E+003   -1.66954E+005    3.47236E+005   -6.04529E+003    7.95709E+004    4.80779E+003    2.14742E+004   -8.14610E+003   -2.12860E+002   -2.40001E+002    1.72985E+005
            7600    3.41268E+005    2.11514E+005    2.11514E+005    1.04820E+004   -1.82521E+005    3.94035E+005   -1.31584E+004    1.11933E+005    1.04829E+004    4.99853E+004   -2.09930E+004   -4.28221E+002   -1.77402E+002    1.93794E+005
            7601    2.87330E+005    1.65488E+005   -1.66292E+005   -2.83159E+002   -1.66292E+005    3.31780E+005    3.62369E+002   -3.08735E+004   -2.83149E+002   -1.23951E+003    4.35551E+002    7.40128E+001    1.07538E+001    1.65888E+005
            7602    3.06594E+005    1.76231E+005   -1.77793E+005   -5.42713E+002   -1.77793E+005    3.54024E+005    7.01750E+002   -4.06706E+004   -5.42733E+002   -2.80087E+003    1.23835E+003   -2.24508E+002    6.89196E+000    1.77001E+005
            7603    3.51909E+005    2.02474E+005   -2.03875E+005   -4.64492E+002   -2.03875E+005    4.06349E+005    6.21835E+002   -4.44263E+004   -4.64516E+002   -2.30998E+003    9.08991E+002   -4.13809E+002    4.56231E+000    2.03168E+005
            7604    2.79090E+005    1.58320E+005   -1.63943E+005   -1.90066E+003   -1.63943E+005    3.22263E+005    2.50793E+003   -5.97070E+004   -1.90062E+003   -8.30889E+003    2.68571E+003    9.80452E+001    3.73788E+001    1.61038E+005
            7605    2.96656E+005    1.62760E+005   -1.79778E+005   -6.14676E+003   -1.79778E+005    3.42537E+005    7.72151E+003   -8.54341E+004   -6.14749E+003   -2.72631E+004    1.02460E+004   -2.13408E+002    3.14847E+002    1.70238E+005
            7606    3.39420E+005    1.80706E+005   -2.11193E+005   -1.11092E+004   -2.11193E+005    3.91899E+005    1.38651E+004   -1.12622E+005   -1.11103E+004   -5.30748E+004    2.25897E+004   -4.26750E+002    2.30391E+002    1.92262E+005
            7607    2.60899E+005    1.45628E+005   -1.55627E+005   -3.46614E+003   -1.55627E+005    3.01255E+005    4.48848E+003   -6.79065E+004   -3.46594E+003   -1.45270E+004    4.52746E+003    2.07351E+002    7.63633E+001    1.50326E+005
            7608    2.74793E+005    1.44395E+005   -1.72877E+005   -1.03477E+004   -1.72877E+005    3.17272E+005    1.29432E+004   -9.58900E+004   -1.03482E+004   -4.46766E+004    1.61953E+004   -1.34852E+002    4.88133E+002    1.55688E+005
            7609    3.07911E+005    1.49997E+005   -2.05442E+005   -2.01826E+004   -2.05442E+005    3.55439E+005    2.52093E+004   -1.28924E+005   -2.01841E+004   -9.28380E+004    3.73942E+004   -4.40661E+002    3.13150E+002    1.65360E+005
            7610    2.11606E+005    1.87961E+005    1.87961E+005    3.42416E+004   -5.33822E+004    2.41343E+005   -5.62735E+004    1.62550E+005    3.42874E+004   -1.29370E+004    1.47470E+005    7.95172E+003    4.71366E+003    8.96945E+004
            7611    1.75249E+005    1.79404E+005    1.79404E+005    3.78499E+004   -1.66078E+004    1.96012E+005   -6.68822E+004    1.54417E+005    3.77752E+004   -8.10825E+003    1.70980E+005    5.94966E+003    5.70886E+003    3.89338E+004
            7612    1.82505E+005    2.03673E+005    2.03673E+005    4.75584E+004    3.02224E+003    2.00651E+005   -8.47513E+004    1.69620E+005    4.78186E+004    3.79651E+003    2.02639E+005    1.68530E+003    6.71036E+003    1.21347E+004
            7613    1.48496E+005    1.34321E+005    1.34321E+005    2.37837E+004   -3.44690E+004    1.68790E+005   -4.12120E+004    1.18356E+005    2.38887E+004    4.37969E+003    9.53675E+004    6.38061E+003    3.68168E+003    7.07199E+004
            7614    1.37729E+005    1.44783E+005    1.44783E+005    3.18322E+004   -8.65025E+003    1.53434E+005   -5.59884E+004    1.23239E+005    3.20618E+004    1.95817E+003    1.33945E+005    4.66762E+003    6.04808E+003    3.84738E+004
            7615    1.54395E+005    1.68084E+005    1.68084E+005    3.83182E+004   -2.66864E+003    1.70753E+005   -6.79113E+004    1.41357E+005    3.87362E+004   -1.82659E+003    1.66824E+005    1.20636E+003    7.38756E+003    1.18643E+004
            7616    9.41038E+004    9.38268E+004    9.38268E+004    1.92059E+004   -1.18892E+004    1.05716E+005   -3.37145E+004    8.12783E+004    1.91340E+004    1.87592E+004    6.32503E+004    4.47875E+003    1.67931E+003    4.76934E+004
            7617    1.04289E+005    1.12812E+005    1.12812E+005    2.61516E+004   -2.93153E+003    1.15743E+005   -4.53440E+004    9.44994E+004    2.59728E+004    4.35954E+003    1.05700E+005    3.67782E+003    2.46321E+003    2.75121E+004
            7618    1.22151E+005    1.38129E+005    1.38129E+005    3.41773E+004    3.59092E+003    1.34538E+005   -5.86324E+004    1.13044E+005    3.42436E+004    4.36672E+003    1.37287E+005    1.07855E+003    2.98613E+003    1.00264E+004
            7619    7.90750E+004    5.91668E+003   -8.21483E+004   -1.72287E+004   -8.21483E+004    8.80650E+004    3.11534E+004   -7.08311E+004   -1.72777E+004    4.07028E+003   -8.02529E+004    4.98972E+002   -1.77369E+003    1.26052E+004
            7620    9.31239E+004    1.76888E+003   -1.01781E+005   -2.49034E+004   -1.01781E+005    1.03550E+005    4.16385E+004   -8.38627E+004   -2.49208E+004    1.26569E+003   -1.01260E+005    4.31516E+002   -1.26712E+003    7.16855E+003
            7621    1.04378E+005    3.32446E+003   -1.12866E+005   -2.70325E+004   -1.12866E+005    1.16191E+005    4.55248E+004   -9.36459E+004   -2.70560E+004    3.27844E+003   -1.12797E+005    4.05640E+002   -1.54722E+003    2.19127E+003
            7622    1.02336E+005   -1.04994E+003   -1.14538E+005   -2.92808E+004   -1.14538E+005    1.13488E+005    4.82896E+004   -9.29517E+004   -2.92773E+004   -1.06799E+003   -1.14523E+005    3.90774E+002   -4.28075E+002   -1.19148E+003
            7623    1.00668E+005    1.84154E+003   -1.09695E+005   -2.55758E+004   -1.09695E+005    1.11537E+005    4.44765E+004   -9.16878E+004   -2.55899E+004    1.79783E+003   -1.09638E+005    4.26196E+002   -1.35100E+003   -2.01183E+003
            7624    8.38787E+004    2.30426E+004   -7.21335E+004   -8.99664E+003   -7.21335E+004    9.51762E+004    1.93625E+004   -6.79075E+004   -9.03003E+003    1.02327E+004   -5.92902E+004    1.20326E+003   -1.34838E+003    3.24580E+004
            7625    8.51031E+004    1.56832E+004   -8.02289E+004   -1.37474E+004   -8.02289E+004    9.59121E+004    2.60977E+004   -7.22458E+004   -1.37380E+004    1.22504E+004   -7.68054E+004    1.08864E+003   -9.07857E+002    1.77445E+004
            7626    8.62015E+004    7.22151E+003   -8.89643E+004   -1.86923E+004   -8.89643E+004    9.61858E+004    3.34783E+004   -7.66751E+004   -1.86741E+004    6.98828E+003   -8.87492E+004    1.05252E+003   -1.15261E+003    4.32100E+003
            7627    8.85133E+004    5.20721E+003   -9.34373E+004   -2.09514E+004   -9.34373E+004    9.86445E+004    3.63938E+004   -7.90897E+004   -2.09141E+004    4.98233E+003   -9.32498E+004    9.84885E+002   -2.25536E+002   -4.29086E+003
            7628    8.40073E+004   -1.39235E+003   -9.39252E+004   -2.24502E+004   -9.39252E+004    9.25328E+004    3.92559E+004   -7.77294E+004   -2.24130E+004   -1.79743E+003   -9.35573E+004    9.73590E+002   -1.06612E+003   -5.70900E+003
            7629    1.06531E+005    5.11062E+004   -7.14236E+004   -7.36493E+002   -7.14236E+004    1.22530E+005    7.01796E+003   -6.82169E+004   -7.52464E+002    2.86038E+004   -4.89052E+004    1.49231E+003   -9.74366E+002    4.74178E+004
            7630    9.06136E+004    3.30665E+004   -7.05192E+004   -5.94637E+003   -7.05192E+004    1.03586E+005    1.44663E+004   -6.74198E+004   -5.91852E+003    2.65967E+004   -6.40772E+004    1.40377E+003   -5.12060E+002    2.49895E+004
            7631    8.27634E+004    2.03688E+004   -7.33128E+004   -1.01133E+004   -7.33128E+004    9.36816E+004    2.10191E+004   -6.83028E+004   -1.00591E+004    2.00833E+004   -7.30815E+004    1.44378E+003   -7.56654E+002    4.53810E+003
            7632    7.59472E+004    6.69478E+003   -7.80978E+004   -1.63203E+004   -7.80978E+004    8.47926E+004    2.92411E+004   -6.74050E+004   -1.62247E+004    6.07354E+003   -7.75721E+004    1.49480E+003    7.30968E+001   -6.64814E+003
            7633    7.38158E+004    2.83884E+003   -7.88169E+004   -1.68225E+004   -7.88169E+004    8.16558E+004    3.09335E+004   -6.75377E+004   -1.66688E+004    1.43375E+003   -7.75655E+004    1.67733E+003   -7.53373E+002   -1.00021E+004
            7634    1.31526E+005    8.03279E+004    8.03279E+004    7.63077E+003   -7.14999E+004    1.51828E+005   -5.48625E+003   -5.50478E+004    7.62707E+003    5.44660E+004   -4.56344E+004    1.12803E+003   -5.72284E+002    5.70640E+004
            7635    1.02910E+005    5.58856E+004   -6.27110E+004    3.04265E+003   -6.27110E+004    1.18597E+005    1.26092E+003   -5.88697E+004    3.06798E+003    4.97247E+004   -5.65755E+004    1.27784E+003   -1.28596E+002    2.62592E+004
            7636    8.25745E+004    3.05895E+004   -6.38273E+004   -5.10205E+003   -6.38273E+004    9.44168E+004    1.27799E+004   -6.12225E+004   -5.03316E+003    3.03814E+004   -6.36880E+004    1.58804E+003   -1.97535E+002    3.60772E+003
            7637    7.40909E+004    1.68803E+004   -6.70845E+004   -1.08932E+004   -6.70845E+004    8.39648E+004    2.03658E+004   -6.05979E+004   -1.07947E+004    1.52276E+004   -6.55302E+004    1.80319E+003    4.65344E+002   -1.12778E+004
            7638    6.19597E+004    1.35759E+003   -6.73018E+004   -1.55532E+004   -6.73018E+004    6.86594E+004    2.71658E+004   -5.64070E+004   -1.52943E+004   -1.58071E+003   -6.46224E+004    2.06889E+003   -2.54436E+002   -1.32687E+004
            7639    6.44360E+004    1.18009E+004   -6.09309E+004   -1.09793E+004   -6.09309E+004    7.27318E+004    2.00364E+004   -5.41970E+004   -1.08612E+004    5.58925E+003   -5.48374E+004    1.86393E+003    2.38121E+002   -2.01119E+004
            7640    7.48813E+004    2.63334E+004   -5.93085E+004   -6.17688E+003   -5.93085E+004    8.56419E+004    1.30506E+004   -5.52940E+004   -6.12545E+003    2.46606E+004   -5.76870E+004    1.51745E+003    5.67753E+002   -1.16274E+004
            7641    8.96266E+004    4.91964E+004   -5.40885E+004    3.21906E+003   -5.40885E+004    1.03285E+005    5.57682E+002   -5.13998E+004    3.24640E+003    4.91653E+004   -5.40847E+004    1.15258E+003    3.12065E+002    4.77364E+002
            7642    1.11629E+005    7.42694E+004    7.42694E+004    1.09471E+004   -5.46218E+004    1.28891E+005   -1.01982E+004   -3.47563E+004    1.09597E+004    7.04418E+004   -5.08068E+004    8.69775E+002    2.47311E+002    2.18424E+004
            7643    1.41982E+005    1.00892E+005    1.00892E+005    1.66791E+004   -6.30335E+004    1.63926E+005   -1.81793E+004    5.14304E+004    1.66815E+004    8.46575E+004   -4.68013E+004    6.23997E+002   -1.27992E+002    4.89607E+004
            7644    1.78843E+005    1.28766E+005    1.28766E+005    2.03776E+004   -7.76580E+004    2.06424E+005   -2.38286E+004    7.91661E+004    2.03774E+004    9.77157E+004   -4.66075E+004    2.08409E+002   -1.04786E+002    7.37928E+004
            7645    2.23496E+005    1.62801E+005    1.62801E+005    2.55692E+004   -9.50930E+004    2.57894E+005   -3.10923E+004    1.07411E+005    2.55695E+004    1.11790E+005   -4.40820E+004   -1.74139E+002   -2.88096E+002    1.02729E+005
            7646    2.25213E+005    1.48312E+005    1.48312E+005    1.40747E+004   -1.11696E+005    2.60008E+005   -1.68969E+004    8.63497E+004    1.40712E+004    6.04117E+004   -2.37921E+004    3.08738E+002   -6.11054E+002    1.22996E+005
            7647    2.19459E+005    1.32671E+005    1.32671E+005    4.82096E+003   -1.20735E+005    2.53406E+005   -5.58564E+003    5.49282E+004    4.81936E+003    1.89649E+004   -7.02733E+003    7.55747E+002   -1.67838E+002    1.26032E+005
            7648    1.89607E+005    1.23913E+005    1.23913E+005    1.23389E+004   -9.50128E+004    2.18926E+005   -1.37464E+004    6.10615E+004    1.23322E+004    5.79377E+004   -2.90306E+004    7.73224E+002   -5.81893E+002    1.00451E+005
            7649    1.92233E+005    1.15524E+005    1.15524E+005    4.82150E+003   -1.06447E+005    2.21971E+005   -4.63309E+003   -3.15249E+004    4.81769E+003    1.77626E+004   -8.68099E+003    1.22791E+003   -2.45637E+002    1.10188E+005
            7650    1.64397E+005    9.68318E+004    9.68318E+004    4.49162E+003   -9.29743E+004    1.89806E+005   -2.78304E+003   -5.92240E+004    4.48444E+003    1.42517E+004   -1.03870E+004    1.66784E+003   -3.34357E+002    9.40848E+004
            7651    1.30014E+005    7.43416E+004   -7.56662E+004    4.53372E+003   -7.56662E+004    1.50008E+005   -1.06968E+003   -6.40645E+004    4.52559E+003    1.02006E+004   -1.15171E+004    1.83936E+003   -3.62746E+002    7.41903E+004
            7652    8.91327E+004    4.66516E+004   -5.58293E+004    3.65147E+003   -5.58293E+004    1.02481E+005    1.84207E+003   -5.79056E+004    3.64013E+003    3.59156E+003   -1.27579E+004    1.55973E+003   -4.36929E+002    5.05591E+004
            7653    3.91026E+004    1.38535E+004   -2.96298E+004    2.64369E+003   -2.96298E+004    4.34833E+004    4.37753E+003   -3.52062E+004    2.62900E+003    2.55096E+003   -1.83126E+004    6.31864E+002   -5.68995E+002    1.90607E+004
            7654    1.54517E+005    9.52007E+004    9.52007E+004    7.77817E+003   -8.32088E+004    1.78409E+005   -6.59003E+003   -5.03484E+004    7.76915E+003    4.23712E+004   -3.03703E+004    1.25176E+003   -5.86497E+002    8.14417E+004
            7655    1.20281E+005    6.37219E+004   -7.49290E+004    1.42773E+003   -7.49290E+004    1.38651E+005    3.25981E+003   -6.72237E+004    1.41281E+003    2.03608E+004   -3.15530E+004    1.62000E+003   -7.10534E+002    6.42591E+004
            7656    8.74051E+004    3.59174E+004   -6.41491E+004   -2.72868E+003   -6.41491E+004    1.00067E+005    1.03201E+004   -6.34195E+004   -2.75434E+003    9.13747E+003   -3.73435E+004    1.34602E+003   -9.47337E+002    4.42808E+004
            7657    5.59975E+004    5.15477E+003   -5.67672E+004   -9.68269E+003   -5.67672E+004    6.19220E+004    2.04317E+004   -5.12879E+004   -9.71790E+003    4.77228E+002   -5.20545E+004    5.54909E+002   -1.22819E+003    1.63535E+004
            7658    2.55166E+005    2.98939E+005    2.98939E+005    7.25284E+004    2.24452E+004    2.76494E+005   -1.31304E+005    2.43737E+005    7.25186E+004    2.52915E+004    2.96103E+005    9.79658E+002   -2.16720E+003    2.77680E+004
            7659    2.41059E+005    2.59461E+005    2.59461E+005    5.05724E+004   -4.30603E+003    2.63767E+005   -1.01909E+005    2.26355E+005    5.05835E+004   -4.10120E+003    2.59245E+005    1.64739E+003    3.37303E+003    6.49808E+003
            7660    2.22870E+005    2.47883E+005    2.47883E+005    5.15078E+004    5.65226E+003    2.42231E+005   -1.01681E+005    2.11863E+005    5.17232E+004    5.91665E+003    2.47404E+005    1.96123E+003    7.38599E+003    6.91134E+003
            7661    2.10075E+005    2.25633E+005    2.25633E+005    4.75412E+004   -6.04614E+003    2.31679E+005   -8.90425E+004    1.93782E+005    4.79814E+004   -5.74348E+003    2.24890E+005    1.77868E+003    9.18342E+003    7.78504E+003
            7662    3.04734E+005    3.56797E+005    3.56797E+005    1.01633E+005    1.93785E+004    3.37419E+005   -1.59270E+005    2.78067E+005    1.01450E+005    2.98032E+004    3.46556E+005    4.17826E+003    8.18856E+002    5.78436E+004
            7663    2.71751E+005    3.06169E+005    3.06169E+005    8.03796E+004    4.56130E+003    3.01608E+005   -1.30370E+005    2.46216E+005    8.01280E+004    1.09493E+004    3.00033E+005    6.00537E+003    4.46058E+003    4.21265E+004
            7664    2.41813E+005    2.52346E+005    2.52346E+005    5.47696E+004   -1.73112E+004    2.69657E+005   -9.66015E+004    2.15580E+005    5.45257E+004   -1.41789E+004    2.49458E+005    6.79773E+003    6.74342E+003    2.63756E+004
            7665    2.08452E+005    2.16056E+005    2.16056E+005    4.73620E+004   -1.69824E+004    2.33038E+005   -8.21451E+004    1.84036E+005    4.74308E+004   -1.02527E+004    2.09257E+005    6.51566E+003    7.99069E+003    3.77866E+004
            7666    2.70151E+005    2.39974E+005    2.39974E+005    4.58928E+004   -6.85638E+004    3.08538E+005   -7.24342E+004    2.03796E+005    4.59565E+004   -3.79678E+004    2.09314E+005    8.73502E+003    6.47365E+003    9.16303E+004
            7667    3.25189E+005    3.12537E+005    3.12537E+005    7.27498E+004   -5.76050E+004    3.70142E+005   -1.09227E+005    2.55622E+005    7.27689E+004   -3.23416E+004    2.87254E+005    8.39033E+003    6.88566E+003    9.27314E+004
            7668    3.50982E+005    3.67130E+005    3.67130E+005    1.00931E+005   -3.06232E+004    3.97753E+005   -1.45813E+005    2.87079E+005    1.00859E+005   -1.21611E+004    3.48740E+005    7.19260E+003    5.62063E+003    8.30738E+004
            7669    3.94892E+005    4.53283E+005    4.53283E+005    1.43811E+005    8.53034E+003    4.44753E+005   -2.01875E+005    3.36499E+005    1.43736E+005    3.29650E+004    4.28924E+005    6.03083E+003    4.27065E+003    1.00967E+005
            7670    3.60478E+005    4.76624E+005    4.76624E+005    1.77989E+005    7.61949E+004    4.00430E+005   -2.43603E+005    3.25712E+005    1.77860E+005    1.01699E+005    4.51249E+005    5.21031E+003    2.84579E+003    9.74256E+004
            7671    3.36571E+005    4.97374E+005    4.97374E+005    2.07709E+005    1.28152E+005    3.69222E+005   -2.77745E+005    3.14354E+005    2.07633E+005    1.46779E+005    4.78822E+005    3.31036E+003    1.88749E+003    8.05961E+004
            7672    2.98469E+005    4.94447E+005    4.94447E+005    2.25464E+005    1.73355E+005    3.21092E+005   -2.97755E+005    2.87967E+005    2.25403E+005    1.94023E+005    4.73840E+005    1.97419E+003    3.46602E+002    7.86755E+004
            7673    2.51632E+005    4.48832E+005    4.48832E+005    2.15103E+005    1.82478E+005    2.66353E+005   -2.82138E+005    2.46807E+005    2.15038E+005    2.09394E+005    4.21980E+005    1.27338E+003   -7.75648E+002    8.01818E+004
            7674    2.91650E+005    4.47291E+005    4.47291E+005    1.96212E+005    1.27383E+005    3.19908E+005   -2.56962E+005    2.72463E+005    1.96151E+005    1.55250E+005    4.19485E+005    1.62617E+003   -2.38688E+003    9.00915E+004
            7675    2.49401E+005    4.25497E+005    4.25497E+005    2.01428E+005    1.56792E+005    2.68705E+005   -2.61239E+005    2.40167E+005    2.01409E+005    1.79387E+005    4.02921E+005    7.23570E+002   -3.97210E+003    7.44368E+004
            7676    3.26355E+005    4.84410E+005    4.84410E+005    2.05530E+005    1.25478E+005    3.58933E+005   -2.71806E+005    3.03061E+005    2.05451E+005    1.60361E+005    4.49605E+005    1.94655E+003   -2.90192E+003    1.06173E+005
            7677    2.94030E+005    4.73099E+005    4.73099E+005    2.15203E+005    1.52916E+005    3.20183E+005   -2.80406E+005    2.78600E+005    2.15187E+005    1.92213E+005    4.33818E+005    7.61531E+002   -5.97747E+003    1.04872E+005
            7678    3.55647E+005    5.00836E+005    5.00836E+005    2.01118E+005    1.07848E+005    3.92988E+005   -2.69934E+005    3.26387E+005    2.00994E+005    1.54587E+005    4.54221E+005    2.62895E+003   -3.30482E+003    1.27020E+005
            7679    3.23292E+005    4.77421E+005    4.77421E+005    2.03574E+005    1.20784E+005    3.56636E+005   -2.67260E+005    2.98010E+005    2.03535E+005    1.86835E+005    4.11410E+005    8.35731E+002   -8.54863E+003    1.38244E+005
            7680    3.41175E+005    4.52051E+005    4.52051E+005    1.66467E+005    7.42439E+004    3.77807E+005   -2.30920E+005    3.11227E+005    1.66274E+005    1.28172E+005    3.98315E+005    3.12137E+003   -4.24181E+003    1.31886E+005
            7681    3.33100E+005    4.74344E+005    4.74344E+005    1.94776E+005    1.05788E+005    3.68556E+005   -2.58303E+005    3.04588E+005    1.94745E+005    1.80485E+005    3.99679E+005    7.41481E+002   -1.11548E+004    1.47712E+005
            7682    3.61211E+005    4.71178E+005    4.71178E+005    1.78524E+005    6.74822E+004    4.03696E+005   -2.39062E+005    3.19283E+005    1.78490E+005    1.74031E+005    3.64663E+005    3.97028E+002   -1.28560E+004    1.77451E+005
            7683    4.50249E+005    5.77897E+005    5.77897E+005    2.15703E+005    7.37895E+004    5.04108E+005   -2.89130E+005    3.95021E+005    2.16133E+005    1.26032E+005    5.25225E+005    2.65161E+002   -1.61345E+004    1.53229E+005
            7684    3.89569E+005    4.72796E+005    4.72796E+005    1.54980E+005    3.81912E+004    4.34605E+005   -2.21989E+005    3.46776E+005    1.54895E+005    9.32893E+004    4.17783E+005    2.36167E+003   -7.30516E+003    1.44322E+005
            7685    3.28320E+005    3.55344E+005    3.55344E+005    8.99966E+004   -1.18226E+004    3.67166E+005   -1.44506E+005    2.89466E+005    9.04473E+004   -7.46865E+003    3.50539E+005    8.56217E+002   -1.16036E+004    3.95185E+004
            7686    4.83198E+004   -2.20474E+003   -5.52815E+004   -1.38454E+004   -5.52815E+004    5.30768E+004    2.37772E+004   -4.49998E+004   -1.35131E+004   -7.99015E+003   -4.98284E+004    2.24722E+003    3.57663E+002   -1.60146E+004
            7687    5.37420E+004   -2.85021E+003   -6.18059E+004   -1.55537E+004   -6.18059E+004    5.89556E+004    2.67366E+004   -5.01944E+004   -1.52010E+004   -4.98739E+003   -6.00214E+004    2.23165E+003    4.12602E+002   -1.00298E+004
            7688    6.48437E+004   -6.35371E+003   -7.69111E+004   -1.99309E+004   -7.69111E+004    7.05573E+004    3.43986E+004   -6.15225E+004   -1.96675E+004   -6.94811E+003   -7.65801E+004    1.89126E+003    1.40843E+002   -4.80280E+003
            7689    8.30099E+004    2.01031E+002   -9.15247E+004   -2.15695E+004   -9.15247E+004    9.17257E+004    3.76310E+004   -7.61798E+004   -2.15241E+004    6.42753E+001   -9.14333E+004    9.90836E+002   -1.29993E+002   -2.89071E+003
            7690    9.25580E+004   -2.64216E+003   -1.04708E+005   -2.62190E+004   -1.04708E+005    1.02066E+005    4.45232E+004   -8.54012E+004   -2.62106E+004   -2.65608E+003   -1.04703E+005    4.56552E+002   -1.95238E+002   -7.16261E+002
            7691    2.60258E+004   -9.77712E+003   -3.85374E+004   -1.66093E+004   -3.85374E+004    2.87603E+004    2.16413E+004   -2.38800E+004   -1.10931E+004   -1.66063E+004   -3.72244E+004    2.65895E+003   -4.65619E+002   -5.36364E+003
            7692    4.46005E+004   -1.18377E+004   -5.90861E+004   -1.77165E+004   -5.90861E+004    4.72484E+004    2.95468E+004   -4.37161E+004   -1.63442E+004   -1.35371E+004   -5.87591E+004    2.62396E+003   -1.24988E+003    3.55440E+003
            7693    6.67125E+004   -3.70429E+003   -7.61752E+004   -1.73228E+004   -7.61752E+004    7.24709E+004    3.24008E+004   -6.34710E+004   -1.70172E+004   -4.22826E+003   -7.59569E+004    2.28477E+003   -1.76225E+003    3.38409E+003
            7694    8.12567E+004   -4.51668E+003   -9.31524E+004   -2.21807E+004   -9.31524E+004    8.86357E+004    3.99499E+004   -7.67565E+004   -2.21829E+004   -4.73612E+003   -9.29307E+004    1.17598E+003   -2.16687E+003    3.67171E+003
            7695    9.78058E+004    2.15532E+003   -1.05834E+005   -2.32079E+004   -1.05834E+005    1.07989E+005    4.22954E+004   -8.99496E+004   -2.32750E+004    2.13100E+003   -1.05742E+005    5.37176E+002   -2.51906E+003    1.23516E+003
            7696    4.52300E+004   -6.66925E+003   -5.53512E+004   -1.46300E+004   -5.53512E+004    4.86819E+004    2.55501E+004   -4.36119E+004   -1.38459E+004   -2.30639E+004   -3.97407E+004    3.45459E+003   -5.04922E+002    2.23038E+004
            7697    5.91349E+004   -3.89727E+003   -6.86396E+004   -1.74734E+004   -6.86396E+004    6.47424E+004    3.00034E+004   -5.54636E+004   -1.68766E+004   -1.08629E+004   -6.22709E+004    3.27424E+003   -6.64093E+002    1.90932E+004
            7698    7.59496E+004   -6.39312E+003   -8.92977E+004   -2.30771E+004   -8.92977E+004    8.29045E+004    3.95893E+004   -7.16504E+004   -2.27126E+004   -1.04956E+004   -8.55598E+004    2.86563E+003   -1.08050E+003    1.70624E+004
            7699    9.49471E+004    8.47772E+002   -1.04123E+005   -2.42385E+004   -1.04123E+005    1.04971E+005    4.25047E+004   -8.70102E+004   -2.42050E+004   -2.65136E+002   -1.03044E+005    1.45478E+003   -1.50452E+003    1.04195E+004
            7700    1.04046E+005   -3.35338E+003   -1.18026E+005   -2.96543E+004   -1.18026E+005    1.14673E+005    5.03446E+004   -9.61307E+004   -2.96725E+004   -3.50629E+003   -1.17855E+005    6.58283E+002   -1.65769E+003    3.99229E+003
            7701    2.49173E+005   -1.81852E+005   -4.45589E+005   -2.14126E+005   -4.45589E+005    2.63737E+005    2.80522E+005   -2.44404E+005   -2.14067E+005   -2.09817E+005   -4.17682E+005    1.14063E+003    9.48990E+002    8.11130E+004
            7702    2.79285E+005   -1.22672E+005   -4.29072E+005   -1.88756E+005   -4.29072E+005    3.06401E+005    2.46833E+005   -2.60810E+005   -1.88703E+005   -1.49854E+005   -4.01943E+005    1.46638E+003    2.26137E+003    8.70130E+004
            7703    2.37055E+005   -1.53358E+005   -4.08255E+005   -1.94402E+005   -4.08255E+005    2.54897E+005    2.52005E+005   -2.28855E+005   -1.94388E+005   -1.71689E+005   -3.89939E+005    6.79949E+002    3.46492E+003    6.57353E+004
            7704    2.17333E+005   -1.33974E+005   -3.67858E+005   -1.72130E+005   -3.67858E+005    2.33884E+005    2.24654E+005   -2.09598E+005   -1.72083E+005   -1.85408E+005   -3.16472E+005    8.56930E+002    1.34716E+003    9.68235E+004
            7705    2.15458E+005   -9.34284E+004   -3.30269E+005   -1.45878E+005   -3.30269E+005    2.36841E+005    1.89859E+005   -2.00325E+005   -1.45835E+005   -1.17931E+005   -3.05810E+005    1.18448E+003    1.54105E+003    7.20561E+004
            7706    1.68458E+005   -1.23850E+005   -3.03211E+005   -1.48337E+005   -3.03211E+005    1.79361E+005    1.91799E+005   -1.64382E+005   -1.48320E+005   -1.31167E+005   -2.95911E+005    5.70902E+002    1.88592E+003    3.53910E+004
            7707    2.11213E+005   -1.97819E+004   -2.58480E+005   -9.57931E+004   -2.58480E+005    2.38698E+005    1.24685E+005   -1.76243E+005   -9.57721E+004   -1.08555E+005   -1.69728E+005    8.28353E+002    1.02409E+003    1.15352E+005
            7708    1.38830E+005   -3.18660E+004   -1.87354E+005   -7.58243E+004   -1.87354E+005    1.55488E+005    9.83480E+004   -1.21628E+005   -7.57896E+004   -6.22560E+004   -1.56999E+005    9.85378E+002    8.26512E+002    6.16219E+004
            7709    8.39337E+004   -6.53596E+004   -1.54284E+005   -7.64414E+004   -1.54284E+005    8.89241E+004    9.86949E+004   -8.22637E+004   -7.64188E+004   -6.72871E+004   -1.52379E+005    4.55851E+002    7.22403E+002    1.28544E+004
            7710    2.12140E+005    1.31300E+005    1.31300E+005    6.14008E+003   -1.13638E+005    2.44938E+005   -7.93400E+003    7.13491E+004    6.13749E+003    6.38862E+003    1.12759E+004    8.65750E+002   -1.64581E+002    1.22441E+005
            7711    1.01232E+005    7.24425E+004    7.24425E+004    9.78355E+003   -4.43461E+004    1.16789E+005   -1.26266E+004    5.07617E+004    9.77678E+003    8.76100E+003    1.93421E+004    9.17224E+002   -1.39951E+002    5.81465E+004
            7712    1.59666E+004    2.54490E+004    2.54490E+004    1.16697E+004    7.95138E+003    1.74976E+004   -1.50233E+004    1.49451E+004    1.16259E+004    1.05783E+004    2.28658E+004    3.89759E+002   -1.08723E+002    6.19762E+003
            7713    2.11194E+005    2.71574E+005    2.71574E+005    1.05059E+005    3.40202E+004    2.37554E+005   -1.36884E+005    1.81233E+005    1.05034E+005    1.18591E+005    1.87028E+005    8.54751E+002   -1.10630E+003    1.13727E+005
            7714    1.54053E+005    2.20923E+005    2.20923E+005    9.34730E+004    4.97277E+004    1.71195E+005   -1.21375E+005    1.39016E+005    9.34330E+004    7.69204E+004    1.93770E+005    1.04973E+003   -9.78578E+002    6.25278E+004
            7715    1.05715E+005    1.95725E+005    1.95725E+005    9.73252E+004    8.39658E+004    1.11760E+005   -1.25672E+005    1.03790E+005    9.73036E+004    8.66355E+004    1.93077E+005    4.85842E+002   -1.00846E+003    1.69680E+004
            7716    2.22756E+005    3.80277E+005    3.80277E+005    1.78816E+005    1.41052E+005    2.39224E+005   -2.33382E+005    2.15377E+005    1.78767E+005    1.90421E+005    3.30957E+005    8.27684E+002   -1.50378E+003    9.67605E+004
            7717    2.27723E+005    3.53299E+005    3.53299E+005    1.57194E+005    1.03540E+005    2.49758E+005   -2.04678E+005    2.12793E+005    1.57151E+005    1.27617E+005    3.29264E+005    1.16475E+003   -1.77369E+003    7.36339E+004
            7718    1.87341E+005    3.36017E+005    3.36017E+005    1.63987E+005    1.36420E+005    1.99597E+005   -2.12141E+005    1.82694E+005    1.63972E+005    1.45474E+005    3.26978E+005    5.81767E+002   -2.22277E+003    4.14420E+004
            7719    1.90835E+005    5.48143E+003   -2.05466E+005   -4.48217E+004   -2.05466E+005    2.10947E+005    8.16021E+004   -1.74962E+005   -4.53632E+004    5.27029E+003   -2.04713E+005    1.29112E+003   -9.44726E+003    6.33705E+003
            7720    1.74977E+005    2.73828E+003   -1.90600E+005   -4.31160E+004   -1.90600E+005    1.93339E+005    7.69927E+004   -1.60604E+005   -4.35443E+004   -1.23455E+002   -1.87310E+005    3.09573E+003   -8.44186E+003    2.29349E+004
            7721    1.78630E+005    2.13894E+004   -1.78610E+005   -3.49195E+004   -1.78610E+005    2.00000E+005    6.40467E+004   -1.56714E+005   -3.51472E+004    1.25039E+004   -1.69497E+005    5.78850E+003   -7.63060E+003    4.04608E+004
            7722    1.93408E+005    3.61911E+004   -1.83036E+005   -3.65318E+004   -1.83036E+005    2.19228E+005    6.11257E+004   -1.57930E+005   -3.67370E+004    1.16148E+004   -1.58255E+005    7.39780E+003   -6.61928E+003    6.86312E+004
            7723    2.27158E+005    7.17362E+004   -1.88348E+005   -2.88495E+004   -1.88348E+005    2.60085E+005    4.84873E+004   -1.64578E+005   -2.89281E+004    2.55272E+004   -1.42061E+005    8.96475E+003   -5.05356E+003    9.89241E+004
            7724    1.55689E+005   -3.49604E+003   -1.75357E+005   -4.37433E+004   -1.75357E+005    1.71861E+005    7.41986E+004   -1.43266E+005   -4.39184E+004   -3.87260E+003   -1.74805E+005    1.13644E+003   -5.02234E+003    7.81058E+003
            7725    1.47791E+005    6.89488E+003   -1.57437E+005   -3.54158E+004   -1.57437E+005    1.64332E+005    6.19859E+004   -1.33107E+005   -3.55313E+004    3.66475E+003   -1.54091E+005    2.51791E+003   -4.59650E+003    2.25082E+004
            7726    1.37554E+005    6.88380E+003   -1.46362E+005   -3.35738E+004   -1.46362E+005    1.53246E+005    5.76839E+004   -1.23061E+005   -3.34656E+004   -5.20949E+003   -1.34377E+005    4.94958E+003   -3.86531E+003    4.07020E+004
            7727    1.37071E+005    2.33833E+004   -1.31624E+005   -2.64078E+004   -1.31624E+005    1.55008E+005    4.48830E+004   -1.13881E+005   -2.62958E+004   -2.10005E+002   -1.08143E+005    5.96766E+003   -3.14353E+003    5.51892E+004
            7728    1.61787E+005    4.22063E+004   -1.42312E+005   -2.47627E+004   -1.42312E+005    1.84519E+005    4.16229E+004   -1.24316E+005   -2.47440E+004   -7.83805E+003   -9.22867E+004    6.93471E+003   -2.63357E+003    8.16908E+004
            7729    1.31289E+005    3.40981E+003   -1.41895E+005   -3.18017E+004   -1.41895E+005    1.45305E+005    5.67622E+004   -1.19957E+005   -3.20836E+004    3.13022E+003   -1.41333E+005    8.25572E+002   -5.62818E+003    6.25119E+003
            7730    1.14173E+005   -1.95624E+003   -1.27504E+005   -2.98908E+004   -1.27504E+005    1.25548E+005    5.31171E+004   -1.06068E+005   -3.01282E+004   -4.91463E+003   -1.24309E+005    1.89904E+003   -5.00591E+003    1.88789E+004
            7731    1.04481E+005    5.29116E+003   -1.10376E+005   -2.28389E+004   -1.10376E+005    1.15667E+005    4.26411E+004   -9.53883E+004   -2.29254E+004   -2.28335E+003   -1.02715E+005    3.68522E+003   -4.35913E+003    2.81615E+004
            7732    9.56965E+004    6.50541E+003   -1.00130E+005   -2.17239E+004   -1.00130E+005    1.06636E+005    3.84496E+004   -8.55491E+004   -2.18037E+004   -1.25184E+004   -8.10266E+004    4.38241E+003   -3.40016E+003    4.05053E+004
            7733    9.20720E+004    1.78641E+004   -8.59698E+004   -1.42755E+004   -8.59698E+004    1.03834E+005    2.74604E+004   -7.78616E+004   -1.42987E+004   -1.77818E+004   -5.03006E+004    5.03366E+003   -1.98525E+003    4.90121E+004
            7734    3.77302E+005   -6.95697E+004   -4.90578E+005   -1.83010E+005   -4.90578E+005    4.21008E+005    2.47719E+005   -3.35592E+005   -1.82952E+005   -8.92633E+004   -4.70942E+005    4.73048E+003   -3.72327E+003    8.86025E+004
            7735    3.88228E+005   -1.36941E+004   -4.51600E+005   -1.49585E+005   -4.51600E+005    4.37906E+005    2.04960E+005   -3.27931E+005   -1.49534E+005   -3.47938E+004   -4.30551E+005    6.11075E+003   -4.92620E+003    9.33734E+004
            7736    3.96598E+005    3.16637E+004   -4.18550E+005   -1.20846E+005   -4.18550E+005    4.50214E+005    1.69244E+005   -3.19863E+005   -1.20814E+005    8.94556E+003   -3.95864E+005    7.85168E+003   -6.50445E+003    9.79750E+004
            7737    3.57595E+005    7.78303E+004   -3.30799E+005   -7.50939E+004   -3.30799E+005    4.08629E+005    1.09354E+005   -2.67642E+005   -7.51180E+004    4.99722E+004   -3.02917E+005    9.11999E+003   -7.18960E+003    1.02363E+005
            7738    3.04837E+005    8.05368E+004   -2.68248E+005   -5.27737E+004   -2.68248E+005    3.48785E+005    8.01617E+004   -2.23574E+005   -5.27412E+004    4.04333E+004   -2.28177E+005    9.58856E+003   -5.72188E+003    1.10674E+005
            7739    2.35581E+005    4.46949E+004   -2.22670E+005   -4.55690E+004   -2.22670E+005    2.67365E+005    7.45147E+004   -1.90392E+005   -4.53689E+004    2.88287E+004   -2.07004E+005    8.73585E+003   -5.98393E+003    6.20154E+004
            7740    2.15239E+005    1.52847E+004   -2.24990E+005   -4.98174E+004   -2.24990E+005    2.40275E+005    8.65076E+004   -1.91131E+005   -4.96600E+004    8.08794E+003   -2.17951E+005    6.56098E+003   -6.20758E+003    3.96152E+004
            7741    2.09283E+005    1.18218E+004   -2.20291E+005   -4.59933E+004   -2.20291E+005    2.32113E+005    8.48210E+004   -1.90033E+005   -4.61052E+004    1.06176E+004   -2.18975E+005    3.69210E+003   -6.90285E+003    1.53673E+004
            7742    2.06447E+005   -4.32118E+003   -2.30174E+005   -5.11918E+004   -2.30174E+005    2.25852E+005    9.52289E+004   -1.93926E+005   -5.14748E+004   -4.45062E+003   -2.29761E+005    1.57028E+003   -7.60428E+003    4.41228E+003
            7743    2.89119E+005    3.49013E+004   -2.92325E+005   -7.14218E+004   -2.92325E+005    3.27226E+005    1.09615E+005   -2.38781E+005   -7.14276E+004    1.95369E+004   -2.76954E+005    8.61050E+003   -8.05876E+003    6.82181E+004
            7744    2.48411E+005    1.87604E+004   -2.58769E+005   -5.72277E+004   -2.58769E+005    2.77530E+005    9.90789E+004   -2.19889E+005   -5.72097E+004    1.46914E+004   -2.54718E+005    6.22277E+003   -7.74179E+003    3.17884E+004
            7745    2.26016E+005   -9.43932E+002   -2.49609E+005   -5.66644E+004   -2.49609E+005    2.48665E+005    1.02406E+005   -2.09710E+005   -5.68178E+004   -2.02719E+003   -2.48372E+005    3.78025E+003   -7.98719E+003    1.48163E+004
            7746    2.24552E+005    6.21411E+003   -2.39659E+005   -4.54244E+004   -2.39659E+005    2.45873E+005    9.29564E+004   -2.10562E+005   -4.57841E+004    6.16590E+003   -2.39251E+005    1.42650E+003   -8.74927E+003    1.72804E+003
            7747    3.12628E+005    1.33465E+004   -3.38389E+005   -9.21801E+004   -3.38389E+005    3.51735E+005    1.39074E+005   -2.67924E+005   -9.19590E+004   -4.33817E+001   -3.25220E+005    8.22773E+003   -6.09778E+003    6.61362E+004
            7748    2.83481E+005   -6.78056E+003   -3.20948E+005   -8.42677E+004   -3.20948E+005    3.14168E+005    1.37332E+005   -2.57994E+005   -8.40939E+004   -1.46551E+004   -3.13247E+005    5.45809E+003   -4.38720E+003    4.81984E+004
            7749    2.57879E+005    2.94491E+003   -2.81192E+005   -6.19779E+004   -2.81192E+005    2.84137E+005    1.13408E+005   -2.38430E+005   -6.18808E+004    1.99338E+003   -2.80338E+005    3.62284E+003   -4.05760E+003    1.47872E+004
            7750    2.27750E+005   -1.02627E+004   -2.55612E+005   -5.09446E+004   -2.55612E+005    2.45350E+005    1.05607E+005   -2.19351E+005   -5.09904E+004   -1.04383E+004   -2.55391E+005    1.23495E+003   -3.95881E+003    5.93465E+003
            7751    3.60198E+005   -1.82988E+004   -4.22080E+005   -1.33801E+005   -4.22080E+005    4.03781E+005    1.91393E+005   -3.14293E+005   -1.33646E+005   -4.28111E+004   -3.97723E+005    6.86607E+003   -4.27453E+003    9.58665E+004
            7752    3.02106E+005   -1.93364E+004   -3.54172E+005   -1.02009E+005   -3.54172E+005    3.34835E+005    1.58506E+005   -2.74877E+005   -1.01871E+005   -3.07612E+004   -3.42885E+005    3.94555E+003   -1.49544E+003    6.03637E+004
            7753    2.78605E+005   -2.02591E+004   -3.26369E+005   -8.76198E+004   -3.26369E+005    3.06109E+005    1.44749E+005   -2.59316E+005   -8.75027E+004   -2.65890E+004   -3.20156E+005    2.87713E+003   -1.74796E+002    4.31513E+004
            7754    2.52337E+005    4.77855E+003   -2.71355E+005   -5.27485E+004   -2.71355E+005    2.76134E+005    1.06442E+005   -2.36899E+005   -5.27393E+004    4.36307E+003   -2.70949E+005    8.24537E+002    9.25521E+002    1.05363E+004
            7755    3.46107E+005   -6.40566E+004   -4.47474E+005   -1.58128E+005   -4.47474E+005    3.83418E+005    2.23219E+005   -3.15366E+005   -1.57937E+005   -1.00231E+005   -4.11491E+005    5.07158E+003   -1.10914E+003    1.11741E+005
            7756    3.62012E+005   -3.71816E+004   -4.39034E+005   -1.38416E+005   -4.39034E+005    4.01853E+005    2.04877E+005   -3.27827E+005   -1.38318E+005   -7.48644E+004   -4.01449E+005    2.62026E+003    2.57705E+003    1.16978E+005
            7757    3.25906E+005   -9.84599E+003   -3.71608E+005   -1.00946E+005   -3.71608E+005    3.61762E+005    1.60800E+005   -2.95157E+005   -1.00909E+005   -2.11432E+004   -3.60348E+005    2.21702E+003    4.50724E+003    6.26458E+004
            7758    2.72569E+005   -2.29170E+004   -3.19762E+005   -8.07495E+004   -3.19762E+005    2.96845E+005    1.41143E+005   -2.58218E+005   -8.09160E+004   -2.62379E+004   -3.16274E+005    3.29666E+002    6.72126E+003    3.11242E+004
            7759    3.55810E+005    1.51981E+004   -3.84457E+005   -1.02124E+005   -3.84457E+005    3.99655E+005    1.57128E+005   -3.07547E+005   -1.02863E+005    1.06661E+004   -3.79186E+005    3.20877E+002    1.48419E+004    4.21325E+004
            7760    4.82421E+005   -7.75641E+004   -6.18496E+005   -2.32814E+005   -6.18496E+005    5.40932E+005    3.09625E+005   -4.20447E+005   -2.33316E+005   -1.28693E+005   -5.66866E+005    2.17092E+002    1.72924E+004    1.57833E+005
            7761    4.13845E+005   -2.73644E+004   -4.90996E+005   -1.58919E+005   -4.90996E+005    4.63632E+005    2.25760E+005   -3.62115E+005   -1.59031E+005   -8.38977E+004   -4.34351E+005    1.40317E+003    1.17725E+004    1.51343E+005
            7762    3.75603E+005   -6.59265E+004   -4.86462E+005   -1.84323E+005   -4.86462E+005    4.20535E+005    2.45570E+005   -3.29523E+005   -1.84297E+005   -1.78931E+005   -3.73483E+005    3.71592E+002    1.42436E+004    1.85861E+005
            7763    3.41725E+005   -6.29337E+004   -4.41925E+005   -1.57296E+005   -4.41925E+005    3.78991E+005    2.20718E+005   -3.10321E+005   -1.57161E+005   -1.28550E+005   -3.76444E+005    1.97922E+003    9.13554E+003    1.42988E+005
            7764    3.39611E+005   -9.43591E+004   -4.71607E+005   -1.90254E+005   -4.71607E+005    3.77248E+005    2.52073E+005   -3.06862E+005   -1.90215E+005   -1.77063E+005   -3.88942E+005    7.49097E+002    1.15917E+004    1.55619E+005
            7765    3.54519E+005   -8.83550E+004   -4.80659E+005   -1.83229E+005   -4.80659E+005    3.92304E+005    2.50748E+005   -3.24061E+005   -1.83040E+005   -1.42454E+005   -4.26749E+005    2.96896E+003    5.49345E+003    1.34950E+005
            7766    3.33720E+005   -1.06218E+005   -4.75836E+005   -1.96654E+005   -4.75836E+005    3.69618E+005    2.59569E+005   -3.04268E+005   -1.96621E+005   -1.83738E+005   -3.98349E+005    6.70890E+002    9.52984E+003    1.50151E+005
            7767    3.14694E+005   -1.34755E+005   -4.80132E+005   -2.09626E+005   -4.80132E+005    3.45377E+005    2.74838E+005   -2.93635E+005   -2.09581E+005   -1.90640E+005   -4.24293E+005    9.47708E+002    7.91649E+003    1.26905E+005
            7768    2.86751E+005   -1.50199E+005   -4.62424E+005   -2.10851E+005   -4.62424E+005    3.12225E+005    2.74491E+005   -2.71751E+005   -2.10828E+005   -1.87525E+005   -4.25121E+005    8.23577E+002    5.57859E+003    1.01115E+005
            7769    3.46193E+005   -1.06945E+005   -4.89329E+005   -1.97210E+005   -4.89329E+005    3.82384E+005    2.64495E+005   -3.18061E+005   -1.97073E+005   -1.51791E+005   -4.44620E+005    2.78821E+003    3.06886E+003    1.22826E+005
            7770    3.26782E+005   -1.26356E+005   -4.85911E+005   -2.07003E+005   -4.85911E+005    3.59555E+005    2.73090E+005   -3.03155E+005   -2.06917E+005   -1.60569E+005   -4.51783E+005    2.09062E+003    2.65697E+003    1.05349E+005
            7771    2.92506E+005   -1.72089E+005   -4.86543E+005   -2.22551E+005   -4.86543E+005    3.14454E+005    2.93728E+005   -2.82462E+005   -2.22486E+005   -1.90587E+005   -4.68109E+005    2.03772E+003   -4.61057E+002    7.38536E+004
            7772    3.44665E+005   -1.27669E+005   -5.06378E+005   -2.11058E+005   -5.06378E+005    3.78709E+005    2.81702E+005   -3.20769E+005   -2.10969E+005   -1.47837E+005   -4.86299E+005    3.65357E+003   -1.98260E+003    8.47899E+004
            7773    1.05973E+005    5.83762E+004   -6.39068E+004   -6.70178E+003   -6.39068E+004    1.22283E+005    4.07745E+003    5.09653E+004   -6.74527E+003   -5.70850E+004    5.15980E+004    1.65910E+003   -1.43540E+001    2.79707E+004
            7774    8.60912E+004    5.83293E+004    5.83293E+004    4.26680E+002   -4.06017E+004    9.89310E+004   -6.05144E+003    5.70005E+004    3.16788E+002   -4.04231E+004    5.82607E+004    2.12566E+003   -3.38367E+002    2.57747E+003
            7775    7.50110E+004    6.35454E+004    6.35454E+004    8.47599E+003   -2.18873E+004    8.54326E+004   -1.67114E+004    5.85756E+004    8.28285E+003   -1.99059E+004    6.17571E+004    2.72292E+003   -8.32111E+002   -1.21224E+004
            7776    6.49917E+004    6.44990E+004    6.44990E+004    1.29668E+004   -8.51368E+003    7.30127E+004   -2.29840E+004    5.61292E+004    1.25685E+004   -3.72665E+003    6.01103E+004    3.27920E+003   -6.11632E+002   -1.72248E+004
            7777    7.41190E+004    8.03471E+004    8.03471E+004    1.71102E+004   -1.21581E+003    8.15629E+004   -3.20805E+004    6.87388E+004    1.68664E+004    2.36742E+002    7.91384E+004    2.05005E+003    6.00547E+002   -9.83232E+003
            7778    9.45505E+004    1.04175E+005    1.04175E+005    2.35473E+004    1.10087E+002    1.04065E+005   -4.26107E+004    8.76502E+004    2.35221E+004    2.24054E+002    1.04086E+005    9.53554E+002    1.16660E+003   -2.74662E+003
            7779    7.86268E+004    8.07407E+004    8.07407E+004    1.63051E+004   -6.86860E+003    8.76093E+004   -3.00590E+004    7.03053E+004    1.61464E+004   -6.05902E+003    8.00897E+004    1.91979E+003    5.53311E+000   -7.51450E+003
            7780    1.00430E+005    1.08896E+005    1.08896E+005    2.52624E+004   -2.49263E+003    1.11389E+005   -4.38887E+004    9.11848E+004    2.52339E+004   -2.43927E+003    1.08871E+005    9.14801E+002    4.27416E+002   -1.59249E+003
            7781    8.51280E+004    7.73442E+004    7.73442E+004    1.11603E+004   -1.86886E+004    9.60328E+004   -2.32720E+004    7.18540E+004    1.10543E+004   -1.83227E+004    7.70843E+004    1.92001E+003    8.08480E+002    4.86567E+003
            7782    9.96220E+004    1.05952E+005    1.05952E+005    2.31905E+004   -4.62065E+003    1.10572E+005   -4.15072E+004    9.02490E+004    2.32031E+004   -4.43376E+003    1.05752E+005    8.73352E+002    1.69545E+003    4.24676E+003
            7783    9.21154E+004    7.20817E+004    7.20817E+004    5.86272E+003   -3.31147E+004    1.05196E+005   -1.49433E+004    6.95632E+004    5.83592E+003   -2.42734E+004    6.32673E+004    1.89116E+003    9.77132E+002    2.90832E+004
            7784    8.78294E+004    9.13044E+004    9.13044E+004    1.90474E+004   -6.45364E+003    9.77580E+004   -3.46327E+004    7.88323E+004    1.90797E+004   -4.93753E+003    8.97559E+004    9.01883E+002    1.80377E+003    1.20057E+004
            7785    6.77215E+004    6.75489E+004    6.75489E+004    1.15547E+004   -7.72061E+003    7.52695E+004   -2.37943E+004    6.10774E+004    1.16345E+004   -3.00232E+003    6.27508E+004    9.28632E+002    2.04563E+003    1.82187E+004
            7786    4.79299E+004    3.67882E+004    3.67882E+004   -1.06755E+003   -1.71037E+004    5.38918E+004   -6.20566E+003    4.12118E+004   -1.03913E+003   -3.22881E+003    2.28849E+004    1.03743E+003    8.48499E+002    2.35396E+004
            7787    1.02044E+005    7.00622E+004    7.00622E+004    1.26384E+003   -4.71803E+004    1.17242E+005   -8.04858E+003    6.79475E+004    1.30343E+003   -1.91848E+004    4.20271E+004    1.99008E+003    1.30078E+003    4.99447E+004
            7788    1.07547E+005    6.51588E+004    6.51588E+004   -3.51122E+003   -5.87853E+004    1.23944E+005   -9.54111E+002    6.13769E+004   -3.49127E+003   -8.03155E+003    1.43852E+004    2.33285E+003    6.03099E+002    6.09035E+004
            7789    1.49019E+005    8.61558E+004    8.61558E+004   -3.05922E+003   -8.58774E+004    1.72033E+005    9.26956E+002    5.97160E+004   -3.04199E+003   -1.14870E+004    1.17481E+004    2.42498E+003    5.13281E+002    8.51927E+004
            7790    1.83177E+005    1.02065E+005   -1.09450E+005   -3.78866E+003   -1.09450E+005    2.11515E+005    3.72468E+003    2.12977E+004   -3.77835E+003   -1.63920E+004    8.99628E+003    1.84747E+003    4.04427E+002    1.04976E+005
            7791    2.12699E+005    1.17754E+005   -1.27844E+005   -3.66348E+003   -1.27844E+005    2.45598E+005    4.58466E+003   -5.72383E+004   -3.65714E+003   -1.81132E+004    8.01639E+003    1.09980E+003    4.00027E+002    1.22096E+005
            7792    2.39062E+005    1.32905E+005   -1.43133E+005   -3.34865E+003   -1.43133E+005    2.76037E+005    4.52554E+003   -6.71398E+004   -3.34583E+003   -1.64404E+004    6.20962E+003    5.18585E+002    3.81118E+002    1.37552E+005
            7793    1.42368E+005    7.91235E+004   -8.52343E+004   -5.97508E+003   -8.52343E+004    1.64358E+005    4.02862E+003    5.61926E+004   -5.96065E+003   -4.05511E+004    3.44259E+004    1.84398E+003    7.90129E+002    7.31026E+004
            7794    1.84091E+005    9.32743E+004   -1.19282E+005   -1.09022E+004   -1.19282E+005    2.12556E+005    1.23032E+004   -5.97790E+004   -1.08941E+004   -5.44576E+004    2.84420E+004    1.14192E+003    5.74530E+002    9.78534E+004
            7795    2.18701E+005    1.08522E+005   -1.43956E+005   -1.30803E+004   -1.43956E+005    2.52478E+005    1.61713E+004   -8.72805E+004   -1.30767E+004   -5.82004E+004    2.27633E+004    4.52864E+002    4.94983E+002    1.19570E+005
            7796    2.47845E+005    1.25021E+005   -1.61100E+005   -1.27091E+004   -1.61100E+005    2.86121E+005    1.62628E+004   -9.93867E+004   -1.27087E+004   -5.55224E+004    1.94427E+004    5.60987E+000    4.10805E+002    1.38062E+005
            7797    2.65799E+005    1.19057E+005   -1.87664E+005   -2.47991E+004   -1.87664E+005    3.06721E+005    3.11354E+004   -1.26223E+005   -2.48020E+004   -1.12384E+005    4.37801E+004   -5.21052E+002    9.80046E+002    1.31990E+005
            7798    2.18592E+005    9.19396E+004   -1.60265E+005   -2.53958E+004   -1.60265E+005    2.52205E+005    3.12406E+004   -1.07838E+005   -2.53940E+004   -1.12382E+005    4.40542E+004   -1.91212E+002    8.59818E+002    9.89090E+004
            7799    1.75139E+005    7.60622E+004   -1.26075E+005   -1.96399E+004   -1.26075E+005    2.02138E+005    2.32177E+004   -7.90103E+004   -1.96373E+004   -9.59577E+004    4.59419E+004    3.51271E+002    4.14255E+002    7.19773E+004
            7800    1.32528E+005    6.65870E+004   -8.64413E+004   -1.06080E+004   -8.64413E+004    1.53028E+005    1.01541E+004    3.29801E+004   -1.06143E+004   -7.00106E+004    5.01626E+004    1.16618E+003    3.48760E+002    4.73553E+004
            7801    9.02626E+004    9.92893E+004    9.92893E+004    2.30264E+004   -3.67079E+002    9.96564E+004   -4.06495E+004    8.30213E+004    2.29810E+004   -3.11092E+002    9.92787E+004    1.02956E+003    5.63791E+001   -1.02464E+003
            7802    6.60712E+004    7.72499E+004    7.72499E+004    1.91948E+004    5.35507E+003    7.18948E+004   -3.39332E+004    6.26843E+004    1.88540E+004    5.96502E+003    7.69807E+004    2.15867E+003   -1.10728E+002   -4.37232E+003
            7803    5.06172E+004    5.74017E+004    5.74017E+004    1.45897E+004    1.53630E+003    5.58654E+004   -2.45093E+004    4.65993E+004    1.36958E+004    7.08659E+003    5.27454E+004    3.73777E+003   -5.99558E+002   -1.51929E+004
            7804    9.05097E+004    1.00225E+005    1.00225E+005    2.20117E+004    1.08530E+003    9.91399E+004   -4.11074E+004    8.48065E+004    2.20540E+004    1.18739E+003    1.00081E+005    1.11965E+003    2.71504E+003    2.18782E+003
            7805    6.78473E+004    7.75382E+004    7.75382E+004    1.73008E+004    4.03923E+003    7.34989E+004   -3.29594E+004    6.48344E+004    1.68919E+004    4.74527E+003    7.72410E+004    2.58322E+003    1.90245E+003    4.07357E+003
            7806    3.31899E+004    4.59380E+004    4.59380E+004    1.79853E+004    9.25584E+003    3.66821E+004   -2.43930E+004    3.04422E+004    1.29381E+004    1.43847E+004    4.58562E+004    4.29404E+003    4.43019E+002   -1.59040E+003
            7807    1.02114E+005    1.12062E+005    1.12062E+005    2.61601E+004   -8.38210E+002    1.12900E+005   -4.57946E+004    9.35652E+004    2.61482E+004   -4.89939E+002    1.11725E+005    1.40345E+003    2.02043E+003    5.66792E+003
            7808    7.73140E+004    8.94152E+004    8.94152E+004    2.21221E+004    4.96323E+003    8.44520E+004   -3.88335E+004    7.28427E+004    2.17167E+004    8.61018E+003    8.61736E+004    3.18529E+003    1.58272E+003    1.60023E+004
            7809    4.46459E+004    5.47889E+004    5.47889E+004    1.59099E+004    6.03087E+003    4.87580E+004   -2.55765E+004    4.20800E+004    1.36590E+004    1.79731E+004    4.50975E+004    5.27705E+003    8.80151E+002    1.85835E+004
            7810    2.45745E+005    1.47164E+005    1.47164E+005    3.46263E+003   -1.36590E+005    2.83754E+005   -4.67878E+003    6.91372E+004    3.46046E+003    1.70235E+004   -6.44759E+003    4.22845E+002   -3.65252E+002    1.41390E+005
            7811    2.55806E+005    1.65294E+005    1.65294E+005    1.24175E+004   -1.30024E+005    2.95318E+005   -1.58956E+004    1.00781E+005    1.24176E+004    5.48099E+004   -1.95406E+004   -7.90267E+001   -4.21774E+002    1.42902E+005
            7812    2.70334E+005    1.90124E+005    1.90124E+005    2.47614E+004   -1.21843E+005    3.11967E+005   -3.10143E+004    1.27096E+005    2.47647E+004    1.11624E+005   -4.33459E+004   -5.39921E+002   -1.02340E+003    1.35372E+005
            7813    2.67880E+005    1.58506E+005    1.58506E+005    2.47947E+003   -1.50812E+005    3.09318E+005   -3.39121E+003    6.65248E+004    2.47893E+003    1.25669E+004   -4.87220E+003    1.43856E+002   -2.77849E+002    1.54413E+005
            7814    2.82806E+005    1.76956E+005    1.76956E+005    9.44609E+003   -1.49563E+005    3.26519E+005   -1.22796E+004    1.00646E+005    9.44706E+003    4.24077E+004   -1.50160E+004   -2.85313E+002   -2.91070E+002    1.60714E+005
            7815    3.12470E+005    2.06785E+005    2.06785E+005    1.89327E+004   -1.53921E+005    3.60706E+005   -2.39323E+004    1.29961E+005    1.89374E+004    8.99488E+004   -3.70891E+004   -6.22286E+002   -8.93813E+002    1.68794E+005
            7816    2.83839E+005    1.65993E+005    1.65993E+005    1.37757E+003   -1.61755E+005    3.27748E+005   -1.87202E+003    5.63844E+004    1.37754E+003    6.85196E+003   -2.61343E+003    1.59082E+001   -1.34076E+002    1.63806E+005
            7817    3.01855E+005    1.81078E+005    1.81078E+005    4.67735E+003   -1.67465E+005    3.48543E+005   -6.09650E+003    8.34839E+004    4.67810E+003    2.15675E+004   -7.95606E+003   -3.59301E+002   -1.72575E+002    1.73645E+005
            7818    3.42352E+005    2.12107E+005    2.12107E+005    1.04023E+004   -1.83180E+005    3.95286E+005   -1.31098E+004    1.12602E+005    1.04054E+004    5.00577E+004   -2.11337E+004   -5.89888E+002   -5.31747E+002    1.94410E+005
            7819    2.88580E+005    1.66210E+005   -1.67013E+005   -2.48444E+002   -1.67013E+005    3.33223E+005    3.50380E+002   -3.36789E+004   -2.48445E+002   -1.23876E+003    4.36061E+002   -1.11456E+001    1.10746E+001    1.66610E+005
            7820    3.07762E+005    1.76900E+005   -1.78472E+005   -5.65277E+002   -1.78472E+005    3.55372E+005    7.12438E+002   -3.97323E+004   -5.65479E+002   -2.80857E+003    1.23674E+003   -3.68995E+002    4.66501E+001    1.77674E+005
            7821    3.53053E+005    2.03085E+005   -2.04586E+005   -5.70879E+002   -2.04586E+005    4.07670E+005    6.90674E+002   -4.06546E+004   -5.71047E+002   -2.34915E+003    8.48172E+002   -5.64377E+002    2.83264E+001    2.03828E+005
            7822    2.80296E+005    1.59387E+005   -1.64270E+005   -1.55435E+003   -1.64270E+005    3.23656E+005    2.14583E+003   -5.93553E+004   -1.55429E+003   -8.04923E+003    3.16603E+003    2.48402E+001    1.69257E+002    1.61731E+005
            7823    2.97762E+005    1.63281E+005   -1.80531E+005   -5.90640E+003   -1.80531E+005    3.43812E+005    7.71869E+003   -8.97520E+004   -5.90724E+003   -2.73454E+004    1.00966E+004   -3.54311E+002    1.94414E+002    1.70883E+005
            7824    3.40504E+005    1.81456E+005   -2.11691E+005   -1.07522E+004   -2.11691E+005    3.93148E+005    1.36623E+004   -1.14928E+005   -1.07554E+004   -5.30777E+004    2.28461E+004   -5.96284E+002    5.39213E+002    1.92872E+005
            7825    2.62005E+005    1.46883E+005   -1.55649E+005   -2.79569E+003   -1.55649E+005    3.02532E+005    3.85368E+003   -6.88807E+004   -2.79496E+003   -1.40978E+004    5.33172E+003    1.79660E+002    2.92787E+002    1.50953E+005
            7826    2.75802E+005    1.44736E+005   -1.73691E+005   -1.00287E+004   -1.73691E+005    3.18427E+005    1.29948E+004   -1.00495E+005   -1.00298E+004   -4.48583E+004    1.59037E+004   -2.65265E+002    3.54855E+002    1.56287E+005
            7827    3.08888E+005    1.50682E+005   -2.05880E+005   -1.98556E+004   -2.05880E+005    3.56561E+005    2.50179E+004   -1.30346E+005   -1.98603E+004   -9.29191E+004    3.77257E+004   -6.10606E+002    9.50961E+002    1.65879E+005
            7828    2.09644E+005    1.84547E+005    1.84547E+005    3.19494E+004   -5.44982E+004    2.39045E+005   -5.39993E+004    1.61551E+005    3.20546E+004   -1.41918E+004    1.44135E+005    1.28175E+004    7.57409E+003    8.83208E+004
            7829    1.72431E+005    1.75473E+005    1.75473E+005    3.38356E+004   -1.65332E+004    1.92006E+005   -6.42585E+004    1.54533E+005    3.43447E+004   -8.04540E+003    1.66476E+005    6.47524E+003    9.97622E+003    3.85194E+004
            7830    1.80224E+005    1.96713E+005    1.96713E+005    4.24309E+004   -1.37624E+003    1.98090E+005   -7.92560E+004    1.67606E+005    4.33552E+004   -5.75445E+002    1.94988E+005    2.77810E+003    1.23525E+004    1.17774E+004
            7831    1.47253E+005    1.32487E+005    1.32487E+005    2.30158E+004   -3.49229E+004    1.67410E+005   -4.01933E+004    1.17147E+005    2.28878E+004    3.79151E+003    9.39005E+004    9.98530E+003    4.25667E+003    6.96812E+004
            7832    1.36381E+005    1.44740E+005    1.44740E+005    3.16564E+004   -6.71652E+003    1.51457E+005   -5.65601E+004    1.23331E+005    3.16591E+004    3.98032E+003    1.34041E+005    5.43254E+003    5.39195E+003    3.80445E+004
            7833    1.54045E+005    1.66827E+005    1.66827E+005    3.76113E+004   -3.64466E+003    1.70472E+005   -6.69313E+004    1.40789E+005    3.78694E+004   -2.78090E+003    1.65705E+005    2.36791E+003    6.54879E+003    1.14484E+004
            7834    9.32209E+004    9.20374E+004    9.20374E+004    1.80310E+004   -1.26595E+004    1.04697E+005   -3.24696E+004    8.06200E+004    1.78809E+004    1.77351E+004    6.17929E+004    7.32799E+003    2.94096E+003    4.67918E+004
            7835    1.03075E+005    1.10440E+005    1.10440E+005    2.27244E+004   -3.08849E+003    1.13528E+005   -4.33585E+004    9.53878E+004    2.28979E+004    4.07932E+003    1.03098E+005    4.12957E+003    5.42021E+003    2.70163E+004
            7836    1.21446E+005    1.34038E+005    1.34038E+005    3.01473E+004    5.20052E+002    1.33518E+005   -5.49017E+004    1.12877E+005    3.05802E+004    1.28881E+003    1.32836E+005    1.67799E+003    6.92980E+003    9.78082E+003
            7837    7.91400E+004    5.69645E+003   -8.21054E+004   -1.62666E+004   -8.21054E+004    8.78018E+004    3.08919E+004   -7.17885E+004   -1.63299E+004    3.85732E+003   -8.02030E+004    7.13942E+002   -2.07697E+003    1.25427E+004
            7838    9.39375E+004    1.85528E+003   -1.01982E+005   -2.29045E+004   -1.01982E+005    1.03837E+005    4.10104E+004   -8.61253E+004   -2.29564E+004    1.35046E+003   -1.01425E+005    6.58054E+002   -2.17867E+003    7.14592E+003
            7839    1.04529E+005    3.29704E+003   -1.12711E+005   -2.58497E+004   -1.12711E+005    1.16008E+005    4.50880E+004   -9.47188E+004   -2.58530E+004    3.24317E+003   -1.12654E+005    5.94207E+002   -1.11203E+003    2.22275E+003
            7840    1.03229E+005   -6.05245E+002   -1.14375E+005   -2.66945E+004   -1.14375E+005    1.13770E+005    4.72251E+004   -9.53787E+004   -2.67007E+004   -6.29237E+002   -1.14345E+005    5.59997E+002   -1.29033E+003   -1.13904E+003
            7841    1.00114E+005    1.53220E+003   -1.09199E+005   -2.50800E+004   -1.09199E+005    1.10731E+005    4.42490E+004   -9.16361E+004   -2.50705E+004    1.48741E+003   -1.09164E+005    5.02353E+002   -7.27461E+001   -1.97560E+003
            7842    8.40677E+004    2.33032E+004   -7.20236E+004   -8.48638E+003   -7.20236E+004    9.53268E+004    1.90689E+004   -6.84388E+004   -8.51227E+003    1.04977E+004   -5.91922E+004    1.78672E+003   -1.48508E+003    3.24444E+004
            7843    8.57801E+004    1.59558E+004   -8.04066E+004   -1.23775E+004   -8.04066E+004    9.63624E+004    2.56094E+004   -7.40996E+004   -1.23612E+004    1.24810E+004   -7.69481E+004    1.70993E+003   -1.57585E+003    1.77851E+004
            7844    8.63524E+004    7.19439E+003   -8.89037E+004   -1.78199E+004   -8.89037E+004    9.60981E+004    3.31764E+004   -7.75509E+004   -1.77217E+004    6.90099E+003   -8.87086E+004    1.66514E+003   -7.14470E+002    4.22655E+003
            7845    8.92370E+004    5.43126E+003   -9.34279E+004   -1.88310E+004   -9.34279E+004    9.88591E+004    3.56092E+004   -8.13055E+004   -1.87085E+004    5.10658E+003   -9.32257E+004    1.74147E+003   -8.76655E+002   -4.36743E+003
            7846    8.35959E+004   -1.67106E+003   -9.35461E+004   -2.19668E+004   -9.35461E+004    9.18751E+004    3.90613E+004   -7.77574E+004   -2.18130E+004   -2.19791E+003   -9.31731E+004    1.77374E+003    1.01140E+002   -5.83260E+003
            7847    1.06613E+005    5.11653E+004   -7.14649E+004   -7.84235E+002   -7.14649E+004    1.22630E+005    7.02795E+003   -6.81179E+004   -7.89508E+002    2.87337E+004   -4.90280E+004    2.02327E+003   -9.82702E+002    4.73583E+004
            7848    9.12785E+004    3.35012E+004   -7.07484E+004   -5.17821E+003   -7.07484E+004    1.04250E+005    1.41418E+004   -6.88484E+004   -5.13283E+003    2.70162E+004   -6.43088E+004    2.05376E+003   -9.97769E+002    2.50221E+004
            7849    8.30547E+004    2.08470E+004   -7.32143E+004   -9.98405E+003   -7.32143E+004    9.40613E+004    2.07838E+004   -6.82729E+004   -9.83456E+003    2.04730E+004   -7.29897E+004    2.16584E+003   -2.11529E+002    4.57054E+003
            7850    7.67985E+004    7.72031E+003   -7.78930E+004   -1.50668E+004   -7.78930E+004    8.56133E+004    2.84132E+004   -6.85507E+004   -1.48290E+004    6.98404E+003   -7.73946E+004    2.29294E+003   -4.78106E+002   -6.49482E+003
            7851    7.36319E+004    3.37778E+003   -7.83290E+004   -1.71122E+004   -7.83290E+004    8.17067E+004    3.06878E+004   -6.67519E+004   -1.68699E+004    1.90151E+003   -7.70950E+004    2.30880E+003    3.70486E+002   -9.92177E+003
            7852    1.31960E+005    8.06905E+004    8.06905E+004    7.32947E+003   -7.16494E+004    1.52340E+005   -5.45688E+003   -5.27342E+004    7.33383E+003    5.48490E+004   -4.58122E+004    1.58209E+003   -5.23764E+002    5.71480E+004
            7853    1.03579E+005    5.64247E+004   -6.29295E+004    3.42699E+003   -6.29295E+004    1.19354E+005    1.02593E+003   -5.97948E+004    3.47601E+003    5.02465E+004   -5.68003E+004    1.85827E+003   -3.17658E+002    2.63197E+004
            7854    8.29162E+004    3.09042E+004   -6.39284E+004   -5.10308E+003   -6.39284E+004    9.48326E+004    1.27091E+004   -6.12136E+004   -4.97083E+003    3.06428E+004   -6.37992E+004    2.17445E+003    2.50339E+002    3.48868E+003
            7855    7.48668E+004    1.74792E+004   -6.71374E+004   -9.49744E+003   -6.71374E+004    8.46166E+004    1.97186E+004   -6.24358E+004   -9.25508E+003    1.56647E+004   -6.55653E+004    2.58192E+003    5.88203E+000   -1.14013E+004
            7856    6.20418E+004    1.39187E+003   -6.73154E+004   -1.53930E+004   -6.73154E+004    6.87073E+004    2.71055E+004   -5.65858E+004   -1.49768E+004   -1.85960E+003   -6.44802E+004    2.88557E+003    6.41774E+002   -1.35520E+004
            7857    6.48103E+004    1.26014E+004   -6.08364E+004   -1.16460E+004   -6.08364E+004    7.34378E+004    1.99604E+004   -5.30614E+004   -1.13945E+004    6.24479E+003   -5.47314E+004    3.32155E+003    1.16680E+003   -2.00792E+004
            7858    7.57695E+004    2.72557E+004   -5.94694E+004   -6.10258E+003   -5.94694E+004    8.67251E+004    1.27721E+004   -5.52112E+004   -5.95050E+003    2.54769E+004   -5.78427E+004    2.61901E+003    9.44838E+002   -1.16397E+004
            7859    9.03649E+004    4.98361E+004   -5.43415E+004    2.85527E+003   -5.43415E+004    1.04178E+005    5.50052E+002   -4.99466E+004    2.92094E+003    4.97564E+004   -5.43275E+004    1.90173E+003    8.28688E+002    4.87164E+002
            7860    1.12479E+005    7.49897E+004    7.49897E+004    1.10393E+004   -5.48854E+004    1.29875E+005   -1.03812E+004   -3.34611E+004    1.10651E+004    7.11491E+004   -5.10707E+004    1.25413E+003    2.93581E+002    2.19266E+004
            7861    1.42702E+005    1.01261E+005    1.01261E+005    1.61830E+004   -6.34876E+004    1.64748E+005   -1.79854E+004    5.48578E+004    1.61875E+004    8.50300E+004   -4.72613E+004    7.47484E+002   -6.46996E+001    4.90888E+004
            7862    1.79645E+005    1.29144E+005    1.29144E+005    2.00085E+004   -7.81960E+004    2.07340E+005   -2.36523E+004    8.08510E+004    2.00050E+004    9.80276E+004   -4.70758E+004    2.88424E+002   -5.19326E+002    7.40499E+004
            7863    2.24334E+005    1.62956E+005    1.62956E+005    2.47343E+004   -9.58828E+004    2.58839E+005   -3.06026E+004    1.09869E+005    2.47339E+004    1.11845E+005   -4.47709E+004   -2.65118E+002   -7.97079E+002    1.03037E+005
            7864    2.25868E+005    1.48962E+005    1.48962E+005    1.35638E+004   -1.11784E+005    2.60746E+005   -1.69141E+004    9.16017E+004    1.35612E+004    6.07045E+004   -2.35235E+004    3.30498E+002   -4.71191E+002    1.23382E+005
            7865    2.20206E+005    1.32419E+005    1.32419E+005    3.74187E+003   -1.21846E+005    2.54265E+005   -4.77165E+003    6.07943E+004    3.73662E+003    1.84262E+004   -7.84789E+003    9.28576E+002   -3.93605E+002    1.26448E+005
            7866    1.90055E+005    1.24278E+005    1.24278E+005    1.17688E+004   -9.51550E+004    2.19433E+005   -1.36306E+004    6.71319E+004    1.17616E+004    5.81690E+004   -2.90388E+004    9.27310E+002   -5.68990E+002    1.00674E+005
            7867    1.92672E+005    1.15349E+005    1.15349E+005    3.71370E+003   -1.07129E+005    2.22478E+005   -3.97792E+003    3.53406E+004    3.70428E+003    1.73873E+004   -9.15779E+003    1.58462E+003   -4.18295E+002    1.10432E+005
            7868    1.64489E+005    9.67725E+004    9.67725E+004    3.47155E+003   -9.31533E+004    1.89926E+005   -2.36357E+003   -5.12844E+004    3.46027E+003    1.40501E+004   -1.04196E+004    2.17272E+003   -4.04473E+002    9.41456E+004
            7869    1.29747E+005    7.42294E+004   -7.55031E+004    3.77314E+003   -7.55031E+004    1.49732E+005   -8.33146E+002   -6.05845E+004    3.76170E+003    1.01041E+004   -1.13663E+004    2.53866E+003   -4.26245E+002    7.40482E+004
            7870    8.87362E+004    4.65032E+004   -5.55553E+004    3.35818E+003   -5.55553E+004    1.02058E+005    1.89797E+003   -5.69065E+004    3.34048E+003    3.55094E+003   -1.25853E+004    2.20920E+003   -5.51498E+002    5.03373E+004
            7871    3.88234E+004    1.38515E+004   -2.93094E+004    2.76396E+003   -2.93094E+004    4.31610E+004    4.23131E+003   -3.49865E+004    2.73894E+003    2.58429E+003   -1.80172E+004    9.18957E+002   -7.62345E+002    1.89327E+004
            7872    1.54843E+005    9.53274E+004    9.53274E+004    7.34594E+003   -8.34619E+004    1.78789E+005   -6.40383E+003   -4.66676E+004    7.32965E+003    4.25246E+004   -3.06427E+004    1.69481E+003   -7.86644E+002    8.15449E+004
            7873    1.20430E+005    6.36633E+004   -7.51606E+004    1.27008E+003   -7.51606E+004    1.38824E+005    3.40908E+003   -6.72397E+004    1.23463E+003    2.04077E+004   -3.18696E+004    2.18287E+003   -1.08455E+003    6.42581E+004
            7874    8.75540E+004    3.58780E+004   -6.43003E+004   -2.42416E+003   -6.43003E+004    1.00178E+005    1.02822E+004   -6.41925E+004   -2.48368E+003    9.18517E+003   -3.75480E+004    1.92307E+003   -1.44764E+003    4.42474E+004
            7875    5.62942E+004    5.06327E+003   -5.68862E+004   -8.86038E+003   -5.68862E+004    6.19494E+004    2.02278E+004   -5.22049E+004   -8.95210E+003    4.10816E+002   -5.21420E+004    7.74311E+002   -1.99281E+003    1.63086E+004
            7876    2.56798E+005    2.95418E+005    2.95418E+005    6.36423E+004    1.93572E+004    2.76060E+005   -1.26139E+005    2.47988E+005    6.36195E+004    2.22847E+004    2.92513E+005    1.61430E+003   -4.24232E+003    2.78173E+004
            7877    2.48123E+005    2.62198E+005    2.62198E+005    4.04251E+004   -5.77945E+003    2.67978E+005   -9.89480E+004    2.38154E+005    4.04981E+004   -5.51845E+003    2.61864E+005    2.49363E+003    6.47012E+003    6.16059E+003
            7878    2.20752E+005    2.40468E+005    2.40468E+005    4.47882E+004    1.15773E+003    2.39310E+005   -9.54712E+004    2.10722E+005    4.53081E+004    1.57085E+003    2.39535E+005    3.37280E+003    1.18426E+004    6.95140E+003
            7879    2.13270E+005    2.26165E+005    2.26165E+005    4.21359E+004   -7.56705E+003    2.33732E+005   -8.69113E+004    1.99605E+005    4.26317E+004   -7.17097E+003    2.25273E+005    3.33492E+003    1.10472E+004    7.07535E+003
            7880    3.04023E+005    3.54158E+005    3.54158E+005    9.44016E+004    1.97691E+004    3.34389E+005   -1.56110E+005    2.82287E+005    9.41845E+004    3.05431E+004    3.43602E+005    4.21541E+003    4.42572E+002    5.84341E+004
            7881    2.74813E+005    3.09227E+005    3.09227E+005    7.32433E+004    7.50805E+003    3.01719E+005   -1.29993E+005    2.56212E+005    7.30135E+004    1.41350E+004    3.02830E+005    6.90747E+003    7.29418E+003    4.24487E+004
            7882    2.38127E+005    2.47789E+005    2.47789E+005    5.03656E+004   -1.66710E+004    2.64460E+005   -9.38280E+004    2.15314E+005    5.03445E+004   -1.32570E+004    2.44397E+005    7.53929E+003    1.01932E+004    2.69511E+004
            7883    2.09239E+005    2.18198E+005    2.18198E+005    4.43033E+004   -1.40130E+004    2.32211E+005   -8.28294E+004    1.89623E+005    4.42502E+004   -7.09323E+003    2.11331E+005    7.75473E+003    9.07496E+003    3.75178E+004
            7884    2.69587E+005    2.38098E+005    2.38098E+005    4.28926E+004   -6.95014E+004    3.07599E+005   -7.04962E+004    2.06015E+005    4.27372E+004   -3.86216E+004    2.07373E+005    1.41077E+004    8.92978E+003    9.07784E+004
            7885    3.23005E+005    3.08452E+005    3.08452E+005    6.97134E+004   -5.90811E+004    3.67533E+005   -1.06361E+005    2.54795E+005    6.96107E+004   -3.33692E+004    2.82842E+005    1.38505E+004    1.04221E+004    9.20136E+004
            7886    3.50826E+005    3.64874E+005    3.64874E+005    9.58148E+004   -3.19234E+004    3.96797E+005   -1.42922E+005    2.91146E+005    9.55737E+004   -1.31251E+004    3.46317E+005    1.22067E+004    9.53477E+003    8.24949E+004
            7887    3.94452E+005    4.50406E+005    4.50406E+005    1.38482E+005    7.00802E+003    4.43398E+005   -1.98632E+005    3.39634E+005    1.38183E+005    3.17803E+004    4.25933E+005    1.02968E+004    6.58935E+003    1.00673E+005
            7888    3.60283E+005    4.74644E+005    4.74644E+005    1.73675E+005    7.54290E+004    3.99215E+005   -2.41249E+005    3.28056E+005    1.73504E+005    1.01070E+005    4.49175E+005    7.98741E+003    6.24542E+003    9.71014E+004
            7889    3.36391E+005    4.95013E+005    4.95013E+005    2.03503E+005    1.26941E+005    3.68073E+005   -2.75152E+005    3.15882E+005    2.03401E+005    1.45554E+005    4.76503E+005    5.55052E+003    5.15876E+003    8.01192E+004
            7890    2.98278E+005    4.90657E+005    4.90657E+005    2.20670E+005    1.70461E+005    3.20196E+005   -2.93929E+005    2.88540E+005    2.20579E+005    1.90819E+005    4.70389E+005    4.21478E+003    4.12319E+003    7.77611E+004
            7891    2.50666E+005    4.44268E+005    4.44268E+005    2.10716E+005    1.79427E+005    2.64842E+005   -2.78137E+005    2.46215E+005    2.10668E+005    2.05648E+005    4.18095E+005    2.77884E+003    2.76834E+003    7.89403E+004
            7892    2.95286E+005    4.50389E+005    4.50389E+005    1.93391E+005    1.27833E+005    3.22555E+005   -2.57204E+005    2.78196E+005    1.93240E+005    1.55549E+005    4.22823E+005    2.46786E+003   -3.75625E+003    9.00944E+004
            7893    2.48341E+005    4.20999E+005    4.20999E+005    1.97476E+005    1.53670E+005    2.67329E+005   -2.57382E+005    2.39416E+005    1.97505E+005    1.76520E+005    3.98119E+005    8.59766E+002   -8.51041E+003    7.42911E+004
            7894    3.29466E+005    4.85578E+005    4.85578E+005    2.00424E+005    1.24911E+005    3.60667E+005   -2.70304E+005    3.09082E+005    2.00218E+005    1.59682E+005    4.51012E+005    3.03860E+003   -4.62037E+003    1.06065E+005
            7895    2.93022E+005    4.69180E+005    4.69180E+005    2.11555E+005    1.50410E+005    3.18770E+005   -2.77048E+005    2.78120E+005    2.11560E+005    1.89839E+005    4.29747E+005    9.87976E+002   -1.07650E+004    1.04395E+005
            7896    3.57619E+005    4.99976E+005    4.99976E+005    1.93823E+005    1.06912E+005    3.93064E+005   -2.66904E+005    3.32589E+005    1.93602E+005    1.53413E+005    4.53696E+005    3.23848E+003   -5.13191E+003    1.26575E+005
            7897    3.22323E+005    4.74367E+005    4.74367E+005    2.00220E+005    1.19292E+005    3.55075E+005   -2.64627E+005    2.98152E+005    2.00127E+005    1.85217E+005    4.08536E+005    1.20364E+003   -1.31046E+004    1.37366E+005
            7898    3.42920E+005    4.50224E+005    4.50224E+005    1.57888E+005    7.27582E+004    3.77466E+005   -2.26957E+005    3.17814E+005    1.57578E+005    1.26349E+005    3.96943E+005    3.56859E+003   -6.26970E+003    1.31265E+005
            7899    3.32007E+005    4.71933E+005    4.71933E+005    1.91736E+005    1.05238E+005    3.66695E+005   -2.56302E+005    3.05073E+005    1.91649E+005    1.79560E+005    3.97698E+005    1.06582E+003   -1.63557E+004    1.46435E+005
            7900    3.60179E+005    4.67806E+005    4.67806E+005    1.74081E+005    6.59468E+004    4.01859E+005   -2.35944E+005    3.20489E+005    1.73939E+005    1.71931E+005    3.61963E+005    7.19284E+002   -2.08791E+004    1.75770E+005
            7901    4.47777E+005    5.73339E+005    5.73339E+005    2.09782E+005    7.31676E+004    5.00171E+005   -2.85430E+005    3.96660E+005    2.10948E+005    1.24963E+005    5.20378E+005    1.30187E+002   -2.62444E+004    1.51318E+005
            7902    3.90276E+005    4.71770E+005    4.71770E+005    1.46505E+005    3.90125E+004    4.32758E+005   -2.19096E+005    3.54609E+005    1.46420E+005    9.31711E+004    4.17697E+005    2.23257E+003   -8.26414E+003    1.42856E+005
            7903    3.31842E+005    3.56723E+005    3.56723E+005    8.08387E+004   -1.15136E+004    3.68236E+005   -1.42016E+005    3.00829E+005    8.14527E+004   -7.20228E+003    3.51797E+005    7.03981E+002   -1.36847E+004    3.93390E+004
            7904    4.90474E+004   -6.90168E+002   -5.50957E+004   -1.42667E+004   -5.50957E+004    5.44056E+004    2.33508E+004   -4.45166E+004   -1.33604E+004   -7.04821E+003   -4.96439E+004    3.86510E+003    4.93371E+002   -1.60700E+004
            7905    5.45782E+004   -1.94324E+003   -6.14978E+004   -1.38677E+004   -6.14978E+004    5.95545E+004    2.57696E+004   -5.15235E+004   -1.28332E+004   -4.85173E+003   -5.96238E+004    3.32966E+003   -4.53695E+002   -1.03018E+004
            7906    6.56574E+004   -4.88048E+003   -7.61909E+004   -1.82417E+004   -7.61909E+004    7.13104E+004    3.31043E+004   -6.24879E+004   -1.77730E+004   -5.68402E+003   -7.58560E+004    2.42598E+003   -9.12307E+002   -4.78909E+003
            7907    8.34259E+004    6.65907E+002   -9.08945E+004   -1.91836E+004   -9.08945E+004    9.15604E+004    3.64707E+004   -7.78424E+004   -1.90077E+004    3.73218E+002   -9.07778E+004    1.91527E+003   -1.20857E+003   -2.99784E+003
            7908    9.30178E+004   -2.11651E+003   -1.03890E+005   -2.32713E+004   -1.03890E+005    1.01773E+005    4.30925E+004   -8.73559E+004   -2.32882E+004   -2.13655E+003   -1.03853E+005    5.41788E+002   -1.59441E+003   -7.51396E+002
            7909    2.62897E+004   -8.71430E+003   -3.83158E+004   -1.76873E+004   -3.83158E+004    2.96015E+004    2.15725E+004   -2.24348E+004   -1.19067E+004   -1.59090E+004   -3.69017E+004    4.47442E+003    2.72384E+002   -5.48126E+003
            7910    4.37585E+004   -1.13665E+004   -5.85462E+004   -1.92923E+004   -5.85462E+004    4.71797E+004    2.97350E+004   -4.20980E+004   -1.63924E+004   -1.44985E+004   -5.83141E+004    3.82700E+003    1.59988E+001    3.18639E+003
            7911    6.56736E+004   -3.37376E+003   -7.52135E+004   -1.82626E+004   -7.52135E+004    7.18398E+004    3.22833E+004   -6.17025E+004   -1.77629E+004   -4.02292E+003   -7.50641E+004    2.71332E+003   -3.86646E+002    3.21245E+003
            7912    7.98518E+004   -4.86163E+003   -9.21273E+004   -2.27102E+004   -9.21273E+004    8.72657E+004    3.98997E+004   -7.51645E+004   -2.24656E+004   -5.26039E+003   -9.19731E+004    2.14679E+003   -7.33392E+002    3.54301E+003
            7913    9.61202E+004    1.36112E+003   -1.04792E+005   -2.36500E+004   -1.04792E+005    1.06153E+005    4.23604E+004   -8.83432E+004   -2.36453E+004    1.33319E+003   -1.04769E+005    6.12932E+002   -8.83296E+002    1.19179E+003
            7914    4.51163E+004   -5.07530E+003   -5.43818E+004   -1.51638E+004   -5.43818E+004    4.93065E+004    2.48736E+004   -4.24658E+004   -1.35993E+004   -2.18349E+004   -3.91867E+004    5.62849E+003   -1.13023E+003    2.17930E+004
            7915    5.92663E+004   -3.33376E+003   -6.75516E+004   -1.49599E+004   -6.75516E+004    6.42178E+004    2.86151E+004   -5.66147E+004   -1.38277E+004   -1.08769E+004   -6.11407E+004    4.79805E+003   -2.42744E+003    1.86092E+004
            7916    7.62368E+004   -4.88408E+003   -8.76327E+004   -2.02477E+004   -8.76327E+004    8.27486E+004    3.75882E+004   -7.26303E+004   -2.00535E+004   -8.87131E+003   -8.38397E+004    3.24996E+003   -3.26497E+003    1.67471E+004
            7917    9.48251E+004    1.62817E+003   -1.02551E+005   -2.12749E+004   -1.02551E+005    1.04179E+005    4.07325E+004   -8.82744E+004   -2.12681E+004    4.11356E+002   -1.01341E+005    2.56970E+003   -3.82044E+003    1.01759E+004
            7918    1.03821E+005   -2.62044E+003   -1.16110E+005   -2.59150E+004   -1.16110E+005    1.13490E+005    4.82152E+004   -9.76783E+004   -2.61166E+004   -2.76897E+003   -1.15760E+005    7.57887E+002   -4.39946E+003    3.87516E+003
            7919    2.48045E+005   -1.78824E+005   -4.40817E+005   -2.09591E+005   -4.40817E+005    2.61994E+005    2.76411E+005   -2.43696E+005   -2.09556E+005   -2.06033E+005   -4.13643E+005    2.77300E+003   -2.91370E+003    7.97803E+004
            7920    2.82832E+005   -1.23320E+005   -4.32295E+005   -1.86182E+005   -4.32295E+005    3.08975E+005    2.47266E+005   -2.66425E+005   -1.86025E+005   -1.50294E+005   -4.05478E+005    2.49074E+003    3.44368E+003    8.69146E+004
            7921    2.35954E+005   -1.50425E+005   -4.03951E+005   -1.90773E+005   -4.03951E+005    2.53527E+005    2.48383E+005   -2.27998E+005   -1.90810E+005   -1.68962E+005   -3.85376E+005    8.62448E+002    7.87976E+003    6.55790E+004
            7922    2.15130E+005   -1.31755E+005   -3.62905E+005   -1.68539E+005   -3.62905E+005    2.31150E+005    2.21067E+005   -2.07877E+005   -1.68543E+005   -1.81939E+005   -3.12718E+005    1.88251E+003   -1.59267E+003    9.52681E+004
            7923    2.18385E+005   -9.45386E+004   -3.33738E+005   -1.45001E+005   -3.33738E+005    2.39199E+005    1.91092E+005   -2.04642E+005   -1.44873E+005   -1.18659E+005   -3.09745E+005    2.00819E+003    2.46777E+003    7.18094E+004
            7924    1.67483E+005   -1.21137E+005   -2.99347E+005   -1.45192E+005   -2.99347E+005    1.78210E+005    1.88559E+005   -1.63528E+005   -1.45222E+005   -1.28641E+005   -2.91813E+005    7.67104E+002    5.45716E+003    3.54266E+004
            7925    2.08545E+005   -1.92498E+004   -2.54799E+005   -9.36846E+004   -2.54799E+005    2.35549E+005    1.22578E+005   -1.74669E+005   -9.36914E+004   -1.06635E+005   -1.67407E+005    1.51448E+003   -7.48835E+002    1.13776E+005
            7926    1.39518E+005   -3.32510E+004   -1.89034E+005   -7.55889E+004   -1.89034E+005    1.55783E+005    9.92913E+004   -1.23778E+005   -7.54900E+004   -6.29298E+004   -1.59454E+005    1.73219E+003    1.12508E+003    6.10742E+004
            7927    8.33902E+004   -6.38933E+004   -1.52207E+005   -7.48164E+004   -1.52207E+005    8.83135E+004    9.69721E+004   -8.17575E+004   -7.47849E+004   -6.59520E+004   -1.50180E+005    7.25638E+002    2.68036E+003    1.29420E+004
            7928    2.09445E+005    1.29539E+005    1.29539E+005    5.80162E+003   -1.12286E+005    2.41825E+005   -7.68467E+003    7.18958E+004    5.80397E+003    6.24595E+003    1.10041E+004    1.39062E+003    1.32247E+002    1.20881E+005
            7929    1.00109E+005    7.20242E+004    7.20242E+004    9.68346E+003   -4.34492E+004    1.15473E+005   -1.27528E+004    5.16804E+004    9.66808E+003    8.91155E+003    1.96788E+004    1.66765E+003   -1.20743E+002    5.74602E+004
            7930    1.60808E+004    2.52887E+004    2.52887E+004    1.16650E+004    7.55028E+003    1.77384E+004   -1.48346E+004    1.48254E+004    1.14771E+004    1.04227E+004    2.26041E+004    7.68509E+002   -3.88986E+002    6.31699E+003
            7931    2.08570E+005    2.67609E+005    2.67609E+005    1.02807E+005    3.31170E+004    2.34492E+005   -1.34511E+005    1.79423E+005    1.02813E+005    1.16274E+005    1.84445E+005    1.53456E+003    7.96764E+002    1.12170E+005
            7932    1.55434E+005    2.23190E+005    2.23190E+005    9.32880E+004    5.09820E+004    1.72208E+005   -1.22487E+005    1.41587E+005    9.31772E+004    7.75449E+004    1.96737E+005    1.75080E+003   -1.49854E+003    6.20643E+004
            7933    1.05017E+005    1.93023E+005    1.93023E+005    9.51792E+004    8.20654E+004    1.10958E+005   -1.23423E+005    1.03151E+005    9.51690E+004    8.48865E+004    1.90212E+005    7.24379E+002   -3.44510E+003    1.70793E+004
            7934    2.20631E+005    3.75116E+005    3.75116E+005    1.74737E+005    1.38676E+005    2.36440E+005   -2.29510E+005    2.13850E+005    1.74741E+005    1.86838E+005    3.26950E+005    2.03873E+003    1.80272E+003    9.51896E+004
            7935    2.30921E+005    3.56915E+005    3.56915E+005    1.55920E+005    1.04676E+005    2.52239E+005   -2.05837E+005    2.17570E+005    1.55775E+005    1.28413E+005    3.33323E+005    2.16620E+003   -2.68426E+003    7.33920E+004
            7936    1.86279E+005    3.31892E+005    3.31892E+005    1.60672E+005    1.33532E+005    1.98360E+005   -2.08699E+005    1.81751E+005    1.60710E+005    1.42791E+005    3.22595E+005    7.99149E+002   -6.21055E+003    4.14465E+004
            7937    1.89155E+005    4.03666E+003   -2.04245E+005   -4.31506E+004   -2.04245E+005    2.08282E+005    8.11196E+004   -1.75163E+005   -4.36877E+004    3.81652E+003   -2.03488E+005    1.57510E+003   -9.54304E+003    6.19508E+003
            7938    1.73484E+005    1.60052E+003   -1.89437E+005   -4.17136E+004   -1.89437E+005    1.91037E+005    7.65166E+004   -1.60628E+005   -4.18773E+004   -1.57621E+003   -1.86096E+005    5.41030E+003   -8.79156E+003    2.26682E+004
            7939    1.77318E+005    2.16195E+004   -1.77117E+005   -3.50906E+004   -1.77117E+005    1.98736E+005    6.35293E+004   -1.54852E+005   -3.50645E+004    1.27770E+004   -1.68300E+005    7.35662E+003   -7.45640E+003    3.95722E+004
            7940    1.91851E+005    3.43530E+004   -1.82549E+005   -3.50854E+004   -1.82549E+005    2.16902E+005    6.10937E+004   -1.59664E+005   -3.48451E+004    9.17861E+003   -1.57615E+005    1.04000E+004   -6.37149E+003    6.81793E+004
            7941    2.25479E+005    7.18130E+004   -1.86580E+005   -2.97088E+004   -1.86580E+005    2.58393E+005    4.81585E+004   -1.60522E+005   -2.96550E+004    2.58870E+004   -1.40707E+005    1.34950E+004   -6.46941E+003    9.76104E+004
            7942    1.54580E+005   -2.50748E+003   -1.71855E+005   -3.83345E+004   -1.71855E+005    1.69348E+005    7.08990E+004   -1.44790E+005   -3.90590E+004   -2.87182E+003   -1.70766E+005    1.22171E+003   -9.87441E+003    7.64913E+003
            7943    1.46873E+005    7.79327E+003   -1.54583E+005   -3.10015E+004   -1.54583E+005    1.62376E+005    5.92636E+004   -1.34603E+005   -3.14640E+004    4.47564E+003   -1.50802E+005    4.33100E+003   -8.81085E+003    2.20616E+004
            7944    1.37012E+005    8.92448E+003   -1.43213E+005   -2.95541E+004   -1.43213E+005    1.52138E+005    5.46143E+004   -1.23954E+005   -2.99722E+004   -2.80364E+003   -1.31067E+005    5.66098E+003   -7.68310E+003    3.99763E+004
            7945    1.36064E+005    2.32306E+004   -1.29641E+005   -2.18039E+004   -1.29641E+005    1.52872E+005    4.27381E+004   -1.17450E+005   -2.19555E+004   -5.26664E+002   -1.05732E+005    8.33638E+003   -6.28609E+003    5.45080E+004
            7946    1.60290E+005    4.29838E+004   -1.39957E+005   -2.41479E+004   -1.39957E+005    1.82941E+005    4.03737E+004   -1.22055E+005   -2.42326E+004   -6.29470E+003   -9.05938E+004    1.08780E+004   -4.64853E+003    8.03266E+004
            7947    1.28753E+005    2.19506E+003   -1.40301E+005   -3.23312E+004   -1.40301E+005    1.42496E+005    5.68123E+004   -1.17643E+005   -3.24945E+004    1.90976E+003   -1.39852E+005    9.91047E+002   -4.38826E+003    6.15548E+003
            7948    1.12019E+005   -2.56762E+003   -1.25920E+005   -3.05322E+004   -1.25920E+005    1.23353E+005    5.30067E+004   -1.03721E+005   -3.04850E+004   -5.70090E+003   -1.22834E+005    3.33164E+003   -4.02338E+003    1.85750E+004
            7949    1.02662E+005    5.37918E+003   -1.08770E+005   -2.40006E+004   -1.08770E+005    1.14149E+005    4.24637E+004   -9.24704E+004   -2.38141E+004   -2.19886E+003   -1.01378E+005    4.33930E+003   -3.22399E+003    2.76396E+004
            7950    9.40589E+004    5.46310E+003   -9.93036E+004   -2.21202E+004   -9.93036E+004    1.04767E+005    3.86535E+004   -8.42124E+004   -2.16139E+004   -1.40917E+004   -8.02550E+004    6.31080E+003   -2.43503E+003    3.98888E+004
            7951    9.08728E+004    1.83251E+004   -8.46236E+004   -1.55700E+004   -8.46236E+004    1.02949E+005    2.72895E+004   -7.45167E+004   -1.52953E+004   -1.69597E+004   -4.96135E+004    7.63639E+003   -1.85934E+003    4.81288E+004
            7952    3.77156E+005   -6.79075E+004   -4.88145E+005   -1.79045E+005   -4.88145E+005    4.20237E+005    2.45032E+005   -3.37256E+005   -1.78753E+005   -8.79589E+004   -4.68385E+005    9.31930E+003   -6.71032E+003    8.83623E+004
            7953    3.87763E+005   -1.31534E+004   -4.49719E+005   -1.45311E+005   -4.49719E+005    4.36566E+005    2.02728E+005   -3.31089E+005   -1.45180E+005   -3.43510E+004   -4.28653E+005    1.14855E+004   -9.95594E+003    9.23935E+004
            7954    3.93486E+005    3.22214E+004   -4.14516E+005   -1.19381E+005   -4.14516E+005    4.46737E+005    1.67225E+005   -3.17005E+005   -1.19390E+005    9.11370E+003   -3.91399E+005    1.33014E+004   -1.18146E+004    9.73399E+004
            7955    3.56375E+005    7.75005E+004   -3.29662E+005   -7.44378E+004   -3.29662E+005    4.07163E+005    1.08866E+005   -2.67426E+005   -7.43290E+004    4.93646E+004   -3.01635E+005    1.48775E+004   -1.06319E+004    1.01514E+005
            7956    3.02365E+005    8.10332E+004   -2.65040E+005   -5.20020E+004   -2.65040E+005    3.46073E+005    7.86695E+004   -2.20462E+005   -5.21040E+004    4.10680E+004   -2.24972E+005    1.52227E+004   -1.00760E+004    1.09170E+005
            7957    2.33654E+005    4.47171E+004   -2.19388E+005   -3.95810E+004   -2.19388E+005    2.64105E+005    7.14173E+004   -1.94744E+005   -3.96724E+004    2.82656E+004   -2.02845E+005    1.12172E+004   -1.04299E+004    6.20852E+004
            7958    2.13921E+005    1.82398E+004   -2.20266E+005   -4.53505E+004   -2.20266E+005    2.38506E+005    8.24590E+004   -1.90854E+005   -4.56955E+004    1.10884E+004   -2.12770E+005    8.24925E+003   -1.16750E+004    3.88318E+004
            7959    2.07847E+005    1.25138E+004   -2.16386E+005   -3.94519E+004   -2.16386E+005    2.28900E+005    8.11079E+004   -1.92400E+005   -3.99314E+004    1.09510E+004   -2.14343E+005    6.01363E+003   -1.28204E+004    1.54475E+004
            7960    2.05157E+005   -2.61996E+003   -2.25196E+005   -4.36639E+004   -2.25196E+005    2.22576E+005    9.04934E+004   -1.95597E+005   -4.47430E+004   -2.74822E+003   -2.23989E+005    1.62246E+003   -1.42059E+004    4.32130E+003
            7961    2.89623E+005    3.26058E+004   -2.93613E+005   -6.67281E+004   -2.93613E+005    3.26219E+005    1.09245E+005   -2.46682E+005   -6.63679E+004    1.65267E+004   -2.77894E+005    1.15025E+004   -8.66166E+003    6.85812E+004
            7962    2.49798E+005    1.91170E+004   -2.59203E+005   -5.44476E+004   -2.59203E+005    2.78320E+005    9.81778E+004   -2.23406E+005   -5.41145E+004    1.48172E+004   -2.55236E+005    8.61863E+003   -8.74111E+003    3.09943E+004
            7963    2.28296E+005   -2.97441E+003   -2.51437E+005   -5.09252E+004   -2.51437E+005    2.48463E+005    1.01779E+005   -2.16527E+005   -5.07606E+004   -4.57291E+003   -2.50003E+005    6.04410E+003   -9.26734E+003    1.54736E+004
            7964    2.27879E+005    5.54075E+003   -2.41319E+005   -3.89970E+004   -2.41319E+005    2.46860E+005    9.15919E+004   -2.17762E+005   -3.94234E+004    5.46864E+003   -2.40821E+005    1.74910E+003   -9.94397E+003    1.38392E+003
            7965    3.10485E+005    1.41664E+004   -3.34006E+005   -8.58718E+004   -3.34006E+005    3.48172E+005    1.35237E+005   -2.70492E+005   -8.58293E+004    2.49401E+001   -3.19907E+005    9.53340E+003   -9.59563E+003    6.73110E+004
            7966    2.80675E+005   -3.81458E+003   -3.14453E+005   -7.90937E+004   -3.14453E+005    3.10639E+005    1.32454E+005   -2.56447E+005   -7.90204E+004   -1.18721E+004   -3.06469E+005    7.63391E+003   -8.97549E+003    4.77761E+004
            7967    2.56274E+005    2.83662E+003   -2.77082E+005   -5.39917E+004   -2.77082E+005    2.79919E+005    1.09412E+005   -2.41480E+005   -5.39691E+004    1.58079E+003   -2.75849E+005    4.75610E+003   -7.95461E+003    1.60949E+004
            7968    2.27334E+005   -6.87818E+003   -2.49885E+005   -4.24089E+004   -2.49885E+005    2.43007E+005    9.97241E+004   -2.20957E+005   -4.26931E+004   -7.04841E+003   -2.49431E+005    1.32302E+003   -8.11562E+003    5.70457E+003
            7969    3.63300E+005   -2.00862E+004   -4.24513E+005   -1.25780E+005   -4.24513E+005    4.04427E+005    1.90126E+005   -3.25922E+005   -1.25595E+005   -4.47143E+004   -4.00070E+005    7.98787E+003   -5.82848E+003    9.59439E+004
            7970    3.06193E+005   -1.91194E+004   -3.55829E+005   -9.40731E+004   -3.55829E+005    3.36710E+005    1.56341E+005   -2.84432E+005   -9.37774E+004   -3.03436E+004   -3.44901E+005    5.96510E+003   -3.40661E+003    5.94304E+004
            7971    2.84950E+005   -2.31156E+004   -3.31348E+005   -7.75290E+004   -3.31348E+005    3.08233E+005    1.43998E+005   -2.72891E+005   -7.73653E+004   -2.97911E+004   -3.24837E+005    3.11580E+003   -4.92012E+002    4.43015E+004
            7972    2.60826E+005    5.94369E+003   -2.75598E+005   -4.21928E+004   -2.75598E+005    2.81541E+005    1.03949E+005   -2.50538E+005   -4.21774E+004    5.60338E+003   -2.75273E+005    8.97157E+002    7.56786E+002    9.52495E+003
            7973    3.45651E+005   -6.27497E+004   -4.44060E+005   -1.51296E+005   -4.44060E+005    3.81311E+005    2.19369E+005   -3.18601E+005   -1.51033E+005   -9.94311E+004   -4.07642E+005    5.36447E+003   -4.82048E+002    1.12005E+005
            7974    3.59954E+005   -3.44840E+004   -4.32944E+005   -1.31296E+005   -4.32944E+005    3.98460E+005    1.99575E+005   -3.28696E+005   -1.31026E+005   -7.20261E+004   -3.95672E+005    4.34734E+003    3.63125E+003    1.15957E+005
            7975    3.24702E+005   -1.09268E+004   -3.68778E+005   -9.29614E+004   -3.68778E+005    3.57851E+005    1.57555E+005   -3.00028E+005   -9.30670E+004   -2.26325E+004   -3.56967E+005    1.31635E+003    7.65320E+003    6.33989E+004
            7976    2.73421E+005   -1.82988E+004   -3.14726E+005   -7.23988E+004   -3.14726E+005    2.96427E+005    1.35141E+005   -2.60968E+005   -7.28055E+004   -2.14917E+004   -3.11126E+005    5.29633E+002    1.06052E+004    3.03419E+004
            7977    3.59548E+005    1.54025E+004   -3.85948E+005   -9.32792E+004   -3.85948E+005    4.01351E+005    1.54608E+005   -3.19332E+005   -9.43268E+004    1.10058E+004   -3.80504E+005    2.32996E+002    1.79358E+004    4.15264E+004
            7978    4.79124E+005   -7.68327E+004   -6.13120E+005   -2.27259E+005   -6.13120E+005    5.36287E+005    3.05737E+005   -4.20860E+005   -2.28638E+005   -1.27605E+005   -5.60969E+005    1.24247E+002    2.84163E+004    1.55895E+005
            7979    4.14741E+005   -2.88640E+004   -4.90714E+005   -1.50105E+005   -4.90714E+005    4.61850E+005    2.23228E+005   -3.71622E+005   -1.50356E+005   -8.43111E+004   -4.35015E+005    7.09672E+002    1.43412E+004    1.49664E+005
            7980    3.73595E+005   -6.44060E+004   -4.82346E+005   -1.80812E+005   -4.82346E+005    4.17940E+005    2.42521E+005   -3.28922E+005   -1.80741E+005   -1.76668E+005   -3.70155E+005    5.43180E+002    2.36040E+004    1.83698E+005
            7981    3.43914E+005   -6.30822E+004   -4.41862E+005   -1.49171E+005   -4.41862E+005    3.78779E+005    2.18038E+005   -3.18288E+005   -1.48926E+005   -1.27653E+005   -3.77535E+005    2.41793E+003    1.02944E+004    1.41849E+005
            7982    3.38509E+005   -9.29565E+004   -4.68303E+005   -1.86157E+005   -4.68303E+005    3.75346E+005    2.49139E+005   -3.07598E+005   -1.86169E+005   -1.75558E+005   -3.85689E+005    6.28269E+002    2.01231E+004    1.54202E+005
            7983    3.55893E+005   -8.84048E+004   -4.79746E+005   -1.75453E+005   -4.79746E+005    3.91341E+005    2.47868E+005   -3.30644E+005   -1.75197E+005   -1.41757E+005   -4.26650E+005    3.26482E+003    6.13780E+003    1.33864E+005
            7984    3.33135E+005   -1.04489E+005   -4.72899E+005   -1.92857E+005   -4.72899E+005    3.68410E+005    2.56748E+005   -3.05050E+005   -1.92704E+005   -1.82034E+005   -3.95507E+005    1.29513E+003    1.62023E+004    1.49197E+005
            7985    3.13796E+005   -1.33033E+005   -4.76969E+005   -2.06267E+005   -4.76969E+005    3.43936E+005    2.72090E+005   -2.93630E+005   -2.06174E+005   -1.88848E+005   -4.21247E+005    1.32976E+003    1.27055E+004    1.26089E+005
            7986    2.85750E+005   -1.47693E+005   -4.58520E+005   -2.07227E+005   -4.58520E+005    3.10827E+005    2.71147E+005   -2.71264E+005   -2.07224E+005   -1.85176E+005   -4.21040E+005    1.01592E+003    1.00553E+004    1.00712E+005
            7987    3.48451E+005   -1.06001E+005   -4.88910E+005   -1.90434E+005   -4.88910E+005    3.82909E+005    2.61782E+005   -3.24215E+005   -1.90140E+005   -1.50671E+005   -4.44533E+005    3.88136E+003    4.59864E+003    1.22468E+005
            7988    3.30036E+005   -1.25998E+005   -4.87516E+005   -2.02342E+005   -4.87516E+005    3.61518E+005    2.71952E+005   -3.09219E+005   -2.02151E+005   -1.60123E+005   -4.53582E+005    2.97550E+003    4.31753E+003    1.05341E+005
            7989    2.92233E+005   -1.69200E+005   -4.82816E+005   -2.18149E+005   -4.82816E+005    3.13616E+005    2.90055E+005   -2.82789E+005   -2.18057E+005   -1.87400E+005   -4.64709E+005    4.14820E+003   -4.16826E+003    7.29335E+004
            7990    3.44455E+005   -1.25915E+005   -5.03492E+005   -2.06419E+005   -5.03492E+005    3.77578E+005    2.78609E+005   -3.22253E+005   -2.06291E+005   -1.46063E+005   -4.83472E+005    6.46177E+003   -5.90853E+003    8.41993E+004
            7991    1.06672E+005    5.85701E+004   -6.45254E+004   -6.79429E+003   -6.45254E+004    1.23095E+005    4.24988E+003    5.06664E+004   -6.86523E+003   -5.76669E+004    5.17824E+004    2.13026E+003   -1.27129E+001    2.80807E+004
            7992    8.67075E+004    5.85433E+004    5.85433E+004    6.67752E+002   -4.11475E+004    9.96909E+004   -6.02118E+003    5.63621E+004    5.00823E+002   -4.09073E+004    5.84701E+004    2.67879E+003   -7.37893E+002    2.55314E+003
            7993    7.57814E+004    6.36416E+004    6.36416E+004    8.06557E+003   -2.26810E+004    8.63226E+004   -1.63420E+004    5.90816E+004    7.76990E+003   -2.05995E+004    6.18557E+004    3.37047E+003   -1.00906E+003   -1.21272E+004
            7994    6.53707E+004    6.44073E+004    6.44073E+004    1.30883E+004   -9.19063E+003    7.35980E+004   -2.27683E+004    5.58172E+004    1.25670E+004   -4.20623E+003    5.99442E+004    4.07064E+003   -1.22147E+003   -1.73064E+004
            7995    7.41132E+004    7.94759E+004    7.94759E+004    1.69646E+004   -2.39620E+003    8.18721E+004   -3.13481E+004    6.80662E+004    1.62944E+004   -5.13680E+002    7.82635E+004    3.70946E+003   -7.24910E+002   -9.75790E+003
            7996    9.35696E+004    1.04045E+005    1.04045E+005    2.25958E+004    1.83981E+003    1.02205E+005   -4.28268E+004    8.81640E+004    2.25306E+004    1.98960E+003    1.03960E+005    1.18372E+003   -3.10973E+002   -2.91259E+003
            7997    7.97936E+004    8.02210E+004    8.02210E+004    1.42754E+004   -8.47803E+003    8.86990E+004   -2.86728E+004    7.19338E+004    1.37195E+004   -7.30528E+003    7.96041E+004    3.51725E+003    1.11170E+002   -7.34506E+003
            7998    1.01222E+005    1.09000E+005    1.09000E+005    2.16834E+004   -1.94703E+003    1.10947E+005   -4.29120E+004    9.47128E+004    2.16319E+004   -1.85875E+003    1.08963E+005    1.19710E+003    9.90242E+002   -1.69600E+003
            7999    8.56027E+004    7.70740E+004    7.70740E+004    1.05027E+004   -1.94889E+004    9.65629E+004   -2.26959E+004    7.22787E+004    1.01856E+004   -1.89278E+004    7.68300E+004    3.10714E+003    3.46667E+002    4.80189E+003
            8000    9.97129E+004    1.05904E+005    1.05904E+005    2.13439E+004   -4.05005E+003    1.09955E+005   -4.10661E+004    9.20063E+004    2.13113E+004   -3.83576E+003    1.05723E+005    1.23424E+003    1.33349E+003    4.17813E+003
            8001    9.27905E+004    7.22467E+004    7.22467E+004    4.91084E+003   -3.35980E+004    1.05845E+005   -1.45198E+004    7.11594E+004    4.83654E+003   -2.47191E+004    6.34421E+004    2.73329E+003    1.25103E+003    2.91130E+004
            8002    8.88035E+004    9.15862E+004    9.15862E+004    1.65991E+004   -6.47774E+003    9.80639E+004   -3.39025E+004    8.16386E+004    1.66611E+004   -4.95003E+003    8.99964E+004    1.28077E+003    2.61354E+003    1.19817E+004
            8003    6.77834E+004    6.72686E+004    6.72686E+004    1.05046E+004   -7.78214E+003    7.50507E+004   -2.33304E+004    6.18583E+004    1.06272E+004   -3.06816E+003    6.24321E+004    1.30118E+003    2.60071E+003    1.81514E+004
            8004    4.79677E+004    3.69632E+004    3.69632E+004   -1.34573E+003   -1.68355E+004    5.37986E+004   -6.26067E+003    4.17582E+004   -1.28176E+003   -3.12121E+003    2.31850E+004    1.40885E+003    1.26856E+003    2.34030E+004
            8005    1.02057E+005    6.99944E+004    6.99944E+004    1.23149E+003   -4.72693E+004    1.17264E+005   -7.98553E+003    6.78537E+004    1.27610E+003   -1.93406E+004    4.20211E+004    2.66330E+003    1.47841E+003    4.98754E+004
            8006    1.07203E+005    6.52477E+004    6.52477E+004   -2.99214E+003   -5.83146E+004    1.23562E+005   -1.31365E+003    6.05142E+004   -2.95603E+003   -7.78749E+003    1.46845E+004    3.10545E+003    8.05006E+002    6.06680E+004
            8007    1.49009E+005    8.62153E+004    8.62153E+004   -1.86256E+003   -8.58296E+004    1.72045E+005    4.92300E+002    5.15360E+004   -1.84389E+003   -1.12484E+004    1.16154E+004    3.09289E+003    5.01723E+002    8.52021E+004
            8008    1.83648E+005    1.02060E+005   -1.09990E+005   -2.34817E+003   -1.09990E+005    2.12050E+005    3.42602E+003   -5.46888E+004   -2.33865E+003   -1.63168E+004    8.37740E+003    2.24119E+003    3.37625E+002    1.05279E+005
            8009    2.13636E+005    1.17808E+005   -1.28848E+005   -2.21945E+003   -1.28848E+005    2.46657E+005    4.41991E+003   -7.67325E+004   -2.21497E+003   -1.80965E+004    7.05176E+003    1.18861E+003    2.74172E+002    1.22679E+005
            8010    2.40354E+005    1.32948E+005   -1.44556E+005   -2.11148E+003   -1.44556E+005    2.77504E+005    4.57311E+003   -8.61654E+004   -2.10999E+003   -1.65850E+004    4.97566E+003    3.86153E+002    2.69629E+002    1.38332E+005
            8011    1.42756E+005    7.94458E+004   -8.53698E+004   -5.41390E+003   -8.53698E+004    1.64816E+005    3.77932E+003    5.31142E+004   -5.39064E+003   -4.07128E+004    3.47655E+004    2.35503E+003    1.00080E+003    7.32141E+004
            8012    1.84808E+005    9.41359E+004   -1.19240E+005   -9.87670E+003   -1.19240E+005    2.13376E+005    1.16602E+004   -6.49537E+004   -9.85712E+003   -5.42947E+004    2.91711E+004    1.33509E+003    9.59036E+002    9.81728E+004
            8013    2.19617E+005    1.09580E+005   -1.43942E+005   -1.19968E+004   -1.43942E+005    2.53522E+005    1.54528E+004   -9.08375E+004   -1.19848E+004   -5.79409E+004    2.35673E+004    4.81857E+002    1.18305E+003    1.20024E+005
            8014    2.48884E+005    1.26232E+005   -1.61080E+005   -1.17632E+004   -1.61080E+005    2.87312E+005    1.55372E+004   -1.01681E+005   -1.17620E+004   -5.51561E+004    2.03063E+004   -1.23374E+002    1.24492E+003    1.38607E+005
            8015    2.66845E+005    1.19423E+005   -1.88501E+005   -2.48738E+004   -1.88501E+005    3.07924E+005    3.13173E+004   -1.27262E+005   -2.48786E+004   -1.12871E+005    4.37974E+004   -6.52827E+002    8.40564E+002    1.32540E+005
            8016    2.19466E+005    9.23235E+004   -1.60872E+005   -2.50838E+004   -1.60872E+005    2.53196E+005    3.12108E+004   -1.09831E+005   -2.50847E+004   -1.12799E+005    4.42514E+004   -2.89749E+002    4.65959E+002    9.93001E+004
            8017    1.75899E+005    7.62138E+004   -1.26796E+005   -1.97374E+004   -1.26796E+005    2.03010E+005    2.34399E+004   -8.01467E+004   -1.97368E+004   -9.65442E+004    4.59613E+004    3.85813E+002    2.25510E+002    7.22918E+004
            8018    1.33063E+005    6.67907E+004   -8.68578E+004   -1.00986E+004   -8.68578E+004    1.53648E+005    1.00552E+004    1.51185E+004   -1.01214E+004   -7.04280E+004    5.03836E+004    1.45764E+003   -4.37769E+001    4.74444E+004
            8019    9.03609E+004    9.85892E+004    9.85892E+004    1.89980E+004    3.63962E+002    9.82252E+004   -3.93170E+004    8.58770E+004    1.89316E+004    4.62422E+002    9.85570E+004    1.23126E+003    1.18964E+003   -1.20550E+003
            8020    6.72204E+004    7.59522E+004    7.59522E+004    1.70753E+004    2.71048E+003    7.32417E+004   -3.19127E+004    6.36281E+004    1.58622E+004    4.17757E+003    7.56982E+004    3.97448E+003    4.78345E+002   -4.26100E+003
            8021    5.13806E+004    5.70195E+004    5.70195E+004    1.39975E+004    1.27787E+002    5.68917E+004   -2.37149E+004    4.68836E+004    1.25778E+004    6.22828E+003    5.23387E+004    4.69101E+003   -6.08192E+002   -1.52658E+004
            8022    8.81307E+004    9.96169E+004    9.96169E+004    2.25119E+004    3.54800E+003    9.60689E+004   -4.18923E+004    8.33525E+004    2.24143E+004    3.69688E+003    9.95656E+004    1.40995E+003    6.30182E+002    2.09085E+003
            8023    6.68734E+004    7.62253E+004    7.62253E+004    1.86094E+004    2.89367E+003    7.33316E+004   -3.25761E+004    6.25126E+004    1.74050E+004    4.32303E+003    7.60004E+004    4.21222E+003    3.07798E+002    3.97619E+003
            8024    3.33235E+004    4.52195E+004    4.52195E+004    1.85227E+004    7.87286E+003    3.73466E+004   -2.38717E+004    2.91082E+004    1.26183E+004    1.38884E+004    4.51083E+004    5.31175E+003   -1.71589E+002   -1.80482E+003
            8025    1.01173E+005    1.09884E+005    1.09884E+005    2.11935E+004   -3.12686E+002    1.10197E+005   -4.35883E+004    9.58255E+004    2.13805E+004    4.92914E+001    1.09335E+005    1.61182E+003    4.85001E+003    5.48832E+003
            8026    7.78151E+004    8.69739E+004    8.69739E+004    1.90466E+004    2.07300E+003    8.49009E+004   -3.60312E+004    7.34748E+004    1.81852E+004    6.27270E+003    8.36355E+004    5.06779E+003    3.60491E+003    1.56400E+004
            8027    4.48725E+004    5.35215E+004    5.35215E+004    1.50927E+004    4.20801E+003    4.93135E+004   -2.42741E+004    4.17443E+004    1.18590E+004    1.69737E+004    4.39895E+004    6.52132E+003    1.46664E+003    1.81228E+004
            8028    2.47074E+005    1.48545E+005    1.48545E+005    2.28390E+003   -1.36720E+005    2.85266E+005   -4.70303E+003    8.72569E+004    2.28287E+003    1.71250E+004   -5.29876E+003    2.58824E+002   -2.76682E+002    1.42191E+005
            8029    2.56864E+005    1.65339E+005    1.65339E+005    1.15169E+004   -1.31192E+005    2.96531E+005   -1.52212E+004    1.03202E+005    1.15173E+004    5.44960E+004   -2.03497E+004   -2.05595E+002   -1.19598E+003    1.43460E+005
            8030    2.71410E+005    1.90793E+005    1.90793E+005    2.44632E+004   -1.22403E+005    3.13196E+005   -3.09511E+004    1.29005E+005    2.44683E+004    1.11960E+005   -4.35747E+004   -6.84459E+002   -7.84825E+002    1.35920E+005
            8031    2.69405E+005    1.59988E+005    1.59988E+005    1.67658E+003   -1.51078E+005    3.11066E+005   -3.52886E+003    8.45714E+004    1.67686E+003    1.27209E+004   -3.81119E+003   -1.09534E+002   -2.17440E+002    1.55313E+005
            8032    2.83952E+005    1.77151E+005    1.77151E+005    8.90213E+003   -1.50690E+005    3.27841E+005   -1.17877E+004    1.01532E+005    8.90649E+003    4.21434E+004   -1.56866E+004   -4.61577E+002   -9.51306E+002    1.61347E+005
            8033    3.13709E+005    2.07635E+005    2.07635E+005    1.88770E+004   -1.54495E+005    3.62130E+005   -2.40057E+004    1.31414E+005    1.88830E+004    9.02913E+004   -3.71571E+004   -7.56244E+002   -8.17703E+002    1.69478E+005
            8034    2.85420E+005    1.67211E+005    1.67211E+005    9.69774E+002   -1.62359E+005    3.29571E+005   -1.94056E+003    7.08649E+004    9.70099E+002    6.91537E+003   -2.06378E+003   -2.14700E+002   -1.24159E+002    1.64724E+005
            8035    3.03153E+005    1.81580E+005    1.81580E+005    4.37163E+003   -1.68461E+005    3.50042E+005   -5.83020E+003    8.44910E+004    4.37456E+003    2.14484E+004   -8.33239E+003   -5.52914E+002   -4.63973E+002    1.74385E+005
            8036    3.43718E+005    2.12850E+005    2.12850E+005    1.00828E+004   -1.84010E+005    3.96860E+005   -1.29740E+004    1.15399E+005    1.00866E+004    5.01393E+004   -2.13038E+004   -7.41258E+002   -4.84391E+002    1.95186E+005
            8037    2.90175E+005    1.67149E+005   -1.67916E+005   -1.98289E+002   -1.67916E+005    3.35065E+005    3.21664E+002   -3.60235E+004   -1.98349E+002   -1.21211E+003    4.45465E+002   -2.37884E+002    2.07148E+001    1.67530E+005
            8038    3.09093E+005    1.77674E+005   -1.79236E+005   -4.81171E+002   -1.79236E+005    3.56910E+005    6.81257E+002   -4.41437E+004   -4.81419E+002   -2.80902E+003    1.24667E+003   -5.69453E+002    3.60935E+001    1.78442E+005
            8039    3.54439E+005    2.03960E+005   -2.05310E+005   -4.10059E+002   -2.05310E+005    4.09270E+005    5.86699E+002   -4.63939E+004   -4.10238E+002   -2.29417E+003    9.44312E+002   -7.09162E+002    2.33965E+001    2.04628E+005
            8040    2.81868E+005    1.59941E+005   -1.65526E+005   -1.06528E+003   -1.65526E+005    3.25467E+005    2.21653E+003   -7.43850E+004   -1.06565E+003   -8.13681E+003    2.55285E+003   -2.08898E+002    1.44185E+002    1.62646E+005
            8041    2.99045E+005    1.64263E+005   -1.81030E+005   -5.61899E+003   -1.81030E+005    3.45293E+005    7.46220E+003   -9.05183E+004   -5.62267E+003   -2.72202E+004    1.04563E+004   -5.53732E+002    5.90628E+002    1.71614E+005
            8042    3.41846E+005    1.82159E+005   -2.12537E+005   -1.07399E+004   -2.12537E+005    3.94696E+005    1.37059E+004   -1.15961E+005   -1.07442E+004   -5.32687E+004    2.28953E+004   -7.43850E+002    5.60878E+002    1.93637E+005
            8043    2.63477E+005    1.47168E+005   -1.57048E+005   -1.88404E+003   -1.57048E+005    3.04216E+005    3.92154E+003   -8.60146E+004   -1.88419E+003   -1.41851E+004    4.30471E+003   -5.69888E+001    2.39718E+002    1.51827E+005
            8044    2.76932E+005    1.45842E+005   -1.73886E+005   -9.34120E+003   -1.73886E+005    3.19728E+005    1.24619E+004   -1.02490E+005   -9.34529E+003   -4.46025E+004    1.65621E+004   -4.33069E+002    9.86643E+002    1.56908E+005
            8045    3.10111E+005    1.51394E+005   -2.06568E+005   -1.94836E+004   -2.06568E+005    3.57963E+005    2.48857E+004   -1.32680E+005   -1.94896E+004   -9.31474E+004    3.79799E+004   -7.65873E+002    8.25405E+002    1.66537E+005
            8046    2.08007E+005    1.82640E+005    1.82640E+005    3.06364E+004   -5.44149E+004    2.37055E+005   -5.29540E+004    1.61281E+005    3.05681E+004   -1.41411E+004    1.42435E+005    1.51297E+004    8.21683E+003    8.72988E+004
            8047    1.72092E+005    1.74043E+005    1.74043E+005    3.34556E+004   -1.78730E+004    1.91916E+005   -6.32086E+004    1.53398E+005    3.29601E+004   -8.64511E+003    1.65311E+005    1.08270E+004    9.80293E+003    3.75122E+004
            8048    1.78214E+005    1.97517E+005    1.97517E+005    3.99018E+004    4.13062E+003    1.93387E+005   -8.05166E+004    1.69853E+005    4.05932E+004    5.08100E+003    1.95876E+005    3.51913E+003    1.17459E+004    1.18479E+004
            8049    1.45750E+005    1.29830E+005    1.29830E+005    2.04742E+004   -3.56363E+004    1.65467E+005   -3.82227E+004    1.17474E+005    2.04920E+004    2.68959E+003    9.14866E+004    1.21776E+004    5.99413E+003    6.84823E+004
            8050    1.35523E+005    1.39896E+005    1.39896E+005    2.66909E+004   -1.02743E+004    1.50170E+005   -5.21041E+004    1.23394E+005    2.70056E+004    4.77622E+002    1.28829E+005    8.41575E+003    9.70471E+003    3.69614E+004
            8051    1.51065E+005    1.62475E+005    1.62475E+005    3.08488E+004   -2.46631E+003    1.64941E+005   -6.36192E+004    1.42443E+005    3.18935E+004   -1.58236E+003    1.60546E+005    2.57206E+003    1.20182E+004    1.13784E+004
            8052    9.19263E+004    9.01846E+004    9.01846E+004    1.75050E+004   -1.31530E+004    1.03338E+005   -3.15122E+004    7.91340E+004    1.69883E+004    1.71860E+004    6.03624E+004    8.73087E+003    2.70335E+003    4.59241E+004
            8053    1.01497E+005    1.08634E+005    1.08634E+005    2.43211E+004   -4.02235E+003    1.12656E+005   -4.29775E+004    9.19415E+004    2.36942E+004    3.67011E+003    1.01568E+005    6.40500E+003    4.08290E+003    2.64823E+004
            8054    1.18172E+005    1.33341E+005    1.33341E+005    3.08369E+004    4.08746E+003    1.29254E+005   -5.60886E+004    1.11050E+005    3.09661E+004    4.94873E+003    1.32351E+005    2.20695E+003    4.94883E+003    9.71266E+003
            8055    8.01118E+004    6.03100E+003   -8.22134E+004   -1.40579E+004   -8.22134E+004    8.82444E+004    3.00801E+004   -7.41203E+004   -1.41898E+004    4.17989E+003   -8.02303E+004    1.03246E+003   -3.06277E+003    1.25781E+004
            8056    9.44388E+004    1.93519E+003   -1.01812E+005   -2.08513E+004   -1.01812E+005    1.03747E+005    4.02427E+004   -8.79287E+004   -2.08836E+004    1.40885E+003   -1.01253E+005    1.00924E+003   -2.21607E+003    7.14098E+003
            8057    1.05673E+005    3.48193E+003   -1.12708E+005   -2.23371E+004   -1.12708E+005    1.16190E+005    4.38544E+004   -9.81930E+004   -2.23320E+004    3.40264E+003   -1.12634E+005    1.02377E+003   -1.70937E+003    2.18631E+003
            8058    1.03166E+005   -8.72128E+002   -1.13912E+005   -2.48371E+004   -1.13912E+005    1.13040E+005    4.65404E+004   -9.66014E+004   -2.47965E+004   -9.25637E+002   -1.13899E+005    9.89180E+002   -2.20354E+002   -1.18472E+003
            8059    1.00966E+005    2.03475E+003   -1.08516E+005   -2.11780E+004   -1.08516E+005    1.10551E+005    4.25532E+004   -9.46789E+004   -2.11402E+004    1.95600E+003   -1.08475E+005    9.76613E+002   -6.31561E+002   -2.01154E+003
            8060    8.44814E+004    2.32332E+004   -7.22741E+004   -7.31925E+003   -7.22741E+004    9.55072E+004    1.87867E+004   -7.03346E+004   -7.36863E+003    1.05006E+004   -5.94921E+004    2.44537E+003   -2.09471E+003    3.23441E+004
            8061    8.60240E+004    1.60729E+004   -8.03080E+004   -1.13048E+004   -8.03080E+004    9.63809E+004    2.51800E+004   -7.52430E+004   -1.11972E+004    1.25540E+004   -7.68967E+004    2.42452E+003   -1.50978E+003    1.76510E+004
            8062    8.74315E+004    7.90081E+003   -8.88550E+004   -1.55170E+004   -8.88550E+004    9.67558E+004    3.21571E+004   -7.99064E+004   -1.52956E+004    7.46423E+003   -8.86398E+004    2.43432E+003   -1.18541E+003    4.30462E+003
            8063    8.92748E+004    5.73426E+003   -9.29158E+004   -1.76848E+004   -9.29158E+004    9.86500E+004    3.49554E+004   -8.19255E+004   -1.74435E+004    5.30390E+003   -9.27268E+004    2.36638E+003   -2.98232E+001   -4.30800E+003
            8064    8.45705E+004   -6.87185E+002   -9.28838E+004   -1.89107E+004   -9.28838E+004    9.21966E+004    3.74939E+004   -7.99718E+004   -1.86031E+004   -1.35639E+003   -9.25222E+004    2.33059E+003   -3.96858E+002   -5.74591E+003
            8065    1.07124E+005    5.15457E+004   -7.16560E+004   -4.81888E+002   -7.16560E+004    1.23202E+005    6.86403E+003   -6.88286E+004   -4.84055E+002    2.91127E+004   -4.92208E+004    2.75657E+003   -1.26524E+003    4.74495E+004
            8066    9.15052E+004    3.38272E+004   -7.06857E+004   -4.97638E+003   -7.06857E+004    1.04513E+005    1.39450E+004   -6.89778E+004   -4.82846E+003    2.72974E+004   -6.43038E+004    2.89144E+003   -7.20794E+002    2.49431E+004
            8067    8.38680E+004    2.13133E+004   -7.33773E+004   -8.45008E+003   -7.33773E+004    9.46906E+004    2.01713E+004   -7.04236E+004   -8.10428E+003    2.07463E+004   -7.31560E+004    3.24809E+003   -5.08529E+002    4.49286E+003
            8068    7.69743E+004    7.84634E+003   -7.78383E+004   -1.45349E+004   -7.78383E+004    8.56846E+004    2.81756E+004   -6.90647E+004   -1.39742E+004    6.73803E+003   -7.72907E+004    3.57462E+003    4.76747E+002   -6.74868E+003
            8069    7.45920E+004    4.13446E+003   -7.81150E+004   -1.48489E+004   -7.81150E+004    8.22494E+004    2.96098E+004   -6.88353E+004   -1.40114E+004    2.02334E+003   -7.68414E+004    3.94475E+003    4.27417E+001   -1.00844E+004
            8070    1.32485E+005    8.10024E+004    8.10024E+004    7.15797E+003   -7.19476E+004    1.52950E+005   -5.40426E+003   -5.17318E+004    7.16488E+003    5.51712E+004   -4.61233E+004    1.92400E+003   -6.26524E+002    5.72640E+004
            8071    1.04044E+005    5.68851E+004   -6.30479E+004    3.01931E+003   -6.30479E+004    1.19933E+005    1.04783E+003   -5.82077E+004    3.12198E+003    5.06874E+004   -5.69528E+004    2.47015E+003   -1.01024E+001    2.63181E+004
            8072    8.39566E+004    3.20958E+004   -6.39580E+004   -4.57548E+003   -6.39580E+004    9.60539E+004    1.21459E+004   -6.16461E+004   -4.28962E+003    3.16697E+004   -6.38178E+004    3.21905E+003    2.80219E+002    3.65689E+003
            8073    7.51895E+004    1.85101E+004   -6.68329E+004   -1.03449E+004   -6.68329E+004    8.53430E+004    1.95559E+004   -6.07123E+004   -9.91887E+003    1.65330E+004   -6.52818E+004    3.81938E+003    1.04476E+003   -1.12133E+004
            8074    6.31195E+004    3.69327E+003   -6.66055E+004   -1.47939E+004   -6.66055E+004    7.02988E+004    2.59020E+004   -5.65297E+004   -1.38413E+004    7.06120E+001   -6.39354E+004    4.34766E+003    5.34633E+002   -1.32494E+004
            8075    6.56825E+004    1.36591E+004   -6.06835E+004   -1.05091E+004   -6.06835E+004    7.43426E+004    1.91778E+004   -5.42317E+004   -1.00787E+004    7.08777E+003   -5.45426E+004    4.06404E+003    1.17805E+003   -2.02111E+004
            8076    7.62825E+004    2.79862E+004   -5.93728E+004   -5.93007E+003   -5.93728E+004    8.73590E+004    1.24389E+004   -5.50374E+004   -5.72495E+003    2.61124E+004   -5.77041E+004    3.20253E+003    1.36706E+003   -1.17232E+004
            8077    9.11879E+004    5.06223E+004   -5.45009E+004    3.26259E+003   -5.45009E+004    1.05123E+005    2.05352E+002   -5.05542E+004    3.36238E+003    5.05047E+004   -5.44831E+004    2.32535E+003    9.46789E+002    5.32487E+002
            8078    1.13118E+005    7.54712E+004    7.54712E+004    1.05846E+004   -5.51452E+004    1.30616E+005   -1.03035E+004   -2.52953E+004    1.06284E+004    7.16149E+004   -5.13327E+004    1.63482E+003    5.62204E+002    2.19801E+004
            8079    1.43400E+005    1.01871E+005    1.01871E+005    1.60806E+004   -6.36772E+004    1.65548E+005   -1.80914E+004    5.70792E+004    1.60905E+004    8.55831E+004   -4.73993E+004    1.03646E+003   -5.33719E+000    4.92890E+004
            8080    1.80387E+005    1.29667E+005    1.29667E+005    1.96083E+004   -7.85119E+004    2.08179E+005   -2.35878E+004    8.34849E+004    1.96081E+004    9.84535E+004   -4.72982E+004    2.91552E+002   -1.32864E+002    7.43212E+004
            8081    2.25232E+005    1.63758E+005    1.63758E+005    2.48464E+004   -9.61108E+004    2.59869E+005   -3.08312E+004    1.10883E+005    2.48479E+004    1.12395E+005   -4.47490E+004   -3.68402E+002   -5.56716E+002    1.03484E+005
            8082    2.26822E+005    1.48902E+005    1.48902E+005    1.25158E+004   -1.12934E+005    2.61836E+005   -1.61611E+004    9.44771E+004    1.25068E+004    6.03797E+004   -2.44033E+004    2.95466E+002   -1.20418E+003    1.23858E+005
            8083    2.21264E+005    1.33582E+005    1.33582E+005    2.37494E+003   -1.21881E+005    2.55462E+005   -4.69202E+003    7.99118E+004    2.37101E+003    1.84988E+004   -6.79374E+003    9.59351E+002   -2.91458E+002    1.27100E+005
            8084    1.90850E+005    1.24392E+005    1.24392E+005    1.08256E+004   -9.59481E+004    2.20340E+005   -1.30898E+004    7.18526E+004    1.08082E+004    5.81117E+004   -2.96506E+004    1.08901E+003   -9.71296E+002    1.01043E+005
            8085    1.93300E+005    1.15893E+005    1.15893E+005    2.27455E+003   -1.07299E+005    2.23191E+005   -3.62287E+003    6.09727E+004    2.26616E+003    1.72367E+004   -8.63425E+003    1.88878E+003   -3.38238E+002    1.10827E+005
            8086    1.64700E+005    9.66721E+004    9.66721E+004    2.20993E+003   -9.35053E+004    1.90177E+005   -1.79225E+003   -3.70805E+004    2.19449E+003    1.37422E+004   -1.05600E+004    2.78001E+003   -4.49939E+002    9.42672E+004
            8087    1.29591E+005    7.37726E+004   -7.58005E+004    2.82912E+003   -7.58005E+004    1.49573E+005   -2.67077E+002   -5.78291E+004    2.81054E+003    9.71259E+003   -1.17219E+004    3.26119E+003   -5.31377E+002    7.39413E+004
            8088    8.83067E+004    4.60331E+004   -5.55466E+004    2.93995E+003   -5.55466E+004    1.01580E+005    2.19120E+003   -5.62770E+004    2.90410E+003    3.36148E+003   -1.28392E+004    2.94728E+003   -7.69016E+002    5.00499E+004
            8089    3.87542E+004    1.35916E+004   -2.93647E+004    2.97442E+003   -2.93647E+004    4.29562E+004    4.26622E+003   -3.52529E+004    2.91331E+003    2.45658E+003   -1.81685E+004    1.26398E+003   -1.16625E+003    1.87794E+004
            8090    1.55239E+005    9.55036E+004    9.55036E+004    6.53476E+003   -8.37491E+004    1.79253E+005   -6.09644E+003   -3.62242E+004    6.51637E+003    4.25904E+004   -3.08175E+004    2.07089E+003   -8.35050E+002    8.17357E+004
            8091    1.20399E+005    6.37366E+004   -7.50855E+004    8.27048E+002   -7.50855E+004    1.38822E+005    3.50729E+003   -6.55486E+004    7.96240E+002    2.05470E+004   -3.18652E+004    2.88198E+003   -1.06962E+003    6.42019E+004
            8092    8.73363E+004    3.57403E+004   -6.41540E+004   -2.22861E+003   -6.41540E+004    9.98943E+004    1.02141E+004   -6.44107E+004   -2.31547E+003    9.17384E+003   -3.75007E+004    2.55359E+003   -1.76825E+003    4.40622E+004
            8093    5.64008E+004    5.17881E+003   -5.66244E+004   -7.93743E+003   -5.66244E+004    6.18032E+004    1.97943E+004   -5.28032E+004   -8.09384E+003    5.34060E+002   -5.18233E+004    1.07970E+003   -2.62652E+003    1.62569E+004
            8094    2.66586E+005    3.02195E+005    3.02195E+005    4.90164E+004    2.39696E+004    2.78225E+005   -1.25060E+005    2.63919E+005    4.90373E+004    2.68485E+004    2.99295E+005    3.14582E+002   -3.09029E+003    2.80765E+004
            8095    2.44949E+005    2.56938E+005    2.56938E+005    3.03988E+004   -2.99454E+003    2.59932E+005   -9.47807E+004    2.39747E+005    3.07127E+004   -2.63980E+003    2.56269E+005    2.26574E+003    9.79850E+003    7.86346E+003
            8096    2.26065E+005    2.45919E+005    2.45919E+005    3.47740E+004    7.42243E+003    2.38497E+005   -9.60385E+004    2.22297E+005    3.54150E+004    8.04234E+003    2.44658E+005    3.68476E+003    1.45743E+004    7.48398E+003
            8097    2.07667E+005    2.19201E+005    2.19201E+005    3.39213E+004   -5.26847E+003    2.24470E+005   -8.26180E+004    1.99091E+005    3.56303E+004   -4.78811E+003    2.17012E+005    3.44879E+003    1.85916E+004    7.93394E+003
            8098    3.10294E+005    3.55288E+005    3.55288E+005    8.11948E+004    1.83993E+004    3.36889E+005   -1.51627E+005    2.95486E+005    8.07820E+004    2.94011E+004    3.44699E+005    6.30835E+003    3.69857E+003    5.85072E+004
            8099    2.72423E+005    3.00386E+005    3.00386E+005    6.47558E+004    2.09136E+003    2.98295E+005   -1.22411E+005    2.55441E+005    6.42025E+004    9.78101E+003    2.93250E+005    1.07418E+004    1.17160E+004    4.30765E+004
            8100    2.42385E+005    2.49037E+005    2.49037E+005    4.40994E+004   -1.85104E+004    2.67547E+005   -9.15419E+004    2.23078E+005    4.29228E+004   -1.36373E+004    2.45340E+005    1.28635E+004    1.30665E+004    2.65903E+004
            8101    2.06533E+005    2.09888E+005    2.09888E+005    3.81300E+004   -1.92746E+004    2.29163E+005   -7.62479E+004    1.87285E+005    3.83199E+004   -1.15437E+004    2.01968E+005    1.23098E+004    1.57900E+004    3.66351E+004
            8102    2.66469E+005    2.34754E+005    2.34754E+005    4.11274E+004   -6.91522E+004    3.03906E+005   -6.89098E+004    2.04782E+005    4.12582E+004   -3.81288E+004    2.03600E+005    1.68497E+004    1.22348E+004    8.97407E+004
            8103    3.21945E+005    3.07943E+005    3.07943E+005    6.65832E+004   -5.76000E+004    3.65543E+005   -1.05642E+005    2.59195E+005    6.65724E+004   -3.15378E+004    2.81891E+005    1.62763E+004    1.32412E+004    9.16791E+004
            8104    3.47654E+005    3.62038E+005    3.62038E+005    9.32951E+004   -3.05888E+004    3.92627E+005   -1.41581E+005    2.91394E+005    9.32217E+004   -1.11761E+004    3.42699E+005    1.38006E+004    1.25294E+004    8.29419E+004
            8105    3.92889E+005    4.47675E+005    4.47675E+005    1.31195E+005    7.93483E+003    4.39740E+005   -1.95602E+005    3.45191E+005    1.31184E+005    3.26088E+004    4.23012E+005    1.14533E+004    1.11632E+004    9.99108E+004
            8106    3.60501E+005    4.71024E+005    4.71024E+005    1.63916E+005    7.41089E+004    3.96915E+005   -2.36350E+005    3.33913E+005    1.63599E+005    9.97354E+004    4.45714E+005    1.03370E+004    8.47700E+003    9.61611E+004
            8107    3.37878E+005    4.92444E+005    4.92444E+005    1.95727E+005    1.24697E+005    3.67746E+005   -2.70956E+005    3.20428E+005    1.95389E+005    1.43458E+005    4.74021E+005    7.75915E+003    6.20534E+003    7.97154E+004
            8108    3.00416E+005    4.90240E+005    4.90240E+005    2.15995E+005    1.69156E+005    3.21084E+005   -2.91797E+005    2.92031E+005    2.15626E+005    1.89330E+005    4.70434E+005    5.52970E+003    3.28801E+003    7.70416E+004
            8109    2.53040E+005    4.45628E+005    4.45628E+005    2.08373E+005    1.79313E+005    2.66316E+005   -2.77772E+005    2.49244E+005    2.07962E+005    2.04973E+005    4.20380E+005    3.84408E+003    5.62567E+002    7.79293E+004
            8110    2.91110E+005    4.39105E+005    4.39105E+005    1.85035E+005    1.21462E+005    3.17643E+005   -2.48534E+005    2.74833E+005    1.84599E+005    1.49000E+005    4.12004E+005    4.32105E+003   -4.60123E+003    8.85999E+004
            8111    2.50577E+005    4.22845E+005    4.22845E+005    1.96234E+005    1.53736E+005    2.69109E+005   -2.57605E+005    2.42269E+005    1.96021E+005    1.76840E+005    3.99954E+005    2.04653E+003   -8.99193E+003    7.45331E+004
            8112    3.26782E+005    4.76366E+005    4.76366E+005    1.91117E+005    1.19824E+005    3.56542E+005   -2.62436E+005    3.08548E+005    1.90638E+005    1.54407E+005    4.42261E+005    4.64315E+003   -5.50240E+003    1.04702E+005
            8113    2.94991E+005    4.68928E+005    4.68928E+005    2.07301E+005    1.49214E+005    3.19714E+005   -2.75147E+005    2.81690E+005    2.07102E+005    1.89007E+005    4.29332E+005    1.93844E+003   -1.34575E+004    1.04452E+005
            8114    3.56260E+005    4.92903E+005    4.92903E+005    1.83406E+005    1.03464E+005    3.89439E+005   -2.59924E+005    3.35176E+005    1.82890E+005    1.49645E+005    4.47239E+005    4.93633E+003   -6.06102E+003    1.25118E+005
            8115    3.23168E+005    4.72111E+005    4.72111E+005    1.93633E+005    1.17755E+005    3.54356E+005   -2.61166E+005    3.02135E+005    1.93393E+005    1.83434E+005    4.06672E+005    1.57513E+003   -1.85296E+004    1.36246E+005
            8116    3.43581E+005    4.46989E+005    4.46989E+005    1.47432E+005    7.19398E+004    3.75050E+005   -2.22121E+005    3.24123E+005    1.46917E+005    1.25138E+005    3.94307E+005    4.29113E+003   -7.36470E+003    1.30085E+005
            8117    3.32265E+005    4.67856E+005    4.67856E+005    1.82797E+005    1.02939E+005    3.64917E+005   -2.51197E+005    3.09548E+005    1.82761E+005    1.76792E+005    3.94040E+005    5.96695E+002   -2.34934E+004    1.44693E+005
            8118    3.57562E+005    4.63613E+005    4.63613E+005    1.66949E+005    6.65981E+004    3.97015E+005   -2.32387E+005    3.23533E+005    1.67064E+005    1.70003E+005    3.60094E+005   -6.07837E+002   -2.65566E+004    1.72271E+005
            8119    4.45554E+005    5.67585E+005    5.67585E+005    2.01242E+005    7.15836E+004    4.96001E+005   -2.80137E+005    3.99687E+005    2.03031E+005    1.22341E+005    5.15038E+005   -1.55968E+000   -3.25939E+004    1.48656E+005
            8120    3.90394E+005    4.66903E+005    4.66903E+005    1.34697E+005    3.69118E+004    4.29991E+005   -2.12837E+005    3.61267E+005    1.34673E+005    9.09184E+004    4.12921E+005    1.95293E+003   -1.31451E+004    1.41853E+005
            8121    3.32620E+005    3.54402E+005    3.54402E+005    6.96438E+004   -1.11836E+004    3.65585E+005   -1.37621E+005    3.09345E+005    7.12373E+004   -6.97729E+003    3.48602E+005    1.29080E+002   -2.18713E+004    3.85520E+004
            8122    4.94347E+004    3.00187E+002   -5.46835E+004   -1.39109E+004   -5.46835E+004    5.49837E+004    2.27648E+004   -4.44790E+004   -1.26760E+004   -6.59381E+003   -4.90245E+004    4.83056E+003    1.07109E+003   -1.62384E+004
            8123    5.43798E+004   -3.58636E+002   -6.06949E+004   -1.54664E+004   -6.06949E+004    6.03362E+004    2.55066E+004   -4.93166E+004   -1.41067E+004   -3.57227E+003   -5.88409E+004    4.63912E+003    8.90469E+002   -1.01135E+004
            8124    6.49882E+004   -4.65940E+003   -7.55660E+004   -1.88371E+004   -7.55660E+004    7.09066E+004    3.30208E+004   -6.13622E+004   -1.74831E+004   -6.38829E+003   -7.51911E+004    4.24000E+003    5.91388E+002   -4.99706E+003
            8125    8.23972E+004    5.47718E+002   -8.97649E+004   -1.86850E+004   -8.97649E+004    9.03126E+004    3.59674E+004   -7.71005E+004   -1.84041E+004    1.65439E+002   -8.96635E+004    2.32072E+003    2.16185E+002   -3.00125E+003
            8126    9.17582E+004   -2.54945E+003   -1.02754E+005   -2.28376E+004   -1.02754E+005    1.00204E+005    4.27137E+004   -8.64931E+004   -2.27948E+004   -2.59816E+003   -1.02748E+005    9.36884E+002    1.73889E+002   -7.40281E+002
            8127    2.77810E+004   -6.12953E+003   -3.77986E+004   -1.75386E+004   -3.77986E+004    3.16691E+004    2.04889E+004   -2.14722E+004   -9.99025E+003   -1.52027E+004   -3.62738E+004    5.55235E+003   -1.67140E+000   -5.72437E+003
            8128    4.52531E+004   -7.70110E+003   -5.73151E+004   -1.83067E+004   -5.73151E+004    4.96140E+004    2.77743E+004   -4.23192E+004   -1.45174E+004   -1.17472E+004   -5.70582E+004    5.17369E+003   -9.47239E+002    3.14173E+003
            8129    6.64054E+004   -1.75256E+003   -7.41503E+004   -1.60744E+004   -7.41503E+004    7.23977E+004    3.06591E+004   -6.27879E+004   -1.43913E+004   -3.61455E+003   -7.39713E+004    4.73851E+003   -1.48647E+003    3.03820E+003
            8130    8.03141E+004   -3.83494E+003   -9.06467E+004   -1.89896E+004   -9.06467E+004    8.68118E+004    3.78238E+004   -7.69981E+004   -1.86214E+004   -4.39876E+003   -9.04511E+004    2.59594E+003   -1.99639E+003    3.40529E+003
            8131    9.63727E+004    2.32939E+003   -1.03074E+005   -1.94653E+004   -1.03074E+005    1.05404E+005    4.00700E+004   -9.05754E+004   -1.94919E+004    2.27359E+003   -1.02992E+005    9.97059E+002   -2.40654E+003    1.14745E+003
            8132    4.47127E+004   -3.80427E+003   -5.31881E+004   -1.54520E+004   -5.31881E+004    4.93839E+004    2.41481E+004   -4.10862E+004   -1.26623E+004   -2.16219E+004   -3.81602E+004    6.81805E+003   -6.46903E+002    2.12646E+004
            8133    5.82073E+004   -1.32508E+003   -6.59275E+004   -1.75645E+004   -6.59275E+004    6.46024E+004    2.82724E+004   -5.27382E+004   -1.56087E+004   -9.37096E+003   -5.98374E+004    6.14673E+003   -1.14592E+003    1.82558E+004
            8134    7.43141E+004   -4.78407E+003   -8.62522E+004   -2.21772E+004   -8.62522E+004    8.14681E+004    3.77378E+004   -6.95097E+004   -2.06550E+004   -9.94856E+003   -8.26099E+004    5.60996E+003   -1.80063E+003    1.63513E+004
            8135    9.23648E+004    9.82976E+002   -1.00568E+005   -2.15663E+004   -1.00568E+005    1.01551E+005    4.03839E+004   -8.58379E+004   -2.13190E+004   -3.52664E+002   -9.94800E+004    3.00826E+003   -2.43383E+003    9.98074E+003
            8136    1.01149E+005   -3.37456E+003   -1.14155E+005   -2.67199E+004   -1.14155E+005    1.10780E+005    4.80830E+004   -9.47984E+004   -2.67563E+004   -3.55600E+003   -1.13937E+005    1.14426E+003   -2.66644E+003    3.84956E+003
            8137    2.50264E+005   -1.78831E+005   -4.42314E+005   -2.07787E+005   -4.42314E+005    2.63483E+005    2.76311E+005   -2.46453E+005   -2.07412E+005   -2.05399E+005   -4.16122E+005    3.61311E+003   -3.56935E+002    7.87580E+004
            8138    2.78794E+005   -1.17013E+005   -4.21441E+005   -1.78569E+005   -4.21441E+005    3.04428E+005    2.39008E+005   -2.62844E+005   -1.78165E+005   -1.43846E+005   -3.95013E+005    4.08978E+003    4.32243E+003    8.55903E+004
            8139    2.38182E+005   -1.50464E+005   -4.05815E+005   -1.89666E+005   -4.05815E+005    2.55351E+005    2.48648E+005   -2.30756E+005   -1.89480E+005   -1.69308E+005   -3.87157E+005    1.97474E+003    7.91170E+003    6.59811E+004
            8140    2.15593E+005   -1.33593E+005   -3.64437E+005   -1.68307E+005   -3.64437E+005    2.30844E+005    2.22112E+005   -2.09167E+005   -1.68072E+005   -1.82144E+005   -3.16122E+005    2.61418E+003    1.14657E+003    9.38486E+004
            8141    2.14277E+005   -8.91637E+004   -3.24066E+005   -1.39309E+005   -3.24066E+005    2.34903E+005    1.84180E+005   -2.00427E+005   -1.38973E+005   -1.13162E+005   -3.00404E+005    3.42278E+003    2.96090E+003    7.06170E+004
            8142    1.69329E+005   -1.22024E+005   -3.01977E+005   -1.45781E+005   -3.01977E+005    1.79953E+005    1.89927E+005   -1.65518E+005   -1.45613E+005   -1.29676E+005   -2.94494E+005    1.65565E+003    4.37076E+003    3.56589E+004
            8143    2.06333E+005   -2.18951E+004   -2.54612E+005   -9.40331E+004   -2.54612E+005    2.32717E+005    1.23513E+005   -1.74372E+005   -9.39521E+004   -1.06885E+005   -1.69702E+005    2.15880E+003    1.17331E+003    1.11996E+005
            8144    1.37044E+005   -3.02479E+004   -1.83527E+005   -7.28267E+004   -1.83527E+005    1.53279E+005    9.55339E+004   -1.20760E+005   -7.25664E+004   -5.97372E+004   -1.54298E+005    2.93124E+003    1.56299E+003    6.01519E+004
            8145    8.43861E+004   -6.43526E+004   -1.53740E+005   -7.54539E+004   -1.53740E+005    8.93874E+004    9.78488E+004   -8.27194E+004   -7.52304E+004   -6.65694E+004   -1.51747E+005    1.41186E+003    1.79066E+003    1.30761E+004
            8146    2.06211E+005    1.27829E+005    1.27829E+005    6.06154E+003   -1.10261E+005    2.38091E+005   -7.87661E+003    7.02871E+004    6.05064E+003    6.27424E+003    1.13050E+004    2.16679E+003   -2.51525E+002    1.18999E+005
            8147    9.87960E+004    7.06787E+004    7.06787E+004    9.44807E+003   -4.32959E+004    1.13975E+005   -1.22769E+004    4.98592E+004    9.39977E+003    8.41182E+003    1.90192E+004    2.76104E+003   -2.64290E+002    5.66703E+004
            8148    1.63046E+004    2.54204E+004    2.54204E+004    1.17887E+004    7.35852E+003    1.80619E+004   -1.48559E+004    1.48574E+004    1.14101E+004    1.04444E+004    2.27131E+004    1.23075E+003   -2.84072E+002    6.36264E+003
            8149    2.06620E+005    2.67847E+005    2.67847E+005    1.03128E+005    3.60130E+004    2.31834E+005   -1.35663E+005    1.79519E+005    1.03028E+005    1.16833E+005    1.87128E+005    2.21333E+003   -1.37813E+003    1.10407E+005
            8150    1.52391E+005    2.16477E+005    2.16477E+005    8.97305E+004    4.73931E+004    1.69084E+005   -1.17867E+005    1.38202E+005    8.94374E+004    7.38278E+004    1.90335E+005    3.04315E+003   -1.84046E+003    6.10635E+004
            8151    1.06313E+005    1.95040E+005    1.95040E+005    9.60020E+004    8.27023E+004    1.12337E+005   -1.24581E+005    1.04417E+005    9.57941E+004    8.56681E+004    1.92282E+005    1.46564E+003   -2.40520E+003    1.72170E+004
            8152    2.21302E+005    3.76787E+005    3.76787E+005    1.74684E+005    1.40309E+005    2.36478E+005   -2.30593E+005    2.15172E+005    1.74423E+005    1.86893E+005    3.30463E+005    2.67628E+003   -1.32178E+003    9.37899E+004
            8153    2.26855E+005    3.46758E+005    3.46758E+005    1.49857E+005    9.86890E+004    2.48069E+005   -1.98435E+005    2.13284E+005    1.49499E+005    1.22370E+005    3.23435E+005    3.52490E+003   -3.42961E+003    7.23012E+004
            8154    1.88290E+005    3.34388E+005    3.34388E+005    1.60839E+005    1.34196E+005    2.00192E+005   -2.09808E+005    1.83977E+005    1.60670E+005    1.43679E+005    3.25075E+005    1.72349E+003   -5.23533E+003    4.18366E+004
            8155    1.87934E+005    5.91780E+003   -1.98897E+005   -3.43798E+004   -1.98897E+005    2.04814E+005    7.57862E+004   -1.77820E+005   -3.58993E+004    5.64798E+003   -1.97107E+005    2.38547E+003   -1.61295E+004    6.05042E+003
            8156    1.72804E+005    3.52841E+003   -1.84938E+005   -3.39472E+004   -1.84938E+005    1.88466E+005    7.17855E+004   -1.63281E+005   -3.48819E+004    3.18395E+002   -1.80793E+005    6.22806E+003   -1.42241E+004    2.21545E+004
            8157    1.76598E+005    2.25394E+004   -1.73955E+005   -2.84925E+004   -1.73955E+005    1.96495E+005    5.99695E+004   -1.58694E+005   -2.85807E+004    1.27703E+004   -1.64098E+005    1.14113E+004   -1.28299E+004    3.92592E+004
            8158    1.90781E+005    3.82322E+004   -1.77674E+005   -3.18287E+004   -1.77674E+005    2.15906E+005    5.70902E+004   -1.57674E+005   -3.21146E+004    1.37637E+004   -1.52920E+005    1.34796E+004   -1.08614E+004    6.64766E+004
            8159    2.23722E+005    7.20185E+004   -1.83894E+005   -2.53900E+004   -1.83894E+005    2.55913E+005    4.57552E+004   -1.64764E+005   -2.54676E+004    2.59409E+004   -1.37739E+005    1.63176E+004   -8.64241E+003    9.66253E+004
            8160    1.51164E+005   -3.54491E+003   -1.69079E+005   -3.83592E+004   -1.69079E+005    1.65534E+005    7.03277E+004   -1.41717E+005   -3.89295E+004   -3.95739E+003   -1.68096E+005    1.96634E+003   -9.04078E+003    7.51621E+003
            8161    1.43756E+005    6.88347E+003   -1.51858E+005   -3.04575E+004   -1.51858E+005    1.58742E+005    5.84775E+004   -1.32168E+005   -3.07067E+004    3.44896E+003   -1.48175E+005    5.05541E+003   -8.25734E+003    2.16563E+004
            8162    1.34472E+005    7.98351E+003   -1.41575E+005   -3.06462E+004   -1.41575E+005    1.49559E+005    5.47459E+004   -1.21012E+005   -3.00586E+004   -4.70904E+003   -1.29470E+005    9.46773E+003   -6.97576E+003    3.92532E+004
            8163    1.34350E+005    2.51274E+004   -1.26986E+005   -2.45451E+004   -1.26986E+005    1.52113E+005    4.21345E+004   -1.10664E+005   -2.41400E+004    1.65366E+003   -1.03917E+005    1.07020E+004   -5.51938E+003    5.33151E+004
            8164    1.58498E+005    4.28209E+004   -1.37893E+005   -2.24698E+004   -1.37893E+005    1.80714E+005    3.91808E+004   -1.22230E+005   -2.23213E+004   -6.50759E+003   -8.87134E+004    1.27667E+004   -4.62568E+003    7.92896E+004
            8165    1.28267E+005    3.64074E+003   -1.37044E+005   -2.65983E+004   -1.37044E+005    1.40684E+005    5.33338E+004   -1.19847E+005   -2.71411E+004    3.34396E+003   -1.36204E+005    1.44588E+003   -7.94982E+003    5.98908E+003
            8166    1.11774E+005   -1.39764E+003   -1.23134E+005   -2.51369E+004   -1.23134E+005    1.21736E+005    4.98894E+004   -1.05876E+005   -2.53954E+004   -4.51148E+003   -1.19761E+005    3.87591E+003   -7.03713E+003    1.81465E+004
            8167    1.02680E+005    6.60241E+003   -1.06684E+005   -1.97484E+004   -1.06684E+005    1.13287E+005    3.99435E+004   -9.46131E+004   -1.92903E+004   -1.54967E+003   -9.89905E+004    7.09143E+003   -6.04575E+003    2.70911E+004
            8168    9.41744E+004    8.59742E+003   -9.63859E+004   -1.93445E+004   -9.63859E+004    1.04983E+005    3.57110E+004   -8.40611E+004   -1.90352E+004   -1.03389E+004   -7.77589E+004    8.01172E+003   -4.66437E+003    3.90564E+004
            8169    9.03766E+004    1.89203E+004   -8.30051E+004   -1.26431E+004   -8.30051E+004    1.01925E+005    2.55760E+004   -7.64120E+004   -1.23355E+004   -1.62578E+004   -4.81346E+004    9.36413E+003   -2.80890E+003    4.73450E+004
            8170    3.76437E+005   -6.66813E+004   -4.83968E+005   -1.69927E+005   -4.83968E+005    4.17287E+005    2.40192E+005   -3.42345E+005   -1.69721E+005   -8.65440E+004   -4.64312E+005    1.11489E+004   -1.06000E+004    8.71587E+004
            8171    3.84945E+005   -1.20464E+004   -4.44576E+005   -1.39589E+005   -4.44576E+005    4.32529E+005    1.98737E+005   -3.32161E+005   -1.39551E+005   -3.37589E+004   -4.22901E+005    1.33624E+004   -1.28261E+004    9.25534E+004
            8172    3.92161E+005    3.19452E+004   -4.11973E+005   -1.12602E+005   -4.11973E+005    4.43919E+005    1.64210E+005   -3.23516E+005   -1.12505E+005    8.40285E+003   -3.88528E+005    1.61279E+004   -1.40120E+004    9.70225E+004
            8173    3.52473E+005    7.71804E+004   -3.24846E+005   -6.88954E+004   -3.24846E+005    4.02026E+005    1.05520E+005   -2.70591E+005   -6.90523E+004    4.85622E+004   -2.96071E+005    1.78180E+004   -1.46505E+004    1.00945E+005
            8174    2.99870E+005    8.00934E+004   -2.62686E+005   -4.88853E+004   -2.62686E+005    3.42779E+005    7.71592E+004   -2.23310E+005   -4.87885E+004    3.95938E+004   -2.22283E+005    1.78661E+004   -1.08869E+004    1.08571E+005
            8175    2.32341E+005    4.60807E+004   -2.17409E+005   -4.19319E+004   -2.17409E+005    2.63490E+005    7.10867E+004   -1.88967E+005   -4.13463E+004    2.92624E+004   -2.01176E+005    1.56405E+004   -1.11881E+004    6.07087E+004
            8176    2.12725E+005    1.60138E+004   -2.20092E+005   -4.33657E+004   -2.20092E+005    2.36105E+005    8.24812E+004   -1.92715E+005   -4.25553E+004    7.23915E+003   -2.12127E+005    1.29012E+004   -1.22099E+004    3.92739E+004
            8177    2.06747E+005    1.18859E+004   -2.14714E+005   -3.63484E+004   -2.14714E+005    2.26600E+005    7.97256E+004   -1.93470E+005   -3.66413E+004    1.00512E+004   -2.12587E+005    7.00251E+003   -1.33197E+004    1.54132E+004
            8178    2.04259E+005   -4.25438E+003   -2.23895E+005   -3.96415E+004   -2.23895E+005    2.19641E+005    8.92637E+004   -1.97185E+005   -4.06760E+004   -4.53772E+003   -2.22577E+005    2.91903E+003   -1.49401E+004    4.43501E+003
            8179    2.86357E+005    3.65152E+004   -2.86223E+005   -6.25621E+004   -2.86223E+005    3.22738E+005    1.04090E+005   -2.43045E+005   -6.28773E+004    2.02918E+004   -2.69684E+005    1.54891E+004   -1.64112E+004    6.72961E+004
            8180    2.48241E+005    1.92738E+004   -2.54773E+005   -4.49657E+004   -2.54773E+005    2.74046E+005    9.34882E+004   -2.28390E+005   -4.49113E+004    1.36612E+004   -2.49214E+005    1.20615E+004   -1.64905E+004    3.28343E+004
            8181    2.27555E+005    2.53175E+002   -2.45217E+005   -4.13048E+004   -2.45217E+005    2.45470E+005    9.54227E+004   -2.18771E+005   -4.19552E+004   -1.47418E+003   -2.42839E+005    6.51237E+003   -1.63217E+004    1.55983E+004
            8182    2.27073E+005    6.88681E+003   -2.35352E+005   -2.73277E+004   -2.35352E+005    2.42239E+005    8.52642E+004   -2.21162E+005   -2.87972E+004    6.68796E+003   -2.33684E+005    2.64770E+003   -1.84365E+004    2.11168E+003
            8183    3.11451E+005    1.37998E+004   -3.34313E+005   -8.20612E+004   -3.34313E+005    3.48113E+005    1.34192E+005   -2.75202E+005   -8.15030E+004   -7.90590E+002   -3.20281E+005    1.46650E+004   -1.27757E+004    6.59921E+004
            8184    2.85613E+005   -7.17343E+003   -3.18691E+005   -6.91656E+004   -3.18691E+005    3.11518E+005    1.31677E+005   -2.69846E+005   -6.85875E+004   -1.64905E+004   -3.09952E+005    1.00539E+004   -1.01510E+004    4.97222E+004
            8185    2.61679E+005    2.66048E+003   -2.79629E+005   -4.51548E+004   -2.79629E+005    2.82289E+005    1.07374E+005   -2.51567E+005   -4.50550E+004    1.28133E+003   -2.78349E+005    5.04500E+003   -8.58066E+003    1.62811E+004
            8186    2.35495E+005   -1.03818E+004   -2.55613E+005   -3.12406E+004   -2.55613E+005    2.45231E+005    9.90784E+004   -2.33403E+005   -3.14027E+004   -1.07422E+004   -2.55090E+005    2.19151E+003   -8.76299E+003    6.55193E+003
            8187    3.58339E+005   -1.62027E+004   -4.14575E+005   -1.18530E+005   -4.14575E+005    3.98372E+005    1.83102E+005   -3.22933E+005   -1.18535E+005   -4.12660E+004   -3.89506E+005    1.19412E+004   -1.20952E+004    9.52315E+004
            8188    3.04569E+005   -1.89127E+004   -3.50192E+005   -8.23118E+004   -3.50192E+005    3.31279E+005    1.50472E+005   -2.89159E+005   -8.21858E+004   -3.13217E+004   -3.37909E+005    6.29450E+003   -7.03039E+003    6.19323E+004
            8189    2.82909E+005   -1.87289E+004   -3.22759E+005   -6.72447E+004   -3.22759E+005    3.04030E+005    1.36244E+005   -2.73314E+005   -6.72175E+004   -2.52611E+004   -3.16254E+005    2.42041E+003   -3.22805E+003    4.38207E+004
            8190    2.59557E+005    5.00164E+003   -2.70590E+005   -3.07818E+004   -2.70590E+005    2.75592E+005    9.87902E+004   -2.53919E+005   -3.07694E+004    4.50719E+003   -2.70108E+005    9.74178E+002   -1.56414E+003    1.13872E+004
            8191    3.49864E+005   -6.23657E+004   -4.44264E+005   -1.39209E+005   -4.44264E+005    3.81898E+005    2.15279E+005   -3.30067E+005   -1.38727E+005   -9.82387E+004   -4.08872E+005    8.66854E+003   -4.34209E+003    1.10405E+005
            8192    3.67316E+005   -3.76115E+004   -4.37532E+005   -1.15224E+005   -4.37532E+005    3.99920E+005    1.96789E+005   -3.48143E+005   -1.15008E+005   -7.50435E+004   -4.00316E+005    3.29982E+003    3.71977E+003    1.16113E+005
            8193    3.32455E+005   -1.00106E+004   -3.71619E+005   -7.92066E+004   -3.71619E+005    3.61608E+005    1.53612E+005   -3.15637E+005   -7.93761E+004   -2.10095E+004   -3.60450E+005    5.82485E+002    8.41860E+003    6.19093E+004
            8194    2.85084E+005   -2.36096E+004   -3.24097E+005   -5.74355E+004   -3.24097E+005    3.00488E+005    1.35047E+005   -2.80516E+005   -5.80068E+004   -2.68717E+004   -3.20264E+005   -1.75042E+002    1.27958E+004    3.09187E+004
            8195    3.58176E+005    1.47539E+004   -3.82272E+005   -8.34175E+004   -3.82272E+005    3.97025E+005    1.50312E+005   -3.25785E+005   -8.60123E+004    1.03904E+004   -3.75313E+005   -3.43318E+002    2.82076E+004    4.09270E+004
            8196    4.75930E+005   -7.55458E+004   -6.06619E+005   -2.18690E+005   -6.06619E+005    5.31073E+005    3.00285E+005   -4.23276E+005   -2.20773E+005   -1.25110E+005   -5.54972E+005   -9.10660E+001    3.47790E+004    1.52828E+005
            8197    4.11727E+005   -2.67652E+004   -4.83362E+005   -1.40354E+005   -4.83362E+005    4.56597E+005    2.16827E+005   -3.73965E+005   -1.41140E+005   -8.13056E+004   -4.28036E+005   -1.55178E+002    2.22944E+004    1.47164E+005
            8198    3.70788E+005   -6.50880E+004   -4.78126E+005   -1.73969E+005   -4.78126E+005    4.13038E+005    2.39061E+005   -3.31858E+005   -1.73983E+005   -1.74819E+005   -3.68382E+005   -1.09630E+002    2.89026E+004    1.80137E+005
            8199    3.43116E+005   -6.12060E+004   -4.36337E+005   -1.38380E+005   -4.36337E+005    3.75131E+005    2.11974E+005   -3.22710E+005   -1.38174E+005   -1.25710E+005   -3.72039E+005    1.61645E+003    1.76323E+004    1.40268E+005
            8200    3.37087E+005   -9.20663E+004   -4.64200E+005   -1.79316E+005   -4.64200E+005    3.72134E+005    2.45194E+005   -3.10119E+005   -1.79385E+005   -1.73099E+005   -3.83098E+005    2.82649E+002    2.47909E+004    1.51619E+005
            8201    3.56338E+005   -8.54476E+004   -4.74801E+005   -1.64887E+005   -4.74801E+005    3.89353E+005    2.41712E+005   -3.35536E+005   -1.64293E+005   -1.39147E+005   -4.21696E+005    4.47785E+003    9.95857E+003    1.33239E+005
            8202    3.32626E+005   -1.03139E+005   -4.69053E+005   -1.85001E+005   -4.69053E+005    3.65914E+005    2.52398E+005   -3.08717E+005   -1.84889E+005   -1.79829E+005   -3.92474E+005    7.59386E+002    2.13007E+004    1.47320E+005
            8203    3.15177E+005   -1.31189E+005   -4.75043E+005   -1.99869E+005   -4.75043E+005    3.43854E+005    2.68700E+005   -2.97634E+005   -1.99572E+005   -1.87254E+005   -4.19273E+005    1.94135E+003    1.74020E+004    1.25552E+005
            8204    2.87685E+005   -1.46918E+005   -4.58794E+005   -2.03797E+005   -4.58794E+005    3.11876E+005    2.69836E+005   -2.74603E+005   -2.03561E+005   -1.84617E+005   -4.21330E+005    2.13150E+003    1.23274E+004    1.00641E+005
            8205    3.47227E+005   -1.02599E+005   -4.82169E+005   -1.80529E+005   -4.82169E+005    3.79570E+005    2.55099E+005   -3.26669E+005   -1.79899E+005   -1.47019E+005   -4.38379E+005    5.65106E+003    5.44253E+003    1.21092E+005
            8206    3.26600E+005   -1.20632E+005   -4.77439E+005   -1.93281E+005   -4.77439E+005    3.56807E+005    2.63784E+005   -3.07622E+005   -1.92784E+005   -1.54462E+005   -4.44106E+005    4.91142E+003    5.01317E+003    1.03693E+005
            8207    2.94760E+005   -1.68089E+005   -4.83005E+005   -2.13724E+005   -4.83005E+005    3.14916E+005    2.88272E+005   -2.86650E+005   -2.13322E+005   -1.86233E+005   -4.65263E+005    5.57500E+003   -3.26412E+003    7.24002E+004
            8208    3.45621E+005   -1.24061E+005   -5.01147E+005   -1.99429E+005   -5.01147E+005    3.77086E+005    2.74879E+005   -3.26355E+005   -1.99026E+005   -1.44225E+005   -4.81386E+005    8.66917E+003   -6.67023E+003    8.34491E+004
            8209    1.07046E+005    5.86990E+004   -6.48511E+004   -6.30458E+003   -6.48511E+004    1.23550E+005    4.15223E+003    4.80375E+004   -6.43024E+003   -5.79207E+004    5.18942E+004    2.74651E+003   -2.71209E+002    2.81654E+004
            8210    8.74230E+004    5.85960E+004    5.85960E+004    2.95771E+002   -4.19235E+004    1.00519E+005   -5.65610E+003    5.66991E+004   -3.14694E+001   -4.15091E+004    5.85089E+004    3.77298E+003   -1.11839E+003    2.63575E+003
            8211    7.64442E+004    6.35978E+004    6.35978E+004    8.28117E+003   -2.36321E+004    8.72299E+004   -1.60823E+004    5.83567E+004    7.68797E+003   -2.11716E+004    6.17304E+004    5.08790E+003   -1.99171E+003   -1.21251E+004
            8212    6.64714E+004    6.40983E+004    6.40983E+004    1.28993E+004   -1.10233E+004    7.51216E+004   -2.19914E+004    5.54652E+004    1.17197E+004   -5.33162E+003    5.95863E+004    6.32133E+003   -2.01480E+003   -1.72070E+004
            8213    7.51989E+004    7.92067E+004    7.92067E+004    1.43243E+004   -3.21029E+003    8.24170E+004   -3.01069E+004    7.03753E+004    1.29322E+004   -5.76375E+002    7.79648E+004    4.88574E+003   -6.03214E+002   -9.86483E+003
            8214    9.53624E+004    1.02211E+005    1.02211E+005    1.72786E+004   -9.49850E+002    1.03161E+005   -3.95132E+004    9.13185E+004    1.70183E+004   -6.20830E+002    1.02142E+005    2.17454E+003   -2.58925E+002   -2.63687E+003
            8215    7.98728E+004    8.01952E+004    8.01952E+004    1.36635E+004   -8.38619E+003    8.85814E+004   -2.84908E+004    7.25371E+004    1.27863E+004   -6.81673E+003    7.95029E+004    4.42986E+003   -7.02177E+002   -7.66117E+003
            8216    1.01682E+005    1.07628E+005    1.07628E+005    1.89152E+004   -3.33879E+003    1.10966E+005   -4.10680E+004    9.59711E+004    1.87045E+004   -3.10589E+003    1.07605E+005    2.16366E+003   -2.52661E+002   -1.53406E+003
            8217    8.63844E+004    7.72547E+004    7.72547E+004    8.83709E+003   -1.98153E+004    9.70701E+004   -2.20922E+004    7.45105E+004    8.26998E+003   -1.90061E+004    7.70126E+004    4.03132E+003    3.77174E+002    4.77895E+003
            8218    1.01496E+005    1.05379E+005    1.05379E+005    1.67803E+004   -5.35950E+003    1.10738E+005   -3.89332E+004    9.58343E+004    1.66327E+004   -5.01763E+003    1.05185E+005    2.04995E+003    1.61020E+003    4.23060E+003
            8219    9.28476E+004    7.21162E+004    7.21162E+004    4.55096E+003   -3.37559E+004    1.05872E+005   -1.43038E+004    7.15190E+004    4.36436E+003   -2.48434E+004    6.33903E+004    3.57490E+003    1.13395E+003    2.89673E+004
            8220    8.94473E+004    9.12120E+004    9.12120E+004    1.38906E+004   -6.75192E+003    9.79640E+004   -3.27836E+004    8.38330E+004    1.38995E+004   -5.17629E+003    8.96276E+004    1.90855E+003    2.88875E+003    1.18554E+004
            8221    6.86826E+004    6.75321E+004    6.75321E+004    8.39106E+003   -7.79929E+003    7.53314E+004   -2.27080E+004    6.41750E+004    8.62328E+003   -3.13176E+003    6.26324E+004    1.69236E+003    3.64721E+003    1.80625E+004
            8222    4.74957E+004    3.65170E+004    3.65170E+004   -1.48967E+003   -1.67276E+004    5.32446E+004   -6.09992E+003    4.14358E+004   -1.36394E+003   -3.08150E+003    2.27452E+004    1.90480E+003    1.75998E+003    2.31665E+004
            8223    1.02184E+005    7.01325E+004    7.01325E+004    1.02321E+003   -4.72445E+004    1.17377E+005   -7.97040E+003    6.85344E+004    1.06668E+003   -1.93829E+004    4.22274E+004    3.31711E+003    1.64228E+003    4.98211E+004
            8224    1.06825E+005    6.50610E+004    6.50610E+004   -2.17027E+003   -5.81176E+004    1.23179E+005   -1.59104E+003    5.77332E+004   -2.13145E+003   -7.62749E+003    1.45321E+004    4.01387E+003    8.46084E+002    6.04472E+004
            8225    1.49287E+005    8.69210E+004    8.69210E+004   -4.79441E+002   -8.54556E+004    1.72377E+005   -3.28661E+002    4.32742E+004   -4.59507E+002   -1.06928E+004    1.21383E+004    3.80241E+003    5.04745E+002    8.53429E+004
            8226    1.84622E+005    1.03688E+005   -1.09480E+005   -6.37542E+002   -1.09480E+005    2.13168E+005    2.14312E+003   -6.13478E+004   -6.23767E+002   -1.53657E+004    9.56013E+003    2.67446E+003    4.00852E+002    1.05818E+005
            8227    2.15042E+005    1.19990E+005   -1.28281E+005   -3.72388E+002   -1.28281E+005    2.48271E+005    2.88774E+003   -8.05799E+004   -3.59954E+002   -1.69965E+004    8.69328E+003    1.39173E+003    5.91180E+002    1.23460E+005
            8228    2.41955E+005    1.35355E+005   -1.43994E+005   -3.80824E+002   -1.43994E+005    2.79348E+005    3.00663E+003   -8.84294E+004   -3.77270E+002   -1.54380E+004    6.79536E+003    3.64839E+002    6.32153E+002    1.39229E+005
            8229    1.42991E+005    7.94520E+004   -8.56514E+004   -4.55922E+003   -8.56514E+004    1.65103E+005    3.58624E+003    4.47328E+004   -4.56892E+003   -4.07743E+004    3.45846E+004    2.75909E+003    5.46058E+002    7.33970E+004
            8230    1.85592E+005    9.41053E+004   -1.20145E+005   -8.91686E+003   -1.20145E+005    2.14250E+005    1.16521E+004   -7.51073E+004   -8.91481E+003   -5.45738E+004    2.85322E+004    1.48989E+003    3.44022E+002    9.87259E+004
            8231    2.20968E+005    1.09822E+005   -1.45213E+005   -1.09983E+004   -1.45213E+005    2.55035E+005    1.54632E+004   -9.93224E+004   -1.09940E+004   -5.82246E+004    2.28291E+004    3.86136E+002    6.17986E+002    1.20904E+005
            8232    2.50472E+005    1.26588E+005   -1.62513E+005   -1.07665E+004   -1.62513E+005    2.89101E+005    1.55640E+004   -1.10600E+005   -1.07691E+004   -5.54050E+004    1.94820E+004   -3.40637E+002    9.14822E+002    1.39613E+005
            8233    2.67924E+005    1.20064E+005   -1.89079E+005   -2.41941E+004   -1.89079E+005    3.09143E+005    3.10695E+004   -1.30384E+005   -2.42044E+004   -1.13011E+005    4.40067E+004   -9.66007E+002    1.70359E+003    1.33135E+005
            8234    2.20319E+005    9.26974E+004   -1.61445E+005   -2.44294E+004   -1.61445E+005    2.54143E+005    3.10591E+004   -1.13034E+005   -2.44303E+004   -1.12977E+005    4.42298E+004   -5.71756E+002    1.36234E+003    9.98322E+004
            8235    1.76500E+005    7.67013E+004   -1.26953E+005   -1.83609E+004   -1.26953E+005    2.03655E+005    2.28710E+004   -8.57718E+004   -1.83554E+004   -9.65115E+004    4.62540E+004    3.35065E+002    6.46680E+002    7.26135E+004
            8236    1.33517E+005    6.70376E+004   -8.71339E+004   -9.59302E+003   -8.71339E+004    1.54172E+005    9.89643E+003   -2.89805E+004   -9.61531E+003   -7.05700E+004    5.04960E+004    1.76061E+003    2.90186E+002    4.76948E+004
            8237    8.94860E+004    9.64449E+004    9.64449E+004    1.80776E+004   -1.06255E+003    9.75074E+004   -3.78200E+004    8.46948E+004    1.78584E+004   -8.21740E+002    9.64232E+004    2.10270E+003   -9.72524E+002   -9.41740E+002
            8238    6.64018E+004    7.52466E+004    7.52466E+004    1.72824E+004    2.79825E+003    7.24484E+004   -3.17758E+004    6.26980E+004    1.51925E+004    5.20598E+003    7.49288E+004    5.19028E+003   -9.52745E+002   -4.50719E+003
            8239    5.21745E+004    5.65438E+004    5.65438E+004    1.54224E+004   -2.14758E+003    5.86914E+004   -2.32729E+004    4.47534E+004    1.29036E+004    5.20757E+003    5.17074E+004    7.27679E+003   -1.71043E+003   -1.51761E+004
            8240    8.93806E+004    9.66818E+004    9.66818E+004    1.67837E+004    1.54312E+002    9.65275E+004   -3.78733E+004    8.57960E+004    1.65645E+004    4.67860E+002    9.65875E+004    2.13338E+003    1.91020E+003    2.11456E+003
            8241    6.78405E+004    7.47943E+004    7.47943E+004    1.53420E+004    8.93439E+002    7.39008E+004   -3.03432E+004    6.42404E+004    1.25476E+004    3.93292E+003    7.45492E+004    5.80862E+003    1.18114E+003    3.84696E+003
            8242    3.55308E+004    4.44697E+004    4.44697E+004    2.01075E+004    3.70016E+003    4.07696E+004   -2.27591E+004    2.45588E+004    1.18505E+004    1.20815E+004    4.43453E+004    8.23872E+003   -3.48647E+002   -1.82428E+003
            8243    9.88096E+004    1.07176E+005    1.07176E+005    2.21174E+004   -1.21005E+003    1.08386E+005   -4.26944E+004    9.23040E+004    2.19723E+004   -7.04713E+002    1.06816E+005    2.40049E+003    2.46040E+003    5.51505E+003
            8244    7.57006E+004    8.53811E+004    8.53811E+004    2.02236E+004    2.33990E+003    8.30412E+004   -3.59815E+004    7.07095E+004    1.78306E+004    7.94093E+003    8.21730E+004    6.76613E+003    1.94461E+003    1.53603E+004
            8245    4.56258E+004    5.22854E+004    5.22854E+004    1.80190E+004    4.95656E+002    5.17897E+004   -2.36000E+004    3.68242E+004    1.25801E+004    1.53128E+004    4.29071E+004    9.78231E+003    8.46406E+002    1.77780E+004
            8246    2.48744E+005    1.48127E+005    1.48127E+005    6.78495E+002   -1.39063E+005    2.87190E+005   -3.24775E+003    8.94255E+004    6.76494E+002    1.60645E+004   -6.99777E+003    2.01869E+002   -6.17152E+002    1.43130E+005
            8247    2.58496E+005    1.66784E+005    1.66784E+005    1.05952E+004   -1.31592E+005    2.98376E+005   -1.52626E+004    1.11924E+005    1.05993E+004    5.47280E+004   -1.95395E+004   -4.51308E+002   -9.74582E+002    1.44489E+005
            8248    2.72494E+005    1.91563E+005    1.91563E+005    2.42632E+004   -1.22871E+005    3.14434E+005   -3.09850E+004    1.30880E+005    2.42743E+004    1.12253E+005   -4.35721E+004   -9.96522E+002   -1.75267E+003    1.36539E+005
            8249    2.71124E+005    1.59879E+005    1.59879E+005    5.04903E+002   -1.53171E+005    3.13050E+005   -2.40437E+003    8.56457E+004    5.06644E+002    1.19196E+004   -5.21312E+003   -3.00484E+002   -4.75940E+002    1.56289E+005
            8250    2.85626E+005    1.78507E+005    1.78507E+005    8.00514E+003   -1.51241E+005    3.29749E+005   -1.17571E+004    1.11245E+005    8.01283E+003    4.22859E+004   -1.50276E+004   -7.60307E+002   -9.05894E+002    1.62361E+005
            8251    3.15044E+005    2.08355E+005    2.08355E+005    1.86411E+004   -1.55313E+005    3.63667E+005   -2.38943E+004    1.32843E+005    1.86542E+004    9.04801E+004   -3.74514E+004   -1.02190E+003   -1.62126E+003    1.70201E+005
            8252    2.87206E+005    1.67692E+005    1.67692E+005    3.94614E+002   -1.63941E+005    3.31633E+005   -1.38219E+003    7.15679E+004    3.96138E+002    6.52668E+003   -2.77626E+003   -5.42276E+002   -2.29637E+002    1.65750E+005
            8253    3.04736E+005    1.82726E+005    1.82726E+005    3.96147E+003   -1.69138E+005    3.51864E+005   -5.84982E+003    9.24053E+004    3.96673E+003    2.15202E+004   -7.93743E+003   -8.40316E+002   -5.40925E+002    1.75311E+005
            8254    3.45207E+005    2.13751E+005    2.13751E+005    1.02880E+004   -1.84830E+005    3.98582E+005   -1.30696E+004    1.14251E+005    1.02964E+004    5.03337E+004   -2.14212E+004   -8.96691E+002   -9.78083E+002    1.96030E+005
            8255    2.91991E+005    1.68210E+005   -1.68952E+005   -1.29234E+002   -1.68952E+005    3.37162E+005    2.90649E+002   -3.95638E+004   -1.29439E+002   -1.19355E+003    4.51045E+002   -5.96601E+002    2.78824E+001    1.68578E+005
            8256    3.10653E+005    1.78569E+005   -1.80142E+005   -5.15843E+002   -1.80142E+005    3.58711E+005    6.96262E+002   -4.27907E+004   -5.16663E+002   -2.81275E+003    1.24063E+003   -8.54141E+002    8.19748E+001    1.79342E+005
            8257    3.56021E+005    2.04788E+005   -2.06310E+005   -5.80168E+002   -2.06310E+005    4.11098E+005    7.00566E+002   -4.09507E+004   -5.80522E+002   -2.35747E+003    8.36295E+002   -8.36388E+002    4.05755E+001    2.05541E+005
            8258    2.83651E+005    1.61597E+005   -1.65929E+005   -3.62607E+002   -1.65929E+005    3.27526E+005    1.56460E+003   -7.57799E+004   -3.64543E+002   -7.67087E+003    3.34161E+003   -5.39204E+002    2.91572E+002    1.63669E+005
            8259    3.00611E+005    1.64977E+005   -1.82114E+005   -5.00196E+003   -1.82114E+005    3.47091E+005    7.37970E+003   -9.88784E+004   -5.00809E+003   -2.72592E+004    1.01282E+004   -8.49745E+002    6.20809E+002    1.72533E+005
            8260    3.43347E+005    1.83067E+005   -2.13361E+005   -1.05787E+004   -2.13361E+005    3.96428E+005    1.36246E+004   -1.17335E+005   -1.05874E+004   -5.34013E+004    2.31150E+004   -9.08204E+002    1.00971E+003    1.94482E+005
            8261    2.65221E+005    1.49294E+005   -1.56934E+005   -5.85154E+002   -1.56934E+005    3.06228E+005    2.74160E+003   -8.80428E+004   -5.86731E+002   -1.33548E+004    5.71673E+003   -2.55510E+002    5.10659E+002    1.52816E+005
            8262    2.78566E+005    1.46371E+005   -1.75217E+005   -8.50593E+003   -1.75217E+005    3.21588E+005    1.24506E+004   -1.11243E+005   -8.51368E+003   -4.47460E+004    1.59080E+004   -7.24215E+002    9.66820E+002    1.57904E+005
            8263    3.11432E+005    1.52032E+005   -2.07456E+005   -1.95578E+004   -2.07456E+005    3.59488E+005    2.49938E+004   -1.33333E+005   -1.95708E+004   -9.34599E+004    3.80494E+004   -1.01171E+003    1.67163E+003    1.67274E+005
            8264    2.07640E+005    1.80157E+005    1.80157E+005    2.95834E+004   -5.67160E+004    2.36873E+005   -5.10081E+004    1.59056E+005    2.94304E+004   -1.58346E+004    1.39428E+005    2.15688E+004    1.16130E+004    8.59971E+004
            8265    1.70741E+005    1.69448E+005    1.69448E+005    2.49271E+004   -1.89501E+004    1.88398E+005   -5.84748E+004    1.57289E+005    2.48054E+004   -8.77734E+003    1.59396E+005    1.32035E+004    1.51800E+004    3.73084E+004
            8266    1.77583E+005    1.87938E+005    1.87938E+005    2.86056E+004   -3.51116E+003    1.91449E+005   -7.10109E+004    1.70865E+005    3.05677E+004   -2.39029E+003    1.84855E+005    5.02887E+003    1.93030E+004    1.10465E+004
            8267    1.45364E+005    1.27811E+005    1.27811E+005    2.19583E+004   -3.79300E+004    1.65741E+005   -3.72798E+004    1.12091E+005    2.12144E+004    9.06447E+002    8.97186E+004    1.70997E+004    6.30300E+003    6.74239E+004
            8268    1.33009E+005    1.38592E+005    1.38592E+005    2.72942E+004   -8.71384E+003    1.47306E+005   -5.23908E+004    1.21296E+005    2.62090E+004    3.37328E+003    1.27590E+005    1.09277E+004    7.98245E+003    3.66392E+004
            8269    1.48408E+005    1.58593E+005    1.58593E+005    3.09410E+004   -4.24692E+003    1.62840E+005   -6.17623E+004    1.38548E+005    3.14107E+004   -3.17527E+003    1.57051E+005    4.07867E+003    9.83328E+003    1.09208E+004
            8270    9.25441E+004    8.83934E+004    8.83934E+004    1.72498E+004   -1.62316E+004    1.04625E+005   -2.98039E+004    7.70330E+004    1.60429E+004    1.45331E+004    5.88355E+004    1.29235E+004    3.68925E+003    4.51827E+004
            8271    1.01785E+005    1.05926E+005    1.05926E+005    1.80247E+004   -5.59187E+003    1.11518E+005   -3.94529E+004    9.53241E+004    1.68461E+004    3.05106E+003    9.84614E+004    8.56795E+003    6.75192E+003    2.59873E+004
            8272    1.18826E+005    1.28270E+005    1.28270E+005    2.29858E+004   -5.70572E+002    1.28840E+005   -5.02283E+004    1.13393E+005    2.35304E+004    3.26597E+002    1.26828E+005    2.93925E+003    8.78182E+003    9.25066E+003
            8273    8.06044E+004    5.62836E+003   -8.21648E+004   -1.15038E+004   -8.21648E+004    8.77932E+004    2.93468E+004   -7.63450E+004   -1.16806E+004    3.80767E+003   -8.01674E+004    1.40351E+003   -3.76831E+003    1.23489E+004
            8274    9.59661E+004    1.99863E+003   -1.01869E+005   -1.64965E+004   -1.01869E+005    1.03868E+005    3.87889E+004   -9.18270E+004   -1.65249E+004    1.43955E+003   -1.01281E+005    1.43975E+003   -2.98797E+003    7.01226E+003
            8275    1.06167E+005    3.31443E+003   -1.12155E+005   -1.87627E+004   -1.12155E+005    1.15470E+005    4.25345E+004   -1.00806E+005   -1.86888E+004    3.18630E+003   -1.12101E+005    1.42260E+003   -1.17224E+003    2.11790E+003
            8276    1.04696E+005   -3.56512E+002   -1.13209E+005   -1.92396E+004   -1.13209E+005    1.12853E+005    4.42685E+004   -1.00758E+005   -1.91236E+004   -4.86163E+002   -1.13196E+005    1.47789E+003   -3.00452E+002   -1.19989E+003
            8277    1.00319E+005    1.56375E+003   -1.07236E+005   -1.83978E+004   -1.07236E+005    1.08799E+005    4.13566E+004   -9.56968E+004   -1.83143E+004    1.42952E+003   -1.07185E+005    1.41886E+003    1.12648E+003   -1.97305E+003
            8278    8.46300E+004    2.34724E+004   -7.20283E+004   -6.33469E+003   -7.20283E+004    9.55006E+004    1.82969E+004   -7.12978E+004   -6.34186E+003    1.07701E+004   -5.93189E+004    3.20613E+003   -2.27623E+003    3.21969E+004
            8279    8.69139E+004    1.64323E+004   -8.03804E+004   -9.07200E+003   -8.03804E+004    9.68126E+004    2.43400E+004   -7.78026E+004   -8.78597E+003    1.27280E+004   -7.69622E+004    3.45195E+003   -1.83698E+003    1.76121E+004
            8280    8.78196E+004    8.14949E+003   -8.85794E+004   -1.38535E+004   -8.85794E+004    9.67289E+004    3.14278E+004   -8.12634E+004   -1.32249E+004    7.34201E+003   -8.84005E+004    3.71009E+003   -5.39507E+002    4.06643E+003
            8281    9.05187E+004    6.57564E+003   -9.26182E+004   -1.44895E+004   -9.26182E+004    9.91939E+004    3.35107E+004   -8.47365E+004   -1.37001E+004    5.58854E+003   -9.24205E+004    4.01298E+003    1.21901E+002   -4.39350E+003
            8282    8.43541E+004   -1.85859E+002   -9.20017E+004   -1.79336E+004   -9.20017E+004    9.18159E+004    3.67071E+004   -7.99900E+004   -1.70062E+004   -1.51306E+003   -9.16019E+004    4.08554E+003    1.15237E+003   -5.81019E+003
            8283    1.06851E+005    5.13051E+004   -7.15915E+004   -6.84003E+002   -7.15915E+004    1.22897E+005    6.99012E+003   -6.84421E+004   -6.28547E+002    2.89527E+004   -4.92946E+004    3.49843E+003   -1.07948E+003    4.72367E+004
            8284    9.21106E+004    3.42899E+004   -7.08006E+004   -4.06570E+003   -7.08006E+004    1.05091E+005    1.35254E+004   -7.04556E+004   -3.79171E+003    2.76283E+004   -6.44129E+004    3.81798E+003   -8.48733E+002    2.49774E+004
            8285    8.41494E+004    2.20208E+004   -7.30846E+004   -8.28785E+003   -7.30846E+004    9.51054E+004    1.97839E+004   -7.01907E+004   -7.69089E+003    2.12064E+004   -7.28671E+004    4.21055E+003    1.26954E+002    4.52715E+003
            8286    7.81311E+004    9.55653E+003   -7.73015E+004   -1.27481E+004   -7.73015E+004    8.68580E+004    2.68310E+004   -7.04162E+004   -1.17784E+004    8.08462E+003   -7.67992E+004    4.61704E+003    4.44640E+002   -6.48532E+003
            8287    7.44372E+004    5.24742E+003   -7.71626E+004   -1.48074E+004   -7.71626E+004    8.24100E+004    2.89075E+004   -6.79492E+004   -1.37400E+004    2.90428E+003   -7.58869E+004    4.79716E+003    1.25098E+003   -9.89110E+003
            8288    1.32800E+005    8.13764E+004    8.13764E+004    6.11723E+003   -7.19595E+004    1.53336E+005   -5.17805E+003   -4.20821E+004    6.15165E+003    5.53791E+004   -4.59966E+004    2.42673E+003   -3.53764E+002    5.74687E+004
            8289    1.04510E+005    5.72056E+004   -6.32629E+004    3.11892E+003   -6.32629E+004    1.20469E+005    9.79441E+002   -5.85297E+004    3.28942E+003    5.08891E+004   -5.71168E+004    3.16723E+003    3.52078E+001    2.64716E+004
            8290    8.40117E+004    3.19957E+004   -6.41181E+004   -4.67825E+003   -6.41181E+004    9.61138E+004    1.22669E+004   -6.17208E+004   -4.21238E+003    3.14000E+004   -6.39884E+004    4.11700E+003    8.71795E+002    3.39882E+003
            8291    7.61049E+004    1.88926E+004   -6.71385E+004   -8.60073E+003   -6.71385E+004    8.60312E+004    1.89489E+004   -6.33928E+004   -7.71831E+003    1.63760E+004   -6.55044E+004    5.20062E+003    1.14151E+003   -1.14721E+004
            8292    6.33866E+004    3.70996E+003   -6.69019E+004   -1.49125E+004   -6.69019E+004    7.06119E+004    2.60348E+004   -5.67246E+004   -1.32302E+004   -9.94567E+002   -6.38797E+004    6.06200E+003    1.76636E+003   -1.37046E+004
            8293    6.62267E+004    1.49616E+004   -6.04810E+004   -1.19300E+004   -6.04810E+004    7.54426E+004    1.91498E+004   -5.16035E+004   -1.11750E+004    8.02123E+003   -5.42957E+004    6.35183E+003    2.54086E+003   -1.99159E+004
            8294    7.72870E+004    2.90595E+004   -5.95798E+004   -6.28291E+003   -5.95798E+004    8.86392E+004    1.22677E+004   -5.40585E+004   -5.84319E+003    2.69165E+004   -5.78765E+004    4.88954E+003    2.24616E+003   -1.15636E+004
            8295    9.17535E+004    5.10798E+004   -5.47514E+004    2.46789E+003   -5.47514E+004    1.05831E+005    4.01233E+002   -4.76772E+004    2.65659E+003    5.08415E+004   -5.47018E+004    3.35994E+003    1.64180E+003    6.27332E+002
            8296    1.13731E+005    7.60037E+004    7.60037E+004    1.05103E+004   -5.53211E+004    1.31325E+005   -1.03976E+004   -1.87184E+004    1.05768E+004    7.20865E+004   -5.14704E+004    2.02461E+003    6.36508E+002    2.21463E+004
            8297    1.43809E+005    1.02055E+005    1.02055E+005    1.51442E+004   -6.39393E+004    1.65995E+005   -1.77534E+004    6.23671E+004    1.51517E+004    8.56634E+004   -4.75548E+004    1.01991E+003   -1.26857E+002    4.95051E+004
            8298    1.81035E+005    1.30050E+005    1.30050E+005    1.88052E+004   -7.88437E+004    2.08893E+005   -2.33370E+004    8.73767E+004    1.87995E+004    9.85674E+004   -4.73558E+004    1.46567E+002   -7.69862E+002    7.47332E+004
            8299    2.26098E+005    1.64160E+005    1.64160E+005    2.38344E+004   -9.66645E+004    2.60824E+005   -3.04432E+004    1.14887E+005    2.38375E+004    1.12434E+005   -4.49420E+004   -6.57292E+002   -1.35270E+003    1.03987E+005
            8300    2.28229E+005    1.50268E+005    1.50268E+005    1.15301E+004   -1.13143E+005    2.63411E+005   -1.62181E+004    1.03149E+005    1.15272E+004    6.07115E+004   -2.35842E+004    1.58313E+002   -6.94418E+002    1.24777E+005
            8301    2.22725E+005    1.33015E+005    1.33015E+005    5.41246E+002   -1.24125E+005    2.57141E+005   -3.14373E+003    8.34295E+004    5.31406E+002    1.73745E+004   -8.47472E+003    1.09575E+003   -5.96846E+002    1.27913E+005
            8302    1.91770E+005    1.25286E+005    1.25286E+005    9.78354E+003   -9.60804E+004    2.21367E+005   -1.29965E+004    8.09912E+004    9.77911E+003    5.83309E+004   -2.91205E+004    1.15043E+003   -4.15811E+002    1.01673E+005
            8303    1.94449E+005    1.15569E+005    1.15569E+005    5.82926E+002   -1.08939E+005    2.24508E+005   -2.40448E+003    6.76679E+004    5.68515E+002    1.63662E+004   -9.72130E+003    2.27395E+003   -4.56468E+002    1.11469E+005
            8304    1.65264E+005    9.67215E+004    9.67215E+004    7.51461E+002   -9.41074E+004    1.90829E+005   -1.12185E+003    3.57057E+004    7.43180E+002    1.32798E+004   -1.06574E+004    3.32801E+003   -3.18251E+002    9.46018E+004
            8305    1.29457E+005    7.37202E+004   -7.57328E+004    1.61212E+003   -7.57328E+004    1.49453E+005    1.33478E+002   -5.08615E+004    1.60264E+003    9.47853E+003   -1.14816E+004    4.12595E+003   -4.49540E+002    7.38716E+004
            8306    8.77841E+004    4.57062E+004   -5.53277E+004    2.27107E+003   -5.53277E+004    1.01034E+005    2.45014E+003   -5.45470E+004    2.22309E+003    3.14467E+003   -1.27182E+004    3.87890E+003   -8.91943E+002    4.97348E+004
            8307    3.83047E+004    1.34169E+004   -2.90231E+004    2.98518E+003   -2.90231E+004    4.24400E+004    4.20699E+003   -3.48880E+004    2.85292E+003    2.37748E+003   -1.78514E+004    1.70009E+003   -1.67705E+003    1.85391E+004
            8308    1.55712E+005    9.57266E+004    9.57266E+004    5.64062E+003   -8.40738E+004    1.79800E+005   -5.76446E+003    2.38179E+004    5.64071E+003    4.25385E+004   -3.08858E+004    2.45357E+003   -5.19757E+002    8.20242E+004
            8309    1.20513E+005    6.35812E+004   -7.53808E+004    4.75278E+002   -7.53808E+004    1.38962E+005    3.77477E+003   -6.51655E+004    4.45919E+002    2.03960E+004   -3.21663E+004    3.43928E+003   -1.13345E+003    6.42183E+004
            8310    8.74683E+004    3.56190E+004   -6.43320E+004   -1.78502E+003   -6.43320E+004    9.99510E+004    1.01660E+004   -6.54676E+004   -1.91305E+003    9.15058E+003   -3.77355E+004    3.18649E+003   -2.18005E+003    4.39848E+004
            8311    5.71114E+004    5.03794E+003   -5.68407E+004   -6.15323E+003   -5.68407E+004    6.18787E+004    1.93187E+004   -5.45621E+004   -6.47175E+003    4.58331E+002   -5.19426E+004    1.35220E+003   -3.81902E+003    1.61424E+004
            8312    2.68108E+005    2.92708E+005    2.92708E+005    3.49633E+004    1.53180E+004    2.77390E+005   -1.14330E+005    2.66481E+005    3.49523E+004    1.83162E+004    2.89721E+005    7.74153E+002   -4.06832E+003    2.83323E+004
            8313    2.59231E+005    2.61833E+005    2.61833E+005    1.38121E+004   -7.31557E+003    2.69148E+005   -8.94431E+004    2.57283E+005    1.39829E+004   -6.58571E+003    2.60932E+005    3.66878E+003    1.30896E+004    7.30178E+003
            8314    2.22769E+005    2.31728E+005    2.31728E+005    2.26589E+004   -2.59074E+003    2.34318E+005   -8.39320E+004    2.19516E+005    2.46333E+004   -1.33947E+003    2.28502E+005    5.76579E+003    2.46015E+004    7.71900E+003
            8315    2.08988E+005    2.16265E+005    2.16265E+005    2.88776E+004   -9.11256E+003    2.25377E+005   -7.86766E+004    2.00998E+005    2.97470E+004   -8.05198E+003    2.14335E+005    6.15301E+003    1.76300E+004    7.10382E+003
            8316    3.08133E+005    3.48612E+005    3.48612E+005    6.68437E+004    1.95768E+004    3.29035E+005   -1.45011E+005    2.99814E+005    6.69006E+004    3.13297E+004    3.36802E+005    2.78533E+003    5.37876E+003    6.08908E+004
            8317    2.80001E+005    3.07914E+005    3.07914E+005    5.27801E+004    8.35705E+003    2.99557E+005   -1.23017E+005    2.71903E+005    5.24419E+004    1.69315E+004    2.99677E+005    1.01306E+004    1.48419E+004    4.57015E+004
            8318    2.36917E+005    2.41187E+005    2.41187E+005    3.54908E+004   -1.78551E+004    2.59042E+005   -8.62742E+004    2.22795E+005    3.58067E+004   -1.23090E+004    2.35325E+005    1.29310E+004    2.08701E+004    2.94326E+004
            8319    2.06100E+005    2.11795E+005    2.11795E+005    3.71640E+004   -1.55393E+004    2.27334E+005   -7.78066E+004    1.90032E+005    3.58490E+004   -5.96529E+003    2.03536E+005    1.47768E+004    1.43554E+004    3.79686E+004
            8320    2.65355E+005    2.32980E+005    2.32980E+005    4.06799E+004   -6.97585E+004    3.02738E+005   -6.79671E+004    2.03052E+005    4.01517E+004   -3.71894E+004    2.00939E+005    2.37095E+004    1.47594E+004    8.90760E+004
            8321    3.17532E+005    3.01765E+005    3.01765E+005    6.27837E+004   -5.85419E+004    3.60307E+005   -1.02002E+005    2.57027E+005    6.30471E+004   -3.08695E+004    2.73830E+005    2.40733E+004    2.05778E+004    9.08704E+004
            8322    3.47567E+005    3.58589E+005    3.58589E+005    8.31573E+004   -3.19237E+004    3.90512E+005   -1.36607E+005    2.99980E+005    8.27548E+004   -1.07948E+004    3.37862E+005    2.21211E+004    2.02291E+004    8.24838E+004
            8323    3.91241E+005    4.40717E+005    4.40717E+005    1.19006E+005    5.18755E+003    4.35530E+005   -1.88304E+005    3.50992E+005    1.18556E+005    3.14784E+004    4.14876E+005    1.92465E+004    1.74259E+004    9.97610E+004
            8324    3.59805E+005    4.63226E+005    4.63226E+005    1.49508E+005    7.04740E+004    3.92752E+005   -2.27736E+005    3.39441E+005    1.49589E+005    9.71152E+004    4.36503E+005    1.62649E+004    1.89715E+004    9.56690E+004
            8325    3.37500E+005    4.82597E+005    4.82597E+005    1.80525E+005    1.18322E+005    3.64275E+005   -2.60481E+005    3.24225E+005    1.80539E+005    1.37731E+005    4.63173E+005    1.37320E+004    1.82268E+004    7.85933E+004
            8326    3.00092E+005    4.77399E+005    4.77399E+005    1.99417E+005    1.59243E+005    3.18155E+005   -2.78686E+005    2.93951E+005    1.99290E+005    1.79524E+005    4.57245E+005    1.16516E+004    1.62605E+004    7.48870E+004
            8327    2.51226E+005    4.31377E+005    4.31377E+005    1.93031E+005    1.68999E+005    2.62378E+005   -2.64469E+005    2.48620E+005    1.93169E+005    1.93469E+005    4.06768E+005    8.58881E+003    1.29028E+004    7.49070E+004
            8328    3.03246E+005    4.49231E+005    4.49231E+005    1.76696E+005    1.22566E+005    3.26665E+005   -2.49498E+005    2.92078E+005    1.75338E+005    1.50744E+005    4.22412E+005    7.01216E+003   -6.91348E+003    8.93312E+004
            8329    2.49774E+005    4.09761E+005    4.09761E+005    1.82394E+005    1.42404E+005    2.67356E+005   -2.44853E+005    2.42415E+005    1.82317E+005    1.67666E+005    3.84576E+005    2.16116E+003   -2.27598E+004    7.46824E+004
            8330    3.38509E+005    4.83376E+005    4.83376E+005    1.77379E+005    1.19753E+005    3.63623E+005   -2.60169E+005    3.27199E+005    1.75954E+005    1.54973E+005    4.49581E+005    7.07722E+003   -8.31246E+003    1.05162E+005
            8331    2.94059E+005    4.56113E+005    4.56113E+005    1.92946E+005    1.38712E+005    3.17401E+005   -2.62590E+005    2.82476E+005    1.92917E+005    1.80234E+005    4.14619E+005    1.69856E+003   -2.82911E+004    1.03177E+005
            8332    3.66164E+005    4.95996E+005    4.95996E+005    1.64968E+005    1.02685E+005    3.93311E+005   -2.54550E+005    3.53952E+005    1.63916E+005    1.49089E+005    4.50643E+005    5.79131E+003   -8.92170E+003    1.25238E+005
            8333    3.22021E+005    4.61064E+005    4.61064E+005    1.80150E+005    1.09626E+005    3.51438E+005   -2.50280E+005    3.03908E+005    1.79885E+005    1.76417E+005    3.94538E+005    9.98599E+002   -3.29051E+004    1.33683E+005
            8334    3.51493E+005    4.46235E+005    4.46235E+005    1.25991E+005    7.01732E+004    3.76062E+005   -2.14133E+005    3.41307E+005    1.25238E+005    1.22810E+005    3.94352E+005    3.67255E+003   -1.04870E+004    1.29222E+005
            8335    3.30268E+005    4.59406E+005    4.59406E+005    1.71738E+005    9.87488E+004    3.60657E+005   -2.43298E+005    3.11336E+005    1.71902E+005    1.72092E+005    3.85899E+005   -3.60984E+002   -3.68504E+004    1.40533E+005
            8336    3.55915E+005    4.56616E+005    4.56616E+005    1.57519E+005    6.29751E+004    3.93641E+005   -2.25704E+005    3.25819E+005    1.57582E+005    1.65247E+005    3.54282E+005   -1.09576E+003   -4.15990E+004    1.67569E+005
            8337    4.41787E+005    5.60048E+005    5.60048E+005    1.89910E+005    7.09660E+004    4.89082E+005   -2.73641E+005    4.03338E+005    1.94346E+005    1.20818E+005    5.05760E+005   -1.01425E+003   -5.02644E+004    1.44118E+005
            8338    3.93982E+005    4.65349E+005    4.65349E+005    1.14749E+005    3.89884E+004    4.26361E+005   -2.06362E+005    3.77068E+005    1.15050E+005    9.05432E+004    4.13494E+005   -8.92426E+002   -1.39818E+004    1.38624E+005
            8339    3.42993E+005    3.59074E+005    3.59074E+005    5.20960E+004   -1.11359E+004    3.70210E+005   -1.33345E+005    3.29495E+005    5.40678E+004   -7.09515E+003    3.53061E+005   -1.17321E+003   -2.47309E+004    3.82107E+004
            8340    5.07824E+004    3.11218E+003   -5.42813E+004   -1.51754E+004   -5.42813E+004    5.73934E+004    2.21148E+004   -4.23619E+004   -1.28387E+004   -4.83583E+003   -4.86700E+004    7.46386E+003    1.78414E+003   -1.59948E+004
            8341    5.59257E+004    1.60641E+003   -6.05467E+004   -1.42903E+004   -6.05467E+004    6.21531E+004    2.44102E+004   -5.04548E+004   -1.07494E+004   -3.93351E+003   -5.85476E+004    6.93189E+003    7.89423E+002   -1.04043E+004
            8342    6.63915E+004   -1.95150E+003   -7.43119E+004   -1.62044E+004   -7.43119E+004    7.23604E+004    3.08226E+004   -6.28094E+004   -1.41143E+004   -4.38568E+003   -7.39679E+004    5.07474E+003    2.15260E+002   -4.86629E+003
            8343    8.34130E+004    2.23310E+003   -8.85483E+004   -1.52868E+004   -8.85483E+004    9.07814E+004    3.38673E+004   -7.91128E+004   -1.42326E+004    1.08122E+003   -8.84506E+004    4.17326E+003    9.86962E+001   -2.94713E+003
            8344    9.26827E+004   -1.69056E+003   -1.01069E+005   -1.69843E+004   -1.01069E+005    9.93783E+004    3.99146E+004   -8.97778E+004   -1.68414E+004   -1.83924E+003   -1.01063E+005    1.47097E+003   -1.05520E+002   -7.53108E+002
            8345    2.91546E+004   -3.57776E+003   -3.72252E+004   -1.94656E+004   -3.72252E+004    3.36474E+004    2.00895E+004   -1.33571E+004   -1.14238E+004   -1.32948E+004   -3.55500E+004    8.44283E+003    9.97381E+002   -5.55956E+003
            8346    4.48869E+004   -6.04082E+003   -5.66670E+004   -2.17325E+004   -5.66670E+004    5.06262E+004    2.81468E+004   -3.79357E+004   -1.46256E+004   -1.33316E+004   -5.64832E+004    7.79100E+003    5.60840E+002    2.82191E+003
            8347    6.52358E+004   -6.69769E+002   -7.24562E+004   -1.67960E+004   -7.24562E+004    7.17864E+004    2.99740E+004   -6.05025E+004   -1.45774E+004   -3.01780E+003   -7.23267E+004    5.56190E+003   -1.82593E+001    2.98501E+003
            8348    7.87829E+004   -3.03794E+003   -8.87586E+004   -1.95217E+004   -8.87586E+004    8.57207E+004    3.71061E+004   -7.47539E+004   -1.82830E+004   -4.41884E+003   -8.86164E+004    4.36869E+003   -3.33791E+002    3.41803E+003
            8349    9.39566E+004    1.42689E+003   -1.00953E+005   -1.86741E+004   -1.00953E+005    1.02380E+005    3.94002E+004   -8.89236E+004   -1.85614E+004    1.29901E+003   -1.00938E+005    1.51567E+003   -3.51816E+002    1.17796E+003
            8350    4.61235E+004    3.33399E+002   -5.19175E+004   -1.68611E+004   -5.19175E+004    5.22509E+004    2.28150E+004   -3.78324E+004   -1.26238E+004   -1.85780E+004   -3.72433E+004    1.01442E+004   -8.94532E+002    2.09864E+004
            8351    5.98685E+004    1.64088E+003   -6.50932E+004   -1.61004E+004   -6.50932E+004    6.67341E+004    2.65176E+004   -5.34566E+004   -1.12447E+004   -9.52346E+003   -5.87846E+004    9.33215E+003   -2.27932E+003    1.79124E+004
            8352    7.55683E+004   -1.70263E+003   -8.39830E+004   -1.76830E+004   -8.39830E+004    8.22804E+004    3.44562E+004   -7.16171E+004   -1.56945E+004   -7.39211E+003   -8.02820E+004    6.42367E+003   -3.26938E+003    1.61038E+004
            8353    9.30955E+004    3.31017E+003   -9.82989E+004   -1.71057E+004   -9.82989E+004    1.01609E+005    3.73648E+004   -8.78444E+004   -1.62753E+004    1.27982E+003   -9.70990E+004    4.94469E+003   -3.88639E+003    9.80812E+003
            8354    1.01507E+005   -2.03067E+003   -1.11300E+005   -1.99404E+004   -1.11300E+005    1.09270E+005    4.44238E+004   -9.78569E+004   -2.00304E+004   -2.29760E+003   -1.10943E+005    1.73775E+003   -4.53120E+003    3.70668E+003
            8355    2.48060E+005   -1.68819E+005   -4.27853E+005   -1.92462E+005   -4.27853E+005    2.59035E+005    2.63044E+005   -2.45506E+005   -1.92699E+005   -1.94011E+005   -4.02424E+005    8.35952E+003   -1.28320E+004    7.55404E+004
            8356    2.90295E+005   -1.18582E+005   -4.31533E+005   -1.71050E+005   -4.31533E+005    3.12951E+005    2.40389E+005   -2.79327E+005   -1.69720E+005   -1.45846E+005   -4.05600E+005    6.93709E+003    6.18596E+003    8.59674E+004
            8357    2.37240E+005   -1.39931E+005   -3.93434E+005   -1.76767E+005   -3.93434E+005    2.53503E+005    2.36710E+005   -2.30674E+005   -1.76757E+005   -1.60630E+005   -3.72744E+005    2.22120E+003    2.08747E+004    6.61542E+004
            8358    2.10857E+005   -1.26684E+005   -3.50775E+005   -1.56280E+005   -3.50775E+005    2.24091E+005    2.11246E+005   -2.06106E+005   -1.56733E+005   -1.72330E+005   -3.04677E+005    5.63856E+003   -8.27861E+003    9.00671E+004
            8359    2.23137E+005   -9.10388E+004   -3.33141E+005   -1.35735E+005   -3.33141E+005    2.42102E+005    1.86638E+005   -2.12712E+005   -1.34553E+005   -1.15070E+005   -3.10291E+005    6.17403E+003    4.48471E+003    7.05404E+004
            8360    1.68518E+005   -1.13099E+005   -2.91882E+005   -1.35965E+005   -2.91882E+005    1.78783E+005    1.80315E+005   -1.64974E+005   -1.35769E+005   -1.22447E+005   -2.82730E+005    2.42315E+003    1.42430E+004    3.66934E+004
            8361    1.99960E+005   -1.99430E+004   -2.44949E+005   -8.75777E+004   -2.44949E+005    2.25006E+005    1.17490E+005   -1.71233E+005   -8.77677E+004   -1.01487E+005   -1.63215E+005    4.19155E+003   -3.93303E+003    1.08073E+005
            8362    1.40009E+005   -3.23610E+004   -1.87865E+005   -7.18202E+004   -1.87865E+005    1.55504E+005    9.73488E+004   -1.26563E+005   -7.09454E+004   -6.10683E+004   -1.60033E+005    5.45047E+003    2.07224E+003    5.94040E+004
            8363    8.41359E+004   -5.92930E+004   -1.48664E+005   -7.09870E+004   -1.48664E+005    8.93712E+004    9.29814E+004   -8.22778E+004   -7.03790E+004   -6.28408E+004   -1.45724E+005    2.34824E+003    6.78008E+003    1.44067E+004
            8364    1.99514E+005    1.23446E+005    1.23446E+005    5.29211E+003   -1.06907E+005    2.30353E+005   -7.27711E+003    7.08375E+004    5.31015E+003    5.86543E+003    1.06558E+004    3.63363E+003    3.70349E+002    1.15094E+005
            8365    9.74173E+004    7.03394E+004    7.03394E+004    9.33655E+003   -4.20102E+004    1.12350E+005   -1.25552E+004    5.15520E+004    9.20694E+003    8.65602E+003    1.98027E+004    5.21753E+003   -2.02178E+002    5.56475E+004
            8366    1.83748E+004    2.58208E+004    2.58208E+004    1.20552E+004    4.95534E+003    2.08654E+004   -1.42771E+004    1.47787E+004    1.09197E+004    9.94279E+003    2.19688E+004    2.45379E+003   -9.18090E+002    7.81473E+003
            8367    2.00442E+005    2.57347E+005    2.57347E+005    9.57427E+004    3.30537E+004    2.24294E+005   -1.28715E+005    1.76274E+005    9.59628E+004    1.10411E+005    1.79770E+005    4.34608E+003    4.42818E+003    1.06520E+005
            8368    1.57044E+005    2.22132E+005    2.22132E+005    8.83533E+004    4.92222E+004    1.72910E+005   -1.19903E+005    1.45456E+005    8.73310E+004    7.51544E+004    1.97222E+005    5.60964E+003   -2.78147E+003    6.05057E+004
            8369    1.05791E+005    1.88424E+005    1.88424E+005    9.00381E+004    7.65258E+004    1.11898E+005   -1.18329E+005    1.03823E+005    8.95335E+004    8.09481E+004    1.84507E+005    2.37337E+003   -8.75519E+003    1.85830E+004
            8370    2.16780E+005    3.62592E+005    3.62592E+005    1.61502E+005    1.32953E+005    2.29640E+005   -2.19016E+005    2.12488E+005    1.61981E+005    1.76746E+005    3.18320E+005    5.96764E+003    8.86153E+003    8.99991E+004
            8371    2.36507E+005    3.56430E+005    3.56430E+005    1.45528E+005    1.00728E+005    2.55702E+005   -2.00895E+005    2.26663E+005    1.44250E+005    1.24520E+005    3.33915E+005    6.39708E+003   -4.87485E+003    7.21971E+004
            8372    1.87385E+005    3.23428E+005    3.23428E+005    1.50171E+005    1.24551E+005    1.98877E+005   -1.99383E+005    1.83383E+005    1.50034E+005    1.35808E+005    3.12307E+005    2.43199E+003   -1.61498E+004    4.26985E+004
            8373    1.83245E+005    3.87977E+003   -1.94535E+005   -3.16699E+004   -1.94535E+005    1.98415E+005    7.41084E+004   -1.75233E+005   -3.29587E+004    3.44254E+003   -1.92809E+005    3.46926E+003   -1.56686E+004    6.05830E+003
            8374    1.69724E+005    3.90800E+003   -1.81597E+005   -3.40996E+004   -1.81597E+005    1.85505E+005    7.05962E+004   -1.59722E+005   -3.37933E+004   -6.78495E+002   -1.77317E+005    1.00637E+004   -1.40915E+004    2.20466E+004
            8375    1.73827E+005    2.35515E+004   -1.70652E+005   -2.96240E+004   -1.70652E+005    1.94203E+005    5.89082E+004   -1.53866E+005   -2.90504E+004    1.32759E+004   -1.60950E+005    1.29454E+004   -1.18393E+004    3.88187E+004
            8376    1.89037E+005    3.55373E+004   -1.78083E+005   -3.24131E+004   -1.78083E+005    2.13620E+005    5.83194E+004   -1.57825E+005   -3.12684E+004    8.37223E+003   -1.52062E+005    1.86294E+004   -1.05509E+004    6.68560E+004
            8377    2.22391E+005    7.33354E+004   -1.81778E+005   -2.88128E+004   -1.81778E+005    2.55114E+005    4.57519E+004   -1.54729E+005   -2.85448E+004    2.70632E+004   -1.35774E+005    2.27133E+004   -1.04505E+004    9.49199E+004
            8378    1.50939E+005   -1.71625E+003   -1.64064E+005   -2.79811E+004   -1.64064E+005    1.62347E+005    6.45870E+004   -1.45664E+005   -2.92204E+004   -2.22041E+003   -1.62320E+005    2.80097E+003   -1.37260E+004    7.19947E+003
            8379    1.44111E+005    9.81003E+003   -1.48118E+005   -2.37418E+004   -1.48118E+005    1.57928E+005    5.40165E+004   -1.34897E+005   -2.38312E+004    5.64239E+003   -1.43861E+005    8.11595E+003   -1.19381E+004    2.10515E+004
            8380    1.35246E+005    1.15039E+004   -1.37824E+005   -2.35707E+004   -1.37824E+005    1.49328E+005    4.99636E+004   -1.24381E+005   -2.34196E+004   -1.07133E+003   -1.25400E+005    1.04857E+004   -1.02216E+004    3.85990E+004
            8381    1.35148E+005    2.56786E+004   -1.26133E+005   -1.89245E+004   -1.26133E+005    1.51812E+005    3.97930E+004   -1.16779E+005   -1.79707E+004    4.96290E+002   -1.01905E+005    1.53059E+004   -8.52627E+003    5.29405E+004
            8382    1.58637E+005    4.60172E+004   -1.35405E+005   -2.27837E+004   -1.35405E+005    1.81423E+005    3.73906E+004   -1.17255E+005   -2.25519E+004   -2.77849E+003   -8.68416E+004    1.81534E+004   -6.54812E+003    7.80023E+004
            8383    1.24130E+005    2.19508E+003   -1.33747E+005   -2.64292E+004   -1.33747E+005    1.35942E+005    5.26603E+004   -1.16352E+005   -2.67005E+004    1.81765E+003   -1.33098E+005    2.14899E+003   -6.40227E+003    5.87362E+003
            8384    1.08939E+005   -7.92453E+002   -1.20160E+005   -2.61063E+004   -1.20160E+005    1.19367E+005    4.90195E+004   -1.02002E+005   -2.54482E+004   -4.66703E+003   -1.16943E+005    6.20075E+003   -5.80974E+003    1.77625E+004
            8385    1.00388E+005    7.57759E+003   -1.03990E+005   -2.09640E+004   -1.03990E+005    1.11568E+005    3.91255E+004   -9.05621E+004   -1.97838E+004   -1.04096E+003   -9.65517E+004    8.19283E+003   -4.64877E+003    2.66333E+004
            8386    9.29908E+004    8.48722E+003   -9.58067E+004   -2.15379E+004   -9.58067E+004    1.04294E+005    3.62858E+004   -8.09562E+004   -1.93183E+004   -1.27092E+004   -7.68298E+004    1.18018E+004   -3.52430E+003    3.85609E+004
            8387    9.02448E+004    2.18010E+004   -8.10963E+004   -1.53918E+004   -8.10963E+004    1.02897E+005    2.48957E+004   -6.95698E+004   -1.43416E+004   -1.34354E+004   -4.69101E+004    1.32658E+004   -2.58331E+003    4.65658E+004
            8388    3.75415E+005   -6.26957E+004   -4.77703E+005   -1.61744E+005   -4.77703E+005    4.15008E+005    2.34048E+005   -3.44128E+005   -1.61075E+005   -8.43049E+004   -4.56763E+005    1.97598E+004   -1.92668E+004    8.68453E+004
            8389    3.84180E+005   -1.08758E+004   -4.40955E+005   -1.31746E+005   -4.40955E+005    4.30080E+005    1.94526E+005   -3.37245E+005   -1.31473E+005   -3.39114E+004   -4.18193E+005    2.36290E+004   -2.29746E+004    9.06206E+004
            8390    3.85837E+005    3.27805E+004   -4.03895E+005   -1.09030E+005   -4.03895E+005    4.36675E+005    1.60048E+005   -3.18749E+005   -1.09633E+005    7.96096E+003   -3.78472E+005    2.58530E+004   -2.57785E+004    9.51401E+004
            8391    3.48162E+005    7.62556E+004   -3.21252E+005   -7.04616E+004   -3.21252E+005    3.97508E+005    1.05153E+005   -2.63807E+005   -7.03618E+004    4.63393E+004   -2.91435E+005    2.69233E+004   -2.03066E+004    9.91852E+004
            8392    2.97224E+005    8.11832E+004   -2.58934E+005   -4.91019E+004   -2.58934E+005    3.40118E+005    7.56177E+004   -2.17502E+005   -4.92419E+004    4.02400E+004   -2.17851E+005    2.61819E+004   -1.68730E+004    1.06314E+005
            8393    2.31600E+005    4.48718E+004   -2.15474E+005   -3.23505E+004   -2.15474E+005    2.60346E+005    6.76509E+004   -1.99388E+005   -3.19794E+004    2.56019E+004   -1.96575E+005    2.01945E+004   -1.75657E+004    6.21948E+004
            8394    2.12683E+005    2.05001E+004   -2.14321E+005   -3.46349E+004   -2.14321E+005    2.34821E+005    7.61519E+004   -1.95611E+005   -3.49967E+004    1.15740E+004   -2.05033E+005    1.38436E+004   -1.85471E+004    3.92730E+004
            8395    2.07015E+005    1.49616E+004   -2.09795E+005   -2.69278E+004   -2.09795E+005    2.24757E+005    7.39204E+004   -1.97139E+005   -2.71194E+004    1.14796E+004   -2.06121E+005    1.11253E+004   -2.05302E+004    1.61109E+004
            8396    2.04577E+005   -1.77500E+003   -2.16874E+005   -2.47604E+004   -2.16874E+005    2.15099E+005    8.11364E+004   -2.01641E+005   -2.72030E+004   -2.28995E+003   -2.13916E+005    3.58397E+003   -2.31986E+004    4.63815E+003
            8397    2.85369E+005    3.12531E+004   -2.88098E+005   -5.80911E+004   -2.88098E+005    3.19351E+005    1.04979E+005   -2.50881E+005   -5.73003E+004    1.19307E+004   -2.69567E+005    2.02224E+004   -1.74649E+004    7.01148E+004
            8398    2.46395E+005    1.96528E+004   -2.52124E+005   -4.33423E+004   -2.52124E+005    2.71777E+005    9.19379E+004   -2.27193E+005   -4.29017E+004    1.34724E+004   -2.46384E+005    1.31868E+004   -1.64200E+004    3.32948E+004
            8399    2.27584E+005   -1.39087E+003   -2.44924E+005   -3.76426E+004   -2.44924E+005    2.43534E+005    9.46526E+004   -2.20947E+005   -3.68278E+004   -5.13187E+003   -2.41998E+005    1.03670E+004   -1.73902E+004    1.79071E+004
            8400    2.27536E+005    4.54699E+003   -2.34357E+005   -2.02136E+004   -2.34357E+005    2.38904E+005    8.33412E+004   -2.24475E+005   -2.14466E+004    4.15605E+003   -2.32733E+005    3.18310E+003   -1.83725E+004    2.75776E+003
            8401    3.09949E+005    1.35971E+004   -3.28361E+005   -6.59137E+004   -3.28361E+005    3.41958E+005    1.26893E+005   -2.85620E+005   -6.68036E+004   -2.98859E+003   -3.10886E+005    1.68025E+004   -2.30597E+004    6.92855E+004
            8402    2.82775E+005   -2.08120E+003   -3.08204E+005   -5.67646E+004   -3.08204E+005    3.06123E+005    1.22350E+005   -2.70492E+005   -5.79036E+004   -1.13616E+004   -2.97784E+005    1.01162E+004   -2.05500E+004    5.00468E+004
            8403    2.61136E+005    3.45659E+003   -2.72967E+005   -3.04268E+004   -2.72967E+005    2.76424E+005    9.99791E+004   -2.56120E+005   -3.10054E+004    1.12070E+003   -2.70053E+005    6.91472E+003   -1.86756E+004    1.95528E+004
            8404    2.36752E+005   -6.61646E+003   -2.47433E+005   -1.49667E+004   -2.47433E+005    2.40817E+005    8.96721E+004   -2.36420E+005   -1.64014E+004   -6.89011E+003   -2.45725E+005    1.22490E+003   -1.85075E+004    7.27227E+003
            8405    3.66373E+005   -2.04829E+004   -4.20197E+005   -1.00338E+005   -4.20197E+005    3.99715E+005    1.80339E+005   -3.45970E+005   -9.99335E+004   -4.70732E+004   -3.94012E+005    1.45448E+004   -1.44877E+004    9.68566E+004
            8406    3.12669E+005   -1.86432E+004   -3.52788E+005   -6.73000E+004   -3.52788E+005    3.34145E+005    1.46244E+005   -3.03976E+005   -6.71945E+004   -3.05609E+004   -3.40976E+005    6.09572E+003   -8.32045E+003    6.08684E+004
            8407    2.95604E+005   -2.36557E+004   -3.31497E+005   -4.98772E+004   -3.31497E+005    3.07841E+005    1.35010E+005   -2.92970E+005   -4.97171E+004   -3.11189E+004   -3.24194E+005    2.78760E+003   -3.02307E+003    4.67005E+004
            8408    2.75321E+005    4.09686E+003   -2.80013E+005   -1.44143E+004   -2.80013E+005    2.84110E+005    9.67768E+004   -2.73916E+005   -1.44082E+004    3.69035E+003   -2.79612E+005   -4.24520E+002    7.65146E+002    1.06268E+004
            8409    3.50321E+005   -5.88526E+004   -4.35711E+005   -1.19972E+005   -4.35711E+005    3.76859E+005    2.04845E+005   -3.38012E+005   -1.19568E+005   -9.66396E+004   -3.98329E+005    8.84552E+003   -6.58276E+003    1.12154E+005
            8410    3.62061E+005   -3.14640E+004   -4.22989E+005   -1.00265E+005   -4.22989E+005    3.91525E+005    1.84906E+005   -3.46893E+005   -1.00153E+005   -6.81357E+004   -3.86430E+005    2.19698E+003    2.66304E+003    1.13882E+005
            8411    3.29989E+005   -1.02955E+004   -3.63453E+005   -6.29679E+004   -3.63453E+005    3.53157E+005    1.45572E+005   -3.20326E+005   -6.32819E+004   -2.22137E+004   -3.51220E+005   -1.23066E+003    9.74788E+003    6.37256E+004
            8412    2.84208E+005   -1.69315E+004   -3.13991E+005   -4.46686E+004   -3.13991E+005    2.97059E+005    1.25197E+005   -2.81139E+005   -4.56421E+004   -1.99864E+004   -3.09963E+005   -2.04067E+003    1.60860E+004    2.98913E+004
            8413    3.69070E+005    1.38402E+004   -3.88755E+005   -6.64174E+004   -3.88755E+005    4.02595E+005    1.47111E+005   -3.48616E+005   -6.99479E+004    9.94322E+003   -3.81328E+005   -1.93709E+003    3.36344E+004    3.91212E+004
            8414    4.70685E+005   -7.37957E+004   -5.97194E+005   -2.08668E+005   -5.97194E+005    5.23398E+005    2.93219E+005   -4.23829E+005   -2.13720E+005   -1.22682E+005   -5.43256E+005   -4.89899E+002    5.37824E+004    1.48305E+005
            8415    4.17218E+005   -2.99268E+004   -4.84884E+005   -1.20176E+005   -4.84884E+005    4.54957E+005    2.11662E+005   -3.94349E+005   -1.21561E+005   -8.18336E+004   -4.31592E+005   -2.50809E+003    2.68722E+004    1.43610E+005
            8416    3.67213E+005   -6.16942E+004   -4.70001E+005   -1.66804E+005   -4.70001E+005    4.08307E+005    2.32833E+005   -3.30743E+005   -1.67151E+005   -1.70252E+005   -3.61096E+005   -1.11108E+003    4.62910E+004    1.74538E+005
            8417    3.50202E+005   -6.15015E+004   -4.36632E+005   -1.18302E+005   -4.36632E+005    3.75130E+005    2.05478E+005   -3.39606E+005   -1.18152E+005   -1.23035E+005   -3.75248E+005    1.50139E+002    1.96939E+004    1.37369E+005
            8418    3.36193E+005   -8.76898E+004   -4.57397E+005   -1.70010E+005   -4.57397E+005    3.69707E+005    2.38366E+005   -3.12287E+005   -1.70233E+005   -1.69504E+005   -3.75360E+005   -3.30132E+002    4.14799E+004    1.47915E+005
            8419    3.62729E+005   -8.49439E+004   -4.73140E+005   -1.42843E+005   -4.73140E+005    3.88196E+005    2.33642E+005   -3.52107E+005   -1.42022E+005   -1.37089E+005   -4.21816E+005    3.95080E+003    1.13918E+004    1.30955E+005
            8420    3.31897E+005   -9.77458E+004   -4.61572E+005   -1.75360E+005   -4.61572E+005    3.63826E+005    2.44893E+005   -3.10478E+005   -1.75035E+005   -1.75056E+005   -3.84588E+005    6.82874E+002    3.59444E+004    1.44187E+005
            8421    3.14242E+005   -1.23003E+005   -4.64168E+005   -1.86571E+005   -4.64168E+005    3.41166E+005    2.57914E+005   -2.99258E+005   -1.86231E+005   -1.80089E+005   -4.07421E+005    1.49226E+003    3.16253E+004    1.23044E+005
            8422    2.86901E+005   -1.36449E+005   -4.46212E+005   -1.89607E+005   -4.46212E+005    3.09763E+005    2.57423E+005   -2.75493E+005   -1.89518E+005   -1.76004E+005   -4.06747E+005    1.88914E+003    2.66728E+004    9.97672E+004
            8423    3.57213E+005   -1.01605E+005   -4.85602E+005   -1.63178E+005   -4.85602E+005    3.83997E+005    2.50128E+005   -3.44969E+005   -1.61721E+005   -1.46524E+005   -4.42139E+005    7.46720E+003    7.49092E+003    1.21297E+005
            8424    3.38715E+005   -1.20827E+005   -4.85452E+005   -1.80606E+005   -4.85452E+005    3.64624E+005    2.62295E+005   -3.26529E+005   -1.79222E+005   -1.55386E+005   -4.52277E+005    7.32727E+003    7.44946E+003    1.04506E+005
            8425    2.94105E+005   -1.57809E+005   -4.69874E+005   -1.97829E+005   -4.69874E+005    3.12065E+005    2.75170E+005   -2.87883E+005   -1.97688E+005   -1.76047E+005   -4.51776E+005    1.16584E+004   -1.65635E+004    7.00932E+004
            8426    3.45250E+005   -1.16575E+005   -4.90432E+005   -1.83623E+005   -4.90432E+005    3.73857E+005    2.63543E+005   -3.30122E+005   -1.83471E+005   -1.37618E+005   -4.69541E+005    1.57726E+004   -1.95122E+004    8.21661E+004
            8427    1.06688E+005    5.87338E+004   -6.44004E+004   -6.11725E+003   -6.44004E+004    1.23134E+005    3.92795E+003    4.82022E+004   -6.26409E+003   -5.72874E+004    5.17677E+004    2.97361E+003   -2.68529E+002    2.84226E+004
            8428    8.68983E+004    5.86774E+004    5.86774E+004    5.00657E+002   -4.12128E+004    9.98903E+004   -5.98843E+003    5.69029E+004    1.21155E+002   -4.07309E+004    5.85750E+004    4.09851E+003   -1.53234E+003    2.59233E+003
            8429    7.64048E+004    6.37287E+004    6.37287E+004    7.49137E+003   -2.32602E+004    8.69890E+004   -1.59866E+004    5.98971E+004    6.76865E+003   -2.06186E+004    6.18098E+004    5.57716E+003   -2.37657E+003   -1.21162E+004
            8430    6.63471E+004    6.42335E+004    6.42335E+004    1.25686E+004   -1.05887E+004    7.48222E+004   -2.20711E+004    5.61096E+004    1.12168E+004   -4.52923E+003    5.95259E+004    6.94496E+003   -2.71694E+003   -1.72502E+004
            8431    7.53021E+004    7.83233E+004    7.83233E+004    1.54475E+004   -5.12783E+003    8.34511E+004   -2.95477E+004    6.85375E+004    1.31800E+004   -1.52991E+003    7.69929E+004    6.98021E+003   -2.38272E+003   -9.66190E+003
            8432    9.46709E+004    1.01265E+005    1.01265E+005    1.33649E+004    1.03148E+003    1.00233E+005   -3.85537E+004    9.28377E+004    1.25324E+004    2.02014E+003    1.01109E+005    3.25553E+003   -2.08995E+003   -3.17830E+003
            8433    8.11655E+004    7.96838E+004    7.96838E+004    1.22372E+004   -1.03961E+004    9.00799E+004   -2.71750E+004    7.35475E+004    1.03856E+004   -7.86640E+003    7.90057E+004    6.45093E+003   -1.53952E+003   -7.33895E+003
            8434    1.03064E+005    1.07145E+005    1.07145E+005    1.18847E+004   -2.26110E+003    1.09406E+005   -3.89229E+004    1.00845E+005    1.12393E+004   -1.57422E+003    1.07104E+005    2.96725E+003   -4.63888E+002   -2.05005E+003
            8435    8.65474E+004    7.69673E+004    7.69673E+004    8.58491E+003   -2.03375E+004    9.73048E+004   -2.17382E+004    7.44486E+004    7.52915E+003   -1.90624E+004    7.67479E+004    5.41015E+003   -4.47887E+002    4.58435E+003
            8436    1.01716E+005    1.04760E+005    1.04760E+005    1.22398E+004   -4.16014E+003    1.08920E+005   -3.76131E+004    9.86758E+004    1.18279E+004   -3.59618E+003    1.04608E+005    2.66392E+003    1.19681E+003    3.81213E+003
            8437    9.30676E+004    7.22526E+004    7.22526E+004    3.80707E+003   -3.37196E+004    1.05972E+005   -1.41134E+004    7.28693E+004    3.45180E+003   -2.45512E+004    6.34394E+004    4.40415E+003    9.05507E+002    2.90884E+004
            8438    9.08118E+004    9.11305E+004    9.11305E+004    9.06435E+003   -6.43251E+003    9.75630E+004   -3.12541E+004    8.77627E+004    8.98696E+003   -4.76023E+003    8.95356E+004    2.38323E+003    3.47524E+003    1.16778E+004
            8439    6.92614E+004    6.73602E+004    6.73602E+004    5.86623E+003   -7.67007E+003    7.50303E+004   -2.18521E+004    6.61865E+004    6.22521E+003   -3.03239E+003    6.23635E+004    2.02878E+003    4.63565E+003    1.79202E+004
            8440    4.77012E+004    3.69473E+004    3.69473E+004   -1.53509E+003   -1.64221E+004    5.33694E+004   -6.33003E+003    4.19768E+004   -1.28393E+003   -2.84812E+003    2.31221E+004    2.26446E+003    2.48966E+003    2.31312E+004
            8441    1.01900E+005    7.01211E+004    7.01211E+004    1.25020E+003   -4.69350E+004    1.17056E+005   -8.14544E+003    6.82392E+004    1.23956E+003   -1.89472E+004    4.21439E+004    3.96474E+003    1.43514E+003    4.97455E+004
            8442    1.06802E+005    6.54326E+004    6.54326E+004   -1.33887E+003   -5.77465E+004    1.23179E+005   -2.11573E+003    5.61222E+004   -1.31517E+003   -7.10257E+003    1.47649E+004    4.68205E+003    7.74582E+002    6.04262E+004
            8443    1.49980E+005    8.69079E+004    8.69079E+004    6.57402E+002   -8.62735E+004    1.73181E+005   -4.30593E+002   -2.84214E+004    6.09687E+002   -1.05288E+004    1.12109E+004    4.39828E+003   -2.02926E+002    8.57929E+004
            8444    1.86092E+005    1.03344E+005   -1.11466E+005    7.16681E+002   -1.11466E+005    2.14810E+005    2.46848E+003   -7.91540E+004    6.88754E+002   -1.56910E+004    7.59678E+003    3.01340E+003   -4.06553E+002    1.06729E+005
            8445    2.17154E+005    1.19790E+005   -1.30828E+005    1.45845E+003   -1.30828E+005    2.50618E+005    3.19304E+003   -9.95207E+004    1.45666E+003   -1.73045E+004    6.26870E+003    1.21665E+003   -6.88978E+001    1.24748E+005
            8446    2.44605E+005    1.35530E+005   -1.46792E+005    1.62210E+003   -1.46792E+005    2.82321E+005    3.21321E+003   -1.09149E+005    1.62115E+003   -1.56647E+004    4.40396E+003   -2.09117E+002    3.56449E+002    1.40803E+005
            8447    1.43312E+005    7.99813E+004   -8.55003E+004   -3.03624E+003   -8.55003E+004    1.65482E+005    2.85176E+003    2.57377E+004   -3.07161E+003   -4.00950E+004    3.46113E+004    3.20901E+003    3.01038E+002    7.37590E+004
            8448    1.86513E+005    9.51135E+004   -1.20153E+005   -6.82893E+003   -1.20153E+005    2.15266E+005    1.06227E+004   -8.40211E+004   -6.82722E+003   -5.37839E+004    2.87429E+004    1.56491E+003    3.27203E+002    9.93965E+004
            8449    2.22189E+005    1.10912E+005   -1.45487E+005   -9.37441E+003   -1.45487E+005    2.56399E+005    1.46500E+004   -1.05373E+005   -9.36929E+003   -5.76543E+004    2.30738E+004    2.48946E+002    8.45758E+002    1.21676E+005
            8450    2.51874E+005    1.27866E+005   -1.62839E+005   -9.82739E+003   -1.62839E+005    2.90704E+005    1.49335E+004   -1.13338E+005   -9.83556E+003   -5.49272E+004    1.99623E+004   -6.54485E+002    1.25075E+003    1.40439E+005
            8451    2.69028E+005    1.20049E+005   -1.90285E+005   -2.30477E+004   -1.90285E+005    3.10334E+005    3.10946E+004   -1.37749E+005   -2.30643E+004   -1.13282E+005    4.30622E+004   -1.22906E+003    1.65834E+003    1.34022E+005
            8452    2.20929E+005    9.28456E+004   -1.61895E+005   -2.26827E+004   -1.61895E+005    2.54740E+005    3.05773E+004   -1.19985E+005   -2.26909E+004   -1.12773E+005    4.37319E+004   -8.72262E+002    1.18584E+003    1.00487E+005
            8453    1.76693E+005    7.66630E+004   -1.27156E+005   -1.72573E+004   -1.27156E+005    2.03819E+005    2.25835E+004   -9.07048E+004   -1.72536E+004   -9.62580E+004    4.57610E+004    1.43680E+002    5.83680E+002    7.30947E+004
            8454    1.33246E+005    6.71018E+004   -8.67462E+004   -8.21088E+003   -8.67462E+004    1.53848E+005    9.28508E+003   -4.41070E+004   -8.24945E+003   -6.99598E+004    5.03540E+004    1.95446E+003   -2.29038E+001    4.79029E+004
            8455    9.07575E+004    9.48236E+004    9.48236E+004    1.04857E+004   -1.21801E+003    9.60416E+004   -3.46971E+004    8.90360E+004    9.23365E+003    6.92425E+001    9.47884E+004    3.65497E+003   -1.13716E+003   -1.33174E+003
            8456    6.85752E+004    7.41235E+004    7.41235E+004    1.65022E+004   -1.72327E+003    7.58468E+004   -2.96341E+004    6.27701E+004    1.27519E+004    2.31524E+003    7.38353E+004    7.50467E+003   -1.42682E+003   -4.07741E+003
            8457    5.27691E+004    5.64470E+004    5.64470E+004    1.42940E+004   -2.73354E+003    5.91806E+004   -2.26692E+004    4.59494E+004    1.10227E+004    5.47466E+003    5.15102E+004    7.98742E+003   -2.12843E+003   -1.51101E+004
            8458    8.70013E+004    9.45643E+004    9.45643E+004    1.51765E+004    1.55618E+003    9.30081E+004   -3.70990E+004    8.45526E+004    1.38197E+004    2.96191E+003    9.45153E+004    4.07120E+003   -5.57714E+002    2.05899E+003
            8459    6.75326E+004    7.33430E+004    7.33430E+004    1.86051E+004   -2.12445E+003    7.54675E+004   -2.99412E+004    5.97194E+004    1.48064E+004    1.89818E+003    7.31191E+004    7.99731E+003   -6.34197E+002    3.99413E+003
            8460    3.57385E+004    4.39822E+004    4.39822E+004    2.04886E+004    2.85383E+003    4.11284E+004   -2.24416E+004    2.23231E+004    1.10087E+004    1.25193E+004    4.37967E+004    8.87504E+003   -1.13602E+003   -1.75713E+003
            8461    1.00050E+005    1.03998E+005    1.03998E+005    1.25192E+004   -2.84548E+003    1.06844E+005   -3.78907E+004    9.73428E+004    1.12744E+004   -1.13246E+003    1.03530E+005    4.70870E+003    4.12928E+003    5.25177E+003
            8462    7.88913E+004    8.35759E+004    8.35759E+004    1.84168E+004   -4.13579E+003    8.77117E+004   -3.26190E+004    7.10780E+004    1.46598E+004    2.86803E+003    8.03290E+004    9.38060E+003    2.83266E+003    1.53832E+004
            8463    4.70532E+004    5.19335E+004    5.19335E+004    1.66389E+004   -1.48699E+003    5.34205E+004   -2.23618E+004    3.79109E+004    9.83178E+003    1.49830E+004    4.22706E+004    1.04592E+004    8.18683E+002    1.80008E+004
            8464    2.51392E+005    1.50766E+005    1.50766E+005   -1.32514E+003   -1.39404E+005    2.90170E+005   -3.34590E+003    1.09890E+005   -1.32257E+003    1.61747E+004   -4.81439E+003   -4.17503E+002   -4.74208E+002    1.44704E+005
            8465    2.59918E+005    1.67124E+005    1.67124E+005    9.80964E+003   -1.32884E+005    3.00008E+005   -1.46834E+004    1.13963E+005    9.81999E+003    5.42995E+004   -2.00693E+004   -7.72332E+002   -1.27930E+003    1.45315E+005
            8466    2.73654E+005    1.92591E+005    1.92591E+005    2.27011E+004   -1.23091E+005    3.15682E+005   -3.07336E+004    1.39246E+005    2.27180E+004    1.12337E+005   -4.28546E+004   -1.24518E+003   -1.58247E+003    1.37437E+005
            8467    2.73753E+005    1.62181E+005    1.62181E+005   -1.18583E+003   -1.53862E+005    3.16043E+005   -2.37751E+003    1.06297E+005   -1.17772E+003    1.18879E+004   -3.57769E+003   -1.06500E+003   -6.07508E+002    1.57827E+005
            8468    2.87152E+005    1.78920E+005    1.78920E+005    7.87957E+003   -1.52598E+005    3.31518E+005   -1.14004E+004    1.09302E+005    7.89411E+003    4.19853E+004   -1.56784E+004   -1.07149E+003   -1.20479E+003    1.63225E+005
            8469    3.16665E+005    2.09913E+005    2.09913E+005    1.78082E+004   -1.55580E+005    3.65493E+005   -2.40470E+004    1.41146E+005    1.78233E+004    9.08789E+004   -3.65613E+004   -1.16282E+003   -1.48203E+003    1.71268E+005
            8470    2.89571E+005    1.69385E+005    1.69385E+005   -5.21977E+002   -1.64967E+005    3.34353E+005   -1.29859E+003    8.82318E+004   -5.16211E+002    6.42047E+003   -2.00850E+003   -1.20205E+003   -3.98366E+002    1.67118E+005
            8471    3.06483E+005    1.83431E+005    1.83431E+005    3.88653E+003   -1.70452E+005    3.53883E+005   -5.62194E+003    9.01837E+004    3.89546E+003    2.13904E+004   -8.42004E+003   -1.16228E+003   -6.60274E+002    1.76308E+005
            8472    3.47134E+005    2.15128E+005    2.15128E+005    9.54381E+003   -1.85662E+005    4.00791E+005   -1.30033E+004    1.23319E+005    9.55263E+003    5.05058E+004   -2.10486E+004   -1.03287E+003   -8.64230E+002    1.97171E+005
            8473    2.94229E+005    1.69520E+005   -1.70226E+005   -2.75461E+001   -1.70226E+005    3.39746E+005    2.44649E+002   -4.38951E+004   -2.82297E+001   -1.15336E+003    4.47639E+002   -1.20719E+003    4.64151E+001    1.69867E+005
            8474    3.12462E+005    1.79595E+005   -1.81204E+005   -4.10236E+002   -1.81204E+005    3.60799E+005    6.72983E+002   -4.86909E+004   -4.11136E+002   -2.83736E+003    1.22955E+003   -1.14534E+003    6.57153E+001    1.80385E+005
            8475    3.57984E+005    2.06026E+005   -2.07339E+005   -3.36131E+002   -2.07339E+005    4.13364E+005    5.49700E+002   -4.97538E+004   -3.36584E+002   -2.27645E+003    9.63937E+002   -9.58218E+002    4.59130E+001    2.06674E+005
            8476    2.86055E+005    1.62572E+005   -1.67715E+005    7.21768E+002   -1.67715E+005    3.30286E+005    1.47372E+003   -9.31513E+004    7.15398E+002   -7.58493E+003    2.44837E+003   -1.19013E+003    4.39827E+002    1.65062E+005
            8477    3.02387E+005    1.66244E+005   -1.82903E+005   -5.05699E+003   -1.82903E+005    3.49146E+005    7.23878E+003   -9.64632E+004   -5.06818E+003   -2.71334E+004    1.04853E+004   -1.17161E+003    8.22755E+002    1.73551E+005
            8478    3.45216E+005    1.83769E+005   -2.14805E+005   -1.01776E+004   -2.14805E+005    3.98574E+005    1.37380E+004   -1.24046E+005   -1.01876E+004   -5.36436E+004    2.26173E+004   -1.05580E+003    9.68911E+002    1.95600E+005
            8479    2.67837E+005    1.49974E+005   -1.59225E+005    1.20381E+003   -1.59225E+005    3.09199E+005    2.68236E+003   -1.07829E+005    1.19640E+003   -1.32704E+004    4.02687E+003   -9.77227E+002    5.94552E+002    1.54353E+005
            8480    2.80158E+005    1.47709E+005   -1.75718E+005   -8.12747E+003   -1.75718E+005    3.23427E+005    1.20454E+004   -1.11414E+005   -8.14265E+003   -4.44625E+004    1.64689E+004   -1.09356E+003    1.20953E+003    1.58810E+005
            8481    3.12991E+005    1.52491E+005   -2.08739E+005   -1.82369E+004   -2.08739E+005    3.61230E+005    2.48286E+004   -1.42636E+005   -1.82536E+004   -9.36534E+004    3.74214E+004   -1.23114E+003    1.53816E+003    1.68294E+005
            8482    2.07184E+005    1.80910E+005    1.80910E+005    2.84887E+004   -5.49910E+004    2.35901E+005   -5.14692E+004    1.62299E+005    2.79206E+004   -1.24318E+004    1.38919E+005    2.27004E+004    1.13715E+004    8.67242E+004
            8483    1.69609E+005    1.67637E+005    1.67637E+005    3.22079E+004   -2.25986E+004    1.90236E+005   -5.90822E+004    1.47621E+005    2.99619E+004   -1.04556E+004    1.57740E+005    1.77298E+004    1.29331E+004    3.74035E+004
            8484    1.72634E+005    1.85203E+005    1.85203E+005    2.59906E+004    1.71717E+003    1.83486E+005   -7.09702E+004    1.68730E+005    2.51808E+004    5.08367E+003    1.82646E+005    8.53802E+003    1.58808E+004    1.24262E+004
            8485    1.46806E+005    1.28300E+005    1.28300E+005    1.84375E+004   -3.84327E+004    1.66733E+005   -3.61017E+004    1.17897E+005    1.75653E+004    1.59481E+003    8.91451E+004    1.81666E+004    7.04659E+003    6.80467E+004
            8486    1.36319E+005    1.35326E+005    1.35326E+005    2.35437E+004   -1.65414E+004    1.51867E+005   -4.74426E+004    1.21963E+005    2.18277E+004   -3.55837E+003    1.24059E+005    1.47559E+004    1.10307E+004    3.59338E+004
            8487    1.49208E+005    1.53381E+005    1.53381E+005    1.62280E+004   -5.49936E+003    1.58880E+005   -5.47032E+004    1.45585E+005    1.60455E+004   -2.91632E+003    1.50980E+005    7.08743E+003    1.45291E+004    1.08539E+004
            8488    9.28813E+004    8.80654E+004    8.80654E+004    1.65276E+004   -1.69038E+004    1.04969E+005   -2.92297E+004    7.74978E+004    1.46858E+004    1.49348E+004    5.80686E+004    1.35554E+004    3.01121E+003    4.53768E+004
            8489    1.01145E+005    1.03866E+005    1.03866E+005    2.34840E+004   -9.70257E+003    1.13569E+005   -3.92159E+004    8.75764E+004    2.08296E+004    3.44309E+000    9.68148E+004    1.14662E+004    4.74119E+003    2.56806E+004
            8490    1.14970E+005    1.25267E+005    1.25267E+005    2.17957E+004    1.50079E+003    1.23767E+005   -4.95213E+004    1.10832E+005    2.06605E+004    3.78501E+003    1.24118E+005    5.90629E+003    6.19259E+003    9.38602E+003
            8491    8.22471E+004    5.77062E+003   -8.22160E+004   -7.26530E+003   -8.22160E+004    8.79866E+004    2.79036E+004   -7.98732E+004   -7.54702E+003    3.92480E+003   -8.00884E+004    1.53460E+003   -4.82641E+003    1.24043E+004
            8492    9.69662E+004    1.98338E+003   -1.01203E+005   -1.19695E+004   -1.01203E+005    1.03187E+005    3.70632E+004   -9.46681E+004   -1.19276E+004    1.35770E+003   -1.00620E+005    1.68867E+003   -3.10682E+003    6.92491E+003
            8493    1.07946E+005    3.54840E+003   -1.11377E+005   -1.21242E+004   -1.11377E+005    1.14926E+005    3.99844E+004   -1.05341E+005   -1.19221E+004    3.29340E+003   -1.11324E+005    1.87020E+003   -1.33100E+003    1.98229E+003
            8494    1.05131E+005   -5.90279E+002   -1.11833E+005   -1.41234E+004   -1.11833E+005    1.11242E+005    4.21821E+004   -1.03144E+005   -1.38525E+004   -8.87429E+002   -1.11806E+005    1.93868E+003    9.27197E+002   -1.37190E+003
            8495    1.02026E+005    2.29075E+003   -1.05555E+005   -1.05667E+004   -1.05555E+005    1.07846E+005    3.79436E+004   -1.00179E+005   -1.02525E+004    1.90546E+003   -1.05484E+005    2.09606E+003    1.53668E+003   -2.19827E+003
            8496    8.47472E+004    2.28670E+004   -7.21566E+004   -4.39720E+003   -7.21566E+004    9.50236E+004    1.78956E+004   -7.38678E+004   -4.32891E+003    1.00788E+004   -5.94367E+004    3.90607E+003   -2.49716E+003    3.20374E+004
            8497    8.67168E+004    1.59162E+004   -7.99364E+004   -6.92995E+003   -7.99364E+004    9.58526E+004    2.36500E+004   -7.95121E+004   -6.36389E+003    1.20617E+004   -7.66480E+004    4.17609E+003   -1.70389E+003    1.71696E+004
            8498    8.88920E+004    8.48449E+003   -8.82138E+004   -1.00507E+004   -8.82138E+004    9.66983E+004    2.99267E+004   -8.43783E+004   -8.87617E+003    7.14667E+003   -8.80505E+004    4.55059E+003   -5.03385E+002    3.87319E+003
            8499    9.05969E+004    6.42938E+003   -9.18730E+004   -1.17334E+004   -9.18730E+004    9.83024E+004    3.23924E+004   -8.63570E+004   -1.03985E+004    4.83653E+003   -9.16151E+004    4.84785E+003    1.21771E+003   -4.73542E+003
            8500    8.59274E+004    1.14546E+003   -9.11430E+004   -1.34448E+004   -9.11430E+004    9.22884E+004    3.44808E+004   -8.30717E+004   -1.13623E+004   -1.39903E+003   -9.06810E+004    5.28639E+003    1.70957E+003   -6.05288E+003
            8501    1.07178E+005    5.14428E+004   -7.18404E+004   -8.13201E+002   -7.18404E+004    1.23283E+005    7.07026E+003   -6.84085E+004   -6.78499E+002    2.86411E+004   -4.91733E+004    4.21633E+003   -8.50222E+002    4.76039E+004
            8502    9.16262E+004    3.37888E+004   -7.06966E+004   -4.05014E+003   -7.06966E+004    1.04485E+005    1.36527E+004   -7.05281E+004   -3.51085E+003    2.69242E+004   -6.43714E+004    4.84669E+003   -3.13074E+002    2.47790E+004
            8503    8.45222E+004    2.17906E+004   -7.33220E+004   -6.81328E+003   -7.33220E+004    9.51126E+004    1.94482E+004   -7.23653E+004   -5.48786E+003    2.02676E+004   -7.31244E+004    5.99389E+003    6.60104E+002    4.27597E+003
            8504    7.82900E+004    9.49255E+003   -7.75621E+004   -1.29294E+004   -7.75621E+004    8.70546E+004    2.69996E+004   -7.05052E+004   -1.07586E+004    6.65630E+003   -7.68967E+004    6.95971E+003    2.03247E+003   -6.88725E+003
            8505    7.58879E+004    6.74987E+003   -7.73004E+004   -1.38129E+004   -7.73004E+004    8.40502E+004    2.81211E+004   -6.91920E+004   -1.07595E+004    2.26990E+003   -7.58738E+004    7.81078E+003    2.23086E+003   -1.00495E+004
            8506    1.32845E+005    8.09664E+004    8.09664E+004    5.04920E+003   -7.24272E+004    1.53394E+005   -4.52949E+003   -3.45579E+004    5.09625E+003    5.46309E+004   -4.61387E+004    2.68993E+003   -2.89061E+002    5.77617E+004
            8507    1.04183E+005    5.68207E+004   -6.33241E+004    2.04431E+003   -6.33241E+004    1.20145E+005    1.48634E+003   -5.55974E+004    2.30073E+003    5.03700E+004   -5.71297E+004    3.74761E+003    4.69306E+002    2.65325E+004
            8508    8.44759E+004    3.28150E+004   -6.39297E+004   -4.76205E+003   -6.39297E+004    9.67447E+004    1.19589E+004   -6.09191E+004   -4.02188E+003    3.18989E+004   -6.37537E+004    5.24332E+003    1.31255E+003    3.86131E+003
            8509    7.57957E+004    1.97276E+004   -6.64487E+004   -1.01236E+004   -6.64487E+004    8.61763E+004    1.89482E+004   -6.02637E+004   -9.02834E+003    1.70384E+004   -6.48548E+004    6.37555E+003    2.31347E+003   -1.08888E+004
            8510    6.42655E+004    6.35859E+003   -6.57498E+004   -1.45189E+004   -6.57498E+004    7.21084E+004    2.46367E+004   -5.58340E+004   -1.23169E+004    1.44462E+003   -6.30378E+004    7.25445E+003    2.17618E+003   -1.28837E+004
            8511    6.65097E+004    1.42851E+004   -6.10370E+004   -1.03963E+004   -6.10370E+004    7.53221E+004    1.90494E+004   -5.46816E+004   -9.38135E+003    6.88057E+003   -5.46475E+004    6.80103E+003    2.68838E+003   -2.01123E+004
            8512    7.66615E+004    2.80734E+004   -5.97158E+004   -5.98355E+003   -5.97158E+004    8.77892E+004    1.25420E+004   -5.53573E+004   -5.49656E+003    2.57847E+004   -5.79141E+004    5.13139E+003    2.48935E+003   -1.17417E+004
            8513    9.12723E+004    5.03249E+004   -5.49094E+004    2.70128E+003   -5.49094E+004    1.05234E+005    6.27743E+002   -4.99065E+004    2.90433E+003    5.00721E+004   -5.48596E+004    3.41932E+003    1.63727E+003    6.92738E+002
            8514    1.13151E+005    7.51999E+004    7.51999E+004    9.33990E+003   -5.54538E+004    1.30654E+005   -9.69535E+003    2.73588E+004    9.41307E+003    7.12153E+004   -5.15423E+004    2.12925E+003    6.81369E+002    2.22548E+004
            8515    1.43619E+005    1.01764E+005    1.01764E+005    1.40684E+004   -6.39797E+004    1.65744E+005   -1.72842E+004    6.67975E+004    1.40749E+004    8.50801E+004   -4.73023E+004    1.06907E+003   -2.10750E+002    4.98528E+004
            8516    1.81233E+005    1.30068E+005    1.30068E+005    1.70836E+004   -7.89741E+004    2.09042E+005   -2.27258E+004    9.40352E+004    1.70816E+004    9.81378E+004   -4.70420E+004   -5.11181E+001   -5.68601E+002    7.51997E+004
            8517    2.26754E+005    1.64914E+005    1.64914E+005    2.25704E+004   -9.65760E+004    2.61490E+005   -3.03028E+004    1.21257E+005    2.25810E+004    1.12452E+005   -4.41245E+004   -9.76384E+002   -1.26738E+003    1.04703E+005
            8518    2.29457E+005    1.50452E+005    1.50452E+005    1.00866E+004   -1.14342E+005    2.64794E+005   -1.53988E+004    1.07910E+005    1.00845E+004    6.00561E+004   -2.39443E+004   -3.03968E+001   -9.45663E+002    1.25555E+005
            8519    2.25076E+005    1.35686E+005    1.35686E+005   -1.27355E+003   -1.24081E+005    2.59767E+005   -3.44357E+003    1.02406E+005   -1.27396E+003    1.76783E+004   -6.07367E+003    7.94195E+002   -4.81948E+001    1.29337E+005
            8520    1.92689E+005    1.25373E+005    1.25373E+005    7.81597E+003   -9.70028E+004    2.22376E+005   -1.20622E+004    8.91450E+004    7.81178E+003    5.76639E+004   -2.92892E+004    1.14024E+003   -3.94577E+002    1.02328E+005
            8521    1.96012E+005    1.17435E+005    1.17435E+005   -9.77756E+002   -1.08818E+005    2.26253E+005   -2.54655E+003    8.47507E+004   -9.60824E+002    1.65462E+004   -7.94571E+003    2.45481E+003    3.18671E+002    1.12435E+005
            8522    1.66235E+005    9.73523E+004    9.73523E+004   -3.61686E+002   -9.45890E+004    1.91941E+005   -8.00541E+002    5.24761E+004   -3.24206E+002    1.30499E+004   -1.03240E+004    3.95867E+003    2.51126E+002    9.51741E+004
            8523    1.30039E+005    7.35622E+004   -7.65716E+004    7.27684E+002   -7.65716E+004    1.50134E+005    7.60569E+002   -4.83750E+004    7.53146E+002    8.77905E+003   -1.18139E+004    4.68642E+003   -1.90302E+002    7.42089E+004
            8524    8.78291E+004    4.53376E+004   -5.57953E+004    1.33253E+003   -5.57953E+004    1.01133E+005    3.04171E+003   -5.32169E+004    1.25732E+003    2.66281E+003   -1.30452E+004    4.45624E+003   -1.06360E+003    4.97472E+004
            8525    3.83521E+004    1.31512E+004   -2.93386E+004    2.71586E+003   -2.93386E+004    4.24898E+004    4.49050E+003   -3.49377E+004    2.44066E+003    2.12157E+003   -1.80337E+004    2.07404E+003   -2.39056E+003    1.85118E+004
            8526    1.56215E+005    9.59148E+004    9.59148E+004    3.85044E+003   -8.44535E+004    1.80368E+005   -5.10391E+003    5.16292E+004    3.87985E+003    4.19661E+004   -3.05342E+004    2.78713E+003   -6.10442E+001    8.25311E+004
            8527    1.20345E+005    6.34132E+004   -7.54004E+004   -4.22104E+002   -7.54004E+004    1.38814E+005    4.13642E+003   -6.22637E+004   -3.65772E+002    1.99322E+004   -3.19757E+004    4.16476E+003   -5.10997E+002    6.42322E+004
            8528    8.70786E+004    3.50646E+004   -6.42916E+004   -1.23625E+003   -6.42916E+004    9.93561E+004    1.01544E+004   -6.65491E+004   -1.38270E+003    8.70703E+003   -3.77876E+004    3.70588E+003   -2.40068E+003    4.37026E+004
            8529    5.79003E+004    5.09435E+003   -5.68751E+004   -4.15821E+003   -5.68751E+004    6.19695E+004    1.86463E+004   -5.62009E+004   -4.69084E+003    5.08643E+002   -5.17568E+004    1.50396E+003   -5.05580E+003    1.61454E+004
            8530    2.91739E+005    3.10797E+005    3.10797E+005    2.93706E+004    9.73739E+003    3.01059E+005   -1.16635E+005    2.90247E+005    1.04886E+004    3.20065E+004    3.07410E+005   -4.05783E+003   -3.81196E+003    3.04548E+004
            8531    2.50331E+005    2.50213E+005    2.50213E+005    7.71914E+002   -9.98691E+002    2.51211E+005   -8.33287E+004    2.50317E+005    1.48265E+003    1.36354E+003    2.47140E+005    8.14736E+002    2.40156E+004    1.36209E+004
            8532    2.22655E+005    2.35142E+005    2.35142E+005    1.87937E+004    6.67497E+003    2.28467E+005   -8.68701E+004    2.21911E+005    1.59137E+004    1.20534E+004    2.32643E+005    7.01019E+003    1.98898E+004    1.17991E+004
            8533    2.07413E+005    2.08669E+005    2.08669E+005    1.10724E+004   -7.33363E+003    2.16003E+005   -7.08027E+004    2.05564E+005    1.18778E+004   -4.13693E+003    2.04667E+005    7.82860E+003    2.61385E+004    9.57497E+003
            8534    3.25016E+005    3.52769E+005    3.52769E+005    3.86850E+004    1.78249E+004    3.34944E+005   -1.36426E+005    3.23505E+005    3.89149E+004    2.97923E+004    3.40571E+005    4.99596E+003    1.24673E+004    6.12713E+004
            8535    2.73118E+005    2.89676E+005    2.89676E+005    3.70664E+004   -1.35917E+002    2.89812E+005   -1.08869E+005    2.67328E+005    3.91761E+004    1.02195E+004    2.77211E+005    1.36146E+004    2.98154E+004    4.82308E+004
            8536    2.37199E+005    2.41548E+005    2.41548E+005    3.78383E+004   -1.88631E+004    2.60412E+005   -8.68412E+004    2.21167E+005    3.53226E+004   -9.83302E+003    2.35034E+005    1.86879E+004    1.98600E+004    3.20974E+004
            8537    2.07216E+005    2.04946E+005    2.04946E+005    2.98804E+004   -2.38402E+004    2.28786E+005   -7.03287E+004    1.90581E+005    2.89485E+004   -1.22584E+004    1.94296E+005    1.96313E+004    2.26143E+004    3.82830E+004
            8538    2.63411E+005    2.32331E+005    2.32331E+005    3.62100E+004   -6.70699E+004    2.99401E+005   -6.71571E+004    2.10012E+005    3.60998E+004   -3.28198E+004    1.98191E+005    2.58827E+004    1.80466E+004    8.98220E+004
            8539    3.13427E+005    2.99576E+005    2.99576E+005    5.84508E+004   -5.47170E+004    3.54293E+005   -1.01103E+005    2.61137E+005    5.85117E+004   -2.50773E+004    2.69876E+005    2.65136E+004    2.23087E+004    9.18416E+004
            8540    3.39202E+005    3.49355E+005    3.49355E+005    7.53064E+004   -3.00147E+004    3.79370E+005   -1.31549E+005    2.98954E+005    7.63291E+004   -7.48034E+003    3.25798E+005    2.47396E+004    2.81894E+004    8.30093E+004
            8541    3.91587E+005    4.34803E+005    4.34803E+005    9.83052E+004    4.98802E+003    4.29815E+005   -1.79365E+005    3.65291E+005    9.91594E+004    3.15320E+004    4.07405E+005    2.19339E+004    2.81647E+004    9.84586E+004
            8542    3.64033E+005    4.59352E+005    4.59352E+005    1.30011E+005    6.84724E+004    3.90880E+005   -2.19279E+005    3.52044E+005    1.29044E+005    9.65563E+004    4.32236E+005    1.98170E+004    2.22356E+004    9.49167E+004
            8543    3.43855E+005    4.81738E+005    4.81738E+005    1.65575E+005    1.15650E+005    3.66089E+005   -2.54321E+005    3.35555E+005    1.63529E+005    1.37788E+005    4.61646E+005    1.73848E+004    1.81630E+004    7.98529E+004
            8544    3.07913E+005    4.79910E+005    4.79910E+005    1.90597E+005    1.56274E+005    3.23637E+005   -2.75594E+005    3.03564E+005    1.87525E+005    1.79334E+005    4.59922E+005    1.51192E+004    1.42826E+004    7.53089E+004
            8545    2.58646E+005    4.36349E+005    4.36349E+005    1.89252E+005    1.67525E+005    2.68824E+005   -2.64375E+005    2.56581E+005    1.85956E+005    1.94057E+005    4.13112E+005    1.14987E+004    9.10466E+003    7.39976E+004
            8546    2.92738E+005    4.14094E+005    4.14094E+005    1.47337E+005    1.00922E+005    3.13172E+005   -2.20784E+005    2.84282E+005    1.43646E+005    1.30710E+005    3.87997E+005    1.07802E+004   -8.16147E+003    8.58511E+004
            8547    2.56833E+005    4.14106E+005    4.14106E+005    1.77757E+005    1.40794E+005    2.73312E+005   -2.44219E+005    2.50744E+005    1.75397E+005    1.68359E+005    3.88901E+005    4.99475E+003   -2.44823E+004    7.51758E+004
            8548    3.30397E+005    4.49766E+005    4.49766E+005    1.44367E+005    9.90492E+004    3.50717E+005   -2.31061E+005    3.23294E+005    1.41070E+005    1.35523E+005    4.16589E+005    9.32631E+003   -1.02020E+004    1.01848E+005
            8549    3.00524E+005    4.57566E+005    4.57566E+005    1.83694E+005    1.36075E+005    3.21490E+005   -2.59112E+005    2.91855E+005    1.81739E+005    1.79552E+005    4.16045E+005    3.53429E+003   -3.32819E+004    1.02531E+005
            8550    3.59684E+005    4.65746E+005    4.65746E+005    1.30220E+005    8.59931E+004    3.79752E+005   -2.27320E+005    3.53489E+005    1.28012E+005    1.32200E+005    4.21748E+005    6.74669E+003   -1.07256E+004    1.20862E+005
            8551    3.26265E+005    4.59748E+005    4.59748E+005    1.67929E+005    1.07489E+005    3.52260E+005   -2.45056E+005    3.13297E+005    1.65963E+005    1.74236E+005    3.94968E+005    1.77822E+003   -4.11623E+004    1.30051E+005
            8552    3.51616E+005    4.28211E+005    4.28211E+005    9.51315E+004    6.06067E+004    3.67605E+005   -1.94650E+005    3.47772E+005    9.39433E+004    1.12402E+005    3.77605E+005    2.75174E+003   -1.21015E+004    1.25967E+005
            8553    3.34485E+005    4.55196E+005    4.55196E+005    1.54982E+005    9.46519E+004    3.60544E+005   -2.34943E+005    3.21901E+005    1.54253E+005    1.68087E+005    3.82489E+005   -1.49951E+003   -4.83302E+004    1.36309E+005
            8554    3.53671E+005    4.48737E+005    4.48737E+005    1.39215E+005    6.32589E+004    3.85478E+005   -2.17071E+005    3.34573E+005    1.39924E+005    1.60249E+005    3.51039E+005   -4.59013E+003   -5.18873E+004    1.59428E+005
            8555    4.40359E+005    5.51103E+005    5.51103E+005    1.72752E+005    6.77272E+004    4.83376E+005   -2.63861E+005    4.10738E+005    1.78889E+005    1.14753E+005    4.97940E+005   -2.02598E+003   -5.88745E+004    1.38004E+005
            8556    3.94706E+005    4.52607E+005    4.52607E+005    8.89869E+004    3.28300E+004    4.19777E+005   -1.91475E+005    3.85565E+005    8.99760E+004    8.39205E+004    4.00527E+005   -3.91566E+003   -2.10817E+004    1.36692E+005
            8557    3.42468E+005    3.52851E+005    3.52851E+005    3.55198E+004   -1.01680E+004    3.63019E+005   -1.26067E+005    3.35509E+005    4.01089E+004   -6.37414E+003    3.44468E+005   -4.14911E+003   -3.76627E+004    3.66734E+004
            8558    5.07807E+004    2.46334E+003   -5.46586E+004   -1.46308E+004   -5.46586E+004    5.71220E+004    2.22754E+004   -4.35640E+004   -1.17180E+004   -6.52631E+003   -4.85818E+004    8.11132E+003    2.36879E+003   -1.61986E+004
            8559    5.54203E+004    3.05113E+003   -5.93334E+004   -1.57909E+004   -5.93334E+004    6.23846E+004    2.40244E+004   -4.73653E+004   -1.27317E+004   -1.90866E+003   -5.74328E+004    7.65394E+003    2.14564E+003   -9.70765E+003
            8560    6.63402E+004   -2.05546E+002   -7.39776E+004   -1.92231E+004   -7.39776E+004    7.37720E+004    3.11354E+004   -5.97301E+004   -1.47311E+004   -5.18150E+003   -7.34936E+004    8.35168E+003    2.26444E+003   -4.86463E+003
            8561    8.26239E+004    2.57008E+003   -8.71035E+004   -1.40587E+004   -8.71035E+004    8.96736E+004    3.28640E+004   -7.87258E+004   -1.19079E+004    2.40966E+002   -8.69252E+004    5.72448E+003    1.94206E+003   -3.18901E+003
            8562    9.16820E+004   -2.00862E+003   -9.87472E+004   -1.31378E+004   -9.87472E+004    9.67386E+004    3.79645E+004   -9.01435E+004   -1.27137E+004   -2.48672E+003   -9.86932E+004    2.25797E+003    1.98327E+003   -8.38543E+002
            8563    3.07087E+004   -1.99838E+003   -3.74578E+004   -1.97159E+004   -3.74578E+004    3.54594E+004    1.97240E+004   -3.25290E+003   -8.85326E+003   -1.46308E+004   -3.56879E+004    9.12569E+003    1.11357E+003   -5.50849E+003
            8564    4.71211E+004   -2.15088E+003   -5.54272E+004   -1.92172E+004   -5.54272E+004    5.32763E+004    2.55984E+004   -3.92034E+004   -1.26204E+004   -8.98682E+003   -5.51880E+004    8.31199E+003    2.86285E+002    3.31709E+003
            8565    6.75712E+004    3.69369E+003   -7.18197E+004   -1.70582E+004   -7.18197E+004    7.55134E+004    2.83947E+004   -5.97448E+004   -1.17416E+004   -1.76384E+003   -7.16788E+004    9.06407E+003    1.07227E+002    3.12496E+003
            8566    8.04510E+004    6.88573E+001   -8.70830E+004   -1.56543E+004   -8.70830E+004    8.71519E+004    3.42228E+004   -7.68793E+004   -1.22058E+004   -3.51171E+003   -8.69510E+004    6.52700E+003   -3.25204E+002    3.26495E+003
            8567    9.52146E+004    2.94250E+003   -9.80502E+004   -9.92179E+003   -9.80502E+004    1.00993E+005    3.50098E+004   -9.32293E+004   -9.39360E+003    2.39837E+003   -9.80343E+004    2.57223E+003   -6.68900E+002    1.02602E+003
            8568    4.68087E+004    7.82994E+002   -5.23228E+004   -1.70588E+004   -5.23228E+004    5.31058E+004    2.28662E+004   -3.79408E+004   -1.12141E+004   -2.04836E+004   -3.69009E+004    1.08092E+004   -2.61915E+002    2.10769E+004
            8569    5.94852E+004    3.91841E+003   -6.34536E+004   -1.81812E+004   -6.34536E+004    6.73720E+004    2.59054E+004   -4.88781E+004   -1.40402E+004   -6.32334E+003   -5.73528E+004    9.57860E+003   -8.43563E+002    1.81782E+004
            8570    7.52390E+004    1.33814E+003   -8.30834E+004   -2.31058E+004   -8.30834E+004    8.44215E+004    3.49503E+004   -6.53665E+004   -1.82466E+004   -7.14452E+003   -7.94599E+004    1.04621E+004   -1.50025E+003    1.60817E+004
            8571    9.11783E+004    4.22137E+003   -9.59091E+004   -1.76677E+004   -9.59091E+004    1.00130E+005    3.64518E+004   -8.49596E+004   -1.50429E+004    5.25210E+002   -9.48378E+004    7.50650E+003   -2.26714E+003    9.61194E+003
            8572    9.87136E+004   -2.58314E+003   -1.07780E+005   -1.71746E+004   -1.07780E+005    1.05197E+005    4.25127E+004   -9.62424E+004   -1.66673E+004   -3.30366E+003   -1.07567E+005    2.96638E+003   -2.61387E+003    3.71373E+003
            8573    2.55092E+005   -1.67474E+005   -4.32768E+005   -1.89276E+005   -4.32768E+005    2.65293E+005    2.63173E+005   -2.52983E+005   -1.86341E+005   -1.94316E+005   -4.08861E+005    1.12213E+004   -8.98127E+003    7.44941E+004
            8574    2.80561E+005   -9.70898E+004   -3.97981E+005   -1.43550E+005   -3.97981E+005    3.00891E+005    2.12874E+005   -2.71704E+005   -1.39872E+005   -1.26174E+005   -3.72575E+005    1.09365E+004    7.46149E+003    8.29922E+004
            8575    2.44349E+005   -1.37887E+005   -3.97650E+005   -1.72379E+005   -3.97650E+005    2.59762E+005    2.35972E+005   -2.38780E+005   -1.70114E+005   -1.61232E+005   -3.76571E+005    5.17581E+003    2.21176E+004    6.73830E+004
            8576    2.12612E+005   -1.29346E+005   -3.53551E+005   -1.54828E+005   -3.53551E+005    2.24204E+005    2.12575E+005   -2.09135E+005   -1.53847E+005   -1.72477E+005   -3.11401E+005    8.30009E+003   -4.44918E+003    8.69918E+004
            8577    2.14551E+005   -7.35614E+004   -3.06358E+005   -1.16566E+005   -3.06358E+005    2.32796E+005    1.65495E+005   -2.04514E+005   -1.13153E+005   -9.94127E+004   -2.83920E+005    1.06399E+004    4.90260E+003    6.81272E+004
            8578    1.74605E+005   -1.11972E+005   -2.96990E+005   -1.35104E+005   -2.96990E+005    1.85017E+005    1.81356E+005   -1.71106E+005   -1.32819E+005   -1.23753E+005   -2.87495E+005    5.15568E+003    1.34964E+004    3.85205E+004
            8579    1.94135E+005   -2.55134E+004   -2.42976E+005   -8.71169E+004   -2.42976E+005    2.17463E+005    1.18535E+005   -1.69964E+005   -8.69689E+004   -1.01395E+005   -1.67243E+005    6.36495E+003   -1.41486E+003    1.03388E+005
            8580    1.35732E+005   -2.23539E+004   -1.73709E+005   -6.27925E+004   -1.73709E+005    1.51355E+005    8.62851E+004   -1.21023E+005   -6.01244E+004   -5.25456E+004   -1.46185E+005    1.00074E+004    2.48909E+003    5.76999E+004
            8581    8.81455E+004   -5.72568E+004   -1.51812E+005   -7.19144E+004   -1.51812E+005    9.45555E+004    9.36612E+004   -8.53388E+004   -6.90562E+004   -6.36011E+004   -1.48326E+005    4.99621E+003    6.06147E+003    1.67192E+004
            8582    1.90715E+005    1.18691E+005    1.18691E+005    5.66549E+003   -1.01502E+005    2.20193E+005   -7.61827E+003    6.83649E+004    5.61710E+003    5.98316E+003    1.12545E+004    5.99662E+003   -2.90850E+002    1.09901E+005
            8583    9.59096E+004    6.78358E+004    6.78358E+004    8.35861E+003   -4.28071E+004    1.10643E+005   -1.11291E+004    4.85441E+004    7.89095E+003    7.47241E+003    1.80240E+004    9.70923E+003   -4.42985E+002    5.41854E+004
            8584    2.27895E+004    2.79875E+004    2.79875E+004    1.27518E+004    1.78835E+003    2.61992E+004   -1.41759E+004    1.48719E+004    1.04777E+004    9.95731E+003    2.20927E+004    4.71690E+003   -9.19572E+002    1.01465E+004
            8585    1.95347E+005    2.56456E+005    2.56456E+005    9.56844E+004    3.90499E+004    2.17406E+005   -1.30397E+005    1.75400E+005    9.54295E+004    1.10966E+005    1.84795E+005    6.50755E+003    1.12294E+003    1.01965E+005
            8586    1.51467E+005    2.04799E+005    2.04799E+005    7.72958E+004    3.73683E+004    1.67431E+005   -1.06488E+005    1.38867E+005    7.43227E+004    6.49629E+004    1.80177E+005    1.01765E+004   -2.89041E+003    5.86595E+004
            8587    1.10448E+005    1.92166E+005    1.92166E+005    9.06601E+004    7.45463E+004    1.17620E+005   -1.19124E+005    1.07756E+005    8.79238E+004    8.16622E+004    1.87787E+005    5.04915E+003   -7.91542E+003    2.07949E+004
            8588    2.19239E+005    3.65962E+005    3.65962E+005    1.60446E+005    1.35189E+005    2.30773E+005   -2.20532E+005    2.15929E+005    1.59156E+005    1.76911E+005    3.25529E+005    8.65076E+003    4.23396E+003    8.70748E+004
            8589    2.27846E+005    3.27702E+005    3.27702E+005    1.24469E+005    8.13912E+004    2.46310E+005   -1.77854E+005    2.18400E+005    1.20719E+005    1.07439E+005    3.05404E+005    1.08961E+004   -5.94234E+003    7.00340E+004
            8590    1.93831E+005    3.28261E+005    3.28261E+005    1.48269E+005    1.23058E+005    2.05203E+005   -1.99862E+005    1.90090E+005    1.45944E+005    1.36974E+005    3.16670E+005    5.19033E+003   -1.59462E+004    4.45998E+004
            8591    1.84783E+005    6.69352E+003   -1.87778E+005   -1.45126E+004   -1.87778E+005    1.94472E+005    6.51991E+004   -1.82016E+005   -1.61000E+004    5.61742E+003   -1.85115E+005    4.89774E+003   -2.03463E+004    6.40060E+003
            8592    1.71884E+005    7.23753E+003   -1.78011E+005   -2.36932E+004   -1.78011E+005    1.85249E+005    6.48223E+004   -1.65447E+005   -2.19348E+004    5.64076E+001   -1.72589E+005    1.30561E+004   -1.78099E+004    2.30054E+004
            8593    1.76696E+005    2.70390E+004   -1.69993E+005   -2.55928E+004   -1.69993E+005    1.97032E+005    5.61822E+004   -1.57558E+005   -2.30922E+004    1.30124E+004   -1.58467E+005    1.99188E+004   -1.62821E+004    3.96587E+004
            8594    1.90203E+005    4.17997E+004   -1.73540E+005   -2.84710E+004   -1.73540E+005    2.15340E+005    5.34039E+004   -1.56727E+005   -2.81301E+004    1.55180E+004   -1.47600E+005    1.98771E+004   -1.36030E+004    6.59395E+004
            8595    2.22972E+005    7.04206E+004   -1.84179E+005   -2.37041E+004   -1.84179E+005    2.54600E+005    4.58210E+004   -1.68710E+005   -2.33544E+004    2.17927E+004   -1.35901E+005    2.41794E+004   -1.16846E+004    9.62059E+004
            8596    1.46569E+005   -2.79912E+003   -1.58777E+005   -2.39047E+004   -1.58777E+005    1.55978E+005    6.18270E+004   -1.43091E+005   -2.43000E+004   -3.88193E+003   -1.57299E+005    4.44653E+003   -1.20752E+004    7.40767E+003
            8597    1.41138E+005    9.95716E+003   -1.44937E+005   -2.36064E+004   -1.44937E+005    1.54894E+005    5.28621E+004   -1.31702E+005   -2.17333E+004    3.80967E+003   -1.40663E+005    1.14108E+004   -1.07713E+004    2.11880E+004
            8598    1.34410E+005    1.36810E+004   -1.37151E+005   -3.00591E+004   -1.37151E+005    1.50832E+005    5.11763E+004   -1.16708E+005   -2.70317E+004   -2.04739E+003   -1.24450E+005    1.66702E+004   -8.95844E+003    3.84845E+004
            8599    1.34555E+005    2.94172E+004   -1.23574E+005   -2.36162E+004   -1.23574E+005    1.52991E+005    3.92576E+004   -1.06932E+005   -2.23328E+004    4.69080E+003   -1.00131E+005    1.57725E+004   -6.83685E+003    5.27049E+004
            8600    1.59207E+005    4.40708E+004   -1.37390E+005   -2.11463E+004   -1.37390E+005    1.81461E+005    3.81553E+004   -1.23281E+005   -2.04453E+004   -6.93772E+003   -8.70829E+004    1.90284E+004   -6.11414E+003    7.87940E+004
            8601    1.25504E+005    4.46695E+003   -1.29263E+005   -1.40426E+004   -1.29263E+005    1.33730E+005    4.62797E+004   -1.22376E+005   -1.41278E+004    3.62901E+003   -1.28340E+005    3.64557E+003   -8.68754E+003    5.68613E+003
            8602    1.11049E+005    2.99727E+003   -1.17664E+005   -1.97476E+004   -1.17664E+005    1.20661E+005    4.48047E+004   -1.05616E+005   -1.71621E+004   -3.04829E+003   -1.14204E+005    9.31842E+003   -7.39666E+003    1.75260E+004
            8603    1.03417E+005    1.24951E+004   -1.03095E+005   -1.93360E+004   -1.03095E+005    1.15591E+005    3.66454E+004   -9.13798E+004   -1.59049E+004    1.36869E+003   -9.54001E+004    1.29143E+004   -6.05179E+003    2.64182E+004
            8604    9.52149E+004    1.38242E+004   -9.32660E+004   -1.81652E+004   -9.32660E+004    1.07090E+005    3.25357E+004   -8.17430E+004   -1.63541E+004   -6.35038E+003   -7.49025E+004    1.21491E+004   -4.52455E+003    3.85053E+004
            8605    9.21314E+004    2.17060E+004   -8.25388E+004   -1.20329E+004   -8.25388E+004    1.04245E+005    2.42886E+004   -7.62474E+004   -1.05407E+004   -1.53410E+004   -4.69840E+004    1.41267E+004   -2.88466E+003    4.72169E+004
            8606    3.77844E+005   -5.77105E+004   -4.68482E+005   -1.35754E+005   -4.68482E+005    4.10772E+005    2.20649E+005   -3.59032E+005   -1.34693E+005   -8.08088E+004   -4.46445E+005    2.45899E+004   -2.82759E+004    8.49755E+004
            8607    3.78041E+005   -8.35027E+003   -4.27925E+005   -1.13818E+005   -4.27925E+005    4.19575E+005    1.83365E+005   -3.42523E+005   -1.14937E+005   -3.29571E+004   -4.02199E+005    2.69845E+004   -3.25549E+004    9.08494E+004
            8608    3.79558E+005    3.07000E+004   -3.96463E+005   -9.79527E+004   -3.96463E+005    4.27163E+005    1.54572E+005   -3.24770E+005   -9.81671E+004    3.67449E+003   -3.69223E+005    2.95223E+004   -2.85422E+004    9.58430E+004
            8609    3.43098E+005    7.21362E+004   -3.17419E+005   -6.01796E+004   -3.17419E+005    3.89555E+005    1.01821E+005   -2.76258E+005   -6.05072E+004    4.01402E+004   -2.85095E+005    2.97791E+004   -2.48595E+004    1.00047E+005
            8610    2.93703E+005    7.56637E+004   -2.59238E+005   -4.55021E+004   -2.59238E+005    3.34901E+005    7.63587E+004   -2.26248E+005   -4.52746E+004    3.22375E+004   -2.16039E+005    2.79634E+004   -1.73607E+004    1.07404E+005
            8611    2.28457E+005    4.74628E+004   -2.11583E+005   -3.88834E+004   -2.11583E+005    2.59045E+005    6.76678E+004   -1.86036E+005   -3.80711E+004    2.75470E+004   -1.92479E+005    2.28223E+004   -1.72878E+004    6.17897E+004
            8612    2.10370E+005    1.89970E+004   -2.14404E+005   -3.94055E+004   -2.14404E+005    2.33401E+005    7.82707E+004   -1.90813E+005   -3.64237E+004    4.82618E+003   -2.03215E+005    2.19663E+004   -1.93323E+004    4.19756E+004
            8613    2.02707E+005    1.22641E+004   -2.06291E+005   -2.44510E+004   -2.06291E+005    2.18555E+005    7.28259E+004   -1.95014E+005   -2.32197E+004    7.03037E+003   -2.02288E+005    1.26834E+004   -1.94715E+004    1.89074E+004
            8614    1.99827E+005   -3.95053E+003   -2.11523E+005   -2.04666E+004   -2.11523E+005    2.07572E+005    7.86467E+004   -1.98283E+005   -2.17092E+004   -5.23156E+003   -2.08999E+005    4.76773E+003   -2.09555E+004    6.05683E+003
            8615    2.82160E+005    3.80790E+004   -2.77564E+005   -4.98044E+004   -2.77564E+005    3.15643E+005    9.64299E+004   -2.48449E+005   -5.10089E+004    1.88406E+004   -2.57122E+005    2.34418E+004   -2.70176E+004    6.83565E+004
            8616    2.48415E+005    2.01492E+004   -2.49876E+005   -3.10496E+004   -2.49876E+005    2.70025E+005    8.69254E+004   -2.36102E+005   -2.97116E+004    8.94549E+003   -2.40010E+005    2.02639E+004   -2.74801E+004    3.81364E+004
            8617    2.29107E+005    5.22720E+002   -2.38404E+005   -2.05772E+004   -2.38404E+005    2.38927E+005    8.61528E+004   -2.26905E+005   -2.05084E+004   -4.46134E+003   -2.33489E+005    9.70127E+003   -2.44017E+004    2.14888E+004
            8618    2.29250E+005    7.23903E+003   -2.26569E+005   -2.16571E+003   -2.26569E+005    2.33808E+005    7.38317E+004   -2.28815E+005   -4.45144E+003    6.35892E+003   -2.23403E+005    3.14068E+003   -2.60871E+004    4.50444E+003
            8619    3.04324E+005    1.55462E+004   -3.21456E+005   -6.67283E+004   -3.21456E+005    3.37002E+005    1.24213E+005   -2.77601E+005   -6.70408E+004   -2.33614E+003   -3.03261E+005    2.23145E+004   -2.62840E+004    6.77624E+004
            8620    2.84084E+005   -6.97807E+003   -3.09559E+005   -4.85538E+004   -3.09559E+005    3.02581E+005    1.21697E+005   -2.77116E+005   -4.77792E+004   -2.13128E+004   -2.95999E+005    1.61425E+004   -2.32663E+004    5.60210E+004
            8621    2.59935E+005   -8.33607E+002   -2.70313E+005   -2.11091E+004   -2.70313E+005    2.69479E+005    9.74186E+004   -2.58147E+005   -2.20210E+004   -3.17928E+003   -2.67055E+005    3.64323E+003   -1.65859E+004    2.37175E+004
            8622    2.37059E+005   -9.88280E+003   -2.47564E+005   -1.11307E+004   -2.47564E+005    2.37681E+005    8.95257E+004   -2.37052E+005   -1.09290E+004   -1.13987E+004   -2.46249E+005    9.63032E+002   -1.48041E+004    9.51333E+003
            8623    3.58565E+005   -9.88146E+003   -3.98298E+005   -7.99183E+004   -3.98298E+005    3.88416E+005    1.62699E+005   -3.42665E+005   -8.31470E+004   -3.57439E+004   -3.69207E+005    1.85901E+004   -3.39944E+004    9.38580E+004
            8624    3.16760E+005   -1.70813E+004   -3.43822E+005   -3.80896E+004   -3.43822E+005    3.26741E+005    1.32998E+005   -3.15187E+005   -4.01425E+004   -3.19203E+004   -3.26930E+005    8.09647E+003   -2.55841E+004    6.70907E+004
            8625    2.94483E+005   -1.35683E+004   -3.15606E+005   -2.93086E+004   -3.15606E+005    3.02037E+005    1.19494E+005   -2.93534E+005   -2.69234E+004   -2.44748E+004   -3.07084E+005   -3.93542E+003   -1.41849E+004    4.79162E+004
            8626    2.72880E+005    7.94985E+003   -2.68400E+005    8.72256E+002   -2.68400E+005    2.76350E+005    8.65260E+004   -2.72673E+005    1.86972E+003    5.85444E+003   -2.67302E+005   -2.34162E+003   -1.16365E+004    1.28953E+004
            8627    3.63306E+005   -5.46062E+004   -4.35402E+005   -9.25661E+004   -4.35402E+005    3.80796E+005    1.94191E+005   -3.58804E+005   -9.13674E+004   -9.05757E+004   -4.00631E+005    1.29012E+004   -1.29641E+004    1.08164E+005
            8628    3.86766E+005   -3.62209E+004   -4.35628E+005   -6.28829E+004   -4.35628E+005    3.99407E+005    1.78244E+005   -3.84690E+005   -6.25225E+004   -7.37629E+004   -3.98447E+005    2.03933E+003    4.12102E+003    1.15944E+005
            8629    3.50311E+005   -9.85454E+003   -3.72536E+005   -3.60698E+004   -3.72536E+005    3.62682E+005    1.39487E+005   -3.48094E+005   -3.57336E+004   -2.16061E+004   -3.61121E+005   -8.11360E+003    1.53373E+004    6.09395E+004
            8630    3.11895E+005   -2.01228E+004   -3.33829E+005   -2.37761E+004   -3.33829E+005    3.13706E+005    1.25909E+005   -3.11847E+005   -2.22059E+004   -2.61029E+004   -3.29419E+005   -3.38185E+003    2.19472E+004    2.94478E+004
            8631    3.64632E+005    1.60055E+004   -3.77955E+005   -5.23161E+004   -3.77955E+005    3.93961E+005    1.38089E+005   -3.49794E+005   -5.93912E+004    1.22926E+004   -3.67167E+005   -2.83675E+003    4.75817E+004    3.74761E+004
            8632    4.68597E+005   -7.26238E+004   -5.89019E+005   -1.90875E+005   -5.89019E+005    5.16395E+005    2.84172E+005   -4.33078E+005   -1.97471E+005   -1.18656E+005   -5.36390E+005   -1.23893E+003    6.18258E+004    1.41799E+005
            8633    4.08800E+005   -2.40028E+004   -4.65860E+005   -1.01094E+005   -4.65860E+005    4.41857E+005    1.96986E+005   -3.91943E+005   -1.05011E+005   -7.32953E+004   -4.12651E+005   -7.33930E+003    3.99007E+004    1.37568E+005
            8634    3.63615E+005   -6.27316E+004   -4.62843E+005   -1.52564E+005   -4.62843E+005    4.00111E+005    2.26046E+005   -3.37266E+005   -1.52692E+005   -1.65471E+005   -3.59975E+005   -2.33674E+003    5.39790E+004    1.66311E+005
            8635    3.50928E+005   -5.35037E+004   -4.22891E+005   -9.39245E+004   -4.22891E+005    3.69388E+005    1.90107E+005   -3.45632E+005   -9.40314E+004   -1.16493E+005   -3.59795E+005   -3.18543E+003    3.27046E+004    1.35087E+005
            8636    3.35441E+005   -8.44394E+004   -4.48255E+005   -1.51241E+005   -4.48255E+005    3.63815E+005    2.27979E+005   -3.19958E+005   -1.52089E+005   -1.62497E+005   -3.69350E+005   -3.22359E+003    5.11803E+004    1.40928E+005
            8637    3.63655E+005   -7.39139E+004   -4.57078E+005   -1.16721E+005   -4.57078E+005    3.83164E+005    2.15904E+005   -3.57921E+005   -1.15072E+005   -1.27364E+005   -4.05277E+005    3.65245E+003    1.67569E+004    1.29820E+005
            8638    3.35387E+005   -9.06834E+004   -4.52991E+005   -1.53371E+005   -4.52991E+005    3.62308E+005    2.32349E+005   -3.21808E+005   -1.51857E+005   -1.68255E+005   -3.76934E+005   -6.77646E+002    4.73407E+004    1.39669E+005
            8639    3.20176E+005   -1.18579E+005   -4.62703E+005   -1.73610E+005   -4.62703E+005    3.44124E+005    2.51631E+005   -3.09266E+005   -1.71221E+005   -1.77455E+005   -4.06216E+005    2.61902E+003    3.97422E+004    1.21047E+005
            8640    2.93265E+005   -1.34431E+005   -4.48407E+005   -1.81563E+005   -4.48407E+005    3.13976E+005    2.54800E+005   -2.84556E+005   -1.79333E+005   -1.75748E+005   -4.09320E+005    4.28641E+003    3.07749E+004    9.89552E+004
            8641    3.51917E+005   -8.50852E+004   -4.57220E+005   -1.29793E+005   -4.57220E+005    3.72135E+005    2.24033E+005   -3.45442E+005   -1.26754E+005   -1.30261E+005   -4.15083E+005    8.95068E+003    8.79828E+003    1.17244E+005
            8642    3.28777E+005   -1.00131E+005   -4.50280E+005   -1.48158E+005   -4.50280E+005    3.50149E+005    2.32856E+005   -3.20742E+005   -1.44772E+005   -1.35641E+005   -4.18155E+005    1.02698E+004    8.74798E+003    1.00383E+005
            8643    3.02428E+005   -1.55632E+005   -4.73806E+005   -1.90074E+005   -4.73806E+005    3.18174E+005    2.73171E+005   -2.97968E+005   -1.86828E+005   -1.76892E+005   -4.55792E+005    1.50865E+004   -1.41131E+004    7.08738E+004
            8644    3.50499E+005   -1.14455E+005   -4.89447E+005   -1.70098E+005   -4.89447E+005    3.74992E+005    2.58000E+005   -3.40349E+005   -1.67716E+005   -1.38041E+005   -4.68244E+005    1.97456E+004   -1.98586E+004    8.24233E+004
            8645    1.05203E+005    5.91966E+004   -6.22453E+004   -4.07410E+003   -6.22453E+004    1.21442E+005    2.37425E+003    4.38980E+004   -4.27152E+003   -5.49263E+004    5.20750E+004    3.40270E+003   -4.29805E+002    2.85029E+004
            8646    8.55833E+004    5.91633E+004    5.91633E+004    1.95214E+003   -3.92253E+004    9.83886E+004   -7.29670E+003    5.58381E+004    1.22068E+003   -3.83370E+004    5.90065E+004    5.65183E+003   -2.26638E+003    2.79205E+003
            8647    7.57588E+004    6.50253E+004    6.50253E+004    1.00853E+004   -2.13989E+004    8.64242E+004   -1.79039E+004    5.80364E+004    8.62187E+003   -1.77097E+004    6.27995E+004    8.20958E+003   -3.90129E+003   -1.20611E+004
            8648    6.70900E+004    6.59109E+004    6.59109E+004    1.55014E+004   -1.02373E+004    7.61482E+004   -2.37250E+004    5.41817E+004    1.26484E+004   -2.18085E+003    6.07074E+004    1.05991E+004   -4.51042E+003   -1.69388E+004
            8649    7.66779E+004    7.98624E+004    7.98624E+004    1.26237E+004   -3.64401E+003    8.35064E+004   -2.96140E+004    7.26415E+004    6.45055E+003    4.34766E+003    7.80438E+004    8.49279E+003   -3.08474E+003   -1.08627E+004
            8650    9.69257E+004    9.94040E+004    9.94040E+004    5.14651E+003    1.40478E+001    9.93900E+004   -3.48549E+004    9.66193E+004    4.10640E+003    1.21389E+003    9.92443E+004    2.18007E+003   -2.28372E+003   -3.15806E+003
            8651    8.03040E+004    8.04100E+004    8.04100E+004    9.94250E+003   -7.02035E+003    8.74304E+004   -2.77774E+004    7.61149E+004    6.33800E+003   -2.39000E+003    7.93842E+004    7.29060E+003   -2.17313E+003   -8.67265E+003
            8652    1.02930E+005    1.04989E+005    1.04989E+005    6.51140E+003   -1.88093E+003    1.06870E+005   -3.65397E+004    1.02156E+005    6.07114E+003   -1.39256E+003    1.04941E+005    1.92143E+003   -1.17047E+003   -1.88621E+003
            8653    8.50097E+004    7.69195E+004    7.69195E+004    5.64858E+003   -1.71710E+004    9.40905E+004   -2.17990E+004    7.76582E+004    3.78287E+003   -1.51282E+004    7.67425E+004    6.23419E+003   -6.12513E+002    4.01844E+003
            8654    1.02717E+005    1.02990E+005    1.02990E+005    5.42892E+003   -4.20333E+003    1.07194E+005   -3.47387E+004    1.01693E+005    4.97644E+003   -3.58530E+003    1.02825E+005    2.12122E+003    1.21530E+003    3.97738E+003
            8655    9.10070E+004    7.17893E+004    7.17893E+004    3.02668E+003   -3.14109E+004    1.03200E+005   -1.44684E+004    7.40601E+004    2.47005E+003   -2.20127E+004    6.29477E+004    4.83871E+003    3.78468E+002    2.87170E+004
            8656    9.07617E+004    8.99938E+004    8.99938E+004    4.70270E+003   -5.39415E+003    9.53879E+004   -2.97674E+004    8.94851E+004    4.63582E+003   -3.76890E+003    8.84354E+004    1.92451E+003    3.46010E+003    1.14504E+004
            8657    7.07210E+004    6.76804E+004    6.76804E+004    2.35528E+003   -7.41954E+003    7.50999E+004   -2.08720E+004    6.91767E+004    2.82738E+003   -2.63680E+003    6.24255E+004    1.55535E+003    5.32762E+003    1.82720E+004
            8658    4.78867E+004    3.72914E+004    3.72914E+004   -9.79474E+002   -1.64076E+004    5.36990E+004   -6.63475E+003    4.17193E+004   -5.91737E+002   -2.41837E+003    2.29144E+004    2.59858E+003    3.07091E+003    2.34220E+004
            8659    1.02338E+005    7.10223E+004    7.10223E+004    8.65232E+002   -4.64071E+004    1.17429E+005   -8.49348E+003    7.07085E+004    7.69372E+002   -1.73609E+004    4.20720E+004    3.76681E+003    6.83272E+002    5.04835E+004
            8660    1.08935E+005    6.70673E+004    6.70673E+004   -4.75821E+002   -5.86020E+004    1.25669E+005   -2.66314E+003    5.50912E+004   -5.21771E+002   -6.34102E+003    1.48522E+004    5.07470E+003    3.42967E+002    6.17237E+004
            8661    1.52256E+005    8.92868E+004    8.92868E+004    5.92183E+002   -8.65208E+004    1.75808E+005   -1.11937E+003    3.80281E+004    4.84225E+002   -9.34620E+003    1.22201E+004    4.99944E+003   -6.25397E+002    8.70938E+004
            8662    1.87475E+005    1.05550E+005   -1.10893E+005    6.64048E+002   -1.10893E+005    2.16443E+005    1.55980E+003   -7.05788E+004    5.27816E+002   -1.45300E+004    9.32283E+003    4.20432E+003   -1.63668E+003    1.07470E+005
            8663    2.18581E+005    1.21840E+005   -1.30469E+005    1.43507E+003   -1.30469E+005    2.52309E+005    2.39820E+003   -9.37280E+004    1.37179E+003   -1.65868E+004    8.02041E+003    2.39871E+003   -1.69081E+003    1.25520E+005
            8664    2.46426E+005    1.37515E+005   -1.46935E+005    1.78720E+003   -1.46935E+005    2.84449E+005    2.54430E+003   -1.05748E+005    1.77911E+003   -1.52637E+004    5.85165E+003    4.76873E+002   -1.47261E+003    1.41824E+005
            8665    1.44070E+005    8.10740E+004   -8.52729E+004   -4.43187E+002   -8.52729E+004    1.66347E+005    1.54736E+003   -4.68929E+004   -5.58502E+002   -3.81609E+004    3.40773E+004    3.49394E+003   -7.57646E+002    7.48374E+004
            8666    1.88526E+005    9.58986E+004   -1.21449E+005   -2.19237E+003   -1.21449E+005    2.17348E+005    9.24775E+003   -1.03964E+005   -2.21961E+003   -5.24288E+004    2.69052E+004    1.75558E+003   -7.16995E+002    1.01160E+005
            8667    2.25382E+005    1.11449E+005   -1.48229E+005   -3.47308E+003   -1.48229E+005    2.59678E+005    1.34175E+004   -1.31229E+005   -3.47325E+003   -5.69672E+004    2.01878E+004    9.69348E+001   -2.48446E+002    1.23975E+005
            8668    2.55598E+005    1.28136E+005   -1.66494E+005   -4.17760E+003   -1.66494E+005    2.94630E+005    1.41785E+004   -1.43039E+005   -4.18865E+003   -5.46830E+004    1.63363E+004   -1.40011E+003    5.27683E+002    1.42964E+005
            8669    2.69144E+005    1.20253E+005   -1.90156E+005   -2.17951E+004   -1.90156E+005    3.10409E+005    3.05658E+004   -1.41779E+005   -2.18800E+004   -1.12506E+005    4.26888E+004   -2.79959E+003    4.75818E+003    1.34304E+005
            8670    2.20660E+005    9.29368E+004   -1.61407E+005   -2.10794E+004   -1.61407E+005    2.54343E+005    2.98497E+004   -1.24128E+005   -2.11309E+004   -1.11680E+005    4.32615E+004   -2.40376E+003    4.14671E+003    1.00740E+005
            8671    1.75916E+005    7.72000E+004   -1.25639E+005   -1.48043E+004   -1.25639E+005    2.02839E+005    2.10812E+004   -9.54927E+004   -1.47842E+004   -9.43220E+004    4.58625E+004   -7.85856E+002    2.61150E+003    7.32489E+004
            8672    1.32127E+005    6.77665E+004   -8.47816E+004   -6.44245E+003   -8.47816E+004    1.52548E+005    7.81919E+003   -4.76396E+004   -6.42494E+003   -6.76352E+004    5.06025E+004    1.56004E+003    1.10432E+003    4.81561E+004
            8673    9.00989E+004    9.31709E+004    9.31709E+004    6.33322E+003    1.31279E+002    9.30396E+004   -3.32118E+004    8.96168E+004    5.25975E+003    1.31027E+003    9.30654E+004    2.45845E+003   -2.64171E+003   -1.47509E+003
            8674    6.82046E+004    7.57250E+004    7.57250E+004    1.88214E+004    1.20717E+002    7.56043E+004   -3.15557E+004    6.20318E+004    9.68345E+003    9.90112E+003    7.50826E+004    9.64537E+003   -3.17284E+003   -5.15476E+003
            8675    5.39338E+004    5.83667E+004    5.83667E+004    1.96957E+004   -3.24494E+003    6.16117E+004   -2.49392E+004    4.05527E+004    1.42653E+004    7.70248E+003    5.28498E+004    1.21290E+004   -3.91201E+003   -1.45665E+004
            8676    9.03811E+004    9.30347E+004    9.30347E+004    6.03061E+003   -3.81948E+002    9.34166E+004   -3.28944E+004    8.98672E+004    3.21550E+003    2.46502E+003    9.30028E+004    3.18120E+003   -9.02333E+001    1.69832E+003
            8677    6.99756E+004    7.53475E+004    7.53475E+004    1.90846E+004   -3.00788E+003    7.83554E+004   -3.04747E+004    6.13605E+004    7.97053E+003    8.32774E+003    7.51259E+004    1.09882E+004   -1.34654E+003    3.78314E+003
            8678    3.95249E+004    4.57918E+004    4.57918E+004    2.65832E+004    3.33787E+002    4.54580E+004   -2.42363E+004   -2.53676E+004    1.35886E+004    1.35819E+004    4.55382E+004    1.32333E+004   -2.13543E+003   -8.53918E+002
            8679    9.85881E+004    1.02633E+005    1.02633E+005    9.13112E+003   -3.55276E+002    1.02988E+005   -3.71363E+004    9.75533E+004    7.47550E+003    1.63872E+003    1.02295E+005    3.76203E+003    2.06686E+003    5.35854E+003
            8680    7.84582E+004    8.63398E+004    8.63398E+004    2.38743E+004   -1.71929E+003    8.80591E+004   -3.61649E+004    6.80692E+004    1.34793E+004    1.21597E+004    8.28558E+004    1.30532E+004    7.54988E+002    1.56676E+004
            8681    5.14669E+004    5.53738E+004    5.53738E+004    2.39082E+004   -4.01994E+003    5.93938E+004   -2.50874E+004    2.41207E+004    1.47058E+004    1.61116E+004    4.44447E+004    1.51936E+004   -2.44188E+002    1.92489E+004
            8682    2.53375E+005    1.51183E+005    1.51183E+005   -1.65134E+003   -1.41290E+005    2.92473E+005   -2.74721E+003    1.08281E+005   -1.64968E+003    1.58262E+004   -5.93484E+003    1.71048E+002    1.31513E+003    1.45825E+005
            8683    2.63634E+005    1.70942E+005    1.70942E+005    4.55078E+003   -1.33022E+005    3.03963E+005   -1.41568E+004    1.44104E+005    4.56659E+003    5.42017E+004   -1.62977E+004   -1.47203E+003   -8.00610E+002    1.47829E+005
            8684    2.73795E+005    1.92713E+005    1.92713E+005    2.21360E+004   -1.23100E+005    3.15812E+005   -3.05829E+004    1.41636E+005    2.22210E+004    1.11802E+005   -4.22742E+004   -2.77709E+003   -4.80051E+003    1.37731E+005
            8685    2.76403E+005    1.63325E+005    1.63325E+005   -1.54859E+003   -1.55779E+005    3.19104E+005   -1.99918E+003    1.06827E+005   -1.56086E+003    1.17372E+004   -4.17880E+003   -1.16804E+003    8.23456E+002    1.59347E+005
            8686    2.90515E+005    1.82506E+005    1.82506E+005    3.91608E+003   -1.52712E+005    3.35218E+005   -1.12365E+004    1.40525E+005    3.94341E+003    4.20115E+004   -1.22454E+004   -2.04290E+003   -1.09944E+003    1.65384E+005
            8687    3.17385E+005    2.10328E+005    2.10328E+005    1.75343E+004   -1.55987E+005    3.66316E+005   -2.39584E+004    1.42743E+005    1.76008E+004    9.06426E+004   -3.63682E+004   -2.25287E+003   -4.12722E+003    1.71734E+005
            8688    2.92670E+005    1.71056E+005    1.71056E+005   -8.17583E+002   -1.66874E+005    3.37930E+005   -1.12132E+003    9.07450E+004   -8.25314E+002    6.38246E+003   -2.19320E+003   -1.91762E+003    3.47036E+002    1.68899E+005
            8689    3.09221E+005    1.86042E+005    1.86042E+005    2.15205E+003   -1.70961E+005    3.57003E+005   -5.74454E+003    1.15609E+005    2.16996E+003    2.14493E+004   -6.38567E+003   -2.04156E+003   -7.50693E+002    1.77945E+005
            8690    3.48403E+005    2.15984E+005    2.15984E+005    9.91273E+003   -1.86277E+005    4.02261E+005   -1.32067E+004    1.21617E+005    9.94455E+003    5.05495E+004   -2.08740E+004   -1.55504E+003   -2.32583E+003    1.97915E+005
            8691    2.97493E+005    1.71385E+005   -1.72130E+005    1.96089E+001   -1.72130E+005    3.43515E+005    2.41947E+002   -4.70518E+004    1.98542E+001   -1.14155E+003    3.95859E+002   -2.13877E+003   -1.21923E+001    1.71742E+005
            8692    3.14912E+005    1.80974E+005   -1.82655E+005   -3.70951E+002   -1.82655E+005    3.63629E+005    6.83725E+002   -5.18729E+004   -3.73327E+002   -2.80171E+003    1.12386E+003   -2.01686E+003    9.88448E+001    1.81793E+005
            8693    3.59622E+005    2.06825E+005   -2.08431E+005   -5.67535E+002   -2.08431E+005    4.15255E+005    7.24434E+002   -4.50307E+004   -5.68487E+002   -2.36582E+003    7.61004E+002   -1.25427E+003    7.48207E+001    2.07618E+005
            8694    2.89168E+005    1.64530E+005   -1.69350E+005    1.02730E+003   -1.69350E+005    3.33879E+005    1.26414E+003   -9.51729E+004    1.03635E+003   -7.51421E+003    2.68545E+003   -1.89805E+003   -4.05434E+002    1.66850E+005
            8695    3.05078E+005    1.66739E+005   -1.85452E+005   -2.72524E+003   -1.85452E+005    3.52191E+005    7.14601E+003   -1.22768E+005   -2.74643E+003   -2.71017E+004    8.41015E+003   -2.09458E+003    8.51778E+002    1.75184E+005
            8696    3.46550E+005    1.84383E+005   -2.15727E+005   -1.01292E+004   -2.15727E+005    4.00110E+005    1.38243E+004   -1.25914E+005   -1.01621E+004   -5.37068E+004    2.23960E+004   -1.57662E+003    2.39761E+003    1.96383E+005
            8697    2.70523E+005    1.51931E+005   -1.60371E+005    1.53955E+003   -1.60371E+005    3.12302E+005    2.30024E+003   -1.08116E+005    1.55233E+003   -1.31361E+004    4.68304E+003   -1.05149E+003   -9.21614E+002    1.55890E+005
            8698    2.83443E+005    1.47826E+005   -1.79191E+005   -4.06703E+003   -1.79191E+005    3.27016E+005    1.18106E+004   -1.40833E+005   -4.09305E+003   -4.43618E+004    1.30230E+004   -2.00702E+003    1.03096E+003    1.60956E+005
            8699    3.13715E+005    1.52648E+005   -2.09414E+005   -1.83448E+004   -2.09414E+005    3.62062E+005    2.50369E+004   -1.43577E+005   -1.84127E+004   -9.35419E+004    3.68438E+004   -2.29504E+003    4.18817E+003    1.68819E+005
            8700    2.14106E+005    1.88646E+005    1.88646E+005    3.54917E+004   -5.60057E+004    2.44652E+005   -5.60440E+004    1.60344E+005    3.37055E+004   -8.72209E+003    1.43148E+005    3.27035E+004    1.43865E+004    8.86763E+004
            8701    1.75145E+005    1.73480E+005    1.73480E+005    2.18854E+004   -1.82483E+004    1.91728E+005   -5.90390E+004    1.64314E+005    1.32316E+004    3.77106E+003    1.60114E+005    2.26218E+004    1.52850E+004    4.23710E+004
            8702    1.78659E+005    1.80751E+005    1.80751E+005    6.45647E+003   -1.97467E+003    1.82725E+005   -6.17441E+004    1.78211E+005    4.76932E+003    2.60553E+003    1.77858E+005    5.55033E+003    1.78046E+004    1.33772E+004
            8703    1.53054E+005    1.35177E+005    1.35177E+005    2.78643E+004   -4.00867E+004    1.75264E+005   -4.09849E+004    1.10592E+005    2.52793E+004    4.16439E+003    9.35109E+004    2.57208E+004    7.07364E+003    7.01154E+004
            8704    1.36274E+005    1.41373E+005    1.41373E+005    2.76351E+004   -9.66787E+003    1.51041E+005   -5.31134E+004    1.23984E+005    1.95473E+004    1.17232E+004    1.28070E+005    1.97097E+004    8.39197E+003    3.87576E+004
            8705    1.46694E+005    1.51436E+005    1.51436E+005    1.19929E+004   -1.56678E+003    1.53003E+005   -5.39541E+004    1.45274E+005    1.11866E+004    1.00617E+003    1.49669E+005    5.23113E+003    1.02199E+004    1.20099E+004
            8706    9.92557E+004    9.32805E+004    9.32805E+004    2.23517E+004   -2.01487E+004    1.13429E+005   -3.18278E+004    7.42058E+004    1.87273E+004    1.54511E+004    6.13051E+004    1.94671E+004    3.03846E+003    4.73427E+004
            8707    1.05784E+005    1.08357E+005    1.08357E+005    2.06229E+004   -9.11233E+003    1.17469E+005   -3.99558E+004    9.56820E+004    1.11617E+004    8.56091E+003    1.00145E+005    1.60993E+004    5.01545E+003    2.69629E+004
            8708    1.20263E+005    1.23286E+005    1.23286E+005    7.48750E+003   -9.93133E+002    1.24279E+005   -4.32600E+004    1.19587E+005    4.79375E+003    2.98783E+003    1.21998E+005    4.75354E+003    7.79486E+003    9.33178E+003
            8709    8.28504E+004    5.25331E+003   -8.16054E+004   -3.45031E+003   -8.16054E+004    8.68587E+004    2.66008E+004   -8.18124E+004   -3.74596E+003    3.44709E+003   -7.95035E+004    1.37110E+003   -5.02250E+003    1.22067E+004
            8710    9.82295E+004    1.84974E+003   -9.99884E+004   -5.81694E+003   -9.99884E+004    1.01838E+005    3.46519E+004   -9.75529E+004   -5.69031E+003    1.13058E+003   -9.93959E+004    1.59432E+003   -3.32250E+003    6.87682E+003
            8711    1.08109E+005    2.87253E+003   -1.09527E+005   -6.29285E+003   -1.09527E+005    1.12400E+005    3.76491E+004   -1.07229E+005   -6.04225E+003    2.58120E+003   -1.09486E+005    1.52707E+003   -7.85841E+002    1.96225E+003
            8712    1.06822E+005   -4.20513E+002   -1.10015E+005   -6.19998E+003   -1.10015E+005    1.09594E+005    3.88785E+004   -1.06469E+005   -5.74707E+003   -9.06557E+002   -1.09982E+005    1.59148E+003    1.20149E+003   -1.43220E+003
            8713    1.01736E+005    1.09211E+003   -1.03700E+005   -5.32428E+003   -1.03700E+005    1.04792E+005    3.59773E+004   -1.01279E+005   -5.06634E+003    7.04542E+002   -1.03570E+005    1.49775E+003    2.80760E+003   -2.23546E+003
            8714    8.42149E+004    2.23474E+004   -7.14748E+004   -2.42369E+003   -7.14748E+004    9.38223E+004    1.71837E+004   -7.53407E+004   -2.39959E+003    9.31926E+003   -5.84707E+004    3.15903E+003   -2.25565E+003    3.21898E+004
            8715    8.62467E+004    1.49676E+004   -7.90028E+004   -3.45796E+003   -7.90028E+004    9.39704E+004    2.24977E+004   -8.16402E+004   -2.77912E+003    1.08653E+004   -7.55794E+004    3.98684E+003   -1.50263E+003    1.73654E+004
            8716    8.78548E+004    7.22008E+003   -8.67527E+004   -6.67099E+003   -8.67527E+004    9.39728E+004    2.87345E+004   -8.53315E+004   -5.24031E+003    5.63974E+003   -8.66031E+004    4.23207E+003   -1.26251E+002    3.70511E+003
            8717    9.10625E+004    5.61211E+003   -9.09056E+004   -6.51332E+003   -9.09056E+004    9.65177E+004    3.06023E+004   -8.92192E+004   -4.63552E+003    3.44718E+003   -9.06185E+004    4.49350E+003    1.37333E+003   -4.92501E+003
            8718    8.55914E+004   -2.36322E+002   -9.04113E+004   -1.02919E+004   -9.04113E+004    9.01750E+004    3.36465E+004   -8.42471E+004   -7.48771E+003   -3.64491E+003   -8.98069E+004    4.77739E+003    2.64635E+003   -6.55361E+003
            8719    1.05631E+005    4.92454E+004   -7.21255E+004   -9.69010E+002   -7.21255E+004    1.21371E+005    7.94972E+003   -7.01974E+004   -6.86450E+002    2.60253E+004   -4.91880E+004    4.64566E+003   -8.78112E+001    4.73693E+004
            8720    9.00254E+004    3.18602E+004   -7.02565E+004   -2.35483E+003   -7.02565E+004    1.02117E+005    1.35837E+004   -7.30871E+004   -1.59033E+003    2.46064E+004   -6.37673E+004    5.38779E+003   -1.80202E+002    2.47408E+004
            8721    8.24575E+004    1.91181E+004   -7.26084E+004   -4.63351E+003   -7.26084E+004    9.17265E+004    1.93746E+004   -7.41555E+004   -3.07920E+003    1.73970E+004   -7.24416E+004    5.85333E+003    7.71648E+002    3.82872E+003
            8722    7.82910E+004    7.90491E+003   -7.72288E+004   -8.32414E+003   -7.72288E+004    8.51337E+004    2.58827E+004   -7.43639E+004   -5.11737E+003    3.90348E+003   -7.64341E+004    6.74169E+003    1.92898E+003   -7.55382E+003
            8723    7.53662E+004    4.16350E+003   -7.76610E+004   -1.10851E+004   -7.76610E+004    8.18245E+004    2.81942E+004   -7.17714E+004   -6.73048E+003   -2.03492E+003   -7.58172E+004    7.54581E+003    3.15828E+003   -1.09530E+004
            8724    1.32500E+005    8.00112E+004    8.00112E+004    2.02188E+003   -7.29765E+004    1.52988E+005   -3.01887E+003    4.28634E+004    2.09747E+003    5.28126E+004   -4.58534E+004    2.88003E+003    1.34837E+002    5.83897E+004
            8725    1.02497E+005    5.41421E+004   -6.40327E+004    6.78463E+002   -6.40327E+004    1.18175E+005    3.07072E+003   -5.60972E+004    1.08246E+003    4.73619E+004   -5.76565E+004    4.58524E+003    7.70797E+002    2.66475E+004
            8726    8.22354E+004    2.87347E+004   -6.50965E+004   -5.55357E+003   -6.50965E+004    9.38312E+004    1.39718E+004   -6.28386E+004   -4.07943E+003    2.70979E+004   -6.49339E+004    7.04002E+003    2.25262E+003    2.95423E+003
            8727    7.61202E+004    1.65180E+004   -6.92237E+004   -9.60332E+003   -6.92237E+004    8.57418E+004    2.07697E+004   -6.48207E+004   -6.46176E+003    1.11189E+004   -6.69661E+004    9.63821E+003    3.65386E+003   -1.21379E+004
            8728    6.54270E+004    4.21285E+003   -6.94145E+004   -1.79396E+004   -6.94145E+004    7.36273E+004    2.77137E+004   -5.60063E+004   -1.17364E+004   -6.13203E+003   -6.52727E+004    1.17166E+004    4.57175E+003   -1.42428E+004
            8729    6.63028E+004    1.41803E+004   -6.16865E+004   -1.48518E+004   -6.16865E+004    7.58668E+004    2.07860E+004   -4.85690E+004   -1.31223E+004    5.76571E+003   -5.50015E+004    1.05506E+004    4.80285E+003   -1.90724E+004
            8730    7.62561E+004    2.70957E+004   -6.04825E+004   -8.78551E+003   -6.04825E+004    8.75782E+004    1.40574E+004   -5.14224E+004   -7.77339E+003    2.41273E+004   -5.85262E+004    7.82743E+003    4.10496E+003   -1.10767E+004
            8731    8.99005E+004    4.81290E+004   -5.55947E+004   -1.09998E+002   -5.55947E+004    1.03724E+005    2.52523E+003   -4.44206E+004    2.71270E+002    4.76432E+004   -5.54902E+004    4.75652E+003    2.35642E+003    9.29306E+002
            8732    1.11742E+005    7.30689E+004    7.30689E+004    7.75611E+003   -5.59566E+004    1.29026E+005   -8.28946E+003    3.10606E+004    7.82196E+003    6.89944E+004   -5.19480E+004    2.05483E+003    2.92474E+002    2.23802E+004
            8733    1.42291E+005    9.95658E+004    9.95658E+004    1.16099E+004   -6.45977E+004    1.64164E+005   -1.55260E+004    7.08727E+004    1.15834E+004    8.26071E+004   -4.76125E+004    6.97010E+001   -1.53424E+003    4.99561E+004
            8734    1.80426E+005    1.28651E+005    1.28651E+005    1.50131E+004   -7.93899E+004    2.08041E+005   -2.14249E+004    9.78092E+004    1.50196E+004    9.62250E+004   -4.69700E+004   -1.43112E+003   -2.89930E+003    7.53903E+004
            8735    2.26394E+005    1.64088E+005    1.64088E+005    2.07065E+004   -9.69062E+004    2.60994E+005   -2.92960E+004    1.25414E+005    2.07696E+004    1.11065E+005   -4.39466E+004   -2.54549E+003   -4.22253E+003    1.04875E+005
            8736    2.32882E+005    1.53504E+005    1.53504E+005    4.23477E+003   -1.14839E+005    2.68343E+005   -1.43001E+004    1.34676E+005    4.23537E+003    5.95133E+004   -2.08483E+004   -3.69357E+002   -8.02854E+001    1.28013E+005
            8737    2.26480E+005    1.35438E+005    1.35438E+005   -1.35456E+003   -1.25985E+005    2.61423E+005   -2.69954E+003    9.77800E+004   -1.30576E+003    1.70345E+004   -7.63008E+003    1.98935E+003    1.65620E+003    1.30104E+005
            8738    1.94935E+005    1.26794E+005    1.26794E+005    2.96646E+003   -9.79061E+004    2.24700E+005   -1.06182E+004    1.09206E+005    2.98174E+003    5.63492E+004   -2.74762E+004    1.25015E+003    6.30964E+002    1.04231E+005
            8739    1.97513E+005    1.17087E+005    1.17087E+005   -9.85782E+002   -1.10933E+005    2.28020E+005   -1.72288E+003    7.80378E+004   -8.78813E+002    1.54208E+004   -9.37335E+003    3.64304E+003    1.59651E+003    1.13266E+005
            8740    1.68130E+005    9.79141E+004    9.79141E+004   -5.26972E+002   -9.62191E+004    1.94133E+005   -3.89353E+002    4.88470E+004   -4.23585E+002    1.21447E+004   -1.05530E+004    4.59391E+003    8.70004E+002    9.62881E+004
            8741    1.32589E+005    7.50089E+004   -7.80770E+004    3.05245E+002   -7.80770E+004    1.53086E+005    9.20936E+002   -4.59434E+004    3.63068E+002    8.33840E+003   -1.14643E+004    5.18535E+003    2.61809E+001    7.57218E+004
            8742    8.97812E+004    4.61420E+004   -5.73127E+004    2.03644E+002   -5.73127E+004    1.03455E+005    3.65568E+003   -5.18275E+004    1.86757E+002    1.87708E+003   -1.30309E+004    5.01342E+003   -7.36038E+002    5.09370E+004
            8743    3.84054E+004    1.29277E+004   -2.98320E+004    1.73029E+003   -2.98320E+004    4.27597E+004    5.05800E+003   -3.44354E+004    1.27981E+003    1.58552E+003   -1.80393E+004    2.39269E+003   -3.02602E+003    1.87181E+004
            8744    1.57327E+005    9.56058E+004    9.56058E+004    1.29054E+003   -8.60143E+004    1.81620E+005   -3.62735E+003    6.38338E+004    1.38608E+003    3.99705E+004   -3.04746E+004    3.14517E+003    9.64640E+002    8.36381E+004
            8745    1.21451E+005    6.30054E+004   -7.70325E+004   -5.03162E+002   -7.70325E+004    1.40038E+005    4.84341E+003   -6.59610E+004   -3.92693E+002    1.80900E+004   -3.22276E+004    4.05562E+003    2.48407E+001    6.52113E+004
            8746    8.84155E+004    3.54970E+004   -6.52138E+004   -3.56878E+002   -6.52138E+004    1.00711E+005    1.00246E+004   -6.89566E+004   -4.59013E+002    7.97354E+003   -3.75882E+004    3.09667E+003   -2.01782E+003    4.47718E+004
            8747    5.95857E+004    5.26218E+003   -5.74618E+004   -1.61046E+003   -5.74618E+004    6.27240E+004    1.79367E+004   -5.86840E+004   -2.22275E+003    4.48141E+002   -5.20355E+004    1.14583E+003   -5.93043E+003    1.65279E+004
            8748    2.69384E+005    2.72169E+005    2.72169E+005    1.50166E+004   -7.97242E+003    2.80142E+005   -9.30711E+004    2.67164E+005    1.56379E+002    1.02726E+004    2.68784E+005   -9.49559E+003    1.32626E+004    2.72252E+004
            8749    2.43651E+005    2.43439E+005    2.43439E+005    4.95653E+003   -5.07059E+003    2.48510E+005   -8.11084E+004    2.43186E+005    3.93418E+003   -2.94387E+003    2.42335E+005   -3.01111E+003    1.05260E+004    1.27060E+004
            8750    2.22605E+005    2.21617E+005    2.21617E+005    2.30192E+003   -4.13792E+003    2.25755E+005   -7.32604E+004    2.22395E+005   -1.45935E+003    2.98896E+003    2.18252E+005    1.83275E+003    2.42452E+004    1.24381E+004
            8751    2.01729E+005    2.04832E+005    2.04832E+005    9.68779E+003   -2.89197E+003    2.07724E+005   -7.05427E+004    2.00843E+005    1.02592E+004   -1.39458E+003    2.02764E+005    4.03725E+003    1.61712E+004    1.18875E+004
            8752    3.19570E+005    3.25045E+005    3.25045E+005    1.59393E+004   -4.05215E+003    3.29097E+005   -1.12311E+005    3.18159E+005    3.10147E+003    2.68128E+004    3.07018E+005   -2.66623E+003    2.71357E+004    6.87361E+004
            8753    2.75269E+005    2.94119E+005    2.94119E+005    2.77300E+004    1.07558E+004    2.83363E+005   -1.10868E+005    2.74087E+005    2.43273E+004    2.96843E+004    2.78593E+005    1.28550E+004    2.07968E+004    5.96152E+004
            8754    2.41204E+005    2.39789E+005    2.39789E+005    1.48629E+004   -1.49252E+004    2.54714E+005   -7.99090E+004    2.37013E+005    7.97997E+003    3.21511E+003    2.28532E+005    1.94107E+004    2.67236E+004    4.15923E+004
            8755    2.05561E+005    2.12159E+005    2.12159E+005    3.06573E+004   -1.10621E+004    2.23221E+005   -7.72513E+004    1.95693E+005    2.31412E+004    1.04806E+004    1.98132E+005    2.29537E+004    1.81897E+004    4.72038E+004
            8756    2.66007E+005    2.38118E+005    2.38118E+005    4.56881E+004   -6.54322E+004    3.03550E+005   -7.27913E+004    2.02968E+005    4.38245E+004   -2.56043E+004    2.00154E+005    3.78432E+004    2.18976E+004    9.11265E+004
            8757    3.14653E+005    3.00905E+005    3.00905E+005    5.89007E+004   -5.47925E+004    3.55697E+005   -1.01671E+005    2.62070E+005    5.84700E+004   -1.91924E+004    2.65735E+005    4.05479E+004    3.27070E+004    9.26959E+004
            8758    3.37281E+005    3.45333E+005    3.45333E+005    7.33800E+004   -3.20761E+004    3.77409E+005   -1.28879E+005    2.96640E+005    7.19768E+004   -2.55072E+003    3.17211E+005    3.95241E+004    3.66751E+004    8.37975E+004
            8759    3.85684E+005    4.15893E+005    4.15893E+005    7.97918E+004   -5.19841E+003    4.21091E+005   -1.63495E+005    3.63709E+005    8.29972E+004    2.69647E+004    3.80524E+005    3.64021E+004    4.91499E+004    9.86524E+004
            8760    3.72924E+005    4.28366E+005    4.28366E+005    7.58887E+004    3.79018E+004    3.90464E+005   -1.80719E+005    3.68534E+005    7.94596E+004    7.33917E+004    3.89305E+005    3.46772E+004    6.21489E+004    9.30171E+004
            8761    3.56738E+005    4.45686E+005    4.45686E+005    1.07547E+005    7.28813E+004    3.72805E+005   -2.08705E+005    3.52919E+005    1.05592E+005    1.08072E+005    4.12450E+005    3.36592E+004    6.45955E+004    7.73275E+004
            8762    3.23661E+005    4.41314E+005    4.41314E+005    1.35614E+005    1.02273E+005    3.39041E+005   -2.26400E+005    3.19763E+005    1.25426E+005    1.44944E+005    4.08831E+005    3.10713E+004    6.18297E+004    7.12356E+004
            8763    2.74415E+005    4.00229E+005    4.00229E+005    1.41279E+005    1.12600E+005    2.87629E+005   -2.18036E+005    2.71013E+005    1.28296E+005    1.59097E+005    3.66714E+005    2.56379E+004    5.34583E+004    6.90654E+004
            8764    3.37661E+005    4.43663E+005    4.43663E+005    1.25622E+005    8.93166E+004    3.54346E+005   -2.19534E+005    3.33227E+005    1.05044E+005    1.36247E+005    4.17312E+005    1.36919E+004   -1.71556E+004    8.91215E+004
            8765    2.67860E+005    3.77790E+005    3.77790E+005    1.35864E+005    8.99340E+004    2.87856E+005   -2.01196E+005    2.58778E+005    1.28868E+005    1.38245E+005    3.36475E+005    2.05123E+003   -7.01087E+004    7.24547E+004
            8766    3.79446E+005    4.80426E+005    4.80426E+005    1.16494E+005    8.71674E+004    3.93258E+005   -2.28029E+005    3.76883E+005    9.64533E+004    1.40388E+005    4.47246E+005    8.43991E+003   -1.80792E+004    1.05215E+005
            8767    3.12040E+005    4.19939E+005    4.19939E+005    1.37433E+005    8.50065E+004    3.34933E+005   -2.14126E+005    3.01893E+005    1.32481E+005    1.47138E+005    3.62760E+005   -2.00648E+003   -8.17811E+004    9.56117E+004
            8768    4.07348E+005    4.92824E+005    4.92824E+005    9.57298E+004    7.59435E+004    4.16881E+005   -2.21499E+005    4.06265E+005    8.19255E+004    1.33758E+005    4.48815E+005    3.34207E+003   -1.72574E+004    1.24804E+005
            8769    3.37775E+005    4.25917E+005    4.25917E+005    1.24794E+005    6.06793E+004    3.65238E+005   -2.03797E+005    3.23657E+005    1.20626E+005    1.43463E+005    3.47302E+005   -5.01574E+003   -8.82067E+004    1.21035E+005
            8770    3.93105E+005    4.47479E+005    4.47479E+005    6.34876E+004    4.58545E+004    4.01625E+005   -1.85607E+005    3.92214E+005    4.86351E+004    1.09956E+005    3.98230E+005   -7.34033E+002   -1.78976E+004    1.27840E+005
            8771    3.44192E+005    4.27867E+005    4.27867E+005    1.20647E+005    5.59009E+004    3.71967E+005   -2.01472E+005    3.30071E+005    1.17094E+005    1.42634E+005    3.44687E+005   -6.51324E+003   -8.95778E+004    1.26002E+005
            8772    3.57668E+005    4.37178E+005    4.37178E+005    1.25765E+005    4.65408E+004    3.90637E+005   -2.03161E+005    3.37067E+005    1.25395E+005    1.48611E+005    3.35478E+005   -6.77386E+003   -8.61126E+004    1.48038E+005
            8773    4.43814E+005    5.46451E+005    5.46451E+005    1.55596E+005    6.39776E+004    4.82474E+005   -2.55342E+005    4.21743E+005    1.68935E+005    1.12641E+005    4.84448E+005   -2.16225E+003   -9.21517E+004    1.30387E+005
            8774    4.20373E+005    4.56078E+005    4.56078E+005    3.80072E+004    3.34400E+004    4.22638E+005   -1.75842E+005    4.20317E+005    3.95692E+004    7.87718E+004    4.09184E+005   -8.67818E+003   -2.41353E+004    1.30483E+005
            8775    3.76583E+005    3.70678E+005    3.70678E+005   -1.91429E+002   -1.13696E+004    3.82047E+005   -1.19706E+005    3.76209E+005    2.03729E+003   -7.45768E+003    3.64537E+005   -6.62800E+003   -3.58308E+004    3.10540E+004
            8776    5.21668E+004    4.54293E+003   -5.52937E+004   -1.93712E+004   -5.52937E+004    5.98367E+004    2.33740E+004   -3.63810E+004   -1.48298E+004   -6.10873E+003   -4.91835E+004    1.22221E+004    3.93061E+003   -1.49560E+004
            8777    5.88099E+004    4.11534E+003   -6.30012E+004   -2.04915E+004   -6.30012E+004    6.71165E+004    2.64591E+004   -4.48156E+004   -1.02851E+004   -8.89925E+003   -6.01930E+004    1.33013E+004    3.85475E+003   -1.03499E+004
            8778    6.82099E+004    4.74488E+002   -7.46486E+004   -1.65937E+004   -7.46486E+004    7.51231E+004    3.02559E+004   -6.31314E+004   -7.63758E+003   -9.16776E+003   -7.39625E+004    8.80052E+003    2.80327E+003   -5.68104E+003
            8779    8.42880E+004    2.33542E+003   -8.69640E+004   -8.79302E+003   -8.69640E+004    8.92994E+004    3.11405E+004   -8.26109E+004   -5.15484E+003   -1.53043E+003   -8.67363E+004    5.35161E+003    2.29853E+003   -3.57485E+003
            8780    9.42419E+004   -9.88960E+002   -9.70775E+004   -4.79770E+003   -9.70775E+004    9.60886E+004    3.42881E+004   -9.40685E+004   -3.57515E+003   -2.27294E+003   -9.70161E+004    1.82102E+003    2.11910E+003   -1.08583E+003
            8781    3.33379E+004   -3.89482E+002   -3.83330E+004   -2.49858E+004   -3.83330E+004    3.79435E+004    2.12361E+004    2.62278E+004   -1.37072E+004   -1.36128E+004   -3.63883E+004    1.32271E+004    2.43585E+003   -4.17006E+003
            8782    4.97337E+004   -1.02153E+003   -5.84364E+004   -3.07739E+004   -5.84364E+004    5.74148E+004    3.00773E+004    1.97886E+004   -1.50124E+004   -1.71115E+004   -5.81078E+004    1.46942E+004    2.56633E+003    3.40420E+003
            8783    6.68105E+004    1.80990E+003   -7.28784E+004   -1.88047E+004   -7.28784E+004    7.46883E+004    2.99577E+004   -5.89920E+004   -9.22182E+003   -7.93154E+003   -7.27199E+004    1.02144E+004    1.86204E+003    2.86578E+003
            8784    7.98385E+004   -1.43675E+003   -8.70107E+004   -1.45249E+004   -8.70107E+004    8.55739E+004    3.43241E+004   -7.73696E+004   -9.23311E+003   -6.84365E+003   -8.68955E+004    6.39022E+003    1.08314E+003    2.91173E+003
            8785    9.42716E+004    1.16051E+003   -9.63951E+004   -5.79252E+003   -9.63951E+004    9.75556E+004    3.36757E+004   -9.36921E+004   -5.11509E+003    4.67016E+002   -9.63790E+004    2.06283E+003    7.83105E+002    9.68816E+002
            8786    5.19970E+004    5.40823E+003   -5.45367E+004   -2.16235E+004   -5.45367E+004    5.99449E+004    2.35840E+004   -2.87448E+004   -1.49783E+004   -1.77662E+004   -3.80074E+004    1.51357E+004    1.21304E+002    2.26750E+004
            8787    6.58881E+004    7.07954E+003   -6.87151E+004   -2.51056E+004   -6.87151E+004    7.57946E+004    2.89137E+004   -4.19167E+004   -1.22043E+004   -1.31819E+004   -6.13549E+004    1.70515E+004   -3.54870E+002    1.91478E+004
            8788    7.84732E+004    2.55050E+003   -8.48739E+004   -2.05274E+004   -8.48739E+004    8.74244E+004    3.42836E+004   -7.02074E+004   -9.83189E+003   -1.20337E+004   -8.09852E+004    1.21118E+004   -1.27053E+003    1.63516E+004
            8789    9.40575E+004    4.37888E+003   -9.65292E+004   -1.12905E+004   -9.65292E+004    1.00908E+005    3.44803E+004   -9.10513E+004   -6.36775E+003   -1.64166E+003   -9.54314E+004    7.57661E+003   -2.17155E+003    9.74438E+003
            8790    1.02826E+005   -6.77450E+002   -1.06069E+005   -6.01504E+003   -1.06069E+005    1.05391E+005    3.75870E+004   -1.02514E+005   -4.21292E+003   -2.71149E+003   -1.05837E+005    2.67538E+003   -3.31426E+003    3.49279E+003
            8791    2.69266E+005   -1.14747E+005   -3.96382E+005   -1.41478E+005   -3.96382E+005    2.81635E+005    2.17536E+005   -2.66257E+005   -1.30089E+005   -1.59827E+005   -3.62691E+005    2.50053E+004   -5.26910E+004    6.88683E+004
            8792    3.23373E+005   -8.72967E+004   -4.27147E+005   -1.23256E+005   -4.27147E+005    3.39850E+005    2.12567E+005   -3.18829E+005   -1.03700E+005   -1.32146E+005   -4.01854E+005    1.42533E+004    1.50364E+004    8.57491E+004
            8793    2.54471E+005   -8.96878E+004   -3.62590E+005   -1.31807E+005   -3.62590E+005    2.72903E+005    1.94695E+005   -2.46445E+005   -1.25411E+005   -1.32292E+005   -3.26382E+005    2.73777E+003    6.52001E+004    6.56401E+004
            8794    2.17688E+005   -1.03265E+005   -3.23086E+005   -1.07596E+005   -3.23086E+005    2.19821E+005    1.77982E+005   -2.17591E+005   -1.11480E+005   -1.44734E+005   -2.77733E+005    1.80211E+004   -3.74660E+004    7.95510E+004
            8795    2.45638E+005   -6.40527E+004   -3.27324E+005   -1.04286E+005   -3.27324E+005    2.63271E+005    1.65221E+005   -2.38056E+005   -8.64549E+004   -1.03576E+005   -3.05631E+005    1.73611E+004    1.15610E+004    6.94130E+004
            8796    1.83020E+005   -7.23599E+004   -2.70180E+005   -1.06875E+005   -2.70180E+005    1.97820E+005    1.49805E+005   -1.75472E+005   -9.88712E+004   -1.01977E+005   -2.48567E+005    6.29638E+003    4.61017E+004    4.10196E+004
            8797    1.83546E+005   -1.89018E+004   -2.19863E+005   -6.10722E+004   -2.19863E+005    2.00961E+005    9.99456E+004   -1.72132E+005   -6.44740E+004   -8.59913E+004   -1.49372E+005    1.31527E+004   -1.88690E+004    9.35559E+004
            8798    1.50085E+005   -1.67899E+004   -1.83685E+005   -5.97996E+004   -1.83685E+005    1.66895E+005    8.67580E+004   -1.35142E+005   -4.74853E+004   -5.48240E+004   -1.57965E+005    1.87900E+004    5.66400E+003    5.75076E+004
            8799    9.48852E+004   -3.33474E+004   -1.38846E+005   -6.04905E+004   -1.38846E+005    1.05499E+005    7.75614E+004   -8.54742E+004   -5.21343E+004   -5.23540E+004   -1.28196E+005    8.24614E+003    2.24352E+004    2.25128E+004
            8800    1.73375E+005    1.07356E+005    1.07356E+005    3.13865E+003   -9.27824E+004    2.00139E+005   -5.90414E+003    7.20346E+004    3.35010E+003    4.69390E+003    9.66841E+003    1.13926E+004    1.29673E+003    9.93833E+004
            8801    9.92936E+004    7.01039E+004    7.01039E+004    8.56689E+003   -4.44448E+004    1.14549E+005   -1.14087E+004    5.01024E+004    6.71442E+003    7.82199E+003    1.96896E+004    1.90916E+004   -6.24654E+002    5.35704E+004
            8802    3.52230E+004    3.19388E+004    3.19388E+004    1.28375E+004   -8.70873E+003    4.06476E+004   -1.20225E+004   -1.65616E+004    8.45785E+003    8.31974E+003    1.92900E+004    8.92678E+003   -2.99601E+003    1.68901E+004
            8803    1.87015E+005    2.31992E+005    2.31992E+005    6.51257E+004    2.98511E+004    2.02141E+005   -1.08990E+005    1.79300E+005    6.89458E+004    9.32879E+004    1.64735E+005    1.36115E+004    2.09716E+004    9.24899E+004
            8804    1.69816E+005    2.16925E+005    2.16925E+005    7.25075E+004    2.98449E+004    1.87080E+005   -1.06426E+005    1.57066E+005    5.80677E+004    6.74145E+004    1.93795E+005    1.87199E+004   -7.55858E+003    5.88056E+004
            8805    1.17138E+005    1.75391E+005    1.75391E+005    7.53135E+004    4.65510E+004    1.28840E+005   -9.90852E+004    1.08759E+005    6.68903E+004    6.78617E+004    1.62504E+005    7.92463E+003   -2.85666E+004    2.60433E+004
            8806    2.25511E+005    3.33639E+005    3.33639E+005    1.11903E+005    1.04533E+005    2.29106E+005   -1.83359E+005    2.25240E+005    1.13219E+005    1.47552E+005    2.89304E+005    1.85796E+004    3.93679E+004    7.96475E+004
            8807    2.61919E+005    3.51122E+005    3.51122E+005    1.11331E+005    7.16127E+004    2.79509E+005   -1.78022E+005    2.55011E+005    9.22795E+004    1.12183E+005    3.29603E+005    1.68851E+004   -1.28572E+004    7.13089E+004
            8808    2.02516E+005    2.98624E+005    2.98624E+005    1.16927E+005    8.02915E+004    2.18332E+005   -1.65281E+005    1.94850E+005    1.09279E+005    1.12755E+005    2.73808E+005    5.72420E+003   -5.16381E+004    4.62050E+004
            8809    1.81066E+005    2.50217E+003   -1.84411E+005   -9.82227E+003   -1.84411E+005    1.86914E+005    6.39105E+004   -1.80119E+005   -1.04269E+004    1.41597E+003   -1.82721E+005    3.61726E+003   -1.52524E+004    7.78922E+003
            8810    1.69724E+005    2.37925E+003   -1.77705E+005   -2.07055E+004   -1.77705E+005    1.80085E+005    6.53438E+004   -1.66137E+005   -1.71521E+004   -6.72837E+003   -1.72151E+005    1.18921E+004   -1.40560E+004    2.60778E+004
            8811    1.75753E+005    1.96005E+004   -1.73559E+005   -2.30685E+004   -1.73559E+005    1.93159E+005    5.90088E+004   -1.63479E+005   -1.74438E+004    2.09909E+002   -1.59793E+005    2.06715E+004   -1.35826E+004    4.45943E+004
            8812    1.95593E+005    3.42038E+004   -1.87198E+005   -3.78616E+004   -1.87198E+005    2.21401E+005    6.36185E+004   -1.61388E+005   -3.20978E+004   -4.31570E+003   -1.54442E+005    3.30629E+004   -1.45681E+004    7.11842E+004
            8813    2.27682E+005    7.34916E+004   -1.88234E+005   -3.58313E+004   -1.88234E+005    2.61725E+005    5.01912E+004   -1.49028E+005   -3.47947E+004    2.26892E+004   -1.38468E+005    3.41093E+004   -1.40343E+004    9.61696E+004
            8814    1.52294E+005   -6.00372E+002   -1.56163E+005   -7.36315E+003   -1.56163E+005    1.55563E+005    5.47089E+004   -1.51956E+005   -6.49181E+003   -2.98502E+003   -1.54650E+005    3.74691E+003   -1.27996E+004    7.68563E+003
            8815    1.45313E+005    9.24071E+003   -1.45919E+005   -1.30217E+004   -1.45919E+005    1.55160E+005    4.99001E+004   -1.41400E+005   -9.06739E+003    5.99292E+002   -1.41232E+005    1.11207E+004   -1.05321E+004    2.29032E+004
            8816    1.39530E+005    1.20283E+004   -1.41081E+005   -2.10901E+004   -1.41081E+005    1.53109E+005    5.00476E+004   -1.30239E+005   -1.40693E+004   -9.77068E+003   -1.26303E+005    1.84112E+004   -9.48958E+003    4.11669E+004
            8817    1.43247E+005    2.78642E+004   -1.34546E+005   -2.61987E+004   -1.34546E+005    1.62411E+005    4.42936E+004   -1.16738E+005   -1.93904E+004   -7.15347E+003   -1.06337E+005    2.72000E+004   -8.70054E+003    5.56764E+004
            8818    1.66244E+005    4.96056E+004   -1.41293E+005   -2.83758E+004   -1.41293E+005    1.90899E+005    4.00212E+004   -1.12583E+005   -2.70998E+004   -3.15697E+003   -8.98068E+004    2.61781E+004   -7.24999E+003    8.04499E+004
            8819    1.23993E+005    1.74535E+003   -1.27212E+005   -8.86623E+003   -1.27212E+005    1.28958E+005    4.47777E+004   -1.22965E+005   -8.47052E+003    6.79771E+002   -1.26542E+005    3.09863E+003   -6.66869E+003    5.97003E+003
            8820    1.10310E+005    3.46085E+002   -1.18097E+005   -1.82964E+004   -1.18097E+005    1.18443E+005    4.53490E+004   -1.06679E+005   -1.35008E+004   -7.87681E+003   -1.14669E+005    9.39835E+003   -5.37850E+003    1.80807E+004
            8821    1.03362E+005    8.78261E+003   -1.06153E+005   -2.08276E+004   -1.06153E+005    1.14936E+005    3.93995E+004   -9.30788E+004   -1.33093E+004   -7.34094E+003   -9.75481E+004    1.49676E+004   -4.02226E+003    2.78603E+004
            8822    9.97727E+004    1.24100E+004   -1.01347E+005   -2.86858E+004   -1.01347E+005    1.13757E+005    3.92076E+004   -7.69478E+004   -2.07539E+004   -1.69975E+004   -7.98714E+004    2.11942E+004   -3.12148E+003    4.01943E+004
            8823    9.75337E+004    2.64106E+004   -8.56751E+004   -2.01241E+004   -8.56751E+004    1.12086E+005    2.64629E+004   -6.44657E+004   -1.77249E+004   -1.26664E+004   -4.89973E+004    1.93457E+004   -2.36175E+003    4.90292E+004
            8824    3.77542E+005   -3.74564E+004   -4.47282E+005   -1.13644E+005   -4.47282E+005    4.09826E+005    1.99461E+005   -3.59631E+005   -1.16214E+005   -6.75970E+004   -4.14572E+005    4.22052E+004   -6.05155E+004    8.23030E+004
            8825    3.73899E+005    1.96488E+003   -4.15485E+005   -1.11354E+005   -4.15485E+005    4.17450E+005    1.74958E+005   -3.31835E+005   -1.12101E+005   -3.00558E+004   -3.82717E+005    4.82686E+004   -5.19615E+004    8.66875E+004
            8826    3.75998E+005    3.77215E+004   -3.86848E+005   -9.59500E+004   -3.86848E+005    4.24570E+005    1.48359E+005   -3.15478E+005   -9.73869E+004    5.31525E+003   -3.53005E+005    4.90158E+004   -4.81938E+004    9.13931E+004
            8827    3.39631E+005    7.43304E+004   -3.13665E+005   -7.02314E+004   -3.13665E+005    3.87995E+005    1.03189E+005   -2.55218E+005   -7.01878E+004    3.80440E+004   -2.77422E+005    4.67734E+004   -3.51832E+004    9.65794E+004
            8828    2.95956E+005    7.92620E+004   -2.59851E+005   -5.36679E+004   -2.59851E+005    3.39113E+005    7.80857E+004   -2.11254E+005   -5.32207E+004    3.32613E+004   -2.14298E+005    4.15292E+004   -2.44511E+004    1.05304E+005
            8829    2.37357E+005    4.13431E+004   -2.24371E+005   -3.33283E+004   -2.24371E+005    2.65714E+005    7.21186E+004   -2.08364E+005   -2.73004E+004    7.93231E+003   -1.96988E+005    3.67503E+004   -2.47279E+004    6.93748E+004
            8830    2.14877E+005    1.54796E+004   -2.15125E+005   -2.05246E+004   -2.15125E+005    2.30605E+005    7.33900E+004   -2.07927E+005   -1.59979E+004   -3.46289E+003   -2.00709E+005    2.01097E+004   -2.09365E+004    4.84875E+004
            8831    2.05848E+005    1.13188E+004   -2.04196E+005   -9.61375E+003   -2.04196E+005    2.15515E+005    6.74970E+004   -2.03433E+005   -7.47523E+003    4.41299E+003   -1.99429E+005    1.07020E+004   -1.92720E+004    2.34255E+004
            8832    2.03956E+005    2.25037E+002   -2.06085E+005   -4.56757E+003   -2.06085E+005    2.06310E+005    7.01426E+004   -2.03829E+005   -3.32217E+003   -3.38622E+003   -2.03719E+005    2.96440E+003   -2.05291E+004    7.33092E+003
            8833    2.87670E+005    2.70032E+004   -2.91330E+005   -4.99933E+004   -2.91330E+005    3.18333E+005    1.04773E+005   -2.62947E+005   -4.60118E+004   -6.57469E+003   -2.61734E+005    3.71724E+004   -3.16473E+004    7.95934E+004
            8834    2.43736E+005    1.23117E+004   -2.46144E+005   -2.04400E+004   -2.46144E+005    2.58456E+005    8.47576E+004   -2.38710E+005   -1.86826E+004   -8.50821E+002   -2.34739E+005    1.58796E+004   -2.26932E+004    4.56612E+004
            8835    2.22227E+005   -5.00492E+003   -2.33022E+005   -1.70764E+004   -2.33022E+005    2.28017E+005    8.50344E+004   -2.21488E+005   -1.69762E+004   -1.00808E+004   -2.28046E+005    6.72167E+003   -1.90214E+004    2.65236E+004
            8836    2.19352E+005    1.99706E+003   -2.20286E+005   -3.98670E+003   -2.20286E+005    2.22283E+005    7.40919E+004   -2.19169E+005   -5.32039E+003    1.73557E+003   -2.18691E+005    1.09440E+003   -1.72424E+004    6.77533E+003
            8837    3.18823E+005    1.45189E+004   -3.27417E+005   -3.83058E+004   -3.27417E+005    3.41936E+005    1.17068E+005   -3.08746E+005   -3.57948E+004   -1.67465E+004   -2.98663E+005    3.30782E+004   -4.16946E+004    7.89108E+004
            8838    2.87372E+005   -4.22574E+003   -2.96616E+005   -1.45407E+004   -2.96616E+005    2.92391E+005    1.05128E+005   -2.86955E+005   -1.68818E+004   -1.83579E+004   -2.80143E+005    8.48752E+003   -2.73329E+004    6.11153E+004
            8839    2.59157E+005    4.14566E+003   -2.57597E+005   -1.10596E+003   -2.57597E+005    2.61743E+005    8.48524E+004   -2.59037E+005   -2.26292E+003    5.81695E+002   -2.52876E+005    6.03986E+002   -2.11953E+004    2.76012E+004
            8840    2.34626E+005    6.43947E+003   -2.34290E+005   -6.28574E+003   -2.34290E+005    2.40729E+005    7.80454E+004   -2.33847E+005    4.40533E+003   -6.19565E+003   -2.32346E+005   -1.72853E+003   -1.89869E+004    1.00839E+004
            8841    3.70741E+005   -1.32109E+004   -4.05000E+005   -5.96882E+004   -4.05000E+005    3.91789E+005    1.59300E+005   -3.64101E+005   -5.83500E+004   -5.19916E+004   -3.67557E+005    2.85471E+004   -3.69716E+004    1.05338E+005
            8842    3.10296E+005   -9.42124E+003   -3.26549E+005   -2.35676E+004   -3.26549E+005    3.17127E+005    1.19846E+005   -3.09569E+005   -2.13976E+004   -2.84176E+004   -3.09722E+005   -2.02968E+003   -1.69161E+004    6.89362E+004
            8843    2.85264E+005   -1.11737E+004   -3.04205E+005   -2.74017E+004   -3.04205E+005    2.93032E+005    1.14260E+005   -2.84223E+005   -2.17287E+004   -2.61737E+004   -2.94878E+005   -6.34668E+003   -8.71849E+003    5.03664E+004
            8844    2.61264E+005    5.16388E+003   -2.60827E+005   -4.56126E+003   -2.60827E+005    2.65991E+005    8.67416E+004   -2.60857E+005   -2.10378E+003    1.99845E+003   -2.60119E+005   -4.08823E+003   -3.23150E+003    1.32956E+004
            8845    3.81338E+005   -3.27059E+004   -4.18035E+005   -4.08173E+004   -4.18035E+005    3.85329E+005    1.63853E+005   -3.81144E+005   -3.71439E+004   -8.10570E+004   -3.73358E+005    1.46144E+004   -3.62921E+004    1.16366E+005
            8846    3.76990E+005   -3.63467E+003   -3.93236E+005   -3.02682E+004   -3.93236E+005    3.89601E+005    1.42379E+005   -3.74865E+005   -2.07063E+004   -4.85226E+004   -3.57910E+005   -9.94037E+003   -1.10176E+004    1.10093E+005
            8847    3.37201E+005    1.08944E+004   -3.37362E+005   -1.24275E+004   -3.37362E+005    3.48257E+005    1.12965E+005   -3.35379E+005   -3.36565E+003   -9.04345E+003   -3.26486E+005   -1.04452E+004   -6.17591E+003    5.96052E+004
            8848    2.96696E+005    3.19877E+003   -3.02914E+005   -1.66293E+004   -3.02914E+005    3.06113E+005    1.05448E+005   -2.95200E+005   -4.49842E+002   -1.56786E+004   -3.00216E+005   -7.58795E+003   -1.34504E+003    2.78309E+004
            8849    4.09931E+005    9.62201E+003   -4.10124E+005   -1.07674E+004   -4.10124E+005    4.19746E+005    1.37090E+005   -4.08788E+005   -1.84625E+004    7.02422E+003   -3.99831E+005   -5.26848E+003    5.48045E+004    3.23462E+004
            8850    4.70299E+005   -6.59083E+004   -5.81208E+005   -1.75130E+005   -5.81208E+005    5.15300E+005    2.74082E+005   -4.40386E+005   -1.91324E+005   -1.13892E+005   -5.17030E+005   -1.22885E+003    9.90415E+004    1.34720E+005
            8851    4.39342E+005   -3.14897E+004   -4.82563E+005   -5.59768E+004   -4.82563E+005    4.51073E+005    1.90010E+005   -4.37803E+005   -5.95760E+004   -7.40844E+004   -4.36369E+005   -8.39573E+003    4.70565E+004    1.28388E+005
            8852    3.67654E+005   -4.81002E+004   -4.54269E+005   -1.44225E+005   -4.54269E+005    4.06168E+005    2.15531E+005   -3.37603E+005   -1.43391E+005   -1.58320E+005   -3.44883E+005   -3.57693E+003    9.08469E+004    1.55518E+005
            8853    3.82530E+005   -3.46308E+004   -4.28932E+005   -5.93756E+004   -4.28932E+005    3.94301E+005    1.74313E+005   -3.80723E+005   -4.35482E+004   -1.05095E+005   -3.74296E+005   -6.77257E+003    4.27227E+004    1.26346E+005
            8854    3.42409E+005   -6.14794E+004   -4.36857E+005   -1.41638E+005   -4.36857E+005    3.75377E+005    2.13325E+005   -3.20262E+005   -1.40052E+005   -1.51950E+005   -3.47971E+005   -2.41312E+003    8.80728E+004    1.32989E+005
            8855    4.03534E+005   -4.95868E+004   -4.64820E+005   -7.41031E+004   -4.64820E+005    4.15234E+005    1.96170E+005   -4.01854E+005   -5.48436E+004   -1.16939E+005   -4.16728E+005    3.25486E+002    2.51838E+004    1.27269E+005
            8856    3.41525E+005   -6.28874E+004   -4.33939E+005   -1.32744E+005   -4.33939E+005    3.71052E+005    2.09857E+005   -3.24862E+005   -1.31858E+005   -1.50002E+005   -3.47711E+005   -5.48964E+003    8.65588E+004    1.30468E+005
            8857    3.32034E+005   -7.09700E+004   -4.28681E+005   -1.30330E+005   -4.28681E+005    3.57711E+005    2.09993E+005   -3.19768E+005   -1.24626E+005   -1.46799E+005   -3.58555E+005   -3.87676E+003    8.61670E+004    1.12398E+005
            8858    3.04664E+005   -8.40177E+004   -4.11256E+005   -1.35804E+005   -4.11256E+005    3.27238E+005    2.10359E+005   -2.94517E+005   -1.30482E+005   -1.43926E+005   -3.56670E+005   -9.63086E+002    7.87235E+004    9.29596E+004
            8859    3.99445E+005   -7.28427E+004   -4.84337E+005   -9.81434E+004   -4.84337E+005    4.11494E+005    2.18441E+005   -3.97636E+005   -8.05963E+004   -1.32607E+005   -4.42120E+005    7.58340E+003    1.34373E+004    1.21437E+005
            8860    3.77127E+005   -8.89152E+004   -4.80273E+005   -1.19202E+005   -4.80273E+005    3.91357E+005    2.29463E+005   -3.74377E+005   -1.00694E+005   -1.40086E+005   -4.47609E+005    1.03923E+004    1.61100E+004    1.04701E+005
            8861    3.19239E+005   -1.01524E+005   -4.36823E+005   -1.36530E+005   -4.36823E+005    3.35299E+005    2.24959E+005   -3.14877E+005   -1.26453E+005   -1.42714E+005   -4.05711E+005    3.17033E+004   -6.20205E+004    6.74537E+004
            8862    3.63800E+005   -6.86320E+004   -4.52001E+005   -1.11583E+005   -4.52001E+005    3.83369E+005    2.10739E+005   -3.58030E+005   -1.08232E+005   -1.06433E+005   -4.17552E+005    3.82827E+004   -6.67499E+004    7.82066E+004
            8863    9.74434E+004    6.07308E+004    6.07308E+004   -1.63779E+003   -5.15573E+004    1.12288E+005   -2.51190E+003    5.60774E+004   -1.70187E+003   -4.46687E+004    5.39062E+004    1.85995E+003   -7.34229E+001    2.68149E+004
            8864    7.61237E+004    6.06451E+004    6.06451E+004    2.10603E+003   -2.54109E+004    8.60560E+004   -1.24467E+004    6.33903E+004    1.59838E+003   -2.48727E+004    6.06145E+004    3.78823E+003   -1.27445E+003    5.88444E+002
            8865    7.07616E+004    6.83455E+004    6.83455E+004    6.95409E+003   -9.04628E+003    7.73918E+004   -2.20844E+004    6.65063E+004    4.63106E+003   -3.36184E+003    6.49841E+004    6.64328E+003   -2.90044E+003   -1.48413E+004
            8866    6.56464E+004    7.20116E+004    7.20116E+004    1.51598E+004    1.65041E+002    7.18466E+004   -2.91121E+004    6.16140E+004    8.03975E+003    1.46955E+004    6.46012E+004    9.29583E+003   -3.86675E+003   -1.94792E+004
            8867    7.53430E+004    7.73538E+004    7.73538E+004    4.55267E+003   -2.96699E+002    7.76505E+004   -2.72033E+004    7.49907E+004    1.26699E+003    4.76187E+003    7.55809E+004    2.47214E+003   -1.23464E+003   -1.12339E+004
            8868    9.55497E+004    9.77351E+004    9.77351E+004    2.93719E+003    1.45105E+003    9.62841E+004   -3.40411E+004    9.55236E+004    2.20086E+003    2.33365E+003    9.75888E+004    7.96704E+002   -1.48787E+003   -3.41439E+003
            8869    7.74646E+004    7.60713E+004    7.60713E+004    1.63598E+003   -4.10339E+003    8.01747E+004   -2.45346E+004    7.69841E+004    5.54748E+002   -2.14000E+003    7.51891E+004    2.32468E+003   -5.75228E+002   -8.26417E+003
            8870    1.01802E+005    1.01330E+005    1.01330E+005    9.82146E+002   -1.86667E+003    1.03196E+005   -3.34817E+004    1.01712E+005    6.64633E+002   -1.49781E+003    1.01278E+005    9.16252E+002   -6.54823E+002   -2.19438E+003
            8871    8.03080E+004    7.27003E+004    7.27003E+004    1.20025E+003   -1.41887E+004    8.68890E+004   -1.99040E+004    7.68850E+004    8.28957E+002   -1.35984E+004    7.24813E+004    2.36328E+003   -2.81301E+001    4.34560E+003
            8872    9.94386E+004    9.84860E+004    9.84860E+004    1.87810E+003   -3.56006E+003    1.02046E+005   -3.22680E+004    9.91032E+004    1.77080E+003   -3.27027E+003    9.83035E+004    7.84347E+002    4.51779E+002    4.28040E+003
            8873    8.92081E+004    7.08342E+004    7.08342E+004    8.32432E+002   -2.96105E+004    1.00445E+005   -1.40187E+004    7.61320E+004    6.47601E+002   -1.95145E+004    6.09231E+004    2.57051E+003    3.71707E+001    2.99073E+004
            8874    8.91645E+004    8.63435E+004    8.63435E+004    8.00511E+002   -6.04750E+003    9.23910E+004   -2.70322E+004    8.85699E+004    7.82330E+002   -4.14758E+003    8.44618E+004    8.49457E+002    1.65301E+003    1.29210E+004
            8875    7.10340E+004    6.69357E+004    6.69357E+004    7.55399E+002   -8.11814E+003    7.50539E+004   -1.98577E+004    6.97707E+004    8.47315E+002   -2.43115E+003    6.11568E+004    3.31792E+002    2.75518E+003    1.98076E+004
            8876    5.26539E+004    4.05143E+004    4.05143E+004   -2.82153E+002   -1.89245E+004    5.94389E+004   -7.10255E+003    4.42586E+004   -1.72394E+002   -2.21288E+003    2.36929E+004    1.58734E+003    1.63464E+003    2.66736E+004
            8877    1.04102E+005    7.25166E+004    7.25166E+004    2.65213E+002   -4.68082E+004    1.19325E+005   -8.65788E+003    7.37611E+004    2.44317E+002   -1.56702E+004    4.13996E+004    1.39388E+003    6.05679E+001    5.23751E+004
            8878    1.18100E+005    7.27443E+004    7.27443E+004   -9.28847E+001   -6.35180E+004    1.36262E+005   -3.04446E+003    5.81370E+004   -1.23794E+002   -5.41004E+003    1.46672E+004    2.93648E+003   -3.85645E+001    6.73224E+004
            8879    1.59914E+005    9.35740E+004    9.35740E+004    2.57803E+001   -9.10736E+004    1.84648E+005   -8.42059E+002    4.54566E+004    1.06251E+001   -9.04900E+003    1.15646E+004    2.75254E+003   -8.25576E+001    9.17053E+004
            8880    1.93630E+005    1.09861E+005   -1.13713E+005   -5.88480E+001   -1.13713E+005    2.23574E+005    1.30389E+003   -5.94423E+004   -8.83607E+001   -1.33734E+004    9.55005E+003    1.97929E+003   -7.69848E+002    1.11178E+005
            8881    2.22536E+005    1.24778E+005   -1.32147E+005    1.88413E+002   -1.32147E+005    2.56924E+005    2.39355E+003   -8.31630E+004    1.82025E+002   -1.52705E+004    7.90783E+003    6.32029E+002   -6.75940E+002    1.27935E+005
            8882    2.48311E+005    1.39377E+005   -1.47301E+005    4.92508E+002   -1.47301E+005    2.86678E+005    2.47699E+003   -9.37346E+004    4.96495E+002   -1.43276E+004    6.40010E+003   -3.11719E+002   -8.14438E+002    1.42961E+005
            8883    1.43610E+005    8.49529E+004    8.49529E+004    4.68862E+002   -8.08632E+004    1.65816E+005   -1.51952E+003    4.60247E+004    4.18596E+002   -3.22839E+004    3.64238E+004    1.67062E+003   -1.14049E+003    7.54280E+004
            8884    1.86426E+005    1.00913E+005   -1.14193E+005    5.49253E+002   -1.14193E+005    2.15106E+005    4.24358E+003   -9.07789E+004    4.96974E+002   -4.46050E+004    3.13773E+004    1.75131E+003   -1.90433E+003    1.00588E+005
            8885    2.23023E+005    1.17231E+005   -1.39913E+005    7.78444E+002   -1.39913E+005    2.57144E+005    7.30139E+003   -1.21675E+005    7.41232E+002   -4.92560E+004    2.66106E+004    1.43366E+003   -2.39411E+003    1.22819E+005
            8886    2.55196E+005    1.34037E+005   -1.60231E+005    3.10221E+002   -1.60231E+005    2.94268E+005    8.62791E+003   -1.37679E+005    3.07960E+002   -4.88074E+004    2.26157E+004    4.33863E+002   -2.08928E+003    1.42719E+005
            8887    2.74166E+005    1.25436E+005   -1.90194E+005   -1.11513E+004   -1.90194E+005    3.15629E+005    2.53031E+004   -1.68082E+005   -1.12398E+004   -1.07567E+005    4.28976E+004   -3.11752E+003    6.24927E+003    1.38559E+005
            8888    2.24435E+005    9.85114E+004   -1.59536E+005   -9.78611E+003   -1.59536E+005    2.58047E+005    2.36036E+004   -1.45753E+005   -9.85181E+003   -1.06029E+005    4.50698E+004   -2.93595E+003    5.18896E+003    1.04428E+005
            8889    1.76310E+005    8.08048E+004   -1.22162E+005   -6.94810E+003   -1.22162E+005    2.02967E+005    1.61017E+004   -1.08295E+005   -6.91467E+003   -8.87972E+004    4.74067E+004   -1.10726E+003    3.46038E+003    7.51487E+004
            8890    1.28935E+005    6.95418E+004   -7.93037E+004   -2.07497E+003   -7.93037E+004    1.48846E+005    3.94562E+003   -5.19066E+004   -2.04137E+003   -6.15916E+004    5.17961E+004    7.64569E+002    1.38928E+003    4.81865E+004
            8891    9.45194E+004    9.44194E+004    9.44194E+004    1.05555E+003   -1.21476E+003    9.56341E+004   -3.14201E+004    9.44581E+004   -6.47651E+002    5.28694E+002    9.43791E+004    9.93601E+002   -1.16523E+003   -1.54926E+003
            8892    7.09843E+004    7.59142E+004    7.59142E+004    1.11325E+004    3.46364E+001    7.58796E+004   -2.90271E+004    6.89919E+004    9.49593E+002    1.06314E+004    7.55004E+004    3.11377E+003   -1.45304E+003   -4.95258E+003
            8893    5.65212E+004    6.67801E+004    6.67801E+004    2.42876E+004    2.63347E+003    6.41466E+004   -3.12337E+004    4.56822E+004    8.55530E+003    2.61771E+004    5.89687E+004    1.13501E+004   -3.42387E+003   -1.64250E+004
            8894    9.33878E+004    9.70112E+004    9.70112E+004    4.93900E+003    2.36118E+003    9.46500E+004   -3.47705E+004    9.33077E+004    3.01655E+003    4.34952E+003    9.69453E+004    1.10869E+003   -4.91397E+002    2.42797E+003
            8895    7.22168E+004    7.81760E+004    7.81760E+004    1.25768E+004    7.91326E+002    7.73847E+004   -3.05147E+004    7.00040E+004    2.39522E+003    1.12727E+004    7.78762E+004    3.97063E+003   -1.06670E+003    4.41411E+003
            8896    4.41178E+004    5.41000E+004    5.41000E+004    4.05115E+004    4.78634E+003    4.93137E+004   -3.31326E+004   -3.89752E+004    1.00319E+004    3.54434E+004    5.39225E+004    1.25499E+004   -2.37907E+003   -1.82980E+002
            8897    1.09517E+005    1.08527E+005    1.08527E+005    6.01259E+002   -2.51379E+003    1.11041E+005   -3.55382E+004    1.09417E+005   -1.66300E+003    1.51748E+002    1.08126E+005    1.46728E+003    1.49917E+003    6.40421E+003
            8898    8.69710E+004    9.21868E+004    9.21868E+004    1.25208E+004   -5.98675E+002    9.27855E+004   -3.47030E+004    8.47018E+004    1.54497E+003    1.48451E+004    8.77189E+004    5.02359E+003    2.29602E+002    1.85417E+004
            8899    6.17521E+004    7.29333E+004    7.29333E+004    3.06373E+004    2.07012E+003    7.08632E+004   -3.52136E+004    4.25864E+004    9.64546E+003    4.06755E+004    5.53198E+004    1.45658E+004   -5.51190E+002    2.26877E+004
            8900    2.54964E+005    1.51444E+005    1.51444E+005   -3.07783E+002   -1.42916E+005    2.94360E+005   -2.73975E+003    9.62302E+004   -3.13533E+002    1.49298E+004   -6.39703E+003   -5.69052E+002    7.10592E+002    1.46790E+005
            8901    2.63175E+005    1.64620E+005    1.64620E+005   -4.96074E+002   -1.38876E+005    3.03496E+005   -8.41582E+003    1.40408E+005   -4.92712E+002    4.83023E+004   -2.25621E+004    4.42488E+002    1.88953E+003    1.47541E+005
            8902    2.79642E+005    1.93414E+005    1.93414E+005    1.10974E+004   -1.28547E+005    3.21961E+005   -2.53215E+004    1.70615E+005    1.11945E+004    1.07003E+005   -4.22331E+004   -3.18575E+003   -6.25327E+003    1.42477E+005
            8903    2.76856E+005    1.63023E+005    1.63023E+005   -5.55551E+002   -1.56633E+005    3.19657E+005   -1.94482E+003    9.51787E+004   -5.64440E+002    1.12515E+004   -4.85260E+003   -1.24899E+003    5.76129E+002    1.59619E+005
            8904    2.91952E+005    1.79281E+005    1.79281E+005    1.35358E+002   -1.57609E+005    3.36891E+005   -7.26916E+003    1.39785E+005    1.28936E+002    3.85577E+004   -1.68791E+004   -3.05042E+002    1.23126E+003    1.66144E+005
            8905    3.23571E+005    2.12599E+005    2.12599E+005    9.42650E+003   -1.60535E+005    3.73135E+005   -2.04968E+004    1.73219E+005    9.50102E+003    8.67847E+004   -3.47952E+004   -2.40085E+003   -5.47147E+003    1.76288E+005
            8906    2.92654E+005    1.70869E+005    1.70869E+005   -1.56725E+002   -1.67050E+005    3.37919E+005   -1.22087E+003    8.09725E+004   -1.60891E+002    6.26897E+003   -2.44548E+003   -1.58562E+003    2.32094E+002    1.68896E+005
            8907    3.12267E+005    1.85718E+005    1.85718E+005   -2.20958E+002   -1.74798E+005    3.60516E+005   -3.56641E+003    1.18432E+005   -2.26897E+002    1.99661E+004   -9.04000E+003   -8.29806E+002    6.39216E+002    1.79670E+005
            8908    3.54225E+005    2.18874E+005    2.18874E+005    5.34342E+003   -1.90015E+005    4.08889E+005   -1.14011E+004    1.50625E+005    5.38089E+003    4.81727E+004   -1.93504E+004   -1.53404E+003   -3.09622E+003    2.01609E+005
            8909    2.97403E+005    1.71306E+005   -1.72105E+005   -9.79817E+001   -1.72105E+005    3.43411E+005    2.98936E+002   -4.30857E+004   -9.81034E+001   -1.14595E+003    3.47250E+002   -1.64888E+003    4.19938E+000    1.71696E+005
            8910    3.18566E+005    1.83297E+005   -1.84550E+005    1.01056E+002   -1.84550E+005    3.67847E+005    3.83836E+002   -6.04993E+004    1.00964E+002   -2.57771E+003    1.32524E+003   -1.03771E+003    4.71731E+000    1.83910E+005
            8911    3.64758E+005    2.09696E+005   -2.11489E+005   -2.16769E+002   -2.11489E+005    4.21185E+005    6.70045E+002   -6.47432E+004   -2.18331E+002   -2.97974E+003    1.18793E+003   -1.14180E+003    1.40276E+002    2.10579E+005
            8912    2.89184E+005    1.64897E+005   -1.69012E+005    4.20580E+002   -1.69012E+005    3.33909E+005    1.23158E+003   -8.53473E+004    4.26698E+002   -7.32006E+003    3.19864E+003   -1.49793E+003   -3.51553E+002    1.66864E+005
            8913    3.08293E+005    1.70756E+005   -1.85141E+005   -3.01375E+002   -1.85141E+005    3.55897E+005    4.89564E+003   -1.25224E+005   -2.95488E+002   -2.53244E+004    1.09330E+004   -9.43596E+002   -5.63313E+002    1.77019E+005
            8914    3.51735E+005    1.87649E+005   -2.18344E+005   -5.61790E+003   -2.18344E+005    4.05993E+005    1.21041E+004   -1.53366E+005   -5.65709E+003   -5.22363E+004    2.15811E+004   -1.54443E+003    3.36330E+003    1.99580E+005
            8915    2.71061E+005    1.52740E+005   -1.60219E+005    3.42028E+002   -1.60219E+005    3.12959E+005    2.37870E+003   -9.65236E+004    3.49453E+002   -1.26329E+004    5.14736E+003   -1.09501E+003   -5.36923E+002    1.56222E+005
            8916    2.85034E+005    1.53212E+005   -1.75651E+005    2.61379E+002   -1.75651E+005    3.28862E+005    7.39253E+003   -1.40815E+005    2.71169E+002   -4.06154E+004    1.81667E+004   -4.05767E+002   -1.40986E+003    1.61776E+005
            8917    3.19242E+005    1.56840E+005   -2.11228E+005   -9.58410E+003   -2.11228E+005    3.68068E+005    2.13238E+004   -1.75031E+005   -9.65907E+003   -9.02264E+004    3.59141E+004   -2.46206E+003    5.55836E+003    1.72786E+005
            8918    2.31269E+005    2.24243E+005    2.24243E+005    2.89674E+004   -3.11485E+004    2.55391E+005   -7.40205E+004    2.12598E+005    2.38272E+004    3.46821E+004    1.63552E+005    2.93108E+004    1.06005E+004    1.03998E+005
            8919    1.80194E+005    1.77325E+005    1.77325E+005    5.75373E+003   -1.04024E+004    1.87728E+005   -5.75588E+004    1.78553E+005    4.24366E+003    5.19048E+003    1.63242E+005    6.88863E+003    5.58884E+003    4.86577E+004
            8920    1.78644E+005    1.84896E+005    1.84896E+005    8.23588E+003    4.33251E+003    1.80564E+005   -6.58216E+004    1.78548E+005    7.87345E+003    6.41428E+003    1.83177E+005    1.93725E+003    5.96320E+003    1.63964E+004
            8921    1.69869E+005    1.66525E+005    1.66525E+005    2.23478E+004   -2.07382E+004    1.87263E+005   -5.60447E+004    1.56852E+005    1.63017E+004    4.07767E+004    1.11056E+005    2.38871E+004    5.45019E+003    8.12326E+004
            8922    1.49599E+005    1.48814E+005    1.48814E+005    5.23105E+003   -6.15137E+003    1.54966E+005   -4.92979E+004    1.48621E+005    1.32872E+003    1.31101E+004    1.33455E+005    7.07999E+003    3.89611E+003    4.52568E+004
            8923    1.60285E+005    1.57308E+005    1.57308E+005   -1.36742E+003   -4.53826E+003    1.61847E+005   -5.04676E+004    1.60214E+005   -2.83848E+003   -1.60783E+003    1.55849E+005    2.09354E+003    5.68898E+003    1.40595E+004
            8924    1.13616E+005    1.19530E+005    1.19530E+005    2.28017E+004   -5.58848E+003    1.25119E+005   -4.55813E+004    1.05182E+005    1.45021E+004    4.66426E+004    7.55991E+004    1.84976E+004    1.71378E+003    5.49883E+004
            8925    1.12018E+005    1.15294E+005    1.15294E+005    8.91350E+003   -1.61693E+003    1.16911E+005   -4.08635E+004    1.10896E+005    3.82963E+003    1.32222E+004    1.05539E+005    6.03019E+003    1.68844E+003    3.13722E+004
            8926    1.25222E+005    1.30143E+005    1.30143E+005    6.36110E+003    3.52799E+003    1.26615E+005   -4.66772E+004    1.25150E+005    5.12694E+003    5.91980E+003    1.28985E+005    1.67992E+003    2.79092E+003    1.16263E+004
            8927    8.19324E+004    5.68671E+003   -7.91310E+004   -4.26351E+002   -7.91310E+004    8.48177E+004    2.46236E+004   -8.14170E+004   -5.05622E+002    3.41489E+003   -7.67799E+004    6.53045E+002   -2.55345E+003    1.36615E+004
            8928    9.54582E+004    1.67211E+003   -9.55554E+004   -1.97074E+003   -9.55554E+004    9.72275E+004    3.19513E+004   -9.53017E+004   -1.94279E+003    1.00228E+003   -9.49135E+004    5.74117E+002   -1.57267E+003    7.69915E+003
            8929    1.05863E+005    3.08356E+003   -1.04665E+005   -7.93511E+002   -1.04665E+005    1.07748E+005    3.41248E+004   -1.05703E+005   -6.82280E+002    2.92972E+003   -1.04622E+005    6.57931E+002   -3.54394E+002    2.10813E+003
            8930    1.04224E+005   -1.09811E+003   -1.06029E+005   -2.52656E+003   -1.06029E+005    1.04931E+005    3.65511E+004   -1.04202E+005   -2.35049E+003   -1.30386E+003   -1.05999E+005    4.90537E+002    8.64383E+002   -1.53033E+003
            8931    1.02977E+005    1.78472E+003   -1.01932E+005    2.88012E+002   -1.01932E+005    1.03717E+005    3.32865E+004   -1.02952E+005    4.26099E+002    1.56373E+003   -1.01849E+005    4.94788E+002    1.41132E+003   -2.55567E+003
            8932    8.53489E+004    2.34654E+004   -7.14121E+004   -8.83761E+002   -7.14121E+004    9.48775E+004    1.62768E+004   -7.69331E+004   -8.54610E+002    8.36815E+003   -5.63440E+004    1.64785E+003   -8.26644E+002    3.46330E+004
            8933    8.34982E+004    1.42192E+004   -7.57488E+004   -7.43596E+002   -7.57488E+004    8.99680E+004    2.07577E+004   -8.03985E+004   -5.95989E+002    1.00663E+004   -7.17434E+004    1.68828E+003   -5.61275E+002    1.85133E+004
            8934    8.47103E+004    5.74823E+003   -8.24672E+004   -1.76228E+003   -8.24672E+004    8.82155E+004    2.61604E+004   -8.39563E+004   -1.26574E+003    5.04720E+003   -8.22627E+004    1.87276E+003   -7.81568E+001    4.22674E+003
            8935    8.81842E+004    3.86409E+003   -8.69578E+004   -1.67202E+003   -8.69578E+004    9.08218E+004    2.82552E+004   -8.77920E+004   -1.11874E+003    2.99376E+003   -8.66407E+004    1.70885E+003    6.33108E+002   -5.28731E+003
            8936    8.62180E+004   -5.12718E+002   -8.84592E+004   -4.08044E+003   -8.84592E+004    8.79465E+004    3.10174E+004   -8.60517E+004   -1.60136E+003   -3.55404E+003   -8.78969E+004    1.73402E+003    1.18078E+003   -6.78485E+003
            8937    1.06192E+005    4.85796E+004   -7.31386E+004    5.73916E+002   -7.31386E+004    1.21718E+005    7.99503E+003   -7.52636E+004    6.29033E+002    2.35359E+004   -4.81500E+004    2.10594E+003   -1.02149E+002    4.91321E+004
            8938    8.69262E+004    2.85431E+004   -6.93220E+004   -1.07683E+003   -6.93220E+004    9.78651E+004    1.39519E+004   -7.42276E+004   -9.11287E+002    2.10337E+004   -6.19780E+004    2.41273E+003   -1.71265E+002    2.57408E+004
            8939    7.85623E+004    1.56956E+004   -6.97511E+004   -6.42380E+002   -6.97511E+004    8.54466E+004    1.82326E+004   -7.45950E+004   -1.30512E+002    1.49736E+004   -6.95410E+004    2.83805E+003    2.42492E+002    4.21748E+003
            8940    7.44000E+004    3.46721E+003   -7.44033E+004   -4.04351E+003   -7.44033E+004    7.78705E+004    2.49932E+004   -7.35398E+004   -2.65378E+003    1.28725E+003   -7.36131E+004    3.05148E+003    9.99613E+002   -7.61633E+003
            8941    7.52180E+004    2.06914E+003   -7.62425E+004   -4.55644E+003   -7.62425E+004    7.83116E+004    2.62433E+004   -7.45572E+004   -9.07454E+002   -3.40421E+003   -7.44181E+004    3.56098E+003    1.47601E+003   -1.13528E+004
            8942    1.30150E+005    7.34128E+004   -7.68659E+004   -5.95964E+002   -7.68659E+004    1.50279E+005    1.34970E+003   -3.85857E+004   -5.17116E+002    4.52327E+004   -4.87647E+004    2.35452E+003    7.32901E+002    5.85737E+004
            8943    9.74205E+004    4.71029E+004   -6.49057E+004    1.14770E+002   -6.49057E+004    1.12009E+005    5.89601E+003   -6.33119E+004    2.41401E+002    4.04332E+004   -5.83627E+004    2.38821E+003    4.96393E+002    2.62530E+004
            8944    7.61021E+004    2.12915E+004   -6.36013E+004   -1.49656E+003   -6.36013E+004    8.48928E+004    1.46021E+004   -6.77639E+004   -9.67600E+002    2.06698E+004   -6.35086E+004    3.43680E+003    9.01756E+002    2.63819E+003
            8945    7.13604E+004    9.35891E+003   -6.71328E+004   -2.35238E+003   -6.71328E+004    7.64917E+004    2.00421E+004   -6.91486E+004   -9.41608E+002    5.56462E+003   -6.47492E+004    4.25131E+003    1.59086E+003   -1.29307E+004
            8946    6.46587E+004    5.69119E+002   -6.89175E+004   -1.05216E+004   -6.89175E+004    6.94867E+004    2.62900E+004   -6.24647E+004   -2.29176E+003   -1.20449E+004   -6.45333E+004    5.53164E+003    2.26497E+003   -1.54000E+004
            8947    6.67101E+004    1.12286E+003   -7.23532E+004   -1.55855E+004   -7.23532E+004    7.34760E+004    2.89386E+004   -6.17335E+004   -9.98948E+003   -1.50318E+004   -6.17945E+004    1.09270E+004    4.84666E+003   -2.29027E+004
            8948    6.93330E+004    1.03271E+004   -6.65630E+004   -8.80472E+003   -6.65630E+004    7.68901E+004    2.16802E+004   -6.29712E+004   -7.01812E+003    5.11648E+003   -6.31389E+004    7.11088E+003    3.91023E+003   -1.45110E+004
            8949    8.01510E+004    3.30778E+004   -5.84904E+004   -1.06013E+003   -5.84904E+004    9.15682E+004    8.82424E+003   -6.01968E+004   -7.58074E+002    3.27011E+004   -5.84157E+004    3.44796E+003    1.52451E+003   -1.67823E+003
            8950    1.02114E+005    6.01505E+004    6.01505E+004    2.59328E+003   -5.77492E+004    1.17900E+005   -1.66486E+003   -3.51835E+004    2.59650E+003    5.65384E+004   -5.41403E+004    6.41091E+002   -2.90557E+002    2.03012E+004
            8951    1.38798E+005    9.31120E+004    9.31120E+004    5.71274E+003   -6.69310E+004    1.60043E+005   -1.06313E+004    7.51722E+004    5.71813E+003    7.54312E+004   -4.92555E+004   -1.20460E+003   -2.05067E+003    5.01112E+004
            8952    1.80893E+005    1.25088E+005    1.25088E+005    6.51225E+003   -8.31202E+004    2.08208E+005   -1.61599E+004    1.12095E+005    6.53052E+003    9.05196E+004   -4.85704E+004   -1.92148E+003   -3.57057E+003    7.73624E+004
            8953    2.30544E+005    1.63018E+005    1.63018E+005    1.00960E+004   -1.02154E+005    2.65171E+005   -2.36533E+004    1.47498E+005    1.01625E+004    1.05988E+005   -4.51908E+004   -2.92905E+003   -5.34796E+003    1.08763E+005
            8954    2.30882E+005    1.45608E+005    1.45608E+005   -1.04254E+002   -1.20594E+005    2.66202E+005   -8.30309E+003    1.26175E+005   -7.77910E+001    5.19574E+004   -2.69704E+004    1.23463E+003    2.03963E+003    1.27095E+005
            8955    2.29820E+005    1.36413E+005    1.36413E+005   -3.38945E+002   -1.28918E+005    2.65332E+005   -2.38521E+003    8.64992E+004   -3.33530E+002    1.56268E+004   -8.13767E+003    4.62761E+002    8.61883E+002    1.32129E+005
            8956    1.92813E+005    1.19084E+005    1.19084E+005   -5.46981E+002   -1.03345E+005    2.22429E+005   -5.06394E+003    9.78297E+004   -5.05930E+002    4.81060E+004   -3.24083E+004    1.55900E+003    1.82126E+003    1.03646E+005
            8957    2.02743E+005    1.19528E+005    1.19528E+005    2.62663E+001   -1.14562E+005    2.34090E+005   -1.66417E+003    6.71587E+004    4.71763E+001    1.44680E+004   -9.52267E+003    1.64107E+003    7.00449E+002    1.16415E+005
            8958    1.75430E+005    1.01258E+005   -1.01311E+005   -1.52928E+002   -1.01311E+005    2.02569E+005    6.87594E+001    2.26737E+004   -1.17816E+002    1.06190E+004   -1.07075E+004    2.57821E+003    5.64800E+002    1.00687E+005
            8959    1.41286E+005    7.94579E+004   -8.36634E+004    2.01261E+002   -8.36634E+004    1.63121E+005    1.33477E+003   -5.16677E+004    2.19295E+002    7.23538E+003   -1.14590E+004    3.17147E+003    4.69121E+000    8.09609E+004
            8960    9.93726E+004    5.15797E+004   -6.29858E+004   -1.37101E+002   -6.29858E+004    1.14566E+005    3.84770E+003   -5.47591E+004   -1.12413E+002    1.55820E+003   -1.29889E+004    3.09546E+003   -1.22757E+002    5.67334E+004
            8961    4.31028E+004    1.54972E+004   -3.31038E+004    4.86692E+002   -3.31038E+004    4.86010E+004    5.70666E+003   -3.64860E+004    3.50194E+002    1.59802E+003   -1.90682E+004    1.46359E+003   -1.67260E+003    2.19102E+004
            8962    1.57287E+005    9.20737E+004    9.20737E+004    1.36281E+002   -8.95413E+004    1.81615E+005   -8.89559E+002    4.37698E+004    1.70249E+002    3.48836E+004   -3.23851E+004    1.53287E+003    8.94922E+002    8.43305E+004
            8963    1.23616E+005    6.34375E+004   -7.90439E+004   -3.73395E+002   -7.90439E+004    1.42481E+005    5.32661E+003   -6.97243E+004   -3.62129E+002    1.61808E+004   -3.17985E+004    1.38433E+003   -1.98387E+001    6.70652E+004
            8964    9.17930E+004    3.77407E+004   -6.69042E+004    1.40700E+001   -6.69042E+004    1.04645E+005    9.71645E+003   -7.09074E+004   -6.71199E-001    7.67387E+003   -3.68225E+004    8.85545E+002   -7.38365E+002    4.73449E+004
            8965    6.09587E+004    6.24144E+003   -5.78630E+004   -6.32682E+002   -5.78630E+004    6.41044E+004    1.74181E+004   -6.00774E+004   -7.12081E+002    5.53307E+002   -5.20954E+004    1.98242E+002   -3.04545E+003    1.80846E+004
            8966    2.32410E+005    2.51716E+005    2.51716E+005    2.15521E+004    1.71223E+004    2.34594E+005   -9.67968E+004    2.32315E+005    1.99254E+004    2.24658E+004    2.47999E+005   -2.48591E+003   -2.55553E+003    2.90504E+004
            8967    2.32112E+005    2.19634E+005    2.19634E+005   -1.05894E+004   -1.43231E+004    2.33957E+005   -6.49070E+004    2.32045E+005   -1.33223E+004   -1.06680E+004    2.18711E+005   -8.26190E+002    1.06656E+004    1.00339E+004
            8968    2.06394E+005    2.15511E+005    2.15511E+005    1.08041E+004    7.47106E+003    2.08040E+005   -7.79288E+004    2.06333E+005    1.09519E+004    8.44642E+003    2.14388E+005    8.17934E+002    6.28379E+003    1.38525E+004
            8969    2.09971E+005    2.03169E+005    2.03169E+005   -5.58668E+003   -7.99677E+003    2.11166E+005   -6.31951E+004    2.09940E+005   -6.19197E+003   -6.21985E+003    2.01997E+005    1.74279E+003    9.07233E+003    1.26915E+004
            8970    2.79548E+005    2.77488E+005    2.77488E+005    1.13612E+004   -1.37833E+004    2.91271E+005   -9.16886E+004    2.76987E+005    5.35491E+003    4.11604E+003    2.65595E+005   -1.03335E+004    2.97339E+003    5.70136E+004
            8971    2.67968E+005    2.59907E+005    2.59907E+005   -4.50708E+003   -1.14779E+004    2.71385E+005   -8.13075E+004    2.67764E+005   -5.79484E+003    4.87276E+002    2.49230E+005   -8.91687E+002    1.08699E+004    5.15587E+004
            8972    2.32174E+005    2.26592E+005    2.26592E+005    3.07608E+003   -1.33647E+004    2.39957E+005   -7.21013E+004    2.30859E+005    3.34908E+003   -5.87816E+003    2.18833E+005    1.97207E+003    7.84625E+003    4.16395E+004
            8973    2.15271E+005    2.08771E+005    2.08771E+005   -2.69365E+002   -1.22325E+004    2.21003E+005   -6.54230E+004    2.14522E+005   -1.23865E+003    1.88314E+003    1.95625E+005    6.02675E+003    8.30289E+003    5.12369E+004
            8974    2.80125E+005    2.68276E+005    2.68276E+005    3.00158E+004   -4.03116E+004    3.08588E+005   -8.59935E+004    2.59122E+005    2.41842E+004    1.54796E+004    2.18317E+005    3.31742E+004    1.66920E+004    1.07827E+005
            8975    3.28747E+005    3.24669E+005    3.24669E+005    3.96933E+004   -3.49969E+004    3.59666E+005   -1.09788E+005    3.08779E+005    3.41909E+004    1.52062E+004    2.79968E+005    3.52470E+004    2.34592E+004    1.11450E+005
            8976    3.50345E+005    3.51783E+005    3.51783E+005    3.78052E+004   -2.61248E+004    3.77908E+005   -1.21155E+005    3.36845E+005    2.98883E+004    1.53309E+004    3.18244E+005    3.42004E+004    2.71172E+004    9.91092E+004
            8977    3.87871E+005    4.01484E+005    4.01484E+005    4.54561E+004   -1.18533E+004    4.13337E+005   -1.45029E+005    3.78170E+005    3.99550E+004    2.93615E+004    3.65770E+005    3.15223E+004    3.09789E+004    1.07803E+005
            8978    3.61205E+005    4.21201E+005    4.21201E+005    7.80992E+004    4.42722E+004    3.76929E+005   -1.81191E+005    3.57616E+005    7.49603E+004    8.51493E+004    3.83463E+005    2.84709E+004    4.02705E+004    1.01715E+005
            8979    3.50570E+005    4.33234E+005    4.33234E+005    1.00490E+005    6.72113E+004    3.66022E+005   -2.00312E+005    3.46989E+005    8.69289E+004    1.12472E+005    4.01534E+005    2.98486E+004    5.20617E+004    8.26685E+004
            8980    3.27195E+005    4.27913E+005    4.27913E+005    1.25385E+005    8.06527E+004    3.47260E+005   -2.11317E+005    3.20207E+005    9.67068E+004    1.46302E+005    3.90941E+005    3.05363E+004    5.75484E+004    8.14105E+004
            8981    2.85938E+005    3.85546E+005    3.85546E+005    1.24983E+005    7.96494E+004    3.05897E+005   -1.96726E+005    2.77680E+005    9.36232E+004    1.52754E+005    3.43801E+005    2.48695E+004    5.81854E+004    7.84352E+004
            8982    3.19276E+005    3.26060E+005    3.26060E+005    3.54001E+004   -1.56751E+004    3.41735E+005   -1.15262E+005    3.09885E+005   -1.51391E+004    5.75325E+004    3.03392E+005    3.65955E+003   -5.23413E+003    7.79320E+004
            8983    2.96977E+005    3.92960E+005    3.92960E+005    1.27833E+005    7.20445E+004    3.20915E+005   -1.97612E+005    2.84828E+005    9.76171E+004    1.35549E+005    3.59671E+005    9.15680E+002   -7.61029E+004    5.95739E+004
            8984    3.52942E+005    3.47867E+005    3.47867E+005    2.38676E+004   -2.82262E+004    3.76094E+005   -1.14503E+005    3.44133E+005   -2.81606E+004    5.20668E+004    3.19603E+005   -1.11917E+003   -4.76627E+003    9.13247E+004
            8985    3.39841E+005    4.42090E+005    4.42090E+005    1.33701E+005    7.77434E+004    3.64347E+005   -2.17845E+005    3.29236E+005    1.06384E+005    1.48777E+005    3.98374E+005   -1.73034E+003   -8.20362E+004    8.28983E+004
            8986    3.76740E+005    3.65418E+005    3.65418E+005    9.95847E+003   -2.94968E+004    3.94915E+005   -1.15293E+005    3.72050E+005   -2.89860E+004    4.71866E+004    3.27680E+005   -4.83838E+003   -4.93555E+002    1.09572E+005
            8987    3.60808E+005    4.50617E+005    4.50617E+005    1.22635E+005    6.41325E+004    3.86485E+005   -2.12462E+005    3.49899E+005    9.90537E+004    1.48492E+005    3.89839E+005   -2.41734E+003   -8.19529E+004    1.11642E+005
            8988    3.53022E+005    3.25229E+005    3.25229E+005   -1.18612E+004   -4.18149E+004    3.67044E+005   -9.05177E+004    3.50146E+005   -4.09971E+004    3.20667E+004    2.80484E+005   -5.54825E+003   -9.75607E+002    1.14498E+005
            8989    3.66393E+005    4.59819E+005    4.59819E+005    1.24458E+005    6.87703E+004    3.91049E+005   -2.17682E+005    3.56686E+005    1.02893E+005    1.52283E+005    3.97871E+005   -2.35332E+003   -7.84698E+004    1.16722E+005
            8990    3.92935E+005    4.62086E+005    4.62086E+005    1.08253E+005    3.92029E+004    4.22883E+005   -2.03181E+005    3.78923E+005    7.44261E+004    1.50686E+005    3.84430E+005   -2.07785E+002   -7.82041E+004    1.38772E+005
            8991    4.95966E+005    5.77596E+005    5.77596E+005    1.03604E+005    6.22460E+004    5.15350E+005   -2.47815E+005    4.92064E+005    9.91143E+004    1.12664E+005    5.31667E+005   -9.45155E+002   -8.50558E+004    1.19515E+005
            8992    3.68860E+005    3.56103E+005    3.56103E+005   -2.96834E+003   -2.18231E+004    3.77926E+005   -1.10437E+005    3.67773E+005   -9.53940E+003    2.63931E+004    3.14458E+005   -7.78094E+003    4.94645E+003    1.17160E+005
            8993    3.24534E+005    2.94178E+005    2.94178E+005   -2.54379E+004   -3.50618E+004    3.29239E+005   -7.78926E+004    3.24213E+005   -3.09662E+004   -2.66928E+004    2.91337E+005   -4.00241E+003    8.18881E+003    2.91730E+004
            8994    5.48996E+004   -5.70661E+003   -6.83045E+004   -2.83398E+004   -6.83045E+004    6.25979E+004    3.41170E+004   -4.23120E+004   -1.34714E+004   -3.08922E+004   -5.79873E+004    1.34601E+004    4.46103E+003   -1.73310E+004
            8995    5.80404E+004    1.76853E+002   -6.44737E+004   -1.68539E+004   -6.44737E+004    6.46506E+004    2.70503E+004   -5.19567E+004   -2.48571E+003   -1.72404E+004   -6.14246E+004    6.71497E+003    2.42180E+003   -1.14594E+004
            8996    6.82680E+004   -2.53878E+003   -7.56638E+004   -1.36049E+004   -7.56638E+004    7.31250E+004    3.06025E+004   -6.62049E+004   -4.27314E+003   -1.24331E+004   -7.51013E+004    4.13503E+003    1.69774E+003   -5.63658E+003
            8997    8.57095E+004    2.64572E+001   -8.74737E+004   -3.67485E+003   -8.74737E+004    8.75002E+004    3.03740E+004   -8.55294E+004   -1.62992E+003   -2.19995E+003   -8.72922E+004    1.89528E+003    1.27611E+003   -3.69353E+003
            8998    9.53947E+004   -2.16411E+003   -9.81046E+004   -3.26504E+003   -9.81046E+004    9.59404E+004    3.45112E+004   -9.53804E+004   -2.37591E+003   -3.08325E+003   -9.80745E+004    4.31694E+002    1.38250E+003   -9.70802E+002
            8999    4.21968E+004   -5.45362E+003   -5.20101E+004   -4.11791E+004   -5.20101E+004    4.65565E+004    3.28810E+004    3.88805E+004   -1.18825E+004   -3.98001E+004   -4.69602E+004    1.48398E+004    2.84983E+003   -4.65442E+003
            9000    5.34607E+004   -8.82959E+002   -6.25440E+004   -2.91689E+004   -6.25440E+004    6.16611E+004    3.08653E+004   -2.79147E+004   -3.56581E+003   -2.68930E+004   -6.21371E+004    8.14118E+003    1.68467E+003    3.75255E+003
            9001    7.18631E+004    1.26681E+003   -7.64852E+004   -1.25040E+004   -7.64852E+004    7.77520E+004    2.92408E+004   -6.88000E+004   -9.32804E+002   -1.05247E+004   -7.62650E+004    5.00051E+003    8.55232E+002    3.77380E+003
            9002    8.65651E+004   -8.44397E+002   -9.06396E+004   -7.71405E+003   -9.06396E+004    8.97952E+004    3.30660E+004   -8.59486E+004   -1.79569E+003   -6.95168E+003   -9.04507E+004    2.34710E+003    5.51710E+002    3.95313E+003
            9003    1.01789E+005    2.35239E+003   -1.00101E+005    1.01087E+003   -1.00101E+005    1.02453E+005    3.22458E+004   -1.01769E+005    1.58074E+003    1.76882E+003   -1.00087E+005    6.61381E+002    1.58361E+002    1.17202E+003
            9004    6.47012E+004   -5.34051E+003   -7.92749E+004   -3.30057E+004   -7.92749E+004    7.39344E+004    3.92070E+004   -4.84315E+004   -1.59803E+004   -5.00097E+004   -5.16311E+004    1.72292E+004    9.40476E+002    2.63138E+004
            9005    6.86885E+004    5.74815E+002   -7.64676E+004   -2.16225E+004   -7.64676E+004    7.70424E+004    3.25051E+004   -5.97821E+004   -4.18122E+003   -2.66277E+004   -6.67063E+004    9.64207E+003    4.25878E+002    2.18243E+004
            9006    8.31776E+004   -2.75856E+003   -9.17574E+004   -1.59863E+004   -9.17574E+004    8.89988E+004    3.68341E+004   -8.07603E+004   -6.15097E+003   -1.75811E+004   -8.67702E+004    5.96792E+003   -6.59475E+001    1.91750E+004
            9007    9.98597E+004    5.89648E+002   -1.01973E+005   -5.05653E+003   -1.01973E+005    1.02563E+005    3.54801E+004   -9.94996E+004   -2.56641E+003   -3.27954E+003   -1.00594E+005    2.89716E+003   -6.21059E+002    1.16269E+004
            9008    1.07865E+005   -3.06032E+003   -1.11634E+005   -4.49284E+003   -1.11634E+005    1.08574E+005    3.97291E+004   -1.07843E+005   -3.52182E+003   -4.23749E+003   -1.11428E+005    7.14457E+002   -1.17115E+003    4.55036E+003
            9009    2.84492E+005   -8.08441E+004   -3.84763E+005   -1.24818E+005   -3.84763E+005    3.03919E+005    1.96808E+005   -2.76691E+005   -9.46877E+004   -1.54614E+005   -3.41123E+005    2.48065E+004   -5.78838E+004    8.05898E+004
            9010    3.04949E+005    1.63955E+004   -3.10666E+005   -3.41420E+004   -3.10666E+005    3.27061E+005    1.09471E+005   -2.95307E+005    1.57163E+004   -5.56643E+004   -2.88464E+005    4.35767E+003    5.15718E+003    7.51645E+004
            9011    2.82210E+005   -7.13077E+004   -3.76019E+005   -1.23635E+005   -3.76019E+005    3.04711E+005    1.90320E+005   -2.70971E+005   -9.46239E+004   -1.29533E+005   -3.46804E+005    1.24009E+003    7.19425E+004    5.19633E+004
            9012    2.35920E+005   -6.33739E+004   -3.10890E+005   -8.85923E+004   -3.10890E+005    2.47517E+005    1.54286E+005   -2.32859E+005   -7.63008E+004   -1.32788E+005   -2.53768E+005    1.69213E+004   -4.77731E+004    8.81131E+004
            9013    2.34792E+005    8.05419E+003   -2.43851E+005   -3.10925E+004   -2.43851E+005    2.51905E+005    8.89630E+004   -2.27275E+005    5.38580E+003   -4.83660E+004   -2.23909E+005    8.83803E+003    4.68581E+003    6.24149E+004
            9014    2.05424E+005   -5.42986E+004   -2.77518E+005   -9.64193E+004   -2.77518E+005    2.23219E+005    1.42745E+005   -1.95350E+005   -7.22557E+004   -9.73537E+004   -2.58626E+005    3.76138E+003    5.44571E+004    2.92875E+004
            9015    1.96742E+005   -8.27489E+002   -2.14317E+005   -4.03102E+004   -2.14317E+005    2.13489E+005    8.51515E+004   -1.87515E+005   -4.32684E+004   -7.70359E+004   -1.35150E+005    1.04746E+004   -2.61755E+004    9.97379E+004
            9016    1.42055E+005    1.28917E+004   -1.39898E+005   -1.18222E+004   -1.39898E+005    1.52790E+005    4.62763E+004   -1.37092E+005    2.35350E+003   -2.66584E+004   -1.14524E+005    1.19866E+004    3.23533E+003    5.35596E+004
            9017    1.03881E+005   -2.72019E+004   -1.41274E+005   -5.21144E+004   -1.41274E+005    1.14072E+005    7.35301E+004   -9.68116E+004   -3.76424E+004   -5.01469E+004   -1.32801E+005    5.35180E+003    2.76259E+004    1.14625E+004
            9018    1.80360E+005    1.11797E+005    1.11797E+005    2.79831E+003   -9.63879E+004    2.08185E+005   -6.06907E+003    7.82055E+004    2.95271E+003    5.20634E+003    1.00481E+004    8.08072E+003    1.27426E+003    1.03746E+005
            9019    9.14319E+004    6.09132E+004    6.09132E+004    5.44975E+002   -4.42813E+004    1.05194E+005   -5.72561E+003    5.77913E+004   -3.90984E+002    3.99186E+003    1.35759E+004    1.30277E+004   -1.11996E+002    5.06541E+004
            9020    2.14002E+004    2.30008E+004    2.30008E+004    1.21809E+004   -1.64887E+003    2.46497E+004   -1.11776E+004   -1.27117E+004    5.67699E+003    7.91407E+003    1.99418E+004    5.76463E+003   -4.11691E+003    6.60435E+003
            9021    1.99502E+005    2.25487E+005    2.25487E+005    4.43735E+004    1.16442E+004    2.13843E+005   -9.38349E+004    1.93323E+005    4.73134E+004    8.44480E+004    1.49743E+005    1.09036E+004    2.86190E+004    9.81835E+004
            9022    1.62261E+005    1.65260E+005    1.65260E+005    1.78959E+004   -8.62889E+003    1.73889E+005   -5.81758E+004    1.57272E+005   -1.29811E+003    3.30710E+004    1.42754E+005    1.17356E+004   -2.62589E+003    5.45081E+004
            9023    1.31313E+005    1.78932E+005    1.78932E+005    6.54190E+004    3.51160E+004    1.43816E+005   -9.31556E+004    1.23072E+005    4.75594E+004    6.41574E+004    1.67750E+005    4.99755E+003   -3.55175E+004    1.48040E+004
            9024    2.43323E+005    3.22750E+005    3.22750E+005    9.37117E+004    6.72970E+004    2.55453E+005   -1.61253E+005    2.40066E+005    7.93340E+004    1.37378E+005    2.67046E+005    1.77710E+004    4.81624E+004    8.86764E+004
            9025    2.49846E+005    2.58468E+005    2.58468E+005    3.38839E+004   -1.06503E+004    2.69119E+005   -9.39006E+004    2.40672E+005   -8.50204E+003    5.14686E+004    2.38735E+005    8.28298E+003   -5.33215E+003    6.38650E+004
            9026    2.28565E+005    3.09052E+005    3.09052E+005    1.07006E+005    6.09737E+004    2.48078E+005   -1.59010E+005    2.17767E+005    8.04335E+004    1.08864E+005    2.87733E+005    3.04368E+003   -6.04770E+004    3.34374E+004
            9027    1.91396E+005    5.56059E+003   -1.86928E+005    3.35795E+003   -1.86928E+005    1.92488E+005    5.93364E+004   -1.91368E+005    3.39709E+003    4.82485E+003   -1.86231E+005    1.12678E+003   -7.38242E+003    8.82553E+003
            9028    1.80505E+005    2.56702E+003   -1.81331E+005   -4.42339E+003   -1.81331E+005    1.83898E+005    6.10625E+004   -1.80200E+005   -2.56405E+003   -4.71768E+003   -1.75906E+005    4.30862E+003   -6.12318E+003    3.01939E+004
            9029    1.87294E+005    1.65112E+004   -1.80149E+005   -3.89032E+003   -1.80149E+005    1.96660E+005    5.58426E+004   -1.84770E+005   -1.12215E+003   -9.93628E+002   -1.65412E+005    9.66539E+003   -6.76491E+003    5.04954E+004
            9030    2.10159E+005    2.42335E+004   -2.01020E+005   -1.02111E+004   -2.01020E+005    2.25254E+005    6.23326E+004   -2.03663E+005   -6.12248E+003   -1.77439E+004   -1.63131E+005    1.70109E+004   -7.87775E+003    8.19561E+004
            9031    2.48328E+005    4.19393E+004   -2.35361E+005   -3.35045E+004   -2.35361E+005    2.77300E+005    7.56420E+004   -2.20242E+005   -2.87173E+004   -3.18187E+004   -1.66390E+005    3.54879E+004   -1.28757E+004    1.13805E+005
            9032    1.56542E+005   -4.08780E+003   -1.61476E+005   -5.79469E+003   -1.61476E+005    1.57388E+005    5.71195E+004   -1.56521E+005   -5.55483E+003   -5.08746E+003   -1.60716E+005    1.03874E+003   -5.03326E+003    9.63133E+003
            9033    1.52048E+005    5.00196E+003   -1.51757E+005   -4.90654E+003   -1.51757E+005    1.56759E+005    5.05540E+004   -1.51319E+005   -3.69290E+003   -1.15099E+003   -1.46818E+005    4.21570E+003   -4.14542E+003    2.68233E+004
            9034    1.47794E+005    4.48073E+003   -1.51110E+005   -1.25948E+004   -1.51110E+005    1.55590E+005    5.30746E+004   -1.45550E+005   -8.87487E+003   -1.63810E+004   -1.33968E+005    8.98494E+003   -3.66332E+003    4.75923E+004
            9035    1.53436E+005    1.52233E+004   -1.49788E+005   -1.14183E+004   -1.49788E+005    1.65012E+005    4.86612E+004   -1.48097E+005   -6.30290E+003   -2.47367E+004   -1.14944E+005    1.47338E+004   -4.23276E+003    6.50576E+004
            9036    1.86782E+005    2.35694E+004   -1.84721E+005   -3.21095E+004   -1.84721E+005    2.08290E+005    6.44202E+004   -1.66517E+005   -2.74542E+004   -5.18628E+004   -1.13944E+005    2.87337E+004   -6.51912E+003    9.36625E+004
            9037    1.36103E+005    3.60690E+003   -1.33400E+005    1.78039E+003   -1.33400E+005    1.37007E+005    4.26710E+004   -1.36076E+005    2.23365E+003    2.68353E+003   -1.32930E+005    1.03145E+003   -3.65192E+003    7.08496E+003
            9038    1.22279E+005    4.22801E+001   -1.25282E+005   -6.29538E+003   -1.25282E+005    1.25325E+005    4.38452E+004   -1.21909E+005   -2.43876E+003   -7.89282E+003   -1.21204E+005    3.57321E+003   -2.40480E+003    2.16746E+004
            9039    1.14178E+005    5.46137E+003   -1.14587E+005   -7.36357E+003   -1.14587E+005    1.20049E+005    3.88299E+004   -1.12540E+005   -1.17446E+003   -1.10093E+004   -1.04306E+005    7.36905E+003   -2.06371E+003    3.23644E+004
            9040    1.10884E+005    4.90849E+003   -1.14432E+005   -1.45920E+004   -1.14432E+005    1.19341E+005    4.13719E+004   -1.06924E+005   -4.98439E+003   -3.14791E+004   -8.76522E+004    1.21677E+004   -1.68834E+003    4.65363E+004
            9041    1.14330E+005    8.88905E+003   -1.18178E+005   -2.36328E+004   -1.18178E+005    1.27067E+005    4.43073E+004   -1.03128E+005   -1.63493E+004   -5.04316E+004   -6.61410E+004    2.17057E+004   -1.97383E+003    5.68694E+004
            9042    3.91266E+005   -2.42591E+004   -4.40035E+005   -7.90554E+004   -4.40035E+005    4.15775E+005    1.81116E+005   -3.82490E+005   -6.33414E+004   -7.50527E+004   -4.04955E+005    4.15063E+004   -4.76045E+004    9.71010E+004
            9043    4.02333E+005    1.29577E+003   -4.31507E+005   -6.88779E+004   -4.31507E+005    4.32803E+005    1.66363E+005   -3.88204E+005   -5.63599E+004   -5.01431E+004   -3.92586E+005    4.67360E+004   -4.53245E+004    1.06425E+005
            9044    4.02111E+005    1.92870E+004   -4.20076E+005   -7.03430E+004   -4.20076E+005    4.39363E+005    1.57044E+005   -3.78644E+005   -6.29545E+004   -3.21780E+004   -3.75999E+005    4.89949E+004   -4.21019E+004    1.16326E+005
            9045    3.62810E+005    4.47423E+004   -3.56567E+005   -5.17744E+004   -3.56567E+005    4.01309E+005    1.21200E+005   -3.32035E+005   -4.52672E+004   -1.18310E+004   -3.06501E+005    4.68030E+004   -3.14753E+004    1.21095E+005
            9046    3.17784E+005    4.37514E+004   -3.10038E+005   -4.88160E+004   -3.10038E+005    3.53790E+005    1.05034E+005   -2.85000E+005   -4.38063E+004   -2.50054E+004   -2.46291E+005    4.25875E+004   -2.21801E+004    1.27683E+005
            9047    2.43757E+005    2.96049E+004   -2.31355E+005   -9.53746E+003   -2.31355E+005    2.60960E+005    7.04291E+004   -2.36531E+005   -6.62027E+003   -2.56534E+003   -2.02102E+005    1.67098E+004   -1.13457E+004    7.99408E+004
            9048    2.16589E+005    1.08455E+004   -2.16673E+005   -1.29832E+004   -2.16673E+005    2.27518E+005    7.29368E+004   -2.13610E+005   -1.13541E+004   -4.64275E+003   -2.02814E+005    9.21931E+003   -8.54111E+003    5.30734E+004
            9049    2.03685E+005    8.56226E+003   -2.00956E+005   -3.65291E+003   -2.00956E+005    2.09518E+005    6.53488E+004   -2.02859E+005   -3.46609E+003    4.97888E+003   -1.97559E+005    3.33617E+003   -7.43228E+003    2.52061E+004
            9050    1.98102E+005   -5.38000E+003   -2.04141E+005   -6.70374E+003   -2.04141E+005    1.98761E+005    7.20748E+004   -1.98092E+005   -6.89158E+003   -5.81227E+003   -2.03520E+005    5.88035E+002   -7.03259E+003    8.53808E+003
            9051    2.95236E+005    2.80298E+004   -2.83166E+005   -7.01933E+003   -2.83166E+005    3.11196E+005    8.73852E+004   -2.90500E+005   -5.07829E+003   -1.08113E+003   -2.55996E+005    1.55198E+004   -1.57419E+004    8.50871E+004
            9052    2.46169E+005    1.85875E+004   -2.36305E+005    9.80843E+001   -2.36305E+005    2.54892E+005    7.25397E+004   -2.44599E+005    4.50090E+002    8.90978E+003   -2.26979E+005    6.57471E+003   -1.18170E+004    4.59382E+004
            9053    2.21972E+005    9.63763E+002   -2.21863E+005   -7.55015E+002   -2.21863E+005    2.22827E+005    7.38847E+004   -2.21957E+005   -8.95307E+002   -2.35151E+003   -2.18407E+005    1.56250E+003   -8.48737E+003    2.61495E+004
            9054    2.18181E+005    7.84677E+003   -2.10631E+005    7.25261E+003   -2.10631E+005    2.18478E+005    6.51773E+004   -2.18180E+005    6.97270E+003    7.64868E+003   -2.10153E+005    4.06325E+001   -8.57873E+003    5.52253E+003
            9055    3.09453E+005    2.02693E+004   -3.02172E+005   -7.59186E+003   -3.02172E+005    3.22441E+005    9.64982E+004   -3.06612E+005   -7.25581E+003   -3.08202E+003   -2.79157E+005    1.05494E+004   -1.55447E+004    8.08701E+004
            9056    2.70283E+005    6.05781E+003   -2.73690E+005   -1.39880E+004   -2.73690E+005    2.79748E+005    9.38733E+004   -2.68603E+005   -1.44463E+004   -6.48246E+003   -2.60691E+005    3.37291E+003   -1.09834E+004    5.77226E+004
            9057    2.36872E+005    8.14706E+003   -2.34256E+005   -3.33163E+003   -2.34256E+005    2.42403E+005    7.64801E+004   -2.36245E+005   -2.89049E+003    5.11344E+003   -2.31663E+005   -1.95949E+003   -7.51406E+003    2.37725E+004
            9058    2.08838E+005   -7.25305E+003   -2.17692E+005   -1.04931E+004   -2.17692E+005    2.10439E+005    7.84795E+004   -2.08782E+005   -8.65701E+003   -9.66719E+003   -2.17114E+005   -1.35152E+003   -5.01377E+003    9.79094E+003
            9059    3.56029E+005    1.51119E+004   -3.48315E+005   -1.77091E+002   -3.48315E+005    3.63427E+005    1.11127E+005   -3.55289E+005   -7.83375E+002   -1.34381E+004   -3.19159E+005    8.02880E+003   -1.80004E+004    9.67762E+004
            9060    2.90818E+005    1.36038E+004   -2.83037E+005    1.58628E+003   -2.83037E+005    2.96640E+005    8.92822E+004   -2.90259E+005    3.08983E+003   -1.75078E+003   -2.69186E+005   -1.85390E+003   -1.24764E+004    6.12601E+004
            9061    2.66244E+005    5.83708E+003   -2.65868E+005   -5.44375E+003   -2.65868E+005    2.71705E+005    8.84915E+004   -2.65705E+005    1.57185E+003   -9.26918E+003   -2.57777E+005   -4.45714E+003   -6.07278E+003    4.52684E+004
            9062    2.42623E+005    1.53115E+004   -2.29676E+005    1.05107E+004   -2.29676E+005    2.44988E+005    6.79513E+004   -2.42516E+005    1.35026E+004    1.16950E+004   -2.29052E+005   -1.98592E+003   -6.75509E+003    1.03250E+004
            9063    3.36016E+005   -2.87941E+003   -3.43148E+005   -1.15533E+004   -3.43148E+005    3.40269E+005    1.19194E+005   -3.35764E+005   -1.02488E+004   -4.05807E+004   -3.06752E+005   -8.04993E+002   -7.56034E+003    1.04710E+005
            9064    3.30321E+005    6.92630E+003   -3.37212E+005   -2.27038E+004   -3.37212E+005    3.44138E+005    1.17663E+005   -3.27312E+005   -2.20711E+004   -2.69004E+004   -3.04018E+005   -3.72766E+003   -2.42711E+003    1.01484E+005
            9065    2.91846E+005    9.63987E+003   -2.91682E+005   -1.03388E+004   -2.91682E+005    3.01322E+005    9.74604E+004   -2.90302E+005   -7.26191E+003   -3.91293E+003   -2.81206E+005   -7.71389E+003    1.77294E+003    5.48089E+004
            9066    2.53006E+005   -1.66046E+004   -2.72424E+005   -2.23277E+004   -2.72424E+005    2.55819E+005    1.03785E+005   -2.52861E+005   -1.96823E+004   -2.27036E+004   -2.68970E+005   -3.53115E+003    5.65101E+003    2.87433E+004
            9067    3.63022E+005    3.47371E+004   -3.32174E+005    2.68283E+004   -3.32174E+005    3.66911E+005    9.02030E+004   -3.62828E+005    3.04823E+004    2.88305E+004   -3.29922E+005   -3.99011E+003    4.39369E+002    2.85061E+004
            9068    5.36676E+005   -7.06183E+004   -6.29384E+005   -1.17930E+005   -6.29384E+005    5.58766E+005    2.72644E+005   -5.31954E+005   -1.16936E+005   -1.20256E+005   -5.80741E+005   -3.23086E+002    9.71526E+004    1.23987E+005
            9069    3.98551E+005    1.21688E+004   -3.91232E+005    2.28465E+003   -3.91232E+005    4.03401E+005    1.25593E+005   -3.98275E+005    4.75799E+003   -3.01889E+004   -3.51348E+005   -5.35091E+003    2.45270E+003    1.19932E+005
            9070    4.15580E+005   -4.54795E+004   -4.94047E+005   -1.22125E+005   -4.94047E+005    4.48567E+005    2.20550E+005   -3.99210E+005   -8.56462E+004   -1.63898E+005   -4.12107E+005    1.11375E+002    8.72422E+004    1.44590E+005
            9071    3.42851E+005    1.06726E+004   -3.40580E+005   -6.79844E+003   -3.40580E+005    3.51253E+005    1.12235E+005   -3.41847E+005    1.04856E+004   -5.57786E+004   -2.91413E+005   -2.72120E+003    2.21468E+003    1.18295E+005
            9072    3.88507E+005   -4.73308E+004   -4.65971E+005   -1.17034E+005   -4.65971E+005    4.18640E+005    2.10112E+005   -3.74049E+005   -8.10803E+004   -1.50046E+005   -3.99209E+005   -6.62920E+002    8.34784E+004    1.23839E+005
            9073    3.54626E+005    1.06649E+004   -3.53688E+005   -9.66465E+003   -3.53688E+005    3.64353E+005    1.17563E+005   -3.53311E+005    9.01105E+003   -5.06954E+004   -3.11004E+005   -5.13622E+003   -2.13089E+003    1.13724E+005
            9074    3.76436E+005   -4.61942E+004   -4.51242E+005   -1.12129E+005   -4.51242E+005    4.05048E+005    2.03189E+005   -3.63102E+005   -7.96086E+004   -1.43110E+005   -3.86847E+005   -6.34517E+002    8.09415E+004    1.19904E+005
            9075    3.54759E+005   -7.15162E+004   -4.50813E+005   -1.27172E+005   -4.50813E+005    3.79297E+005    2.16500E+005   -3.44731E+005   -1.02715E+005   -1.48501E+005   -3.98285E+005   -2.36742E+003    8.12820E+004    1.00153E+005
            9076    3.31077E+005   -7.24791E+004   -4.27896E+005   -1.28239E+005   -4.27896E+005    3.55416E+005    2.09538E+005   -3.20257E+005   -1.00994E+005   -1.42838E+005   -3.84781E+005   -1.35103E+003    8.04907E+004    8.11569E+004
            9077    3.64911E+005    3.37096E+004   -3.49159E+005   -5.34926E+003   -3.49159E+005    3.82869E+005    1.06933E+005   -3.60163E+005    3.36071E+004   -4.23167E+004   -3.12089E+005   -1.62651E+003   -1.36249E+003    1.06650E+005
            9078    3.53631E+005    2.12252E+004   -3.54006E+005   -2.69055E+004   -3.54006E+005    3.75231E+005    1.19895E+005   -3.46147E+005    2.12060E+004   -5.49273E+004   -3.25965E+005   -1.27444E+001    2.14976E+003    9.15574E+004
            9079    3.21779E+005   -7.75563E+004   -4.19956E+005   -1.23802E+005   -4.19956E+005    3.42400E+005    2.07105E+005   -3.14172E+005   -9.47914E+004   -1.41361E+005   -3.85162E+005    3.06105E+004   -5.97729E+004    7.53902E+004
            9080    3.58959E+005   -6.74394E+004   -4.44428E+005   -1.06732E+005   -4.44428E+005    3.76988E+005    2.06200E+005   -3.54072E+005   -9.19453E+004   -1.17781E+005   -4.08872E+005    3.48002E+004   -5.27143E+004    8.93676E+004


  Minimum           1.59666E+004   -1.82873E+005   -6.29384E+005   -2.40069E+005   -6.29384E+005    1.74976E+004   -3.00341E+005   -5.31954E+005   -2.40086E+005   -2.11749E+005   -5.80741E+005   -4.90158E+004   -9.90415E+004   -2.29027E+004
      At Element            7712            7047            9068            7106            9068            7712            7018            9068            7106            7047            9068            5120            5144            8947

  Maximum           5.36676E+005    5.83507E+005    5.83507E+005    2.29478E+005    1.83640E+005    5.58766E+005    3.14660E+005    4.92064E+005    2.29478E+005    2.11420E+005    5.31667E+005    4.90158E+004    9.90415E+004    2.10579E+005
      At Element            9068            7029            7029            7018            7019            9068            7106            8991            7018            7019            8991            8826            8850            8911

           Total    8.58033E+008    4.09916E+008   -1.43066E+008   -2.91505E+007   -5.41954E+008    9.51869E+008    5.37296E+007   -1.15460E+008   -2.85504E+007   -3.43117E+006   -1.29207E+008    0.00000E+000    0.00000E+000    2.67074E+008


