********************************************************************************
Field Output Report, written Sun Apr 16 09:28:24 2023

Source 1
---------

   ODB: C:/Temp/12_shear.odb
   Step: Loading_step
   Frame: Increment      1: Step Time =    1.000

Loc 1 : Centroidal values from source 1

Output sorted by column "Element Label".

Field Output reported at element centroid for region: PART-1-1.Region_1

         Element         S.Mises     S.Max. Prin  S.Max. Prin(a)     S.Mid. Prin     S.Min. Prin        S.Tresca      S.Pressure     S.Third Inv           S.S11           S.S22           S.S33           S.S12           S.S13           S.S23
           Label          @Loc 1          @Loc 1          @Loc 1          @Loc 1          @Loc 1          @Loc 1          @Loc 1          @Loc 1          @Loc 1          @Loc 1          @Loc 1          @Loc 1          @Loc 1          @Loc 1
-------------------------------------------------------------------------------------------------------------------------------------------------------------------------------------------------------------------------------------------------
               1    3.84686E+005    3.91778E+005    3.91778E+005    3.38535E+004   -1.50016E+004    4.06780E+005   -1.36877E+005    3.77612E+005    3.67603E+004    3.88652E+005   -1.47823E+004    3.21202E+004   -1.07427E+003   -9.36027E+003
               2    3.40476E+005    3.04092E+005    3.04092E+005   -2.79279E+004   -4.42531E+004    3.48345E+005   -7.73037E+004    3.39594E+005   -2.70880E+004    3.02956E+005   -4.39568E+004    1.71788E+004   -1.39553E+003   -9.16502E+003
               3    2.47678E+005    2.35003E+005    2.35003E+005    1.34980E+004   -3.24212E+004    2.67424E+005   -7.20267E+004    2.37817E+005    1.64991E+004    2.31778E+005   -3.21968E+004    2.55948E+004   -9.73693E+002   -7.67927E+003
               4    1.85693E+005    1.61757E+005    1.61757E+005   -1.70868E+004   -3.01009E+004    1.91858E+005   -3.81897E+004    1.84663E+005   -1.42308E+004    1.58603E+005   -2.98030E+004    2.24055E+004   -8.22334E+002   -7.49428E+003
               5    3.70148E+005    3.71307E+005    3.71307E+005    3.28630E+004   -2.39713E+004    3.95278E+005   -1.26733E+005    3.60135E+005    3.56841E+004    3.66556E+005   -2.20414E+004    3.07311E+004   -3.23446E+003   -2.73063E+004
               6    3.32313E+005    2.94255E+005    2.94255E+005   -2.61829E+004   -4.87800E+004    3.43035E+005   -7.30974E+004    3.30578E+005   -2.54487E+004    2.91394E+005   -4.66532E+004    1.73656E+004   -3.58840E+003   -2.53731E+004
               7    2.44071E+005    2.27853E+005    2.27853E+005    1.28861E+004   -3.74674E+004    2.65320E+005   -6.77572E+004    2.31948E+005    1.58228E+004    2.22679E+005   -3.52297E+004    2.48225E+004   -2.96439E+003   -2.40801E+004
               8    1.83867E+005    1.59475E+005    1.59475E+005   -1.59545E+004   -3.18027E+004    1.91278E+005   -3.72393E+004    1.82320E+005   -1.30896E+004    1.54394E+005   -2.95866E+004    2.22182E+004   -1.91268E+003   -2.02410E+004
               9    3.46953E+005    3.37557E+005    3.37557E+005    3.08740E+004   -3.90234E+004    3.76580E+005   -1.09803E+005    3.30550E+005    3.35693E+004    3.30594E+005   -3.47561E+004    2.87703E+004   -5.92586E+003   -3.91630E+004
              10    3.16728E+005    2.72161E+005    2.72161E+005   -2.56759E+004   -6.05701E+004    3.32731E+005   -6.19715E+004    3.12360E+005   -2.49849E+004    2.65953E+005   -5.50532E+004    1.71093E+004   -5.72095E+003   -4.10034E+004
              11    2.35163E+005    2.15334E+005    2.15334E+005    1.20230E+004   -4.22062E+004    2.57540E+005   -6.17169E+004    2.20426E+005    1.49161E+004    2.07048E+005   -3.68138E+004    2.37599E+004   -4.74538E+003   -3.65631E+004
              12    1.79960E+005    1.51311E+005    1.51311E+005   -1.63814E+004   -3.88132E+004    1.90124E+005   -3.20389E+004    1.76774E+005   -1.35432E+004    1.42616E+005   -3.29565E+004    2.13365E+004   -3.61054E+003   -3.25911E+004
              13    3.22633E+005    2.93447E+005    2.93447E+005    2.89018E+004   -6.59902E+004    3.59437E+005   -8.54529E+004    2.88641E+005    3.14473E+004    2.83661E+005   -5.87495E+004    2.60874E+004   -8.56078E+003   -4.94449E+004
              14    2.92629E+005    2.44067E+005    2.44067E+005   -2.26373E+004   -6.89602E+004    3.13027E+005   -5.08232E+004    2.84204E+005   -2.16514E+004    2.34467E+005   -6.03456E+004    1.73770E+004   -6.39674E+003   -5.03290E+004
              15    2.22567E+005    1.93970E+005    1.93970E+005    1.13955E+004   -5.39572E+004    2.47927E+005   -5.04693E+004    1.99202E+005    1.43115E+004    1.81268E+005   -4.41717E+004    2.22665E+004   -6.69471E+003   -4.78022E+004
              16    1.72494E+005    1.43403E+005    1.43403E+005   -1.38785E+004   -4.10721E+004    1.84475E+005   -2.94843E+004    1.67569E+005   -1.09743E+004    1.31555E+005   -3.21280E+004    2.07767E+004   -4.25232E+003   -3.92758E+004
              17    2.94643E+005    2.50046E+005    2.50046E+005    3.12155E+004   -8.49791E+004    3.35025E+005   -6.54273E+004    2.34073E+005    3.44923E+004    2.37447E+005   -7.56575E+004    2.63839E+004   -1.03533E+004   -5.39311E+004
              18    2.70239E+005    2.07892E+005    2.07892E+005   -2.66510E+004   -8.76243E+004    2.95516E+005   -3.12056E+004    2.54061E+005   -2.56744E+004    1.94503E+005   -7.52114E+004    1.64639E+004   -8.32300E+003   -5.82219E+004
              19    2.03654E+005    1.72495E+005    1.72495E+005    1.11147E+004   -5.63241E+004    2.28819E+005   -4.24286E+004    1.75764E+005    1.41611E+004    1.57036E+005   -4.39109E+004    2.10942E+004   -7.87169E+003   -5.12241E+004
              20    1.62940E+005    1.25586E+005    1.25586E+005   -1.67319E+004   -5.21510E+004    1.77737E+005   -1.89009E+004    1.53917E+005   -1.38625E+004    1.10537E+005   -3.99718E+004    1.91206E+004   -6.32404E+003   -4.44517E+004
              21    2.86656E+005    2.12825E+005    2.12825E+005    3.84981E+004   -1.18017E+005    3.30842E+005   -4.44355E+004    1.29914E+005    4.33827E+004    1.95371E+005   -1.05447E+005    2.78074E+004   -1.36758E+004   -6.16981E+004
              22    2.39361E+005    1.78724E+005    1.78724E+005   -2.07579E+004   -8.66947E+004    2.65419E+005   -2.37571E+004    2.17479E+005   -1.91394E+004    1.64235E+005   -7.38243E+004    1.76156E+004   -7.40862E+003   -5.64324E+004
              23    1.89430E+005    1.45005E+005    1.45005E+005    1.12088E+004   -7.17517E+004    2.16757E+005   -2.81540E+004    1.38740E+005    1.47257E+004    1.27987E+005   -5.82507E+004    2.02658E+004   -9.01740E+003   -5.16027E+004
              24    1.49048E+005    1.14593E+005    1.14593E+005   -1.02414E+004   -5.04288E+004    1.65021E+005   -1.79741E+004    1.36036E+005   -6.91896E+003    9.95757E+004   -3.87345E+004    1.91930E+004   -6.12440E+003   -4.18575E+004
              25    2.45654E+005    1.85993E+005    1.85993E+005    5.25748E+004   -9.75009E+004    2.83494E+005   -4.70224E+004   -1.14611E+005    6.15209E+004    1.62435E+005   -8.28889E+004    3.13509E+004   -1.74821E+004   -6.01932E+004
              26    2.31582E+005    1.48371E+005    1.48371E+005   -3.39418E+004   -1.12201E+005    2.60572E+005   -7.42602E+002    1.98381E+005   -3.29686E+004    1.37082E+005   -1.01886E+005    1.65205E+004   -1.17966E+004   -4.83300E+004
              27    1.82677E+005    1.34079E+005    1.34079E+005    7.72890E+003   -7.53756E+004    2.09454E+005   -2.21440E+004    1.28549E+005    1.08445E+004    1.19260E+005   -6.36726E+004    1.88276E+004   -1.03102E+004   -4.69147E+004
              28    1.40523E+005    9.12509E+004    9.12509E+004   -1.80324E+004   -6.72641E+004    1.58515E+005   -1.98478E+003    1.18653E+005   -1.48967E+004    7.44020E+004   -5.35510E+004    1.70850E+004   -9.16992E+003   -4.35838E+004
              29    1.23766E+005    9.09853E+004    9.09853E+004    7.54499E+003   -5.12147E+004    1.42200E+005   -1.57718E+004    8.24044E+004    2.01804E+004    7.27733E+004   -4.56381E+004    3.02200E+004   -2.65116E+003   -2.58032E+004
              30    1.88700E+005    1.20746E+005    1.20746E+005    7.69056E+003   -9.70932E+004    2.17839E+005   -1.04478E+004    7.61469E+004    1.69297E+004    1.00751E+005   -8.63372E+004    3.21039E+004   -1.03915E+003   -4.53370E+004
              31    2.43614E+005    1.76643E+005    1.76643E+005    3.50461E+004   -1.04656E+005    2.81299E+005   -3.56778E+004    5.52538E+004    4.20272E+004    1.60737E+005   -9.57304E+004    3.31282E+004    3.75605E+003   -4.68712E+004
              32    2.64830E+005    1.73830E+005    1.73830E+005    4.11669E+003   -1.31329E+005    3.05159E+005   -1.55392E+004    1.53047E+005    5.31259E+003    1.67524E+005   -1.26219E+005    1.75146E+004    5.73166E+003   -3.72692E+004
              33    5.01463E+005    4.87577E+005    4.87577E+005    2.60047E+004   -4.59931E+004    5.33570E+005   -1.55863E+005    4.89632E+005   -4.45801E+004    4.86075E+005    2.60945E+004    2.67239E+004   -2.68160E+003   -8.47795E+003
              34    4.73068E+005    4.52532E+005    4.52532E+005    8.48666E+003   -4.50101E+004    4.97542E+005   -1.38670E+005    4.66190E+005   -4.29251E+004    4.50088E+005    8.84603E+003    2.55743E+004   -7.48972E+003   -2.19451E+004
              35    4.29081E+005    3.96401E+005    3.96401E+005   -1.99729E+004   -4.43480E+004    4.40749E+005   -1.10693E+005    4.27519E+005   -3.98599E+004    3.92769E+005   -2.08282E+004    2.39069E+004   -9.91874E+003   -3.05784E+004
              36    3.80255E+005    3.32784E+005    3.32784E+005   -3.50637E+004   -5.87699E+004    3.91554E+005   -7.96500E+004    3.78587E+005   -3.67146E+004    3.28754E+005   -5.30896E+004    2.23835E+004   -9.86617E+003   -3.15108E+004
              37    3.41211E+005    2.69230E+005    2.69230E+005   -3.71731E+004   -9.84764E+004    3.67707E+005   -4.45269E+004    3.28476E+005   -3.63705E+004    2.65061E+005   -9.51094E+004    1.87411E+004   -6.73258E+003   -3.27526E+004
              38    3.01880E+005    2.09014E+005    2.09014E+005   -4.92704E+004   -1.22856E+005    3.31870E+005   -1.22958E+004    2.80617E+005   -4.88376E+004    2.06634E+005   -1.20909E+005    1.25610E+004    2.49425E+003   -2.42718E+004
              39    3.14460E+005    1.64693E+005   -1.85792E+005   -9.27399E+004   -1.85792E+005    3.50485E+005    3.79463E+004    2.80887E+005   -9.33743E+004    1.62636E+005   -1.83101E+005   -2.36722E+003    8.06326E+003   -2.65213E+004
              40    7.96216E+004    5.70798E+004    5.70798E+004   -8.21250E+003   -3.16224E+004    8.87022E+004   -5.74829E+003    7.12393E+004    5.49558E+003    4.15157E+004   -2.97664E+004    2.65091E+004   -2.91527E+003   -1.14732E+004
              41    4.69217E+004    3.88964E+004    3.88964E+004   -1.14815E+003   -1.27325E+004    5.16289E+004   -8.33859E+003    4.35264E+004    5.24789E+003    2.30671E+004   -3.29927E+003    2.28353E+004   -2.13578E+003    5.18724E+003
              42    4.02201E+004    2.21766E+004   -2.40902E+004   -4.44785E+003   -2.40902E+004    4.62669E+004    2.12048E+003    2.55972E+004   -1.82426E+003    2.28626E+002   -4.76581E+003    2.13270E+004    1.70319E+002    8.83443E+003
              43    4.88630E+004    1.76740E+004   -3.48092E+004    9.36912E+003   -3.48092E+004    5.24832E+004    2.58872E+003   -4.72359E+004   -1.38189E+003   -1.89296E+004    1.25453E+004    2.28712E+004    1.82042E+003    4.54940E+003
              44    7.40113E+004    2.22705E+004   -5.90377E+004    4.40684E+003   -5.90377E+004    8.13082E+004    1.07868E+004   -6.89059E+004   -1.04902E+004   -4.30997E+004    2.12296E+004    2.67428E+004    2.93102E+003   -8.21528E+003
              45    1.29163E+005    6.30956E+004   -8.56766E+004   -2.16762E+003   -8.56766E+004    1.48772E+005    8.24954E+003   -7.68323E+004   -1.53494E+004   -6.67205E+004    5.73213E+004    3.07556E+004    2.61869E+003   -2.69048E+004
              46    1.82006E+005    8.65047E+004   -1.23651E+005   -1.70539E+004   -1.23651E+005    2.10155E+005    1.80667E+004   -5.32456E+004   -2.75686E+004   -1.05652E+005    7.90204E+004    3.31991E+004   -8.92013E+002   -3.66804E+004
              47    2.26283E+005    1.20715E+005   -1.40295E+005   -2.02447E+004   -1.40295E+005    2.61010E+005    1.32749E+004    1.16995E+005   -2.68393E+004   -1.26700E+005    1.13714E+005    2.87045E+004   -2.12511E+003   -4.06426E+004
              48    2.38366E+005    1.29305E+005   -1.45820E+005   -1.34475E+003   -1.45820E+005    2.75125E+005    5.95305E+003   -1.05581E+005   -3.04056E+003   -1.39592E+005    1.24774E+005    2.10125E+004   -9.47249E+003   -3.04865E+004
              49    8.22773E+004    6.39603E+004    6.39603E+004   -8.52806E+002   -2.86044E+004    9.25647E+004   -1.15010E+004    7.05321E+004    5.47015E+003    4.90023E+004   -1.99693E+004    1.86529E+004   -5.04374E+003   -2.58185E+004
              50    1.02991E+005    7.73916E+004    7.73916E+004    2.10779E+001   -3.95075E+004    1.16899E+005   -1.26351E+004    8.31548E+004    5.92015E+003    5.80507E+004   -2.60657E+004    2.05844E+004   -4.50436E+003   -3.59022E+004
              51    1.08392E+005    9.08905E+004    9.08905E+004    2.07416E+003   -2.98893E+004    1.20780E+005   -2.10251E+004    9.69071E+004    7.26374E+003    7.31464E+004   -1.73348E+004    2.16130E+004   -3.59142E+003   -3.53203E+004
              52    1.13603E+005    9.51940E+004    9.51940E+004    1.33965E+003   -3.11001E+004    1.26294E+005   -2.18112E+004    1.02378E+005    6.88439E+003    7.78823E+004   -1.93331E+004    2.33469E+004   -3.04960E+003   -3.48951E+004
              53    1.11165E+005    9.94836E+004    9.94836E+004    2.34157E+003   -2.17524E+004    1.21236E+005   -2.66909E+004    1.05046E+005    8.20459E+003    8.61116E+004   -1.42433E+004    2.47339E+004   -1.94027E+003   -2.70110E+004
              54    1.09302E+005    9.91642E+004    9.91642E+004    1.44265E+003   -1.88683E+004    1.18033E+005   -2.72462E+004    1.04929E+005    8.21973E+003    8.87345E+004   -1.52157E+004    2.57859E+004   -1.31043E+003   -1.85132E+004
              55    1.06576E+005    9.93827E+004    9.93827E+004    1.20159E+003   -1.39637E+004    1.13346E+005   -2.88735E+004    1.04107E+005    8.79399E+003    9.14011E+004   -1.35745E+004    2.63710E+004   -3.51649E+002   -5.76537E+003
              56    5.48496E+004    3.54854E+004    3.54854E+004   -1.27571E+004   -2.41742E+004    5.96596E+004    4.81941E+002    5.20745E+004   -6.17751E+003    1.99139E+004   -1.51822E+004    1.88554E+004   -2.97445E+003   -1.74983E+004
              57    6.74546E+004    4.97606E+004    4.97606E+004   -6.84536E+003   -2.48775E+004    7.46382E+004   -6.01257E+003    6.16729E+004   -3.55783E+003    2.93337E+004   -7.73815E+003    2.00003E+004   -2.08627E+003   -2.64588E+004
              58    7.84509E+004    5.35055E+004    5.35055E+004   -9.75591E+003   -3.42772E+004    8.77826E+004   -3.15747E+003    6.90044E+004   -6.55174E+003    2.86904E+004   -1.26662E+004    2.09945E+004   -1.98824E+003   -3.32941E+004
              59    7.55621E+004    5.56957E+004    5.56957E+004   -6.49239E+003   -2.83994E+004    8.40951E+004   -6.93463E+003    6.78464E+004   -5.02980E+003    3.21991E+004   -6.36543E+003    2.24174E+004   -1.06347E+003   -3.03376E+004
              60    7.09661E+004    5.02911E+004    5.02911E+004   -8.25468E+003   -2.86355E+004    7.89266E+004   -4.46695E+003    6.38671E+004   -6.64960E+003    2.83819E+004   -8.33148E+003    2.33911E+004   -9.02282E+002   -2.64787E+004
              61    6.13842E+004    4.57046E+004    4.57046E+004   -5.88064E+003   -2.21860E+004    6.78906E+004   -5.87933E+003    5.61940E+004   -5.94864E+003    2.90621E+004   -5.47549E+003    2.42221E+004   -2.82668E+002   -1.63120E+004
              62    5.51511E+004    4.06155E+004    4.06155E+004   -6.25654E+003   -2.01555E+004    6.07710E+004   -4.73451E+003    5.09824E+004   -6.58929E+003    2.69141E+004   -6.12128E+003    2.45607E+004   -2.23815E+002   -6.44943E+003
              63    3.87420E+004    2.48438E+004    2.48438E+004    5.29082E+003   -1.97781E+004    4.46219E+004   -3.45220E+003   -2.31051E+004    3.98006E+003    1.29734E+003    5.07921E+003    1.95480E+004    5.52013E+002   -1.06818E+004
              64    5.79875E+004    3.08903E+004   -3.59304E+004    1.19308E+003   -3.59304E+004    6.68208E+004    1.28234E+003   -3.33977E+004    2.00557E+003   -4.67329E+003   -1.17929E+003    2.06315E+004    4.32419E+002   -2.61504E+004
              65    6.61301E+004    3.65521E+004   -3.93436E+004    5.88924E+003   -3.93436E+004    7.58957E+004   -1.03258E+003   -4.54731E+004    4.26625E+003   -7.57279E+003    6.40429E+003    2.19172E+004    9.54481E+002   -3.03278E+004
              66    7.14121E+004    3.28841E+004   -4.85075E+004    3.64483E+003   -4.85075E+004    8.13915E+004    3.99287E+003   -5.53161E+004    2.89708E+003   -1.79390E+004    3.06329E+003    2.34871E+004    7.20844E+002   -3.16521E+004
              67    6.77701E+004    2.87599E+004   -4.73446E+004    6.48333E+003   -4.73446E+004    7.61044E+004    4.03380E+003   -5.86416E+004    4.10037E+003   -2.35512E+004    7.34944E+003    2.47510E+004    8.47573E+002   -2.50851E+004
              68    6.47882E+004    2.19923E+004   -4.95014E+004    5.32422E+003   -4.95014E+004    7.14937E+004    7.39494E+003   -5.96714E+004    3.35266E+003   -3.12973E+004    5.75986E+003    2.57576E+004    3.89206E+002   -1.74820E+004
              69    6.12167E+004    1.76654E+004   -4.81390E+004    7.11981E+003   -4.81390E+004    6.58044E+004    7.78459E+003   -5.91211E+004    3.79088E+003   -3.43119E+004    7.16726E+003    2.62690E+004    2.53695E+002   -5.33026E+003
              70    5.17898E+004    1.71406E+004   -3.97587E+004    4.62952E+003   -3.97587E+004    5.68993E+004    5.99622E+003   -4.82107E+004   -2.25468E+003   -2.30877E+004    7.35375E+003    1.91599E+004    2.52237E+003   -1.66861E+004
              71    7.45170E+004    3.13392E+004   -5.26390E+004    5.58421E+003   -5.26390E+004    8.39781E+004    5.23852E+003   -6.32737E+004   -4.37902E+002   -3.25032E+004    1.72255E+004    1.99037E+004    2.87265E+003   -2.84780E+004
              72    9.02796E+004    2.96723E+004   -7.10316E+004    2.65390E+003   -7.10316E+004    1.00704E+005    1.29018E+004   -8.04000E+004   -1.82709E+003   -4.95149E+004    1.26365E+004    2.09104E+004    2.58006E+003   -3.48599E+004
              73    1.00297E+005    3.05817E+004   -8.01209E+004    4.69607E+003   -8.01209E+004    1.10703E+005    1.49477E+004   -9.23223E+004   -2.46448E+002   -6.23992E+004    1.78026E+004    2.21599E+004    2.53936E+003   -3.29467E+004
              74    1.07797E+005    2.39046E+004   -9.24989E+004    3.88453E+003   -9.24989E+004    1.16404E+005    2.15699E+004   -1.03490E+005   -8.38313E+002   -7.87998E+004    1.49283E+004    2.31820E+004    1.90643E+003   -2.85266E+004
              75    1.11172E+005    2.05748E+004   -9.73340E+004    5.57952E+003   -9.73340E+004    1.17909E+005    2.37265E+004   -1.08862E+005    1.58333E+002   -8.85854E+004    1.72474E+004    2.39336E+004    1.37098E+003   -1.78059E+004
              76    1.13373E+005    1.66684E+004   -1.01791E+005    5.69789E+003   -1.01791E+005    1.18459E+005    2.64749E+004   -1.12169E+005    8.21362E+000   -9.56059E+004    1.61730E+004    2.42926E+004    3.83628E+002   -6.67423E+003
              77    9.09076E+004    4.21298E+004   -6.05245E+004    9.79650E+003   -6.05245E+004    1.02654E+005    2.86609E+003   -7.62601E+004    3.98290E+003   -4.54806E+004    3.28994E+004    1.83381E+004    6.24082E+003   -2.84334E+004
              78    1.11630E+005    3.91874E+004   -8.58691E+004    3.71219E+003   -8.58691E+004    1.25056E+005    1.43232E+004   -9.76849E+004   -1.35184E+003   -6.80528E+004    2.64352E+004    2.01672E+004    5.34992E+003   -3.68810E+004
              79    1.31664E+005    4.36937E+004   -1.02461E+005    6.87177E+003   -1.02461E+005    1.46155E+005    1.72985E+004   -1.19228E+005    2.54820E+003   -8.60440E+004    3.16004E+004    2.06510E+004    5.46957E+003   -3.95803E+004
              80    1.48807E+005    3.68237E+004   -1.25763E+005    3.67409E+003   -1.25763E+005    1.62587E+005    2.84217E+004   -1.40134E+005   -4.01093E+002   -1.11377E+005    2.65132E+004    2.24163E+004    4.34452E+003   -3.89556E+004
              81    1.62178E+005    3.46183E+004   -1.40419E+005    4.74645E+003   -1.40419E+005    1.75037E+005    3.36846E+004   -1.55807E+005    7.93951E+002   -1.30685E+005    2.88373E+004    2.34573E+004    3.48870E+003   -3.08438E+004
              82    1.70587E+005    2.78793E+004   -1.53746E+005    3.08901E+003   -1.53746E+005    1.81625E+005    4.09259E+004   -1.66461E+005   -8.37064E+002   -1.47345E+005    2.54048E+004    2.45309E+004    2.00858E+003   -2.06913E+004
              83    1.75888E+005    2.62923E+004   -1.59960E+005    3.30316E+003   -1.59960E+005    1.86252E+005    4.34549E+004   -1.72460E+005   -6.26624E+002   -1.55785E+005    2.60470E+004    2.50143E+004    7.71565E+002   -6.67066E+003
              84    1.36418E+005    6.03033E+004   -9.47896E+004    6.61846E+003   -9.47896E+004    1.55093E+005    9.28928E+003   -1.08515E+005    2.72039E+003   -7.92270E+004    4.86388E+004    1.82931E+004    8.46858E+003   -4.00162E+004
              85    1.56470E+005    6.30335E+004   -1.14203E+005    4.79919E+003   -1.14203E+005    1.77236E+005    1.54567E+004   -1.28452E+005    1.30397E+003   -9.79785E+004    5.03044E+004    1.90182E+004    7.10880E+003   -4.51778E+004
              86    1.79048E+005    5.48024E+004   -1.43746E+005    5.44927E+003   -1.43746E+005    1.98548E+005    2.78314E+004   -1.62657E+005    2.61971E+003   -1.28159E+005    4.20449E+004    1.94443E+004    6.90144E+003   -4.81931E+004
              87    2.01520E+005    5.25213E+004   -1.68018E+005    6.53296E+003   -1.68018E+005    2.20540E+005    3.63214E+004   -1.89165E+005    3.94487E+003   -1.56469E+005    4.35599E+004    2.05449E+004    5.70108E+003   -4.31662E+004
              88    2.18958E+005    4.25812E+004   -1.91924E+005    7.17055E+003   -1.91924E+005    2.34505E+005    4.73907E+004   -2.12372E+005    4.83127E+003   -1.83952E+005    3.69485E+004    2.11888E+004    4.54373E+003   -3.55901E+004
              89    2.33813E+005    3.92916E+004   -2.08387E+005    8.51071E+003   -2.08387E+005    2.47679E+005    5.35283E+004   -2.29188E+005    6.27451E+003   -2.04007E+005    3.71478E+004    2.18460E+004    2.87850E+003   -2.27175E+004
              90    2.40820E+005    3.47967E+004   -2.17903E+005    8.95453E+003   -2.17903E+005    2.52699E+005    5.80505E+004   -2.37671E+005    6.79347E+003   -2.15505E+005    3.45604E+004    2.20333E+004    9.62582E+002   -7.63745E+003
              91    1.83994E+005    9.21036E+004   -1.18976E+005    7.49569E+003   -1.18976E+005    2.11079E+005    6.45876E+003   -1.27838E+005    4.94649E+003   -1.03972E+005    7.96488E+004    1.73527E+004    1.12774E+004   -4.82669E+004
              92    2.01306E+005    7.69448E+004   -1.52168E+005   -3.63525E+003   -1.52168E+005    2.29113E+005    2.62862E+004   -1.58391E+005   -6.69624E+003   -1.34865E+005    6.27030E+004    2.00971E+004    9.56272E+003   -5.44655E+004
              93    2.26356E+005    7.32375E+004   -1.80158E+005    2.04073E+003   -1.80158E+005    2.53395E+005    3.49599E+004   -1.98719E+005   -1.38486E+002   -1.66125E+005    6.13843E+004    1.95980E+004    8.94582E+003   -5.25872E+004
              94    2.47494E+005    5.79507E+004   -2.14442E+005   -3.37680E+003   -2.14442E+005    2.72392E+005    5.32892E+004   -2.29446E+005   -5.56005E+003   -2.02927E+005    4.86197E+004    2.11709E+004    7.19223E+003   -4.88913E+004
              95    2.71576E+005    5.13393E+004   -2.43052E+005   -2.29209E+003   -2.43052E+005    2.94391E+005    6.46681E+004   -2.59257E+005   -4.33208E+003   -2.35599E+005    4.59266E+004    2.21679E+004    5.60603E+003   -3.89519E+004
              96    2.85479E+005    3.96825E+004   -2.65676E+005   -5.45320E+003   -2.65676E+005    3.05358E+005    7.71488E+004   -2.77281E+005   -7.57101E+003   -2.61431E+005    3.75560E+004    2.34068E+004    3.30357E+003   -2.50629E+004
              97    2.96649E+005    3.64228E+004   -2.78896E+005   -5.34292E+003   -2.78896E+005    3.15319E+005    8.26053E+004   -2.89924E+005   -7.45539E+003   -2.76518E+005    3.61576E+004    2.39569E+004    1.20355E+003   -9.00215E+003
              98    2.24718E+005    1.06865E+005   -1.50311E+005    8.17297E+003   -1.50311E+005    2.57175E+005    1.17576E+004   -1.64139E+005    5.04493E+003   -1.35312E+005    9.49947E+004    2.16553E+004    1.17748E+004   -5.24693E+004
              99    2.46456E+005    1.00640E+005   -1.79001E+005    6.54928E+003   -1.79001E+005    2.79641E+005    2.39371E+004   -1.99586E+005    4.46457E+003   -1.65639E+005    8.93636E+004    1.91311E+004    8.05995E+003   -5.43529E+004
             100    2.67196E+005    8.10823E+004   -2.15187E+005    7.52638E+003   -2.15187E+005    2.96269E+005    4.21927E+004   -2.42803E+005    5.96156E+003   -2.02320E+005    6.97808E+004    1.92649E+004    9.06932E+003   -5.56377E+004
             101    3.00834E+005    7.25851E+004   -2.54269E+005    1.10215E+004   -2.54269E+005    3.26854E+005    5.68873E+004   -2.86142E+005    9.89805E+003   -2.44757E+005    6.41973E+004    1.88840E+004    7.85441E+003   -5.04013E+004
             102    3.25838E+005    5.38131E+004   -2.90573E+005    1.28414E+004   -2.90573E+005    3.44386E+005    7.46394E+004   -3.19965E+005    1.19948E+004   -2.84384E+005    4.84714E+004    1.91525E+004    6.61427E+003   -4.06466E+004
             103    3.51953E+005    4.58217E+004   -3.19889E+005    1.64692E+004   -3.19889E+005    3.65710E+005    8.58659E+004   -3.49184E+005    1.56584E+004   -3.16660E+005    4.34038E+004    1.89763E+004    4.39044E+003   -2.77336E+004
             104    3.65789E+005    3.76556E+004   -3.37499E+005    1.81433E+004   -3.37499E+005    3.75155E+005    9.39001E+004   -3.64616E+005    1.71887E+004   -3.36275E+005    3.73858E+004    1.89881E+004    1.57333E+003   -8.74058E+003
             105    2.63505E+005    1.23904E+005   -1.80344E+005   -2.51332E+004   -1.80344E+005    3.04248E+005    2.71911E+004   -8.63073E+004   -3.14459E+004   -1.65757E+005    1.15630E+005    2.98120E+004    9.23359E+003   -4.86067E+004
             106    2.66865E+005    1.01967E+005   -2.01424E+005   -3.01256E+003   -2.01424E+005    3.03392E+005    3.41564E+004   -2.12333E+005   -5.40151E+003   -1.88795E+005    9.17278E+004    2.19203E+004    1.09544E+004   -5.33396E+004
             107    3.02085E+005    9.32767E+004   -2.47889E+005   -1.43785E+004   -2.47889E+005    3.41165E+005    5.63301E+004   -2.53189E+005   -1.68992E+004   -2.36679E+005    8.45881E+004    2.43986E+004    9.94448E+003   -5.24873E+004
             108    3.24182E+005    6.19199E+004   -2.92687E+005   -1.15343E+004   -2.92687E+005    3.54606E+005    8.07670E+004   -3.04602E+005   -1.36439E+004   -2.83639E+005    5.49817E+004    2.51770E+004    8.47736E+003   -4.77543E+004
             109    3.59977E+005    4.29707E+004   -3.44401E+005   -2.01731E+004   -3.44401E+005    3.87371E+005    1.07201E+005   -3.47188E+005   -2.27460E+004   -3.37035E+005    3.81783E+004    2.89163E+004    5.90176E+003   -4.21634E+004
             110    3.86507E+005    2.01208E+004   -3.85828E+005   -2.22557E+004   -3.85828E+005    4.05949E+005    1.29321E+005   -3.81228E+005   -2.49739E+004   -3.81216E+005    1.82274E+004    3.13516E+004    3.31039E+003   -2.73296E+004
             111    4.04957E+005    1.04583E+004   -4.11732E+005   -2.65490E+004   -4.11732E+005    4.22190E+005    1.42608E+005   -4.01126E+005   -2.95083E+004   -4.08471E+005    1.01569E+004    3.36186E+004    1.03359E+003   -1.12275E+004
             112    5.02073E+005    3.96261E+004   -4.92061E+005   -2.60700E+004   -4.92061E+005    5.31687E+005    1.59502E+005   -4.92263E+005    3.81045E+004   -4.90504E+005   -2.61053E+004    2.75212E+004    2.86246E+003   -7.58194E+003
             113    4.71227E+005    3.59939E+004   -4.54605E+005   -5.49388E+003   -4.54605E+005    4.90599E+005    1.41368E+005   -4.67091E+005    3.35318E+004   -4.51727E+005   -5.91037E+003    2.65198E+004    7.79569E+003   -2.49732E+004
             114    4.20908E+005    3.42058E+004   -3.94489E+005    1.81747E+004   -3.94489E+005    4.28694E+005    1.14036E+005   -4.20220E+005    2.60217E+004   -3.90347E+005    2.22173E+004    2.59883E+004    9.90502E+003   -3.18820E+004
             115    3.73648E+005    6.40796E+004   -3.30796E+005    1.72001E+004   -3.30796E+005    3.94875E+005    8.31720E+004   -3.66944E+005    1.63042E+004   -3.24871E+005    5.90504E+004    2.49089E+004    9.40105E+003   -3.94743E+004
             116    3.24090E+005    8.54640E+004   -2.69978E+005    9.13568E+003   -2.69978E+005    3.55442E+005    5.84593E+004   -3.02860E+005    6.69577E+003   -2.63303E+005    8.12291E+004    2.62966E+004    6.39361E+003   -3.76780E+004
             117    3.03553E+005    1.20586E+005   -2.24683E+005    2.62607E+002   -2.24683E+005    3.45268E+005    3.46115E+004   -2.40369E+005   -2.73976E+003   -2.16828E+005    1.15733E+005    2.58217E+004    1.89439E+003   -4.04138E+004
             118    2.58653E+005    1.17792E+005   -1.79273E+005   -3.99581E+003   -1.79273E+005    2.97065E+005    2.18258E+004   -1.74256E+005   -6.32735E+003   -1.70697E+005    1.11547E+005    2.59029E+004   -8.57020E+003   -3.82160E+004
             119    2.63971E+005    1.72034E+005    1.72034E+005    3.66874E+003   -1.32195E+005    3.04229E+005   -1.45024E+004    1.50072E+005    4.75857E+003    1.65849E+005   -1.27101E+005    1.67739E+004   -5.62719E+003    3.72521E+004
             120    2.44574E+005    1.77329E+005    1.77329E+005    3.49085E+004   -1.05077E+005    2.82406E+005   -3.57200E+004    6.02238E+004    4.17685E+004    1.61606E+005   -9.62147E+004    3.29858E+004   -3.82793E+003    4.68054E+004
             121    1.89743E+005    1.21804E+005    1.21804E+005    7.91001E+003   -9.72339E+004    2.19038E+005   -1.08266E+004    7.78696E+004    1.71824E+004    1.01757E+005   -8.64595E+004    3.22821E+004    1.04777E+003    4.55068E+004
             122    1.24362E+005    9.13895E+004    9.13895E+004    7.31019E+003   -5.14665E+004    1.42856E+005   -1.57444E+004    8.33424E+004    1.99479E+004    7.31307E+004   -4.58454E+004    3.03396E+004    2.73516E+003    2.59859E+004
             123    1.41131E+005    9.20838E+004    9.20838E+004   -1.77563E+004   -6.70921E+004    1.59176E+005   -2.41182E+003    1.19277E+005   -1.46621E+004    7.52335E+004   -5.33359E+004    1.70304E+004    9.19179E+003    4.37450E+004
             124    1.50121E+005    1.15670E+005    1.15670E+005   -1.00399E+004   -5.05480E+004    1.66218E+005   -1.83608E+004    1.36993E+005   -6.72744E+003    1.00622E+005   -3.88127E+004    1.92342E+004    6.14516E+003    4.20922E+004
             125    1.63537E+005    1.26489E+005    1.26489E+005   -1.65087E+004   -5.18189E+004    1.78308E+005   -1.93870E+004    1.54607E+005   -1.36437E+004    1.11465E+005   -3.96604E+004    1.91599E+004    6.29000E+003    4.44983E+004
             126    1.72667E+005    1.43697E+005    1.43697E+005   -1.38935E+004   -4.08696E+004    1.84567E+005   -2.96447E+004    1.67827E+005   -1.09870E+004    1.31924E+005   -3.20023E+004    2.08199E+004    4.20941E+003    3.91228E+004
             127    1.80486E+005    1.51777E+005    1.51777E+005   -1.66802E+004   -3.87144E+004    1.90492E+005   -3.21275E+004    1.77422E+005   -1.38581E+004    1.43219E+005   -3.29779E+004    2.13425E+004    3.53157E+003    3.22974E+004
             128    1.84651E+005    1.60125E+005    1.60125E+005   -1.61774E+004   -3.18716E+004    1.91997E+005   -3.73588E+004    1.83141E+005   -1.33314E+004    1.55134E+005   -2.97261E+004    2.21996E+004    1.88804E+003    1.99621E+004
             129    1.85895E+005    1.61972E+005    1.61972E+005   -1.71066E+004   -3.00625E+004    1.92034E+005   -3.82675E+004    1.84875E+005   -1.42536E+004    1.58825E+005   -2.97685E+004    2.24079E+004    8.34191E+002    7.44995E+003
             130    1.83707E+005    1.34871E+005    1.34871E+005    7.43623E+003   -7.57092E+004    2.10580E+005   -2.21993E+004    1.30031E+005    1.04836E+004    1.20066E+005   -6.39521E+004    1.87385E+004    1.03712E+004    4.71392E+004
             131    1.90862E+005    1.46562E+005    1.46562E+005    1.09218E+004   -7.16894E+004    2.18252E+005   -2.85982E+004    1.41332E+005    1.43928E+004    1.29490E+005   -5.80877E+004    2.02868E+004    8.98784E+003    5.19884E+004
             132    2.05692E+005    1.74389E+005    1.74389E+005    1.07097E+004   -5.64998E+004    2.30889E+005   -4.28664E+004    1.78354E+005    1.36886E+004    1.59112E+005   -4.42017E+004    2.10435E+004    7.86770E+003    5.12408E+004
             133    2.23341E+005    1.95021E+005    1.95021E+005    1.13117E+004   -5.35804E+004    2.48601E+005   -5.09174E+004    2.00428E+005    1.42164E+004    1.82494E+005   -4.39584E+004    2.23104E+004    6.64526E+003    4.74845E+004
             134    2.35309E+005    2.15750E+005    2.15750E+005    1.21361E+004   -4.18667E+004    2.57616E+005   -6.20063E+004    2.20711E+005    1.50321E+004    2.07529E+005   -3.65426E+004    2.37953E+004    4.74193E+003    3.63374E+004
             135    2.44374E+005    2.28231E+005    2.28231E+005    1.28373E+004   -3.73356E+004    2.65567E+005   -6.79110E+004    2.32358E+005    1.57685E+004    2.23103E+005   -3.51390E+004    2.48267E+004    2.92635E+003    2.38729E+004
             136    2.48140E+005    2.35410E+005    2.35410E+005    1.35280E+004   -3.25330E+004    2.67943E+005   -7.21351E+004    2.38235E+005    1.65204E+004    2.32205E+005   -3.23200E+004    2.55809E+004    9.22269E+002    7.49581E+003
             137    2.31634E+005    1.47978E+005    1.47978E+005   -3.45390E+004   -1.12603E+005    2.60581E+005   -2.78448E+002    1.98630E+005   -3.36240E+004    1.36509E+005   -1.02050E+005    1.63727E+004    1.19618E+004    4.88273E+004
             138    2.41629E+005    1.80760E+005    1.80760E+005   -2.05715E+004   -8.71896E+004    2.67949E+005   -2.43328E+004    2.19499E+005   -1.89767E+004    1.66315E+005   -7.43401E+004    1.76211E+004    7.51584E+003    5.66477E+004
             139    2.71990E+005    2.10009E+005    2.10009E+005   -2.63693E+004   -8.72685E+004    2.97277E+005   -3.21236E+004    2.55967E+005   -2.53761E+004    1.96700E+005   -7.49538E+004    1.66022E+004    8.26273E+003    5.81972E+004
             140    2.94151E+005    2.45643E+005    2.45643E+005   -2.31601E+004   -6.85744E+004    3.14217E+005   -5.13027E+004    2.86104E+005   -2.21929E+004    2.36210E+005   -6.01094E+004    1.73075E+004    6.29361E+003    4.99991E+004
             141    3.16773E+005    2.72202E+005    2.72202E+005   -2.59601E+004   -6.03719E+004    3.32574E+005   -6.19567E+004    3.12526E+005   -2.52663E+004    2.66040E+005   -5.49038E+004    1.70768E+004    5.63897E+003    4.08391E+004
             142    3.32899E+005    2.94732E+005    2.94732E+005   -2.65064E+004   -4.87152E+004    3.43447E+005   -7.31701E+004    3.31226E+005   -2.57850E+004    2.91873E+005   -4.65781E+004    1.73031E+004    3.58234E+003    2.54333E+004
             143    3.40883E+005    3.04516E+005    3.04516E+005   -2.79696E+004   -4.41843E+004    3.48701E+005   -7.74541E+004    3.40013E+005   -2.71327E+004    3.03379E+005   -4.38837E+004    1.72061E+004    1.43210E+003    9.16265E+003
             144    2.47153E+005    1.86940E+005    1.86940E+005    5.28288E+004   -9.82794E+004    2.85219E+005   -4.71631E+004   -1.15852E+005    6.18745E+004    1.63293E+005   -8.36781E+004    3.16127E+004    1.77071E+004    6.03134E+004
             145    2.86586E+005    2.13354E+005    2.13354E+005    3.72984E+004   -1.17336E+005    3.30690E+005   -4.44389E+004    1.38106E+005    4.20660E+004    1.96250E+005   -1.04999E+005    2.76676E+004    1.34726E+004    6.11397E+004
             146    2.95832E+005    2.51923E+005    2.51923E+005    3.14231E+004   -8.42726E+004    3.36196E+005   -6.63579E+004    2.36229E+005    3.46890E+004    2.39524E+005   -7.51390E+004    2.65117E+004    1.04708E+004    5.34266E+004
             147    3.22928E+005    2.94496E+005    2.94496E+005    2.88780E+004   -6.49582E+004    3.59454E+005   -8.61386E+004    2.89791E+005    3.14513E+004    2.84737E+005   -5.77722E+004    2.62962E+004    8.58572E+003    4.92404E+004
             148    3.47620E+005    3.38685E+005    3.38685E+005    3.09755E+004   -3.83861E+004    3.77071E+005   -1.10425E+005    3.31510E+005    3.36577E+004    3.31770E+005   -3.41533E+004    2.87694E+004    5.93962E+003    3.90124E+004
             149    3.70079E+005    3.71369E+005    3.71369E+005    3.27128E+004   -2.36636E+004    3.95032E+005   -1.26806E+005    3.60228E+005    3.55318E+004    3.66612E+005   -2.17262E+004    3.07249E+004    3.20060E+003    2.73607E+004
             150    3.84425E+005    3.91800E+005    3.91800E+005    3.43478E+004   -1.48577E+004    4.06658E+005   -1.37097E+005    3.77242E+005    3.72672E+004    3.88654E+005   -1.46308E+004    3.21616E+004    9.04199E+002    9.55994E+003
             151    5.01351E+005    4.87175E+005    4.87175E+005    2.58643E+004   -4.63776E+004    5.33553E+005   -1.55554E+005    4.89435E+005   -4.49742E+004    4.85692E+005    2.59436E+004    2.64772E+004    2.91600E+003    8.58692E+003
             152    4.73754E+005    4.52994E+005    4.52994E+005    8.53584E+003   -4.54327E+004    4.98427E+005   -1.38699E+005    4.66763E+005   -4.33703E+004    4.50596E+005    8.87188E+003    2.54542E+004    7.46323E+003    2.16484E+004
             153    4.29374E+005    3.96550E+005    3.96550E+005   -2.00741E+004   -4.45304E+004    4.41080E+005   -1.10648E+005    4.27803E+005   -4.01528E+004    3.92988E+005   -2.08897E+004    2.36041E+004    9.81359E+003    3.03540E+004
             154    3.81006E+005    3.33400E+005    3.33400E+005   -3.54134E+004   -5.87274E+004    3.92128E+005   -7.97531E+004    3.79396E+005   -3.69655E+004    3.29377E+005   -5.31520E+004    2.22900E+004    9.65593E+003    3.16063E+004
             155    3.41878E+005    2.70564E+005    2.70564E+005   -3.74172E+004   -9.72983E+004    3.67862E+005   -4.52828E+004    3.29768E+005   -3.66078E+004    2.66403E+005   -9.39466E+004    1.86320E+004    6.48855E+003    3.28385E+004
             156    3.02203E+005    2.10373E+005    2.10373E+005   -4.79568E+004   -1.21956E+005    3.32329E+005   -1.34865E+004    2.80711E+005   -4.74486E+004    2.07833E+005   -1.19924E+005    1.31333E+004   -2.23342E+003    2.49741E+004
             157    3.14009E+005    1.65266E+005   -1.84613E+005   -9.20750E+004   -1.84613E+005    3.49879E+005    3.71406E+004    2.80784E+005   -9.27693E+004    1.63319E+005   -1.81971E+005   -1.84666E+003   -8.27795E+003    2.58479E+004
             158    4.05207E+005    1.03167E+004   -4.12137E+005   -2.67194E+004   -4.12137E+005    4.22453E+005    1.42846E+005   -4.01372E+005   -2.96839E+004   -4.08856E+005    1.00010E+004    3.36634E+004   -1.20362E+003    1.14657E+004
             159    3.66054E+005    3.76305E+004   -3.37864E+005    1.79564E+004   -3.37864E+005    3.75494E+005    9.40922E+004   -3.64861E+005    1.69815E+004   -3.36601E+005    3.73429E+004    1.91046E+004   -1.53504E+003    9.28621E+003
             160    2.97007E+005    3.65405E+004   -2.79163E+005   -5.28613E+003   -2.79163E+005    3.15704E+005    8.26362E+004   -2.90270E+005   -7.38576E+003   -2.76762E+005    3.62389E+004    2.39076E+004   -1.33662E+003    9.57891E+003
             161    2.40736E+005    3.49833E+004   -2.17741E+005    8.87956E+003   -2.17741E+005    2.52724E+005    5.79592E+004   -2.37520E+005    6.71475E+003   -2.15298E+005    3.47051E+004    2.20393E+004   -1.03922E+003    8.28976E+003
             162    1.75790E+005    2.63200E+004   -1.59844E+005    3.30382E+003   -1.59844E+005    1.86164E+005    4.34068E+004   -1.72351E+005   -6.25153E+002   -1.55627E+005    2.60323E+004    2.50000E+004   -8.50340E+002    7.22539E+003
             163    1.13246E+005    1.67461E+004   -1.01616E+005    5.70487E+003   -1.01616E+005    1.18362E+005    2.63884E+004   -1.12025E+005    2.30925E+001   -9.53810E+004    1.61928E+004    2.42856E+004   -3.96636E+002    7.04189E+003
             164    6.13349E+004    1.76569E+004   -4.82780E+004    7.08154E+003   -4.82780E+004    6.59349E+004    7.84653E+003   -5.92314E+004    3.77666E+003   -3.44432E+004    7.12696E+003    2.62699E+004   -2.71111E+002    5.51940E+003
             165    5.52313E+004    4.07623E+004    4.07623E+004   -6.24635E+003   -2.00667E+004    6.08290E+004   -4.81640E+003    5.11192E+004   -6.51345E+003    2.70699E+004   -6.10728E+003    2.45677E+004    2.39176E+002    6.46126E+003
             166    1.06808E+005    9.95933E+004    9.95933E+004    1.24001E+003   -1.40267E+004    1.13620E+005   -2.89356E+004    1.04311E+005    8.82188E+003    9.16321E+004   -1.36474E+004    2.63795E+004    3.25792E+002    5.68429E+003
             167    3.86348E+005    2.02376E+004   -3.85714E+005   -2.25287E+004   -3.85714E+005    4.05952E+005    1.29335E+005   -3.80968E+005   -2.52744E+004   -3.81011E+005    1.82799E+004    3.14705E+004   -3.29775E+003    2.78190E+004
             168    3.51828E+005    4.58428E+004   -3.19897E+005    1.61359E+004   -3.19897E+005    3.65740E+005    8.59727E+004   -3.48990E+005    1.53290E+004   -3.16564E+005    4.33168E+004    1.90800E+004   -4.53872E+003    2.83078E+004
             169    2.85088E+005    4.02684E+004   -2.64831E+005   -5.22550E+003   -2.64831E+005    3.05100E+005    7.65962E+004   -2.76745E+005   -7.33322E+003   -2.60443E+005    3.79878E+004    2.33214E+004   -3.40523E+003    2.59429E+004
             170    2.32717E+005    3.94926E+004   -2.07190E+005    8.44660E+003   -2.07190E+005    2.46682E+005    5.30834E+004   -2.27989E+005    6.20290E+003   -2.02656E+005    3.72027E+004    2.18139E+004   -2.99060E+003    2.34198E+004
             171    1.69344E+005    2.80035E+004   -1.52393E+005    3.15278E+003   -1.52393E+005    1.80396E+005    4.04121E+004   -1.65167E+005   -7.95069E+002   -1.45815E+005    2.53735E+004    2.45002E+004   -2.05782E+003    2.12400E+004
             172    1.10254E+005    2.05074E+004   -9.64683E+004    5.53290E+003   -9.64683E+004    1.16976E+005    2.34760E+004   -1.07930E+005    1.00733E+002   -8.75465E+004    1.70178E+004    2.39205E+004   -1.37550E+003    1.80989E+004
             173    6.44611E+004    2.22557E+004   -4.89971E+004    5.27101E+003   -4.89971E+004    7.12529E+004    7.15680E+003   -5.91042E+004    3.42231E+003   -3.05470E+004    5.65426E+003    2.57571E+004   -3.85273E+002    1.76049E+004
             174    6.18507E+004    4.62161E+004    4.62161E+004   -6.06935E+003   -2.20596E+004    6.82756E+004   -6.02905E+003    5.69149E+004   -5.99038E+003    2.97811E+004   -5.70354E+003    2.42185E+004    3.01274E+002    1.62911E+004
             175    1.10274E+005    1.00177E+005    1.00177E+005    1.55056E+003   -1.88859E+004    1.19063E+005   -2.76140E+004    1.05887E+005    8.28990E+003    8.98871E+004   -1.53350E+004    2.57899E+004    1.32647E+003    1.84016E+004
             176    3.59066E+005    4.34403E+004   -3.43162E+005   -2.01211E+004   -3.43162E+005    3.86602E+005    1.06614E+005   -3.46067E+005   -2.27008E+004   -3.35714E+005    3.85723E+004    2.89089E+004   -5.98641E+003    4.24362E+004
             177    3.24189E+005    5.46640E+004   -2.88539E+005    1.25126E+004   -2.88539E+005    3.43203E+005    7.37876E+004   -3.17937E+005    1.16554E+004   -2.82166E+005    4.91479E+004    1.91698E+004   -6.75042E+003    4.12583E+004
             178    2.69137E+005    5.19005E+004   -2.40180E+005   -2.20784E+003   -2.40180E+005    2.92080E+005    6.34957E+004   -2.56467E+005   -4.26390E+003   -2.32449E+005    4.62260E+004    2.21063E+004   -5.72941E+003    3.97127E+004
             179    2.15882E+005    4.27993E+004   -1.88686E+005    7.15743E+003   -1.88686E+005    2.31485E+005    4.62430E+004   -2.09109E+005    4.78017E+003   -1.80418E+005    3.69086E+004    2.11496E+004   -4.59754E+003    3.61440E+004
             180    1.59338E+005    3.43683E+004   -1.37693E+005    4.77331E+003   -1.37693E+005    1.72061E+005    3.28504E+004   -1.52970E+005    7.49404E+002   -1.27671E+005    2.83700E+004    2.34602E+004   -3.48987E+003    3.10883E+004
             181    1.05699E+005    2.38294E+004   -9.04236E+004    3.87855E+003   -9.04236E+004    1.14253E+005    2.09052E+004   -1.01332E+005   -8.50313E+002   -7.63655E+004    1.45002E+004    2.31600E+004   -1.87591E+003    2.86080E+004
             182    6.69377E+004    2.91067E+004   -4.62678E+004    6.24044E+003   -4.62678E+004    7.53745E+004    3.64020E+003   -5.71032E+004    4.10535E+003   -2.19455E+004    6.91956E+003    2.47608E+004   -7.90460E+002    2.50306E+004
             183    7.18523E+004    5.14376E+004    5.14376E+004   -8.34933E+003   -2.82745E+004    7.97121E+004   -4.93791E+003    6.51888E+004   -6.60834E+003    3.00250E+004   -8.60291E+003    2.34026E+004    9.10919E+002    2.64460E+004
             184    1.12278E+005    1.00669E+005    1.00669E+005    2.55681E+003   -2.17811E+004    1.22450E+005   -2.71483E+004    1.06096E+005    8.43000E+003    8.74577E+004   -1.44427E+004    2.47576E+004    1.99402E+003    2.69530E+004
             185    3.22851E+005    6.32957E+004   -2.90328E+005   -1.13123E+004   -2.90328E+005    3.53624E+005    7.94481E+004   -3.02529E+005   -1.34112E+004   -2.81191E+005    5.62578E+004    2.49694E+004   -8.45838E+003    4.80695E+004
             186    2.97753E+005    7.34220E+004   -2.50681E+005    1.07415E+004   -2.50681E+005    3.24103E+005    5.55059E+004   -2.82331E+005    9.60828E+003   -2.40925E+005    6.47995E+004    1.88494E+004   -8.04202E+003    5.08470E+004
             187    2.43439E+005    5.85152E+004   -2.09824E+005   -3.14203E+003   -2.09824E+005    2.68339E+005    5.14837E+004   -2.24842E+005   -5.36408E+003   -1.97959E+005    4.88725E+004    2.10663E+004   -7.23095E+003    4.93086E+004
             188    1.97095E+005    5.21442E+004   -1.63745E+005    6.57354E+003   -1.63745E+005    2.15889E+005    3.50089E+004   -1.84675E+005    3.91653E+003   -1.51901E+005    4.29577E+004    2.05210E+004   -5.70584E+003    4.32002E+004
             189    1.45118E+005    3.63385E+004   -1.22299E+005    3.76233E+003   -1.22299E+005    1.58637E+005    2.73993E+004   -1.36523E+005   -3.91750E+002   -1.07598E+005    2.57921E+004    2.24009E+004   -4.26539E+003    3.87870E+004
             190    9.79329E+004    3.02402E+004   -7.79570E+004    4.61774E+003   -7.79570E+004    1.08197E+005    1.43664E+004   -8.99163E+004   -3.41752E+002   -5.98608E+004    1.71035E+004    2.21708E+004   -2.44895E+003    3.27264E+004
             191    7.08207E+004    3.34502E+004   -4.74248E+004    3.50064E+003   -4.74248E+004    8.08750E+004    3.49132E+003   -5.35075E+004    2.98827E+003   -1.61441E+004    2.68184E+003    2.34988E+004   -6.48984E+002    3.16093E+004
             192    7.64240E+004    5.66224E+004    5.66224E+004   -6.74661E+003   -2.82496E+004    8.48720E+004   -7.20872E+003    6.91109E+004   -5.15418E+003    3.35454E+004   -6.76509E+003    2.24304E+004    1.10802E+003    3.03589E+004
             193    1.14040E+005    9.58390E+004    9.58390E+004    1.63557E+003   -3.09464E+004    1.26785E+005   -2.21761E+004    1.02760E+005    7.20730E+003    7.86024E+004   -1.92816E+004    2.34191E+004    3.05034E+003    3.48417E+004
             194    3.00230E+005    9.41721E+004   -2.45183E+005   -1.41337E+004   -2.45183E+005    3.39355E+005    5.50483E+004   -2.50246E+005   -1.66550E+004   -2.33803E+005    8.53135E+004    2.42366E+004   -9.97169E+003    5.28655E+004
             195    2.63558E+005    8.18721E+004   -2.10892E+005    7.45804E+003   -2.10892E+005    2.92764E+005    4.05208E+004   -2.38147E+005    5.86262E+003   -1.97786E+005    7.03614E+004    1.91767E+004   -9.12888E+003    5.58013E+004
             196    2.21683E+005    7.29323E+004   -1.75535E+005    2.00469E+003   -1.75535E+005    2.48467E+005    3.35326E+004   -1.93571E+005   -2.54785E+002   -1.61226E+005    6.08828E+004    1.95933E+004   -8.94427E+003    5.24752E+004
             197    1.74423E+005    5.39453E+004   -1.39554E+005    5.58673E+003   -1.39554E+005    1.93500E+005    2.66741E+004   -1.58254E+005    2.67625E+003   -1.23792E+005    4.10935E+004    1.94119E+004   -6.82631E+003    4.76948E+004
             198    1.28370E+005    4.27944E+004   -9.97050E+004    6.88985E+003   -9.97050E+004    1.42499E+005    1.66736E+004   -1.16243E+005    2.45904E+003   -8.31175E+004    3.06376E+004    2.06928E+004   -5.33699E+003    3.90726E+004
             199    8.85429E+004    2.94742E+004   -6.93803E+004    2.64526E+003   -6.93803E+004    9.88545E+004    1.24203E+004   -7.85865E+004   -1.79190E+003   -4.75047E+004    1.20358E+004    2.09200E+004   -2.49156E+003    3.46184E+004
             200    6.59015E+004    3.69198E+004   -3.87926E+004    5.67728E+003   -3.87926E+004    7.57123E+004   -1.26817E+003   -4.39704E+004    4.23913E+003   -6.46971E+003    6.03508E+003    2.19470E+004   -8.75738E+002    3.03236E+004
             201    7.91913E+004    5.43026E+004    5.43026E+004   -9.75852E+003   -3.42380E+004    8.85406E+004   -3.43538E+003    6.98865E+004   -6.51988E+003    2.96042E+004   -1.27782E+004    2.10147E+004    2.02050E+003    3.34861E+004
             202    1.09039E+005    9.15738E+004    9.15738E+004    2.09985E+003   -2.98789E+004    1.21453E+005   -2.12649E+004    9.76223E+004    7.28019E+003    7.39385E+004   -1.74239E+004    2.16653E+004    3.58562E+003    3.53195E+004
             203    2.64942E+005    1.02445E+005   -1.98943E+005   -2.76966E+003   -1.98943E+005    3.01388E+005    3.30893E+004   -2.09545E+005   -5.16440E+003   -1.86285E+005    9.21812E+004    2.17816E+004   -1.09049E+004    5.32363E+004
             204    2.43466E+005    1.00569E+005   -1.75873E+005    6.62597E+003   -1.75873E+005    2.76442E+005    2.28926E+004   -1.95974E+005    4.50469E+003   -1.62320E+005    8.91371E+004    1.91070E+004   -8.14085E+003    5.43746E+004
             205    1.97190E+005    7.60158E+004   -1.48537E+005   -3.61372E+003   -1.48537E+005    2.24553E+005    2.53783E+004   -1.54237E+005   -6.73938E+003   -1.31171E+005    6.17758E+004    2.00053E+004   -9.47241E+003    5.38852E+004
             206    1.53331E+005    6.18672E+004   -1.11796E+005    4.89156E+003   -1.11796E+005    1.73663E+005    1.50123E+004   -1.25978E+005    1.30678E+003   -9.55585E+004    4.92147E+004    1.90692E+004   -6.95482E+003    4.45563E+004
             207    1.09645E+005    3.84472E+004   -8.43519E+004    3.73665E+003   -8.43519E+004    1.22799E+005    1.40560E+004   -9.60646E+004   -1.39854E+003   -6.65023E+004    2.57328E+004    2.01886E+004   -5.24078E+003    3.64047E+004
             208    7.41335E+004    3.12996E+004   -5.22871E+004    5.49778E+003   -5.22871E+004    8.35866E+004    5.16324E+003   -6.27684E+004   -4.85871E+002   -3.19193E+004    1.69155E+004    1.99373E+004   -2.79618E+003    2.85306E+004
             209    5.84021E+004    3.13779E+004   -3.59402E+004    1.18274E+003   -3.59402E+004    6.73182E+004    1.12651E+003   -3.27969E+004    2.04131E+003   -4.17599E+003   -1.24485E+003    2.06730E+004   -4.10357E+002    2.64521E+004
             210    6.81822E+004    5.03571E+004    5.03571E+004   -6.86325E+003   -2.50845E+004    7.54416E+004   -6.13647E+003    6.23419E+004   -3.55277E+003    2.98560E+004   -7.89384E+003    2.00306E+004    2.09474E+003    2.67828E+004
             211    1.03675E+005    7.81252E+004    7.81252E+004   -5.23101E+001   -3.94793E+004    1.17604E+005   -1.28645E+004    8.41399E+004    5.78678E+003    5.88510E+004   -2.60441E+004    2.06087E+004    4.49152E+003    3.60358E+004
             212    2.62283E+005    1.23655E+005   -1.79183E+005   -2.47663E+004   -1.79183E+005    3.02838E+005    2.67646E+004   -8.52016E+004   -3.10325E+004   -1.64564E+005    1.15303E+005    2.96123E+004   -9.32064E+003    4.87021E+004
             213    2.22219E+005    1.06403E+005   -1.48000E+005    8.19731E+003   -1.48000E+005    2.54403E+005    1.11334E+004   -1.61318E+005    5.02091E+003   -1.33027E+005    9.46058E+004    2.16090E+004   -1.16671E+004    5.20337E+004
             214    1.81642E+005    9.08525E+004   -1.17510E+005    7.47353E+003   -1.17510E+005    2.08362E+005    6.39451E+003   -1.26473E+005    4.83277E+003   -1.02523E+005    7.85069E+004    1.74885E+004   -1.11725E+004    4.77467E+004
             215    1.34816E+005    5.96973E+004   -9.35535E+004    6.75827E+003   -9.35535E+004    1.53251E+005    9.03265E+003   -1.07387E+005    2.82439E+003   -7.80203E+004    4.80979E+004    1.82623E+004   -8.50635E+003    3.96321E+004
             216    9.03743E+004    4.17744E+004   -6.02469E+004    9.77046E+003   -6.02469E+004    1.02021E+005    2.90068E+003   -7.59580E+004    3.96414E+003   -4.51298E+004    3.24636E+004    1.82848E+004   -6.21543E+003    2.84431E+004
             217    5.20687E+004    1.74920E+004   -3.97660E+004    4.74658E+003   -3.97660E+004    5.72580E+004    5.84246E+003   -4.83686E+004   -2.10200E+003   -2.29655E+004    7.54015E+003    1.91182E+004   -2.56762E+003    1.69846E+004
             218    3.91758E+004    2.49765E+004    2.49765E+004    5.23421E+003   -2.01427E+004    4.51192E+004   -3.35598E+003   -2.34421E+004    3.88790E+003    1.13508E+003    5.04496E+003    1.95298E+004   -5.51855E+002    1.12175E+004
             219    5.50809E+004    3.57445E+004    3.57445E+004   -1.24827E+004   -2.42789E+004    6.00234E+004    3.39037E+002    5.21240E+004   -6.01807E+003    1.99272E+004   -1.49262E+004    1.88805E+004    2.93618E+003    1.78418E+004
             220    8.28948E+004    6.43368E+004    6.43368E+004   -9.46869E+002   -2.89275E+004    9.32642E+004   -1.14875E+004    7.10416E+004    5.29753E+003    4.93436E+004   -2.01787E+004    1.86273E+004    5.03320E+003    2.60985E+004
             221    7.91921E+004    5.69688E+004    5.69688E+004   -8.22346E+003   -3.11599E+004    8.81287E+004   -5.86178E+003    7.11233E+004    5.44109E+003    4.14393E+004   -2.92951E+004    2.64613E+004    2.88745E+003    1.14435E+004
             222    4.65633E+004    3.84248E+004    3.84248E+004   -1.25454E+003   -1.28363E+004    5.12611E+004   -8.11130E+003    4.31403E+004    5.03490E+003    2.26269E+004   -3.32791E+003    2.27438E+004    2.14867E+003   -5.03054E+003
             223    4.00186E+004    2.20128E+004   -2.40395E+004   -4.31199E+003   -2.40395E+004    4.60523E+004    2.11291E+003    2.50424E+004   -1.83081E+003    5.91427E+001   -4.56707E+003    2.12817E+004   -2.01926E+002   -8.68719E+003
             224    4.88039E+004    1.74681E+004   -3.48663E+004    9.40196E+003   -3.48663E+004    5.23344E+004    2.66539E+003   -4.72692E+004   -1.43144E+003   -1.90454E+004    1.24807E+004    2.28573E+004   -1.84697E+003   -4.29592E+003
             225    7.37155E+004    2.23522E+004   -5.86924E+004    4.36431E+003   -5.86924E+004    8.10446E+004    1.06586E+004   -6.85116E+004   -1.03862E+004   -4.28836E+004    2.12938E+004    2.65551E+004   -2.85360E+003    8.26249E+003
             226    1.27952E+005    6.25093E+004   -8.48571E+004   -2.00904E+003   -8.48571E+004    1.47366E+005    8.11896E+003   -7.64633E+004   -1.50371E+004   -6.61213E+004    5.68016E+004    3.04662E+004   -2.58899E+003    2.66253E+004
             227    1.80614E+005    8.60975E+004   -1.22453E+005   -1.69706E+004   -1.22453E+005    2.08550E+005    1.77753E+004   -4.90647E+004   -2.73939E+004   -1.04562E+005    7.86299E+004    3.29160E+004    9.78214E+002    3.64716E+004
             228    2.25374E+005    1.19815E+005   -1.40161E+005   -2.03184E+004   -1.40161E+005    2.59976E+005    1.35545E+004    1.15526E+005   -2.70397E+004   -1.26514E+005    1.12890E+005    2.89001E+004    2.05667E+003    4.03343E+004
             229    2.38495E+005    1.29109E+005   -1.46186E+005   -2.25213E+003   -1.46186E+005    2.75295E+005    6.44289E+003   -1.02334E+005   -4.13959E+003   -1.39756E+005    1.24567E+005    2.15098E+004    9.25310E+003    3.06786E+004
             230    5.02260E+005    3.95754E+004   -4.92238E+005   -2.59667E+004   -4.92238E+005    5.31813E+005    1.59543E+005   -4.92501E+005    3.80642E+004   -4.90682E+005   -2.60116E+004    2.74645E+004   -2.81141E+003    7.75234E+003
             231    4.71323E+005    3.62555E+004   -4.54542E+005   -5.46937E+003   -4.54542E+005    4.90798E+005    1.41252E+005   -4.67140E+005    3.37763E+004   -4.51634E+005   -5.89890E+003    2.65510E+004   -7.87186E+003    2.52060E+004
             232    4.20375E+005    3.43570E+004   -3.93776E+005    1.83855E+004   -3.93776E+005    4.28133E+005    1.13678E+005   -4.19691E+005    2.60632E+004   -3.89588E+005    2.24913E+004    2.60376E+004   -9.91915E+003    3.21037E+004
             233    3.72265E+005    6.42596E+004   -3.29486E+005    1.67361E+004   -3.29486E+005    3.93745E+005    8.28299E+004   -3.65347E+005    1.58022E+004   -3.23505E+005    5.92132E+004    2.50780E+004   -9.47237E+003    3.95050E+004
             234    3.22867E+005    8.64295E+004   -2.68154E+005    8.87025E+003   -2.68154E+005    3.54583E+005    5.76179E+004   -3.00818E+005    6.38662E+003   -2.61422E+005    8.21815E+004    2.64083E+004   -6.43668E+003    3.76923E+004
             235    3.02868E+005    1.21416E+005   -2.23373E+005   -2.90211E+002   -2.23373E+005    3.44790E+005    3.40824E+004   -2.37685E+005   -3.36086E+003   -2.15441E+005    1.16555E+005    2.59959E+004   -1.92513E+003    4.04200E+004
             236    2.58077E+005    1.17804E+005   -1.78580E+005   -3.52791E+003   -1.78580E+005    2.96383E+005    2.14346E+004   -1.74235E+005   -5.85561E+003   -1.70008E+005    1.11560E+005    2.57972E+004    8.45655E+003    3.82366E+004
             237    4.68611E+005    4.64831E+005    4.64831E+005    6.15222E+003   -1.31168E+004    4.77948E+005   -1.52622E+005    4.67718E+005    1.13203E+003    4.50604E+005    6.13034E+003    8.07925E+004   -3.16583E+003   -7.74474E+003
             238    3.83870E+005    3.69364E+005    3.69364E+005   -1.27916E+004   -1.61971E+004    3.85561E+005   -1.13459E+005    3.83836E+005    6.82110E+003    3.49156E+005   -1.56017E+004    8.52435E+004   -2.88813E+003   -7.29364E+003
             239    2.98364E+005    2.66856E+005    2.66856E+005   -2.78426E+004   -3.50421E+004    3.01898E+005   -6.79905E+004    2.98168E+005   -1.76811E+004    2.49383E+005   -2.77301E+004    7.01595E+004   -2.25464E+003   -6.60380E+003
             240    2.27507E+005    2.03681E+005    2.03681E+005   -1.89351E+004   -2.84210E+004    2.32102E+005   -5.21083E+004    2.27062E+005    4.56408E+003    1.70573E+005   -1.88123E+004    8.09195E+004   -1.71334E+003   -6.34368E+003
             241    4.53771E+005    4.45759E+005    4.45759E+005    2.14447E+003   -1.75287E+004    4.63288E+005   -1.43458E+005    4.52810E+005   -1.49883E+003    4.30274E+005    1.59994E+003    7.97853E+004   -9.62060E+003   -2.18662E+004
             242    3.73959E+005    3.58870E+005    3.58870E+005   -1.00335E+004   -1.99466E+004    3.78817E+005   -1.09630E+005    3.73663E+005    8.35158E+003    3.37531E+005   -1.69925E+004    8.37411E+004   -8.70950E+003   -2.02961E+004
             243    2.94345E+005    2.61229E+005    2.61229E+005   -2.97323E+004   -3.63868E+004    2.97616E+005   -6.50366E+004    2.94176E+005   -1.81871E+004    2.42243E+005   -2.89458E+004    6.96140E+004   -7.20493E+003   -2.00293E+004
             244    2.24695E+005    2.00845E+005    2.00845E+005   -1.94870E+004   -2.79724E+004    2.28817E+005   -5.11285E+004    2.24334E+005    4.76169E+003    1.66904E+005   -1.82803E+004    7.93959E+004   -5.40947E+003   -1.76219E+004
             245    4.26819E+005    4.12774E+005    4.12774E+005   -3.47280E+003   -2.38862E+004    4.36660E+005   -1.28472E+005    4.25719E+005   -4.78247E+003    3.95976E+005   -5.77940E+003    7.75195E+004   -1.41508E+004   -2.90858E+004
             246    3.55444E+005    3.37699E+005    3.37699E+005   -8.03389E+003   -2.67184E+004    3.64417E+005   -1.00982E+005    3.54336E+005    1.11424E+004    3.13849E+005   -2.20445E+004    8.15751E+004   -1.31899E+004   -3.20227E+004
             247    2.84098E+005    2.50833E+005    2.50833E+005   -2.97230E+004   -3.66793E+004    2.87512E+005   -6.14768E+004    2.83906E+005   -1.70708E+004    2.29543E+005   -2.80418E+004    6.84041E+004   -1.09462E+004   -2.98349E+004
             248    2.18976E+005    1.93548E+005    1.93548E+005   -2.18602E+004   -2.88292E+004    2.22377E+005   -4.76195E+004    2.18726E+005    4.77155E+003    1.57580E+005   -1.94928E+004    7.72095E+004   -8.29665E+003   -2.71601E+004
             249    3.94497E+005    3.69066E+005    3.69066E+005   -1.40016E+004   -3.59448E+004    4.05011E+005   -1.06373E+005    3.93121E+005   -9.87305E+003    3.50970E+005   -2.19774E+004    7.50841E+004   -1.76149E+004   -3.19498E+004
             250    3.28404E+005    3.09778E+005    3.09778E+005   -5.22650E+003   -3.05591E+004    3.40337E+005   -9.13308E+004    3.26195E+005    1.48071E+004    2.82940E+005   -2.37544E+004    7.90341E+004   -1.69075E+004   -3.88631E+004
             251    2.69274E+005    2.32711E+005    2.32711E+005   -3.18159E+004   -4.10711E+004    2.73782E+005   -5.32748E+004    2.68916E+005   -1.84722E+004    2.08670E+005   -3.03737E+004    6.70647E+004   -1.47198E+004   -3.61798E+004
             252    2.10349E+005    1.86112E+005    1.86112E+005   -2.21511E+004   -2.62618E+004    2.12374E+005   -4.58998E+004    2.10258E+005    6.05620E+003    1.49036E+005   -1.73927E+004    7.39659E+004   -1.16875E+004   -3.20323E+004
             253    3.54145E+005    3.21063E+005    3.21063E+005   -2.20669E+004   -4.31544E+004    3.64217E+005   -8.52805E+004    3.52728E+005   -1.32004E+004    3.02559E+005   -3.35169E+004    7.14988E+004   -1.65461E+004   -3.01610E+004
             254    3.00248E+005    2.79817E+005    2.79817E+005   -3.43643E+003   -3.49410E+004    3.14758E+005   -8.04797E+004    2.96495E+005    2.05807E+004    2.48855E+005   -2.79968E+004    7.91429E+004   -1.76430E+004   -4.02738E+004
             255    2.49976E+005    2.16097E+005    2.16097E+005   -2.80938E+004   -3.92880E+004    2.55385E+005   -4.95719E+004    2.49412E+005   -1.52920E+004    1.90750E+005   -2.67419E+004    6.56011E+004   -1.62785E+004   -3.57739E+004
             256    1.98838E+005    1.73040E+005    1.73040E+005   -2.41132E+004   -2.74417E+004    2.00481E+005   -4.04950E+004    1.98775E+005    6.60935E+003    1.34258E+005   -1.93823E+004    7.20691E+004   -1.27939E+004   -3.25379E+004
             257    3.25108E+005    2.80634E+005    2.80634E+005   -3.46816E+004   -5.34535E+004    3.34088E+005   -6.41664E+004    3.23886E+005   -2.16334E+004    2.60974E+005   -4.68415E+004    7.16000E+004   -1.42646E+004   -2.63248E+004
             258    2.70846E+005    2.56017E+005    2.56017E+005    5.42559E+002   -2.79479E+004    2.83965E+005   -7.62040E+004    2.67444E+005    2.69057E+004    2.22587E+005   -2.08803E+004    7.94474E+004   -1.93828E+004   -3.35138E+004
             259    2.33691E+005    1.96718E+005    1.96718E+005   -2.84247E+004   -4.46732E+004    2.41391E+005   -4.12067E+004    2.32415E+005   -1.57630E+004    1.70523E+005   -3.11394E+004    6.64882E+004   -1.79894E+004   -2.93000E+004
             260    1.88077E+005    1.65979E+005    1.65979E+005   -1.86341E+004   -2.53795E+004    1.91359E+005   -4.06553E+004    1.87805E+005    9.04538E+003    1.29268E+005   -1.63478E+004    6.92370E+004   -1.57649E+004   -2.64252E+004
             261    2.82351E+005    2.47378E+005    2.47378E+005   -2.47762E+004   -4.41698E+004    2.91548E+005   -5.94773E+004    2.80847E+005   -2.74113E+004    2.30281E+005   -2.44378E+004    6.77637E+004   -3.06851E+003   -9.48820E+003
             262    2.62577E+005    2.51260E+005    2.51260E+005    3.01543E+003   -2.36195E+004    2.74879E+005   -7.68852E+004    2.59511E+005    3.98251E+004    2.13383E+005   -2.25529E+004    8.85459E+004   -8.22504E+003   -1.12956E+004
             263    2.33931E+005    2.05914E+005    2.05914E+005   -2.11472E+004   -3.43294E+004    2.40244E+005   -5.01459E+004    2.33093E+005   -4.24310E+003    1.78792E+005   -2.41111E+004    7.30027E+004   -1.22105E+004   -1.58670E+004
             264    1.83212E+005    1.59661E+005    1.59661E+005   -2.06175E+004   -2.63494E+004    1.86011E+005   -3.75648E+004    1.83010E+005    1.16768E+004    1.19890E+005   -1.88719E+004    7.36565E+004   -1.12376E+004   -1.79165E+004
             265    1.95083E+005    1.80335E+005    1.80335E+005   -8.90275E+003   -2.01091E+004    2.00444E+005   -5.04411E+004    1.94357E+005    3.50086E+004    1.27340E+005   -1.10250E+004    8.75842E+004   -6.67231E+003   -2.32736E+003
             266    2.44077E+005    2.29209E+005    2.29209E+005    4.87605E+001   -2.74548E+004    2.56663E+005   -6.72675E+004    2.40553E+005    5.48499E+004    1.72475E+005   -2.55224E+004    9.84372E+004   -2.77579E+003   -1.56138E+004
             267    2.94689E+005    2.92406E+005    2.92406E+005    2.17808E+004   -2.15492E+004    3.13955E+005   -9.75458E+004    2.87391E+005    6.10454E+004    2.52172E+005   -2.05802E+004    9.63413E+004    3.47323E+003   -7.47186E+003
             268    3.48628E+005    3.47436E+005    3.47436E+005    3.68361E+004   -2.96460E+004    3.77082E+005   -1.18209E+005    3.33916E+005    8.71111E+004    2.96073E+005   -2.85588E+004    1.15445E+005    1.01370E+004    3.40402E+003
             269    6.10472E+005    6.43435E+005    6.43435E+005    8.92744E+004   -1.09449E+004    6.54380E+005   -2.40588E+005    5.91538E+005    2.15990E+004    6.10907E+005    8.92587E+004    1.42071E+005   -4.12386E+003   -5.24106E+003
             270    5.71299E+005    5.99851E+005    5.99851E+005    7.42709E+004   -8.20209E+003    6.08054E+005   -2.21973E+005    5.57670E+005    2.44349E+004    5.67489E+005    7.39959E+004    1.35530E+005   -1.07194E+004   -1.26815E+004
             271    5.10426E+005    5.31844E+005    5.31844E+005    5.01385E+004   -3.12571E+003    5.34970E+005   -1.92952E+005    5.04117E+005    3.08913E+004    4.99181E+005    4.87842E+004    1.26373E+005   -1.46543E+004   -1.57475E+004
             272    4.44331E+005    4.60903E+005    4.60903E+005    2.87807E+004    5.29498E+003    4.55608E+005   -1.64993E+005    4.42931E+005    4.51618E+004    4.26620E+005    2.31964E+004    1.18212E+005   -1.44759E+004   -1.30009E+004
             273    3.92666E+005    3.96703E+005    3.96703E+005    2.56425E+004   -1.44854E+004    4.11189E+005   -1.35953E+005    3.88012E+005    6.30066E+004    3.57281E+005   -1.24273E+004    1.13810E+005   -1.20613E+004   -1.16317E+004
             274    3.59452E+005    3.55017E+005    3.55017E+005    4.13905E+004   -3.72418E+004    3.92259E+005   -1.19722E+005    3.39282E+005    9.40542E+004    3.02252E+005   -3.71402E+004    1.17301E+005   -3.59342E+003   -2.33652E+003
             275    3.94036E+005    3.67514E+005    3.67514E+005    5.49219E+004   -7.51022E+004    4.42616E+005   -1.15778E+005    3.40498E+005    1.31257E+005    2.90080E+005   -7.40039E+004    1.35123E+005    1.33131E+004    5.76598E+002
             276    1.60160E+005    1.35727E+005    1.35727E+005   -7.35253E+003   -3.72889E+004    1.73016E+005   -3.03618E+004    1.53675E+005    2.21349E+004    7.82933E+004   -9.34260E+003    8.07538E+004   -6.99885E+003    3.07634E+003
             277    1.33098E+005    1.00066E+005    1.00066E+005    4.15297E+003   -5.18884E+004    1.51954E+005   -1.74435E+004    1.00918E+005    8.51748E+003    4.18175E+004    1.99545E+003    7.23246E+004   -4.57220E+003    1.40371E+004
             278    1.23416E+005    7.14123E+004    7.14123E+004   -3.25755E+003   -7.10410E+004    1.42453E+005    9.62059E+002    5.39668E+004    3.54454E+002    2.42881E+002   -3.48351E+003    6.95200E+004   -1.04390E+002    1.54719E+004
             279    1.33743E+005    5.32076E+004   -9.85336E+004    2.20190E+003   -9.85336E+004    1.51741E+005    1.43747E+004   -1.08373E+005   -9.24989E+003   -3.84526E+004    4.57838E+003    7.27068E+004    4.51770E+003    1.31580E+004
             280    1.59253E+005    3.70837E+004   -1.37286E+005    4.74245E+002   -1.37286E+005    1.74370E+005    3.32426E+004   -1.49338E+005   -2.19830E+004   -8.07763E+004    3.03140E+003    8.06971E+004    6.68104E+003    6.79194E+003
             281    1.98599E+005    2.16055E+004   -1.79545E+005    1.64011E+004   -1.79545E+005    2.01150E+005    4.71793E+004   -1.98445E+005   -3.83226E+004   -1.21855E+005    1.86401E+004    8.99640E+004    6.12207E+003   -4.75500E+003
             282    2.42428E+005    2.15271E+004   -2.32065E+005   -2.60537E+003   -2.32065E+005    2.53592E+005    7.10476E+004   -2.39703E+005   -5.45991E+004   -1.79830E+005    2.12858E+004    9.61228E+004    1.33310E+003   -5.85880E+003
             283    2.82243E+005    3.18644E+004   -2.72067E+005   -1.82172E+004   -2.72067E+005    3.03931E+005    8.61398E+004   -2.71975E+005   -6.65699E+004   -2.23200E+005    3.13508E+004    1.00194E+005   -3.64725E+003   -3.89860E+003
             284    3.17090E+005    4.26876E+004   -3.09403E+005   -4.63494E+004   -3.09403E+005    3.52091E+005    1.04355E+005   -2.86880E+005   -1.05532E+005   -2.50107E+005    4.25744E+004    1.09813E+005   -3.05445E+003    5.52482E+003
             285    1.46083E+005    1.17813E+005    1.17813E+005   -8.81696E+003   -4.20113E+004    1.59824E+005   -2.23281E+004    1.37207E+005   -3.57845E+003    7.84344E+004   -7.87160E+003    6.75718E+004   -9.53534E+003   -9.54054E+003
             286    1.52247E+005    1.17538E+005    1.17538E+005   -2.16763E+004   -4.50410E+004    1.62579E+005   -1.69402E+004    1.48133E+005   -9.16694E+003    7.67304E+004   -1.67430E+004    6.58272E+004   -1.04972E+004   -2.42378E+004
             287    1.59806E+005    1.26883E+005    1.26883E+005   -1.77232E+004   -4.46912E+004    1.71574E+005   -2.14895E+004    1.54562E+005   -8.69731E+003    8.59963E+004   -1.28305E+004    6.75803E+004   -8.85063E+003   -2.72414E+004
             288    1.65655E+005    1.29051E+005    1.29051E+005   -2.00120E+004   -4.92905E+004    1.78342E+005   -1.99163E+004    1.59677E+005   -1.10486E+004    8.67017E+004   -1.59042E+004    7.00407E+004   -7.22705E+003   -2.89502E+004
             289    1.67919E+005    1.33069E+005    1.33069E+005   -1.60212E+004   -4.88355E+004    1.81904E+005   -2.27373E+004    1.60466E+005   -1.00893E+004    9.19251E+004   -1.36240E+004    7.22600E+004   -4.96050E+003   -2.36532E+004
             290    1.68921E+005    1.33191E+005    1.33191E+005   -1.61730E+004   -5.01283E+004    1.83319E+005   -2.22966E+004    1.60972E+005   -1.10677E+004    9.30892E+004   -1.51315E+004    7.39730E+004   -3.12184E+003   -1.63363E+004
             291    1.68575E+005    1.33784E+005    1.33784E+005   -1.44991E+004   -4.95668E+004    1.83351E+005   -2.32394E+004    1.60057E+005   -1.06950E+004    9.48122E+004   -1.43990E+004    7.48194E+004   -8.96458E+002   -5.32471E+003
             292    1.23688E+005    8.94358E+004    8.94358E+004   -6.70408E+003   -5.01034E+004    1.39539E+005   -1.08761E+004    1.04371E+005    4.12762E+003    3.46517E+004   -6.15090E+003    6.77963E+004   -4.48325E+003   -5.72672E+003
             293    1.27429E+005    9.40681E+004    9.40681E+004   -3.99502E+003   -4.99683E+004    1.44036E+005   -1.33683E+004    1.06210E+005    4.78594E+003    3.74077E+004   -2.08882E+003    6.80173E+004   -4.91784E+003   -1.78032E+004
             294    1.36572E+005    9.66283E+004    9.66283E+004   -7.78635E+003   -5.79265E+004    1.54555E+005   -1.03051E+004    1.12886E+005    3.33101E+003    3.41956E+004   -6.61115E+003    7.11725E+004   -3.64470E+003   -2.61858E+004
             295    1.40517E+005    1.00322E+005    1.00322E+005   -3.65254E+003   -5.95404E+004    1.59863E+005   -1.23764E+004    1.11027E+005    4.69376E+003    3.51357E+004   -2.70010E+003    7.42168E+004   -2.82055E+003   -2.57581E+004
             296    1.43689E+005    9.94333E+004    9.94333E+004   -4.57847E+003   -6.45225E+004    1.63956E+005   -1.01108E+004    1.09751E+005    4.03188E+003    3.05951E+004   -4.29466E+003    7.75585E+004   -1.76386E+003   -2.30594E+004
             297    1.43721E+005    9.97833E+004    9.97833E+004   -2.55715E+003   -6.45260E+004    1.64309E+005   -1.09001E+004    1.06793E+005    4.72806E+003    3.04012E+004   -2.42914E+003    7.98148E+004   -1.01965E+003   -1.46877E+004
             298    1.43756E+005    9.86302E+004    9.86302E+004   -2.88689E+003   -6.58669E+004    1.64497E+005   -9.95881E+003    1.05252E+005    4.56596E+003    2.81840E+004   -2.87351E+003    8.11995E+004   -3.56950E+002   -5.66951E+003
             299    1.14848E+005    6.51627E+004   -6.73828E+004    2.61665E+003   -6.73828E+004    1.32545E+005   -1.32177E+002   -5.28074E+004   -2.09937E+003   -1.19523E+002    2.61542E+003    6.62388E+004    8.84634E+001   -1.87268E+003
             300    1.19316E+005    6.36302E+004   -7.40972E+004   -2.11809E+003   -7.40972E+004    1.37727E+005    4.19503E+003   -5.10364E+004   -3.65982E+003   -6.47857E+003   -2.44672E+003    6.64756E+004    8.17414E+002   -1.79301E+004
             301    1.26654E+005    6.65117E+004   -7.93002E+004    3.37047E+003   -7.93002E+004    1.45812E+005    3.13933E+003   -7.75390E+004   -2.22908E+003   -1.03228E+004    3.13395E+003    6.86438E+004    1.32529E+003   -2.42373E+004
             302    1.33691E+005    6.46741E+004   -8.88967E+004    1.50074E+003   -8.88967E+004    1.53571E+005    7.57395E+003   -8.96193E+004   -3.17160E+003   -2.04030E+004    8.52752E+002    7.14066E+004    1.74020E+003   -2.69880E+004
             303    1.36423E+005    6.36192E+004   -9.23670E+004    4.66316E+003   -9.23670E+004    1.55986E+005    8.02822E+003   -1.01163E+005   -2.00621E+003   -2.63301E+004    4.25169E+003    7.37858E+004    1.68900E+003   -2.22604E+004
             304    1.38212E+005    6.06360E+004   -9.69583E+004    3.64452E+003   -9.69583E+004    1.57594E+005    1.08926E+004   -1.06506E+005   -2.37889E+003   -3.37017E+004    3.40278E+003    7.56404E+004    1.20743E+003   -1.56845E+004
             305    1.38302E+005    5.92496E+004   -9.80280E+004    4.59805E+003   -9.80280E+004    1.57278E+005    1.13934E+004   -1.09731E+005   -1.95477E+003   -3.67890E+004    4.56350E+003    7.65306E+004    4.79312E+002   -4.93720E+003
             306    1.24661E+005    5.05890E+004   -9.10658E+004    1.91711E+003   -9.10658E+004    1.41655E+005    1.28532E+004   -9.96460E+004   -3.12990E+002   -3.96866E+004    1.43991E+003    6.77282E+004    5.55979E+003   -4.61860E+003
             307    1.32950E+005    5.14572E+004   -9.64861E+004    1.29874E+004   -9.64861E+004    1.47943E+005    1.06805E+004   -1.19432E+005    3.09636E+003   -4.53249E+004    1.01870E+004    6.76604E+004    6.84805E+003   -1.88245E+004
             308    1.46342E+005    5.07102E+004   -1.11212E+005    1.16026E+004   -1.11212E+005    1.61923E+005    1.62999E+004   -1.33807E+005    2.85589E+003   -5.96064E+004    7.85081E+003    7.03682E+004    6.82981E+003   -2.69722E+004
             309    1.57773E+005    5.14189E+004   -1.21118E+005    1.57997E+004   -1.21118E+005    1.72537E+005    1.79665E+004   -1.48316E+005    4.52472E+003   -7.11464E+004    1.27220E+004    7.32529E+004    6.33728E+003   -2.74475E+004
             310    1.67980E+005    4.94101E+004   -1.33589E+005    1.35942E+004   -1.33589E+005    1.82999E+005    2.35282E+004   -1.59045E+005    3.93427E+003   -8.59590E+004    1.14401E+004    7.64048E+004    5.01443E+003   -2.46087E+004
             311    1.74019E+005    4.85229E+004   -1.39945E+005    1.46430E+004   -1.39945E+005    1.88468E+005    2.55930E+004   -1.66354E+005    4.59284E+003   -9.51410E+004    1.37692E+004    7.86562E+004    3.27420E+003   -1.57463E+004
             312    1.77656E+005    4.73985E+004   -1.44802E+005    1.33946E+004   -1.44802E+005    1.92201E+005    2.80030E+004   -1.70102E+005    4.35415E+003   -1.01659E+005    1.32962E+004    7.99756E+004    1.02031E+003   -5.87456E+003
             313    1.49421E+005    3.87317E+004   -1.21321E+005    1.45085E+004   -1.21321E+005    1.60053E+005    2.26935E+004   -1.44904E+005   -2.76366E+003   -7.87714E+004    1.34544E+004    6.94792E+004    9.23695E+003   -1.02576E+004
             314    1.58481E+005    3.56304E+004   -1.31115E+005    1.75513E+004   -1.31115E+005    1.66745E+005    2.59776E+004   -1.56136E+005    5.41243E+002   -9.12126E+004    1.27385E+004    6.67084E+004    1.19837E+004   -2.34424E+004
             315    1.75122E+005    3.62066E+004   -1.44687E+005    2.40266E+004   -1.44687E+005    1.80894E+005    2.81514E+004   -1.74165E+005    2.57986E+003   -1.05664E+005    1.86296E+004    6.83142E+004    1.12138E+004   -2.93167E+004
             316    1.92475E+005    3.51093E+004   -1.63362E+005    2.24947E+004   -1.63362E+005    1.98472E+005    3.52527E+004   -1.91541E+005    3.61958E+003   -1.26532E+005    1.71538E+004    7.03367E+004    1.05088E+004   -3.15668E+004
             317    2.06945E+005    3.47532E+004   -1.77426E+005    2.38536E+004   -1.77426E+005    2.12179E+005    3.96064E+004   -2.06298E+005    4.76819E+003   -1.44204E+005    2.06162E+004    7.25487E+004    8.11836E+003   -2.60375E+004
             318    2.16732E+005    3.39891E+004   -1.89030E+005    2.08143E+004   -1.89030E+005    2.23019E+005    4.47421E+004   -2.15828E+005    5.35241E+003   -1.58883E+005    1.93045E+004    7.40944E+004    5.36296E+003   -1.78612E+004
             319    2.22484E+005    3.38494E+004   -1.94969E+005    2.05877E+004   -1.94969E+005    2.28818E+005    4.68440E+004   -2.21592E+005    5.84139E+003   -1.66799E+005    2.04256E+004    7.49493E+004    1.78522E+003   -5.83880E+003
             320    1.86892E+005    2.88588E+004   -1.64289E+005    1.56464E+004   -1.64289E+005    1.93148E+005    3.99279E+004   -1.85837E+005   -7.58318E+003   -1.27873E+005    1.56725E+004    7.33849E+004    1.14530E+004   -1.37988E+004
             321    1.97625E+005    3.42061E+004   -1.68247E+005    2.41678E+004   -1.68247E+005    2.02453E+005    3.66243E+004   -1.97050E+005   -1.33816E+002   -1.34279E+005    2.45402E+004    6.85762E+004    1.68420E+004   -2.69746E+004
             322    2.19076E+005    3.01577E+004   -1.91105E+005    2.57184E+004   -1.91105E+005    2.21262E+005    4.50762E+004   -2.18975E+005    7.71228E+002   -1.57768E+005    2.17684E+004    7.03196E+004    1.54033E+004   -3.43688E+004
             323    2.42421E+005    3.27848E+004   -2.12626E+005    2.66908E+004   -2.12626E+005    2.45411E+005    5.10502E+004   -2.42249E+005    2.94962E+003   -1.82148E+005    2.60477E+004    7.23316E+004    1.41654E+004   -3.36678E+004
             324    2.61362E+005    2.78221E+004   -2.34832E+005    2.52195E+004   -2.34832E+005    2.62654E+005    6.05967E+004   -2.61333E+005    2.54728E+003   -2.06873E+005    2.25359E+004    7.52809E+004    1.06882E+004   -2.90020E+004
             325    2.77216E+005    2.75672E+004   -2.50969E+005    2.49088E+004   -2.50969E+005    2.78536E+005    6.61642E+004   -2.77188E+005    3.20505E+003   -2.25649E+005    2.39509E+004    7.75652E+004    7.00913E+003   -1.91510E+004
             326    2.84994E+005    2.66344E+004   -2.60355E+005    2.26005E+004   -2.60355E+005    2.86989E+005    7.03734E+004   -2.84930E+005    2.95027E+003   -2.36514E+005    2.24439E+004    7.89395E+004    2.04748E+003   -6.41044E+003
             327    2.28294E+005    3.05509E+004   -2.02934E+005    1.97885E+004   -2.02934E+005    2.33485E+005    5.08649E+004   -2.27722E+005   -9.98643E+003   -1.69856E+005    2.72477E+004    7.80460E+004    1.04063E+004   -1.44062E+004
             328    2.40614E+005    3.75088E+004   -2.11289E+005    2.02063E+004   -2.11289E+005    2.48798E+005    5.11914E+004   -2.39208E+005    1.55259E+003   -1.82409E+005    2.72821E+004    7.02446E+004    1.87517E+004   -3.05513E+004
             329    2.67038E+005    3.97980E+004   -2.35901E+005    2.15381E+004   -2.35901E+005    2.75699E+005    5.81883E+004   -2.65628E+005    2.87502E+003   -2.09209E+005    3.17690E+004    7.02181E+004    1.71626E+004   -3.50777E+004
             330    2.92554E+005    3.60785E+004   -2.63616E+005    2.12313E+004   -2.63616E+005    2.99695E+005    6.87688E+004   -2.91704E+005    7.04280E+003   -2.39659E+005    2.63104E+004    7.03365E+004    1.66914E+004   -3.61644E+004
             331    3.19249E+005    3.40374E+004   -2.91073E+005    2.19732E+004   -2.91073E+005    3.25110E+005    7.83541E+004   -3.18736E+005    7.83500E+003   -2.70249E+005    2.73518E+004    7.17981E+004    1.30012E+004   -3.06005E+004
             332    3.36549E+005    2.94101E+004   -3.11236E+005    2.10593E+004   -3.11236E+005    3.40647E+005    8.69223E+004   -3.36316E+005    9.63644E+003   -2.93320E+005    2.29166E+004    7.26375E+004    8.77697E+003   -2.01913E+004
             333    3.49022E+005    2.64983E+004   -3.24495E+005    2.25218E+004   -3.24495E+005    3.50993E+005    9.18249E+004   -3.48971E+005    9.88448E+003   -3.08178E+005    2.28191E+004    7.34254E+004    2.98426E+003   -7.53552E+003
             334    2.60061E+005    2.49422E+004   -2.44385E+005    5.29444E+003   -2.44385E+005    2.69327E+005    7.13828E+004   -2.58383E+005   -2.67831E+004   -2.10818E+005    2.34526E+004    8.37899E+004    8.73892E+003   -1.53038E+004
             335    2.86458E+005    4.12608E+004   -2.60157E+005    8.52955E+003   -2.60157E+005    3.01417E+005    7.01221E+004   -2.82205E+005   -1.48769E+004   -2.30708E+005    3.52187E+004    7.91299E+004    1.83742E+004   -2.80220E+004
             336    3.09753E+005    3.33156E+004   -2.88011E+005    8.70025E+003   -2.88011E+005    3.21327E+005    8.19984E+004   -3.07541E+005   -9.61138E+003   -2.61773E+005    2.53894E+004    7.67206E+004    1.84195E+004   -3.48072E+004
             337    3.48619E+005    3.30495E+004   -3.26695E+005    9.61792E+003   -3.26695E+005    3.59744E+005    9.46757E+004   -3.46841E+005   -6.61023E+003   -3.02536E+005    2.51191E+004    7.92430E+004    1.77346E+004   -3.55209E+004
             338    3.78915E+005    2.23221E+004   -3.63301E+005    8.52865E+003   -3.63301E+005    3.85623E+005    1.10817E+005   -3.78350E+005   -5.11773E+003   -3.41535E+005    1.42019E+004    8.21144E+004    1.38772E+004   -3.01186E+004
             339    4.08913E+005    1.81406E+004   -3.95050E+005    9.44698E+003   -3.95050E+005    4.13190E+005    1.22487E+005   -4.08705E+005   -4.11152E+003   -3.74883E+005    1.15320E+004    8.56987E+004    9.12175E+003   -2.16880E+004
             340    4.25352E+005    1.49387E+004   -4.14618E+005    6.40032E+003   -4.14618E+005    4.29556E+005    1.31093E+005   -4.25159E+005   -4.20523E+003   -3.95597E+005    6.52386E+003    8.80621E+004    2.87622E+003   -6.63505E+003
             341    3.05586E+005    3.97072E+004   -2.75746E+005    1.89113E+004   -2.75746E+005    3.15453E+005    7.23758E+004   -3.03988E+005   -1.03626E+004   -2.46080E+005    3.93152E+004    8.82459E+004    1.63933E+003   -9.52719E+003
             342    3.18799E+005    2.97602E+004   -3.01235E+005    3.77772E+003   -3.01235E+005    3.30995E+005    8.92323E+004   -3.16404E+005   -2.29408E+004   -2.72271E+005    2.75143E+004    8.72402E+004    1.08346E+004   -1.96382E+004
             343    3.59492E+005    3.48622E+004   -3.35599E+005    1.18163E+004   -3.35599E+005    3.70461E+005    9.63068E+004   -3.57825E+005   -4.45399E+003   -3.12185E+005    2.77183E+004    8.30758E+004    1.63130E+004   -2.64459E+004
             344    3.91619E+005    1.96569E+004   -3.82044E+005   -1.35186E+003   -3.82044E+005    4.01700E+005    1.21246E+005   -3.90348E+005   -1.18959E+004   -3.59912E+005    8.06967E+003    8.46048E+004    1.73718E+004   -2.90043E+004
             345    4.36788E+005    1.58320E+004   -4.30743E+005   -4.44866E+003   -4.30743E+005    4.46575E+005    1.39787E+005   -4.35727E+005   -7.76443E+003   -4.10554E+005   -1.04107E+003    8.61402E+004    1.57012E+004   -3.05006E+004
             346    4.68448E+005    5.84753E+003   -4.72977E+005   -1.56437E+004   -4.72977E+005    4.78824E+005    1.60924E+005   -4.67337E+005   -1.31617E+004   -4.54776E+005   -1.48354E+004    8.85503E+004    1.02869E+004   -2.09466E+004
             347    4.90129E+005    3.78851E+003   -4.97554E+005   -1.94655E+004   -4.97554E+005    5.01342E+005    1.71077E+005   -4.88885E+005   -1.30167E+004   -4.80741E+005   -1.94733E+004    8.96809E+004    3.92085E+003   -9.39573E+003
             348    6.27940E+005    2.01199E+004   -6.55255E+005   -8.90726E+004   -6.55255E+005    6.75375E+005    2.41403E+005   -6.06026E+005   -1.33356E+004   -6.21818E+005   -8.90549E+004    1.46395E+005    3.79733E+003   -4.52850E+003
             349    5.85782E+005    1.79070E+004   -6.06887E+005   -7.00698E+004   -6.06887E+005    6.24794E+005    2.19683E+005   -5.70634E+005   -1.47776E+004   -5.74198E+005   -7.00745E+004    1.38007E+005    1.00951E+004   -1.44007E+004
             350    5.18876E+005    1.14574E+004   -5.33888E+005   -4.63156E+004   -5.33888E+005    5.45345E+005    1.89582E+005   -5.11565E+005   -2.10847E+004   -5.02021E+005   -4.56403E+004    1.26484E+005    1.25507E+004   -1.49781E+004
             351    4.53506E+005    4.26800E+003   -4.59121E+005   -1.61901E+004   -4.59121E+005    4.63389E+005    1.57014E+005   -4.52466E+005   -3.02355E+004   -4.26963E+005   -1.38448E+004    1.15799E+005    1.21847E+004   -1.66401E+004
             352    3.89928E+005    3.73174E+003   -3.95046E+005   -1.46159E+004   -3.95046E+005    3.98778E+005    1.35310E+005   -3.88955E+005   -4.74755E+004   -3.60007E+005    1.55220E+003    1.09684E+005    8.93017E+003   -1.01761E+004
             353    3.59615E+005    3.19450E+004   -3.52304E+005   -2.38435E+004   -3.52304E+005    3.84249E+005    1.14734E+005   -3.49680E+005   -6.32567E+004   -3.12602E+005    3.16563E+004    1.06768E+005    4.93734E+003   -8.24641E+003
             354    3.19170E+005    2.75314E+004   -3.21005E+005   -4.29998E+004   -3.21005E+005    3.48536E+005    1.12158E+005   -3.00877E+005   -9.59087E+004   -2.67949E+005    2.73846E+004    1.09106E+005    2.33530E+003   -6.58410E+003
             355    3.47884E+005    3.46077E+005    3.46077E+005    3.59389E+004   -3.00903E+004    3.76167E+005   -1.17309E+005    3.33346E+005    8.61919E+004    2.94737E+005   -2.90032E+004    1.15299E+005   -1.02212E+004   -3.83361E+003
             356    2.96550E+005    2.94449E+005    2.94449E+005    2.22982E+004   -2.16054E+004    3.16054E+005   -9.83805E+004    2.89102E+005    6.13297E+004    2.54417E+005   -2.06047E+004    9.64775E+004   -3.75730E+003    7.29181E+003
             357    2.45034E+005    2.30206E+005    2.30206E+005    2.07524E+002   -2.75055E+004    2.57712E+005   -6.76361E+004    2.41470E+005    5.47211E+004    1.73709E+005   -2.55216E+004    9.85160E+004    2.79552E+003    1.58841E+004
             358    1.95259E+005    1.80511E+005    1.80511E+005   -9.01982E+003   -2.00119E+004    2.00523E+005   -5.04930E+004    1.94561E+005    3.50792E+004    1.27429E+005   -1.10288E+004    8.76664E+004    6.73419E+003    2.66828E+003
             359    1.83718E+005    1.60155E+005    1.60155E+005   -2.05524E+004   -2.64324E+004    1.86587E+005   -3.77234E+004    1.83506E+005    1.12752E+004    1.20673E+005   -1.87775E+004    7.35201E+004    1.13652E+004    1.81713E+004
             360    1.89040E+005    1.66762E+005    1.66762E+005   -1.88675E+004   -2.55144E+004    1.92276E+005   -4.07933E+004    1.88777E+005    8.71229E+003    1.30223E+005   -1.65559E+004    6.92124E+004    1.57748E+004    2.67385E+004
             361    1.99498E+005    1.73664E+005    1.73664E+005   -2.41278E+004   -2.74981E+004    2.01162E+005   -4.06794E+004    1.99434E+005    6.35855E+003    1.35010E+005   -1.93301E+004    7.20842E+004    1.27701E+004    3.26910E+004
             362    2.10581E+005    1.86301E+005    1.86301E+005   -2.21154E+004   -2.63792E+004    2.12681E+005   -4.59356E+004    2.10484E+005    5.98400E+003    1.49232E+005   -1.74096E+004    7.40726E+004    1.15961E+004    3.19491E+004
             363    2.19390E+005    1.94123E+005    1.94123E+005   -2.17321E+004   -2.86382E+004    2.22761E+005   -4.79176E+004    2.19145E+005    5.03172E+003    1.58145E+005   -1.94240E+004    7.73713E+004    8.23837E+003    2.69752E+004
             364    2.25345E+005    2.01596E+005    2.01596E+005   -1.95157E+004   -2.77546E+004    2.29351E+005   -5.14420E+004    2.25005E+005    4.93970E+003    1.67716E+005   -1.83295E+004    7.95050E+004    5.38675E+003    1.73663E+004
             365    2.27650E+005    2.03874E+005    2.03874E+005   -1.89011E+004   -2.83573E+004    2.32231E+005   -5.22051E+004    2.27208E+005    4.58996E+003    1.70807E+005   -1.87813E+004    8.09106E+004    1.69274E+003    6.26209E+003
             366    2.34743E+005    2.06744E+005    2.06744E+005   -2.10749E+004   -3.43605E+004    2.41104E+005   -5.04360E+004    2.33895E+005   -4.19558E+003    1.79697E+005   -2.41930E+004    7.30027E+004    1.23275E+004    1.59867E+004
             367    2.34945E+005    1.98200E+005    1.98200E+005   -2.82027E+004   -4.44446E+004    2.42645E+005   -4.18510E+004    2.33677E+005   -1.54562E+004    1.71942E+005   -3.09328E+004    6.65209E+004    1.81388E+004    2.98849E+004
             368    2.52048E+005    2.18232E+005    2.18232E+005   -2.81111E+004   -3.91571E+004    2.57390E+005   -5.03214E+004    2.51503E+005   -1.50032E+004    1.92923E+005   -2.69553E+004    6.58140E+004    1.62327E+004    3.59728E+004
             369    2.70169E+005    2.33732E+005    2.33732E+005   -3.17113E+004   -4.09263E+004    2.74658E+005   -5.36981E+004    2.69815E+005   -1.84277E+004    2.09782E+005   -3.02597E+004    6.71584E+004    1.46286E+004    3.60491E+004
             370    2.84413E+005    2.51176E+005    2.51176E+005   -2.96845E+004   -3.66612E+004    2.87837E+005   -6.16101E+004    2.84220E+005   -1.71953E+004    2.29944E+005   -2.79183E+004    6.84671E+004    1.08127E+004    2.96308E+004
             371    2.94728E+005    2.61687E+005    2.61687E+005   -2.96541E+004   -3.63159E+004    2.98002E+005   -6.52389E+004    2.94559E+005   -1.81661E+004    2.42737E+005   -2.88547E+004    6.96619E+004    7.09797E+003    1.98459E+004
             372    2.98894E+005    2.67330E+005    2.67330E+005   -2.79212E+004   -3.50787E+004    3.02409E+005   -6.81100E+004    2.98701E+005   -1.77384E+004    2.49876E+005   -2.78074E+004    7.02001E+004    2.17062E+003    6.48389E+003
             373    2.62014E+005    2.50825E+005    2.50825E+005    2.92976E+003   -2.33300E+004    2.74155E+005   -7.68084E+004    2.59029E+005    3.97624E+004    2.12903E+005   -2.22400E+004    8.84876E+004    8.29244E+003    1.15185E+004
             374    2.73387E+005    2.58260E+005    2.58260E+005    5.69608E+002   -2.84999E+004    2.86760E+005   -7.67767E+004    2.69877E+005    2.67708E+004    2.24978E+005   -2.14185E+004    7.96043E+004    1.94355E+004    3.38480E+004
             375    3.02103E+005    2.81767E+005    2.81767E+005   -3.56244E+003   -3.46974E+004    3.16464E+005   -8.11691E+004    2.98461E+005    2.02494E+004    2.50985E+005   -2.77273E+004    7.92305E+004    1.76587E+004    4.03626E+004
             376    3.29939E+005    3.11712E+005    3.11712E+005   -4.76729E+003   -3.02146E+004    3.41926E+005   -9.22433E+004    3.27721E+005    1.53492E+004    2.84890E+005   -2.35097E+004    7.93420E+004    1.68140E+004    3.86864E+004
             377    3.55425E+005    3.37773E+005    3.37773E+005   -8.04578E+003   -2.65363E+004    3.64310E+005   -1.01064E+005    3.54341E+005    1.11434E+004    3.13926E+005   -2.18775E+004    8.16093E+004    1.31431E+004    3.19540E+004
             378    3.74487E+005    3.59560E+005    3.59560E+005   -9.82842E+003   -1.98250E+004    3.79385E+005   -1.09969E+005    3.74186E+005    8.62514E+003    3.38187E+005   -1.69056E+004    8.38457E+004    8.71033E+003    2.03767E+004
             379    3.84275E+005    3.69871E+005    3.69871E+005   -1.26927E+004   -1.60921E+004    3.85963E+005   -1.13695E+005    3.84241E+005    6.87721E+003    3.49681E+005   -1.54718E+004    8.52722E+004    2.88351E+003    7.13989E+003
             380    2.83950E+005    2.48651E+005    2.48651E+005   -2.50803E+004   -4.45193E+004    2.93171E+005   -5.96838E+004    2.82448E+005   -2.78659E+004    2.31633E+005   -2.47158E+004    6.77715E+004    3.05373E+003    9.81081E+003
             381    3.25413E+005    2.81821E+005    2.81821E+005   -3.35634E+004   -5.27693E+004    3.34591E+005   -6.51629E+004    3.24134E+005   -2.03234E+004    2.62067E+005   -4.62545E+004    7.19654E+004    1.42909E+004    2.58500E+004
             382    3.55756E+005    3.22923E+005    3.22923E+005   -2.18210E+004   -4.29060E+004    3.65829E+005   -8.60654E+004    3.54346E+005   -1.31565E+004    3.04524E+005   -3.31714E+004    7.16420E+004    1.65145E+004    2.98114E+004
             383    3.95152E+005    3.70094E+005    3.70094E+005   -1.35218E+004   -3.56637E+004    4.05758E+005   -1.06969E+005    3.93753E+005   -9.85615E+003    3.51985E+005   -2.12209E+004    7.52750E+004    1.76849E+004    3.18184E+004
             384    4.27976E+005    4.14154E+005    4.14154E+005   -3.14988E+003   -2.37501E+004    4.37904E+005   -1.29085E+005    4.26858E+005   -4.91946E+003    3.97330E+005   -5.15687E+003    7.77718E+004    1.39735E+004    2.90512E+004
             385    4.54041E+005    4.46252E+005    4.46252E+005    2.40437E+003   -1.73374E+004    4.63590E+005   -1.43773E+005    4.53074E+005   -1.44161E+003    4.30735E+005    2.02541E+003    7.98943E+004    9.40969E+003    2.19656E+004
             386    4.68707E+005    4.64824E+005    4.64824E+005    6.20476E+003   -1.33584E+004    4.78182E+005   -1.52557E+005    4.67787E+005    8.34479E+002    4.50604E+005    6.23204E+003    8.07686E+004    3.00662E+003    8.05453E+003
             387    6.09872E+005    6.42765E+005    6.42765E+005    8.90163E+004   -1.08935E+004    6.53658E+005   -2.40296E+005    5.91039E+005    2.16880E+004    6.10209E+005    8.89905E+004    1.42039E+005    4.35333E+003    5.30428E+003
             388    5.71404E+005    5.99943E+005    5.99943E+005    7.40416E+004   -8.07703E+003    6.08020E+005   -2.21969E+005    5.57896E+005    2.46124E+004    5.67569E+005    7.37258E+004    1.35585E+005    1.07522E+004    1.23502E+004
             389    5.10698E+005    5.32023E+005    5.32023E+005    4.97836E+004   -3.02938E+003    5.35053E+005   -1.92926E+005    5.04500E+005    3.09519E+004    4.99416E+005    4.84101E+004    1.26251E+005    1.47221E+004    1.59147E+004
             390    4.45072E+005    4.61502E+005    4.61502E+005    2.84510E+004    5.31120E+003    4.56191E+005   -1.65088E+005    4.43716E+005    4.48556E+004    4.27362E+005    2.30465E+004    1.18031E+005    1.44014E+004    1.34676E+004
             391    3.94309E+005    3.99025E+005    3.99025E+005    2.55311E+004   -1.32338E+004    4.12259E+005   -1.37108E+005    3.89987E+005    6.28285E+004    3.59678E+005   -1.11840E+004    1.14136E+005    1.18906E+004    1.16361E+004
             392    3.60451E+005    3.56282E+005    3.56282E+005    4.03604E+004   -3.63499E+004    3.92632E+005   -1.20097E+005    3.41354E+005    9.22499E+004    3.04289E+005   -3.62470E+004    1.17105E+005    3.62998E+003    2.97909E+003
             393    3.93305E+005    3.68266E+005    3.68266E+005    5.53391E+004   -7.32352E+004    4.41501E+005   -1.16790E+005    3.40975E+005    1.31751E+005    2.90827E+005   -7.22088E+004    1.35192E+005   -1.29728E+004   -1.04050E+003
             394    4.90539E+005    3.71430E+003   -4.98112E+005   -1.96981E+004   -4.98112E+005    5.01826E+005    1.71365E+005   -4.89280E+005   -1.31231E+004   -4.81277E+005   -1.96958E+004    8.97589E+004   -4.06046E+003    9.57830E+003
             395    4.25742E+005    1.48858E+004   -4.15106E+005    6.25454E+003   -4.15106E+005    4.29992E+005    1.31322E+005   -4.25545E+005   -4.27877E+003   -3.96069E+005    6.38237E+003    8.81066E+004   -3.03278E+003    7.06498E+003
             396    3.49433E+005    2.64828E+004   -3.24954E+005    2.24390E+004   -3.24954E+005    3.51437E+005    9.20108E+004   -3.49380E+005    9.80185E+003   -3.08609E+005    2.27746E+004    7.34806E+004   -3.16147E+003    7.97190E+003
             397    2.84906E+005    2.66855E+004   -2.60168E+005    2.27498E+004   -2.60168E+005    2.86853E+005    7.02441E+004   -2.84845E+005    3.03588E+003   -2.36342E+005    2.25733E+004    7.88459E+004   -2.32296E+003    6.95141E+003
             398    2.22366E+005    3.38353E+004   -1.94860E+005    2.05823E+004   -1.94860E+005    2.28696E+005    4.68142E+004   -2.21474E+005    5.80504E+003   -1.66641E+005    2.03930E+004    7.49428E+004   -1.92163E+003    6.32872E+003
             399    1.77531E+005    4.74497E+004   -1.44629E+005    1.34313E+004   -1.44629E+005    1.92079E+005    2.79160E+004   -1.69964E+005    4.38557E+003   -1.01451E+005    1.33176E+004    7.99398E+004   -1.10484E+003    6.21646E+003
             400    1.38345E+005    5.91960E+004   -9.81258E+004    4.55319E+003   -9.81258E+004    1.57322E+005    1.14589E+004   -1.09797E+005   -1.98403E+003   -3.69104E+004    4.51783E+003    7.65310E+004   -4.83062E+002    5.11858E+003
             401    1.43725E+005    9.86588E+004    9.86588E+004   -2.89115E+003   -6.57931E+004    1.64452E+005   -9.99150E+003    1.05332E+005    4.53236E+003    2.83209E+004   -2.87876E+003    8.11642E+004    3.48948E+002    5.66767E+003
             402    1.68776E+005    1.33963E+005    1.33963E+005   -1.45502E+004   -4.95780E+004    1.83541E+005   -2.32784E+004    1.60289E+005   -1.07595E+004    9.50472E+004   -1.44524E+004    7.48328E+004    8.82526E+002    5.28380E+003
             403    4.68361E+005    5.91985E+003   -4.72944E+005   -1.58453E+004   -4.72944E+005    4.78864E+005    1.60956E+005   -4.67221E+005   -1.31806E+004   -4.54671E+005   -1.50181E+004    8.86253E+004   -1.04920E+004    2.13105E+004
             404    4.08946E+005    1.79943E+004   -3.95293E+005    9.16911E+003   -3.95293E+005    4.13287E+005    1.22710E+005   -4.08732E+005   -4.34418E+003   -3.75053E+005    1.12672E+004    8.57401E+004   -9.28998E+003    2.21233E+004
             405    3.36034E+005    2.96496E+004   -3.10619E+005    2.10142E+004   -3.10619E+005    3.40268E+005    8.66517E+004   -3.35784E+005    9.50579E+003   -2.92566E+005    2.31055E+004    7.26229E+004   -9.13033E+003    2.08634E+004
             406    2.76113E+005    2.76224E+004   -2.49760E+005    2.50669E+004   -2.49760E+005    2.77382E+005    6.56902E+004   -2.76087E+005    3.19506E+003   -2.24289E+005    2.40234E+004    7.74449E+004   -7.19580E+003    1.97418E+004
             407    2.15506E+005    3.41276E+004   -1.87701E+005    2.08695E+004   -1.87701E+005    2.21829E+005    4.42347E+004   -2.14585E+005    5.32385E+003   -1.57299E+005    1.92712E+004    7.40132E+004   -5.52251E+003    1.83347E+004
             408    1.73342E+005    4.87900E+004   -1.39141E+005    1.44807E+004   -1.39141E+005    1.87931E+005    2.52900E+004   -1.65442E+005    4.57480E+003   -9.40370E+004    1.35921E+004    7.86384E+004   -3.27370E+003    1.60036E+004
             409    1.37979E+005    6.08989E+004   -9.65066E+004    3.54715E+003   -9.65066E+004    1.57405E+005    1.06869E+004   -1.05688E+005   -2.43140E+003   -3.29304E+004    3.30124E+003    7.55977E+004   -1.21312E+003    1.58208E+004
             410    1.43892E+005    1.00218E+005    1.00218E+005   -2.78112E+003   -6.41898E+004    1.64408E+005   -1.10823E+004    1.07886E+005    4.67951E+003    3.12049E+004   -2.63745E+003    7.98061E+004    1.07721E+003    1.46415E+004
             411    1.69703E+005    1.34107E+005    1.34107E+005   -1.62579E+004   -4.98960E+004    1.84003E+005   -2.26509E+004    1.61945E+005   -1.11288E+004    9.43086E+004   -1.52270E+004    7.39653E+004    3.11320E+003    1.62415E+004
             412    4.35557E+005    1.58996E+004   -4.29506E+005   -4.51545E+003   -4.29506E+005    4.45405E+005    1.39374E+005   -4.34478E+005   -7.93809E+003   -4.09262E+005   -9.21057E+002    8.61281E+004   -1.58364E+004    3.04227E+004
             413    3.77173E+005    2.28305E+004   -3.61220E+005    8.67826E+003   -3.61220E+005    3.84050E+005    1.09904E+005   -3.76575E+005   -5.03550E+003   -3.39354E+005    1.46785E+004    8.18844E+004   -1.41266E+004    3.05374E+004
             414    3.16387E+005    3.44020E+004   -2.88017E+005    2.19725E+004   -2.88017E+005    3.22419E+005    7.72142E+004   -3.15837E+005    7.72092E+003   -2.66919E+005    2.75554E+004    7.16465E+004   -1.33173E+004    3.10993E+004
             415    2.58251E+005    2.79400E+004   -2.31475E+005    2.55951E+004   -2.31475E+005    2.59415E+005    5.93134E+004   -2.58227E+005    2.60195E+003   -2.03116E+005    2.25742E+004    7.50789E+004   -1.08060E+004    2.94681E+004
             416    2.04292E+005    3.51264E+004   -1.74699E+005    2.35680E+004   -1.74699E+005    2.09826E+005    3.86682E+004   -2.03554E+005    4.66317E+003   -1.40953E+005    2.02850E+004    7.24572E+004   -8.13325E+003    2.62277E+004
             417    1.66408E+005    5.00889E+004   -1.31651E+005    1.32513E+004   -1.31651E+005    1.81740E+005    2.27704E+004   -1.56836E+005    3.91798E+003   -8.33516E+004    1.11224E+004    7.63630E+004   -4.90952E+003    2.46903E+004
             418    1.35978E+005    6.42866E+004   -9.13733E+004    4.27853E+003   -9.13733E+004    1.55660E+005    7.60273E+003   -9.88517E+004   -2.13794E+003   -2.45710E+004    3.90078E+003    7.37734E+004   -1.59428E+003    2.22095E+004
             419    1.44082E+005    1.00437E+005    1.00437E+005   -4.82103E+003   -6.37727E+004    1.64210E+005   -1.06144E+004    1.11664E+005    3.99380E+003    3.23430E+004   -4.49345E+003    7.75437E+004    1.86737E+003    2.30498E+004
             420    1.68936E+005    1.34104E+005    1.34104E+005   -1.62882E+004   -4.86840E+004    1.82787E+005   -2.30438E+004    1.61724E+005   -1.03644E+004    9.33839E+004   -1.38882E+004    7.22448E+004    4.99016E+003    2.35573E+004
             421    3.89930E+005    2.02912E+004   -3.79857E+005   -1.01914E+003   -3.79857E+005    4.00148E+005    1.20195E+005   -3.88617E+005   -1.18995E+004   -3.57661E+005    8.97521E+003    8.44581E+004   -1.74847E+004    2.90093E+004
             422    3.45028E+005    3.36178E+004   -3.22676E+005    9.85791E+003   -3.22676E+005    3.56294E+005    9.30668E+004   -3.43180E+005   -6.47962E+003   -2.98381E+005    2.56606E+004    7.88713E+004   -1.78610E+004    3.56086E+004
             423    2.87931E+005    3.63817E+004   -2.58697E+005    2.15101E+004   -2.58697E+005    2.95079E+005    6.69350E+004   -2.87065E+005    6.92599E+003   -2.34345E+005    2.66140E+004    7.00828E+004   -1.68468E+004    3.63710E+004
             424    2.38051E+005    3.24526E+004   -2.08189E+005    2.71849E+004   -2.08189E+005    2.40641E+005    4.95170E+004   -2.37920E+005    2.89217E+003   -1.77151E+005    2.57083E+004    7.21809E+004   -1.41006E+004    3.36519E+004
             425    1.89119E+005    3.57344E+004   -1.59882E+005    2.19889E+004   -1.59882E+005    1.95616E+005    3.40529E+004   -1.87990E+005    3.52616E+003   -1.22376E+005    1.66908E+004    7.02289E+004   -1.03629E+004    3.14397E+004
             426    1.56109E+005    5.22535E+004   -1.19037E+005    1.52378E+004   -1.19037E+005    1.71290E+005    1.71818E+004   -1.45736E+005    4.47553E+003   -6.82818E+004    1.22610E+004    7.32695E+004   -6.11277E+003    2.72763E+004
             427    1.33325E+005    6.55198E+004   -8.77800E+004    1.11865E+003   -8.77800E+004    1.53300E+005    7.04719E+003   -8.64386E+004   -3.31282E+003   -1.83773E+004    5.48604E+002    7.13773E+004   -1.59161E+003    2.69808E+004
             428    1.41063E+005    1.01326E+005    1.01326E+005   -3.94863E+003   -5.89532E+004    1.60279E+005   -1.28079E+004    1.12844E+005    4.72579E+003    3.66443E+004   -2.94638E+003    7.42910E+004    2.94920E+003    2.57720E+004
             429    1.66166E+005    1.29487E+005    1.29487E+005   -2.01247E+004   -4.93549E+004    1.78842E+005   -2.00025E+004    1.60228E+005   -1.13826E+004    8.73930E+004   -1.60029E+004    7.00108E+004    7.21493E+003    2.89610E+004
             430    3.57015E+005    3.51651E+004   -3.32873E+005    1.19891E+004   -3.32873E+005    3.68039E+005    9.52397E+004   -3.55317E+005   -4.61764E+003   -3.09313E+005    2.82116E+004    8.29536E+004   -1.62465E+004    2.64827E+004
             431    3.05693E+005    3.40215E+004   -2.83349E+005    9.14660E+003   -2.83349E+005    3.17370E+005    8.00603E+004   -3.03403E+005   -9.38140E+003   -2.56926E+005    2.61264E+004    7.63400E+004   -1.84750E+004    3.46989E+004
             432    2.61954E+005    3.96209E+004   -2.30730E+005    2.19299E+004   -2.30730E+005    2.70351E+005    5.63932E+004   -2.60605E+005    2.91419E+003   -2.03670E+005    3.15763E+004    6.99494E+004   -1.71380E+004    3.48349E+004
             433    2.14637E+005    2.97878E+004   -1.86684E+005    2.60708E+004   -1.86684E+005    2.16472E+005    4.36085E+004   -2.14565E+005    7.37536E+002   -1.52838E+005    2.12753E+004    7.01376E+004   -1.51951E+004    3.39474E+004
             434    1.72309E+005    3.68820E+004   -1.41799E+005    2.33379E+004   -1.41799E+005    1.78681E+005    2.71931E+004   -1.71105E+005    2.52055E+003   -1.02185E+005    1.80851E+004    6.82694E+004   -1.09245E+004    2.89538E+004
             435    1.45112E+005    5.15183E+004   -1.09512E+005    1.11230E+004   -1.09512E+005    1.61030E+005    1.56235E+004   -1.31543E+005    2.80799E+003   -5.71698E+004    7.49132E+003    7.03878E+004   -6.58226E+003    2.68586E+004
             436    1.26598E+005    6.72232E+004   -7.86113E+004    3.03806E+003   -7.86113E+004    1.45835E+005    2.78336E+003   -7.47212E+004   -2.28781E+003   -8.94630E+003    2.88401E+003    6.86785E+004   -1.16093E+003    2.42710E+004
             437    1.37096E+005    9.73755E+004    9.73755E+004   -7.92335E+003   -5.76431E+004    1.55019E+005   -1.06030E+004    1.13989E+005    3.26711E+003    3.52295E+004   -6.68757E+003    7.12380E+004    3.74281E+003    2.63938E+004
             438    1.60430E+005    1.27491E+005    1.27491E+005   -1.78259E+004   -4.46669E+004    1.72157E+005   -2.16659E+004    1.55257E+005   -8.75850E+003    8.67004E+004   -1.29441E+004    6.76658E+004    8.82960E+003    2.73154E+004
             439    3.16983E+005    3.02575E+004   -2.99047E+005    3.97852E+003   -2.99047E+005    3.29305E+005    8.82703E+004   -3.14518E+005   -2.29483E+004   -2.69887E+005    2.80241E+004    8.71948E+004   -1.08496E+004    1.96004E+004
             440    2.82902E+005    4.11153E+004   -2.56549E+005    8.82009E+003   -2.56549E+005    2.97664E+005    6.88711E+004   -2.78710E+005   -1.48568E+004   -2.26859E+005    3.51031E+004    7.88897E+004   -1.83038E+004    2.78393E+004
             441    2.36721E+005    3.73296E+004   -2.07354E+005    2.05059E+004   -2.07354E+005    2.44684E+005    4.98396E+004   -2.35370E+005    1.68975E+003   -1.78243E+005    2.70342E+004    7.00324E+004   -1.86302E+004    3.00200E+004
             442    1.94866E+005    3.38861E+004   -1.65589E+005    2.43153E+004   -1.65589E+005    1.99475E+005    3.57958E+004   -1.94336E+005   -2.36758E+002   -1.31209E+005    2.40583E+004    6.85279E+004   -1.66564E+004    2.66222E+004
             443    1.56873E+005    3.61179E+004   -1.29329E+005    1.72665E+004   -1.29329E+005    1.65447E+005    2.53150E+004   -1.54294E+005    6.31324E+002   -8.90555E+004    1.24792E+004    6.66337E+004   -1.18344E+004    2.32538E+004
             444    1.32608E+005    5.18646E+004   -9.58876E+004    1.28008E+004   -9.58876E+004    1.47752E+005    1.04074E+004   -1.18589E+005    3.09967E+003   -4.43424E+004    1.00206E+004    6.76749E+004   -6.71618E+003    1.89996E+004
             445    1.19496E+005    6.40665E+004   -7.38789E+004   -2.15932E+003   -7.38789E+004    1.37945E+005    3.99060E+003   -4.89917E+004   -3.64353E+003   -5.85935E+003   -2.46892E+003    6.64962E+004   -7.67152E+002    1.82881E+004
             446    1.27870E+005    9.44968E+004    9.44968E+004   -4.23729E+003   -4.99467E+004    1.44444E+005   -1.34376E+004    1.07027E+005    4.71603E+003    3.79027E+004   -2.30598E+003    6.80765E+004    4.93197E+003    1.81746E+004
             447    1.52786E+005    1.18216E+005    1.18216E+005   -2.16798E+004   -4.48201E+004    1.63036E+005   -1.72387E+004    1.48767E+005   -9.00956E+003    7.74211E+004   -1.66956E+004    6.58805E+004    1.05273E+004    2.44723E+004
             448    3.03983E+005    3.92012E+004   -2.74430E+005    1.88863E+004   -2.74430E+005    3.13631E+005    7.21141E+004   -3.02450E+005   -1.06240E+004   -2.44524E+005    3.88054E+004    8.83180E+004   -1.81408E+003    9.69099E+003
             449    2.57742E+005    2.50463E+004   -2.41851E+005    5.64006E+003   -2.41851E+005    2.66897E+005    7.03881E+004   -2.56091E+005   -2.65880E+004   -2.08184E+005    2.36075E+004    8.35384E+004   -8.59149E+003    1.48522E+004
             450    2.26211E+005    3.02114E+004   -2.00948E+005    1.99666E+004   -2.00948E+005    2.31159E+005    5.02566E+004   -2.25688E+005   -9.89324E+003   -1.67679E+005    2.68023E+004    7.79341E+004   -1.03148E+004    1.41187E+004
             451    1.85235E+005    2.91810E+004   -1.62493E+005    1.55510E+004   -1.62493E+005    1.91674E+005    3.92535E+004   -1.84102E+005   -7.27459E+003   -1.26019E+005    1.55331E+004    7.31136E+004   -1.14166E+004    1.36073E+004
             452    1.48711E+005    3.88926E+004   -1.20606E+005    1.42370E+004   -1.20606E+005    1.59498E+005    2.24920E+004   -1.44005E+005   -2.55586E+003   -7.80679E+004    1.31478E+004    6.93027E+004   -9.19424E+003    1.03016E+004
             453    1.24511E+005    5.06582E+004   -9.08127E+004    2.11456E+003   -9.08127E+004    1.41471E+005    1.26800E+004   -9.96120E+004   -1.61689E+002   -3.94636E+004    1.58532E+003    6.76289E+004   -5.55409E+003    4.93661E+003
             454    1.14830E+005    6.50570E+004   -6.74675E+004    2.52400E+003   -6.74675E+004    1.32525E+005   -3.78516E+001   -5.28137E+004   -2.02434E+003   -3.84255E+002    2.52215E+003    6.62149E+004   -1.07151E+002    2.36503E+003
             455    1.23571E+005    8.92014E+004    8.92014E+004   -6.66214E+003   -5.02590E+004    1.39460E+005   -1.07601E+004    1.04028E+005    3.97281E+003    3.43631E+004   -6.05556E+003    6.77409E+004    4.49485E+003    6.16001E+003
             456    1.46246E+005    1.17920E+005    1.17920E+005   -9.13014E+003   -4.19464E+004    1.59866E+005   -2.22811E+004    1.37591E+005   -3.61821E+003    7.85716E+004   -8.11010E+003    6.75276E+004    9.54225E+003    9.83702E+003
             457    1.59539E+005    1.35095E+005    1.35095E+005   -7.07015E+003   -3.74496E+004    1.72544E+005   -3.01916E+004    1.52826E+005    2.18221E+004    7.77952E+004   -9.04251E+003    8.05456E+004    7.02092E+003   -3.09440E+003
             458    1.32433E+005    9.90262E+004    9.90262E+004    3.95228E+003   -5.22379E+004    1.51264E+005   -1.69135E+004    9.97847E+004    8.14928E+003    4.07502E+004    1.84120E+003    7.20946E+004    4.54737E+003   -1.38493E+004
             459    1.23245E+005    7.09736E+004   -7.12954E+004   -3.16981E+003   -7.12954E+004    1.42269E+005    1.16386E+003    5.15517E+004    2.36908E+002   -3.96709E+002   -3.33178E+003    6.94472E+004   -1.23337E+001   -1.53815E+004
             460    1.33825E+005    5.29429E+004   -9.88559E+004    2.08166E+003   -9.88559E+004    1.51799E+005    1.46104E+004   -1.08646E+005   -9.34125E+003   -3.88876E+004    4.39756E+003    7.27560E+004   -4.49191E+003   -1.29168E+004
             461    1.59288E+005    3.70935E+004   -1.37231E+005    7.33756E+002   -1.37231E+005    1.74325E+005    3.31347E+004   -1.49518E+005   -2.17829E+004   -8.08941E+004    3.27294E+003    8.06253E+004   -6.64556E+003   -6.73156E+003
             462    1.97833E+005    2.16001E+004   -1.78903E+005    1.61484E+004   -1.78903E+005    2.00503E+005    4.70514E+004   -1.97664E+005   -3.80834E+004   -1.21302E+005    1.82308E+004    8.97950E+004   -6.00103E+003    4.38289E+003
             463    2.40909E+005    2.15673E+004   -2.30274E+005   -2.03565E+003   -2.30274E+005    2.51842E+005    7.02476E+004   -2.38287E+005   -5.41022E+004   -1.77988E+005    2.13479E+004    9.58224E+004   -1.43839E+003    5.69717E+003
             464    2.80766E+005    3.14578E+004   -2.70819E+005   -1.81856E+004   -2.70819E+005    3.02277E+005    8.58489E+004   -2.70627E+005   -6.68112E+004   -2.21744E+005    3.10086E+004    1.00048E+005    3.51040E+003    3.42644E+003
             465    3.14864E+005    4.21304E+004   -3.07020E+005   -4.46372E+004   -3.07020E+005    3.49150E+005    1.03175E+005   -2.86056E+005   -1.03187E+005   -2.48375E+005    4.20363E+004    1.09220E+005    2.89018E+003   -4.93358E+003
             466    6.28141E+005    2.00654E+004   -6.55491E+005   -8.90675E+004   -6.55491E+005    6.75556E+005    2.41498E+005   -6.06259E+005   -1.33860E+004   -6.22054E+005   -8.90531E+004    1.46412E+005   -3.76468E+003    4.59497E+003
             467    5.86063E+005    1.80894E+004   -6.07127E+005   -7.02465E+004   -6.07127E+005    6.25216E+005    2.19761E+005   -5.70797E+005   -1.46519E+004   -5.74374E+005   -7.02579E+004    1.38158E+005   -1.01905E+004    1.45842E+004
             468    5.18460E+005    1.12731E+004   -5.33605E+005   -4.63823E+004   -5.33605E+005    5.44878E+005    1.89571E+005   -5.11173E+005   -2.13411E+004   -5.01616E+005   -4.57565E+004    1.26651E+005   -1.24300E+004    1.50773E+004
             469    4.51871E+005    3.88385E+003   -4.57756E+005   -1.63338E+004   -4.57756E+005    4.61640E+005    1.56735E+005   -4.50851E+005   -3.07843E+004   -4.25451E+005   -1.39710E+004    1.15857E+005   -1.20690E+004    1.63433E+004
             470    3.87826E+005    4.44408E+003   -3.92797E+005   -1.51271E+004   -3.92797E+005    3.97241E+005    1.34493E+005   -3.86713E+005   -4.83535E+004   -3.57549E+005    2.42240E+003    1.09519E+005   -8.91072E+003    1.01286E+004
             471    3.57533E+005    3.28924E+004   -3.49696E+005   -2.40520E+004   -3.49696E+005    3.82588E+005    1.13618E+005   -3.47110E+005   -6.37769E+004   -3.09683E+005    3.26043E+004    1.06607E+005   -4.97192E+003    8.18167E+003
             472    3.18339E+005    2.74997E+004   -3.20467E+005   -4.38711E+004   -3.20467E+005    3.47967E+005    1.12279E+005   -2.99534E+005   -9.74446E+004   -2.66735E+005    2.73413E+004    1.09275E+005   -2.65345E+003    6.82301E+003
             473    5.55589E+005    5.51135E+005    5.51135E+005    3.66537E+004   -3.80103E+004    5.89145E+005   -1.83259E+005    5.44130E+005    1.97780E+004    4.93323E+005    3.66767E+004    1.75108E+005   -4.36872E+003   -5.89067E+003
             474    4.49123E+005    4.16361E+005    4.16361E+005   -9.58319E+002   -5.89353E+004    4.75296E+005   -1.18822E+005    4.40586E+005   -6.75910E+003    3.64110E+005   -8.84247E+002    1.48502E+005   -3.78740E+003   -6.05775E+003
             475    3.74441E+005    3.32685E+005    3.32685E+005   -9.89877E+003   -6.70435E+004    3.99729E+005   -8.52477E+004    3.64437E+005   -4.20352E+003    2.69750E+005   -9.80374E+003    1.45457E+005   -3.30945E+003   -5.27723E+003
             476    2.98684E+005    2.43508E+005    2.43508E+005   -1.46893E+004   -8.36138E+004    3.27122E+005   -4.84016E+004    2.79940E+005   -1.50778E+004    1.74846E+005   -1.45633E+004    1.33091E+005   -2.32667E+003   -5.25725E+003
             477    5.37752E+005    5.32953E+005    5.32953E+005    3.39580E+004   -3.65912E+004    5.69544E+005   -1.76773E+005    5.27189E+005    2.36159E+004    4.72390E+005    3.43141E+004    1.74400E+005   -1.13350E+004   -1.66689E+004
             478    4.40536E+005    4.07145E+005    4.07145E+005   -2.04301E+003   -5.91654E+004    4.66311E+005   -1.15312E+005    4.32086E+005   -6.84738E+003    3.54290E+005   -1.50519E+003    1.46555E+005   -1.03648E+004   -1.62863E+004
             479    3.69035E+005    3.27436E+005    3.27436E+005   -1.10752E+004   -6.59727E+004    3.93408E+005   -8.34626E+004    3.59676E+005   -2.44065E+003    2.62959E+005   -1.01300E+004    1.44507E+005   -8.67432E+003   -1.60988E+004
             480    2.96326E+005    2.41581E+005    2.41581E+005   -1.43186E+004   -8.30798E+004    3.24661E+005   -4.80609E+004    2.77511E+005   -1.48867E+004    1.72459E+005   -1.33894E+004    1.31998E+005   -6.43858E+003   -1.40721E+004
             481    5.08038E+005    5.02753E+005    5.02753E+005    2.92395E+004   -3.39066E+004    5.36659E+005   -1.66028E+005    4.99094E+005    3.09396E+004    4.37518E+005    2.96276E+004    1.73230E+005   -1.65962E+004   -2.16753E+004
             482    4.23867E+005    3.87434E+005    3.87434E+005   -6.55831E+003   -6.10387E+004    4.48473E+005   -1.06612E+005    4.15881E+005   -7.94378E+003    3.33046E+005   -5.26526E+003    1.43309E+005   -1.63872E+004   -2.50156E+004
             483    3.57747E+005    3.17681E+005    3.17681E+005   -1.02888E+004   -6.38121E+004    3.81493E+005   -8.11935E+004    3.48569E+005    9.83147E+002    2.50762E+005   -8.16456E+003    1.42548E+005   -1.40023E+004   -2.36472E+004
             484    2.91109E+005    2.35696E+005    2.35696E+005   -1.58508E+004   -8.31781E+004    3.18874E+005   -4.55557E+004    2.72754E+005   -1.50950E+004    1.65339E+005   -1.35774E+004    1.30072E+005   -1.05972E+004   -2.13445E+004
             485    4.74791E+005    4.64897E+005    4.64897E+005    1.54395E+004   -3.17090E+004    4.96607E+005   -1.49543E+005    4.69481E+005    3.91429E+004    3.93393E+005    1.60918E+004    1.71884E+005   -1.75113E+004   -2.36939E+004
             486    3.97841E+005    3.61198E+005    3.61198E+005   -7.30884E+003   -6.06039E+004    4.21802E+005   -9.77619E+004    3.89689E+005   -6.18704E+003    3.04901E+005   -5.42855E+003    1.39244E+005   -1.93887E+004   -2.85356E+004
             487    3.42235E+005    3.02648E+005    3.02648E+005   -1.08408E+004   -6.24683E+004    3.65116E+005   -7.64461E+004    3.33305E+005    5.35863E+003    2.31640E+005   -7.65998E+003    1.41047E+005   -1.64255E+004   -2.77770E+004
             488    2.84296E+005    2.30751E+005    2.30751E+005   -1.30795E+004   -8.15181E+004    3.12269E+005   -4.53843E+004    2.64794E+005   -1.37368E+004    1.59977E+005   -1.00871E+004    1.27927E+005   -1.33785E+004   -2.33505E+004
             489    4.38965E+005    4.26983E+005    4.26983E+005    4.08024E+003   -2.64496E+004    4.53432E+005   -1.34871E+005    4.36566E+005    5.27366E+004    3.46895E+005    4.98150E+003    1.70587E+005   -1.68984E+004   -2.36361E+004
             490    3.70626E+005    3.31100E+005    3.31100E+005   -1.11994E+004   -6.25061E+004    3.93606E+005   -8.57980E+004    3.62507E+005   -4.85200E+003    2.71455E+005   -9.20862E+003    1.37037E+005   -1.98290E+004   -2.75589E+004
             491    3.26710E+005    2.90783E+005    2.90783E+005   -5.65771E+003   -5.95069E+004    3.50290E+005   -7.52060E+004    3.16495E+005    1.26006E+004    2.15878E+005   -2.86053E+003    1.40288E+005   -1.88234E+004   -2.53685E+004
             492    2.75136E+005    2.21073E+005    2.21073E+005   -1.42756E+004   -8.14207E+004    3.02493E+005   -4.17921E+004    2.55708E+005   -1.18965E+004    1.48472E+005   -1.11988E+004    1.26275E+005   -1.56931E+004   -2.24948E+004
             493    4.15956E+005    4.00020E+005    4.00020E+005   -7.22453E+003   -2.41318E+004    4.24151E+005   -1.22888E+005    4.15181E+005    6.97673E+004    3.06928E+005   -8.03229E+003    1.73607E+005   -6.20872E+003   -2.40574E+004
             494    3.47034E+005    3.12949E+005    3.12949E+005   -1.66241E+003   -5.92912E+004    3.72241E+005   -8.39986E+004    3.36015E+005    4.39582E+003    2.48421E+005   -8.20563E+002    1.38942E+005   -1.54429E+004   -1.78369E+004
             495    3.14515E+005    2.79048E+005    2.79048E+005   -4.87181E+003   -5.90280E+004    3.38076E+005   -7.17161E+004    3.03758E+005    2.04930E+004    1.98247E+005   -3.59205E+003    1.42436E+005   -1.54812E+004   -1.71154E+004
             496    2.72519E+005    2.22505E+005    2.22505E+005   -6.38676E+003   -7.89515E+004    3.01457E+005   -4.57224E+004    2.49357E+005   -5.77368E+003    1.48347E+005   -5.40602E+003    1.28304E+005   -1.48519E+004   -1.31955E+004
             497    4.03144E+005    4.02567E+005    4.02567E+005    1.31912E+004   -1.30637E+004    4.15630E+005   -1.34231E+005    4.01214E+005    1.11563E+005    2.79553E+005    1.15781E+004    1.88300E+005   -3.37303E+003   -1.92095E+004
             498    3.44935E+005    3.09590E+005    3.09590E+005   -1.74524E+004   -5.08142E+004    3.60404E+005   -8.04410E+004    3.41277E+005    2.46774E+004    2.34458E+005   -1.78126E+004    1.46111E+005   -6.98180E+003   -4.55168E+003
             499    3.24711E+005    2.98120E+005    2.98120E+005   -2.85665E+003   -4.60101E+004    3.44130E+005   -8.30843E+004    3.18164E+005    4.71292E+004    2.05113E+005   -2.98893E+003    1.52243E+005   -1.06348E+004   -7.64340E+003
             500    2.75477E+005    2.26379E+005    2.26379E+005   -1.25112E+004   -7.49627E+004    3.01341E+005   -4.63015E+004    2.58821E+005    1.06821E+004    1.40217E+005   -1.19946E+004    1.35295E+005   -1.22268E+004   -9.89221E+003
             501    2.90077E+005    2.51048E+005    2.51048E+005   -7.20536E+003   -6.28046E+004    3.13852E+005   -6.03459E+004    2.77706E+005    5.00147E+004    1.40911E+005   -9.88778E+003    1.48532E+005   -1.48486E+004    8.49519E+002
             502    3.27929E+005    2.91045E+005    2.91045E+005   -2.67915E+004   -4.61220E+004    3.37167E+005   -7.27105E+004    3.26644E+005    5.92718E+004    1.85923E+005   -2.70634E+004    1.54797E+005   -1.51427E+004   -1.33458E+004
             503    3.94644E+005    3.76036E+005    3.76036E+005   -1.67924E+004   -2.03977E+004    3.96434E+005   -1.12949E+005    3.94607E+005    8.77128E+004    2.68792E+005   -1.76586E+004    1.75270E+005   -8.86553E+003   -1.11887E+004
             504    3.85945E+005    3.66032E+005    3.66032E+005   -5.53440E+003   -3.28404E+004    3.98873E+005   -1.09219E+005    3.83763E+005    8.19391E+004    2.77729E+005   -3.20103E+004    1.58387E+005    3.99082E+003   -2.46838E+003
             505    7.19386E+005    7.72896E+005    7.72896E+005    1.35609E+005   -7.17518E+003    7.80071E+005   -3.00443E+005    6.86411E+005    1.06047E+005    6.59640E+005    1.35643E+005    2.74760E+005   -2.83036E+003   -4.34207E+003
             506    6.79979E+005    7.24707E+005    7.24707E+005    1.18387E+005   -1.04866E+004    7.35193E+005   -2.77536E+005    6.51647E+005    9.71917E+004    6.16882E+005    1.18532E+005    2.59768E+005   -8.02888E+003   -9.93276E+003
             507    6.16502E+005    6.47605E+005    6.47605E+005    8.96930E+004   -1.42671E+004    6.61873E+005   -2.41010E+005    5.96301E+005    8.52685E+004    5.47973E+005    8.97903E+004    2.36205E+005   -1.02049E+004   -1.09561E+004
             508    5.40566E+005    5.57791E+005    5.57791E+005    5.77238E+004   -1.57555E+004    5.73547E+005   -1.99920E+005    5.29155E+005    7.42423E+004    4.68599E+005    5.69180E+004    2.07307E+005   -1.26532E+004   -7.14122E+003
             509    4.70513E+005    4.68005E+005    4.68005E+005    1.69029E+004   -1.97731E+004    4.87778E+005   -1.55045E+005    4.67281E+005    6.39489E+004    3.87961E+005    1.32251E+004    1.79533E+005   -1.44752E+004   -4.70410E+003
             510    3.98153E+005    3.77158E+005    3.77158E+005   -2.82404E+003   -3.69661E+004    4.14124E+005   -1.12456E+005    3.94839E+005    5.17634E+004    3.09130E+005   -2.35258E+004    1.48521E+005   -1.88199E+004   -1.15147E+003
             511    3.60953E+005    3.05805E+005    3.05805E+005   -1.99713E+004   -8.22268E+004    3.88031E+005   -6.78689E+004    3.48566E+005    3.04158E+004    2.54144E+005   -8.09531E+004    1.19096E+005   -1.05019E+004   -3.22953E+003
             512    2.53954E+005    1.99338E+005    1.99338E+005   -6.33160E+003   -8.45155E+004    2.83853E+005   -3.61635E+004    2.24381E+005    2.73568E+004    9.04024E+004   -9.26880E+003    1.36859E+005   -1.27641E+004    7.89497E+003
             513    2.31881E+005    1.64103E+005    1.64103E+005    5.21083E+003   -1.01982E+005    2.66084E+005   -2.24440E+004    1.60060E+005    1.65809E+004    4.79872E+004    2.76387E+003    1.30389E+005   -7.23763E+003    1.82233E+004
             514    2.22149E+005    1.27576E+005   -1.28921E+005   -3.38430E+003   -1.28921E+005    2.56497E+005    1.57626E+003    7.37692E+004   -1.70306E+003    4.48446E+002   -3.47416E+003    1.26680E+005   -1.52561E+002    1.99599E+004
             515    2.32072E+005    1.04756E+005   -1.61044E+005    1.35347E+003   -1.61044E+005    2.65800E+005    1.83118E+004   -1.67071E+005   -1.31664E+004   -4.55410E+004    3.77197E+003    1.30239E+005    7.05548E+003    1.76846E+004
             516    2.55107E+005    8.26084E+004   -2.03715E+005   -6.06223E+002   -2.03715E+005    2.86324E+005    4.05711E+004   -2.21330E+005   -3.24440E+004   -9.20461E+004    2.77694E+003    1.38294E+005    1.24272E+004    1.07752E+004
             517    2.90310E+005    6.54859E+004   -2.46385E+005    1.60045E+004   -2.46385E+005    3.11871E+005    5.49649E+004   -2.80587E+005   -4.67823E+004   -1.36651E+005    1.85389E+004    1.47631E+005    1.50567E+004   -8.33904E+002
             518    3.33935E+005    4.37969E+004   -3.01803E+005    1.90952E+004   -3.01803E+005    3.45600E+005    7.96370E+004   -3.31870E+005   -6.76323E+004   -1.92854E+005    2.15753E+004    1.59225E+005    1.35438E+004   -5.64741E+003
             519    3.67017E+005    3.38621E+004   -3.38589E+005    2.27398E+004   -3.38589E+005    3.72451E+005    9.39958E+004   -3.66637E+005   -7.84822E+004   -2.35985E+005    3.24795E+004    1.63065E+005    8.14750E+003   -6.70217E+003
             520    3.69092E+005    4.74723E+004   -3.33333E+005    2.28092E+004   -3.33333E+005    3.80805E+005    8.76838E+004   -3.67231E+005   -5.55189E+004   -2.48008E+005    4.04760E+004    1.53961E+005    1.00269E+004    4.84182E+003
             521    2.45685E+005    1.93792E+005    1.93792E+005    1.44083E+003   -8.29708E+004    2.76763E+005   -3.74209E+004    2.09114E+005    1.75497E+004    9.36522E+004    1.06068E+003    1.32613E+005   -9.68380E+003   -9.89832E+002
             522    2.43421E+005    1.85882E+005    1.85882E+005   -6.80466E+003   -8.76828E+004    2.73565E+005   -3.04650E+004    2.09832E+005    5.64018E+003    9.09604E+004   -5.20560E+003    1.29109E+005   -1.09440E+004   -1.37158E+004
             523    2.48126E+005    1.90814E+005    1.90814E+005   -5.23635E+003   -8.81519E+004    2.78966E+005   -3.24752E+004    2.13442E+005    4.05820E+003    9.62892E+004   -2.92183E+003    1.30359E+005   -1.06871E+004   -1.86547E+004
             524    2.53813E+005    1.92084E+005    1.92084E+005   -8.61924E+003   -9.32264E+004    2.85310E+005   -3.00794E+004    2.18531E+005    1.33056E+003    9.52746E+004   -6.36708E+003    1.33097E+005   -8.53443E+003   -2.19845E+004
             525    2.58823E+005    1.96227E+005    1.96227E+005   -7.10412E+003   -9.51280E+004    2.91355E+005   -3.13315E+004    2.21178E+005    9.30252E+002    9.86538E+004   -5.58955E+003    1.36099E+005   -6.73859E+003   -1.87516E+004
             526    2.62694E+005    1.97870E+005    1.97870E+005   -7.98148E+003   -9.79983E+004    2.95868E+005   -3.06301E+004    2.23825E+005   -5.16648E+001    9.93148E+004   -7.37293E+003    1.38778E+005   -3.84464E+003   -1.32984E+004
             527    2.64384E+005    1.99241E+005    1.99241E+005   -7.15202E+003   -9.87637E+004    2.98005E+005   -3.11084E+004    2.24259E+005   -2.13753E+002    1.00610E+005   -7.07103E+003    1.40155E+005   -1.58395E+003   -4.35161E+003
             528    2.21804E+005    1.48202E+005    1.48202E+005   -4.54291E+003   -1.06213E+005    2.54414E+005   -1.24819E+004    1.54702E+005   -2.86364E+002    4.24890E+004   -4.75686E+003    1.25240E+005   -5.65200E+003    1.27406E+003
             529    2.19181E+005    1.45737E+005    1.45737E+005   -1.40030E+003   -1.06166E+005    2.51903E+005   -1.27235E+004    1.44469E+005   -4.00317E+003    4.28606E+004   -6.86942E+002    1.23368E+005   -5.45787E+003   -8.94764E+003
             530    2.22440E+005    1.44001E+005    1.44001E+005   -6.91434E+003   -1.11451E+005    2.55452E+005   -8.54528E+003    1.50256E+005   -6.52439E+003    3.77456E+004   -5.58542E+003    1.24449E+005   -4.69628E+003   -1.85454E+004
             531    2.26478E+005    1.46085E+005    1.46085E+005   -3.80469E+003   -1.14446E+005    2.60531E+005   -9.27813E+003    1.44056E+005   -6.15880E+003    3.67365E+004   -2.74331E+003    1.27054E+005   -3.42141E+003   -1.93552E+004
             532    2.29821E+005    1.44856E+005    1.44856E+005   -5.28135E+003   -1.19717E+005    2.64572E+005   -6.61929E+003    1.41043E+005   -6.72136E+003    3.12310E+004   -4.65178E+003    1.29627E+005   -2.14335E+003   -1.85112E+004
             533    2.31777E+005    1.45673E+005    1.45673E+005   -3.59308E+003   -1.21340E+005    2.67013E+005   -6.91327E+003    1.36157E+005   -6.05261E+003    3.01480E+004   -3.35555E+003    1.31743E+005   -1.22285E+003   -1.19267E+004
             534    2.32588E+005    1.44767E+005    1.44767E+005   -3.94959E+003   -1.23265E+005    2.68032E+005   -5.85084E+003    1.33384E+005   -6.14076E+003    2.76192E+004   -3.92592E+003    1.32864E+005   -2.93977E+002   -4.76676E+003
             535    2.17839E+005    1.26859E+005    1.26859E+005    3.12821E+003   -1.24668E+005    2.51527E+005   -1.77319E+003   -6.61393E+004    2.98683E+003   -8.36199E+002    3.16893E+003    1.25639E+005    4.84601E+002    5.23934E+003
             536    2.18388E+005    1.23356E+005   -1.28811E+005   -1.39940E+003   -1.28811E+005    2.52168E+005    2.28470E+003   -5.74883E+004    2.11693E+003   -7.38227E+003   -1.58877E+003    1.25626E+005    1.11276E+003   -9.57676E+003
             537    2.23916E+005    1.24878E+005   -1.33518E+005    3.55429E+003   -1.33518E+005    2.58396E+005    1.69504E+003   -1.05744E+005    3.99364E+003   -1.21672E+004    3.08848E+003    1.27888E+005    1.79079E+003   -1.64889E+004
             538    2.31482E+005    1.24055E+005   -1.42930E+005    1.66278E+003   -1.42930E+005    2.66985E+005    5.73726E+003   -1.21166E+005    3.81781E+003   -2.19506E+004    9.20981E+002    1.31276E+005    2.22521E+003   -2.05833E+004
             539    2.37607E+005    1.25040E+005   -1.48689E+005    4.34248E+003   -1.48689E+005    2.73729E+005    6.43539E+003   -1.39613E+005    5.02759E+003   -2.81459E+004    3.81214E+003    1.34728E+005    2.01670E+003   -1.75898E+004
             540    2.42450E+005    1.24315E+005   -1.54812E+005    3.41419E+003   -1.54812E+005    2.79127E+005    9.02731E+003   -1.48353E+005    4.92965E+003   -3.51357E+004    3.12413E+003    1.37535E+005    1.51742E+003   -1.28031E+004
             541    2.44778E+005    1.24372E+005   -1.57268E+005    4.18313E+003   -1.57268E+005    2.81640E+005    9.57065E+003   -1.54294E+005    5.37394E+003   -3.82444E+004    4.15850E+003    1.39064E+005    4.18167E+002   -4.00510E+003
             542    2.23753E+005    1.00321E+005   -1.56349E+005   -2.40836E+003   -1.56349E+005    2.56670E+005    1.94786E+004   -1.55757E+005   -7.67849E+003   -4.86843E+004   -2.07301E+003    1.26491E+005    5.91915E+003    2.42512E+003
             543    2.23973E+005    9.95655E+004   -1.56162E+005    5.11230E+003   -1.56162E+005    2.55728E+005    1.71614E+004   -1.69605E+005   -1.05330E+003   -5.46643E+004    4.23338E+003    1.24571E+005    7.16016E+003   -9.49349E+003
             544    2.30790E+005    9.67569E+004   -1.65962E+005    4.10729E+003   -1.65962E+005    2.62719E+005    2.16992E+004   -1.81242E+005   -1.49751E+001   -6.71541E+004    2.07151E+003    1.25654E+005    7.95906E+003   -1.87526E+004
             545    2.39903E+005    9.69820E+004   -1.74589E+005    8.52878E+003   -1.74589E+005    2.71571E+005    2.30261E+004   -1.97880E+005    2.59240E+003   -7.81659E+004    6.49524E+003    1.28145E+005    7.55946E+003   -2.05463E+004
             546    2.48603E+005    9.52052E+004   -1.85368E+005    7.47894E+003   -1.85368E+005    2.80573E+005    2.75613E+004   -2.09268E+005    3.09961E+003   -9.16087E+004    5.82528E+003    1.30748E+005    6.51513E+003   -1.96312E+004
             547    2.54748E+005    9.49751E+004   -1.91653E+005    8.93197E+003   -1.91653E+005    2.86628E+005    2.92486E+004   -2.18269E+005    4.29048E+003   -1.00297E+005    8.26050E+003    1.32899E+005    4.18473E+003   -1.27549E+004
             548    2.58183E+005    9.41402E+004   -1.96057E+005    8.18429E+003   -1.96057E+005    2.90197E+005    3.12441E+004   -2.22395E+005    4.48477E+003   -1.06304E+005    8.08705E+003    1.34031E+005    1.58530E+003   -4.90013E+003
             549    2.48700E+005    8.58856E+004   -1.92929E+005    6.04857E+003   -1.92929E+005    2.78814E+005    3.36649E+004   -2.16927E+005   -1.20192E+004   -9.53838E+004    6.40841E+003    1.32525E+005    1.04216E+004   -1.96426E+003
             550    2.50402E+005    8.49946E+004   -1.95888E+005    3.96777E+003   -1.95888E+005    2.80882E+005    3.56418E+004   -2.17838E+005   -2.36950E+003   -1.07150E+005    2.59382E+003    1.29415E+005    1.24404E+004   -1.24940E+004
             551    2.61069E+005    8.57452E+004   -2.04463E+005    1.12933E+004   -2.04463E+005    2.90208E+005    3.58080E+004   -2.35348E+005    3.52743E+003   -1.19543E+005    8.59133E+003    1.29905E+005    1.36159E+004   -1.98334E+004
             552    2.75687E+005    8.44006E+004   -2.20723E+005    1.04390E+004   -2.20723E+005    3.05123E+005    4.19610E+004   -2.51875E+005    5.24591E+003   -1.38492E+005    7.36350E+003    1.32797E+005    1.24107E+004   -2.35671E+004
             553    2.90040E+005    8.49484E+004   -2.34161E+005    1.34300E+004   -2.34161E+005    3.19109E+005    4.52607E+004   -2.69107E+005    7.87585E+003   -1.54994E+005    1.13361E+004    1.35968E+005    1.02416E+004   -2.03659E+004
             554    3.00586E+005    8.45178E+004   -2.45835E+005    1.15505E+004   -2.45835E+005    3.30353E+005    4.99222E+004   -2.79599E+005    8.42187E+003   -1.68801E+005    1.06125E+004    1.38817E+005    6.49308E+003   -1.43065E+004
             555    3.06892E+005    8.47400E+004   -2.51990E+005    1.19888E+004   -2.51990E+005    3.36730E+005    5.17538E+004   -2.86510E+005    9.25740E+003   -1.76406E+005    1.18874E+004    1.40398E+005    2.22450E+003   -4.70534E+003
             556    2.81953E+005    6.73335E+004   -2.40344E+005    5.68160E+003   -2.40344E+005    3.07678E+005    5.57764E+004   -2.66146E+005   -2.42561E+004   -1.48877E+005    5.80355E+003    1.40010E+005    1.14968E+004   -6.12754E+003
             557    2.81964E+005    7.34873E+004   -2.35177E+005    8.86898E+003   -2.35177E+005    3.08664E+005    5.09403E+004   -2.64524E+005   -3.66328E+003   -1.57082E+005    7.92448E+003    1.32683E+005    1.50522E+004   -1.36705E+004
             558    2.94782E+005    7.09547E+004   -2.49603E+005    9.81241E+003   -2.49603E+005    3.20558E+005    5.62787E+004   -2.79977E+005    8.47123E+002   -1.76530E+005    6.84679E+003    1.31322E+005    1.76271E+004   -2.35577E+004
             559    3.14278E+005    7.15376E+004   -2.67480E+005    1.41490E+004   -2.67480E+005    3.39017E+005    6.05978E+004   -3.02150E+005    6.07364E+003   -1.99172E+005    1.13051E+004    1.32851E+005    1.60397E+004   -2.46574E+004
             560    3.31017E+005    7.02586E+004   -2.86028E+005    1.19808E+004   -2.86028E+005    3.56286E+005    6.79294E+004   -3.19168E+005    7.69879E+003   -2.21265E+005    9.77795E+003    1.34857E+005    1.37056E+004   -2.26912E+004
             561    3.45326E+005    7.02627E+004   -3.00173E+005    1.28445E+004   -3.00173E+005    3.70436E+005    7.23554E+004   -3.34333E+005    9.48512E+003   -2.38467E+005    1.19161E+004    1.36916E+005    8.60602E+003   -1.52839E+004
             562    3.52513E+005    6.98131E+004   -3.08270E+005    1.13696E+004   -3.08270E+005    3.78083E+005    7.56956E+004   -3.41358E+005    9.95754E+003   -2.48308E+005    1.12636E+004    1.37974E+005    3.20601E+003   -5.29960E+003
             563    3.19031E+005    5.12508E+004   -2.85464E+005    1.23088E+004   -2.85464E+005    3.36715E+005    7.39681E+004   -3.13617E+005   -3.93659E+004   -1.95097E+005    1.25590E+004    1.48578E+005    1.07789E+004   -7.55773E+003
             564    3.22245E+005    5.77735E+004   -2.87981E+005    3.98553E+003   -2.87981E+005    3.45754E+005    7.54072E+004   -3.11905E+005   -1.90448E+004   -2.09919E+005    2.74185E+003    1.42665E+005    1.59864E+004   -1.77885E+004
             565    3.43728E+005    6.10701E+004   -3.04984E+005    1.09061E+004   -3.04984E+005    3.66054E+005    7.76691E+004   -3.35344E+005   -7.01242E+003   -2.35122E+005    9.12668E+003    1.40504E+005    1.99388E+004   -2.41992E+004
             566    3.67309E+005    6.03546E+004   -3.30898E+005    6.52748E+003   -3.30898E+005    3.91252E+005    8.80052E+004   -3.58274E+005   -2.98568E+003   -2.65240E+005    4.20992E+003    1.42683E+005    1.82785E+004   -2.65942E+004
             567    3.94577E+005    6.27356E+004   -3.56368E+005    7.95929E+003   -3.56368E+005    4.19103E+005    9.52242E+004   -3.85884E+005    2.78972E+003   -2.94922E+005    6.45928E+003    1.45576E+005    1.56713E+004   -2.33739E+004
             568    4.13671E+005    6.27485E+004   -3.77272E+005    3.70490E+003   -3.77272E+005    4.40020E+005    1.03606E+005   -4.04028E+005    4.44837E+003   -3.18303E+005    3.03653E+003    1.48740E+005    9.91782E+003   -1.57392E+004
             569    4.27215E+005    6.34304E+004   -3.90618E+005    3.41715E+003   -3.90618E+005    4.54048E+005    1.07923E+005   -4.17573E+005    6.11146E+003   -3.33209E+005    3.32744E+003    1.50742E+005    3.56894E+003   -5.86877E+003
             570    3.53235E+005    4.03259E+004   -3.26231E+005    1.19730E+004   -3.26231E+005    3.66557E+005    9.13108E+004   -3.50661E+005   -5.05623E+004   -2.35007E+005    1.16370E+004    1.57975E+005    8.60642E+003   -1.03813E+004
             571    3.65057E+005    4.95147E+004   -3.33814E+005    9.70997E+003   -3.33814E+005    3.83328E+005    9.15297E+004   -3.60126E+005   -2.39807E+004   -2.59716E+005    9.10781E+003    1.49888E+005    1.38253E+004   -1.66150E+004
             572    3.87497E+005    5.03694E+004   -3.59250E+005    1.48443E+003   -3.59250E+005    4.09620E+005    1.02465E+005   -3.80467E+005   -1.67919E+004   -2.91091E+005    4.86564E+002    1.49586E+005    1.91431E+004   -2.34417E+004
             573    4.20388E+005    5.13429E+004   -3.92212E+005    3.58973E+002   -3.92212E+005    4.43555E+005    1.13503E+005   -4.13347E+005   -9.77032E+003   -3.29986E+005   -7.53452E+002    1.50665E+005    1.91739E+004   -2.59248E+004
             574    4.49361E+005    4.92648E+004   -4.26076E+005   -8.22818E+003   -4.26076E+005    4.75340E+005    1.28346E+005   -4.40972E+005   -9.32721E+003   -3.66616E+005   -9.09573E+003    1.54543E+005    1.69280E+004   -2.36404E+004
             575    4.75794E+005    4.81582E+004   -4.54166E+005   -1.03032E+004   -4.54166E+005    5.02324E+005    1.38770E+005   -4.67612E+005   -8.20836E+003   -3.97228E+005   -1.08748E+004    1.57853E+005    1.12339E+004   -1.77287E+004
             576    4.90835E+005    4.64327E+004   -4.72162E+005   -1.48397E+004   -4.72162E+005    5.18595E+005    1.46856E+005   -4.82119E+005   -9.34716E+003   -4.16354E+005   -1.48680E+004    1.60555E+005    4.15426E+003   -5.65710E+003
             577    3.97655E+005    2.21750E+004   -3.84106E+005    4.32086E+003   -3.84106E+005    4.06281E+005    1.19204E+005   -3.96752E+005   -1.01464E+005   -2.77734E+005    2.15872E+004    1.72734E+005    8.04071E+003   -1.31836E+004
             578    4.03030E+005    2.77932E+004   -3.87792E+005    1.38298E+003   -3.87792E+005    4.15586E+005    1.19539E+005   -4.01076E+005   -5.84404E+004   -3.01201E+005    1.02475E+003    1.67622E+005    1.27146E+004   -1.58353E+004
             579    4.40177E+005    2.55123E+004   -4.29707E+005   -6.29765E+003   -4.29707E+005    4.55219E+005    1.36831E+005   -4.37580E+005   -5.38700E+004   -3.50416E+005   -6.20624E+003    1.71009E+005    1.52320E+004   -1.80869E+004
             580    4.76762E+005    3.49869E+004   -4.69477E+005   -2.63549E+004   -4.69477E+005    5.04464E+005    1.53615E+005   -4.67760E+005   -3.60724E+004   -3.98302E+005   -2.64703E+004    1.73563E+005    1.76866E+004   -2.00881E+004
             581    5.23951E+005    3.43047E+004   -5.20997E+005   -3.53675E+004   -5.20997E+005    5.55302E+005    1.74020E+005   -5.13374E+005   -3.24971E+004   -4.53617E+005   -3.59454E+004    1.79295E+005    1.59604E+004   -2.17460E+004
             582    5.63579E+005    3.79476E+004   -5.63215E+005   -4.68224E+004   -5.63215E+005    6.01162E+005    1.90697E+005   -5.48961E+005   -2.56301E+004   -4.99410E+005   -4.70494E+004    1.84127E+005    1.17294E+004   -1.55200E+004
             583    5.89068E+005    3.77829E+004   -5.90494E+005   -5.06288E+004   -5.90494E+005    6.28277E+005    2.01113E+005   -5.73856E+005   -2.44733E+004   -5.28149E+005   -5.07174E+004    1.87658E+005    3.97104E+003   -7.02446E+003
             584    7.30225E+005   -4.04573E+003   -7.93581E+005   -1.42486E+005   -7.93581E+005    7.89536E+005    3.13371E+005   -6.99780E+005   -1.29964E+005   -6.67639E+005   -1.42511E+005    2.89049E+005    3.06588E+003   -3.92416E+003
             585    6.89049E+005   -2.19945E+002   -7.41941E+005   -1.21728E+005   -7.41941E+005    7.41721E+005    2.87963E+005   -6.64301E+005   -1.20231E+005   -6.21617E+005   -1.22041E+005    2.73060E+005    7.10992E+003   -1.25194E+004
             586    6.21960E+005    3.73094E+003   -6.60716E+005   -9.24481E+004   -6.60716E+005    6.64447E+005    2.49811E+005   -6.04889E+005   -1.07962E+005   -5.48744E+005   -9.27268E+004    2.48255E+005    9.18676E+003   -1.22887E+004
             587    5.53106E+005    6.15714E+003   -5.75142E+005   -5.53752E+004   -5.75142E+005    5.81299E+005    2.08120E+005   -5.45326E+005   -9.81918E+004   -4.70451E+005   -5.57169E+004    2.22851E+005    9.05564E+003   -1.28979E+004
             588    4.85465E+005    8.28204E+003   -4.95037E+005   -2.96524E+004   -4.95037E+005    5.03319E+005    1.72136E+005   -4.82114E+005   -9.20951E+004   -3.95169E+005   -2.91436E+004    2.00330E+005    9.12630E+003   -6.67889E+003
             589    4.44479E+005    1.64021E+004   -4.33668E+005    5.00146E+003   -4.33668E+005    4.50070E+005    1.37421E+005   -4.44150E+005   -8.63847E+004   -3.36825E+005    1.09454E+004    1.83155E+005    9.36088E+003   -5.55855E+003
             590    3.92331E+005    3.08414E+004   -3.69567E+005    1.41547E+004   -3.69567E+005    4.00408E+005    1.08190E+005   -3.91531E+005   -6.91257E+004   -2.78657E+005    2.32124E+004    1.65123E+005    1.06000E+004   -2.04635E+003
             591    3.84871E+005    3.64734E+005    3.64734E+005   -5.65472E+003   -3.31456E+004    3.97880E+005   -1.08645E+005    3.82653E+005    8.17607E+004    2.76511E+005   -3.23376E+004    1.58003E+005   -4.05348E+003    2.26466E+003
             592    3.96189E+005    3.77708E+005    3.77708E+005   -1.70010E+004   -1.99457E+004    3.97654E+005   -1.13587E+005    3.96165E+005    8.77706E+004    2.70728E+005   -1.77377E+004    1.75562E+005    8.48423E+003    1.11858E+004
             593    3.29162E+005    2.92587E+005    2.92587E+005   -2.65718E+004   -4.57407E+004    3.38327E+005   -7.34247E+004    3.27903E+005    5.96969E+004    1.87380E+005   -2.68031E+004    1.55211E+005    1.52060E+004    1.35699E+004
             594    2.90218E+005    2.51166E+005    2.51166E+005   -7.27354E+003   -6.28064E+004    3.13972E+005   -6.03619E+004    2.77885E+005    4.98278E+004    1.41154E+005   -9.89583E+003    1.48547E+005    1.48877E+004   -6.14826E+002
             595    2.75879E+005    2.27065E+005    2.27065E+005   -1.21959E+004   -7.47058E+004    3.01770E+005   -4.67210E+004    2.59217E+005    1.07518E+004    1.41069E+005   -1.16576E+004    1.35335E+005    1.23040E+004    1.00558E+004
             596    2.73256E+005    2.23343E+005    2.23343E+005   -6.45377E+003   -7.88090E+004    3.02152E+005   -4.60266E+004    2.50307E+005   -5.80049E+003    1.49302E+005   -5.42172E+003    1.28395E+005    1.49247E+004    1.34955E+004
             597    2.75650E+005    2.21729E+005    2.21729E+005   -1.42538E+004   -8.12400E+004    3.02969E+005   -4.20786E+004    2.56360E+005   -1.18194E+004    1.49180E+005   -1.11247E+004    1.26337E+005    1.56813E+004    2.27515E+004
             598    2.84524E+005    2.30880E+005    2.30880E+005   -1.31298E+004   -8.16469E+004    3.12526E+005   -4.53676E+004    2.64991E+005   -1.38198E+004    1.60077E+005   -1.01545E+004    1.28034E+005    1.32422E+004    2.33349E+004
             599    2.91403E+005    2.35948E+005    2.35948E+005   -1.58880E+004   -8.32302E+004    3.19179E+005   -4.56101E+004    2.73060E+005   -1.53335E+004    1.65812E+005   -1.36483E+004    1.30031E+005    1.05237E+004    2.11979E+004
             600    2.96900E+005    2.42158E+005    2.42158E+005   -1.43918E+004   -8.30580E+004    3.25217E+005   -4.82362E+004    2.78180E+005   -1.50508E+004    1.73253E+005   -1.34939E+004    1.32018E+005    6.35919E+003    1.38309E+004
             601    2.98813E+005    2.43676E+005    2.43676E+005   -1.46396E+004   -8.35826E+004    3.27259E+005   -4.84846E+004    2.80067E+005   -1.51174E+004    1.75088E+005   -1.45169E+004    1.33076E+005    2.26772E+003    5.21460E+003
             602    3.25212E+005    2.98602E+005    2.98602E+005   -2.84237E+003   -4.60563E+004    3.44658E+005   -8.32343E+004    3.18656E+005    4.65481E+004    2.06109E+005   -2.95432E+003    1.52140E+005    1.05692E+004    7.72891E+003
             603    3.15442E+005    2.80026E+005    2.80026E+005   -4.77168E+003   -5.90224E+004    3.39049E+005   -7.20774E+004    3.04680E+005    1.99168E+004    1.99724E+005   -3.40808E+003    1.42317E+005    1.56963E+004    1.76368E+004
             604    3.28436E+005    2.92414E+005    2.92414E+005   -5.93358E+003   -5.95201E+004    3.51934E+005   -7.56534E+004    3.18377E+005    1.21491E+004    2.17929E+005   -3.11783E+003    1.40377E+005    1.88539E+004    2.56015E+004
             605    3.43067E+005    3.03517E+005    3.03517E+005   -1.07481E+004   -6.24770E+004    3.65994E+005   -7.67641E+004    3.34124E+005    5.19490E+003    2.32694E+005   -7.59658E+003    1.41133E+005    1.64015E+004    2.77063E+004
             606    3.58113E+005    3.18091E+005    3.18091E+005   -1.01567E+004   -6.38279E+004    3.81919E+005   -8.13689E+004    3.48892E+005    1.02340E+003    2.51138E+005   -8.05450E+003    1.42708E+005    1.38745E+004    2.35249E+004
             607    3.69375E+005    3.27827E+005    3.27827E+005   -1.10089E+004   -6.59358E+004    3.93763E+005   -8.36274E+004    3.60015E+005   -2.45921E+003    2.63420E+005   -1.00789E+004    1.44541E+005    8.55526E+003    1.59778E+004
             608    3.74903E+005    3.33178E+005    3.33178E+005   -9.99809E+003   -6.69373E+004    4.00116E+005   -8.54143E+004    3.64985E+005   -4.11659E+003    2.70268E+005   -9.90807E+003    1.45524E+005    3.24805E+003    5.15263E+003
             609    3.44620E+005    3.09222E+005    3.09222E+005   -1.72118E+004   -5.10837E+004    3.60306E+005   -8.03088E+004    3.40845E+005    2.43532E+004    2.34113E+005   -1.75395E+004    1.46063E+005    7.05330E+003    4.80162E+003
             610    3.49129E+005    3.15145E+005    3.15145E+005   -1.86330E+003   -5.90461E+004    3.74191E+005   -8.47450E+004    3.38352E+005    4.53291E+003    2.50690E+005   -9.88275E+002    1.39270E+005    1.55647E+004    1.81894E+004
             611    3.72484E+005    3.33302E+005    3.33302E+005   -1.09323E+004   -6.21348E+004    3.95436E+005   -8.67448E+004    3.64440E+005   -4.54165E+003    2.73689E+005   -8.91335E+003    1.37351E+005    1.98603E+004    2.77905E+004
             612    3.99314E+005    3.62655E+005    3.62655E+005   -7.17706E+003   -6.07345E+004    4.23389E+005   -9.82478E+004    3.91111E+005   -6.54991E+003    3.06618E+005   -5.32437E+003    1.39315E+005    1.92522E+004    2.84116E+004
             613    4.23872E+005    3.87385E+005    3.87385E+005   -6.57885E+003   -6.11168E+004    4.48501E+005   -1.06563E+005    4.15869E+005   -8.10712E+003    3.33077E+005   -5.28096E+003    1.43233E+005    1.63108E+004    2.49781E+004
             614    4.41211E+005    4.07770E+005    4.07770E+005   -1.98885E+003   -5.92931E+004    4.67063E+005   -1.15496E+005    4.32720E+005   -7.02658E+003    3.54962E+005   -1.44770E+003    1.46626E+005    1.03662E+004    1.63236E+004
             615    4.49617E+005    4.16977E+005    4.16977E+005   -7.94162E+002   -5.88450E+004    4.75822E+005   -1.19113E+005    4.41067E+005   -6.67955E+003    3.64741E+005   -7.22921E+002    1.48586E+005    3.67584E+003    5.91324E+003
             616    4.04643E+005    4.04227E+005    4.04227E+005    1.31004E+004   -1.26983E+004    4.16925E+005   -1.34876E+005    4.02787E+005    1.12454E+005    2.80908E+005    1.12674E+004    1.88778E+005    3.23948E+003    1.94288E+004
             617    4.16194E+005    4.00162E+005    4.00162E+005   -7.33228E+003   -2.42163E+004    4.24379E+005   -1.22871E+005    4.15422E+005    6.88278E+004    3.07653E+005   -7.86667E+003    1.73382E+005    6.34232E+003    2.36425E+004
             618    4.40711E+005    4.29070E+005    4.29070E+005    4.73209E+003   -2.63657E+004    4.55436E+005   -1.35812E+005    4.38232E+005    5.28263E+004    3.49132E+005    5.47842E+003    1.70947E+005    1.70275E+004    2.32354E+004
             619    4.75749E+005    4.66173E+005    4.66173E+005    1.62975E+004   -3.17963E+004    4.97970E+005   -1.50225E+005    4.70234E+005    3.91788E+004    3.94549E+005    1.69469E+004    1.72282E+005    1.75963E+004    2.36859E+004
             620    5.09406E+005    5.04434E+005    5.04434E+005    2.97122E+004   -3.37146E+004    5.38149E+005   -1.66811E+005    5.00406E+005    3.13147E+004    4.38982E+005    3.01357E+004    1.73771E+005    1.64802E+004    2.17237E+004
             621    5.37947E+005    5.33355E+005    5.33355E+005    3.43658E+004   -3.65227E+004    5.69877E+005   -1.77066E+005    5.27286E+005    2.37409E+004    4.72685E+005    3.47717E+004    1.74587E+005    1.11315E+004    1.68652E+004
             622    5.55476E+005    5.51236E+005    5.51236E+005    3.68493E+004   -3.77824E+004    5.89018E+005   -1.83434E+005    5.44024E+005    2.00721E+004    4.93345E+005    3.68854E+004    1.75186E+005    4.33575E+003    6.14370E+003
             623    7.19086E+005    7.72367E+005    7.72367E+005    1.35385E+005   -7.39920E+003    7.79766E+005   -3.00117E+005    6.86096E+005    1.05774E+005    6.59161E+005    1.35418E+005    2.74645E+005    2.99769E+003    4.35982E+003
             624    6.80611E+005    7.25250E+005    7.25250E+005    1.18261E+005   -1.05691E+004    7.35819E+005   -2.77647E+005    6.52327E+005    9.71533E+004    6.17399E+005    1.18389E+005    2.59939E+005    7.98255E+003    9.61091E+003
             625    6.16779E+005    6.47625E+005    6.47625E+005    8.94299E+004   -1.45260E+004    6.62151E+005   -2.40843E+005    5.96590E+005    8.46592E+004    5.48345E+005    8.95253E+004    2.35910E+005    1.03033E+004    1.10367E+004
             626    5.41316E+005    5.58426E+005    5.58426E+005    5.74766E+004   -1.57944E+004    5.74220E+005   -2.00036E+005    5.29988E+005    7.39066E+004    4.69455E+005    5.67465E+004    2.07234E+005    1.25495E+004    7.57773E+003
             627    4.72292E+005    4.70523E+005    4.70523E+005    1.81118E+004   -1.94114E+004    4.89935E+005   -1.56408E+005    4.68921E+005    6.43809E+004    3.90108E+005    1.47347E+004    1.80414E+005    1.42423E+004    4.81274E+003
             628    4.00629E+005    3.80832E+005    3.80832E+005   -2.34441E+003   -3.52229E+004    4.16055E+005   -1.14421E+005    3.97576E+005    5.35413E+004    3.11678E+005   -2.19552E+004    1.50160E+005    1.85045E+004    1.73986E+003
             629    3.61467E+005    3.07265E+005    3.07265E+005   -1.95488E+004   -8.09809E+004    3.88246E+005   -6.89118E+004    3.49431E+005    3.10867E+004    2.55161E+005   -7.95118E+004    1.19793E+005    1.09817E+004    2.69585E+003
             630    5.89723E+005    3.77652E+004   -5.91248E+005   -5.08431E+004   -5.91248E+005    6.29014E+005    2.01442E+005   -5.74460E+005   -2.46212E+004   -5.28775E+005   -5.09305E+004    1.87948E+005   -4.11930E+003    7.08836E+003
             631    4.91319E+005    4.62791E+004   -4.72868E+005   -1.51536E+004   -4.72868E+005    5.19147E+005    1.47247E+005   -4.82565E+005   -9.53161E+003   -4.17018E+005   -1.51929E+004    1.60689E+005   -4.26483E+003    5.99085E+003
             632    4.27564E+005    6.33179E+004   -3.91048E+005    3.39090E+003   -3.91048E+005    4.54366E+005    1.08113E+005   -4.17959E+005    5.98762E+003   -3.33619E+005    3.29236E+003    1.50803E+005   -3.86607E+003    6.22927E+003
             633    3.52469E+005    6.97834E+004   -3.08217E+005    1.14400E+004   -3.08217E+005    3.78001E+005    7.56647E+004   -3.41351E+005    9.92698E+003   -2.48238E+005    1.13173E+004    1.37950E+005   -3.47060E+003    5.70715E+003
             634    3.06765E+005    8.47448E+004   -2.51854E+005    1.20005E+004   -2.51854E+005    3.36599E+005    5.17028E+004   -2.86378E+005    9.24764E+003   -1.76236E+005    1.18802E+004    1.40367E+005   -2.44289E+003    5.11036E+003
             635    2.58059E+005    9.41676E+004   -1.95901E+005    8.20563E+003   -1.95901E+005    2.90069E+005    3.11760E+004   -2.22244E+005    4.49746E+003   -1.06122E+005    8.09690E+003    1.33987E+005   -1.67099E+003    5.19246E+003
             636    2.44822E+005    1.24330E+005   -1.57357E+005    4.14167E+003   -1.57357E+005    2.81688E+005    9.62851E+003   -1.54373E+005    5.35659E+003   -3.83562E+004    4.11409E+003    1.39077E+005   -4.51732E+002    4.15916E+003
             637    2.32607E+005    1.44877E+005    1.44877E+005   -3.92910E+003   -1.23172E+005    2.68049E+005   -5.92510E+003    1.33632E+005   -6.08323E+003    2.77642E+004   -3.90566E+003    1.32867E+005    2.90074E+002    4.78281E+003
             638    2.64553E+005    1.99459E+005    1.99459E+005   -7.19076E+003   -9.86999E+004    2.98159E+005   -3.11894E+004    2.24564E+005   -1.92798E+002    1.00873E+005   -7.11179E+003    1.40195E+005    1.56363E+003    4.30213E+003
             639    5.63710E+005    3.77428E+004   -5.63598E+005   -4.71482E+004   -5.63598E+005    6.01341E+005    1.91001E+005   -5.49052E+005   -2.60119E+004   -4.99598E+005   -4.73940E+004    1.84373E+005   -1.18874E+004    1.58210E+004
             640    4.76084E+005    4.80428E+004   -4.54697E+005   -1.07256E+004   -4.54697E+005    5.02740E+005    1.39127E+005   -4.67819E+005   -8.47566E+003   -3.97594E+005   -1.13101E+004    1.58074E+005   -1.15245E+004    1.80491E+004
             641    4.13019E+005    6.26750E+004   -3.76597E+005    3.86428E+003   -3.76597E+005    4.39272E+005    1.03353E+005   -4.03438E+005    4.34900E+003   -3.17555E+005    3.14826E+003    1.48594E+005   -1.02300E+004    1.62589E+004
             642    3.44309E+005    7.03507E+004   -2.99036E+005    1.29905E+004   -2.99036E+005    3.69387E+005    7.18982E+004   -3.33304E+005    9.43097E+003   -2.37127E+005    1.20011E+004    1.36789E+005   -8.94629E+003    1.57433E+004
             643    2.99457E+005    8.47356E+004   -2.44514E+005    1.16014E+004   -2.44514E+005    3.29250E+005    4.93923E+004   -2.78280E+005    8.41398E+003   -1.67206E+005    1.06149E+004    1.38640E+005   -6.60564E+003    1.46808E+004
             644    2.54144E+005    9.52105E+004   -1.90864E+005    8.83250E+003   -1.90864E+005    2.86075E+005    2.89404E+004   -2.17233E+005    4.19438E+003   -9.91511E+004    8.13535E+003    1.32825E+005   -4.26514E+003    1.29693E+004
             645    2.42271E+005    1.24647E+005   -1.54315E+005    3.34047E+003   -1.54315E+005    2.78962E+005    8.77602E+003   -1.46996E+005    4.94886E+003   -3.43350E+004    3.05809E+003    1.37497E+005   -1.45551E+003    1.29099E+004
             646    2.32008E+005    1.46168E+005    1.46168E+005   -3.74002E+003   -1.21071E+005    2.67239E+005   -7.11891E+003    1.37736E+005   -6.14546E+003    3.10058E+004   -3.50360E+003    1.31795E+005    1.22442E+003    1.18926E+004
             647    2.63231E+005    1.98751E+005    1.98751E+005   -7.99548E+003   -9.75794E+004    2.96330E+005   -3.10586E+004    2.24885E+005   -2.31537E+001    1.00583E+005   -7.38357E+003    1.38810E+005    3.89840E+003    1.32159E+004
             648    5.22816E+005    3.41728E+004   -5.19925E+005   -3.53464E+004   -5.19925E+005    5.54097E+005    1.73699E+005   -5.12263E+005   -3.28062E+004   -4.52378E+005   -3.59140E+004    1.79270E+005   -1.59892E+004    2.16763E+004
             649    4.47710E+005    4.93076E+004   -4.24262E+005   -7.91438E+003   -4.24262E+005    4.73570E+005    1.27623E+005   -4.39370E+005   -9.48992E+003   -3.64599E+005   -8.78029E+003    1.54369E+005   -1.72341E+004    2.38658E+004
             650    3.91703E+005    6.29168E+004   -3.53231E+005    8.29158E+003   -3.53231E+005    4.16148E+005    9.40076E+004   -3.82993E+005    2.77251E+003   -2.91519E+005    6.72391E+003    1.45148E+005   -1.58980E+004    2.36842E+004
             651    3.28051E+005    7.05840E+004   -2.82732E+005    1.22213E+004   -2.82732E+005    3.53316E+005    6.66421E+004   -3.16053E+005    7.59370E+003   -2.17435E+005    9.91452E+003    1.34513E+005   -1.39033E+004    2.30281E+004
             652    2.87788E+005    8.55359E+004   -2.31486E+005    1.33090E+004   -2.31486E+005    3.17021E+005    4.42136E+004   -2.66226E+005    7.78913E+003   -1.51612E+005    1.11825E+004    1.35757E+005   -1.02031E+004    2.04818E+004
             653    2.47256E+005    9.58847E+004   -1.83465E+005    7.28010E+003   -1.83465E+005    2.79350E+005    2.67668E+004   -2.06720E+005    2.94573E+003   -8.88772E+004    5.63099E+003    1.30592E+005   -6.43585E+003    1.96918E+004
             654    2.37351E+005    1.25856E+005   -1.47665E+005    4.09370E+003   -1.47665E+005    2.73521E+005    5.90526E+003   -1.36106E+005    4.96049E+003   -2.62749E+004    3.59860E+003    1.34743E+005   -1.87055E+003    1.75395E+004
             655    2.30176E+005    1.45924E+005    1.45924E+005   -5.43563E+003   -1.18961E+005    2.64885E+005   -7.17554E+003    1.43897E+005   -6.79807E+003    3.31053E+004   -4.78065E+003    1.29644E+005    2.24471E+003    1.85055E+004
             656    2.59725E+005    1.97483E+005    1.97483E+005   -7.18774E+003   -9.46942E+004    2.92177E+005   -3.18669E+004    2.22742E+005    1.06384E+003    1.00211E+005   -5.67412E+003    1.36292E+005    6.79163E+003    1.86969E+004
             657    4.74789E+005    3.48326E+004   -4.67226E+005   -2.54670E+004   -4.67226E+005    5.02058E+005    1.52620E+005   -4.66058E+005   -3.63731E+004   -3.95915E+005   -2.55722E+004    1.73219E+005   -1.76562E+004    2.00426E+004
             658    4.16979E+005    5.15467E+004   -3.88404E+005    9.94211E+002   -3.88404E+005    4.39950E+005    1.11954E+005   -4.10000E+005   -9.87292E+003   -3.25884E+005   -1.06019E+002    1.50222E+005   -1.93129E+004    2.58711E+004
             659    3.62816E+005    6.08795E+004   -3.25821E+005    7.11050E+003   -3.25821E+005    3.86700E+005    8.59435E+004   -3.53686E+005   -2.80576E+003   -2.59745E+005    4.71992E+003    1.41994E+005   -1.83710E+004    2.66376E+004
             660    3.10179E+005    7.21162E+004   -2.62962E+005    1.41349E+004   -2.62962E+005    3.35078E+005    5.89037E+004   -2.97618E+005    5.97439E+003   -1.93922E+005    1.12365E+004    1.32406E+005   -1.60026E+004    2.45643E+004
             661    2.72876E+005    8.52872E+004   -2.17260E+005    1.02399E+004   -2.17260E+005    3.02547E+005    4.05775E+004   -2.48017E+005    5.19186E+003   -1.34106E+005    7.18129E+003    1.32519E+005   -1.21913E+004    2.34310E+004
             662    2.38520E+005    9.78603E+004   -1.72498E+005    8.19316E+003   -1.72498E+005    2.70358E+005    2.21482E+004   -1.94788E+005    2.38385E+003   -7.50494E+004    6.22106E+003    1.28028E+005   -7.32075E+003    2.04061E+004
             663    2.31271E+005    1.25112E+005   -1.41700E+005    1.45338E+003   -1.41700E+005    2.66812E+005    5.04504E+003   -1.15988E+005    3.82844E+003   -1.97371E+004    7.73527E+002    1.31289E+005   -2.00366E+003    2.05870E+004
             664    2.26911E+005    1.47023E+005    1.47023E+005   -4.00119E+003   -1.13914E+005    2.60937E+005   -9.70240E+003    1.46440E+005   -6.33729E+003    3.83504E+004   -2.90587E+003    1.27109E+005    3.54605E+003    1.93697E+004
             665    2.54396E+005    1.92824E+005    1.92824E+005   -8.62055E+003   -9.30537E+004    2.85878E+005   -3.03833E+004    2.19379E+005    1.48774E+003    9.60230E+004   -6.36085E+003    1.33290E+005    8.56825E+003    2.20437E+004
             666    4.37607E+005    2.55557E+004   -4.26749E+005   -5.49375E+003   -4.26749E+005    4.52305E+005    1.35562E+005   -4.35118E+005   -5.40016E+004   -3.47237E+005   -5.44914E+003    1.70522E+005   -1.51742E+004    1.82035E+004
             667    3.83539E+005    5.07860E+004   -3.54676E+005    2.33497E+003   -3.54676E+005    4.05462E+005    1.00518E+005   -3.76561E+005   -1.67218E+004   -2.86163E+005    1.33036E+003    1.48992E+005   -1.91056E+004    2.32546E+004
             668    3.39032E+005    6.17048E+004   -2.99775E+005    1.11248E+004   -2.99775E+005    3.61480E+005    7.56485E+004   -3.30383E+005   -6.90291E+003   -2.29367E+005    9.32471E+003    1.39882E+005   -1.98009E+004    2.38169E+004
             669    2.90883E+005    7.17510E+004   -2.45133E+005    9.75093E+003   -2.45133E+005    3.16884E+005    5.45437E+004   -2.75421E+005    9.01585E+002   -1.71330E+005    6.79755E+003    1.30869E+005   -1.74257E+004    2.31479E+004
             670    2.58786E+005    8.66183E+004   -2.01540E+005    1.10529E+004   -2.01540E+005    2.88158E+005    3.46228E+004   -2.31947E+005    3.45388E+003   -1.15714E+005    8.39191E+003    1.29712E+005   -1.33221E+004    1.95642E+004
             671    2.29718E+005    9.76718E+004   -1.64101E+005    3.89029E+003   -1.64101E+005    2.61773E+005    2.08464E+004   -1.78316E+005   -3.81715E+001   -6.44099E+004    1.90896E+003    1.25527E+005   -7.68932E+003    1.87007E+004
             672    2.23943E+005    1.25686E+005   -1.32778E+005    3.37969E+003   -1.32778E+005    2.58463E+005    1.23732E+003   -1.01336E+005    3.92672E+003   -1.05988E+004    2.96012E+003    1.27962E+005   -1.59522E+003    1.65557E+004
             673    2.22795E+005    1.44761E+005    1.44761E+005   -6.98035E+003   -1.11022E+005    2.55783E+005   -8.91975E+003    1.51791E+005   -6.51856E+003    3.88874E+004   -5.60958E+003    1.24488E+005    4.80374E+003    1.87582E+004
             674    2.48668E+005    1.91368E+005    1.91368E+005   -5.34769E+003   -8.81338E+004    2.79502E+005   -3.26288E+004    2.14201E+005    3.97722E+003    9.69348E+004   -3.02554E+003    1.30509E+005    1.06884E+004    1.87462E+004
             675    4.00775E+005    2.79564E+004   -3.85177E+005    1.97484E+003   -3.85177E+005    4.13134E+005    1.18415E+005   -3.98874E+005   -5.84406E+004   -2.98428E+005    1.62206E+003    1.67115E+005   -1.26652E+004    1.57295E+004
             676    3.61834E+005    5.00018E+004   -3.30153E+005    1.00440E+004   -3.30153E+005    3.80155E+005    9.00357E+004   -3.56820E+005   -2.38351E+004   -2.55713E+005    9.44149E+003    1.49403E+005   -1.37201E+004    1.63762E+004
             677    3.18764E+005    5.84789E+004   -2.83988E+005    4.06843E+003   -2.83988E+005    3.42467E+005    7.38136E+004   -3.08055E+005   -1.88118E+004   -2.05503E+005    2.87432E+003    1.42110E+005   -1.58613E+004    1.72923E+004
             678    2.79397E+005    7.41972E+004   -2.32124E+005    8.71833E+003   -2.32124E+005    3.06321E+005    4.97362E+004   -2.61284E+005   -3.36692E+003   -1.53626E+005    7.78425E+003    1.32267E+005   -1.48865E+004    1.33686E+004
             679    2.48899E+005    8.56629E+004   -1.93852E+005    3.82279E+003   -1.93852E+005    2.79515E+005    3.47888E+004   -2.15350E+005   -2.16661E+003   -1.04655E+005    2.45583E+003    1.29154E+005   -1.22624E+004    1.23568E+004
             680    2.23529E+005    1.00023E+005   -1.55315E+005    5.02279E+003   -1.55315E+005    2.55337E+005    1.67565E+004   -1.68187E+005   -9.41127E+002   -5.34662E+004    4.13785E+003    1.24482E+005   -6.99672E+003    9.65809E+003
             681    2.18423E+005    1.23766E+005   -1.28444E+005   -1.43205E+003   -1.28444E+005    2.52211E+005    2.03664E+003   -5.06312E+004    2.18683E+003   -6.67954E+003   -1.61720E+003    1.25632E+005   -1.03238E+003    9.92597E+003
             682    2.19425E+005    1.46075E+005    1.46075E+005   -1.62174E+003   -1.06062E+005    2.52137E+005   -1.27969E+004    1.45551E+005   -4.04965E+003    4.33129E+004   -8.72724E+002    1.23416E+005    5.51355E+003    9.29273E+003
             683    2.43703E+005    1.86228E+005    1.86228E+005   -6.85132E+003   -8.76008E+004    2.73829E+005   -3.05920E+004    2.10283E+005    5.38919E+003    9.15975E+004   -5.21076E+003    1.29080E+005    1.10026E+004    1.39634E+004
             684    3.96098E+005    2.18074E+004   -3.82560E+005    4.71463E+003   -3.82560E+005    4.04368E+005    1.18679E+005   -3.95267E+005   -1.01208E+005   -2.76053E+005    2.12230E+004    1.72452E+005   -8.09868E+003    1.30483E+004
             685    3.51252E+005    4.07919E+004   -3.23820E+005    1.23412E+004   -3.23820E+005    3.64612E+005    9.02290E+004   -3.48646E+005   -5.03133E+004   -2.32432E+005    1.20584E+004    1.57521E+005   -8.62811E+003    9.99023E+003
             686    3.17126E+005    5.17526E+004   -2.83335E+005    1.20991E+004   -2.83335E+005    3.35088E+005    7.31612E+004   -3.11475E+005   -3.91230E+004   -1.92734E+005    1.23732E+004    1.48221E+005   -1.07067E+004    7.25669E+003
             687    2.80543E+005    6.79309E+004   -2.38518E+005    5.65255E+003   -2.38518E+005    3.06449E+005    5.49782E+004   -2.64310E+005   -2.37673E+004   -1.46960E+005    5.79304E+003    1.39662E+005   -1.14241E+004    5.90175E+003
             688    2.48078E+005    8.61493E+004   -1.92137E+005    5.83002E+003   -1.92137E+005    2.78287E+005    3.33860E+004   -2.15776E+005   -1.17193E+004   -9.46079E+004    6.16922E+003    1.32337E+005   -1.03024E+004    1.97536E+003
             689    2.23575E+005    1.00457E+005   -1.56020E+005   -2.28164E+003   -1.56020E+005    2.56477E+005    1.92815E+004   -1.55466E+005   -7.39427E+003   -4.84744E+004   -1.97578E+003    1.26397E+005   -5.86517E+003   -2.15915E+003
             690    2.17751E+005    1.26578E+005    1.26578E+005    3.00096E+003   -1.24848E+005    2.51425E+005   -1.57689E+003   -6.72259E+004    2.88253E+003   -1.18998E+003    3.03812E+003    1.25603E+005   -4.82506E+002   -4.80563E+003
             691    2.21595E+005    1.47924E+005    1.47924E+005   -4.43254E+003   -1.06285E+005    2.54209E+005   -1.24021E+004    1.54046E+005   -3.14962E+002    4.21330E+004   -4.61169E+003    1.25171E+005    5.64240E+003   -9.10901E+002
             692    2.45715E+005    1.93712E+005    1.93712E+005    1.20275E+003   -8.30442E+004    2.76757E+005   -3.72903E+004    2.09312E+005    1.71818E+004    9.38245E+004    8.64679E+002    1.32538E+005    9.67416E+003    1.26965E+003
             693    2.53430E+005    1.98710E+005    1.98710E+005   -6.00806E+003   -8.47417E+004    2.83451E+005   -3.59866E+004    2.23321E+005    2.71070E+004    8.97875E+004   -8.93453E+003    1.36701E+005    1.27742E+004   -7.92846E+003
             694    2.31306E+005    1.62996E+005    1.62996E+005    4.99658E+003   -1.02497E+005    2.65492E+005   -2.18319E+004    1.58593E+005    1.60424E+004    4.68252E+004    2.62814E+003    1.30169E+005    7.08734E+003   -1.80645E+004
             695    2.21977E+005    1.26986E+005   -1.29319E+005   -3.31713E+003   -1.29319E+005    2.56305E+005    1.88336E+003    6.82470E+004   -1.92825E+003   -3.68910E+002   -3.35293E+003    1.26598E+005    4.84557E+000   -1.98850E+004
             696    2.32292E+005    1.04512E+005   -1.61514E+005    1.20524E+003   -1.61514E+005    2.66025E+005    1.85989E+004   -1.67554E+005   -1.32947E+004   -4.61062E+004    3.60431E+003    1.30353E+005   -7.08995E+003   -1.74802E+004
             697    2.55159E+005    8.26014E+004   -2.03731E+005   -4.27406E+002   -2.03731E+005    2.86332E+005    4.05190E+004   -2.21559E+005   -3.23308E+004   -9.21563E+004    2.93027E+003    1.38287E+005   -1.23452E+004   -1.07530E+004
             698    2.89597E+005    6.57986E+004   -2.45572E+005    1.57200E+004   -2.45572E+005    3.11370E+005    5.46844E+004   -2.79605E+005   -4.63619E+004   -1.35941E+005    1.82498E+004    1.47438E+005   -1.48852E+004    5.58137E+002
             699    3.32434E+005    4.43241E+004   -2.99937E+005    1.92488E+004   -2.99937E+005    3.44261E+005    7.87881E+004   -3.30296E+005   -6.70565E+004   -1.91070E+005    2.17619E+004    1.58740E+005   -1.35046E+004    5.40368E+003
             700    3.65530E+005    3.41438E+004   -3.36812E+005    2.30399E+004   -3.36812E+005    3.70956E+005    9.32094E+004   -3.65151E+005   -7.78160E+004   -2.34262E+005    3.24496E+004    1.62690E+005   -8.31872E+003    6.22022E+003
             701    3.68540E+005    4.67370E+004   -3.33538E+005    2.20238E+004   -3.33538E+005    3.80275E+005    8.82591E+004   -3.66669E+005   -5.73035E+004   -2.47336E+005    3.98618E+004    1.54308E+005   -1.01957E+004   -4.45305E+003
             702    7.30387E+005   -4.03033E+003   -7.93740E+005   -1.42499E+005   -7.93740E+005    7.89710E+005    3.13423E+005   -6.99936E+005   -1.29868E+005   -6.67876E+005   -1.42526E+005    2.89013E+005   -3.04007E+003    4.05319E+003
             703    6.89289E+005   -3.27163E+002   -7.42327E+005   -1.21936E+005   -7.42327E+005    7.42000E+005    2.88197E+005   -6.64508E+005   -1.20607E+005   -6.21726E+005   -1.22258E+005    2.73366E+005   -7.16624E+003    1.26950E+004
             704    6.21527E+005    3.70065E+003   -6.60343E+005   -9.25676E+004   -6.60343E+005    6.64044E+005    2.49737E+005   -6.04411E+005   -1.08233E+005   -5.48124E+005   -9.28536E+004    2.48383E+005   -9.14492E+003    1.23458E+004
             705    5.51412E+005    5.92082E+003   -5.73516E+005   -5.52277E+004   -5.73516E+005    5.79437E+005    2.07608E+005   -5.43705E+005   -9.85670E+004   -4.68701E+005   -5.55551E+004    2.22527E+005   -9.04204E+003    1.27113E+004
             706    4.83258E+005    8.43672E+003   -4.92254E+005   -2.85555E+004   -4.92254E+005    5.00691E+005    1.70791E+005   -4.80057E+005   -9.18923E+004   -3.92534E+005   -2.79464E+004    1.99536E+005   -9.39687E+003    6.57896E+003
             707    4.42276E+005    1.73204E+004   -4.30758E+005    5.47725E+003   -4.30758E+005    4.48079E+005    1.35987E+005   -4.41919E+005   -8.59707E+004   -3.34251E+005    1.22610E+004    1.82182E+005   -9.45145E+003    5.40705E+003
             708    3.91106E+005    3.13343E+004   -3.67774E+005    1.48067E+004   -3.67774E+005    3.99108E+005    1.07211E+005   -3.90319E+005   -6.78636E+004   -2.77290E+005    2.35206E+004    1.64588E+005   -1.05619E+004    2.10511E+003
             709    6.44081E+005    6.14704E+005    6.14704E+005    5.40986E+004   -8.88379E+004    7.03542E+005   -1.93322E+005    6.06837E+005    3.91772E+004    4.86629E+005    5.41583E+004    2.71398E+005   -4.18186E+003   -5.25642E+003
             710    5.33699E+005    4.79702E+005    4.79702E+005    1.63013E+004   -1.03821E+005    5.83523E+005   -1.30728E+005    5.01913E+005    9.29357E+003    3.66519E+005    1.63700E+004    2.30639E+005   -3.85312E+003   -4.98100E+003
             711    4.52546E+005    3.76295E+005    3.76295E+005   -1.77380E+003   -1.25143E+005    5.01438E+005   -8.31260E+004    4.12092E+005   -1.24760E+004    2.63561E+005   -1.70685E+003    2.09263E+005   -3.28372E+003   -4.21501E+003
             712    4.01959E+005    3.12446E+005    3.12446E+005   -4.21231E+003   -1.39765E+005    4.52211E+005   -5.61565E+004    3.44603E+005   -6.96313E+003    1.79575E+005   -4.14286E+003    2.05933E+005   -2.27574E+003   -4.14447E+003
             713    6.23534E+005    5.93306E+005    5.93306E+005    4.97298E+004   -8.73685E+004    6.80675E+005   -1.85223E+005    5.88171E+005    4.05452E+004    4.64902E+005    5.02203E+004    2.65580E+005   -1.24076E+004   -1.49220E+004
             714    5.26415E+005    4.72830E+005    4.72830E+005    1.58380E+004   -1.02770E+005    5.75600E+005   -1.28633E+005    4.94994E+005    1.23882E+004    3.57197E+005    1.63139E+004    2.29930E+005   -1.17973E+004   -1.33836E+004
             715    4.47368E+005    3.71041E+005    3.71041E+005   -2.80829E+003   -1.24617E+005    4.95658E+005   -8.12054E+004    4.07483E+005   -1.19641E+004    2.57735E+005   -2.15524E+003    2.07477E+005   -9.96978E+003   -1.30545E+004
             716    3.99061E+005    3.10671E+005    3.10671E+005   -3.47569E+003   -1.38350E+005    4.49022E+005   -5.62818E+004    3.41833E+005   -5.36531E+003    1.77111E+005   -2.90049E+003    2.04821E+005   -7.42935E+003   -1.11907E+004
             717    5.87082E+005    5.55945E+005    5.55945E+005    4.24233E+004   -8.40744E+004    6.40019E+005   -1.71431E+005    5.55163E+005    4.36414E+004    4.27423E+005    4.32293E+004    2.54986E+005   -1.84615E+004   -1.95122E+004
             718    5.12687E+005    4.58602E+005    4.58602E+005    1.25034E+004   -1.01486E+005    5.60088E+005   -1.23206E+005    4.82925E+005    1.78109E+004    3.38017E+005    1.37918E+004    2.28652E+005   -1.70508E+004   -2.07843E+004
             719    4.36118E+005    3.61220E+005    3.61220E+005   -1.43192E+003   -1.22698E+005    4.83918E+005   -7.90299E+004    3.95437E+005   -9.58332E+003    2.46711E+005   -3.84218E+001    2.04241E+005   -1.51262E+004   -1.85966E+004
             720    3.93864E+005    3.06032E+005    3.06032E+005   -3.65190E+003   -1.37256E+005    4.43288E+005   -5.50415E+004    3.36913E+005   -3.31085E+003    1.70815E+005   -2.37927E+003    2.03137E+005   -1.09108E+004   -1.65363E+004
             721    5.46433E+005    5.10644E+005    5.10644E+005    2.55094E+004   -8.13122E+004    5.91956E+005   -1.51614E+005    5.22161E+005    4.78983E+004    3.80593E+005    2.63497E+004    2.43081E+005   -2.30993E+004   -2.16306E+004
             722    4.91185E+005    4.38258E+005    4.38258E+005    1.18917E+004   -9.88414E+004    5.37099E+005   -1.17103E+005    4.61831E+005    2.63174E+004    3.11236E+005    1.37543E+004    2.26043E+005   -2.11066E+004   -2.39754E+004
             723    4.22200E+005    3.47077E+005    3.47077E+005   -2.94664E+003   -1.21815E+005    4.68892E+005   -7.41054E+004    3.81743E+005   -6.39627E+003    2.29681E+005   -9.68396E+002    2.01106E+005   -1.88023E+004   -2.14541E+004
             724    3.87275E+005    3.02808E+005    3.02808E+005   -7.47944E+002   -1.33350E+005    4.36158E+005   -5.62368E+004    3.30076E+005    2.23391E+003    1.65503E+005    9.73363E+002    2.01257E+005   -1.46618E+004   -1.78867E+004
             725    4.98133E+005    4.58876E+005    4.58876E+005    1.22064E+004   -7.83089E+004    5.37185E+005   -1.30924E+005    4.79104E+005    5.06343E+004    3.29422E+005    1.27173E+004    2.27402E+005   -2.54934E+004   -2.09816E+004
             726    4.71368E+005    4.18192E+005    4.18192E+005    8.15338E+003   -9.68092E+004    5.15001E+005   -1.09845E+005    4.43917E+005    3.76117E+004    2.81733E+005    1.01920E+004    2.25322E+005   -1.96906E+004   -2.36186E+004
             727    4.07491E+005    3.35421E+005    3.35421E+005    2.03790E+003   -1.18830E+005    4.54251E+005   -7.28765E+004    3.63759E+005    1.06811E+003    2.13991E+005    3.56995E+003    1.99145E+005   -2.04416E+004   -1.83395E+004
             728    3.80625E+005    2.96637E+005    2.96637E+005   -8.38283E+002   -1.32291E+005    4.28928E+005   -5.45026E+004    3.23295E+005    6.79558E+003    1.56049E+005    6.62822E+002    2.00137E+005   -1.56789E+004   -1.57409E+004
             729    4.64117E+005    4.18520E+005    4.18520E+005   -9.06153E+003   -7.50656E+004    4.93585E+005   -1.11464E+005    4.53377E+005    5.53636E+004    2.87440E+005   -8.41108E+003    2.15624E+005   -2.46461E+004   -2.13966E+004
             730    4.54425E+005    4.06275E+005    4.06275E+005    1.17656E+004   -9.06023E+004    4.96877E+005   -1.09146E+005    4.27312E+005    5.81012E+004    2.56301E+005    1.30359E+004    2.26637E+005   -1.98802E+004   -1.80423E+004
             731    3.99445E+005    3.28088E+005    3.28088E+005   -3.45565E+003   -1.15380E+005    4.43468E+005   -6.97509E+004    3.61562E+005    1.33324E+004    1.98845E+005   -2.92496E+003    2.00266E+005   -1.89265E+004   -1.24739E+004
             732    3.78579E+005    3.00608E+005    3.00608E+005    2.62192E+003   -1.25378E+005    4.25986E+005   -5.92841E+004    3.24241E+005    2.11015E+004    1.53579E+005    3.17242E+003    2.01651E+005   -1.64534E+004   -9.55480E+003
             733    4.18733E+005    3.75201E+005    3.75201E+005    6.08248E+003   -7.98232E+004    4.55024E+005   -1.00487E+005    3.98176E+005    5.00058E+004    2.47568E+005    3.88649E+003    2.02062E+005   -2.72924E+004   -1.07518E+004
             734    4.53824E+005    4.05706E+005    4.05706E+005   -6.72894E+002   -8.40121E+004    4.89718E+005   -1.07007E+005    4.36107E+005    7.74081E+004    2.45617E+005   -2.00385E+003    2.28598E+005   -1.93776E+004   -5.77039E+003
             735    4.05228E+005    3.39926E+005    3.39926E+005   -4.35454E+003   -1.06646E+005    4.46572E+005   -7.63088E+004    3.74492E+005    3.50411E+004    1.99464E+005   -5.57907E+003    2.05902E+005   -2.25106E+004   -6.79816E+003
             736    3.78383E+005    3.00874E+005    3.00874E+005   -5.58629E+003   -1.22051E+005    4.22925E+005   -5.77459E+004    3.34343E+005    3.46059E+004    1.44494E+005   -5.86205E+003    2.03078E+005   -1.97769E+004   -6.29754E+003
             737    3.79430E+005    3.08757E+005    3.08757E+005    7.97220E+001   -1.14850E+005    4.23608E+005   -6.46622E+004    3.36797E+005    5.53074E+004    1.42332E+005   -3.65267E+003    2.04878E+005   -2.45830E+004    4.01932E+003
             738    4.22706E+005    3.62606E+005    3.62606E+005   -1.12800E+004   -9.60673E+004    4.58673E+005   -8.50861E+004    4.02902E+005    7.65702E+004    1.91597E+005   -1.29085E+004    2.19697E+005   -2.66299E+004   -8.61589E+003
             739    4.61408E+005    4.22812E+005    4.22812E+005    6.93549E+002   -6.97781E+004    4.92590E+005   -1.17909E+005    4.49061E+005    9.80952E+004    2.57329E+005   -1.69740E+003    2.30804E+005   -2.38496E+004   -7.63470E+003
             740    5.12481E+005    4.80667E+005    4.80667E+005   -6.14379E+003   -5.41113E+004    5.34778E+005   -1.40137E+005    5.07393E+005    1.10232E+005    3.16459E+005   -6.28006E+003    2.46538E+005   -6.35042E+003   -3.63452E+003
             741    7.28634E+005    7.86390E+005    7.86390E+005    1.46136E+005   -6.45576E+003    7.92846E+005   -3.08690E+005    6.91300E+005    2.07637E+005    5.72209E+005    1.46223E+005    3.51972E+005   -4.77427E+003   -6.11749E+003
             742    7.02969E+005    7.50813E+005    7.50813E+005    1.29713E+005   -1.23318E+004    7.63145E+005   -2.89398E+005    6.69529E+005    1.97484E+005    5.40470E+005    1.30240E+005    3.40498E+005   -1.25755E+004   -1.47260E+004
             743    6.63231E+005    6.94571E+005    6.94571E+005    1.01447E+005   -2.15493E+004    7.16120E+005   -2.58156E+005    6.36809E+005    1.81740E+005    4.90471E+005    1.02257E+005    3.22387E+005   -1.75181E+004   -1.81183E+004
             744    6.15617E+005    6.29583E+005    6.29583E+005    7.15812E+004   -3.08106E+004    6.60393E+005   -2.23451E+005    5.96006E+005    1.63563E+005    4.35285E+005    7.15056E+004    2.99940E+005   -2.03298E+004   -1.33119E+004
             745    5.76259E+005    5.67373E+005    5.67373E+005    3.19295E+004   -4.24742E+004    6.09847E+005   -1.85609E+005    5.65301E+005    1.44443E+005    3.82389E+005    2.99965E+004    2.78979E+005   -2.18575E+004   -8.27453E+003
             746    5.40011E+005    5.14592E+005    5.14592E+005    8.17464E+003   -5.36849E+004    5.68277E+005   -1.56361E+005    5.31952E+005    1.29674E+005    3.38412E+005    9.95412E+002    2.60283E+005   -2.09286E+004    4.68193E+003
             747    5.55064E+005    5.06957E+005    5.06957E+005   -4.07200E+004   -5.52116E+004    5.62168E+005   -1.37008E+005    5.54638E+005    1.20077E+005    3.33622E+005   -4.26735E+004    2.58913E+005   -1.45764E+003    6.80146E+003
             748    3.53812E+005    2.64216E+005    2.64216E+005   -1.63020E+003   -1.37364E+005    4.01581E+005   -4.17406E+004    2.85742E+005    3.69266E+004    9.33239E+004   -5.02875E+003    1.97008E+005   -1.91357E+004    1.06526E+004
             749    3.31444E+005    2.22658E+005    2.22658E+005    5.33307E+003   -1.58827E+005    3.81485E+005   -2.30547E+004    2.05557E+005    1.78619E+004    4.85798E+004    2.72243E+003    1.88577E+005   -1.08916E+004    1.98101E+004
             750    3.25271E+005    1.88150E+005    1.88150E+005   -2.60523E+003   -1.87424E+005    3.75575E+005    6.26427E+002    9.80285E+004    2.22906E+002    5.77089E+002   -2.67928E+003    1.86540E+005   -1.55802E+002    2.16041E+004
             751    3.32523E+005    1.59783E+005   -2.22507E+005   -3.40896E+002   -2.22507E+005    3.82290E+005    2.10218E+004   -2.16664E+005   -1.86153E+004   -4.66305E+004    2.18030E+003    1.89143E+005    1.04250E+004    1.93243E+004
             752    3.52701E+005    1.36703E+005   -2.64595E+005   -3.79644E+003   -2.64595E+005    4.01298E+005    4.38963E+004   -2.78397E+005   -3.75607E+004   -9.41923E+004    6.41615E+001    1.96665E+005    1.91073E+004    1.31339E+004
             753    3.83998E+005    1.16496E+005   -3.10480E+005    6.56210E+003   -3.10480E+005    4.26975E+005    6.24739E+004   -3.45847E+005   -5.74298E+004   -1.39948E+005    9.95602E+003    2.07163E+005    2.43099E+004    2.66072E+003
             754    4.19534E+005    9.35234E+004   -3.63176E+005    5.09438E+003   -3.63176E+005    4.56700E+005    8.81862E+004   -3.97747E+005   -7.89785E+004   -1.94298E+005    8.71792E+003    2.18291E+005    2.54716E+004   -1.58782E+003
             755    4.56803E+005    7.58955E+004   -4.10064E+005    1.05442E+004   -4.10064E+005    4.85959E+005    1.07875E+005   -4.46104E+005   -9.72834E+004   -2.39899E+005    1.35580E+004    2.30266E+005    1.96357E+004   -2.05749E+003
             756    4.88694E+005    5.49545E+004   -4.54088E+005    1.13325E+004   -4.54088E+005    5.09043E+005    1.29267E+005   -4.84285E+005   -1.38605E+005   -2.67267E+005    1.80702E+004    2.42760E+005    1.40093E+004    7.66469E+003
             757    3.42472E+005    2.48340E+005    2.48340E+005    4.32748E+002   -1.42434E+005    3.90774E+005   -3.54461E+004    2.61589E+005    1.26613E+004    9.40752E+004   -3.98235E+002    1.90410E+005   -1.47079E+004    1.58700E+003
             758    3.40449E+005    2.41024E+005    2.41024E+005   -4.97607E+003   -1.47529E+005    3.88553E+005   -2.95064E+004    2.59286E+005   -5.19983E+002    9.33875E+004   -4.34827E+003    1.88041E+005   -1.21132E+004   -8.04396E+003
             759    3.41373E+005    2.41164E+005    2.41164E+005   -1.88351E+003   -1.49120E+005    3.90283E+005   -3.00536E+004    2.53593E+005   -5.94797E+003    9.68911E+004   -7.82421E+002    1.87654E+005   -1.13534E+004   -1.20529E+004
             760    3.44727E+005    2.40378E+005    2.40378E+005   -5.82507E+003   -1.53601E+005    3.93980E+005   -2.69841E+004    2.57473E+005   -9.73960E+003    9.51633E+004   -4.47138E+003    1.89142E+005   -9.40424E+003   -1.59926E+004
             761    3.48511E+005    2.42926E+005    2.42926E+005   -4.52084E+003   -1.55638E+005    3.98564E+005   -2.75890E+004    2.57648E+005   -1.03178E+004    9.67011E+004   -3.61631E+003    1.91438E+005   -7.01316E+003   -1.39756E+004
             762    3.51850E+005    2.44058E+005    2.44058E+005   -6.09496E+003   -1.58266E+005    4.02324E+005   -2.65655E+004    2.60730E+005   -1.11652E+004    9.65341E+004   -5.67245E+003    1.93547E+005   -4.34817E+003   -1.03634E+004
             763    3.53468E+005    2.45247E+005    2.45247E+005   -5.47914E+003   -1.59029E+005    4.04276E+005   -2.69128E+004    2.60869E+005   -1.09160E+004    9.70906E+004   -5.43608E+003    1.94763E+005   -1.40376E+003   -3.29291E+003
             764    3.30372E+005    2.17425E+005    2.17425E+005   -1.57752E+003   -1.62583E+005    3.80008E+005   -1.77547E+004    2.11027E+005    1.04641E+004    4.48874E+004   -2.08735E+003    1.88962E+005   -7.45424E+003    5.32316E+003
             765    3.30371E+005    2.16200E+005    2.16200E+005    2.27533E+003   -1.64298E+005    3.80498E+005   -1.80590E+004    1.97460E+005    6.47086E+003    4.52346E+004    2.47163E+003    1.89140E+005   -5.92473E+003   -3.81765E+003
             766    3.33143E+005    2.13437E+005    2.13437E+005   -2.09311E+003   -1.70271E+005    3.83708E+005   -1.36910E+004    1.98573E+005    2.11857E+003    4.04818E+004   -1.52746E+003    1.90485E+005   -4.78983E+003   -1.20631E+004
             767    3.37711E+005    2.15234E+005    2.15234E+005    3.14442E+002   -1.74016E+005    3.89251E+005   -1.38441E+004    1.90472E+005    2.24384E+003    3.84560E+004    8.32598E+002    1.93274E+005   -3.77060E+003   -1.38808E+004
             768    3.42519E+005    2.14691E+005    2.14691E+005   -1.46947E+003   -1.80226E+005    3.94917E+005   -1.09985E+004    1.87161E+005    9.13622E+002    3.32326E+004   -1.15091E+003    1.96300E+005   -2.35266E+003   -1.39732E+004
             769    3.46122E+005    2.16171E+005    2.16171E+005   -3.26621E+002   -1.83020E+005    3.99190E+005   -1.09415E+004    1.82269E+005    1.19095E+003    3.18272E+004   -1.93523E+002    1.98795E+005   -1.49471E+003   -9.17588E+003
             770    3.48147E+005    2.15979E+005    2.15979E+005   -8.46662E+002   -1.85600E+005    4.01579E+005   -9.84396E+003    1.79820E+005    8.60320E+002    2.95031E+004   -8.31568E+002    2.00243E+005   -4.21444E+002   -3.75579E+003
             771    3.21036E+005    1.83372E+005   -1.87305E+005    1.65983E+003   -1.87305E+005    3.70677E+005    7.57719E+002   -1.03882E+005   -2.19749E+003   -1.76655E+003    1.69088E+003    1.85147E+005    2.53712E+002    8.41535E+003
             772    3.19772E+005    1.78680E+005   -1.90544E+005   -2.78477E+003   -1.90544E+005    3.69223E+005    4.88296E+003   -9.88314E+004   -3.50272E+003   -8.31258E+003   -2.83359E+003    1.84549E+005    1.13241E+003   -4.02246E+003
             773    3.22456E+005    1.78177E+005   -1.94017E+005    1.12058E+003   -1.94017E+005    3.72194E+005    4.90655E+003   -1.41233E+005   -1.81697E+003   -1.38344E+004    9.31655E+002    1.85704E+005    1.77531E+003   -1.04243E+004
             774    3.27395E+005    1.76103E+005   -2.01694E+005   -9.89159E+002   -2.01694E+005    3.77797E+005    8.85989E+003   -1.55909E+005   -1.89631E+003   -2.33168E+004   -1.36652E+003    1.88006E+005    2.44927E+003   -1.48372E+004
             775    3.32502E+005    1.76547E+005   -2.06918E+005    1.33693E+003   -2.06918E+005    3.83466E+005    9.67816E+003   -1.76110E+005   -2.91406E+002   -2.97747E+004    1.03168E+003    1.90712E+005    2.29992E+003   -1.31464E+004
             776    3.36599E+005    1.75683E+005   -2.12378E+005    4.93537E+002   -2.12378E+005    3.88061E+005    1.20671E+004   -1.85443E+005   -7.11093E+001   -3.64436E+004    3.13338E+002    1.92920E+005    1.78930E+003   -9.96143E+003
             777    3.38757E+005    1.75698E+005   -2.14731E+005    1.21698E+003   -2.14731E+005    3.90429E+005    1.26054E+004   -1.92220E+005    5.79835E+002   -3.95946E+004    1.19858E+003    1.94154E+005    6.00277E+002   -3.06329E+003
             778    3.30716E+005    1.61328E+005   -2.19333E+005   -2.62300E+003   -2.19333E+005    3.80661E+005    2.02093E+004   -2.04738E+005   -8.69975E+003   -4.99619E+004   -1.96633E+003    1.88872E+005    8.54080E+003    6.06272E+003
             779    3.33301E+005    1.61940E+005   -2.21111E+005    2.71315E+003   -2.21111E+005    3.83051E+005    1.88192E+004   -2.19871E+005   -1.80558E+003   -5.71038E+004    2.45187E+003    1.89318E+005    8.10313E+003   -4.33701E+003
             780    3.38897E+005    1.60454E+005   -2.28816E+005    4.98710E+002   -2.28816E+005    3.89270E+005    2.26210E+004   -2.27549E+005    1.76281E+003   -6.91602E+004   -4.65576E+002    1.90877E+005    8.58724E+003   -1.22520E+004
             781    3.47385E+005    1.61244E+005   -2.36937E+005    4.16743E+003   -2.36937E+005    3.98181E+005    2.38419E+004   -2.46147E+005    5.33542E+003   -7.99309E+004    3.06975E+003    1.93854E+005    8.13442E+003   -1.47971E+004
             782    3.56325E+005    1.60649E+005   -2.47282E+005    3.17660E+003   -2.47282E+005    4.07931E+005    2.78191E+004   -2.58669E+005    6.90110E+003   -9.26037E+004    2.24537E+003    1.97234E+005    6.86842E+003   -1.48576E+004
             783    3.63356E+005    1.61324E+005   -2.54066E+005    4.77719E+003   -2.54066E+005    4.15389E+005    2.93217E+004   -2.70186E+005    8.63204E+003   -1.00981E+005    4.38382E+003    2.00092E+005    4.50513E+003   -9.80934E+003
             784    3.67449E+005    1.61126E+005   -2.58719E+005    4.27423E+003   -2.58719E+005    4.19845E+005    3.11060E+004   -2.75448E+005    9.14782E+003   -1.06687E+005    4.22154E+003    2.01739E+005    1.51951E+003   -3.84477E+003
             785    3.48357E+005    1.39618E+005   -2.56233E+005    3.57368E+003   -2.56233E+005    3.95851E+005    3.76806E+004   -2.78412E+005   -1.94465E+004   -9.80168E+004    4.42156E+003    1.93246E+005    1.52625E+004    1.01572E+003
             786    3.49745E+005    1.38653E+005   -2.59234E+005   -4.11730E+002   -2.59234E+005    3.97888E+005    4.03310E+004   -2.76393E+005   -9.24729E+003   -1.10844E+005   -9.01227E+002    1.91779E+005    1.39094E+004   -7.37994E+003
             787    3.56469E+005    1.39573E+005   -2.64988E+005    3.00369E+003   -2.64988E+005    4.04561E+005    4.08035E+004   -2.88108E+005   -6.03850E+002   -1.23561E+005    1.75483E+003    1.91961E+005    1.39778E+004   -1.31942E+004
             788    3.67118E+005    1.38070E+005   -2.77581E+005    2.36838E+003   -2.77581E+005    4.15651E+005    4.57142E+004   -3.02428E+005    3.17746E+003   -1.40922E+005    6.02050E+002    1.93984E+005    1.36331E+004   -1.75930E+004
             789    3.78776E+005    1.38200E+005   -2.89230E+005    4.78787E+003   -2.89230E+005    4.27430E+005    4.87473E+004   -3.19099E+005    6.57435E+003   -1.56370E+005    3.55420E+003    1.96907E+005    1.09451E+004   -1.55582E+004
             790    3.87491E+005    1.37634E+005   -2.99027E+005    3.83009E+003   -2.99027E+005    4.36661E+005    5.25208E+004   -3.29147E+005    8.00871E+003   -1.68787E+005    3.21578E+003    1.99299E+005    7.47154E+003   -1.13954E+004
             791    3.92766E+005    1.37591E+005   -3.04462E+005    4.35175E+003   -3.04462E+005    4.42053E+005    5.41731E+004   -3.35966E+005    8.96490E+003   -1.75774E+005    4.28930E+003    2.00766E+005    2.40116E+003   -3.67680E+003
             792    3.78452E+005    1.19703E+005   -3.03591E+005    2.09015E+003   -3.03591E+005    4.23294E+005    6.05995E+004   -3.33458E+005   -3.47924E+004   -1.50116E+005    3.10974E+003    2.02314E+005    2.07205E+004   -3.55496E+003
             793    3.82830E+005    1.23883E+005   -3.04906E+005    2.56992E+003   -3.04906E+005    4.28788E+005    5.94844E+004   -3.35310E+005   -1.94235E+004   -1.61095E+005    2.06534E+003    2.01440E+005    1.77010E+004   -1.01233E+004
             794    3.93233E+005    1.25834E+005   -3.15162E+005   -9.92920E+002   -3.15162E+005    4.40995E+005    6.34402E+004   -3.42468E+005   -6.86553E+003   -1.80850E+005   -2.60550E+003    2.01410E+005    1.85548E+004   -1.70369E+004
             795    4.10371E+005    1.26680E+005   -3.31393E+005    2.66966E+003   -3.31393E+005    4.58074E+005    6.73477E+004   -3.64497E+005   -2.42002E+000   -2.02973E+005    9.32596E+002    2.04135E+005    1.75744E+004   -1.89411E+004
             796    4.26842E+005    1.27632E+005   -3.48390E+005    2.85667E+002   -3.48390E+005    4.76022E+005    7.34909E+004   -3.80448E+005    5.08644E+003   -2.24484E+005   -1.07461E+003    2.07628E+005    1.42301E+004   -1.76223E+004
             797    4.41081E+005    1.28574E+005   -3.62095E+005    1.49971E+003   -3.62095E+005    4.90669E+005    7.73404E+004   -3.96655E+005    8.40826E+003   -2.41335E+005    9.05892E+002    2.10784E+005    9.51341E+003   -1.20565E+004
             798    4.48878E+005    1.29020E+005   -3.70140E+005    3.54136E+002   -3.70140E+005    4.99160E+005    8.02554E+004   -4.04161E+005    9.99564E+003   -2.51049E+005    2.87486E+002    2.12688E+005    2.98288E+003   -4.13639E+003
             799    4.10548E+005    1.05030E+005   -3.45398E+005    7.82070E+003   -3.45398E+005    4.50428E+005    7.75160E+004   -3.83350E+005   -4.67978E+004   -1.94919E+005    9.16828E+003    2.11070E+005    2.18656E+004   -5.81377E+003
             800    4.12775E+005    1.07323E+005   -3.48718E+005   -6.86473E+002   -3.48718E+005    4.56041E+005    8.06939E+004   -3.78976E+005   -2.97835E+004   -2.10802E+005   -1.49640E+003    2.07974E+005    2.07195E+004   -1.46848E+004
             801    4.30860E+005    1.10532E+005   -3.65135E+005   -1.02381E+003   -3.65135E+005    4.75667E+005    8.52090E+004   -3.96367E+005   -1.63383E+004   -2.36915E+005   -2.37357E+003    2.09273E+005    2.07626E+004   -1.85493E+004
             802    4.51131E+005    1.11181E+005   -3.86739E+005   -5.20558E+003   -3.86739E+005    4.97920E+005    9.35880E+004   -4.15290E+005   -8.81283E+003   -2.65035E+005   -6.91643E+003    2.11894E+005    2.08119E+004   -2.14762E+004
             803    4.74414E+005    1.11544E+005   -4.10430E+005   -5.47834E+003   -4.10430E+005    5.21974E+005    1.01455E+005   -4.40149E+005   -4.66796E+003   -2.92975E+005   -6.72185E+003    2.16492E+005    1.66351E+004   -1.91361E+004
             804    4.91323E+005    1.11869E+005   -4.28612E+005   -9.01070E+003   -4.28612E+005    5.40481E+005    1.08584E+005   -4.56031E+005   -2.27142E+003   -3.13917E+005   -9.56533E+003    2.20280E+005    1.15254E+004   -1.32676E+004
             805    5.02945E+005    1.11550E+005   -4.40951E+005   -9.74732E+003   -4.40951E+005    5.52501E+005    1.13050E+005   -4.68308E+005   -1.73728E+003   -3.27586E+005   -9.82545E+003    2.23033E+005    3.66017E+003   -4.98833E+003
             806    4.35628E+005    8.22732E+004   -3.88557E+005    1.91368E+002   -3.88557E+005    4.70830E+005    1.02031E+005   -4.17695E+005   -7.45541E+004   -2.33151E+005    1.61240E+003    2.19556E+005    2.47446E+004   -9.78449E+003
             807    4.56661E+005    8.63543E+004   -4.06998E+005    8.98530E+002   -4.06998E+005    4.93352E+005    1.06582E+005   -4.38126E+005   -6.04292E+004   -2.59597E+005    2.81548E+002    2.24215E+005    2.19644E+004   -1.66295E+004
             808    4.74252E+005    9.10758E+004   -4.26265E+005   -1.20847E+004   -4.26265E+005    5.17341E+005    1.15758E+005   -4.47952E+005   -4.27807E+004   -2.91087E+005   -1.34070E+004    2.25290E+005    2.26498E+004   -2.07919E+004
             809    5.06484E+005    9.36604E+004   -4.58337E+005   -1.50062E+004   -4.58337E+005    5.51998E+005    1.26561E+005   -4.79191E+005   -3.29526E+004   -3.30444E+005   -1.62860E+004    2.30889E+005    2.18474E+004   -2.18150E+004
             810    5.33883E+005    9.59136E+004   -4.87866E+005   -2.44206E+004   -4.87866E+005    5.83780E+005    1.38791E+005   -5.01991E+005   -2.45078E+004   -3.66482E+005   -2.53834E+004    2.35392E+005    1.83719E+004   -1.95173E+004
             811    5.60068E+005    9.70933E+004   -5.14535E+005   -2.67620E+004   -5.14535E+005    6.11629E+005    1.48068E+005   -5.27920E+005   -1.99880E+004   -3.96955E+005   -2.72614E+004    2.40254E+005    1.25362E+004   -1.44180E+004
             812    5.75566E+005    9.73995E+004   -5.31482E+005   -3.08775E+004   -5.31482E+005    6.28881E+005    1.54987E+005   -5.41985E+005   -1.81392E+004   -4.15900E+005   -3.09207E+004    2.43489E+005    4.37765E+003   -4.63446E+003
             813    4.60486E+005    8.31107E+004   -4.09705E+005    9.61186E+003   -4.09705E+005    4.92815E+005    1.05661E+005   -4.47003E+005   -6.66275E+004   -2.62998E+005    1.26433E+004    2.23166E+005    2.58339E+004   -8.64334E+003
             814    4.81422E+005    6.77440E+004   -4.46748E+005   -7.18114E+003   -4.46748E+005    5.14492E+005    1.28728E+005   -4.68035E+005   -8.51686E+004   -2.94479E+005   -6.53696E+003    2.33078E+005    2.39504E+004   -1.43596E+004
             815    5.19339E+005    7.54041E+004   -4.83765E+005   -1.65365E+004   -4.83765E+005    5.59170E+005    1.41633E+005   -5.00536E+005   -6.96096E+004   -3.38385E+005   -1.69031E+004    2.43445E+005    2.37455E+004   -1.86269E+004
             816    5.59004E+005    7.06298E+004   -5.35228E+005   -3.94561E+004   -5.35228E+005    6.05857E+005    1.68018E+005   -5.33792E+005   -7.47244E+004   -3.88979E+005   -4.03509E+004    2.57726E+005    2.07430E+004   -1.98986E+004
             817    6.07396E+005    7.44595E+004   -5.86260E+005   -5.21417E+004   -5.86260E+005    6.60719E+005    1.87981E+005   -5.76579E+005   -6.94525E+004   -4.41217E+005   -5.32725E+004    2.72091E+005    1.79386E+004   -2.14365E+004
             818    6.47040E+005    7.26815E+004   -6.32580E+005   -6.63723E+004   -6.32580E+005    7.05262E+005    2.08757E+005   -6.12052E+005   -7.29382E+004   -4.86437E+005   -6.68960E+004    2.85230E+005    1.15956E+004   -1.49841E+004
             819    6.72656E+005    7.36653E+004   -6.59835E+005   -7.18422E+004   -6.59835E+005    7.33501E+005    2.19337E+005   -6.35783E+005   -7.29740E+004   -5.13093E+005   -7.19456E+004    2.93321E+005    4.45949E+003   -6.75238E+003
             820    7.20840E+005    3.86610E+002   -7.82903E+005   -1.47427E+005   -7.82903E+005    7.83290E+005    3.09981E+005   -6.85487E+005   -2.12364E+005   -5.70067E+005   -1.47513E+005    3.48361E+005    5.18045E+003   -6.01625E+003
             821    6.92476E+005    7.19729E+003   -7.42680E+005   -1.27353E+005   -7.42680E+005    7.49877E+005    2.87612E+005   -6.62101E+005   -1.99636E+005   -5.35093E+005   -1.28106E+005    3.34840E+005    1.42001E+004   -1.75315E+004
             822    6.45658E+005    1.62733E+004   -6.79379E+005   -9.93342E+004   -6.79379E+005    6.95652E+005    2.54147E+005   -6.21730E+005   -1.81834E+005   -4.80282E+005   -1.00324E+005    3.13333E+005    1.92624E+004   -1.98827E+004
             823    5.97098E+005    2.57420E+004   -6.11131E+005   -6.39578E+004   -6.11131E+005    6.36873E+005    2.16449E+005   -5.81649E+005   -1.63489E+005   -4.21000E+005   -6.48578E+004    2.89992E+005    2.26958E+004   -2.04556E+004
             824    5.49504E+005    3.36019E+004   -5.49306E+005   -4.07841E+004   -5.49306E+005    5.82908E+005    1.85496E+005   -5.38002E+005   -1.51817E+005   -3.64795E+005   -3.98757E+004    2.69494E+005    2.43606E+004   -1.36947E+004
             825    5.22095E+005    4.33139E+004   -5.03283E+005   -9.74188E+003   -5.03283E+005    5.46597E+005    1.56570E+005   -5.15977E+005   -1.41822E+005   -3.22234E+005   -5.65429E+003    2.54736E+005    2.57749E+004   -9.33455E+003
             826    4.97863E+005    4.59511E+004   -4.74931E+005   -3.82737E+003   -4.74931E+005    5.20882E+005    1.44269E+005   -4.92217E+005   -1.48989E+005   -2.85088E+005    1.26903E+003    2.48092E+005    2.32053E+004   -4.20498E+003
             827    5.11568E+005    4.79476E+005    4.79476E+005   -6.54553E+003   -5.42905E+004    5.33767E+005   -1.39547E+005    5.06519E+005    1.09827E+005    3.15493E+005   -6.67954E+003    2.46124E+005    5.92295E+003    3.22944E+003
             828    4.63179E+005    4.24946E+005    4.24946E+005    7.71582E+002   -6.92625E+004    4.94208E+005   -1.18818E+005    4.51036E+005    9.85678E+004    2.59441E+005   -1.55431E+003    2.31435E+005    2.35334E+004    7.64016E+003
             829    4.23544E+005    3.63718E+005    3.63718E+005   -1.11555E+004   -9.57339E+004    4.59451E+005   -8.56094E+004    4.03883E+005    7.67635E+004    1.92791E+005   -1.27264E+004    2.19965E+005    2.67290E+004    8.91732E+003
             830    3.79779E+005    3.09139E+005    3.09139E+005    7.38342E+001   -1.14821E+005    4.23960E+005   -6.47973E+004    3.37221E+005    5.54232E+004    1.42567E+005   -3.59810E+003    2.05056E+005    2.46622E+004   -3.75594E+003
             831    3.78613E+005    3.01254E+005    3.01254E+005   -5.38331E+003   -1.21931E+005    4.23185E+005   -5.79798E+004    3.34535E+005    3.42723E+004    1.45301E+005   -5.63406E+003    2.03055E+005    1.98113E+004    6.45758E+003
             832    3.79056E+005    3.01117E+005    3.01117E+005    2.60369E+003   -1.25359E+005    4.26476E+005   -5.94541E+004    3.24841E+005    2.06235E+004    1.54549E+005    3.18940E+003    2.01671E+005    1.63977E+004    9.79813E+003
             833    3.80965E+005    2.96939E+005    2.96939E+005   -8.27731E+002   -1.32364E+005    4.29304E+005   -5.45823E+004    3.23617E+005    6.37007E+003    1.56674E+005    7.02874E+002    2.00129E+005    1.57270E+004    1.59422E+004
             834    3.87546E+005    3.02889E+005    3.02889E+005   -8.42957E+002   -1.33586E+005    4.36474E+005   -5.61534E+004    3.30260E+005    2.03556E+003    1.65550E+005    8.74598E+002    2.01383E+005    1.45548E+004    1.79124E+004
             835    3.94367E+005    3.06592E+005    3.06592E+005   -3.61676E+003   -1.37222E+005    4.43814E+005   -5.52509E+004    3.37506E+005   -3.24644E+003    1.71362E+005   -2.36291E+003    2.03329E+005    1.08234E+004    1.64389E+004
             836    3.99697E+005    3.11427E+005    3.11427E+005   -3.48173E+003   -1.38229E+005    4.49656E+005   -5.65724E+004    3.42705E+005   -5.29874E+003    1.77941E+005   -2.92477E+003    2.05008E+005    7.37728E+003    1.09910E+004
             837    4.02074E+005    3.12640E+005    3.12640E+005   -4.15715E+003   -1.39686E+005    4.52326E+005   -5.62654E+004    3.44761E+005   -6.94102E+003    1.79827E+005   -4.08940E+003    2.05945E+005    2.22706E+003    4.11379E+003
             838    4.06191E+005    3.41062E+005    3.41062E+005   -4.21014E+003   -1.06494E+005    4.47556E+005   -7.67861E+004    3.75541E+005    3.51321E+004    2.00631E+005   -5.40450E+003    2.06239E+005    2.23940E+004    6.86400E+003
             839    4.00526E+005    3.29487E+005    3.29487E+005   -3.03255E+003   -1.15150E+005    4.44637E+005   -7.04346E+004    3.62620E+005    1.33802E+004    2.00357E+005   -2.43354E+003    2.00553E+005    1.90503E+004    1.29092E+004
             840    4.09219E+005    3.37355E+005    3.37355E+005    2.01108E+003   -1.18620E+005    4.55975E+005   -7.35820E+004    3.65892E+005    1.12272E+003    2.16048E+005    3.57543E+003    1.99587E+005    2.03919E+004    1.85885E+004
             841    4.22949E+005    3.47932E+005    3.47932E+005   -2.83373E+003   -1.21744E+005    4.69676E+005   -7.44513E+004    3.82544E+005   -6.46485E+003    2.30689E+005   -8.70830E+002    2.01256E+005    1.87222E+004    2.14121E+004
             842    4.36446E+005    3.61479E+005    3.61479E+005   -1.36661E+003   -1.22834E+005    4.84313E+005   -7.90929E+004    3.95655E+005   -9.73024E+003    2.46999E+005    1.00908E+001    2.04353E+005    1.49934E+004    1.84931E+004
             843    4.47748E+005    3.71493E+005    3.71493E+005   -2.74244E+003   -1.24558E+005    4.96051E+005   -8.13976E+004    4.07896E+005   -1.19545E+004    2.58248E+005   -2.10063E+003    2.07559E+005    9.82268E+003    1.29558E+004
             844    4.52971E+005    3.76733E+005    3.76733E+005   -1.84485E+003   -1.25113E+005    5.01846E+005   -8.32585E+004    4.12632E+005   -1.25136E+004    2.64070E+005   -1.78114E+003    2.09329E+005    3.18659E+003    4.11641E+003
             845    4.53664E+005    4.05603E+005    4.05603E+005   -4.22200E+002   -8.40610E+004    4.89664E+005   -1.07040E+005    4.35809E+005    7.74561E+004    2.45375E+005   -1.71155E+003    2.28629E+005    1.94338E+004    5.94997E+003
             846    4.56032E+005    4.08110E+005    4.08110E+005    1.15996E+004   -9.02271E+004    4.98337E+005   -1.09828E+005    4.29321E+005    5.81308E+004    2.58438E+005    1.29138E+004    2.26973E+005    1.98128E+004    1.83684E+004
             847    4.72873E+005    4.19895E+005    4.19895E+005    8.53839E+003   -9.67460E+004    5.16641E+005   -1.10562E+005    4.45341E+005    3.72794E+004    2.83808E+005    1.05996E+004    2.25580E+005    1.98450E+004    2.38238E+004
             848    4.92787E+005    4.40141E+005    4.40141E+005    1.21769E+004   -9.86091E+004    5.38750E+005   -1.17903E+005    4.63509E+005    2.66082E+004    3.13079E+005    1.40215E+004    2.26550E+005    2.09673E+004    2.39153E+004
             849    5.12801E+005    4.58665E+005    4.58665E+005    1.25815E+004   -1.01604E+005    5.60268E+005   -1.23214E+005    4.82939E+005    1.76479E+004    3.38123E+005    1.38721E+004    2.28673E+005    1.69857E+004    2.07858E+004
             850    5.27081E+005    4.73616E+005    4.73616E+005    1.59124E+004   -1.02648E+005    5.76263E+005   -1.28960E+005    4.95729E+005    1.26447E+004    3.57842E+005    1.63938E+004    2.30198E+005    1.18015E+004    1.34498E+004
             851    5.34191E+005    4.80304E+005    4.80304E+005    1.64610E+004   -1.03750E+005    5.84054E+005   -1.31005E+005    5.02389E+005    9.40164E+003    3.67088E+005    1.65260E+004    2.30800E+005    3.73730E+003    4.84268E+003
             852    4.19527E+005    3.75933E+005    3.75933E+005    5.80943E+003   -7.97938E+004    4.55727E+005   -1.00650E+005    3.99162E+005    4.98656E+004    2.48394E+005    3.68934E+003    2.02230E+005    2.72844E+004    1.10480E+004
             853    4.65151E+005    4.20024E+005    4.20024E+005   -8.37041E+003   -7.47513E+004    4.94775E+005   -1.12301E+005    4.54311E+005    5.62448E+004    2.88478E+005   -7.82032E+003    2.16238E+005    2.47607E+004    2.10982E+004
             854    4.99925E+005    4.60978E+005    4.60978E+005    1.28235E+004   -7.82062E+004    5.39185E+005   -1.31865E+005    4.80745E+005    5.08777E+004    3.31435E+005    1.32834E+004    2.28057E+005    2.53853E+004    2.07290E+004
             855    5.47231E+005    5.11767E+005    5.11767E+005    2.62521E+004   -8.12299E+004    5.92997E+005   -1.52263E+005    5.22685E+005    4.81863E+004    3.81525E+005    2.70779E+004    2.43494E+005    2.31188E+004    2.15472E+004
             856    5.88115E+005    5.57227E+005    5.57227E+005    4.29295E+004   -8.39833E+004    6.41210E+005   -1.72058E+005    5.56039E+005    4.39512E+004    4.28473E+005    4.37488E+004    2.55469E+005    1.83111E+004    1.95395E+004
             857    6.23608E+005    5.93652E+005    5.93652E+005    5.00904E+004   -8.71430E+004    6.80795E+005   -1.85533E+005    5.88177E+005    4.08124E+004    4.65187E+005    5.06004E+004    2.65650E+005    1.23416E+004    1.51084E+004
             858    6.44026E+005    6.14635E+005    6.14635E+005    5.42057E+004   -8.89101E+004    7.03545E+005   -1.93310E+005    6.06681E+005    3.90557E+004    4.86603E+005    5.42722E+004    2.71360E+005    4.13945E+003    5.46911E+003
             859    7.28429E+005    7.86082E+005    7.86082E+005    1.46001E+005   -6.53771E+003    7.92620E+005   -3.08515E+005    6.91111E+005    2.07731E+005    5.71723E+005    1.46091E+005    3.51991E+005    4.95481E+003    6.21434E+003
             860    7.03533E+005    7.51443E+005    7.51443E+005    1.29638E+005   -1.22050E+004    7.63648E+005   -2.89625E+005    6.70220E+005    1.98034E+005    5.40689E+005    1.30153E+005    3.40866E+005    1.25689E+004    1.45641E+004
             861    6.63781E+005    6.95035E+005    6.95035E+005    1.01278E+005   -2.15992E+004    7.16634E+005   -2.58238E+005    6.37435E+005    1.81573E+005    4.91046E+005    1.02095E+005    3.22496E+005    1.74750E+004    1.81883E+004
             862    6.16513E+005    6.30492E+005    6.30492E+005    7.16202E+004   -3.08276E+004    6.61320E+005   -2.23762E+005    5.96911E+005    1.63336E+005    4.36327E+005    7.16209E+004    3.00181E+005    2.02178E+004    1.37040E+004
             863    5.77406E+005    5.69371E+005    5.69371E+005    3.31972E+004   -4.19154E+004    6.11286E+005   -1.86884E+005    5.66258E+005    1.45199E+005    3.84022E+005    3.14325E+004    2.79660E+005    2.16092E+004    8.54914E+003
             864    5.40596E+005    5.15618E+005    5.15618E+005    8.77015E+003   -5.33575E+004    5.68975E+005   -1.57010E+005    5.32475E+005    1.29751E+005    3.39419E+005    1.86006E+003    2.60588E+005    2.12083E+004   -3.82895E+003
             865    5.54143E+005    5.07002E+005    5.07002E+005   -3.89962E+004   -5.49423E+004    5.61944E+005   -1.37688E+005    5.53626E+005    1.20946E+005    3.33450E+005   -4.13322E+004    2.58799E+005    2.02399E+003   -7.18310E+003
             866    6.73069E+005    7.34152E+004   -6.60513E+005   -7.21124E+004   -6.60513E+005    7.33928E+005    2.19737E+005   -6.36210E+005   -7.34671E+004   -5.13523E+005   -7.22197E+004    2.93607E+005   -4.66086E+003    6.88183E+003
             867    5.76164E+005    9.72457E+004   -5.32291E+005   -3.11684E+004   -5.32291E+005    6.29537E+005    1.55405E+005   -5.42547E+005   -1.84824E+004   -4.16510E+005   -3.12209E+004    2.43798E+005   -4.51735E+003    4.96089E+003
             868    5.03262E+005    1.11409E+005   -4.41396E+005   -9.82279E+003   -4.41396E+005    5.52804E+005    1.13270E+005   -4.68689E+005   -1.88415E+003   -3.28017E+005   -9.90850E+003    2.23109E+005   -3.94854E+003    5.23647E+003
             869    4.48773E+005    1.28987E+005   -3.70038E+005    4.20917E+002   -3.70038E+005    4.99025E+005    8.02098E+004   -4.04120E+005    9.98491E+003   -2.50956E+005    3.42057E+002    2.12632E+005   -3.31277E+003    4.48693E+003
             870    3.92658E+005    1.37588E+005   -3.04351E+005    4.35497E+003   -3.04351E+005    4.41939E+005    5.41358E+004   -3.35844E+005    8.93929E+003   -1.75628E+005    4.28134E+003    2.00736E+005   -2.61367E+003    3.98757E+003
             871    3.67330E+005    1.61155E+005   -2.58563E+005    4.29452E+003   -2.58563E+005    4.19718E+005    3.10377E+004   -2.75269E+005    9.16688E+003   -1.06514E+005    4.23417E+003    2.01691E+005   -1.63882E+003    4.08965E+003
             872    3.38766E+005    1.75639E+005   -2.14800E+005    1.17141E+003   -2.14800E+005    3.90439E+005    1.26632E+004   -1.92280E+005    5.66738E+002   -3.97074E+004    1.15120E+003    1.94152E+005   -6.32463E+002    3.19099E+003
             873    3.48087E+005    2.15992E+005    2.15992E+005   -8.37953E+002   -1.85515E+005    4.01507E+005   -9.87975E+003    1.79949E+005    8.39715E+002    2.96228E+004   -8.23276E+002    2.00202E+005    4.08263E+002    3.77101E+003
             874    3.53604E+005    2.45406E+005    2.45406E+005   -5.51727E+003   -1.59007E+005    4.04413E+005   -2.69608E+004    2.61157E+005   -1.09815E+004    9.73394E+004   -5.47564E+003    1.94791E+005    1.36808E+003    3.26040E+003
             875    6.47131E+005    7.23974E+004   -6.32960E+005   -6.66664E+004   -6.32960E+005    7.05358E+005    2.09077E+005   -6.12143E+005   -7.36008E+004   -4.86419E+005   -6.72095E+004    2.85520E+005   -1.17985E+004    1.52488E+004
             876    5.60379E+005    9.67520E+004   -5.15221E+005   -2.71854E+004   -5.15221E+005    6.11973E+005    1.48551E+005   -5.28206E+005   -2.07022E+004   -3.97245E+005   -2.77073E+004    2.40614E+005   -1.28188E+004    1.47304E+004
             877    4.90823E+005    1.11789E+005   -4.28117E+005   -8.88736E+003   -4.28117E+005    5.39906E+005    1.08405E+005   -4.55617E+005   -2.44629E+003   -3.13290E+005   -9.47922E+003    2.20176E+005   -1.19172E+004    1.36964E+004
             878    4.40046E+005    1.28627E+005   -3.60950E+005    1.63611E+003   -3.60950E+005    4.89577E+005    7.68954E+004   -3.95561E+005    8.32695E+003   -2.40020E+005    1.00684E+003    2.10540E+005   -9.77509E+003    1.23845E+004
             879    3.86520E+005    1.37863E+005   -2.97811E+005    3.92437E+003   -2.97811E+005    4.35674E+005    5.20081E+004   -3.27855E+005    7.95373E+003   -1.67252E+005    3.27334E+003    1.99090E+005   -7.68673E+003    1.17020E+004
             880    3.62855E+005    1.61622E+005   -2.53282E+005    4.71486E+003   -2.53282E+005    4.14904E+005    2.89816E+004   -2.68922E+005    8.58663E+003   -9.98450E+004    4.31347E+003    1.99994E+005   -4.50977E+003    9.95634E+003
             881    3.36386E+005    1.75923E+005   -2.11917E+005    4.57065E+002   -2.11917E+005    3.87840E+005    1.18455E+004   -1.84097E+005   -1.51611E+002   -3.56573E+004    2.72276E+002    1.92844E+005   -1.81722E+003    1.00571E+004
             882    3.46231E+005    2.16621E+005    2.16621E+005   -4.49666E+002   -1.82666E+005    3.99287E+005   -1.11682E+004    1.84162E+005    1.13394E+003    3.26813E+004   -3.10703E+002    1.98809E+005    1.56730E+003    9.14501E+003
             883    3.52283E+005    2.44856E+005    2.44856E+005   -6.06382E+003   -1.57881E+005    4.02737E+005   -2.69704E+004    2.61889E+005   -1.12440E+004    9.78020E+004   -5.64671E+003    1.93578E+005    4.32870E+003    1.02942E+004
             884    6.06256E+005    7.42101E+004   -5.85220E+005   -5.20088E+004   -5.85220E+005    6.59430E+005    1.87673E+005   -5.75570E+005   -6.99131E+004   -4.39968E+005   -5.31378E+004    2.71885E+005   -1.80428E+004    2.14172E+004
             885    5.32263E+005    9.58569E+004   -4.86131E+005   -2.40487E+004   -4.86131E+005    5.81988E+005    1.38108E+005   -5.00504E+005   -2.48264E+004   -3.64465E+005   -2.50319E+004    2.35096E+005   -1.86583E+004    1.97076E+004
             886    4.71877E+005    1.11784E+005   -4.07538E+005   -5.06089E+003   -4.07538E+005    5.19322E+005    1.00271E+005   -4.37517E+005   -4.71402E+003   -2.89750E+005   -6.35004E+003    2.15944E+005   -1.69633E+004    1.93868E+004
             887    4.24080E+005    1.28087E+005   -3.45113E+005    5.96694E+002   -3.45113E+005    4.73200E+005    7.21432E+004   -3.77210E+005    5.13158E+003   -2.20748E+005   -8.13298E+002    2.07008E+005   -1.43675E+004    1.78343E+004
             888    3.76741E+005    1.38786E+005   -2.86635E+005    4.79338E+003   -2.86635E+005    4.25421E+005    4.76853E+004   -3.16042E+005    6.42050E+003   -1.53015E+005    3.53828E+003    1.96529E+005   -1.09706E+004    1.56292E+004
             889    3.55245E+005    1.61459E+005   -2.45426E+005    3.10216E+003   -2.45426E+005    4.06885E+005    2.69548E+004   -2.55620E+005    6.83994E+003   -8.98859E+004    2.18143E+003    1.97038E+005   -6.72669E+003    1.48808E+004
             890    3.32195E+005    1.77268E+005   -2.05900E+005    1.17464E+003   -2.05900E+005    3.83168E+005    9.15226E+003   -1.72280E+005   -4.72545E+002   -2.78694E+004    8.85193E+002    1.90644E+005   -2.18894E+003    1.30930E+004
             891    3.42762E+005    2.15701E+005    2.15701E+005   -1.53361E+003   -1.79434E+005    3.95135E+005   -1.15777E+004    1.90390E+005    8.30529E+002    3.50982E+004   -1.19553E+003    1.96327E+005    2.49391E+003    1.39822E+004
             892    3.49076E+005    2.43822E+005    2.43822E+005   -4.61768E+003   -1.55284E+005    3.99105E+005   -2.79735E+004    2.59148E+005   -1.05567E+004    9.81915E+004   -3.71434E+003    1.91480E+005    7.05936E+003    1.39245E+004
             893    5.57059E+005    7.06155E+004   -5.32927E+005   -3.84975E+004   -5.32927E+005    6.03542E+005    1.66936E+005   -5.32213E+005   -7.47389E+004   -3.86686E+005   -3.93834E+004    2.57053E+005   -2.08829E+004    1.98900E+004
             894    5.03155E+005    9.39320E+004   -4.54504E+005   -1.42191E+004   -4.54504E+005    5.48436E+005    1.24930E+005   -4.75937E+005   -3.28873E+004   -3.26405E+005   -1.54985E+004    2.30026E+005   -2.19898E+004    2.17494E+004
             895    4.47114E+005    1.11759E+005   -3.82008E+005   -4.52429E+003   -3.82008E+005    4.93767E+005    9.15910E+004   -4.10977E+005   -8.70060E+003   -2.59807E+005   -6.26520E+003    2.10988E+005   -2.09069E+004    2.14397E+004
             896    4.06768E+005    1.27502E+005   -3.27003E+005    2.86304E+003   -3.27003E+005    4.54505E+005    6.55462E+004   -3.59891E+005    8.76172E+001   -1.97848E+005    1.12142E+003    2.03391E+005   -1.74833E+004    1.87579E+004
             897    3.64623E+005    1.38984E+005   -2.74218E+005    2.36598E+003   -2.74218E+005    4.13202E+005    4.42894E+004   -2.98293E+005    3.08031E+003   -1.36560E+005    6.11959E+002    1.93506E+005   -1.34400E+004    1.74433E+004
             898    3.46312E+005    1.62313E+005   -2.34853E+005    4.04829E+003   -2.34853E+005    3.97167E+005    2.28306E+004   -2.42407E+005    5.28069E+003   -7.67602E+004    2.98766E+003    1.93696E+005   -7.85772E+003    1.46593E+004
             899    3.27082E+005    1.76997E+005   -2.00485E+005   -1.12129E+003   -2.00485E+005    3.77482E+005    8.20319E+003   -1.50437E+005   -2.06835E+003   -2.10743E+004   -1.46689E+003    1.87912E+005   -2.24153E+003    1.48451E+004
             900    3.38146E+005    2.16296E+005    2.16296E+005    2.58134E+002   -1.73394E+005    3.89690E+005   -1.43870E+004    1.93382E+005    2.23470E+003    4.01296E+004    7.96760E+002    1.93411E+005    3.92308E+003    1.39057E+004
             901    3.44884E+005    2.40632E+005    2.40632E+005   -5.91986E+003   -1.53485E+005    3.94116E+005   -2.70757E+004    2.58013E+005   -1.00310E+004    9.58176E+004   -4.55950E+003    1.89078E+005    9.41357E+003    1.60566E+004
             902    5.16827E+005    7.55763E+004   -4.80782E+005   -1.56280E+004   -4.80782E+005    5.56358E+005    1.40278E+005   -4.98237E+005   -6.93603E+004   -3.35477E+005   -1.59960E+004    2.42554E+005   -2.38197E+004    1.86489E+004
             903    4.70478E+005    9.16554E+004   -4.21664E+005   -1.09699E+004   -4.21664E+005    5.13320E+005    1.13660E+005   -4.44235E+005   -4.24167E+004   -2.86284E+005   -1.22783E+004    2.24212E+005   -2.26381E+004    2.05734E+004
             904    4.26700E+005    1.11418E+005   -3.60101E+005   -5.44162E+002   -3.60101E+005    4.71519E+005    8.30757E+004   -3.91555E+005   -1.60072E+004   -2.31350E+005   -1.86946E+003    2.08315E+005   -2.06588E+004    1.81701E+004
             905    3.89798E+005    1.26854E+005   -3.10775E+005   -8.40434E+002   -3.10775E+005    4.37630E+005    6.15870E+004   -3.37691E+005   -6.62237E+003   -1.75719E+005   -2.41957E+003    2.00652E+005   -1.83177E+004    1.66317E+004
             906    3.54369E+005    1.40583E+005   -2.61955E+005    2.95091E+003   -2.61955E+005    4.02538E+005    3.94738E+004   -2.84153E+005   -4.86575E+002   -1.19666E+005    1.73096E+003    1.91522E+005   -1.36758E+004    1.29318E+004
             907    3.38025E+005    1.61485E+005   -2.26953E+005    4.03883E+002   -2.26953E+005    3.88438E+005    2.16879E+004   -2.23827E+005    1.81546E+003   -6.63468E+004   -5.32370E+002    1.90716E+005   -8.27289E+003    1.22009E+004
             908    3.22364E+005    1.78970E+005   -1.93146E+005    1.03807E+003   -1.93146E+005    3.72116E+005    4.37917E+003   -1.36282E+005   -1.81383E+003   -1.21948E+004    8.71083E+002    1.85686E+005   -1.56468E+003    1.04936E+004
             909    3.33469E+005    2.14143E+005    2.14143E+005   -2.13498E+003   -1.69894E+005    3.84037E+005   -1.40378E+004    2.00298E+005    2.02056E+003    4.16364E+004   -1.54368E+003    1.90574E+005    4.93931E+003    1.22483E+004
             910    3.41735E+005    2.41594E+005    2.41594E+005   -1.94736E+003   -1.49061E+005    3.90654E+005   -3.01952E+004    2.54290E+005   -6.08543E+003    9.75097E+004   -8.38638E+002    1.87740E+005    1.13275E+004    1.21519E+004
             911    4.79585E+005    6.81752E+004   -4.44367E+005   -6.50099E+003   -4.44367E+005    5.12542E+005    1.27564E+005   -4.66235E+005   -8.47643E+004   -2.92109E+005   -5.81941E+003    2.32430E+005   -2.40048E+004    1.42352E+004
             912    4.53680E+005    8.70491E+004   -4.03350E+005    1.40305E+003   -4.03350E+005    4.90399E+005    1.04966E+005   -4.34930E+005   -5.99743E+004   -2.55744E+005    8.20760E+002    2.23351E+005   -2.19464E+004    1.63284E+004
             913    4.09707E+005    1.08275E+005   -3.44800E+005   -3.55091E+002   -3.44800E+005    4.53075E+005    7.89600E+004   -3.75200E+005   -2.91871E+004   -2.06591E+005   -1.10232E+003    2.07159E+005   -2.05767E+004    1.41609E+004
             914    3.80664E+005    1.24757E+005   -3.02001E+005    2.55538E+003   -3.02001E+005    4.26758E+005    5.82295E+004   -3.32030E+005   -1.90434E+004   -1.57721E+005    2.07584E+003    2.00910E+005   -1.74776E+004    9.78570E+003
             915    3.48391E+005    1.39449E+005   -2.57149E+005   -4.60813E+002   -2.57149E+005    3.96598E+005    3.93871E+004   -2.73530E+005   -8.84254E+003   -1.08378E+005   -9.40436E+002    1.91404E+005   -1.36312E+004    7.21048E+003
             916    3.32959E+005    1.62503E+005   -2.20238E+005    2.65867E+003   -2.20238E+005    3.82740E+005    1.83587E+004   -2.17997E+005   -1.60822E+003   -5.58556E+004    2.38760E+003    1.89243E+005   -7.89237E+003    4.47598E+003
             917    3.19729E+005    1.79023E+005   -1.90154E+005   -2.80793E+003   -1.90154E+005    3.69178E+005    4.64623E+003   -9.45620E+004   -3.45770E+003   -7.62665E+003   -2.85434E+003    1.84524E+005   -1.00339E+003    4.31244E+003
             918    3.30537E+005    2.16453E+005    2.16453E+005    2.10127E+003   -1.64209E+005    3.80662E+005   -1.81152E+004    1.98469E+005    6.32756E+003    4.57024E+004    2.31555E+003    1.89186E+005    5.93361E+003    4.11399E+003
             919    3.40786E+005    2.41525E+005    2.41525E+005   -4.89643E+003   -1.47379E+005    3.88904E+005   -2.97499E+004    2.59847E+005   -5.39982E+002    9.40327E+004   -4.24300E+003    1.88130E+005    1.21674E+004    8.25406E+003
             920    4.59202E+005    8.32819E+004   -4.08378E+005    9.40890E+003   -4.08378E+005    4.91660E+005    1.05229E+005   -4.45538E+005   -6.66352E+004   -2.61529E+005    1.24772E+004    2.22825E+005   -2.60151E+004    8.61555E+003
             921    4.33802E+005    8.30506E+004   -3.86053E+005    6.20175E+002   -3.86053E+005    4.69103E+005    1.00794E+005   -4.15631E+005   -7.38312E+004   -2.30680E+005    2.12897E+003    2.18946E+005   -2.46656E+004    9.33899E+003
             922    4.08842E+005    1.05732E+005   -3.43188E+005    7.78416E+003   -3.43188E+005    4.48920E+005    7.65573E+004   -3.81079E+005   -4.61867E+004   -1.92646E+005    9.16108E+003    2.10566E+005   -2.18049E+004    5.53115E+003
             923    3.77164E+005    1.20345E+005   -3.01770E+005    2.11525E+003   -3.01770E+005    4.22115E+005    5.97699E+004   -3.31458E+005   -3.42204E+004   -1.48230E+005    3.14030E+003    2.01908E+005   -2.05404E+004    3.33318E+003
             924    3.47845E+005    1.39975E+005   -2.55430E+005    3.40719E+003   -2.55430E+005    3.95405E+005    3.73493E+004   -2.77101E+005   -1.90307E+004   -9.72459E+004    4.22872E+003    1.93075E+005   -1.50688E+004   -1.01247E+003
             925    3.30591E+005    1.61437E+005   -2.19087E+005   -2.53702E+003   -2.19087E+005    3.80525E+005    2.00624E+004   -2.04454E+005   -8.48775E+003   -4.97893E+004   -1.91027E+003    1.88815E+005   -8.43659E+003   -5.83885E+003
             926    3.21026E+005    1.83211E+005   -1.87453E+005    1.56515E+003   -1.87453E+005    3.70664E+005    8.92294E+002   -1.04448E+005   -2.16564E+003   -2.10624E+003    1.59500E+003    1.85157E+005   -2.62164E+002   -8.04586E+003
             927    3.30204E+005    2.17021E+005    2.17021E+005   -1.53196E+003   -1.62830E+005    3.79851E+005   -1.75528E+004    2.10070E+005    1.01679E+004    4.45004E+004   -2.00982E+003    1.88900E+005    7.40580E+003   -4.99576E+003
             928    3.42638E+005    2.48476E+005    2.48476E+005    2.79660E+002   -1.42455E+005    3.90931E+005   -3.54335E+004    2.62003E+005    1.25340E+004    9.42804E+004   -5.14057E+002    1.90464E+005    1.46740E+004   -1.36238E+003
             929    3.53319E+005    2.63501E+005    2.63501E+005   -1.40562E+003   -1.37658E+005    4.01159E+005   -4.14791E+004    2.84494E+005    3.65339E+004    9.26916E+004   -4.78832E+003    1.96821E+005    1.91000E+004   -1.06813E+004
             930    3.30985E+005    2.21586E+005    2.21586E+005    5.11869E+003   -1.59426E+005    3.81011E+005   -2.24262E+004    2.03780E+005    1.73120E+004    4.73847E+004    2.58192E+003    1.88399E+005    1.06804E+004   -1.96779E+004
             931    3.25135E+005    1.87529E+005   -1.87894E+005   -2.56926E+003   -1.87894E+005    3.75424E+005    9.78242E+002    9.11299E+004   -9.14002E+001   -2.57864E+002   -2.58546E+003    1.86472E+005   -7.29482E+001   -2.15366E+004
             932    3.32784E+005    1.59534E+005   -2.23033E+005   -4.93097E+002   -2.23033E+005    3.82567E+005    2.13309E+004   -2.17312E+005   -1.88117E+004   -4.71973E+004    2.01619E+003    1.89285E+005   -1.04775E+004   -1.91403E+004
             933    3.52763E+005    1.36745E+005   -2.64591E+005   -3.60105E+003   -2.64591E+005    4.01336E+005    4.38156E+004   -2.78674E+005   -3.73682E+004   -9.43122E+004    2.33528E+002    1.96676E+005   -1.90226E+004   -1.30928E+004
             934    3.83416E+005    1.16765E+005   -3.09744E+005    6.34550E+003   -3.09744E+005    4.26509E+005    6.22114E+004   -3.44829E+005   -5.71051E+004   -1.39282E+005    9.75263E+003    2.06980E+005   -2.40966E+004   -2.94477E+003
             935    4.18222E+005    9.42132E+004   -3.61285E+005    5.39190E+003   -3.61285E+005    4.55498E+005    8.72266E+004   -3.96159E+005   -7.81169E+004   -1.92596E+005    9.03307E+003    2.17790E+005   -2.53636E+004    1.35908E+003
             936    4.55422E+005    7.63298E+004   -4.08486E+005    1.03428E+004   -4.08486E+005    4.84816E+005    1.07271E+005   -4.44476E+005   -9.69153E+004   -2.38440E+005    1.35416E+004    2.29760E+005   -1.97569E+004    1.52561E+003
             937    4.86881E+005    5.59626E+004   -4.51705E+005    1.13147E+004   -4.51705E+005    5.07668E+005    1.28143E+005   -4.82243E+005   -1.36464E+005   -2.65855E+005    1.78914E+004    2.42029E+005   -1.43878E+004   -7.27544E+003
             938    7.20994E+005    3.27280E+002   -7.83102E+005   -1.47440E+005   -7.83102E+005    7.83430E+005    3.10072E+005   -6.85672E+005   -2.12366E+005   -5.70322E+005   -1.47527E+005    3.48375E+005   -5.13142E+003    6.08638E+003
             939    6.92519E+005    7.08282E+003   -7.42862E+005   -1.27535E+005   -7.42862E+005    7.49945E+005    2.87771E+005   -6.62114E+005   -1.99994E+005   -5.35021E+005   -1.28300E+005    3.34980E+005   -1.42530E+004    1.76558E+004
             940    6.45298E+005    1.61490E+004   -6.79103E+005   -9.93590E+004   -6.79103E+005    6.95252E+005    2.54104E+005   -6.21398E+005   -1.82215E+005   -4.79734E+005   -1.00364E+005    3.13327E+005   -1.93147E+004    1.99950E+004
             941    5.95948E+005    2.59700E+004   -6.09728E+005   -6.36901E+004   -6.09728E+005    6.35698E+005    2.15816E+005   -5.80482E+005   -1.63326E+005   -4.19572E+005   -6.45502E+004    2.89608E+005   -2.28764E+004    2.02956E+004
             942    5.47747E+005    3.38917E+004   -5.46993E+005   -3.98565E+004   -5.46993E+005    5.80885E+005    1.84319E+005   -5.36407E+005   -1.51441E+005   -3.62692E+005   -3.88241E+004    2.68673E+005   -2.46463E+004    1.35312E+004
             943    5.20459E+005    4.39169E+004   -5.00893E+005   -8.79569E+003   -5.00893E+005    5.44809E+005    1.55257E+005   -5.14402E+005   -1.41191E+005   -3.20058E+005   -4.52244E+003    2.53981E+005   -2.57985E+004    9.03678E+003
             944    4.97549E+005    4.54947E+004   -4.74898E+005   -3.87357E+003   -4.74898E+005    5.20393E+005    1.44426E+005   -4.91993E+005   -1.50201E+005   -2.84306E+005    1.23050E+003    2.48092E+005   -2.32820E+004    4.33226E+003
             945    6.96813E+005    6.42936E+005    6.42936E+005    6.10646E+004   -1.29267E+005    7.72203E+005   -1.91578E+005    6.34262E+005    8.82054E+004    4.25388E+005    6.11403E+004    3.47283E+005   -5.70323E+003   -5.30009E+003
             946    6.13287E+005    5.18237E+005    5.18237E+005    2.25906E+004   -1.67617E+005    6.85854E+005   -1.24404E+005    5.40698E+005    1.20875E+004    3.38473E+005    2.26512E+004    3.01553E+005   -4.75751E+003   -4.41061E+003
             947    5.48091E+005    4.34382E+005    4.34382E+005    7.81424E+003   -1.83789E+005    6.18171E+005   -8.61359E+004    4.63214E+005    1.44603E+002    2.50399E+005    7.86395E+003    2.82587E+005   -3.91363E+003   -3.47433E+003
             948    4.90019E+005    3.56101E+005    3.56101E+005   -8.68327E+002   -2.02579E+005    5.58679E+005   -5.08846E+004    3.78092E+005   -1.18801E+004    1.65351E+005   -8.16911E+002    2.64884E+005   -2.70386E+003   -3.34644E+003
             949    6.82218E+005    6.27125E+005    6.27125E+005    5.68362E+004   -1.28657E+005    7.55782E+005   -1.85102E+005    6.21576E+005    8.87779E+004    4.09038E+005    5.74884E+004    3.41771E+005   -1.57036E+004   -1.51919E+004
             950    6.02941E+005    5.09005E+005    5.09005E+005    2.14628E+004   -1.65189E+005    6.74195E+005   -1.21760E+005    5.31868E+005    1.50690E+004    3.28301E+005    2.19095E+004    2.98089E+005   -1.32523E+004   -1.18413E+004
             951    5.44556E+005    4.31272E+005    4.31272E+005    7.37898E+003   -1.82890E+005    6.14162E+005   -8.52536E+004    4.60326E+005    2.37215E+003    2.45545E+005    7.84339E+003    2.81686E+005   -1.04180E+004   -1.06797E+004
             952    4.86475E+005    3.53686E+005    3.53686E+005   -1.27835E+002   -2.01070E+005    5.54756E+005   -5.08296E+004    3.74399E+005   -1.08734E+004    1.63112E+005    2.49859E+002    2.63176E+005   -7.83550E+003   -8.73485E+003
             953    6.55718E+005    5.99201E+005    5.99201E+005    4.95158E+004   -1.26586E+005    7.25787E+005   -1.74044E+005    5.98954E+005    9.05548E+004    3.80939E+005    5.06374E+004    3.31398E+005   -2.44747E+004   -1.98922E+004
             954    5.84959E+005    4.91319E+005    4.91319E+005    1.67554E+004   -1.62219E+005    6.53538E+005   -1.15285E+005    5.17764E+005    1.99991E+004    3.07945E+005    1.79112E+004    2.92289E+005   -2.10744E+004   -1.85143E+004
             955    5.35902E+005    4.24510E+005    4.24510E+005    8.43367E+003   -1.80203E+005    6.04713E+005   -8.42469E+004    4.51592E+005    7.37460E+003    2.35904E+005    9.46230E+003    2.79218E+005   -1.67245E+004   -1.53987E+004
             956    4.80705E+005    3.49014E+005    3.49014E+005   -7.95598E+002   -1.99122E+005    5.48137E+005   -4.96988E+004    3.70281E+005   -8.55411E+003    1.57568E+005    8.21063E+001    2.60690E+005   -1.23402E+004   -1.29834E+004
             957    6.25677E+005    5.63968E+005    5.63968E+005    3.47461E+004   -1.26571E+005    6.90540E+005   -1.57381E+005    5.76035E+005    9.07840E+004    3.45286E+005    3.60732E+004    3.19239E+005   -2.95862E+004   -2.17279E+004
             958    5.58176E+005    4.66707E+005    4.66707E+005    1.47449E+004   -1.57217E+005    6.23923E+005   -1.08078E+005    4.93077E+005    2.73114E+004    2.80510E+005    1.64135E+004    2.83488E+005   -2.65062E+004   -2.13583E+004
             959    5.25878E+005    4.15169E+005    4.15169E+005    7.64384E+003   -1.78452E+005    5.93622E+005   -8.14536E+004    4.42127E+005    1.41624E+004    2.21122E+005    9.07666E+003    2.77171E+005   -2.02956E+004   -1.76020E+004
             960    4.72861E+005    3.44220E+005    3.44220E+005    1.58209E+003   -1.95266E+005    5.39486E+005   -5.01789E+004    3.61772E+005   -4.58338E+003    1.52415E+005    2.70502E+003    2.57342E+005   -1.64306E+004   -1.35977E+004
             961    5.92612E+005    5.27932E+005    5.27932E+005    2.31539E+004   -1.24567E+005    6.52499E+005   -1.42173E+005    5.48848E+005    9.46603E+004    3.07846E+005    2.40128E+004    3.06191E+005   -3.29177E+004   -1.98246E+004
             962    5.34570E+005    4.42742E+005    4.42742E+005    7.74901E+003   -1.54031E+005    5.96773E+005   -9.88201E+004    4.74620E+005    3.63432E+004    2.50617E+005    9.50020E+003    2.76549E+005   -2.94067E+004   -2.11885E+004
             963    5.13803E+005    4.07229E+005    4.07229E+005    9.64251E+003   -1.72926E+005    5.80155E+005   -8.13153E+004    4.31200E+005    2.63030E+004    2.06716E+005    1.09268E+004    2.74448E+005   -2.38429E+004   -1.59538E+004
             964    4.66537E+005    3.39668E+005    3.39668E+005   -2.43072E+002   -1.92229E+005    5.31898E+005   -4.90653E+004    3.60054E+005    2.66252E+003    1.43772E+005    7.61353E+002    2.55595E+005   -1.86652E+004   -1.21364E+004
             965    5.77658E+005    5.06039E+005    5.06039E+005    1.01296E+004   -1.28237E+005    6.34276E+005   -1.29310E+005    5.38445E+005    9.69308E+004    2.80110E+005    1.08901E+004    3.01995E+005   -2.86906E+004   -1.72971E+004
             966    5.10985E+005    4.22701E+005    4.22701E+005    1.02678E+004   -1.48932E+005    5.71634E+005   -9.46790E+004    4.49895E+005    4.74395E+004    2.26009E+005    1.05882E+004    2.69058E+005   -3.37428E+004   -1.51328E+004
             967    5.07220E+005    4.01858E+005    4.01858E+005    4.94847E+003   -1.69583E+005    5.71441E+005   -7.90747E+004    4.31459E+005    3.99323E+004    1.91989E+005    5.30277E+003    2.74033E+005   -2.61189E+004   -1.09008E+004
             968    4.62297E+005    3.40421E+005    3.40421E+005    1.24032E+003   -1.86151E+005    5.26572E+005   -5.18370E+004    3.60657E+005    1.34204E+004    1.40722E+005    1.36844E+003    2.54340E+005   -2.32081E+004   -7.09931E+003
             969    5.74434E+005    5.08260E+005    5.08260E+005    2.37230E+004   -1.26300E+005    6.34559E+005   -1.35228E+005    5.27590E+005    1.21196E+005    2.61380E+005    2.31075E+004    3.07905E+005   -2.77753E+004   -8.55850E+003
             970    5.12601E+005    4.23638E+005    4.23638E+005   -9.54420E+002   -1.45800E+005    5.69439E+005   -9.22945E+004    4.63094E+005    6.30182E+004    2.16943E+005   -3.07740E+003    2.71862E+005   -3.02147E+004   -4.43552E+003
             971    5.07675E+005    4.11287E+005    4.11287E+005    5.53041E+003   -1.57999E+005    5.69286E+005   -8.62730E+004    4.42321E+005    6.31461E+004    1.91386E+005    4.28682E+003    2.75190E+005   -3.14934E+004   -6.09324E+003
             972    4.62901E+005    3.43443E+005    3.43443E+005   -4.08715E+003   -1.82024E+005    5.25467E+005   -5.24437E+004    3.73420E+005    2.92631E+004    1.32741E+005   -4.67272E+003    2.56086E+005   -2.64917E+004   -4.49364E+003
             973    4.72956E+005    3.62739E+005    3.62739E+005   -5.49256E+002   -1.72039E+005    5.34778E+005   -6.33834E+004    3.93276E+005    6.17829E+004    1.32784E+005   -4.41722E+003    2.61837E+005   -3.58490E+004    3.25054E+003
             974    5.00085E+005    4.02483E+005    4.02483E+005   -1.16683E+004   -1.53081E+005    5.55564E+005   -7.92446E+004    4.51710E+005    8.04655E+004    1.71043E+005   -1.37745E+004    2.70304E+005   -4.09748E+004   -8.82576E+003
             975    5.49177E+005    4.73023E+005    4.73023E+005   -1.19417E+002   -1.29195E+005    6.02218E+005   -1.14570E+005    5.13357E+005    1.09756E+005    2.36538E+005   -2.58570E+003    2.90396E+005   -4.18472E+004   -1.17579E+004
             976    5.70211E+005    5.03832E+005    5.03832E+005   -7.72003E+003   -1.10938E+005    6.14769E+005   -1.28391E+005    5.48599E+005    1.31664E+005    2.61977E+005   -8.46678E+003    2.98847E+005   -2.59672E+004   -1.01549E+004
             977    7.20954E+005    7.50420E+005    7.50420E+005    1.34945E+005   -4.27737E+004    7.93193E+005   -2.80864E+005    6.68955E+005    2.17679E+005    4.89890E+005    1.35022E+005    3.72424E+005   -7.17126E+003   -5.43988E+003
             978    6.97810E+005    7.17826E+005    7.17826E+005    1.19439E+005   -4.86877E+004    7.66514E+005   -2.62859E+005    6.49854E+005    2.08153E+005    4.60538E+005    1.19887E+005    3.61170E+005   -2.05274E+004   -1.38733E+004
             979    6.62492E+005    6.66441E+005    6.66441E+005    9.36946E+004   -5.90984E+004    7.25539E+005   -2.33679E+005    6.20964E+005    1.93081E+005    4.13700E+005    9.42561E+004    3.43976E+005   -3.01825E+004   -1.79154E+004
             980    6.21494E+005    6.07213E+005    6.07213E+005    6.59423E+004   -7.14970E+004    6.78710E+005   -2.00553E+005    5.85820E+005    1.74868E+005    3.61604E+005    6.51861E+004    3.23444E+005   -3.76249E+004   -1.61080E+004
             981    5.86310E+005    5.49710E+005    5.49710E+005    3.17037E+004   -8.68006E+004    6.36510E+005   -1.64871E+005    5.58404E+005    1.55547E+005    3.10350E+005    2.87160E+004    3.04557E+005   -4.19700E+004   -1.32419E+004
             982    5.42954E+005    4.91358E+005    4.91358E+005    8.13565E+003   -9.61886E+004    5.87547E+005   -1.34435E+005    5.19682E+005    1.39227E+005    2.62418E+005    1.66014E+003    2.81713E+005   -4.28419E+004   -7.27475E+003
             983    5.28990E+005    4.60450E+005    4.60450E+005   -3.52581E+004   -9.64933E+004    5.56943E+005   -1.09566E+005    5.20927E+005    1.27357E+005    2.39616E+005   -3.82746E+004    2.70081E+005   -2.67719E+004   -8.55458E+003
             984    4.44812E+005    3.14530E+005    3.14530E+005   -2.15002E+003   -1.94015E+005    5.08545E+005   -3.94549E+004    3.30410E+005    3.80490E+004    8.59641E+004   -5.64848E+003    2.51042E+005   -2.68891E+004    1.03740E+004
             985    4.29728E+005    2.79722E+005    2.79722E+005    4.93461E+003   -2.15491E+005    4.95213E+005   -2.30555E+004    2.46501E+005    2.10147E+004    4.57950E+004    2.35667E+003    2.45957E+005   -1.48178E+004    1.91251E+004
             986    4.22023E+005    2.43209E+005   -2.44096E+005   -2.50424E+003   -2.44096E+005    4.87305E+005    1.13060E+003    1.03256E+005   -1.15332E+003    3.22897E+002   -2.56138E+003    2.42752E+005   -2.73544E+002    2.09064E+004
             987    4.29346E+005    2.17277E+005   -2.77285E+005   -1.00032E+002   -2.77285E+005    4.94562E+005    2.00361E+004   -2.54224E+005   -1.91401E+004   -4.33571E+004    2.38897E+003    2.45692E+005    1.44282E+004    1.86943E+004
             988    4.46628E+005    1.92883E+005   -3.18206E+005   -2.93335E+003   -3.18206E+005    5.11089E+005    4.27521E+004   -3.26766E+005   -4.15694E+004   -8.76611E+004    9.74057E+002    2.52293E+005    2.68220E+004    1.24831E+004
             989    4.71825E+005    1.73341E+005   -3.59107E+005    7.08160E+003   -3.59107E+005    5.32448E+005    5.95617E+004   -3.97413E+005   -6.09940E+004   -1.28432E+005    1.07405E+004    2.60908E+005    3.58425E+004    2.18681E+003
             990    5.05480E+005    1.51880E+005   -4.10387E+005    6.40183E+003   -4.10387E+005    5.62266E+005    8.40351E+004   -4.54681E+005   -8.53469E+004   -1.76993E+005    1.02349E+004    2.73494E+005    3.99405E+004   -3.26478E+003
             991    5.26105E+005    1.29994E+005   -4.45317E+005    1.13028E+004   -4.45317E+005    5.75312E+005    1.01340E+005   -4.94617E+005   -1.07771E+005   -2.10935E+005    1.46845E+004    2.79603E+005    3.59689E+004   -5.79899E+003
             992    5.07934E+005    1.20437E+005   -4.33280E+005    1.10451E+004   -4.33280E+005    5.53717E+005    1.00599E+005   -4.80346E+005   -1.05479E+005   -2.15294E+005    1.89748E+004    2.65534E+005    4.18084E+004   -2.07879E+003
             993    4.47374E+005    3.14462E+005    3.14462E+005    4.21564E+003   -1.98368E+005    5.12829E+005   -4.01032E+004    3.16478E+005    2.60585E+004    9.10775E+004    3.17363E+003    2.53457E+005   -1.96071E+004    3.15439E+003
             994    4.49791E+005    3.10173E+005    3.10173E+005   -4.12484E+002   -2.05626E+005    5.15799E+005   -3.47114E+004    3.15456E+005    1.32498E+004    9.09931E+004   -1.08789E+002    2.54470E+005   -1.53045E+004   -5.27357E+003
             995    4.53270E+005    3.11295E+005    3.11295E+005    2.69702E+003   -2.09105E+005    5.20399E+005   -3.49623E+004    3.08558E+005    6.44322E+003    9.51112E+004    3.33238E+003    2.55992E+005   -1.26789E+004   -8.71260E+003
             996    4.57464E+005    3.10354E+005    3.10354E+005    3.08095E+002   -2.15043E+005    5.25397E+005   -3.18729E+004    3.08291E+005    6.02727E+002    9.39526E+004    1.06335E+003    2.58135E+005   -9.87995E+003   -1.16622E+004
             997    4.61351E+005    3.11991E+005    3.11991E+005    8.72191E+002   -2.18066E+005    5.30057E+005   -3.15992E+004    3.07368E+005   -1.74437E+003    9.51178E+004    1.42411E+003    2.60281E+005   -7.68634E+003   -1.06956E+004
             998    4.65072E+005    3.12953E+005    3.12953E+005   -4.93296E+002   -2.21402E+005    5.34354E+005   -3.03525E+004    3.09428E+005   -3.83639E+003    9.51509E+004   -2.56912E+002    2.62420E+005   -4.36342E+003   -7.84646E+003
             999    4.66653E+005    3.13685E+005    3.13685E+005   -2.99901E+002   -2.22550E+005    5.36236E+005   -3.02784E+004    3.09263E+005   -4.45177E+003    9.55550E+004   -2.68160E+002    2.63397E+005   -1.81383E+003   -2.61808E+003
            1000    4.26467E+005    2.69315E+005    2.69315E+005   -1.93560E+003   -2.22248E+005    4.91563E+005   -1.50438E+004    2.40037E+005    6.44094E+003    4.12285E+004   -2.53807E+003    2.44847E+005   -9.94269E+003    6.42595E+003
            1001    4.26529E+005    2.67156E+005    2.67156E+005    8.46235E+002   -2.24797E+005    4.91953E+005   -1.44019E+004    2.22828E+005    1.10582E+003    4.12260E+004    8.73789E+002    2.45035E+005   -7.71162E+003   -1.07318E+003
            1002    4.29216E+005    2.64681E+005    2.64681E+005   -2.31726E+003   -2.30426E+005    4.95107E+005   -1.06461E+004    2.20477E+005   -2.88754E+003    3.68156E+004   -1.98968E+003    2.46583E+005   -5.36485E+003   -7.94300E+003
            1003    4.32642E+005    2.64940E+005    2.64940E+005   -3.60937E+002   -2.34304E+005    4.99244E+005   -1.00917E+004    2.06369E+005   -4.06573E+003    3.43836E+004   -4.28396E+001    2.48666E+005   -4.12393E+003   -9.72751E+003
            1004    4.36966E+005    2.64443E+005    2.64443E+005   -1.88730E+003   -2.39856E+005    5.04300E+005   -7.56642E+003    2.00925E+005   -4.91777E+003    2.93058E+004   -1.68877E+003    2.51353E+005   -2.40944E+003   -1.02570E+004
            1005    4.40358E+005    2.65616E+005    2.65616E+005   -1.02249E+003   -2.42661E+005    5.08276E+005   -7.31091E+003    1.93669E+005   -4.70467E+003    2.75752E+004   -9.37841E+002    2.53530E+005   -1.53852E+003   -6.85111E+003
            1006    4.42368E+005    2.65582E+005    2.65582E+005   -1.52156E+003   -2.45039E+005    5.10621E+005   -6.34061E+003    1.90533E+005   -4.75221E+003    2.52882E+004   -1.51412E+003    2.54853E+005   -3.17969E+002   -2.84250E+003
            1007    4.26375E+005    2.46508E+005    2.46508E+005    2.19865E+003   -2.45823E+005    4.92331E+005   -9.61393E+002   -1.00403E+005    1.48695E+003   -8.38961E+002    2.23619E+003    2.45978E+005    4.71031E+002    9.52075E+003
            1008    4.29666E+005    2.44962E+005   -2.51169E+005   -1.42419E+003   -2.51169E+005    4.96132E+005    2.54378E+003   -9.76133E+004    6.03042E+002   -6.79633E+003   -1.43806E+003    2.48031E+005    1.54615E+003   -1.12623E+003
            1009    4.34111E+005    2.45448E+005   -2.55761E+005    1.52366E+003   -2.55761E+005    5.01209E+005    2.92992E+003   -1.55714E+005    1.91590E+003   -1.21223E+004    1.41660E+003    2.50411E+005    2.02983E+003   -6.64303E+003
            1010    4.40141E+005    2.44658E+005   -2.63466E+005   -3.65616E+002   -2.63466E+005    5.08124E+005    6.39123E+003   -1.73800E+005    2.33771E+003   -2.09220E+004   -5.89413E+002    2.53568E+005    2.67938E+003   -1.04887E+004
            1011    4.45975E+005    2.45625E+005   -2.69123E+005    1.28097E+003   -2.69123E+005    5.14748E+005    7.40586E+003   -1.98031E+005    3.80240E+003   -2.71252E+004    1.10519E+003    2.56720E+005    2.30926E+003   -9.70880E+003
            1012    4.50884E+005    2.45630E+005   -2.74714E+005    5.39321E+002   -2.74714E+005    5.20344E+005    9.51513E+003   -2.09420E+005    4.27411E+003   -3.32511E+004    4.31556E+002    2.59384E+005    1.85712E+003   -7.44597E+003
            1013    4.53518E+005    2.45983E+005   -2.77337E+005    1.07413E+003   -2.77337E+005    5.23320E+005    1.00935E+004   -2.17699E+005    4.89316E+003   -3.62393E+004    1.06564E+003    2.60840E+005    4.63506E+002   -2.34099E+003
            1014    4.28893E+005    2.16971E+005   -2.77312E+005   -3.47088E+003   -2.77312E+005    4.94283E+005    2.12707E+004   -2.44733E+005   -1.31293E+004   -4.79606E+004   -2.72205E+003    2.46130E+005    1.11631E+004    7.09937E+003
            1015    4.31144E+005    2.17408E+005   -2.79095E+005    7.54584E+002   -2.79095E+005    4.96503E+005    2.03108E+004   -2.59598E+005   -6.52626E+003   -5.51217E+004    7.15558E+002    2.46851E+005    1.00908E+004   -1.62005E+003
            1016    4.36546E+005    2.16036E+005   -2.86564E+005   -1.83168E+003   -2.86564E+005    5.02600E+005    2.41201E+004   -2.66674E+005   -3.15659E+003   -6.68206E+004   -2.38311E+003    2.48983E+005    9.73466E+003   -8.33163E+003
            1017    4.43457E+005    2.16649E+005   -2.93446E+005    4.18975E+002   -2.93446E+005    5.10095E+005    2.54594E+004   -2.83008E+005    9.43401E+002   -7.70842E+004   -2.37535E+002    2.51713E+005    8.86073E+003   -1.06817E+004
            1018    4.51097E+005    2.16024E+005   -3.02525E+005   -6.00838E+002   -3.02525E+005    5.18548E+005    2.90339E+004   -2.95204E+005    2.81872E+003   -8.87239E+004   -1.19639E+003    2.54891E+005    7.61642E+003   -1.12174E+004
            1019    4.57210E+005    2.16631E+005   -3.08570E+005    5.47537E+002   -3.08570E+005    5.25201E+005    3.04640E+004   -3.06415E+005    4.71828E+003   -9.64078E+004    2.97595E+002    2.57554E+005    4.83029E+003   -7.51858E+003
            1020    4.60757E+005    2.16419E+005   -3.12688E+005    1.46386E+002   -3.12688E+005    5.29107E+005    3.20410E+004   -3.11754E+005    5.33691E+003   -1.01568E+005    1.08183E+002    2.59077E+005    1.86047E+003   -2.99769E+003
            1021    4.47410E+005    1.98259E+005   -3.13881E+005    1.01585E+003   -3.13881E+005    5.12140E+005    3.82020E+004   -3.25582E+005   -2.43335E+004   -9.23549E+004    2.08233E+003    2.52815E+005    2.07367E+004    2.41693E+003
            1022    4.52806E+005    1.99774E+005   -3.18845E+005   -2.00893E+003   -3.18845E+005    5.18618E+005    4.03599E+004   -3.25928E+005   -1.43653E+004   -1.04525E+005   -2.18918E+003    2.54671E+005    1.83758E+004   -4.95565E+003
            1023    4.61078E+005    2.02163E+005   -3.25467E+005   -2.96362E+001   -3.25467E+005    5.27630E+005    4.11113E+004   -3.37272E+005   -5.36507E+003   -1.17152E+005   -8.17151E+002    2.57215E+005    1.62518E+004   -9.93620E+003
            1024    4.71903E+005    2.02672E+005   -3.37018E+005   -2.02986E+003   -3.37018E+005    5.39690E+005    4.54586E+004   -3.48744E+005    4.91566E+002   -1.33747E+005   -3.12072E+003    2.60737E+005    1.48404E+004   -1.33204E+004
            1025    4.83420E+005    2.04140E+005   -3.47884E+005   -1.33162E+002   -3.47884E+005    5.52025E+005    4.79590E+004   -3.65478E+005    5.33469E+003   -1.48285E+005   -9.26787E+002    2.64671E+005    1.18921E+004   -1.21341E+004
            1026    4.92418E+005    2.04810E+005   -3.57162E+005   -1.23788E+003   -3.57162E+005    5.61973E+005    5.11966E+004   -3.75223E+005    8.10194E+003   -1.60075E+005   -1.61638E+003    2.67905E+005    7.74922E+003   -8.80091E+003
            1027    4.97824E+005    2.05393E+005   -3.62388E+005   -7.30610E+002   -3.62388E+005    5.67781E+005    5.25750E+004   -3.82443E+005    9.72751E+003   -1.66681E+005   -7.71510E+002    2.69818E+005    2.60155E+003   -2.90857E+003
            1028    4.70484E+005    1.76938E+005   -3.56586E+005   -1.11291E+003   -3.56586E+005    5.33524E+005    6.02534E+004   -3.82853E+005   -3.99763E+004   -1.40896E+005    1.12209E+002    2.60262E+005    2.76592E+004   -2.13835E+003
            1029    4.72839E+005    1.81362E+005   -3.55325E+005   -8.09696E+001   -3.55325E+005    5.36687E+005    5.80147E+004   -3.81814E+005   -2.30601E+004   -1.50812E+005   -1.72163E+002    2.59361E+005    2.46613E+004   -7.72825E+003
            1030    4.83967E+005    1.81769E+005   -3.67594E+005   -4.17243E+003   -3.67594E+005    5.49363E+005    6.33324E+004   -3.90527E+005   -1.46922E+004   -1.69948E+005   -5.35667E+003    2.62362E+005    2.23083E+004   -1.40116E+004
            1031    4.99211E+005    1.84297E+005   -3.81551E+005   -3.37125E+003   -3.81551E+005    5.65848E+005    6.68750E+004   -4.07683E+005   -5.63594E+003   -1.90390E+005   -4.59892E+003    2.66470E+005    1.97654E+004   -1.52120E+004
            1032    5.14136E+005    1.84643E+005   -3.97553E+005   -5.84884E+003   -3.97553E+005    5.82196E+005    7.29193E+004   -4.23039E+005   -1.83110E+003   -2.10064E+005   -6.86340E+003    2.71151E+005    1.62258E+004   -1.45848E+004
            1033    5.26993E+005    1.86050E+005   -4.09960E+005   -5.64994E+003   -4.09960E+005    5.96010E+005    7.65202E+004   -4.37542E+005    1.65248E+003   -2.25126E+005   -6.08725E+003    2.75305E+005    1.02070E+004   -9.96195E+003
            1034    5.33967E+005    1.86242E+005   -4.17381E+005   -6.71364E+003   -4.17381E+005    6.03623E+005    7.92844E+004   -4.44715E+005    2.68017E+003   -2.33765E+005   -6.76778E+003    2.77657E+005    3.70924E+003   -3.54180E+003
            1035    4.97605E+005    1.57560E+005   -3.99647E+005    4.08311E+002   -3.99647E+005    5.57207E+005    8.05597E+004   -4.36299E+005   -6.22960E+004   -1.81354E+005    1.97072E+003    2.69962E+005    3.13145E+004   -4.95120E+003
            1036    5.04505E+005    1.62044E+005   -4.05009E+005   -5.88401E+003   -4.05009E+005    5.67053E+005    8.29496E+004   -4.34606E+005   -4.58702E+004   -1.96600E+005   -6.37910E+003    2.71456E+005    3.01191E+004   -1.29933E+004
            1037    5.21332E+005    1.65658E+005   -4.19792E+005   -5.72752E+003   -4.19792E+005    5.85450E+005    8.66204E+004   -4.51091E+005   -3.22863E+004   -2.20622E+005   -6.95250E+003    2.75598E+005    2.70344E+004   -1.68188E+004
            1038    5.40849E+005    1.68092E+005   -4.39893E+005   -1.22731E+004   -4.39893E+005    6.07985E+005    9.46913E+004   -4.65596E+005   -2.28099E+004   -2.47571E+005   -1.36934E+004    2.81146E+005    2.39965E+004   -1.83645E+004
            1039    5.62001E+005    1.70849E+005   -4.59997E+005   -1.27792E+004   -4.59997E+005    6.30846E+005    1.00642E+005   -4.87311E+005   -1.48327E+004   -2.73310E+005   -1.37839E+004    2.86834E+005    1.95650E+004   -1.62507E+004
            1040    5.77738E+005    1.72230E+005   -4.76339E+005   -1.67788E+004   -4.76339E+005    6.48569E+005    1.06962E+005   -5.00739E+005   -1.05669E+004   -2.93104E+005   -1.72170E+004    2.91523E+005    1.24749E+004   -1.10318E+004
            1041    5.88437E+005    1.72943E+005   -4.87108E+005   -1.74100E+004   -4.87108E+005    6.60050E+005    1.10525E+005   -5.11964E+005   -8.44384E+003   -3.05662E+005   -1.74686E+004    2.94623E+005    4.48981E+003   -4.12143E+003
            1042    5.18443E+005    1.42630E+005   -4.32961E+005   -2.67198E+003   -4.32961E+005    5.75590E+005    9.76678E+004   -4.69250E+005   -7.84539E+004   -2.13437E+005   -1.11273E+003    2.77190E+005    3.38691E+004   -8.08608E+003
            1043    5.27703E+005    1.45070E+005   -4.41218E+005   -4.30582E+003   -4.41218E+005    5.86289E+005    1.00151E+005   -4.76542E+005   -6.13921E+004   -2.34820E+005   -4.24174E+003    2.77471E+005    3.45768E+004   -1.48013E+004
            1044    5.51655E+005    1.45854E+005   -4.68212E+005   -1.44949E+004   -4.68212E+005    6.14066E+005    1.12284E+005   -4.95009E+005   -5.61021E+004   -2.65084E+005   -1.56672E+004    2.86617E+005    3.16139E+004   -1.93164E+004
            1045    5.81940E+005    1.49102E+005   -4.98768E+005   -2.03898E+004   -4.98768E+005    6.47870E+005    1.23352E+005   -5.21922E+005   -4.74183E+004   -3.00850E+005   -2.17881E+004    2.96474E+005    2.77221E+004   -2.06455E+004
            1046    6.11905E+005    1.50674E+005   -5.31308E+005   -3.03043E+004   -5.31308E+005    6.81982E+005    1.36980E+005   -5.46649E+005   -4.46511E+004   -3.34931E+005   -3.13562E+004    3.07500E+005    2.20562E+004   -1.82714E+004
            1047    6.37820E+005    1.52977E+005   -5.57612E+005   -3.46490E+004   -5.57612E+005    7.10589E+005    1.46428E+005   -5.70597E+005   -4.11398E+004   -3.62944E+005   -3.51996E+004    3.16312E+005    1.41868E+004   -1.35015E+004
            1048    6.53504E+005    1.53207E+005   -5.74927E+005   -3.92965E+004   -5.74927E+005    7.28133E+005    1.53672E+005   -5.84422E+005   -4.15050E+004   -3.80166E+005   -3.93460E+004    3.22238E+005    4.97598E+003   -4.23398E+003
            1049    5.51659E+005    1.10118E+005   -4.88472E+005   -5.09680E+002   -4.88472E+005    5.98590E+005    1.26288E+005   -5.25826E+005   -1.33519E+005   -2.46478E+005    1.13321E+003    2.91207E+005    3.40070E+004   -1.08292E+004
            1050    5.56036E+005    1.22114E+005   -4.89334E+005   -1.39781E+004   -4.89334E+005    6.11448E+005    1.27066E+005   -5.16532E+005   -1.03686E+005   -2.64123E+005   -1.33891E+004    2.91824E+005    3.88948E+004   -1.60621E+004
            1051    5.85146E+005    1.15010E+005   -5.26851E+005   -2.31425E+004   -5.26851E+005    6.41860E+005    1.44994E+005   -5.46616E+005   -1.09035E+005   -3.02373E+005   -2.35751E+004    3.03504E+005    3.53678E+004   -1.91025E+004
            1052    6.14313E+005    1.17381E+005   -5.60867E+005   -4.18396E+004   -5.60867E+005    6.78248E+005    1.61775E+005   -5.65024E+005   -1.02478E+005   -3.39816E+005   -4.30322E+004    3.15585E+005    3.28286E+004   -2.15497E+004
            1053    6.50978E+005    1.13641E+005   -6.04914E+005   -5.45044E+004   -6.04914E+005    7.18555E+005    1.81926E+005   -5.99128E+005   -1.07326E+005   -3.82540E+005   -5.59114E+004    3.30545E+005    2.59413E+004   -2.18901E+004
            1054    6.81354E+005    1.14062E+005   -6.39641E+005   -6.73623E+004   -6.39641E+005    7.53703E+005    1.97647E+005   -6.23444E+005   -1.07656E+005   -4.17226E+005   -6.80590E+004    3.42977E+005    1.76617E+004   -1.57917E+004
            1055    7.00277E+005    1.12413E+005   -6.61922E+005   -7.30311E+004   -6.61922E+005    7.74335E+005    2.07513E+005   -6.41454E+005   -1.10961E+005   -4.38429E+005   -7.31506E+004    3.50764E+005    5.88643E+003   -6.63026E+003
            1056    7.34751E+005    3.80033E+004   -7.69574E+005   -1.40567E+005   -7.69574E+005    8.07577E+005    2.90713E+005   -6.83322E+005   -2.32327E+005   -4.99185E+005   -1.40626E+005    3.81010E+005    7.70652E+003   -5.16877E+003
            1057    7.11212E+005    4.55790E+004   -7.34621E+005   -1.22513E+005   -7.34621E+005    7.80200E+005    2.70519E+005   -6.64276E+005   -2.19838E+005   -4.68589E+005   -1.23129E+005    3.69033E+005    2.06267E+004   -1.53166E+004
            1058    6.73056E+005    5.76763E+004   -6.79113E+005   -9.65677E+004   -6.79113E+005    7.36789E+005    2.39335E+005   -6.31426E+005   -2.00425E+005   -4.20468E+005   -9.71111E+004    3.49994E+005    3.02099E+004   -1.78220E+004
            1059    6.33841E+005    7.15040E+004   -6.19430E+005   -6.48892E+004   -6.19430E+005    6.90934E+005    2.04272E+005   -5.99474E+005   -1.78719E+005   -3.69130E+005   -6.49659E+004    3.29601E+005    3.62703E+004   -1.86292E+004
            1060    5.92955E+005    8.58758E+004   -5.60748E+005   -4.24916E+004   -5.60748E+005    6.46624E+005    1.72455E+005   -5.60398E+005   -1.58335E+005   -3.18936E+005   -4.00929E+004    3.09422E+005    4.11717E+004   -1.31835E+004
            1061    5.64329E+005    9.81849E+004   -5.13455E+005   -1.29814E+004   -5.13455E+005    6.11640E+005    1.42751E+005   -5.38862E+005   -1.40662E+005   -2.79575E+005   -8.01495E+003    2.92738E+005    4.37261E+004   -1.04318E+004
            1062    5.22610E+005    1.09850E+005   -4.59784E+005   -2.45638E+003   -4.59784E+005    5.69634E+005    1.17463E+005   -4.94354E+005   -1.21115E+005   -2.35785E+005    4.50986E+003    2.72577E+005    4.72688E+004   -7.91930E+003
            1063    5.69347E+005    5.02911E+005    5.02911E+005   -7.95273E+003   -1.10879E+005    6.13789E+005   -1.28026E+005    5.47826E+005    1.31618E+005    2.61167E+005   -8.70553E+003    2.98467E+005    2.55796E+004    9.88535E+003
            1064    5.50629E+005    4.74761E+005    4.74761E+005   -1.18941E+002   -1.28820E+005    6.03581E+005   -1.15274E+005    5.15131E+005    1.10185E+005    2.38149E+005   -2.51248E+003    2.91044E+005    4.14601E+004    1.18144E+004
            1065    5.01169E+005    4.03871E+005    4.03871E+005   -1.14731E+004   -1.52781E+005    5.56652E+005   -7.98726E+004    4.52993E+005    8.09058E+004    1.72251E+005   -1.35387E+004    2.70767E+005    4.11808E+004    9.09504E+003
            1066    4.73073E+005    3.62867E+005    3.62867E+005   -5.58639E+002   -1.72031E+005    5.34898E+005   -6.34259E+004    3.93438E+005    6.17117E+004    1.32942E+005   -4.37652E+003    2.61883E+005    3.59346E+004   -3.03583E+003
            1067    4.63433E+005    3.44186E+005    3.44186E+005   -3.82514E+003   -1.81865E+005    5.26052E+005   -5.28319E+004    3.73972E+005    2.93204E+004    1.33560E+005   -4.38433E+003    2.56305E+005    2.65381E+004    4.65207E+003
            1068    4.63112E+005    3.41326E+005    3.41326E+005    1.32084E+003   -1.86127E+005    5.27453E+005   -5.21731E+004    3.61658E+005    1.33272E+004    1.41710E+005    1.48265E+003    2.54663E+005    2.31628E+004    7.30518E+003
            1069    4.66995E+005    3.40208E+005    3.40208E+005   -1.01040E+002   -1.92198E+005    5.32406E+005   -4.93032E+004    3.60514E+005    2.55895E+003    1.44427E+005    9.23198E+002    2.55757E+005    1.85615E+004    1.23019E+004
            1070    4.73103E+005    3.44275E+005    3.44275E+005    1.50710E+003   -1.95497E+005    5.39772E+005   -5.00950E+004    3.61879E+005   -4.77345E+003    1.52432E+005    2.62621E+003    2.57469E+005    1.62753E+004    1.36099E+004
            1071    4.80896E+005    3.49222E+005    3.49222E+005   -8.19008E+002   -1.99113E+005    5.48336E+005   -4.97633E+004    3.70582E+005   -8.73364E+003    1.57976E+005    4.74663E+001    2.60707E+005    1.22566E+004    1.29119E+004
            1072    4.86873E+005    3.54190E+005    3.54190E+005   -1.61901E+002   -2.00969E+005    5.55159E+005   -5.10198E+004    3.75122E+005   -1.09715E+004    1.63828E+005    2.02617E+002    2.63261E+005    7.72813E+003    8.57898E+003
            1073    4.90097E+005    3.56244E+005    3.56244E+005   -8.22675E+002   -2.02517E+005    5.58761E+005   -5.09682E+004    3.78219E+005   -1.19066E+004    1.65584E+005   -7.72751E+002    2.64884E+005    2.63239E+003    3.31727E+003
            1074    5.08174E+005    4.11929E+005    4.11929E+005    5.61314E+003   -1.57864E+005    5.69793E+005   -8.65595E+004    4.42945E+005    6.29618E+004    1.92322E+005    4.39500E+003    2.75343E+005    3.13364E+004    6.15455E+003
            1075    5.07707E+005    4.02633E+005    4.02633E+005    5.22976E+003   -1.69324E+005    5.71957E+005   -7.95128E+004    4.32017E+005    3.96690E+004    1.93221E+005    5.64835E+003    2.74089E+005    2.61481E+004    1.12775E+004
            1076    5.15001E+005    4.08540E+005    4.08540E+005    9.61558E+003   -1.72853E+005    5.81392E+005   -8.17675E+004    4.32753E+005    2.59375E+004    2.08438E+005    1.09269E+004    2.74755E+005    2.37971E+004    1.61816E+004
            1077    5.26550E+005    4.15874E+005    4.15874E+005    7.78195E+003   -1.78493E+005    5.94367E+005   -8.17211E+004    4.42753E+005    1.39135E+004    2.22043E+005    9.20708E+003    2.77357E+005    2.02273E+004    1.75858E+004
            1078    5.36328E+005    4.24864E+005    4.24864E+005    8.50653E+003   -1.80345E+005    6.05209E+005   -8.43417E+004    4.51884E+005    7.30475E+003    2.36198E+005    9.52266E+003    2.79423E+005    1.65685E+004    1.53184E+004
            1079    5.44926E+005    4.31683E+005    4.31683E+005    7.43643E+003   -1.82878E+005    6.14561E+005   -8.54136E+004    4.60724E+005    2.35699E+003    2.45992E+005    7.89218E+003    2.81810E+005    1.02836E+004    1.05941E+004
            1080    5.48492E+005    4.34858E+005    4.34858E+005    7.77241E+003   -1.83706E+005    6.18564E+005   -8.63080E+004    4.63821E+005    2.28196E+002    2.50876E+005    7.82006E+003    2.82717E+005    3.81584E+003    3.40558E+003
            1081    5.12297E+005    4.23362E+005    4.23362E+005   -7.63201E+002   -1.45822E+005    5.69184E+005   -9.22591E+004    4.62597E+005    6.29286E+004    2.16696E+005   -2.84747E+003    2.71760E+005    3.02243E+004    4.56025E+003
            1082    5.12649E+005    4.24629E+005    4.24629E+005    1.02460E+004   -1.48656E+005    5.73285E+005   -9.54064E+004    4.52051E+005    4.77104E+004    2.27876E+005    1.06324E+004    2.69657E+005    3.38032E+004    1.55027E+004
            1083    5.36124E+005    4.44723E+005    4.44723E+005    8.21230E+003   -1.53694E+005    5.98417E+005   -9.97470E+004    4.76279E+005    3.67102E+004    2.52543E+005    9.98763E+003    2.77139E+005    2.93083E+004    2.13520E+004
            1084    5.59251E+005    4.67893E+005    4.67893E+005    1.49569E+004   -1.57195E+005    6.25088E+005   -1.08551E+005    4.94144E+005    2.71056E+004    2.81934E+005    1.66150E+004    2.83776E+005    2.63810E+004    2.13379E+004
            1085    5.85042E+005    4.91365E+005    4.91365E+005    1.68020E+004   -1.62290E+005    6.53654E+005   -1.15292E+005    5.17762E+005    1.98518E+004    3.08069E+005    1.79557E+004    2.92296E+005    2.09584E+004    1.84887E+004
            1086    6.03364E+005    5.09457E+005    5.09457E+005    2.15084E+004   -1.65188E+005    6.74645E+005   -1.21926E+005    5.32314E+005    1.50355E+004    3.28784E+005    2.19575E+004    2.98208E+005    1.32518E+004    1.18774E+004
            1087    6.13648E+005    5.18753E+005    5.18753E+005    2.27218E+004   -1.67473E+005    6.86226E+005   -1.24667E+005    5.41121E+005    1.22726E+004    3.38949E+005    2.27795E+004    3.01688E+005    4.65000E+003    4.30806E+003
            1088    5.75259E+005    5.09356E+005    5.09356E+005    2.36469E+004   -1.25912E+005    6.35267E+005   -1.35697E+005    5.28800E+005    1.21881E+005    2.62131E+005    2.30784E+004    3.08272E+005    2.77263E+004    8.78751E+003
            1089    5.77374E+005    5.05965E+005    5.05965E+005    1.03570E+004   -1.28026E+005    6.33991E+005   -1.29432E+005    5.38131E+005    9.68003E+004    2.80425E+005    1.10697E+004    3.01758E+005    2.88447E+004    1.71385E+004
            1090    5.93957E+005    5.29682E+005    5.29682E+005    2.36087E+004   -1.24232E+005    6.53914E+005   -1.43020E+005    5.50229E+005    9.51809E+004    3.09458E+005    2.44197E+004    3.06741E+005    3.29949E+004    1.96953E+004
            1091    6.26463E+005    5.64988E+005    5.64988E+005    3.54514E+004   -1.26569E+005    6.91557E+005   -1.57957E+005    5.76429E+005    9.09575E+004    3.46142E+005    3.67711E+004    3.19664E+005    2.94936E+004    2.16585E+004
            1092    6.56519E+005    6.00328E+005    6.00328E+005    4.99946E+004   -1.26355E+005    7.26683E+005   -1.74656E+005    5.99663E+005    9.09700E+004    3.81880E+005    5.11179E+004    3.31788E+005    2.42961E+004    1.98783E+004
            1093    6.82366E+005    6.27413E+005    6.27413E+005    5.71774E+004   -1.28606E+005    7.56019E+005   -1.85328E+005    6.21536E+005    8.88546E+004    4.09286E+005    5.78438E+004    3.41862E+005    1.56448E+004    1.53405E+004
            1094    6.96885E+005    6.43124E+005    6.43124E+005    6.11872E+004   -1.29156E+005    7.72280E+005   -1.91718E+005    6.34332E+005    8.84539E+004    4.25432E+005    6.12692E+004    3.47374E+005    5.69283E+003    5.48861E+003
            1095    7.20609E+005    7.49936E+005    7.49936E+005    1.34735E+005   -4.28683E+004    7.92805E+005   -2.80601E+005    6.68653E+005    2.17568E+005    4.89421E+005    1.34814E+005    3.72277E+005    7.44090E+003    5.55703E+003
            1096    6.97809E+005    7.17944E+005    7.17944E+005    1.19369E+005   -4.84811E+004    7.66426E+005   -2.62944E+005    6.50019E+005    2.08414E+005    4.60619E+005    1.19799E+005    3.61154E+005    2.05363E+004    1.37339E+004
            1097    6.62773E+005    6.66650E+005    6.66650E+005    9.35496E+004   -5.91430E+004    7.25793E+005   -2.33686E+005    6.21322E+005    1.92859E+005    4.14077E+005    9.41212E+004    3.44017E+005    3.01407E+004    1.79727E+004
            1098    6.22244E+005    6.08096E+005    6.08096E+005    6.59582E+004   -7.13249E+004    6.79421E+005   -2.00910E+005    5.86701E+005    1.74964E+005    3.62443E+005    6.53225E+004    3.23767E+005    3.73268E+004    1.63964E+004
            1099    5.87631E+005    5.51724E+005    5.51724E+005    3.27673E+004   -8.63347E+004    6.38059E+005   -1.66052E+005    5.59500E+005    1.56302E+005    3.11941E+005    2.99140E+004    3.05316E+005    4.18195E+004    1.34296E+004
            1100    5.44860E+005    4.93790E+005    4.93790E+005    8.98712E+003   -9.58822E+004    5.89672E+005   -1.35632E+005    5.21424E+005    1.40072E+005    2.64063E+005    2.76010E+003    2.82784E+005    4.29624E+004    7.77832E+003
            1101    5.28576E+005    4.60611E+005    4.60611E+005   -3.39423E+004   -9.64315E+004    5.57043E+005   -1.10079E+005    5.20168E+005    1.27607E+005    2.39871E+005   -3.72406E+004    2.69960E+005    2.74783E+004    8.32122E+003
            1102    7.00464E+005    1.12126E+005   -6.62371E+005   -7.32170E+004   -6.62371E+005    7.74497E+005    2.07821E+005   -6.41727E+005   -1.11446E+005   -4.38677E+005   -7.33395E+004    3.50905E+005   -6.07958E+003    6.70361E+003
            1103    6.53763E+005    1.52872E+005   -5.75510E+005   -3.95614E+004   -5.75510E+005    7.28382E+005    1.54067E+005   -5.84768E+005   -4.20410E+004   -3.80539E+005   -3.96197E+004    3.22415E+005   -5.24937E+003    4.56779E+003
            1104    5.88737E+005    1.72798E+005   -4.87544E+005   -1.74707E+004   -4.87544E+005    6.60342E+005    1.10739E+005   -5.12387E+005   -8.65880E+003   -3.06022E+005   -1.75366E+004    2.94743E+005   -4.81281E+003    4.37369E+003
            1105    5.33888E+005    1.86183E+005   -4.17334E+005   -6.66551E+003   -4.17334E+005    6.03517E+005    7.92721E+004   -4.44733E+005    2.61962E+003   -2.33708E+005   -6.72809E+003    2.77618E+005   -4.04193E+003    3.80081E+003
            1106    4.97714E+005    2.05391E+005   -3.62271E+005   -7.26898E+002   -3.62271E+005    5.67662E+005    5.25355E+004   -3.82303E+005    9.70812E+003   -1.66539E+005   -7.75592E+002    2.69777E+005   -2.84561E+003    3.16932E+003
            1107    4.60643E+005    2.16430E+005   -3.12551E+005    1.73873E+002   -3.12551E+005    5.28981E+005    3.19826E+004   -3.11605E+005    5.34193E+003   -1.01420E+005    1.30679E+002    2.59024E+005   -1.97835E+003    3.18657E+003
            1108    4.53541E+005    2.45933E+005   -2.77412E+005    1.02712E+003   -2.77412E+005    5.23346E+005    1.01506E+004   -2.17772E+005    4.87525E+003   -3.63444E+004    1.01731E+003    2.60848E+005   -5.13756E+002    2.44778E+003
            1109    4.42377E+005    2.65675E+005    2.65675E+005   -1.49672E+003   -2.44955E+005    5.10629E+005   -6.40783E+003    1.90877E+005   -4.70929E+003    2.54224E+004   -1.48967E+003    2.54854E+005    2.98802E+002    2.85461E+003
            1110    4.66800E+005    3.13888E+005    3.13888E+005   -3.06109E+002   -2.22503E+005    5.36391E+005   -3.03597E+004    3.09616E+005   -4.44217E+003    9.57964E+004   -2.75105E+002    2.63455E+005    1.77886E+003    2.60359E+003
            1111    6.81168E+005    1.13574E+005   -6.39854E+005   -6.75616E+004   -6.39854E+005    7.53427E+005    1.97947E+005   -6.23439E+005   -1.08475E+005   -4.17081E+005   -6.82851E+004    3.43023E+005   -1.79445E+004    1.60761E+004
            1112    6.37722E+005    1.52498E+005   -5.57943E+005   -3.49578E+004   -5.57943E+005    7.10441E+005    1.46801E+005   -5.70620E+005   -4.19665E+004   -3.62905E+005   -3.55313E+004    3.16425E+005   -1.45808E+004    1.37804E+004
            1113    5.77218E+005    1.72083E+005   -4.75875E+005   -1.66429E+004   -4.75875E+005    6.47957E+005    1.06812E+005   -5.00392E+005   -1.08372E+004   -2.92485E+005   -1.71122E+004    2.91372E+005   -1.28977E+004    1.14061E+004
            1114    5.26103E+005    1.86121E+005   -4.08931E+005   -5.48413E+003   -4.08931E+005    5.95052E+005    7.60982E+004   -4.36555E+005    1.59146E+003   -2.23937E+005   -5.94934E+003    2.75025E+005   -1.05672E+004    1.02465E+004
            1115    4.91503E+005    2.05022E+005   -3.55985E+005   -1.13012E+003   -3.55985E+005    5.61007E+005    5.06977E+004   -3.73825E+005    8.08825E+003   -1.58654E+005   -1.52770E+003    2.67614E+005   -7.89728E+003    9.01979E+003
            1116    4.56717E+005    2.16855E+005   -3.07835E+005    5.18022E+002   -3.07835E+005    5.24689E+005    3.01540E+004   -3.05102E+005    4.62774E+003   -9.53485E+004    2.58603E+002    2.57401E+005   -4.92758E+003    7.63897E+003
            1117    4.50733E+005    2.45931E+005   -2.74254E+005    5.29104E+002   -2.74254E+005    5.20185E+005    9.26488E+003   -2.07554E+005    4.28173E+003   -3.24997E+004    4.23298E+002    2.59329E+005   -1.80233E+003    7.51408E+003
            1118    4.40526E+005    2.66070E+005    2.66070E+005   -1.10650E+003   -2.42387E+005    5.08456E+005   -7.52558E+003    1.96001E+005   -4.80354E+003    2.84028E+004   -1.02247E+003    2.53591E+005    1.53311E+003    6.82886E+003
            1119    4.65492E+005    3.13774E+005    3.13774E+005   -4.19180E+002   -2.21006E+005    5.34780E+005   -3.07827E+004    3.10771E+005   -3.82431E+003    9.63552E+004   -1.82898E+002    2.62525E+005    4.40879E+003    7.79172E+003
            1120    6.50085E+005    1.13468E+005   -6.04059E+005   -5.43054E+004   -6.04059E+005    7.17527E+005    1.81632E+005   -5.98400E+005   -1.07694E+005   -3.81485E+005   -5.57169E+004    3.30255E+005   -2.62544E+004    2.19430E+004
            1121    6.10245E+005    1.50498E+005   -5.29604E+005   -2.98801E+004   -5.29604E+005    6.80101E+005    1.36329E+005   -5.45251E+005   -4.49755E+004   -3.33057E+005   -3.09536E+004    3.06943E+005   -2.24406E+004    1.84409E+004
            1122    5.59611E+005    1.71061E+005   -4.57238E+005   -1.23395E+004   -4.57238E+005    6.28299E+005    9.95053E+004   -4.84734E+005   -1.47880E+004   -2.70352E+005   -1.33757E+004    2.86060E+005   -1.99056E+004    1.64229E+004
            1123    5.11780E+005    1.85102E+005   -3.94623E+005   -5.47640E+003   -3.94623E+005    5.79725E+005    7.16659E+004   -4.20020E+005   -1.79388E+003   -2.06678E+005   -6.52575E+003    2.70448E+005   -1.64194E+004    1.47471E+004
            1124    4.81639E+005    2.04776E+005   -3.45420E+005   -3.88614E+001   -3.45420E+005    5.50196E+005    4.68944E+004   -3.62217E+005    5.33317E+003   -1.45178E+005   -8.38471E+002    2.64165E+005   -1.18637E+004    1.21347E+004
            1125    4.50066E+005    2.16704E+005   -3.00779E+005   -5.95708E+002   -3.00779E+005    5.17483E+005    2.82234E+004   -2.92005E+005    2.68455E+003   -8.61665E+004   -1.18824E+003    2.54588E+005   -7.52164E+003    1.12274E+004
            1126    4.45803E+005    2.46422E+005   -2.68158E+005    1.20143E+003   -2.68158E+005    5.14580E+005    6.84505E+003   -1.93001E+005    3.73607E+003   -2.53092E+004    1.03799E+003    2.56693E+005   -2.15275E+003    9.65165E+003
            1127    4.37203E+005    2.65424E+005    2.65424E+005   -1.88569E+003   -2.39116E+005    5.04540E+005   -8.14100E+003    2.04967E+005   -4.99731E+003    3.10978E+004   -1.67752E+003    2.51407E+005    2.52949E+003    1.02698E+004
            1128    4.62115E+005    3.13161E+005    3.13161E+005    8.84607E+002   -2.17695E+005    5.30856E+005   -3.21166E+004    3.09343E+005   -1.69429E+003    9.66088E+004    1.43533E+003    2.60554E+005    7.73159E+003    1.06608E+004
            1129    6.12730E+005    1.17473E+005   -5.58906E+005   -4.09317E+004   -5.58906E+005    6.76378E+005    1.60788E+005   -5.63836E+005   -1.02284E+005   -3.37969E+005   -4.21118E+004    3.14863E+005   -3.30609E+004    2.15496E+004
            1130    5.79008E+005    1.49376E+005   -4.95312E+005   -1.95632E+004   -4.95312E+005    6.44688E+005    1.21833E+005   -5.19059E+005   -4.72080E+004   -2.97337E+005   -2.09543E+004    2.95418E+005   -2.79736E+004    2.05571E+004
            1131    5.37187E+005    1.68741E+005   -4.35381E+005   -1.14714E+004   -4.35381E+005    6.04122E+005    9.27038E+004   -4.61434E+005   -2.23836E+004   -2.42823E+005   -1.29052E+004    2.79910E+005   -2.41148E+004    1.82891E+004
            1132    4.96075E+005    1.85116E+005   -3.77517E+005   -3.06931E+003   -3.77517E+005    5.62633E+005    6.51567E+004   -4.03152E+005   -5.46903E+003   -1.85707E+005   -4.29427E+003    2.65549E+005   -1.97022E+004    1.50309E+004
            1133    4.69745E+005    2.03678E+005   -3.33811E+005   -1.90359E+003   -3.33811E+005    5.37489E+005    4.40119E+004   -3.44273E+005    6.16714E+002   -1.29675E+005   -2.97760E+003    2.60117E+005   -1.45879E+004    1.31463E+004
            1134    4.42406E+005    2.17576E+005   -2.91451E+005    3.67090E+002   -2.91451E+005    5.09027E+005    2.45024E+004   -2.78909E+005    8.48355E+002   -7.40888E+004   -2.66927E+002    2.51419E+005   -8.58480E+003    1.05481E+004
            1135    4.40006E+005    2.45710E+005   -2.62283E+005   -3.89051E+002   -2.62283E+005    5.07993E+005    5.65415E+003   -1.66131E+005    2.38022E+003   -1.87505E+004   -5.92220E+002    2.53551E+005   -2.42000E+003    1.04910E+004
            1136    4.32954E+005    2.65829E+005    2.65829E+005   -3.98886E+002   -2.33742E+005    4.99571E+005   -1.05628E+004    2.09755E+005   -4.19012E+003    3.59478E+004   -6.93862E+001    2.48761E+005    4.27407E+003    9.75286E+003
            1137    4.58026E+005    3.11036E+005    3.11036E+005    3.45738E+002   -2.14972E+005    5.26008E+005   -3.21367E+004    3.09261E+005    6.02264E+002    9.47023E+004    1.10554E+003    2.58375E+005    9.90391E+003    1.17226E+004
            1138    5.83251E+005    1.15462E+005   -5.24353E+005   -2.23487E+004   -5.24353E+005    6.39815E+005    1.43747E+005   -5.44783E+005   -1.08467E+005   -2.99999E+005   -2.27744E+004    3.02691E+005   -3.55103E+004    1.90865E+004
            1139    5.48443E+005    1.46556E+005   -4.64096E+005   -1.34515E+004   -4.64096E+005    6.10652E+005    1.10330E+005   -4.91669E+005   -5.53941E+004   -2.61009E+005   -1.45877E+004    2.85397E+005   -3.16925E+004    1.90503E+004
            1140    5.17684E+005    1.66638E+005   -4.15104E+005   -5.15706E+003   -4.15104E+005    5.81742E+005    8.45411E+004   -4.46445E+005   -3.16419E+004   -2.15640E+005   -6.34147E+003    2.74387E+005   -2.69231E+004    1.63969E+004
            1141    4.81002E+005    1.82870E+005   -3.63505E+005   -3.89132E+003   -3.63505E+005    5.46374E+005    6.15087E+004   -3.85760E+005   -1.42149E+004   -1.65276E+005   -5.03556E+003    2.61446E+005   -2.20371E+004    1.35891E+004
            1142    4.59341E+005    2.03248E+005   -3.22653E+005    1.03007E+001   -3.22653E+005    5.25901E+005    3.97984E+004   -3.33059E+005   -5.11145E+003   -1.13534E+005   -7.49628E+002    2.56718E+005   -1.58656E+004    9.66117E+003
            1143    4.35696E+005    2.17023E+005   -2.84717E+005   -1.85362E+003   -2.84717E+005    5.01740E+005    2.31827E+004   -2.62506E+005   -2.99356E+003   -6.41668E+004   -2.38766E+003    2.48718E+005   -9.37024E+003    8.27009E+003
            1144    4.34162E+005    2.46284E+005   -2.54997E+005    1.48373E+003   -2.54997E+005    5.01281E+005    2.40968E+003   -1.48907E+005    1.93066E+003   -1.05493E+004    1.38959E+003    2.50468E+005   -1.76547E+003    6.69785E+003
            1145    4.29459E+005    2.65384E+005    2.65384E+005   -2.29892E+003   -2.29974E+005    4.95358E+005   -1.10368E+004    2.22641E+005   -2.85494E+003    3.79224E+004   -1.95705E+003    2.46658E+005    5.49880E+003    8.10547E+003
            1146    4.53785E+005    3.11795E+005    3.11795E+005    2.65461E+003   -2.09170E+005    5.20965E+005   -3.50934E+004    3.09330E+005    6.26083E+003    9.57240E+004    3.29523E+003    2.56210E+005    1.26526E+004    8.79406E+003
            1147    5.54385E+005    1.22679E+005   -4.87070E+005   -1.33834E+004   -4.87070E+005    6.09748E+005    1.25925E+005   -5.14768E+005   -1.02983E+005   -2.62045E+005   -1.27461E+004    2.91124E+005   -3.88731E+004    1.58352E+004
            1148    5.25230E+005    1.45933E+005   -4.37898E+005   -3.77560E+003   -4.37898E+005    5.83831E+005    9.85803E+004   -4.73541E+005   -6.05035E+004   -2.31568E+005   -3.66984E+003    2.76557E+005   -3.45005E+004    1.44795E+004
            1149    5.01906E+005    1.63085E+005   -4.01415E+005   -5.52351E+003   -4.01415E+005    5.64500E+005    8.12844E+004   -4.30908E+005   -4.50532E+004   -1.92847E+005   -5.95269E+003    2.70559E+005   -2.99176E+004    1.24816E+004
            1150    4.70907E+005    1.82329E+005   -3.52478E+005    9.32579E+000   -3.52478E+005    5.34808E+005    5.67131E+004   -3.78301E+005   -2.23645E+004   -1.47714E+005   -6.05317E+001    2.58719E+005   -2.43396E+004    7.39893E+003
            1151    4.51716E+005    2.00631E+005   -3.16924E+005   -2.02421E+003   -3.16924E+005    5.17556E+005    3.94391E+004   -3.22839E+005   -1.38880E+004   -1.02231E+005   -2.19814E+003    2.54317E+005   -1.80187E+004    4.78440E+003
            1152    4.30820E+005    2.17963E+005   -2.78228E+005    7.24116E+002   -2.78228E+005    4.96191E+005    1.98471E+004   -2.57451E+005   -6.25786E+003   -5.39571E+004    6.73652E+002    2.46750E+005   -9.78092E+003    1.72058E+003
            1153    4.29741E+005    2.45389E+005   -2.50830E+005   -1.42934E+003   -2.50830E+005    4.96220E+005    2.29003E+003   -8.94313E+004    7.06894E+002   -6.13197E+003   -1.44502E+003    2.48078E+005   -1.42758E+003    1.37018E+003
            1154    4.26774E+005    2.67474E+005    2.67474E+005    7.12082E+002   -2.24744E+005    4.92218E+005   -1.44809E+004    2.24069E+005    1.02342E+003    4.16644E+004    7.54801E+002    2.45145E+005    7.74235E+003    1.32300E+003
            1155    4.49981E+005    3.10442E+005    3.10442E+005   -3.84056E+002   -2.05558E+005    5.16000E+005   -3.48331E+004    3.15815E+005    1.29937E+004    9.15652E+004   -5.95952E+001    2.54507E+005    1.53035E+004    5.46246E+003
            1156    5.50684E+005    1.10629E+005   -4.87218E+005   -7.11021E+002   -4.87218E+005    5.97847E+005    1.25767E+005   -5.24456E+005   -1.32967E+005   -2.45322E+005    9.88743E+002    2.90858E+005   -3.41571E+004    1.06482E+004
            1157    5.16889E+005    1.43267E+005   -4.30788E+005   -2.26849E+003   -4.30788E+005    5.74055E+005    9.65964E+004   -4.67353E+005   -7.77407E+004   -2.11414E+005   -6.34551E+002    2.76562E+005   -3.37493E+004    7.68697E+003
            1158    4.96250E+005    1.58317E+005   -3.97675E+005    4.00433E+002   -3.97675E+005    5.55992E+005    7.96523E+004   -4.34073E+005   -6.15952E+004   -1.79354E+005    1.99231E+003    2.69500E+005   -3.11428E+004    4.63433E+003
            1159    4.69356E+005    1.77586E+005   -3.54858E+005   -1.04281E+003   -3.54858E+005    5.32443E+005    5.94384E+004   -3.80757E+005   -3.92807E+004   -1.39222E+005    1.87628E+002    2.59833E+005   -2.74099E+004    1.92267E+003
            1160    4.47017E+005    1.98616E+005   -3.13168E+005    8.77061E+002   -3.13168E+005    5.11784E+005    3.78915E+004   -3.24197E+005   -2.39412E+004   -9.16513E+004    1.91811E+003    2.52683E+005   -2.04632E+004   -2.43548E+003
            1161    4.28854E+005    2.17148E+005   -2.77097E+005   -3.39176E+003   -2.77097E+005    4.94245E+005    2.11137E+004   -2.44364E+005   -1.28553E+004   -4.78141E+004   -2.67174E+003    2.46121E+005   -1.10279E+004   -6.90070E+003
            1162    4.26421E+005    2.46298E+005    2.46298E+005    2.08228E+003   -2.46084E+005    4.92383E+005   -7.65488E+002   -1.02517E+005    1.35564E+003   -1.17883E+003    2.11965E+003    2.46015E+005   -4.85554E+002   -9.20635E+003
            1163    4.26456E+005    2.69106E+005    2.69106E+005   -1.85997E+003   -2.22464E+005    4.91570E+005   -1.49273E+004    2.39133E+005    6.31529E+003    4.09005E+004   -2.43390E+003    2.44870E+005    9.87229E+003   -6.15029E+003
            1164    4.47482E+005    3.14453E+005    3.14453E+005    4.05729E+003   -1.98489E+005    5.12942E+005   -4.00069E+004    3.16705E+005    2.57263E+004    9.12426E+004    3.05168E+003    2.53494E+005    1.95322E+004   -2.95563E+003
            1165    4.44519E+005    3.13972E+005    3.13972E+005   -1.91952E+003   -1.94341E+005    5.08313E+005   -3.92373E+004    3.29135E+005    3.77222E+004    8.53904E+004   -5.40070E+003    2.50949E+005    2.68252E+004   -1.04031E+004
            1166    4.29333E+005    2.78706E+005    2.78706E+005    4.75825E+003   -2.16097E+005    4.94803E+005   -2.24557E+004    2.44435E+005    2.04061E+004    4.47042E+004    2.25666E+003    2.45798E+005    1.44870E+004   -1.90295E+004
            1167    4.21910E+005    2.42602E+005   -2.44575E+005   -2.48191E+003   -2.44575E+005    4.87176E+005    1.48498E+003    9.27760E+004   -1.51149E+003   -4.58696E+002   -2.48476E+003    2.42694E+005   -2.50585E+001   -2.08436E+004
            1168    4.29657E+005    2.17098E+005   -2.77806E+005   -2.23032E+002   -2.77806E+005    4.94904E+005    2.03103E+004   -2.54980E+005   -1.93097E+004   -4.38838E+004    2.26269E+003    2.45861E+005   -1.45358E+004   -1.85251E+004
            1169    4.46704E+005    1.92877E+005   -3.18275E+005   -2.81143E+003   -3.18275E+005    5.11152E+005    4.27366E+004   -3.27080E+005   -4.14965E+004   -8.77893E+004    1.07600E+003    2.52329E+005   -2.67239E+004   -1.24598E+004
            1170    4.71360E+005    1.73715E+005   -3.58370E+005    6.89605E+003   -3.58370E+005    5.32084E+005    5.92529E+004   -3.96276E+005   -6.04850E+004   -1.27831E+005    1.05576E+004    2.60772E+005   -3.55444E+004   -2.43493E+003
            1171    5.04314E+005    1.52390E+005   -4.08760E+005    6.59419E+003   -4.08760E+005    5.61150E+005    8.32589E+004   -4.53136E+005   -8.46656E+004   -1.75562E+005    1.04512E+004    2.73016E+005   -3.97378E+004    2.99984E+003
            1172    5.25039E+005    1.30784E+005   -4.43707E+005    1.12782E+004   -4.43707E+005    5.74490E+005    1.00548E+005   -4.93026E+005   -1.06821E+005   -2.09598E+005    1.47744E+004    2.79192E+005   -3.59977E+004    5.38931E+003
            1173    5.08245E+005    1.20211E+005   -4.33845E+005    1.07516E+004   -4.33845E+005    5.54056E+005    1.00961E+005   -4.80639E+005   -1.06504E+005   -2.14938E+005    1.85601E+004    2.65875E+005   -4.19025E+004    2.31371E+003
            1174    7.34948E+005    3.80191E+004   -7.69761E+005   -1.40554E+005   -7.69761E+005    8.07780E+005    2.90765E+005   -6.83533E+005   -2.32258E+005   -4.99421E+005   -1.40617E+005    3.81066E+005   -7.66901E+003    5.24620E+003
            1175    7.11232E+005    4.53973E+004   -7.34823E+005   -1.22690E+005   -7.34823E+005    7.80220E+005    2.70705E+005   -6.64302E+005   -2.20234E+005   -4.68563E+005   -1.23318E+005    3.69109E+005   -2.06971E+004    1.54320E+004
            1176    6.72686E+005    5.76587E+004   -6.78747E+005   -9.65649E+004   -6.78747E+005    7.36405E+005    2.39218E+005   -6.31043E+005   -2.00622E+005   -4.19917E+005   -9.71140E+004    3.49897E+005   -3.03349E+004    1.78804E+004
            1177    6.32933E+005    7.17472E+004   -6.18262E+005   -6.46429E+004   -6.18262E+005    6.90009E+005    2.03719E+005   -5.98515E+005   -1.78609E+005   -3.67887E+005   -6.46609E+004    3.29236E+005   -3.65524E+004    1.85109E+004
            1178    5.91530E+005    8.65377E+004   -5.58543E+005   -4.15502E+004   -5.58543E+005    6.45080E+005    1.71185E+005   -5.59036E+005   -1.57475E+005   -3.17077E+005   -3.90031E+004    3.08653E+005   -4.15628E+004    1.30316E+004
            1179    5.62658E+005    9.85888E+004   -5.11172E+005   -1.20557E+004   -5.11172E+005    6.09761E+005    1.41546E+005   -5.37358E+005   -1.39865E+005   -2.77823E+005   -6.95087E+003    2.91832E+005   -4.37394E+004    1.01996E+004
            1180    5.21733E+005    1.10512E+005   -4.58301E+005   -2.01214E+003   -4.58301E+005    5.68814E+005    1.16600E+005   -4.93311E+005   -1.19874E+005   -2.34926E+005    4.99891E+003    2.72073E+005   -4.74254E+004    7.93457E+003
            1181    7.23093E+005    6.28350E+005    6.28350E+005    5.49314E+004   -1.83962E+005    8.12311E+005   -1.66440E+005    6.24580E+005    9.13327E+004    3.52983E+005    5.50034E+004    3.84429E+005   -7.17242E+003   -4.71345E+003
            1182    6.86850E+005    5.51311E+005    5.51311E+005    2.66120E+004   -2.26092E+005    7.77403E+005   -1.17277E+005    5.67135E+005    3.48534E+004    2.90308E+005    2.66699E+004    3.67069E+005   -5.28173E+003   -3.90985E+003
            1183    6.24256E+005    4.64136E+005    4.64136E+005    9.51964E+003   -2.47620E+005    7.11755E+005   -7.53452E+004    4.81430E+005   -2.93431E+002    2.16770E+005    9.55929E+003    3.38892E+005   -4.16458E+003   -2.88648E+003
            1184    5.89253E+005    4.10965E+005    4.10965E+005    4.10355E+003   -2.64765E+005    6.75731E+005   -5.01012E+004    4.13219E+005   -3.23509E+003    1.49402E+005    4.13652E+003    3.29115E+005   -2.76169E+003   -2.56674E+003
            1185    7.08916E+005    6.13284E+005    6.13284E+005    5.05922E+004   -1.82936E+005    7.96220E+005   -1.60313E+005    6.12964E+005    9.17360E+004    3.38018E+005    5.11862E+004    3.77892E+005   -2.10951E+004   -1.33629E+004
            1186    6.78624E+005    5.44294E+005    5.44294E+005    2.54119E+004   -2.23677E+005    7.67970E+005   -1.15343E+005    5.60994E+005    3.74164E+004    2.82773E+005    2.58397E+004    3.63429E+005   -1.61373E+004   -1.05315E+004
            1187    6.18818E+005    4.59696E+005    4.59696E+005    8.61850E+003   -2.45773E+005    7.05469E+005   -7.41802E+004    4.77937E+005    2.01002E+003    2.11520E+005    9.01056E+003    3.36529E+005   -1.23422E+004   -9.06364E+003
            1188    5.86466E+005    4.09564E+005    4.09564E+005    4.66823E+003   -2.62977E+005    6.72541E+005   -5.04185E+004    4.11178E+005   -1.43461E+003    1.47754E+005    4.93624E+003    3.27731E+005   -8.70422E+003   -6.93515E+003
            1189    6.83091E+005    5.86180E+005    5.86180E+005    4.34598E+004   -1.80865E+005    7.67045E+005   -1.49592E+005    5.91274E+005    9.20311E+004    3.12193E+005    4.45499E+004    3.65701E+005   -3.27948E+004   -1.82055E+004
            1190    6.63864E+005    5.30463E+005    5.30463E+005    2.16620E+004   -2.20482E+005    7.50945E+005   -1.10548E+005    5.50467E+005    4.14699E+004    2.67444E+005    2.27288E+004    3.57045E+005   -2.47160E+004   -1.62132E+004
            1191    6.07583E+005    4.51060E+005    4.51060E+005    8.98104E+003   -2.41766E+005    6.92826E+005   -7.27582E+004    4.67912E+005    6.81884E+003    2.01612E+005    9.84422E+003    3.31727E+005   -1.96570E+004   -1.29903E+004
            1192    5.81583E+005    4.06032E+005    4.06032E+005    4.36637E+003   -2.60888E+005    6.66920E+005   -4.98367E+004    4.08045E+005    1.27251E+003    1.43269E+005    4.96847E+003    3.25440E+005   -1.34673E+004   -1.01422E+004
            1193    6.54389E+005    5.53848E+005    5.53848E+005    2.96289E+004   -1.79559E+005    7.33407E+005   -1.34639E+005    5.71566E+005    9.30952E+004    2.79889E+005    3.09327E+004    3.51883E+005   -4.13766E+004   -2.04587E+004
            1194    6.42822E+005    5.11676E+005    5.11676E+005    1.92539E+004   -2.15534E+005    7.27210E+005   -1.05132E+005    5.32671E+005    4.80759E+004    2.46591E+005    2.07288E+004    3.48093E+005   -3.21567E+004   -1.84925E+004
            1195    5.94116E+005    4.39539E+005    4.39539E+005    6.69429E+003   -2.37814E+005    6.77353E+005   -6.94732E+004    4.58484E+005    1.35185E+004    1.86934E+005    7.96728E+003    3.26234E+005   -2.53503E+004   -1.51945E+004
            1196    5.75081E+005    4.03591E+005    4.03591E+005    5.86610E+003   -2.55792E+005    6.59383E+005   -5.12215E+004    4.04613E+005    7.73742E+003    1.39251E+005    6.67649E+003    3.22438E+005   -1.85066E+004   -1.08892E+004
            1197    6.19740E+005    5.15864E+005    5.15864E+005    1.84251E+004   -1.78382E+005    6.94246E+005   -1.18636E+005    5.42447E+005    9.21496E+004    2.44210E+005    1.95483E+004    3.35039E+005   -4.71246E+004   -2.02355E+004
            1198    6.24353E+005    4.93561E+005    4.93561E+005    1.45542E+004   -2.12558E+005    7.06119E+005   -9.85192E+004    5.18380E+005    5.56783E+004    2.23914E+005    1.59655E+004    3.40807E+005   -3.58712E+004   -1.77556E+004
            1199    5.79339E+005    4.28777E+005    4.28777E+005    7.54180E+003   -2.31901E+005    6.60678E+005   -6.81391E+004    4.45669E+005    2.29043E+004    1.72897E+005    8.61561E+003    3.20019E+005   -3.16076E+004   -1.36077E+004
            1200    5.67770E+005    3.98746E+005    3.98746E+005    4.03003E+003   -2.51946E+005    6.50692E+005   -5.02765E+004    4.03616E+005    1.45584E+004    1.31504E+005    4.76670E+003    3.19179E+005   -2.26357E+004   -9.71425E+003
            1201    5.97717E+005    4.89727E+005    4.89727E+005    2.76902E+003   -1.77331E+005    6.67058E+005   -1.05055E+005    5.31326E+005    9.68384E+004    2.14321E+005    4.00499E+003    3.24760E+005   -4.60431E+004   -1.97612E+004
            1202    6.10935E+005    4.83453E+005    4.83453E+005    1.60590E+004   -2.07844E+005    6.91298E+005   -9.72226E+004    5.05412E+005    6.94948E+004    2.05790E+005    1.63830E+004    3.36293E+005   -4.01210E+004   -1.28827E+004
            1203    5.68620E+005    4.20633E+005    4.20633E+005    2.96137E+003   -2.26941E+005    6.47574E+005   -6.55509E+004    4.44385E+005    3.41918E+004    1.59298E+005    3.16243E+003    3.15657E+005   -3.48183E+004   -9.62058E+003
            1204    5.62850E+005    4.00303E+005    4.00303E+005    5.53226E+003   -2.44203E+005    6.44506E+005   -5.38772E+004    4.06952E+005    2.75759E+004    1.28460E+005    5.59557E+003    3.17003E+005   -2.79718E+004   -5.81459E+003
            1205    5.71109E+005    4.60690E+005    4.60690E+005    8.00441E+003   -1.80951E+005    6.41641E+005   -9.59146E+004    4.93048E+005    9.57680E+004    1.84464E+005    7.51132E+003    3.12706E+005   -5.38290E+004   -1.45331E+004
            1206    6.06749E+005    4.82166E+005    4.82166E+005    4.32238E+003   -2.00482E+005    6.82648E+005   -9.53354E+004    5.19989E+005    8.79561E+004    1.95667E+005    2.38274E+003    3.33774E+005   -4.34810E+004   -6.19879E+003
            1207    5.68951E+005    4.27138E+005    4.27138E+005    4.36699E+002   -2.18820E+005    6.45958E+005   -6.95851E+004    4.58303E+005    5.22259E+004    1.57524E+005   -9.94387E+002    3.15329E+005   -4.38375E+004   -6.26691E+003
            1208    5.55751E+005    3.97438E+005    3.97438E+005   -1.33101E+003   -2.37374E+005    6.34812E+005   -5.29108E+004    4.18381E+005    4.14633E+004    1.19235E+005   -1.96566E+003    3.12883E+005   -3.56143E+004   -4.25570E+003
            1209    5.48470E+005    3.97300E+005    3.97300E+005    8.38598E+002   -2.28638E+005    6.25938E+005   -5.65001E+004    4.17973E+005    5.94386E+004    1.13049E+005   -2.98692E+003    3.07683E+005   -4.71465E+004    3.00063E+003
            1210    5.75020E+005    4.38642E+005    4.38642E+005   -5.76853E+003   -2.10790E+005    6.49431E+005   -7.40279E+004    4.81843E+005    8.07869E+004    1.49516E+005   -8.21972E+003    3.17568E+005   -5.52716E+004   -7.55068E+003
            1211    6.04945E+005    4.88595E+005    4.88595E+005    3.75704E+003   -1.89321E+005    6.77917E+005   -1.01010E+005    5.28648E+005    1.08077E+005    1.94486E+005    4.67627E+002    3.30115E+005   -5.88852E+004   -9.72794E+003
            1212    6.21047E+005    5.20926E+005    5.20926E+005    1.13974E+003   -1.66830E+005    6.87756E+005   -1.18412E+005    5.66467E+005    1.26755E+005    2.29343E+005   -8.61889E+002    3.36808E+005   -4.18840E+004   -8.49633E+003
            1213    7.44763E+005    7.28719E+005    7.28719E+005    1.19767E+005   -1.01642E+005    8.30361E+005   -2.48948E+005    6.64439E+005    2.22086E+005    4.04914E+005    1.19844E+005    4.04875E+005   -9.20910E+003   -4.97384E+003
            1214    7.26702E+005    7.03044E+005    7.03044E+005    1.06725E+005   -1.06386E+005    8.09430E+005   -2.34461E+005    6.50625E+005    2.13114E+005    3.83156E+005    1.07112E+005    3.94715E+005   -2.62224E+004   -1.23242E+004
            1215    6.99461E+005    6.62228E+005    6.62228E+005    8.45005E+004   -1.15430E+005    7.77657E+005   -2.10433E+005    6.30205E+005    1.98154E+005    3.48254E+005    8.48907E+004    3.79221E+005   -3.94701E+004   -1.62072E+004
            1216    6.67356E+005    6.14536E+005    6.14536E+005    6.16211E+004   -1.26764E+005    7.41299E+005   -1.83131E+005    6.03043E+005    1.79871E+005    3.09131E+005    6.03911E+004    3.61023E+005   -4.94194E+004   -1.41170E+004
            1217    6.40801E+005    5.68826E+005    5.68826E+005    3.26902E+004   -1.40881E+005    7.09707E+005   -1.53545E+005    5.84303E+005    1.59777E+005    2.71629E+005    2.92282E+004    3.44977E+005   -5.49410E+004   -1.13639E+004
            1218    6.11004E+005    5.26533E+005    5.26533E+005    1.44147E+004   -1.49796E+005    6.76329E+005   -1.30384E+005    5.58030E+005    1.43850E+005    2.40619E+005    6.68254E+003    3.27892E+005   -5.57124E+004   -2.68565E+003
            1219    6.16728E+005    5.18187E+005    5.18187E+005   -2.03711E+004   -1.54601E+005    6.72788E+005   -1.14405E+005    5.82486E+005    1.29872E+005    2.38440E+005   -2.50981E+004    3.28464E+005   -3.67741E+004   -9.92150E+002
            1220    5.30299E+005    3.60196E+005    3.60196E+005   -3.96993E+002   -2.48699E+005    6.08895E+005   -3.70333E+004    3.60008E+005    3.88476E+004    7.59446E+004   -3.69214E+003    3.01433E+005   -3.46821E+004    9.29343E+003
            1221    5.15109E+005    3.25216E+005    3.25216E+005    4.04255E+003   -2.68930E+005    5.94145E+005   -2.01094E+004    2.67439E+005    1.94948E+004    3.91609E+004    1.67267E+003    2.95721E+005   -1.89042E+004    1.69038E+004
            1222    5.10560E+005    2.95122E+005    2.95122E+005   -1.75229E+003   -2.94417E+005    5.89539E+005    3.49326E+002    1.18063E+005   -8.22203E+001    8.27437E+002   -1.79319E+003    2.94180E+005   -2.70208E+002    1.86233E+004
            1223    5.15600E+005    2.69432E+005   -3.25108E+005   -7.27501E+002   -3.25108E+005    5.94539E+005    1.88013E+004   -2.78245E+005   -1.98194E+004   -3.81379E+004    1.55333E+003    2.95985E+005    1.83770E+004    1.65746E+004
            1224    5.29771E+005    2.48250E+005   -3.60416E+005   -3.15508E+003   -3.60416E+005    6.08666E+005    3.84406E+004   -3.52957E+005   -4.01453E+004   -7.56874E+004    5.10812E+002    3.01283E+005    3.47158E+004    1.10427E+004
            1225    5.50234E+005    2.29333E+005   -3.97856E+005    3.67435E+003   -3.97856E+005    6.27189E+005    5.49495E+004   -4.25708E+005   -6.04546E+004   -1.11700E+005    7.30642E+003    3.08429E+005    4.71487E+004    2.12731E+003
            1226    5.74041E+005    2.09316E+005   -4.39607E+005    1.88584E+003   -4.39607E+005    6.48923E+005    7.61351E+004   -4.78097E+005   -8.38536E+004   -1.50520E+005    5.96850E+003    3.17405E+005    5.40489E+004   -2.55955E+003
            1227    5.90595E+005    1.89485E+005   -4.71519E+005    4.26381E+003   -4.71519E+005    6.61005E+005    9.25902E+004   -5.18949E+005   -1.03097E+005   -1.83160E+005    8.48638E+003    3.23027E+005    5.13628E+004   -4.24124E+003
            1228    6.01054E+005    1.67617E+005   -4.99063E+005    1.36729E+003   -4.99063E+005    6.66680E+005    1.10026E+005   -5.45620E+005   -1.34674E+005   -2.04813E+005    9.40869E+003    3.25728E+005    4.87534E+004    4.25351E+003
            1229    5.28470E+005    3.51918E+005    3.51918E+005    1.59143E+003   -2.55951E+005    6.07869E+005   -3.25194E+004    3.37577E+005    2.03481E+004    7.66568E+004    5.53359E+002    3.01467E+005   -2.53692E+004    2.90342E+003
            1230    5.31018E+005    3.48439E+005    3.48439E+005   -1.20058E+003   -2.62608E+005    6.11047E+005   -2.82099E+004    3.33150E+005    8.71671E+003    7.69578E+004   -1.04479E+003    3.02991E+005   -1.92389E+004   -3.70954E+003
            1231    5.36194E+005    3.50409E+005    3.50409E+005    1.48721E+003   -2.66989E+005    6.17399E+005   -2.83024E+004    3.25328E+005    2.58135E+003    8.03975E+004    1.92827E+003    3.05803E+005   -1.55999E+004   -6.33642E+003
            1232    5.41610E+005    3.50667E+005    3.50667E+005   -1.05315E+002   -2.73117E+005    6.23784E+005   -2.58147E+004    3.23899E+005   -2.69643E+003    7.96935E+004    4.47130E+002    3.08852E+005   -1.14948E+004   -8.89396E+003
            1233    5.46750E+005    3.52925E+005    3.52925E+005    8.30530E+002   -2.76949E+005    6.29873E+005   -2.56022E+004    3.21135E+005   -5.25466E+003    8.08532E+004    1.20799E+003    3.11784E+005   -8.48885E+003   -7.98264E+003
            1234    5.51499E+005    3.54755E+005    3.54755E+005   -2.49811E+002   -2.80600E+005    6.35355E+005   -2.46350E+004    3.23488E+005   -7.05289E+003    8.10335E+004   -7.56131E+001    3.14522E+005   -4.99007E+003   -6.08505E+003
            1235    5.53878E+005    3.56033E+005    3.56033E+005    7.29169E+001   -2.82110E+005    6.38143E+005   -2.46655E+004    3.23164E+005   -7.59385E+003    8.14988E+004    9.14999E+001    3.15937E+005   -1.72889E+003   -1.90586E+003
            1236    5.22359E+005    3.26194E+005    3.26194E+005   -2.41988E+002   -2.76271E+005    6.02465E+005   -1.65605E+004    2.73984E+005    1.23048E+004    3.82334E+004   -8.56723E+002    3.00588E+005   -1.28436E+004    6.26922E+003
            1237    5.28371E+005    3.28055E+005    3.28055E+005    2.58940E+003   -2.81589E+005    6.09644E+005   -1.63515E+004    2.58402E+005    7.59886E+003    3.89022E+004    2.55346E+003    3.04279E+005   -9.20479E+003    4.34975E+001
            1238    5.33556E+005    3.27101E+005    3.27101E+005   -1.14740E+002   -2.88590E+005    6.15691E+005   -1.27985E+004    2.54653E+005    2.91063E+003    3.53859E+004    9.89850E+001    3.07308E+005   -6.35467E+003   -5.55285E+003
            1239    5.39214E+005    3.28786E+005    3.28786E+005    1.67175E+003   -2.93573E+005    6.22359E+005   -1.22948E+004    2.40340E+005    1.61605E+003    3.33992E+004    1.86914E+003    3.10666E+005   -4.52696E+003   -7.00322E+003
            1240    5.44273E+005    3.28693E+005    3.28693E+005    3.77788E+002   -2.99567E+005    6.28259E+005   -9.83467E+003    2.32666E+005    4.35384E+001    2.89562E+004    5.04293E+002    3.13697E+005   -2.65817E+003   -7.57491E+003
            1241    5.48086E+005    3.30036E+005    3.30036E+005    1.00495E+003   -3.02670E+005    6.32705E+005   -9.45703E+003    2.25175E+005   -3.59616E+001    2.73495E+004    1.05757E+003    3.16012E+005   -1.65318E+003   -5.07427E+003
            1242    5.50234E+005    3.30093E+005    3.30093E+005    5.24515E+002   -3.05113E+005    6.35206E+005   -8.50163E+003    2.21459E+005   -3.31353E+002    2.53060E+004    5.30256E+002    3.17337E+005   -4.25781E+002   -2.14183E+003
            1243    5.14305E+005    2.95010E+005   -2.98848E+005    9.62470E+002   -2.98848E+005    5.93859E+005    9.58599E+002   -1.31743E+005   -1.75322E+003   -2.12370E+003    1.00112E+003    2.96796E+005    6.05778E+002    8.86975E+003
            1244    5.18041E+005    2.93806E+005   -3.04365E+005   -2.17487E+003   -3.04365E+005    5.98171E+005    4.24482E+003   -1.35715E+005   -2.90916E+003   -7.65221E+003   -2.17310E+003    2.99071E+005    1.75150E+003    1.35126E+002
            1245    5.23624E+005    2.95015E+005   -3.09553E+005    1.21354E+002   -3.09553E+005    6.04569E+005    4.80556E+003   -1.82489E+005   -1.79120E+003   -1.26795E+004    5.40083E+001    3.02196E+005    2.40325E+003   -4.30838E+003
            1246    5.29716E+005    2.94615E+005   -3.16949E+005   -1.66825E+003   -3.16949E+005    6.11565E+005    8.00063E+003   -1.99937E+005   -1.64210E+003   -2.05415E+004   -1.81831E+003    3.05529E+005    3.05601E+003   -7.59449E+003
            1247    5.35754E+005    2.95941E+005   -3.22517E+005   -4.66255E+002   -3.22517E+005    6.18458E+005    9.01426E+003   -2.22617E+005   -2.92575E+002   -2.61638E+004   -5.86439E+002    3.08868E+005    2.66049E+003   -7.08209E+003
            1248    5.40703E+005    2.96318E+005   -3.27808E+005   -1.22122E+003   -3.27808E+005    6.24125E+005    1.09037E+004   -2.33471E+005    1.37125E+002   -3.15535E+004   -1.29475E+003    3.11605E+005    2.07017E+003   -5.60376E+003
            1249    5.43409E+005    2.96852E+005   -3.30353E+005   -8.22518E+002   -3.30353E+005    6.27205E+005    1.14412E+004   -2.41553E+005    7.21641E+002   -3.42159E+004   -8.29231E+002    3.13110E+005    6.20464E+002   -1.71593E+003
            1250    5.22051E+005    2.74571E+005   -3.27605E+005   -2.53456E+003   -3.27605E+005    6.02177E+005    1.85228E+004   -2.69405E+005   -1.26593E+004   -4.11214E+004   -1.78789E+003    3.00298E+005    1.44500E+004    6.74358E+003
            1251    5.29235E+005    2.77756E+005   -3.32508E+005    4.25923E+002   -3.32508E+005    6.10264E+005    1.81089E+004   -2.85517E+005   -7.03279E+003   -4.77590E+004    4.65170E+002    3.04191E+005    1.25541E+004   -5.20933E+002
            1252    5.36833E+005    2.78596E+005   -3.40375E+005   -1.81651E+003   -3.40375E+005    6.18971E+005    2.11985E+004   -2.92547E+005   -3.39651E+003   -5.80094E+004   -2.18958E+003    3.08018E+005    1.16287E+004   -6.00501E+003
            1253    5.45421E+005    2.80702E+005   -3.47924E+005   -3.56335E+002   -3.47924E+005    6.28626E+005    2.25259E+004   -3.09095E+005    6.18049E+002   -6.73959E+004   -7.99714E+002    3.12228E+005    1.00511E+004   -7.96041E+003
            1254    5.53717E+005    2.81585E+005   -3.56448E+005   -1.54504E+003   -3.56448E+005    6.38033E+005    2.54692E+004   -3.20181E+005    3.25427E+003   -7.77234E+004   -1.93846E+003    3.16237E+005    8.28570E+003   -8.46749E+003
            1255    5.60249E+005    2.83010E+005   -3.62343E+005   -7.02969E+002   -3.62343E+005    6.45353E+005    2.66787E+004   -3.31572E+005    5.50920E+003   -8.46759E+004   -8.69339E+002    3.19426E+005    5.26132E+003   -5.70751E+003
            1256    5.64000E+005    2.83381E+005   -3.66206E+005   -1.12641E+003   -3.66206E+005    6.49587E+005    2.79835E+004   -3.36735E+005    6.48176E+003   -8.92825E+004   -1.14977E+003    3.21233E+005    1.85053E+003   -2.26193E+003
            1257    5.32468E+005    2.53056E+005   -3.58649E+005    9.15682E+002   -3.58649E+005    6.11705E+005    3.48927E+004   -3.55864E+005   -2.55681E+004   -8.11124E+004    2.00246E+003    3.03283E+005    2.70081E+004    2.29683E+003
            1258    5.38334E+005    2.54812E+005   -3.63929E+005   -2.84866E+003   -3.63929E+005    6.18740E+005    3.73218E+004   -3.54112E+005   -1.67014E+004   -9.23816E+004   -2.88239E+003    3.06186E+005    2.27456E+004   -3.56222E+003
            1259    5.47151E+005    2.57486E+005   -3.71098E+005   -1.70362E+003   -3.71098E+005    6.28584E+005    3.84386E+004   -3.65481E+005   -9.14999E+003   -1.03905E+005   -2.26076E+003    3.10015E+005    1.99509E+004   -7.61792E+003
            1260    5.58196E+005    2.58708E+005   -3.82362E+005   -3.90976E+003   -3.82362E+005    6.41070E+005    4.25214E+004   -3.76479E+005   -4.24946E+003   -1.18586E+005   -4.72848E+003    3.14816E+005    1.73111E+004   -1.05980E+004
            1261    5.69424E+005    2.60730E+005   -3.92777E+005   -3.25122E+003   -3.92777E+005    6.53507E+005    4.50994E+004   -3.91641E+005    3.91116E+001   -1.31509E+005   -3.82859E+003    3.19697E+005    1.34182E+004   -9.56292E+003
            1262    5.78299E+005    2.61868E+005   -4.01606E+005   -4.43581E+003   -4.01606E+005    6.63474E+005    4.80578E+004   -4.01096E+005    2.28922E+003   -1.41741E+005   -4.72154E+003    3.23657E+005    8.81460E+003   -7.10224E+003
            1263    5.83492E+005    2.62649E+005   -4.06565E+005   -4.30662E+003   -4.06565E+005    6.69214E+005    4.94075E+004   -4.07885E+005    3.60516E+003   -1.47492E+005   -4.33573E+003    3.25950E+005    2.81284E+003   -2.29924E+003
            1264    5.53710E+005    2.33806E+005   -3.98604E+005   -9.25903E+002   -3.98604E+005    6.32411E+005    5.52415E+004   -4.17504E+005   -4.45141E+004   -1.21539E+005    3.28868E+002    3.11418E+005    3.75844E+004   -2.37216E+003
            1265    5.61472E+005    2.39215E+005   -4.02631E+005   -2.48847E+003   -4.02631E+005    6.41846E+005    5.53014E+004   -4.17807E+005   -3.12529E+004   -1.32109E+005   -2.54224E+003    3.15370E+005    3.08282E+004   -6.66585E+003
            1266    5.72868E+005    2.42515E+005   -4.12617E+005   -5.80960E+003   -4.12617E+005    6.55132E+005    5.86374E+004   -4.23630E+005   -2.07123E+004   -1.48442E+005   -6.75821E+003    3.19961E+005    2.80078E+004   -1.16617E+004
            1267    5.88223E+005    2.45491E+005   -4.26618E+005   -5.65557E+003   -4.26618E+005    6.72109E+005    6.22609E+004   -4.40865E+005   -1.33257E+004   -1.66795E+005   -6.66202E+003    3.26214E+005    2.34498E+004   -1.27929E+004
            1268    6.02495E+005    2.48322E+005   -4.40036E+005   -8.54923E+003   -4.40036E+005    6.88358E+005    6.67542E+004   -4.52115E+005   -7.00668E+003   -1.83928E+005   -9.32838E+003    3.31992E+005    1.84803E+004   -1.18792E+004
            1269    6.14309E+005    2.50310E+005   -4.51058E+005   -8.51957E+003   -4.51058E+005    7.01368E+005    6.97560E+004   -4.65533E+005   -3.16663E+003   -1.97239E+005   -8.86209E+003    3.36732E+005    1.17980E+004   -8.19235E+003
            1270    6.20866E+005    2.51393E+005   -4.57373E+005   -9.64594E+003   -4.57373E+005    7.08766E+005    7.18755E+004   -4.71308E+005   -1.12663E+003   -2.04816E+005   -9.68418E+003    3.39405E+005    3.88547E+003   -2.78639E+003
            1271    5.71016E+005    2.17332E+005   -4.30031E+005    2.04937E+003   -4.30031E+005    6.47363E+005    7.02168E+004   -4.65607E+005   -5.93612E+004   -1.55053E+005    3.76407E+003    3.16820E+005    4.34829E+004   -5.19485E+003
            1272    5.76755E+005    2.20480E+005   -4.35143E+005   -6.01821E+003   -4.35143E+005    6.55624E+005    7.35604E+004   -4.59383E+005   -4.56959E+004   -1.68651E+005   -6.33406E+003    3.19489E+005    3.88796E+004   -1.13158E+004
            1273    5.94449E+005    2.24027E+005   -4.51313E+005   -7.30818E+003   -4.51313E+005    6.75340E+005    7.81980E+004   -4.76099E+005   -3.60608E+004   -1.90228E+005   -8.30544E+003    3.26747E+005    3.48071E+004   -1.44573E+004
            1274    6.14642E+005    2.27097E+005   -4.71329E+005   -1.28634E+004   -4.71329E+005    6.98426E+005    8.56984E+004   -4.91325E+005   -2.92852E+004   -2.13662E+005   -1.41480E+004    3.35306E+005    2.99742E+004   -1.61628E+004
            1275    6.36377E+005    2.30382E+005   -4.92223E+005   -1.53486E+004   -4.92223E+005    7.22606E+005    9.23966E+004   -5.12025E+005   -2.41819E+004   -2.36753E+005   -1.62544E+004    3.44418E+005    2.28567E+004   -1.41715E+004
            1276    6.52988E+005    2.32958E+005   -5.08516E+005   -1.92264E+004   -5.08516E+005    7.41474E+005    9.82614E+004   -5.25341E+005   -2.09949E+004   -2.54165E+005   -1.96247E+004    3.51548E+005    1.48789E+004   -9.67774E+003
            1277    6.63510E+005    2.33967E+005   -5.19130E+005   -2.05998E+004   -5.19130E+005    7.53097E+005    1.01921E+005   -5.35831E+005   -1.99859E+004   -2.65125E+005   -2.06510E+004    3.56002E+005    4.68051E+003   -3.55772E+003
            1278    5.84050E+005    1.93507E+005   -4.63895E+005   -4.88091E+003   -4.63895E+005    6.57402E+005    9.17564E+004   -4.99337E+005   -9.08161E+004   -1.81202E+005   -3.25114E+003    3.21143E+005    5.05976E+004   -9.72818E+003
            1279    6.03097E+005    1.98825E+005   -4.80302E+005   -7.25949E+003   -4.80302E+005    6.79127E+005    9.62454E+004   -5.14429E+005   -7.87234E+004   -2.02672E+005   -7.34081E+003    3.30650E+005    4.42037E+004   -1.37925E+004
            1280    6.18914E+005    2.01778E+005   -4.96734E+005   -1.66531E+004   -4.96734E+005    6.98512E+005    1.03870E+005   -5.20954E+005   -6.81408E+004   -2.25633E+005   -1.78356E+004    3.37402E+005    4.20923E+004   -1.79085E+004
            1281    6.45234E+005    2.03952E+005   -5.23680E+005   -2.11525E+004   -5.23680E+005    7.27632E+005    1.13627E+005   -5.45777E+005   -6.35949E+004   -2.54780E+005   -2.25054E+004    3.48953E+005    3.59758E+004   -1.86588E+004
            1282    6.68327E+005    2.06723E+005   -5.47769E+005   -3.01048E+004   -5.47769E+005    7.54492E+005    1.23717E+005   -5.61556E+005   -5.88948E+004   -2.81064E+005   -3.11925E+004    3.59209E+005    2.85046E+004   -1.68251E+004
            1283    6.89617E+005    2.08543E+005   -5.69578E+005   -3.39973E+004   -5.69578E+005    7.78121E+005    1.31677E+005   -5.81333E+005   -5.71996E+004   -3.03291E+005   -3.45420E+004    3.68547E+005    1.82242E+004   -1.21678E+004
            1284    7.01623E+005    2.09031E+005   -5.82733E+005   -3.81689E+004   -5.82733E+005    7.91765E+005    1.37290E+005   -5.91005E+005   -5.70745E+004   -3.16569E+005   -3.82268E+004    3.73953E+005    6.31553E+003   -4.06931E+003
            1285    5.83266E+005    1.85227E+005   -4.67416E+005    2.92534E+003   -4.67416E+005    6.52644E+005    9.30879E+004   -5.13040E+005   -8.91510E+004   -1.96075E+005    5.96251E+003    3.15832E+005    5.74344E+004   -1.16202E+004
            1286    6.04120E+005    1.74889E+005   -5.00870E+005   -1.30820E+004   -5.00870E+005    6.75759E+005    1.13021E+005   -5.32104E+005   -1.06548E+005   -2.20623E+005   -1.18923E+004    3.28317E+005    5.23602E+004   -1.40256E+004
            1287    6.31589E+005    1.78140E+005   -5.28960E+005   -2.07745E+004   -5.28960E+005    7.07100E+005    1.23865E+005   -5.54252E+005   -9.88115E+004   -2.51961E+005   -2.08218E+004    3.41115E+005    4.96851E+004   -1.76948E+004
            1288    6.61164E+005    1.72366E+005   -5.68742E+005   -3.94216E+004   -5.68742E+005    7.41108E+005    1.45266E+005   -5.77101E+005   -1.08240E+005   -2.87340E+005   -4.02184E+004    3.56777E+005    4.23033E+004   -1.83775E+004
            1289    6.94490E+005    1.72763E+005   -6.05857E+005   -5.03252E+004   -6.05857E+005    7.78620E+005    1.61140E+005   -6.05636E+005   -1.08898E+005   -3.23028E+005   -5.14940E+004    3.72506E+005    3.42239E+004   -1.89839E+004
            1290    7.21959E+005    1.70047E+005   -6.39597E+005   -6.27767E+004   -6.39597E+005    8.09644E+005    1.77442E+005   -6.28779E+005   -1.15383E+005   -3.53618E+005   -6.33255E+004    3.86189E+005    2.17374E+004   -1.30971E+004
            1291    7.38886E+005    1.69758E+005   -6.58702E+005   -6.78536E+004   -6.58702E+005    8.28459E+005    1.85599E+005   -6.44119E+005   -1.17410E+005   -3.71428E+005   -6.79598E+004    3.94181E+005    7.92080E+003   -5.69404E+003
            1292    7.36059E+005    9.40039E+004   -7.25755E+005   -1.21507E+005   -7.25755E+005    8.19759E+005    2.51086E+005   -6.59271E+005   -2.32030E+005   -3.99644E+005   -1.21585E+005    4.01086E+005    9.84458E+003   -5.05677E+003
            1293    7.18240E+005    1.00242E+005   -6.98519E+005   -1.05864E+005   -6.98519E+005    7.98760E+005    2.34714E+005   -6.46517E+005   -2.21393E+005   -3.76151E+005   -1.06597E+005    3.90717E+005    2.78684E+004   -1.49062E+004
            1294    6.90398E+005    1.10797E+005   -6.56078E+005   -8.40234E+004   -6.56078E+005    7.66875E+005    2.09768E+005   -6.23915E+005   -2.05039E+005   -3.39449E+005   -8.48167E+004    3.75039E+005    4.09424E+004   -1.80625E+004
            1295    6.63319E+005    1.24181E+005   -6.10856E+005   -5.68383E+004   -6.10856E+005    7.35037E+005    1.81171E+005   -6.03889E+005   -1.86065E+005   -3.00279E+005   -5.71691E+004    3.59085E+005    5.05378E+004   -1.93529E+004
            1296    6.37765E+005    1.38010E+005   -5.69620E+005   -3.91994E+004   -5.69620E+005    7.07630E+005    1.56936E+005   -5.78365E+005   -1.69539E+005   -2.64016E+005   -3.72546E+004    3.45334E+005    5.60650E+004   -1.44329E+004
            1297    6.22754E+005    1.51065E+005   -5.38004E+005   -1.53936E+004   -5.38004E+005    6.89069E+005    1.34111E+005   -5.69388E+005   -1.54060E+005   -2.37558E+005   -1.07135E+004    3.35337E+005    5.95746E+004   -1.05581E+004
            1298    6.09349E+005    1.57711E+005   -5.17963E+005   -1.01135E+004   -5.17963E+005    6.75674E+005    1.23455E+005   -5.53665E+005   -1.49682E+005   -2.16946E+005   -3.73608E+003    3.29319E+005    5.83908E+004   -5.23907E+003
            1299    6.19902E+005    5.19848E+005    5.19848E+005    1.00106E+003   -1.66631E+005    6.86480E+005   -1.18073E+005    5.65441E+005    1.26557E+005    2.28670E+005   -1.00906E+003    3.36260E+005    4.13812E+004    8.21060E+003
            1300    6.06185E+005    4.90194E+005    4.90194E+005    3.84043E+003   -1.88937E+005    6.79131E+005   -1.01699E+005    5.30342E+005    1.08614E+005    1.95890E+005    5.94192E+002    3.30734E+005    5.86074E+004    9.80087E+003
            1301    5.75732E+005    4.39622E+005    4.39622E+005   -5.66117E+003   -2.10524E+005    6.50146E+005   -7.44792E+004    4.82872E+005    8.11544E+004    1.50348E+005   -8.06465E+003    3.17878E+005    5.54530E+004    7.79168E+003
            1302    5.48811E+005    3.97650E+005    3.97650E+005    8.57301E+002   -2.28661E+005    6.26311E+005   -5.66153E+004    4.18378E+005    5.95168E+004    1.13253E+005   -2.92377E+003    3.07854E+005    4.72807E+004   -2.80648E+003
            1303    5.56009E+005    3.97820E+005    3.97820E+005   -1.16378E+003   -2.37281E+005    6.35101E+005   -5.31249E+004    4.18627E+005    4.13008E+004    1.19849E+005   -1.77459E+003    3.12981E+005    3.56268E+004    4.38179E+003
            1304    5.63316E+005    4.00807E+005    4.00807E+005    5.57173E+003   -2.44211E+005    6.45018E+005   -5.40559E+004    4.07554E+005    2.72930E+004    1.29209E+005    5.66518E+003    3.17192E+005    2.78441E+004    5.98882E+003
            1305    5.68100E+005    3.99012E+005    3.99012E+005    4.07735E+003   -2.52061E+005    6.51073E+005   -5.03428E+004    4.03828E+005    1.41900E+004    1.32005E+005    4.83363E+003    3.19295E+005    2.25585E+004    9.87188E+003
            1306    5.75416E+005    4.03670E+005    4.03670E+005    5.81329E+003   -2.56112E+005    6.59782E+005   -5.11239E+004    4.04645E+005    7.45631E+003    1.39294E+005    6.62165E+003    3.22618E+005    1.83261E+004    1.09080E+004
            1307    5.82064E+005    4.06512E+005    4.06512E+005    4.40825E+003   -2.60944E+005    6.67456E+005   -4.99921E+004    4.08601E+005    1.24285E+003    1.43733E+005    5.00076E+003    3.25667E+005    1.33596E+004    1.00726E+004
            1308    5.86991E+005    4.10200E+005    4.10200E+005    4.67912E+003   -2.62904E+005    6.73104E+005   -5.06582E+004    4.12087E+005   -1.40449E+003    1.48441E+005    4.93757E+003    3.27950E+005    8.61382E+003    6.79819E+003
            1309    5.89340E+005    4.11130E+005    4.11130E+005    4.15072E+003   -2.64692E+005    6.75822E+005   -5.01964E+004    4.13398E+005   -3.21624E+003    1.49623E+005    4.18271E+003    3.29139E+005    2.68035E+003    2.54917E+003
            1310    5.69795E+005    4.28146E+005    4.28146E+005    5.85379E+002   -2.18716E+005    6.46862E+005   -7.00052E+004    4.59321E+005    5.23701E+004    1.58464E+005   -8.18837E+002    3.15750E+005    4.36759E+004    6.33502E+003
            1311    5.69533E+005    4.21818E+005    4.21818E+005    3.31690E+003   -2.26762E+005    6.48580E+005   -6.61241E+004    4.45355E+005    3.42607E+004    1.60532E+005    3.57975E+003    3.16051E+005    3.48591E+004    9.94244E+003
            1312    5.80756E+005    4.30384E+005    4.30384E+005    7.66899E+003   -2.31819E+005    6.62203E+005   -6.87449E+004    4.47513E+005    2.29715E+004    1.74497E+005    8.76639E+003    3.20640E+005    3.14368E+004    1.37799E+004
            1313    5.94802E+005    4.40283E+005    4.40283E+005    6.86900E+003   -2.37838E+005    6.78121E+005   -6.97714E+004    4.59128E+005    1.34344E+004    1.87748E+005    8.13163E+003    3.26527E+005    2.51736E+004    1.51619E+004
            1314    6.07927E+005    4.51294E+005    4.51294E+005    9.02029E+003   -2.41934E+005    6.93228E+005   -7.27935E+004    4.68085E+005    6.68616E+003    2.01822E+005    9.87246E+003    3.31899E+005    1.94745E+004    1.29176E+004
            1315    6.19147E+005    4.60094E+005    4.60094E+005    8.68555E+003   -2.45731E+005    7.05825E+005   -7.43492E+004    4.78343E+005    2.07532E+003    2.11901E+005    9.07100E+003    3.36673E+005    1.21844E+004    9.00038E+003
            1316    6.24559E+005    4.64492E+005    4.64492E+005    9.48764E+003   -2.47574E+005    7.12066E+005   -7.54686E+004    4.81943E+005   -2.64809E+002    2.17145E+005    9.52595E+003    3.39001E+005    4.05964E+003    2.84249E+003
            1317    6.06645E+005    4.82158E+005    4.82158E+005    4.54206E+003   -2.00419E+005    6.82577E+005   -9.54269E+004    5.19716E+005    8.80936E+004    1.95545E+005    2.64256E+003    3.33761E+005    4.35108E+004    6.32342E+003
            1318    6.11903E+005    4.84820E+005    4.84820E+005    1.60681E+004   -2.07409E+005    6.92229E+005   -9.78265E+004    5.07070E+005    6.98483E+004    2.07194E+005    1.64370E+004    3.36677E+005    4.00108E+004    1.31114E+004
            1319    6.25322E+005    4.94841E+005    4.94841E+005    1.48666E+004   -2.12314E+005    7.07155E+005   -9.91314E+004    5.19493E+005    5.57228E+004    2.25355E+005    1.63166E+004    3.41158E+005    3.59485E+004    1.80016E+004
            1320    6.44138E+005    5.13179E+005    5.13179E+005    1.95288E+004   -2.15462E+005    7.28640E+005   -1.05749E+005    5.34065E+005    4.82779E+004    2.47975E+005    2.09935E+004    3.48689E+005    3.19739E+004    1.84688E+004
            1321    6.64156E+005    5.30644E+005    5.30644E+005    2.17517E+004   -2.20668E+005    7.51312E+005   -1.10576E+005    5.50525E+005    4.12786E+004    2.67631E+005    2.28176E+004    3.57187E+005    2.45880E+004    1.62058E+004
            1322    6.79117E+005    5.44884E+005    5.44884E+005    2.54901E+004   -2.23609E+005    7.68492E+005   -1.15588E+005    5.61590E+005    3.76196E+004    2.83227E+005    2.59184E+004    3.63665E+005    1.60756E+004    1.05424E+004
            1323    6.87118E+005    5.51708E+005    5.51708E+005    2.67217E+004   -2.25978E+005    7.77685E+005   -1.17484E+005    5.67471E+005    3.49991E+004    2.90676E+005    2.67770E+004    3.67181E+005    5.19264E+003    3.81992E+003
            1324    5.71405E+005    4.61066E+005    4.61066E+005    7.81372E+003   -1.80802E+005    6.41868E+005   -9.60259E+004    4.93709E+005    9.57406E+004    1.84960E+005    7.37696E+003    3.12786E+005    5.38335E+004    1.47451E+004
            1325    5.98332E+005    4.90635E+005    4.90635E+005    3.19523E+003   -1.77116E+005    6.67751E+005   -1.05572E+005    5.31852E+005    9.72584E+004    2.15090E+005    4.36608E+003    3.25044E+005    4.62789E+004    1.96248E+004
            1326    6.20903E+005    5.17366E+005    5.17366E+005    1.88914E+004   -1.78148E+005    6.95514E+005   -1.19370E+005    5.43583E+005    9.25276E+004    2.45617E+005    1.99651E+004    3.35581E+005    4.70903E+004    2.01082E+004
            1327    6.54999E+005    5.54716E+005    5.54716E+005    3.01918E+004   -1.79435E+005    7.34151E+005   -1.35158E+005    5.71884E+005    9.34554E+004    2.80530E+005    3.14874E+004    3.52257E+005    4.12075E+004    2.03784E+004
            1328    6.83772E+005    5.87090E+005    5.87090E+005    4.38989E+004   -1.80744E+005    7.67834E+005   -1.50082E+005    5.91778E+005    9.23276E+004    3.12926E+005    4.49915E+004    3.66075E+005    3.25286E+004    1.81747E+004
            1329    7.09012E+005    6.13557E+005    6.13557E+005    5.08724E+004   -1.82797E+005    7.96355E+005   -1.60544E+005    6.12946E+005    9.19343E+004    3.38219E+005    5.14791E+004    3.77962E+005    2.10642E+004    1.34683E+004
            1330    7.23042E+005    6.28303E+005    6.28303E+005    5.49971E+004   -1.83972E+005    8.12276E+005   -1.66443E+005    6.24449E+005    9.13000E+004    3.52953E+005    5.50755E+004    3.84409E+005    7.20015E+003    4.88557E+003
            1331    7.44585E+005    7.28493E+005    7.28493E+005    1.19681E+005   -1.01668E+005    8.30161E+005   -2.48836E+005    6.64287E+005    2.22128E+005    4.04619E+005    1.19760E+005    4.04802E+005    9.52830E+003    5.07137E+003
            1332    7.26894E+005    7.03338E+005    7.03338E+005    1.06669E+005   -1.06234E+005    8.09572E+005   -2.34591E+005    6.51003E+005    2.13459E+005    3.83276E+005    1.07037E+005    3.94810E+005    2.62509E+004    1.22096E+004
            1333    6.99800E+005    6.62563E+005    6.62563E+005    8.44446E+004   -1.15428E+005    7.77991E+005   -2.10527E+005    6.30627E+005    1.98084E+005    3.48648E+005    8.48480E+004    3.79365E+005    3.93096E+004    1.62325E+004
            1334    6.68112E+005    6.15358E+005    6.15358E+005    6.16365E+004   -1.26711E+005    7.42069E+005   -1.83428E+005    6.03911E+005    1.79895E+005    3.09874E+005    6.05146E+004    3.61404E+005    4.91649E+004    1.43759E+004
            1335    6.41759E+005    5.70392E+005    5.70392E+005    3.36385E+004   -1.40450E+005    7.10842E+005   -1.54527E+005    5.84996E+005    1.60502E+005    2.72767E+005    3.03120E+004    3.45593E+005    5.47170E+004    1.15405E+004
            1336    6.11973E+005    5.27751E+005    5.27751E+005    1.48805E+004   -1.49676E+005    6.77427E+005   -1.30985E+005    5.58856E+005    1.44204E+005    2.41376E+005    7.37639E+003    3.28435E+005    5.60037E+004    3.32036E+003
            1337    6.16266E+005    5.18228E+005    5.18228E+005   -1.92771E+004   -1.54382E+005    6.72609E+005   -1.14856E+005    5.81528E+005    1.30423E+005    2.38395E+005   -2.42489E+004    3.28265E+005    3.75339E+004    7.76128E+002
            1338    7.38923E+005    1.69416E+005   -6.59041E+005   -6.80319E+004   -6.59041E+005    8.28457E+005    1.85885E+005   -6.44307E+005   -1.17873E+005   -3.71641E+005   -6.81418E+004    3.94215E+005   -8.14971E+003    5.79903E+003
            1339    7.01789E+005    2.08740E+005   -5.83177E+005   -3.83646E+004   -5.83177E+005    7.91917E+005    1.37600E+005   -5.91302E+005   -5.75072E+004   -3.16864E+005   -3.84302E+004    3.74050E+005   -6.67478E+003    4.32559E+003
            1340    6.63635E+005    2.33763E+005   -5.19438E+005   -2.06584E+004   -5.19438E+005    7.53201E+005    1.02111E+005   -5.36164E+005   -2.02478E+004   -2.65369E+005   -2.07165E+004    3.56053E+005   -5.09995E+003    3.78217E+003
            1341    6.20763E+005    2.51332E+005   -4.57304E+005   -9.59058E+003   -4.57304E+005    7.08636E+005    7.18541E+004   -4.71335E+005   -1.17000E+003   -2.04757E+005   -9.63580E+003    3.39347E+005   -4.26900E+003    3.02384E+003
            1342    5.83382E+005    2.62630E+005   -4.06462E+005   -4.30348E+003   -4.06462E+005    6.69092E+005    4.93786E+004   -4.07758E+005    3.56995E+003   -1.47368E+005   -4.33789E+003    3.25902E+005   -3.07057E+003    2.49515E+003
            1343    5.63894E+005    2.83392E+005   -3.66076E+005   -1.10305E+003   -3.66076E+005    6.49469E+005    2.79290E+004   -3.36564E+005    6.49912E+003   -8.91561E+004   -1.12987E+003    3.21179E+005   -1.98691E+003    2.41900E+003
            1344    5.43401E+005    2.96798E+005   -3.30398E+005   -8.68286E+002   -3.30398E+005    6.27195E+005    1.14894E+004   -2.41569E+005    7.14867E+002   -3.43072E+004   -8.75907E+002    3.13103E+005   -6.73530E+002    1.79622E+003
            1345    5.50185E+005    3.30104E+005    3.30104E+005    5.36757E+002   -3.05043E+005    6.35147E+005   -8.53245E+003    2.21617E+005   -3.41193E+002    2.53963E+004    5.42226E+002    3.17305E+005    4.01439E+002    2.16133E+003
            1346    5.53978E+005    3.56168E+005    3.56168E+005    5.20393E+001   -2.82082E+005    6.38251E+005   -2.47127E+004    3.23497E+005   -7.63457E+003    8.17025E+004    7.00511E+001    3.15975E+005    1.68712E+003    1.88953E+003
            1347    7.21724E+005    1.69613E+005   -6.39711E+005   -6.29118E+004   -6.39711E+005    8.09324E+005    1.77670E+005   -6.28773E+005   -1.16047E+005   -3.53483E+005   -6.34796E+004    3.86120E+005   -2.21125E+004    1.33162E+004
            1348    6.89411E+005    2.07978E+005   -5.69851E+005   -3.42274E+004   -5.69851E+005    7.77829E+005    1.32033E+005   -5.81427E+005   -5.79998E+004   -3.03304E+005   -3.47965E+004    3.68495E+005   -1.87342E+004    1.24396E+004
            1349    6.52383E+005    2.32758E+005   -5.08010E+005   -1.90883E+004   -5.08010E+005    7.40768E+005    9.81132E+004   -5.24981E+005   -2.12601E+004   -2.53567E+005   -1.95131E+004    3.51292E+005   -1.53965E+004    9.98440E+003
            1350    6.13469E+005    2.50323E+005   -4.50121E+005   -8.36761E+003   -4.50121E+005    7.00444E+005    6.93887E+004   -4.64584E+005   -3.21954E+003   -1.96216E+005   -8.73053E+003    3.36390E+005   -1.21584E+004    8.41367E+003
            1351    5.77515E+005    2.62041E+005   -4.00584E+005   -4.31034E+003   -4.00584E+005    6.62625E+005    4.76175E+004   -3.99795E+005    2.27195E+003   -1.40513E+005   -4.61175E+003    3.23351E+005   -9.04156E+003    7.28056E+003
            1352    5.59834E+005    2.83244E+005   -3.61667E+005   -7.06640E+002   -3.61667E+005    6.44910E+005    2.63766E+004   -3.30118E+005    5.48803E+003   -8.37409E+004   -8.76845E+002    3.19268E+005   -5.29199E+003    5.78693E+003
            1353    5.40505E+005    2.96504E+005   -3.27401E+005   -1.22321E+003   -3.27401E+005    6.23905E+005    1.07065E+004   -2.31805E+005    8.36780E+001   -3.09049E+004   -1.29832E+003    3.11511E+005   -2.09403E+003    5.65632E+003
            1354    5.48192E+005    3.30439E+005    3.30439E+005    9.44477E+002   -3.02378E+005    6.32817E+005   -9.66850E+003    2.27591E+005   -6.52871E+001    2.80719E+004    9.98860E+002    3.16051E+005    1.71579E+003    5.05987E+003
            1355    5.51792E+005    3.55415E+005    3.55415E+005   -1.65097E+002   -2.80246E+005    6.35661E+005   -2.50015E+004    3.24805E+005   -7.07879E+003    8.20761E+004    7.05162E+000    3.14602E+005    4.97783E+003    6.04128E+003
            1356    6.93615E+005    1.72568E+005   -6.05048E+005   -5.01436E+004   -6.05048E+005    7.77615E+005    1.60875E+005   -6.04958E+005   -1.09211E+005   -3.22104E+005   -5.13088E+004    3.72117E+005   -3.46465E+004    1.90206E+004
            1357    6.66938E+005    2.06600E+005   -5.46311E+005   -2.96754E+004   -5.46311E+005    7.52911E+005    1.23129E+005   -5.60451E+005   -5.90243E+004   -2.79573E+005   -3.07882E+004    3.58586E+005   -2.89951E+004    1.69997E+004
            1358    6.34312E+005    2.30538E+005   -4.89819E+005   -1.48972E+004   -4.89819E+005    7.20357E+005    9.13927E+004   -5.09753E+005   -2.40693E+004   -2.34280E+005   -1.58292E+004    3.43570E+005   -2.32893E+004    1.43107E+004
            1359    6.00356E+005    2.48718E+005   -4.37340E+005   -8.16561E+003   -4.37340E+005    6.86058E+005    6.55960E+004   -4.49119E+005   -6.81034E+003   -1.81009E+005   -8.96821E+003    3.31148E+005   -1.86753E+004    1.19890E+004
            1360    5.67870E+005    2.61250E+005   -3.90606E+005   -3.12050E+003   -3.90606E+005    6.51856E+005    4.41586E+004   -3.88460E+005    3.44067E+001   -1.28807E+005   -3.70308E+003    3.19128E+005   -1.34277E+004    9.56032E+003
            1361    5.52869E+005    2.82280E+005   -3.54853E+005   -1.49194E+003   -3.54853E+005    6.37132E+005    2.46883E+004   -3.16611E+005    3.27873E+003   -7.54636E+004   -1.88000E+003    3.15927E+005   -8.13275E+003    8.44978E+003
            1362    5.35502E+005    2.96565E+005   -3.21624E+005   -5.16383E+002   -3.21624E+005    6.18189E+005    8.52511E+003   -2.17772E+005   -3.87417E+002   -2.45581E+004   -6.29831E+002    3.08770E+005   -2.52331E+003    7.03549E+003
            1363    5.44478E+005    3.29575E+005    3.29575E+005    4.01006E+002   -2.98897E+005    6.28472E+005   -1.03595E+004    2.36761E+005    1.09547E+001    3.05324E+004    5.35016E+002    3.13764E+005    2.81779E+003    7.58459E+003
            1364    5.47151E+005    3.53678E+005    3.53678E+005    8.17345E+002   -2.76615E+005    6.30293E+005   -2.59602E+004    3.22869E+005   -5.38181E+003    8.20673E+004    1.19496E+003    3.11903E+005    8.53302E+003    7.97442E+003
            1365    6.59866E+005    1.72512E+005   -5.67085E+005   -3.86355E+004   -5.67085E+005    7.39597E+005    1.44403E+005   -5.76166E+005   -1.08005E+005   -2.85790E+005   -3.94128E+004    3.56104E+005   -4.27024E+004    1.83936E+004
            1366    6.42833E+005    2.04323E+005   -5.20702E+005   -2.03933E+004   -5.20702E+005    7.25026E+005    1.12258E+005   -5.43291E+005   -6.30891E+004   -2.51945E+005   -2.17390E+004    3.47877E+005   -3.63185E+004    1.85890E+004
            1367    6.11604E+005    2.27692E+005   -4.67480E+005   -1.21402E+004   -4.67480E+005    6.95172E+005    8.39763E+004   -4.87580E+005   -2.87483E+004   -2.09752E+005   -1.34285E+004    3.34061E+005   -3.01362E+004    1.60569E+004
            1368    5.85515E+005    2.46284E+005   -4.22977E+005   -5.30841E+003   -4.22977E+005    6.69261E+005    6.06670E+004   -4.36405E+005   -1.29141E+004   -1.62783E+005   -6.30368E+003    3.25178E+005   -2.33555E+004    1.25846E+004
            1369    5.56320E+005    2.59563E+005   -3.79530E+005   -3.75020E+003   -3.79530E+005    6.39093E+005    4.12389E+004   -3.72050E+005   -4.09794E+003   -1.15065E+005   -4.55388E+003    3.14129E+005   -1.70437E+004    1.04267E+004
            1370    5.44616E+005    2.81676E+005   -3.46113E+005   -3.30284E+002   -3.46113E+005    6.27789E+005    2.15892E+004   -3.04543E+005    7.17412E+002   -6.47299E+004   -7.55183E+002    3.11957E+005   -9.70034E+003    7.82763E+003
            1371    5.29464E+005    2.95401E+005   -3.15892E+005   -1.69109E+003   -3.15892E+005    6.11292E+005    7.39407E+003   -1.93024E+005   -1.69197E+003   -1.86621E+004   -1.82811E+003    3.05423E+005   -2.78386E+003    7.59392E+003
            1372    5.39611E+005    3.29743E+005    3.29743E+005    1.70055E+003   -2.93050E+005    6.22793E+005   -1.27981E+004    2.43978E+005    1.65315E+003    3.48353E+004    1.90587E+003    3.10845E+005    4.71292E+003    7.02156E+003
            1373    5.41734E+005    3.50899E+005    3.50899E+005   -1.36981E+002   -2.73012E+005    6.23911E+005   -2.59168E+004    3.24497E+005   -2.87557E+003    8.02080E+004    4.17960E+002    3.08869E+005    1.14806E+004    8.94445E+003
            1374    6.29980E+005    1.78589E+005   -5.26769E+005   -2.00522E+004   -5.26769E+005    7.05358E+005    1.22744E+005   -5.52639E+005   -9.81728E+004   -2.49961E+005   -2.00989E+004    3.40336E+005   -4.98753E+004    1.77019E+004
            1375    6.16307E+005    2.02559E+005   -4.93177E+005   -1.57019E+004   -4.93177E+005    6.95736E+005    1.02106E+005   -5.17984E+005   -6.71859E+004   -2.22284E+005   -1.68497E+004    3.36245E+005   -4.21130E+004    1.76543E+004
            1376    5.91496E+005    2.25015E+005   -4.47269E+005   -6.75883E+003   -4.47269E+005    6.72284E+005    7.63377E+004   -4.71766E+005   -3.51913E+004   -1.86107E+005   -7.71459E+003    3.25572E+005   -3.46608E+004    1.40690E+004
            1377    5.70383E+005    2.43560E+005   -4.09000E+005   -5.51405E+003   -4.09000E+005    6.52560E+005    5.69845E+004   -4.18910E+005   -2.00725E+004   -1.44457E+005   -6.42417E+003    3.19013E+005   -2.76384E+004    1.12718E+004
            1378    5.45631E+005    2.58490E+005   -3.68526E+005   -1.62133E+003   -3.68526E+005    6.27016E+005    3.72192E+004   -3.61092E+005   -8.75198E+003   -1.00750E+005   -2.15561E+003    3.09460E+005   -1.94836E+004    7.36428E+003
            1379    5.36221E+005    2.79571E+005   -3.38772E+005   -1.80977E+003   -3.38772E+005    6.18343E+005    2.03368E+004   -2.87994E+005   -3.17215E+003   -5.56689E+004   -2.16939E+003    3.07811E+005   -1.11729E+004    5.93434E+003
            1380    5.23590E+005    2.95760E+005   -3.08781E+005    1.11718E+002   -3.08781E+005    6.04541E+005    4.30294E+003   -1.75927E+005   -1.66666E+003   -1.12942E+004    5.20999E+001    3.02194E+005   -2.10063E+003    4.35356E+003
            1381    5.33881E+005    3.27746E+005    3.27746E+005   -1.08555E+002   -2.88301E+005    6.16047E+005   -1.31121E+004    2.56755E+005    2.85615E+003    3.63641E+004    1.16078E+002    3.07453E+005    6.53416E+003    5.69025E+003
            1382    5.36600E+005    3.50842E+005    3.50842E+005    1.46964E+003   -2.67007E+005    6.17849E+005   -2.84348E+004    3.26090E+005    2.48520E+003    8.09050E+004    1.91413E+003    3.05995E+005    1.55334E+004    6.39483E+003
            1383    6.03012E+005    1.75409E+005   -4.99195E+005   -1.25432E+004   -4.99195E+005    6.74605E+005    1.12110E+005   -5.30852E+005   -1.05973E+005   -2.19045E+005   -1.13109E+004    3.27809E+005   -5.23523E+004    1.38462E+004
            1384    6.01248E+005    1.99711E+005   -4.77573E+005   -6.78096E+003   -4.77573E+005    6.77284E+005    9.48807E+004   -5.11831E+005   -7.77948E+004   -2.00035E+005   -6.81265E+003    3.29883E+005   -4.40825E+004    1.34582E+004
            1385    5.74623E+005    2.21490E+005   -4.31982E+005   -5.63696E+003   -4.31982E+005    6.53472E+005    7.20432E+004   -4.55837E+005   -4.46871E+004   -1.65551E+005   -5.89139E+003    3.18629E+005   -3.85691E+004    1.08520E+004
            1386    5.59985E+005    2.40145E+005   -4.00225E+005   -2.40447E+003   -4.00225E+005    6.40370E+005    5.41616E+004   -4.14400E+005   -3.05499E+004   -1.29501E+005   -2.43368E+003    3.14815E+005   -3.03999E+004    6.34142E+003
            1387    5.37379E+005    2.55592E+005   -3.62179E+005   -2.83613E+003   -3.62179E+005    6.17771E+005    3.64745E+004   -3.50880E+005   -1.61434E+004   -9.04140E+004   -2.86613E+003    3.05820E+005   -2.22538E+004    3.40130E+003
            1388    5.29110E+005    2.78359E+005   -3.31801E+005    4.05489E+002   -3.31801E+005    6.10161E+005    1.76788E+004   -2.83157E+005   -6.74288E+003   -4.67278E+004    4.34231E+002    3.04178E+005   -1.21944E+004    5.87944E+002
            1389    5.18133E+005    2.94172E+005   -3.04108E+005   -2.18644E+003   -3.04108E+005    5.98280E+005    4.04064E+003   -1.30842E+005   -2.83484E+003   -7.10005E+003   -2.18703E+003    2.99128E+005   -1.57142E+003    6.96275E+001
            1390    5.28623E+005    3.28345E+005    3.28345E+005    2.48155E+003   -2.81579E+005    6.09924E+005   -1.64158E+004    2.59554E+005    7.49761E+003    3.92927E+004    2.45713E+003    3.04408E+005    9.18096E+003    1.51228E+002
            1391    5.31442E+005    3.48934E+005    3.48934E+005   -1.12273E+003   -2.62587E+005    6.11521E+005   -2.84079E+004    3.33773E+005    8.65167E+003    7.75208E+004   -9.48813E+002    3.03192E+005    1.92592E+004    3.86781E+003
            1392    5.82604E+005    1.85493E+005   -4.66547E+005    2.85866E+003   -4.66547E+005    6.52040E+005    9.27316E+004   -5.11996E+005   -8.90212E+004   -1.95076E+005    5.90256E+003    3.15575E+005   -5.75551E+004    1.15673E+004
            1393    5.82900E+005    1.94305E+005   -4.61987E+005   -4.48440E+003   -4.61987E+005    6.56292E+005    9.07219E+004   -4.97584E+005   -8.98719E+004   -1.79509E+005   -2.78518E+003    3.20656E+005   -5.04086E+004    9.37029E+003
            1394    5.69910E+005    2.18041E+005   -4.28284E+005    2.09571E+003   -4.28284E+005    6.46324E+005    6.93824E+004   -4.63448E+005   -5.85839E+004   -1.53393E+005    3.83005E+003    3.16391E+005   -4.32499E+004    4.93568E+003
            1395    5.52838E+005    2.34422E+005   -3.97142E+005   -8.88304E+002   -3.97142E+005    6.31564E+005    5.45360E+004   -4.15437E+005   -4.38454E+004   -1.20133E+005    3.71025E+002    3.11079E+005   -3.72254E+004    2.16007E+003
            1396    5.32181E+005    2.53425E+005   -3.58018E+005    8.04424E+002   -3.58018E+005    6.11443E+005    3.45963E+004   -3.54416E+005   -2.51346E+004   -8.05198E+004    1.86545E+003    3.03193E+005   -2.66533E+004   -2.31318E+003
            1397    5.22101E+005    2.74735E+005   -3.27503E+005   -2.48511E+003   -3.27503E+005    6.02238E+005    1.84176E+004   -2.69110E+005   -1.24726E+004   -4.10174E+004   -1.76295E+003    3.00339E+005   -1.42932E+004   -6.58759E+003
            1398    5.14472E+005    2.94969E+005   -2.99082E+005    8.95361E+002   -2.99082E+005    5.94051E+005    1.07264E+003   -1.32836E+005   -1.76069E+003   -2.39109E+003    9.33859E+002    2.96900E+005   -6.25702E+002   -8.60074E+003
            1399    5.22392E+005    3.25922E+005    3.25922E+005   -2.14275E+002   -2.76599E+005    6.02522E+005   -1.63696E+004    2.72809E+005    1.20007E+004    3.79102E+004   -8.01977E+002    3.00628E+005    1.27178E+004   -6.04555E+003
            1400    5.28779E+005    3.52144E+005    3.52144E+005    1.50594E+003   -2.56068E+005    6.08212E+005   -3.25273E+004    3.38043E+005    2.02201E+004    7.68612E+004    5.00582E+002    3.01634E+005    2.53025E+004   -2.72988E+003
            1401    5.30019E+005    3.59638E+005    3.59638E+005   -2.38891E+002   -2.49004E+005    6.08642E+005   -3.67983E+004    3.58653E+005    3.84851E+004    7.54255E+004   -3.51561E+003    3.01330E+005    3.45466E+004   -9.33005E+003
            1402    5.14844E+005    3.24369E+005    3.24369E+005    3.89269E+003   -2.69500E+005    5.93868E+005   -1.95871E+004    2.65277E+005    1.89405E+004    3.82294E+004    1.59157E+003    2.95625E+005    1.84898E+004   -1.68236E+004
            1403    5.10445E+005    2.94570E+005   -2.94839E+005   -1.74130E+003   -2.94839E+005    5.89409E+005    6.70268E+002    1.07887E+005   -4.24939E+002    1.46013E+002   -1.73188E+003    2.94118E+005   -1.16186E+002   -1.85712E+004
            1404    5.15962E+005    2.69294E+005   -3.25651E+005   -8.42587E+002   -3.25651E+005    5.94945E+005    1.90664E+004   -2.79139E+005   -2.00471E+004   -3.85898E+004    1.43778E+003    2.96184E+005   -1.85224E+004   -1.64289E+004
            1405    5.29851E+005    2.48304E+005   -3.60440E+005   -3.01882E+003   -3.60440E+005    6.08745E+005    3.83849E+004   -3.53254E+005   -3.99916E+004   -7.57917E+004    6.28712E+002    3.01329E+005   -3.46131E+004   -1.10120E+004
            1406    5.49915E+005    2.29604E+005   -3.97316E+005    3.52359E+003   -3.97316E+005    6.26920E+005    5.47295E+004   -4.24701E+005   -6.01406E+004   -1.11211E+005    7.16297E+003    3.08352E+005   -4.68044E+004   -2.34743E+003
            1407    5.73105E+005    2.09914E+005   -4.38096E+005    2.14890E+003   -4.38096E+005    6.48010E+005    7.53444E+004   -4.76594E+005   -8.29510E+004   -1.49318E+005    6.23582E+003    3.17008E+005   -5.37679E+004    2.35643E+003
            1408    5.89801E+005    1.89926E+005   -4.70388E+005    4.18088E+003   -4.70388E+005    6.60313E+005    9.20937E+004   -5.17589E+005   -1.02639E+005   -1.82177E+005    8.53484E+003    3.22679E+005   -5.14068E+004    3.83974E+003
            1409    5.99974E+005    1.68425E+005   -4.97357E+005    1.42328E+003   -4.97357E+005    6.65782E+005    1.09170E+005   -5.43882E+005   -1.33088E+005   -2.03788E+005    9.36675E+003    3.25242E+005   -4.90300E+004   -3.93856E+003
            1410    7.36281E+005    9.40099E+004   -7.25982E+005   -1.21515E+005   -7.25982E+005    8.19992E+005    2.51163E+005   -6.59509E+005   -2.32046E+005   -3.99845E+005   -1.21597E+005    4.01187E+005   -9.80899E+003    5.11616E+003
            1411    7.18229E+005    1.00125E+005   -6.98623E+005   -1.05977E+005   -6.98623E+005    7.98748E+005    2.34825E+005   -6.46508E+005   -2.21686E+005   -3.76068E+005   -1.06721E+005    3.90741E+005   -2.79506E+004    1.49901E+004
            1412    6.90048E+005    1.10676E+005   -6.55797E+005   -8.39981E+004   -6.55797E+005    7.66473E+005    2.09706E+005   -6.23634E+005   -2.05283E+005   -3.39031E+005   -8.48047E+004    3.74871E+005   -4.11338E+004    1.81547E+004
            1413    6.62668E+005    1.24566E+005   -6.09837E+005   -5.65754E+004   -6.09837E+005    7.34403E+005    1.80615E+005   -6.03085E+005   -1.85744E+005   -2.99258E+005   -5.68436E+004    3.58748E+005   -5.09369E+004    1.92534E+004
            1414    6.36693E+005    1.38481E+005   -5.67961E+005   -3.84387E+004   -5.67961E+005    7.06442E+005    1.55973E+005   -5.77387E+005   -1.68959E+005   -2.62586E+005   -3.63740E+004    3.44689E+005   -5.64906E+004    1.43054E+004
            1415    6.21759E+005    1.51661E+005   -5.36345E+005   -1.46643E+004   -5.36345E+005    6.88006E+005    1.33116E+005   -5.68387E+005   -1.53288E+005   -2.36201E+005   -9.85893E+003    3.34803E+005   -5.95792E+004    1.02758E+004
            1416    6.09515E+005    1.57526E+005   -5.18295E+005   -1.02162E+004   -5.18295E+005    6.75821E+005    1.23662E+005   -5.53907E+005   -1.50544E+005   -2.16577E+005   -3.86399E+003    3.29453E+005   -5.84401E+004    5.27610E+003
            1417    7.64065E+005    6.21160E+005    6.21160E+005    4.80561E+004   -2.46305E+005    8.67465E+005   -1.40971E+005    6.15578E+005    9.44879E+004    2.80311E+005    4.81125E+004    4.23569E+005   -8.62732E+003   -3.75766E+003
            1418    7.29220E+005    5.47164E+005    5.47164E+005    2.22622E+004   -2.85480E+005    8.32644E+005   -9.46489E+004    5.51890E+005    3.36237E+004    2.28010E+005    2.23134E+004    4.04758E+005   -6.61883E+003   -3.24685E+003
            1419    7.01306E+005    4.96463E+005    4.96463E+005    1.15649E+004   -3.07666E+005    8.04129E+005   -6.67873E+004    4.93169E+005    1.06985E+004    1.78066E+005    1.15974E+004    3.93225E+005   -4.92870E+003   -2.33715E+003
            1420    6.60516E+005    4.37825E+005    4.37825E+005    3.73112E+003   -3.22318E+005    7.60143E+005   -3.97460E+004    4.12278E+005   -3.82325E+003    1.19303E+005    3.75852E+003    3.75035E+005   -3.22188E+003   -2.08732E+003
            1421    7.52342E+005    6.09073E+005    6.09073E+005    4.45362E+004   -2.45028E+005    8.54100E+005   -1.36194E+005    6.06470E+005    9.37936E+004    2.69746E+005    4.50415E+004    4.17096E+005   -2.47464E+004   -1.09538E+004
            1422    7.20162E+005    5.39772E+005    5.39772E+005    2.10916E+004   -2.82473E+005    8.22245E+005   -9.27967E+004    5.45553E+005    3.58599E+004    2.21052E+005    2.14780E+004    4.00056E+005   -1.91307E+004   -8.82262E+003
            1423    6.96576E+005    4.93003E+005    4.93003E+005    1.09314E+004   -3.05638E+005    7.98641E+005   -6.60989E+004    4.90751E+005    1.25787E+004    1.74485E+005    1.12331E+004    3.90750E+005   -1.38419E+004   -7.15553E+003
            1424    6.56530E+005    4.35427E+005    4.35427E+005    4.04569E+003   -3.20137E+005    7.55564E+005   -3.97787E+004    4.09548E+005   -2.27575E+003    1.17358E+005    4.25344E+003    3.72863E+005   -9.81756E+003   -5.43170E+003
            1425    7.30614E+005    5.87488E+005    5.87488E+005    3.87762E+004   -2.41830E+005    8.29318E+005   -1.28145E+005    5.89670E+005    9.33868E+004    2.51454E+005    3.95937E+004    4.05065E+005   -3.89361E+004   -1.45387E+004
            1426    7.04815E+005    5.26236E+005    5.26236E+005    1.71940E+004   -2.78213E+005    8.04449E+005   -8.84056E+004    5.36375E+005    3.96595E+004    2.07379E+005    1.81783E+004    3.92103E+005   -3.03876E+004   -1.37207E+004
            1427    6.86387E+005    4.85868E+005    4.85868E+005    1.09951E+004   -3.01113E+005    7.86981E+005   -6.52503E+004    4.83272E+005    1.66728E+004    1.67410E+005    1.16677E+004    3.85480E+005   -2.25312E+004   -1.03253E+004
            1428    6.49881E+005    4.31123E+005    4.31123E+005    3.37112E+003   -3.16716E+005    7.47839E+005   -3.92596E+004    4.07331E+005    9.47227E+002    1.12968E+005    3.86378E+003    3.69316E+005   -1.56332E+004   -8.13631E+003
            1429    7.05770E+005    5.60313E+005    5.60313E+005    2.79710E+004   -2.40246E+005    8.00559E+005   -1.16013E+005    5.73001E+005    9.10041E+004    2.28170E+005    2.88648E+004    3.91107E+005   -4.90752E+004   -1.62625E+004
            1430    6.82457E+005    5.06996E+005    5.06996E+005    1.47312E+004   -2.72057E+005    7.79053E+005   -8.32234E+004    5.18274E+005    4.47539E+004    1.88741E+005    1.61748E+004    3.80604E+005   -3.97363E+004   -1.60022E+004
            1431    6.74629E+005    4.76673E+005    4.76673E+005    9.30920E+003   -2.96733E+005    7.73407E+005   -6.30830E+004    4.76269E+005    2.20739E+004    1.56925E+005    1.02505E+004    3.79556E+005   -2.94379E+004   -1.17928E+004
            1432    6.40252E+005    4.25753E+005    4.25753E+005    4.01365E+003   -3.10973E+005    7.36725E+005   -3.95979E+004    4.02139E+005    5.74280E+003    1.08360E+005    4.69067E+003    3.64043E+005   -2.21542E+004   -8.73815E+003
            1433    6.78154E+005    5.32173E+005    5.32173E+005    1.99448E+004   -2.36883E+005    7.69056E+005   -1.05078E+005    5.51626E+005    9.12721E+004    2.03751E+005    2.02114E+004    3.76038E+005   -5.57543E+004   -1.48153E+004
            1434    6.63195E+005    4.89025E+005    4.89025E+005    9.28955E+003   -2.67774E+005    7.56799E+005   -7.68469E+004    5.05993E+005    5.11016E+004    1.68637E+005    1.08026E+004    3.70880E+005   -4.55795E+004   -1.59645E+004
            1435    6.60758E+005    4.67755E+005    4.67755E+005    9.95140E+003   -2.89742E+005    7.57497E+005   -6.26546E+004    4.66575E+005    3.07128E+004    1.46515E+005    1.07358E+004    3.72445E+005   -3.64616E+004   -1.06964E+004
            1436    6.31112E+005    4.20266E+005    4.20266E+005    2.38118E+003   -3.05717E+005    7.25983E+005   -3.89770E+004    4.01930E+005    1.23078E+004    1.01612E+005    3.01117E+003    3.59165E+005   -2.72184E+004   -7.91660E+003
            1437    6.65103E+005    5.14711E+005    5.14711E+005    1.00150E+004   -2.38959E+005    7.53670E+005   -9.52554E+004    5.44373E+005    8.93716E+004    1.86571E+005    9.82320E+003    3.69217E+005   -5.58951E+004   -1.31272E+004
            1438    6.42764E+005    4.72298E+005    4.72298E+005    8.61365E+003   -2.61434E+005    7.33732E+005   -7.31590E+004    4.88217E+005    5.98709E+004    1.50377E+005    9.22967E+003    3.59918E+005   -5.38356E+004   -1.27614E+004
            1439    6.51307E+005    4.61794E+005    4.61794E+005    5.41323E+003   -2.84072E+005    7.45866E+005   -6.10451E+004    4.70073E+005    4.13137E+004    1.36378E+005    5.44369E+003    3.67378E+005   -4.23731E+004   -7.74939E+003
            1440    6.22130E+005    4.17284E+005    4.17284E+005    2.05565E+003   -2.98006E+005    7.15291E+005   -4.04444E+004    4.04325E+005    2.13815E+004    9.78298E+004    2.12200E+003    3.53823E+005   -3.51616E+004   -5.10799E+003
            1441    6.61866E+005    5.13258E+005    5.13258E+005    2.04369E+004   -2.39030E+005    7.52288E+005   -9.82214E+004    5.27743E+005    1.00973E+005    1.75916E+005    1.77752E+004    3.69120E+005   -5.90781E+004   -4.93649E+003
            1442    6.37559E+005    4.68258E+005    4.68258E+005    1.65403E+003   -2.58189E+005    7.26447E+005   -7.05744E+004    4.95489E+005    6.83046E+004    1.43717E+005   -2.98366E+002    3.56540E+005   -5.61586E+004   -5.50251E+003
            1443    6.44559E+005    4.63479E+005    4.63479E+005    5.00363E+003   -2.73505E+005    7.36984E+005   -6.49928E+004    4.78034E+005    5.80268E+004    1.33225E+005    3.72648E+003    3.62443E+005   -5.35041E+004   -5.40208E+003
            1444    6.15770E+005    4.15246E+005    4.15246E+005   -1.82235E+003   -2.92000E+005    7.07246E+005   -4.04747E+004    4.14371E+005    3.21483E+004    9.17233E+004   -2.44752E+003    3.49634E+005   -4.32098E+004   -3.32939E+003
            1445    6.15375E+005    4.24126E+005    4.24126E+005    4.27935E+002   -2.81733E+005    7.05859E+005   -4.76068E+004    4.29046E+005    5.38957E+004    9.17237E+004   -2.79895E+003    3.47403E+005   -5.72079E+004    1.87987E+003
            1446    6.30513E+005    4.52692E+005    4.52692E+005   -6.36630E+003   -2.66220E+005    7.18912E+005   -6.00352E+004    4.86065E+005    7.25669E+004    1.16021E+005   -8.48246E+003    3.51957E+005   -6.78405E+004   -6.81070E+003
            1447    6.55719E+005    4.96739E+005    4.96739E+005    2.80777E+003   -2.47209E+005    7.43948E+005   -8.41127E+004    5.31397E+005    9.62526E+004    1.56020E+005    6.54622E+001    3.62910E+005   -7.30571E+004   -9.51011E+003
            1448    6.65588E+005    5.20093E+005    5.20093E+005   -1.02782E+003   -2.29684E+005    7.49776E+005   -9.64604E+004    5.66537E+005    1.15160E+005    1.76951E+005   -2.72973E+003    3.68661E+005   -5.77328E+004   -9.57920E+003
            1449    7.37285E+005    6.65174E+005    6.65174E+005    9.46433E+004   -1.67322E+005    8.32496E+005   -1.97498E+005    6.18767E+005    1.89116E+005    3.08684E+005    9.46955E+004    4.11770E+005   -1.12266E+004   -3.91817E+003
            1450    7.22899E+005    6.44834E+005    6.44834E+005    8.40895E+004   -1.71034E+005    8.15869E+005   -1.85963E+005    6.08486E+005    1.82083E+005    2.91430E+005    8.43762E+004    4.02878E+005   -3.23784E+004   -1.02897E+004
            1451    7.01506E+005    6.12862E+005    6.12862E+005    6.66289E+004   -1.78263E+005    7.91124E+005   -1.67076E+005    5.93217E+005    1.70656E+005    2.63726E+005    6.68457E+004    3.89512E+005   -4.92799E+004   -1.37190E+004
            1452    6.76981E+005    5.75561E+005    5.75561E+005    4.80134E+004   -1.87785E+005    7.63346E+005   -1.45263E+005    5.73016E+005    1.55972E+005    2.32785E+005    4.70334E+004    3.74191E+005   -6.21472E+004   -1.32195E+004
            1453    6.56423E+005    5.39842E+005    5.39842E+005    2.50138E+004   -1.99345E+005    7.39187E+005   -1.21837E+005    5.59864E+005    1.41126E+005    2.02061E+005    2.23247E+004    3.60862E+005   -7.01223E+004   -1.16881E+004
            1454    6.27425E+005    5.01779E+005    5.01779E+005    9.53591E+003   -2.04706E+005    7.06485E+005   -1.02203E+005    5.35332E+005    1.28359E+005    1.73686E+005    4.56402E+003    3.43946E+005   -7.21325E+004   -7.44641E+003
            1455    6.21759E+005    4.88051E+005    4.88051E+005   -1.75435E+004   -2.06181E+005    6.94232E+005   -8.81090E+004    5.51648E+005    1.21904E+005    1.62539E+005   -2.01162E+004    3.41470E+005   -5.46964E+004   -8.38390E+003
            1456    5.98801E+005    3.90315E+005    3.90315E+005   -9.24510E+002   -2.99026E+005    6.89342E+005   -3.01214E+004    3.67639E+005    3.41213E+004    5.99734E+004   -3.73051E+003    3.41609E+005   -4.17351E+004    7.48488E+003
            1457    5.89045E+005    3.64049E+005    3.64049E+005    3.44162E+003   -3.15700E+005    6.79749E+005   -1.72635E+004    2.78261E+005    1.79689E+004    3.23750E+004    1.44663E+003    3.38704E+005   -2.25254E+004    1.38005E+004
            1458    5.83814E+005    3.36790E+005   -3.37338E+005   -1.58686E+003   -3.37338E+005    6.74128E+005    7.11591E+002    1.10315E+005   -6.21036E+002    1.05127E+002   -1.61886E+003    3.36717E+005   -3.30736E+002    1.52780E+004
            1459    5.88671E+005    3.16864E+005   -3.62383E+005   -3.75983E+002   -3.62383E+005    6.79247E+005    1.52982E+004   -2.85310E+005   -1.72462E+004   -3.01984E+004    1.55003E+003    3.38509E+005    2.19991E+004    1.35753E+004
            1460    5.99603E+005    2.98060E+005   -3.92361E+005   -2.29344E+003   -3.92361E+005    6.90422E+005    3.21981E+004   -3.63476E+005   -3.61440E+004   -6.12586E+004    8.08312E+002    3.42113E+005    4.18093E+004    8.77971E+003
            1461    6.14305E+005    2.82407E+005   -4.21826E+005    3.85456E+003   -4.21826E+005    7.04234E+005    4.51881E+004   -4.33900E+005   -5.40568E+004   -8.84654E+004    6.95792E+003    3.46650E+005    5.73288E+004    1.32860E+003
            1462    6.32749E+005    2.65295E+005   -4.56428E+005    2.96654E+003   -4.56428E+005    7.21722E+005    6.27221E+004   -4.85621E+005   -7.44788E+004   -1.20108E+005    6.42014E+003    3.53415E+005    6.66260E+004   -3.15669E+003
            1463    6.39045E+005    2.45638E+005   -4.78957E+005    4.16955E+003   -4.78957E+005    7.24596E+005    7.63831E+004   -5.20453E+005   -9.50914E+004   -1.41592E+005    7.53393E+003    3.54980E+005    6.53029E+004   -5.37485E+003
            1464    6.13892E+005    2.29184E+005   -4.65244E+005    5.21892E+003   -4.65244E+005    6.94428E+005    7.69470E+004   -5.08978E+005   -9.99177E+004   -1.40870E+005    9.94634E+003    3.38211E+005    7.15389E+004   -5.85050E+003
            1465    6.08853E+005    3.95213E+005    3.95213E+005    3.38456E+003   -3.06226E+005    7.01439E+005   -3.07905E+004    3.56844E+005    2.43925E+004    6.54961E+004    2.48284E+003    3.48704E+005   -3.07309E+004    2.31884E+003
            1466    6.17613E+005    3.96547E+005    3.96547E+005    8.22689E+002   -3.15123E+005    7.11669E+005   -2.74157E+004    3.56722E+005    1.43596E+004    6.69806E+004    9.06808E+002    3.54107E+005   -2.30195E+004   -2.79926E+003
            1467    6.25291E+005    3.99669E+005    3.99669E+005    3.38458E+003   -3.21165E+005    7.20835E+005   -2.72963E+004    3.47290E+005    8.13802E+003    7.00559E+004    3.69492E+003    3.58622E+005   -1.79113E+004   -4.77253E+003
            1468    6.32499E+005    4.01171E+005    4.01171E+005    2.16222E+003   -3.28097E+005    7.29268E+005   -2.50787E+004    3.45082E+005    3.04975E+003    6.96380E+004    2.54822E+003    3.62833E+005   -1.30995E+004   -6.56530E+003
            1469    6.38349E+005    4.03576E+005    4.03576E+005    2.96500E+003   -3.32568E+005    7.36144E+005   -2.46574E+004    3.40965E+005    4.45258E+002    7.02970E+004    3.22979E+003    3.66252E+005   -9.44854E+003   -5.99389E+003
            1470    6.43104E+005    4.05262E+005    4.05262E+005    2.18617E+003   -3.36396E+005    7.41658E+005   -2.36838E+004    3.41640E+005   -1.44925E+003    7.02002E+004    2.30028E+003    3.69034E+005   -5.34456E+003   -4.42128E+003
            1471    6.45294E+005    4.06244E+005    4.06244E+005    2.36653E+003   -3.37975E+005    7.44218E+005   -2.35453E+004    3.40728E+005   -2.04193E+003    7.02970E+004    2.38085E+003    3.70339E+005   -2.05565E+003   -1.47502E+003
            1472    5.94040E+005    3.60967E+005    3.60967E+005   -1.00432E+003   -3.24613E+005    6.85581E+005   -1.17832E+004    2.72694E+005    8.12936E+003    2.87641E+004   -1.54372E+003    3.42233E+005   -1.53739E+004    5.29684E+003
            1473    6.00362E+005    3.62807E+005    3.62807E+005    8.37522E+002   -3.30201E+005    6.93008E+005   -1.11479E+004    2.55648E+005    4.05361E+003    2.86033E+004    7.86658E+002    3.46102E+005   -1.12489E+004    3.30639E+002
            1474    6.07731E+005    3.64145E+005    3.64145E+005   -8.97137E+002   -3.37409E+005    7.01554E+005   -8.61317E+003    2.50902E+005    6.35920E+002    2.59439E+004   -7.40332E+002    3.50449E+005   -7.50809E+003   -3.95038E+003
            1475    6.14531E+005    3.66435E+005    3.66435E+005    3.87198E+002   -3.43044E+005    7.09479E+005   -7.92617E+003    2.33958E+005   -9.09854E+002    2.41546E+004    5.33736E+002    3.54444E+005   -5.28088E+003   -5.08701E+003
            1476    6.21007E+005    3.67833E+005    3.67833E+005   -5.09621E+002   -3.49154E+005    7.16987E+005   -6.05666E+003    2.25006E+005   -2.19629E+003    2.07846E+004   -4.18367E+002    3.58255E+005   -2.96434E+003   -5.57916E+003
            1477    6.25861E+005    3.69830E+005    3.69830E+005   -1.49592E+001   -3.52784E+005    7.22614E+005   -5.67716E+003    2.15664E+005   -2.55787E+003    1.95664E+004    2.29118E+001    3.61114E+005   -1.84335E+003   -3.73424E+003
            1478    6.28623E+005    3.70507E+005    3.70507E+005   -3.77379E+002   -3.55306E+005    7.25813E+005   -4.94115E+003    2.11461E+005   -2.84864E+003    1.80459E+004   -3.73836E+002    3.62752E+005   -4.00960E+002   -1.59176E+003
            1479    5.95002E+005    3.43686E+005    3.43686E+005    1.40611E+003   -3.43362E+005    6.87048E+005   -5.76572E+002   -1.09739E+005    3.49807E+002   -5.72801E+001    1.43719E+003    3.43445E+005    7.14682E+002    7.34846E+003
            1480    6.03930E+005    3.46330E+005   -3.51027E+005   -9.23948E+002   -3.51027E+005    6.97357E+005    1.87360E+003   -1.15944E+005   -6.87088E+002   -4.01600E+003   -9.17696E+002    3.48667E+005    2.18638E+003    4.88837E+002
            1481    6.12117E+005    3.49241E+005   -3.57548E+005    7.46336E+002   -3.57548E+005    7.06789E+005    2.52009E+003   -1.76593E+005   -1.14961E+002   -8.14393E+003    6.98625E+002    3.53348E+005    2.83552E+003   -3.01217E+003
            1482    6.20293E+005    3.50902E+005   -3.65311E+005   -6.44909E+002   -3.65311E+005    7.16212E+005    5.01790E+003   -1.96354E+005    1.57661E+002   -1.44607E+004   -7.50617E+002    3.57973E+005    3.47787E+003   -5.49805E+003
            1483    6.27366E+005    3.53186E+005   -3.71157E+005    1.82423E+002   -3.71157E+005    7.24343E+005    5.92940E+003   -2.21191E+005    1.34645E+003   -1.92340E+004    9.93001E+001    3.61977E+005    2.94358E+003   -5.17610E+003
            1484    6.32780E+005    3.54380E+005   -3.76191E+005   -4.33979E+002   -3.76191E+005    7.30571E+005    7.41514E+003   -2.32539E+005    1.95207E+003   -2.37133E+004   -4.84140E+002    3.65031E+005    2.27323E+003   -4.07767E+003
            1485    6.35662E+005    3.55209E+005   -3.78669E+005   -1.75008E+002   -3.78669E+005    7.33878E+005    7.87827E+003   -2.41018E+005    2.55335E+003   -2.60090E+004   -1.79164E+002    3.66658E+005    6.07338E+002   -1.26660E+003
            1486    5.95481E+005    3.20397E+005   -3.66792E+005   -2.56942E+003   -3.66792E+005    6.87189E+005    1.63211E+004   -2.79814E+005   -1.25486E+004   -3.45039E+004   -1.91101E+003    3.42911E+005    1.74057E+004    5.63114E+003
            1487    6.03125E+005    3.23797E+005   -3.72082E+005   -1.86272E+002   -3.72082E+005    6.95879E+005    1.61570E+004   -2.96583E+005   -7.98780E+003   -4.03625E+004   -1.20751E+002    3.47233E+005    1.50735E+004   -1.19342E+002
            1488    6.12281E+005    3.25869E+005   -3.80543E+005   -2.34204E+003   -3.80543E+005    7.06412E+005    1.90056E+004   -3.03835E+005   -5.37248E+003   -4.90323E+004   -2.61191E+003    3.52248E+005    1.36579E+004   -4.38731E+003
            1489    6.21638E+005    3.28810E+005   -3.88253E+005   -1.44908E+003   -3.88253E+005    7.17063E+005    2.02972E+004   -3.19732E+005   -2.17880E+003   -5.69366E+004   -1.77635E+003    3.57258E+005    1.16698E+004   -5.91725E+003
            1490    6.30696E+005    3.30627E+005   -3.96791E+005   -2.68556E+003   -3.96791E+005    7.27418E+005    2.29497E+004   -3.30682E+005   -3.75556E+002   -6.54966E+004   -2.97687E+003    3.62081E+005    9.44074E+003   -6.39758E+003
            1491    6.37759E+005    3.32713E+005   -4.02737E+005   -2.28605E+003   -4.02737E+005    7.35450E+005    2.41034E+004   -3.41403E+005    1.35767E+003   -7.12615E+004   -2.40644E+003    3.65861E+005    5.87434E+003   -4.29415E+003
            1492    6.41743E+005    3.33474E+005   -4.06520E+005   -2.73257E+003   -4.06520E+005    7.39994E+005    2.52596E+004   -3.46479E+005    1.99681E+003   -7.50250E+004   -2.75056E+003    3.67977E+005    2.16319E+003   -1.73825E+003
            1493    6.07368E+005    3.05135E+005   -3.94304E+005   -3.41258E+001   -3.94304E+005    6.99439E+005    2.97343E+004   -3.65805E+005   -2.50187E+004   -6.50903E+004    9.05994E+002    3.47541E+005    3.27398E+004    1.85460E+003
            1494    6.17623E+005    3.09494E+005   -4.01880E+005   -2.38222E+003   -4.01880E+005    7.11374E+005    3.15894E+004   -3.67910E+005   -1.80932E+004   -7.42808E+004   -2.39412E+003    3.53483E+005    2.76742E+004   -2.89653E+003
            1495    6.28359E+005    3.14027E+005   -4.09616E+005   -2.06681E+003   -4.09616E+005    7.23643E+005    3.25518E+004   -3.77467E+005   -1.12429E+004   -8.39097E+004   -2.50273E+003    3.59207E+005    2.34267E+004   -6.01109E+003
            1496    6.40202E+005    3.17063E+005   -4.20135E+005   -3.96178E+003   -4.20135E+005    7.37198E+005    3.56779E+004   -3.87233E+005   -6.60317E+003   -9.58421E+004   -4.58831E+003    3.65284E+005    2.00959E+004   -8.22343E+003
            1497    6.51687E+005    3.20510E+005   -4.29686E+005   -3.59018E+003   -4.29686E+005    7.50196E+005    3.75884E+004   -4.00924E+005   -2.32626E+003   -1.06408E+005   -4.03072E+003    3.71111E+005    1.52781E+004   -7.46576E+003
            1498    6.60340E+005    3.22729E+005   -4.37345E+005   -4.73347E+003   -4.37345E+005    7.60074E+005    3.97833E+004   -4.08554E+005    3.41891E+002   -1.14750E+005   -4.94233E+003    3.75502E+005    9.80890E+003   -5.43016E+003
            1499    6.65339E+005    3.24031E+005   -4.41685E+005   -4.65221E+003   -4.41685E+005    7.65716E+005    4.07686E+004   -4.14682E+005    1.82798E+003   -1.19459E+005   -4.67462E+003    3.78009E+005    3.20129E+003   -1.80687E+003
            1500    6.19704E+005    2.87937E+005   -4.23529E+005   -1.50573E+003   -4.23529E+005    7.11466E+005    4.56990E+004   -4.22104E+005   -3.86100E+004   -9.81443E+004   -3.42692E+002    3.51440E+005    4.54766E+004   -1.89324E+003
            1501    6.27038E+005    2.93055E+005   -4.27021E+005   -1.45037E+003   -4.27021E+005    7.20076E+005    4.51388E+004   -4.23901E+005   -2.76283E+004   -1.06360E+005   -1.42829E+003    3.55769E+005    3.83886E+004   -5.58988E+003
            1502    6.40242E+005    2.96379E+005   -4.39001E+005   -5.56582E+003   -4.39001E+005    7.35380E+005    4.93962E+004   -4.30370E+005   -2.13473E+004   -1.20509E+005   -6.33258E+003    3.62756E+005    3.32651E+004   -9.45173E+003
            1503    6.56045E+005    3.01032E+005   -4.52207E+005   -5.81646E+003   -4.52207E+005    7.53239E+005    5.23304E+004   -4.46020E+005   -1.47985E+004   -1.35567E+005   -6.62516E+003    3.70633E+005    2.79003E+004   -1.02553E+004
            1504    6.71327E+005    3.04254E+005   -4.66413E+005   -8.73861E+003   -4.66413E+005    7.70667E+005    5.69661E+004   -4.58352E+005   -1.14297E+004   -1.50088E+005   -9.38002E+003    3.78375E+005    2.14668E+004   -9.66290E+003
            1505    6.83838E+005    3.07590E+005   -4.77215E+005   -9.33911E+003   -4.77215E+005    7.84805E+005    5.96546E+004   -4.70511E+005   -8.16679E+003   -1.61186E+005   -9.61089E+003    3.84611E+005    1.33437E+004   -6.55077E+003
            1506    6.90772E+005    3.08996E+005   -4.83688E+005   -1.04953E+004   -4.83688E+005    7.92684E+005    6.17289E+004   -4.76508E+005   -7.11165E+003   -1.67547E+005   -1.05280E+004    3.88108E+005    4.60433E+003   -2.30945E+003
            1507    6.33318E+005    2.70197E+005   -4.53644E+005   -1.55000E+003   -4.53644E+005    7.23841E+005    6.16658E+004   -4.72622E+005   -6.02118E+004   -1.24762E+005   -2.35255E+001    3.56215E+005    5.38088E+004   -4.57317E+003
            1508    6.44014E+005    2.75456E+005   -4.61387E+005   -6.07100E+003   -4.61387E+005    7.36843E+005    6.40009E+004   -4.72510E+005   -4.95950E+004   -1.36072E+005   -6.33549E+003    3.62587E+005    4.82134E+004   -9.71237E+003
            1509    6.60165E+005    2.80733E+005   -4.74544E+005   -7.54546E+003   -4.74544E+005    7.55277E+005    6.71189E+004   -4.84852E+005   -4.02607E+004   -1.52649E+005   -8.44720E+003    3.70984E+005    4.18879E+004   -1.22040E+004
            1510    6.78354E+005    2.84848E+005   -4.91397E+005   -1.24609E+004   -4.91397E+005    7.76245E+005    7.30033E+004   -4.96471E+005   -3.46243E+004   -1.70819E+005   -1.35670E+004    3.80317E+005    3.58209E+004   -1.33317E+004
            1511    6.97024E+005    2.89387E+005   -5.07922E+005   -1.40494E+004   -5.07922E+005    7.97309E+005    7.75281E+004   -5.13410E+005   -2.96204E+004   -1.88116E+005   -1.48483E+004    3.89644E+005    2.75528E+004   -1.18038E+004
            1512    7.11206E+005    2.92503E+005   -5.21102E+005   -1.76108E+004   -5.21102E+005    8.13605E+005    8.20700E+004   -5.23059E+005   -2.69227E+004   -2.01328E+005   -1.79594E+004    3.96931E+005    1.73008E+004   -8.00189E+003
            1513    7.19947E+005    2.93996E+005   -5.29412E+005   -1.85952E+004   -5.29412E+005    8.23408E+005    8.46705E+004   -5.31593E+005   -2.57972E+004   -2.09572E+005   -1.86421E+004    4.01270E+005    5.87881E+003   -2.99785E+003
            1514    6.36666E+005    2.55676E+005   -4.69779E+005   -3.94778E+003   -4.69779E+005    7.25455E+005    7.26838E+004   -4.94600E+005   -7.23359E+004   -1.43813E+005   -1.90274E+003    3.55409E+005    6.10016E+004   -6.56467E+003
            1515    6.47346E+005    2.57564E+005   -4.79788E+005   -4.85629E+003   -4.79788E+005    7.37352E+005    7.56934E+004   -5.04994E+005   -6.45409E+004   -1.57723E+005   -4.81596E+003    3.60965E+005    5.74519E+004   -1.22639E+004
            1516    6.68570E+005    2.60196E+005   -5.01789E+005   -1.34677E+004   -5.01789E+005    7.61985E+005    8.50204E+004   -5.17983E+005   -6.18237E+004   -1.78928E+005   -1.43094E+004    3.72822E+005    5.10937E+004   -1.44988E+004
            1517    6.92981E+005    2.64101E+005   -5.25470E+005   -1.81839E+004   -5.25470E+005    7.89571E+005    9.31842E+004   -5.38759E+005   -5.74593E+004   -2.02784E+005   -1.93093E+004    3.85398E+005    4.39277E+004   -1.54948E+004
            1518    7.17161E+005    2.66929E+005   -5.50353E+005   -2.61433E+004   -5.50353E+005    8.17283E+005    1.03189E+005   -5.56284E+005   -5.71069E+004   -2.25488E+005   -2.69722E+004    3.98340E+005    3.37933E+004   -1.33563E+004
            1519    7.37258E+005    2.70030E+005   -5.69931E+005   -2.99592E+004   -5.69931E+005    8.39961E+005    1.09953E+005   -5.73629E+005   -5.56423E+004   -2.43812E+005   -3.04058E+004    4.08686E+005    2.15352E+004   -9.87582E+003
            1520    7.48928E+005    2.70790E+005   -5.82416E+005   -3.36575E+004   -5.82416E+005    8.53207E+005    1.15095E+005   -5.83100E+005   -5.66572E+004   -2.54931E+005   -3.36949E+004    4.14854E+005    7.32335E+003   -3.01496E+003
            1521    6.50349E+005    2.27268E+005   -5.07720E+005   -6.81874E+003   -5.07720E+005    7.34988E+005    9.57567E+004   -5.42632E+005   -1.16361E+005   -1.67009E+005   -3.90049E+003    3.60389E+005    6.38984E+004   -7.20707E+003
            1522    6.55779E+005    2.35496E+005   -5.08092E+005   -1.23873E+004   -5.08092E+005    7.43588E+005    9.49946E+004   -5.33975E+005   -9.71894E+004   -1.76307E+005   -1.14870E+004    3.63329E+005    6.61562E+004   -1.30102E+004
            1523    6.77141E+005    2.30778E+005   -5.35991E+005   -2.00604E+004   -5.35991E+005    7.66770E+005    1.08424E+005   -5.57217E+005   -1.05052E+005   -2.00091E+005   -2.01304E+004    3.75451E+005    5.95771E+004   -1.49022E+004
            1524    6.98453E+005    2.32381E+005   -5.59729E+005   -3.23063E+004   -5.59729E+005    7.92111E+005    1.19885E+005   -5.67938E+005   -1.03297E+005   -2.23096E+005   -3.32621E+004    3.87682E+005    5.30996E+004   -1.67230E+004
            1525    7.24040E+005    2.29911E+005   -5.90750E+005   -4.21433E+004   -5.90750E+005    8.20661E+005    1.34328E+005   -5.91445E+005   -1.10006E+005   -2.49681E+005   -4.32962E+004    4.02091E+005    4.13364E+004   -1.63313E+004
            1526    7.45267E+005    2.30768E+005   -6.14395E+005   -5.14659E+004   -6.14395E+005    8.45163E+005    1.45031E+005   -6.06231E+005   -1.11999E+005   -2.71040E+005   -5.20549E+004    4.14073E+005    2.72125E+004   -1.17173E+004
            1527    7.58237E+005    2.29922E+005   -6.29717E+005   -5.60641E+004   -6.29717E+005    8.59639E+005    1.51953E+005   -6.18129E+005   -1.15560E+005   -2.84138E+005   -5.61624E+004    4.21365E+005    9.14148E+003   -4.73873E+003
            1528    7.40520E+005    1.62061E+005   -6.73399E+005   -9.79480E+004   -6.73399E+005    8.35459E+005    2.03095E+005   -6.24688E+005   -1.95763E+005   -3.15545E+005   -9.79773E+004    4.13229E+005    1.19816E+004   -3.73479E+003
            1529    7.25530E+005    1.66941E+005   -6.51154E+005   -8.57941E+004   -6.51154E+005    8.18095E+005    1.90002E+005   -6.14082E+005   -1.86816E+005   -2.97040E+005   -8.61516E+004    4.03858E+005    3.33828E+004   -1.10689E+004
            1530    7.02163E+005    1.75659E+005   -6.15921E+005   -6.81953E+004   -6.15921E+005    7.91579E+005    1.69486E+005   -5.95051E+005   -1.72587E+005   -2.67621E+005   -6.82500E+004    3.89450E+005    5.04407E+004   -1.35873E+004
            1531    6.79316E+005    1.87115E+005   -5.78284E+005   -4.69491E+004   -5.78284E+005    7.65399E+005    1.46039E+005   -5.77537E+005   -1.55948E+005   -2.35780E+005   -4.63894E+004    3.75033E+005    6.25504E+004   -1.48254E+004
            1532    6.56990E+005    1.99680E+005   -5.41627E+005   -3.13888E+004   -5.41627E+005    7.41307E+005    1.24445E+005   -5.53825E+005   -1.40176E+005   -2.04296E+005   -2.88632E+004    3.61624E+005    7.13166E+004   -1.18643E+004
            1533    6.41788E+005    2.10956E+005   -5.12517E+005   -1.17443E+004   -5.12517E+005    7.23473E+005    1.04435E+005   -5.44071E+005   -1.25864E+005   -1.79885E+005   -7.55559E+003    3.51663E+005    7.58804E+004   -1.01610E+004
            1534    6.17363E+005    2.19708E+005   -4.78106E+005   -2.98973E+003   -4.78106E+005    6.97814E+005    8.71293E+004   -5.14593E+005   -1.12324E+005   -1.50518E+005    1.45483E+003    3.38199E+005    7.95527E+004   -9.41620E+003
            1535    6.64668E+005    5.19302E+005    5.19302E+005   -1.20484E+003   -2.29407E+005    7.48708E+005   -9.62301E+004    5.65890E+005    1.15123E+005    1.76482E+005   -2.91438E+003    3.68216E+005    5.72406E+004    9.39432E+003
            1536    6.56734E+005    4.97986E+005    4.97986E+005    2.85413E+003   -2.47007E+005    7.44993E+005   -8.46112E+004    5.32861E+005    9.66296E+004    1.57063E+005    1.40869E+002    3.63482E+005    7.27463E+004    9.55693E+003
            1537    6.31224E+005    4.53641E+005    4.53641E+005   -6.24098E+003   -2.66020E+005    7.19661E+005   -6.04598E+004    4.87122E+005    7.29298E+004    1.16769E+005   -8.31929E+003    3.52278E+005    6.80964E+004    7.01642E+003
            1538    6.15550E+005    4.24285E+005    4.24285E+005    4.26111E+002   -2.81770E+005    7.06054E+005   -4.76470E+004    4.29252E+005    5.38997E+004    9.18073E+004   -2.76596E+003    3.47482E+005    5.73433E+004   -1.73596E+003
            1539    6.16294E+005    4.15879E+005    4.15879E+005   -1.64157E+003   -2.91957E+005    7.07836E+005   -4.07602E+004    4.14942E+005    3.21972E+004    9.23268E+004   -2.24336E+003    3.49906E+005    4.32342E+004    3.44664E+003
            1540    6.22910E+005    4.18070E+005    4.18070E+005    2.14110E+003   -2.98097E+005    7.16167E+005   -4.07044E+004    4.05265E+005    2.13022E+004    9.85781E+004    2.23303E+003    3.54230E+005    3.50663E+004    5.25207E+003
            1541    6.31643E+005    4.20782E+005    4.20782E+005    2.52132E+003   -3.05810E+005    7.26592E+005   -3.91644E+004    4.02328E+005    1.22086E+004    1.02123E+005    3.16115E+003    3.59448E+005    2.70338E+004    7.99935E+003
            1542    6.40643E+005    4.25905E+005    4.25905E+005    3.97518E+003   -3.11277E+005    7.37182E+005   -3.95346E+004    4.02212E+005    5.57337E+003    1.08382E+005    4.64793E+003    3.64275E+005    2.19111E+004    8.73295E+003
            1543    6.50104E+005    4.31330E+005    4.31330E+005    3.36822E+003   -3.16759E+005    7.48090E+005   -3.93132E+004    4.07635E+005    8.42614E+002    1.13241E+005    3.85552E+003    3.69419E+005    1.55177E+004    8.10539E+003
            1544    6.56849E+005    4.35832E+005    4.35832E+005    4.04185E+003   -3.20081E+005    7.55913E+005   -3.99310E+004    4.10267E+005   -2.31045E+003    1.17861E+005    4.24278E+003    3.73000E+005    9.68641E+003    5.34172E+003
            1545    6.60565E+005    4.37928E+005    4.37928E+005    3.77065E+003   -3.22269E+005    7.60197E+005   -3.98099E+004    4.12390E+005   -3.83547E+003    1.19468E+005    3.79717E+003    3.75048E+005    3.12172E+003    2.07056E+003
            1546    6.44959E+005    4.64015E+005    4.64015E+005    5.07692E+003   -2.73394E+005    7.37410E+005   -6.52326E+004    4.78655E+005    5.80658E+004    1.33812E+005    3.81989E+003    3.62657E+005    5.33346E+004    5.45504E+003
            1547    6.51671E+005    4.62411E+005    4.62411E+005    5.66338E+003   -2.83854E+005    7.46265E+005   -6.14067E+004    4.70552E+005    4.13289E+004    1.37146E+005    5.74572E+003    3.67537E+005    4.23328E+004    7.99023E+003
            1548    6.61665E+005    4.68747E+005    4.68747E+005    9.97752E+003   -2.89739E+005    7.58486E+005   -6.29952E+004    4.67901E+005    3.05975E+004    1.47599E+005    1.07895E+004    3.72868E+005    3.63114E+004    1.08748E+004
            1549    6.75198E+005    4.77219E+005    4.77219E+005    9.41355E+003   -2.96832E+005    7.74051E+005   -6.32668E+004    4.76767E+005    2.19114E+004    1.57534E+005    1.03547E+004    3.79828E+005    2.92782E+004    1.18134E+004
            1550    6.86830E+005    4.86183E+005    4.86183E+005    1.10582E+004   -3.01314E+005    7.87497E+005   -6.53091E+004    4.83471E+005    1.65782E+004    1.67628E+005    1.17207E+004    3.85726E+005    2.23024E+004    1.02563E+004
            1551    6.96839E+005    4.93295E+005    4.93295E+005    1.09715E+004   -3.05637E+005    7.98932E+005   -6.62098E+004    4.91078E+005    1.25950E+004    1.74768E+005    1.12669E+004    3.90877E+005    1.36791E+004    7.08710E+003
            1552    7.01560E+005    4.96796E+005    4.96796E+005    1.15455E+004   -3.07600E+005    8.04395E+005   -6.69139E+004    4.93709E+005    1.07941E+004    1.78371E+005    1.15769E+004    3.93340E+005    4.82873E+003    2.30324E+003
            1553    6.37254E+005    4.68027E+005    4.68027E+005    1.74764E+003   -2.58094E+005    7.26121E+005   -7.05602E+004    4.95086E+005    6.83176E+004    1.43538E+005   -1.74723E+002    3.56385E+005    5.61776E+004    5.58267E+003
            1554    6.43744E+005    4.73554E+005    4.73554E+005    8.61750E+003   -2.61192E+005    7.34746E+005   -7.36600E+004    4.89902E+005    6.01082E+004    1.51576E+005    9.29593E+003    3.60376E+005    5.38154E+004    1.30427E+004
            1555    6.64163E+005    4.90354E+005    4.90354E+005    9.68474E+003   -2.67503E+005    7.57858E+005   -7.75120E+004    5.07131E+005    5.14354E+004    1.69890E+005    1.12107E+004    3.71355E+005    4.54985E+004    1.60579E+004
            1556    6.83300E+005    5.07918E+005    5.07918E+005    1.49054E+004   -2.72070E+005    7.79988E+005   -8.35847E+004    5.19157E+005    4.47482E+004    1.89663E+005    1.63432E+004    3.81012E+005    3.95672E+004    1.60017E+004
            1557    7.05033E+005    5.26384E+005    5.26384E+005    1.72614E+004   -2.78330E+005    8.04714E+005   -8.84384E+004    5.36408E+005    3.95976E+004    2.07476E+005    1.82418E+004    3.92238E+005    3.01901E+004    1.36897E+004
            1558    7.20405E+005    5.40060E+005    5.40060E+005    2.11184E+004   -2.82446E+005    8.22506E+005   -9.29105E+004    5.45887E+005    3.58916E+004    2.21333E+005    2.15072E+004    4.00165E+005    1.90688E+004    8.85017E+003
            1559    7.29362E+005    5.47458E+005    5.47458E+005    2.23681E+004   -2.85332E+005    8.32790E+005   -9.48314E+004    5.52146E+005    3.37920E+004    2.28285E+005    2.24172E+004    4.04822E+005    6.51446E+003    3.18135E+003
            1560    6.62385E+005    5.13964E+005    5.13964E+005    2.04361E+004   -2.38840E+005    7.52804E+005   -9.85198E+004    5.28648E+005    1.01365E+005    1.76374E+005    1.78199E+004    3.69381E+005    5.90968E+004    5.10251E+003
            1561    6.64935E+005    5.14754E+005    5.14754E+005    1.02232E+004   -2.38735E+005    7.53489E+005   -9.54141E+004    5.44182E+005    8.94946E+004    1.86761E+005    9.98622E+003    3.69090E+005    5.60684E+004    1.30345E+004
            1562    6.79060E+005    5.33368E+005    5.33368E+005    2.02619E+004   -2.36668E+005    7.70036E+005   -1.05654E+005    5.52646E+005    9.17209E+004    2.04746E+005    2.04960E+004    3.76495E+005    5.57575E+004    1.47477E+004
            1563    7.06274E+005    5.60978E+005    5.60978E+005    2.84410E+004   -2.40198E+005    8.01176E+005   -1.16407E+005    5.73138E+005    9.11902E+004    2.28702E+005    2.93294E+004    3.91423E+005    4.88431E+004    1.61925E+004
            1564    7.31088E+005    5.88196E+005    5.88196E+005    3.91060E+004   -2.41655E+005    8.29851E+005   -1.28549E+005    5.90086E+005    9.37164E+004    2.52005E+005    3.99258E+004    4.05346E+005    3.86375E+004    1.45096E+004
            1565    7.52446E+005    6.09246E+005    6.09246E+005    4.47653E+004   -2.45004E+005    8.54250E+005   -1.36336E+005    6.06355E+005    9.38310E+004    2.69894E+005    4.52823E+004    4.17163E+005    2.46976E+004    1.10436E+004
            1566    7.64164E+005    6.21307E+005    6.21307E+005    4.81352E+004   -2.46271E+005    8.67578E+005   -1.41057E+005    6.15648E+005    9.46305E+004    2.80345E+005    4.81961E+004    4.23637E+005    8.68525E+003    3.87252E+003
            1567    7.37026E+005    6.64841E+005    6.64841E+005    9.44864E+004   -1.67354E+005    8.32195E+005   -1.97325E+005    6.18583E+005    1.89059E+005    3.08375E+005    9.45399E+004    4.11625E+005    1.16163E+004    4.01220E+003
            1568    7.22750E+005    6.44845E+005    6.44845E+005    8.40812E+004   -1.70817E+005    8.15662E+005   -1.86036E+005    6.08539E+005    1.82306E+005    2.91450E+005    8.43536E+004    4.02784E+005    3.24109E+004    1.02159E+004
            1569    7.01765E+005    6.13084E+005    6.13084E+005    6.65286E+004   -1.78298E+005    7.91382E+005   -1.67105E+005    5.93595E+005    1.70577E+005    2.63981E+005    6.67570E+004    3.89643E+005    4.91349E+004    1.37462E+004
            1570    6.77659E+005    5.76313E+005    5.76313E+005    4.80587E+004   -1.87746E+005    7.64059E+005   -1.45542E+005    5.73821E+005    1.56105E+005    2.33344E+005    4.71762E+004    3.74607E+005    6.17716E+004    1.34017E+004
            1571    6.57386E+005    5.41241E+005    5.41241E+005    2.57297E+004   -1.99052E+005    7.40293E+005   -1.22639E+005    5.60593E+005    1.41713E+005    2.03068E+005    2.31370E+004    3.61465E+005    6.99211E+004    1.18264E+004
            1572    6.28816E+005    5.03347E+005    5.03347E+005    1.00946E+004   -2.04729E+005    7.08076E+005   -1.02904E+005    5.36414E+005    1.28820E+005    1.74642E+005    5.25044E+003    3.44720E+005    7.23432E+004    7.76564E+003
            1573    6.21378E+005    4.87973E+005    4.87973E+005   -1.67135E+004   -2.06049E+005    6.94021E+005   -8.84034E+004    5.50644E+005    1.22044E+005    1.62596E+005   -1.94299E+004    3.41206E+005    5.55091E+004    8.27151E+003
            1574    7.58155E+005    2.29607E+005   -6.29905E+005   -5.61767E+004   -6.29905E+005    8.59513E+005    1.52158E+005   -6.18261E+005   -1.15950E+005   -2.84248E+005   -5.62771E+004    4.21322E+005   -9.39621E+003    4.79333E+003
            1575    7.48898E+005    2.70424E+005   -5.82713E+005   -3.38095E+004   -5.82713E+005    8.53137E+005    1.15366E+005   -5.83348E+005   -5.71255E+004   -2.55119E+005   -3.38539E+004    4.14843E+005   -7.79414E+003    3.26125E+003
            1576    7.20007E+005    2.93818E+005   -5.29634E+005   -1.86315E+004   -5.29634E+005    8.23451E+005    8.48160E+004   -5.31900E+005   -2.59968E+004   -2.09767E+005   -1.86843E+004    4.01285E+005   -6.37065E+003    3.17747E+003
            1577    6.90650E+005    3.08910E+005   -4.83625E+005   -1.04603E+004   -4.83625E+005    7.92536E+005    6.17251E+004   -4.76545E+005   -7.18880E+003   -1.67488E+005   -1.04985E+004    3.88041E+005   -5.04013E+003    2.49150E+003
            1578    6.65231E+005    3.24012E+005   -4.41583E+005   -4.64422E+003   -4.41583E+005    7.65595E+005    4.07386E+004   -4.14554E+005    1.81705E+003   -1.19362E+005   -4.67083E+003    3.77953E+005   -3.48841E+003    1.96888E+003
            1579    6.41633E+005    3.33458E+005   -4.06410E+005   -2.71021E+003   -4.06410E+005    7.39868E+005    2.52205E+004   -3.46354E+005    1.99436E+003   -7.49251E+004   -2.73066E+003    3.67918E+005   -2.30632E+003    1.85153E+003
            1580    6.35670E+005    3.55167E+005   -3.78720E+005   -2.10652E+002   -3.78720E+005    7.33887E+005    7.92111E+003   -2.41095E+005    2.53719E+003   -2.60850E+004   -2.15465E+002    3.66661E+005   -6.70238E+002    1.33093E+003
            1581    6.28614E+005    3.70565E+005    3.70565E+005   -3.56385E+002   -3.55236E+005    7.25801E+005   -4.99088E+003    2.11839E+005   -2.81544E+003    1.81411E+004   -3.53049E+002    3.62746E+005    3.74805E+002    1.60137E+003
            1582    6.45417E+005    4.06407E+005    4.06407E+005    2.37253E+003   -3.37948E+005    7.44355E+005   -2.36107E+004    3.41087E+005   -2.03126E+003    7.04767E+004    2.38654E+003    3.70400E+005    2.01139E+003    1.47119E+003
            1583    7.44866E+005    2.30276E+005   -6.14383E+005   -5.15607E+004   -6.14383E+005    8.44659E+005    1.45223E+005   -6.06190E+005   -1.12616E+005   -2.70880E+005   -5.21718E+004    4.13858E+005   -2.76587E+004    1.19229E+004
            1584    7.36813E+005    2.69487E+005   -5.69933E+005   -3.01208E+004   -5.69933E+005    8.39420E+005    1.10189E+005   -5.73553E+005   -5.63006E+004   -2.43680E+005   -3.05854E+004    4.08463E+005   -2.21542E+004    1.00773E+004
            1585    7.10619E+005    2.92260E+005   -5.20656E+005   -1.74734E+004   -5.20656E+005    8.12915E+005    8.19566E+004   -5.22825E+005   -2.71303E+004   -2.00892E+005   -1.78471E+004    3.96619E+005   -1.79099E+004    8.27961E+003
            1586    6.83078E+005    3.07563E+005   -4.76391E+005   -9.19713E+003   -4.76391E+005    7.83955E+005    5.93417E+004   -4.69641E+005   -8.19514E+003   -1.60345E+005   -9.48478E+003    3.84246E+005   -1.37852E+004    6.71998E+003
            1587    6.59618E+005    3.22831E+005   -4.36443E+005   -4.62154E+003   -4.36443E+005    7.59274E+005    3.94110E+004   -4.07257E+005    3.70302E+002   -1.13762E+005   -4.84135E+003    3.75164E+005   -1.00138E+004    5.56943E+003
            1588    6.37352E+005    3.32847E+005   -4.02153E+005   -2.28395E+003   -4.02153E+005    7.35001E+005    2.38633E+004   -3.40020E+005    1.32140E+003   -7.05033E+004   -2.40804E+003    3.65672E+005   -5.96638E+003    4.35058E+003
            1589    6.32637E+005    3.54585E+005   -3.75827E+005   -4.25772E+002   -3.75827E+005    7.30411E+005    7.22267E+003   -2.30441E+005    1.97473E+003   -2.31671E+004   -4.75631E+002    3.64960E+005   -2.23336E+003    4.12008E+003
            1590    6.25992E+005    3.70182E+005    3.70182E+005   -5.56867E+001   -3.52578E+005    7.22761E+005   -5.84942E+003    2.18350E+005   -2.61031E+003    2.01763E+004   -1.77694E+001    3.61177E+005    1.85413E+003    3.72007E+003
            1591    6.43398E+005    4.05874E+005    4.05874E+005    2.26132E+003   -3.36102E+005    7.41976E+005   -2.40109E+004    3.43065E+005   -1.41517E+003    7.10728E+004    2.37509E+003    3.69153E+005    5.38355E+003    4.39160E+003
            1592    7.23316E+005    2.29714E+005   -5.90103E+005   -4.19500E+004   -5.90103E+005    8.19816E+005    1.34113E+005   -5.90990E+005   -1.10244E+005   -2.48990E+005   -4.31048E+004    4.01678E+005   -4.19121E+004    1.63954E+004
            1593    7.15844E+005    2.66697E+005   -5.49078E+005   -2.57916E+004   -5.49078E+005    8.15775E+005    1.02724E+005   -5.55326E+005   -5.72813E+004   -2.24255E+005   -2.66369E+004    3.97659E+005   -3.44105E+004    1.34871E+004
            1594    6.95270E+005    2.89486E+005   -5.05886E+005   -1.36579E+004   -5.05886E+005    7.95372E+005    7.66858E+004   -5.11372E+005   -2.93789E+004   -1.86198E+005   -1.44809E+004    3.88785E+005   -2.80543E+004    1.19278E+004
            1595    6.69549E+005    3.04520E+005   -4.64196E+005   -8.40832E+003   -4.64196E+005    7.68716E+005    5.60283E+004   -4.55661E+005   -1.12316E+004   -1.47787E+005   -9.06654E+003    3.77558E+005   -2.17070E+004    9.73149E+003
            1596    6.50345E+005    3.20940E+005   -4.27793E+005   -3.44914E+003   -4.27793E+005    7.48733E+005    3.67675E+004   -3.97725E+005   -2.19091E+003   -1.04220E+005   -3.89134E+003    3.70515E+005   -1.52571E+004    7.44292E+003
            1597    6.29901E+005    3.31098E+005   -3.95449E+005   -2.62703E+003   -3.95449E+005    7.26547E+005    2.23260E+004   -3.27322E+005   -3.88610E+002   -6.36743E+004   -2.91518E+003    3.61729E+005   -9.29908E+003    6.38151E+003
            1598    6.27234E+005    3.53789E+005   -3.70412E+005    1.64152E+002   -3.70412E+005    7.24201E+005    5.48642E+003   -2.15453E+005    1.34399E+003   -1.78900E+004    8.67893E+001    3.61927E+005   -2.75942E+003    5.12762E+003
            1599    6.21193E+005    3.68586E+005    3.68586E+005   -4.64864E+002   -3.48603E+005    7.17190E+005   -6.50606E+003    2.29578E+005   -2.20144E+003    2.20882E+004   -3.68533E+002    3.58333E+005    3.12604E+003    5.59691E+003
            1600    6.38953E+005    4.04482E+005    4.04482E+005    3.01441E+003   -3.32329E+005    7.36811E+005   -2.50556E+004    3.42987E+005    4.88468E+002    7.14011E+004    3.27739E+003    3.66536E+005    9.48532E+003    5.95951E+003
            1601    6.97342E+005    2.32494E+005   -5.58333E+005   -3.16547E+004   -5.58333E+005    7.90827E+005    1.19165E+005   -5.67172E+005   -1.02973E+005   -2.21922E+005   -3.26001E+004    3.87025E+005   -5.35662E+004    1.67556E+004
            1602    6.91012E+005    2.64349E+005   -5.23054E+005   -1.75726E+004   -5.23054E+005    7.87403E+005    9.20923E+004   -5.36633E+005   -5.70527E+004   -2.00533E+005   -1.86910E+004    3.84414E+005   -4.43382E+004    1.54384E+004
            1603    6.75846E+005    2.85349E+005   -4.88164E+005   -1.18212E+004   -4.88164E+005    7.73513E+005    7.15454E+004   -4.93084E+005   -3.39485E+004   -1.67756E+005   -1.29314E+004    3.79120E+005   -3.59893E+004    1.32509E+004
            1604    6.53822E+005    3.01630E+005   -4.49212E+005   -5.51337E+003   -4.49212E+005    7.50841E+005    5.10318E+004   -4.41895E+005   -1.43822E+004   -1.32402E+005   -6.31171E+003    3.69646E+005   -2.77927E+004    1.00793E+004
            1605    6.38637E+005    3.17806E+005   -4.17701E+005   -3.79308E+003   -4.17701E+005    7.35506E+005    3.45626E+004   -3.82768E+005   -6.29841E+003   -9.29841E+004   -4.40534E+003    3.64605E+005   -1.97520E+004    8.06864E+003
            1606    6.20876E+005    3.29513E+005   -3.86726E+005   -1.42589E+003   -3.86726E+005    7.16239E+005    1.95462E+004   -3.15325E+005   -2.10751E+003   -5.47915E+004   -1.73957E+003    3.56935E+005   -1.12862E+004    5.80544E+003
            1607    6.20218E+005    3.51723E+005   -3.64413E+005   -6.22974E+002   -3.64413E+005    7.16136E+005    4.43749E+003   -1.87599E+005    2.66419E+002   -1.28603E+004   -7.18587E+002    3.57953E+005   -3.13977E+003    5.49241E+003
            1608    6.14817E+005    3.67150E+005    3.67150E+005    3.94436E+002   -3.42648E+005    7.09798E+005   -8.29850E+003    2.37746E+005   -9.34070E+002    2.52829E+004    5.46729E+002    3.54580E+005    5.47957E+003    5.11207E+003
            1609    6.33025E+005    4.01744E+005    4.01744E+005    2.20814E+003   -3.28117E+005    7.29861E+005   -2.52781E+004    3.46037E+005    3.00654E+003    7.02320E+004    2.59575E+003    3.63101E+005    1.30968E+004    6.60144E+003
            1610    6.76001E+005    2.31182E+005   -5.34353E+005   -1.95051E+004   -5.34353E+005    7.65535E+005    1.07559E+005   -5.55975E+005   -1.04473E+005   -1.98643E+005   -1.95598E+004    3.74832E+005   -5.98424E+004    1.48714E+004
            1611    6.66543E+005    2.60800E+005   -4.98988E+005   -1.26928E+004   -4.98988E+005    7.59788E+005    8.36271E+004   -5.15511E+005   -6.10199E+004   -1.76359E+005   -1.35024E+004    3.71827E+005   -5.11828E+004    1.42965E+004
            1612    6.57836E+005    2.81574E+005   -4.71240E+005   -7.06736E+003   -4.71240E+005    7.52813E+005    6.55777E+004   -4.80932E+005   -3.93673E+004   -1.49435E+005   -7.93052E+003    3.69931E+005   -4.16938E+004    1.18711E+004
            1613    6.38226E+005    2.97244E+005   -4.35991E+005   -5.28743E+003   -4.35991E+005    7.33235E+005    4.80114E+004   -4.25910E+005   -2.06613E+004   -1.17353E+005   -6.01963E+003    3.61879E+005   -3.28285E+004    9.11947E+003
            1614    6.27177E+005    3.14889E+005   -4.07502E+005   -1.98312E+003   -4.07502E+005    7.22390E+005    3.15319E+004   -3.73144E+005   -1.08233E+004   -8.13742E+004   -2.39827E+003    3.58720E+005   -2.28521E+004    5.78743E+003
            1615    6.11720E+005    3.26656E+005   -3.79157E+005   -2.32222E+003   -3.79157E+005    7.05813E+005    1.82743E+004   -2.99284E+005   -5.09780E+003   -4.71428E+004   -2.58232E+003    3.52017E+005   -1.31278E+004    4.32512E+003
            1616    6.12244E+005    3.49932E+005   -3.57009E+005    7.42771E+002   -3.57009E+005    7.06941E+005    2.11119E+003   -1.68847E+005   -4.33746E+001   -6.99088E+003    7.00687E+002    3.53432E+005   -2.46879E+003    3.04339E+003
            1617    6.08020E+005    3.64754E+005    3.64754E+005   -8.68270E+002   -3.37122E+005    7.01876E+005   -8.92122E+003    2.53410E+005    7.25129E+002    2.67426E+004   -7.04073E+002    3.50593E+005    7.68629E+003    4.05091E+003
            1618    6.25864E+005    4.00148E+005    4.00148E+005    3.37094E+003   -3.21339E+005    7.21487E+005   -2.73933E+004    3.48034E+005    7.97590E+003    7.05184E+004    3.68574E+003    3.58925E+005    1.78510E+004    4.83538E+003
            1619    6.54793E+005    2.36034E+005   -5.06531E+005   -1.19551E+004   -5.06531E+005    7.42566E+005    9.41506E+004   -5.32614E+005   -9.64481E+004   -1.74985E+005   -1.10191E+004    3.62837E+005   -6.61560E+004    1.28551E+004
            1620    6.45916E+005    2.58337E+005   -4.77548E+005   -4.42543E+003   -4.77548E+005    7.35885E+005    7.45454E+004   -5.02641E+005   -6.36308E+004   -1.55648E+005   -4.35748E+003    3.60319E+005   -5.72981E+004    1.20324E+004
            1621    6.42478E+005    2.76355E+005   -4.58914E+005   -5.76874E+003   -4.58914E+005    7.35269E+005    6.27756E+004   -4.69344E+005   -4.86674E+004   -1.33683E+005   -5.97686E+003    3.61926E+005   -4.78376E+004    9.31533E+003
            1622    6.25811E+005    2.93850E+005   -4.24961E+005   -1.34242E+003   -4.24961E+005    7.18811E+005    4.41512E+004   -4.20563E+005   -2.68763E+004   -1.04273E+005   -1.30415E+003    3.55262E+005   -3.78452E+004    5.33361E+003
            1623    6.16971E+005    3.10207E+005   -4.00496E+005   -2.37318E+003   -4.00496E+005    7.10703E+005    3.08876E+004   -3.64758E+005   -1.75759E+004   -7.27081E+004   -2.37887E+003    3.53232E+005   -2.71011E+004    2.74090E+003
            1624    6.03032E+005    3.24301E+005   -3.71497E+005   -2.00275E+002   -3.71497E+005    6.95797E+005    1.57988E+004   -2.94240E+005   -7.70594E+003   -3.95446E+004   -1.45685E+002    3.47225E+005   -1.46140E+004    1.81054E+002
            1625    6.04184E+005    3.46771E+005   -3.50880E+005   -9.13271E+002   -3.50880E+005    6.97651E+005    1.67388E+003   -1.07705E+005   -5.74730E+002   -3.53770E+003   -9.09199E+002    3.48816E+005   -2.02136E+003   -3.43828E+002
            1626    6.00722E+005    3.63147E+005    3.63147E+005    7.52022E+002   -3.30271E+005    6.93418E+005   -1.12093E+004    2.56958E+005    3.98436E+003    2.89318E+004    7.11842E+002    3.46301E+005    1.12539E+004   -1.59828E+002
            1627    6.17912E+005    3.96844E+005    3.96844E+005    8.60175E+002   -3.15164E+005    7.12009E+005   -2.75135E+004    3.57105E+005    1.42067E+004    6.73749E+004    9.58880E+002    3.54259E+005    2.29897E+004    2.92035E+003
            1628    6.49762E+005    2.27634E+005   -5.06831E+005   -6.89146E+003   -5.06831E+005    7.34465E+005    9.53629E+004   -5.41449E+005   -1.15884E+005   -1.66284E+005   -3.92133E+003    3.60101E+005   -6.40436E+004    7.06019E+003
            1629    6.35772E+005    2.56179E+005   -4.68360E+005   -3.67565E+003   -4.68360E+005    7.24539E+005    7.19523E+004   -4.93096E+005   -7.17207E+004   -1.42561E+005   -1.57549E+003    3.55014E+005   -6.07637E+004    6.27267E+003
            1630    6.32618E+005    2.70890E+005   -4.52296E+005   -1.50784E+003   -4.52296E+005    7.23187E+005    6.09712E+004   -4.70644E+005   -5.94706E+004   -1.23483E+005    3.97302E+001    3.55955E+005   -5.35054E+004    4.33542E+003
            1631    6.18985E+005    2.88433E+005   -4.22298E+005   -1.44645E+003   -4.22298E+005    7.10731E+005    4.51036E+004   -4.20113E+005   -3.79920E+004   -9.70348E+004   -2.83916E+002    3.51147E+005   -4.50423E+004    1.73098E+003
            1632    6.07221E+005    3.05466E+005   -3.93843E+005   -1.22712E+002   -3.93843E+005    6.99310E+005    2.95000E+004   -3.64434E+005   -2.46716E+004   -6.46266E+004    7.98326E+002    3.47519E+005   -3.23261E+004   -1.88193E+003
            1633    5.95617E+005    3.20611E+005   -3.66739E+005   -2.51887E+003   -3.66739E+005    6.87350E+005    1.62158E+004   -2.79486E+005   -1.23484E+004   -3.44167E+004   -1.88221E+003    3.43002E+005   -1.72231E+004   -5.49671E+003
            1634    5.95222E+005    3.43630E+005   -3.43671E+005    1.32371E+003   -3.43671E+005    6.87301E+005   -4.27318E+002   -1.12639E+005    2.30951E+002   -3.04605E+002    1.35561E+003    3.43575E+005   -7.55540E+002   -7.14400E+003
            1635    5.94234E+005    3.60926E+005    3.60926E+005   -9.52533E+002   -3.24886E+005    6.85812E+005   -1.16959E+004    2.71764E+005    8.00335E+003    2.85532E+004   -1.46869E+003    3.42361E+005    1.52336E+004   -5.10815E+003
            1636    6.09094E+005    3.95302E+005    3.95302E+005    3.28278E+003   -3.06412E+005    7.01713E+005   -3.07241E+004    3.57090E+005    2.41650E+004    6.56002E+004    2.40712E+003    3.48843E+005    3.06280E+004   -2.19300E+003
            1637    5.98702E+005    3.89949E+005    3.89949E+005   -7.72440E+002   -2.99321E+005    6.89270E+005   -2.99522E+004    3.66346E+005    3.38189E+004    5.95972E+004   -3.55959E+003    3.41597E+005    4.15720E+004   -7.50402E+003
            1638    5.88812E+005    3.63328E+005    3.63328E+005    3.32165E+003   -3.16172E+005    6.79499E+005   -1.68260E+004    2.76048E+005    1.74777E+004    3.16160E+004    1.38414E+003    3.38621E+005    2.20106E+004   -1.37525E+004
            1639    5.83730E+005    3.36327E+005   -3.37705E+005   -1.57913E+003   -3.37705E+005    6.74033E+005    9.85782E+002    9.68980E+004   -9.51670E+002   -4.36393E+002   -1.56928E+003    3.36672E+005   -1.23041E+002   -1.52295E+004
            1640    5.89049E+005    3.16826E+005   -3.62850E+005   -4.53195E+002   -3.62850E+005    6.79676E+005    1.54922E+004   -2.86173E+005   -1.73870E+004   -3.05638E+004    1.47423E+003    3.38713E+005   -2.21898E+004   -1.34548E+004
            1641    5.99704E+005    2.98069E+005   -3.92459E+005   -2.22134E+003   -3.92459E+005    6.90528E+005    3.22038E+004   -3.63827E+005   -3.61253E+004   -6.13527E+004    8.66483E+002    3.42179E+005   -4.17043E+004   -8.75621E+003
            1642    6.14076E+005    2.82731E+005   -4.21311E+005    3.73654E+003   -4.21311E+005    7.04042E+005    4.49479E+004   -4.32772E+005   -5.36166E+004   -8.80707E+004    6.84360E+003    3.46620E+005   -5.69219E+004   -1.50388E+003
            1643    6.32046E+005    2.65660E+005   -4.55351E+005    3.08492E+003   -4.55351E+005    7.21010E+005    6.22021E+004   -4.84324E+005   -7.39299E+004   -1.19223E+005    6.54674E+003    3.53130E+005   -6.62836E+004    2.96830E+003
            1644    6.38524E+005    2.46315E+005   -4.77859E+005    4.19217E+003   -4.77859E+005    7.24174E+005    7.57841E+004   -5.19036E+005   -9.42115E+004   -1.40774E+005    7.63298E+003    3.54769E+005   -6.52417E+004    5.08979E+003
            1645    6.14297E+005    2.29138E+005   -4.65748E+005    5.02813E+003   -4.65748E+005    6.94886E+005    7.71941E+004   -5.09318E+005   -1.00587E+005   -1.40700E+005    9.70477E+003    3.38467E+005   -7.15961E+004    5.92020E+003
            1646    7.40765E+005    1.62136E+005   -6.73592E+005   -9.79221E+004   -6.73592E+005    8.35728E+005    2.03126E+005   -6.24932E+005   -1.95725E+005   -3.15698E+005   -9.79547E+004    4.13352E+005   -1.19610E+004    3.78496E+003
            1647    7.25481E+005    1.66789E+005   -6.51246E+005   -8.59072E+004   -6.51246E+005    8.18035E+005    1.90121E+005   -6.14062E+005   -1.87080E+005   -2.97009E+005   -8.62748E+004    4.03840E+005   -3.34777E+004    1.11414E+004
            1648    7.01812E+005    1.75600E+005   -6.15591E+005   -6.81657E+004   -6.15591E+005    7.91191E+005    1.69386E+005   -5.94719E+005   -1.72683E+005   -2.67257E+005   -6.82178E+004    3.89248E+005   -5.06778E+004    1.36244E+004
            1649    6.78837E+005    1.87364E+005   -5.77551E+005   -4.67744E+004   -5.77551E+005    7.64915E+005    1.45654E+005   -5.76894E+005   -1.55796E+005   -2.35010E+005   -4.61551E+004    3.74731E+005   -6.30199E+004    1.47588E+004
            1650    6.56129E+005    2.00235E+005   -5.40146E+005   -3.07345E+004   -5.40146E+005    7.40381E+005    1.23549E+005   -5.52891E+005   -1.39438E+005   -2.03108E+005   -2.81000E+004    3.61050E+005   -7.18297E+004    1.17673E+004
            1651    6.40686E+005    2.11227E+005   -5.11008E+005   -1.11043E+004   -5.11008E+005    7.22235E+005    1.03629E+005   -5.43125E+005   -1.25269E+005   -1.78769E+005   -6.84774E+003    3.51036E+005   -7.58864E+004    1.00221E+004
            1652    6.16861E+005    2.20209E+005   -4.77083E+005   -2.51936E+003   -4.77083E+005    6.97292E+005    8.64645E+004   -5.13948E+005   -1.11436E+005   -1.49909E+005    1.95130E+003    3.37858E+005   -7.98019E+004    9.45441E+003
            1653    7.76478E+005    5.79827E+005    5.79827E+005    3.44952E+004   -3.09181E+005    8.89008E+005   -1.01714E+005    5.62810E+005    7.42436E+004    1.96352E+005    3.45459E+004    4.40178E+005   -9.77985E+003   -2.94102E+003
            1654    7.76421E+005    5.47026E+005    5.47026E+005    1.88047E+004   -3.44433E+005    8.91460E+005   -7.37994E+004    5.27692E+005    3.40207E+004    1.68535E+005    1.88422E+004    4.40564E+005   -7.22037E+003   -2.37099E+003
            1655    7.46193E+005    4.97112E+005    4.97112E+005    8.25365E+003   -3.61781E+005    8.58894E+005   -4.78615E+004    4.61675E+005    8.77172E+003    1.26534E+005    8.27883E+003    4.25355E+005   -5.41864E+003   -1.74195E+003
            1656    7.28392E+005    4.66212E+005    4.66212E+005    4.73163E+003   -3.73487E+005    8.39700E+005   -3.24856E+004    4.04071E+005    1.66648E+003    9.10409E+004    4.74949E+003    4.17449E+005   -3.52026E+003   -1.42255E+003
            1657    7.66028E+005    5.69959E+005    5.69959E+005    3.17439E+004   -3.07048E+005    8.77007E+005   -9.82181E+004    5.55662E+005    7.41646E+004    1.88341E+005    3.21493E+004    4.33798E+005   -2.85961E+004   -8.24411E+003
            1658    7.68138E+005    5.40812E+005    5.40812E+005    1.78610E+004   -3.41089E+005    8.81901E+005   -7.25280E+004    5.22864E+005    3.53169E+004    1.64139E+005    1.81288E+004    4.35665E+005   -2.15875E+004   -6.32693E+003
            1659    7.40638E+005    4.93254E+005    4.93254E+005    7.59957E+003   -3.59204E+005    8.52458E+005   -4.72164E+004    4.59395E+005    1.05118E+004    1.23289E+005    7.84876E+003    4.22167E+005   -1.58348E+004   -5.49182E+003
            1660    7.24507E+005    4.64128E+005    4.64128E+005    4.96332E+003   -3.71083E+005    8.35211E+005   -3.26693E+004    4.02396E+005    2.88236E+003    9.00188E+004    5.10664E+003    4.15175E+005   -1.08120E+004   -3.85859E+003
            1661    7.46361E+005    5.51570E+005    5.51570E+005    2.71214E+004   -3.02913E+005    8.54483E+005   -9.19261E+004    5.41494E+005    7.34481E+004    1.74433E+005    2.78976E+004    4.21786E+005   -4.49925E+004   -1.15173E+004
            1662    7.53775E+005    5.29201E+005    5.29201E+005    1.52164E+004   -3.36101E+005    8.65302E+005   -6.94390E+004    5.14865E+005    3.72182E+004    1.55217E+005    1.58818E+004    4.27216E+005   -3.39293E+004   -9.74977E+003
            1663    7.29354E+005    4.85587E+005    4.85587E+005    7.36213E+003   -3.53887E+005    8.39473E+005   -4.63539E+004    4.52315E+005    1.39555E+004    1.17183E+005    7.92362E+003    4.15715E+005   -2.57968E+004   -7.93198E+003
            1664    7.17717E+005    4.59875E+005    4.59875E+005    4.39050E+003   -3.67465E+005    8.27341E+005   -3.22669E+004    4.00678E+005    4.79070E+003    8.72887E+004    4.72133E+003    4.11219E+005   -1.73938E+004   -5.66410E+003
            1665    7.24122E+005    5.29956E+005    5.29956E+005    1.89511E+004   -2.98702E+005    8.28658E+005   -8.34017E+004    5.29508E+005    7.34392E+004    1.56883E+005    1.98832E+004    4.08143E+005   -5.71538E+004   -1.30339E+004
            1666    7.33935E+005    5.13576E+005    5.13576E+005    1.34795E+004   -3.28999E+005    8.42575E+005   -6.60187E+004    5.00527E+005    4.03841E+004    1.43327E+005    1.43448E+004    4.15684E+005   -4.45808E+004   -1.10030E+004
            1667    7.15891E+005    4.75717E+005    4.75717E+005    5.72820E+003   -3.48203E+005    8.23919E+005   -4.44140E+004    4.45532E+005    1.84608E+004    1.08204E+005    6.57717E+003    4.08047E+005   -3.39998E+004   -9.36408E+003
            1668    7.08251E+005    4.55269E+005    4.55269E+005    5.06335E+003   -3.61109E+005    8.16378E+005   -3.30745E+004    3.97764E+005    8.89689E+003    8.48170E+004    5.50961E+003    4.05657E+005   -2.45110E+004   -6.10266E+003
            1669    6.97501E+005    5.04041E+005    5.04041E+005    1.17167E+004   -2.94135E+005    7.98176E+005   -7.38743E+004    5.10240E+005    7.18373E+004    1.37152E+005    1.26332E+004    3.92134E+005   -6.59014E+004   -1.33402E+004
            1670    7.16407E+005    4.98872E+005    4.98872E+005    1.00023E+004   -3.23485E+005    8.22357E+005   -6.17963E+004    4.90135E+005    4.42256E+004    1.30414E+005    1.07492E+004    4.05548E+005   -5.18265E+004   -1.06349E+004
            1671    7.00268E+005    4.65407E+005    4.65407E+005    5.21783E+003   -3.40487E+005    8.05894E+005   -4.33795E+004    4.37013E+005    2.47181E+004    9.94112E+004    6.00922E+003    3.98856E+005   -4.30587E+004   -8.75083E+003
            1672    6.97787E+005    4.49109E+005    4.49109E+005    3.35663E+003   -3.55046E+005    8.04155E+005   -3.24733E+004    3.98880E+005    1.36210E+004    8.00419E+004    3.75685E+003    3.99487E+005   -3.09866E+004   -5.55403E+003
            1673    6.82210E+005    4.87876E+005    4.87876E+005    3.29099E+003   -2.92277E+005    7.80153E+005   -6.62966E+004    5.04727E+005    7.47363E+004    1.19993E+005    4.16016E+003    3.83576E+005   -6.66094E+004   -1.27199E+004
            1674    7.01998E+005    4.88658E+005    4.88658E+005    1.11197E+004   -3.17358E+005    8.06016E+005   -6.08068E+004    4.76999E+005    5.05218E+004    1.21063E+005    1.08361E+004    3.96889E+005   -5.97854E+004   -7.41101E+003
            1675    6.86864E+005    4.56132E+005    4.56132E+005    2.39700E+003   -3.34097E+005    7.90228E+005   -4.14773E+004    4.34735E+005    3.13857E+004    9.04053E+004    2.64096E+003    3.90809E+005   -4.98340E+004   -6.58408E+003
            1676    6.88090E+005    4.46167E+005    4.46167E+005    4.06855E+003   -3.46616E+005    7.92783E+005   -3.45400E+004    4.01123E+005    2.15468E+004    7.80489E+004    4.02438E+003    3.93382E+005   -3.95576E+004   -3.50875E+003
            1677    6.68051E+005    4.70893E+005    4.70893E+005    3.29151E+003   -2.94230E+005    7.65123E+005   -5.99851E+004    4.81164E+005    7.44553E+004    1.01627E+005    3.87339E+003    3.74700E+005   -7.54139E+004   -1.14338E+004
            1678    6.94548E+005    4.85917E+005    4.85917E+005    3.98148E+003   -3.10209E+005    7.96126E+005   -5.98967E+004    4.91896E+005    6.23920E+004    1.15106E+005    2.19211E+003    3.91600E+005   -6.51123E+004   -4.10469E+003
            1679    6.80473E+005    4.55840E+005    4.55840E+005    5.08415E+002   -3.26395E+005    7.82236E+005   -4.33178E+004    4.45036E+005    4.11986E+004    8.91326E+004   -3.77685E+002    3.85269E+005   -6.23608E+004   -4.51909E+003
            1680    6.75798E+005    4.40048E+005    4.40048E+005   -1.79786E+002   -3.38056E+005    7.78104E+005   -3.39373E+004    4.11303E+005    3.10019E+004    7.14553E+004   -6.45106E+002    3.85263E+005   -4.99270E+004   -2.88009E+003
            1681    6.63571E+005    4.34354E+005    4.34354E+005    5.39239E+002   -3.29527E+005    7.63881E+005   -3.51221E+004    4.08099E+005    4.20237E+004    6.52904E+004   -1.94769E+003    3.75937E+005   -6.54146E+004    1.37527E+003
            1682    6.74497E+005    4.57345E+005    4.57345E+005   -2.87932E+003   -3.16910E+005    7.74255E+005   -4.58517E+004    4.61362E+005    5.66602E+004    8.55483E+004   -4.65327E+003    3.78668E+005   -7.81836E+004   -5.01597E+003
            1683    6.92523E+005    4.88192E+005    4.88192E+005    2.20887E+003   -3.04756E+005    7.92949E+005   -6.18817E+004    5.01216E+005    7.49941E+004    1.10885E+005   -2.33615E+002    3.86448E+005   -8.51986E+004   -6.78457E+003
            1684    6.91419E+005    5.01840E+005    5.01840E+005    2.04387E+003   -2.87236E+005    7.89076E+005   -7.22160E+004    5.26918E+005    8.85853E+004    1.28002E+005    6.05545E+001    3.87553E+005   -6.94560E+004   -6.21736E+003
            1685    7.47915E+005    6.12538E+005    6.12538E+005    7.02161E+004   -2.40682E+005    8.53220E+005   -1.47357E+005    5.72848E+005    1.48237E+005    2.23584E+005    7.02517E+004    4.24752E+005   -1.25653E+004   -2.89062E+003
            1686    7.35680E+005    5.96993E+005    5.96993E+005    6.28223E+004   -2.42125E+005    8.39118E+005   -1.39230E+005    5.64695E+005    1.42939E+005    2.11835E+005    6.29167E+004    4.16513E+005   -3.63267E+004   -7.13722E+003
            1687    7.17962E+005    5.72530E+005    5.72530E+005    5.01076E+004   -2.46153E+005    8.18683E+005   -1.25495E+005    5.52970E+005    1.33587E+005    1.92889E+005    5.00086E+004    4.04343E+005   -5.55360E+004   -9.64394E+003
            1688    6.98080E+005    5.44281E+005    5.44281E+005    3.69434E+004   -2.51856E+005    7.96137E+005   -1.09790E+005    5.36622E+005    1.22211E+005    1.71582E+005    3.55767E+004    3.90710E+005   -7.04816E+004   -8.75945E+003
            1689    6.81894E+005    5.17172E+005    5.17172E+005    2.03260E+004   -2.60248E+005    7.77419E+005   -9.24167E+004    5.26305E+005    1.08684E+005    1.51070E+005    1.74955E+004    3.79369E+005   -7.97182E+004   -7.62760E+003
            1690    6.58839E+005    4.89094E+005    4.89094E+005    9.87338E+003   -2.62209E+005    7.51303E+005   -7.89194E+004    5.07130E+005    9.83812E+004    1.33906E+005    4.47142E+003    3.65258E+005   -8.24290E+004   -3.02512E+003
            1691    6.60014E+005    4.83440E+005    4.83440E+005   -9.31710E+003   -2.66438E+005    7.49878E+005   -6.92283E+004    5.28277E+005    8.77799E+004    1.33408E+005   -1.35027E+004    3.67921E+005   -6.46779E+004   -1.86606E+003
            1692    6.53476E+005    4.11598E+005    4.11598E+005    7.62615E+001   -3.41901E+005    7.53499E+005   -2.32579E+004    3.54044E+005    2.71907E+004    4.46357E+004   -2.05280E+003    3.73510E+005   -4.74033E+004    5.46477E+003
            1693    6.44869E+005    3.89804E+005    3.89804E+005    2.40804E+003   -3.54620E+005    7.44424E+005   -1.25306E+004    2.66507E+005    1.37965E+004    2.28902E+004    9.05124E+002    3.71140E+005   -2.54687E+004    1.01670E+004
            1694    6.41575E+005    3.70675E+005    3.70675E+005   -9.62513E+002   -3.70150E+005    7.40826E+005    1.45872E+002    1.14792E+005   -1.72679E+002    7.19915E+002   -9.84854E+002    3.70240E+005   -3.54151E+002    1.12928E+004
            1695    6.44823E+005    3.54679E+005   -3.89644E+005   -6.12244E+002   -3.89644E+005    7.44323E+005    1.18593E+004   -2.76002E+005   -1.38419E+004   -2.25727E+004    8.36705E+002    3.71133E+005    2.49058E+004    9.96503E+003
            1696    6.53291E+005    3.41728E+005   -4.11665E+005   -1.97453E+003   -4.11665E+005    7.53393E+005    2.39703E+004   -3.47879E+005   -2.82441E+004   -4.40531E+004    3.86350E+002    3.73439E+005    4.75031E+004    6.49875E+003
            1697    6.63432E+005    3.29426E+005   -4.34076E+005    1.89789E+003   -4.34076E+005    7.63502E+005    3.42507E+004   -4.14003E+005   -4.22288E+004   -6.48108E+004    4.28761E+003    3.75726E+005    6.55887E+004    8.78833E+002
            1698    6.75454E+005    3.16784E+005   -4.58741E+005    8.38695E+002   -4.58741E+005    7.75525E+005    4.70395E+004   -4.59179E+005   -5.86217E+004   -8.61367E+004    3.64004E+003    3.79536E+005    7.68869E+004   -2.14860E+003
            1699    6.75637E+005    3.00504E+005   -4.72936E+005    2.26018E+003   -4.72936E+005    7.73440E+005    5.67241E+004   -4.91032E+005   -7.14703E+004   -1.04123E+005    5.42083E+003    3.78231E+005    7.69883E+004   -3.50438E+003
            1700    6.65155E+005    2.78336E+005   -4.81101E+005   -2.02145E+003   -4.81101E+005    7.59437E+005    6.82623E+004   -5.03913E+005   -9.09525E+004   -1.18827E+005    4.99295E+003    3.70354E+005    7.80146E+004    3.07161E+003
            1701    6.60405E+005    4.10927E+005    4.10927E+005    9.52021E+002   -3.50904E+005    7.61831E+005   -2.03250E+004    3.35971E+005    1.64731E+004    4.42403E+004    2.61581E+002    3.79006E+005   -3.51434E+004    1.69699E+003
            1702    6.69118E+005    4.13087E+005    4.13087E+005   -3.85694E+002   -3.58891E+005    7.71978E+005   -1.79367E+004    3.32716E+005    9.70775E+003    4.44045E+004   -3.02274E+002    3.84680E+005   -2.65624E+004   -2.15088E+003
            1703    6.79221E+005    4.18358E+005    4.18358E+005    1.28267E+003   -3.65399E+005    7.83757E+005   -1.80805E+004    3.26510E+005    5.68910E+003    4.70193E+004    1.53295E+003    3.90776E+005   -2.07144E+004   -3.57328E+003
            1704    6.88353E+005    4.21762E+005    4.21762E+005    8.05463E+002   -3.72605E+005    7.94367E+005   -1.66543E+004    3.23132E+005    1.80256E+003    4.70558E+004    1.10463E+003    3.96238E+005   -1.48902E+004   -4.85037E+003
            1705    6.96004E+005    4.25516E+005    4.25516E+005    1.39068E+003   -3.77740E+005    8.03256E+005   -1.63889E+004    3.19612E+005   -4.81712E+002    4.80618E+004    1.58661E+003    4.00736E+005   -1.06054E+004   -4.31712E+003
            1706    7.02269E+005    4.28429E+005    4.28429E+005    9.67405E+002   -3.82076E+005    8.10505E+005   -1.57735E+004    3.20155E+005   -2.23869E+003    4.85045E+004    1.05467E+003    4.04402E+005   -6.02919E+003   -3.27680E+003
            1707    7.05311E+005    4.30007E+005    4.30007E+005    1.16310E+003   -3.84026E+005    8.14033E+005   -1.57148E+004    3.19236E+005   -2.94952E+003    4.89217E+004    1.17239E+003    4.06183E+005   -2.14327E+003   -1.00518E+003
            1708    6.57267E+005    3.95538E+005    3.95538E+005    1.48818E+002   -3.63183E+005    7.58721E+005   -1.08346E+004    2.74823E+005    9.07055E+003    2.36924E+004   -2.59191E+002    3.78850E+005   -1.76825E+004    3.80535E+003
            1709    6.68458E+005    4.00965E+005    4.00965E+005    1.78670E+003   -3.70750E+005    7.71715E+005   -1.06671E+004    2.61329E+005    5.57637E+003    2.46844E+004    1.74042E+003    3.85531E+005   -1.26415E+004    3.29751E+002
            1710    6.77995E+005    4.03947E+005    4.03947E+005    3.08349E+002   -3.78806E+005    7.82753E+005   -8.48301E+003    2.56635E+005    2.38782E+003    2.26454E+004    4.15806E+002    3.91145E+005   -8.49305E+003   -2.71852E+003
            1711    6.86825E+005    4.07887E+005    4.07887E+005    1.41214E+003   -3.85106E+005    7.92993E+005   -8.06449E+003    2.41687E+005    1.21853E+003    2.14647E+004    1.51021E+003    3.96311E+005   -5.80480E+003   -3.49434E+003
            1712    6.94213E+005    4.10261E+005    4.10261E+005    7.17362E+002   -3.91284E+005    8.01545E+005   -6.56481E+003    2.33180E+005    1.79628E+002    1.87358E+004    7.79004E+002    4.00634E+005   -3.29734E+003   -3.81623E+003
            1713    6.99453E+005    4.12680E+005    4.12680E+005    1.11810E+003   -3.94930E+005    8.07610E+005   -6.28932E+003    2.24949E+005    1.08959E+002    1.76166E+004    1.14242E+003    4.03697E+005   -1.96044E+003   -2.54027E+003
            1714    7.02325E+005    4.13608E+005    4.13608E+005    8.40977E+002   -3.97322E+005    8.10931E+005   -5.70898E+003    2.21068E+005   -2.25220E+001    1.63058E+004    8.43646E+002    4.05381E+005   -4.98985E+002   -1.09113E+003
            1715    6.51927E+005    3.74966E+005   -3.77811E+005    4.26829E+002   -3.77811E+005    7.52777E+005    8.06192E+002   -1.33104E+005   -9.87186E+002   -1.88458E+003    4.53192E+002    3.76347E+005    8.89546E+002    5.50979E+003
            1716    6.61269E+005    3.78213E+005   -3.85351E+005   -1.35071E+003   -3.85351E+005    7.63564E+005    2.82936E+003   -1.42761E+005   -1.62618E+003   -5.51690E+003   -1.34499E+003    3.81769E+005    2.40987E+003    4.39977E+002
            1717    6.71223E+005    3.82640E+005   -3.92403E+005   -1.46950E+002   -3.92403E+005    7.75043E+005    3.30313E+003   -1.85649E+005   -1.14347E+003   -8.58559E+003   -1.80321E+002    3.87485E+005    3.22296E+003   -2.04270E+003
            1718    6.80621E+005    3.85621E+005   -4.00261E+005   -1.26140E+003   -4.00261E+005    7.85882E+005    5.30028E+003   -2.03429E+005   -1.15892E+003   -1.34055E+004   -1.33645E+003    3.92856E+005    3.89517E+003   -3.84453E+003
            1719    6.88918E+005    3.88982E+005   -4.06459E+005   -7.47593E+002   -4.06459E+005    7.95441E+005    6.07495E+003   -2.24902E+005   -5.35510E+002   -1.68826E+004   -8.06714E+002    3.97607E+005    3.31369E+003   -3.61320E+003
            1720    6.95296E+005    3.91129E+005   -4.11663E+005   -1.29343E+003   -4.11663E+005    8.02792E+005    7.27565E+003   -2.35201E+005   -3.63510E+002   -2.01348E+004   -1.32862E+003    4.01257E+005    2.49613E+003   -2.88299E+003
            1721    6.98678E+005    3.92414E+005   -4.14271E+005   -1.14510E+003   -4.14271E+005    8.06685E+005    7.66746E+003   -2.42858E+005   -9.07501E+001   -2.17634E+004   -1.14819E+003    4.03195E+005    7.30953E+002   -8.71190E+002
            1722    6.56668E+005    3.62201E+005   -3.95849E+005   -1.53397E+003   -3.95849E+005    7.58050E+005    1.17272E+004   -2.70376E+005   -1.01599E+004   -2.39801E+004   -1.04151E+003    3.78407E+005    1.99007E+004    4.07592E+003
            1723    6.68163E+005    3.68118E+005   -4.03146E+005   -3.78037E+001   -4.03146E+005    7.71264E+005    1.16884E+004   -2.85963E+005   -7.08839E+003   -2.79887E+004    1.19466E+001    3.85104E+005    1.72356E+004   -7.04234E+001
            1724    6.79247E+005    3.72313E+005   -4.11731E+005   -1.42714E+003   -4.11731E+005    7.84043E+005    1.36150E+004   -2.93489E+005   -4.90845E+003   -3.43135E+004   -1.62316E+003    3.91431E+005    1.54917E+004   -3.12815E+003
            1725    6.90046E+005    3.76839E+005   -4.19608E+005   -9.40100E+002   -4.19608E+005    7.96447E+005    1.45697E+004   -3.07833E+005   -2.44426E+003   -4.00900E+004   -1.17499E+003    3.97547E+005    1.30708E+004   -4.21691E+003
            1726    6.99732E+005    3.80216E+005   -4.27374E+005   -1.79513E+003   -4.27374E+005    8.07590E+005    1.63177E+004   -3.17336E+005   -5.87208E+002   -4.63672E+004   -1.99886E+003    4.02990E+005    1.04528E+004   -4.50357E+003
            1727    7.07004E+005    3.83111E+005   -4.32823E+005   -1.53433E+003   -4.32823E+005    8.15934E+005    1.70821E+004   -3.26862E+005    1.00942E+003   -5.06367E+004   -1.61902E+003    4.07088E+005    6.50556E+003   -3.03956E+003
            1728    7.11011E+005    3.84429E+005   -4.36109E+005   -1.85790E+003   -4.36109E+005    8.20538E+005    1.78459E+004   -3.31157E+005    1.76405E+003   -5.34319E+004   -1.86983E+003    4.09332E+005    2.30150E+003   -1.20437E+003
            1729    6.61625E+005    3.48166E+005   -4.14825E+005    2.87487E+002   -4.14825E+005    7.62992E+005    2.21238E+004   -3.53022E+005   -1.92320E+004   -4.81648E+004    1.02548E+003    3.79328E+005    3.75973E+004    1.29605E+003
            1730    6.72232E+005    3.53013E+005   -4.22301E+005   -2.05149E+003   -4.22301E+005    7.75314E+005    2.37798E+004   -3.53160E+005   -1.39481E+004   -5.53493E+004   -2.04208E+003    3.85804E+005    3.16243E+004   -2.12949E+003
            1731    6.84186E+005    3.58144E+005   -4.30873E+005   -1.72844E+003   -4.30873E+005    7.89017E+005    2.48193E+004   -3.64618E+005   -9.73955E+003   -6.26734E+004   -2.04508E+003    3.92684E+005    2.69620E+004   -4.39813E+003
            1732    6.97185E+005    3.62561E+005   -4.41413E+005   -3.56678E+003   -4.41413E+005    8.03974E+005    2.74729E+004   -3.73503E+005   -6.53010E+003   -7.18634E+004   -4.02528E+003    3.99991E+005    2.26822E+004   -5.97991E+003
            1733    7.09485E+005    3.66931E+005   -4.51104E+005   -3.58613E+003   -4.51104E+005    8.18035E+005    2.92532E+004   -3.86891E+005   -3.90136E+003   -7.99530E+004   -3.90530E+003    4.06863E+005    1.71716E+004   -5.39291E+003
            1734    7.19056E+005    3.70114E+005   -4.58912E+005   -4.67023E+003   -4.58912E+005    8.29026E+005    3.11560E+004   -3.94451E+005   -2.26563E+003   -8.63792E+004   -4.82331E+003    4.12217E+005    1.09379E+004   -3.96771E+003
            1735    7.24411E+005    3.71892E+005   -4.63251E+005   -4.77912E+003   -4.63251E+005    8.35143E+005    3.20461E+004   -4.00243E+005   -1.36869E+003   -8.99750E+004   -4.79470E+003    4.15198E+005    3.52345E+003   -1.27920E+003
            1736    6.73068E+005    3.35239E+005   -4.39693E+005   -9.38978E+002   -4.39693E+005    7.74932E+005    3.51309E+004   -4.10481E+005   -3.42073E+004   -7.10755E+004   -1.09891E+002    3.83364E+005    5.26833E+004   -1.85339E+003
            1737    6.83996E+005    3.41794E+005   -4.45932E+005   -2.41466E+003   -4.45932E+005    7.87727E+005    3.55175E+004   -4.10558E+005   -2.63723E+004   -7.77718E+004   -2.40836E+003    3.90557E+005    4.37597E+004   -4.20628E+003
            1738    6.97516E+005    3.47485E+005   -4.55876E+005   -4.32212E+003   -4.55876E+005    8.03361E+005    3.75709E+004   -4.16590E+005   -2.03388E+004   -8.74579E+004   -4.91602E+003    3.98413E+005    3.82996E+004   -7.08538E+003
            1739    7.13063E+005    3.53106E+005   -4.68043E+005   -5.07728E+003   -4.68043E+005    8.21149E+005    4.00048E+004   -4.29701E+005   -1.60598E+004   -9.82460E+004   -5.70874E+003    4.07264E+005    3.15117E+004   -7.68509E+003
            1740    7.27352E+005    3.58322E+005   -4.79273E+005   -6.92849E+003   -4.79273E+005    8.37595E+005    4.26266E+004   -4.38597E+005   -1.23201E+004   -1.08144E+005   -7.41536E+003    4.15309E+005    2.42786E+004   -7.12305E+003
            1741    7.38759E+005    3.62234E+005   -4.88388E+005   -7.43472E+003   -4.88388E+005    8.50622E+005    4.45295E+004   -4.48826E+005   -1.00838E+004   -1.15856E+005   -7.64843E+003    4.21725E+005    1.51155E+004   -4.92452E+003
            1742    7.45032E+005    3.64380E+005   -4.93450E+005   -8.24722E+003   -4.93450E+005    8.57830E+005    4.57724E+004   -4.53095E+005   -8.84846E+003   -1.20197E+005   -8.27121E+003    4.25254E+005    5.07084E+003   -1.67330E+003
            1743    6.77600E+005    3.23428E+005   -4.55197E+005    8.19747E+002   -4.55197E+005    7.78625E+005    4.36496E+004   -4.49287E+005   -4.34124E+004   -8.95980E+004    2.06149E+003    3.83429E+005    6.25748E+004   -3.68962E+003
            1744    6.87023E+005    3.28091E+005   -4.61901E+005   -4.17348E+003   -4.61901E+005    7.89992E+005    4.59946E+004   -4.44527E+005   -3.59425E+004   -9.76970E+004   -4.34420E+003    3.89783E+005    5.56311E+004   -7.29944E+003
            1745    7.04275E+005    3.33436E+005   -4.76199E+005   -5.25902E+003   -4.76199E+005    8.09635E+005    4.93407E+004   -4.59840E+005   -3.13958E+004   -1.10712E+005   -5.91451E+003    3.99877E+005    4.86034E+004   -9.11455E+003
            1746    7.23197E+005    3.39201E+005   -4.92260E+005   -9.30933E+003   -4.92260E+005    8.31461E+005    5.41227E+004   -4.70653E+005   -2.74727E+004   -1.24765E+005   -1.01309E+004    4.10788E+005    4.09312E+004   -9.87588E+003
            1747    7.42290E+005    3.44589E+005   -5.08634E+005   -1.12990E+004   -5.08634E+005    8.53224E+005    5.84480E+004   -4.86984E+005   -2.49738E+004   -1.38495E+005   -1.18751E+004    4.21639E+005    3.10349E+004   -8.59474E+003
            1748    7.56997E+005    3.48930E+005   -5.21202E+005   -1.40407E+004   -5.21202E+005    8.70131E+005    6.21043E+004   -4.96566E+005   -2.32173E+004   -1.48805E+005   -1.42909E+004    4.30044E+005    1.96290E+004   -5.81655E+003
            1749    7.65592E+005    3.50927E+005   -5.28973E+005   -1.51161E+004   -5.28973E+005    8.79900E+005    6.43872E+004   -5.04417E+005   -2.28421E+004   -1.55172E+005   -1.51476E+004    4.34898E+005    6.32069E+003   -2.10231E+003
            1750    6.78039E+005    3.03164E+005   -4.74099E+005   -4.02326E+003   -4.74099E+005    7.77264E+005    5.83193E+004   -4.79385E+005   -6.76742E+004   -1.04321E+005   -2.96268E+003    3.81239E+005    7.22574E+004   -6.88467E+003
            1751    6.94512E+005    3.10033E+005   -4.86344E+005   -6.39250E+003   -4.86344E+005    7.96376E+005    6.09011E+004   -4.87879E+005   -5.93161E+004   -1.17294E+005   -6.09318E+003    3.91741E+005    6.44860E+004   -8.32619E+003
            1752    7.10036E+005    3.14804E+005   -4.99663E+005   -1.09862E+004   -4.99663E+005    8.14467E+005    6.52818E+004   -4.94634E+005   -5.46165E+004   -1.29444E+005   -1.17848E+004    4.01061E+005    5.93446E+004   -1.14969E+004
            1753    7.31847E+005    3.19785E+005   -5.19508E+005   -1.44743E+004   -5.19508E+005    8.39293E+005    7.13990E+004   -5.12625E+005   -5.32172E+004   -1.45619E+005   -1.53605E+004    4.14012E+005    5.00310E+004   -1.16083E+004
            1754    7.51372E+005    3.24906E+005   -5.36967E+005   -1.97672E+004   -5.36967E+005    8.61873E+005    7.72760E+004   -5.23583E+005   -5.14480E+004   -1.59839E+005   -2.05413E+004    4.25677E+005    3.90032E+004   -1.06463E+004
            1755    7.68453E+005    3.28762E+005   -5.52569E+005   -2.26751E+004   -5.52569E+005    8.81332E+005    8.21608E+004   -5.37437E+005   -5.14150E+004   -1.72021E+005   -2.30464E+004    4.35800E+005    2.46036E+004   -7.50594E+003
            1756    7.77697E+005    3.30465E+005   -5.61480E+005   -2.52957E+004   -5.61480E+005    8.91945E+005    8.54369E+004   -5.43727E+005   -5.18305E+004   -1.79140E+005   -2.53403E+004    4.41322E+005    8.47883E+003   -2.64070E+003
            1757    6.64492E+005    2.95574E+005   -4.64894E+005    3.75123E+003   -4.64894E+005    7.60468E+005    5.51896E+004   -4.85376E+005   -6.32755E+004   -1.07161E+005    4.86806E+003    3.70588E+005    8.10240E+004   -9.81649E+003
            1758    6.80892E+005    2.89615E+005   -4.89543E+005   -8.87176E+003   -4.89543E+005    7.79158E+005    6.96000E+004   -4.98222E+005   -7.74335E+004   -1.23448E+005   -7.91864E+003    3.81223E+005    7.57552E+004   -9.21631E+003
            1759    7.00844E+005    2.94099E+005   -5.07814E+005   -1.26065E+004   -5.07814E+005    8.01913E+005    7.54403E+004   -5.13668E+005   -7.25034E+004   -1.41214E+005   -1.26036E+004    3.93041E+005    7.04878E+004   -1.16717E+004
            1760    7.22295E+005    2.92210E+005   -5.34342E+005   -2.45262E+004   -5.34342E+005    8.26552E+005    8.88862E+004   -5.28359E+005   -8.03862E+004   -1.61378E+005   -2.48944E+004    4.06726E+005    6.02867E+004   -1.14770E+004
            1761    7.45791E+005    2.95147E+005   -5.58126E+005   -3.07507E+004   -5.58126E+005    8.53273E+005    9.79098E+004   -5.47376E+005   -8.12068E+004   -1.81073E+005   -3.14502E+004    4.20925E+005    4.77697E+004   -1.16500E+004
            1762    7.65375E+005    2.95471E+005   -5.80153E+005   -3.85984E+004   -5.80153E+005    8.75623E+005    1.07760E+005   -5.62365E+005   -8.63801E+004   -1.97990E+005   -3.89099E+004    4.33144E+005    3.03687E+004   -7.82988E+003
            1763    7.77022E+005    2.96627E+005   -5.92188E+005   -4.16242E+004   -5.92188E+005    8.88815E+005    1.12395E+005   -5.72351E+005   -8.78540E+004   -2.07639E+005   -4.16920E+004    4.40217E+005    1.07471E+004   -3.41740E+003
            1764    7.41824E+005    2.35162E+005   -6.10821E+005   -7.14751E+004   -6.10821E+005    8.45982E+005    1.49045E+005   -5.70611E+005   -1.56018E+005   -2.19602E+005   -7.15132E+004    4.21579E+005    1.33351E+004   -2.96882E+003
            1765    7.30389E+005    2.37627E+005   -5.95009E+005   -6.24772E+004   -5.95009E+005    8.32636E+005    1.39953E+005   -5.64319E+005   -1.49692E+005   -2.07300E+005   -6.28674E+004    4.13538E+005    3.80064E+004   -8.83773E+003
            1766    7.13518E+005    2.42742E+005   -5.70604E+005   -5.00855E+004   -5.70604E+005    8.13345E+005    1.25983E+005   -5.51760E+005   -1.39459E+005   -1.88151E+005   -5.03382E+004    4.01780E+005    5.72079E+004   -1.08791E+004
            1767    6.98180E+005    2.50425E+005   -5.45145E+005   -3.44162E+004   -5.45145E+005    7.95570E+005    1.09712E+005   -5.42206E+005   -1.27285E+005   -1.67678E+005   -3.41730E+004    3.90546E+005    7.16301E+004   -1.18443E+004
            1768    6.84504E+005    2.59078E+005   -5.21672E+005   -2.46733E+004   -5.21672E+005    7.80749E+005    9.57558E+004   -5.25390E+005   -1.15732E+005   -1.48812E+005   -2.27239E+004    3.81170E+005    8.08418E+004   -9.04699E+003
            1769    6.76399E+005    2.67379E+005   -5.03796E+005   -1.10536E+004   -5.03796E+005    7.71175E+005    8.24904E+004   -5.21899E+005   -1.05218E+005   -1.34998E+005   -7.25497E+003    3.74879E+005    8.63582E+004   -6.78285E+003
            1770    6.67424E+005    2.69880E+005   -4.91743E+005   -8.93876E+003   -4.91743E+005    7.61623E+005    7.69341E+004   -5.09236E+005   -1.00710E+005   -1.26784E+005   -3.30899E+003    3.69623E+005    8.72893E+004   -2.95137E+003
            1771    6.90254E+005    5.00947E+005    5.00947E+005    2.05487E+003   -2.86813E+005    7.87759E+005   -7.20629E+004    5.25922E+005    8.85135E+004    1.27615E+005    6.01226E+001    3.86985E+005    6.89370E+004    6.04988E+003
            1772    6.93425E+005    4.89257E+005    4.89257E+005    2.26227E+003   -3.04663E+005    7.93920E+005   -6.22853E+004    5.02595E+005    7.53493E+004    1.11665E+005   -1.58241E+002    3.86991E+005    8.49486E+004    6.84046E+003
            1773    6.75030E+005    4.58010E+005    4.58010E+005   -2.82925E+003   -3.16823E+005    7.74833E+005   -4.61194E+004    4.62272E+005    5.69251E+004    8.60108E+004   -4.57778E+003    3.78910E+005    7.84210E+004    5.15201E+003
            1774    6.63850E+005    4.34610E+005    4.34610E+005    5.57119E+002   -3.29586E+005    7.64197E+005   -3.51938E+004    4.08422E+005    4.20674E+004    6.54166E+004   -1.90251E+003    3.76069E+005    6.55807E+004   -1.26148E+003
            1775    6.76113E+005    4.40371E+005    4.40371E+005   -8.71296E+001   -3.38092E+005    7.78464E+005   -3.40640E+004    4.11566E+005    3.09512E+004    7.17761E+004   -5.35447E+002    3.85434E+005    4.99367E+004    2.95816E+003
            1776    6.88618E+005    4.46625E+005    4.46625E+005    4.10130E+003   -3.46760E+005    7.93384E+005   -3.46554E+004    4.01688E+005    2.14428E+004    7.84471E+004    4.07635E+003    3.93682E+005    3.94082E+004    3.60478E+003
            1777    6.98208E+005    4.49385E+005    4.49385E+005    3.38079E+003   -3.55257E+005    8.04642E+005   -3.25032E+004    3.99067E+005    1.34026E+004    8.03106E+004    3.79658E+003    3.99724E+005    3.08177E+004    5.66209E+003
            1778    7.08706E+005    4.55449E+005    4.55449E+005    5.04185E+003   -3.61459E+005    8.16908E+005   -3.30105E+004    3.97735E+005    8.68858E+003    8.48550E+004    5.48791E+003    4.05928E+005    2.42500E+004    6.11774E+003
            1779    7.18160E+005    4.60257E+005    4.60257E+005    4.42460E+003   -3.67589E+005    8.27846E+005   -3.23644E+004    4.01144E+005    4.74732E+003    8.75967E+004    4.74916E+003    4.11461E+005    1.72611E+004    5.61299E+003
            1780    7.24920E+005    4.64580E+005    4.64580E+005    4.97852E+003   -3.71095E+005    8.35675E+005   -3.28214E+004    4.03206E+005    2.90520E+003    9.04428E+004    5.11614E+003    4.15391E+005    1.06872E+004    3.77343E+003
            1781    7.28443E+005    4.66319E+005    4.66319E+005    4.76260E+003   -3.73436E+005    8.39755E+005   -3.25485E+004    4.04243E+005    1.68917E+003    9.11764E+004    4.77995E+003    4.17471E+005    3.41079E+003    1.41434E+003
            1782    6.81050E+005    4.56505E+005    4.56505E+005    6.08825E+002   -3.26373E+005    7.82879E+005   -4.35803E+004    4.45838E+005    4.12944E+004    8.97094E+004   -2.62947E+002    3.85607E+005    6.21961E+004    4.56684E+003
            1783    6.87467E+005    4.56892E+005    4.56892E+005    2.59635E+003   -3.34013E+005    7.90905E+005   -4.18253E+004    4.35532E+005    3.14351E+004    9.11582E+004    2.88249E+003    3.91126E+005    4.98216E+004    6.77893E+003
            1784    7.01336E+005    4.66524E+005    4.66524E+005    5.34523E+003   -3.40570E+005    8.07094E+005   -4.37664E+004    4.38432E+005    2.47794E+004    1.00373E+005    6.14637E+003    3.99444E+005    4.28239E+004    8.83137E+003
            1785    7.16506E+005    4.76291E+005    4.76291E+005    5.86995E+003   -3.48334E+005    8.24624E+005   -4.46090E+004    4.45990E+005    1.84133E+004    1.08705E+005    6.70841E+003    4.08393E+005    3.37633E+004    9.32210E+003
            1786    7.29761E+005    4.85844E+005    4.85844E+005    7.37757E+003   -3.54100E+005    8.39944E+005   -4.63737E+004    4.52501E+005    1.38809E+004    1.17308E+005    7.93191E+003    4.15957E+005    2.55402E+004    7.88939E+003
            1787    7.40887E+005    4.93533E+005    4.93533E+005    7.65056E+003   -3.59206E+005    8.52738E+005   -4.73259E+004    4.59722E+005    1.05716E+004    1.23510E+005    7.89614E+003    4.22305E+005    1.56500E+004    5.46051E+003
            1788    7.46374E+005    4.97330E+005    4.97330E+005    8.23983E+003   -3.61762E+005    8.59091E+005   -4.79360E+004    4.62087E+005    8.80241E+003    1.26741E+005    8.26427E+003    4.25444E+005    5.30853E+003    1.71835E+003
            1789    6.94390E+005    4.85876E+005    4.85876E+005    4.12943E+003   -3.10080E+005    7.95956E+005   -5.99750E+004    4.91623E+005    6.24879E+004    1.15071E+005    2.36632E+003    3.91515E+005    6.51444E+004    4.17542E+003
            1790    7.02618E+005    4.89549E+005    4.89549E+005    1.11663E+004   -3.17123E+005    8.06672E+005   -6.11975E+004    4.78349E+005    5.08580E+004    1.21829E+005    1.09052E+004    3.97220E+005    5.96713E+004    7.51447E+003
            1791    7.17032E+005    4.99680E+005    4.99680E+005    1.01679E+004   -3.23365E+005    8.23045E+005   -6.21612E+004    4.91033E+005    4.43420E+004    1.31193E+005    1.09487E+004    4.05861E+005    5.18209E+004    1.08020E+004
            1792    7.34908E+005    5.14577E+005    5.14577E+005    1.36608E+004   -3.29094E+005    8.43672E+005   -6.63814E+004    5.01534E+005    4.05108E+004    1.44114E+005    1.45193E+004    4.16223E+005    4.43526E+004    1.09850E+004
            1793    7.54091E+005    5.29393E+005    5.29393E+005    1.52682E+004   -3.36282E+005    8.65676E+005   -6.94596E+004    5.14916E+005    3.70965E+004    1.55348E+005    1.59340E+004    4.27403E+005    3.37313E+004    9.74723E+003
            1794    7.68438E+005    5.41168E+005    5.41168E+005    1.79237E+004   -3.41065E+005    8.82233E+005   -7.26754E+004    5.23264E+005    3.54416E+004    1.64394E+005    1.81903E+004    4.35829E+005    2.14805E+004    6.31546E+003
            1795    7.76510E+005    5.47217E+005    5.47217E+005    1.88512E+004   -3.44333E+005    8.91550E+005   -7.39117E+004    5.27937E+005    3.41187E+004    1.68729E+005    1.88871E+004    4.40604E+005    7.12344E+003    2.32246E+003
            1796    6.68229E+005    4.71121E+005    4.71121E+005    3.16773E+003   -2.94169E+005    7.65290E+005   -6.00398E+004    4.81733E+005    7.44690E+004    1.01873E+005    3.77699E+003    3.74778E+005    7.54305E+004    1.15387E+004
            1797    6.82446E+005    4.88298E+005    4.88298E+005    3.50474E+003   -2.92117E+005    7.80415E+005   -6.65621E+004    5.04978E+005    7.49098E+004    1.20438E+005    4.33855E+003    3.83656E+005    6.68535E+004    1.26682E+004
            1798    6.98243E+005    5.04975E+005    5.04975E+005    1.19917E+004   -2.94029E+005    7.99004E+005   -7.43124E+004    5.11036E+005    7.21167E+004    1.37944E+005    1.28767E+004    3.92540E+005    6.58534E+004    1.32780E+004
            1799    7.24528E+005    5.30489E+005    5.30489E+005    1.92793E+004   -2.98648E+005    8.29137E+005   -8.37067E+004    5.29650E+005    7.36889E+004    1.57226E+005    2.02056E+004    4.08423E+005    5.68630E+004    1.29769E+004
            1800    7.46762E+005    5.52090E+005    5.52090E+005    2.73883E+004   -3.02856E+005    8.54947E+005   -9.22076E+004    5.41731E+005    7.36274E+004    1.74831E+005    2.81646E+004    4.22046E+005    4.46403E+004    1.14890E+004
            1801    7.66130E+005    5.70143E+005    5.70143E+005    3.19041E+004   -3.06989E+005    8.77132E+005   -9.83526E+004    5.55644E+005    7.42860E+004    1.88455E+005    3.23171E+004    4.33865E+005    2.85562E+004    8.29603E+003
            1802    7.76492E+005    5.79823E+005    5.79823E+005    3.45279E+004   -3.09209E+005    8.89031E+005   -1.01714E+005    5.62730E+005    7.42283E+004    1.96331E+005    3.45830E+004    4.40189E+005    9.85318E+003    3.04423E+003
            1803    7.47726E+005    6.12370E+005    6.12370E+005    7.01947E+004   -2.40636E+005    8.53006E+005   -1.47309E+005    5.72687E+005    1.48258E+005    2.23440E+005    7.02302E+004    4.24639E+005    1.29931E+004    2.94703E+003
            1804    7.35604E+005    5.97046E+005    5.97046E+005    6.27723E+004   -2.41953E+005    8.39000E+005   -1.39288E+005    5.64903E+005    1.43130E+005    2.11883E+005    6.28521E+004    4.16454E+005    3.63764E+004    7.06992E+003
            1805    7.18200E+005    5.72758E+005    5.72758E+005    5.01038E+004   -2.46185E+005    8.18943E+005   -1.25559E+005    5.53251E+005    1.33563E+005    1.93099E+005    5.00147E+004    4.04495E+005    5.53261E+004    9.65104E+003
            1806    6.98722E+005    5.44902E+005    5.44902E+005    3.69474E+004   -2.51937E+005    7.96839E+005   -1.09971E+005    5.37368E+005    1.22262E+005    1.71994E+005    3.56561E+004    3.91128E+005    7.01201E+004    8.89847E+003
            1807    6.82667E+005    5.18194E+005    5.18194E+005    2.08735E+004   -2.60124E+005    7.78319E+005   -9.29812E+004    5.26755E+005    1.09138E+005    1.51686E+005    1.81193E+004    3.79887E+005    7.94688E+004    7.71295E+003
            1808    6.59897E+005    4.90123E+005    4.90123E+005    1.01290E+004   -2.62387E+005    7.52509E+005   -7.92882E+004    5.07951E+005    9.86495E+004    1.34334E+005    4.88091E+003    3.65837E+005    8.26806E+004    3.39559E+003
            1809    6.59775E+005    4.83433E+005    4.83433E+005   -8.72853E+003   -2.66271E+005    7.49704E+005   -6.94780E+004    5.27450E+005    8.80917E+004    1.33405E+005   -1.30627E+004    3.67673E+005    6.55112E+004    1.74433E+003
            1810    7.76834E+005    2.96325E+005   -5.92258E+005   -4.17250E+004   -5.92258E+005    8.88583E+005    1.12553E+005   -5.72402E+005   -8.81198E+004   -2.07743E+005   -4.17953E+004    4.40103E+005   -1.10296E+004    3.48545E+003
            1811    7.77582E+005    3.30198E+005   -5.61601E+005   -2.53979E+004   -5.61601E+005    8.91799E+005    8.56004E+004   -5.43850E+005   -5.20859E+004   -1.79268E+005   -2.54475E+004    4.41246E+005   -9.01890E+003    2.78594E+003
            1812    7.65547E+005    3.50735E+005   -5.29099E+005   -1.51473E+004   -5.29099E+005    8.79834E+005    6.45038E+004   -5.04681E+005   -2.30427E+004   -1.55285E+005   -1.51835E+004    4.34862E+005   -6.89572E+003    2.25201E+003
            1813    7.44887E+005    3.64296E+005   -4.93363E+005   -8.20800E+003   -4.93363E+005    8.57659E+005    4.57581E+004   -4.53135E+005   -8.87623E+003   -1.20162E+005   -8.23629E+003    4.25166E+005   -5.55825E+003    1.81364E+003
            1814    7.24301E+005    3.71852E+005   -4.63166E+005   -4.77843E+003   -4.63166E+005    8.35018E+005    3.20309E+004   -4.00132E+005   -1.39829E+003   -8.98977E+004   -4.79684E+003    4.15138E+005   -3.83449E+003    1.38916E+003
            1815    7.10905E+005    3.84411E+005   -4.36005E+005   -1.84036E+003   -4.36005E+005    8.20416E+005    1.78115E+004   -3.31007E+005    1.77893E+003   -5.33594E+004   -1.85402E+003    4.09271E+005   -2.45704E+003    1.29056E+003
            1816    6.98664E+005    3.92378E+005   -4.14291E+005   -1.17652E+003   -4.14291E+005    8.06669E+005    7.69642E+003   -2.42824E+005   -9.11259E+001   -2.18181E+004   -1.18006E+003    4.03186E+005   -7.96306E+002    9.14532E+002
            1817    7.02280E+005    4.13602E+005    4.13602E+005    8.47266E+002   -3.97277E+005    8.10879E+005   -5.72421E+003    2.21194E+005   -2.93973E+001    1.63522E+004    8.49825E+002    4.05355E+005    4.71742E+002    1.10567E+003
            1818    7.05401E+005    4.30109E+005    4.30109E+005    1.14886E+003   -3.84025E+005    8.14134E+005   -1.57443E+004    3.19581E+005   -2.96958E+003    4.90445E+004    1.15787E+003    4.06229E+005    2.09472E+003    9.95390E+002
            1819    7.64919E+005    2.95042E+005   -5.80033E+005   -3.86489E+004   -5.80033E+005    8.75075E+005    1.07880E+005   -5.62314E+005   -8.67714E+004   -1.97898E+005   -3.89697E+004    4.32860E+005   -3.08835E+004    7.95107E+003
            1820    7.67914E+005    3.28188E+005   -5.52495E+005   -2.27738E+004   -5.52495E+005    8.80683E+005    8.23604E+004   -5.37473E+005   -5.19176E+004   -1.72002E+005   -2.31622E+004    4.35466E+005   -2.53148E+004    7.67892E+003
            1821    7.56361E+005    3.48657E+005   -5.20737E+005   -1.39427E+004   -5.20737E+005    8.69394E+005    6.20073E+004   -4.96289E+005   -2.33895E+004   -1.48424E+005   -1.42085E+004    4.29678E+005   -2.03258E+004    5.99130E+003
            1822    7.38066E+005    3.62128E+005   -4.87708E+005   -7.32550E+003   -4.87708E+005    8.49836E+005    4.43019E+004   -4.48073E+005   -1.00771E+004   -1.15276E+005   -7.55274E+003    4.21346E+005   -1.55904E+004    5.06817E+003
            1823    7.18422E+005    3.70125E+005   -4.58186E+005   -4.58193E+003   -4.58186E+005    8.28311E+005    3.08809E+004   -3.93297E+005   -2.24717E+003   -8.56533E+004   -4.74235E+003    4.11886E+005   -1.11934E+004    4.05224E+003
            1824    7.06655E+005    3.83200E+005   -4.32341E+005   -1.52210E+003   -4.32341E+005    8.15541E+005    1.68875E+004   -3.25476E+005    1.01997E+003   -5.00735E+004   -1.60910E+003    4.06907E+005   -6.56081E+003    3.08672E+003
            1825    6.95122E+005    3.91212E+005   -4.11381E+005   -1.28944E+003   -4.11381E+005    8.02593E+005    7.15288E+003   -2.33596E+005   -3.85766E+002   -1.97480E+004   -1.32492E+003    4.01162E+005   -2.49757E+003    2.90355E+003
            1826    6.99547E+005    4.12954E+005    4.12954E+005    1.09063E+003   -3.94761E+005    8.07715E+005   -6.42815E+003    2.27354E+005    1.16931E+002    1.80519E+004    1.11559E+003    4.03745E+005    2.01766E+003    2.53618E+003
            1827    7.02472E+005    4.28857E+005    4.28857E+005    1.03789E+003   -3.81872E+005    8.10730E+005   -1.60076E+004    3.21388E+005   -2.22756E+003    4.91259E+004    1.12442E+003    4.04495E+005    6.03617E+003    3.25387E+003
            1828    7.45069E+005    2.94928E+005   -5.57517E+005   -3.06381E+004   -5.57517E+005    8.52445E+005    9.77421E+004   -5.46871E+005   -8.13428E+004   -1.80552E+005   -3.13312E+004    4.20469E+005   -4.84144E+004    1.16813E+004
            1829    7.50193E+005    3.24649E+005   -5.35871E+005   -1.94786E+004   -5.35871E+005    8.60520E+005    7.69002E+004   -5.22770E+005   -5.14222E+004   -1.59006E+005   -2.02719E+004    4.24978E+005   -3.96972E+004    1.07678E+004
            1830    7.40783E+005    3.44510E+005   -5.07019E+005   -1.10122E+004   -5.07019E+005    8.51529E+005    5.78405E+004   -4.85238E+005   -2.48271E+004   -1.37091E+005   -1.16030E+004    4.20822E+005   -3.16093E+004    8.66804E+003
            1831    7.25819E+005    3.58414E+005   -4.77463E+005   -6.66307E+003   -4.77463E+005    8.35878E+005    4.19040E+004   -4.36126E+005   -1.20633E+004   -1.06485E+005   -7.16414E+003    4.14508E+005   -2.45310E+004    7.18758E+003
            1832    7.08333E+005    3.67122E+005   -4.49627E+005   -3.48009E+003   -4.49627E+005    8.16749E+005    2.86616E+004   -3.84037E+005   -3.81352E+003   -7.83712E+004   -3.80007E+003    4.06286E+005   -1.71608E+004    5.36955E+003
            1833    6.99081E+005    3.80579E+005   -4.26282E+005   -1.73716E+003   -4.26282E+005    8.06861E+005    1.58133E+004   -3.13863E+005   -5.02921E+002   -4.49991E+004   -1.93788E+003    4.02666E+005   -1.02679E+004    4.48547E+003
            1834    6.88736E+005    3.89361E+005   -4.05876E+005   -7.57994E+002   -4.05876E+005    7.95237E+005    5.75797E+003   -2.20160E+005   -5.42257E+002   -1.59182E+004   -8.13462E+002    3.97516E+005   -3.12673E+003    3.58452E+003
            1835    6.94379E+005    4.10843E+005    4.10843E+005    7.42998E+002   -3.90886E+005    8.01729E+005   -6.90004E+003    2.37260E+005    1.97742E+002    1.96941E+004    8.08231E+002    4.00713E+005    3.49454E+003    3.82012E+003
            1836    6.96349E+005    4.26044E+005    4.26044E+005    1.39483E+003   -3.77599E+005    8.03643E+005   -1.66133E+004    3.21271E+005   -5.11053E+002    4.87594E+004    1.59156E+003    4.00906E+005    1.06466E+004    4.33094E+003
            1837    7.21419E+005    2.92216E+005   -5.33323E+005   -2.40645E+004   -5.33323E+005    8.25539E+005    8.83906E+004   -5.27834E+005   -8.02092E+004   -1.60549E+005   -2.44140E+004    4.06155E+005   -6.08681E+004    1.14888E+004
            1838    7.30214E+005    3.19871E+005   -5.17593E+005   -1.39873E+004   -5.17593E+005    8.37463E+005    7.05697E+004   -5.10858E+005   -5.27612E+004   -1.44079E+005   -1.48690E+004    4.13085E+005   -5.05255E+004    1.15779E+004
            1839    7.21153E+005    3.39404E+005   -4.89780E+005   -8.84579E+003   -4.89780E+005    8.29185E+005    5.30740E+004   -4.67749E+005   -2.69828E+004   -1.22572E+005   -9.66759E+003    4.09717E+005   -4.11423E+004    9.80334E+003
            1840    7.11226E+005    3.53465E+005   -4.65652E+005   -4.82597E+003   -4.65652E+005    8.19117E+005    3.90042E+004   -4.25911E+005   -1.56045E+004   -9.59590E+004   -5.44888E+003    4.06342E+005   -3.13780E+004    7.55211E+003
            1841    6.95858E+005    3.62973E+005   -4.39527E+005   -3.43652E+003   -4.39527E+005    8.02500E+005    2.66633E+004   -3.69485E+005   -6.30251E+003   -6.98035E+004   -3.88393E+003    3.99346E+005   -2.23094E+004    5.85891E+003
            1842    6.89479E+005    3.77417E+005   -4.18402E+005   -8.98648E+002   -4.18402E+005    7.95820E+005    1.39612E+004   -3.03346E+005   -2.28638E+003   -3.84742E+004   -1.12300E+003    3.97282E+005   -1.26173E+004    4.12997E+003
            1843    6.80473E+005    3.86114E+005   -3.99603E+005   -1.26048E+003   -3.99603E+005    7.85718E+005    4.91658E+003   -1.96761E+005   -1.13222E+003   -1.22888E+004   -1.32868E+003    3.92785E+005   -3.53211E+003    3.84105E+003
            1844    6.87178E+005    4.08567E+005    4.08567E+005    1.44862E+003   -3.84827E+005    7.93393E+005   -8.39620E+003    2.45292E+005    1.28654E+003    2.23516E+004    1.55043E+003    3.96497E+005    6.03919E+003    3.50096E+003
            1845    6.88592E+005    4.22002E+005    4.22002E+005    7.91784E+002   -3.72637E+005    7.94639E+005   -1.67189E+004    3.23737E+005    1.74022E+003    4.73243E+004    1.09218E+003    3.96366E+005    1.48610E+004    4.87911E+003
            1846    6.99921E+005    2.94403E+005   -5.06494E+005   -1.21724E+004   -5.06494E+005    8.00897E+005    7.47545E+004   -5.12553E+005   -7.19923E+004   -1.40094E+005   -1.21767E+004    3.92495E+005   -7.07860E+004    1.16940E+004
            1847    7.08410E+005    3.15239E+005   -4.97440E+005   -1.04134E+004   -4.97440E+005    8.12679E+005    6.42050E+004   -4.92387E+005   -5.38190E+004   -1.27608E+005   -1.11876E+004    4.00192E+005   -5.94156E+004    1.13419E+004
            1848    7.02461E+005    3.33978E+005   -4.73679E+005   -4.89824E+003   -4.73679E+005    8.07657E+005    4.81997E+004   -4.56380E+005   -3.06689E+004   -1.08404E+005   -5.52627E+003    3.98982E+005   -4.83948E+004    8.87544E+003
            1849    6.95928E+005    3.48061E+005   -4.53564E+005   -4.11727E+003   -4.53564E+005    8.01624E+005    3.65401E+004   -4.12527E+005   -1.97403E+004   -8.51965E+004   -4.68359E+003    3.97659E+005   -3.77813E+004    6.83240E+003
            1850    6.83202E+005    3.58735E+005   -4.29205E+005   -1.65484E+003   -4.29205E+005    7.87940E+005    2.40416E+004   -3.60551E+005   -9.34242E+003   -6.08258E+004   -1.95647E+003    3.92236E+005   -2.63117E+004    4.23287E+003
            1851    6.78885E+005    3.72932E+005   -4.10717E+005   -1.40882E+003   -4.10717E+005    7.83649E+005    1.30645E+004   -2.89059E+005   -4.68633E+003   -3.29102E+004   -1.59695E+003    3.91280E+005   -1.48812E+004    3.07335E+003
            1852    6.71303E+005    3.83182E+005   -3.91957E+005   -1.40293E+002   -3.91957E+005    7.75138E+005    2.97176E+003   -1.79066E+005   -9.85730E+002   -7.75963E+003   -1.69921E+002    3.87539E+005   -2.81873E+003    2.06600E+003
            1853    6.78354E+005    4.04436E+005    4.04436E+005    3.19866E+002   -3.78725E+005    7.83162E+005   -8.67702E+003    2.58620E+005    2.35902E+003    2.32389E+004    4.33144E+002    3.91337E+005    8.70734E+003    2.80209E+003
            1854    6.79751E+005    4.18803E+005    4.18803E+005    1.28253E+003   -3.65560E+005    7.84363E+005   -1.81752E+004    3.27292E+005    5.66942E+003    4.73224E+004    1.53383E+003    3.91076E+005    2.06296E+004    3.59668E+003
            1855    6.80316E+005    2.89902E+005   -4.88632E+005   -8.57259E+003   -4.88632E+005    7.78535E+005    6.91009E+004   -4.97414E+005   -7.70835E+004   -1.22637E+005   -7.58245E+003    3.80919E+005   -7.57499E+004    9.08400E+003
            1856    6.93548E+005    3.10613E+005   -4.84752E+005   -6.10643E+003   -4.84752E+005    7.95365E+005    6.00816E+004   -4.85883E+005   -5.85859E+004   -1.15891E+005   -5.76832E+003    3.91282E+005   -6.43091E+004    8.10033E+003
            1857    6.85807E+005    3.28720E+005   -4.59971E+005   -3.92400E+003   -4.59971E+005    7.88690E+005    4.50583E+004   -4.41607E+005   -3.51711E+004   -9.59445E+004   -4.05943E+003    3.89228E+005   -5.51846E+004    7.02778E+003
            1858    6.83163E+005    3.42390E+005   -4.44453E+005   -2.35195E+003   -4.44453E+005    7.86843E+005    3.48048E+004   -4.07557E+005   -2.57796E+004   -7.63074E+004   -2.32755E+003    3.90210E+005   -4.31395E+004    3.99002E+003
            1859    6.71691E+005    3.53511E+005   -4.21221E+005   -2.03701E+003   -4.21221E+005    7.74731E+005    2.32489E+004   -3.50168E+005   -1.35154E+004   -5.42044E+004   -2.02694E+003    3.85585E+005   -3.09470E+004    2.03299E+003
            1860    6.68246E+005    3.68591E+005   -4.02781E+005   -4.20330E+001   -4.02781E+005    7.71372E+005    1.14108E+004   -2.83666E+005   -6.85632E+003   -2.73780E+004    1.85083E+000    3.85185E+005   -1.67423E+004    8.99151E+001
            1861    6.61546E+005    3.78560E+005   -3.85324E+005   -1.36289E+003   -3.85324E+005    7.63884E+005    2.70869E+003   -1.38389E+005   -1.56874E+003   -5.19818E+003   -1.35915E+003    3.81931E+005   -2.19535E+003   -3.14118E+002
            1862    6.68838E+005    4.01286E+005    4.01286E+005    1.73562E+003   -3.70865E+005    7.72151E+005   -1.07187E+004    2.62431E+005    5.53969E+003    2.49207E+004    1.69568E+003    3.85747E+005    1.26034E+004   -2.32019E+002
            1863    6.69599E+005    4.13525E+005    4.13525E+005   -3.38106E+002   -3.59004E+005    7.72530E+005   -1.80609E+004    3.33337E+005    9.65488E+003    4.47701E+004   -2.42371E+002    3.84947E+005    2.65610E+004    2.25032E+003
            1864    6.64154E+005    2.95717E+005   -4.64409E+005    3.72575E+003   -4.64409E+005    7.60126E+005    5.49885E+004   -4.84615E+005   -6.31823E+004   -1.06614E+005    4.83040E+003    3.70404E+005   -8.11326E+004    9.80537E+003
            1865    6.77432E+005    3.03712E+005   -4.72929E+005   -3.76492E+003   -4.72929E+005    7.76641E+005    5.76607E+004   -4.77959E+005   -6.69370E+004   -1.03379E+005   -2.66639E+003    3.80977E+005   -7.19914E+004    6.68249E+003
            1866    6.77081E+005    3.23902E+005   -4.54201E+005    8.45201E+002   -4.54201E+005    7.78103E+005    4.31514E+004   -4.47499E+005   -4.28785E+004   -8.86714E+004    2.09578E+003    3.83237E+005   -6.22086E+004    3.52730E+003
            1867    6.72580E+005    3.35621E+005   -4.38799E+005   -9.18538E+002   -4.38799E+005    7.74421E+005    3.46988E+004   -4.08653E+005   -3.37155E+004   -7.02953E+004   -8.56356E+001    3.83182E+005   -5.21820E+004    1.71561E+003
            1868    6.61549E+005    3.48440E+005   -4.14485E+005    2.25011E+002   -4.14485E+005    7.62925E+005    2.19398E+004   -3.51705E+005   -1.89387E+004   -4.78265E+004    9.45762E+002    3.79343E+005   -3.71255E+004   -1.30619E+003
            1869    6.56877E+005    3.62397E+005   -3.95895E+005   -1.50816E+003   -3.95895E+005    7.58292E+005    1.16687E+004   -2.70144E+005   -1.00431E+004   -2.39326E+004   -1.03044E+003    3.78539E+005   -1.97124E+004   -3.98780E+003
            1870    6.52237E+005    3.75067E+005   -3.78069E+005    3.95125E+002   -3.78069E+005    7.53136E+005    8.68830E+002   -1.34251E+005   -9.96327E+002   -2.03207E+003    4.21911E+002    3.76528E+005   -9.32536E+002   -5.34770E+003
            1871    6.57486E+005    3.95464E+005    3.95464E+005    1.58827E+002   -3.63516E+005    7.58980E+005   -1.07025E+004    2.73662E+005    8.85234E+003    2.34874E+004   -2.32386E+002    3.78989E+005    1.75023E+004   -3.68206E+003
            1872    6.60797E+005    4.11199E+005    4.11199E+005    9.11662E+002   -3.51081E+005    7.62280E+005   -2.03435E+004    3.36443E+005    1.63932E+004    4.43944E+004    2.43051E+002    3.79237E+005    3.50511E+004   -1.58918E+003
            1873    6.53397E+005    4.11301E+005    4.11301E+005    1.61607E+002   -3.42129E+005    7.53430E+005   -2.31113E+004    3.52840E+005    2.69604E+004    4.43290E+004   -1.95537E+003    3.73504E+005    4.71886E+004   -5.49398E+003
            1874    6.44736E+005    3.89295E+005    3.89295E+005    2.32224E+003   -3.54985E+005    7.44280E+005   -1.22110E+004    2.64405E+005    1.34090E+004    2.23601E+004    8.63863E+002    3.71110E+005    2.48927E+004   -1.01200E+004
            1875    6.41478E+005    3.70318E+005   -3.70396E+005   -9.61342E+002   -3.70396E+005    7.40714E+005    3.46454E+002    1.04422E+005   -4.04758E+002    3.17427E+002   -9.52032E+002    3.70186E+005   -1.61461E+002   -1.12632E+004
            1876    6.45238E+005    3.54696E+005   -3.90101E+005   -6.82378E+002   -3.90101E+005    7.44798E+005    1.20291E+004   -2.76932E+005   -1.40218E+004   -2.28333E+004    7.67880E+002    3.71357E+005   -2.51263E+004   -9.87510E+003
            1877    6.53381E+005    3.41799E+005   -4.11693E+005   -1.89185E+003   -4.11693E+005    7.53493E+005    2.39286E+004   -3.48125E+005   -2.81341E+004   -4.41108E+004    4.59210E+002    3.73502E+005   -4.73958E+004   -6.48036E+003
            1878    6.63330E+005    3.29608E+005   -4.33806E+005    1.80554E+003   -4.33806E+005    7.63414E+005    3.41308E+004   -4.13163E+005   -4.20422E+004   -6.45488E+004    4.19877E+003    3.75758E+005   -6.51540E+004   -1.00534E+003
            1879    6.74927E+005    3.17165E+005   -4.57809E+005    1.00469E+003   -4.57809E+005    7.74974E+005    4.65466E+004   -4.57921E+005   -5.79733E+004   -8.54730E+004    3.80649E+003    3.79337E+005   -7.64899E+004    2.02164E+003
            1880    6.75359E+005    3.00778E+005   -4.72408E+005    2.20316E+003   -4.72408E+005    7.73186E+005    5.64754E+004   -4.90084E+005   -7.12460E+004   -1.03613E+005    5.43311E+003    3.78115E+005   -7.69326E+004    3.27249E+003
            1881    6.64673E+005    2.78958E+005   -4.80040E+005   -1.89285E+003   -4.80040E+005    7.58998E+005    6.76582E+004   -5.02528E+005   -8.98135E+004   -1.18171E+005    5.00943E+003    3.70116E+005   -7.81558E+004   -2.83443E+003
            1882    7.42086E+005    2.35243E+005   -6.11035E+005   -7.14849E+004   -6.11035E+005    8.46278E+005    1.49093E+005   -5.70837E+005   -1.56034E+005   -2.19718E+005   -7.15253E+004    4.21724E+005   -1.33226E+004    3.00382E+003
            1883    7.30333E+005    2.37539E+005   -5.95031E+005   -6.25266E+004   -5.95031E+005    8.32569E+005    1.40006E+005   -5.64298E+005   -1.49853E+005   -2.07242E+005   -6.29239E+004    4.13502E+005   -3.81110E+004    8.88381E+003
            1884    7.13174E+005    2.42584E+005   -5.70362E+005   -5.00620E+004   -5.70362E+005    8.12946E+005    1.25947E+005   -5.51548E+005   -1.39593E+005   -1.87924E+005   -5.03227E+004    4.01550E+005   -5.74831E+004    1.09407E+004
            1885    6.97843E+005    2.50683E+005   -5.44541E+005   -3.42439E+004   -5.44541E+005    7.95224E+005    1.09367E+005   -5.41642E+005   -1.27039E+005   -1.67110E+005   -3.39533E+004    3.90275E+005   -7.21649E+004    1.17909E+004
            1886    6.83861E+005    2.59317E+005   -5.20710E+005   -2.42323E+004   -5.20710E+005    7.80027E+005    9.52086E+004   -5.24806E+005   -1.15367E+005   -1.48053E+005   -2.22063E+004    3.80686E+005   -8.13772E+004    8.98311E+003
            1887    6.75725E+005    2.67668E+005   -5.02766E+005   -1.06510E+004   -5.02766E+005    7.70434E+005    8.19164E+004   -5.21151E+005   -1.04695E+005   -1.34290E+005   -6.76461E+003    3.74485E+005   -8.63942E+004    6.60041E+003
            1888    6.67611E+005    2.69739E+005   -4.92093E+005   -9.13653E+003   -4.92093E+005    7.61833E+005    7.71636E+004   -5.09408E+005   -1.01315E+005   -1.26675E+005   -3.50089E+003    3.69710E+005   -8.74272E+004    2.93833E+003
            1889    7.95855E+005    5.43839E+005    5.43839E+005    2.23184E+004   -3.72206E+005    9.16045E+005   -6.46503E+004    4.92737E+005    5.00224E+004    1.21589E+005    2.23391E+004    4.56499E+005   -1.05564E+004   -1.59641E+003
            1890    7.96368E+005    5.18703E+005    5.18703E+005    1.06949E+004   -3.99115E+005    9.17817E+005   -4.34276E+004    4.52972E+005    2.17074E+004    9.78545E+004    1.07209E+004    4.57256E+005   -7.99750E+003   -1.50428E+003
            1891    7.86778E+005    4.98266E+005    4.98266E+005    6.47069E+003   -4.09163E+005    9.07428E+005   -3.18579E+004    4.13102E+005    8.69675E+003    8.03916E+004    6.48532E+003    4.52257E+005   -5.89661E+003   -1.04282E+003
            1892    7.65415E+005    4.68103E+005    4.68103E+005    2.23167E+003   -4.15281E+005    8.83384E+005   -1.83514E+004    3.48815E+005    5.04453E+002    5.23054E+004    2.24427E+003    4.40915E+005   -3.81904E+003   -9.43882E+002
            1893    7.86353E+005    5.35900E+005    5.35900E+005    2.06573E+004   -3.69213E+005    9.05113E+005   -6.24480E+004    4.86718E+005    4.93287E+004    1.17149E+005    2.08661E+004    4.50229E+005   -3.06746E+004   -4.82229E+003
            1894    7.88043E+005    5.12959E+005    5.12959E+005    1.00618E+004   -3.95248E+005    9.08207E+005   -4.25908E+004    4.48868E+005    2.27363E+004    9.47669E+004    1.02691E+004    4.52055E+005   -2.34939E+004   -4.19492E+003
            1895    7.81321E+005    4.94783E+005    4.94783E+005    6.07610E+003   -4.06333E+005    9.01115E+005   -3.15086E+004    4.11427E+005    9.48290E+003    7.88335E+004    6.20936E+003    4.48895E+005   -1.69781E+004   -3.13768E+003
            1896    7.60921E+005    4.65500E+005    4.65500E+005    2.26084E+003   -4.12694E+005    8.78194E+005   -1.83558E+004    3.47269E+005    1.42676E+003    5.12831E+004    2.35744E+003    4.38227E+005   -1.17519E+004   -2.45832E+003
            1897    7.68391E+005    5.21479E+005    5.21479E+005    1.81268E+004   -3.62971E+005    8.84449E+005   -5.88782E+004    4.75277E+005    4.87756E+004    1.09457E+005    1.84023E+004    4.38493E+005   -4.84014E+004   -6.29918E+003
            1898    7.73975E+005    5.02863E+005    5.02863E+005    8.22452E+003   -3.89078E+005    8.91941E+005   -4.06697E+004    4.43106E+005    2.44928E+004    8.87728E+004    8.74365E+003    4.43230E+005   -3.72462E+004   -6.47330E+003
            1899    7.70217E+005    4.87740E+005    4.87740E+005    6.02999E+003   -4.00573E+005    8.88313E+005   -3.10655E+004    4.05389E+005    1.11150E+004    7.57585E+004    6.32306E+003    4.42099E+005   -2.77307E+004   -4.52299E+003
            1900    7.53196E+005    4.60929E+005    4.60929E+005    1.98538E+003   -4.08334E+005    8.69263E+005   -1.81937E+004    3.45717E+005    3.25729E+003    4.91042E+004    2.21957E+003    4.33604E+005   -1.89256E+004   -3.71135E+003
            1901    7.47677E+005    5.03560E+005    5.03560E+005    1.31386E+004   -3.56984E+005    8.60545E+005   -5.32382E+004    4.64165E+005    4.66994E+004    9.96191E+004    1.33961E+004    4.24955E+005   -6.17333E+004   -7.18660E+003
            1902    7.54071E+005    4.88549E+005    4.88549E+005    6.69151E+003   -3.80459E+005    8.69007E+005   -3.82605E+004    4.31522E+005    2.68627E+004    8.04177E+004    7.50116E+003    4.30859E+005   -4.91399E+004   -7.75396E+003
            1903    7.57118E+005    4.79145E+005    4.79145E+005    4.97294E+003   -3.94021E+005    8.73166E+005   -3.00324E+004    4.00892E+005    1.34410E+004    7.12915E+004    5.36455E+003    4.34052E+005   -3.68205E+004   -5.12117E+003
            1904    7.42003E+005    4.54571E+005    4.54571E+005    1.89836E+003   -4.01752E+005    8.56324E+005   -1.82392E+004    3.43206E+005    5.86158E+003    4.66191E+004    2.23690E+003    4.26813E+005   -2.70030E+004   -4.09048E+003
            1905    7.24032E+005    4.84509E+005    4.84509E+005    1.00891E+004   -3.48869E+005    8.33378E+005   -4.85766E+004    4.48178E+005    4.63488E+004    8.95308E+004    9.85032E+003    4.09974E+005   -7.09415E+004   -6.21924E+003
            1906    7.36656E+005    4.75344E+005    4.75344E+005    4.27348E+003   -3.73568E+005    8.48912E+005   -3.53499E+004    4.22619E+005    2.94969E+004    7.14130E+004    5.13987E+003    4.20032E+005   -5.72401E+004   -7.75458E+003
            1907    7.41646E+005    4.69709E+005    4.69709E+005    5.35013E+003   -3.85620E+005    8.55330E+005   -2.98130E+004    3.92251E+005    1.69387E+004    6.68810E+004    5.61908E+003    4.24404E+005   -4.62983E+004   -4.59022E+003
            1908    7.30246E+005    4.47690E+005    4.47690E+005    1.23226E+003   -3.95028E+005    8.42717E+005   -1.79648E+004    3.42249E+005    9.01598E+003    4.33061E+004    1.57226E+003    4.19626E+005   -3.40202E+004   -3.80248E+003
            1909    7.12112E+005    4.73042E+005    4.73042E+005    5.31498E+003   -3.46506E+005    8.19548E+005   -4.39504E+004    4.43759E+005    4.38467E+004    8.32225E+004    4.78207E+003    4.02658E+005   -7.30105E+004   -5.64167E+003
            1910    7.18947E+005    4.62656E+005    4.62656E+005    2.96572E+003   -3.65853E+005    8.28509E+005   -3.32561E+004    4.12285E+005    3.40067E+004    6.21506E+004    3.61097E+003    4.08509E+005   -6.71642E+004   -6.83245E+003
            1911    7.29087E+005    4.62648E+005    4.62648E+005    3.06933E+003   -3.78009E+005    8.40657E+005   -2.92362E+004    3.96534E+005    2.17627E+004    6.30254E+004    2.92043E+003    4.16285E+005   -5.42262E+004   -3.34178E+003
            1912    7.18095E+005    4.41433E+005    4.41433E+005    5.78501E+002   -3.87184E+005    8.28618E+005   -1.82759E+004    3.44798E+005    1.32161E+004    4.09258E+004    6.85871E+002    4.11750E+005   -4.37889E+004   -2.65118E+003
            1913    7.07520E+005    4.71049E+005    4.71049E+005    1.24124E+004   -3.43781E+005    8.14830E+005   -4.65601E+004    4.24296E+005    4.87474E+004    8.12176E+004    9.71533E+003    3.99085E+005   -7.94432E+004   -1.80245E+002
            1914    7.10154E+005    4.56207E+005    4.56207E+005    2.91787E+002   -3.62026E+005    8.18233E+005   -3.14908E+004    4.12901E+005    3.58532E+004    5.90616E+004   -4.42458E+002    4.02405E+005   -7.25692E+004   -3.29639E+003
            1915    7.19124E+005    4.59490E+005    4.59490E+005    2.92793E+003   -3.69460E+005    8.28950E+005   -3.09859E+004    4.02065E+005    2.99505E+004    6.08181E+004    2.18895E+003    4.08525E+005   -6.79719E+004   -2.61943E+003
            1916    7.06150E+005    4.35127E+005    4.35127E+005   -9.19224E+002   -3.79591E+005    8.14718E+005   -1.82058E+004    3.49851E+005    1.71593E+004    3.86559E+004   -1.19793E+003    4.03545E+005   -5.44638E+004   -1.64373E+003
            1917    6.97373E+005    4.35101E+005    4.35101E+005    3.95031E+002   -3.69281E+005    8.04381E+005   -2.20716E+004    3.61652E+005    2.70268E+004    4.03267E+004   -1.13874E+003    3.95767E+005   -7.09173E+004    6.72816E+002
            1918    7.03286E+005    4.48083E+005    4.48083E+005   -2.84555E+003   -3.62282E+005    8.10365E+005   -2.76521E+004    4.07157E+005    3.64680E+004    5.03905E+004   -3.90234E+003    3.96028E+005   -8.50078E+004   -3.29111E+003
            1919    7.16289E+005    4.69140E+005    4.69140E+005    1.86763E+003   -3.55523E+005    8.24662E+005   -3.84950E+004    4.37782E+005    4.78593E+004    6.71723E+004    4.53324E+002    4.01525E+005   -9.27433E+004   -4.55019E+003
            1920    7.14169E+005    4.76946E+005    4.76946E+005   -2.13492E+002   -3.44108E+005    8.21054E+005   -4.42081E+004    4.65350E+005    5.65063E+004    7.73783E+004   -1.26031E+003    4.02799E+005   -7.79864E+004   -4.90295E+003
            1921    7.44740E+005    5.38956E+005    5.38956E+005    4.16358E+004   -3.17275E+005    8.56231E+005   -8.77722E+004    4.84632E+005    9.15163E+004    1.30144E+005    4.16566E+004    4.27460E+005   -1.36494E+004   -1.74344E+003
            1922    7.34315E+005    5.27873E+005    5.27873E+005    3.70067E+004   -3.16314E+005    8.44187E+005   -8.28555E+004    4.79070E+005    8.84284E+004    1.23004E+005    3.71339E+004    4.19870E+005   -3.94871E+004   -4.73781E+003
            1923    7.19556E+005    5.11206E+005    5.11206E+005    2.94463E+004   -3.15926E+005    8.27132E+005   -7.49087E+004    4.71253E+005    8.36579E+004    1.11570E+005    2.94980E+004    4.08820E+005   -6.06015E+004   -6.29994E+003
            1924    7.03656E+005    4.92085E+005    4.92085E+005    2.13223E+004   -3.16811E+005    8.08896E+005   -6.55321E+004    4.60002E+005    7.69119E+004    9.88661E+004    2.08183E+004    3.96820E+005   -7.69328E+004   -6.28858E+003
            1925    6.91019E+005    4.74900E+005    4.74900E+005    1.13353E+004   -3.19323E+005    7.94222E+005   -5.56374E+004    4.54719E+005    7.07745E+004    8.61035E+004    1.00342E+004    3.87150E+005   -8.73687E+004   -5.66758E+003
            1926    6.69881E+005    4.53305E+005    4.53305E+005    4.42192E+003   -3.16680E+005    7.69986E+005   -4.70157E+004    4.39627E+005    6.46832E+004    7.41418E+004    2.22202E+003    3.73893E+005   -9.07763E+004   -4.08400E+003
            1927    6.67740E+005    4.48862E+005    4.48862E+005   -7.03384E+003   -3.17598E+005    7.66460E+005   -4.14101E+004    4.57353E+005    6.35548E+004    6.87168E+004   -8.04141E+003    3.75947E+005   -7.36462E+004   -4.97675E+003
            1928    6.89428E+005    4.18969E+005    4.18969E+005   -3.63184E+002   -3.76728E+005    7.95697E+005   -1.39593E+004    3.12763E+005    1.73485E+004    2.62142E+004   -1.68483E+003    3.94448E+005   -5.13204E+004    3.32991E+003
            1929    6.83671E+005    4.05966E+005    4.05966E+005    1.59147E+003   -3.83391E+005    7.89356E+005   -8.05542E+003    2.38651E+005    8.96229E+003    1.45448E+004    6.59161E+002    3.93647E+005   -2.75055E+004    6.20163E+003
            1930    6.80301E+005    3.92584E+005   -3.92959E+005   -7.04132E+002   -3.92959E+005    7.85544E+005    3.59616E+002    8.95244E+004   -2.29438E+002   -1.31934E+002   -7.17474E+002    3.92711E+005   -3.75594E+002    6.89837E+003
            1931    6.83335E+005    3.83965E+005   -4.04992E+005   -2.12176E+002   -4.04992E+005    7.88957E+005    7.07999E+003   -2.43438E+005   -8.78199E+003   -1.31491E+004    6.91092E+002    3.93492E+005    2.69236E+004    6.13815E+003
            1932    6.89637E+005    3.76090E+005   -4.19871E+005   -1.08403E+003   -4.19871E+005    7.95961E+005    1.49549E+004   -3.09511E+005   -1.81011E+004   -2.71296E+004    3.66127E+002    3.94555E+005    5.14574E+004    3.83921E+003
            1933    6.96525E+005    3.69479E+005   -4.33852E+005    1.59946E+003   -4.33852E+005    8.03331E+005    2.09243E+004   -3.65977E+005   -2.72924E+004   -3.85741E+004    3.09370E+003    3.95207E+005    7.11512E+004    5.02560E+002
            1934    7.04585E+005    3.62134E+005   -4.49783E+005    1.28155E+003   -4.49783E+005    8.11916E+005    2.87892E+004   -4.05772E+005   -3.69631E+004   -5.23483E+004    2.94383E+003    3.97052E+005    8.37409E+004   -1.76771E+003
            1935    7.00500E+005    3.49652E+005   -4.56763E+005    9.51927E+002   -4.56763E+005    8.06416E+005    3.53863E+004   -4.30154E+005   -4.76008E+004   -6.12289E+004    2.67073E+003    3.94067E+005    8.44873E+004   -2.74070E+003
            1936    6.73940E+005    3.35467E+005   -4.40070E+005    3.38344E+003   -4.40070E+005    7.75538E+005    3.37400E+004   -4.22063E+005   -4.85628E+004   -5.69280E+004    4.27092E+003    3.77088E+005    8.98475E+004   -5.38599E+003
            1937    7.02777E+005    4.27074E+005    4.27074E+005    1.88347E+003   -3.84107E+005    8.11181E+005   -1.49503E+004    3.07271E+005    1.29286E+004    3.04636E+004    1.45868E+003    4.03672E+005   -3.82923E+004    8.78860E+002
            1938    7.15214E+005    4.32687E+005    4.32687E+005    7.41516E+002   -3.92875E+005    8.25562E+005   -1.35177E+004    3.08572E+005    7.86735E+003    3.19266E+004    7.58983E+002    4.11591E+005   -2.88925E+004   -1.21924E+003
            1939    7.26740E+005    4.38478E+005    4.38478E+005    1.99246E+003   -4.00459E+005    8.38937E+005   -1.33370E+004    2.99787E+005    4.68939E+003    3.32041E+004    2.11741E+003    4.18629E+005   -2.23195E+004   -2.00385E+003
            1940    7.37111E+005    4.43238E+005    4.43238E+005    1.45097E+003   -4.07696E+005    8.50934E+005   -1.23310E+004    2.98452E+005    2.31330E+003    3.30653E+004    1.61448E+003    4.24878E+005   -1.61111E+004   -2.75548E+003
            1941    7.45528E+005    4.47553E+005    4.47553E+005    1.99184E+003   -4.13129E+005    8.60682E+005   -1.21386E+004    2.93816E+005    1.02953E+003    3.32842E+004    2.10208E+003    4.29883E+005   -1.13626E+004   -2.49872E+003
            1942    7.52035E+005    4.50828E+005    4.50828E+005    1.67640E+003   -4.17373E+005    8.68201E+005   -1.17106E+004    2.94429E+005    2.57812E+002    3.31507E+004    1.72331E+003    4.33738E+005   -6.41843E+003   -1.81732E+003
            1943    7.55168E+005    4.52486E+005    4.52486E+005    1.81722E+003   -4.19340E+005    8.71826E+005   -1.16546E+004    2.93304E+005    1.78000E+001    3.31228E+004    1.82305E+003    4.35592E+005   -2.34815E+003   -6.24957E+002
            1944    6.94698E+005    4.09051E+005    4.09051E+005   -5.45939E+002   -3.93057E+005    8.02108E+005   -5.14925E+003    2.31246E+005    4.47141E+003    1.17840E+004   -8.07672E+002    4.00569E+005   -1.91683E+004    2.43676E+003
            1945    7.06028E+005    4.14687E+005    4.14687E+005    1.70340E+002   -4.00525E+005    8.15212E+005   -4.77746E+003    2.17810E+005    2.89581E+003    1.12892E+004    1.47417E+002    4.07347E+005   -1.38947E+004    1.46318E+002
            1946    7.17211E+005    4.19926E+005    4.19926E+005   -4.46811E+002   -4.08206E+005    8.28132E+005   -3.75799E+003    2.13502E+005    1.31523E+003    1.03344E+004   -3.75658E+002    4.13934E+005   -9.30502E+003   -1.70429E+003
            1947    7.27222E+005    4.24870E+005    4.24870E+005    7.19563E+001   -4.14834E+005    8.39705E+005   -3.36918E+003    1.98711E+005    4.19134E+002    9.55348E+003    1.34925E+002    4.19774E+005   -6.35195E+003   -2.15267E+003
            1948    7.35862E+005    4.28739E+005    4.28739E+005   -2.75939E+002   -4.20948E+005    8.49687E+005   -2.50516E+003    1.89235E+005   -4.39439E+002    8.19184E+003   -2.36928E+002    4.24800E+005   -3.56744E+003   -2.35793E+003
            1949    7.42093E+005    4.31888E+005    4.31888E+005   -1.00484E+002   -4.24998E+005    8.56886E+005   -2.26302E+003    1.80256E+005   -8.73916E+002    7.74797E+003   -8.49982E+001    4.28413E+005   -2.13539E+003   -1.57203E+003
            1950    7.45507E+005    4.33403E+005    4.33403E+005   -2.58843E+002   -4.27426E+005    8.60829E+005   -1.90631E+003    1.75603E+005   -1.17078E+003    7.14701E+003   -2.57305E+002    4.30394E+005   -5.01322E+002   -6.63885E+002
            1951    6.94845E+005    4.01538E+005    4.01538E+005    7.18551E+002   -4.00800E+005    8.02338E+005   -4.85651E+002   -7.96867E+004   -3.34938E+001    7.56677E+002    7.33770E+002    4.01154E+005    9.35972E+002    3.25083E+003
            1952    7.07252E+005    4.07611E+005   -4.09053E+005   -2.62849E+002   -4.09053E+005    8.16664E+005    5.68197E+002   -8.82508E+004   -8.20325E+002   -6.25202E+002   -2.59065E+002    4.08323E+005    2.66261E+003    2.88931E+002
            1953    7.18764E+005    4.13326E+005   -4.16628E+005    4.04298E+002   -4.16628E+005    8.29954E+005    9.66066E+002   -1.47143E+005   -7.07759E+002   -2.57436E+003    3.83917E+002    4.14959E+005    3.52106E+003   -1.21411E+003
            1954    7.29459E+005    4.18131E+005   -4.24169E+005   -2.03406E+002   -4.24169E+005    8.42301E+005    2.08036E+003   -1.65026E+005   -6.18657E+002   -5.37416E+003   -2.48264E+002    4.21117E+005    4.20548E+003   -2.27236E+003
            1955    7.38457E+005    4.22522E+005   -4.30163E+005    1.23577E+002   -4.30163E+005    8.52684E+005    2.50585E+003   -1.86167E+005    4.03699E+000   -7.61010E+003    8.85307E+001    4.26305E+005    3.57154E+003   -2.12415E+003
            1956    7.45111E+005    4.25537E+005   -4.34828E+005   -1.50381E+002   -4.34828E+005    8.60365E+005    3.14701E+003   -1.95624E+005    4.13183E+002   -9.68332E+003   -1.70886E+002    4.30141E+005    2.68386E+003   -1.67228E+003
            1957    7.48594E+005    4.27191E+005   -4.37192E+005   -5.24053E+001   -4.37192E+005    8.64383E+005    3.35088E+003   -2.02612E+005    7.77598E+002   -1.07760E+004   -5.42156E+001    4.32152E+005    7.60295E+002   -5.23605E+002
            1958    6.95031E+005    3.90298E+005   -4.12177E+005   -1.24846E+003   -4.12177E+005    8.02475E+005    7.70909E+003   -2.41246E+005   -6.33165E+003   -1.58659E+004   -9.29656E+002    4.00611E+005    2.16660E+004    2.54887E+003
            1959    7.06781E+005    3.96473E+005   -4.19542E+005   -2.05701E+002   -4.19542E+005    8.16015E+005    7.75841E+003   -2.56987E+005   -4.23958E+003   -1.88652E+004   -1.70438E+002    4.07507E+005    1.88233E+004   -4.94210E+001
            1960    7.19049E+005    4.02012E+005   -4.28163E+005   -1.27807E+003   -4.28163E+005    8.30174E+005    9.14308E+003   -2.63486E+005   -3.17365E+003   -2.28584E+004   -1.39719E+003    4.14625E+005    1.68758E+004   -1.90275E+003
            1961    7.30778E+005    4.07576E+005   -4.36115E+005   -9.91976E+002   -4.36115E+005    8.43691E+005    9.84345E+003   -2.77036E+005   -1.76967E+003   -2.66271E+004   -1.13358E+003    4.21416E+005    1.42365E+004   -2.52893E+003
            1962    7.41385E+005    4.12067E+005   -4.43854E+005   -1.72207E+003   -4.43854E+005    8.55922E+005    1.11698E+004   -2.85850E+005   -1.05039E+003   -3.06125E+004   -1.84652E+003    4.27549E+005    1.13027E+004   -2.73539E+003
            1963    7.49404E+005    4.15736E+005   -4.49423E+005   -1.65433E+003   -4.49423E+005    8.65160E+005    1.17804E+004   -2.94633E+005   -3.12062E+002   -3.33239E+004   -1.70510E+003    4.32205E+005    7.00121E+003   -1.82306E+003
            1964    7.53800E+005    4.17543E+005   -4.52683E+005   -1.93430E+003   -4.52683E+005    8.70226E+005    1.23582E+004   -2.98654E+005   -6.14918E+001   -3.50714E+004   -1.94170E+003    4.34753E+005    2.50726E+003   -7.37301E+002
            1965    7.01013E+005    3.83574E+005   -4.25531E+005   -2.27704E+002   -4.25531E+005    8.09105E+005    1.40615E+004   -3.12632E+005   -1.38293E+004   -2.85634E+004    2.08171E+002    4.02396E+005    4.09410E+004    6.95260E+002
            1966    7.14123E+005    3.90312E+005   -4.33942E+005   -1.18294E+003   -4.33942E+005    8.24253E+005    1.49378E+004   -3.15920E+005   -1.09804E+004   -3.26428E+004   -1.19014E+003    4.10528E+005    3.45808E+004   -1.36829E+003
            1967    7.27072E+005    3.97118E+005   -4.42074E+005   -1.26045E+003   -4.42074E+005    8.39192E+005    1.54054E+004   -3.22719E+005   -7.73928E+003   -3.70126E+004   -1.46436E+003    4.18314E+005    2.92736E+004   -2.70787E+003
            1968    7.40461E+005    4.03156E+005   -4.51475E+005   -2.09119E+003   -4.51475E+005    8.54631E+005    1.68033E+004   -3.30973E+005   -5.80018E+003   -4.22268E+004   -2.38296E+003    4.26206E+005    2.46590E+004   -3.68285E+003
            1969    7.52800E+005    4.09033E+005   -4.59811E+005   -2.13178E+003   -4.59811E+005    8.68844E+005    1.76366E+004   -3.40535E+005   -3.69913E+003   -4.68762E+004   -2.33444E+003    4.33480E+005    1.85673E+004   -3.32412E+003
            1970    7.62081E+005    4.13243E+005   -4.66300E+005   -2.66673E+003   -4.66300E+005    8.79544E+005    1.85747E+004   -3.46274E+005   -2.46319E+003   -5.04987E+004   -2.76218E+003    4.38953E+005    1.18071E+004   -2.41752E+003
            1971    7.67237E+005    4.15592E+005   -4.69887E+005   -2.70864E+003   -4.69887E+005    8.85479E+005    1.90012E+004   -3.50610E+005   -1.72464E+003   -5.25598E+004   -2.71903E+003    4.41992E+005    3.81950E+003   -8.16620E+002
            1972    7.06589E+005    3.76592E+005   -4.38558E+005   -7.30843E+002   -4.38558E+005    8.15150E+005    2.08987E+004   -3.56217E+005   -1.92732E+004   -4.32697E+004   -1.53269E+002    4.03313E+005    5.73843E+004   -1.00683E+003
            1973    7.17308E+005    3.82822E+005   -4.44707E+005   -4.92622E+002   -4.44707E+005    8.27529E+005    2.07925E+004   -3.60599E+005   -1.47591E+004   -4.71234E+004   -4.95130E+002    4.10616E+005    4.82329E+004   -2.75210E+003
            1974    7.31861E+005    3.88977E+005   -4.55378E+005   -2.86823E+003   -4.55378E+005    8.44355E+005    2.30899E+004   -3.65004E+005   -1.22910E+004   -5.37469E+004   -3.23180E+003    4.19591E+005    4.17092E+004   -4.35767E+003
            1975    7.47946E+005    3.96153E+005   -4.66694E+005   -2.97348E+003   -4.66694E+005    8.62848E+005    2.45050E+004   -3.78136E+005   -9.42062E+003   -6.07443E+004   -3.34999E+003    4.29266E+005    3.44861E+004   -4.66387E+003
            1976    7.62984E+005    4.02111E+005   -4.78071E+005   -4.74835E+003   -4.78071E+005    8.80182E+005    2.69027E+004   -3.86842E+005   -8.09779E+003   -6.75683E+004   -5.04190E+003    4.38288E+005    2.62688E+004   -4.33146E+003
            1977    7.74895E+005    4.07211E+005   -4.86667E+005   -5.10500E+003   -4.86667E+005    8.93878E+005    2.81872E+004   -3.96223E+005   -6.60710E+003   -7.27274E+004   -5.22712E+003    4.45412E+005    1.63019E+004   -2.90581E+003
            1978    7.81451E+005    4.09752E+005   -4.91675E+005   -5.78813E+003   -4.91675E+005    9.01428E+005    2.92371E+004   -4.00548E+005   -6.21002E+003   -7.56985E+004   -5.80269E+003    4.49338E+005    5.51592E+003   -1.02214E+003
            1979    7.09581E+005    3.65598E+005   -4.52318E+005   -1.34314E+003   -4.52318E+005    8.17915E+005    2.93544E+004   -3.98264E+005   -3.25659E+004   -5.48988E+004   -5.98372E+002    4.02959E+005    6.86200E+004   -2.39902E+003
            1980    7.21794E+005    3.71992E+005   -4.60126E+005   -3.18825E+003   -4.60126E+005    8.32118E+005    3.04407E+004   -3.99203E+005   -2.79042E+004   -6.01403E+004   -3.27754E+003    4.11246E+005    6.08691E+004   -4.52400E+003
            1981    7.38039E+005    3.79962E+005   -4.70912E+005   -4.10135E+003   -4.70912E+005    8.50874E+005    3.16837E+004   -4.06811E+005   -2.34324E+004   -6.70922E+004   -4.52653E+003    4.21560E+005    5.28465E+004   -5.64627E+003
            1982    7.55722E+005    3.87216E+005   -4.84052E+005   -6.16915E+003   -4.84052E+005    8.71268E+005    3.43349E+004   -4.16180E+005   -2.16038E+004   -7.46778E+004   -6.72302E+003    4.32512E+005    4.46147E+004   -6.21845E+003
            1983    7.73102E+005    3.94815E+005   -4.96457E+005   -7.07244E+003   -4.96457E+005    8.91271E+005    3.62382E+004   -4.27465E+005   -1.94020E+004   -8.18340E+004   -7.47844E+003    4.43232E+005    3.38985E+004   -5.51322E+003
            1984    7.86378E+005    4.00285E+005   -5.06306E+005   -8.75183E+003   -5.06306E+005    9.06592E+005    3.82577E+004   -4.34025E+005   -1.85290E+004   -8.73133E+004   -8.93095E+003    4.51482E+005    2.12525E+004   -3.75154E+003
            1985    7.93958E+005    4.03229E+005   -5.12072E+005   -9.27629E+003   -5.12072E+005    9.15300E+005    3.93730E+004   -4.39693E+005   -1.80916E+004   -9.07266E+004   -9.30078E+003    4.56152E+005    7.03125E+003   -1.42201E+003
            1986    7.02830E+005    3.57498E+005   -4.52329E+005   -1.53321E+003   -4.52329E+005    8.09827E+005    3.21212E+004   -4.07377E+005   -3.42066E+004   -6.18826E+004   -2.74378E+002    3.96888E+005    7.85926E+004   -2.84077E+003
            1987    7.15435E+005    3.61812E+005   -4.62369E+005   -1.38999E+003   -4.62369E+005    8.24182E+005    3.39823E+004   -4.20971E+005   -3.31141E+004   -6.72472E+004   -1.58562E+003    4.05337E+005    7.20943E+004   -6.42210E+003
            1988    7.33640E+005    3.67548E+005   -4.77714E+005   -6.33469E+003   -4.77714E+005    8.45262E+005    3.88337E+004   -4.27722E+005   -3.23051E+004   -7.75362E+004   -6.65986E+003    4.17033E+005    6.45110E+004   -6.56780E+003
            1989    7.54332E+005    3.74826E+005   -4.94176E+005   -8.25584E+003   -4.94176E+005    8.69002E+005    4.25354E+004   -4.43498E+005   -3.06705E+004   -8.81287E+004   -8.80704E+003    4.30031E+005    5.49069E+004   -7.26177E+003
            1990    7.74300E+005    3.81034E+005   -5.10985E+005   -1.23735E+004   -5.10985E+005    8.92019E+005    4.74415E+004   -4.54730E+005   -3.11185E+004   -9.84886E+004   -1.27174E+004    4.42714E+005    4.21532E+004   -5.90825E+003
            1991    7.90685E+005    3.86718E+005   -5.24106E+005   -1.40805E+004   -5.24106E+005    9.10824E+005    5.04895E+004   -4.66895E+005   -3.05944E+004   -1.06585E+005   -1.42890E+004    4.53026E+005    2.67324E+004   -4.49613E+003
            1992    7.99693E+005    3.89174E+005   -5.32004E+005   -1.58997E+004   -5.32004E+005    9.21178E+005    5.29099E+004   -4.72999E+005   -3.12921E+004   -1.11527E+005   -1.59109E+004    4.58748E+005    9.06873E+003   -1.23065E+003
            1993    6.99124E+005    3.33720E+005   -4.70474E+005   -7.31434E+003   -4.70474E+005    8.04194E+005    4.80229E+004   -4.45850E+005   -6.24569E+004   -7.69778E+004   -4.63395E+003    3.92836E+005    8.44900E+004   -1.41707E+003
            1994    7.07246E+005    3.44016E+005   -4.69977E+005   -5.89896E+003   -4.69977E+005    8.13993E+005    4.39536E+004   -4.39532E+005   -4.87805E+004   -7.77428E+004   -5.33752E+003    3.98017E+005    8.33536E+004   -6.23358E+003
            1995    7.24257E+005    3.45264E+005   -4.88065E+005   -1.04084E+004   -4.88065E+005    8.33329E+005    5.10699E+004   -4.56406E+005   -5.55541E+004   -8.74615E+004   -1.01940E+004    4.09366E+005    7.56190E+004   -6.58010E+003
            1996    7.41558E+005    3.51571E+005   -5.01851E+005   -1.46361E+004   -5.01851E+005    8.53422E+005    5.49719E+004   -4.62495E+005   -5.36850E+004   -9.61427E+004   -1.50880E+004    4.20990E+005    6.60670E+004   -7.85270E+003
            1997    7.61084E+005    3.54879E+005   -5.20886E+005   -1.95474E+004   -5.20886E+005    8.75765E+005    6.18516E+004   -4.78049E+005   -5.85008E+004   -1.06978E+005   -2.00759E+004    4.34148E+005    5.14503E+004   -7.41803E+003
            1998    7.77365E+005    3.59892E+005   -5.34682E+005   -2.33740E+004   -5.34682E+005    8.94574E+005    6.60545E+004   -4.86312E+005   -5.91484E+004   -1.15340E+005   -2.36749E+004    4.45148E+005    3.32968E+004   -5.45329E+003
            1999    7.86956E+005    3.61763E+005   -5.43796E+005   -2.56599E+004   -5.43796E+005    9.05559E+005    6.92309E+004   -4.93666E+005   -6.13465E+004   -1.20641E+005   -2.57054E+004    4.51664E+005    1.13372E+004   -2.09915E+003
            2000    7.41964E+005    3.12718E+005   -5.40131E+005   -4.30272E+004   -5.40131E+005    8.52850E+005    9.01468E+004   -4.86741E+005   -9.27638E+004   -1.34646E+005   -4.30306E+004    4.25661E+005    1.45000E+004   -1.61931E+003
            2001    7.31634E+005    3.12656E+005   -5.28288E+005   -3.78331E+004   -5.28288E+005    8.40944E+005    8.44884E+004   -4.80607E+005   -8.88697E+004   -1.26684E+005   -3.79117E+004    4.18022E+005    4.09824E+004   -4.77987E+003
            2002    7.16761E+005    3.13672E+005   -5.10216E+005   -3.00640E+004   -5.10216E+005    8.23889E+005    7.55360E+004   -4.70049E+005   -8.27319E+004   -1.13954E+005   -2.99223E+004    4.06844E+005    6.23394E+004   -6.01467E+003
            2003    7.03660E+005    3.16994E+005   -4.91878E+005   -2.08671E+004   -4.91878E+005    8.08872E+005    6.52501E+004   -4.60589E+005   -7.51987E+004   -1.00135E+005   -2.04171E+004    3.96531E+005    7.81058E+004   -6.73552E+003
            2004    6.92342E+005    3.21502E+005   -4.74622E+005   -1.35039E+004   -4.74622E+005    7.96125E+005    5.55414E+004   -4.47596E+005   -6.81689E+004   -8.61621E+004   -1.22932E+004    3.87719E+005    8.90818E+004   -5.80856E+003
            2005    6.85196E+005    3.26498E+005   -4.61380E+005   -4.74426E+003   -4.61380E+005    7.87878E+005    4.65421E+004   -4.43650E+005   -6.12795E+004   -7.53753E+004   -2.97153E+003    3.82018E+005    9.51748E+004   -5.36034E+003
            2006    6.72048E+005    3.30105E+005   -4.43101E+005    6.18923E+002   -4.43101E+005    7.73206E+005    3.74591E+004   -4.24777E+005   -5.46595E+004   -5.93176E+004    1.59975E+003    3.73684E+005    9.86017E+004   -6.12115E+003
            2007    7.13139E+005    4.76242E+005    4.76242E+005   -3.49817E+002   -3.43614E+005    8.19857E+005   -4.40928E+004    4.64969E+005    5.64811E+004    7.71998E+004   -1.40256E+003    4.02292E+005    7.74627E+004    4.82827E+003
            2008    7.17059E+005    4.69882E+005    4.69882E+005    1.89431E+003   -3.55647E+005    8.25529E+005   -3.87096E+004    4.38835E+005    4.80340E+004    6.76090E+004    4.85893E+002    4.02026E+005    9.24862E+004    4.56811E+003
            2009    7.03783E+005    4.48623E+005    4.48623E+005   -2.78162E+003   -3.62302E+005    8.10925E+005   -2.78467E+004    4.07924E+005    3.66434E+004    5.07131E+004   -3.81645E+003    3.96255E+005    8.52806E+004    3.39130E+003
            2010    6.97586E+005    4.35246E+005    4.35246E+005    3.89346E+002   -3.69380E+005    8.04626E+005   -2.20853E+004    3.61833E+005    2.70368E+004    4.03488E+004   -1.12981E+003    3.95862E+005    7.10843E+004   -6.13377E+002
            2011    7.06602E+005    4.35563E+005    4.35563E+005   -8.32835E+002   -3.79674E+005    8.15236E+005   -1.83520E+004    3.50364E+005    1.71881E+004    3.89683E+004   -1.10042E+003    4.03801E+005    5.44801E+004    1.69886E+003
            2012    7.18780E+005    4.42003E+005    4.42003E+005    6.25481E+002   -3.87401E+005    8.29404E+005   -1.84091E+004    3.45575E+005    1.31707E+004    4.13112E+004    7.45401E+002    4.12151E+005    4.36646E+004    2.72203E+003
            2013    7.30792E+005    4.48130E+005    4.48130E+005    1.32351E+003   -3.95217E+005    8.43347E+005   -1.80791E+004    3.42577E+005    8.99108E+003    4.35823E+004    1.66381E+003    4.19954E+005    3.37980E+004    3.81476E+003
            2014    7.42516E+005    4.54840E+005    4.54840E+005    1.88343E+003   -4.02077E+005    8.56917E+005   -1.82154E+004    3.43303E+005    5.79349E+003    4.66344E+004    2.21821E+003    4.27128E+005    2.67046E+004    4.07657E+003
            2015    7.53506E+005    4.61137E+005    4.61137E+005    1.98141E+003   -4.08483E+005    8.69620E+005   -1.82119E+004    3.45969E+005    3.22675E+003    4.91947E+004    2.21425E+003    4.33786E+005    1.87862E+004    3.71075E+003
            2016    7.61215E+005    4.65769E+005    4.65769E+005    2.26177E+003   -4.12761E+005    8.78530E+005   -1.84232E+004    3.47834E+005    1.42605E+003    5.14875E+004    2.35587E+003    4.38393E+005    1.16050E+004    2.42873E+003
            2017    7.65442E+005    4.68148E+005    4.68148E+005    2.25033E+003   -4.15266E+005    8.83415E+005   -1.83774E+004    3.48876E+005    4.95730E+002    5.23739E+004    2.26247E+003    4.40929E+005    3.69569E+003    9.34006E+002
            2018    7.19489E+005    4.59838E+005    4.59838E+005    2.95294E+003   -3.69526E+005    8.29363E+005   -3.10882E+004    4.02567E+005    3.00114E+004    6.10293E+004    2.22395E+003    4.08760E+005    6.78056E+004    2.64364E+003
            2019    7.29422E+005    4.63027E+005    4.63027E+005    3.19538E+003   -3.78013E+005    8.41040E+005   -2.94034E+004    3.96862E+005    2.18371E+004    6.33025E+004    3.07051E+003    4.16481E+005    5.41689E+004    3.43679E+003
            2020    7.42448E+005    4.70372E+005    4.70372E+005    5.34252E+003   -3.85873E+005    8.56245E+005   -2.99471E+004    3.93287E+005    1.69225E+004    6.72886E+004    5.63030E+003    4.24877E+005    4.60736E+004    4.68684E+003
            2021    7.57658E+005    4.79544E+005    4.79544E+005    5.00207E+003   -3.94244E+005    8.73787E+005   -3.01007E+004    4.01291E+005    1.33714E+004    7.15323E+004    5.39851E+003    4.34373E+005    3.65864E+004    5.15529E+003
            2022    7.70669E+005    4.88025E+005    4.88025E+005    6.07325E+003   -4.00811E+005    8.88835E+005   -3.10956E+004    4.05478E+005    1.10625E+004    7.58633E+004    6.36105E+003    4.42374E+005    2.74459E+004    4.48438E+003
            2023    7.81525E+005    4.94958E+005    4.94958E+005    6.08708E+003   -4.06390E+005    9.01348E+005   -3.15516E+004    4.11670E+005    9.49255E+003    7.89454E+004    6.21683E+003    4.49015E+005    1.67898E+004    3.09722E+003
            2024    7.86934E+005    4.98448E+005    4.98448E+005    6.46484E+003   -4.09155E+005    9.07603E+005   -3.19193E+004    4.13520E+005    8.75733E+003    8.05215E+004    6.47908E+003    4.52343E+005    5.78835E+003    1.03017E+003
            2025    7.09870E+005    4.56008E+005    4.56008E+005    3.04453E+002   -3.61901E+005    8.17908E+005   -3.14704E+004    4.12646E+005    3.58768E+004    5.89510E+004   -4.16510E+002    4.02237E+005    7.25967E+004    3.32750E+003
            2026    7.19528E+005    4.63296E+005    4.63296E+005    2.95123E+003   -3.65861E+005    8.29157E+005   -3.34621E+004    4.13496E+005    3.40804E+004    6.26705E+004    3.63523E+003    4.08842E+005    6.70898E+004    6.98855E+003
            2027    7.37254E+005    4.76058E+005    4.76058E+005    4.48991E+003   -3.73535E+005    8.49593E+005   -3.56708E+004    4.23318E+005    2.96863E+004    7.19716E+004    5.35464E+003    4.20376E+005    5.71671E+004    7.76889E+003
            2028    7.54816E+005    4.89174E+005    4.89174E+005    6.76583E+003   -3.80687E+005    8.69861E+005   -3.84176E+004    4.32180E+005    2.68876E+004    8.07916E+004    7.57343E+003    4.31303E+005    4.89175E+004    7.75839E+003
            2029    7.74260E+005    5.03042E+005    5.03042E+005    8.26820E+003   -3.89231E+005    8.92273E+005   -4.06933E+004    4.43124E+005    2.44923E+004    8.88037E+004    8.78393E+003    4.43416E+005    3.70077E+004    6.45050E+003
            2030    7.88212E+005    5.13115E+005    5.13115E+005    1.00572E+004   -3.95283E+005    9.08398E+005   -4.26298E+004    4.49131E+005    2.27538E+004    9.48692E+004    1.02666E+004    4.52153E+005    2.33858E+004    4.21736E+003
            2031    7.96391E+005    5.18812E+005    5.18812E+005    1.07597E+004   -3.99030E+005    9.17841E+005   -4.35140E+004    4.53079E+005    2.17936E+004    9.79637E+004    1.07847E+004    4.57269E+005    7.88847E+003    1.47580E+003
            2032    7.07830E+005    4.71430E+005    4.71430E+005    1.24495E+004   -3.43745E+005    8.15175E+005   -4.67114E+004    4.24887E+005    4.89280E+004    8.14283E+004    9.77802E+003    3.99253E+005    7.94839E+004    2.62675E+002
            2033    7.12041E+005    4.73066E+005    4.73066E+005    5.42561E+003   -3.46405E+005    8.19471E+005   -4.40286E+004    4.43608E+005    4.39604E+004    8.32587E+004    4.86682E+003    4.02584E+005    7.32060E+004    5.58896E+003
            2034    7.24654E+005    4.85163E+005    4.85163E+005    1.02213E+004   -3.48920E+005    8.34083E+005   -4.88216E+004    4.48867E+005    4.65697E+004    8.99266E+004    9.96849E+003    4.10335E+005    7.08937E+004    6.19028E+003
            2035    7.48006E+005    5.03908E+005    5.03908E+005    1.33438E+004   -3.57023E+005    8.60931E+005   -5.34097E+004    4.64174E+005    4.67818E+004    9.98469E+004    1.36004E+004    4.25193E+005    6.14126E+004    7.15372E+003
            2036    7.68692E+005    5.21844E+005    5.21844E+005    1.82670E+004   -3.62949E+005    8.84794E+005   -5.90541E+004    4.75538E+005    4.89396E+004    1.09678E+005    1.85450E+004    4.38706E+005    4.80304E+004    6.28359E+003
            2037    7.86452E+005    5.35989E+005    5.35989E+005    2.07566E+004   -3.69245E+005    9.05234E+005   -6.25004E+004    4.86580E+005    4.93240E+004    1.17206E+005    2.09714E+004    4.50291E+005    3.06222E+004    4.86161E+003
            2038    7.95942E+005    5.43939E+005    5.43939E+005    2.23549E+004   -3.72206E+005    9.16145E+005   -6.46958E+004    4.92808E+005    5.00979E+004    1.21612E+005    2.23773E+004    4.56549E+005    1.06453E+004    1.63817E+003
            2039    7.44520E+005    5.38740E+005    5.38740E+005    4.15359E+004   -3.17234E+005    8.55975E+005   -8.76805E+004    4.84564E+005    9.14897E+004    1.29995E+005    4.15573E+004    4.27319E+005    1.41144E+004    1.79042E+003
            2040    7.34089E+005    5.27790E+005    5.27790E+005    3.70306E+004   -3.16133E+005    8.43923E+005   -8.28957E+004    4.79026E+005    8.85284E+004    1.23007E+005    3.71521E+004    4.19734E+005    3.95403E+004    4.71246E+003
            2041    7.19771E+005    5.11369E+005    5.11369E+005    2.93811E+004   -3.16000E+005    8.27369E+005   -7.49169E+004    4.71595E+005    8.36358E+004    1.11676E+005    2.94393E+004    4.08968E+005    6.03956E+004    6.31214E+003
            2042    7.04257E+005    4.92605E+005    4.92605E+005    2.13532E+004   -3.16971E+005    8.09577E+005   -6.56625E+004    4.60603E+005    7.69904E+004    9.91026E+004    2.08945E+004    3.97247E+005    7.65165E+004    6.36684E+003
            2043    6.91765E+005    4.75706E+005    4.75706E+005    1.16444E+004   -3.19373E+005    7.95079E+005   -5.59925E+004    4.55203E+005    7.10401E+004    8.65481E+004    1.03892E+004    3.87646E+005    8.71216E+004    5.73623E+003
            2044    6.71032E+005    4.54290E+005    4.54290E+005    4.68250E+003   -3.17023E+005    7.71314E+005   -4.73165E+004    4.40272E+005    6.48709E+004    7.45570E+004    2.52157E+003    3.74524E+005    9.09975E+004    4.19057E+003
            2045    6.67506E+005    4.48744E+005    4.48744E+005   -6.66753E+003   -3.17492E+005    7.66236E+005   -4.15281E+004    4.56487E+005    6.35813E+004    6.87260E+004   -7.72302E+003    3.75660E+005    7.45008E+004    4.94548E+003
            2046    7.86719E+005    3.61510E+005   -5.43767E+005   -2.56993E+004   -5.43767E+005    9.05277E+005    6.93188E+004   -4.93745E+005   -6.15386E+004   -1.20672E+005   -2.57453E+004    4.51520E+005   -1.16399E+004    2.11652E+003
            2047    7.99490E+005    3.88887E+005   -5.32047E+005   -1.59605E+004   -5.32047E+005    9.20934E+005    5.30404E+004   -4.73211E+005   -3.15442E+004   -1.11602E+005   -1.59750E+004    4.58621E+005   -9.66684E+003    1.35153E+003
            2048    7.93870E+005    4.03095E+005   -5.12100E+005   -9.28768E+003   -5.12100E+005    9.15195E+005    3.94308E+004   -4.39885E+005   -1.81716E+004   -9.08059E+004   -9.31503E+003    4.56088E+005   -7.65470E+003    1.49906E+003
            2049    7.81293E+005    4.09650E+005   -4.91594E+005   -5.77525E+003   -4.91594E+005    9.01244E+005    2.92396E+004   -4.00581E+005   -6.26200E+003   -7.56643E+004   -5.79239E+003    4.49242E+005   -6.04286E+003    1.10710E+003
            2050    7.67127E+005    4.15551E+005   -4.69802E+005   -2.70111E+003   -4.69802E+005    8.85353E+005    1.89843E+004   -3.50510E+005   -1.72136E+003   -5.25182E+004   -2.71342E+003    4.41927E+005   -4.15098E+003    8.89174E+002
            2051    7.53690E+005    4.17497E+005   -4.52601E+005   -1.92527E+003   -4.52601E+005    8.70099E+005    1.23431E+004   -2.98567E+005   -6.76261E+001   -3.50281E+004   -1.93366E+003    4.34689E+005   -2.66886E+003    7.84649E+002
            2052    7.48590E+005    4.27165E+005   -4.37213E+005   -6.67205E+001   -4.37213E+005    8.64378E+005    3.37154E+003   -2.02741E+005    7.64742E+002   -1.08106E+004   -6.87960E+001    4.32149E+005   -8.29594E+002    5.50573E+002
            2053    7.45481E+005    4.33424E+005    4.33424E+005   -2.47141E+002   -4.27375E+005    8.60799E+005   -1.93393E+003    1.76028E+005   -1.14935E+003    7.19682E+003   -2.45679E+002    4.30379E+005    4.74165E+002    6.66569E+002
            2054    7.55270E+005    4.52594E+005    4.52594E+005    1.82840E+003   -4.19349E+005    8.71943E+005   -1.16910E+004    2.93581E+005    3.18035E+001    3.32070E+004    1.83414E+003    4.35649E+005    2.29887E+003    6.26740E+002
            2055    7.76828E+005    3.59472E+005   -5.34474E+005   -2.34135E+004   -5.34474E+005    8.93946E+005    6.61384E+004   -4.86252E+005   -5.94353E+004   -1.15254E+005   -2.37266E+004    4.44803E+005   -3.38476E+004    5.55390E+003
            2056    7.90040E+005    3.86243E+005   -5.23832E+005   -1.41487E+004   -5.23832E+005    9.10074E+005    5.05793E+004   -4.66730E+005   -3.08831E+004   -1.06491E+005   -1.43642E+004    4.52619E+005   -2.75019E+004    4.57899E+003
            2057    7.85749E+005    3.99963E+005   -5.05899E+005   -8.67911E+003   -5.05899E+005    9.05862E+005    3.82053E+004   -4.33892E+005   -1.86060E+004   -8.71378E+004   -8.87211E+003    4.51089E+005   -2.20059E+004    3.89187E+003
            2058    7.74247E+005    4.07024E+005   -4.86111E+005   -5.03924E+003   -4.86111E+005    8.93135E+005    2.80423E+004   -3.95551E+005   -6.61680E+003   -7.23428E+004   -5.16744E+003    4.45034E+005   -1.68247E+004    2.96778E+003
            2059    7.61495E+005    4.13139E+005   -4.65734E+005   -2.60927E+003   -4.65734E+005    8.78873E+005    1.84016E+004   -3.45258E+005   -2.42742E+003   -5.00670E+004   -2.71032E+003    4.38621E+005   -1.20594E+004    2.49007E+003
            2060    7.49065E+005    4.15707E+005   -4.49064E+005   -1.65162E+003   -4.49064E+005    8.64772E+005    1.16695E+004   -2.93493E+005   -3.17938E+002   -3.29872E+004   -1.70343E+003    4.32016E+005   -7.08398E+003    1.83616E+003
            2061    7.44967E+005    4.25594E+005   -4.34605E+005   -1.43628E+002   -4.34605E+005    8.60199E+005    3.05165E+003   -1.93652E+005    4.40339E+002   -9.43108E+003   -1.64207E+002    4.30060E+005   -2.65234E+003    1.69628E+003
            2062    7.42197E+005    4.32077E+005    4.32077E+005   -1.14888E+002   -4.24928E+005    8.57005E+005   -2.34486E+003    1.82688E+005   -8.98730E+002    8.03257E+003   -9.92587E+001    4.28471E+005    2.16973E+003    1.56289E+003
            2063    7.52228E+005    4.51153E+005    4.51153E+005    1.70781E+003   -4.17267E+005    8.68420E+005   -1.18646E+004    2.95672E+005    2.91760E+002    3.35475E+004    1.75455E+003    4.33840E+005    6.45479E+003    1.80721E+003
            2064    7.60436E+005    3.54588E+005   -5.20424E+005   -1.94430E+004   -5.20424E+005    8.75012E+005    6.17594E+004   -4.77820E+005   -5.86157E+004   -1.06691E+005   -1.99719E+004    4.33693E+005   -5.21710E+004    7.45411E+003
            2065    7.73194E+005    3.80609E+005   -5.10134E+005   -1.22128E+004   -5.10134E+005    8.90743E+005    4.72458E+004   -4.54145E+005   -3.12195E+004   -9.79563E+004   -1.25616E+004    4.42021E+005   -4.29245E+004    5.96186E+003
            2066    7.71772E+005    3.94546E+005   -4.95206E+005   -6.87466E+003   -4.95206E+005    8.89752E+005    3.58449E+004   -4.26024E+005   -1.92135E+004   -8.10269E+004   -7.29430E+003    4.42442E+005   -3.45204E+004    5.58204E+003
            2067    7.61654E+005    4.01915E+005   -4.76751E+005   -4.59323E+003   -4.76751E+005    8.78665E+005    2.64764E+004   -3.84817E+005   -7.97461E+003   -6.65617E+004   -4.89289E+003    4.37540E+005   -2.65508E+004    4.34935E+003
            2068    7.51793E+005    4.09007E+005   -4.58691E+005   -2.05225E+003   -4.58691E+005    8.67697E+005    1.72454E+004   -3.37942E+005   -3.57485E+003   -4.59054E+004   -2.25597E+003    4.32928E+005   -1.85430E+004    3.31753E+003
            2069    7.40775E+005    4.12130E+005   -4.43095E+005   -1.68769E+003   -4.43095E+005    8.55225E+005    1.08842E+004   -2.83141E+005   -1.03211E+003   -2.98102E+004   -1.81029E+003    4.27219E+005   -1.11149E+004    2.72169E+003
            2070    7.38345E+005    4.22780E+005   -4.29777E+005    1.19901E+002   -4.29777E+005    8.52557E+005    2.29213E+003   -1.80870E+005    2.22786E+001   -6.98597E+003    8.72890E+001    4.26246E+005   -3.35552E+003    2.09944E+003
            2071    7.36014E+005    4.29132E+005    4.29132E+005   -2.42430E+002   -4.20728E+005    8.49861E+005   -2.72047E+003    1.93298E+005   -4.19590E+002    8.78203E+003   -2.01040E+002    4.24882E+005    3.77271E+003    2.37048E+003
            2072    7.45980E+005    4.48095E+005    4.48095E+005    2.02912E+003   -4.13104E+005    8.61198E+005   -1.23402E+004    2.95511E+005    1.06212E+003    3.38209E+004    2.13749E+003    4.30131E+005    1.14000E+004    2.46554E+003
            2073    7.40757E+005    3.51472E+005   -5.01028E+005   -1.43386E+004   -5.01028E+005    8.52500E+005    5.46314E+004   -4.61998E+005   -5.34706E+004   -9.56348E+004   -1.47888E+004    4.20432E+005   -6.66816E+004    7.88391E+003
            2074    7.52959E+005    3.74643E+005   -4.92796E+005   -7.99185E+003   -4.92796E+005    8.67439E+005    4.20485E+004   -4.42006E+005   -3.04495E+004   -8.71558E+004   -8.54000E+003    4.29198E+005   -5.54406E+004    7.23894E+003
            2075    7.53986E+005    3.87088E+005   -4.82208E+005   -5.86783E+003   -4.82208E+005    8.69296E+005    3.36629E+004   -4.13724E+005   -2.11824E+004   -7.33818E+004   -6.42441E+003    4.31523E+005   -4.48351E+004    6.18602E+003
            2076    7.46395E+005    3.96091E+005   -4.64998E+005   -2.82786E+003   -4.64998E+005    8.61089E+005    2.39118E+004   -3.74991E+005   -9.17038E+003   -5.93670E+004   -3.19815E+003    4.28427E+005   -3.43459E+004    4.57578E+003
            2077    7.39339E+005    4.03268E+005   -4.50089E+005   -2.00314E+003   -4.50089E+005    8.53357E+005    1.62749E+004   -3.27313E+005   -5.57733E+003   -4.09593E+004   -2.28797E+003    4.25614E+005   -2.42384E+004    3.61029E+003
            2078    7.30250E+005    4.07788E+005   -4.35303E+005   -9.74969E+002   -4.35303E+005    8.43091E+005    9.49673E+003   -2.73424E+005   -1.69730E+003   -2.56827E+004   -1.11020E+003    4.21145E+005   -1.37559E+004    2.47378E+003
            2079    7.29416E+005    4.18529E+005   -4.23723E+005   -1.83594E+002   -4.23723E+005    8.42252E+005    1.79281E+003   -1.56768E+005   -5.28671E+002   -4.62562E+003   -2.24152E+002    4.21098E+005   -3.79957E+003    2.26810E+003
            2080    7.27514E+005    4.25285E+005    4.25285E+005    7.38026E+001   -4.14754E+005    8.40039E+005   -3.53502E+003    2.02006E+005    4.21105E+002    1.00445E+004    1.39502E+002    4.19935E+005    6.59778E+003    2.16939E+003
            2081    7.37574E+005    4.43651E+005    4.43651E+005    1.48651E+003   -4.07815E+005    8.51466E+005   -1.24409E+004    2.99255E+005    2.27650E+003    3.33957E+004    1.65033E+003    4.25138E+005    1.60889E+004    2.76830E+003
            2082    7.23572E+005    3.45301E+005   -4.87253E+005   -1.01726E+004   -4.87253E+005    8.32554E+005    5.07083E+004   -4.55654E+005   -5.52957E+004   -8.68862E+004   -9.94286E+003    4.08913E+005   -7.59622E+004    6.55108E+003
            2083    7.32356E+005    3.67556E+005   -4.76250E+005   -5.98266E+003   -4.76250E+005    8.43806E+005    3.82256E+004   -4.26108E+005   -3.19287E+004   -7.64549E+004   -6.29332E+003    4.16298E+005   -6.46209E+004    6.47999E+003
            2084    7.36590E+005    3.80096E+005   -4.69149E+005   -3.88014E+003   -4.69149E+005    8.49245E+005    3.09775E+004   -4.03901E+005   -2.29117E+004   -6.57349E+004   -4.28591E+003    4.20790E+005   -5.26120E+004    5.49175E+003
            2085    7.30548E+005    3.89131E+005   -4.53742E+005   -2.72912E+003   -4.53742E+005    8.42873E+005    2.24469E+004   -3.61526E+005   -1.18972E+004   -5.23668E+004   -3.07689E+003    4.18925E+005   -4.11522E+004    4.20827E+003
            2086    7.26307E+005    3.97379E+005   -4.40952E+005   -1.21793E+003   -4.40952E+005    8.38331E+005    1.49303E+004   -3.19179E+005   -7.48313E+003   -3.58966E+004   -1.41124E+003    4.17947E+005   -2.85566E+004    2.59938E+003
            2087    7.18726E+005    4.02341E+005   -4.27470E+005   -1.26357E+003   -4.27470E+005    8.29811E+005    8.79782E+003   -2.59664E+005   -2.99118E+003   -2.20239E+004   -1.37836E+003    4.14477E+005   -1.62174E+004    1.87318E+003
            2088    7.18943E+005    4.13709E+005   -4.16452E+005    4.04598E+002   -4.16452E+005    8.30161E+005    7.79446E+002   -1.40170E+005   -6.81645E+002   -2.04327E+003    3.86577E+002    4.15067E+005   -3.07686E+003    1.22518E+003
            2089    7.17557E+005    4.20351E+005    4.20351E+005   -4.29736E+002   -4.08178E+005    8.28529E+005   -3.91427E+003    2.15902E+005    1.40719E+003    1.06911E+004   -3.55509E+002    4.14126E+005    9.52144E+003    1.74257E+003
            2090    7.27362E+005    4.38897E+005    4.38897E+005    1.98708E+003   -4.00757E+005    8.39654E+005   -1.33758E+004    3.00346E+005    4.58380E+003    3.34281E+004    2.11533E+003    4.18987E+005    2.22410E+004    2.04255E+003
            2091    7.06712E+005    3.44254E+005   -4.69150E+005   -5.68418E+003   -4.69150E+005    8.13404E+005    4.35269E+004   -4.38506E+005   -4.83347E+004   -7.71287E+004   -5.11737E+003    3.97715E+005   -8.33730E+004    6.18720E+003
            2092    7.14697E+005    3.62089E+005   -4.61277E+005   -1.17869E+003   -4.61277E+005    8.23366E+005    3.34556E+004   -4.19335E+005   -3.26639E+004   -6.63313E+004   -1.37164E+003    4.04967E+005   -7.19028E+004    6.34229E+003
            2093    7.20942E+005    3.72283E+005   -4.58891E+005   -3.05620E+003   -4.58891E+005    8.31174E+005    2.98882E+004   -3.96844E+005   -2.73949E+004   -5.91548E+004   -3.11494E+003    4.10850E+005   -6.03861E+004    4.33007E+003
            2094    7.16625E+005    3.83103E+005   -4.43666E+005   -4.36419E+002   -4.43666E+005    8.26769E+005    2.03330E+004   -3.57978E+005   -1.43645E+004   -4.62004E+004   -4.34014E+002    4.10324E+005   -4.75447E+004    2.64352E+003
            2095    7.13778E+005    3.90606E+005   -4.33265E+005   -1.17673E+003   -4.33265E+005    8.23871E+005    1.46117E+004   -3.13356E+005   -1.06946E+004   -3.19619E+004   -1.17859E+003    4.10402E+005   -3.38583E+004    1.28175E+003
            2096    7.06883E+005    3.96785E+005   -4.19354E+005   -2.13870E+002   -4.19354E+005    8.16138E+005    7.59421E+003   -2.55043E+005   -4.08959E+003   -1.85082E+004   -1.84884E+002    4.07596E+005   -1.82712E+004    8.68624E+001
            2097    7.07631E+005    4.07978E+005   -4.09123E+005   -2.46290E+002   -4.09123E+005    8.17101E+005    4.63844E+002   -7.88492E+004   -7.48161E+002   -3.99945E+002   -2.43425E+002    4.08543E+005   -2.45903E+003   -2.37486E+002
            2098    7.06473E+005    4.15002E+005    4.15002E+005    1.26887E+002   -4.00723E+005    8.15725E+005   -4.80222E+003    2.18971E+005    2.85279E+003    1.14440E+004    1.09864E+002    4.07603E+005    1.38779E+004   -5.72793E+001
            2099    7.15628E+005    4.32977E+005    4.32977E+005    7.60440E+002   -3.93062E+005    8.26039E+005   -1.35586E+004    3.08868E+005    7.81370E+003    3.20781E+004    7.84002E+002    4.11830E+005    2.88628E+004    1.26580E+003
            2100    6.98788E+005    3.33854E+005   -4.69984E+005   -7.33588E+003   -4.69984E+005    8.03838E+005    4.78221E+004   -4.44909E+005   -6.21763E+004   -7.66717E+004   -4.61840E+003    3.92625E+005   -8.46135E+004    1.32329E+003
            2101    7.02376E+005    3.57617E+005   -4.51706E+005   -1.44384E+003   -4.51706E+005    8.09323E+005    3.18441E+004   -4.06375E+005   -3.39980E+004   -6.13765E+004   -1.57927E+002    3.96694E+005   -7.82940E+004    2.70087E+003
            2102    7.09305E+005    3.65936E+005   -4.51691E+005   -1.30792E+003   -4.51691E+005    8.17628E+005    2.90211E+004   -3.96756E+005   -3.21482E+004   -5.43619E+004   -5.53123E+002    4.02882E+005   -6.82243E+004    2.28886E+003
            2103    7.06187E+005    3.76759E+005   -4.37945E+005   -7.01163E+002   -4.37945E+005    8.14704E+005    2.06290E+004   -3.54670E+005   -1.89773E+004   -4.27838E+004   -1.25967E+002    4.03169E+005   -5.68379E+004    9.36350E+002
            2104    7.01027E+005    3.83767E+005   -4.25362E+005   -2.65101E+002   -4.25362E+005    8.09129E+005    1.39536E+004   -3.11540E+005   -1.36541E+004   -2.83698E+004    1.63114E+002    4.02459E+005   -4.04414E+004   -7.13508E+002
            2105    6.95286E+005    3.90507E+005   -4.12262E+005   -1.22374E+003   -4.12262E+005    8.02769E+005    7.65936E+003   -2.40994E+005   -6.23739E+003   -1.58253E+004   -9.15423E+002    4.00770E+005   -2.14633E+004   -2.48440E+003
            2106    6.95184E+005    4.01635E+005    4.01635E+005    6.74497E+002   -4.01094E+005    8.02729E+005   -4.05323E+002   -8.36530E+004   -1.08976E+002    6.34730E+002    6.90214E+002    4.01351E+005   -9.93375E+002   -3.16517E+003
            2107    6.95012E+005    4.09180E+005    4.09180E+005   -5.17064E+002   -3.93291E+005    8.02471E+005   -5.12405E+003    2.30582E+005    4.42659E+003    1.17126E+004   -7.67013E+002    4.00760E+005    1.89811E+004   -2.34628E+003
            2108    7.03126E+005    4.27235E+005    4.27235E+005    1.83165E+003   -3.84349E+005    8.11584E+005   -1.49059E+004    3.07432E+005    1.28191E+004    3.04805E+004    1.41816E+003    4.03884E+005    3.81822E+004   -8.28240E+002
            2109    6.89445E+005    4.18832E+005    4.18832E+005   -2.92820E+002   -3.76893E+005    7.95724E+005   -1.38819E+004    3.11692E+005    1.71859E+004    2.60632E+004   -1.60322E+003    3.94492E+005    5.10901E+004   -3.33269E+003
            2110    6.83556E+005    4.05629E+005    4.05629E+005    1.53725E+003   -3.83598E+005    7.89227E+005   -7.85593E+003    2.36824E+005    8.73147E+003    1.42054E+004    6.30908E+002    3.93627E+005    2.68749E+004   -6.18804E+003
            2111    6.80224E+005    3.92342E+005   -3.93113E+005   -7.02067E+002   -3.93113E+005    7.85455E+005    4.91169E+002    7.60086E+004   -4.10783E+002   -3.66815E+002   -6.95909E+002    3.92668E+005   -1.78472E+002   -6.87226E+003
            2112    6.83748E+005    3.84098E+005   -4.05335E+005   -2.39746E+002   -4.05335E+005    7.89433E+005    7.15866E+003   -2.44139E+005   -8.83121E+003   -1.33096E+004    6.64830E+002    3.93714E+005   -2.71689E+004   -6.08370E+003
            2113    6.89744E+005    3.76111E+005   -4.19971E+005   -1.06282E+003   -4.19971E+005    7.96083E+005    1.49742E+004   -3.09844E+005   -1.81268E+004   -2.71762E+004    3.80445E+002    3.94631E+005   -5.13504E+004   -3.82476E+003
            2114    6.96473E+005    3.69675E+005   -4.33611E+005    1.55138E+003   -4.33611E+005    8.03286E+005    2.07948E+004   -3.65001E+005   -2.70345E+004   -3.83984E+004    3.04862E+003    3.95267E+005   -7.06839E+004   -5.83534E+002
            2115    7.04201E+005    3.62201E+005   -4.49290E+005    1.30878E+003   -4.49290E+005    8.11490E+005    2.85934E+004   -4.04872E+005   -3.67655E+004   -5.19868E+004    2.97198E+003    3.96926E+005   -8.33135E+004    1.68401E+003
            2116    7.00340E+005    3.50055E+005   -4.56213E+005    9.88062E+002   -4.56213E+005    8.06269E+005    3.50567E+004   -4.28946E+005   -4.70493E+004   -6.08591E+004    2.73848E+003    3.94013E+005   -8.43794E+004    2.61875E+003
            2117    6.74183E+005    3.35257E+005   -4.40546E+005    3.22234E+003   -4.40546E+005    7.75802E+005    3.40221E+004   -4.22615E+005   -4.92077E+004   -5.69841E+004    4.12543E+003    3.77217E+005   -8.98878E+004    5.34255E+003
            2118    7.42242E+005    3.12857E+005   -5.40311E+005   -4.30043E+004   -5.40311E+005    8.53168E+005    9.01530E+004   -4.86961E+005   -9.27391E+004   -1.34711E+005   -4.30092E+004    4.25818E+005   -1.44965E+004    1.64155E+003
            2119    7.31552E+005    3.12551E+005   -5.28299E+005   -3.78919E+004   -5.28299E+005    8.40849E+005    8.45467E+004   -4.80569E+005   -8.89877E+004   -1.26678E+005   -3.79750E+004    4.17966E+005   -4.10932E+004    4.81032E+003
            2120    7.16418E+005    3.13554E+005   -5.09943E+005   -3.00459E+004   -5.09943E+005    8.23497E+005    7.54782E+004   -4.69764E+005   -8.27492E+004   -1.13788E+005   -2.98978E+004    4.06603E+005   -6.26381E+004    6.02005E+003
            2121    7.03417E+005    3.17060E+005   -4.91546E+005   -2.08049E+004   -4.91546E+005    8.08605E+005    6.50969E+004   -4.60174E+005   -7.51444E+004   -9.98202E+004   -2.03260E+004    3.96285E+005   -7.86754E+004    6.70978E+003
            2122    6.91819E+005    3.21695E+005   -4.73842E+005   -1.32003E+004   -4.73842E+005    7.95537E+005    5.51156E+004   -4.46944E+005   -6.77740E+004   -8.56316E+004   -1.19414E+004    3.87281E+005   -8.96674E+004    5.76399E+003
            2123    6.84485E+005    3.26470E+005   -4.60591E+005   -4.44164E+003   -4.60591E+005    7.87061E+005    4.61877E+004   -4.43160E+005   -6.10270E+004   -7.48806E+004   -2.65558E+003    3.81590E+005   -9.52087E+004    5.32834E+003
            2124    6.71879E+005    3.30512E+005   -4.42509E+005    1.01515E+003   -4.42509E+005    7.73021E+005    3.69942E+004   -4.24455E+005   -5.40102E+004   -5.89594E+004    1.98714E+003    3.73521E+005   -9.88552E+004    6.17187E+003
            2125    7.99909E+005    4.88626E+005    4.88626E+005    6.73258E+003   -4.34734E+005    9.23360E+005   -2.02083E+004    3.38448E+005    1.64635E+004    3.74120E+004    6.74927E+003    4.61431E+005   -1.09698E+004   -7.15710E+002
            2126    8.12012E+005    4.90916E+005    4.90916E+005    4.47563E+003   -4.46490E+005    9.37406E+005   -1.63007E+004    3.27306E+005    8.53422E+003    3.58856E+004    4.48227E+003    4.68431E+005   -8.23896E+003   -4.64959E+002
            2127    8.01656E+005    4.75899E+005    4.75899E+005    1.41437E+003   -4.49676E+005    9.25574E+005   -9.21260E+003    2.82501E+005    2.40771E+003    2.38095E+004    1.42058E+003    4.62623E+005   -6.11395E+003   -3.83008E+002
            2128    7.88952E+005    4.66235E+005    4.66235E+005    1.52358E+003   -4.44706E+005    9.10941E+005   -7.68419E+003    2.58396E+005    1.11236E+003    2.04136E+004    1.52656E+003    4.55351E+005   -3.97044E+003   -2.53237E+002
            2129    7.90896E+005    4.82753E+005    4.82753E+005    6.16628E+003   -4.30199E+005    9.12952E+005   -1.95734E+004    3.35329E+005    1.66979E+004    3.57470E+004    6.27538E+003    4.55252E+005   -3.19989E+004   -1.81571E+003
            2130    8.03892E+005    4.85919E+005    4.85919E+005    4.29267E+003   -4.42113E+005    9.28032E+005   -1.60331E+004    3.24343E+005    8.62290E+003    3.51508E+004    4.32564E+003    4.63184E+005   -2.43838E+004   -1.12541E+003
            2131    7.95994E+005    4.72499E+005    4.72499E+005    1.28739E+003   -4.46537E+005    9.19036E+005   -9.08295E+003    2.81137E+005    2.91085E+003    2.29849E+004    1.35308E+003    4.59064E+005   -1.77484E+004   -1.26903E+003
            2132    7.84419E+005    4.63668E+005    4.63668E+005    1.61580E+003   -4.42038E+005    9.05706E+005   -7.74855E+003    2.57017E+005    1.25697E+003    2.03479E+004    1.64082E+003    4.52589E+005   -1.21590E+004   -7.17191E+002
            2133    7.73743E+005    4.71389E+005    4.71389E+005    5.01823E+003   -4.21760E+005    8.93149E+005   -1.82155E+004    3.28728E+005    1.65141E+004    3.28446E+004    5.28777E+003    4.43630E+005   -5.05142E+004   -2.76787E+003
            2134    7.90054E+005    4.77179E+005    4.77179E+005    3.72632E+003   -4.34874E+005    9.12053E+005   -1.53438E+004    3.19486E+005    8.67044E+003    3.35493E+004    3.81179E+003    4.54218E+005   -3.86046E+004   -1.77024E+003
            2135    7.84614E+005    4.65729E+005    4.65729E+005    1.10341E+003   -4.40165E+005    9.05894E+005   -8.88903E+003    2.78332E+005    3.93193E+003    2.14778E+004    1.25739E+003    4.51929E+005   -2.90169E+004   -1.85314E+003
            2136    7.76525E+005    4.59010E+005    4.59010E+005    1.35463E+003   -4.37579E+005    8.96589E+005   -7.59526E+003    2.56777E+005    1.39871E+003    1.99786E+004    1.40852E+003    4.47765E+005   -1.96791E+004   -1.02232E+003
            2137    7.54070E+005    4.58621E+005    4.58621E+005    3.44721E+003   -4.11798E+005    8.70420E+005   -1.67567E+004    3.24039E+005    1.72711E+004    2.92072E+004    3.79184E+003    4.30363E+005   -6.44715E+004   -3.07993E+003
            2138    7.70870E+005    4.65229E+005    4.65229E+005    3.61649E+003   -4.24688E+005    8.89917E+005   -1.47190E+004    3.09582E+005    8.87830E+003    3.16290E+004    3.64974E+003    4.41885E+005   -5.09308E+004   -1.75885E+003
            2139    7.71048E+005    4.57381E+005    4.57381E+005    8.09533E+002   -4.32850E+005    8.90231E+005   -8.44702E+003    2.73358E+005    5.04912E+003    1.92237E+004    1.06829E+003    4.43384E+005   -3.85431E+004   -2.28877E+003
            2140    7.65250E+005    4.52795E+005    4.52795E+005    1.70197E+003   -4.30774E+005    8.83569E+005   -7.90767E+003    2.53810E+005    2.09835E+003    1.98617E+004    1.76299E+003    4.40808E+005   -2.79687E+004   -1.05697E+003
            2141    7.31021E+005    4.42844E+005    4.42844E+005    1.21432E+003   -4.00959E+005    8.43803E+005   -1.43664E+004    3.16142E+005    1.66291E+004    2.46766E+004    1.79363E+003    4.15259E+005   -7.44472E+004   -3.71888E+003
            2142    7.53885E+005    4.54619E+005    4.54619E+005    2.81956E+003   -4.15681E+005    8.70300E+005   -1.39192E+004    3.04988E+005    9.47784E+003    2.95137E+004    2.76611E+003    4.30927E+005   -5.96099E+004   -1.65364E+003
            2143    7.55034E+005    4.47818E+005    4.47818E+005    2.58784E+002   -4.23915E+005    8.71734E+005   -8.05397E+003    2.71401E+005    6.62626E+003    1.69743E+004    5.61391E+002    4.33105E+005   -4.86976E+004   -2.28541E+003
            2144    7.52986E+005    4.45762E+005    4.45762E+005    1.08250E+003   -4.23636E+005    8.69397E+005   -7.73611E+003    2.56989E+005    3.02790E+003    1.90653E+004    1.11512E+003    4.33175E+005   -3.54655E+004   -9.35373E+002
            2145    7.18745E+005    4.34397E+005    4.34397E+005   -2.86607E+002   -3.95221E+005    8.29618E+005   -1.29630E+004    3.13358E+005    1.89389E+004    1.96204E+004    3.29671E+002    4.07682E+005   -7.65586E+004   -3.51005E+003
            2146    7.38016E+005    4.45363E+005    4.45363E+005    4.01853E+003   -4.06641E+005    8.52004E+005   -1.42468E+004    2.92617E+005    9.89032E+003    2.93745E+004    3.47572E+003    4.20176E+005   -6.94723E+004   -4.56113E+002
            2147    7.41036E+005    4.38865E+005    4.38865E+005   -1.37883E+002   -4.16712E+005    8.55577E+005   -7.33833E+003    2.64330E+005    7.72502E+003    1.41877E+004    1.02271E+002    4.23963E+005   -5.69834E+004   -1.85611E+003
            2148    7.40585E+005    4.39496E+005    4.39496E+005    1.68487E+003   -4.15576E+005    8.55072E+005   -8.53481E+003    2.56633E+005    4.79583E+003    1.92141E+004    1.59451E+003    4.25049E+005   -4.54661E+004   -5.15326E+002
            2149    7.11153E+005    4.25946E+005    4.25946E+005   -3.95704E+003   -3.94914E+005    8.20860E+005   -9.02496E+003    3.09040E+005    1.73418E+004    1.20030E+004   -2.26992E+003    4.01557E+005   -8.48321E+004   -5.68052E+003
            2150    7.28746E+005    4.41632E+005    4.41632E+005    1.96440E+003   -3.99564E+005    8.41196E+005   -1.46776E+004    3.11942E+005    1.46749E+004    2.81061E+004    1.25173E+003    4.13666E+005   -7.56545E+004   -4.45945E+002
            2151    7.31111E+005    4.33546E+005    4.33546E+005   -9.07275E+002   -4.10547E+005    8.44093E+005   -7.36395E+003    2.70932E+005    8.51949E+003    1.45406E+004   -9.68257E+002    4.16004E+005   -7.10831E+004   -1.14171E+003
            2152    7.26605E+005    4.31759E+005    4.31759E+005    3.86178E+002   -4.07139E+005    8.38898E+005   -8.33563E+003    2.66275E+005    7.82199E+003    1.69180E+004    2.66921E+002    4.15554E+005   -5.68280E+004   -6.94735E+002
            2153    7.13868E+005    4.22858E+005    4.22858E+005    7.16004E+001   -4.01353E+005    8.24211E+005   -7.19218E+003    2.53675E+005    9.17301E+003    1.28573E+004   -4.53737E+002    4.05430E+005   -7.38138E+004    2.77802E+002
            2154    7.17781E+005    4.29027E+005    4.29027E+005   -9.58118E+001   -3.99619E+005    8.28646E+005   -9.77071E+003    2.83817E+005    1.22654E+004    1.75484E+004   -5.01641E+002    4.04718E+005   -8.86168E+004   -1.00636E+003
            2155    7.28901E+005    4.39622E+005    4.39622E+005    1.10112E+002   -4.01760E+005    8.41382E+005   -1.26574E+004    3.10626E+005    1.60957E+004    2.23632E+004   -4.86576E+002    4.09338E+005   -9.69549E+004   -1.37887E+003
            2156    7.22435E+005    4.38822E+005    4.38822E+005    1.15131E+003   -3.95030E+005    8.33852E+005   -1.49810E+004    3.18945E+005    1.93518E+004    2.50159E+004    5.75248E+002    4.08735E+005   -8.21113E+004   -9.67320E+002
            2157    7.47615E+005    4.70376E+005    4.70376E+005    1.45807E+004   -3.92435E+005    8.62812E+005   -3.08405E+004    3.44367E+005    3.20242E+004    4.59118E+004    1.45854E+004    4.31119E+005   -1.41086E+004   -5.84332E+002
            2158    7.37827E+005    4.62992E+005    4.62992E+005    1.31776E+004   -3.88525E+005    8.51516E+005   -2.92147E+004    3.39791E+005    3.09029E+004    4.36065E+004    1.31348E+004    4.23740E+005   -4.08855E+004   -1.24782E+003
            2159    7.24148E+005    4.51967E+005    4.51967E+005    1.05728E+004   -3.83765E+005    8.35733E+005   -2.62582E+004    3.33107E+005    2.85093E+004    3.98269E+004    1.04384E+004    4.13075E+005   -6.27954E+004   -1.78404E+003
            2160    7.09678E+005    4.40093E+005    4.40093E+005    7.98445E+003   -3.78958E+005    8.19051E+005   -2.30400E+004    3.24202E+005    2.61479E+004    3.55086E+004    7.46364E+003    4.01616E+005   -7.98722E+004   -1.43223E+003
            2161    6.98394E+005    4.29501E+005    4.29501E+005    4.56185E+003   -3.76537E+005    8.06038E+005   -1.91751E+004    3.17587E+005    2.22610E+004    3.15649E+004    3.69939E+003    3.92607E+005   -9.07841E+004   -1.26330E+003
            2162    6.79008E+005    4.15414E+005    4.15414E+005    2.74756E+003   -3.68269E+005    7.83683E+005   -1.66309E+004    3.06411E+005    2.00887E+004    2.86942E+004    1.10995E+003    3.80213E+005   -9.44598E+004    6.24572E+001
            2163    6.78698E+005    4.13683E+005    4.13683E+005   -1.10376E+003   -3.69553E+005    7.83236E+005   -1.43423E+004    3.17372E+005    1.51850E+004    3.06379E+004   -2.79595E+003    3.83758E+005   -7.74125E+004    9.77869E+002
            2164    7.07996E+005    4.16175E+005    4.16175E+005    2.22515E+002   -4.01305E+005    8.17480E+005   -5.03082E+003    2.21344E+005    5.94081E+003    9.37741E+003   -2.25758E+002    4.05236E+005   -5.33363E+004    1.09976E+003
            2165    7.02879E+005    4.09336E+005    4.09336E+005    4.57120E+002   -4.02271E+005    8.11606E+005   -2.50732E+003    1.65801E+005    3.03056E+003    4.34819E+003    1.43223E+002    4.04790E+005   -2.85545E+004    2.08705E+003
            2166    7.00161E+005    4.04430E+005    4.04430E+005   -1.45836E+002   -4.04046E+005    8.08477E+005   -7.94737E+001    7.92130E+004   -4.04497E+001    4.29186E+002   -1.50315E+002    4.04231E+005   -3.87453E+002    2.33437E+003
            2167    7.02614E+005    4.01868E+005   -4.09430E+005   -2.17344E+002   -4.09430E+005    8.11298E+005    2.59337E+003   -1.74111E+005   -3.02531E+003   -4.83806E+003    8.32607E+001    4.04676E+005    2.79663E+004    2.01456E+003
            2168    7.08009E+005    4.01551E+005   -4.15951E+005   -4.74101E+002   -4.15951E+005    8.17502E+005    4.95809E+003   -2.16256E+005   -6.21462E+003   -8.69096E+003    3.13056E+001    4.05229E+005    5.34797E+004    1.37179E+003
            2169    7.13113E+005    4.00717E+005   -4.22615E+005    1.96737E+002   -4.22615E+005    8.23331E+005    7.23386E+003   -2.57121E+005   -9.06365E+003   -1.33282E+004    6.90277E+002    4.04934E+005    7.40757E+004    1.10851E+002
            2170    7.19079E+005    4.00330E+005   -4.29820E+005   -1.59280E+002   -4.29820E+005    8.30151E+005    9.88318E+003   -2.82785E+005   -1.29530E+004   -1.71863E+004    4.89734E+002    4.05765E+005    8.73379E+004   -3.26845E+002
            2171    7.12474E+005    3.93572E+005   -4.28845E+005    8.32769E+002   -4.28845E+005    8.22417E+005    1.14798E+004   -3.04021E+005   -1.46679E+004   -2.13976E+004    1.62603E+003    4.01512E+005    8.86227E+004   -6.60339E+002
            2172    6.89981E+005    3.73380E+005   -4.22938E+005   -2.84279E+003   -4.22938E+005    7.96318E+005    1.74669E+004   -3.15106E+005   -2.28137E+004   -3.01622E+004    5.75183E+002    3.87167E+005    9.23051E+004    3.88128E+003
            2173    7.20252E+005    4.20904E+005    4.20904E+005   -3.20765E+002   -4.10748E+005    8.31652E+005   -3.27830E+003    2.03289E+005    3.19358E+003    7.10603E+003   -4.64702E+002    4.13903E+005   -3.98833E+004    3.88930E+002
            2174    7.32652E+005    4.27419E+005    4.27419E+005   -4.41273E+002   -4.18556E+005    8.45975E+005   -2.80735E+003    1.98713E+005    2.37222E+003    6.44869E+003   -3.98856E+002    4.21901E+005   -3.02338E+004   -5.42831E+002
            2175    7.45157E+005    4.34788E+005    4.34788E+005   -1.82442E+002   -4.25628E+005    8.60415E+005   -2.99255E+003    1.99438E+005    1.81215E+003    7.27576E+003   -1.10254E+002    4.29561E+005   -2.34064E+004   -8.65621E+002
            2176    7.56320E+005    4.40847E+005    4.40847E+005   -9.94496E+001   -4.32462E+005    8.73309E+005   -2.76172E+003    1.94558E+005    8.74572E+002    7.43704E+003   -2.64645E+001    4.36316E+005   -1.68431E+004   -1.09084E+003
            2177    7.65452E+005    4.46002E+005    4.46002E+005   -8.00829E+001   -4.37854E+005    8.83855E+005   -2.68931E+003    1.94002E+005    2.40208E+002    7.86289E+003   -3.51714E+001    4.41751E+005   -1.18619E+004   -9.42937E+002
            2178    7.72555E+005    4.49926E+005    4.49926E+005   -1.01900E+002   -4.42132E+005    8.92058E+005   -2.56391E+003    1.92735E+005   -4.02040E+002    8.17533E+003   -8.15707E+001    4.45958E+005   -6.70687E+003   -7.38092E+002
            2179    7.76007E+005    4.51872E+005    4.51872E+005   -8.59494E+001   -4.44173E+005    8.96045E+005   -2.53768E+003    1.92284E+005   -6.99331E+002    8.39644E+003   -8.40813E+001    4.47993E+005   -2.40912E+003   -1.96493E+002
            2180    7.16530E+005    4.17975E+005    4.17975E+005    3.29835E+002   -4.09390E+005    8.27365E+005   -2.97151E+003    1.82746E+005    2.41620E+003    6.25002E+003    2.48299E+002    4.13193E+005   -2.00061E+004    6.98547E+002
            2181    7.29639E+005    4.25422E+005    4.25422E+005    7.69747E+002   -4.17084E+005    8.42506E+005   -3.03604E+003    1.75756E+005    1.24115E+003    7.11107E+003    7.55887E+002    4.20995E+005   -1.44302E+004    9.35007E+001
            2182    7.41616E+005    4.31648E+005    4.31648E+005    3.50215E+002   -4.24689E+005    8.56337E+005   -2.43656E+003    1.72842E+005    3.96986E+002    6.54325E+003    3.69434E+002    4.28048E+005   -9.69395E+003   -4.94433E+002
            2183    7.52396E+005    4.37654E+005    4.37654E+005    6.57099E+002   -4.31132E+005    8.68787E+005   -2.39302E+003    1.64138E+005    1.74542E+002    6.32879E+003    6.75722E+002    4.34332E+005   -6.57873E+003   -6.57654E+002
            2184    7.61443E+005    4.42481E+005    4.42481E+005    4.98289E+002   -4.36753E+005    8.79235E+005   -2.07541E+003    1.60244E+005    8.18580E+001    5.63447E+003    5.09888E+002    4.39592E+005   -3.71476E+003   -7.07933E+002
            2185    7.67862E+005    4.46096E+005    4.46096E+005    6.31675E+002   -4.40552E+005    8.86648E+005   -2.05844E+003    1.55851E+005    2.59348E+002    5.27981E+003    6.36157E+002    4.43311E+005   -2.19007E+003   -4.65017E+002
            2186    7.71351E+005    4.47974E+005    4.47974E+005    5.76650E+002   -4.42702E+005    8.90676E+005   -1.94970E+003    1.54336E+005    3.54630E+002    4.91732E+003    5.77156E+002    4.45332E+005   -5.43464E+002   -2.09889E+002
            2187    7.14334E+005    4.11584E+005   -4.13257E+005   -1.15630E+002   -4.13257E+005    8.24841E+005    5.96282E+002   -1.03343E+005   -2.71796E+002   -1.40723E+003   -1.09814E+002    4.12417E+005    1.00476E+003    1.19180E+003
            2188    7.26869E+005    4.18264E+005   -4.21051E+005   -5.10180E+002   -4.21051E+005    8.39315E+005    1.09924E+003   -1.11883E+005   -1.48545E+002   -2.64013E+003   -5.09057E+002    4.19647E+005    2.75276E+003    7.86297E+001
            2189    7.39119E+005    4.25108E+005   -4.28351E+005   -2.49492E+002   -4.28351E+005    8.53459E+005    1.16440E+003   -1.31020E+005   -1.66308E+001   -3.21995E+003   -2.56629E+002    4.26711E+005    3.67324E+003   -4.27350E+002
            2190    7.50410E+005    4.31050E+005   -4.35446E+005   -5.19025E+002   -4.35446E+005    8.66497E+005    1.63831E+003   -1.41552E+005   -8.66321E+001   -4.29384E+003   -5.34443E+002    4.33220E+005    4.37596E+003   -7.82202E+002
            2191    7.60000E+005    4.36224E+005   -4.41344E+005   -4.53272E+002   -4.41344E+005    8.77569E+005    1.85771E+003   -1.53973E+005   -1.28335E+002   -4.97932E+003   -4.65467E+002    4.38761E+005    3.72279E+003   -7.37738E+002
            2192    7.67142E+005    4.39962E+005   -4.45853E+005   -6.13073E+002   -4.45853E+005    8.85815E+005    2.16794E+003   -1.60282E+005   -2.69366E+002   -5.61413E+003   -6.20320E+002    4.42891E+005    2.77732E+003   -5.93475E+002
            2193    7.70879E+005    4.41941E+005   -4.48189E+005   -6.03607E+002   -4.48189E+005    8.90130E+005    2.28382E+003   -1.65012E+005   -3.32452E+002   -5.91480E+003   -6.04203E+002    4.45056E+005    8.08041E+002   -1.68936E+002
            2194    7.16147E+005    4.10110E+005   -4.16817E+005   -1.99042E+002   -4.16817E+005    8.26927E+005    2.30179E+003   -1.69303E+005   -2.62009E+003   -4.18321E+003   -1.02075E+002    4.12846E+005    2.25633E+004    7.78110E+002
            2195    7.29285E+005    4.17608E+005   -4.24488E+005    2.23648E+001   -4.24488E+005    8.42096E+005    2.28603E+003   -1.76781E+005   -2.19145E+003   -4.69734E+003    3.06827E+001    4.20588E+005    1.96347E+004   -2.10850E+001
            2196    7.42237E+005    4.24691E+005   -4.32361E+005   -1.64647E+002   -4.32361E+005    8.57051E+005    2.61155E+003   -1.82376E+005   -1.66177E+003   -5.96634E+003   -2.06534E+002    4.28159E+005    1.75929E+004   -6.28913E+002
            2197    7.54469E+005    4.31468E+005   -4.39706E+005   -1.10495E+002   -4.39706E+005    8.71173E+005    2.78279E+003   -1.89869E+005   -1.14932E+003   -7.03766E+003   -1.61383E+002    4.35324E+005    1.48172E+004   -8.65465E+002
            2198    7.65295E+005    4.37400E+005   -4.46273E+005   -2.03856E+002   -4.46273E+005    8.83673E+005    3.02582E+003   -1.95195E+005   -5.79753E+002   -8.25164E+003   -2.46078E+002    4.41663E+005    1.17475E+004   -9.00734E+002
            2199    7.73362E+005    4.41879E+005   -4.51108E+005   -1.48882E+002   -4.51108E+005    8.92987E+005    3.12613E+003   -2.00105E+005   -1.27856E+002   -9.08384E+003   -1.66695E+002    4.46411E+005    7.28435E+003   -6.18706E+002
            2200    7.77746E+005    4.44270E+005   -4.53778E+005   -1.84550E+002   -4.53778E+005    8.98048E+005    3.23076E+003   -2.02400E+005    1.30405E+002   -9.63569E+003   -1.87011E+002    4.48990E+005    2.58425E+003   -2.40926E+002
            2201    7.19430E+005    4.08529E+005   -4.22158E+005    1.91787E+002   -4.22158E+005    8.30687E+005    4.47926E+003   -2.21573E+005   -3.63241E+003   -1.01654E+004    3.59979E+002    4.13129E+005    4.26920E+004    2.78453E+002
            2202    7.32619E+005    4.15836E+005   -4.30084E+005   -4.61858E+002   -4.30084E+005    8.45920E+005    4.90326E+003   -2.20536E+005   -2.38239E+003   -1.18694E+004   -4.57940E+002    4.21391E+005    3.60803E+004   -4.65510E+002
            2203    7.46072E+005    4.22994E+005   -4.38453E+005   -3.21889E+002   -4.38453E+005    8.61447E+005    5.26011E+003   -2.31258E+005   -1.90409E+003   -1.34883E+004   -3.87919E+002    4.29593E+005    3.06363E+004   -9.32425E+002
            2204    7.59965E+005    4.30297E+005   -4.47192E+005   -9.11420E+002   -4.47192E+005    8.77489E+005    5.93535E+003   -2.35466E+005   -1.16729E+003   -1.56362E+004   -1.00255E+003    4.37931E+005    2.56926E+004   -1.20857E+003
            2205    7.72699E+005    4.36870E+005   -4.55315E+005   -9.43852E+002   -4.55315E+005    8.92185E+005    6.46275E+003   -2.45663E+005   -8.81253E+002   -1.75001E+004   -1.00689E+003    4.45594E+005    1.93495E+004   -1.08527E+003
            2206    7.82396E+005    4.41872E+005   -4.61507E+005   -1.29965E+003   -4.61507E+005    9.03379E+005    6.97826E+003   -2.50080E+005   -5.93885E+002   -1.90113E+004   -1.32964E+003    4.51429E+005    1.22642E+004   -7.92547E+002
            2207    7.87722E+005    4.44592E+005   -4.64933E+005   -1.34807E+003   -4.64933E+005    9.09525E+005    7.22968E+003   -2.54172E+005   -4.99659E+002   -1.98385E+004   -1.35085E+003    4.54643E+005    3.96675E+003   -2.40424E+002
            2208    7.24790E+005    4.06767E+005   -4.30044E+005   -2.16182E+002   -4.30044E+005    8.36811E+005    7.83127E+003   -2.62053E+005   -9.11479E+003   -1.43084E+004   -7.06465E+001    4.14082E+005    5.99216E+004   -5.17199E+002
            2209    7.36746E+005    4.13742E+005   -4.36892E+005   -1.04079E+003   -4.36892E+005    8.50634E+005    8.06364E+003   -2.57878E+005   -7.38016E+003   -1.57790E+004   -1.03180E+003    4.22318E+005    5.02390E+004   -8.38955E+002
            2210    7.51401E+005    4.22117E+005   -4.45436E+005   -8.72738E+002   -4.45436E+005    8.67554E+005    8.06385E+003   -2.63357E+005   -5.76217E+003   -1.74246E+004   -1.00478E+003    4.31541E+005    4.35869E+004   -1.48955E+003
            2211    7.67330E+005    4.30688E+005   -4.55258E+005   -1.32439E+003   -4.55258E+005    8.85945E+005    8.63145E+003   -2.68493E+005   -5.06167E+003   -1.93609E+004   -1.47176E+003    4.41458E+005    3.58863E+004   -1.63954E+003
            2212    7.81971E+005    4.38882E+005   -4.63968E+005   -1.38716E+003   -4.63968E+005    9.02850E+005    8.82463E+003   -2.73506E+005   -4.01851E+003   -2.09553E+004   -1.50010E+003    4.50512E+005    2.74020E+004   -1.52352E+003
            2213    7.93463E+005    4.45071E+005   -4.71047E+005   -1.58908E+003   -4.71047E+005    9.16117E+005    9.18824E+003   -2.78166E+005   -3.64950E+003   -2.22737E+004   -1.64152E+003    4.57648E+005    1.69957E+004   -1.09015E+003
            2214    7.99754E+005    4.48553E+005   -4.74829E+005   -1.67400E+003   -4.74829E+005    9.23382E+005    9.31679E+003   -2.80169E+005   -3.29193E+003   -2.29787E+004   -1.67969E+003    4.61550E+005    5.72812E+003   -3.61465E+002
            2215    7.24229E+005    4.05610E+005   -4.30516E+005    8.82003E+002   -4.30516E+005    8.36126E+005    8.00813E+003   -2.75778E+005   -7.50463E+003   -1.76929E+004    1.17313E+003    4.11832E+005    7.17001E+004   -7.81716E+002
            2216    7.35915E+005    4.12060E+005   -4.37584E+005   -5.41924E+002   -4.37584E+005    8.49644E+005    8.68864E+003   -2.70747E+005   -6.27523E+003   -1.91853E+004   -6.05381E+002    4.19977E+005    6.36400E+004   -1.62208E+003
            2217    7.52585E+005    4.20049E+005   -4.48819E+005   -7.26175E+002   -4.48819E+005    8.68868E+005    9.83207E+003   -2.85202E+005   -6.28599E+003   -2.23386E+004   -8.71671E+002    4.30819E+005    5.53303E+004   -1.95436E+003
            2218    7.70509E+005    4.29286E+005   -4.60282E+005   -1.87869E+003   -4.60282E+005    8.89568E+005    1.09584E+004   -2.89436E+005   -5.15695E+003   -2.56837E+004   -2.03450E+003    4.42223E+005    4.65239E+004   -1.99275E+003
            2219    7.88016E+005    4.37782E+005   -4.71983E+005   -2.43502E+003   -4.71983E+005    9.09765E+005    1.22119E+004   -3.01135E+005   -5.07220E+003   -2.90273E+004   -2.53631E+003    4.53354E+005    3.52611E+004   -1.68532E+003
            2220    8.01458E+005    4.44575E+005   -4.80707E+005   -3.08799E+003   -4.80707E+005    9.25282E+005    1.30735E+004   -3.06701E+005   -4.60433E+003   -3.14870E+004   -3.12934E+003    4.61915E+005    2.21350E+004   -1.11186E+003
            2221    8.08979E+005    4.48154E+005   -4.85804E+005   -3.37590E+003   -4.85804E+005    9.33958E+005    1.36751E+004   -3.11813E+005   -4.67270E+003   -3.29725E+004   -3.38025E+003    4.66709E+005    7.23067E+003   -3.69582E+002
            2222    7.17035E+005    3.93370E+005   -4.34301E+005   -1.49017E+003   -4.34301E+005    8.27670E+005    1.41405E+004   -3.08079E+005   -1.91402E+004   -2.17725E+004   -1.50873E+003    4.05540E+005    8.24059E+004   -2.10744E+003
            2223    7.31414E+005    4.02016E+005   -4.42310E+005   -2.80118E+003   -4.42310E+005    8.44327E+005    1.43652E+004   -3.02998E+005   -1.51909E+004   -2.54739E+004   -2.43070E+003    4.15482E+005    7.45847E+004   -1.00501E+003
            2224    7.47685E+005    4.11257E+005   -4.51850E+005   -2.46466E+003   -4.51850E+005    8.63106E+005    1.43526E+004   -3.10319E+005   -1.39242E+004   -2.64239E+004   -2.70959E+003    4.26199E+005    6.74619E+004   -2.67016E+003
            2225    7.67493E+005    4.21249E+005   -4.64726E+005   -3.52218E+003   -4.64726E+005    8.85975E+005    1.56665E+004   -3.18031E+005   -1.40874E+004   -2.92236E+004   -3.68833E+003    4.39234E+005    5.70236E+004   -2.30847E+003
            2226    7.85851E+005    4.31193E+005   -4.75983E+005   -4.08860E+003   -4.75983E+005    9.07176E+005    1.62930E+004   -3.23617E+005   -1.34016E+004   -3.11537E+004   -4.32374E+003    4.51357E+005    4.40265E+004   -2.52532E+003
            2227    8.01172E+005    4.38916E+005   -4.85947E+005   -4.85880E+003   -4.85947E+005    9.24863E+005    1.72969E+004   -3.29889E+005   -1.37741E+004   -3.31699E+004   -4.94670E+003    4.61493E+005    2.77922E+004   -1.58228E+003
            2228    8.09330E+005    4.43116E+005   -4.91167E+005   -5.28430E+003   -4.91167E+005    9.34283E+005    1.77786E+004   -3.32625E+005   -1.38032E+004   -3.42298E+004   -5.30279E+003    4.66933E+005    9.49638E+003   -7.48918E+002
            2229    7.03389E+005    3.95371E+005   -4.16612E+005    5.77944E+003   -4.16612E+005    8.11983E+005    5.15416E+003   -2.89746E+005   -5.08980E+003   -1.50669E+004    4.69420E+003    3.95736E+005    9.05068E+004   -4.75641E+003
            2230    7.15147E+005    3.92675E+005   -4.32833E+005   -1.72928E+003   -4.32833E+005    8.25508E+005    1.39624E+004   -3.04126E+005   -1.75558E+004   -2.28207E+004   -1.51081E+003    4.03526E+005    8.67115E+004   -1.75952E+003
            2231    7.31542E+005    4.02504E+005   -4.41937E+005   -1.19073E+003   -4.41937E+005    8.44441E+005    1.35413E+004   -3.09743E+005   -1.24272E+004   -2.68488E+004   -1.34776E+003    4.14594E+005    7.95272E+004   -2.87089E+003
            2232    7.48730E+005    4.07455E+005   -4.56813E+005   -5.23960E+003   -4.56813E+005    8.64268E+005    1.81995E+004   -3.19662E+005   -1.70272E+004   -3.23665E+004   -5.20473E+003    4.26578E+005    6.86096E+004   -2.07414E+003
            2233    7.67513E+005    4.16877E+005   -4.69064E+005   -5.90460E+003   -4.69064E+005    8.85941E+005    1.93637E+004   -3.29104E+005   -1.53697E+004   -3.67108E+004   -6.01077E+003    4.39563E+005    5.37599E+004   -2.31834E+003
            2234    7.83269E+005    4.22835E+005   -4.81275E+005   -8.03993E+003   -4.81275E+005    9.04110E+005    2.21601E+004   -3.38961E+005   -1.75713E+004   -4.08604E+004   -8.04855E+003    4.50591E+005    3.44107E+004   -1.31011E+003
            2235    7.92456E+005    4.27199E+005   -4.87506E+005   -8.42987E+003   -4.87506E+005    9.14705E+005    2.29122E+004   -3.44499E+005   -1.73112E+004   -4.29822E+004   -8.44305E+003    4.57017E+005    1.19230E+004   -7.03327E+002
            2236    7.42551E+005    3.89501E+005   -4.67465E+005   -1.47159E+004   -4.67465E+005    8.56967E+005    3.08934E+004   -3.42231E+005   -3.55790E+004   -4.23722E+004   -1.47288E+004    4.28209E+005    1.49574E+004   -6.68079E+002
            2237    7.33379E+005    3.85831E+005   -4.60527E+005   -1.27996E+004   -4.60527E+005    8.46358E+005    2.91654E+004   -3.40710E+005   -3.42796E+004   -4.02881E+004   -1.29284E+004    4.21022E+005    4.25572E+004   -2.02651E+003
            2238    7.20578E+005    3.81154E+005   -4.50429E+005   -1.04814E+004   -4.50429E+005    8.31584E+005    2.65856E+004   -3.34930E+005   -3.19942E+004   -3.71766E+004   -1.05859E+004    4.10727E+005    6.46252E+004   -2.43366E+003
            2239    7.09854E+005    3.77942E+005   -4.41241E+005   -7.21168E+003   -4.41241E+005    8.19183E+005    2.35037E+004   -3.32874E+005   -2.94450E+004   -3.39060E+004   -7.16024E+003    4.01450E+005    8.11786E+004   -2.57450E+003
            2240    7.01215E+005    3.75877E+005   -4.33388E+005   -5.97585E+003   -4.33388E+005    8.09266E+005    2.11624E+004   -3.22543E+005   -2.67288E+004   -3.13966E+004   -5.36169E+003    3.93931E+005    9.23243E+004   -1.67388E+003
            2241    6.96243E+005    3.75214E+005   -4.28296E+005   -3.47007E+003   -4.28296E+005    8.03510E+005    1.88508E+004   -3.22373E+005   -2.46585E+004   -2.96848E+004   -2.20921E+003    3.89375E+005    9.87771E+004   -8.49272E+002
            2242    6.87900E+005    3.69262E+005   -4.24627E+005   -5.05910E+003   -4.24627E+005    7.93889E+005    2.01413E+004   -3.17712E+005   -2.47148E+004   -3.33644E+004   -2.34479E+003    3.83682E+005    1.01318E+005    1.38225E+003
            2243    7.21319E+005    4.38124E+005    4.38124E+005    1.23899E+003   -3.94443E+005    8.32568E+005   -1.49735E+004    3.17884E+005    1.93461E+004    2.49141E+004    6.60241E+002    4.08185E+005    8.15857E+004    9.22180E+002
            2244    7.29637E+005    4.40180E+005    4.40180E+005    1.22770E+002   -4.02048E+005    8.42228E+005   -1.27514E+004    3.11505E+005    1.61869E+004    2.25345E+004   -4.66997E+002    4.09829E+005    9.67158E+004    1.39800E+003
            2245    7.18223E+005    4.29349E+005    4.29349E+005   -1.03832E+002   -3.99806E+005    8.29155E+005   -9.81286E+003    2.84413E+005    1.23215E+004    1.76259E+004   -5.08819E+002    4.04919E+005    8.88837E+004    1.02487E+003
            2246    7.14108E+005    4.23030E+005    4.23030E+005    8.35462E+001   -4.01458E+005    8.24488E+005   -7.21857E+003    2.53903E+005    9.18574E+003    1.29047E+004   -4.34767E+002    4.05538E+005    7.39909E+004   -2.49777E+002
            2247    7.26985E+005    4.31974E+005    4.31974E+005    3.92149E+002   -4.07363E+005    8.39337E+005   -8.33420E+003    2.66285E+005    7.80295E+003    1.69227E+004    2.76912E+002    4.15774E+005    5.68404E+004    7.08859E+002
            2248    7.41185E+005    4.39846E+005    4.39846E+005    1.68234E+003   -4.15918E+005    8.55764E+005   -8.53687E+003    2.56829E+005    4.79123E+003    1.92239E+004    1.59553E+003    4.25412E+005    4.53228E+004    5.27152E+002
            2249    7.53491E+005    4.46015E+005    4.46015E+005    1.05303E+003   -4.23965E+005    8.69980E+005   -7.70087E+003    2.57029E+005    2.94659E+003    1.90617E+004    1.09429E+003    4.33484E+005    3.52481E+004    9.85882E+002
            2250    7.65783E+005    4.53074E+005    4.53074E+005    1.70050E+003   -4.31111E+005    8.84185E+005   -7.88802E+003    2.53679E+005    2.02782E+003    1.98728E+004    1.76348E+003    4.41135E+005    2.76641E+004    1.07193E+003
            2251    7.76910E+005    4.59277E+005    4.59277E+005    1.37256E+003   -4.37756E+005    8.97033E+005   -7.63132E+003    2.57110E+005    1.38081E+003    2.00894E+004    1.42375E+003    4.47993E+005    1.95336E+004    9.94979E+002
            2252    7.84745E+005    4.63916E+005    4.63916E+005    1.62256E+003   -4.42167E+005    9.06083E+005   -7.79030E+003    2.57576E+005    1.26380E+003    2.04613E+004    1.64579E+003    4.52780E+005    1.20139E+004    6.87588E+002
            2253    7.88979E+005    4.66276E+005    4.66276E+005    1.53050E+003   -4.44696E+005    9.10972E+005   -7.70357E+003    2.58576E+005    1.12891E+003    2.04483E+004    1.53345E+003    4.55367E+005    3.84359E+003    2.54341E+002
            2254    7.31522E+005    4.33879E+005    4.33879E+005   -8.70714E+002   -4.10687E+005    8.44566E+005   -7.44030E+003    2.71468E+005    8.53039E+003    1.47205E+004   -9.30008E+002    4.16271E+005    7.09194E+004    1.15447E+003
            2255    7.41438E+005    4.39208E+005    4.39208E+005   -1.06303E+002   -4.16831E+005    8.56040E+005   -7.42362E+003    2.65057E+005    7.70604E+003    1.44207E+004    1.44173E+002    4.24202E+005    5.69373E+004    1.90798E+003
            2256    7.55886E+005    4.48459E+005    4.48459E+005    3.28720E+002   -4.24257E+005    8.72716E+005   -8.17677E+003    2.72217E+005    6.65230E+003    1.72518E+004    6.26215E+002    4.33626E+005    4.84447E+004    2.27678E+003
            2257    7.71606E+005    4.57770E+005    4.57770E+005    8.70640E+002   -4.33106E+005    8.90876E+005   -8.51129E+003    2.73528E+005    5.05296E+003    1.93601E+004    1.12085E+003    4.43730E+005    3.82836E+004    2.24768E+003
            2258    7.85056E+005    4.65987E+005    4.65987E+005    1.08944E+003   -4.40417E+005    9.06404E+005   -8.88633E+003    2.78571E+005    3.92364E+003    2.14931E+004    1.24219E+003    4.52204E+005    2.87207E+004    1.85052E+003
            2259    7.96195E+005    4.72655E+005    4.72655E+005    1.30942E+003   -4.46613E+005    9.19267E+005   -9.11708E+003    2.81330E+005    2.93595E+003    2.30402E+004    1.37505E+003    4.59188E+005    1.75512E+004    1.27388E+003
            2260    8.01786E+005    4.75989E+005    4.75989E+005    1.41049E+003   -4.49735E+005    9.25724E+005   -9.22137E+003    2.82684E+005    2.39936E+003    2.38483E+004    1.41650E+003    4.62699E+005    6.00153E+003    3.77094E+002
            2261    7.28513E+005    4.41534E+005    4.41534E+005    2.03011E+003   -3.99393E+005    8.40927E+005   -1.47236E+004    3.11715E+005    1.47013E+004    2.81453E+004    1.32431E+003    4.13524E+005    7.56865E+004    4.65567E+002
            2262    7.38491E+005    4.45773E+005    4.45773E+005    4.05621E+003   -4.06777E+005    8.52550E+005   -1.43507E+004    2.93372E+005    1.00396E+004    2.95077E+004    3.50494E+003    4.20470E+005    6.93684E+004    4.30219E+002
            2263    7.54373E+005    4.54964E+005    4.54964E+005    2.80172E+003   -4.15897E+005    8.70860E+005   -1.39562E+004    3.05621E+005    9.47289E+003    2.96289E+004    2.76669E+003    4.31216E+005    5.95553E+004    1.72624E+003
            2264    7.71650E+005    4.65794E+005    4.65794E+005    3.66967E+003   -4.25022E+005    8.90815E+005   -1.48139E+004    3.10178E+005    8.91747E+003    3.18238E+004    3.70053E+003    4.42363E+005    5.06865E+004    1.74791E+003
            2265    7.90364E+005    4.77356E+005    4.77356E+005    3.72794E+003   -4.35055E+005    9.12412E+005   -1.53431E+004    3.19548E+005    8.61512E+003    3.35986E+004    3.81547E+003    4.54416E+005    3.83665E+004    1.77945E+003
            2266    8.04080E+005    4.86084E+005    4.86084E+005    4.32868E+003   -4.42164E+005    9.28248E+005   -1.60830E+004    3.24522E+005    8.66641E+003    3.52228E+004    4.35984E+003    4.63299E+005    2.42604E+004    1.10642E+003
            2267    8.12017E+005    4.90945E+005    4.90945E+005    4.46260E+003   -4.46466E+005    9.37412E+005   -1.63140E+004    3.27550E+005    8.54642E+003    3.59266E+004    4.46892E+003    4.68435E+005    8.13158E+003    4.55325E+002
            2268    7.11350E+005    4.26046E+005    4.26046E+005   -4.03135E+003   -3.95040E+005    8.21086E+005   -8.99156E+003    3.09421E+005    1.72972E+004    1.20225E+004   -2.34502E+003    4.01665E+005    8.48664E+004    5.68827E+003
            2269    7.18779E+005    4.34503E+005    4.34503E+005   -2.51854E+002   -3.95152E+005    8.29655E+005   -1.30330E+004    3.13645E+005    1.89431E+004    1.97940E+004    3.61879E+002    4.07660E+005    7.67795E+004    3.51707E+003
            2270    7.31581E+005    4.43284E+005    4.43284E+005    1.28509E+003   -4.01165E+005    8.44448E+005   -1.44680E+004    3.16550E+005    1.66786E+004    2.48694E+004    1.85592E+003    4.15597E+005    7.43843E+004    3.70531E+003
            2271    7.54367E+005    4.58861E+005    4.58861E+005    3.51250E+003   -4.11903E+005    8.70763E+005   -1.68235E+004    3.24136E+005    1.73512E+004    2.92649E+004    3.85434E+003    4.30588E+005    6.41314E+004    3.06550E+003
            2272    7.74019E+005    4.71599E+005    4.71599E+005    5.08216E+003   -4.21870E+005    8.93468E+005   -1.82704E+004    3.28732E+005    1.65295E+004    3.29312E+004    5.35057E+003    4.43835E+005    5.01255E+004    2.76094E+003
            2273    7.90997E+005    4.82855E+005    4.82855E+005    6.19799E+003   -4.30214E+005    9.13070E+005   -1.96130E+004    3.35423E+005    1.67545E+004    3.57764E+004    6.30800E+003    4.55315E+005    3.19475E+004    1.82170E+003
            2274    7.99968E+005    4.88636E+005    4.88636E+005    6.73281E+003   -4.34794E+005    9.23430E+005   -2.01914E+004    3.38322E+005    1.64297E+004    3.73936E+004    6.75098E+003    4.61463E+005    1.10631E+004    7.46427E+002
            2275    7.47413E+005    4.70268E+005    4.70268E+005    1.46207E+004   -3.92312E+005    8.62580E+005   -3.08589E+004    3.44153E+005    3.20398E+004    4.59121E+004    1.46248E+004    4.30987E+005    1.45880E+004    5.89665E+002
            2276    7.37619E+005    4.62896E+005    4.62896E+005    1.31367E+004   -3.88378E+005    8.51274E+005   -2.92183E+004    3.40039E+005    3.09447E+004    4.36213E+004    1.30888E+004    4.23612E+005    4.09444E+004    1.22708E+003
            2277    7.24350E+005    4.52107E+005    4.52107E+005    1.06049E+004   -3.83859E+005    8.35966E+005   -2.62846E+004    3.33128E+005    2.85064E+004    3.98748E+004    1.04726E+004    4.13226E+005    6.25703E+004    1.78153E+003
            2278    7.10263E+005    4.40480E+005    4.40480E+005    7.97263E+003   -3.79244E+005    8.19724E+005   -2.30697E+004    3.24677E+005    2.61448E+004    3.55952E+004    7.46912E+003    4.02041E+005    7.94573E+004    1.46032E+003
            2279    6.99081E+005    4.30001E+005    4.30001E+005    4.68031E+003   -3.76832E+005    8.06833E+005   -1.92831E+004    3.17721E+005    2.23613E+004    3.16565E+004    3.83164E+003    3.93076E+005    9.05215E+004    1.26967E+003
            2280    6.80080E+005    4.16107E+005    4.16107E+005    2.75802E+003   -3.68811E+005    7.84918E+005   -1.66847E+004    3.07051E+005    2.01473E+004    2.87294E+004    1.17744E+003    3.80795E+005    9.46883E+004    6.07077E+001
            2281    6.78522E+005    4.13620E+005    4.13620E+005   -9.96550E+002   -3.69415E+005    7.83035E+005   -1.44028E+004    3.16998E+005    1.53087E+004    3.06374E+004   -2.73778E+003    3.83480E+005    7.82730E+004   -1.02169E+003
            2282    7.92180E+005    4.27006E+005   -4.87381E+005   -8.46069E+003   -4.87381E+005    9.14386E+005    2.29452E+004   -3.44437E+005   -1.73460E+004   -4.30148E+004   -8.47493E+003    4.56849E+005   -1.22356E+004    7.28658E+002
            2283    8.09093E+005    4.42967E+005   -4.91043E+005   -5.30435E+003   -4.91043E+005    9.34010E+005    1.77935E+004   -3.32515E+005   -1.38081E+004   -3.42485E+004   -5.32384E+003    4.66783E+005   -1.01193E+004    7.63277E+002
            2284    8.08858E+005    4.48042E+005   -4.85775E+005   -3.38597E+003   -4.85775E+005    9.33817E+005    1.37063E+004   -3.11994E+005   -4.74016E+003   -3.29875E+004   -3.39136E+003    4.66628E+005   -7.88393E+003    4.09587E+002
            2285    7.99588E+005    4.48463E+005   -4.74727E+005   -1.65994E+003   -4.74727E+005    9.23189E+005    9.30812E+003   -2.80196E+005   -3.28026E+003   -2.29775E+004   -1.66661E+003    4.61447E+005   -6.27519E+003    3.90176E+002
            2286    7.87611E+005    4.44529E+005   -4.64869E+005   -1.35192E+003   -4.64869E+005    9.09398E+005    7.23056E+003   -2.54105E+005   -5.16891E+002   -1.98196E+004   -1.35520E+003    4.54576E+005   -4.30857E+003    2.60568E+002
            2287    7.77636E+005    4.44220E+005   -4.53702E+005   -1.79218E+002   -4.53702E+005    8.97922E+005    3.22053E+003   -2.02272E+005    1.40865E+002   -9.62040E+003   -1.82050E+002    4.48926E+005   -2.75027E+003    2.60037E+002
            2288    7.70868E+005    4.41932E+005   -4.48184E+005   -6.13246E+002   -4.48184E+005    8.90117E+005    2.28841E+003   -1.64844E+005   -3.25493E+002   -5.92580E+003   -6.13925E+002    4.45049E+005   -8.78100E+002    1.77467E+002
            2289    7.71312E+005    4.47945E+005    4.47945E+005    5.74406E+002   -4.42686E+005    8.90631E+005   -1.94456E+003    1.54222E+005    3.43621E+002    4.91516E+003    5.74902E+002    4.45309E+005    5.16600E+002    2.16179E+002
            2290    7.76097E+005    4.51928E+005    4.51928E+005   -9.87690E+001   -4.44221E+005    8.96148E+005   -2.53602E+003    1.92572E+005   -7.12789E+002    8.41786E+003   -9.70015E+001    4.48045E+005    2.35815E+003    1.90312E+002
            2291    7.82709E+005    4.22485E+005   -4.80978E+005   -8.04158E+003   -4.80978E+005    9.03463E+005    2.21779E+004   -3.38929E+005   -1.76309E+004   -4.08542E+004   -8.04861E+003    4.50223E+005   -3.49861E+004    1.32063E+003
            2292    8.00489E+005    4.38446E+005   -4.85627E+005   -4.86840E+003   -4.85627E+005    9.24073E+005    1.73498E+004   -3.30083E+005   -1.38893E+004   -3.31984E+004   -4.96159E+003    4.61049E+005   -2.85945E+004    1.62981E+003
            2293    8.00816E+005    4.44232E+005   -4.80310E+005   -3.07159E+003   -4.80310E+005    9.24541E+005    1.30498E+004   -3.06462E+005   -4.65423E+003   -3.13811E+004   -3.11404E+003    4.61508E+005   -2.29218E+004    1.13037E+003
            2294    7.92841E+005    4.44768E+005   -4.70632E+005   -1.56249E+003   -4.70632E+005    9.15400E+005    9.14208E+003   -2.77782E+005   -3.63192E+003   -2.21750E+004   -1.61935E+003    4.57269E+005   -1.75340E+004    1.13672E+003
            2295    7.81841E+005    4.41628E+005   -4.61112E+005   -1.28192E+003   -4.61112E+005    9.02739E+005    6.92194E+003   -2.49395E+005   -5.95041E+002   -1.88583E+004   -1.31254E+003    4.51103E+005   -1.25343E+004    7.95120E+002
            2296    7.73045E+005    4.41760E+005   -4.50860E+005   -1.42197E+002   -4.50860E+005    8.92621E+005    3.08077E+003   -1.99180E+005   -1.16827E+002   -8.96462E+003   -1.60860E+002    4.46228E+005   -7.35585E+003    6.38778E+002
            2297    7.66988E+005    4.39900E+005   -4.45738E+005   -6.13577E+002   -4.45738E+005    8.85638E+005    2.15042E+003   -1.59639E+005   -2.87577E+002   -5.54296E+003   -6.20726E+002    4.42802E+005   -2.75797E+003    5.89218E+002
            2298    7.67952E+005    4.46198E+005    4.46198E+005    6.25992E+002   -4.40554E+005    8.86751E+005   -2.08998E+003    1.57207E+005    2.80549E+002    5.35879E+003    6.30611E+002    4.43362E+005    2.24085E+003    4.68831E+002
            2299    7.72714E+005    4.50075E+005    4.50075E+005   -7.81790E+001   -4.42166E+005    8.92241E+005   -2.61045E+003    1.93310E+005   -4.04358E+002    8.29373E+003   -5.80108E+001    4.46048E+005    6.73270E+003    7.31245E+002
            2300    7.66863E+005    4.16562E+005   -4.68630E+005   -5.89836E+003   -4.68630E+005    8.85192E+005    1.93223E+004   -3.28632E+005   -1.53704E+004   -3.65955E+004   -6.00093E+003    4.39095E+005   -5.45040E+004    2.31879E+003
            2301    7.84782E+005    4.30689E+005   -4.75254E+005   -4.01882E+003   -4.75254E+005    9.05943E+005    1.61946E+004   -3.23071E+005   -1.33237E+004   -3.09983E+004   -4.26182E+003    4.50659E+005   -4.48241E+004    2.56329E+003
            2302    7.86778E+005    4.37216E+005   -4.71121E+005   -2.38706E+003   -4.71121E+005    9.08337E+005    1.20975E+004   -3.00137E+005   -5.07481E+003   -2.87288E+004   -2.48898E+003    4.52591E+005   -3.59108E+004    1.68732E+003
            2303    7.80736E+005    4.38379E+005   -4.63049E+005   -1.32461E+003   -4.63049E+005    9.01427E+005    8.66493E+003   -2.72024E+005   -3.92408E+003   -2.06285E+004   -1.44217E+003    4.49783E+005   -2.76901E+004    1.54907E+003
            2304    7.71764E+005    4.36492E+005   -4.54615E+005   -9.26083E+002   -4.54615E+005    8.91106E+005    6.34959E+003   -2.44043E+005   -8.75415E+002   -1.71848E+004   -9.88538E+002    4.45058E+005   -1.93276E+004    1.07212E+003
            2305    7.64740E+005    4.37251E+005   -4.45783E+005   -1.88794E+002   -4.45783E+005    8.83034E+005    2.90676E+003   -1.92674E+005   -5.35990E+002   -7.95379E+003   -2.30512E+002    4.41350E+005   -1.15442E+004    8.99040E+002
            2306    7.59872E+005    4.36243E+005   -4.41179E+005   -4.53027E+002   -4.41179E+005    8.77421E+005    1.79627E+003   -1.51687E+005   -1.24695E+002   -4.79962E+003   -4.64483E+002    4.38690E+005   -3.50317E+003    7.34547E+002
            2307    7.61586E+005    4.42666E+005    4.42666E+005    4.95585E+002   -4.36733E+005    8.79399E+005   -2.14263E+003    1.62599E+005    9.05412E+001    5.82961E+003    5.07751E+002    4.39672E+005    3.93395E+003    7.03683E+002
            2308    7.65812E+005    4.46248E+005    4.46248E+005   -9.21075E+001   -4.38022E+005    8.84271E+005   -2.71136E+003    1.94855E+005    2.31114E+002    7.94870E+003   -4.57487E+001    4.41957E+005    1.19014E+004    9.69049E+002
            2309    7.48020E+005    4.07119E+005   -4.56328E+005   -5.15429E+003   -4.56328E+005    8.63447E+005    1.81211E+004   -3.19517E+005   -1.70379E+004   -3.22160E+004   -5.10960E+003    4.26057E+005   -6.92644E+004    2.06338E+003
            2310    7.66230E+005    4.20729E+005   -4.63790E+005   -3.40184E+003   -4.63790E+005    8.84518E+005    1.54876E+004   -3.17171E+005   -1.39509E+004   -2.89447E+004   -3.56714E+003    4.38427E+005   -5.75887E+004    2.30700E+003
            2311    7.68941E+005    4.28643E+005   -4.59118E+005   -1.78770E+003   -4.59118E+005    8.87761E+005    1.07544E+004   -2.87840E+005   -5.08664E+003   -2.52341E+004   -1.94246E+003    4.41293E+005   -4.67619E+004    1.97253E+003
            2312    7.65925E+005    4.30179E+005   -4.54148E+005   -1.26448E+003   -4.54148E+005    8.84327E+005    8.41102E+003   -2.66188E+005   -4.91788E+003   -1.89045E+004   -1.41071E+003    4.40660E+005   -3.57370E+004    1.61689E+003
            2313    7.58934E+005    4.29927E+005   -4.46373E+005   -8.84008E+002   -4.46373E+005    8.76300E+005    5.77691E+003   -2.33190E+005   -1.13096E+003   -1.52273E+004   -9.72483E+002    4.37364E+005   -2.52603E+004    1.18014E+003
            2314    7.54016E+005    4.31414E+005   -4.39237E+005   -9.62903E+001   -4.39237E+005    8.70651E+005    2.63999E+003   -1.86699E+005   -1.09029E+003   -6.68471E+003   -1.44967E+002    4.35081E+005   -1.43096E+004    8.48382E+002
            2315    7.50343E+005    4.31104E+005   -4.35315E+005   -5.24962E+002   -4.35315E+005    8.66419E+005    1.57844E+003   -1.38714E+005   -9.69480E+001   -4.09943E+003   -5.38953E+002    4.33186E+005   -3.95888E+003    7.81695E+002
            2316    7.52709E+005    4.37958E+005    4.37958E+005    6.75716E+002   -4.31190E+005    8.69148E+005   -2.48141E+003    1.66354E+005    2.12626E+002    6.53682E+003    6.94788E+002    4.34508E+005    6.83858E+003    6.51984E+002
            2317    7.56687E+005    4.41048E+005    4.41048E+005   -1.19879E+002   -4.32684E+005    8.73732E+005   -2.74819E+003    1.94777E+005    8.81748E+002    7.40923E+003   -4.64099E+001    4.36529E+005    1.68117E+004    1.09886E+003
            2318    7.30938E+005    4.02364E+005   -4.41383E+005   -1.08625E+003   -4.41383E+005    8.43747E+005    1.33686E+004   -3.09003E+005   -1.22702E+004   -2.65795E+004   -1.25612E+003    4.14173E+005   -7.98825E+004    2.89952E+003
            2319    7.46535E+005    4.10909E+005   -4.50875E+005   -2.34831E+003   -4.50875E+005    8.61784E+005    1.41046E+004   -3.08854E+005   -1.36740E+004   -2.60515E+004   -2.58820E+003    4.25513E+005   -6.75698E+004    2.63759E+003
            2320    7.51320E+005    4.19631E+005   -4.47779E+005   -6.48097E+002   -4.47779E+005    8.67411E+005    9.59872E+003   -2.83255E+005   -6.14569E+003   -2.18610E+004   -7.89463E+002    4.30118E+005   -5.50931E+004    1.91047E+003
            2321    7.50251E+005    4.21754E+005   -4.44476E+005   -8.35188E+002   -4.44476E+005    8.66230E+005    7.85235E+003   -2.60950E+005   -5.61256E+003   -1.69844E+004   -9.60115E+002    4.30937E+005   -4.30002E+004    1.43171E+003
            2322    7.45384E+005    4.22839E+005   -4.37815E+005   -3.02758E+002   -4.37815E+005    8.60655E+005    5.09292E+003   -2.28783E+005   -1.80117E+003   -1.31115E+004   -3.66136E+002    4.29250E+005   -2.98911E+004    9.01038E+002
            2323    7.41992E+005    4.24719E+005   -4.32050E+005   -1.61022E+002   -4.32050E+005    8.56769E+005    2.49725E+003   -1.79544E+005   -1.62187E+003   -5.66899E+003   -2.00889E+002    4.28046E+005   -1.69040E+004    6.13539E+002
            2324    7.39282E+005    4.25320E+005   -4.28327E+005   -2.44801E+002   -4.28327E+005    8.53648E+005    1.08382E+003   -1.27311E+005    6.56497E+001   -3.06593E+003   -2.51171E+002    4.26809E+005   -3.21451E+003    4.33447E+002
            2325    7.41987E+005    4.31899E+005    4.31899E+005    3.49858E+002   -4.24866E+005    8.56765E+005   -2.46088E+003    1.73578E+005    3.43685E+002    6.66846E+003    3.70495E+002    4.28255E+005    9.92379E+003    5.18507E+002
            2326    7.45768E+005    4.35186E+005    4.35186E+005   -1.78492E+002   -4.25935E+005    8.61121E+005   -3.02410E+003    2.00124E+005    1.85932E+003    7.32060E+003   -1.07614E+002    4.29919E+005    2.33202E+004    8.56739E+002
            2327    7.14764E+005    3.92491E+005   -4.32575E+005   -1.69482E+003   -4.32575E+005    8.25067E+005    1.39263E+004   -3.04003E+005   -1.75901E+004   -2.27332E+004   -1.45544E+003    4.03297E+005   -8.67251E+004    1.70726E+003
            2328    7.30841E+005    4.01903E+005   -4.41766E+005   -2.76049E+003   -4.41766E+005    8.43669E+005    1.42078E+004   -3.01819E+005   -1.50113E+004   -2.52414E+004   -2.37060E+003    4.15183E+005   -7.43878E+004    9.27802E+002
            2329    7.35174E+005    4.11908E+005   -4.36884E+005   -4.79456E+002   -4.36884E+005    8.48792E+005    8.48507E+003   -2.68995E+005   -6.11863E+003   -1.87953E+004   -5.41285E+002    4.19624E+005   -6.31338E+004    1.58346E+003
            2330    7.36214E+005    4.13646E+005   -4.36377E+005   -1.03381E+003   -4.36377E+005    8.50023E+005    7.92177E+003   -2.56094E+005   -7.23651E+003   -1.55114E+004   -1.01736E+003    4.22095E+005   -4.95247E+004    7.79356E+002
            2331    7.32314E+005    4.15826E+005   -4.29745E+005   -4.57865E+002   -4.29745E+005    8.45570E+005    4.79227E+003   -2.18691E+005   -2.28996E+003   -1.16303E+004   -4.56553E+002    4.21281E+005   -3.53202E+004    4.60539E+002
            2332    7.29456E+005    4.17800E+005   -4.24494E+005    2.62898E+001   -4.24494E+005    8.42294E+005    2.22266E+003   -1.75277E+005   -2.13583E+003   -4.56710E+003    3.49482E+001    4.20713E+005   -1.90716E+004    8.61779E+000
            2333    7.27255E+005    4.18510E+005   -4.21252E+005   -5.25841E+002   -4.21252E+005    8.39762E+005    1.08916E+003   -1.10267E+005   -1.50943E+002   -2.59122E+003   -5.25306E+002    4.19871E+005   -2.53047E+003   -3.81461E+001
            2334    7.30093E+005    4.25711E+005    4.25711E+005    7.68541E+002   -4.17318E+005    8.43029E+005   -3.05394E+003    1.76322E+005    1.25218E+003    7.15478E+003    7.54840E+002    4.21258E+005    1.43973E+004   -9.13102E+001
            2335    7.33130E+005    4.27746E+005    4.27746E+005   -4.29468E+002   -4.18780E+005    8.46526E+005   -2.84571E+003    1.99340E+005    2.35949E+003    6.56098E+003   -3.83353E+002    4.22178E+005    3.02164E+004    5.72320E+002
            2336    7.03146E+005    3.95241E+005   -4.16462E+005    5.77593E+003   -4.16462E+005    8.11703E+005    5.14823E+003   -2.89596E+005   -5.15846E+003   -1.49520E+004    4.66578E+003    3.95568E+005   -9.06181E+004    4.79724E+003
            2337    7.16679E+005    3.93425E+005   -4.33839E+005   -1.39799E+003   -4.33839E+005    8.27264E+005    1.39371E+004   -3.07074E+005   -1.88455E+004   -2.15530E+004   -1.41291E+003    4.05395E+005   -8.21017E+004    2.07882E+003
            2338    7.24017E+005    4.05621E+005   -4.30263E+005    8.72700E+002   -4.30263E+005    8.35884E+005    7.92327E+003   -2.74747E+005   -7.43566E+003   -1.74973E+004    1.16319E+003    4.11782E+005   -7.12802E+004    7.51703E+002
            2339    7.24475E+005    4.06722E+005   -4.29728E+005   -2.18611E+002   -4.29728E+005    8.36450E+005    7.74164E+003   -2.60918E+005   -8.99140E+003   -1.41636E+004   -6.99057E+001    4.13982E+005   -5.93537E+004    4.81480E+002
            2340    7.19468E+005    4.08617E+005   -4.22115E+005    1.78612E+002   -4.22115E+005    8.30732E+005    4.43951E+003   -2.20741E+005   -3.56863E+003   -1.00915E+004    3.41644E+002    4.13205E+005   -4.21715E+004   -2.74438E+002
            2341    7.16429E+005    4.10282E+005   -4.16971E+005   -1.97590E+002   -4.16971E+005    8.27253E+005    2.29552E+003   -1.69218E+005   -2.60201E+003   -4.18150E+003   -1.03032E+002    4.13020E+005   -2.23599E+004   -7.65350E+002
            2342    7.14705E+005    4.11804E+005   -4.13466E+005   -1.10054E+002   -4.13466E+005    8.25270E+005    5.90590E+002   -1.03371E+005   -2.47446E+002   -1.42021E+003   -1.04116E+002    4.12632E+005   -1.06267E+003   -1.15105E+003
            2343    7.16852E+005    4.18085E+005    4.18085E+005    3.21384E+002   -4.09652E+005    8.27737E+005   -2.91806E+003    1.81757E+005    2.33100E+003    6.18056E+003    2.42610E+002    4.13389E+005    1.98052E+004   -6.81645E+002
            2344    7.20656E+005    4.21178E+005    4.21178E+005   -3.16572E+002   -4.10940E+005    8.32118E+005   -3.30733E+003    2.03831E+005    3.19629E+003    7.18039E+003   -4.54704E+002    4.14148E+005    3.97772E+004   -3.58942E+002
            2345    7.08023E+005    4.16135E+005    4.16135E+005    2.31297E+002   -4.01378E+005    8.17513E+005   -4.99601E+003    2.20679E+005    5.90395E+003    9.30038E+003   -2.16291E+002    4.05285E+005    5.30883E+004   -1.11381E+003
            2346    7.02800E+005    4.09199E+005    4.09199E+005    4.40154E+002   -4.02317E+005    8.11516E+005   -2.44091E+003    1.64445E+005    2.93480E+003    4.25132E+003    1.36626E+002    4.04790E+005    2.79018E+004   -2.06979E+003
            2347    7.00078E+005    4.04326E+005    4.04326E+005   -1.46797E+002   -4.04054E+005    8.08381E+005   -4.17562E+001    7.46414E+004   -7.34484E+001    3.43341E+002   -1.44624E+002    4.04184E+005   -1.88475E+002   -2.33253E+003
            2348    7.03041E+005    4.02052E+005   -4.09739E+005   -2.39552E+002   -4.09739E+005    8.11791E+005    2.64218E+003   -1.74830E+005   -3.09804E+003   -4.88974E+003    6.12287E+001    4.04906E+005   -2.82224E+004   -1.99491E+003
            2349    7.08110E+005    4.01640E+005   -4.15979E+005   -4.43822E+002   -4.15979E+005    8.17619E+005    4.92754E+003   -2.16272E+005   -6.14681E+003   -8.69620E+003    6.04040E+001    4.05302E+005   -5.33719E+004   -1.37037E+003
            2350    7.13108E+005    4.00722E+005   -4.22605E+005    1.72544E+002   -4.22605E+005    8.23327E+005    7.23702E+003   -2.56877E+005   -9.09014E+003   -1.32867E+004    6.65780E+002    4.05018E+005   -7.35994E+004   -1.33211E+002
            2351    7.18756E+005    4.00339E+005   -4.29441E+005   -9.20383E+001   -4.29441E+005    8.29780E+005    9.73136E+003   -2.81879E+005   -1.27140E+004   -1.70374E+004    5.57299E+002    4.05671E+005   -8.68920E+004    3.01003E+002
            2352    7.12409E+005    3.93503E+005   -4.28841E+005    7.86303E+002   -4.28841E+005    8.22344E+005    1.15171E+004   -3.03927E+005   -1.48136E+004   -2.13334E+004    1.59586E+003    4.01498E+005   -8.85151E+004    6.06246E+002
            2353    6.89932E+005    3.73897E+005   -4.22380E+005   -2.69136E+003   -4.22380E+005    7.96276E+005    1.70582E+004   -3.13237E+005   -2.19944E+004   -2.98309E+004    6.50737E+002    3.87133E+005   -9.23687E+004   -3.73771E+003
            2354    7.42834E+005    3.89643E+005   -4.67651E+005   -1.47320E+004   -4.67651E+005    8.57293E+005    3.09133E+004   -3.42345E+005   -3.55970E+004   -4.23977E+004   -1.47453E+004    4.28372E+005   -1.49572E+004    6.74429E+002
            2355    7.33296E+005    3.85784E+005   -4.60479E+005   -1.27934E+004   -4.60479E+005    8.46263E+005    2.91630E+004   -3.40711E+005   -3.43020E+004   -4.02631E+004   -1.29237E+004    4.20962E+005   -4.26719E+004    2.03544E+003
            2356    7.20236E+005    3.80942E+005   -4.50247E+005   -1.04778E+004   -4.50247E+005    8.31189E+005    2.65943E+004   -3.34910E+005   -3.20473E+004   -3.71468E+004   -1.05889E+004    4.10478E+005   -6.49360E+004    2.46204E+003
            2357    7.09657E+005    3.77945E+005   -4.41012E+005   -7.15359E+003   -4.41012E+005    8.18957E+005    2.34067E+004   -3.32547E+005   -2.93494E+004   -3.37799E+004   -7.09062E+003    4.01215E+005   -8.17700E+004    2.56159E+003
            2358    7.00764E+005    3.75682E+005   -4.33062E+005   -5.90415E+003   -4.33062E+005    8.08744E+005    2.10949E+004   -3.22434E+005   -2.67258E+004   -3.12852E+004   -5.27365E+003    3.93524E+005   -9.29164E+004    1.66660E+003
            2359    6.95671E+005    3.75030E+005   -4.27823E+005   -3.41955E+003   -4.27823E+005    8.02853E+005    1.87377E+004   -3.21760E+005   -2.45139E+004   -2.95788E+004   -2.12056E+003    3.89023E+005   -9.88245E+004    7.75398E+002
            2360    6.87961E+005    3.68970E+005   -4.24988E+005   -5.35449E+003   -4.24988E+005    7.93958E+005    2.04573E+004   -3.17875E+005   -2.52659E+004   -3.34853E+004   -2.62072E+003    3.83663E+005   -1.01532E+005   -1.42269E+003
            2361    7.99909E+005    4.34734E+005   -4.88626E+005   -6.73258E+003   -4.88626E+005    9.23360E+005    2.02083E+004   -3.38448E+005   -1.64635E+004   -3.74120E+004   -6.74927E+003    4.61431E+005   -1.09698E+004    7.15710E+002
            2362    8.12012E+005    4.46490E+005   -4.90916E+005   -4.47563E+003   -4.90916E+005    9.37406E+005    1.63007E+004   -3.27306E+005   -8.53422E+003   -3.58856E+004   -4.48227E+003    4.68431E+005   -8.23896E+003    4.64959E+002
            2363    8.01656E+005    4.49676E+005   -4.75899E+005   -1.41437E+003   -4.75899E+005    9.25574E+005    9.21260E+003   -2.82501E+005   -2.40771E+003   -2.38095E+004   -1.42058E+003    4.62623E+005   -6.11395E+003    3.83008E+002
            2364    7.88952E+005    4.44706E+005   -4.66235E+005   -1.52358E+003   -4.66235E+005    9.10941E+005    7.68419E+003   -2.58396E+005   -1.11236E+003   -2.04136E+004   -1.52656E+003    4.55351E+005   -3.97044E+003    2.53237E+002
            2365    7.90896E+005    4.30199E+005   -4.82753E+005   -6.16628E+003   -4.82753E+005    9.12952E+005    1.95734E+004   -3.35329E+005   -1.66979E+004   -3.57470E+004   -6.27538E+003    4.55252E+005   -3.19989E+004    1.81571E+003
            2366    8.03892E+005    4.42113E+005   -4.85919E+005   -4.29267E+003   -4.85919E+005    9.28032E+005    1.60331E+004   -3.24343E+005   -8.62290E+003   -3.51508E+004   -4.32564E+003    4.63184E+005   -2.43838E+004    1.12541E+003
            2367    7.95994E+005    4.46537E+005   -4.72499E+005   -1.28739E+003   -4.72499E+005    9.19036E+005    9.08295E+003   -2.81137E+005   -2.91085E+003   -2.29849E+004   -1.35308E+003    4.59064E+005   -1.77484E+004    1.26903E+003
            2368    7.84419E+005    4.42038E+005   -4.63668E+005   -1.61580E+003   -4.63668E+005    9.05706E+005    7.74855E+003   -2.57017E+005   -1.25697E+003   -2.03479E+004   -1.64082E+003    4.52589E+005   -1.21590E+004    7.17191E+002
            2369    7.73743E+005    4.21760E+005   -4.71389E+005   -5.01823E+003   -4.71389E+005    8.93149E+005    1.82155E+004   -3.28728E+005   -1.65141E+004   -3.28446E+004   -5.28777E+003    4.43630E+005   -5.05142E+004    2.76787E+003
            2370    7.90054E+005    4.34874E+005   -4.77179E+005   -3.72632E+003   -4.77179E+005    9.12053E+005    1.53438E+004   -3.19486E+005   -8.67044E+003   -3.35493E+004   -3.81179E+003    4.54218E+005   -3.86046E+004    1.77024E+003
            2371    7.84614E+005    4.40165E+005   -4.65729E+005   -1.10341E+003   -4.65729E+005    9.05894E+005    8.88903E+003   -2.78332E+005   -3.93193E+003   -2.14778E+004   -1.25739E+003    4.51929E+005   -2.90169E+004    1.85314E+003
            2372    7.76525E+005    4.37579E+005   -4.59010E+005   -1.35463E+003   -4.59010E+005    8.96589E+005    7.59526E+003   -2.56777E+005   -1.39871E+003   -1.99786E+004   -1.40852E+003    4.47765E+005   -1.96791E+004    1.02232E+003
            2373    7.54070E+005    4.11798E+005   -4.58621E+005   -3.44721E+003   -4.58621E+005    8.70420E+005    1.67567E+004   -3.24039E+005   -1.72711E+004   -2.92072E+004   -3.79184E+003    4.30363E+005   -6.44715E+004    3.07993E+003
            2374    7.70870E+005    4.24688E+005   -4.65229E+005   -3.61649E+003   -4.65229E+005    8.89917E+005    1.47190E+004   -3.09582E+005   -8.87830E+003   -3.16290E+004   -3.64974E+003    4.41885E+005   -5.09308E+004    1.75885E+003
            2375    7.71048E+005    4.32850E+005   -4.57381E+005   -8.09533E+002   -4.57381E+005    8.90231E+005    8.44702E+003   -2.73358E+005   -5.04912E+003   -1.92237E+004   -1.06829E+003    4.43384E+005   -3.85431E+004    2.28877E+003
            2376    7.65250E+005    4.30774E+005   -4.52795E+005   -1.70197E+003   -4.52795E+005    8.83569E+005    7.90767E+003   -2.53810E+005   -2.09835E+003   -1.98617E+004   -1.76299E+003    4.40808E+005   -2.79687E+004    1.05697E+003
            2377    7.31021E+005    4.00959E+005   -4.42844E+005   -1.21432E+003   -4.42844E+005    8.43803E+005    1.43664E+004   -3.16142E+005   -1.66291E+004   -2.46766E+004   -1.79363E+003    4.15259E+005   -7.44472E+004    3.71888E+003
            2378    7.53885E+005    4.15681E+005   -4.54619E+005   -2.81956E+003   -4.54619E+005    8.70300E+005    1.39192E+004   -3.04988E+005   -9.47784E+003   -2.95137E+004   -2.76611E+003    4.30927E+005   -5.96099E+004    1.65364E+003
            2379    7.55034E+005    4.23915E+005   -4.47818E+005   -2.58784E+002   -4.47818E+005    8.71734E+005    8.05397E+003   -2.71401E+005   -6.62626E+003   -1.69743E+004   -5.61391E+002    4.33105E+005   -4.86976E+004    2.28541E+003
            2380    7.52986E+005    4.23636E+005   -4.45762E+005   -1.08250E+003   -4.45762E+005    8.69397E+005    7.73611E+003   -2.56989E+005   -3.02790E+003   -1.90653E+004   -1.11512E+003    4.33175E+005   -3.54655E+004    9.35373E+002
            2381    7.18745E+005    3.95221E+005   -4.34397E+005    2.86607E+002   -4.34397E+005    8.29618E+005    1.29630E+004   -3.13358E+005   -1.89389E+004   -1.96204E+004   -3.29671E+002    4.07682E+005   -7.65586E+004    3.51005E+003
            2382    7.38016E+005    4.06641E+005   -4.45363E+005   -4.01853E+003   -4.45363E+005    8.52004E+005    1.42468E+004   -2.92617E+005   -9.89032E+003   -2.93745E+004   -3.47572E+003    4.20176E+005   -6.94723E+004    4.56113E+002
            2383    7.41036E+005    4.16712E+005   -4.38865E+005    1.37883E+002   -4.38865E+005    8.55577E+005    7.33833E+003   -2.64330E+005   -7.72502E+003   -1.41877E+004   -1.02271E+002    4.23963E+005   -5.69834E+004    1.85611E+003
            2384    7.40585E+005    4.15576E+005   -4.39496E+005   -1.68487E+003   -4.39496E+005    8.55072E+005    8.53481E+003   -2.56633E+005   -4.79583E+003   -1.92141E+004   -1.59451E+003    4.25049E+005   -4.54661E+004    5.15326E+002
            2385    7.11153E+005    3.94914E+005   -4.25946E+005    3.95704E+003   -4.25946E+005    8.20860E+005    9.02496E+003   -3.09040E+005   -1.73418E+004   -1.20030E+004    2.26992E+003    4.01557E+005   -8.48321E+004    5.68052E+003
            2386    7.28746E+005    3.99564E+005   -4.41632E+005   -1.96440E+003   -4.41632E+005    8.41196E+005    1.46776E+004   -3.11942E+005   -1.46749E+004   -2.81061E+004   -1.25173E+003    4.13666E+005   -7.56545E+004    4.45945E+002
            2387    7.31111E+005    4.10547E+005   -4.33546E+005    9.07275E+002   -4.33546E+005    8.44093E+005    7.36395E+003   -2.70932E+005   -8.51949E+003   -1.45406E+004    9.68257E+002    4.16004E+005   -7.10831E+004    1.14171E+003
            2388    7.26605E+005    4.07139E+005   -4.31759E+005   -3.86178E+002   -4.31759E+005    8.38898E+005    8.33563E+003   -2.66275E+005   -7.82199E+003   -1.69180E+004   -2.66921E+002    4.15554E+005   -5.68280E+004    6.94735E+002
            2389    7.13868E+005    4.01353E+005   -4.22858E+005   -7.16004E+001   -4.22858E+005    8.24211E+005    7.19218E+003   -2.53675E+005   -9.17301E+003   -1.28573E+004    4.53737E+002    4.05430E+005   -7.38138E+004   -2.77802E+002
            2390    7.17781E+005    3.99619E+005   -4.29027E+005    9.58118E+001   -4.29027E+005    8.28646E+005    9.77071E+003   -2.83817E+005   -1.22654E+004   -1.75484E+004    5.01641E+002    4.04718E+005   -8.86168E+004    1.00636E+003
            2391    7.28901E+005    4.01760E+005   -4.39622E+005   -1.10112E+002   -4.39622E+005    8.41382E+005    1.26574E+004   -3.10626E+005   -1.60957E+004   -2.23632E+004    4.86576E+002    4.09338E+005   -9.69549E+004    1.37887E+003
            2392    7.22435E+005    3.95030E+005   -4.38822E+005   -1.15131E+003   -4.38822E+005    8.33852E+005    1.49810E+004   -3.18945E+005   -1.93518E+004   -2.50159E+004   -5.75248E+002    4.08735E+005   -8.21113E+004    9.67320E+002
            2393    7.47615E+005    3.92435E+005   -4.70376E+005   -1.45807E+004   -4.70376E+005    8.62812E+005    3.08405E+004   -3.44367E+005   -3.20242E+004   -4.59118E+004   -1.45854E+004    4.31119E+005   -1.41086E+004    5.84332E+002
            2394    7.37827E+005    3.88525E+005   -4.62992E+005   -1.31776E+004   -4.62992E+005    8.51516E+005    2.92147E+004   -3.39791E+005   -3.09029E+004   -4.36065E+004   -1.31348E+004    4.23740E+005   -4.08855E+004    1.24782E+003
            2395    7.24148E+005    3.83765E+005   -4.51967E+005   -1.05728E+004   -4.51967E+005    8.35733E+005    2.62582E+004   -3.33107E+005   -2.85093E+004   -3.98269E+004   -1.04384E+004    4.13075E+005   -6.27954E+004    1.78404E+003
            2396    7.09678E+005    3.78958E+005   -4.40093E+005   -7.98445E+003   -4.40093E+005    8.19051E+005    2.30400E+004   -3.24202E+005   -2.61479E+004   -3.55086E+004   -7.46364E+003    4.01616E+005   -7.98722E+004    1.43223E+003
            2397    6.98394E+005    3.76537E+005   -4.29501E+005   -4.56185E+003   -4.29501E+005    8.06038E+005    1.91751E+004   -3.17587E+005   -2.22610E+004   -3.15649E+004   -3.69939E+003    3.92607E+005   -9.07841E+004    1.26330E+003
            2398    6.79008E+005    3.68269E+005   -4.15414E+005   -2.74756E+003   -4.15414E+005    7.83683E+005    1.66309E+004   -3.06411E+005   -2.00887E+004   -2.86942E+004   -1.10995E+003    3.80213E+005   -9.44598E+004   -6.24572E+001
            2399    6.78698E+005    3.69553E+005   -4.13683E+005    1.10376E+003   -4.13683E+005    7.83236E+005    1.43423E+004   -3.17372E+005   -1.51850E+004   -3.06379E+004    2.79595E+003    3.83758E+005   -7.74125E+004   -9.77869E+002
            2400    7.07996E+005    4.01305E+005   -4.16175E+005   -2.22515E+002   -4.16175E+005    8.17480E+005    5.03082E+003   -2.21344E+005   -5.94081E+003   -9.37741E+003    2.25758E+002    4.05236E+005   -5.33363E+004   -1.09976E+003
            2401    7.02879E+005    4.02271E+005   -4.09336E+005   -4.57120E+002   -4.09336E+005    8.11606E+005    2.50732E+003   -1.65801E+005   -3.03056E+003   -4.34819E+003   -1.43223E+002    4.04790E+005   -2.85545E+004   -2.08705E+003
            2402    7.00161E+005    4.04046E+005   -4.04430E+005    1.45836E+002   -4.04430E+005    8.08477E+005    7.94737E+001   -7.92130E+004    4.04497E+001   -4.29186E+002    1.50315E+002    4.04231E+005   -3.87453E+002   -2.33437E+003
            2403    7.02614E+005    4.09430E+005    4.09430E+005    2.17344E+002   -4.01868E+005    8.11298E+005   -2.59337E+003    1.74111E+005    3.02531E+003    4.83806E+003   -8.32607E+001    4.04676E+005    2.79663E+004   -2.01456E+003
            2404    7.08009E+005    4.15951E+005    4.15951E+005    4.74101E+002   -4.01551E+005    8.17502E+005   -4.95809E+003    2.16256E+005    6.21462E+003    8.69096E+003   -3.13056E+001    4.05229E+005    5.34797E+004   -1.37179E+003
            2405    7.13113E+005    4.22615E+005    4.22615E+005   -1.96737E+002   -4.00717E+005    8.23331E+005   -7.23386E+003    2.57121E+005    9.06365E+003    1.33282E+004   -6.90277E+002    4.04934E+005    7.40757E+004   -1.10851E+002
            2406    7.19079E+005    4.29820E+005    4.29820E+005    1.59280E+002   -4.00330E+005    8.30151E+005   -9.88318E+003    2.82785E+005    1.29530E+004    1.71863E+004   -4.89734E+002    4.05765E+005    8.73379E+004    3.26845E+002
            2407    7.12474E+005    4.28845E+005    4.28845E+005   -8.32769E+002   -3.93572E+005    8.22417E+005   -1.14798E+004    3.04021E+005    1.46679E+004    2.13976E+004   -1.62603E+003    4.01512E+005    8.86227E+004    6.60339E+002
            2408    6.89981E+005    4.22938E+005    4.22938E+005    2.84279E+003   -3.73380E+005    7.96318E+005   -1.74669E+004    3.15106E+005    2.28137E+004    3.01622E+004   -5.75183E+002    3.87167E+005    9.23051E+004   -3.88128E+003
            2409    7.20252E+005    4.10748E+005   -4.20904E+005    3.20765E+002   -4.20904E+005    8.31652E+005    3.27830E+003   -2.03289E+005   -3.19358E+003   -7.10603E+003    4.64702E+002    4.13903E+005   -3.98833E+004   -3.88930E+002
            2410    7.32652E+005    4.18556E+005   -4.27419E+005    4.41273E+002   -4.27419E+005    8.45975E+005    2.80735E+003   -1.98713E+005   -2.37222E+003   -6.44869E+003    3.98856E+002    4.21901E+005   -3.02338E+004    5.42831E+002
            2411    7.45157E+005    4.25628E+005   -4.34788E+005    1.82442E+002   -4.34788E+005    8.60415E+005    2.99255E+003   -1.99438E+005   -1.81215E+003   -7.27576E+003    1.10254E+002    4.29561E+005   -2.34064E+004    8.65621E+002
            2412    7.56320E+005    4.32462E+005   -4.40847E+005    9.94496E+001   -4.40847E+005    8.73309E+005    2.76172E+003   -1.94558E+005   -8.74572E+002   -7.43704E+003    2.64645E+001    4.36316E+005   -1.68431E+004    1.09084E+003
            2413    7.65452E+005    4.37854E+005   -4.46002E+005    8.00829E+001   -4.46002E+005    8.83855E+005    2.68931E+003   -1.94002E+005   -2.40208E+002   -7.86289E+003    3.51714E+001    4.41751E+005   -1.18619E+004    9.42937E+002
            2414    7.72555E+005    4.42132E+005   -4.49926E+005    1.01900E+002   -4.49926E+005    8.92058E+005    2.56391E+003   -1.92735E+005    4.02040E+002   -8.17533E+003    8.15707E+001    4.45958E+005   -6.70687E+003    7.38092E+002
            2415    7.76007E+005    4.44173E+005   -4.51872E+005    8.59494E+001   -4.51872E+005    8.96045E+005    2.53768E+003   -1.92284E+005    6.99331E+002   -8.39644E+003    8.40813E+001    4.47993E+005   -2.40912E+003    1.96493E+002
            2416    7.16530E+005    4.09390E+005   -4.17975E+005   -3.29835E+002   -4.17975E+005    8.27365E+005    2.97151E+003   -1.82746E+005   -2.41620E+003   -6.25002E+003   -2.48299E+002    4.13193E+005   -2.00061E+004   -6.98547E+002
            2417    7.29639E+005    4.17084E+005   -4.25422E+005   -7.69747E+002   -4.25422E+005    8.42506E+005    3.03604E+003   -1.75756E+005   -1.24115E+003   -7.11107E+003   -7.55887E+002    4.20995E+005   -1.44302E+004   -9.35007E+001
            2418    7.41616E+005    4.24689E+005   -4.31648E+005   -3.50215E+002   -4.31648E+005    8.56337E+005    2.43656E+003   -1.72842E+005   -3.96986E+002   -6.54325E+003   -3.69434E+002    4.28048E+005   -9.69395E+003    4.94433E+002
            2419    7.52396E+005    4.31132E+005   -4.37654E+005   -6.57099E+002   -4.37654E+005    8.68787E+005    2.39302E+003   -1.64138E+005   -1.74542E+002   -6.32879E+003   -6.75722E+002    4.34332E+005   -6.57873E+003    6.57654E+002
            2420    7.61443E+005    4.36753E+005   -4.42481E+005   -4.98289E+002   -4.42481E+005    8.79235E+005    2.07541E+003   -1.60244E+005   -8.18580E+001   -5.63447E+003   -5.09888E+002    4.39592E+005   -3.71476E+003    7.07933E+002
            2421    7.67862E+005    4.40552E+005   -4.46096E+005   -6.31675E+002   -4.46096E+005    8.86648E+005    2.05844E+003   -1.55851E+005   -2.59348E+002   -5.27981E+003   -6.36157E+002    4.43311E+005   -2.19007E+003    4.65017E+002
            2422    7.71351E+005    4.42702E+005   -4.47974E+005   -5.76650E+002   -4.47974E+005    8.90676E+005    1.94970E+003   -1.54336E+005   -3.54630E+002   -4.91732E+003   -5.77156E+002    4.45332E+005   -5.43464E+002    2.09889E+002
            2423    7.14334E+005    4.13257E+005    4.13257E+005    1.15630E+002   -4.11584E+005    8.24841E+005   -5.96282E+002    1.03343E+005    2.71796E+002    1.40723E+003    1.09814E+002    4.12417E+005    1.00476E+003   -1.19180E+003
            2424    7.26869E+005    4.21051E+005    4.21051E+005    5.10180E+002   -4.18264E+005    8.39315E+005   -1.09924E+003    1.11883E+005    1.48545E+002    2.64013E+003    5.09057E+002    4.19647E+005    2.75276E+003   -7.86297E+001
            2425    7.39119E+005    4.28351E+005    4.28351E+005    2.49492E+002   -4.25108E+005    8.53459E+005   -1.16440E+003    1.31020E+005    1.66308E+001    3.21995E+003    2.56629E+002    4.26711E+005    3.67324E+003    4.27350E+002
            2426    7.50410E+005    4.35446E+005    4.35446E+005    5.19025E+002   -4.31050E+005    8.66497E+005   -1.63831E+003    1.41552E+005    8.66321E+001    4.29384E+003    5.34443E+002    4.33220E+005    4.37596E+003    7.82202E+002
            2427    7.60000E+005    4.41344E+005    4.41344E+005    4.53272E+002   -4.36224E+005    8.77569E+005   -1.85771E+003    1.53973E+005    1.28335E+002    4.97932E+003    4.65467E+002    4.38761E+005    3.72279E+003    7.37738E+002
            2428    7.67142E+005    4.45853E+005    4.45853E+005    6.13073E+002   -4.39962E+005    8.85815E+005   -2.16794E+003    1.60282E+005    2.69366E+002    5.61413E+003    6.20320E+002    4.42891E+005    2.77732E+003    5.93475E+002
            2429    7.70879E+005    4.48189E+005    4.48189E+005    6.03607E+002   -4.41941E+005    8.90130E+005   -2.28382E+003    1.65012E+005    3.32452E+002    5.91480E+003    6.04203E+002    4.45056E+005    8.08041E+002    1.68936E+002
            2430    7.16147E+005    4.16817E+005    4.16817E+005    1.99042E+002   -4.10110E+005    8.26927E+005   -2.30179E+003    1.69303E+005    2.62009E+003    4.18321E+003    1.02075E+002    4.12846E+005    2.25633E+004   -7.78110E+002
            2431    7.29285E+005    4.24488E+005    4.24488E+005   -2.23648E+001   -4.17608E+005    8.42096E+005   -2.28603E+003    1.76781E+005    2.19145E+003    4.69734E+003   -3.06827E+001    4.20588E+005    1.96347E+004    2.10850E+001
            2432    7.42237E+005    4.32361E+005    4.32361E+005    1.64647E+002   -4.24691E+005    8.57051E+005   -2.61155E+003    1.82376E+005    1.66177E+003    5.96634E+003    2.06534E+002    4.28159E+005    1.75929E+004    6.28913E+002
            2433    7.54469E+005    4.39706E+005    4.39706E+005    1.10495E+002   -4.31468E+005    8.71173E+005   -2.78279E+003    1.89869E+005    1.14932E+003    7.03766E+003    1.61383E+002    4.35324E+005    1.48172E+004    8.65465E+002
            2434    7.65295E+005    4.46273E+005    4.46273E+005    2.03856E+002   -4.37400E+005    8.83673E+005   -3.02582E+003    1.95195E+005    5.79753E+002    8.25164E+003    2.46078E+002    4.41663E+005    1.17475E+004    9.00734E+002
            2435    7.73362E+005    4.51108E+005    4.51108E+005    1.48882E+002   -4.41879E+005    8.92987E+005   -3.12613E+003    2.00105E+005    1.27856E+002    9.08384E+003    1.66695E+002    4.46411E+005    7.28435E+003    6.18706E+002
            2436    7.77746E+005    4.53778E+005    4.53778E+005    1.84550E+002   -4.44270E+005    8.98048E+005   -3.23076E+003    2.02400E+005   -1.30405E+002    9.63569E+003    1.87011E+002    4.48990E+005    2.58425E+003    2.40926E+002
            2437    7.19430E+005    4.22158E+005    4.22158E+005   -1.91787E+002   -4.08529E+005    8.30687E+005   -4.47926E+003    2.21573E+005    3.63241E+003    1.01654E+004   -3.59979E+002    4.13129E+005    4.26920E+004   -2.78453E+002
            2438    7.32619E+005    4.30084E+005    4.30084E+005    4.61858E+002   -4.15836E+005    8.45920E+005   -4.90326E+003    2.20536E+005    2.38239E+003    1.18694E+004    4.57940E+002    4.21391E+005    3.60803E+004    4.65510E+002
            2439    7.46072E+005    4.38453E+005    4.38453E+005    3.21889E+002   -4.22994E+005    8.61447E+005   -5.26011E+003    2.31258E+005    1.90409E+003    1.34883E+004    3.87919E+002    4.29593E+005    3.06363E+004    9.32425E+002
            2440    7.59965E+005    4.47192E+005    4.47192E+005    9.11420E+002   -4.30297E+005    8.77489E+005   -5.93535E+003    2.35466E+005    1.16729E+003    1.56362E+004    1.00255E+003    4.37931E+005    2.56926E+004    1.20857E+003
            2441    7.72699E+005    4.55315E+005    4.55315E+005    9.43852E+002   -4.36870E+005    8.92185E+005   -6.46275E+003    2.45663E+005    8.81253E+002    1.75001E+004    1.00689E+003    4.45594E+005    1.93495E+004    1.08527E+003
            2442    7.82396E+005    4.61507E+005    4.61507E+005    1.29965E+003   -4.41872E+005    9.03379E+005   -6.97826E+003    2.50080E+005    5.93885E+002    1.90113E+004    1.32964E+003    4.51429E+005    1.22642E+004    7.92547E+002
            2443    7.87722E+005    4.64933E+005    4.64933E+005    1.34807E+003   -4.44592E+005    9.09525E+005   -7.22968E+003    2.54172E+005    4.99659E+002    1.98385E+004    1.35085E+003    4.54643E+005    3.96675E+003    2.40424E+002
            2444    7.24790E+005    4.30044E+005    4.30044E+005    2.16182E+002   -4.06767E+005    8.36811E+005   -7.83127E+003    2.62053E+005    9.11479E+003    1.43084E+004    7.06465E+001    4.14082E+005    5.99216E+004    5.17199E+002
            2445    7.36746E+005    4.36892E+005    4.36892E+005    1.04079E+003   -4.13742E+005    8.50634E+005   -8.06364E+003    2.57878E+005    7.38016E+003    1.57790E+004    1.03180E+003    4.22318E+005    5.02390E+004    8.38955E+002
            2446    7.51401E+005    4.45436E+005    4.45436E+005    8.72738E+002   -4.22117E+005    8.67554E+005   -8.06385E+003    2.63357E+005    5.76217E+003    1.74246E+004    1.00478E+003    4.31541E+005    4.35869E+004    1.48955E+003
            2447    7.67330E+005    4.55258E+005    4.55258E+005    1.32439E+003   -4.30688E+005    8.85945E+005   -8.63145E+003    2.68493E+005    5.06167E+003    1.93609E+004    1.47176E+003    4.41458E+005    3.58863E+004    1.63954E+003
            2448    7.81971E+005    4.63968E+005    4.63968E+005    1.38716E+003   -4.38882E+005    9.02850E+005   -8.82463E+003    2.73506E+005    4.01851E+003    2.09553E+004    1.50010E+003    4.50512E+005    2.74020E+004    1.52352E+003
            2449    7.93463E+005    4.71047E+005    4.71047E+005    1.58908E+003   -4.45071E+005    9.16117E+005   -9.18824E+003    2.78166E+005    3.64950E+003    2.22737E+004    1.64152E+003    4.57648E+005    1.69957E+004    1.09015E+003
            2450    7.99754E+005    4.74829E+005    4.74829E+005    1.67400E+003   -4.48553E+005    9.23382E+005   -9.31679E+003    2.80169E+005    3.29193E+003    2.29787E+004    1.67969E+003    4.61550E+005    5.72812E+003    3.61465E+002
            2451    7.24229E+005    4.30516E+005    4.30516E+005   -8.82003E+002   -4.05610E+005    8.36126E+005   -8.00813E+003    2.75778E+005    7.50463E+003    1.76929E+004   -1.17313E+003    4.11832E+005    7.17001E+004    7.81716E+002
            2452    7.35915E+005    4.37584E+005    4.37584E+005    5.41924E+002   -4.12060E+005    8.49644E+005   -8.68864E+003    2.70747E+005    6.27523E+003    1.91853E+004    6.05381E+002    4.19977E+005    6.36400E+004    1.62208E+003
            2453    7.52585E+005    4.48819E+005    4.48819E+005    7.26175E+002   -4.20049E+005    8.68868E+005   -9.83207E+003    2.85202E+005    6.28599E+003    2.23386E+004    8.71671E+002    4.30819E+005    5.53303E+004    1.95436E+003
            2454    7.70509E+005    4.60282E+005    4.60282E+005    1.87869E+003   -4.29286E+005    8.89568E+005   -1.09584E+004    2.89436E+005    5.15695E+003    2.56837E+004    2.03450E+003    4.42223E+005    4.65239E+004    1.99275E+003
            2455    7.88016E+005    4.71983E+005    4.71983E+005    2.43502E+003   -4.37782E+005    9.09765E+005   -1.22119E+004    3.01135E+005    5.07220E+003    2.90273E+004    2.53631E+003    4.53354E+005    3.52611E+004    1.68532E+003
            2456    8.01458E+005    4.80707E+005    4.80707E+005    3.08799E+003   -4.44575E+005    9.25282E+005   -1.30735E+004    3.06701E+005    4.60433E+003    3.14870E+004    3.12934E+003    4.61915E+005    2.21350E+004    1.11186E+003
            2457    8.08979E+005    4.85804E+005    4.85804E+005    3.37590E+003   -4.48154E+005    9.33958E+005   -1.36751E+004    3.11813E+005    4.67270E+003    3.29725E+004    3.38025E+003    4.66709E+005    7.23067E+003    3.69582E+002
            2458    7.17035E+005    4.34301E+005    4.34301E+005    1.49017E+003   -3.93370E+005    8.27670E+005   -1.41405E+004    3.08079E+005    1.91402E+004    2.17725E+004    1.50873E+003    4.05540E+005    8.24059E+004    2.10744E+003
            2459    7.31414E+005    4.42310E+005    4.42310E+005    2.80118E+003   -4.02016E+005    8.44327E+005   -1.43652E+004    3.02998E+005    1.51909E+004    2.54739E+004    2.43070E+003    4.15482E+005    7.45847E+004    1.00501E+003
            2460    7.47685E+005    4.51850E+005    4.51850E+005    2.46466E+003   -4.11257E+005    8.63106E+005   -1.43526E+004    3.10319E+005    1.39242E+004    2.64239E+004    2.70959E+003    4.26199E+005    6.74619E+004    2.67016E+003
            2461    7.67493E+005    4.64726E+005    4.64726E+005    3.52218E+003   -4.21249E+005    8.85975E+005   -1.56665E+004    3.18031E+005    1.40874E+004    2.92236E+004    3.68833E+003    4.39234E+005    5.70236E+004    2.30847E+003
            2462    7.85851E+005    4.75983E+005    4.75983E+005    4.08860E+003   -4.31193E+005    9.07176E+005   -1.62930E+004    3.23617E+005    1.34016E+004    3.11537E+004    4.32374E+003    4.51357E+005    4.40265E+004    2.52532E+003
            2463    8.01172E+005    4.85947E+005    4.85947E+005    4.85880E+003   -4.38916E+005    9.24863E+005   -1.72969E+004    3.29889E+005    1.37741E+004    3.31699E+004    4.94670E+003    4.61493E+005    2.77922E+004    1.58228E+003
            2464    8.09330E+005    4.91167E+005    4.91167E+005    5.28430E+003   -4.43116E+005    9.34283E+005   -1.77786E+004    3.32625E+005    1.38032E+004    3.42298E+004    5.30279E+003    4.66933E+005    9.49638E+003    7.48918E+002
            2465    7.03389E+005    4.16612E+005    4.16612E+005   -5.77944E+003   -3.95371E+005    8.11983E+005   -5.15416E+003    2.89746E+005    5.08980E+003    1.50669E+004   -4.69420E+003    3.95736E+005    9.05068E+004    4.75641E+003
            2466    7.15147E+005    4.32833E+005    4.32833E+005    1.72928E+003   -3.92675E+005    8.25508E+005   -1.39624E+004    3.04126E+005    1.75558E+004    2.28207E+004    1.51081E+003    4.03526E+005    8.67115E+004    1.75952E+003
            2467    7.31542E+005    4.41937E+005    4.41937E+005    1.19073E+003   -4.02504E+005    8.44441E+005   -1.35413E+004    3.09743E+005    1.24272E+004    2.68488E+004    1.34776E+003    4.14594E+005    7.95272E+004    2.87089E+003
            2468    7.48730E+005    4.56813E+005    4.56813E+005    5.23960E+003   -4.07455E+005    8.64268E+005   -1.81995E+004    3.19662E+005    1.70272E+004    3.23665E+004    5.20473E+003    4.26578E+005    6.86096E+004    2.07414E+003
            2469    7.67513E+005    4.69064E+005    4.69064E+005    5.90460E+003   -4.16877E+005    8.85941E+005   -1.93637E+004    3.29104E+005    1.53697E+004    3.67108E+004    6.01077E+003    4.39563E+005    5.37599E+004    2.31834E+003
            2470    7.83269E+005    4.81275E+005    4.81275E+005    8.03993E+003   -4.22835E+005    9.04110E+005   -2.21601E+004    3.38961E+005    1.75713E+004    4.08604E+004    8.04855E+003    4.50591E+005    3.44107E+004    1.31011E+003
            2471    7.92456E+005    4.87506E+005    4.87506E+005    8.42987E+003   -4.27199E+005    9.14705E+005   -2.29122E+004    3.44499E+005    1.73112E+004    4.29822E+004    8.44305E+003    4.57017E+005    1.19230E+004    7.03327E+002
            2472    7.42551E+005    4.67465E+005    4.67465E+005    1.47159E+004   -3.89501E+005    8.56967E+005   -3.08934E+004    3.42231E+005    3.55790E+004    4.23722E+004    1.47288E+004    4.28209E+005    1.49574E+004    6.68079E+002
            2473    7.33379E+005    4.60527E+005    4.60527E+005    1.27996E+004   -3.85831E+005    8.46358E+005   -2.91654E+004    3.40710E+005    3.42796E+004    4.02881E+004    1.29284E+004    4.21022E+005    4.25572E+004    2.02651E+003
            2474    7.20578E+005    4.50429E+005    4.50429E+005    1.04814E+004   -3.81154E+005    8.31584E+005   -2.65856E+004    3.34930E+005    3.19942E+004    3.71766E+004    1.05859E+004    4.10727E+005    6.46252E+004    2.43366E+003
            2475    7.09854E+005    4.41241E+005    4.41241E+005    7.21168E+003   -3.77942E+005    8.19183E+005   -2.35037E+004    3.32874E+005    2.94450E+004    3.39060E+004    7.16024E+003    4.01450E+005    8.11786E+004    2.57450E+003
            2476    7.01215E+005    4.33388E+005    4.33388E+005    5.97585E+003   -3.75877E+005    8.09266E+005   -2.11624E+004    3.22543E+005    2.67288E+004    3.13966E+004    5.36169E+003    3.93931E+005    9.23243E+004    1.67388E+003
            2477    6.96243E+005    4.28296E+005    4.28296E+005    3.47007E+003   -3.75214E+005    8.03510E+005   -1.88508E+004    3.22373E+005    2.46585E+004    2.96848E+004    2.20921E+003    3.89375E+005    9.87771E+004    8.49272E+002
            2478    6.87900E+005    4.24627E+005    4.24627E+005    5.05910E+003   -3.69262E+005    7.93889E+005   -2.01413E+004    3.17712E+005    2.47148E+004    3.33644E+004    2.34479E+003    3.83682E+005    1.01318E+005   -1.38225E+003
            2479    7.21319E+005    3.94443E+005   -4.38124E+005   -1.23899E+003   -4.38124E+005    8.32568E+005    1.49735E+004   -3.17884E+005   -1.93461E+004   -2.49141E+004   -6.60241E+002    4.08185E+005    8.15857E+004   -9.22180E+002
            2480    7.29637E+005    4.02048E+005   -4.40180E+005   -1.22770E+002   -4.40180E+005    8.42228E+005    1.27514E+004   -3.11505E+005   -1.61869E+004   -2.25345E+004    4.66997E+002    4.09829E+005    9.67158E+004   -1.39800E+003
            2481    7.18223E+005    3.99806E+005   -4.29349E+005    1.03832E+002   -4.29349E+005    8.29155E+005    9.81286E+003   -2.84413E+005   -1.23215E+004   -1.76259E+004    5.08819E+002    4.04919E+005    8.88837E+004   -1.02487E+003
            2482    7.14108E+005    4.01458E+005   -4.23030E+005   -8.35462E+001   -4.23030E+005    8.24488E+005    7.21857E+003   -2.53903E+005   -9.18574E+003   -1.29047E+004    4.34767E+002    4.05538E+005    7.39909E+004    2.49777E+002
            2483    7.26985E+005    4.07363E+005   -4.31974E+005   -3.92149E+002   -4.31974E+005    8.39337E+005    8.33420E+003   -2.66285E+005   -7.80295E+003   -1.69227E+004   -2.76912E+002    4.15774E+005    5.68404E+004   -7.08859E+002
            2484    7.41185E+005    4.15918E+005   -4.39846E+005   -1.68234E+003   -4.39846E+005    8.55764E+005    8.53687E+003   -2.56829E+005   -4.79123E+003   -1.92239E+004   -1.59553E+003    4.25412E+005    4.53228E+004   -5.27152E+002
            2485    7.53491E+005    4.23965E+005   -4.46015E+005   -1.05303E+003   -4.46015E+005    8.69980E+005    7.70087E+003   -2.57029E+005   -2.94659E+003   -1.90617E+004   -1.09429E+003    4.33484E+005    3.52481E+004   -9.85882E+002
            2486    7.65783E+005    4.31111E+005   -4.53074E+005   -1.70050E+003   -4.53074E+005    8.84185E+005    7.88802E+003   -2.53679E+005   -2.02782E+003   -1.98728E+004   -1.76348E+003    4.41135E+005    2.76641E+004   -1.07193E+003
            2487    7.76910E+005    4.37756E+005   -4.59277E+005   -1.37256E+003   -4.59277E+005    8.97033E+005    7.63132E+003   -2.57110E+005   -1.38081E+003   -2.00894E+004   -1.42375E+003    4.47993E+005    1.95336E+004   -9.94979E+002
            2488    7.84745E+005    4.42167E+005   -4.63916E+005   -1.62256E+003   -4.63916E+005    9.06083E+005    7.79030E+003   -2.57576E+005   -1.26380E+003   -2.04613E+004   -1.64579E+003    4.52780E+005    1.20139E+004   -6.87588E+002
            2489    7.88979E+005    4.44696E+005   -4.66276E+005   -1.53050E+003   -4.66276E+005    9.10972E+005    7.70357E+003   -2.58576E+005   -1.12891E+003   -2.04483E+004   -1.53345E+003    4.55367E+005    3.84359E+003   -2.54341E+002
            2490    7.31522E+005    4.10687E+005   -4.33879E+005    8.70714E+002   -4.33879E+005    8.44566E+005    7.44030E+003   -2.71468E+005   -8.53039E+003   -1.47205E+004    9.30008E+002    4.16271E+005    7.09194E+004   -1.15447E+003
            2491    7.41438E+005    4.16831E+005   -4.39208E+005    1.06303E+002   -4.39208E+005    8.56040E+005    7.42362E+003   -2.65057E+005   -7.70604E+003   -1.44207E+004   -1.44173E+002    4.24202E+005    5.69373E+004   -1.90798E+003
            2492    7.55886E+005    4.24257E+005   -4.48459E+005   -3.28720E+002   -4.48459E+005    8.72716E+005    8.17677E+003   -2.72217E+005   -6.65230E+003   -1.72518E+004   -6.26215E+002    4.33626E+005    4.84447E+004   -2.27678E+003
            2493    7.71606E+005    4.33106E+005   -4.57770E+005   -8.70640E+002   -4.57770E+005    8.90876E+005    8.51129E+003   -2.73528E+005   -5.05296E+003   -1.93601E+004   -1.12085E+003    4.43730E+005    3.82836E+004   -2.24768E+003
            2494    7.85056E+005    4.40417E+005   -4.65987E+005   -1.08944E+003   -4.65987E+005    9.06404E+005    8.88633E+003   -2.78571E+005   -3.92364E+003   -2.14931E+004   -1.24219E+003    4.52204E+005    2.87207E+004   -1.85052E+003
            2495    7.96195E+005    4.46613E+005   -4.72655E+005   -1.30942E+003   -4.72655E+005    9.19267E+005    9.11708E+003   -2.81330E+005   -2.93595E+003   -2.30402E+004   -1.37505E+003    4.59188E+005    1.75512E+004   -1.27388E+003
            2496    8.01786E+005    4.49735E+005   -4.75989E+005   -1.41049E+003   -4.75989E+005    9.25724E+005    9.22137E+003   -2.82684E+005   -2.39936E+003   -2.38483E+004   -1.41650E+003    4.62699E+005    6.00153E+003   -3.77094E+002
            2497    7.28513E+005    3.99393E+005   -4.41534E+005   -2.03011E+003   -4.41534E+005    8.40927E+005    1.47236E+004   -3.11715E+005   -1.47013E+004   -2.81453E+004   -1.32431E+003    4.13524E+005    7.56865E+004   -4.65567E+002
            2498    7.38491E+005    4.06777E+005   -4.45773E+005   -4.05621E+003   -4.45773E+005    8.52550E+005    1.43507E+004   -2.93372E+005   -1.00396E+004   -2.95077E+004   -3.50494E+003    4.20470E+005    6.93684E+004   -4.30219E+002
            2499    7.54373E+005    4.15897E+005   -4.54964E+005   -2.80172E+003   -4.54964E+005    8.70860E+005    1.39562E+004   -3.05621E+005   -9.47289E+003   -2.96289E+004   -2.76669E+003    4.31216E+005    5.95553E+004   -1.72624E+003
            2500    7.71650E+005    4.25022E+005   -4.65794E+005   -3.66967E+003   -4.65794E+005    8.90815E+005    1.48139E+004   -3.10178E+005   -8.91747E+003   -3.18238E+004   -3.70053E+003    4.42363E+005    5.06865E+004   -1.74791E+003
            2501    7.90364E+005    4.35055E+005   -4.77356E+005   -3.72794E+003   -4.77356E+005    9.12412E+005    1.53431E+004   -3.19548E+005   -8.61512E+003   -3.35986E+004   -3.81547E+003    4.54416E+005    3.83665E+004   -1.77945E+003
            2502    8.04080E+005    4.42164E+005   -4.86084E+005   -4.32868E+003   -4.86084E+005    9.28248E+005    1.60830E+004   -3.24522E+005   -8.66641E+003   -3.52228E+004   -4.35984E+003    4.63299E+005    2.42604E+004   -1.10642E+003
            2503    8.12017E+005    4.46466E+005   -4.90945E+005   -4.46260E+003   -4.90945E+005    9.37412E+005    1.63140E+004   -3.27550E+005   -8.54642E+003   -3.59266E+004   -4.46892E+003    4.68435E+005    8.13158E+003   -4.55325E+002
            2504    7.11350E+005    3.95040E+005   -4.26046E+005    4.03135E+003   -4.26046E+005    8.21086E+005    8.99156E+003   -3.09421E+005   -1.72972E+004   -1.20225E+004    2.34502E+003    4.01665E+005    8.48664E+004   -5.68827E+003
            2505    7.18779E+005    3.95152E+005   -4.34503E+005    2.51854E+002   -4.34503E+005    8.29655E+005    1.30330E+004   -3.13645E+005   -1.89431E+004   -1.97940E+004   -3.61879E+002    4.07660E+005    7.67795E+004   -3.51707E+003
            2506    7.31581E+005    4.01165E+005   -4.43284E+005   -1.28509E+003   -4.43284E+005    8.44448E+005    1.44680E+004   -3.16550E+005   -1.66786E+004   -2.48694E+004   -1.85592E+003    4.15597E+005    7.43843E+004   -3.70531E+003
            2507    7.54367E+005    4.11903E+005   -4.58861E+005   -3.51250E+003   -4.58861E+005    8.70763E+005    1.68235E+004   -3.24136E+005   -1.73512E+004   -2.92649E+004   -3.85434E+003    4.30588E+005    6.41314E+004   -3.06550E+003
            2508    7.74019E+005    4.21870E+005   -4.71599E+005   -5.08216E+003   -4.71599E+005    8.93468E+005    1.82704E+004   -3.28732E+005   -1.65295E+004   -3.29312E+004   -5.35057E+003    4.43835E+005    5.01255E+004   -2.76094E+003
            2509    7.90997E+005    4.30214E+005   -4.82855E+005   -6.19799E+003   -4.82855E+005    9.13070E+005    1.96130E+004   -3.35423E+005   -1.67545E+004   -3.57764E+004   -6.30800E+003    4.55315E+005    3.19475E+004   -1.82170E+003
            2510    7.99968E+005    4.34794E+005   -4.88636E+005   -6.73281E+003   -4.88636E+005    9.23430E+005    2.01914E+004   -3.38322E+005   -1.64297E+004   -3.73936E+004   -6.75098E+003    4.61463E+005    1.10631E+004   -7.46427E+002
            2511    7.47413E+005    3.92312E+005   -4.70268E+005   -1.46207E+004   -4.70268E+005    8.62580E+005    3.08589E+004   -3.44153E+005   -3.20398E+004   -4.59121E+004   -1.46248E+004    4.30987E+005    1.45880E+004   -5.89665E+002
            2512    7.37619E+005    3.88378E+005   -4.62896E+005   -1.31367E+004   -4.62896E+005    8.51274E+005    2.92183E+004   -3.40039E+005   -3.09447E+004   -4.36213E+004   -1.30888E+004    4.23612E+005    4.09444E+004   -1.22708E+003
            2513    7.24350E+005    3.83859E+005   -4.52107E+005   -1.06049E+004   -4.52107E+005    8.35966E+005    2.62846E+004   -3.33128E+005   -2.85064E+004   -3.98748E+004   -1.04726E+004    4.13226E+005    6.25703E+004   -1.78153E+003
            2514    7.10263E+005    3.79244E+005   -4.40480E+005   -7.97263E+003   -4.40480E+005    8.19724E+005    2.30697E+004   -3.24677E+005   -2.61448E+004   -3.55952E+004   -7.46912E+003    4.02041E+005    7.94573E+004   -1.46032E+003
            2515    6.99081E+005    3.76832E+005   -4.30001E+005   -4.68031E+003   -4.30001E+005    8.06833E+005    1.92831E+004   -3.17721E+005   -2.23613E+004   -3.16565E+004   -3.83164E+003    3.93076E+005    9.05215E+004   -1.26967E+003
            2516    6.80080E+005    3.68811E+005   -4.16107E+005   -2.75802E+003   -4.16107E+005    7.84918E+005    1.66847E+004   -3.07051E+005   -2.01473E+004   -2.87294E+004   -1.17744E+003    3.80795E+005    9.46883E+004   -6.07077E+001
            2517    6.78522E+005    3.69415E+005   -4.13620E+005    9.96550E+002   -4.13620E+005    7.83035E+005    1.44028E+004   -3.16998E+005   -1.53087E+004   -3.06374E+004    2.73778E+003    3.83480E+005    7.82730E+004    1.02169E+003
            2518    7.92180E+005    4.87381E+005    4.87381E+005    8.46069E+003   -4.27006E+005    9.14386E+005   -2.29452E+004    3.44437E+005    1.73460E+004    4.30148E+004    8.47493E+003    4.56849E+005   -1.22356E+004   -7.28658E+002
            2519    8.09093E+005    4.91043E+005    4.91043E+005    5.30435E+003   -4.42967E+005    9.34010E+005   -1.77935E+004    3.32515E+005    1.38081E+004    3.42485E+004    5.32384E+003    4.66783E+005   -1.01193E+004   -7.63277E+002
            2520    8.08858E+005    4.85775E+005    4.85775E+005    3.38597E+003   -4.48042E+005    9.33817E+005   -1.37063E+004    3.11994E+005    4.74016E+003    3.29875E+004    3.39136E+003    4.66628E+005   -7.88393E+003   -4.09587E+002
            2521    7.99588E+005    4.74727E+005    4.74727E+005    1.65994E+003   -4.48463E+005    9.23189E+005   -9.30812E+003    2.80196E+005    3.28026E+003    2.29775E+004    1.66661E+003    4.61447E+005   -6.27519E+003   -3.90176E+002
            2522    7.87611E+005    4.64869E+005    4.64869E+005    1.35192E+003   -4.44529E+005    9.09398E+005   -7.23056E+003    2.54105E+005    5.16891E+002    1.98196E+004    1.35520E+003    4.54576E+005   -4.30857E+003   -2.60568E+002
            2523    7.77636E+005    4.53702E+005    4.53702E+005    1.79218E+002   -4.44220E+005    8.97922E+005   -3.22053E+003    2.02272E+005   -1.40865E+002    9.62040E+003    1.82050E+002    4.48926E+005   -2.75027E+003   -2.60037E+002
            2524    7.70868E+005    4.48184E+005    4.48184E+005    6.13246E+002   -4.41932E+005    8.90117E+005   -2.28841E+003    1.64844E+005    3.25493E+002    5.92580E+003    6.13925E+002    4.45049E+005   -8.78100E+002   -1.77467E+002
            2525    7.71312E+005    4.42686E+005   -4.47945E+005   -5.74406E+002   -4.47945E+005    8.90631E+005    1.94456E+003   -1.54222E+005   -3.43621E+002   -4.91516E+003   -5.74902E+002    4.45309E+005    5.16600E+002   -2.16179E+002
            2526    7.76097E+005    4.44221E+005   -4.51928E+005    9.87690E+001   -4.51928E+005    8.96148E+005    2.53602E+003   -1.92572E+005    7.12789E+002   -8.41786E+003    9.70015E+001    4.48045E+005    2.35815E+003   -1.90312E+002
            2527    7.82709E+005    4.80978E+005    4.80978E+005    8.04158E+003   -4.22485E+005    9.03463E+005   -2.21779E+004    3.38929E+005    1.76309E+004    4.08542E+004    8.04861E+003    4.50223E+005   -3.49861E+004   -1.32063E+003
            2528    8.00489E+005    4.85627E+005    4.85627E+005    4.86840E+003   -4.38446E+005    9.24073E+005   -1.73498E+004    3.30083E+005    1.38893E+004    3.31984E+004    4.96159E+003    4.61049E+005   -2.85945E+004   -1.62981E+003
            2529    8.00816E+005    4.80310E+005    4.80310E+005    3.07159E+003   -4.44232E+005    9.24541E+005   -1.30498E+004    3.06462E+005    4.65423E+003    3.13811E+004    3.11404E+003    4.61508E+005   -2.29218E+004   -1.13037E+003
            2530    7.92841E+005    4.70632E+005    4.70632E+005    1.56249E+003   -4.44768E+005    9.15400E+005   -9.14208E+003    2.77782E+005    3.63192E+003    2.21750E+004    1.61935E+003    4.57269E+005   -1.75340E+004   -1.13672E+003
            2531    7.81841E+005    4.61112E+005    4.61112E+005    1.28192E+003   -4.41628E+005    9.02739E+005   -6.92194E+003    2.49395E+005    5.95041E+002    1.88583E+004    1.31254E+003    4.51103E+005   -1.25343E+004   -7.95120E+002
            2532    7.73045E+005    4.50860E+005    4.50860E+005    1.42197E+002   -4.41760E+005    8.92621E+005   -3.08077E+003    1.99180E+005    1.16827E+002    8.96462E+003    1.60860E+002    4.46228E+005   -7.35585E+003   -6.38778E+002
            2533    7.66988E+005    4.45738E+005    4.45738E+005    6.13577E+002   -4.39900E+005    8.85638E+005   -2.15042E+003    1.59639E+005    2.87577E+002    5.54296E+003    6.20726E+002    4.42802E+005   -2.75797E+003   -5.89218E+002
            2534    7.67952E+005    4.40554E+005   -4.46198E+005   -6.25992E+002   -4.46198E+005    8.86751E+005    2.08998E+003   -1.57207E+005   -2.80549E+002   -5.35879E+003   -6.30611E+002    4.43362E+005    2.24085E+003   -4.68831E+002
            2535    7.72714E+005    4.42166E+005   -4.50075E+005    7.81790E+001   -4.50075E+005    8.92241E+005    2.61045E+003   -1.93310E+005    4.04358E+002   -8.29373E+003    5.80108E+001    4.46048E+005    6.73270E+003   -7.31245E+002
            2536    7.66863E+005    4.68630E+005    4.68630E+005    5.89836E+003   -4.16562E+005    8.85192E+005   -1.93223E+004    3.28632E+005    1.53704E+004    3.65955E+004    6.00093E+003    4.39095E+005   -5.45040E+004   -2.31879E+003
            2537    7.84782E+005    4.75254E+005    4.75254E+005    4.01882E+003   -4.30689E+005    9.05943E+005   -1.61946E+004    3.23071E+005    1.33237E+004    3.09983E+004    4.26182E+003    4.50659E+005   -4.48241E+004   -2.56329E+003
            2538    7.86778E+005    4.71121E+005    4.71121E+005    2.38706E+003   -4.37216E+005    9.08337E+005   -1.20975E+004    3.00137E+005    5.07481E+003    2.87288E+004    2.48898E+003    4.52591E+005   -3.59108E+004   -1.68732E+003
            2539    7.80736E+005    4.63049E+005    4.63049E+005    1.32461E+003   -4.38379E+005    9.01427E+005   -8.66493E+003    2.72024E+005    3.92408E+003    2.06285E+004    1.44217E+003    4.49783E+005   -2.76901E+004   -1.54907E+003
            2540    7.71764E+005    4.54615E+005    4.54615E+005    9.26083E+002   -4.36492E+005    8.91106E+005   -6.34959E+003    2.44043E+005    8.75415E+002    1.71848E+004    9.88538E+002    4.45058E+005   -1.93276E+004   -1.07212E+003
            2541    7.64740E+005    4.45783E+005    4.45783E+005    1.88794E+002   -4.37251E+005    8.83034E+005   -2.90676E+003    1.92674E+005    5.35990E+002    7.95379E+003    2.30512E+002    4.41350E+005   -1.15442E+004   -8.99040E+002
            2542    7.59872E+005    4.41179E+005    4.41179E+005    4.53027E+002   -4.36243E+005    8.77421E+005   -1.79627E+003    1.51687E+005    1.24695E+002    4.79962E+003    4.64483E+002    4.38690E+005   -3.50317E+003   -7.34547E+002
            2543    7.61586E+005    4.36733E+005   -4.42666E+005   -4.95585E+002   -4.42666E+005    8.79399E+005    2.14263E+003   -1.62599E+005   -9.05412E+001   -5.82961E+003   -5.07751E+002    4.39672E+005    3.93395E+003   -7.03683E+002
            2544    7.65812E+005    4.38022E+005   -4.46248E+005    9.21075E+001   -4.46248E+005    8.84271E+005    2.71136E+003   -1.94855E+005   -2.31114E+002   -7.94870E+003    4.57487E+001    4.41957E+005    1.19014E+004   -9.69049E+002
            2545    7.48020E+005    4.56328E+005    4.56328E+005    5.15429E+003   -4.07119E+005    8.63447E+005   -1.81211E+004    3.19517E+005    1.70379E+004    3.22160E+004    5.10960E+003    4.26057E+005   -6.92644E+004   -2.06338E+003
            2546    7.66230E+005    4.63790E+005    4.63790E+005    3.40184E+003   -4.20729E+005    8.84518E+005   -1.54876E+004    3.17171E+005    1.39509E+004    2.89447E+004    3.56714E+003    4.38427E+005   -5.75887E+004   -2.30700E+003
            2547    7.68941E+005    4.59118E+005    4.59118E+005    1.78770E+003   -4.28643E+005    8.87761E+005   -1.07544E+004    2.87840E+005    5.08664E+003    2.52341E+004    1.94246E+003    4.41293E+005   -4.67619E+004   -1.97253E+003
            2548    7.65925E+005    4.54148E+005    4.54148E+005    1.26448E+003   -4.30179E+005    8.84327E+005   -8.41102E+003    2.66188E+005    4.91788E+003    1.89045E+004    1.41071E+003    4.40660E+005   -3.57370E+004   -1.61689E+003
            2549    7.58934E+005    4.46373E+005    4.46373E+005    8.84008E+002   -4.29927E+005    8.76300E+005   -5.77691E+003    2.33190E+005    1.13096E+003    1.52273E+004    9.72483E+002    4.37364E+005   -2.52603E+004   -1.18014E+003
            2550    7.54016E+005    4.39237E+005    4.39237E+005    9.62903E+001   -4.31414E+005    8.70651E+005   -2.63999E+003    1.86699E+005    1.09029E+003    6.68471E+003    1.44967E+002    4.35081E+005   -1.43096E+004   -8.48382E+002
            2551    7.50343E+005    4.35315E+005    4.35315E+005    5.24962E+002   -4.31104E+005    8.66419E+005   -1.57844E+003    1.38714E+005    9.69480E+001    4.09943E+003    5.38953E+002    4.33186E+005   -3.95888E+003   -7.81695E+002
            2552    7.52709E+005    4.31190E+005   -4.37958E+005   -6.75716E+002   -4.37958E+005    8.69148E+005    2.48141E+003   -1.66354E+005   -2.12626E+002   -6.53682E+003   -6.94788E+002    4.34508E+005    6.83858E+003   -6.51984E+002
            2553    7.56687E+005    4.32684E+005   -4.41048E+005    1.19879E+002   -4.41048E+005    8.73732E+005    2.74819E+003   -1.94777E+005   -8.81748E+002   -7.40923E+003    4.64099E+001    4.36529E+005    1.68117E+004   -1.09886E+003
            2554    7.30938E+005    4.41383E+005    4.41383E+005    1.08625E+003   -4.02364E+005    8.43747E+005   -1.33686E+004    3.09003E+005    1.22702E+004    2.65795E+004    1.25612E+003    4.14173E+005   -7.98825E+004   -2.89952E+003
            2555    7.46535E+005    4.50875E+005    4.50875E+005    2.34831E+003   -4.10909E+005    8.61784E+005   -1.41046E+004    3.08854E+005    1.36740E+004    2.60515E+004    2.58820E+003    4.25513E+005   -6.75698E+004   -2.63759E+003
            2556    7.51320E+005    4.47779E+005    4.47779E+005    6.48097E+002   -4.19631E+005    8.67411E+005   -9.59872E+003    2.83255E+005    6.14569E+003    2.18610E+004    7.89463E+002    4.30118E+005   -5.50931E+004   -1.91047E+003
            2557    7.50251E+005    4.44476E+005    4.44476E+005    8.35188E+002   -4.21754E+005    8.66230E+005   -7.85235E+003    2.60950E+005    5.61256E+003    1.69844E+004    9.60115E+002    4.30937E+005   -4.30002E+004   -1.43171E+003
            2558    7.45384E+005    4.37815E+005    4.37815E+005    3.02758E+002   -4.22839E+005    8.60655E+005   -5.09292E+003    2.28783E+005    1.80117E+003    1.31115E+004    3.66136E+002    4.29250E+005   -2.98911E+004   -9.01038E+002
            2559    7.41992E+005    4.32050E+005    4.32050E+005    1.61022E+002   -4.24719E+005    8.56769E+005   -2.49725E+003    1.79544E+005    1.62187E+003    5.66899E+003    2.00889E+002    4.28046E+005   -1.69040E+004   -6.13539E+002
            2560    7.39282E+005    4.28327E+005    4.28327E+005    2.44801E+002   -4.25320E+005    8.53648E+005   -1.08382E+003    1.27311E+005   -6.56497E+001    3.06593E+003    2.51171E+002    4.26809E+005   -3.21451E+003   -4.33447E+002
            2561    7.41987E+005    4.24866E+005   -4.31899E+005   -3.49858E+002   -4.31899E+005    8.56765E+005    2.46088E+003   -1.73578E+005   -3.43685E+002   -6.66846E+003   -3.70495E+002    4.28255E+005    9.92379E+003   -5.18507E+002
            2562    7.45768E+005    4.25935E+005   -4.35186E+005    1.78492E+002   -4.35186E+005    8.61121E+005    3.02410E+003   -2.00124E+005   -1.85932E+003   -7.32060E+003    1.07614E+002    4.29919E+005    2.33202E+004   -8.56739E+002
            2563    7.14764E+005    4.32575E+005    4.32575E+005    1.69482E+003   -3.92491E+005    8.25067E+005   -1.39263E+004    3.04003E+005    1.75901E+004    2.27332E+004    1.45544E+003    4.03297E+005   -8.67251E+004   -1.70726E+003
            2564    7.30841E+005    4.41766E+005    4.41766E+005    2.76049E+003   -4.01903E+005    8.43669E+005   -1.42078E+004    3.01819E+005    1.50113E+004    2.52414E+004    2.37060E+003    4.15183E+005   -7.43878E+004   -9.27802E+002
            2565    7.35174E+005    4.36884E+005    4.36884E+005    4.79456E+002   -4.11908E+005    8.48792E+005   -8.48507E+003    2.68995E+005    6.11863E+003    1.87953E+004    5.41285E+002    4.19624E+005   -6.31338E+004   -1.58346E+003
            2566    7.36214E+005    4.36377E+005    4.36377E+005    1.03381E+003   -4.13646E+005    8.50023E+005   -7.92177E+003    2.56094E+005    7.23651E+003    1.55114E+004    1.01736E+003    4.22095E+005   -4.95247E+004   -7.79356E+002
            2567    7.32314E+005    4.29745E+005    4.29745E+005    4.57865E+002   -4.15826E+005    8.45570E+005   -4.79227E+003    2.18691E+005    2.28996E+003    1.16303E+004    4.56553E+002    4.21281E+005   -3.53202E+004   -4.60539E+002
            2568    7.29456E+005    4.24494E+005    4.24494E+005   -2.62898E+001   -4.17800E+005    8.42294E+005   -2.22266E+003    1.75277E+005    2.13583E+003    4.56710E+003   -3.49482E+001    4.20713E+005   -1.90716E+004   -8.61779E+000
            2569    7.27255E+005    4.21252E+005    4.21252E+005    5.25841E+002   -4.18510E+005    8.39762E+005   -1.08916E+003    1.10267E+005    1.50943E+002    2.59122E+003    5.25306E+002    4.19871E+005   -2.53047E+003    3.81461E+001
            2570    7.30093E+005    4.17318E+005   -4.25711E+005   -7.68541E+002   -4.25711E+005    8.43029E+005    3.05394E+003   -1.76322E+005   -1.25218E+003   -7.15478E+003   -7.54840E+002    4.21258E+005    1.43973E+004    9.13102E+001
            2571    7.33130E+005    4.18780E+005   -4.27746E+005    4.29468E+002   -4.27746E+005    8.46526E+005    2.84571E+003   -1.99340E+005   -2.35949E+003   -6.56098E+003    3.83353E+002    4.22178E+005    3.02164E+004   -5.72320E+002
            2572    7.03146E+005    4.16462E+005    4.16462E+005   -5.77593E+003   -3.95241E+005    8.11703E+005   -5.14823E+003    2.89596E+005    5.15846E+003    1.49520E+004   -4.66578E+003    3.95568E+005   -9.06181E+004   -4.79724E+003
            2573    7.16679E+005    4.33839E+005    4.33839E+005    1.39799E+003   -3.93425E+005    8.27264E+005   -1.39371E+004    3.07074E+005    1.88455E+004    2.15530E+004    1.41291E+003    4.05395E+005   -8.21017E+004   -2.07882E+003
            2574    7.24017E+005    4.30263E+005    4.30263E+005   -8.72700E+002   -4.05621E+005    8.35884E+005   -7.92327E+003    2.74747E+005    7.43566E+003    1.74973E+004   -1.16319E+003    4.11782E+005   -7.12802E+004   -7.51703E+002
            2575    7.24475E+005    4.29728E+005    4.29728E+005    2.18611E+002   -4.06722E+005    8.36450E+005   -7.74164E+003    2.60918E+005    8.99140E+003    1.41636E+004    6.99057E+001    4.13982E+005   -5.93537E+004   -4.81480E+002
            2576    7.19468E+005    4.22115E+005    4.22115E+005   -1.78612E+002   -4.08617E+005    8.30732E+005   -4.43951E+003    2.20741E+005    3.56863E+003    1.00915E+004   -3.41644E+002    4.13205E+005   -4.21715E+004    2.74438E+002
            2577    7.16429E+005    4.16971E+005    4.16971E+005    1.97590E+002   -4.10282E+005    8.27253E+005   -2.29552E+003    1.69218E+005    2.60201E+003    4.18150E+003    1.03032E+002    4.13020E+005   -2.23599E+004    7.65350E+002
            2578    7.14705E+005    4.13466E+005    4.13466E+005    1.10054E+002   -4.11804E+005    8.25270E+005   -5.90590E+002    1.03371E+005    2.47446E+002    1.42021E+003    1.04116E+002    4.12632E+005   -1.06267E+003    1.15105E+003
            2579    7.16852E+005    4.09652E+005   -4.18085E+005   -3.21384E+002   -4.18085E+005    8.27737E+005    2.91806E+003   -1.81757E+005   -2.33100E+003   -6.18056E+003   -2.42610E+002    4.13389E+005    1.98052E+004    6.81645E+002
            2580    7.20656E+005    4.10940E+005   -4.21178E+005    3.16572E+002   -4.21178E+005    8.32118E+005    3.30733E+003   -2.03831E+005   -3.19629E+003   -7.18039E+003    4.54704E+002    4.14148E+005    3.97772E+004    3.58942E+002
            2581    7.08023E+005    4.01378E+005   -4.16135E+005   -2.31297E+002   -4.16135E+005    8.17513E+005    4.99601E+003   -2.20679E+005   -5.90395E+003   -9.30038E+003    2.16291E+002    4.05285E+005    5.30883E+004    1.11381E+003
            2582    7.02800E+005    4.02317E+005   -4.09199E+005   -4.40154E+002   -4.09199E+005    8.11516E+005    2.44091E+003   -1.64445E+005   -2.93480E+003   -4.25132E+003   -1.36626E+002    4.04790E+005    2.79018E+004    2.06979E+003
            2583    7.00078E+005    4.04054E+005   -4.04326E+005    1.46797E+002   -4.04326E+005    8.08381E+005    4.17562E+001   -7.46414E+004    7.34484E+001   -3.43341E+002    1.44624E+002    4.04184E+005   -1.88475E+002    2.33253E+003
            2584    7.03041E+005    4.09739E+005    4.09739E+005    2.39552E+002   -4.02052E+005    8.11791E+005   -2.64218E+003    1.74830E+005    3.09804E+003    4.88974E+003   -6.12287E+001    4.04906E+005   -2.82224E+004    1.99491E+003
            2585    7.08110E+005    4.15979E+005    4.15979E+005    4.43822E+002   -4.01640E+005    8.17619E+005   -4.92754E+003    2.16272E+005    6.14681E+003    8.69620E+003   -6.04040E+001    4.05302E+005   -5.33719E+004    1.37037E+003
            2586    7.13108E+005    4.22605E+005    4.22605E+005   -1.72544E+002   -4.00722E+005    8.23327E+005   -7.23702E+003    2.56877E+005    9.09014E+003    1.32867E+004   -6.65780E+002    4.05018E+005   -7.35994E+004    1.33211E+002
            2587    7.18756E+005    4.29441E+005    4.29441E+005    9.20383E+001   -4.00339E+005    8.29780E+005   -9.73136E+003    2.81879E+005    1.27140E+004    1.70374E+004   -5.57299E+002    4.05671E+005   -8.68920E+004   -3.01003E+002
            2588    7.12409E+005    4.28841E+005    4.28841E+005   -7.86303E+002   -3.93503E+005    8.22344E+005   -1.15171E+004    3.03927E+005    1.48136E+004    2.13334E+004   -1.59586E+003    4.01498E+005   -8.85151E+004   -6.06246E+002
            2589    6.89932E+005    4.22380E+005    4.22380E+005    2.69136E+003   -3.73897E+005    7.96276E+005   -1.70582E+004    3.13237E+005    2.19944E+004    2.98309E+004   -6.50737E+002    3.87133E+005   -9.23687E+004    3.73771E+003
            2590    7.42834E+005    4.67651E+005    4.67651E+005    1.47320E+004   -3.89643E+005    8.57293E+005   -3.09133E+004    3.42345E+005    3.55970E+004    4.23977E+004    1.47453E+004    4.28372E+005   -1.49572E+004   -6.74429E+002
            2591    7.33296E+005    4.60479E+005    4.60479E+005    1.27934E+004   -3.85784E+005    8.46263E+005   -2.91630E+004    3.40711E+005    3.43020E+004    4.02631E+004    1.29237E+004    4.20962E+005   -4.26719E+004   -2.03544E+003
            2592    7.20236E+005    4.50247E+005    4.50247E+005    1.04778E+004   -3.80942E+005    8.31189E+005   -2.65943E+004    3.34910E+005    3.20473E+004    3.71468E+004    1.05889E+004    4.10478E+005   -6.49360E+004   -2.46204E+003
            2593    7.09657E+005    4.41012E+005    4.41012E+005    7.15359E+003   -3.77945E+005    8.18957E+005   -2.34067E+004    3.32547E+005    2.93494E+004    3.37799E+004    7.09062E+003    4.01215E+005   -8.17700E+004   -2.56159E+003
            2594    7.00764E+005    4.33062E+005    4.33062E+005    5.90415E+003   -3.75682E+005    8.08744E+005   -2.10949E+004    3.22434E+005    2.67258E+004    3.12852E+004    5.27365E+003    3.93524E+005   -9.29164E+004   -1.66660E+003
            2595    6.95671E+005    4.27823E+005    4.27823E+005    3.41955E+003   -3.75030E+005    8.02853E+005   -1.87377E+004    3.21760E+005    2.45139E+004    2.95788E+004    2.12056E+003    3.89023E+005   -9.88245E+004   -7.75398E+002
            2596    6.87961E+005    4.24988E+005    4.24988E+005    5.35449E+003   -3.68970E+005    7.93958E+005   -2.04573E+004    3.17875E+005    2.52659E+004    3.34853E+004    2.62072E+003    3.83663E+005   -1.01532E+005    1.42269E+003
            2597    7.95855E+005    3.72206E+005   -5.43839E+005   -2.23184E+004   -5.43839E+005    9.16045E+005    6.46503E+004   -4.92737E+005   -5.00224E+004   -1.21589E+005   -2.23391E+004    4.56499E+005   -1.05564E+004    1.59641E+003
            2598    7.96368E+005    3.99115E+005   -5.18703E+005   -1.06949E+004   -5.18703E+005    9.17817E+005    4.34276E+004   -4.52972E+005   -2.17074E+004   -9.78545E+004   -1.07209E+004    4.57256E+005   -7.99750E+003    1.50428E+003
            2599    7.86778E+005    4.09163E+005   -4.98266E+005   -6.47069E+003   -4.98266E+005    9.07428E+005    3.18579E+004   -4.13102E+005   -8.69675E+003   -8.03916E+004   -6.48532E+003    4.52257E+005   -5.89661E+003    1.04282E+003
            2600    7.65415E+005    4.15281E+005   -4.68103E+005   -2.23167E+003   -4.68103E+005    8.83384E+005    1.83514E+004   -3.48815E+005   -5.04453E+002   -5.23054E+004   -2.24427E+003    4.40915E+005   -3.81904E+003    9.43882E+002
            2601    7.86353E+005    3.69213E+005   -5.35900E+005   -2.06573E+004   -5.35900E+005    9.05113E+005    6.24480E+004   -4.86718E+005   -4.93287E+004   -1.17149E+005   -2.08661E+004    4.50229E+005   -3.06746E+004    4.82229E+003
            2602    7.88043E+005    3.95248E+005   -5.12959E+005   -1.00618E+004   -5.12959E+005    9.08207E+005    4.25908E+004   -4.48868E+005   -2.27363E+004   -9.47669E+004   -1.02691E+004    4.52055E+005   -2.34939E+004    4.19492E+003
            2603    7.81321E+005    4.06333E+005   -4.94783E+005   -6.07610E+003   -4.94783E+005    9.01115E+005    3.15086E+004   -4.11427E+005   -9.48290E+003   -7.88335E+004   -6.20936E+003    4.48895E+005   -1.69781E+004    3.13768E+003
            2604    7.60921E+005    4.12694E+005   -4.65500E+005   -2.26084E+003   -4.65500E+005    8.78194E+005    1.83558E+004   -3.47269E+005   -1.42676E+003   -5.12831E+004   -2.35744E+003    4.38227E+005   -1.17519E+004    2.45832E+003
            2605    7.68391E+005    3.62971E+005   -5.21479E+005   -1.81268E+004   -5.21479E+005    8.84449E+005    5.88782E+004   -4.75277E+005   -4.87756E+004   -1.09457E+005   -1.84023E+004    4.38493E+005   -4.84014E+004    6.29918E+003
            2606    7.73975E+005    3.89078E+005   -5.02863E+005   -8.22452E+003   -5.02863E+005    8.91941E+005    4.06697E+004   -4.43106E+005   -2.44928E+004   -8.87728E+004   -8.74365E+003    4.43230E+005   -3.72462E+004    6.47330E+003
            2607    7.70217E+005    4.00573E+005   -4.87740E+005   -6.02999E+003   -4.87740E+005    8.88313E+005    3.10655E+004   -4.05389E+005   -1.11150E+004   -7.57585E+004   -6.32306E+003    4.42099E+005   -2.77307E+004    4.52299E+003
            2608    7.53196E+005    4.08334E+005   -4.60929E+005   -1.98538E+003   -4.60929E+005    8.69263E+005    1.81937E+004   -3.45717E+005   -3.25729E+003   -4.91042E+004   -2.21957E+003    4.33604E+005   -1.89256E+004    3.71135E+003
            2609    7.47677E+005    3.56984E+005   -5.03560E+005   -1.31386E+004   -5.03560E+005    8.60545E+005    5.32382E+004   -4.64165E+005   -4.66994E+004   -9.96191E+004   -1.33961E+004    4.24955E+005   -6.17333E+004    7.18660E+003
            2610    7.54071E+005    3.80459E+005   -4.88549E+005   -6.69151E+003   -4.88549E+005    8.69007E+005    3.82605E+004   -4.31522E+005   -2.68627E+004   -8.04177E+004   -7.50116E+003    4.30859E+005   -4.91399E+004    7.75396E+003
            2611    7.57118E+005    3.94021E+005   -4.79145E+005   -4.97294E+003   -4.79145E+005    8.73166E+005    3.00324E+004   -4.00892E+005   -1.34410E+004   -7.12915E+004   -5.36455E+003    4.34052E+005   -3.68205E+004    5.12117E+003
            2612    7.42003E+005    4.01752E+005   -4.54571E+005   -1.89836E+003   -4.54571E+005    8.56324E+005    1.82392E+004   -3.43206E+005   -5.86158E+003   -4.66191E+004   -2.23690E+003    4.26813E+005   -2.70030E+004    4.09048E+003
            2613    7.24032E+005    3.48869E+005   -4.84509E+005   -1.00891E+004   -4.84509E+005    8.33378E+005    4.85766E+004   -4.48178E+005   -4.63488E+004   -8.95308E+004   -9.85032E+003    4.09974E+005   -7.09415E+004    6.21924E+003
            2614    7.36656E+005    3.73568E+005   -4.75344E+005   -4.27348E+003   -4.75344E+005    8.48912E+005    3.53499E+004   -4.22619E+005   -2.94969E+004   -7.14130E+004   -5.13987E+003    4.20032E+005   -5.72401E+004    7.75458E+003
            2615    7.41646E+005    3.85620E+005   -4.69709E+005   -5.35013E+003   -4.69709E+005    8.55330E+005    2.98130E+004   -3.92251E+005   -1.69387E+004   -6.68810E+004   -5.61908E+003    4.24404E+005   -4.62983E+004    4.59022E+003
            2616    7.30246E+005    3.95028E+005   -4.47690E+005   -1.23226E+003   -4.47690E+005    8.42717E+005    1.79648E+004   -3.42249E+005   -9.01598E+003   -4.33061E+004   -1.57226E+003    4.19626E+005   -3.40202E+004    3.80248E+003
            2617    7.12112E+005    3.46506E+005   -4.73042E+005   -5.31498E+003   -4.73042E+005    8.19548E+005    4.39504E+004   -4.43759E+005   -4.38467E+004   -8.32225E+004   -4.78207E+003    4.02658E+005   -7.30105E+004    5.64167E+003
            2618    7.18947E+005    3.65853E+005   -4.62656E+005   -2.96572E+003   -4.62656E+005    8.28509E+005    3.32561E+004   -4.12285E+005   -3.40067E+004   -6.21506E+004   -3.61097E+003    4.08509E+005   -6.71642E+004    6.83245E+003
            2619    7.29087E+005    3.78009E+005   -4.62648E+005   -3.06933E+003   -4.62648E+005    8.40657E+005    2.92362E+004   -3.96534E+005   -2.17627E+004   -6.30254E+004   -2.92043E+003    4.16285E+005   -5.42262E+004    3.34178E+003
            2620    7.18095E+005    3.87184E+005   -4.41433E+005   -5.78501E+002   -4.41433E+005    8.28618E+005    1.82759E+004   -3.44798E+005   -1.32161E+004   -4.09258E+004   -6.85871E+002    4.11750E+005   -4.37889E+004    2.65118E+003
            2621    7.07520E+005    3.43781E+005   -4.71049E+005   -1.24124E+004   -4.71049E+005    8.14830E+005    4.65601E+004   -4.24296E+005   -4.87474E+004   -8.12176E+004   -9.71533E+003    3.99085E+005   -7.94432E+004    1.80245E+002
            2622    7.10154E+005    3.62026E+005   -4.56207E+005   -2.91787E+002   -4.56207E+005    8.18233E+005    3.14908E+004   -4.12901E+005   -3.58532E+004   -5.90616E+004    4.42458E+002    4.02405E+005   -7.25692E+004    3.29639E+003
            2623    7.19124E+005    3.69460E+005   -4.59490E+005   -2.92793E+003   -4.59490E+005    8.28950E+005    3.09859E+004   -4.02065E+005   -2.99505E+004   -6.08181E+004   -2.18895E+003    4.08525E+005   -6.79719E+004    2.61943E+003
            2624    7.06150E+005    3.79591E+005   -4.35127E+005    9.19224E+002   -4.35127E+005    8.14718E+005    1.82058E+004   -3.49851E+005   -1.71593E+004   -3.86559E+004    1.19793E+003    4.03545E+005   -5.44638E+004    1.64373E+003
            2625    6.97373E+005    3.69281E+005   -4.35101E+005   -3.95031E+002   -4.35101E+005    8.04381E+005    2.20716E+004   -3.61652E+005   -2.70268E+004   -4.03267E+004    1.13874E+003    3.95767E+005   -7.09173E+004   -6.72816E+002
            2626    7.03286E+005    3.62282E+005   -4.48083E+005    2.84555E+003   -4.48083E+005    8.10365E+005    2.76521E+004   -4.07157E+005   -3.64680E+004   -5.03905E+004    3.90234E+003    3.96028E+005   -8.50078E+004    3.29111E+003
            2627    7.16289E+005    3.55523E+005   -4.69140E+005   -1.86763E+003   -4.69140E+005    8.24662E+005    3.84950E+004   -4.37782E+005   -4.78593E+004   -6.71723E+004   -4.53324E+002    4.01525E+005   -9.27433E+004    4.55019E+003
            2628    7.14169E+005    3.44108E+005   -4.76946E+005    2.13492E+002   -4.76946E+005    8.21054E+005    4.42081E+004   -4.65350E+005   -5.65063E+004   -7.73783E+004    1.26031E+003    4.02799E+005   -7.79864E+004    4.90295E+003
            2629    7.44740E+005    3.17275E+005   -5.38956E+005   -4.16358E+004   -5.38956E+005    8.56231E+005    8.77722E+004   -4.84632E+005   -9.15163E+004   -1.30144E+005   -4.16566E+004    4.27460E+005   -1.36494E+004    1.74344E+003
            2630    7.34315E+005    3.16314E+005   -5.27873E+005   -3.70067E+004   -5.27873E+005    8.44187E+005    8.28555E+004   -4.79070E+005   -8.84284E+004   -1.23004E+005   -3.71339E+004    4.19870E+005   -3.94871E+004    4.73781E+003
            2631    7.19556E+005    3.15926E+005   -5.11206E+005   -2.94463E+004   -5.11206E+005    8.27132E+005    7.49087E+004   -4.71253E+005   -8.36579E+004   -1.11570E+005   -2.94980E+004    4.08820E+005   -6.06015E+004    6.29994E+003
            2632    7.03656E+005    3.16811E+005   -4.92085E+005   -2.13223E+004   -4.92085E+005    8.08896E+005    6.55321E+004   -4.60002E+005   -7.69119E+004   -9.88661E+004   -2.08183E+004    3.96820E+005   -7.69328E+004    6.28858E+003
            2633    6.91019E+005    3.19323E+005   -4.74900E+005   -1.13353E+004   -4.74900E+005    7.94222E+005    5.56374E+004   -4.54719E+005   -7.07745E+004   -8.61035E+004   -1.00342E+004    3.87150E+005   -8.73687E+004    5.66758E+003
            2634    6.69881E+005    3.16680E+005   -4.53305E+005   -4.42192E+003   -4.53305E+005    7.69986E+005    4.70157E+004   -4.39627E+005   -6.46832E+004   -7.41418E+004   -2.22202E+003    3.73893E+005   -9.07763E+004    4.08400E+003
            2635    6.67740E+005    3.17598E+005   -4.48862E+005    7.03384E+003   -4.48862E+005    7.66460E+005    4.14101E+004   -4.57353E+005   -6.35548E+004   -6.87168E+004    8.04141E+003    3.75947E+005   -7.36462E+004    4.97675E+003
            2636    6.89428E+005    3.76728E+005   -4.18969E+005    3.63184E+002   -4.18969E+005    7.95697E+005    1.39593E+004   -3.12763E+005   -1.73485E+004   -2.62142E+004    1.68483E+003    3.94448E+005   -5.13204E+004   -3.32991E+003
            2637    6.83671E+005    3.83391E+005   -4.05966E+005   -1.59147E+003   -4.05966E+005    7.89356E+005    8.05542E+003   -2.38651E+005   -8.96229E+003   -1.45448E+004   -6.59161E+002    3.93647E+005   -2.75055E+004   -6.20163E+003
            2638    6.80301E+005    3.92959E+005    3.92959E+005    7.04132E+002   -3.92584E+005    7.85544E+005   -3.59616E+002   -8.95244E+004    2.29438E+002    1.31934E+002    7.17474E+002    3.92711E+005   -3.75594E+002   -6.89837E+003
            2639    6.83335E+005    4.04992E+005    4.04992E+005    2.12176E+002   -3.83965E+005    7.88957E+005   -7.07999E+003    2.43438E+005    8.78199E+003    1.31491E+004   -6.91092E+002    3.93492E+005    2.69236E+004   -6.13815E+003
            2640    6.89637E+005    4.19871E+005    4.19871E+005    1.08403E+003   -3.76090E+005    7.95961E+005   -1.49549E+004    3.09511E+005    1.81011E+004    2.71296E+004   -3.66127E+002    3.94555E+005    5.14574E+004   -3.83921E+003
            2641    6.96525E+005    4.33852E+005    4.33852E+005   -1.59946E+003   -3.69479E+005    8.03331E+005   -2.09243E+004    3.65977E+005    2.72924E+004    3.85741E+004   -3.09370E+003    3.95207E+005    7.11512E+004   -5.02560E+002
            2642    7.04585E+005    4.49783E+005    4.49783E+005   -1.28155E+003   -3.62134E+005    8.11916E+005   -2.87892E+004    4.05772E+005    3.69631E+004    5.23483E+004   -2.94383E+003    3.97052E+005    8.37409E+004    1.76771E+003
            2643    7.00500E+005    4.56763E+005    4.56763E+005   -9.51927E+002   -3.49652E+005    8.06416E+005   -3.53863E+004    4.30154E+005    4.76008E+004    6.12289E+004   -2.67073E+003    3.94067E+005    8.44873E+004    2.74070E+003
            2644    6.73940E+005    4.40070E+005    4.40070E+005   -3.38344E+003   -3.35467E+005    7.75538E+005   -3.37400E+004    4.22063E+005    4.85628E+004    5.69280E+004   -4.27092E+003    3.77088E+005    8.98475E+004    5.38599E+003
            2645    7.02777E+005    3.84107E+005   -4.27074E+005   -1.88347E+003   -4.27074E+005    8.11181E+005    1.49503E+004   -3.07271E+005   -1.29286E+004   -3.04636E+004   -1.45868E+003    4.03672E+005   -3.82923E+004   -8.78860E+002
            2646    7.15214E+005    3.92875E+005   -4.32687E+005   -7.41516E+002   -4.32687E+005    8.25562E+005    1.35177E+004   -3.08572E+005   -7.86735E+003   -3.19266E+004   -7.58983E+002    4.11591E+005   -2.88925E+004    1.21924E+003
            2647    7.26740E+005    4.00459E+005   -4.38478E+005   -1.99246E+003   -4.38478E+005    8.38937E+005    1.33370E+004   -2.99787E+005   -4.68939E+003   -3.32041E+004   -2.11741E+003    4.18629E+005   -2.23195E+004    2.00385E+003
            2648    7.37111E+005    4.07696E+005   -4.43238E+005   -1.45097E+003   -4.43238E+005    8.50934E+005    1.23310E+004   -2.98452E+005   -2.31330E+003   -3.30653E+004   -1.61448E+003    4.24878E+005   -1.61111E+004    2.75548E+003
            2649    7.45528E+005    4.13129E+005   -4.47553E+005   -1.99184E+003   -4.47553E+005    8.60682E+005    1.21386E+004   -2.93816E+005   -1.02953E+003   -3.32842E+004   -2.10208E+003    4.29883E+005   -1.13626E+004    2.49872E+003
            2650    7.52035E+005    4.17373E+005   -4.50828E+005   -1.67640E+003   -4.50828E+005    8.68201E+005    1.17106E+004   -2.94429E+005   -2.57812E+002   -3.31507E+004   -1.72331E+003    4.33738E+005   -6.41843E+003    1.81732E+003
            2651    7.55168E+005    4.19340E+005   -4.52486E+005   -1.81722E+003   -4.52486E+005    8.71826E+005    1.16546E+004   -2.93304E+005   -1.78000E+001   -3.31228E+004   -1.82305E+003    4.35592E+005   -2.34815E+003    6.24957E+002
            2652    6.94698E+005    3.93057E+005   -4.09051E+005    5.45939E+002   -4.09051E+005    8.02108E+005    5.14925E+003   -2.31246E+005   -4.47141E+003   -1.17840E+004    8.07672E+002    4.00569E+005   -1.91683E+004   -2.43676E+003
            2653    7.06028E+005    4.00525E+005   -4.14687E+005   -1.70340E+002   -4.14687E+005    8.15212E+005    4.77746E+003   -2.17810E+005   -2.89581E+003   -1.12892E+004   -1.47417E+002    4.07347E+005   -1.38947E+004   -1.46318E+002
            2654    7.17211E+005    4.08206E+005   -4.19926E+005    4.46811E+002   -4.19926E+005    8.28132E+005    3.75799E+003   -2.13502E+005   -1.31523E+003   -1.03344E+004    3.75658E+002    4.13934E+005   -9.30502E+003    1.70429E+003
            2655    7.27222E+005    4.14834E+005   -4.24870E+005   -7.19563E+001   -4.24870E+005    8.39705E+005    3.36918E+003   -1.98711E+005   -4.19134E+002   -9.55348E+003   -1.34925E+002    4.19774E+005   -6.35195E+003    2.15267E+003
            2656    7.35862E+005    4.20948E+005   -4.28739E+005    2.75939E+002   -4.28739E+005    8.49687E+005    2.50516E+003   -1.89235E+005    4.39439E+002   -8.19184E+003    2.36928E+002    4.24800E+005   -3.56744E+003    2.35793E+003
            2657    7.42093E+005    4.24998E+005   -4.31888E+005    1.00484E+002   -4.31888E+005    8.56886E+005    2.26302E+003   -1.80256E+005    8.73916E+002   -7.74797E+003    8.49982E+001    4.28413E+005   -2.13539E+003    1.57203E+003
            2658    7.45507E+005    4.27426E+005   -4.33403E+005    2.58843E+002   -4.33403E+005    8.60829E+005    1.90631E+003   -1.75603E+005    1.17078E+003   -7.14701E+003    2.57305E+002    4.30394E+005   -5.01322E+002    6.63885E+002
            2659    6.94845E+005    4.00800E+005   -4.01538E+005   -7.18551E+002   -4.01538E+005    8.02338E+005    4.85651E+002    7.96867E+004    3.34938E+001   -7.56677E+002   -7.33770E+002    4.01154E+005    9.35972E+002   -3.25083E+003
            2660    7.07252E+005    4.09053E+005    4.09053E+005    2.62849E+002   -4.07611E+005    8.16664E+005   -5.68197E+002    8.82508E+004    8.20325E+002    6.25202E+002    2.59065E+002    4.08323E+005    2.66261E+003   -2.88931E+002
            2661    7.18764E+005    4.16628E+005    4.16628E+005   -4.04298E+002   -4.13326E+005    8.29954E+005   -9.66066E+002    1.47143E+005    7.07759E+002    2.57436E+003   -3.83917E+002    4.14959E+005    3.52106E+003    1.21411E+003
            2662    7.29459E+005    4.24169E+005    4.24169E+005    2.03406E+002   -4.18131E+005    8.42301E+005   -2.08036E+003    1.65026E+005    6.18657E+002    5.37416E+003    2.48264E+002    4.21117E+005    4.20548E+003    2.27236E+003
            2663    7.38457E+005    4.30163E+005    4.30163E+005   -1.23577E+002   -4.22522E+005    8.52684E+005   -2.50585E+003    1.86167E+005   -4.03699E+000    7.61010E+003   -8.85307E+001    4.26305E+005    3.57154E+003    2.12415E+003
            2664    7.45111E+005    4.34828E+005    4.34828E+005    1.50381E+002   -4.25537E+005    8.60365E+005   -3.14701E+003    1.95624E+005   -4.13183E+002    9.68332E+003    1.70886E+002    4.30141E+005    2.68386E+003    1.67228E+003
            2665    7.48594E+005    4.37192E+005    4.37192E+005    5.24053E+001   -4.27191E+005    8.64383E+005   -3.35088E+003    2.02612E+005   -7.77598E+002    1.07760E+004    5.42156E+001    4.32152E+005    7.60295E+002    5.23605E+002
            2666    6.95031E+005    4.12177E+005    4.12177E+005    1.24846E+003   -3.90298E+005    8.02475E+005   -7.70909E+003    2.41246E+005    6.33165E+003    1.58659E+004    9.29656E+002    4.00611E+005    2.16660E+004   -2.54887E+003
            2667    7.06781E+005    4.19542E+005    4.19542E+005    2.05701E+002   -3.96473E+005    8.16015E+005   -7.75841E+003    2.56987E+005    4.23958E+003    1.88652E+004    1.70438E+002    4.07507E+005    1.88233E+004    4.94210E+001
            2668    7.19049E+005    4.28163E+005    4.28163E+005    1.27807E+003   -4.02012E+005    8.30174E+005   -9.14308E+003    2.63486E+005    3.17365E+003    2.28584E+004    1.39719E+003    4.14625E+005    1.68758E+004    1.90275E+003
            2669    7.30778E+005    4.36115E+005    4.36115E+005    9.91976E+002   -4.07576E+005    8.43691E+005   -9.84345E+003    2.77036E+005    1.76967E+003    2.66271E+004    1.13358E+003    4.21416E+005    1.42365E+004    2.52893E+003
            2670    7.41385E+005    4.43854E+005    4.43854E+005    1.72207E+003   -4.12067E+005    8.55922E+005   -1.11698E+004    2.85850E+005    1.05039E+003    3.06125E+004    1.84652E+003    4.27549E+005    1.13027E+004    2.73539E+003
            2671    7.49404E+005    4.49423E+005    4.49423E+005    1.65433E+003   -4.15736E+005    8.65160E+005   -1.17804E+004    2.94633E+005    3.12062E+002    3.33239E+004    1.70510E+003    4.32205E+005    7.00121E+003    1.82306E+003
            2672    7.53800E+005    4.52683E+005    4.52683E+005    1.93430E+003   -4.17543E+005    8.70226E+005   -1.23582E+004    2.98654E+005    6.14918E+001    3.50714E+004    1.94170E+003    4.34753E+005    2.50726E+003    7.37301E+002
            2673    7.01013E+005    4.25531E+005    4.25531E+005    2.27704E+002   -3.83574E+005    8.09105E+005   -1.40615E+004    3.12632E+005    1.38293E+004    2.85634E+004   -2.08171E+002    4.02396E+005    4.09410E+004   -6.95260E+002
            2674    7.14123E+005    4.33942E+005    4.33942E+005    1.18294E+003   -3.90312E+005    8.24253E+005   -1.49378E+004    3.15920E+005    1.09804E+004    3.26428E+004    1.19014E+003    4.10528E+005    3.45808E+004    1.36829E+003
            2675    7.27072E+005    4.42074E+005    4.42074E+005    1.26045E+003   -3.97118E+005    8.39192E+005   -1.54054E+004    3.22719E+005    7.73928E+003    3.70126E+004    1.46436E+003    4.18314E+005    2.92736E+004    2.70787E+003
            2676    7.40461E+005    4.51475E+005    4.51475E+005    2.09119E+003   -4.03156E+005    8.54631E+005   -1.68033E+004    3.30973E+005    5.80018E+003    4.22268E+004    2.38296E+003    4.26206E+005    2.46590E+004    3.68285E+003
            2677    7.52800E+005    4.59811E+005    4.59811E+005    2.13178E+003   -4.09033E+005    8.68844E+005   -1.76366E+004    3.40535E+005    3.69913E+003    4.68762E+004    2.33444E+003    4.33480E+005    1.85673E+004    3.32412E+003
            2678    7.62081E+005    4.66300E+005    4.66300E+005    2.66673E+003   -4.13243E+005    8.79544E+005   -1.85747E+004    3.46274E+005    2.46319E+003    5.04987E+004    2.76218E+003    4.38953E+005    1.18071E+004    2.41752E+003
            2679    7.67237E+005    4.69887E+005    4.69887E+005    2.70864E+003   -4.15592E+005    8.85479E+005   -1.90012E+004    3.50610E+005    1.72464E+003    5.25598E+004    2.71903E+003    4.41992E+005    3.81950E+003    8.16620E+002
            2680    7.06589E+005    4.38558E+005    4.38558E+005    7.30843E+002   -3.76592E+005    8.15150E+005   -2.08987E+004    3.56217E+005    1.92732E+004    4.32697E+004    1.53269E+002    4.03313E+005    5.73843E+004    1.00683E+003
            2681    7.17308E+005    4.44707E+005    4.44707E+005    4.92622E+002   -3.82822E+005    8.27529E+005   -2.07925E+004    3.60599E+005    1.47591E+004    4.71234E+004    4.95130E+002    4.10616E+005    4.82329E+004    2.75210E+003
            2682    7.31861E+005    4.55378E+005    4.55378E+005    2.86823E+003   -3.88977E+005    8.44355E+005   -2.30899E+004    3.65004E+005    1.22910E+004    5.37469E+004    3.23180E+003    4.19591E+005    4.17092E+004    4.35767E+003
            2683    7.47946E+005    4.66694E+005    4.66694E+005    2.97348E+003   -3.96153E+005    8.62848E+005   -2.45050E+004    3.78136E+005    9.42062E+003    6.07443E+004    3.34999E+003    4.29266E+005    3.44861E+004    4.66387E+003
            2684    7.62984E+005    4.78071E+005    4.78071E+005    4.74835E+003   -4.02111E+005    8.80182E+005   -2.69027E+004    3.86842E+005    8.09779E+003    6.75683E+004    5.04190E+003    4.38288E+005    2.62688E+004    4.33146E+003
            2685    7.74895E+005    4.86667E+005    4.86667E+005    5.10500E+003   -4.07211E+005    8.93878E+005   -2.81872E+004    3.96223E+005    6.60710E+003    7.27274E+004    5.22712E+003    4.45412E+005    1.63019E+004    2.90581E+003
            2686    7.81451E+005    4.91675E+005    4.91675E+005    5.78813E+003   -4.09752E+005    9.01428E+005   -2.92371E+004    4.00548E+005    6.21002E+003    7.56985E+004    5.80269E+003    4.49338E+005    5.51592E+003    1.02214E+003
            2687    7.09581E+005    4.52318E+005    4.52318E+005    1.34314E+003   -3.65598E+005    8.17915E+005   -2.93544E+004    3.98264E+005    3.25659E+004    5.48988E+004    5.98372E+002    4.02959E+005    6.86200E+004    2.39902E+003
            2688    7.21794E+005    4.60126E+005    4.60126E+005    3.18825E+003   -3.71992E+005    8.32118E+005   -3.04407E+004    3.99203E+005    2.79042E+004    6.01403E+004    3.27754E+003    4.11246E+005    6.08691E+004    4.52400E+003
            2689    7.38039E+005    4.70912E+005    4.70912E+005    4.10135E+003   -3.79962E+005    8.50874E+005   -3.16837E+004    4.06811E+005    2.34324E+004    6.70922E+004    4.52653E+003    4.21560E+005    5.28465E+004    5.64627E+003
            2690    7.55722E+005    4.84052E+005    4.84052E+005    6.16915E+003   -3.87216E+005    8.71268E+005   -3.43349E+004    4.16180E+005    2.16038E+004    7.46778E+004    6.72302E+003    4.32512E+005    4.46147E+004    6.21845E+003
            2691    7.73102E+005    4.96457E+005    4.96457E+005    7.07244E+003   -3.94815E+005    8.91271E+005   -3.62382E+004    4.27465E+005    1.94020E+004    8.18340E+004    7.47844E+003    4.43232E+005    3.38985E+004    5.51322E+003
            2692    7.86378E+005    5.06306E+005    5.06306E+005    8.75183E+003   -4.00285E+005    9.06592E+005   -3.82577E+004    4.34025E+005    1.85290E+004    8.73133E+004    8.93095E+003    4.51482E+005    2.12525E+004    3.75154E+003
            2693    7.93958E+005    5.12072E+005    5.12072E+005    9.27629E+003   -4.03229E+005    9.15300E+005   -3.93730E+004    4.39693E+005    1.80916E+004    9.07266E+004    9.30078E+003    4.56152E+005    7.03125E+003    1.42201E+003
            2694    7.02830E+005    4.52329E+005    4.52329E+005    1.53321E+003   -3.57498E+005    8.09827E+005   -3.21212E+004    4.07377E+005    3.42066E+004    6.18826E+004    2.74378E+002    3.96888E+005    7.85926E+004    2.84077E+003
            2695    7.15435E+005    4.62369E+005    4.62369E+005    1.38999E+003   -3.61812E+005    8.24182E+005   -3.39823E+004    4.20971E+005    3.31141E+004    6.72472E+004    1.58562E+003    4.05337E+005    7.20943E+004    6.42210E+003
            2696    7.33640E+005    4.77714E+005    4.77714E+005    6.33469E+003   -3.67548E+005    8.45262E+005   -3.88337E+004    4.27722E+005    3.23051E+004    7.75362E+004    6.65986E+003    4.17033E+005    6.45110E+004    6.56780E+003
            2697    7.54332E+005    4.94176E+005    4.94176E+005    8.25584E+003   -3.74826E+005    8.69002E+005   -4.25354E+004    4.43498E+005    3.06705E+004    8.81287E+004    8.80704E+003    4.30031E+005    5.49069E+004    7.26177E+003
            2698    7.74300E+005    5.10985E+005    5.10985E+005    1.23735E+004   -3.81034E+005    8.92019E+005   -4.74415E+004    4.54730E+005    3.11185E+004    9.84886E+004    1.27174E+004    4.42714E+005    4.21532E+004    5.90825E+003
            2699    7.90685E+005    5.24106E+005    5.24106E+005    1.40805E+004   -3.86718E+005    9.10824E+005   -5.04895E+004    4.66895E+005    3.05944E+004    1.06585E+005    1.42890E+004    4.53026E+005    2.67324E+004    4.49613E+003
            2700    7.99693E+005    5.32004E+005    5.32004E+005    1.58997E+004   -3.89174E+005    9.21178E+005   -5.29099E+004    4.72999E+005    3.12921E+004    1.11527E+005    1.59109E+004    4.58748E+005    9.06873E+003    1.23065E+003
            2701    6.99124E+005    4.70474E+005    4.70474E+005    7.31434E+003   -3.33720E+005    8.04194E+005   -4.80229E+004    4.45850E+005    6.24569E+004    7.69778E+004    4.63395E+003    3.92836E+005    8.44900E+004    1.41707E+003
            2702    7.07246E+005    4.69977E+005    4.69977E+005    5.89896E+003   -3.44016E+005    8.13993E+005   -4.39536E+004    4.39532E+005    4.87805E+004    7.77428E+004    5.33752E+003    3.98017E+005    8.33536E+004    6.23358E+003
            2703    7.24257E+005    4.88065E+005    4.88065E+005    1.04084E+004   -3.45264E+005    8.33329E+005   -5.10699E+004    4.56406E+005    5.55541E+004    8.74615E+004    1.01940E+004    4.09366E+005    7.56190E+004    6.58010E+003
            2704    7.41558E+005    5.01851E+005    5.01851E+005    1.46361E+004   -3.51571E+005    8.53422E+005   -5.49719E+004    4.62495E+005    5.36850E+004    9.61427E+004    1.50880E+004    4.20990E+005    6.60670E+004    7.85270E+003
            2705    7.61084E+005    5.20886E+005    5.20886E+005    1.95474E+004   -3.54879E+005    8.75765E+005   -6.18516E+004    4.78049E+005    5.85008E+004    1.06978E+005    2.00759E+004    4.34148E+005    5.14503E+004    7.41803E+003
            2706    7.77365E+005    5.34682E+005    5.34682E+005    2.33740E+004   -3.59892E+005    8.94574E+005   -6.60545E+004    4.86312E+005    5.91484E+004    1.15340E+005    2.36749E+004    4.45148E+005    3.32968E+004    5.45329E+003
            2707    7.86956E+005    5.43796E+005    5.43796E+005    2.56599E+004   -3.61763E+005    9.05559E+005   -6.92309E+004    4.93666E+005    6.13465E+004    1.20641E+005    2.57054E+004    4.51664E+005    1.13372E+004    2.09915E+003
            2708    7.41964E+005    5.40131E+005    5.40131E+005    4.30272E+004   -3.12718E+005    8.52850E+005   -9.01468E+004    4.86741E+005    9.27638E+004    1.34646E+005    4.30306E+004    4.25661E+005    1.45000E+004    1.61931E+003
            2709    7.31634E+005    5.28288E+005    5.28288E+005    3.78331E+004   -3.12656E+005    8.40944E+005   -8.44884E+004    4.80607E+005    8.88697E+004    1.26684E+005    3.79117E+004    4.18022E+005    4.09824E+004    4.77987E+003
            2710    7.16761E+005    5.10216E+005    5.10216E+005    3.00640E+004   -3.13672E+005    8.23889E+005   -7.55360E+004    4.70049E+005    8.27319E+004    1.13954E+005    2.99223E+004    4.06844E+005    6.23394E+004    6.01467E+003
            2711    7.03660E+005    4.91878E+005    4.91878E+005    2.08671E+004   -3.16994E+005    8.08872E+005   -6.52501E+004    4.60589E+005    7.51987E+004    1.00135E+005    2.04171E+004    3.96531E+005    7.81058E+004    6.73552E+003
            2712    6.92342E+005    4.74622E+005    4.74622E+005    1.35039E+004   -3.21502E+005    7.96125E+005   -5.55414E+004    4.47596E+005    6.81689E+004    8.61621E+004    1.22932E+004    3.87719E+005    8.90818E+004    5.80856E+003
            2713    6.85196E+005    4.61380E+005    4.61380E+005    4.74426E+003   -3.26498E+005    7.87878E+005   -4.65421E+004    4.43650E+005    6.12795E+004    7.53753E+004    2.97153E+003    3.82018E+005    9.51748E+004    5.36034E+003
            2714    6.72048E+005    4.43101E+005    4.43101E+005   -6.18923E+002   -3.30105E+005    7.73206E+005   -3.74591E+004    4.24777E+005    5.46595E+004    5.93176E+004   -1.59975E+003    3.73684E+005    9.86017E+004    6.12115E+003
            2715    7.13139E+005    3.43614E+005   -4.76242E+005    3.49817E+002   -4.76242E+005    8.19857E+005    4.40928E+004   -4.64969E+005   -5.64811E+004   -7.71998E+004    1.40256E+003    4.02292E+005    7.74627E+004   -4.82827E+003
            2716    7.17059E+005    3.55647E+005   -4.69882E+005   -1.89431E+003   -4.69882E+005    8.25529E+005    3.87096E+004   -4.38835E+005   -4.80340E+004   -6.76090E+004   -4.85893E+002    4.02026E+005    9.24862E+004   -4.56811E+003
            2717    7.03783E+005    3.62302E+005   -4.48623E+005    2.78162E+003   -4.48623E+005    8.10925E+005    2.78467E+004   -4.07924E+005   -3.66434E+004   -5.07131E+004    3.81645E+003    3.96255E+005    8.52806E+004   -3.39130E+003
            2718    6.97586E+005    3.69380E+005   -4.35246E+005   -3.89346E+002   -4.35246E+005    8.04626E+005    2.20853E+004   -3.61833E+005   -2.70368E+004   -4.03488E+004    1.12981E+003    3.95862E+005    7.10843E+004    6.13377E+002
            2719    7.06602E+005    3.79674E+005   -4.35563E+005    8.32835E+002   -4.35563E+005    8.15236E+005    1.83520E+004   -3.50364E+005   -1.71881E+004   -3.89683E+004    1.10042E+003    4.03801E+005    5.44801E+004   -1.69886E+003
            2720    7.18780E+005    3.87401E+005   -4.42003E+005   -6.25481E+002   -4.42003E+005    8.29404E+005    1.84091E+004   -3.45575E+005   -1.31707E+004   -4.13112E+004   -7.45401E+002    4.12151E+005    4.36646E+004   -2.72203E+003
            2721    7.30792E+005    3.95217E+005   -4.48130E+005   -1.32351E+003   -4.48130E+005    8.43347E+005    1.80791E+004   -3.42577E+005   -8.99108E+003   -4.35823E+004   -1.66381E+003    4.19954E+005    3.37980E+004   -3.81476E+003
            2722    7.42516E+005    4.02077E+005   -4.54840E+005   -1.88343E+003   -4.54840E+005    8.56917E+005    1.82154E+004   -3.43303E+005   -5.79349E+003   -4.66344E+004   -2.21821E+003    4.27128E+005    2.67046E+004   -4.07657E+003
            2723    7.53506E+005    4.08483E+005   -4.61137E+005   -1.98141E+003   -4.61137E+005    8.69620E+005    1.82119E+004   -3.45969E+005   -3.22675E+003   -4.91947E+004   -2.21425E+003    4.33786E+005    1.87862E+004   -3.71075E+003
            2724    7.61215E+005    4.12761E+005   -4.65769E+005   -2.26177E+003   -4.65769E+005    8.78530E+005    1.84232E+004   -3.47834E+005   -1.42605E+003   -5.14875E+004   -2.35587E+003    4.38393E+005    1.16050E+004   -2.42873E+003
            2725    7.65442E+005    4.15266E+005   -4.68148E+005   -2.25033E+003   -4.68148E+005    8.83415E+005    1.83774E+004   -3.48876E+005   -4.95730E+002   -5.23739E+004   -2.26247E+003    4.40929E+005    3.69569E+003   -9.34006E+002
            2726    7.19489E+005    3.69526E+005   -4.59838E+005   -2.95294E+003   -4.59838E+005    8.29363E+005    3.10882E+004   -4.02567E+005   -3.00114E+004   -6.10293E+004   -2.22395E+003    4.08760E+005    6.78056E+004   -2.64364E+003
            2727    7.29422E+005    3.78013E+005   -4.63027E+005   -3.19538E+003   -4.63027E+005    8.41040E+005    2.94034E+004   -3.96862E+005   -2.18371E+004   -6.33025E+004   -3.07051E+003    4.16481E+005    5.41689E+004   -3.43679E+003
            2728    7.42448E+005    3.85873E+005   -4.70372E+005   -5.34252E+003   -4.70372E+005    8.56245E+005    2.99471E+004   -3.93287E+005   -1.69225E+004   -6.72886E+004   -5.63030E+003    4.24877E+005    4.60736E+004   -4.68684E+003
            2729    7.57658E+005    3.94244E+005   -4.79544E+005   -5.00207E+003   -4.79544E+005    8.73787E+005    3.01007E+004   -4.01291E+005   -1.33714E+004   -7.15323E+004   -5.39851E+003    4.34373E+005    3.65864E+004   -5.15529E+003
            2730    7.70669E+005    4.00811E+005   -4.88025E+005   -6.07325E+003   -4.88025E+005    8.88835E+005    3.10956E+004   -4.05478E+005   -1.10625E+004   -7.58633E+004   -6.36105E+003    4.42374E+005    2.74459E+004   -4.48438E+003
            2731    7.81525E+005    4.06390E+005   -4.94958E+005   -6.08708E+003   -4.94958E+005    9.01348E+005    3.15516E+004   -4.11670E+005   -9.49255E+003   -7.89454E+004   -6.21683E+003    4.49015E+005    1.67898E+004   -3.09722E+003
            2732    7.86934E+005    4.09155E+005   -4.98448E+005   -6.46484E+003   -4.98448E+005    9.07603E+005    3.19193E+004   -4.13520E+005   -8.75733E+003   -8.05215E+004   -6.47908E+003    4.52343E+005    5.78835E+003   -1.03017E+003
            2733    7.09870E+005    3.61901E+005   -4.56008E+005   -3.04453E+002   -4.56008E+005    8.17908E+005    3.14704E+004   -4.12646E+005   -3.58768E+004   -5.89510E+004    4.16510E+002    4.02237E+005    7.25967E+004   -3.32750E+003
            2734    7.19528E+005    3.65861E+005   -4.63296E+005   -2.95123E+003   -4.63296E+005    8.29157E+005    3.34621E+004   -4.13496E+005   -3.40804E+004   -6.26705E+004   -3.63523E+003    4.08842E+005    6.70898E+004   -6.98855E+003
            2735    7.37254E+005    3.73535E+005   -4.76058E+005   -4.48991E+003   -4.76058E+005    8.49593E+005    3.56708E+004   -4.23318E+005   -2.96863E+004   -7.19716E+004   -5.35464E+003    4.20376E+005    5.71671E+004   -7.76889E+003
            2736    7.54816E+005    3.80687E+005   -4.89174E+005   -6.76583E+003   -4.89174E+005    8.69861E+005    3.84176E+004   -4.32180E+005   -2.68876E+004   -8.07916E+004   -7.57343E+003    4.31303E+005    4.89175E+004   -7.75839E+003
            2737    7.74260E+005    3.89231E+005   -5.03042E+005   -8.26820E+003   -5.03042E+005    8.92273E+005    4.06933E+004   -4.43124E+005   -2.44923E+004   -8.88037E+004   -8.78393E+003    4.43416E+005    3.70077E+004   -6.45050E+003
            2738    7.88212E+005    3.95283E+005   -5.13115E+005   -1.00572E+004   -5.13115E+005    9.08398E+005    4.26298E+004   -4.49131E+005   -2.27538E+004   -9.48692E+004   -1.02666E+004    4.52153E+005    2.33858E+004   -4.21736E+003
            2739    7.96391E+005    3.99030E+005   -5.18812E+005   -1.07597E+004   -5.18812E+005    9.17841E+005    4.35140E+004   -4.53079E+005   -2.17936E+004   -9.79637E+004   -1.07847E+004    4.57269E+005    7.88847E+003   -1.47580E+003
            2740    7.07830E+005    3.43745E+005   -4.71430E+005   -1.24495E+004   -4.71430E+005    8.15175E+005    4.67114E+004   -4.24887E+005   -4.89280E+004   -8.14283E+004   -9.77802E+003    3.99253E+005    7.94839E+004   -2.62675E+002
            2741    7.12041E+005    3.46405E+005   -4.73066E+005   -5.42561E+003   -4.73066E+005    8.19471E+005    4.40286E+004   -4.43608E+005   -4.39604E+004   -8.32587E+004   -4.86682E+003    4.02584E+005    7.32060E+004   -5.58896E+003
            2742    7.24654E+005    3.48920E+005   -4.85163E+005   -1.02213E+004   -4.85163E+005    8.34083E+005    4.88216E+004   -4.48867E+005   -4.65697E+004   -8.99266E+004   -9.96849E+003    4.10335E+005    7.08937E+004   -6.19028E+003
            2743    7.48006E+005    3.57023E+005   -5.03908E+005   -1.33438E+004   -5.03908E+005    8.60931E+005    5.34097E+004   -4.64174E+005   -4.67818E+004   -9.98469E+004   -1.36004E+004    4.25193E+005    6.14126E+004   -7.15372E+003
            2744    7.68692E+005    3.62949E+005   -5.21844E+005   -1.82670E+004   -5.21844E+005    8.84794E+005    5.90541E+004   -4.75538E+005   -4.89396E+004   -1.09678E+005   -1.85450E+004    4.38706E+005    4.80304E+004   -6.28359E+003
            2745    7.86452E+005    3.69245E+005   -5.35989E+005   -2.07566E+004   -5.35989E+005    9.05234E+005    6.25004E+004   -4.86580E+005   -4.93240E+004   -1.17206E+005   -2.09714E+004    4.50291E+005    3.06222E+004   -4.86161E+003
            2746    7.95942E+005    3.72206E+005   -5.43939E+005   -2.23549E+004   -5.43939E+005    9.16145E+005    6.46958E+004   -4.92808E+005   -5.00979E+004   -1.21612E+005   -2.23773E+004    4.56549E+005    1.06453E+004   -1.63817E+003
            2747    7.44520E+005    3.17234E+005   -5.38740E+005   -4.15359E+004   -5.38740E+005    8.55975E+005    8.76805E+004   -4.84564E+005   -9.14897E+004   -1.29995E+005   -4.15573E+004    4.27319E+005    1.41144E+004   -1.79042E+003
            2748    7.34089E+005    3.16133E+005   -5.27790E+005   -3.70306E+004   -5.27790E+005    8.43923E+005    8.28957E+004   -4.79026E+005   -8.85284E+004   -1.23007E+005   -3.71521E+004    4.19734E+005    3.95403E+004   -4.71246E+003
            2749    7.19771E+005    3.16000E+005   -5.11369E+005   -2.93811E+004   -5.11369E+005    8.27369E+005    7.49169E+004   -4.71595E+005   -8.36358E+004   -1.11676E+005   -2.94393E+004    4.08968E+005    6.03956E+004   -6.31214E+003
            2750    7.04257E+005    3.16971E+005   -4.92605E+005   -2.13532E+004   -4.92605E+005    8.09577E+005    6.56625E+004   -4.60603E+005   -7.69904E+004   -9.91026E+004   -2.08945E+004    3.97247E+005    7.65165E+004   -6.36684E+003
            2751    6.91765E+005    3.19373E+005   -4.75706E+005   -1.16444E+004   -4.75706E+005    7.95079E+005    5.59925E+004   -4.55203E+005   -7.10401E+004   -8.65481E+004   -1.03892E+004    3.87646E+005    8.71216E+004   -5.73623E+003
            2752    6.71032E+005    3.17023E+005   -4.54290E+005   -4.68250E+003   -4.54290E+005    7.71314E+005    4.73165E+004   -4.40272E+005   -6.48709E+004   -7.45570E+004   -2.52157E+003    3.74524E+005    9.09975E+004   -4.19057E+003
            2753    6.67506E+005    3.17492E+005   -4.48744E+005    6.66753E+003   -4.48744E+005    7.66236E+005    4.15281E+004   -4.56487E+005   -6.35813E+004   -6.87260E+004    7.72302E+003    3.75660E+005    7.45008E+004   -4.94548E+003
            2754    7.86719E+005    5.43767E+005    5.43767E+005    2.56993E+004   -3.61510E+005    9.05277E+005   -6.93188E+004    4.93745E+005    6.15386E+004    1.20672E+005    2.57453E+004    4.51520E+005   -1.16399E+004   -2.11652E+003
            2755    7.99490E+005    5.32047E+005    5.32047E+005    1.59605E+004   -3.88887E+005    9.20934E+005   -5.30404E+004    4.73211E+005    3.15442E+004    1.11602E+005    1.59750E+004    4.58621E+005   -9.66684E+003   -1.35153E+003
            2756    7.93870E+005    5.12100E+005    5.12100E+005    9.28768E+003   -4.03095E+005    9.15195E+005   -3.94308E+004    4.39885E+005    1.81716E+004    9.08059E+004    9.31503E+003    4.56088E+005   -7.65470E+003   -1.49906E+003
            2757    7.81293E+005    4.91594E+005    4.91594E+005    5.77525E+003   -4.09650E+005    9.01244E+005   -2.92396E+004    4.00581E+005    6.26200E+003    7.56643E+004    5.79239E+003    4.49242E+005   -6.04286E+003   -1.10710E+003
            2758    7.67127E+005    4.69802E+005    4.69802E+005    2.70111E+003   -4.15551E+005    8.85353E+005   -1.89843E+004    3.50510E+005    1.72136E+003    5.25182E+004    2.71342E+003    4.41927E+005   -4.15098E+003   -8.89174E+002
            2759    7.53690E+005    4.52601E+005    4.52601E+005    1.92527E+003   -4.17497E+005    8.70099E+005   -1.23431E+004    2.98567E+005    6.76261E+001    3.50281E+004    1.93366E+003    4.34689E+005   -2.66886E+003   -7.84649E+002
            2760    7.48590E+005    4.37213E+005    4.37213E+005    6.67205E+001   -4.27165E+005    8.64378E+005   -3.37154E+003    2.02741E+005   -7.64742E+002    1.08106E+004    6.87960E+001    4.32149E+005   -8.29594E+002   -5.50573E+002
            2761    7.45481E+005    4.27375E+005   -4.33424E+005    2.47141E+002   -4.33424E+005    8.60799E+005    1.93393E+003   -1.76028E+005    1.14935E+003   -7.19682E+003    2.45679E+002    4.30379E+005    4.74165E+002   -6.66569E+002
            2762    7.55270E+005    4.19349E+005   -4.52594E+005   -1.82840E+003   -4.52594E+005    8.71943E+005    1.16910E+004   -2.93581E+005   -3.18035E+001   -3.32070E+004   -1.83414E+003    4.35649E+005    2.29887E+003   -6.26740E+002
            2763    7.76828E+005    5.34474E+005    5.34474E+005    2.34135E+004   -3.59472E+005    8.93946E+005   -6.61384E+004    4.86252E+005    5.94353E+004    1.15254E+005    2.37266E+004    4.44803E+005   -3.38476E+004   -5.55390E+003
            2764    7.90040E+005    5.23832E+005    5.23832E+005    1.41487E+004   -3.86243E+005    9.10074E+005   -5.05793E+004    4.66730E+005    3.08831E+004    1.06491E+005    1.43642E+004    4.52619E+005   -2.75019E+004   -4.57899E+003
            2765    7.85749E+005    5.05899E+005    5.05899E+005    8.67911E+003   -3.99963E+005    9.05862E+005   -3.82053E+004    4.33892E+005    1.86060E+004    8.71378E+004    8.87211E+003    4.51089E+005   -2.20059E+004   -3.89187E+003
            2766    7.74247E+005    4.86111E+005    4.86111E+005    5.03924E+003   -4.07024E+005    8.93135E+005   -2.80423E+004    3.95551E+005    6.61680E+003    7.23428E+004    5.16744E+003    4.45034E+005   -1.68247E+004   -2.96778E+003
            2767    7.61495E+005    4.65734E+005    4.65734E+005    2.60927E+003   -4.13139E+005    8.78873E+005   -1.84016E+004    3.45258E+005    2.42742E+003    5.00670E+004    2.71032E+003    4.38621E+005   -1.20594E+004   -2.49007E+003
            2768    7.49065E+005    4.49064E+005    4.49064E+005    1.65162E+003   -4.15707E+005    8.64772E+005   -1.16695E+004    2.93493E+005    3.17938E+002    3.29872E+004    1.70343E+003    4.32016E+005   -7.08398E+003   -1.83616E+003
            2769    7.44967E+005    4.34605E+005    4.34605E+005    1.43628E+002   -4.25594E+005    8.60199E+005   -3.05165E+003    1.93652E+005   -4.40339E+002    9.43108E+003    1.64207E+002    4.30060E+005   -2.65234E+003   -1.69628E+003
            2770    7.42197E+005    4.24928E+005   -4.32077E+005    1.14888E+002   -4.32077E+005    8.57005E+005    2.34486E+003   -1.82688E+005    8.98730E+002   -8.03257E+003    9.92587E+001    4.28471E+005    2.16973E+003   -1.56289E+003
            2771    7.52228E+005    4.17267E+005   -4.51153E+005   -1.70781E+003   -4.51153E+005    8.68420E+005    1.18646E+004   -2.95672E+005   -2.91760E+002   -3.35475E+004   -1.75455E+003    4.33840E+005    6.45479E+003   -1.80721E+003
            2772    7.60436E+005    5.20424E+005    5.20424E+005    1.94430E+004   -3.54588E+005    8.75012E+005   -6.17594E+004    4.77820E+005    5.86157E+004    1.06691E+005    1.99719E+004    4.33693E+005   -5.21710E+004   -7.45411E+003
            2773    7.73194E+005    5.10134E+005    5.10134E+005    1.22128E+004   -3.80609E+005    8.90743E+005   -4.72458E+004    4.54145E+005    3.12195E+004    9.79563E+004    1.25616E+004    4.42021E+005   -4.29245E+004   -5.96186E+003
            2774    7.71772E+005    4.95206E+005    4.95206E+005    6.87466E+003   -3.94546E+005    8.89752E+005   -3.58449E+004    4.26024E+005    1.92135E+004    8.10269E+004    7.29430E+003    4.42442E+005   -3.45204E+004   -5.58204E+003
            2775    7.61654E+005    4.76751E+005    4.76751E+005    4.59323E+003   -4.01915E+005    8.78665E+005   -2.64764E+004    3.84817E+005    7.97461E+003    6.65617E+004    4.89289E+003    4.37540E+005   -2.65508E+004   -4.34935E+003
            2776    7.51793E+005    4.58691E+005    4.58691E+005    2.05225E+003   -4.09007E+005    8.67697E+005   -1.72454E+004    3.37942E+005    3.57485E+003    4.59054E+004    2.25597E+003    4.32928E+005   -1.85430E+004   -3.31753E+003
            2777    7.40775E+005    4.43095E+005    4.43095E+005    1.68769E+003   -4.12130E+005    8.55225E+005   -1.08842E+004    2.83141E+005    1.03211E+003    2.98102E+004    1.81029E+003    4.27219E+005   -1.11149E+004   -2.72169E+003
            2778    7.38345E+005    4.29777E+005    4.29777E+005   -1.19901E+002   -4.22780E+005    8.52557E+005   -2.29213E+003    1.80870E+005   -2.22786E+001    6.98597E+003   -8.72890E+001    4.26246E+005   -3.35552E+003   -2.09944E+003
            2779    7.36014E+005    4.20728E+005   -4.29132E+005    2.42430E+002   -4.29132E+005    8.49861E+005    2.72047E+003   -1.93298E+005    4.19590E+002   -8.78203E+003    2.01040E+002    4.24882E+005    3.77271E+003   -2.37048E+003
            2780    7.45980E+005    4.13104E+005   -4.48095E+005   -2.02912E+003   -4.48095E+005    8.61198E+005    1.23402E+004   -2.95511E+005   -1.06212E+003   -3.38209E+004   -2.13749E+003    4.30131E+005    1.14000E+004   -2.46554E+003
            2781    7.40757E+005    5.01028E+005    5.01028E+005    1.43386E+004   -3.51472E+005    8.52500E+005   -5.46314E+004    4.61998E+005    5.34706E+004    9.56348E+004    1.47888E+004    4.20432E+005   -6.66816E+004   -7.88391E+003
            2782    7.52959E+005    4.92796E+005    4.92796E+005    7.99185E+003   -3.74643E+005    8.67439E+005   -4.20485E+004    4.42006E+005    3.04495E+004    8.71558E+004    8.54000E+003    4.29198E+005   -5.54406E+004   -7.23894E+003
            2783    7.53986E+005    4.82208E+005    4.82208E+005    5.86783E+003   -3.87088E+005    8.69296E+005   -3.36629E+004    4.13724E+005    2.11824E+004    7.33818E+004    6.42441E+003    4.31523E+005   -4.48351E+004   -6.18602E+003
            2784    7.46395E+005    4.64998E+005    4.64998E+005    2.82786E+003   -3.96091E+005    8.61089E+005   -2.39118E+004    3.74991E+005    9.17038E+003    5.93670E+004    3.19815E+003    4.28427E+005   -3.43459E+004   -4.57578E+003
            2785    7.39339E+005    4.50089E+005    4.50089E+005    2.00314E+003   -4.03268E+005    8.53357E+005   -1.62749E+004    3.27313E+005    5.57733E+003    4.09593E+004    2.28797E+003    4.25614E+005   -2.42384E+004   -3.61029E+003
            2786    7.30250E+005    4.35303E+005    4.35303E+005    9.74969E+002   -4.07788E+005    8.43091E+005   -9.49673E+003    2.73424E+005    1.69730E+003    2.56827E+004    1.11020E+003    4.21145E+005   -1.37559E+004   -2.47378E+003
            2787    7.29416E+005    4.23723E+005    4.23723E+005    1.83594E+002   -4.18529E+005    8.42252E+005   -1.79281E+003    1.56768E+005    5.28671E+002    4.62562E+003    2.24152E+002    4.21098E+005   -3.79957E+003   -2.26810E+003
            2788    7.27514E+005    4.14754E+005   -4.25285E+005   -7.38026E+001   -4.25285E+005    8.40039E+005    3.53502E+003   -2.02006E+005   -4.21105E+002   -1.00445E+004   -1.39502E+002    4.19935E+005    6.59778E+003   -2.16939E+003
            2789    7.37574E+005    4.07815E+005   -4.43651E+005   -1.48651E+003   -4.43651E+005    8.51466E+005    1.24409E+004   -2.99255E+005   -2.27650E+003   -3.33957E+004   -1.65033E+003    4.25138E+005    1.60889E+004   -2.76830E+003
            2790    7.23572E+005    4.87253E+005    4.87253E+005    1.01726E+004   -3.45301E+005    8.32554E+005   -5.07083E+004    4.55654E+005    5.52957E+004    8.68862E+004    9.94286E+003    4.08913E+005   -7.59622E+004   -6.55108E+003
            2791    7.32356E+005    4.76250E+005    4.76250E+005    5.98266E+003   -3.67556E+005    8.43806E+005   -3.82256E+004    4.26108E+005    3.19287E+004    7.64549E+004    6.29332E+003    4.16298E+005   -6.46209E+004   -6.47999E+003
            2792    7.36590E+005    4.69149E+005    4.69149E+005    3.88014E+003   -3.80096E+005    8.49245E+005   -3.09775E+004    4.03901E+005    2.29117E+004    6.57349E+004    4.28591E+003    4.20790E+005   -5.26120E+004   -5.49175E+003
            2793    7.30548E+005    4.53742E+005    4.53742E+005    2.72912E+003   -3.89131E+005    8.42873E+005   -2.24469E+004    3.61526E+005    1.18972E+004    5.23668E+004    3.07689E+003    4.18925E+005   -4.11522E+004   -4.20827E+003
            2794    7.26307E+005    4.40952E+005    4.40952E+005    1.21793E+003   -3.97379E+005    8.38331E+005   -1.49303E+004    3.19179E+005    7.48313E+003    3.58966E+004    1.41124E+003    4.17947E+005   -2.85566E+004   -2.59938E+003
            2795    7.18726E+005    4.27470E+005    4.27470E+005    1.26357E+003   -4.02341E+005    8.29811E+005   -8.79782E+003    2.59664E+005    2.99118E+003    2.20239E+004    1.37836E+003    4.14477E+005   -1.62174E+004   -1.87318E+003
            2796    7.18943E+005    4.16452E+005    4.16452E+005   -4.04598E+002   -4.13709E+005    8.30161E+005   -7.79446E+002    1.40170E+005    6.81645E+002    2.04327E+003   -3.86577E+002    4.15067E+005   -3.07686E+003   -1.22518E+003
            2797    7.17557E+005    4.08178E+005   -4.20351E+005    4.29736E+002   -4.20351E+005    8.28529E+005    3.91427E+003   -2.15902E+005   -1.40719E+003   -1.06911E+004    3.55509E+002    4.14126E+005    9.52144E+003   -1.74257E+003
            2798    7.27362E+005    4.00757E+005   -4.38897E+005   -1.98708E+003   -4.38897E+005    8.39654E+005    1.33758E+004   -3.00346E+005   -4.58380E+003   -3.34281E+004   -2.11533E+003    4.18987E+005    2.22410E+004   -2.04255E+003
            2799    7.06712E+005    4.69150E+005    4.69150E+005    5.68418E+003   -3.44254E+005    8.13404E+005   -4.35269E+004    4.38506E+005    4.83347E+004    7.71287E+004    5.11737E+003    3.97715E+005   -8.33730E+004   -6.18720E+003
            2800    7.14697E+005    4.61277E+005    4.61277E+005    1.17869E+003   -3.62089E+005    8.23366E+005   -3.34556E+004    4.19335E+005    3.26639E+004    6.63313E+004    1.37164E+003    4.04967E+005   -7.19028E+004   -6.34229E+003
            2801    7.20942E+005    4.58891E+005    4.58891E+005    3.05620E+003   -3.72283E+005    8.31174E+005   -2.98882E+004    3.96844E+005    2.73949E+004    5.91548E+004    3.11494E+003    4.10850E+005   -6.03861E+004   -4.33007E+003
            2802    7.16625E+005    4.43666E+005    4.43666E+005    4.36419E+002   -3.83103E+005    8.26769E+005   -2.03330E+004    3.57978E+005    1.43645E+004    4.62004E+004    4.34014E+002    4.10324E+005   -4.75447E+004   -2.64352E+003
            2803    7.13778E+005    4.33265E+005    4.33265E+005    1.17673E+003   -3.90606E+005    8.23871E+005   -1.46117E+004    3.13356E+005    1.06946E+004    3.19619E+004    1.17859E+003    4.10402E+005   -3.38583E+004   -1.28175E+003
            2804    7.06883E+005    4.19354E+005    4.19354E+005    2.13870E+002   -3.96785E+005    8.16138E+005   -7.59421E+003    2.55043E+005    4.08959E+003    1.85082E+004    1.84884E+002    4.07596E+005   -1.82712E+004   -8.68624E+001
            2805    7.07631E+005    4.09123E+005    4.09123E+005    2.46290E+002   -4.07978E+005    8.17101E+005   -4.63844E+002    7.88492E+004    7.48161E+002    3.99945E+002    2.43425E+002    4.08543E+005   -2.45903E+003    2.37486E+002
            2806    7.06473E+005    4.00723E+005   -4.15002E+005   -1.26887E+002   -4.15002E+005    8.15725E+005    4.80222E+003   -2.18971E+005   -2.85279E+003   -1.14440E+004   -1.09864E+002    4.07603E+005    1.38779E+004    5.72793E+001
            2807    7.15628E+005    3.93062E+005   -4.32977E+005   -7.60440E+002   -4.32977E+005    8.26039E+005    1.35586E+004   -3.08868E+005   -7.81370E+003   -3.20781E+004   -7.84002E+002    4.11830E+005    2.88628E+004   -1.26580E+003
            2808    6.98788E+005    4.69984E+005    4.69984E+005    7.33588E+003   -3.33854E+005    8.03838E+005   -4.78221E+004    4.44909E+005    6.21763E+004    7.66717E+004    4.61840E+003    3.92625E+005   -8.46135E+004   -1.32329E+003
            2809    7.02376E+005    4.51706E+005    4.51706E+005    1.44384E+003   -3.57617E+005    8.09323E+005   -3.18441E+004    4.06375E+005    3.39980E+004    6.13765E+004    1.57927E+002    3.96694E+005   -7.82940E+004   -2.70087E+003
            2810    7.09305E+005    4.51691E+005    4.51691E+005    1.30792E+003   -3.65936E+005    8.17628E+005   -2.90211E+004    3.96756E+005    3.21482E+004    5.43619E+004    5.53123E+002    4.02882E+005   -6.82243E+004   -2.28886E+003
            2811    7.06187E+005    4.37945E+005    4.37945E+005    7.01163E+002   -3.76759E+005    8.14704E+005   -2.06290E+004    3.54670E+005    1.89773E+004    4.27838E+004    1.25967E+002    4.03169E+005   -5.68379E+004   -9.36350E+002
            2812    7.01027E+005    4.25362E+005    4.25362E+005    2.65101E+002   -3.83767E+005    8.09129E+005   -1.39536E+004    3.11540E+005    1.36541E+004    2.83698E+004   -1.63114E+002    4.02459E+005   -4.04414E+004    7.13508E+002
            2813    6.95286E+005    4.12262E+005    4.12262E+005    1.22374E+003   -3.90507E+005    8.02769E+005   -7.65936E+003    2.40994E+005    6.23739E+003    1.58253E+004    9.15423E+002    4.00770E+005   -2.14633E+004    2.48440E+003
            2814    6.95184E+005    4.01094E+005   -4.01635E+005   -6.74497E+002   -4.01635E+005    8.02729E+005    4.05323E+002    8.36530E+004    1.08976E+002   -6.34730E+002   -6.90214E+002    4.01351E+005   -9.93375E+002    3.16517E+003
            2815    6.95012E+005    3.93291E+005   -4.09180E+005    5.17064E+002   -4.09180E+005    8.02471E+005    5.12405E+003   -2.30582E+005   -4.42659E+003   -1.17126E+004    7.67013E+002    4.00760E+005    1.89811E+004    2.34628E+003
            2816    7.03126E+005    3.84349E+005   -4.27235E+005   -1.83165E+003   -4.27235E+005    8.11584E+005    1.49059E+004   -3.07432E+005   -1.28191E+004   -3.04805E+004   -1.41816E+003    4.03884E+005    3.81822E+004    8.28240E+002
            2817    6.89445E+005    3.76893E+005   -4.18832E+005    2.92820E+002   -4.18832E+005    7.95724E+005    1.38819E+004   -3.11692E+005   -1.71859E+004   -2.60632E+004    1.60322E+003    3.94492E+005    5.10901E+004    3.33269E+003
            2818    6.83556E+005    3.83598E+005   -4.05629E+005   -1.53725E+003   -4.05629E+005    7.89227E+005    7.85593E+003   -2.36824E+005   -8.73147E+003   -1.42054E+004   -6.30908E+002    3.93627E+005    2.68749E+004    6.18804E+003
            2819    6.80224E+005    3.93113E+005    3.93113E+005    7.02067E+002   -3.92342E+005    7.85455E+005   -4.91169E+002   -7.60086E+004    4.10783E+002    3.66815E+002    6.95909E+002    3.92668E+005   -1.78472E+002    6.87226E+003
            2820    6.83748E+005    4.05335E+005    4.05335E+005    2.39746E+002   -3.84098E+005    7.89433E+005   -7.15866E+003    2.44139E+005    8.83121E+003    1.33096E+004   -6.64830E+002    3.93714E+005   -2.71689E+004    6.08370E+003
            2821    6.89744E+005    4.19971E+005    4.19971E+005    1.06282E+003   -3.76111E+005    7.96083E+005   -1.49742E+004    3.09844E+005    1.81268E+004    2.71762E+004   -3.80445E+002    3.94631E+005   -5.13504E+004    3.82476E+003
            2822    6.96473E+005    4.33611E+005    4.33611E+005   -1.55138E+003   -3.69675E+005    8.03286E+005   -2.07948E+004    3.65001E+005    2.70345E+004    3.83984E+004   -3.04862E+003    3.95267E+005   -7.06839E+004    5.83534E+002
            2823    7.04201E+005    4.49290E+005    4.49290E+005   -1.30878E+003   -3.62201E+005    8.11490E+005   -2.85934E+004    4.04872E+005    3.67655E+004    5.19868E+004   -2.97198E+003    3.96926E+005   -8.33135E+004   -1.68401E+003
            2824    7.00340E+005    4.56213E+005    4.56213E+005   -9.88062E+002   -3.50055E+005    8.06269E+005   -3.50567E+004    4.28946E+005    4.70493E+004    6.08591E+004   -2.73848E+003    3.94013E+005   -8.43794E+004   -2.61875E+003
            2825    6.74183E+005    4.40546E+005    4.40546E+005   -3.22234E+003   -3.35257E+005    7.75802E+005   -3.40221E+004    4.22615E+005    4.92077E+004    5.69841E+004   -4.12543E+003    3.77217E+005   -8.98878E+004   -5.34255E+003
            2826    7.42242E+005    5.40311E+005    5.40311E+005    4.30043E+004   -3.12857E+005    8.53168E+005   -9.01530E+004    4.86961E+005    9.27391E+004    1.34711E+005    4.30092E+004    4.25818E+005   -1.44965E+004   -1.64155E+003
            2827    7.31552E+005    5.28299E+005    5.28299E+005    3.78919E+004   -3.12551E+005    8.40849E+005   -8.45467E+004    4.80569E+005    8.89877E+004    1.26678E+005    3.79750E+004    4.17966E+005   -4.10932E+004   -4.81032E+003
            2828    7.16418E+005    5.09943E+005    5.09943E+005    3.00459E+004   -3.13554E+005    8.23497E+005   -7.54782E+004    4.69764E+005    8.27492E+004    1.13788E+005    2.98978E+004    4.06603E+005   -6.26381E+004   -6.02005E+003
            2829    7.03417E+005    4.91546E+005    4.91546E+005    2.08049E+004   -3.17060E+005    8.08605E+005   -6.50969E+004    4.60174E+005    7.51444E+004    9.98202E+004    2.03260E+004    3.96285E+005   -7.86754E+004   -6.70978E+003
            2830    6.91819E+005    4.73842E+005    4.73842E+005    1.32003E+004   -3.21695E+005    7.95537E+005   -5.51156E+004    4.46944E+005    6.77740E+004    8.56316E+004    1.19414E+004    3.87281E+005   -8.96674E+004   -5.76399E+003
            2831    6.84485E+005    4.60591E+005    4.60591E+005    4.44164E+003   -3.26470E+005    7.87061E+005   -4.61877E+004    4.43160E+005    6.10270E+004    7.48806E+004    2.65558E+003    3.81590E+005   -9.52087E+004   -5.32834E+003
            2832    6.71879E+005    4.42509E+005    4.42509E+005   -1.01515E+003   -3.30512E+005    7.73021E+005   -3.69942E+004    4.24455E+005    5.40102E+004    5.89594E+004   -1.98714E+003    3.73521E+005   -9.88552E+004   -6.17187E+003
            2833    7.76478E+005    3.09181E+005   -5.79827E+005   -3.44952E+004   -5.79827E+005    8.89008E+005    1.01714E+005   -5.62810E+005   -7.42436E+004   -1.96352E+005   -3.45459E+004    4.40178E+005   -9.77985E+003    2.94102E+003
            2834    7.76421E+005    3.44433E+005   -5.47026E+005   -1.88047E+004   -5.47026E+005    8.91460E+005    7.37994E+004   -5.27692E+005   -3.40207E+004   -1.68535E+005   -1.88422E+004    4.40564E+005   -7.22037E+003    2.37099E+003
            2835    7.46193E+005    3.61781E+005   -4.97112E+005   -8.25365E+003   -4.97112E+005    8.58894E+005    4.78615E+004   -4.61675E+005   -8.77172E+003   -1.26534E+005   -8.27883E+003    4.25355E+005   -5.41864E+003    1.74195E+003
            2836    7.28392E+005    3.73487E+005   -4.66212E+005   -4.73163E+003   -4.66212E+005    8.39700E+005    3.24856E+004   -4.04071E+005   -1.66648E+003   -9.10409E+004   -4.74949E+003    4.17449E+005   -3.52026E+003    1.42255E+003
            2837    7.66028E+005    3.07048E+005   -5.69959E+005   -3.17439E+004   -5.69959E+005    8.77007E+005    9.82181E+004   -5.55662E+005   -7.41646E+004   -1.88341E+005   -3.21493E+004    4.33798E+005   -2.85961E+004    8.24411E+003
            2838    7.68138E+005    3.41089E+005   -5.40812E+005   -1.78610E+004   -5.40812E+005    8.81901E+005    7.25280E+004   -5.22864E+005   -3.53169E+004   -1.64139E+005   -1.81288E+004    4.35665E+005   -2.15875E+004    6.32693E+003
            2839    7.40638E+005    3.59204E+005   -4.93254E+005   -7.59957E+003   -4.93254E+005    8.52458E+005    4.72164E+004   -4.59395E+005   -1.05118E+004   -1.23289E+005   -7.84876E+003    4.22167E+005   -1.58348E+004    5.49182E+003
            2840    7.24507E+005    3.71083E+005   -4.64128E+005   -4.96332E+003   -4.64128E+005    8.35211E+005    3.26693E+004   -4.02396E+005   -2.88236E+003   -9.00188E+004   -5.10664E+003    4.15175E+005   -1.08120E+004    3.85859E+003
            2841    7.46361E+005    3.02913E+005   -5.51570E+005   -2.71214E+004   -5.51570E+005    8.54483E+005    9.19261E+004   -5.41494E+005   -7.34481E+004   -1.74433E+005   -2.78976E+004    4.21786E+005   -4.49925E+004    1.15173E+004
            2842    7.53775E+005    3.36101E+005   -5.29201E+005   -1.52164E+004   -5.29201E+005    8.65302E+005    6.94390E+004   -5.14865E+005   -3.72182E+004   -1.55217E+005   -1.58818E+004    4.27216E+005   -3.39293E+004    9.74977E+003
            2843    7.29354E+005    3.53887E+005   -4.85587E+005   -7.36213E+003   -4.85587E+005    8.39473E+005    4.63539E+004   -4.52315E+005   -1.39555E+004   -1.17183E+005   -7.92362E+003    4.15715E+005   -2.57968E+004    7.93198E+003
            2844    7.17717E+005    3.67465E+005   -4.59875E+005   -4.39050E+003   -4.59875E+005    8.27341E+005    3.22669E+004   -4.00678E+005   -4.79070E+003   -8.72887E+004   -4.72133E+003    4.11219E+005   -1.73938E+004    5.66410E+003
            2845    7.24122E+005    2.98702E+005   -5.29956E+005   -1.89511E+004   -5.29956E+005    8.28658E+005    8.34017E+004   -5.29508E+005   -7.34392E+004   -1.56883E+005   -1.98832E+004    4.08143E+005   -5.71538E+004    1.30339E+004
            2846    7.33935E+005    3.28999E+005   -5.13576E+005   -1.34795E+004   -5.13576E+005    8.42575E+005    6.60187E+004   -5.00527E+005   -4.03841E+004   -1.43327E+005   -1.43448E+004    4.15684E+005   -4.45808E+004    1.10030E+004
            2847    7.15891E+005    3.48203E+005   -4.75717E+005   -5.72820E+003   -4.75717E+005    8.23919E+005    4.44140E+004   -4.45532E+005   -1.84608E+004   -1.08204E+005   -6.57717E+003    4.08047E+005   -3.39998E+004    9.36408E+003
            2848    7.08251E+005    3.61109E+005   -4.55269E+005   -5.06335E+003   -4.55269E+005    8.16378E+005    3.30745E+004   -3.97764E+005   -8.89689E+003   -8.48170E+004   -5.50961E+003    4.05657E+005   -2.45110E+004    6.10266E+003
            2849    6.97501E+005    2.94135E+005   -5.04041E+005   -1.17167E+004   -5.04041E+005    7.98176E+005    7.38743E+004   -5.10240E+005   -7.18373E+004   -1.37152E+005   -1.26332E+004    3.92134E+005   -6.59014E+004    1.33402E+004
            2850    7.16407E+005    3.23485E+005   -4.98872E+005   -1.00023E+004   -4.98872E+005    8.22357E+005    6.17963E+004   -4.90135E+005   -4.42256E+004   -1.30414E+005   -1.07492E+004    4.05548E+005   -5.18265E+004    1.06349E+004
            2851    7.00268E+005    3.40487E+005   -4.65407E+005   -5.21783E+003   -4.65407E+005    8.05894E+005    4.33795E+004   -4.37013E+005   -2.47181E+004   -9.94112E+004   -6.00922E+003    3.98856E+005   -4.30587E+004    8.75083E+003
            2852    6.97787E+005    3.55046E+005   -4.49109E+005   -3.35663E+003   -4.49109E+005    8.04155E+005    3.24733E+004   -3.98880E+005   -1.36210E+004   -8.00419E+004   -3.75685E+003    3.99487E+005   -3.09866E+004    5.55403E+003
            2853    6.82210E+005    2.92277E+005   -4.87876E+005   -3.29099E+003   -4.87876E+005    7.80153E+005    6.62966E+004   -5.04727E+005   -7.47363E+004   -1.19993E+005   -4.16016E+003    3.83576E+005   -6.66094E+004    1.27199E+004
            2854    7.01998E+005    3.17358E+005   -4.88658E+005   -1.11197E+004   -4.88658E+005    8.06016E+005    6.08068E+004   -4.76999E+005   -5.05218E+004   -1.21063E+005   -1.08361E+004    3.96889E+005   -5.97854E+004    7.41101E+003
            2855    6.86864E+005    3.34097E+005   -4.56132E+005   -2.39700E+003   -4.56132E+005    7.90228E+005    4.14773E+004   -4.34735E+005   -3.13857E+004   -9.04053E+004   -2.64096E+003    3.90809E+005   -4.98340E+004    6.58408E+003
            2856    6.88090E+005    3.46616E+005   -4.46167E+005   -4.06855E+003   -4.46167E+005    7.92783E+005    3.45400E+004   -4.01123E+005   -2.15468E+004   -7.80489E+004   -4.02438E+003    3.93382E+005   -3.95576E+004    3.50875E+003
            2857    6.68051E+005    2.94230E+005   -4.70893E+005   -3.29151E+003   -4.70893E+005    7.65123E+005    5.99851E+004   -4.81164E+005   -7.44553E+004   -1.01627E+005   -3.87339E+003    3.74700E+005   -7.54139E+004    1.14338E+004
            2858    6.94548E+005    3.10209E+005   -4.85917E+005   -3.98148E+003   -4.85917E+005    7.96126E+005    5.98967E+004   -4.91896E+005   -6.23920E+004   -1.15106E+005   -2.19211E+003    3.91600E+005   -6.51123E+004    4.10469E+003
            2859    6.80473E+005    3.26395E+005   -4.55840E+005   -5.08415E+002   -4.55840E+005    7.82236E+005    4.33178E+004   -4.45036E+005   -4.11986E+004   -8.91326E+004    3.77685E+002    3.85269E+005   -6.23608E+004    4.51909E+003
            2860    6.75798E+005    3.38056E+005   -4.40048E+005    1.79786E+002   -4.40048E+005    7.78104E+005    3.39373E+004   -4.11303E+005   -3.10019E+004   -7.14553E+004    6.45106E+002    3.85263E+005   -4.99270E+004    2.88009E+003
            2861    6.63571E+005    3.29527E+005   -4.34354E+005   -5.39239E+002   -4.34354E+005    7.63881E+005    3.51221E+004   -4.08099E+005   -4.20237E+004   -6.52904E+004    1.94769E+003    3.75937E+005   -6.54146E+004   -1.37527E+003
            2862    6.74497E+005    3.16910E+005   -4.57345E+005    2.87932E+003   -4.57345E+005    7.74255E+005    4.58517E+004   -4.61362E+005   -5.66602E+004   -8.55483E+004    4.65327E+003    3.78668E+005   -7.81836E+004    5.01597E+003
            2863    6.92523E+005    3.04756E+005   -4.88192E+005   -2.20887E+003   -4.88192E+005    7.92949E+005    6.18817E+004   -5.01216E+005   -7.49941E+004   -1.10885E+005    2.33615E+002    3.86448E+005   -8.51986E+004    6.78457E+003
            2864    6.91419E+005    2.87236E+005   -5.01840E+005   -2.04387E+003   -5.01840E+005    7.89076E+005    7.22160E+004   -5.26918E+005   -8.85853E+004   -1.28002E+005   -6.05545E+001    3.87553E+005   -6.94560E+004    6.21736E+003
            2865    7.47915E+005    2.40682E+005   -6.12538E+005   -7.02161E+004   -6.12538E+005    8.53220E+005    1.47357E+005   -5.72848E+005   -1.48237E+005   -2.23584E+005   -7.02517E+004    4.24752E+005   -1.25653E+004    2.89062E+003
            2866    7.35680E+005    2.42125E+005   -5.96993E+005   -6.28223E+004   -5.96993E+005    8.39118E+005    1.39230E+005   -5.64695E+005   -1.42939E+005   -2.11835E+005   -6.29167E+004    4.16513E+005   -3.63267E+004    7.13722E+003
            2867    7.17962E+005    2.46153E+005   -5.72530E+005   -5.01076E+004   -5.72530E+005    8.18683E+005    1.25495E+005   -5.52970E+005   -1.33587E+005   -1.92889E+005   -5.00086E+004    4.04343E+005   -5.55360E+004    9.64394E+003
            2868    6.98080E+005    2.51856E+005   -5.44281E+005   -3.69434E+004   -5.44281E+005    7.96137E+005    1.09790E+005   -5.36622E+005   -1.22211E+005   -1.71582E+005   -3.55767E+004    3.90710E+005   -7.04816E+004    8.75945E+003
            2869    6.81894E+005    2.60248E+005   -5.17172E+005   -2.03260E+004   -5.17172E+005    7.77419E+005    9.24167E+004   -5.26305E+005   -1.08684E+005   -1.51070E+005   -1.74955E+004    3.79369E+005   -7.97182E+004    7.62760E+003
            2870    6.58839E+005    2.62209E+005   -4.89094E+005   -9.87338E+003   -4.89094E+005    7.51303E+005    7.89194E+004   -5.07130E+005   -9.83812E+004   -1.33906E+005   -4.47142E+003    3.65258E+005   -8.24290E+004    3.02512E+003
            2871    6.60014E+005    2.66438E+005   -4.83440E+005    9.31710E+003   -4.83440E+005    7.49878E+005    6.92283E+004   -5.28277E+005   -8.77799E+004   -1.33408E+005    1.35027E+004    3.67921E+005   -6.46779E+004    1.86606E+003
            2872    6.53476E+005    3.41901E+005   -4.11598E+005   -7.62615E+001   -4.11598E+005    7.53499E+005    2.32579E+004   -3.54044E+005   -2.71907E+004   -4.46357E+004    2.05280E+003    3.73510E+005   -4.74033E+004   -5.46477E+003
            2873    6.44869E+005    3.54620E+005   -3.89804E+005   -2.40804E+003   -3.89804E+005    7.44424E+005    1.25306E+004   -2.66507E+005   -1.37965E+004   -2.28902E+004   -9.05124E+002    3.71140E+005   -2.54687E+004   -1.01670E+004
            2874    6.41575E+005    3.70150E+005   -3.70675E+005    9.62513E+002   -3.70675E+005    7.40826E+005   -1.45872E+002   -1.14792E+005    1.72679E+002   -7.19915E+002    9.84854E+002    3.70240E+005   -3.54151E+002   -1.12928E+004
            2875    6.44823E+005    3.89644E+005    3.89644E+005    6.12244E+002   -3.54679E+005    7.44323E+005   -1.18593E+004    2.76002E+005    1.38419E+004    2.25727E+004   -8.36705E+002    3.71133E+005    2.49058E+004   -9.96503E+003
            2876    6.53291E+005    4.11665E+005    4.11665E+005    1.97453E+003   -3.41728E+005    7.53393E+005   -2.39703E+004    3.47879E+005    2.82441E+004    4.40531E+004   -3.86350E+002    3.73439E+005    4.75031E+004   -6.49875E+003
            2877    6.63432E+005    4.34076E+005    4.34076E+005   -1.89789E+003   -3.29426E+005    7.63502E+005   -3.42507E+004    4.14003E+005    4.22288E+004    6.48108E+004   -4.28761E+003    3.75726E+005    6.55887E+004   -8.78833E+002
            2878    6.75454E+005    4.58741E+005    4.58741E+005   -8.38695E+002   -3.16784E+005    7.75525E+005   -4.70395E+004    4.59179E+005    5.86217E+004    8.61367E+004   -3.64004E+003    3.79536E+005    7.68869E+004    2.14860E+003
            2879    6.75637E+005    4.72936E+005    4.72936E+005   -2.26018E+003   -3.00504E+005    7.73440E+005   -5.67241E+004    4.91032E+005    7.14703E+004    1.04123E+005   -5.42083E+003    3.78231E+005    7.69883E+004    3.50438E+003
            2880    6.65155E+005    4.81101E+005    4.81101E+005    2.02145E+003   -2.78336E+005    7.59437E+005   -6.82623E+004    5.03913E+005    9.09525E+004    1.18827E+005   -4.99295E+003    3.70354E+005    7.80146E+004   -3.07161E+003
            2881    6.60405E+005    3.50904E+005   -4.10927E+005   -9.52021E+002   -4.10927E+005    7.61831E+005    2.03250E+004   -3.35971E+005   -1.64731E+004   -4.42403E+004   -2.61581E+002    3.79006E+005   -3.51434E+004   -1.69699E+003
            2882    6.69118E+005    3.58891E+005   -4.13087E+005    3.85694E+002   -4.13087E+005    7.71978E+005    1.79367E+004   -3.32716E+005   -9.70775E+003   -4.44045E+004    3.02274E+002    3.84680E+005   -2.65624E+004    2.15088E+003
            2883    6.79221E+005    3.65399E+005   -4.18358E+005   -1.28267E+003   -4.18358E+005    7.83757E+005    1.80805E+004   -3.26510E+005   -5.68910E+003   -4.70193E+004   -1.53295E+003    3.90776E+005   -2.07144E+004    3.57328E+003
            2884    6.88353E+005    3.72605E+005   -4.21762E+005   -8.05463E+002   -4.21762E+005    7.94367E+005    1.66543E+004   -3.23132E+005   -1.80256E+003   -4.70558E+004   -1.10463E+003    3.96238E+005   -1.48902E+004    4.85037E+003
            2885    6.96004E+005    3.77740E+005   -4.25516E+005   -1.39068E+003   -4.25516E+005    8.03256E+005    1.63889E+004   -3.19612E+005    4.81712E+002   -4.80618E+004   -1.58661E+003    4.00736E+005   -1.06054E+004    4.31712E+003
            2886    7.02269E+005    3.82076E+005   -4.28429E+005   -9.67405E+002   -4.28429E+005    8.10505E+005    1.57735E+004   -3.20155E+005    2.23869E+003   -4.85045E+004   -1.05467E+003    4.04402E+005   -6.02919E+003    3.27680E+003
            2887    7.05311E+005    3.84026E+005   -4.30007E+005   -1.16310E+003   -4.30007E+005    8.14033E+005    1.57148E+004   -3.19236E+005    2.94952E+003   -4.89217E+004   -1.17239E+003    4.06183E+005   -2.14327E+003    1.00518E+003
            2888    6.57267E+005    3.63183E+005   -3.95538E+005   -1.48818E+002   -3.95538E+005    7.58721E+005    1.08346E+004   -2.74823E+005   -9.07055E+003   -2.36924E+004    2.59191E+002    3.78850E+005   -1.76825E+004   -3.80535E+003
            2889    6.68458E+005    3.70750E+005   -4.00965E+005   -1.78670E+003   -4.00965E+005    7.71715E+005    1.06671E+004   -2.61329E+005   -5.57637E+003   -2.46844E+004   -1.74042E+003    3.85531E+005   -1.26415E+004   -3.29751E+002
            2890    6.77995E+005    3.78806E+005   -4.03947E+005   -3.08349E+002   -4.03947E+005    7.82753E+005    8.48301E+003   -2.56635E+005   -2.38782E+003   -2.26454E+004   -4.15806E+002    3.91145E+005   -8.49305E+003    2.71852E+003
            2891    6.86825E+005    3.85106E+005   -4.07887E+005   -1.41214E+003   -4.07887E+005    7.92993E+005    8.06449E+003   -2.41687E+005   -1.21853E+003   -2.14647E+004   -1.51021E+003    3.96311E+005   -5.80480E+003    3.49434E+003
            2892    6.94213E+005    3.91284E+005   -4.10261E+005   -7.17362E+002   -4.10261E+005    8.01545E+005    6.56481E+003   -2.33180E+005   -1.79628E+002   -1.87358E+004   -7.79004E+002    4.00634E+005   -3.29734E+003    3.81623E+003
            2893    6.99453E+005    3.94930E+005   -4.12680E+005   -1.11810E+003   -4.12680E+005    8.07610E+005    6.28932E+003   -2.24949E+005   -1.08959E+002   -1.76166E+004   -1.14242E+003    4.03697E+005   -1.96044E+003    2.54027E+003
            2894    7.02325E+005    3.97322E+005   -4.13608E+005   -8.40977E+002   -4.13608E+005    8.10931E+005    5.70898E+003   -2.21068E+005    2.25220E+001   -1.63058E+004   -8.43646E+002    4.05381E+005   -4.98985E+002    1.09113E+003
            2895    6.51927E+005    3.77811E+005    3.77811E+005   -4.26829E+002   -3.74966E+005    7.52777E+005   -8.06192E+002    1.33104E+005    9.87186E+002    1.88458E+003   -4.53192E+002    3.76347E+005    8.89546E+002   -5.50979E+003
            2896    6.61269E+005    3.85351E+005    3.85351E+005    1.35071E+003   -3.78213E+005    7.63564E+005   -2.82936E+003    1.42761E+005    1.62618E+003    5.51690E+003    1.34499E+003    3.81769E+005    2.40987E+003   -4.39977E+002
            2897    6.71223E+005    3.92403E+005    3.92403E+005    1.46950E+002   -3.82640E+005    7.75043E+005   -3.30313E+003    1.85649E+005    1.14347E+003    8.58559E+003    1.80321E+002    3.87485E+005    3.22296E+003    2.04270E+003
            2898    6.80621E+005    4.00261E+005    4.00261E+005    1.26140E+003   -3.85621E+005    7.85882E+005   -5.30028E+003    2.03429E+005    1.15892E+003    1.34055E+004    1.33645E+003    3.92856E+005    3.89517E+003    3.84453E+003
            2899    6.88918E+005    4.06459E+005    4.06459E+005    7.47593E+002   -3.88982E+005    7.95441E+005   -6.07495E+003    2.24902E+005    5.35510E+002    1.68826E+004    8.06714E+002    3.97607E+005    3.31369E+003    3.61320E+003
            2900    6.95296E+005    4.11663E+005    4.11663E+005    1.29343E+003   -3.91129E+005    8.02792E+005   -7.27565E+003    2.35201E+005    3.63510E+002    2.01348E+004    1.32862E+003    4.01257E+005    2.49613E+003    2.88299E+003
            2901    6.98678E+005    4.14271E+005    4.14271E+005    1.14510E+003   -3.92414E+005    8.06685E+005   -7.66746E+003    2.42858E+005    9.07501E+001    2.17634E+004    1.14819E+003    4.03195E+005    7.30953E+002    8.71190E+002
            2902    6.56668E+005    3.95849E+005    3.95849E+005    1.53397E+003   -3.62201E+005    7.58050E+005   -1.17272E+004    2.70376E+005    1.01599E+004    2.39801E+004    1.04151E+003    3.78407E+005    1.99007E+004   -4.07592E+003
            2903    6.68163E+005    4.03146E+005    4.03146E+005    3.78037E+001   -3.68118E+005    7.71264E+005   -1.16884E+004    2.85963E+005    7.08839E+003    2.79887E+004   -1.19466E+001    3.85104E+005    1.72356E+004    7.04234E+001
            2904    6.79247E+005    4.11731E+005    4.11731E+005    1.42714E+003   -3.72313E+005    7.84043E+005   -1.36150E+004    2.93489E+005    4.90845E+003    3.43135E+004    1.62316E+003    3.91431E+005    1.54917E+004    3.12815E+003
            2905    6.90046E+005    4.19608E+005    4.19608E+005    9.40100E+002   -3.76839E+005    7.96447E+005   -1.45697E+004    3.07833E+005    2.44426E+003    4.00900E+004    1.17499E+003    3.97547E+005    1.30708E+004    4.21691E+003
            2906    6.99732E+005    4.27374E+005    4.27374E+005    1.79513E+003   -3.80216E+005    8.07590E+005   -1.63177E+004    3.17336E+005    5.87208E+002    4.63672E+004    1.99886E+003    4.02990E+005    1.04528E+004    4.50357E+003
            2907    7.07004E+005    4.32823E+005    4.32823E+005    1.53433E+003   -3.83111E+005    8.15934E+005   -1.70821E+004    3.26862E+005   -1.00942E+003    5.06367E+004    1.61902E+003    4.07088E+005    6.50556E+003    3.03956E+003
            2908    7.11011E+005    4.36109E+005    4.36109E+005    1.85790E+003   -3.84429E+005    8.20538E+005   -1.78459E+004    3.31157E+005   -1.76405E+003    5.34319E+004    1.86983E+003    4.09332E+005    2.30150E+003    1.20437E+003
            2909    6.61625E+005    4.14825E+005    4.14825E+005   -2.87487E+002   -3.48166E+005    7.62992E+005   -2.21238E+004    3.53022E+005    1.92320E+004    4.81648E+004   -1.02548E+003    3.79328E+005    3.75973E+004   -1.29605E+003
            2910    6.72232E+005    4.22301E+005    4.22301E+005    2.05149E+003   -3.53013E+005    7.75314E+005   -2.37798E+004    3.53160E+005    1.39481E+004    5.53493E+004    2.04208E+003    3.85804E+005    3.16243E+004    2.12949E+003
            2911    6.84186E+005    4.30873E+005    4.30873E+005    1.72844E+003   -3.58144E+005    7.89017E+005   -2.48193E+004    3.64618E+005    9.73955E+003    6.26734E+004    2.04508E+003    3.92684E+005    2.69620E+004    4.39813E+003
            2912    6.97185E+005    4.41413E+005    4.41413E+005    3.56678E+003   -3.62561E+005    8.03974E+005   -2.74729E+004    3.73503E+005    6.53010E+003    7.18634E+004    4.02528E+003    3.99991E+005    2.26822E+004    5.97991E+003
            2913    7.09485E+005    4.51104E+005    4.51104E+005    3.58613E+003   -3.66931E+005    8.18035E+005   -2.92532E+004    3.86891E+005    3.90136E+003    7.99530E+004    3.90530E+003    4.06863E+005    1.71716E+004    5.39291E+003
            2914    7.19056E+005    4.58912E+005    4.58912E+005    4.67023E+003   -3.70114E+005    8.29026E+005   -3.11560E+004    3.94451E+005    2.26563E+003    8.63792E+004    4.82331E+003    4.12217E+005    1.09379E+004    3.96771E+003
            2915    7.24411E+005    4.63251E+005    4.63251E+005    4.77912E+003   -3.71892E+005    8.35143E+005   -3.20461E+004    4.00243E+005    1.36869E+003    8.99750E+004    4.79470E+003    4.15198E+005    3.52345E+003    1.27920E+003
            2916    6.73068E+005    4.39693E+005    4.39693E+005    9.38978E+002   -3.35239E+005    7.74932E+005   -3.51309E+004    4.10481E+005    3.42073E+004    7.10755E+004    1.09891E+002    3.83364E+005    5.26833E+004    1.85339E+003
            2917    6.83996E+005    4.45932E+005    4.45932E+005    2.41466E+003   -3.41794E+005    7.87727E+005   -3.55175E+004    4.10558E+005    2.63723E+004    7.77718E+004    2.40836E+003    3.90557E+005    4.37597E+004    4.20628E+003
            2918    6.97516E+005    4.55876E+005    4.55876E+005    4.32212E+003   -3.47485E+005    8.03361E+005   -3.75709E+004    4.16590E+005    2.03388E+004    8.74579E+004    4.91602E+003    3.98413E+005    3.82996E+004    7.08538E+003
            2919    7.13063E+005    4.68043E+005    4.68043E+005    5.07728E+003   -3.53106E+005    8.21149E+005   -4.00048E+004    4.29701E+005    1.60598E+004    9.82460E+004    5.70874E+003    4.07264E+005    3.15117E+004    7.68509E+003
            2920    7.27352E+005    4.79273E+005    4.79273E+005    6.92849E+003   -3.58322E+005    8.37595E+005   -4.26266E+004    4.38597E+005    1.23201E+004    1.08144E+005    7.41536E+003    4.15309E+005    2.42786E+004    7.12305E+003
            2921    7.38759E+005    4.88388E+005    4.88388E+005    7.43472E+003   -3.62234E+005    8.50622E+005   -4.45295E+004    4.48826E+005    1.00838E+004    1.15856E+005    7.64843E+003    4.21725E+005    1.51155E+004    4.92452E+003
            2922    7.45032E+005    4.93450E+005    4.93450E+005    8.24722E+003   -3.64380E+005    8.57830E+005   -4.57724E+004    4.53095E+005    8.84846E+003    1.20197E+005    8.27121E+003    4.25254E+005    5.07084E+003    1.67330E+003
            2923    6.77600E+005    4.55197E+005    4.55197E+005   -8.19747E+002   -3.23428E+005    7.78625E+005   -4.36496E+004    4.49287E+005    4.34124E+004    8.95980E+004   -2.06149E+003    3.83429E+005    6.25748E+004    3.68962E+003
            2924    6.87023E+005    4.61901E+005    4.61901E+005    4.17348E+003   -3.28091E+005    7.89992E+005   -4.59946E+004    4.44527E+005    3.59425E+004    9.76970E+004    4.34420E+003    3.89783E+005    5.56311E+004    7.29944E+003
            2925    7.04275E+005    4.76199E+005    4.76199E+005    5.25902E+003   -3.33436E+005    8.09635E+005   -4.93407E+004    4.59840E+005    3.13958E+004    1.10712E+005    5.91451E+003    3.99877E+005    4.86034E+004    9.11455E+003
            2926    7.23197E+005    4.92260E+005    4.92260E+005    9.30933E+003   -3.39201E+005    8.31461E+005   -5.41227E+004    4.70653E+005    2.74727E+004    1.24765E+005    1.01309E+004    4.10788E+005    4.09312E+004    9.87588E+003
            2927    7.42290E+005    5.08634E+005    5.08634E+005    1.12990E+004   -3.44589E+005    8.53224E+005   -5.84480E+004    4.86984E+005    2.49738E+004    1.38495E+005    1.18751E+004    4.21639E+005    3.10349E+004    8.59474E+003
            2928    7.56997E+005    5.21202E+005    5.21202E+005    1.40407E+004   -3.48930E+005    8.70131E+005   -6.21043E+004    4.96566E+005    2.32173E+004    1.48805E+005    1.42909E+004    4.30044E+005    1.96290E+004    5.81655E+003
            2929    7.65592E+005    5.28973E+005    5.28973E+005    1.51161E+004   -3.50927E+005    8.79900E+005   -6.43872E+004    5.04417E+005    2.28421E+004    1.55172E+005    1.51476E+004    4.34898E+005    6.32069E+003    2.10231E+003
            2930    6.78039E+005    4.74099E+005    4.74099E+005    4.02326E+003   -3.03164E+005    7.77264E+005   -5.83193E+004    4.79385E+005    6.76742E+004    1.04321E+005    2.96268E+003    3.81239E+005    7.22574E+004    6.88467E+003
            2931    6.94512E+005    4.86344E+005    4.86344E+005    6.39250E+003   -3.10033E+005    7.96376E+005   -6.09011E+004    4.87879E+005    5.93161E+004    1.17294E+005    6.09318E+003    3.91741E+005    6.44860E+004    8.32619E+003
            2932    7.10036E+005    4.99663E+005    4.99663E+005    1.09862E+004   -3.14804E+005    8.14467E+005   -6.52818E+004    4.94634E+005    5.46165E+004    1.29444E+005    1.17848E+004    4.01061E+005    5.93446E+004    1.14969E+004
            2933    7.31847E+005    5.19508E+005    5.19508E+005    1.44743E+004   -3.19785E+005    8.39293E+005   -7.13990E+004    5.12625E+005    5.32172E+004    1.45619E+005    1.53605E+004    4.14012E+005    5.00310E+004    1.16083E+004
            2934    7.51372E+005    5.36967E+005    5.36967E+005    1.97672E+004   -3.24906E+005    8.61873E+005   -7.72760E+004    5.23583E+005    5.14480E+004    1.59839E+005    2.05413E+004    4.25677E+005    3.90032E+004    1.06463E+004
            2935    7.68453E+005    5.52569E+005    5.52569E+005    2.26751E+004   -3.28762E+005    8.81332E+005   -8.21608E+004    5.37437E+005    5.14150E+004    1.72021E+005    2.30464E+004    4.35800E+005    2.46036E+004    7.50594E+003
            2936    7.77697E+005    5.61480E+005    5.61480E+005    2.52957E+004   -3.30465E+005    8.91945E+005   -8.54369E+004    5.43727E+005    5.18305E+004    1.79140E+005    2.53403E+004    4.41322E+005    8.47883E+003    2.64070E+003
            2937    6.64492E+005    4.64894E+005    4.64894E+005   -3.75123E+003   -2.95574E+005    7.60468E+005   -5.51896E+004    4.85376E+005    6.32755E+004    1.07161E+005   -4.86806E+003    3.70588E+005    8.10240E+004    9.81649E+003
            2938    6.80892E+005    4.89543E+005    4.89543E+005    8.87176E+003   -2.89615E+005    7.79158E+005   -6.96000E+004    4.98222E+005    7.74335E+004    1.23448E+005    7.91864E+003    3.81223E+005    7.57552E+004    9.21631E+003
            2939    7.00844E+005    5.07814E+005    5.07814E+005    1.26065E+004   -2.94099E+005    8.01913E+005   -7.54403E+004    5.13668E+005    7.25034E+004    1.41214E+005    1.26036E+004    3.93041E+005    7.04878E+004    1.16717E+004
            2940    7.22295E+005    5.34342E+005    5.34342E+005    2.45262E+004   -2.92210E+005    8.26552E+005   -8.88862E+004    5.28359E+005    8.03862E+004    1.61378E+005    2.48944E+004    4.06726E+005    6.02867E+004    1.14770E+004
            2941    7.45791E+005    5.58126E+005    5.58126E+005    3.07507E+004   -2.95147E+005    8.53273E+005   -9.79098E+004    5.47376E+005    8.12068E+004    1.81073E+005    3.14502E+004    4.20925E+005    4.77697E+004    1.16500E+004
            2942    7.65375E+005    5.80153E+005    5.80153E+005    3.85984E+004   -2.95471E+005    8.75623E+005   -1.07760E+005    5.62365E+005    8.63801E+004    1.97990E+005    3.89099E+004    4.33144E+005    3.03687E+004    7.82988E+003
            2943    7.77022E+005    5.92188E+005    5.92188E+005    4.16242E+004   -2.96627E+005    8.88815E+005   -1.12395E+005    5.72351E+005    8.78540E+004    2.07639E+005    4.16920E+004    4.40217E+005    1.07471E+004    3.41740E+003
            2944    7.41824E+005    6.10821E+005    6.10821E+005    7.14751E+004   -2.35162E+005    8.45982E+005   -1.49045E+005    5.70611E+005    1.56018E+005    2.19602E+005    7.15132E+004    4.21579E+005    1.33351E+004    2.96882E+003
            2945    7.30389E+005    5.95009E+005    5.95009E+005    6.24772E+004   -2.37627E+005    8.32636E+005   -1.39953E+005    5.64319E+005    1.49692E+005    2.07300E+005    6.28674E+004    4.13538E+005    3.80064E+004    8.83773E+003
            2946    7.13518E+005    5.70604E+005    5.70604E+005    5.00855E+004   -2.42742E+005    8.13345E+005   -1.25983E+005    5.51760E+005    1.39459E+005    1.88151E+005    5.03382E+004    4.01780E+005    5.72079E+004    1.08791E+004
            2947    6.98180E+005    5.45145E+005    5.45145E+005    3.44162E+004   -2.50425E+005    7.95570E+005   -1.09712E+005    5.42206E+005    1.27285E+005    1.67678E+005    3.41730E+004    3.90546E+005    7.16301E+004    1.18443E+004
            2948    6.84504E+005    5.21672E+005    5.21672E+005    2.46733E+004   -2.59078E+005    7.80749E+005   -9.57558E+004    5.25390E+005    1.15732E+005    1.48812E+005    2.27239E+004    3.81170E+005    8.08418E+004    9.04699E+003
            2949    6.76399E+005    5.03796E+005    5.03796E+005    1.10536E+004   -2.67379E+005    7.71175E+005   -8.24904E+004    5.21899E+005    1.05218E+005    1.34998E+005    7.25497E+003    3.74879E+005    8.63582E+004    6.78285E+003
            2950    6.67424E+005    4.91743E+005    4.91743E+005    8.93876E+003   -2.69880E+005    7.61623E+005   -7.69341E+004    5.09236E+005    1.00710E+005    1.26784E+005    3.30899E+003    3.69623E+005    8.72893E+004    2.95137E+003
            2951    6.90254E+005    2.86813E+005   -5.00947E+005   -2.05487E+003   -5.00947E+005    7.87759E+005    7.20629E+004   -5.25922E+005   -8.85135E+004   -1.27615E+005   -6.01226E+001    3.86985E+005    6.89370E+004   -6.04988E+003
            2952    6.93425E+005    3.04663E+005   -4.89257E+005   -2.26227E+003   -4.89257E+005    7.93920E+005    6.22853E+004   -5.02595E+005   -7.53493E+004   -1.11665E+005    1.58241E+002    3.86991E+005    8.49486E+004   -6.84046E+003
            2953    6.75030E+005    3.16823E+005   -4.58010E+005    2.82925E+003   -4.58010E+005    7.74833E+005    4.61194E+004   -4.62272E+005   -5.69251E+004   -8.60108E+004    4.57778E+003    3.78910E+005    7.84210E+004   -5.15201E+003
            2954    6.63850E+005    3.29586E+005   -4.34610E+005   -5.57119E+002   -4.34610E+005    7.64197E+005    3.51938E+004   -4.08422E+005   -4.20674E+004   -6.54166E+004    1.90251E+003    3.76069E+005    6.55807E+004    1.26148E+003
            2955    6.76113E+005    3.38092E+005   -4.40371E+005    8.71296E+001   -4.40371E+005    7.78464E+005    3.40640E+004   -4.11566E+005   -3.09512E+004   -7.17761E+004    5.35447E+002    3.85434E+005    4.99367E+004   -2.95816E+003
            2956    6.88618E+005    3.46760E+005   -4.46625E+005   -4.10130E+003   -4.46625E+005    7.93384E+005    3.46554E+004   -4.01688E+005   -2.14428E+004   -7.84471E+004   -4.07635E+003    3.93682E+005    3.94082E+004   -3.60478E+003
            2957    6.98208E+005    3.55257E+005   -4.49385E+005   -3.38079E+003   -4.49385E+005    8.04642E+005    3.25032E+004   -3.99067E+005   -1.34026E+004   -8.03106E+004   -3.79658E+003    3.99724E+005    3.08177E+004   -5.66209E+003
            2958    7.08706E+005    3.61459E+005   -4.55449E+005   -5.04185E+003   -4.55449E+005    8.16908E+005    3.30105E+004   -3.97735E+005   -8.68858E+003   -8.48550E+004   -5.48791E+003    4.05928E+005    2.42500E+004   -6.11774E+003
            2959    7.18160E+005    3.67589E+005   -4.60257E+005   -4.42460E+003   -4.60257E+005    8.27846E+005    3.23644E+004   -4.01144E+005   -4.74732E+003   -8.75967E+004   -4.74916E+003    4.11461E+005    1.72611E+004   -5.61299E+003
            2960    7.24920E+005    3.71095E+005   -4.64580E+005   -4.97852E+003   -4.64580E+005    8.35675E+005    3.28214E+004   -4.03206E+005   -2.90520E+003   -9.04428E+004   -5.11614E+003    4.15391E+005    1.06872E+004   -3.77343E+003
            2961    7.28443E+005    3.73436E+005   -4.66319E+005   -4.76260E+003   -4.66319E+005    8.39755E+005    3.25485E+004   -4.04243E+005   -1.68917E+003   -9.11764E+004   -4.77995E+003    4.17471E+005    3.41079E+003   -1.41434E+003
            2962    6.81050E+005    3.26373E+005   -4.56505E+005   -6.08825E+002   -4.56505E+005    7.82879E+005    4.35803E+004   -4.45838E+005   -4.12944E+004   -8.97094E+004    2.62947E+002    3.85607E+005    6.21961E+004   -4.56684E+003
            2963    6.87467E+005    3.34013E+005   -4.56892E+005   -2.59635E+003   -4.56892E+005    7.90905E+005    4.18253E+004   -4.35532E+005   -3.14351E+004   -9.11582E+004   -2.88249E+003    3.91126E+005    4.98216E+004   -6.77893E+003
            2964    7.01336E+005    3.40570E+005   -4.66524E+005   -5.34523E+003   -4.66524E+005    8.07094E+005    4.37664E+004   -4.38432E+005   -2.47794E+004   -1.00373E+005   -6.14637E+003    3.99444E+005    4.28239E+004   -8.83137E+003
            2965    7.16506E+005    3.48334E+005   -4.76291E+005   -5.86995E+003   -4.76291E+005    8.24624E+005    4.46090E+004   -4.45990E+005   -1.84133E+004   -1.08705E+005   -6.70841E+003    4.08393E+005    3.37633E+004   -9.32210E+003
            2966    7.29761E+005    3.54100E+005   -4.85844E+005   -7.37757E+003   -4.85844E+005    8.39944E+005    4.63737E+004   -4.52501E+005   -1.38809E+004   -1.17308E+005   -7.93191E+003    4.15957E+005    2.55402E+004   -7.88939E+003
            2967    7.40887E+005    3.59206E+005   -4.93533E+005   -7.65056E+003   -4.93533E+005    8.52738E+005    4.73259E+004   -4.59722E+005   -1.05716E+004   -1.23510E+005   -7.89614E+003    4.22305E+005    1.56500E+004   -5.46051E+003
            2968    7.46374E+005    3.61762E+005   -4.97330E+005   -8.23983E+003   -4.97330E+005    8.59091E+005    4.79360E+004   -4.62087E+005   -8.80241E+003   -1.26741E+005   -8.26427E+003    4.25444E+005    5.30853E+003   -1.71835E+003
            2969    6.94390E+005    3.10080E+005   -4.85876E+005   -4.12943E+003   -4.85876E+005    7.95956E+005    5.99750E+004   -4.91623E+005   -6.24879E+004   -1.15071E+005   -2.36632E+003    3.91515E+005    6.51444E+004   -4.17542E+003
            2970    7.02618E+005    3.17123E+005   -4.89549E+005   -1.11663E+004   -4.89549E+005    8.06672E+005    6.11975E+004   -4.78349E+005   -5.08580E+004   -1.21829E+005   -1.09052E+004    3.97220E+005    5.96713E+004   -7.51447E+003
            2971    7.17032E+005    3.23365E+005   -4.99680E+005   -1.01679E+004   -4.99680E+005    8.23045E+005    6.21612E+004   -4.91033E+005   -4.43420E+004   -1.31193E+005   -1.09487E+004    4.05861E+005    5.18209E+004   -1.08020E+004
            2972    7.34908E+005    3.29094E+005   -5.14577E+005   -1.36608E+004   -5.14577E+005    8.43672E+005    6.63814E+004   -5.01534E+005   -4.05108E+004   -1.44114E+005   -1.45193E+004    4.16223E+005    4.43526E+004   -1.09850E+004
            2973    7.54091E+005    3.36282E+005   -5.29393E+005   -1.52682E+004   -5.29393E+005    8.65676E+005    6.94596E+004   -5.14916E+005   -3.70965E+004   -1.55348E+005   -1.59340E+004    4.27403E+005    3.37313E+004   -9.74723E+003
            2974    7.68438E+005    3.41065E+005   -5.41168E+005   -1.79237E+004   -5.41168E+005    8.82233E+005    7.26754E+004   -5.23264E+005   -3.54416E+004   -1.64394E+005   -1.81903E+004    4.35829E+005    2.14805E+004   -6.31546E+003
            2975    7.76510E+005    3.44333E+005   -5.47217E+005   -1.88512E+004   -5.47217E+005    8.91550E+005    7.39117E+004   -5.27937E+005   -3.41187E+004   -1.68729E+005   -1.88871E+004    4.40604E+005    7.12344E+003   -2.32246E+003
            2976    6.68229E+005    2.94169E+005   -4.71121E+005   -3.16773E+003   -4.71121E+005    7.65290E+005    6.00398E+004   -4.81733E+005   -7.44690E+004   -1.01873E+005   -3.77699E+003    3.74778E+005    7.54305E+004   -1.15387E+004
            2977    6.82446E+005    2.92117E+005   -4.88298E+005   -3.50474E+003   -4.88298E+005    7.80415E+005    6.65621E+004   -5.04978E+005   -7.49098E+004   -1.20438E+005   -4.33855E+003    3.83656E+005    6.68535E+004   -1.26682E+004
            2978    6.98243E+005    2.94029E+005   -5.04975E+005   -1.19917E+004   -5.04975E+005    7.99004E+005    7.43124E+004   -5.11036E+005   -7.21167E+004   -1.37944E+005   -1.28767E+004    3.92540E+005    6.58534E+004   -1.32780E+004
            2979    7.24528E+005    2.98648E+005   -5.30489E+005   -1.92793E+004   -5.30489E+005    8.29137E+005    8.37067E+004   -5.29650E+005   -7.36889E+004   -1.57226E+005   -2.02056E+004    4.08423E+005    5.68630E+004   -1.29769E+004
            2980    7.46762E+005    3.02856E+005   -5.52090E+005   -2.73883E+004   -5.52090E+005    8.54947E+005    9.22076E+004   -5.41731E+005   -7.36274E+004   -1.74831E+005   -2.81646E+004    4.22046E+005    4.46403E+004   -1.14890E+004
            2981    7.66130E+005    3.06989E+005   -5.70143E+005   -3.19041E+004   -5.70143E+005    8.77132E+005    9.83526E+004   -5.55644E+005   -7.42860E+004   -1.88455E+005   -3.23171E+004    4.33865E+005    2.85562E+004   -8.29603E+003
            2982    7.76492E+005    3.09209E+005   -5.79823E+005   -3.45279E+004   -5.79823E+005    8.89031E+005    1.01714E+005   -5.62730E+005   -7.42283E+004   -1.96331E+005   -3.45830E+004    4.40189E+005    9.85318E+003   -3.04423E+003
            2983    7.47726E+005    2.40636E+005   -6.12370E+005   -7.01947E+004   -6.12370E+005    8.53006E+005    1.47309E+005   -5.72687E+005   -1.48258E+005   -2.23440E+005   -7.02302E+004    4.24639E+005    1.29931E+004   -2.94703E+003
            2984    7.35604E+005    2.41953E+005   -5.97046E+005   -6.27723E+004   -5.97046E+005    8.39000E+005    1.39288E+005   -5.64903E+005   -1.43130E+005   -2.11883E+005   -6.28521E+004    4.16454E+005    3.63764E+004   -7.06992E+003
            2985    7.18200E+005    2.46185E+005   -5.72758E+005   -5.01038E+004   -5.72758E+005    8.18943E+005    1.25559E+005   -5.53251E+005   -1.33563E+005   -1.93099E+005   -5.00147E+004    4.04495E+005    5.53261E+004   -9.65104E+003
            2986    6.98722E+005    2.51937E+005   -5.44902E+005   -3.69474E+004   -5.44902E+005    7.96839E+005    1.09971E+005   -5.37368E+005   -1.22262E+005   -1.71994E+005   -3.56561E+004    3.91128E+005    7.01201E+004   -8.89847E+003
            2987    6.82667E+005    2.60124E+005   -5.18194E+005   -2.08735E+004   -5.18194E+005    7.78319E+005    9.29812E+004   -5.26755E+005   -1.09138E+005   -1.51686E+005   -1.81193E+004    3.79887E+005    7.94688E+004   -7.71295E+003
            2988    6.59897E+005    2.62387E+005   -4.90123E+005   -1.01290E+004   -4.90123E+005    7.52509E+005    7.92882E+004   -5.07951E+005   -9.86495E+004   -1.34334E+005   -4.88091E+003    3.65837E+005    8.26806E+004   -3.39559E+003
            2989    6.59775E+005    2.66271E+005   -4.83433E+005    8.72853E+003   -4.83433E+005    7.49704E+005    6.94780E+004   -5.27450E+005   -8.80917E+004   -1.33405E+005    1.30627E+004    3.67673E+005    6.55112E+004   -1.74433E+003
            2990    7.76834E+005    5.92258E+005    5.92258E+005    4.17250E+004   -2.96325E+005    8.88583E+005   -1.12553E+005    5.72402E+005    8.81198E+004    2.07743E+005    4.17953E+004    4.40103E+005   -1.10296E+004   -3.48545E+003
            2991    7.77582E+005    5.61601E+005    5.61601E+005    2.53979E+004   -3.30198E+005    8.91799E+005   -8.56004E+004    5.43850E+005    5.20859E+004    1.79268E+005    2.54475E+004    4.41246E+005   -9.01890E+003   -2.78594E+003
            2992    7.65547E+005    5.29099E+005    5.29099E+005    1.51473E+004   -3.50735E+005    8.79834E+005   -6.45038E+004    5.04681E+005    2.30427E+004    1.55285E+005    1.51835E+004    4.34862E+005   -6.89572E+003   -2.25201E+003
            2993    7.44887E+005    4.93363E+005    4.93363E+005    8.20800E+003   -3.64296E+005    8.57659E+005   -4.57581E+004    4.53135E+005    8.87623E+003    1.20162E+005    8.23629E+003    4.25166E+005   -5.55825E+003   -1.81364E+003
            2994    7.24301E+005    4.63166E+005    4.63166E+005    4.77843E+003   -3.71852E+005    8.35018E+005   -3.20309E+004    4.00132E+005    1.39829E+003    8.98977E+004    4.79684E+003    4.15138E+005   -3.83449E+003   -1.38916E+003
            2995    7.10905E+005    4.36005E+005    4.36005E+005    1.84036E+003   -3.84411E+005    8.20416E+005   -1.78115E+004    3.31007E+005   -1.77893E+003    5.33594E+004    1.85402E+003    4.09271E+005   -2.45704E+003   -1.29056E+003
            2996    6.98664E+005    4.14291E+005    4.14291E+005    1.17652E+003   -3.92378E+005    8.06669E+005   -7.69642E+003    2.42824E+005    9.11259E+001    2.18181E+004    1.18006E+003    4.03186E+005   -7.96306E+002   -9.14532E+002
            2997    7.02280E+005    3.97277E+005   -4.13602E+005   -8.47266E+002   -4.13602E+005    8.10879E+005    5.72421E+003   -2.21194E+005    2.93973E+001   -1.63522E+004   -8.49825E+002    4.05355E+005    4.71742E+002   -1.10567E+003
            2998    7.05401E+005    3.84025E+005   -4.30109E+005   -1.14886E+003   -4.30109E+005    8.14134E+005    1.57443E+004   -3.19581E+005    2.96958E+003   -4.90445E+004   -1.15787E+003    4.06229E+005    2.09472E+003   -9.95390E+002
            2999    7.64919E+005    5.80033E+005    5.80033E+005    3.86489E+004   -2.95042E+005    8.75075E+005   -1.07880E+005    5.62314E+005    8.67714E+004    1.97898E+005    3.89697E+004    4.32860E+005   -3.08835E+004   -7.95107E+003
            3000    7.67914E+005    5.52495E+005    5.52495E+005    2.27738E+004   -3.28188E+005    8.80683E+005   -8.23604E+004    5.37473E+005    5.19176E+004    1.72002E+005    2.31622E+004    4.35466E+005   -2.53148E+004   -7.67892E+003
            3001    7.56361E+005    5.20737E+005    5.20737E+005    1.39427E+004   -3.48657E+005    8.69394E+005   -6.20073E+004    4.96289E+005    2.33895E+004    1.48424E+005    1.42085E+004    4.29678E+005   -2.03258E+004   -5.99130E+003
            3002    7.38066E+005    4.87708E+005    4.87708E+005    7.32550E+003   -3.62128E+005    8.49836E+005   -4.43019E+004    4.48073E+005    1.00771E+004    1.15276E+005    7.55274E+003    4.21346E+005   -1.55904E+004   -5.06817E+003
            3003    7.18422E+005    4.58186E+005    4.58186E+005    4.58193E+003   -3.70125E+005    8.28311E+005   -3.08809E+004    3.93297E+005    2.24717E+003    8.56533E+004    4.74235E+003    4.11886E+005   -1.11934E+004   -4.05224E+003
            3004    7.06655E+005    4.32341E+005    4.32341E+005    1.52210E+003   -3.83200E+005    8.15541E+005   -1.68875E+004    3.25476E+005   -1.01997E+003    5.00735E+004    1.60910E+003    4.06907E+005   -6.56081E+003   -3.08672E+003
            3005    6.95122E+005    4.11381E+005    4.11381E+005    1.28944E+003   -3.91212E+005    8.02593E+005   -7.15288E+003    2.33596E+005    3.85766E+002    1.97480E+004    1.32492E+003    4.01162E+005   -2.49757E+003   -2.90355E+003
            3006    6.99547E+005    3.94761E+005   -4.12954E+005   -1.09063E+003   -4.12954E+005    8.07715E+005    6.42815E+003   -2.27354E+005   -1.16931E+002   -1.80519E+004   -1.11559E+003    4.03745E+005    2.01766E+003   -2.53618E+003
            3007    7.02472E+005    3.81872E+005   -4.28857E+005   -1.03789E+003   -4.28857E+005    8.10730E+005    1.60076E+004   -3.21388E+005    2.22756E+003   -4.91259E+004   -1.12442E+003    4.04495E+005    6.03617E+003   -3.25387E+003
            3008    7.45069E+005    5.57517E+005    5.57517E+005    3.06381E+004   -2.94928E+005    8.52445E+005   -9.77421E+004    5.46871E+005    8.13428E+004    1.80552E+005    3.13312E+004    4.20469E+005   -4.84144E+004   -1.16813E+004
            3009    7.50193E+005    5.35871E+005    5.35871E+005    1.94786E+004   -3.24649E+005    8.60520E+005   -7.69002E+004    5.22770E+005    5.14222E+004    1.59006E+005    2.02719E+004    4.24978E+005   -3.96972E+004   -1.07678E+004
            3010    7.40783E+005    5.07019E+005    5.07019E+005    1.10122E+004   -3.44510E+005    8.51529E+005   -5.78405E+004    4.85238E+005    2.48271E+004    1.37091E+005    1.16030E+004    4.20822E+005   -3.16093E+004   -8.66804E+003
            3011    7.25819E+005    4.77463E+005    4.77463E+005    6.66307E+003   -3.58414E+005    8.35878E+005   -4.19040E+004    4.36126E+005    1.20633E+004    1.06485E+005    7.16414E+003    4.14508E+005   -2.45310E+004   -7.18758E+003
            3012    7.08333E+005    4.49627E+005    4.49627E+005    3.48009E+003   -3.67122E+005    8.16749E+005   -2.86616E+004    3.84037E+005    3.81352E+003    7.83712E+004    3.80007E+003    4.06286E+005   -1.71608E+004   -5.36955E+003
            3013    6.99081E+005    4.26282E+005    4.26282E+005    1.73716E+003   -3.80579E+005    8.06861E+005   -1.58133E+004    3.13863E+005    5.02921E+002    4.49991E+004    1.93788E+003    4.02666E+005   -1.02679E+004   -4.48547E+003
            3014    6.88736E+005    4.05876E+005    4.05876E+005    7.57994E+002   -3.89361E+005    7.95237E+005   -5.75797E+003    2.20160E+005    5.42257E+002    1.59182E+004    8.13462E+002    3.97516E+005   -3.12673E+003   -3.58452E+003
            3015    6.94379E+005    3.90886E+005   -4.10843E+005   -7.42998E+002   -4.10843E+005    8.01729E+005    6.90004E+003   -2.37260E+005   -1.97742E+002   -1.96941E+004   -8.08231E+002    4.00713E+005    3.49454E+003   -3.82012E+003
            3016    6.96349E+005    3.77599E+005   -4.26044E+005   -1.39483E+003   -4.26044E+005    8.03643E+005    1.66133E+004   -3.21271E+005    5.11053E+002   -4.87594E+004   -1.59156E+003    4.00906E+005    1.06466E+004   -4.33094E+003
            3017    7.21419E+005    5.33323E+005    5.33323E+005    2.40645E+004   -2.92216E+005    8.25539E+005   -8.83906E+004    5.27834E+005    8.02092E+004    1.60549E+005    2.44140E+004    4.06155E+005   -6.08681E+004   -1.14888E+004
            3018    7.30214E+005    5.17593E+005    5.17593E+005    1.39873E+004   -3.19871E+005    8.37463E+005   -7.05697E+004    5.10858E+005    5.27612E+004    1.44079E+005    1.48690E+004    4.13085E+005   -5.05255E+004   -1.15779E+004
            3019    7.21153E+005    4.89780E+005    4.89780E+005    8.84579E+003   -3.39404E+005    8.29185E+005   -5.30740E+004    4.67749E+005    2.69828E+004    1.22572E+005    9.66759E+003    4.09717E+005   -4.11423E+004   -9.80334E+003
            3020    7.11226E+005    4.65652E+005    4.65652E+005    4.82597E+003   -3.53465E+005    8.19117E+005   -3.90042E+004    4.25911E+005    1.56045E+004    9.59590E+004    5.44888E+003    4.06342E+005   -3.13780E+004   -7.55211E+003
            3021    6.95858E+005    4.39527E+005    4.39527E+005    3.43652E+003   -3.62973E+005    8.02500E+005   -2.66633E+004    3.69485E+005    6.30251E+003    6.98035E+004    3.88393E+003    3.99346E+005   -2.23094E+004   -5.85891E+003
            3022    6.89479E+005    4.18402E+005    4.18402E+005    8.98648E+002   -3.77417E+005    7.95820E+005   -1.39612E+004    3.03346E+005    2.28638E+003    3.84742E+004    1.12300E+003    3.97282E+005   -1.26173E+004   -4.12997E+003
            3023    6.80473E+005    3.99603E+005    3.99603E+005    1.26048E+003   -3.86114E+005    7.85718E+005   -4.91658E+003    1.96761E+005    1.13222E+003    1.22888E+004    1.32868E+003    3.92785E+005   -3.53211E+003   -3.84105E+003
            3024    6.87178E+005    3.84827E+005   -4.08567E+005   -1.44862E+003   -4.08567E+005    7.93393E+005    8.39620E+003   -2.45292E+005   -1.28654E+003   -2.23516E+004   -1.55043E+003    3.96497E+005    6.03919E+003   -3.50096E+003
            3025    6.88592E+005    3.72637E+005   -4.22002E+005   -7.91784E+002   -4.22002E+005    7.94639E+005    1.67189E+004   -3.23737E+005   -1.74022E+003   -4.73243E+004   -1.09218E+003    3.96366E+005    1.48610E+004   -4.87911E+003
            3026    6.99921E+005    5.06494E+005    5.06494E+005    1.21724E+004   -2.94403E+005    8.00897E+005   -7.47545E+004    5.12553E+005    7.19923E+004    1.40094E+005    1.21767E+004    3.92495E+005   -7.07860E+004   -1.16940E+004
            3027    7.08410E+005    4.97440E+005    4.97440E+005    1.04134E+004   -3.15239E+005    8.12679E+005   -6.42050E+004    4.92387E+005    5.38190E+004    1.27608E+005    1.11876E+004    4.00192E+005   -5.94156E+004   -1.13419E+004
            3028    7.02461E+005    4.73679E+005    4.73679E+005    4.89824E+003   -3.33978E+005    8.07657E+005   -4.81997E+004    4.56380E+005    3.06689E+004    1.08404E+005    5.52627E+003    3.98982E+005   -4.83948E+004   -8.87544E+003
            3029    6.95928E+005    4.53564E+005    4.53564E+005    4.11727E+003   -3.48061E+005    8.01624E+005   -3.65401E+004    4.12527E+005    1.97403E+004    8.51965E+004    4.68359E+003    3.97659E+005   -3.77813E+004   -6.83240E+003
            3030    6.83202E+005    4.29205E+005    4.29205E+005    1.65484E+003   -3.58735E+005    7.87940E+005   -2.40416E+004    3.60551E+005    9.34242E+003    6.08258E+004    1.95647E+003    3.92236E+005   -2.63117E+004   -4.23287E+003
            3031    6.78885E+005    4.10717E+005    4.10717E+005    1.40882E+003   -3.72932E+005    7.83649E+005   -1.30645E+004    2.89059E+005    4.68633E+003    3.29102E+004    1.59695E+003    3.91280E+005   -1.48812E+004   -3.07335E+003
            3032    6.71303E+005    3.91957E+005    3.91957E+005    1.40293E+002   -3.83182E+005    7.75138E+005   -2.97176E+003    1.79066E+005    9.85730E+002    7.75963E+003    1.69921E+002    3.87539E+005   -2.81873E+003   -2.06600E+003
            3033    6.78354E+005    3.78725E+005   -4.04436E+005   -3.19866E+002   -4.04436E+005    7.83162E+005    8.67702E+003   -2.58620E+005   -2.35902E+003   -2.32389E+004   -4.33144E+002    3.91337E+005    8.70734E+003   -2.80209E+003
            3034    6.79751E+005    3.65560E+005   -4.18803E+005   -1.28253E+003   -4.18803E+005    7.84363E+005    1.81752E+004   -3.27292E+005   -5.66942E+003   -4.73224E+004   -1.53383E+003    3.91076E+005    2.06296E+004   -3.59668E+003
            3035    6.80316E+005    4.88632E+005    4.88632E+005    8.57259E+003   -2.89902E+005    7.78535E+005   -6.91009E+004    4.97414E+005    7.70835E+004    1.22637E+005    7.58245E+003    3.80919E+005   -7.57499E+004   -9.08400E+003
            3036    6.93548E+005    4.84752E+005    4.84752E+005    6.10643E+003   -3.10613E+005    7.95365E+005   -6.00816E+004    4.85883E+005    5.85859E+004    1.15891E+005    5.76832E+003    3.91282E+005   -6.43091E+004   -8.10033E+003
            3037    6.85807E+005    4.59971E+005    4.59971E+005    3.92400E+003   -3.28720E+005    7.88690E+005   -4.50583E+004    4.41607E+005    3.51711E+004    9.59445E+004    4.05943E+003    3.89228E+005   -5.51846E+004   -7.02778E+003
            3038    6.83163E+005    4.44453E+005    4.44453E+005    2.35195E+003   -3.42390E+005    7.86843E+005   -3.48048E+004    4.07557E+005    2.57796E+004    7.63074E+004    2.32755E+003    3.90210E+005   -4.31395E+004   -3.99002E+003
            3039    6.71691E+005    4.21221E+005    4.21221E+005    2.03701E+003   -3.53511E+005    7.74731E+005   -2.32489E+004    3.50168E+005    1.35154E+004    5.42044E+004    2.02694E+003    3.85585E+005   -3.09470E+004   -2.03299E+003
            3040    6.68246E+005    4.02781E+005    4.02781E+005    4.20330E+001   -3.68591E+005    7.71372E+005   -1.14108E+004    2.83666E+005    6.85632E+003    2.73780E+004   -1.85083E+000    3.85185E+005   -1.67423E+004   -8.99151E+001
            3041    6.61546E+005    3.85324E+005    3.85324E+005    1.36289E+003   -3.78560E+005    7.63884E+005   -2.70869E+003    1.38389E+005    1.56874E+003    5.19818E+003    1.35915E+003    3.81931E+005   -2.19535E+003    3.14118E+002
            3042    6.68838E+005    3.70865E+005   -4.01286E+005   -1.73562E+003   -4.01286E+005    7.72151E+005    1.07187E+004   -2.62431E+005   -5.53969E+003   -2.49207E+004   -1.69568E+003    3.85747E+005    1.26034E+004    2.32019E+002
            3043    6.69599E+005    3.59004E+005   -4.13525E+005    3.38106E+002   -4.13525E+005    7.72530E+005    1.80609E+004   -3.33337E+005   -9.65488E+003   -4.47701E+004    2.42371E+002    3.84947E+005    2.65610E+004   -2.25032E+003
            3044    6.64154E+005    4.64409E+005    4.64409E+005   -3.72575E+003   -2.95717E+005    7.60126E+005   -5.49885E+004    4.84615E+005    6.31823E+004    1.06614E+005   -4.83040E+003    3.70404E+005   -8.11326E+004   -9.80537E+003
            3045    6.77432E+005    4.72929E+005    4.72929E+005    3.76492E+003   -3.03712E+005    7.76641E+005   -5.76607E+004    4.77959E+005    6.69370E+004    1.03379E+005    2.66639E+003    3.80977E+005   -7.19914E+004   -6.68249E+003
            3046    6.77081E+005    4.54201E+005    4.54201E+005   -8.45201E+002   -3.23902E+005    7.78103E+005   -4.31514E+004    4.47499E+005    4.28785E+004    8.86714E+004   -2.09578E+003    3.83237E+005   -6.22086E+004   -3.52730E+003
            3047    6.72580E+005    4.38799E+005    4.38799E+005    9.18538E+002   -3.35621E+005    7.74421E+005   -3.46988E+004    4.08653E+005    3.37155E+004    7.02953E+004    8.56356E+001    3.83182E+005   -5.21820E+004   -1.71561E+003
            3048    6.61549E+005    4.14485E+005    4.14485E+005   -2.25011E+002   -3.48440E+005    7.62925E+005   -2.19398E+004    3.51705E+005    1.89387E+004    4.78265E+004   -9.45762E+002    3.79343E+005   -3.71255E+004    1.30619E+003
            3049    6.56877E+005    3.95895E+005    3.95895E+005    1.50816E+003   -3.62397E+005    7.58292E+005   -1.16687E+004    2.70144E+005    1.00431E+004    2.39326E+004    1.03044E+003    3.78539E+005   -1.97124E+004    3.98780E+003
            3050    6.52237E+005    3.78069E+005    3.78069E+005   -3.95125E+002   -3.75067E+005    7.53136E+005   -8.68830E+002    1.34251E+005    9.96327E+002    2.03207E+003   -4.21911E+002    3.76528E+005   -9.32536E+002    5.34770E+003
            3051    6.57486E+005    3.63516E+005   -3.95464E+005   -1.58827E+002   -3.95464E+005    7.58980E+005    1.07025E+004   -2.73662E+005   -8.85234E+003   -2.34874E+004    2.32386E+002    3.78989E+005    1.75023E+004    3.68206E+003
            3052    6.60797E+005    3.51081E+005   -4.11199E+005   -9.11662E+002   -4.11199E+005    7.62280E+005    2.03435E+004   -3.36443E+005   -1.63932E+004   -4.43944E+004   -2.43051E+002    3.79237E+005    3.50511E+004    1.58918E+003
            3053    6.53397E+005    3.42129E+005   -4.11301E+005   -1.61607E+002   -4.11301E+005    7.53430E+005    2.31113E+004   -3.52840E+005   -2.69604E+004   -4.43290E+004    1.95537E+003    3.73504E+005    4.71886E+004    5.49398E+003
            3054    6.44736E+005    3.54985E+005   -3.89295E+005   -2.32224E+003   -3.89295E+005    7.44280E+005    1.22110E+004   -2.64405E+005   -1.34090E+004   -2.23601E+004   -8.63863E+002    3.71110E+005    2.48927E+004    1.01200E+004
            3055    6.41478E+005    3.70396E+005    3.70396E+005    9.61342E+002   -3.70318E+005    7.40714E+005   -3.46454E+002   -1.04422E+005    4.04758E+002   -3.17427E+002    9.52032E+002    3.70186E+005   -1.61461E+002    1.12632E+004
            3056    6.45238E+005    3.90101E+005    3.90101E+005    6.82378E+002   -3.54696E+005    7.44798E+005   -1.20291E+004    2.76932E+005    1.40218E+004    2.28333E+004   -7.67880E+002    3.71357E+005   -2.51263E+004    9.87510E+003
            3057    6.53381E+005    4.11693E+005    4.11693E+005    1.89185E+003   -3.41799E+005    7.53493E+005   -2.39286E+004    3.48125E+005    2.81341E+004    4.41108E+004   -4.59210E+002    3.73502E+005   -4.73958E+004    6.48036E+003
            3058    6.63330E+005    4.33806E+005    4.33806E+005   -1.80554E+003   -3.29608E+005    7.63414E+005   -3.41308E+004    4.13163E+005    4.20422E+004    6.45488E+004   -4.19877E+003    3.75758E+005   -6.51540E+004    1.00534E+003
            3059    6.74927E+005    4.57809E+005    4.57809E+005   -1.00469E+003   -3.17165E+005    7.74974E+005   -4.65466E+004    4.57921E+005    5.79733E+004    8.54730E+004   -3.80649E+003    3.79337E+005   -7.64899E+004   -2.02164E+003
            3060    6.75359E+005    4.72408E+005    4.72408E+005   -2.20316E+003   -3.00778E+005    7.73186E+005   -5.64754E+004    4.90084E+005    7.12460E+004    1.03613E+005   -5.43311E+003    3.78115E+005   -7.69326E+004   -3.27249E+003
            3061    6.64673E+005    4.80040E+005    4.80040E+005    1.89285E+003   -2.78958E+005    7.58998E+005   -6.76582E+004    5.02528E+005    8.98135E+004    1.18171E+005   -5.00943E+003    3.70116E+005   -7.81558E+004    2.83443E+003
            3062    7.42086E+005    6.11035E+005    6.11035E+005    7.14849E+004   -2.35243E+005    8.46278E+005   -1.49093E+005    5.70837E+005    1.56034E+005    2.19718E+005    7.15253E+004    4.21724E+005   -1.33226E+004   -3.00382E+003
            3063    7.30333E+005    5.95031E+005    5.95031E+005    6.25266E+004   -2.37539E+005    8.32569E+005   -1.40006E+005    5.64298E+005    1.49853E+005    2.07242E+005    6.29239E+004    4.13502E+005   -3.81110E+004   -8.88381E+003
            3064    7.13174E+005    5.70362E+005    5.70362E+005    5.00620E+004   -2.42584E+005    8.12946E+005   -1.25947E+005    5.51548E+005    1.39593E+005    1.87924E+005    5.03227E+004    4.01550E+005   -5.74831E+004   -1.09407E+004
            3065    6.97843E+005    5.44541E+005    5.44541E+005    3.42439E+004   -2.50683E+005    7.95224E+005   -1.09367E+005    5.41642E+005    1.27039E+005    1.67110E+005    3.39533E+004    3.90275E+005   -7.21649E+004   -1.17909E+004
            3066    6.83861E+005    5.20710E+005    5.20710E+005    2.42323E+004   -2.59317E+005    7.80027E+005   -9.52086E+004    5.24806E+005    1.15367E+005    1.48053E+005    2.22063E+004    3.80686E+005   -8.13772E+004   -8.98311E+003
            3067    6.75725E+005    5.02766E+005    5.02766E+005    1.06510E+004   -2.67668E+005    7.70434E+005   -8.19164E+004    5.21151E+005    1.04695E+005    1.34290E+005    6.76461E+003    3.74485E+005   -8.63942E+004   -6.60041E+003
            3068    6.67611E+005    4.92093E+005    4.92093E+005    9.13653E+003   -2.69739E+005    7.61833E+005   -7.71636E+004    5.09408E+005    1.01315E+005    1.26675E+005    3.50089E+003    3.69710E+005   -8.74272E+004   -2.93833E+003
            3069    7.64065E+005    2.46305E+005   -6.21160E+005   -4.80561E+004   -6.21160E+005    8.67465E+005    1.40971E+005   -6.15578E+005   -9.44879E+004   -2.80311E+005   -4.81125E+004    4.23569E+005   -8.62732E+003    3.75766E+003
            3070    7.29220E+005    2.85480E+005   -5.47164E+005   -2.22622E+004   -5.47164E+005    8.32644E+005    9.46489E+004   -5.51890E+005   -3.36237E+004   -2.28010E+005   -2.23134E+004    4.04758E+005   -6.61883E+003    3.24685E+003
            3071    7.01306E+005    3.07666E+005   -4.96463E+005   -1.15649E+004   -4.96463E+005    8.04129E+005    6.67873E+004   -4.93169E+005   -1.06985E+004   -1.78066E+005   -1.15974E+004    3.93225E+005   -4.92870E+003    2.33715E+003
            3072    6.60516E+005    3.22318E+005   -4.37825E+005   -3.73112E+003   -4.37825E+005    7.60143E+005    3.97460E+004   -4.12278E+005    3.82325E+003   -1.19303E+005   -3.75852E+003    3.75035E+005   -3.22188E+003    2.08732E+003
            3073    7.52342E+005    2.45028E+005   -6.09073E+005   -4.45362E+004   -6.09073E+005    8.54100E+005    1.36194E+005   -6.06470E+005   -9.37936E+004   -2.69746E+005   -4.50415E+004    4.17096E+005   -2.47464E+004    1.09538E+004
            3074    7.20162E+005    2.82473E+005   -5.39772E+005   -2.10916E+004   -5.39772E+005    8.22245E+005    9.27967E+004   -5.45553E+005   -3.58599E+004   -2.21052E+005   -2.14780E+004    4.00056E+005   -1.91307E+004    8.82262E+003
            3075    6.96576E+005    3.05638E+005   -4.93003E+005   -1.09314E+004   -4.93003E+005    7.98641E+005    6.60989E+004   -4.90751E+005   -1.25787E+004   -1.74485E+005   -1.12331E+004    3.90750E+005   -1.38419E+004    7.15553E+003
            3076    6.56530E+005    3.20137E+005   -4.35427E+005   -4.04569E+003   -4.35427E+005    7.55564E+005    3.97787E+004   -4.09548E+005    2.27575E+003   -1.17358E+005   -4.25344E+003    3.72863E+005   -9.81756E+003    5.43170E+003
            3077    7.30614E+005    2.41830E+005   -5.87488E+005   -3.87762E+004   -5.87488E+005    8.29318E+005    1.28145E+005   -5.89670E+005   -9.33868E+004   -2.51454E+005   -3.95937E+004    4.05065E+005   -3.89361E+004    1.45387E+004
            3078    7.04815E+005    2.78213E+005   -5.26236E+005   -1.71940E+004   -5.26236E+005    8.04449E+005    8.84056E+004   -5.36375E+005   -3.96595E+004   -2.07379E+005   -1.81783E+004    3.92103E+005   -3.03876E+004    1.37207E+004
            3079    6.86387E+005    3.01113E+005   -4.85868E+005   -1.09951E+004   -4.85868E+005    7.86981E+005    6.52503E+004   -4.83272E+005   -1.66728E+004   -1.67410E+005   -1.16677E+004    3.85480E+005   -2.25312E+004    1.03253E+004
            3080    6.49881E+005    3.16716E+005   -4.31123E+005   -3.37112E+003   -4.31123E+005    7.47839E+005    3.92596E+004   -4.07331E+005   -9.47227E+002   -1.12968E+005   -3.86378E+003    3.69316E+005   -1.56332E+004    8.13631E+003
            3081    7.05770E+005    2.40246E+005   -5.60313E+005   -2.79710E+004   -5.60313E+005    8.00559E+005    1.16013E+005   -5.73001E+005   -9.10041E+004   -2.28170E+005   -2.88648E+004    3.91107E+005   -4.90752E+004    1.62625E+004
            3082    6.82457E+005    2.72057E+005   -5.06996E+005   -1.47312E+004   -5.06996E+005    7.79053E+005    8.32234E+004   -5.18274E+005   -4.47539E+004   -1.88741E+005   -1.61748E+004    3.80604E+005   -3.97363E+004    1.60022E+004
            3083    6.74629E+005    2.96733E+005   -4.76673E+005   -9.30920E+003   -4.76673E+005    7.73407E+005    6.30830E+004   -4.76269E+005   -2.20739E+004   -1.56925E+005   -1.02505E+004    3.79556E+005   -2.94379E+004    1.17928E+004
            3084    6.40252E+005    3.10973E+005   -4.25753E+005   -4.01365E+003   -4.25753E+005    7.36725E+005    3.95979E+004   -4.02139E+005   -5.74280E+003   -1.08360E+005   -4.69067E+003    3.64043E+005   -2.21542E+004    8.73815E+003
            3085    6.78154E+005    2.36883E+005   -5.32173E+005   -1.99448E+004   -5.32173E+005    7.69056E+005    1.05078E+005   -5.51626E+005   -9.12721E+004   -2.03751E+005   -2.02114E+004    3.76038E+005   -5.57543E+004    1.48153E+004
            3086    6.63195E+005    2.67774E+005   -4.89025E+005   -9.28955E+003   -4.89025E+005    7.56799E+005    7.68469E+004   -5.05993E+005   -5.11016E+004   -1.68637E+005   -1.08026E+004    3.70880E+005   -4.55795E+004    1.59645E+004
            3087    6.60758E+005    2.89742E+005   -4.67755E+005   -9.95140E+003   -4.67755E+005    7.57497E+005    6.26546E+004   -4.66575E+005   -3.07128E+004   -1.46515E+005   -1.07358E+004    3.72445E+005   -3.64616E+004    1.06964E+004
            3088    6.31112E+005    3.05717E+005   -4.20266E+005   -2.38118E+003   -4.20266E+005    7.25983E+005    3.89770E+004   -4.01930E+005   -1.23078E+004   -1.01612E+005   -3.01117E+003    3.59165E+005   -2.72184E+004    7.91660E+003
            3089    6.65103E+005    2.38959E+005   -5.14711E+005   -1.00150E+004   -5.14711E+005    7.53670E+005    9.52554E+004   -5.44373E+005   -8.93716E+004   -1.86571E+005   -9.82320E+003    3.69217E+005   -5.58951E+004    1.31272E+004
            3090    6.42764E+005    2.61434E+005   -4.72298E+005   -8.61365E+003   -4.72298E+005    7.33732E+005    7.31590E+004   -4.88217E+005   -5.98709E+004   -1.50377E+005   -9.22967E+003    3.59918E+005   -5.38356E+004    1.27614E+004
            3091    6.51307E+005    2.84072E+005   -4.61794E+005   -5.41323E+003   -4.61794E+005    7.45866E+005    6.10451E+004   -4.70073E+005   -4.13137E+004   -1.36378E+005   -5.44369E+003    3.67378E+005   -4.23731E+004    7.74939E+003
            3092    6.22130E+005    2.98006E+005   -4.17284E+005   -2.05565E+003   -4.17284E+005    7.15291E+005    4.04444E+004   -4.04325E+005   -2.13815E+004   -9.78298E+004   -2.12200E+003    3.53823E+005   -3.51616E+004    5.10799E+003
            3093    6.61866E+005    2.39030E+005   -5.13258E+005   -2.04369E+004   -5.13258E+005    7.52288E+005    9.82214E+004   -5.27743E+005   -1.00973E+005   -1.75916E+005   -1.77752E+004    3.69120E+005   -5.90781E+004    4.93649E+003
            3094    6.37559E+005    2.58189E+005   -4.68258E+005   -1.65403E+003   -4.68258E+005    7.26447E+005    7.05744E+004   -4.95489E+005   -6.83046E+004   -1.43717E+005    2.98366E+002    3.56540E+005   -5.61586E+004    5.50251E+003
            3095    6.44559E+005    2.73505E+005   -4.63479E+005   -5.00363E+003   -4.63479E+005    7.36984E+005    6.49928E+004   -4.78034E+005   -5.80268E+004   -1.33225E+005   -3.72648E+003    3.62443E+005   -5.35041E+004    5.40208E+003
            3096    6.15770E+005    2.92000E+005   -4.15246E+005    1.82235E+003   -4.15246E+005    7.07246E+005    4.04747E+004   -4.14371E+005   -3.21483E+004   -9.17233E+004    2.44752E+003    3.49634E+005   -4.32098E+004    3.32939E+003
            3097    6.15375E+005    2.81733E+005   -4.24126E+005   -4.27935E+002   -4.24126E+005    7.05859E+005    4.76068E+004   -4.29046E+005   -5.38957E+004   -9.17237E+004    2.79895E+003    3.47403E+005   -5.72079E+004   -1.87987E+003
            3098    6.30513E+005    2.66220E+005   -4.52692E+005    6.36630E+003   -4.52692E+005    7.18912E+005    6.00352E+004   -4.86065E+005   -7.25669E+004   -1.16021E+005    8.48246E+003    3.51957E+005   -6.78405E+004    6.81070E+003
            3099    6.55719E+005    2.47209E+005   -4.96739E+005   -2.80777E+003   -4.96739E+005    7.43948E+005    8.41127E+004   -5.31397E+005   -9.62526E+004   -1.56020E+005   -6.54622E+001    3.62910E+005   -7.30571E+004    9.51011E+003
            3100    6.65588E+005    2.29684E+005   -5.20093E+005    1.02782E+003   -5.20093E+005    7.49776E+005    9.64604E+004   -5.66537E+005   -1.15160E+005   -1.76951E+005    2.72973E+003    3.68661E+005   -5.77328E+004    9.57920E+003
            3101    7.37285E+005    1.67322E+005   -6.65174E+005   -9.46433E+004   -6.65174E+005    8.32496E+005    1.97498E+005   -6.18767E+005   -1.89116E+005   -3.08684E+005   -9.46955E+004    4.11770E+005   -1.12266E+004    3.91817E+003
            3102    7.22899E+005    1.71034E+005   -6.44834E+005   -8.40895E+004   -6.44834E+005    8.15869E+005    1.85963E+005   -6.08486E+005   -1.82083E+005   -2.91430E+005   -8.43762E+004    4.02878E+005   -3.23784E+004    1.02897E+004
            3103    7.01506E+005    1.78263E+005   -6.12862E+005   -6.66289E+004   -6.12862E+005    7.91124E+005    1.67076E+005   -5.93217E+005   -1.70656E+005   -2.63726E+005   -6.68457E+004    3.89512E+005   -4.92799E+004    1.37190E+004
            3104    6.76981E+005    1.87785E+005   -5.75561E+005   -4.80134E+004   -5.75561E+005    7.63346E+005    1.45263E+005   -5.73016E+005   -1.55972E+005   -2.32785E+005   -4.70334E+004    3.74191E+005   -6.21472E+004    1.32195E+004
            3105    6.56423E+005    1.99345E+005   -5.39842E+005   -2.50138E+004   -5.39842E+005    7.39187E+005    1.21837E+005   -5.59864E+005   -1.41126E+005   -2.02061E+005   -2.23247E+004    3.60862E+005   -7.01223E+004    1.16881E+004
            3106    6.27425E+005    2.04706E+005   -5.01779E+005   -9.53591E+003   -5.01779E+005    7.06485E+005    1.02203E+005   -5.35332E+005   -1.28359E+005   -1.73686E+005   -4.56402E+003    3.43946E+005   -7.21325E+004    7.44641E+003
            3107    6.21759E+005    2.06181E+005   -4.88051E+005    1.75435E+004   -4.88051E+005    6.94232E+005    8.81090E+004   -5.51648E+005   -1.21904E+005   -1.62539E+005    2.01162E+004    3.41470E+005   -5.46964E+004    8.38390E+003
            3108    5.98801E+005    2.99026E+005   -3.90315E+005    9.24510E+002   -3.90315E+005    6.89342E+005    3.01214E+004   -3.67639E+005   -3.41213E+004   -5.99734E+004    3.73051E+003    3.41609E+005   -4.17351E+004   -7.48488E+003
            3109    5.89045E+005    3.15700E+005   -3.64049E+005   -3.44162E+003   -3.64049E+005    6.79749E+005    1.72635E+004   -2.78261E+005   -1.79689E+004   -3.23750E+004   -1.44663E+003    3.38704E+005   -2.25254E+004   -1.38005E+004
            3110    5.83814E+005    3.37338E+005    3.37338E+005    1.58686E+003   -3.36790E+005    6.74128E+005   -7.11591E+002   -1.10315E+005    6.21036E+002   -1.05127E+002    1.61886E+003    3.36717E+005   -3.30736E+002   -1.52780E+004
            3111    5.88671E+005    3.62383E+005    3.62383E+005    3.75983E+002   -3.16864E+005    6.79247E+005   -1.52982E+004    2.85310E+005    1.72462E+004    3.01984E+004   -1.55003E+003    3.38509E+005    2.19991E+004   -1.35753E+004
            3112    5.99603E+005    3.92361E+005    3.92361E+005    2.29344E+003   -2.98060E+005    6.90422E+005   -3.21981E+004    3.63476E+005    3.61440E+004    6.12586E+004   -8.08312E+002    3.42113E+005    4.18093E+004   -8.77971E+003
            3113    6.14305E+005    4.21826E+005    4.21826E+005   -3.85456E+003   -2.82407E+005    7.04234E+005   -4.51881E+004    4.33900E+005    5.40568E+004    8.84654E+004   -6.95792E+003    3.46650E+005    5.73288E+004   -1.32860E+003
            3114    6.32749E+005    4.56428E+005    4.56428E+005   -2.96654E+003   -2.65295E+005    7.21722E+005   -6.27221E+004    4.85621E+005    7.44788E+004    1.20108E+005   -6.42014E+003    3.53415E+005    6.66260E+004    3.15669E+003
            3115    6.39045E+005    4.78957E+005    4.78957E+005   -4.16955E+003   -2.45638E+005    7.24596E+005   -7.63831E+004    5.20453E+005    9.50914E+004    1.41592E+005   -7.53393E+003    3.54980E+005    6.53029E+004    5.37485E+003
            3116    6.13892E+005    4.65244E+005    4.65244E+005   -5.21892E+003   -2.29184E+005    6.94428E+005   -7.69470E+004    5.08978E+005    9.99177E+004    1.40870E+005   -9.94634E+003    3.38211E+005    7.15389E+004    5.85050E+003
            3117    6.08853E+005    3.06226E+005   -3.95213E+005   -3.38456E+003   -3.95213E+005    7.01439E+005    3.07905E+004   -3.56844E+005   -2.43925E+004   -6.54961E+004   -2.48284E+003    3.48704E+005   -3.07309E+004   -2.31884E+003
            3118    6.17613E+005    3.15123E+005   -3.96547E+005   -8.22689E+002   -3.96547E+005    7.11669E+005    2.74157E+004   -3.56722E+005   -1.43596E+004   -6.69806E+004   -9.06808E+002    3.54107E+005   -2.30195E+004    2.79926E+003
            3119    6.25291E+005    3.21165E+005   -3.99669E+005   -3.38458E+003   -3.99669E+005    7.20835E+005    2.72963E+004   -3.47290E+005   -8.13802E+003   -7.00559E+004   -3.69492E+003    3.58622E+005   -1.79113E+004    4.77253E+003
            3120    6.32499E+005    3.28097E+005   -4.01171E+005   -2.16222E+003   -4.01171E+005    7.29268E+005    2.50787E+004   -3.45082E+005   -3.04975E+003   -6.96380E+004   -2.54822E+003    3.62833E+005   -1.30995E+004    6.56530E+003
            3121    6.38349E+005    3.32568E+005   -4.03576E+005   -2.96500E+003   -4.03576E+005    7.36144E+005    2.46574E+004   -3.40965E+005   -4.45258E+002   -7.02970E+004   -3.22979E+003    3.66252E+005   -9.44854E+003    5.99389E+003
            3122    6.43104E+005    3.36396E+005   -4.05262E+005   -2.18617E+003   -4.05262E+005    7.41658E+005    2.36838E+004   -3.41640E+005    1.44925E+003   -7.02002E+004   -2.30028E+003    3.69034E+005   -5.34456E+003    4.42128E+003
            3123    6.45294E+005    3.37975E+005   -4.06244E+005   -2.36653E+003   -4.06244E+005    7.44218E+005    2.35453E+004   -3.40728E+005    2.04193E+003   -7.02970E+004   -2.38085E+003    3.70339E+005   -2.05565E+003    1.47502E+003
            3124    5.94040E+005    3.24613E+005   -3.60967E+005    1.00432E+003   -3.60967E+005    6.85581E+005    1.17832E+004   -2.72694E+005   -8.12936E+003   -2.87641E+004    1.54372E+003    3.42233E+005   -1.53739E+004   -5.29684E+003
            3125    6.00362E+005    3.30201E+005   -3.62807E+005   -8.37522E+002   -3.62807E+005    6.93008E+005    1.11479E+004   -2.55648E+005   -4.05361E+003   -2.86033E+004   -7.86658E+002    3.46102E+005   -1.12489E+004   -3.30639E+002
            3126    6.07731E+005    3.37409E+005   -3.64145E+005    8.97137E+002   -3.64145E+005    7.01554E+005    8.61317E+003   -2.50902E+005   -6.35920E+002   -2.59439E+004    7.40332E+002    3.50449E+005   -7.50809E+003    3.95038E+003
            3127    6.14531E+005    3.43044E+005   -3.66435E+005   -3.87198E+002   -3.66435E+005    7.09479E+005    7.92617E+003   -2.33958E+005    9.09854E+002   -2.41546E+004   -5.33736E+002    3.54444E+005   -5.28088E+003    5.08701E+003
            3128    6.21007E+005    3.49154E+005   -3.67833E+005    5.09621E+002   -3.67833E+005    7.16987E+005    6.05666E+003   -2.25006E+005    2.19629E+003   -2.07846E+004    4.18367E+002    3.58255E+005   -2.96434E+003    5.57916E+003
            3129    6.25861E+005    3.52784E+005   -3.69830E+005    1.49592E+001   -3.69830E+005    7.22614E+005    5.67716E+003   -2.15664E+005    2.55787E+003   -1.95664E+004   -2.29118E+001    3.61114E+005   -1.84335E+003    3.73424E+003
            3130    6.28623E+005    3.55306E+005   -3.70507E+005    3.77379E+002   -3.70507E+005    7.25813E+005    4.94115E+003   -2.11461E+005    2.84864E+003   -1.80459E+004    3.73836E+002    3.62752E+005   -4.00960E+002    1.59176E+003
            3131    5.95002E+005    3.43362E+005   -3.43686E+005   -1.40611E+003   -3.43686E+005    6.87048E+005    5.76572E+002    1.09739E+005   -3.49807E+002    5.72801E+001   -1.43719E+003    3.43445E+005    7.14682E+002   -7.34846E+003
            3132    6.03930E+005    3.51027E+005    3.51027E+005    9.23948E+002   -3.46330E+005    6.97357E+005   -1.87360E+003    1.15944E+005    6.87088E+002    4.01600E+003    9.17696E+002    3.48667E+005    2.18638E+003   -4.88837E+002
            3133    6.12117E+005    3.57548E+005    3.57548E+005   -7.46336E+002   -3.49241E+005    7.06789E+005   -2.52009E+003    1.76593E+005    1.14961E+002    8.14393E+003   -6.98625E+002    3.53348E+005    2.83552E+003    3.01217E+003
            3134    6.20293E+005    3.65311E+005    3.65311E+005    6.44909E+002   -3.50902E+005    7.16212E+005   -5.01790E+003    1.96354E+005   -1.57661E+002    1.44607E+004    7.50617E+002    3.57973E+005    3.47787E+003    5.49805E+003
            3135    6.27366E+005    3.71157E+005    3.71157E+005   -1.82423E+002   -3.53186E+005    7.24343E+005   -5.92940E+003    2.21191E+005   -1.34645E+003    1.92340E+004   -9.93001E+001    3.61977E+005    2.94358E+003    5.17610E+003
            3136    6.32780E+005    3.76191E+005    3.76191E+005    4.33979E+002   -3.54380E+005    7.30571E+005   -7.41514E+003    2.32539E+005   -1.95207E+003    2.37133E+004    4.84140E+002    3.65031E+005    2.27323E+003    4.07767E+003
            3137    6.35662E+005    3.78669E+005    3.78669E+005    1.75008E+002   -3.55209E+005    7.33878E+005   -7.87827E+003    2.41018E+005   -2.55335E+003    2.60090E+004    1.79164E+002    3.66658E+005    6.07338E+002    1.26660E+003
            3138    5.95481E+005    3.66792E+005    3.66792E+005    2.56942E+003   -3.20397E+005    6.87189E+005   -1.63211E+004    2.79814E+005    1.25486E+004    3.45039E+004    1.91101E+003    3.42911E+005    1.74057E+004   -5.63114E+003
            3139    6.03125E+005    3.72082E+005    3.72082E+005    1.86272E+002   -3.23797E+005    6.95879E+005   -1.61570E+004    2.96583E+005    7.98780E+003    4.03625E+004    1.20751E+002    3.47233E+005    1.50735E+004    1.19342E+002
            3140    6.12281E+005    3.80543E+005    3.80543E+005    2.34204E+003   -3.25869E+005    7.06412E+005   -1.90056E+004    3.03835E+005    5.37248E+003    4.90323E+004    2.61191E+003    3.52248E+005    1.36579E+004    4.38731E+003
            3141    6.21638E+005    3.88253E+005    3.88253E+005    1.44908E+003   -3.28810E+005    7.17063E+005   -2.02972E+004    3.19732E+005    2.17880E+003    5.69366E+004    1.77635E+003    3.57258E+005    1.16698E+004    5.91725E+003
            3142    6.30696E+005    3.96791E+005    3.96791E+005    2.68556E+003   -3.30627E+005    7.27418E+005   -2.29497E+004    3.30682E+005    3.75556E+002    6.54966E+004    2.97687E+003    3.62081E+005    9.44074E+003    6.39758E+003
            3143    6.37759E+005    4.02737E+005    4.02737E+005    2.28605E+003   -3.32713E+005    7.35450E+005   -2.41034E+004    3.41403E+005   -1.35767E+003    7.12615E+004    2.40644E+003    3.65861E+005    5.87434E+003    4.29415E+003
            3144    6.41743E+005    4.06520E+005    4.06520E+005    2.73257E+003   -3.33474E+005    7.39994E+005   -2.52596E+004    3.46479E+005   -1.99681E+003    7.50250E+004    2.75056E+003    3.67977E+005    2.16319E+003    1.73825E+003
            3145    6.07368E+005    3.94304E+005    3.94304E+005    3.41258E+001   -3.05135E+005    6.99439E+005   -2.97343E+004    3.65805E+005    2.50187E+004    6.50903E+004   -9.05994E+002    3.47541E+005    3.27398E+004   -1.85460E+003
            3146    6.17623E+005    4.01880E+005    4.01880E+005    2.38222E+003   -3.09494E+005    7.11374E+005   -3.15894E+004    3.67910E+005    1.80932E+004    7.42808E+004    2.39412E+003    3.53483E+005    2.76742E+004    2.89653E+003
            3147    6.28359E+005    4.09616E+005    4.09616E+005    2.06681E+003   -3.14027E+005    7.23643E+005   -3.25518E+004    3.77467E+005    1.12429E+004    8.39097E+004    2.50273E+003    3.59207E+005    2.34267E+004    6.01109E+003
            3148    6.40202E+005    4.20135E+005    4.20135E+005    3.96178E+003   -3.17063E+005    7.37198E+005   -3.56779E+004    3.87233E+005    6.60317E+003    9.58421E+004    4.58831E+003    3.65284E+005    2.00959E+004    8.22343E+003
            3149    6.51687E+005    4.29686E+005    4.29686E+005    3.59018E+003   -3.20510E+005    7.50196E+005   -3.75884E+004    4.00924E+005    2.32626E+003    1.06408E+005    4.03072E+003    3.71111E+005    1.52781E+004    7.46576E+003
            3150    6.60340E+005    4.37345E+005    4.37345E+005    4.73347E+003   -3.22729E+005    7.60074E+005   -3.97833E+004    4.08554E+005   -3.41891E+002    1.14750E+005    4.94233E+003    3.75502E+005    9.80890E+003    5.43016E+003
            3151    6.65339E+005    4.41685E+005    4.41685E+005    4.65221E+003   -3.24031E+005    7.65716E+005   -4.07686E+004    4.14682E+005   -1.82798E+003    1.19459E+005    4.67462E+003    3.78009E+005    3.20129E+003    1.80687E+003
            3152    6.19704E+005    4.23529E+005    4.23529E+005    1.50573E+003   -2.87937E+005    7.11466E+005   -4.56990E+004    4.22104E+005    3.86100E+004    9.81443E+004    3.42692E+002    3.51440E+005    4.54766E+004    1.89324E+003
            3153    6.27038E+005    4.27021E+005    4.27021E+005    1.45037E+003   -2.93055E+005    7.20076E+005   -4.51388E+004    4.23901E+005    2.76283E+004    1.06360E+005    1.42829E+003    3.55769E+005    3.83886E+004    5.58988E+003
            3154    6.40242E+005    4.39001E+005    4.39001E+005    5.56582E+003   -2.96379E+005    7.35380E+005   -4.93962E+004    4.30370E+005    2.13473E+004    1.20509E+005    6.33258E+003    3.62756E+005    3.32651E+004    9.45173E+003
            3155    6.56045E+005    4.52207E+005    4.52207E+005    5.81646E+003   -3.01032E+005    7.53239E+005   -5.23304E+004    4.46020E+005    1.47985E+004    1.35567E+005    6.62516E+003    3.70633E+005    2.79003E+004    1.02553E+004
            3156    6.71327E+005    4.66413E+005    4.66413E+005    8.73861E+003   -3.04254E+005    7.70667E+005   -5.69661E+004    4.58352E+005    1.14297E+004    1.50088E+005    9.38002E+003    3.78375E+005    2.14668E+004    9.66290E+003
            3157    6.83838E+005    4.77215E+005    4.77215E+005    9.33911E+003   -3.07590E+005    7.84805E+005   -5.96546E+004    4.70511E+005    8.16679E+003    1.61186E+005    9.61089E+003    3.84611E+005    1.33437E+004    6.55077E+003
            3158    6.90772E+005    4.83688E+005    4.83688E+005    1.04953E+004   -3.08996E+005    7.92684E+005   -6.17289E+004    4.76508E+005    7.11165E+003    1.67547E+005    1.05280E+004    3.88108E+005    4.60433E+003    2.30945E+003
            3159    6.33318E+005    4.53644E+005    4.53644E+005    1.55000E+003   -2.70197E+005    7.23841E+005   -6.16658E+004    4.72622E+005    6.02118E+004    1.24762E+005    2.35255E+001    3.56215E+005    5.38088E+004    4.57317E+003
            3160    6.44014E+005    4.61387E+005    4.61387E+005    6.07100E+003   -2.75456E+005    7.36843E+005   -6.40009E+004    4.72510E+005    4.95950E+004    1.36072E+005    6.33549E+003    3.62587E+005    4.82134E+004    9.71237E+003
            3161    6.60165E+005    4.74544E+005    4.74544E+005    7.54546E+003   -2.80733E+005    7.55277E+005   -6.71189E+004    4.84852E+005    4.02607E+004    1.52649E+005    8.44720E+003    3.70984E+005    4.18879E+004    1.22040E+004
            3162    6.78354E+005    4.91397E+005    4.91397E+005    1.24609E+004   -2.84848E+005    7.76245E+005   -7.30033E+004    4.96471E+005    3.46243E+004    1.70819E+005    1.35670E+004    3.80317E+005    3.58209E+004    1.33317E+004
            3163    6.97024E+005    5.07922E+005    5.07922E+005    1.40494E+004   -2.89387E+005    7.97309E+005   -7.75281E+004    5.13410E+005    2.96204E+004    1.88116E+005    1.48483E+004    3.89644E+005    2.75528E+004    1.18038E+004
            3164    7.11206E+005    5.21102E+005    5.21102E+005    1.76108E+004   -2.92503E+005    8.13605E+005   -8.20700E+004    5.23059E+005    2.69227E+004    2.01328E+005    1.79594E+004    3.96931E+005    1.73008E+004    8.00189E+003
            3165    7.19947E+005    5.29412E+005    5.29412E+005    1.85952E+004   -2.93996E+005    8.23408E+005   -8.46705E+004    5.31593E+005    2.57972E+004    2.09572E+005    1.86421E+004    4.01270E+005    5.87881E+003    2.99785E+003
            3166    6.36666E+005    4.69779E+005    4.69779E+005    3.94778E+003   -2.55676E+005    7.25455E+005   -7.26838E+004    4.94600E+005    7.23359E+004    1.43813E+005    1.90274E+003    3.55409E+005    6.10016E+004    6.56467E+003
            3167    6.47346E+005    4.79788E+005    4.79788E+005    4.85629E+003   -2.57564E+005    7.37352E+005   -7.56934E+004    5.04994E+005    6.45409E+004    1.57723E+005    4.81596E+003    3.60965E+005    5.74519E+004    1.22639E+004
            3168    6.68570E+005    5.01789E+005    5.01789E+005    1.34677E+004   -2.60196E+005    7.61985E+005   -8.50204E+004    5.17983E+005    6.18237E+004    1.78928E+005    1.43094E+004    3.72822E+005    5.10937E+004    1.44988E+004
            3169    6.92981E+005    5.25470E+005    5.25470E+005    1.81839E+004   -2.64101E+005    7.89571E+005   -9.31842E+004    5.38759E+005    5.74593E+004    2.02784E+005    1.93093E+004    3.85398E+005    4.39277E+004    1.54948E+004
            3170    7.17161E+005    5.50353E+005    5.50353E+005    2.61433E+004   -2.66929E+005    8.17283E+005   -1.03189E+005    5.56284E+005    5.71069E+004    2.25488E+005    2.69722E+004    3.98340E+005    3.37933E+004    1.33563E+004
            3171    7.37258E+005    5.69931E+005    5.69931E+005    2.99592E+004   -2.70030E+005    8.39961E+005   -1.09953E+005    5.73629E+005    5.56423E+004    2.43812E+005    3.04058E+004    4.08686E+005    2.15352E+004    9.87582E+003
            3172    7.48928E+005    5.82416E+005    5.82416E+005    3.36575E+004   -2.70790E+005    8.53207E+005   -1.15095E+005    5.83100E+005    5.66572E+004    2.54931E+005    3.36949E+004    4.14854E+005    7.32335E+003    3.01496E+003
            3173    6.50349E+005    5.07720E+005    5.07720E+005    6.81874E+003   -2.27268E+005    7.34988E+005   -9.57567E+004    5.42632E+005    1.16361E+005    1.67009E+005    3.90049E+003    3.60389E+005    6.38984E+004    7.20707E+003
            3174    6.55779E+005    5.08092E+005    5.08092E+005    1.23873E+004   -2.35496E+005    7.43588E+005   -9.49946E+004    5.33975E+005    9.71894E+004    1.76307E+005    1.14870E+004    3.63329E+005    6.61562E+004    1.30102E+004
            3175    6.77141E+005    5.35991E+005    5.35991E+005    2.00604E+004   -2.30778E+005    7.66770E+005   -1.08424E+005    5.57217E+005    1.05052E+005    2.00091E+005    2.01304E+004    3.75451E+005    5.95771E+004    1.49022E+004
            3176    6.98453E+005    5.59729E+005    5.59729E+005    3.23063E+004   -2.32381E+005    7.92111E+005   -1.19885E+005    5.67938E+005    1.03297E+005    2.23096E+005    3.32621E+004    3.87682E+005    5.30996E+004    1.67230E+004
            3177    7.24040E+005    5.90750E+005    5.90750E+005    4.21433E+004   -2.29911E+005    8.20661E+005   -1.34328E+005    5.91445E+005    1.10006E+005    2.49681E+005    4.32962E+004    4.02091E+005    4.13364E+004    1.63313E+004
            3178    7.45267E+005    6.14395E+005    6.14395E+005    5.14659E+004   -2.30768E+005    8.45163E+005   -1.45031E+005    6.06231E+005    1.11999E+005    2.71040E+005    5.20549E+004    4.14073E+005    2.72125E+004    1.17173E+004
            3179    7.58237E+005    6.29717E+005    6.29717E+005    5.60641E+004   -2.29922E+005    8.59639E+005   -1.51953E+005    6.18129E+005    1.15560E+005    2.84138E+005    5.61624E+004    4.21365E+005    9.14148E+003    4.73873E+003
            3180    7.40520E+005    6.73399E+005    6.73399E+005    9.79480E+004   -1.62061E+005    8.35459E+005   -2.03095E+005    6.24688E+005    1.95763E+005    3.15545E+005    9.79773E+004    4.13229E+005    1.19816E+004    3.73479E+003
            3181    7.25530E+005    6.51154E+005    6.51154E+005    8.57941E+004   -1.66941E+005    8.18095E+005   -1.90002E+005    6.14082E+005    1.86816E+005    2.97040E+005    8.61516E+004    4.03858E+005    3.33828E+004    1.10689E+004
            3182    7.02163E+005    6.15921E+005    6.15921E+005    6.81953E+004   -1.75659E+005    7.91579E+005   -1.69486E+005    5.95051E+005    1.72587E+005    2.67621E+005    6.82500E+004    3.89450E+005    5.04407E+004    1.35873E+004
            3183    6.79316E+005    5.78284E+005    5.78284E+005    4.69491E+004   -1.87115E+005    7.65399E+005   -1.46039E+005    5.77537E+005    1.55948E+005    2.35780E+005    4.63894E+004    3.75033E+005    6.25504E+004    1.48254E+004
            3184    6.56990E+005    5.41627E+005    5.41627E+005    3.13888E+004   -1.99680E+005    7.41307E+005   -1.24445E+005    5.53825E+005    1.40176E+005    2.04296E+005    2.88632E+004    3.61624E+005    7.13166E+004    1.18643E+004
            3185    6.41788E+005    5.12517E+005    5.12517E+005    1.17443E+004   -2.10956E+005    7.23473E+005   -1.04435E+005    5.44071E+005    1.25864E+005    1.79885E+005    7.55559E+003    3.51663E+005    7.58804E+004    1.01610E+004
            3186    6.17363E+005    4.78106E+005    4.78106E+005    2.98973E+003   -2.19708E+005    6.97814E+005   -8.71293E+004    5.14593E+005    1.12324E+005    1.50518E+005   -1.45483E+003    3.38199E+005    7.95527E+004    9.41620E+003
            3187    6.64668E+005    2.29407E+005   -5.19302E+005    1.20484E+003   -5.19302E+005    7.48708E+005    9.62301E+004   -5.65890E+005   -1.15123E+005   -1.76482E+005    2.91438E+003    3.68216E+005    5.72406E+004   -9.39432E+003
            3188    6.56734E+005    2.47007E+005   -4.97986E+005   -2.85413E+003   -4.97986E+005    7.44993E+005    8.46112E+004   -5.32861E+005   -9.66296E+004   -1.57063E+005   -1.40869E+002    3.63482E+005    7.27463E+004   -9.55693E+003
            3189    6.31224E+005    2.66020E+005   -4.53641E+005    6.24098E+003   -4.53641E+005    7.19661E+005    6.04598E+004   -4.87122E+005   -7.29298E+004   -1.16769E+005    8.31929E+003    3.52278E+005    6.80964E+004   -7.01642E+003
            3190    6.15550E+005    2.81770E+005   -4.24285E+005   -4.26111E+002   -4.24285E+005    7.06054E+005    4.76470E+004   -4.29252E+005   -5.38997E+004   -9.18073E+004    2.76596E+003    3.47482E+005    5.73433E+004    1.73596E+003
            3191    6.16294E+005    2.91957E+005   -4.15879E+005    1.64157E+003   -4.15879E+005    7.07836E+005    4.07602E+004   -4.14942E+005   -3.21972E+004   -9.23268E+004    2.24336E+003    3.49906E+005    4.32342E+004   -3.44664E+003
            3192    6.22910E+005    2.98097E+005   -4.18070E+005   -2.14110E+003   -4.18070E+005    7.16167E+005    4.07044E+004   -4.05265E+005   -2.13022E+004   -9.85781E+004   -2.23303E+003    3.54230E+005    3.50663E+004   -5.25207E+003
            3193    6.31643E+005    3.05810E+005   -4.20782E+005   -2.52132E+003   -4.20782E+005    7.26592E+005    3.91644E+004   -4.02328E+005   -1.22086E+004   -1.02123E+005   -3.16115E+003    3.59448E+005    2.70338E+004   -7.99935E+003
            3194    6.40643E+005    3.11277E+005   -4.25905E+005   -3.97518E+003   -4.25905E+005    7.37182E+005    3.95346E+004   -4.02212E+005   -5.57337E+003   -1.08382E+005   -4.64793E+003    3.64275E+005    2.19111E+004   -8.73295E+003
            3195    6.50104E+005    3.16759E+005   -4.31330E+005   -3.36822E+003   -4.31330E+005    7.48090E+005    3.93132E+004   -4.07635E+005   -8.42614E+002   -1.13241E+005   -3.85552E+003    3.69419E+005    1.55177E+004   -8.10539E+003
            3196    6.56849E+005    3.20081E+005   -4.35832E+005   -4.04185E+003   -4.35832E+005    7.55913E+005    3.99310E+004   -4.10267E+005    2.31045E+003   -1.17861E+005   -4.24278E+003    3.73000E+005    9.68641E+003   -5.34172E+003
            3197    6.60565E+005    3.22269E+005   -4.37928E+005   -3.77065E+003   -4.37928E+005    7.60197E+005    3.98099E+004   -4.12390E+005    3.83547E+003   -1.19468E+005   -3.79717E+003    3.75048E+005    3.12172E+003   -2.07056E+003
            3198    6.44959E+005    2.73394E+005   -4.64015E+005   -5.07692E+003   -4.64015E+005    7.37410E+005    6.52326E+004   -4.78655E+005   -5.80658E+004   -1.33812E+005   -3.81989E+003    3.62657E+005    5.33346E+004   -5.45504E+003
            3199    6.51671E+005    2.83854E+005   -4.62411E+005   -5.66338E+003   -4.62411E+005    7.46265E+005    6.14067E+004   -4.70552E+005   -4.13289E+004   -1.37146E+005   -5.74572E+003    3.67537E+005    4.23328E+004   -7.99023E+003
            3200    6.61665E+005    2.89739E+005   -4.68747E+005   -9.97752E+003   -4.68747E+005    7.58486E+005    6.29952E+004   -4.67901E+005   -3.05975E+004   -1.47599E+005   -1.07895E+004    3.72868E+005    3.63114E+004   -1.08748E+004
            3201    6.75198E+005    2.96832E+005   -4.77219E+005   -9.41355E+003   -4.77219E+005    7.74051E+005    6.32668E+004   -4.76767E+005   -2.19114E+004   -1.57534E+005   -1.03547E+004    3.79828E+005    2.92782E+004   -1.18134E+004
            3202    6.86830E+005    3.01314E+005   -4.86183E+005   -1.10582E+004   -4.86183E+005    7.87497E+005    6.53091E+004   -4.83471E+005   -1.65782E+004   -1.67628E+005   -1.17207E+004    3.85726E+005    2.23024E+004   -1.02563E+004
            3203    6.96839E+005    3.05637E+005   -4.93295E+005   -1.09715E+004   -4.93295E+005    7.98932E+005    6.62098E+004   -4.91078E+005   -1.25950E+004   -1.74768E+005   -1.12669E+004    3.90877E+005    1.36791E+004   -7.08710E+003
            3204    7.01560E+005    3.07600E+005   -4.96796E+005   -1.15455E+004   -4.96796E+005    8.04395E+005    6.69139E+004   -4.93709E+005   -1.07941E+004   -1.78371E+005   -1.15769E+004    3.93340E+005    4.82873E+003   -2.30324E+003
            3205    6.37254E+005    2.58094E+005   -4.68027E+005   -1.74764E+003   -4.68027E+005    7.26121E+005    7.05602E+004   -4.95086E+005   -6.83176E+004   -1.43538E+005    1.74723E+002    3.56385E+005    5.61776E+004   -5.58267E+003
            3206    6.43744E+005    2.61192E+005   -4.73554E+005   -8.61750E+003   -4.73554E+005    7.34746E+005    7.36600E+004   -4.89902E+005   -6.01082E+004   -1.51576E+005   -9.29593E+003    3.60376E+005    5.38154E+004   -1.30427E+004
            3207    6.64163E+005    2.67503E+005   -4.90354E+005   -9.68474E+003   -4.90354E+005    7.57858E+005    7.75120E+004   -5.07131E+005   -5.14354E+004   -1.69890E+005   -1.12107E+004    3.71355E+005    4.54985E+004   -1.60579E+004
            3208    6.83300E+005    2.72070E+005   -5.07918E+005   -1.49054E+004   -5.07918E+005    7.79988E+005    8.35847E+004   -5.19157E+005   -4.47482E+004   -1.89663E+005   -1.63432E+004    3.81012E+005    3.95672E+004   -1.60017E+004
            3209    7.05033E+005    2.78330E+005   -5.26384E+005   -1.72614E+004   -5.26384E+005    8.04714E+005    8.84384E+004   -5.36408E+005   -3.95976E+004   -2.07476E+005   -1.82418E+004    3.92238E+005    3.01901E+004   -1.36897E+004
            3210    7.20405E+005    2.82446E+005   -5.40060E+005   -2.11184E+004   -5.40060E+005    8.22506E+005    9.29105E+004   -5.45887E+005   -3.58916E+004   -2.21333E+005   -2.15072E+004    4.00165E+005    1.90688E+004   -8.85017E+003
            3211    7.29362E+005    2.85332E+005   -5.47458E+005   -2.23681E+004   -5.47458E+005    8.32790E+005    9.48314E+004   -5.52146E+005   -3.37920E+004   -2.28285E+005   -2.24172E+004    4.04822E+005    6.51446E+003   -3.18135E+003
            3212    6.62385E+005    2.38840E+005   -5.13964E+005   -2.04361E+004   -5.13964E+005    7.52804E+005    9.85198E+004   -5.28648E+005   -1.01365E+005   -1.76374E+005   -1.78199E+004    3.69381E+005    5.90968E+004   -5.10251E+003
            3213    6.64935E+005    2.38735E+005   -5.14754E+005   -1.02232E+004   -5.14754E+005    7.53489E+005    9.54141E+004   -5.44182E+005   -8.94946E+004   -1.86761E+005   -9.98622E+003    3.69090E+005    5.60684E+004   -1.30345E+004
            3214    6.79060E+005    2.36668E+005   -5.33368E+005   -2.02619E+004   -5.33368E+005    7.70036E+005    1.05654E+005   -5.52646E+005   -9.17209E+004   -2.04746E+005   -2.04960E+004    3.76495E+005    5.57575E+004   -1.47477E+004
            3215    7.06274E+005    2.40198E+005   -5.60978E+005   -2.84410E+004   -5.60978E+005    8.01176E+005    1.16407E+005   -5.73138E+005   -9.11902E+004   -2.28702E+005   -2.93294E+004    3.91423E+005    4.88431E+004   -1.61925E+004
            3216    7.31088E+005    2.41655E+005   -5.88196E+005   -3.91060E+004   -5.88196E+005    8.29851E+005    1.28549E+005   -5.90086E+005   -9.37164E+004   -2.52005E+005   -3.99258E+004    4.05346E+005    3.86375E+004   -1.45096E+004
            3217    7.52446E+005    2.45004E+005   -6.09246E+005   -4.47653E+004   -6.09246E+005    8.54250E+005    1.36336E+005   -6.06355E+005   -9.38310E+004   -2.69894E+005   -4.52823E+004    4.17163E+005    2.46976E+004   -1.10436E+004
            3218    7.64164E+005    2.46271E+005   -6.21307E+005   -4.81352E+004   -6.21307E+005    8.67578E+005    1.41057E+005   -6.15648E+005   -9.46305E+004   -2.80345E+005   -4.81961E+004    4.23637E+005    8.68525E+003   -3.87252E+003
            3219    7.37026E+005    1.67354E+005   -6.64841E+005   -9.44864E+004   -6.64841E+005    8.32195E+005    1.97325E+005   -6.18583E+005   -1.89059E+005   -3.08375E+005   -9.45399E+004    4.11625E+005    1.16163E+004   -4.01220E+003
            3220    7.22750E+005    1.70817E+005   -6.44845E+005   -8.40812E+004   -6.44845E+005    8.15662E+005    1.86036E+005   -6.08539E+005   -1.82306E+005   -2.91450E+005   -8.43536E+004    4.02784E+005    3.24109E+004   -1.02159E+004
            3221    7.01765E+005    1.78298E+005   -6.13084E+005   -6.65286E+004   -6.13084E+005    7.91382E+005    1.67105E+005   -5.93595E+005   -1.70577E+005   -2.63981E+005   -6.67570E+004    3.89643E+005    4.91349E+004   -1.37462E+004
            3222    6.77659E+005    1.87746E+005   -5.76313E+005   -4.80587E+004   -5.76313E+005    7.64059E+005    1.45542E+005   -5.73821E+005   -1.56105E+005   -2.33344E+005   -4.71762E+004    3.74607E+005    6.17716E+004   -1.34017E+004
            3223    6.57386E+005    1.99052E+005   -5.41241E+005   -2.57297E+004   -5.41241E+005    7.40293E+005    1.22639E+005   -5.60593E+005   -1.41713E+005   -2.03068E+005   -2.31370E+004    3.61465E+005    6.99211E+004   -1.18264E+004
            3224    6.28816E+005    2.04729E+005   -5.03347E+005   -1.00946E+004   -5.03347E+005    7.08076E+005    1.02904E+005   -5.36414E+005   -1.28820E+005   -1.74642E+005   -5.25044E+003    3.44720E+005    7.23432E+004   -7.76564E+003
            3225    6.21378E+005    2.06049E+005   -4.87973E+005    1.67135E+004   -4.87973E+005    6.94021E+005    8.84034E+004   -5.50644E+005   -1.22044E+005   -1.62596E+005    1.94299E+004    3.41206E+005    5.55091E+004   -8.27151E+003
            3226    7.58155E+005    6.29905E+005    6.29905E+005    5.61767E+004   -2.29607E+005    8.59513E+005   -1.52158E+005    6.18261E+005    1.15950E+005    2.84248E+005    5.62771E+004    4.21322E+005   -9.39621E+003   -4.79333E+003
            3227    7.48898E+005    5.82713E+005    5.82713E+005    3.38095E+004   -2.70424E+005    8.53137E+005   -1.15366E+005    5.83348E+005    5.71255E+004    2.55119E+005    3.38539E+004    4.14843E+005   -7.79414E+003   -3.26125E+003
            3228    7.20007E+005    5.29634E+005    5.29634E+005    1.86315E+004   -2.93818E+005    8.23451E+005   -8.48160E+004    5.31900E+005    2.59968E+004    2.09767E+005    1.86843E+004    4.01285E+005   -6.37065E+003   -3.17747E+003
            3229    6.90650E+005    4.83625E+005    4.83625E+005    1.04603E+004   -3.08910E+005    7.92536E+005   -6.17251E+004    4.76545E+005    7.18880E+003    1.67488E+005    1.04985E+004    3.88041E+005   -5.04013E+003   -2.49150E+003
            3230    6.65231E+005    4.41583E+005    4.41583E+005    4.64422E+003   -3.24012E+005    7.65595E+005   -4.07386E+004    4.14554E+005   -1.81705E+003    1.19362E+005    4.67083E+003    3.77953E+005   -3.48841E+003   -1.96888E+003
            3231    6.41633E+005    4.06410E+005    4.06410E+005    2.71021E+003   -3.33458E+005    7.39868E+005   -2.52205E+004    3.46354E+005   -1.99436E+003    7.49251E+004    2.73066E+003    3.67918E+005   -2.30632E+003   -1.85153E+003
            3232    6.35670E+005    3.78720E+005    3.78720E+005    2.10652E+002   -3.55167E+005    7.33887E+005   -7.92111E+003    2.41095E+005   -2.53719E+003    2.60850E+004    2.15465E+002    3.66661E+005   -6.70238E+002   -1.33093E+003
            3233    6.28614E+005    3.55236E+005   -3.70565E+005    3.56385E+002   -3.70565E+005    7.25801E+005    4.99088E+003   -2.11839E+005    2.81544E+003   -1.81411E+004    3.53049E+002    3.62746E+005    3.74805E+002   -1.60137E+003
            3234    6.45417E+005    3.37948E+005   -4.06407E+005   -2.37253E+003   -4.06407E+005    7.44355E+005    2.36107E+004   -3.41087E+005    2.03126E+003   -7.04767E+004   -2.38654E+003    3.70400E+005    2.01139E+003   -1.47119E+003
            3235    7.44866E+005    6.14383E+005    6.14383E+005    5.15607E+004   -2.30276E+005    8.44659E+005   -1.45223E+005    6.06190E+005    1.12616E+005    2.70880E+005    5.21718E+004    4.13858E+005   -2.76587E+004   -1.19229E+004
            3236    7.36813E+005    5.69933E+005    5.69933E+005    3.01208E+004   -2.69487E+005    8.39420E+005   -1.10189E+005    5.73553E+005    5.63006E+004    2.43680E+005    3.05854E+004    4.08463E+005   -2.21542E+004   -1.00773E+004
            3237    7.10619E+005    5.20656E+005    5.20656E+005    1.74734E+004   -2.92260E+005    8.12915E+005   -8.19566E+004    5.22825E+005    2.71303E+004    2.00892E+005    1.78471E+004    3.96619E+005   -1.79099E+004   -8.27961E+003
            3238    6.83078E+005    4.76391E+005    4.76391E+005    9.19713E+003   -3.07563E+005    7.83955E+005   -5.93417E+004    4.69641E+005    8.19514E+003    1.60345E+005    9.48478E+003    3.84246E+005   -1.37852E+004   -6.71998E+003
            3239    6.59618E+005    4.36443E+005    4.36443E+005    4.62154E+003   -3.22831E+005    7.59274E+005   -3.94110E+004    4.07257E+005   -3.70302E+002    1.13762E+005    4.84135E+003    3.75164E+005   -1.00138E+004   -5.56943E+003
            3240    6.37352E+005    4.02153E+005    4.02153E+005    2.28395E+003   -3.32847E+005    7.35001E+005   -2.38633E+004    3.40020E+005   -1.32140E+003    7.05033E+004    2.40804E+003    3.65672E+005   -5.96638E+003   -4.35058E+003
            3241    6.32637E+005    3.75827E+005    3.75827E+005    4.25772E+002   -3.54585E+005    7.30411E+005   -7.22267E+003    2.30441E+005   -1.97473E+003    2.31671E+004    4.75631E+002    3.64960E+005   -2.23336E+003   -4.12008E+003
            3242    6.25992E+005    3.52578E+005   -3.70182E+005    5.56867E+001   -3.70182E+005    7.22761E+005    5.84942E+003   -2.18350E+005    2.61031E+003   -2.01763E+004    1.77694E+001    3.61177E+005    1.85413E+003   -3.72007E+003
            3243    6.43398E+005    3.36102E+005   -4.05874E+005   -2.26132E+003   -4.05874E+005    7.41976E+005    2.40109E+004   -3.43065E+005    1.41517E+003   -7.10728E+004   -2.37509E+003    3.69153E+005    5.38355E+003   -4.39160E+003
            3244    7.23316E+005    5.90103E+005    5.90103E+005    4.19500E+004   -2.29714E+005    8.19816E+005   -1.34113E+005    5.90990E+005    1.10244E+005    2.48990E+005    4.31048E+004    4.01678E+005   -4.19121E+004   -1.63954E+004
            3245    7.15844E+005    5.49078E+005    5.49078E+005    2.57916E+004   -2.66697E+005    8.15775E+005   -1.02724E+005    5.55326E+005    5.72813E+004    2.24255E+005    2.66369E+004    3.97659E+005   -3.44105E+004   -1.34871E+004
            3246    6.95270E+005    5.05886E+005    5.05886E+005    1.36579E+004   -2.89486E+005    7.95372E+005   -7.66858E+004    5.11372E+005    2.93789E+004    1.86198E+005    1.44809E+004    3.88785E+005   -2.80543E+004   -1.19278E+004
            3247    6.69549E+005    4.64196E+005    4.64196E+005    8.40832E+003   -3.04520E+005    7.68716E+005   -5.60283E+004    4.55661E+005    1.12316E+004    1.47787E+005    9.06654E+003    3.77558E+005   -2.17070E+004   -9.73149E+003
            3248    6.50345E+005    4.27793E+005    4.27793E+005    3.44914E+003   -3.20940E+005    7.48733E+005   -3.67675E+004    3.97725E+005    2.19091E+003    1.04220E+005    3.89134E+003    3.70515E+005   -1.52571E+004   -7.44292E+003
            3249    6.29901E+005    3.95449E+005    3.95449E+005    2.62703E+003   -3.31098E+005    7.26547E+005   -2.23260E+004    3.27322E+005    3.88610E+002    6.36743E+004    2.91518E+003    3.61729E+005   -9.29908E+003   -6.38151E+003
            3250    6.27234E+005    3.70412E+005    3.70412E+005   -1.64152E+002   -3.53789E+005    7.24201E+005   -5.48642E+003    2.15453E+005   -1.34399E+003    1.78900E+004   -8.67893E+001    3.61927E+005   -2.75942E+003   -5.12762E+003
            3251    6.21193E+005    3.48603E+005   -3.68586E+005    4.64864E+002   -3.68586E+005    7.17190E+005    6.50606E+003   -2.29578E+005    2.20144E+003   -2.20882E+004    3.68533E+002    3.58333E+005    3.12604E+003   -5.59691E+003
            3252    6.38953E+005    3.32329E+005   -4.04482E+005   -3.01441E+003   -4.04482E+005    7.36811E+005    2.50556E+004   -3.42987E+005   -4.88468E+002   -7.14011E+004   -3.27739E+003    3.66536E+005    9.48532E+003   -5.95951E+003
            3253    6.97342E+005    5.58333E+005    5.58333E+005    3.16547E+004   -2.32494E+005    7.90827E+005   -1.19165E+005    5.67172E+005    1.02973E+005    2.21922E+005    3.26001E+004    3.87025E+005   -5.35662E+004   -1.67556E+004
            3254    6.91012E+005    5.23054E+005    5.23054E+005    1.75726E+004   -2.64349E+005    7.87403E+005   -9.20923E+004    5.36633E+005    5.70527E+004    2.00533E+005    1.86910E+004    3.84414E+005   -4.43382E+004   -1.54384E+004
            3255    6.75846E+005    4.88164E+005    4.88164E+005    1.18212E+004   -2.85349E+005    7.73513E+005   -7.15454E+004    4.93084E+005    3.39485E+004    1.67756E+005    1.29314E+004    3.79120E+005   -3.59893E+004   -1.32509E+004
            3256    6.53822E+005    4.49212E+005    4.49212E+005    5.51337E+003   -3.01630E+005    7.50841E+005   -5.10318E+004    4.41895E+005    1.43822E+004    1.32402E+005    6.31171E+003    3.69646E+005   -2.77927E+004   -1.00793E+004
            3257    6.38637E+005    4.17701E+005    4.17701E+005    3.79308E+003   -3.17806E+005    7.35506E+005   -3.45626E+004    3.82768E+005    6.29841E+003    9.29841E+004    4.40534E+003    3.64605E+005   -1.97520E+004   -8.06864E+003
            3258    6.20876E+005    3.86726E+005    3.86726E+005    1.42589E+003   -3.29513E+005    7.16239E+005   -1.95462E+004    3.15325E+005    2.10751E+003    5.47915E+004    1.73957E+003    3.56935E+005   -1.12862E+004   -5.80544E+003
            3259    6.20218E+005    3.64413E+005    3.64413E+005    6.22974E+002   -3.51723E+005    7.16136E+005   -4.43749E+003    1.87599E+005   -2.66419E+002    1.28603E+004    7.18587E+002    3.57953E+005   -3.13977E+003   -5.49241E+003
            3260    6.14817E+005    3.42648E+005   -3.67150E+005   -3.94436E+002   -3.67150E+005    7.09798E+005    8.29850E+003   -2.37746E+005    9.34070E+002   -2.52829E+004   -5.46729E+002    3.54580E+005    5.47957E+003   -5.11207E+003
            3261    6.33025E+005    3.28117E+005   -4.01744E+005   -2.20814E+003   -4.01744E+005    7.29861E+005    2.52781E+004   -3.46037E+005   -3.00654E+003   -7.02320E+004   -2.59575E+003    3.63101E+005    1.30968E+004   -6.60144E+003
            3262    6.76001E+005    5.34353E+005    5.34353E+005    1.95051E+004   -2.31182E+005    7.65535E+005   -1.07559E+005    5.55975E+005    1.04473E+005    1.98643E+005    1.95598E+004    3.74832E+005   -5.98424E+004   -1.48714E+004
            3263    6.66543E+005    4.98988E+005    4.98988E+005    1.26928E+004   -2.60800E+005    7.59788E+005   -8.36271E+004    5.15511E+005    6.10199E+004    1.76359E+005    1.35024E+004    3.71827E+005   -5.11828E+004   -1.42965E+004
            3264    6.57836E+005    4.71240E+005    4.71240E+005    7.06736E+003   -2.81574E+005    7.52813E+005   -6.55777E+004    4.80932E+005    3.93673E+004    1.49435E+005    7.93052E+003    3.69931E+005   -4.16938E+004   -1.18711E+004
            3265    6.38226E+005    4.35991E+005    4.35991E+005    5.28743E+003   -2.97244E+005    7.33235E+005   -4.80114E+004    4.25910E+005    2.06613E+004    1.17353E+005    6.01963E+003    3.61879E+005   -3.28285E+004   -9.11947E+003
            3266    6.27177E+005    4.07502E+005    4.07502E+005    1.98312E+003   -3.14889E+005    7.22390E+005   -3.15319E+004    3.73144E+005    1.08233E+004    8.13742E+004    2.39827E+003    3.58720E+005   -2.28521E+004   -5.78743E+003
            3267    6.11720E+005    3.79157E+005    3.79157E+005    2.32222E+003   -3.26656E+005    7.05813E+005   -1.82743E+004    2.99284E+005    5.09780E+003    4.71428E+004    2.58232E+003    3.52017E+005   -1.31278E+004   -4.32512E+003
            3268    6.12244E+005    3.57009E+005    3.57009E+005   -7.42771E+002   -3.49932E+005    7.06941E+005   -2.11119E+003    1.68847E+005    4.33746E+001    6.99088E+003   -7.00687E+002    3.53432E+005   -2.46879E+003   -3.04339E+003
            3269    6.08020E+005    3.37122E+005   -3.64754E+005    8.68270E+002   -3.64754E+005    7.01876E+005    8.92122E+003   -2.53410E+005   -7.25129E+002   -2.67426E+004    7.04073E+002    3.50593E+005    7.68629E+003   -4.05091E+003
            3270    6.25864E+005    3.21339E+005   -4.00148E+005   -3.37094E+003   -4.00148E+005    7.21487E+005    2.73933E+004   -3.48034E+005   -7.97590E+003   -7.05184E+004   -3.68574E+003    3.58925E+005    1.78510E+004   -4.83538E+003
            3271    6.54793E+005    5.06531E+005    5.06531E+005    1.19551E+004   -2.36034E+005    7.42566E+005   -9.41506E+004    5.32614E+005    9.64481E+004    1.74985E+005    1.10191E+004    3.62837E+005   -6.61560E+004   -1.28551E+004
            3272    6.45916E+005    4.77548E+005    4.77548E+005    4.42543E+003   -2.58337E+005    7.35885E+005   -7.45454E+004    5.02641E+005    6.36308E+004    1.55648E+005    4.35748E+003    3.60319E+005   -5.72981E+004   -1.20324E+004
            3273    6.42478E+005    4.58914E+005    4.58914E+005    5.76874E+003   -2.76355E+005    7.35269E+005   -6.27756E+004    4.69344E+005    4.86674E+004    1.33683E+005    5.97686E+003    3.61926E+005   -4.78376E+004   -9.31533E+003
            3274    6.25811E+005    4.24961E+005    4.24961E+005    1.34242E+003   -2.93850E+005    7.18811E+005   -4.41512E+004    4.20563E+005    2.68763E+004    1.04273E+005    1.30415E+003    3.55262E+005   -3.78452E+004   -5.33361E+003
            3275    6.16971E+005    4.00496E+005    4.00496E+005    2.37318E+003   -3.10207E+005    7.10703E+005   -3.08876E+004    3.64758E+005    1.75759E+004    7.27081E+004    2.37887E+003    3.53232E+005   -2.71011E+004   -2.74090E+003
            3276    6.03032E+005    3.71497E+005    3.71497E+005    2.00275E+002   -3.24301E+005    6.95797E+005   -1.57988E+004    2.94240E+005    7.70594E+003    3.95446E+004    1.45685E+002    3.47225E+005   -1.46140E+004   -1.81054E+002
            3277    6.04184E+005    3.50880E+005    3.50880E+005    9.13271E+002   -3.46771E+005    6.97651E+005   -1.67388E+003    1.07705E+005    5.74730E+002    3.53770E+003    9.09199E+002    3.48816E+005   -2.02136E+003    3.43828E+002
            3278    6.00722E+005    3.30271E+005   -3.63147E+005   -7.52022E+002   -3.63147E+005    6.93418E+005    1.12093E+004   -2.56958E+005   -3.98436E+003   -2.89318E+004   -7.11842E+002    3.46301E+005    1.12539E+004    1.59828E+002
            3279    6.17912E+005    3.15164E+005   -3.96844E+005   -8.60175E+002   -3.96844E+005    7.12009E+005    2.75135E+004   -3.57105E+005   -1.42067E+004   -6.73749E+004   -9.58880E+002    3.54259E+005    2.29897E+004   -2.92035E+003
            3280    6.49762E+005    5.06831E+005    5.06831E+005    6.89146E+003   -2.27634E+005    7.34465E+005   -9.53629E+004    5.41449E+005    1.15884E+005    1.66284E+005    3.92133E+003    3.60101E+005   -6.40436E+004   -7.06019E+003
            3281    6.35772E+005    4.68360E+005    4.68360E+005    3.67565E+003   -2.56179E+005    7.24539E+005   -7.19523E+004    4.93096E+005    7.17207E+004    1.42561E+005    1.57549E+003    3.55014E+005   -6.07637E+004   -6.27267E+003
            3282    6.32618E+005    4.52296E+005    4.52296E+005    1.50784E+003   -2.70890E+005    7.23187E+005   -6.09712E+004    4.70644E+005    5.94706E+004    1.23483E+005   -3.97302E+001    3.55955E+005   -5.35054E+004   -4.33542E+003
            3283    6.18985E+005    4.22298E+005    4.22298E+005    1.44645E+003   -2.88433E+005    7.10731E+005   -4.51036E+004    4.20113E+005    3.79920E+004    9.70348E+004    2.83916E+002    3.51147E+005   -4.50423E+004   -1.73098E+003
            3284    6.07221E+005    3.93843E+005    3.93843E+005    1.22712E+002   -3.05466E+005    6.99310E+005   -2.95000E+004    3.64434E+005    2.46716E+004    6.46266E+004   -7.98326E+002    3.47519E+005   -3.23261E+004    1.88193E+003
            3285    5.95617E+005    3.66739E+005    3.66739E+005    2.51887E+003   -3.20611E+005    6.87350E+005   -1.62158E+004    2.79486E+005    1.23484E+004    3.44167E+004    1.88221E+003    3.43002E+005   -1.72231E+004    5.49671E+003
            3286    5.95222E+005    3.43671E+005    3.43671E+005   -1.32371E+003   -3.43630E+005    6.87301E+005    4.27318E+002    1.12639E+005   -2.30951E+002    3.04605E+002   -1.35561E+003    3.43575E+005   -7.55540E+002    7.14400E+003
            3287    5.94234E+005    3.24886E+005   -3.60926E+005    9.52533E+002   -3.60926E+005    6.85812E+005    1.16959E+004   -2.71764E+005   -8.00335E+003   -2.85532E+004    1.46869E+003    3.42361E+005    1.52336E+004    5.10815E+003
            3288    6.09094E+005    3.06412E+005   -3.95302E+005   -3.28278E+003   -3.95302E+005    7.01713E+005    3.07241E+004   -3.57090E+005   -2.41650E+004   -6.56002E+004   -2.40712E+003    3.48843E+005    3.06280E+004    2.19300E+003
            3289    5.98702E+005    2.99321E+005   -3.89949E+005    7.72440E+002   -3.89949E+005    6.89270E+005    2.99522E+004   -3.66346E+005   -3.38189E+004   -5.95972E+004    3.55959E+003    3.41597E+005    4.15720E+004    7.50402E+003
            3290    5.88812E+005    3.16172E+005   -3.63328E+005   -3.32165E+003   -3.63328E+005    6.79499E+005    1.68260E+004   -2.76048E+005   -1.74777E+004   -3.16160E+004   -1.38414E+003    3.38621E+005    2.20106E+004    1.37525E+004
            3291    5.83730E+005    3.37705E+005    3.37705E+005    1.57913E+003   -3.36327E+005    6.74033E+005   -9.85782E+002   -9.68980E+004    9.51670E+002    4.36393E+002    1.56928E+003    3.36672E+005   -1.23041E+002    1.52295E+004
            3292    5.89049E+005    3.62850E+005    3.62850E+005    4.53195E+002   -3.16826E+005    6.79676E+005   -1.54922E+004    2.86173E+005    1.73870E+004    3.05638E+004   -1.47423E+003    3.38713E+005   -2.21898E+004    1.34548E+004
            3293    5.99704E+005    3.92459E+005    3.92459E+005    2.22134E+003   -2.98069E+005    6.90528E+005   -3.22038E+004    3.63827E+005    3.61253E+004    6.13527E+004   -8.66483E+002    3.42179E+005   -4.17043E+004    8.75621E+003
            3294    6.14076E+005    4.21311E+005    4.21311E+005   -3.73654E+003   -2.82731E+005    7.04042E+005   -4.49479E+004    4.32772E+005    5.36166E+004    8.80707E+004   -6.84360E+003    3.46620E+005   -5.69219E+004    1.50388E+003
            3295    6.32046E+005    4.55351E+005    4.55351E+005   -3.08492E+003   -2.65660E+005    7.21010E+005   -6.22021E+004    4.84324E+005    7.39299E+004    1.19223E+005   -6.54674E+003    3.53130E+005   -6.62836E+004   -2.96830E+003
            3296    6.38524E+005    4.77859E+005    4.77859E+005   -4.19217E+003   -2.46315E+005    7.24174E+005   -7.57841E+004    5.19036E+005    9.42115E+004    1.40774E+005   -7.63298E+003    3.54769E+005   -6.52417E+004   -5.08979E+003
            3297    6.14297E+005    4.65748E+005    4.65748E+005   -5.02813E+003   -2.29138E+005    6.94886E+005   -7.71941E+004    5.09318E+005    1.00587E+005    1.40700E+005   -9.70477E+003    3.38467E+005   -7.15961E+004   -5.92020E+003
            3298    7.40765E+005    6.73592E+005    6.73592E+005    9.79221E+004   -1.62136E+005    8.35728E+005   -2.03126E+005    6.24932E+005    1.95725E+005    3.15698E+005    9.79547E+004    4.13352E+005   -1.19610E+004   -3.78496E+003
            3299    7.25481E+005    6.51246E+005    6.51246E+005    8.59072E+004   -1.66789E+005    8.18035E+005   -1.90121E+005    6.14062E+005    1.87080E+005    2.97009E+005    8.62748E+004    4.03840E+005   -3.34777E+004   -1.11414E+004
            3300    7.01812E+005    6.15591E+005    6.15591E+005    6.81657E+004   -1.75600E+005    7.91191E+005   -1.69386E+005    5.94719E+005    1.72683E+005    2.67257E+005    6.82178E+004    3.89248E+005   -5.06778E+004   -1.36244E+004
            3301    6.78837E+005    5.77551E+005    5.77551E+005    4.67744E+004   -1.87364E+005    7.64915E+005   -1.45654E+005    5.76894E+005    1.55796E+005    2.35010E+005    4.61551E+004    3.74731E+005   -6.30199E+004   -1.47588E+004
            3302    6.56129E+005    5.40146E+005    5.40146E+005    3.07345E+004   -2.00235E+005    7.40381E+005   -1.23549E+005    5.52891E+005    1.39438E+005    2.03108E+005    2.81000E+004    3.61050E+005   -7.18297E+004   -1.17673E+004
            3303    6.40686E+005    5.11008E+005    5.11008E+005    1.11043E+004   -2.11227E+005    7.22235E+005   -1.03629E+005    5.43125E+005    1.25269E+005    1.78769E+005    6.84774E+003    3.51036E+005   -7.58864E+004   -1.00221E+004
            3304    6.16861E+005    4.77083E+005    4.77083E+005    2.51936E+003   -2.20209E+005    6.97292E+005   -8.64645E+004    5.13948E+005    1.11436E+005    1.49909E+005   -1.95130E+003    3.37858E+005   -7.98019E+004   -9.45441E+003
            3305    7.23093E+005    1.83962E+005   -6.28350E+005   -5.49314E+004   -6.28350E+005    8.12311E+005    1.66440E+005   -6.24580E+005   -9.13327E+004   -3.52983E+005   -5.50034E+004    3.84429E+005   -7.17242E+003    4.71345E+003
            3306    6.86850E+005    2.26092E+005   -5.51311E+005   -2.66120E+004   -5.51311E+005    7.77403E+005    1.17277E+005   -5.67135E+005   -3.48534E+004   -2.90308E+005   -2.66699E+004    3.67069E+005   -5.28173E+003    3.90985E+003
            3307    6.24256E+005    2.47620E+005   -4.64136E+005   -9.51964E+003   -4.64136E+005    7.11755E+005    7.53452E+004   -4.81430E+005    2.93431E+002   -2.16770E+005   -9.55929E+003    3.38892E+005   -4.16458E+003    2.88648E+003
            3308    5.89253E+005    2.64765E+005   -4.10965E+005   -4.10355E+003   -4.10965E+005    6.75731E+005    5.01012E+004   -4.13219E+005    3.23509E+003   -1.49402E+005   -4.13652E+003    3.29115E+005   -2.76169E+003    2.56674E+003
            3309    7.08916E+005    1.82936E+005   -6.13284E+005   -5.05922E+004   -6.13284E+005    7.96220E+005    1.60313E+005   -6.12964E+005   -9.17360E+004   -3.38018E+005   -5.11862E+004    3.77892E+005   -2.10951E+004    1.33629E+004
            3310    6.78624E+005    2.23677E+005   -5.44294E+005   -2.54119E+004   -5.44294E+005    7.67970E+005    1.15343E+005   -5.60994E+005   -3.74164E+004   -2.82773E+005   -2.58397E+004    3.63429E+005   -1.61373E+004    1.05315E+004
            3311    6.18818E+005    2.45773E+005   -4.59696E+005   -8.61850E+003   -4.59696E+005    7.05469E+005    7.41802E+004   -4.77937E+005   -2.01002E+003   -2.11520E+005   -9.01056E+003    3.36529E+005   -1.23422E+004    9.06364E+003
            3312    5.86466E+005    2.62977E+005   -4.09564E+005   -4.66823E+003   -4.09564E+005    6.72541E+005    5.04185E+004   -4.11178E+005    1.43461E+003   -1.47754E+005   -4.93624E+003    3.27731E+005   -8.70422E+003    6.93515E+003
            3313    6.83091E+005    1.80865E+005   -5.86180E+005   -4.34598E+004   -5.86180E+005    7.67045E+005    1.49592E+005   -5.91274E+005   -9.20311E+004   -3.12193E+005   -4.45499E+004    3.65701E+005   -3.27948E+004    1.82055E+004
            3314    6.63864E+005    2.20482E+005   -5.30463E+005   -2.16620E+004   -5.30463E+005    7.50945E+005    1.10548E+005   -5.50467E+005   -4.14699E+004   -2.67444E+005   -2.27288E+004    3.57045E+005   -2.47160E+004    1.62132E+004
            3315    6.07583E+005    2.41766E+005   -4.51060E+005   -8.98104E+003   -4.51060E+005    6.92826E+005    7.27582E+004   -4.67912E+005   -6.81884E+003   -2.01612E+005   -9.84422E+003    3.31727E+005   -1.96570E+004    1.29903E+004
            3316    5.81583E+005    2.60888E+005   -4.06032E+005   -4.36637E+003   -4.06032E+005    6.66920E+005    4.98367E+004   -4.08045E+005   -1.27251E+003   -1.43269E+005   -4.96847E+003    3.25440E+005   -1.34673E+004    1.01422E+004
            3317    6.54389E+005    1.79559E+005   -5.53848E+005   -2.96289E+004   -5.53848E+005    7.33407E+005    1.34639E+005   -5.71566E+005   -9.30952E+004   -2.79889E+005   -3.09327E+004    3.51883E+005   -4.13766E+004    2.04587E+004
            3318    6.42822E+005    2.15534E+005   -5.11676E+005   -1.92539E+004   -5.11676E+005    7.27210E+005    1.05132E+005   -5.32671E+005   -4.80759E+004   -2.46591E+005   -2.07288E+004    3.48093E+005   -3.21567E+004    1.84925E+004
            3319    5.94116E+005    2.37814E+005   -4.39539E+005   -6.69429E+003   -4.39539E+005    6.77353E+005    6.94732E+004   -4.58484E+005   -1.35185E+004   -1.86934E+005   -7.96728E+003    3.26234E+005   -2.53503E+004    1.51945E+004
            3320    5.75081E+005    2.55792E+005   -4.03591E+005   -5.86610E+003   -4.03591E+005    6.59383E+005    5.12215E+004   -4.04613E+005   -7.73742E+003   -1.39251E+005   -6.67649E+003    3.22438E+005   -1.85066E+004    1.08892E+004
            3321    6.19740E+005    1.78382E+005   -5.15864E+005   -1.84251E+004   -5.15864E+005    6.94246E+005    1.18636E+005   -5.42447E+005   -9.21496E+004   -2.44210E+005   -1.95483E+004    3.35039E+005   -4.71246E+004    2.02355E+004
            3322    6.24353E+005    2.12558E+005   -4.93561E+005   -1.45542E+004   -4.93561E+005    7.06119E+005    9.85192E+004   -5.18380E+005   -5.56783E+004   -2.23914E+005   -1.59655E+004    3.40807E+005   -3.58712E+004    1.77556E+004
            3323    5.79339E+005    2.31901E+005   -4.28777E+005   -7.54180E+003   -4.28777E+005    6.60678E+005    6.81391E+004   -4.45669E+005   -2.29043E+004   -1.72897E+005   -8.61561E+003    3.20019E+005   -3.16076E+004    1.36077E+004
            3324    5.67770E+005    2.51946E+005   -3.98746E+005   -4.03003E+003   -3.98746E+005    6.50692E+005    5.02765E+004   -4.03616E+005   -1.45584E+004   -1.31504E+005   -4.76670E+003    3.19179E+005   -2.26357E+004    9.71425E+003
            3325    5.97717E+005    1.77331E+005   -4.89727E+005   -2.76902E+003   -4.89727E+005    6.67058E+005    1.05055E+005   -5.31326E+005   -9.68384E+004   -2.14321E+005   -4.00499E+003    3.24760E+005   -4.60431E+004    1.97612E+004
            3326    6.10935E+005    2.07844E+005   -4.83453E+005   -1.60590E+004   -4.83453E+005    6.91298E+005    9.72226E+004   -5.05412E+005   -6.94948E+004   -2.05790E+005   -1.63830E+004    3.36293E+005   -4.01210E+004    1.28827E+004
            3327    5.68620E+005    2.26941E+005   -4.20633E+005   -2.96137E+003   -4.20633E+005    6.47574E+005    6.55509E+004   -4.44385E+005   -3.41918E+004   -1.59298E+005   -3.16243E+003    3.15657E+005   -3.48183E+004    9.62058E+003
            3328    5.62850E+005    2.44203E+005   -4.00303E+005   -5.53226E+003   -4.00303E+005    6.44506E+005    5.38772E+004   -4.06952E+005   -2.75759E+004   -1.28460E+005   -5.59557E+003    3.17003E+005   -2.79718E+004    5.81459E+003
            3329    5.71109E+005    1.80951E+005   -4.60690E+005   -8.00441E+003   -4.60690E+005    6.41641E+005    9.59146E+004   -4.93048E+005   -9.57680E+004   -1.84464E+005   -7.51132E+003    3.12706E+005   -5.38290E+004    1.45331E+004
            3330    6.06749E+005    2.00482E+005   -4.82166E+005   -4.32238E+003   -4.82166E+005    6.82648E+005    9.53354E+004   -5.19989E+005   -8.79561E+004   -1.95667E+005   -2.38274E+003    3.33774E+005   -4.34810E+004    6.19879E+003
            3331    5.68951E+005    2.18820E+005   -4.27138E+005   -4.36699E+002   -4.27138E+005    6.45958E+005    6.95851E+004   -4.58303E+005   -5.22259E+004   -1.57524E+005    9.94387E+002    3.15329E+005   -4.38375E+004    6.26691E+003
            3332    5.55751E+005    2.37374E+005   -3.97438E+005    1.33101E+003   -3.97438E+005    6.34812E+005    5.29108E+004   -4.18381E+005   -4.14633E+004   -1.19235E+005    1.96566E+003    3.12883E+005   -3.56143E+004    4.25570E+003
            3333    5.48470E+005    2.28638E+005   -3.97300E+005   -8.38598E+002   -3.97300E+005    6.25938E+005    5.65001E+004   -4.17973E+005   -5.94386E+004   -1.13049E+005    2.98692E+003    3.07683E+005   -4.71465E+004   -3.00063E+003
            3334    5.75020E+005    2.10790E+005   -4.38642E+005    5.76853E+003   -4.38642E+005    6.49431E+005    7.40279E+004   -4.81843E+005   -8.07869E+004   -1.49516E+005    8.21972E+003    3.17568E+005   -5.52716E+004    7.55068E+003
            3335    6.04945E+005    1.89321E+005   -4.88595E+005   -3.75704E+003   -4.88595E+005    6.77917E+005    1.01010E+005   -5.28648E+005   -1.08077E+005   -1.94486E+005   -4.67627E+002    3.30115E+005   -5.88852E+004    9.72794E+003
            3336    6.21047E+005    1.66830E+005   -5.20926E+005   -1.13974E+003   -5.20926E+005    6.87756E+005    1.18412E+005   -5.66467E+005   -1.26755E+005   -2.29343E+005    8.61889E+002    3.36808E+005   -4.18840E+004    8.49633E+003
            3337    7.44763E+005    1.01642E+005   -7.28719E+005   -1.19767E+005   -7.28719E+005    8.30361E+005    2.48948E+005   -6.64439E+005   -2.22086E+005   -4.04914E+005   -1.19844E+005    4.04875E+005   -9.20910E+003    4.97384E+003
            3338    7.26702E+005    1.06386E+005   -7.03044E+005   -1.06725E+005   -7.03044E+005    8.09430E+005    2.34461E+005   -6.50625E+005   -2.13114E+005   -3.83156E+005   -1.07112E+005    3.94715E+005   -2.62224E+004    1.23242E+004
            3339    6.99461E+005    1.15430E+005   -6.62228E+005   -8.45005E+004   -6.62228E+005    7.77657E+005    2.10433E+005   -6.30205E+005   -1.98154E+005   -3.48254E+005   -8.48907E+004    3.79221E+005   -3.94701E+004    1.62072E+004
            3340    6.67356E+005    1.26764E+005   -6.14536E+005   -6.16211E+004   -6.14536E+005    7.41299E+005    1.83131E+005   -6.03043E+005   -1.79871E+005   -3.09131E+005   -6.03911E+004    3.61023E+005   -4.94194E+004    1.41170E+004
            3341    6.40801E+005    1.40881E+005   -5.68826E+005   -3.26902E+004   -5.68826E+005    7.09707E+005    1.53545E+005   -5.84303E+005   -1.59777E+005   -2.71629E+005   -2.92282E+004    3.44977E+005   -5.49410E+004    1.13639E+004
            3342    6.11004E+005    1.49796E+005   -5.26533E+005   -1.44147E+004   -5.26533E+005    6.76329E+005    1.30384E+005   -5.58030E+005   -1.43850E+005   -2.40619E+005   -6.68254E+003    3.27892E+005   -5.57124E+004    2.68565E+003
            3343    6.16728E+005    1.54601E+005   -5.18187E+005    2.03711E+004   -5.18187E+005    6.72788E+005    1.14405E+005   -5.82486E+005   -1.29872E+005   -2.38440E+005    2.50981E+004    3.28464E+005   -3.67741E+004    9.92150E+002
            3344    5.30299E+005    2.48699E+005   -3.60196E+005    3.96993E+002   -3.60196E+005    6.08895E+005    3.70333E+004   -3.60008E+005   -3.88476E+004   -7.59446E+004    3.69214E+003    3.01433E+005   -3.46821E+004   -9.29343E+003
            3345    5.15109E+005    2.68930E+005   -3.25216E+005   -4.04255E+003   -3.25216E+005    5.94145E+005    2.01094E+004   -2.67439E+005   -1.94948E+004   -3.91609E+004   -1.67267E+003    2.95721E+005   -1.89042E+004   -1.69038E+004
            3346    5.10560E+005    2.94417E+005   -2.95122E+005    1.75229E+003   -2.95122E+005    5.89539E+005   -3.49326E+002   -1.18063E+005    8.22203E+001   -8.27437E+002    1.79319E+003    2.94180E+005   -2.70208E+002   -1.86233E+004
            3347    5.15600E+005    3.25108E+005    3.25108E+005    7.27501E+002   -2.69432E+005    5.94539E+005   -1.88013E+004    2.78245E+005    1.98194E+004    3.81379E+004   -1.55333E+003    2.95985E+005    1.83770E+004   -1.65746E+004
            3348    5.29771E+005    3.60416E+005    3.60416E+005    3.15508E+003   -2.48250E+005    6.08666E+005   -3.84406E+004    3.52957E+005    4.01453E+004    7.56874E+004   -5.10812E+002    3.01283E+005    3.47158E+004   -1.10427E+004
            3349    5.50234E+005    3.97856E+005    3.97856E+005   -3.67435E+003   -2.29333E+005    6.27189E+005   -5.49495E+004    4.25708E+005    6.04546E+004    1.11700E+005   -7.30642E+003    3.08429E+005    4.71487E+004   -2.12731E+003
            3350    5.74041E+005    4.39607E+005    4.39607E+005   -1.88584E+003   -2.09316E+005    6.48923E+005   -7.61351E+004    4.78097E+005    8.38536E+004    1.50520E+005   -5.96850E+003    3.17405E+005    5.40489E+004    2.55955E+003
            3351    5.90595E+005    4.71519E+005    4.71519E+005   -4.26381E+003   -1.89485E+005    6.61005E+005   -9.25902E+004    5.18949E+005    1.03097E+005    1.83160E+005   -8.48638E+003    3.23027E+005    5.13628E+004    4.24124E+003
            3352    6.01054E+005    4.99063E+005    4.99063E+005   -1.36729E+003   -1.67617E+005    6.66680E+005   -1.10026E+005    5.45620E+005    1.34674E+005    2.04813E+005   -9.40869E+003    3.25728E+005    4.87534E+004   -4.25351E+003
            3353    5.28470E+005    2.55951E+005   -3.51918E+005   -1.59143E+003   -3.51918E+005    6.07869E+005    3.25194E+004   -3.37577E+005   -2.03481E+004   -7.66568E+004   -5.53359E+002    3.01467E+005   -2.53692E+004   -2.90342E+003
            3354    5.31018E+005    2.62608E+005   -3.48439E+005    1.20058E+003   -3.48439E+005    6.11047E+005    2.82099E+004   -3.33150E+005   -8.71671E+003   -7.69578E+004    1.04479E+003    3.02991E+005   -1.92389E+004    3.70954E+003
            3355    5.36194E+005    2.66989E+005   -3.50409E+005   -1.48721E+003   -3.50409E+005    6.17399E+005    2.83024E+004   -3.25328E+005   -2.58135E+003   -8.03975E+004   -1.92827E+003    3.05803E+005   -1.55999E+004    6.33642E+003
            3356    5.41610E+005    2.73117E+005   -3.50667E+005    1.05315E+002   -3.50667E+005    6.23784E+005    2.58147E+004   -3.23899E+005    2.69643E+003   -7.96935E+004   -4.47130E+002    3.08852E+005   -1.14948E+004    8.89396E+003
            3357    5.46750E+005    2.76949E+005   -3.52925E+005   -8.30530E+002   -3.52925E+005    6.29873E+005    2.56022E+004   -3.21135E+005    5.25466E+003   -8.08532E+004   -1.20799E+003    3.11784E+005   -8.48885E+003    7.98264E+003
            3358    5.51499E+005    2.80600E+005   -3.54755E+005    2.49811E+002   -3.54755E+005    6.35355E+005    2.46350E+004   -3.23488E+005    7.05289E+003   -8.10335E+004    7.56131E+001    3.14522E+005   -4.99007E+003    6.08505E+003
            3359    5.53878E+005    2.82110E+005   -3.56033E+005   -7.29169E+001   -3.56033E+005    6.38143E+005    2.46655E+004   -3.23164E+005    7.59385E+003   -8.14988E+004   -9.14999E+001    3.15937E+005   -1.72889E+003    1.90586E+003
            3360    5.22359E+005    2.76271E+005   -3.26194E+005    2.41988E+002   -3.26194E+005    6.02465E+005    1.65605E+004   -2.73984E+005   -1.23048E+004   -3.82334E+004    8.56723E+002    3.00588E+005   -1.28436E+004   -6.26922E+003
            3361    5.28371E+005    2.81589E+005   -3.28055E+005   -2.58940E+003   -3.28055E+005    6.09644E+005    1.63515E+004   -2.58402E+005   -7.59886E+003   -3.89022E+004   -2.55346E+003    3.04279E+005   -9.20479E+003   -4.34975E+001
            3362    5.33556E+005    2.88590E+005   -3.27101E+005    1.14740E+002   -3.27101E+005    6.15691E+005    1.27985E+004   -2.54653E+005   -2.91063E+003   -3.53859E+004   -9.89850E+001    3.07308E+005   -6.35467E+003    5.55285E+003
            3363    5.39214E+005    2.93573E+005   -3.28786E+005   -1.67175E+003   -3.28786E+005    6.22359E+005    1.22948E+004   -2.40340E+005   -1.61605E+003   -3.33992E+004   -1.86914E+003    3.10666E+005   -4.52696E+003    7.00322E+003
            3364    5.44273E+005    2.99567E+005   -3.28693E+005   -3.77788E+002   -3.28693E+005    6.28259E+005    9.83467E+003   -2.32666E+005   -4.35384E+001   -2.89562E+004   -5.04293E+002    3.13697E+005   -2.65817E+003    7.57491E+003
            3365    5.48086E+005    3.02670E+005   -3.30036E+005   -1.00495E+003   -3.30036E+005    6.32705E+005    9.45703E+003   -2.25175E+005    3.59616E+001   -2.73495E+004   -1.05757E+003    3.16012E+005   -1.65318E+003    5.07427E+003
            3366    5.50234E+005    3.05113E+005   -3.30093E+005   -5.24515E+002   -3.30093E+005    6.35206E+005    8.50163E+003   -2.21459E+005    3.31353E+002   -2.53060E+004   -5.30256E+002    3.17337E+005   -4.25781E+002    2.14183E+003
            3367    5.14305E+005    2.98848E+005    2.98848E+005   -9.62470E+002   -2.95010E+005    5.93859E+005   -9.58599E+002    1.31743E+005    1.75322E+003    2.12370E+003   -1.00112E+003    2.96796E+005    6.05778E+002   -8.86975E+003
            3368    5.18041E+005    3.04365E+005    3.04365E+005    2.17487E+003   -2.93806E+005    5.98171E+005   -4.24482E+003    1.35715E+005    2.90916E+003    7.65221E+003    2.17310E+003    2.99071E+005    1.75150E+003   -1.35126E+002
            3369    5.23624E+005    3.09553E+005    3.09553E+005   -1.21354E+002   -2.95015E+005    6.04569E+005   -4.80556E+003    1.82489E+005    1.79120E+003    1.26795E+004   -5.40083E+001    3.02196E+005    2.40325E+003    4.30838E+003
            3370    5.29716E+005    3.16949E+005    3.16949E+005    1.66825E+003   -2.94615E+005    6.11565E+005   -8.00063E+003    1.99937E+005    1.64210E+003    2.05415E+004    1.81831E+003    3.05529E+005    3.05601E+003    7.59449E+003
            3371    5.35754E+005    3.22517E+005    3.22517E+005    4.66255E+002   -2.95941E+005    6.18458E+005   -9.01426E+003    2.22617E+005    2.92575E+002    2.61638E+004    5.86439E+002    3.08868E+005    2.66049E+003    7.08209E+003
            3372    5.40703E+005    3.27808E+005    3.27808E+005    1.22122E+003   -2.96318E+005    6.24125E+005   -1.09037E+004    2.33471E+005   -1.37125E+002    3.15535E+004    1.29475E+003    3.11605E+005    2.07017E+003    5.60376E+003
            3373    5.43409E+005    3.30353E+005    3.30353E+005    8.22518E+002   -2.96852E+005    6.27205E+005   -1.14412E+004    2.41553E+005   -7.21641E+002    3.42159E+004    8.29231E+002    3.13110E+005    6.20464E+002    1.71593E+003
            3374    5.22051E+005    3.27605E+005    3.27605E+005    2.53456E+003   -2.74571E+005    6.02177E+005   -1.85228E+004    2.69405E+005    1.26593E+004    4.11214E+004    1.78789E+003    3.00298E+005    1.44500E+004   -6.74358E+003
            3375    5.29235E+005    3.32508E+005    3.32508E+005   -4.25923E+002   -2.77756E+005    6.10264E+005   -1.81089E+004    2.85517E+005    7.03279E+003    4.77590E+004   -4.65170E+002    3.04191E+005    1.25541E+004    5.20933E+002
            3376    5.36833E+005    3.40375E+005    3.40375E+005    1.81651E+003   -2.78596E+005    6.18971E+005   -2.11985E+004    2.92547E+005    3.39651E+003    5.80094E+004    2.18958E+003    3.08018E+005    1.16287E+004    6.00501E+003
            3377    5.45421E+005    3.47924E+005    3.47924E+005    3.56335E+002   -2.80702E+005    6.28626E+005   -2.25259E+004    3.09095E+005   -6.18049E+002    6.73959E+004    7.99714E+002    3.12228E+005    1.00511E+004    7.96041E+003
            3378    5.53717E+005    3.56448E+005    3.56448E+005    1.54504E+003   -2.81585E+005    6.38033E+005   -2.54692E+004    3.20181E+005   -3.25427E+003    7.77234E+004    1.93846E+003    3.16237E+005    8.28570E+003    8.46749E+003
            3379    5.60249E+005    3.62343E+005    3.62343E+005    7.02969E+002   -2.83010E+005    6.45353E+005   -2.66787E+004    3.31572E+005   -5.50920E+003    8.46759E+004    8.69339E+002    3.19426E+005    5.26132E+003    5.70751E+003
            3380    5.64000E+005    3.66206E+005    3.66206E+005    1.12641E+003   -2.83381E+005    6.49587E+005   -2.79835E+004    3.36735E+005   -6.48176E+003    8.92825E+004    1.14977E+003    3.21233E+005    1.85053E+003    2.26193E+003
            3381    5.32468E+005    3.58649E+005    3.58649E+005   -9.15682E+002   -2.53056E+005    6.11705E+005   -3.48927E+004    3.55864E+005    2.55681E+004    8.11124E+004   -2.00246E+003    3.03283E+005    2.70081E+004   -2.29683E+003
            3382    5.38334E+005    3.63929E+005    3.63929E+005    2.84866E+003   -2.54812E+005    6.18740E+005   -3.73218E+004    3.54112E+005    1.67014E+004    9.23816E+004    2.88239E+003    3.06186E+005    2.27456E+004    3.56222E+003
            3383    5.47151E+005    3.71098E+005    3.71098E+005    1.70362E+003   -2.57486E+005    6.28584E+005   -3.84386E+004    3.65481E+005    9.14999E+003    1.03905E+005    2.26076E+003    3.10015E+005    1.99509E+004    7.61792E+003
            3384    5.58196E+005    3.82362E+005    3.82362E+005    3.90976E+003   -2.58708E+005    6.41070E+005   -4.25214E+004    3.76479E+005    4.24946E+003    1.18586E+005    4.72848E+003    3.14816E+005    1.73111E+004    1.05980E+004
            3385    5.69424E+005    3.92777E+005    3.92777E+005    3.25122E+003   -2.60730E+005    6.53507E+005   -4.50994E+004    3.91641E+005   -3.91116E+001    1.31509E+005    3.82859E+003    3.19697E+005    1.34182E+004    9.56292E+003
            3386    5.78299E+005    4.01606E+005    4.01606E+005    4.43581E+003   -2.61868E+005    6.63474E+005   -4.80578E+004    4.01096E+005   -2.28922E+003    1.41741E+005    4.72154E+003    3.23657E+005    8.81460E+003    7.10224E+003
            3387    5.83492E+005    4.06565E+005    4.06565E+005    4.30662E+003   -2.62649E+005    6.69214E+005   -4.94075E+004    4.07885E+005   -3.60516E+003    1.47492E+005    4.33573E+003    3.25950E+005    2.81284E+003    2.29924E+003
            3388    5.53710E+005    3.98604E+005    3.98604E+005    9.25903E+002   -2.33806E+005    6.32411E+005   -5.52415E+004    4.17504E+005    4.45141E+004    1.21539E+005   -3.28868E+002    3.11418E+005    3.75844E+004    2.37216E+003
            3389    5.61472E+005    4.02631E+005    4.02631E+005    2.48847E+003   -2.39215E+005    6.41846E+005   -5.53014E+004    4.17807E+005    3.12529E+004    1.32109E+005    2.54224E+003    3.15370E+005    3.08282E+004    6.66585E+003
            3390    5.72868E+005    4.12617E+005    4.12617E+005    5.80960E+003   -2.42515E+005    6.55132E+005   -5.86374E+004    4.23630E+005    2.07123E+004    1.48442E+005    6.75821E+003    3.19961E+005    2.80078E+004    1.16617E+004
            3391    5.88223E+005    4.26618E+005    4.26618E+005    5.65557E+003   -2.45491E+005    6.72109E+005   -6.22609E+004    4.40865E+005    1.33257E+004    1.66795E+005    6.66202E+003    3.26214E+005    2.34498E+004    1.27929E+004
            3392    6.02495E+005    4.40036E+005    4.40036E+005    8.54923E+003   -2.48322E+005    6.88358E+005   -6.67542E+004    4.52115E+005    7.00668E+003    1.83928E+005    9.32838E+003    3.31992E+005    1.84803E+004    1.18792E+004
            3393    6.14309E+005    4.51058E+005    4.51058E+005    8.51957E+003   -2.50310E+005    7.01368E+005   -6.97560E+004    4.65533E+005    3.16663E+003    1.97239E+005    8.86209E+003    3.36732E+005    1.17980E+004    8.19235E+003
            3394    6.20866E+005    4.57373E+005    4.57373E+005    9.64594E+003   -2.51393E+005    7.08766E+005   -7.18755E+004    4.71308E+005    1.12663E+003    2.04816E+005    9.68418E+003    3.39405E+005    3.88547E+003    2.78639E+003
            3395    5.71016E+005    4.30031E+005    4.30031E+005   -2.04937E+003   -2.17332E+005    6.47363E+005   -7.02168E+004    4.65607E+005    5.93612E+004    1.55053E+005   -3.76407E+003    3.16820E+005    4.34829E+004    5.19485E+003
            3396    5.76755E+005    4.35143E+005    4.35143E+005    6.01821E+003   -2.20480E+005    6.55624E+005   -7.35604E+004    4.59383E+005    4.56959E+004    1.68651E+005    6.33406E+003    3.19489E+005    3.88796E+004    1.13158E+004
            3397    5.94449E+005    4.51313E+005    4.51313E+005    7.30818E+003   -2.24027E+005    6.75340E+005   -7.81980E+004    4.76099E+005    3.60608E+004    1.90228E+005    8.30544E+003    3.26747E+005    3.48071E+004    1.44573E+004
            3398    6.14642E+005    4.71329E+005    4.71329E+005    1.28634E+004   -2.27097E+005    6.98426E+005   -8.56984E+004    4.91325E+005    2.92852E+004    2.13662E+005    1.41480E+004    3.35306E+005    2.99742E+004    1.61628E+004
            3399    6.36377E+005    4.92223E+005    4.92223E+005    1.53486E+004   -2.30382E+005    7.22606E+005   -9.23966E+004    5.12025E+005    2.41819E+004    2.36753E+005    1.62544E+004    3.44418E+005    2.28567E+004    1.41715E+004
            3400    6.52988E+005    5.08516E+005    5.08516E+005    1.92264E+004   -2.32958E+005    7.41474E+005   -9.82614E+004    5.25341E+005    2.09949E+004    2.54165E+005    1.96247E+004    3.51548E+005    1.48789E+004    9.67774E+003
            3401    6.63510E+005    5.19130E+005    5.19130E+005    2.05998E+004   -2.33967E+005    7.53097E+005   -1.01921E+005    5.35831E+005    1.99859E+004    2.65125E+005    2.06510E+004    3.56002E+005    4.68051E+003    3.55772E+003
            3402    5.84050E+005    4.63895E+005    4.63895E+005    4.88091E+003   -1.93507E+005    6.57402E+005   -9.17564E+004    4.99337E+005    9.08161E+004    1.81202E+005    3.25114E+003    3.21143E+005    5.05976E+004    9.72818E+003
            3403    6.03097E+005    4.80302E+005    4.80302E+005    7.25949E+003   -1.98825E+005    6.79127E+005   -9.62454E+004    5.14429E+005    7.87234E+004    2.02672E+005    7.34081E+003    3.30650E+005    4.42037E+004    1.37925E+004
            3404    6.18914E+005    4.96734E+005    4.96734E+005    1.66531E+004   -2.01778E+005    6.98512E+005   -1.03870E+005    5.20954E+005    6.81408E+004    2.25633E+005    1.78356E+004    3.37402E+005    4.20923E+004    1.79085E+004
            3405    6.45234E+005    5.23680E+005    5.23680E+005    2.11525E+004   -2.03952E+005    7.27632E+005   -1.13627E+005    5.45777E+005    6.35949E+004    2.54780E+005    2.25054E+004    3.48953E+005    3.59758E+004    1.86588E+004
            3406    6.68327E+005    5.47769E+005    5.47769E+005    3.01048E+004   -2.06723E+005    7.54492E+005   -1.23717E+005    5.61556E+005    5.88948E+004    2.81064E+005    3.11925E+004    3.59209E+005    2.85046E+004    1.68251E+004
            3407    6.89617E+005    5.69578E+005    5.69578E+005    3.39973E+004   -2.08543E+005    7.78121E+005   -1.31677E+005    5.81333E+005    5.71996E+004    3.03291E+005    3.45420E+004    3.68547E+005    1.82242E+004    1.21678E+004
            3408    7.01623E+005    5.82733E+005    5.82733E+005    3.81689E+004   -2.09031E+005    7.91765E+005   -1.37290E+005    5.91005E+005    5.70745E+004    3.16569E+005    3.82268E+004    3.73953E+005    6.31553E+003    4.06931E+003
            3409    5.83266E+005    4.67416E+005    4.67416E+005   -2.92534E+003   -1.85227E+005    6.52644E+005   -9.30879E+004    5.13040E+005    8.91510E+004    1.96075E+005   -5.96251E+003    3.15832E+005    5.74344E+004    1.16202E+004
            3410    6.04120E+005    5.00870E+005    5.00870E+005    1.30820E+004   -1.74889E+005    6.75759E+005   -1.13021E+005    5.32104E+005    1.06548E+005    2.20623E+005    1.18923E+004    3.28317E+005    5.23602E+004    1.40256E+004
            3411    6.31589E+005    5.28960E+005    5.28960E+005    2.07745E+004   -1.78140E+005    7.07100E+005   -1.23865E+005    5.54252E+005    9.88115E+004    2.51961E+005    2.08218E+004    3.41115E+005    4.96851E+004    1.76948E+004
            3412    6.61164E+005    5.68742E+005    5.68742E+005    3.94216E+004   -1.72366E+005    7.41108E+005   -1.45266E+005    5.77101E+005    1.08240E+005    2.87340E+005    4.02184E+004    3.56777E+005    4.23033E+004    1.83775E+004
            3413    6.94490E+005    6.05857E+005    6.05857E+005    5.03252E+004   -1.72763E+005    7.78620E+005   -1.61140E+005    6.05636E+005    1.08898E+005    3.23028E+005    5.14940E+004    3.72506E+005    3.42239E+004    1.89839E+004
            3414    7.21959E+005    6.39597E+005    6.39597E+005    6.27767E+004   -1.70047E+005    8.09644E+005   -1.77442E+005    6.28779E+005    1.15383E+005    3.53618E+005    6.33255E+004    3.86189E+005    2.17374E+004    1.30971E+004
            3415    7.38886E+005    6.58702E+005    6.58702E+005    6.78536E+004   -1.69758E+005    8.28459E+005   -1.85599E+005    6.44119E+005    1.17410E+005    3.71428E+005    6.79598E+004    3.94181E+005    7.92080E+003    5.69404E+003
            3416    7.36059E+005    7.25755E+005    7.25755E+005    1.21507E+005   -9.40039E+004    8.19759E+005   -2.51086E+005    6.59271E+005    2.32030E+005    3.99644E+005    1.21585E+005    4.01086E+005    9.84458E+003    5.05677E+003
            3417    7.18240E+005    6.98519E+005    6.98519E+005    1.05864E+005   -1.00242E+005    7.98760E+005   -2.34714E+005    6.46517E+005    2.21393E+005    3.76151E+005    1.06597E+005    3.90717E+005    2.78684E+004    1.49062E+004
            3418    6.90398E+005    6.56078E+005    6.56078E+005    8.40234E+004   -1.10797E+005    7.66875E+005   -2.09768E+005    6.23915E+005    2.05039E+005    3.39449E+005    8.48167E+004    3.75039E+005    4.09424E+004    1.80625E+004
            3419    6.63319E+005    6.10856E+005    6.10856E+005    5.68383E+004   -1.24181E+005    7.35037E+005   -1.81171E+005    6.03889E+005    1.86065E+005    3.00279E+005    5.71691E+004    3.59085E+005    5.05378E+004    1.93529E+004
            3420    6.37765E+005    5.69620E+005    5.69620E+005    3.91994E+004   -1.38010E+005    7.07630E+005   -1.56936E+005    5.78365E+005    1.69539E+005    2.64016E+005    3.72546E+004    3.45334E+005    5.60650E+004    1.44329E+004
            3421    6.22754E+005    5.38004E+005    5.38004E+005    1.53936E+004   -1.51065E+005    6.89069E+005   -1.34111E+005    5.69388E+005    1.54060E+005    2.37558E+005    1.07135E+004    3.35337E+005    5.95746E+004    1.05581E+004
            3422    6.09349E+005    5.17963E+005    5.17963E+005    1.01135E+004   -1.57711E+005    6.75674E+005   -1.23455E+005    5.53665E+005    1.49682E+005    2.16946E+005    3.73608E+003    3.29319E+005    5.83908E+004    5.23907E+003
            3423    6.19902E+005    1.66631E+005   -5.19848E+005   -1.00106E+003   -5.19848E+005    6.86480E+005    1.18073E+005   -5.65441E+005   -1.26557E+005   -2.28670E+005    1.00906E+003    3.36260E+005    4.13812E+004   -8.21060E+003
            3424    6.06185E+005    1.88937E+005   -4.90194E+005   -3.84043E+003   -4.90194E+005    6.79131E+005    1.01699E+005   -5.30342E+005   -1.08614E+005   -1.95890E+005   -5.94192E+002    3.30734E+005    5.86074E+004   -9.80087E+003
            3425    5.75732E+005    2.10524E+005   -4.39622E+005    5.66117E+003   -4.39622E+005    6.50146E+005    7.44792E+004   -4.82872E+005   -8.11544E+004   -1.50348E+005    8.06465E+003    3.17878E+005    5.54530E+004   -7.79168E+003
            3426    5.48811E+005    2.28661E+005   -3.97650E+005   -8.57301E+002   -3.97650E+005    6.26311E+005    5.66153E+004   -4.18378E+005   -5.95168E+004   -1.13253E+005    2.92377E+003    3.07854E+005    4.72807E+004    2.80648E+003
            3427    5.56009E+005    2.37281E+005   -3.97820E+005    1.16378E+003   -3.97820E+005    6.35101E+005    5.31249E+004   -4.18627E+005   -4.13008E+004   -1.19849E+005    1.77459E+003    3.12981E+005    3.56268E+004   -4.38179E+003
            3428    5.63316E+005    2.44211E+005   -4.00807E+005   -5.57173E+003   -4.00807E+005    6.45018E+005    5.40559E+004   -4.07554E+005   -2.72930E+004   -1.29209E+005   -5.66518E+003    3.17192E+005    2.78441E+004   -5.98882E+003
            3429    5.68100E+005    2.52061E+005   -3.99012E+005   -4.07735E+003   -3.99012E+005    6.51073E+005    5.03428E+004   -4.03828E+005   -1.41900E+004   -1.32005E+005   -4.83363E+003    3.19295E+005    2.25585E+004   -9.87188E+003
            3430    5.75416E+005    2.56112E+005   -4.03670E+005   -5.81329E+003   -4.03670E+005    6.59782E+005    5.11239E+004   -4.04645E+005   -7.45631E+003   -1.39294E+005   -6.62165E+003    3.22618E+005    1.83261E+004   -1.09080E+004
            3431    5.82064E+005    2.60944E+005   -4.06512E+005   -4.40825E+003   -4.06512E+005    6.67456E+005    4.99921E+004   -4.08601E+005   -1.24285E+003   -1.43733E+005   -5.00076E+003    3.25667E+005    1.33596E+004   -1.00726E+004
            3432    5.86991E+005    2.62904E+005   -4.10200E+005   -4.67912E+003   -4.10200E+005    6.73104E+005    5.06582E+004   -4.12087E+005    1.40449E+003   -1.48441E+005   -4.93757E+003    3.27950E+005    8.61382E+003   -6.79819E+003
            3433    5.89340E+005    2.64692E+005   -4.11130E+005   -4.15072E+003   -4.11130E+005    6.75822E+005    5.01964E+004   -4.13398E+005    3.21624E+003   -1.49623E+005   -4.18271E+003    3.29139E+005    2.68035E+003   -2.54917E+003
            3434    5.69795E+005    2.18716E+005   -4.28146E+005   -5.85379E+002   -4.28146E+005    6.46862E+005    7.00052E+004   -4.59321E+005   -5.23701E+004   -1.58464E+005    8.18837E+002    3.15750E+005    4.36759E+004   -6.33502E+003
            3435    5.69533E+005    2.26762E+005   -4.21818E+005   -3.31690E+003   -4.21818E+005    6.48580E+005    6.61241E+004   -4.45355E+005   -3.42607E+004   -1.60532E+005   -3.57975E+003    3.16051E+005    3.48591E+004   -9.94244E+003
            3436    5.80756E+005    2.31819E+005   -4.30384E+005   -7.66899E+003   -4.30384E+005    6.62203E+005    6.87449E+004   -4.47513E+005   -2.29715E+004   -1.74497E+005   -8.76639E+003    3.20640E+005    3.14368E+004   -1.37799E+004
            3437    5.94802E+005    2.37838E+005   -4.40283E+005   -6.86900E+003   -4.40283E+005    6.78121E+005    6.97714E+004   -4.59128E+005   -1.34344E+004   -1.87748E+005   -8.13163E+003    3.26527E+005    2.51736E+004   -1.51619E+004
            3438    6.07927E+005    2.41934E+005   -4.51294E+005   -9.02029E+003   -4.51294E+005    6.93228E+005    7.27935E+004   -4.68085E+005   -6.68616E+003   -2.01822E+005   -9.87246E+003    3.31899E+005    1.94745E+004   -1.29176E+004
            3439    6.19147E+005    2.45731E+005   -4.60094E+005   -8.68555E+003   -4.60094E+005    7.05825E+005    7.43492E+004   -4.78343E+005   -2.07532E+003   -2.11901E+005   -9.07100E+003    3.36673E+005    1.21844E+004   -9.00038E+003
            3440    6.24559E+005    2.47574E+005   -4.64492E+005   -9.48764E+003   -4.64492E+005    7.12066E+005    7.54686E+004   -4.81943E+005    2.64809E+002   -2.17145E+005   -9.52595E+003    3.39001E+005    4.05964E+003   -2.84249E+003
            3441    6.06645E+005    2.00419E+005   -4.82158E+005   -4.54206E+003   -4.82158E+005    6.82577E+005    9.54269E+004   -5.19716E+005   -8.80936E+004   -1.95545E+005   -2.64256E+003    3.33761E+005    4.35108E+004   -6.32342E+003
            3442    6.11903E+005    2.07409E+005   -4.84820E+005   -1.60681E+004   -4.84820E+005    6.92229E+005    9.78265E+004   -5.07070E+005   -6.98483E+004   -2.07194E+005   -1.64370E+004    3.36677E+005    4.00108E+004   -1.31114E+004
            3443    6.25322E+005    2.12314E+005   -4.94841E+005   -1.48666E+004   -4.94841E+005    7.07155E+005    9.91314E+004   -5.19493E+005   -5.57228E+004   -2.25355E+005   -1.63166E+004    3.41158E+005    3.59485E+004   -1.80016E+004
            3444    6.44138E+005    2.15462E+005   -5.13179E+005   -1.95288E+004   -5.13179E+005    7.28640E+005    1.05749E+005   -5.34065E+005   -4.82779E+004   -2.47975E+005   -2.09935E+004    3.48689E+005    3.19739E+004   -1.84688E+004
            3445    6.64156E+005    2.20668E+005   -5.30644E+005   -2.17517E+004   -5.30644E+005    7.51312E+005    1.10576E+005   -5.50525E+005   -4.12786E+004   -2.67631E+005   -2.28176E+004    3.57187E+005    2.45880E+004   -1.62058E+004
            3446    6.79117E+005    2.23609E+005   -5.44884E+005   -2.54901E+004   -5.44884E+005    7.68492E+005    1.15588E+005   -5.61590E+005   -3.76196E+004   -2.83227E+005   -2.59184E+004    3.63665E+005    1.60756E+004   -1.05424E+004
            3447    6.87118E+005    2.25978E+005   -5.51708E+005   -2.67217E+004   -5.51708E+005    7.77685E+005    1.17484E+005   -5.67471E+005   -3.49991E+004   -2.90676E+005   -2.67770E+004    3.67181E+005    5.19264E+003   -3.81992E+003
            3448    5.71405E+005    1.80802E+005   -4.61066E+005   -7.81372E+003   -4.61066E+005    6.41868E+005    9.60259E+004   -4.93709E+005   -9.57406E+004   -1.84960E+005   -7.37696E+003    3.12786E+005    5.38335E+004   -1.47451E+004
            3449    5.98332E+005    1.77116E+005   -4.90635E+005   -3.19523E+003   -4.90635E+005    6.67751E+005    1.05572E+005   -5.31852E+005   -9.72584E+004   -2.15090E+005   -4.36608E+003    3.25044E+005    4.62789E+004   -1.96248E+004
            3450    6.20903E+005    1.78148E+005   -5.17366E+005   -1.88914E+004   -5.17366E+005    6.95514E+005    1.19370E+005   -5.43583E+005   -9.25276E+004   -2.45617E+005   -1.99651E+004    3.35581E+005    4.70903E+004   -2.01082E+004
            3451    6.54999E+005    1.79435E+005   -5.54716E+005   -3.01918E+004   -5.54716E+005    7.34151E+005    1.35158E+005   -5.71884E+005   -9.34554E+004   -2.80530E+005   -3.14874E+004    3.52257E+005    4.12075E+004   -2.03784E+004
            3452    6.83772E+005    1.80744E+005   -5.87090E+005   -4.38989E+004   -5.87090E+005    7.67834E+005    1.50082E+005   -5.91778E+005   -9.23276E+004   -3.12926E+005   -4.49915E+004    3.66075E+005    3.25286E+004   -1.81747E+004
            3453    7.09012E+005    1.82797E+005   -6.13557E+005   -5.08724E+004   -6.13557E+005    7.96355E+005    1.60544E+005   -6.12946E+005   -9.19343E+004   -3.38219E+005   -5.14791E+004    3.77962E+005    2.10642E+004   -1.34683E+004
            3454    7.23042E+005    1.83972E+005   -6.28303E+005   -5.49971E+004   -6.28303E+005    8.12276E+005    1.66443E+005   -6.24449E+005   -9.13000E+004   -3.52953E+005   -5.50755E+004    3.84409E+005    7.20015E+003   -4.88557E+003
            3455    7.44585E+005    1.01668E+005   -7.28493E+005   -1.19681E+005   -7.28493E+005    8.30161E+005    2.48836E+005   -6.64287E+005   -2.22128E+005   -4.04619E+005   -1.19760E+005    4.04802E+005    9.52830E+003   -5.07137E+003
            3456    7.26894E+005    1.06234E+005   -7.03338E+005   -1.06669E+005   -7.03338E+005    8.09572E+005    2.34591E+005   -6.51003E+005   -2.13459E+005   -3.83276E+005   -1.07037E+005    3.94810E+005    2.62509E+004   -1.22096E+004
            3457    6.99800E+005    1.15428E+005   -6.62563E+005   -8.44446E+004   -6.62563E+005    7.77991E+005    2.10527E+005   -6.30627E+005   -1.98084E+005   -3.48648E+005   -8.48480E+004    3.79365E+005    3.93096E+004   -1.62325E+004
            3458    6.68112E+005    1.26711E+005   -6.15358E+005   -6.16365E+004   -6.15358E+005    7.42069E+005    1.83428E+005   -6.03911E+005   -1.79895E+005   -3.09874E+005   -6.05146E+004    3.61404E+005    4.91649E+004   -1.43759E+004
            3459    6.41759E+005    1.40450E+005   -5.70392E+005   -3.36385E+004   -5.70392E+005    7.10842E+005    1.54527E+005   -5.84996E+005   -1.60502E+005   -2.72767E+005   -3.03120E+004    3.45593E+005    5.47170E+004   -1.15405E+004
            3460    6.11973E+005    1.49676E+005   -5.27751E+005   -1.48805E+004   -5.27751E+005    6.77427E+005    1.30985E+005   -5.58856E+005   -1.44204E+005   -2.41376E+005   -7.37639E+003    3.28435E+005    5.60037E+004   -3.32036E+003
            3461    6.16266E+005    1.54382E+005   -5.18228E+005    1.92771E+004   -5.18228E+005    6.72609E+005    1.14856E+005   -5.81528E+005   -1.30423E+005   -2.38395E+005    2.42489E+004    3.28265E+005    3.75339E+004   -7.76128E+002
            3462    7.38923E+005    6.59041E+005    6.59041E+005    6.80319E+004   -1.69416E+005    8.28457E+005   -1.85885E+005    6.44307E+005    1.17873E+005    3.71641E+005    6.81418E+004    3.94215E+005   -8.14971E+003   -5.79903E+003
            3463    7.01789E+005    5.83177E+005    5.83177E+005    3.83646E+004   -2.08740E+005    7.91917E+005   -1.37600E+005    5.91302E+005    5.75072E+004    3.16864E+005    3.84302E+004    3.74050E+005   -6.67478E+003   -4.32559E+003
            3464    6.63635E+005    5.19438E+005    5.19438E+005    2.06584E+004   -2.33763E+005    7.53201E+005   -1.02111E+005    5.36164E+005    2.02478E+004    2.65369E+005    2.07165E+004    3.56053E+005   -5.09995E+003   -3.78217E+003
            3465    6.20763E+005    4.57304E+005    4.57304E+005    9.59058E+003   -2.51332E+005    7.08636E+005   -7.18541E+004    4.71335E+005    1.17000E+003    2.04757E+005    9.63580E+003    3.39347E+005   -4.26900E+003   -3.02384E+003
            3466    5.83382E+005    4.06462E+005    4.06462E+005    4.30348E+003   -2.62630E+005    6.69092E+005   -4.93786E+004    4.07758E+005   -3.56995E+003    1.47368E+005    4.33789E+003    3.25902E+005   -3.07057E+003   -2.49515E+003
            3467    5.63894E+005    3.66076E+005    3.66076E+005    1.10305E+003   -2.83392E+005    6.49469E+005   -2.79290E+004    3.36564E+005   -6.49912E+003    8.91561E+004    1.12987E+003    3.21179E+005   -1.98691E+003   -2.41900E+003
            3468    5.43401E+005    3.30398E+005    3.30398E+005    8.68286E+002   -2.96798E+005    6.27195E+005   -1.14894E+004    2.41569E+005   -7.14867E+002    3.43072E+004    8.75907E+002    3.13103E+005   -6.73530E+002   -1.79622E+003
            3469    5.50185E+005    3.05043E+005   -3.30104E+005   -5.36757E+002   -3.30104E+005    6.35147E+005    8.53245E+003   -2.21617E+005    3.41193E+002   -2.53963E+004   -5.42226E+002    3.17305E+005    4.01439E+002   -2.16133E+003
            3470    5.53978E+005    2.82082E+005   -3.56168E+005   -5.20393E+001   -3.56168E+005    6.38251E+005    2.47127E+004   -3.23497E+005    7.63457E+003   -8.17025E+004   -7.00511E+001    3.15975E+005    1.68712E+003   -1.88953E+003
            3471    7.21724E+005    6.39711E+005    6.39711E+005    6.29118E+004   -1.69613E+005    8.09324E+005   -1.77670E+005    6.28773E+005    1.16047E+005    3.53483E+005    6.34796E+004    3.86120E+005   -2.21125E+004   -1.33162E+004
            3472    6.89411E+005    5.69851E+005    5.69851E+005    3.42274E+004   -2.07978E+005    7.77829E+005   -1.32033E+005    5.81427E+005    5.79998E+004    3.03304E+005    3.47965E+004    3.68495E+005   -1.87342E+004   -1.24396E+004
            3473    6.52383E+005    5.08010E+005    5.08010E+005    1.90883E+004   -2.32758E+005    7.40768E+005   -9.81132E+004    5.24981E+005    2.12601E+004    2.53567E+005    1.95131E+004    3.51292E+005   -1.53965E+004   -9.98440E+003
            3474    6.13469E+005    4.50121E+005    4.50121E+005    8.36761E+003   -2.50323E+005    7.00444E+005   -6.93887E+004    4.64584E+005    3.21954E+003    1.96216E+005    8.73053E+003    3.36390E+005   -1.21584E+004   -8.41367E+003
            3475    5.77515E+005    4.00584E+005    4.00584E+005    4.31034E+003   -2.62041E+005    6.62625E+005   -4.76175E+004    3.99795E+005   -2.27195E+003    1.40513E+005    4.61175E+003    3.23351E+005   -9.04156E+003   -7.28056E+003
            3476    5.59834E+005    3.61667E+005    3.61667E+005    7.06640E+002   -2.83244E+005    6.44910E+005   -2.63766E+004    3.30118E+005   -5.48803E+003    8.37409E+004    8.76845E+002    3.19268E+005   -5.29199E+003   -5.78693E+003
            3477    5.40505E+005    3.27401E+005    3.27401E+005    1.22321E+003   -2.96504E+005    6.23905E+005   -1.07065E+004    2.31805E+005   -8.36780E+001    3.09049E+004    1.29832E+003    3.11511E+005   -2.09403E+003   -5.65632E+003
            3478    5.48192E+005    3.02378E+005   -3.30439E+005   -9.44477E+002   -3.30439E+005    6.32817E+005    9.66850E+003   -2.27591E+005    6.52871E+001   -2.80719E+004   -9.98860E+002    3.16051E+005    1.71579E+003   -5.05987E+003
            3479    5.51792E+005    2.80246E+005   -3.55415E+005    1.65097E+002   -3.55415E+005    6.35661E+005    2.50015E+004   -3.24805E+005    7.07879E+003   -8.20761E+004   -7.05162E+000    3.14602E+005    4.97783E+003   -6.04128E+003
            3480    6.93615E+005    6.05048E+005    6.05048E+005    5.01436E+004   -1.72568E+005    7.77615E+005   -1.60875E+005    6.04958E+005    1.09211E+005    3.22104E+005    5.13088E+004    3.72117E+005   -3.46465E+004   -1.90206E+004
            3481    6.66938E+005    5.46311E+005    5.46311E+005    2.96754E+004   -2.06600E+005    7.52911E+005   -1.23129E+005    5.60451E+005    5.90243E+004    2.79573E+005    3.07882E+004    3.58586E+005   -2.89951E+004   -1.69997E+004
            3482    6.34312E+005    4.89819E+005    4.89819E+005    1.48972E+004   -2.30538E+005    7.20357E+005   -9.13927E+004    5.09753E+005    2.40693E+004    2.34280E+005    1.58292E+004    3.43570E+005   -2.32893E+004   -1.43107E+004
            3483    6.00356E+005    4.37340E+005    4.37340E+005    8.16561E+003   -2.48718E+005    6.86058E+005   -6.55960E+004    4.49119E+005    6.81034E+003    1.81009E+005    8.96821E+003    3.31148E+005   -1.86753E+004   -1.19890E+004
            3484    5.67870E+005    3.90606E+005    3.90606E+005    3.12050E+003   -2.61250E+005    6.51856E+005   -4.41586E+004    3.88460E+005   -3.44067E+001    1.28807E+005    3.70308E+003    3.19128E+005   -1.34277E+004   -9.56032E+003
            3485    5.52869E+005    3.54853E+005    3.54853E+005    1.49194E+003   -2.82280E+005    6.37132E+005   -2.46883E+004    3.16611E+005   -3.27873E+003    7.54636E+004    1.88000E+003    3.15927E+005   -8.13275E+003   -8.44978E+003
            3486    5.35502E+005    3.21624E+005    3.21624E+005    5.16383E+002   -2.96565E+005    6.18189E+005   -8.52511E+003    2.17772E+005    3.87417E+002    2.45581E+004    6.29831E+002    3.08770E+005   -2.52331E+003   -7.03549E+003
            3487    5.44478E+005    2.98897E+005   -3.29575E+005   -4.01006E+002   -3.29575E+005    6.28472E+005    1.03595E+004   -2.36761E+005   -1.09547E+001   -3.05324E+004   -5.35016E+002    3.13764E+005    2.81779E+003   -7.58459E+003
            3488    5.47151E+005    2.76615E+005   -3.53678E+005   -8.17345E+002   -3.53678E+005    6.30293E+005    2.59602E+004   -3.22869E+005    5.38181E+003   -8.20673E+004   -1.19496E+003    3.11903E+005    8.53302E+003   -7.97442E+003
            3489    6.59866E+005    5.67085E+005    5.67085E+005    3.86355E+004   -1.72512E+005    7.39597E+005   -1.44403E+005    5.76166E+005    1.08005E+005    2.85790E+005    3.94128E+004    3.56104E+005   -4.27024E+004   -1.83936E+004
            3490    6.42833E+005    5.20702E+005    5.20702E+005    2.03933E+004   -2.04323E+005    7.25026E+005   -1.12258E+005    5.43291E+005    6.30891E+004    2.51945E+005    2.17390E+004    3.47877E+005   -3.63185E+004   -1.85890E+004
            3491    6.11604E+005    4.67480E+005    4.67480E+005    1.21402E+004   -2.27692E+005    6.95172E+005   -8.39763E+004    4.87580E+005    2.87483E+004    2.09752E+005    1.34285E+004    3.34061E+005   -3.01362E+004   -1.60569E+004
            3492    5.85515E+005    4.22977E+005    4.22977E+005    5.30841E+003   -2.46284E+005    6.69261E+005   -6.06670E+004    4.36405E+005    1.29141E+004    1.62783E+005    6.30368E+003    3.25178E+005   -2.33555E+004   -1.25846E+004
            3493    5.56320E+005    3.79530E+005    3.79530E+005    3.75020E+003   -2.59563E+005    6.39093E+005   -4.12389E+004    3.72050E+005    4.09794E+003    1.15065E+005    4.55388E+003    3.14129E+005   -1.70437E+004   -1.04267E+004
            3494    5.44616E+005    3.46113E+005    3.46113E+005    3.30284E+002   -2.81676E+005    6.27789E+005   -2.15892E+004    3.04543E+005   -7.17412E+002    6.47299E+004    7.55183E+002    3.11957E+005   -9.70034E+003   -7.82763E+003
            3495    5.29464E+005    3.15892E+005    3.15892E+005    1.69109E+003   -2.95401E+005    6.11292E+005   -7.39407E+003    1.93024E+005    1.69197E+003    1.86621E+004    1.82811E+003    3.05423E+005   -2.78386E+003   -7.59392E+003
            3496    5.39611E+005    2.93050E+005   -3.29743E+005   -1.70055E+003   -3.29743E+005    6.22793E+005    1.27981E+004   -2.43978E+005   -1.65315E+003   -3.48353E+004   -1.90587E+003    3.10845E+005    4.71292E+003   -7.02156E+003
            3497    5.41734E+005    2.73012E+005   -3.50899E+005    1.36981E+002   -3.50899E+005    6.23911E+005    2.59168E+004   -3.24497E+005    2.87557E+003   -8.02080E+004   -4.17960E+002    3.08869E+005    1.14806E+004   -8.94445E+003
            3498    6.29980E+005    5.26769E+005    5.26769E+005    2.00522E+004   -1.78589E+005    7.05358E+005   -1.22744E+005    5.52639E+005    9.81728E+004    2.49961E+005    2.00989E+004    3.40336E+005   -4.98753E+004   -1.77019E+004
            3499    6.16307E+005    4.93177E+005    4.93177E+005    1.57019E+004   -2.02559E+005    6.95736E+005   -1.02106E+005    5.17984E+005    6.71859E+004    2.22284E+005    1.68497E+004    3.36245E+005   -4.21130E+004   -1.76543E+004
            3500    5.91496E+005    4.47269E+005    4.47269E+005    6.75883E+003   -2.25015E+005    6.72284E+005   -7.63377E+004    4.71766E+005    3.51913E+004    1.86107E+005    7.71459E+003    3.25572E+005   -3.46608E+004   -1.40690E+004
            3501    5.70383E+005    4.09000E+005    4.09000E+005    5.51405E+003   -2.43560E+005    6.52560E+005   -5.69845E+004    4.18910E+005    2.00725E+004    1.44457E+005    6.42417E+003    3.19013E+005   -2.76384E+004   -1.12718E+004
            3502    5.45631E+005    3.68526E+005    3.68526E+005    1.62133E+003   -2.58490E+005    6.27016E+005   -3.72192E+004    3.61092E+005    8.75198E+003    1.00750E+005    2.15561E+003    3.09460E+005   -1.94836E+004   -7.36428E+003
            3503    5.36221E+005    3.38772E+005    3.38772E+005    1.80977E+003   -2.79571E+005    6.18343E+005   -2.03368E+004    2.87994E+005    3.17215E+003    5.56689E+004    2.16939E+003    3.07811E+005   -1.11729E+004   -5.93434E+003
            3504    5.23590E+005    3.08781E+005    3.08781E+005   -1.11718E+002   -2.95760E+005    6.04541E+005   -4.30294E+003    1.75927E+005    1.66666E+003    1.12942E+004   -5.20999E+001    3.02194E+005   -2.10063E+003   -4.35356E+003
            3505    5.33881E+005    2.88301E+005   -3.27746E+005    1.08555E+002   -3.27746E+005    6.16047E+005    1.31121E+004   -2.56755E+005   -2.85615E+003   -3.63641E+004   -1.16078E+002    3.07453E+005    6.53416E+003   -5.69025E+003
            3506    5.36600E+005    2.67007E+005   -3.50842E+005   -1.46964E+003   -3.50842E+005    6.17849E+005    2.84348E+004   -3.26090E+005   -2.48520E+003   -8.09050E+004   -1.91413E+003    3.05995E+005    1.55334E+004   -6.39483E+003
            3507    6.03012E+005    4.99195E+005    4.99195E+005    1.25432E+004   -1.75409E+005    6.74605E+005   -1.12110E+005    5.30852E+005    1.05973E+005    2.19045E+005    1.13109E+004    3.27809E+005   -5.23523E+004   -1.38462E+004
            3508    6.01248E+005    4.77573E+005    4.77573E+005    6.78096E+003   -1.99711E+005    6.77284E+005   -9.48807E+004    5.11831E+005    7.77948E+004    2.00035E+005    6.81265E+003    3.29883E+005   -4.40825E+004   -1.34582E+004
            3509    5.74623E+005    4.31982E+005    4.31982E+005    5.63696E+003   -2.21490E+005    6.53472E+005   -7.20432E+004    4.55837E+005    4.46871E+004    1.65551E+005    5.89139E+003    3.18629E+005   -3.85691E+004   -1.08520E+004
            3510    5.59985E+005    4.00225E+005    4.00225E+005    2.40447E+003   -2.40145E+005    6.40370E+005   -5.41616E+004    4.14400E+005    3.05499E+004    1.29501E+005    2.43368E+003    3.14815E+005   -3.03999E+004   -6.34142E+003
            3511    5.37379E+005    3.62179E+005    3.62179E+005    2.83613E+003   -2.55592E+005    6.17771E+005   -3.64745E+004    3.50880E+005    1.61434E+004    9.04140E+004    2.86613E+003    3.05820E+005   -2.22538E+004   -3.40130E+003
            3512    5.29110E+005    3.31801E+005    3.31801E+005   -4.05489E+002   -2.78359E+005    6.10161E+005   -1.76788E+004    2.83157E+005    6.74288E+003    4.67278E+004   -4.34231E+002    3.04178E+005   -1.21944E+004   -5.87944E+002
            3513    5.18133E+005    3.04108E+005    3.04108E+005    2.18644E+003   -2.94172E+005    5.98280E+005   -4.04064E+003    1.30842E+005    2.83484E+003    7.10005E+003    2.18703E+003    2.99128E+005   -1.57142E+003   -6.96275E+001
            3514    5.28623E+005    2.81579E+005   -3.28345E+005   -2.48155E+003   -3.28345E+005    6.09924E+005    1.64158E+004   -2.59554E+005   -7.49761E+003   -3.92927E+004   -2.45713E+003    3.04408E+005    9.18096E+003   -1.51228E+002
            3515    5.31442E+005    2.62587E+005   -3.48934E+005    1.12273E+003   -3.48934E+005    6.11521E+005    2.84079E+004   -3.33773E+005   -8.65167E+003   -7.75208E+004    9.48813E+002    3.03192E+005    1.92592E+004   -3.86781E+003
            3516    5.82604E+005    4.66547E+005    4.66547E+005   -2.85866E+003   -1.85493E+005    6.52040E+005   -9.27316E+004    5.11996E+005    8.90212E+004    1.95076E+005   -5.90256E+003    3.15575E+005   -5.75551E+004   -1.15673E+004
            3517    5.82900E+005    4.61987E+005    4.61987E+005    4.48440E+003   -1.94305E+005    6.56292E+005   -9.07219E+004    4.97584E+005    8.98719E+004    1.79509E+005    2.78518E+003    3.20656E+005   -5.04086E+004   -9.37029E+003
            3518    5.69910E+005    4.28284E+005    4.28284E+005   -2.09571E+003   -2.18041E+005    6.46324E+005   -6.93824E+004    4.63448E+005    5.85839E+004    1.53393E+005   -3.83005E+003    3.16391E+005   -4.32499E+004   -4.93568E+003
            3519    5.52838E+005    3.97142E+005    3.97142E+005    8.88304E+002   -2.34422E+005    6.31564E+005   -5.45360E+004    4.15437E+005    4.38454E+004    1.20133E+005   -3.71025E+002    3.11079E+005   -3.72254E+004   -2.16007E+003
            3520    5.32181E+005    3.58018E+005    3.58018E+005   -8.04424E+002   -2.53425E+005    6.11443E+005   -3.45963E+004    3.54416E+005    2.51346E+004    8.05198E+004   -1.86545E+003    3.03193E+005   -2.66533E+004    2.31318E+003
            3521    5.22101E+005    3.27503E+005    3.27503E+005    2.48511E+003   -2.74735E+005    6.02238E+005   -1.84176E+004    2.69110E+005    1.24726E+004    4.10174E+004    1.76295E+003    3.00339E+005   -1.42932E+004    6.58759E+003
            3522    5.14472E+005    2.99082E+005    2.99082E+005   -8.95361E+002   -2.94969E+005    5.94051E+005   -1.07264E+003    1.32836E+005    1.76069E+003    2.39109E+003   -9.33859E+002    2.96900E+005   -6.25702E+002    8.60074E+003
            3523    5.22392E+005    2.76599E+005   -3.25922E+005    2.14275E+002   -3.25922E+005    6.02522E+005    1.63696E+004   -2.72809E+005   -1.20007E+004   -3.79102E+004    8.01977E+002    3.00628E+005    1.27178E+004    6.04555E+003
            3524    5.28779E+005    2.56068E+005   -3.52144E+005   -1.50594E+003   -3.52144E+005    6.08212E+005    3.25273E+004   -3.38043E+005   -2.02201E+004   -7.68612E+004   -5.00582E+002    3.01634E+005    2.53025E+004    2.72988E+003
            3525    5.30019E+005    2.49004E+005   -3.59638E+005    2.38891E+002   -3.59638E+005    6.08642E+005    3.67983E+004   -3.58653E+005   -3.84851E+004   -7.54255E+004    3.51561E+003    3.01330E+005    3.45466E+004    9.33005E+003
            3526    5.14844E+005    2.69500E+005   -3.24369E+005   -3.89269E+003   -3.24369E+005    5.93868E+005    1.95871E+004   -2.65277E+005   -1.89405E+004   -3.82294E+004   -1.59157E+003    2.95625E+005    1.84898E+004    1.68236E+004
            3527    5.10445E+005    2.94839E+005    2.94839E+005    1.74130E+003   -2.94570E+005    5.89409E+005   -6.70268E+002   -1.07887E+005    4.24939E+002   -1.46013E+002    1.73188E+003    2.94118E+005   -1.16186E+002    1.85712E+004
            3528    5.15962E+005    3.25651E+005    3.25651E+005    8.42587E+002   -2.69294E+005    5.94945E+005   -1.90664E+004    2.79139E+005    2.00471E+004    3.85898E+004   -1.43778E+003    2.96184E+005   -1.85224E+004    1.64289E+004
            3529    5.29851E+005    3.60440E+005    3.60440E+005    3.01882E+003   -2.48304E+005    6.08745E+005   -3.83849E+004    3.53254E+005    3.99916E+004    7.57917E+004   -6.28712E+002    3.01329E+005   -3.46131E+004    1.10120E+004
            3530    5.49915E+005    3.97316E+005    3.97316E+005   -3.52359E+003   -2.29604E+005    6.26920E+005   -5.47295E+004    4.24701E+005    6.01406E+004    1.11211E+005   -7.16297E+003    3.08352E+005   -4.68044E+004    2.34743E+003
            3531    5.73105E+005    4.38096E+005    4.38096E+005   -2.14890E+003   -2.09914E+005    6.48010E+005   -7.53444E+004    4.76594E+005    8.29510E+004    1.49318E+005   -6.23582E+003    3.17008E+005   -5.37679E+004   -2.35643E+003
            3532    5.89801E+005    4.70388E+005    4.70388E+005   -4.18088E+003   -1.89926E+005    6.60313E+005   -9.20937E+004    5.17589E+005    1.02639E+005    1.82177E+005   -8.53484E+003    3.22679E+005   -5.14068E+004   -3.83974E+003
            3533    5.99974E+005    4.97357E+005    4.97357E+005   -1.42328E+003   -1.68425E+005    6.65782E+005   -1.09170E+005    5.43882E+005    1.33088E+005    2.03788E+005   -9.36675E+003    3.25242E+005   -4.90300E+004    3.93856E+003
            3534    7.36281E+005    7.25982E+005    7.25982E+005    1.21515E+005   -9.40099E+004    8.19992E+005   -2.51163E+005    6.59509E+005    2.32046E+005    3.99845E+005    1.21597E+005    4.01187E+005   -9.80899E+003   -5.11616E+003
            3535    7.18229E+005    6.98623E+005    6.98623E+005    1.05977E+005   -1.00125E+005    7.98748E+005   -2.34825E+005    6.46508E+005    2.21686E+005    3.76068E+005    1.06721E+005    3.90741E+005   -2.79506E+004   -1.49901E+004
            3536    6.90048E+005    6.55797E+005    6.55797E+005    8.39981E+004   -1.10676E+005    7.66473E+005   -2.09706E+005    6.23634E+005    2.05283E+005    3.39031E+005    8.48047E+004    3.74871E+005   -4.11338E+004   -1.81547E+004
            3537    6.62668E+005    6.09837E+005    6.09837E+005    5.65754E+004   -1.24566E+005    7.34403E+005   -1.80615E+005    6.03085E+005    1.85744E+005    2.99258E+005    5.68436E+004    3.58748E+005   -5.09369E+004   -1.92534E+004
            3538    6.36693E+005    5.67961E+005    5.67961E+005    3.84387E+004   -1.38481E+005    7.06442E+005   -1.55973E+005    5.77387E+005    1.68959E+005    2.62586E+005    3.63740E+004    3.44689E+005   -5.64906E+004   -1.43054E+004
            3539    6.21759E+005    5.36345E+005    5.36345E+005    1.46643E+004   -1.51661E+005    6.88006E+005   -1.33116E+005    5.68387E+005    1.53288E+005    2.36201E+005    9.85893E+003    3.34803E+005   -5.95792E+004   -1.02758E+004
            3540    6.09515E+005    5.18295E+005    5.18295E+005    1.02162E+004   -1.57526E+005    6.75821E+005   -1.23662E+005    5.53907E+005    1.50544E+005    2.16577E+005    3.86399E+003    3.29453E+005   -5.84401E+004   -5.27610E+003
            3541    6.96813E+005    1.29267E+005   -6.42936E+005   -6.10646E+004   -6.42936E+005    7.72203E+005    1.91578E+005   -6.34262E+005   -8.82054E+004   -4.25388E+005   -6.11403E+004    3.47283E+005   -5.70323E+003    5.30009E+003
            3542    6.13287E+005    1.67617E+005   -5.18237E+005   -2.25906E+004   -5.18237E+005    6.85854E+005    1.24404E+005   -5.40698E+005   -1.20875E+004   -3.38473E+005   -2.26512E+004    3.01553E+005   -4.75751E+003    4.41061E+003
            3543    5.48091E+005    1.83789E+005   -4.34382E+005   -7.81424E+003   -4.34382E+005    6.18171E+005    8.61359E+004   -4.63214E+005   -1.44603E+002   -2.50399E+005   -7.86395E+003    2.82587E+005   -3.91363E+003    3.47433E+003
            3544    4.90019E+005    2.02579E+005   -3.56101E+005    8.68327E+002   -3.56101E+005    5.58679E+005    5.08846E+004   -3.78092E+005    1.18801E+004   -1.65351E+005    8.16911E+002    2.64884E+005   -2.70386E+003    3.34644E+003
            3545    6.82218E+005    1.28657E+005   -6.27125E+005   -5.68362E+004   -6.27125E+005    7.55782E+005    1.85102E+005   -6.21576E+005   -8.87779E+004   -4.09038E+005   -5.74884E+004    3.41771E+005   -1.57036E+004    1.51919E+004
            3546    6.02941E+005    1.65189E+005   -5.09005E+005   -2.14628E+004   -5.09005E+005    6.74195E+005    1.21760E+005   -5.31868E+005   -1.50690E+004   -3.28301E+005   -2.19095E+004    2.98089E+005   -1.32523E+004    1.18413E+004
            3547    5.44556E+005    1.82890E+005   -4.31272E+005   -7.37898E+003   -4.31272E+005    6.14162E+005    8.52536E+004   -4.60326E+005   -2.37215E+003   -2.45545E+005   -7.84339E+003    2.81686E+005   -1.04180E+004    1.06797E+004
            3548    4.86475E+005    2.01070E+005   -3.53686E+005    1.27835E+002   -3.53686E+005    5.54756E+005    5.08296E+004   -3.74399E+005    1.08734E+004   -1.63112E+005   -2.49859E+002    2.63176E+005   -7.83550E+003    8.73485E+003
            3549    6.55718E+005    1.26586E+005   -5.99201E+005   -4.95158E+004   -5.99201E+005    7.25787E+005    1.74044E+005   -5.98954E+005   -9.05548E+004   -3.80939E+005   -5.06374E+004    3.31398E+005   -2.44747E+004    1.98922E+004
            3550    5.84959E+005    1.62219E+005   -4.91319E+005   -1.67554E+004   -4.91319E+005    6.53538E+005    1.15285E+005   -5.17764E+005   -1.99991E+004   -3.07945E+005   -1.79112E+004    2.92289E+005   -2.10744E+004    1.85143E+004
            3551    5.35902E+005    1.80203E+005   -4.24510E+005   -8.43367E+003   -4.24510E+005    6.04713E+005    8.42469E+004   -4.51592E+005   -7.37460E+003   -2.35904E+005   -9.46230E+003    2.79218E+005   -1.67245E+004    1.53987E+004
            3552    4.80705E+005    1.99122E+005   -3.49014E+005    7.95598E+002   -3.49014E+005    5.48137E+005    4.96988E+004   -3.70281E+005    8.55411E+003   -1.57568E+005   -8.21063E+001    2.60690E+005   -1.23402E+004    1.29834E+004
            3553    6.25677E+005    1.26571E+005   -5.63968E+005   -3.47461E+004   -5.63968E+005    6.90540E+005    1.57381E+005   -5.76035E+005   -9.07840E+004   -3.45286E+005   -3.60732E+004    3.19239E+005   -2.95862E+004    2.17279E+004
            3554    5.58176E+005    1.57217E+005   -4.66707E+005   -1.47449E+004   -4.66707E+005    6.23923E+005    1.08078E+005   -4.93077E+005   -2.73114E+004   -2.80510E+005   -1.64135E+004    2.83488E+005   -2.65062E+004    2.13583E+004
            3555    5.25878E+005    1.78452E+005   -4.15169E+005   -7.64384E+003   -4.15169E+005    5.93622E+005    8.14536E+004   -4.42127E+005   -1.41624E+004   -2.21122E+005   -9.07666E+003    2.77171E+005   -2.02956E+004    1.76020E+004
            3556    4.72861E+005    1.95266E+005   -3.44220E+005   -1.58209E+003   -3.44220E+005    5.39486E+005    5.01789E+004   -3.61772E+005    4.58338E+003   -1.52415E+005   -2.70502E+003    2.57342E+005   -1.64306E+004    1.35977E+004
            3557    5.92612E+005    1.24567E+005   -5.27932E+005   -2.31539E+004   -5.27932E+005    6.52499E+005    1.42173E+005   -5.48848E+005   -9.46603E+004   -3.07846E+005   -2.40128E+004    3.06191E+005   -3.29177E+004    1.98246E+004
            3558    5.34570E+005    1.54031E+005   -4.42742E+005   -7.74901E+003   -4.42742E+005    5.96773E+005    9.88201E+004   -4.74620E+005   -3.63432E+004   -2.50617E+005   -9.50020E+003    2.76549E+005   -2.94067E+004    2.11885E+004
            3559    5.13803E+005    1.72926E+005   -4.07229E+005   -9.64251E+003   -4.07229E+005    5.80155E+005    8.13153E+004   -4.31200E+005   -2.63030E+004   -2.06716E+005   -1.09268E+004    2.74448E+005   -2.38429E+004    1.59538E+004
            3560    4.66537E+005    1.92229E+005   -3.39668E+005    2.43072E+002   -3.39668E+005    5.31898E+005    4.90653E+004   -3.60054E+005   -2.66252E+003   -1.43772E+005   -7.61353E+002    2.55595E+005   -1.86652E+004    1.21364E+004
            3561    5.77658E+005    1.28237E+005   -5.06039E+005   -1.01296E+004   -5.06039E+005    6.34276E+005    1.29310E+005   -5.38445E+005   -9.69308E+004   -2.80110E+005   -1.08901E+004    3.01995E+005   -2.86906E+004    1.72971E+004
            3562    5.10985E+005    1.48932E+005   -4.22701E+005   -1.02678E+004   -4.22701E+005    5.71634E+005    9.46790E+004   -4.49895E+005   -4.74395E+004   -2.26009E+005   -1.05882E+004    2.69058E+005   -3.37428E+004    1.51328E+004
            3563    5.07220E+005    1.69583E+005   -4.01858E+005   -4.94847E+003   -4.01858E+005    5.71441E+005    7.90747E+004   -4.31459E+005   -3.99323E+004   -1.91989E+005   -5.30277E+003    2.74033E+005   -2.61189E+004    1.09008E+004
            3564    4.62297E+005    1.86151E+005   -3.40421E+005   -1.24032E+003   -3.40421E+005    5.26572E+005    5.18370E+004   -3.60657E+005   -1.34204E+004   -1.40722E+005   -1.36844E+003    2.54340E+005   -2.32081E+004    7.09931E+003
            3565    5.74434E+005    1.26300E+005   -5.08260E+005   -2.37230E+004   -5.08260E+005    6.34559E+005    1.35228E+005   -5.27590E+005   -1.21196E+005   -2.61380E+005   -2.31075E+004    3.07905E+005   -2.77753E+004    8.55850E+003
            3566    5.12601E+005    1.45800E+005   -4.23638E+005    9.54420E+002   -4.23638E+005    5.69439E+005    9.22945E+004   -4.63094E+005   -6.30182E+004   -2.16943E+005    3.07740E+003    2.71862E+005   -3.02147E+004    4.43552E+003
            3567    5.07675E+005    1.57999E+005   -4.11287E+005   -5.53041E+003   -4.11287E+005    5.69286E+005    8.62730E+004   -4.42321E+005   -6.31461E+004   -1.91386E+005   -4.28682E+003    2.75190E+005   -3.14934E+004    6.09324E+003
            3568    4.62901E+005    1.82024E+005   -3.43443E+005    4.08715E+003   -3.43443E+005    5.25467E+005    5.24437E+004   -3.73420E+005   -2.92631E+004   -1.32741E+005    4.67272E+003    2.56086E+005   -2.64917E+004    4.49364E+003
            3569    4.72956E+005    1.72039E+005   -3.62739E+005    5.49256E+002   -3.62739E+005    5.34778E+005    6.33834E+004   -3.93276E+005   -6.17829E+004   -1.32784E+005    4.41722E+003    2.61837E+005   -3.58490E+004   -3.25054E+003
            3570    5.00085E+005    1.53081E+005   -4.02483E+005    1.16683E+004   -4.02483E+005    5.55564E+005    7.92446E+004   -4.51710E+005   -8.04655E+004   -1.71043E+005    1.37745E+004    2.70304E+005   -4.09748E+004    8.82576E+003
            3571    5.49177E+005    1.29195E+005   -4.73023E+005    1.19417E+002   -4.73023E+005    6.02218E+005    1.14570E+005   -5.13357E+005   -1.09756E+005   -2.36538E+005    2.58570E+003    2.90396E+005   -4.18472E+004    1.17579E+004
            3572    5.70211E+005    1.10938E+005   -5.03832E+005    7.72003E+003   -5.03832E+005    6.14769E+005    1.28391E+005   -5.48599E+005   -1.31664E+005   -2.61977E+005    8.46678E+003    2.98847E+005   -2.59672E+004    1.01549E+004
            3573    7.20954E+005    4.27737E+004   -7.50420E+005   -1.34945E+005   -7.50420E+005    7.93193E+005    2.80864E+005   -6.68955E+005   -2.17679E+005   -4.89890E+005   -1.35022E+005    3.72424E+005   -7.17126E+003    5.43988E+003
            3574    6.97810E+005    4.86877E+004   -7.17826E+005   -1.19439E+005   -7.17826E+005    7.66514E+005    2.62859E+005   -6.49854E+005   -2.08153E+005   -4.60538E+005   -1.19887E+005    3.61170E+005   -2.05274E+004    1.38733E+004
            3575    6.62492E+005    5.90984E+004   -6.66441E+005   -9.36946E+004   -6.66441E+005    7.25539E+005    2.33679E+005   -6.20964E+005   -1.93081E+005   -4.13700E+005   -9.42561E+004    3.43976E+005   -3.01825E+004    1.79154E+004
            3576    6.21494E+005    7.14970E+004   -6.07213E+005   -6.59423E+004   -6.07213E+005    6.78710E+005    2.00553E+005   -5.85820E+005   -1.74868E+005   -3.61604E+005   -6.51861E+004    3.23444E+005   -3.76249E+004    1.61080E+004
            3577    5.86310E+005    8.68006E+004   -5.49710E+005   -3.17037E+004   -5.49710E+005    6.36510E+005    1.64871E+005   -5.58404E+005   -1.55547E+005   -3.10350E+005   -2.87160E+004    3.04557E+005   -4.19700E+004    1.32419E+004
            3578    5.42954E+005    9.61886E+004   -4.91358E+005   -8.13565E+003   -4.91358E+005    5.87547E+005    1.34435E+005   -5.19682E+005   -1.39227E+005   -2.62418E+005   -1.66014E+003    2.81713E+005   -4.28419E+004    7.27475E+003
            3579    5.28990E+005    9.64933E+004   -4.60450E+005    3.52581E+004   -4.60450E+005    5.56943E+005    1.09566E+005   -5.20927E+005   -1.27357E+005   -2.39616E+005    3.82746E+004    2.70081E+005   -2.67719E+004    8.55458E+003
            3580    4.44812E+005    1.94015E+005   -3.14530E+005    2.15002E+003   -3.14530E+005    5.08545E+005    3.94549E+004   -3.30410E+005   -3.80490E+004   -8.59641E+004    5.64848E+003    2.51042E+005   -2.68891E+004   -1.03740E+004
            3581    4.29728E+005    2.15491E+005   -2.79722E+005   -4.93461E+003   -2.79722E+005    4.95213E+005    2.30555E+004   -2.46501E+005   -2.10147E+004   -4.57950E+004   -2.35667E+003    2.45957E+005   -1.48178E+004   -1.91251E+004
            3582    4.22023E+005    2.44096E+005    2.44096E+005    2.50424E+003   -2.43209E+005    4.87305E+005   -1.13060E+003   -1.03256E+005    1.15332E+003   -3.22897E+002    2.56138E+003    2.42752E+005   -2.73544E+002   -2.09064E+004
            3583    4.29346E+005    2.77285E+005    2.77285E+005    1.00032E+002   -2.17277E+005    4.94562E+005   -2.00361E+004    2.54224E+005    1.91401E+004    4.33571E+004   -2.38897E+003    2.45692E+005    1.44282E+004   -1.86943E+004
            3584    4.46628E+005    3.18206E+005    3.18206E+005    2.93335E+003   -1.92883E+005    5.11089E+005   -4.27521E+004    3.26766E+005    4.15694E+004    8.76611E+004   -9.74057E+002    2.52293E+005    2.68220E+004   -1.24831E+004
            3585    4.71825E+005    3.59107E+005    3.59107E+005   -7.08160E+003   -1.73341E+005    5.32448E+005   -5.95617E+004    3.97413E+005    6.09940E+004    1.28432E+005   -1.07405E+004    2.60908E+005    3.58425E+004   -2.18681E+003
            3586    5.05480E+005    4.10387E+005    4.10387E+005   -6.40183E+003   -1.51880E+005    5.62266E+005   -8.40351E+004    4.54681E+005    8.53469E+004    1.76993E+005   -1.02349E+004    2.73494E+005    3.99405E+004    3.26478E+003
            3587    5.26105E+005    4.45317E+005    4.45317E+005   -1.13028E+004   -1.29994E+005    5.75312E+005   -1.01340E+005    4.94617E+005    1.07771E+005    2.10935E+005   -1.46845E+004    2.79603E+005    3.59689E+004    5.79899E+003
            3588    5.07934E+005    4.33280E+005    4.33280E+005   -1.10451E+004   -1.20437E+005    5.53717E+005   -1.00599E+005    4.80346E+005    1.05479E+005    2.15294E+005   -1.89748E+004    2.65534E+005    4.18084E+004    2.07879E+003
            3589    4.47374E+005    1.98368E+005   -3.14462E+005   -4.21564E+003   -3.14462E+005    5.12829E+005    4.01032E+004   -3.16478E+005   -2.60585E+004   -9.10775E+004   -3.17363E+003    2.53457E+005   -1.96071E+004   -3.15439E+003
            3590    4.49791E+005    2.05626E+005   -3.10173E+005    4.12484E+002   -3.10173E+005    5.15799E+005    3.47114E+004   -3.15456E+005   -1.32498E+004   -9.09931E+004    1.08789E+002    2.54470E+005   -1.53045E+004    5.27357E+003
            3591    4.53270E+005    2.09105E+005   -3.11295E+005   -2.69702E+003   -3.11295E+005    5.20399E+005    3.49623E+004   -3.08558E+005   -6.44322E+003   -9.51112E+004   -3.33238E+003    2.55992E+005   -1.26789E+004    8.71260E+003
            3592    4.57464E+005    2.15043E+005   -3.10354E+005   -3.08095E+002   -3.10354E+005    5.25397E+005    3.18729E+004   -3.08291E+005   -6.02727E+002   -9.39526E+004   -1.06335E+003    2.58135E+005   -9.87995E+003    1.16622E+004
            3593    4.61351E+005    2.18066E+005   -3.11991E+005   -8.72191E+002   -3.11991E+005    5.30057E+005    3.15992E+004   -3.07368E+005    1.74437E+003   -9.51178E+004   -1.42411E+003    2.60281E+005   -7.68634E+003    1.06956E+004
            3594    4.65072E+005    2.21402E+005   -3.12953E+005    4.93296E+002   -3.12953E+005    5.34354E+005    3.03525E+004   -3.09428E+005    3.83639E+003   -9.51509E+004    2.56912E+002    2.62420E+005   -4.36342E+003    7.84646E+003
            3595    4.66653E+005    2.22550E+005   -3.13685E+005    2.99901E+002   -3.13685E+005    5.36236E+005    3.02784E+004   -3.09263E+005    4.45177E+003   -9.55550E+004    2.68160E+002    2.63397E+005   -1.81383E+003    2.61808E+003
            3596    4.26467E+005    2.22248E+005   -2.69315E+005    1.93560E+003   -2.69315E+005    4.91563E+005    1.50438E+004   -2.40037E+005   -6.44094E+003   -4.12285E+004    2.53807E+003    2.44847E+005   -9.94269E+003   -6.42595E+003
            3597    4.26529E+005    2.24797E+005   -2.67156E+005   -8.46235E+002   -2.67156E+005    4.91953E+005    1.44019E+004   -2.22828E+005   -1.10582E+003   -4.12260E+004   -8.73789E+002    2.45035E+005   -7.71162E+003    1.07318E+003
            3598    4.29216E+005    2.30426E+005   -2.64681E+005    2.31726E+003   -2.64681E+005    4.95107E+005    1.06461E+004   -2.20477E+005    2.88754E+003   -3.68156E+004    1.98968E+003    2.46583E+005   -5.36485E+003    7.94300E+003
            3599    4.32642E+005    2.34304E+005   -2.64940E+005    3.60937E+002   -2.64940E+005    4.99244E+005    1.00917E+004   -2.06369E+005    4.06573E+003   -3.43836E+004    4.28396E+001    2.48666E+005   -4.12393E+003    9.72751E+003
            3600    4.36966E+005    2.39856E+005   -2.64443E+005    1.88730E+003   -2.64443E+005    5.04300E+005    7.56642E+003   -2.00925E+005    4.91777E+003   -2.93058E+004    1.68877E+003    2.51353E+005   -2.40944E+003    1.02570E+004
            3601    4.40358E+005    2.42661E+005   -2.65616E+005    1.02249E+003   -2.65616E+005    5.08276E+005    7.31091E+003   -1.93669E+005    4.70467E+003   -2.75752E+004    9.37841E+002    2.53530E+005   -1.53852E+003    6.85111E+003
            3602    4.42368E+005    2.45039E+005   -2.65582E+005    1.52156E+003   -2.65582E+005    5.10621E+005    6.34061E+003   -1.90533E+005    4.75221E+003   -2.52882E+004    1.51412E+003    2.54853E+005   -3.17969E+002    2.84250E+003
            3603    4.26375E+005    2.45823E+005   -2.46508E+005   -2.19865E+003   -2.46508E+005    4.92331E+005    9.61393E+002    1.00403E+005   -1.48695E+003    8.38961E+002   -2.23619E+003    2.45978E+005    4.71031E+002   -9.52075E+003
            3604    4.29666E+005    2.51169E+005    2.51169E+005    1.42419E+003   -2.44962E+005    4.96132E+005   -2.54378E+003    9.76133E+004   -6.03042E+002    6.79633E+003    1.43806E+003    2.48031E+005    1.54615E+003    1.12623E+003
            3605    4.34111E+005    2.55761E+005    2.55761E+005   -1.52366E+003   -2.45448E+005    5.01209E+005   -2.92992E+003    1.55714E+005   -1.91590E+003    1.21223E+004   -1.41660E+003    2.50411E+005    2.02983E+003    6.64303E+003
            3606    4.40141E+005    2.63466E+005    2.63466E+005    3.65616E+002   -2.44658E+005    5.08124E+005   -6.39123E+003    1.73800E+005   -2.33771E+003    2.09220E+004    5.89413E+002    2.53568E+005    2.67938E+003    1.04887E+004
            3607    4.45975E+005    2.69123E+005    2.69123E+005   -1.28097E+003   -2.45625E+005    5.14748E+005   -7.40586E+003    1.98031E+005   -3.80240E+003    2.71252E+004   -1.10519E+003    2.56720E+005    2.30926E+003    9.70880E+003
            3608    4.50884E+005    2.74714E+005    2.74714E+005   -5.39321E+002   -2.45630E+005    5.20344E+005   -9.51513E+003    2.09420E+005   -4.27411E+003    3.32511E+004   -4.31556E+002    2.59384E+005    1.85712E+003    7.44597E+003
            3609    4.53518E+005    2.77337E+005    2.77337E+005   -1.07413E+003   -2.45983E+005    5.23320E+005   -1.00935E+004    2.17699E+005   -4.89316E+003    3.62393E+004   -1.06564E+003    2.60840E+005    4.63506E+002    2.34099E+003
            3610    4.28893E+005    2.77312E+005    2.77312E+005    3.47088E+003   -2.16971E+005    4.94283E+005   -2.12707E+004    2.44733E+005    1.31293E+004    4.79606E+004    2.72205E+003    2.46130E+005    1.11631E+004   -7.09937E+003
            3611    4.31144E+005    2.79095E+005    2.79095E+005   -7.54584E+002   -2.17408E+005    4.96503E+005   -2.03108E+004    2.59598E+005    6.52626E+003    5.51217E+004   -7.15558E+002    2.46851E+005    1.00908E+004    1.62005E+003
            3612    4.36546E+005    2.86564E+005    2.86564E+005    1.83168E+003   -2.16036E+005    5.02600E+005   -2.41201E+004    2.66674E+005    3.15659E+003    6.68206E+004    2.38311E+003    2.48983E+005    9.73466E+003    8.33163E+003
            3613    4.43457E+005    2.93446E+005    2.93446E+005   -4.18975E+002   -2.16649E+005    5.10095E+005   -2.54594E+004    2.83008E+005   -9.43401E+002    7.70842E+004    2.37535E+002    2.51713E+005    8.86073E+003    1.06817E+004
            3614    4.51097E+005    3.02525E+005    3.02525E+005    6.00838E+002   -2.16024E+005    5.18548E+005   -2.90339E+004    2.95204E+005   -2.81872E+003    8.87239E+004    1.19639E+003    2.54891E+005    7.61642E+003    1.12174E+004
            3615    4.57210E+005    3.08570E+005    3.08570E+005   -5.47537E+002   -2.16631E+005    5.25201E+005   -3.04640E+004    3.06415E+005   -4.71828E+003    9.64078E+004   -2.97595E+002    2.57554E+005    4.83029E+003    7.51858E+003
            3616    4.60757E+005    3.12688E+005    3.12688E+005   -1.46386E+002   -2.16419E+005    5.29107E+005   -3.20410E+004    3.11754E+005   -5.33691E+003    1.01568E+005   -1.08183E+002    2.59077E+005    1.86047E+003    2.99769E+003
            3617    4.47410E+005    3.13881E+005    3.13881E+005   -1.01585E+003   -1.98259E+005    5.12140E+005   -3.82020E+004    3.25582E+005    2.43335E+004    9.23549E+004   -2.08233E+003    2.52815E+005    2.07367E+004   -2.41693E+003
            3618    4.52806E+005    3.18845E+005    3.18845E+005    2.00893E+003   -1.99774E+005    5.18618E+005   -4.03599E+004    3.25928E+005    1.43653E+004    1.04525E+005    2.18918E+003    2.54671E+005    1.83758E+004    4.95565E+003
            3619    4.61078E+005    3.25467E+005    3.25467E+005    2.96362E+001   -2.02163E+005    5.27630E+005   -4.11113E+004    3.37272E+005    5.36507E+003    1.17152E+005    8.17151E+002    2.57215E+005    1.62518E+004    9.93620E+003
            3620    4.71903E+005    3.37018E+005    3.37018E+005    2.02986E+003   -2.02672E+005    5.39690E+005   -4.54586E+004    3.48744E+005   -4.91566E+002    1.33747E+005    3.12072E+003    2.60737E+005    1.48404E+004    1.33204E+004
            3621    4.83420E+005    3.47884E+005    3.47884E+005    1.33162E+002   -2.04140E+005    5.52025E+005   -4.79590E+004    3.65478E+005   -5.33469E+003    1.48285E+005    9.26787E+002    2.64671E+005    1.18921E+004    1.21341E+004
            3622    4.92418E+005    3.57162E+005    3.57162E+005    1.23788E+003   -2.04810E+005    5.61973E+005   -5.11966E+004    3.75223E+005   -8.10194E+003    1.60075E+005    1.61638E+003    2.67905E+005    7.74922E+003    8.80091E+003
            3623    4.97824E+005    3.62388E+005    3.62388E+005    7.30610E+002   -2.05393E+005    5.67781E+005   -5.25750E+004    3.82443E+005   -9.72751E+003    1.66681E+005    7.71510E+002    2.69818E+005    2.60155E+003    2.90857E+003
            3624    4.70484E+005    3.56586E+005    3.56586E+005    1.11291E+003   -1.76938E+005    5.33524E+005   -6.02534E+004    3.82853E+005    3.99763E+004    1.40896E+005   -1.12209E+002    2.60262E+005    2.76592E+004    2.13835E+003
            3625    4.72839E+005    3.55325E+005    3.55325E+005    8.09696E+001   -1.81362E+005    5.36687E+005   -5.80147E+004    3.81814E+005    2.30601E+004    1.50812E+005    1.72163E+002    2.59361E+005    2.46613E+004    7.72825E+003
            3626    4.83967E+005    3.67594E+005    3.67594E+005    4.17243E+003   -1.81769E+005    5.49363E+005   -6.33324E+004    3.90527E+005    1.46922E+004    1.69948E+005    5.35667E+003    2.62362E+005    2.23083E+004    1.40116E+004
            3627    4.99211E+005    3.81551E+005    3.81551E+005    3.37125E+003   -1.84297E+005    5.65848E+005   -6.68750E+004    4.07683E+005    5.63594E+003    1.90390E+005    4.59892E+003    2.66470E+005    1.97654E+004    1.52120E+004
            3628    5.14136E+005    3.97553E+005    3.97553E+005    5.84884E+003   -1.84643E+005    5.82196E+005   -7.29193E+004    4.23039E+005    1.83110E+003    2.10064E+005    6.86340E+003    2.71151E+005    1.62258E+004    1.45848E+004
            3629    5.26993E+005    4.09960E+005    4.09960E+005    5.64994E+003   -1.86050E+005    5.96010E+005   -7.65202E+004    4.37542E+005   -1.65248E+003    2.25126E+005    6.08725E+003    2.75305E+005    1.02070E+004    9.96195E+003
            3630    5.33967E+005    4.17381E+005    4.17381E+005    6.71364E+003   -1.86242E+005    6.03623E+005   -7.92844E+004    4.44715E+005   -2.68017E+003    2.33765E+005    6.76778E+003    2.77657E+005    3.70924E+003    3.54180E+003
            3631    4.97605E+005    3.99647E+005    3.99647E+005   -4.08311E+002   -1.57560E+005    5.57207E+005   -8.05597E+004    4.36299E+005    6.22960E+004    1.81354E+005   -1.97072E+003    2.69962E+005    3.13145E+004    4.95120E+003
            3632    5.04505E+005    4.05009E+005    4.05009E+005    5.88401E+003   -1.62044E+005    5.67053E+005   -8.29496E+004    4.34606E+005    4.58702E+004    1.96600E+005    6.37910E+003    2.71456E+005    3.01191E+004    1.29933E+004
            3633    5.21332E+005    4.19792E+005    4.19792E+005    5.72752E+003   -1.65658E+005    5.85450E+005   -8.66204E+004    4.51091E+005    3.22863E+004    2.20622E+005    6.95250E+003    2.75598E+005    2.70344E+004    1.68188E+004
            3634    5.40849E+005    4.39893E+005    4.39893E+005    1.22731E+004   -1.68092E+005    6.07985E+005   -9.46913E+004    4.65596E+005    2.28099E+004    2.47571E+005    1.36934E+004    2.81146E+005    2.39965E+004    1.83645E+004
            3635    5.62001E+005    4.59997E+005    4.59997E+005    1.27792E+004   -1.70849E+005    6.30846E+005   -1.00642E+005    4.87311E+005    1.48327E+004    2.73310E+005    1.37839E+004    2.86834E+005    1.95650E+004    1.62507E+004
            3636    5.77738E+005    4.76339E+005    4.76339E+005    1.67788E+004   -1.72230E+005    6.48569E+005   -1.06962E+005    5.00739E+005    1.05669E+004    2.93104E+005    1.72170E+004    2.91523E+005    1.24749E+004    1.10318E+004
            3637    5.88437E+005    4.87108E+005    4.87108E+005    1.74100E+004   -1.72943E+005    6.60050E+005   -1.10525E+005    5.11964E+005    8.44384E+003    3.05662E+005    1.74686E+004    2.94623E+005    4.48981E+003    4.12143E+003
            3638    5.18443E+005    4.32961E+005    4.32961E+005    2.67198E+003   -1.42630E+005    5.75590E+005   -9.76678E+004    4.69250E+005    7.84539E+004    2.13437E+005    1.11273E+003    2.77190E+005    3.38691E+004    8.08608E+003
            3639    5.27703E+005    4.41218E+005    4.41218E+005    4.30582E+003   -1.45070E+005    5.86289E+005   -1.00151E+005    4.76542E+005    6.13921E+004    2.34820E+005    4.24174E+003    2.77471E+005    3.45768E+004    1.48013E+004
            3640    5.51655E+005    4.68212E+005    4.68212E+005    1.44949E+004   -1.45854E+005    6.14066E+005   -1.12284E+005    4.95009E+005    5.61021E+004    2.65084E+005    1.56672E+004    2.86617E+005    3.16139E+004    1.93164E+004
            3641    5.81940E+005    4.98768E+005    4.98768E+005    2.03898E+004   -1.49102E+005    6.47870E+005   -1.23352E+005    5.21922E+005    4.74183E+004    3.00850E+005    2.17881E+004    2.96474E+005    2.77221E+004    2.06455E+004
            3642    6.11905E+005    5.31308E+005    5.31308E+005    3.03043E+004   -1.50674E+005    6.81982E+005   -1.36980E+005    5.46649E+005    4.46511E+004    3.34931E+005    3.13562E+004    3.07500E+005    2.20562E+004    1.82714E+004
            3643    6.37820E+005    5.57612E+005    5.57612E+005    3.46490E+004   -1.52977E+005    7.10589E+005   -1.46428E+005    5.70597E+005    4.11398E+004    3.62944E+005    3.51996E+004    3.16312E+005    1.41868E+004    1.35015E+004
            3644    6.53504E+005    5.74927E+005    5.74927E+005    3.92965E+004   -1.53207E+005    7.28133E+005   -1.53672E+005    5.84422E+005    4.15050E+004    3.80166E+005    3.93460E+004    3.22238E+005    4.97598E+003    4.23398E+003
            3645    5.51659E+005    4.88472E+005    4.88472E+005    5.09680E+002   -1.10118E+005    5.98590E+005   -1.26288E+005    5.25826E+005    1.33519E+005    2.46478E+005   -1.13321E+003    2.91207E+005    3.40070E+004    1.08292E+004
            3646    5.56036E+005    4.89334E+005    4.89334E+005    1.39781E+004   -1.22114E+005    6.11448E+005   -1.27066E+005    5.16532E+005    1.03686E+005    2.64123E+005    1.33891E+004    2.91824E+005    3.88948E+004    1.60621E+004
            3647    5.85146E+005    5.26851E+005    5.26851E+005    2.31425E+004   -1.15010E+005    6.41860E+005   -1.44994E+005    5.46616E+005    1.09035E+005    3.02373E+005    2.35751E+004    3.03504E+005    3.53678E+004    1.91025E+004
            3648    6.14313E+005    5.60867E+005    5.60867E+005    4.18396E+004   -1.17381E+005    6.78248E+005   -1.61775E+005    5.65024E+005    1.02478E+005    3.39816E+005    4.30322E+004    3.15585E+005    3.28286E+004    2.15497E+004
            3649    6.50978E+005    6.04914E+005    6.04914E+005    5.45044E+004   -1.13641E+005    7.18555E+005   -1.81926E+005    5.99128E+005    1.07326E+005    3.82540E+005    5.59114E+004    3.30545E+005    2.59413E+004    2.18901E+004
            3650    6.81354E+005    6.39641E+005    6.39641E+005    6.73623E+004   -1.14062E+005    7.53703E+005   -1.97647E+005    6.23444E+005    1.07656E+005    4.17226E+005    6.80590E+004    3.42977E+005    1.76617E+004    1.57917E+004
            3651    7.00277E+005    6.61922E+005    6.61922E+005    7.30311E+004   -1.12413E+005    7.74335E+005   -2.07513E+005    6.41454E+005    1.10961E+005    4.38429E+005    7.31506E+004    3.50764E+005    5.88643E+003    6.63026E+003
            3652    7.34751E+005    7.69574E+005    7.69574E+005    1.40567E+005   -3.80033E+004    8.07577E+005   -2.90713E+005    6.83322E+005    2.32327E+005    4.99185E+005    1.40626E+005    3.81010E+005    7.70652E+003    5.16877E+003
            3653    7.11212E+005    7.34621E+005    7.34621E+005    1.22513E+005   -4.55790E+004    7.80200E+005   -2.70519E+005    6.64276E+005    2.19838E+005    4.68589E+005    1.23129E+005    3.69033E+005    2.06267E+004    1.53166E+004
            3654    6.73056E+005    6.79113E+005    6.79113E+005    9.65677E+004   -5.76763E+004    7.36789E+005   -2.39335E+005    6.31426E+005    2.00425E+005    4.20468E+005    9.71111E+004    3.49994E+005    3.02099E+004    1.78220E+004
            3655    6.33841E+005    6.19430E+005    6.19430E+005    6.48892E+004   -7.15040E+004    6.90934E+005   -2.04272E+005    5.99474E+005    1.78719E+005    3.69130E+005    6.49659E+004    3.29601E+005    3.62703E+004    1.86292E+004
            3656    5.92955E+005    5.60748E+005    5.60748E+005    4.24916E+004   -8.58758E+004    6.46624E+005   -1.72455E+005    5.60398E+005    1.58335E+005    3.18936E+005    4.00929E+004    3.09422E+005    4.11717E+004    1.31835E+004
            3657    5.64329E+005    5.13455E+005    5.13455E+005    1.29814E+004   -9.81849E+004    6.11640E+005   -1.42751E+005    5.38862E+005    1.40662E+005    2.79575E+005    8.01495E+003    2.92738E+005    4.37261E+004    1.04318E+004
            3658    5.22610E+005    4.59784E+005    4.59784E+005    2.45638E+003   -1.09850E+005    5.69634E+005   -1.17463E+005    4.94354E+005    1.21115E+005    2.35785E+005   -4.50986E+003    2.72577E+005    4.72688E+004    7.91930E+003
            3659    5.69347E+005    1.10879E+005   -5.02911E+005    7.95273E+003   -5.02911E+005    6.13789E+005    1.28026E+005   -5.47826E+005   -1.31618E+005   -2.61167E+005    8.70553E+003    2.98467E+005    2.55796E+004   -9.88535E+003
            3660    5.50629E+005    1.28820E+005   -4.74761E+005    1.18941E+002   -4.74761E+005    6.03581E+005    1.15274E+005   -5.15131E+005   -1.10185E+005   -2.38149E+005    2.51248E+003    2.91044E+005    4.14601E+004   -1.18144E+004
            3661    5.01169E+005    1.52781E+005   -4.03871E+005    1.14731E+004   -4.03871E+005    5.56652E+005    7.98726E+004   -4.52993E+005   -8.09058E+004   -1.72251E+005    1.35387E+004    2.70767E+005    4.11808E+004   -9.09504E+003
            3662    4.73073E+005    1.72031E+005   -3.62867E+005    5.58639E+002   -3.62867E+005    5.34898E+005    6.34259E+004   -3.93438E+005   -6.17117E+004   -1.32942E+005    4.37652E+003    2.61883E+005    3.59346E+004    3.03583E+003
            3663    4.63433E+005    1.81865E+005   -3.44186E+005    3.82514E+003   -3.44186E+005    5.26052E+005    5.28319E+004   -3.73972E+005   -2.93204E+004   -1.33560E+005    4.38433E+003    2.56305E+005    2.65381E+004   -4.65207E+003
            3664    4.63112E+005    1.86127E+005   -3.41326E+005   -1.32084E+003   -3.41326E+005    5.27453E+005    5.21731E+004   -3.61658E+005   -1.33272E+004   -1.41710E+005   -1.48265E+003    2.54663E+005    2.31628E+004   -7.30518E+003
            3665    4.66995E+005    1.92198E+005   -3.40208E+005    1.01040E+002   -3.40208E+005    5.32406E+005    4.93032E+004   -3.60514E+005   -2.55895E+003   -1.44427E+005   -9.23198E+002    2.55757E+005    1.85615E+004   -1.23019E+004
            3666    4.73103E+005    1.95497E+005   -3.44275E+005   -1.50710E+003   -3.44275E+005    5.39772E+005    5.00950E+004   -3.61879E+005    4.77345E+003   -1.52432E+005   -2.62621E+003    2.57469E+005    1.62753E+004   -1.36099E+004
            3667    4.80896E+005    1.99113E+005   -3.49222E+005    8.19008E+002   -3.49222E+005    5.48336E+005    4.97633E+004   -3.70582E+005    8.73364E+003   -1.57976E+005   -4.74663E+001    2.60707E+005    1.22566E+004   -1.29119E+004
            3668    4.86873E+005    2.00969E+005   -3.54190E+005    1.61901E+002   -3.54190E+005    5.55159E+005    5.10198E+004   -3.75122E+005    1.09715E+004   -1.63828E+005   -2.02617E+002    2.63261E+005    7.72813E+003   -8.57898E+003
            3669    4.90097E+005    2.02517E+005   -3.56244E+005    8.22675E+002   -3.56244E+005    5.58761E+005    5.09682E+004   -3.78219E+005    1.19066E+004   -1.65584E+005    7.72751E+002    2.64884E+005    2.63239E+003   -3.31727E+003
            3670    5.08174E+005    1.57864E+005   -4.11929E+005   -5.61314E+003   -4.11929E+005    5.69793E+005    8.65595E+004   -4.42945E+005   -6.29618E+004   -1.92322E+005   -4.39500E+003    2.75343E+005    3.13364E+004   -6.15455E+003
            3671    5.07707E+005    1.69324E+005   -4.02633E+005   -5.22976E+003   -4.02633E+005    5.71957E+005    7.95128E+004   -4.32017E+005   -3.96690E+004   -1.93221E+005   -5.64835E+003    2.74089E+005    2.61481E+004   -1.12775E+004
            3672    5.15001E+005    1.72853E+005   -4.08540E+005   -9.61558E+003   -4.08540E+005    5.81392E+005    8.17675E+004   -4.32753E+005   -2.59375E+004   -2.08438E+005   -1.09269E+004    2.74755E+005    2.37971E+004   -1.61816E+004
            3673    5.26550E+005    1.78493E+005   -4.15874E+005   -7.78195E+003   -4.15874E+005    5.94367E+005    8.17211E+004   -4.42753E+005   -1.39135E+004   -2.22043E+005   -9.20708E+003    2.77357E+005    2.02273E+004   -1.75858E+004
            3674    5.36328E+005    1.80345E+005   -4.24864E+005   -8.50653E+003   -4.24864E+005    6.05209E+005    8.43417E+004   -4.51884E+005   -7.30475E+003   -2.36198E+005   -9.52266E+003    2.79423E+005    1.65685E+004   -1.53184E+004
            3675    5.44926E+005    1.82878E+005   -4.31683E+005   -7.43643E+003   -4.31683E+005    6.14561E+005    8.54136E+004   -4.60724E+005   -2.35699E+003   -2.45992E+005   -7.89218E+003    2.81810E+005    1.02836E+004   -1.05941E+004
            3676    5.48492E+005    1.83706E+005   -4.34858E+005   -7.77241E+003   -4.34858E+005    6.18564E+005    8.63080E+004   -4.63821E+005   -2.28196E+002   -2.50876E+005   -7.82006E+003    2.82717E+005    3.81584E+003   -3.40558E+003
            3677    5.12297E+005    1.45822E+005   -4.23362E+005    7.63201E+002   -4.23362E+005    5.69184E+005    9.22591E+004   -4.62597E+005   -6.29286E+004   -2.16696E+005    2.84747E+003    2.71760E+005    3.02243E+004   -4.56025E+003
            3678    5.12649E+005    1.48656E+005   -4.24629E+005   -1.02460E+004   -4.24629E+005    5.73285E+005    9.54064E+004   -4.52051E+005   -4.77104E+004   -2.27876E+005   -1.06324E+004    2.69657E+005    3.38032E+004   -1.55027E+004
            3679    5.36124E+005    1.53694E+005   -4.44723E+005   -8.21230E+003   -4.44723E+005    5.98417E+005    9.97470E+004   -4.76279E+005   -3.67102E+004   -2.52543E+005   -9.98763E+003    2.77139E+005    2.93083E+004   -2.13520E+004
            3680    5.59251E+005    1.57195E+005   -4.67893E+005   -1.49569E+004   -4.67893E+005    6.25088E+005    1.08551E+005   -4.94144E+005   -2.71056E+004   -2.81934E+005   -1.66150E+004    2.83776E+005    2.63810E+004   -2.13379E+004
            3681    5.85042E+005    1.62290E+005   -4.91365E+005   -1.68020E+004   -4.91365E+005    6.53654E+005    1.15292E+005   -5.17762E+005   -1.98518E+004   -3.08069E+005   -1.79557E+004    2.92296E+005    2.09584E+004   -1.84887E+004
            3682    6.03364E+005    1.65188E+005   -5.09457E+005   -2.15084E+004   -5.09457E+005    6.74645E+005    1.21926E+005   -5.32314E+005   -1.50355E+004   -3.28784E+005   -2.19575E+004    2.98208E+005    1.32518E+004   -1.18774E+004
            3683    6.13648E+005    1.67473E+005   -5.18753E+005   -2.27218E+004   -5.18753E+005    6.86226E+005    1.24667E+005   -5.41121E+005   -1.22726E+004   -3.38949E+005   -2.27795E+004    3.01688E+005    4.65000E+003   -4.30806E+003
            3684    5.75259E+005    1.25912E+005   -5.09356E+005   -2.36469E+004   -5.09356E+005    6.35267E+005    1.35697E+005   -5.28800E+005   -1.21881E+005   -2.62131E+005   -2.30784E+004    3.08272E+005    2.77263E+004   -8.78751E+003
            3685    5.77374E+005    1.28026E+005   -5.05965E+005   -1.03570E+004   -5.05965E+005    6.33991E+005    1.29432E+005   -5.38131E+005   -9.68003E+004   -2.80425E+005   -1.10697E+004    3.01758E+005    2.88447E+004   -1.71385E+004
            3686    5.93957E+005    1.24232E+005   -5.29682E+005   -2.36087E+004   -5.29682E+005    6.53914E+005    1.43020E+005   -5.50229E+005   -9.51809E+004   -3.09458E+005   -2.44197E+004    3.06741E+005    3.29949E+004   -1.96953E+004
            3687    6.26463E+005    1.26569E+005   -5.64988E+005   -3.54514E+004   -5.64988E+005    6.91557E+005    1.57957E+005   -5.76429E+005   -9.09575E+004   -3.46142E+005   -3.67711E+004    3.19664E+005    2.94936E+004   -2.16585E+004
            3688    6.56519E+005    1.26355E+005   -6.00328E+005   -4.99946E+004   -6.00328E+005    7.26683E+005    1.74656E+005   -5.99663E+005   -9.09700E+004   -3.81880E+005   -5.11179E+004    3.31788E+005    2.42961E+004   -1.98783E+004
            3689    6.82366E+005    1.28606E+005   -6.27413E+005   -5.71774E+004   -6.27413E+005    7.56019E+005    1.85328E+005   -6.21536E+005   -8.88546E+004   -4.09286E+005   -5.78438E+004    3.41862E+005    1.56448E+004   -1.53405E+004
            3690    6.96885E+005    1.29156E+005   -6.43124E+005   -6.11872E+004   -6.43124E+005    7.72280E+005    1.91718E+005   -6.34332E+005   -8.84539E+004   -4.25432E+005   -6.12692E+004    3.47374E+005    5.69283E+003   -5.48861E+003
            3691    7.20609E+005    4.28683E+004   -7.49936E+005   -1.34735E+005   -7.49936E+005    7.92805E+005    2.80601E+005   -6.68653E+005   -2.17568E+005   -4.89421E+005   -1.34814E+005    3.72277E+005    7.44090E+003   -5.55703E+003
            3692    6.97809E+005    4.84811E+004   -7.17944E+005   -1.19369E+005   -7.17944E+005    7.66426E+005    2.62944E+005   -6.50019E+005   -2.08414E+005   -4.60619E+005   -1.19799E+005    3.61154E+005    2.05363E+004   -1.37339E+004
            3693    6.62773E+005    5.91430E+004   -6.66650E+005   -9.35496E+004   -6.66650E+005    7.25793E+005    2.33686E+005   -6.21322E+005   -1.92859E+005   -4.14077E+005   -9.41212E+004    3.44017E+005    3.01407E+004   -1.79727E+004
            3694    6.22244E+005    7.13249E+004   -6.08096E+005   -6.59582E+004   -6.08096E+005    6.79421E+005    2.00910E+005   -5.86701E+005   -1.74964E+005   -3.62443E+005   -6.53225E+004    3.23767E+005    3.73268E+004   -1.63964E+004
            3695    5.87631E+005    8.63347E+004   -5.51724E+005   -3.27673E+004   -5.51724E+005    6.38059E+005    1.66052E+005   -5.59500E+005   -1.56302E+005   -3.11941E+005   -2.99140E+004    3.05316E+005    4.18195E+004   -1.34296E+004
            3696    5.44860E+005    9.58822E+004   -4.93790E+005   -8.98712E+003   -4.93790E+005    5.89672E+005    1.35632E+005   -5.21424E+005   -1.40072E+005   -2.64063E+005   -2.76010E+003    2.82784E+005    4.29624E+004   -7.77832E+003
            3697    5.28576E+005    9.64315E+004   -4.60611E+005    3.39423E+004   -4.60611E+005    5.57043E+005    1.10079E+005   -5.20168E+005   -1.27607E+005   -2.39871E+005    3.72406E+004    2.69960E+005    2.74783E+004   -8.32122E+003
            3698    7.00464E+005    6.62371E+005    6.62371E+005    7.32170E+004   -1.12126E+005    7.74497E+005   -2.07821E+005    6.41727E+005    1.11446E+005    4.38677E+005    7.33395E+004    3.50905E+005   -6.07958E+003   -6.70361E+003
            3699    6.53763E+005    5.75510E+005    5.75510E+005    3.95614E+004   -1.52872E+005    7.28382E+005   -1.54067E+005    5.84768E+005    4.20410E+004    3.80539E+005    3.96197E+004    3.22415E+005   -5.24937E+003   -4.56779E+003
            3700    5.88737E+005    4.87544E+005    4.87544E+005    1.74707E+004   -1.72798E+005    6.60342E+005   -1.10739E+005    5.12387E+005    8.65880E+003    3.06022E+005    1.75366E+004    2.94743E+005   -4.81281E+003   -4.37369E+003
            3701    5.33888E+005    4.17334E+005    4.17334E+005    6.66551E+003   -1.86183E+005    6.03517E+005   -7.92721E+004    4.44733E+005   -2.61962E+003    2.33708E+005    6.72809E+003    2.77618E+005   -4.04193E+003   -3.80081E+003
            3702    4.97714E+005    3.62271E+005    3.62271E+005    7.26898E+002   -2.05391E+005    5.67662E+005   -5.25355E+004    3.82303E+005   -9.70812E+003    1.66539E+005    7.75592E+002    2.69777E+005   -2.84561E+003   -3.16932E+003
            3703    4.60643E+005    3.12551E+005    3.12551E+005   -1.73873E+002   -2.16430E+005    5.28981E+005   -3.19826E+004    3.11605E+005   -5.34193E+003    1.01420E+005   -1.30679E+002    2.59024E+005   -1.97835E+003   -3.18657E+003
            3704    4.53541E+005    2.77412E+005    2.77412E+005   -1.02712E+003   -2.45933E+005    5.23346E+005   -1.01506E+004    2.17772E+005   -4.87525E+003    3.63444E+004   -1.01731E+003    2.60848E+005   -5.13756E+002   -2.44778E+003
            3705    4.42377E+005    2.44955E+005   -2.65675E+005    1.49672E+003   -2.65675E+005    5.10629E+005    6.40783E+003   -1.90877E+005    4.70929E+003   -2.54224E+004    1.48967E+003    2.54854E+005    2.98802E+002   -2.85461E+003
            3706    4.66800E+005    2.22503E+005   -3.13888E+005    3.06109E+002   -3.13888E+005    5.36391E+005    3.03597E+004   -3.09616E+005    4.44217E+003   -9.57964E+004    2.75105E+002    2.63455E+005    1.77886E+003   -2.60359E+003
            3707    6.81168E+005    6.39854E+005    6.39854E+005    6.75616E+004   -1.13574E+005    7.53427E+005   -1.97947E+005    6.23439E+005    1.08475E+005    4.17081E+005    6.82851E+004    3.43023E+005   -1.79445E+004   -1.60761E+004
            3708    6.37722E+005    5.57943E+005    5.57943E+005    3.49578E+004   -1.52498E+005    7.10441E+005   -1.46801E+005    5.70620E+005    4.19665E+004    3.62905E+005    3.55313E+004    3.16425E+005   -1.45808E+004   -1.37804E+004
            3709    5.77218E+005    4.75875E+005    4.75875E+005    1.66429E+004   -1.72083E+005    6.47957E+005   -1.06812E+005    5.00392E+005    1.08372E+004    2.92485E+005    1.71122E+004    2.91372E+005   -1.28977E+004   -1.14061E+004
            3710    5.26103E+005    4.08931E+005    4.08931E+005    5.48413E+003   -1.86121E+005    5.95052E+005   -7.60982E+004    4.36555E+005   -1.59146E+003    2.23937E+005    5.94934E+003    2.75025E+005   -1.05672E+004   -1.02465E+004
            3711    4.91503E+005    3.55985E+005    3.55985E+005    1.13012E+003   -2.05022E+005    5.61007E+005   -5.06977E+004    3.73825E+005   -8.08825E+003    1.58654E+005    1.52770E+003    2.67614E+005   -7.89728E+003   -9.01979E+003
            3712    4.56717E+005    3.07835E+005    3.07835E+005   -5.18022E+002   -2.16855E+005    5.24689E+005   -3.01540E+004    3.05102E+005   -4.62774E+003    9.53485E+004   -2.58603E+002    2.57401E+005   -4.92758E+003   -7.63897E+003
            3713    4.50733E+005    2.74254E+005    2.74254E+005   -5.29104E+002   -2.45931E+005    5.20185E+005   -9.26488E+003    2.07554E+005   -4.28173E+003    3.24997E+004   -4.23298E+002    2.59329E+005   -1.80233E+003   -7.51408E+003
            3714    4.40526E+005    2.42387E+005   -2.66070E+005    1.10650E+003   -2.66070E+005    5.08456E+005    7.52558E+003   -1.96001E+005    4.80354E+003   -2.84028E+004    1.02247E+003    2.53591E+005    1.53311E+003   -6.82886E+003
            3715    4.65492E+005    2.21006E+005   -3.13774E+005    4.19180E+002   -3.13774E+005    5.34780E+005    3.07827E+004   -3.10771E+005    3.82431E+003   -9.63552E+004    1.82898E+002    2.62525E+005    4.40879E+003   -7.79172E+003
            3716    6.50085E+005    6.04059E+005    6.04059E+005    5.43054E+004   -1.13468E+005    7.17527E+005   -1.81632E+005    5.98400E+005    1.07694E+005    3.81485E+005    5.57169E+004    3.30255E+005   -2.62544E+004   -2.19430E+004
            3717    6.10245E+005    5.29604E+005    5.29604E+005    2.98801E+004   -1.50498E+005    6.80101E+005   -1.36329E+005    5.45251E+005    4.49755E+004    3.33057E+005    3.09536E+004    3.06943E+005   -2.24406E+004   -1.84409E+004
            3718    5.59611E+005    4.57238E+005    4.57238E+005    1.23395E+004   -1.71061E+005    6.28299E+005   -9.95053E+004    4.84734E+005    1.47880E+004    2.70352E+005    1.33757E+004    2.86060E+005   -1.99056E+004   -1.64229E+004
            3719    5.11780E+005    3.94623E+005    3.94623E+005    5.47640E+003   -1.85102E+005    5.79725E+005   -7.16659E+004    4.20020E+005    1.79388E+003    2.06678E+005    6.52575E+003    2.70448E+005   -1.64194E+004   -1.47471E+004
            3720    4.81639E+005    3.45420E+005    3.45420E+005    3.88614E+001   -2.04776E+005    5.50196E+005   -4.68944E+004    3.62217E+005   -5.33317E+003    1.45178E+005    8.38471E+002    2.64165E+005   -1.18637E+004   -1.21347E+004
            3721    4.50066E+005    3.00779E+005    3.00779E+005    5.95708E+002   -2.16704E+005    5.17483E+005   -2.82234E+004    2.92005E+005   -2.68455E+003    8.61665E+004    1.18824E+003    2.54588E+005   -7.52164E+003   -1.12274E+004
            3722    4.45803E+005    2.68158E+005    2.68158E+005   -1.20143E+003   -2.46422E+005    5.14580E+005   -6.84505E+003    1.93001E+005   -3.73607E+003    2.53092E+004   -1.03799E+003    2.56693E+005   -2.15275E+003   -9.65165E+003
            3723    4.37203E+005    2.39116E+005   -2.65424E+005    1.88569E+003   -2.65424E+005    5.04540E+005    8.14100E+003   -2.04967E+005    4.99731E+003   -3.10978E+004    1.67752E+003    2.51407E+005    2.52949E+003   -1.02698E+004
            3724    4.62115E+005    2.17695E+005   -3.13161E+005   -8.84607E+002   -3.13161E+005    5.30856E+005    3.21166E+004   -3.09343E+005    1.69429E+003   -9.66088E+004   -1.43533E+003    2.60554E+005    7.73159E+003   -1.06608E+004
            3725    6.12730E+005    5.58906E+005    5.58906E+005    4.09317E+004   -1.17473E+005    6.76378E+005   -1.60788E+005    5.63836E+005    1.02284E+005    3.37969E+005    4.21118E+004    3.14863E+005   -3.30609E+004   -2.15496E+004
            3726    5.79008E+005    4.95312E+005    4.95312E+005    1.95632E+004   -1.49376E+005    6.44688E+005   -1.21833E+005    5.19059E+005    4.72080E+004    2.97337E+005    2.09543E+004    2.95418E+005   -2.79736E+004   -2.05571E+004
            3727    5.37187E+005    4.35381E+005    4.35381E+005    1.14714E+004   -1.68741E+005    6.04122E+005   -9.27038E+004    4.61434E+005    2.23836E+004    2.42823E+005    1.29052E+004    2.79910E+005   -2.41148E+004   -1.82891E+004
            3728    4.96075E+005    3.77517E+005    3.77517E+005    3.06931E+003   -1.85116E+005    5.62633E+005   -6.51567E+004    4.03152E+005    5.46903E+003    1.85707E+005    4.29427E+003    2.65549E+005   -1.97022E+004   -1.50309E+004
            3729    4.69745E+005    3.33811E+005    3.33811E+005    1.90359E+003   -2.03678E+005    5.37489E+005   -4.40119E+004    3.44273E+005   -6.16714E+002    1.29675E+005    2.97760E+003    2.60117E+005   -1.45879E+004   -1.31463E+004
            3730    4.42406E+005    2.91451E+005    2.91451E+005   -3.67090E+002   -2.17576E+005    5.09027E+005   -2.45024E+004    2.78909E+005   -8.48355E+002    7.40888E+004    2.66927E+002    2.51419E+005   -8.58480E+003   -1.05481E+004
            3731    4.40006E+005    2.62283E+005    2.62283E+005    3.89051E+002   -2.45710E+005    5.07993E+005   -5.65415E+003    1.66131E+005   -2.38022E+003    1.87505E+004    5.92220E+002    2.53551E+005   -2.42000E+003   -1.04910E+004
            3732    4.32954E+005    2.33742E+005   -2.65829E+005    3.98886E+002   -2.65829E+005    4.99571E+005    1.05628E+004   -2.09755E+005    4.19012E+003   -3.59478E+004    6.93862E+001    2.48761E+005    4.27407E+003   -9.75286E+003
            3733    4.58026E+005    2.14972E+005   -3.11036E+005   -3.45738E+002   -3.11036E+005    5.26008E+005    3.21367E+004   -3.09261E+005   -6.02264E+002   -9.47023E+004   -1.10554E+003    2.58375E+005    9.90391E+003   -1.17226E+004
            3734    5.83251E+005    5.24353E+005    5.24353E+005    2.23487E+004   -1.15462E+005    6.39815E+005   -1.43747E+005    5.44783E+005    1.08467E+005    2.99999E+005    2.27744E+004    3.02691E+005   -3.55103E+004   -1.90865E+004
            3735    5.48443E+005    4.64096E+005    4.64096E+005    1.34515E+004   -1.46556E+005    6.10652E+005   -1.10330E+005    4.91669E+005    5.53941E+004    2.61009E+005    1.45877E+004    2.85397E+005   -3.16925E+004   -1.90503E+004
            3736    5.17684E+005    4.15104E+005    4.15104E+005    5.15706E+003   -1.66638E+005    5.81742E+005   -8.45411E+004    4.46445E+005    3.16419E+004    2.15640E+005    6.34147E+003    2.74387E+005   -2.69231E+004   -1.63969E+004
            3737    4.81002E+005    3.63505E+005    3.63505E+005    3.89132E+003   -1.82870E+005    5.46374E+005   -6.15087E+004    3.85760E+005    1.42149E+004    1.65276E+005    5.03556E+003    2.61446E+005   -2.20371E+004   -1.35891E+004
            3738    4.59341E+005    3.22653E+005    3.22653E+005   -1.03007E+001   -2.03248E+005    5.25901E+005   -3.97984E+004    3.33059E+005    5.11145E+003    1.13534E+005    7.49628E+002    2.56718E+005   -1.58656E+004   -9.66117E+003
            3739    4.35696E+005    2.84717E+005    2.84717E+005    1.85362E+003   -2.17023E+005    5.01740E+005   -2.31827E+004    2.62506E+005    2.99356E+003    6.41668E+004    2.38766E+003    2.48718E+005   -9.37024E+003   -8.27009E+003
            3740    4.34162E+005    2.54997E+005    2.54997E+005   -1.48373E+003   -2.46284E+005    5.01281E+005   -2.40968E+003    1.48907E+005   -1.93066E+003    1.05493E+004   -1.38959E+003    2.50468E+005   -1.76547E+003   -6.69785E+003
            3741    4.29459E+005    2.29974E+005   -2.65384E+005    2.29892E+003   -2.65384E+005    4.95358E+005    1.10368E+004   -2.22641E+005    2.85494E+003   -3.79224E+004    1.95705E+003    2.46658E+005    5.49880E+003   -8.10547E+003
            3742    4.53785E+005    2.09170E+005   -3.11795E+005   -2.65461E+003   -3.11795E+005    5.20965E+005    3.50934E+004   -3.09330E+005   -6.26083E+003   -9.57240E+004   -3.29523E+003    2.56210E+005    1.26526E+004   -8.79406E+003
            3743    5.54385E+005    4.87070E+005    4.87070E+005    1.33834E+004   -1.22679E+005    6.09748E+005   -1.25925E+005    5.14768E+005    1.02983E+005    2.62045E+005    1.27461E+004    2.91124E+005   -3.88731E+004   -1.58352E+004
            3744    5.25230E+005    4.37898E+005    4.37898E+005    3.77560E+003   -1.45933E+005    5.83831E+005   -9.85803E+004    4.73541E+005    6.05035E+004    2.31568E+005    3.66984E+003    2.76557E+005   -3.45005E+004   -1.44795E+004
            3745    5.01906E+005    4.01415E+005    4.01415E+005    5.52351E+003   -1.63085E+005    5.64500E+005   -8.12844E+004    4.30908E+005    4.50532E+004    1.92847E+005    5.95269E+003    2.70559E+005   -2.99176E+004   -1.24816E+004
            3746    4.70907E+005    3.52478E+005    3.52478E+005   -9.32579E+000   -1.82329E+005    5.34808E+005   -5.67131E+004    3.78301E+005    2.23645E+004    1.47714E+005    6.05317E+001    2.58719E+005   -2.43396E+004   -7.39893E+003
            3747    4.51716E+005    3.16924E+005    3.16924E+005    2.02421E+003   -2.00631E+005    5.17556E+005   -3.94391E+004    3.22839E+005    1.38880E+004    1.02231E+005    2.19814E+003    2.54317E+005   -1.80187E+004   -4.78440E+003
            3748    4.30820E+005    2.78228E+005    2.78228E+005   -7.24116E+002   -2.17963E+005    4.96191E+005   -1.98471E+004    2.57451E+005    6.25786E+003    5.39571E+004   -6.73652E+002    2.46750E+005   -9.78092E+003   -1.72058E+003
            3749    4.29741E+005    2.50830E+005    2.50830E+005    1.42934E+003   -2.45389E+005    4.96220E+005   -2.29003E+003    8.94313E+004   -7.06894E+002    6.13197E+003    1.44502E+003    2.48078E+005   -1.42758E+003   -1.37018E+003
            3750    4.26774E+005    2.24744E+005   -2.67474E+005   -7.12082E+002   -2.67474E+005    4.92218E+005    1.44809E+004   -2.24069E+005   -1.02342E+003   -4.16644E+004   -7.54801E+002    2.45145E+005    7.74235E+003   -1.32300E+003
            3751    4.49981E+005    2.05558E+005   -3.10442E+005    3.84056E+002   -3.10442E+005    5.16000E+005    3.48331E+004   -3.15815E+005   -1.29937E+004   -9.15652E+004    5.95952E+001    2.54507E+005    1.53035E+004   -5.46246E+003
            3752    5.50684E+005    4.87218E+005    4.87218E+005    7.11021E+002   -1.10629E+005    5.97847E+005   -1.25767E+005    5.24456E+005    1.32967E+005    2.45322E+005   -9.88743E+002    2.90858E+005   -3.41571E+004   -1.06482E+004
            3753    5.16889E+005    4.30788E+005    4.30788E+005    2.26849E+003   -1.43267E+005    5.74055E+005   -9.65964E+004    4.67353E+005    7.77407E+004    2.11414E+005    6.34551E+002    2.76562E+005   -3.37493E+004   -7.68697E+003
            3754    4.96250E+005    3.97675E+005    3.97675E+005   -4.00433E+002   -1.58317E+005    5.55992E+005   -7.96523E+004    4.34073E+005    6.15952E+004    1.79354E+005   -1.99231E+003    2.69500E+005   -3.11428E+004   -4.63433E+003
            3755    4.69356E+005    3.54858E+005    3.54858E+005    1.04281E+003   -1.77586E+005    5.32443E+005   -5.94384E+004    3.80757E+005    3.92807E+004    1.39222E+005   -1.87628E+002    2.59833E+005   -2.74099E+004   -1.92267E+003
            3756    4.47017E+005    3.13168E+005    3.13168E+005   -8.77061E+002   -1.98616E+005    5.11784E+005   -3.78915E+004    3.24197E+005    2.39412E+004    9.16513E+004   -1.91811E+003    2.52683E+005   -2.04632E+004    2.43548E+003
            3757    4.28854E+005    2.77097E+005    2.77097E+005    3.39176E+003   -2.17148E+005    4.94245E+005   -2.11137E+004    2.44364E+005    1.28553E+004    4.78141E+004    2.67174E+003    2.46121E+005   -1.10279E+004    6.90070E+003
            3758    4.26421E+005    2.46084E+005   -2.46298E+005   -2.08228E+003   -2.46298E+005    4.92383E+005    7.65488E+002    1.02517E+005   -1.35564E+003    1.17883E+003   -2.11965E+003    2.46015E+005   -4.85554E+002    9.20635E+003
            3759    4.26456E+005    2.22464E+005   -2.69106E+005    1.85997E+003   -2.69106E+005    4.91570E+005    1.49273E+004   -2.39133E+005   -6.31529E+003   -4.09005E+004    2.43390E+003    2.44870E+005    9.87229E+003    6.15029E+003
            3760    4.47482E+005    1.98489E+005   -3.14453E+005   -4.05729E+003   -3.14453E+005    5.12942E+005    4.00069E+004   -3.16705E+005   -2.57263E+004   -9.12426E+004   -3.05168E+003    2.53494E+005    1.95322E+004    2.95563E+003
            3761    4.44519E+005    1.94341E+005   -3.13972E+005    1.91952E+003   -3.13972E+005    5.08313E+005    3.92373E+004   -3.29135E+005   -3.77222E+004   -8.53904E+004    5.40070E+003    2.50949E+005    2.68252E+004    1.04031E+004
            3762    4.29333E+005    2.16097E+005   -2.78706E+005   -4.75825E+003   -2.78706E+005    4.94803E+005    2.24557E+004   -2.44435E+005   -2.04061E+004   -4.47042E+004   -2.25666E+003    2.45798E+005    1.44870E+004    1.90295E+004
            3763    4.21910E+005    2.44575E+005    2.44575E+005    2.48191E+003   -2.42602E+005    4.87176E+005   -1.48498E+003   -9.27760E+004    1.51149E+003    4.58696E+002    2.48476E+003    2.42694E+005   -2.50585E+001    2.08436E+004
            3764    4.29657E+005    2.77806E+005    2.77806E+005    2.23032E+002   -2.17098E+005    4.94904E+005   -2.03103E+004    2.54980E+005    1.93097E+004    4.38838E+004   -2.26269E+003    2.45861E+005   -1.45358E+004    1.85251E+004
            3765    4.46704E+005    3.18275E+005    3.18275E+005    2.81143E+003   -1.92877E+005    5.11152E+005   -4.27366E+004    3.27080E+005    4.14965E+004    8.77893E+004   -1.07600E+003    2.52329E+005   -2.67239E+004    1.24598E+004
            3766    4.71360E+005    3.58370E+005    3.58370E+005   -6.89605E+003   -1.73715E+005    5.32084E+005   -5.92529E+004    3.96276E+005    6.04850E+004    1.27831E+005   -1.05576E+004    2.60772E+005   -3.55444E+004    2.43493E+003
            3767    5.04314E+005    4.08760E+005    4.08760E+005   -6.59419E+003   -1.52390E+005    5.61150E+005   -8.32589E+004    4.53136E+005    8.46656E+004    1.75562E+005   -1.04512E+004    2.73016E+005   -3.97378E+004   -2.99984E+003
            3768    5.25039E+005    4.43707E+005    4.43707E+005   -1.12782E+004   -1.30784E+005    5.74490E+005   -1.00548E+005    4.93026E+005    1.06821E+005    2.09598E+005   -1.47744E+004    2.79192E+005   -3.59977E+004   -5.38931E+003
            3769    5.08245E+005    4.33845E+005    4.33845E+005   -1.07516E+004   -1.20211E+005    5.54056E+005   -1.00961E+005    4.80639E+005    1.06504E+005    2.14938E+005   -1.85601E+004    2.65875E+005   -4.19025E+004   -2.31371E+003
            3770    7.34948E+005    7.69761E+005    7.69761E+005    1.40554E+005   -3.80191E+004    8.07780E+005   -2.90765E+005    6.83533E+005    2.32258E+005    4.99421E+005    1.40617E+005    3.81066E+005   -7.66901E+003   -5.24620E+003
            3771    7.11232E+005    7.34823E+005    7.34823E+005    1.22690E+005   -4.53973E+004    7.80220E+005   -2.70705E+005    6.64302E+005    2.20234E+005    4.68563E+005    1.23318E+005    3.69109E+005   -2.06971E+004   -1.54320E+004
            3772    6.72686E+005    6.78747E+005    6.78747E+005    9.65649E+004   -5.76587E+004    7.36405E+005   -2.39218E+005    6.31043E+005    2.00622E+005    4.19917E+005    9.71140E+004    3.49897E+005   -3.03349E+004   -1.78804E+004
            3773    6.32933E+005    6.18262E+005    6.18262E+005    6.46429E+004   -7.17472E+004    6.90009E+005   -2.03719E+005    5.98515E+005    1.78609E+005    3.67887E+005    6.46609E+004    3.29236E+005   -3.65524E+004   -1.85109E+004
            3774    5.91530E+005    5.58543E+005    5.58543E+005    4.15502E+004   -8.65377E+004    6.45080E+005   -1.71185E+005    5.59036E+005    1.57475E+005    3.17077E+005    3.90031E+004    3.08653E+005   -4.15628E+004   -1.30316E+004
            3775    5.62658E+005    5.11172E+005    5.11172E+005    1.20557E+004   -9.85888E+004    6.09761E+005   -1.41546E+005    5.37358E+005    1.39865E+005    2.77823E+005    6.95087E+003    2.91832E+005   -4.37394E+004   -1.01996E+004
            3776    5.21733E+005    4.58301E+005    4.58301E+005    2.01214E+003   -1.10512E+005    5.68814E+005   -1.16600E+005    4.93311E+005    1.19874E+005    2.34926E+005   -4.99891E+003    2.72073E+005   -4.74254E+004   -7.93457E+003
            3777    6.44081E+005    8.88379E+004   -6.14704E+005   -5.40986E+004   -6.14704E+005    7.03542E+005    1.93322E+005   -6.06837E+005   -3.91772E+004   -4.86629E+005   -5.41583E+004    2.71398E+005   -4.18186E+003    5.25642E+003
            3778    5.33699E+005    1.03821E+005   -4.79702E+005   -1.63013E+004   -4.79702E+005    5.83523E+005    1.30728E+005   -5.01913E+005   -9.29357E+003   -3.66519E+005   -1.63700E+004    2.30639E+005   -3.85312E+003    4.98100E+003
            3779    4.52546E+005    1.25143E+005   -3.76295E+005    1.77380E+003   -3.76295E+005    5.01438E+005    8.31260E+004   -4.12092E+005    1.24760E+004   -2.63561E+005    1.70685E+003    2.09263E+005   -3.28372E+003    4.21501E+003
            3780    4.01959E+005    1.39765E+005   -3.12446E+005    4.21231E+003   -3.12446E+005    4.52211E+005    5.61565E+004   -3.44603E+005    6.96313E+003   -1.79575E+005    4.14286E+003    2.05933E+005   -2.27574E+003    4.14447E+003
            3781    6.23534E+005    8.73685E+004   -5.93306E+005   -4.97298E+004   -5.93306E+005    6.80675E+005    1.85223E+005   -5.88171E+005   -4.05452E+004   -4.64902E+005   -5.02203E+004    2.65580E+005   -1.24076E+004    1.49220E+004
            3782    5.26415E+005    1.02770E+005   -4.72830E+005   -1.58380E+004   -4.72830E+005    5.75600E+005    1.28633E+005   -4.94994E+005   -1.23882E+004   -3.57197E+005   -1.63139E+004    2.29930E+005   -1.17973E+004    1.33836E+004
            3783    4.47368E+005    1.24617E+005   -3.71041E+005    2.80829E+003   -3.71041E+005    4.95658E+005    8.12054E+004   -4.07483E+005    1.19641E+004   -2.57735E+005    2.15524E+003    2.07477E+005   -9.96978E+003    1.30545E+004
            3784    3.99061E+005    1.38350E+005   -3.10671E+005    3.47569E+003   -3.10671E+005    4.49022E+005    5.62818E+004   -3.41833E+005    5.36531E+003   -1.77111E+005    2.90049E+003    2.04821E+005   -7.42935E+003    1.11907E+004
            3785    5.87082E+005    8.40744E+004   -5.55945E+005   -4.24233E+004   -5.55945E+005    6.40019E+005    1.71431E+005   -5.55163E+005   -4.36414E+004   -4.27423E+005   -4.32293E+004    2.54986E+005   -1.84615E+004    1.95122E+004
            3786    5.12687E+005    1.01486E+005   -4.58602E+005   -1.25034E+004   -4.58602E+005    5.60088E+005    1.23206E+005   -4.82925E+005   -1.78109E+004   -3.38017E+005   -1.37918E+004    2.28652E+005   -1.70508E+004    2.07843E+004
            3787    4.36118E+005    1.22698E+005   -3.61220E+005    1.43192E+003   -3.61220E+005    4.83918E+005    7.90299E+004   -3.95437E+005    9.58332E+003   -2.46711E+005    3.84218E+001    2.04241E+005   -1.51262E+004    1.85966E+004
            3788    3.93864E+005    1.37256E+005   -3.06032E+005    3.65190E+003   -3.06032E+005    4.43288E+005    5.50415E+004   -3.36913E+005    3.31085E+003   -1.70815E+005    2.37927E+003    2.03137E+005   -1.09108E+004    1.65363E+004
            3789    5.46433E+005    8.13122E+004   -5.10644E+005   -2.55094E+004   -5.10644E+005    5.91956E+005    1.51614E+005   -5.22161E+005   -4.78983E+004   -3.80593E+005   -2.63497E+004    2.43081E+005   -2.30993E+004    2.16306E+004
            3790    4.91185E+005    9.88414E+004   -4.38258E+005   -1.18917E+004   -4.38258E+005    5.37099E+005    1.17103E+005   -4.61831E+005   -2.63174E+004   -3.11236E+005   -1.37543E+004    2.26043E+005   -2.11066E+004    2.39754E+004
            3791    4.22200E+005    1.21815E+005   -3.47077E+005    2.94664E+003   -3.47077E+005    4.68892E+005    7.41054E+004   -3.81743E+005    6.39627E+003   -2.29681E+005    9.68396E+002    2.01106E+005   -1.88023E+004    2.14541E+004
            3792    3.87275E+005    1.33350E+005   -3.02808E+005    7.47944E+002   -3.02808E+005    4.36158E+005    5.62368E+004   -3.30076E+005   -2.23391E+003   -1.65503E+005   -9.73363E+002    2.01257E+005   -1.46618E+004    1.78867E+004
            3793    4.98133E+005    7.83089E+004   -4.58876E+005   -1.22064E+004   -4.58876E+005    5.37185E+005    1.30924E+005   -4.79104E+005   -5.06343E+004   -3.29422E+005   -1.27173E+004    2.27402E+005   -2.54934E+004    2.09816E+004
            3794    4.71368E+005    9.68092E+004   -4.18192E+005   -8.15338E+003   -4.18192E+005    5.15001E+005    1.09845E+005   -4.43917E+005   -3.76117E+004   -2.81733E+005   -1.01920E+004    2.25322E+005   -1.96906E+004    2.36186E+004
            3795    4.07491E+005    1.18830E+005   -3.35421E+005   -2.03790E+003   -3.35421E+005    4.54251E+005    7.28765E+004   -3.63759E+005   -1.06811E+003   -2.13991E+005   -3.56995E+003    1.99145E+005   -2.04416E+004    1.83395E+004
            3796    3.80625E+005    1.32291E+005   -2.96637E+005    8.38283E+002   -2.96637E+005    4.28928E+005    5.45026E+004   -3.23295E+005   -6.79558E+003   -1.56049E+005   -6.62822E+002    2.00137E+005   -1.56789E+004    1.57409E+004
            3797    4.64117E+005    7.50656E+004   -4.18520E+005    9.06153E+003   -4.18520E+005    4.93585E+005    1.11464E+005   -4.53377E+005   -5.53636E+004   -2.87440E+005    8.41108E+003    2.15624E+005   -2.46461E+004    2.13966E+004
            3798    4.54425E+005    9.06023E+004   -4.06275E+005   -1.17656E+004   -4.06275E+005    4.96877E+005    1.09146E+005   -4.27312E+005   -5.81012E+004   -2.56301E+005   -1.30359E+004    2.26637E+005   -1.98802E+004    1.80423E+004
            3799    3.99445E+005    1.15380E+005   -3.28088E+005    3.45565E+003   -3.28088E+005    4.43468E+005    6.97509E+004   -3.61562E+005   -1.33324E+004   -1.98845E+005    2.92496E+003    2.00266E+005   -1.89265E+004    1.24739E+004
            3800    3.78579E+005    1.25378E+005   -3.00608E+005   -2.62192E+003   -3.00608E+005    4.25986E+005    5.92841E+004   -3.24241E+005   -2.11015E+004   -1.53579E+005   -3.17242E+003    2.01651E+005   -1.64534E+004    9.55480E+003
            3801    4.18733E+005    7.98232E+004   -3.75201E+005   -6.08248E+003   -3.75201E+005    4.55024E+005    1.00487E+005   -3.98176E+005   -5.00058E+004   -2.47568E+005   -3.88649E+003    2.02062E+005   -2.72924E+004    1.07518E+004
            3802    4.53824E+005    8.40121E+004   -4.05706E+005    6.72894E+002   -4.05706E+005    4.89718E+005    1.07007E+005   -4.36107E+005   -7.74081E+004   -2.45617E+005    2.00385E+003    2.28598E+005   -1.93776E+004    5.77039E+003
            3803    4.05228E+005    1.06646E+005   -3.39926E+005    4.35454E+003   -3.39926E+005    4.46572E+005    7.63088E+004   -3.74492E+005   -3.50411E+004   -1.99464E+005    5.57907E+003    2.05902E+005   -2.25106E+004    6.79816E+003
            3804    3.78383E+005    1.22051E+005   -3.00874E+005    5.58629E+003   -3.00874E+005    4.22925E+005    5.77459E+004   -3.34343E+005   -3.46059E+004   -1.44494E+005    5.86205E+003    2.03078E+005   -1.97769E+004    6.29754E+003
            3805    3.79430E+005    1.14850E+005   -3.08757E+005   -7.97220E+001   -3.08757E+005    4.23608E+005    6.46622E+004   -3.36797E+005   -5.53074E+004   -1.42332E+005    3.65267E+003    2.04878E+005   -2.45830E+004   -4.01932E+003
            3806    4.22706E+005    9.60673E+004   -3.62606E+005    1.12800E+004   -3.62606E+005    4.58673E+005    8.50861E+004   -4.02902E+005   -7.65702E+004   -1.91597E+005    1.29085E+004    2.19697E+005   -2.66299E+004    8.61589E+003
            3807    4.61408E+005    6.97781E+004   -4.22812E+005   -6.93549E+002   -4.22812E+005    4.92590E+005    1.17909E+005   -4.49061E+005   -9.80952E+004   -2.57329E+005    1.69740E+003    2.30804E+005   -2.38496E+004    7.63470E+003
            3808    5.12481E+005    5.41113E+004   -4.80667E+005    6.14379E+003   -4.80667E+005    5.34778E+005    1.40137E+005   -5.07393E+005   -1.10232E+005   -3.16459E+005    6.28006E+003    2.46538E+005   -6.35042E+003    3.63452E+003
            3809    7.28634E+005    6.45576E+003   -7.86390E+005   -1.46136E+005   -7.86390E+005    7.92846E+005    3.08690E+005   -6.91300E+005   -2.07637E+005   -5.72209E+005   -1.46223E+005    3.51972E+005   -4.77427E+003    6.11749E+003
            3810    7.02969E+005    1.23318E+004   -7.50813E+005   -1.29713E+005   -7.50813E+005    7.63145E+005    2.89398E+005   -6.69529E+005   -1.97484E+005   -5.40470E+005   -1.30240E+005    3.40498E+005   -1.25755E+004    1.47260E+004
            3811    6.63231E+005    2.15493E+004   -6.94571E+005   -1.01447E+005   -6.94571E+005    7.16120E+005    2.58156E+005   -6.36809E+005   -1.81740E+005   -4.90471E+005   -1.02257E+005    3.22387E+005   -1.75181E+004    1.81183E+004
            3812    6.15617E+005    3.08106E+004   -6.29583E+005   -7.15812E+004   -6.29583E+005    6.60393E+005    2.23451E+005   -5.96006E+005   -1.63563E+005   -4.35285E+005   -7.15056E+004    2.99940E+005   -2.03298E+004    1.33119E+004
            3813    5.76259E+005    4.24742E+004   -5.67373E+005   -3.19295E+004   -5.67373E+005    6.09847E+005    1.85609E+005   -5.65301E+005   -1.44443E+005   -3.82389E+005   -2.99965E+004    2.78979E+005   -2.18575E+004    8.27453E+003
            3814    5.40011E+005    5.36849E+004   -5.14592E+005   -8.17464E+003   -5.14592E+005    5.68277E+005    1.56361E+005   -5.31952E+005   -1.29674E+005   -3.38412E+005   -9.95412E+002    2.60283E+005   -2.09286E+004   -4.68193E+003
            3815    5.55064E+005    5.52116E+004   -5.06957E+005    4.07200E+004   -5.06957E+005    5.62168E+005    1.37008E+005   -5.54638E+005   -1.20077E+005   -3.33622E+005    4.26735E+004    2.58913E+005   -1.45764E+003   -6.80146E+003
            3816    3.53812E+005    1.37364E+005   -2.64216E+005    1.63020E+003   -2.64216E+005    4.01581E+005    4.17406E+004   -2.85742E+005   -3.69266E+004   -9.33239E+004    5.02875E+003    1.97008E+005   -1.91357E+004   -1.06526E+004
            3817    3.31444E+005    1.58827E+005   -2.22658E+005   -5.33307E+003   -2.22658E+005    3.81485E+005    2.30547E+004   -2.05557E+005   -1.78619E+004   -4.85798E+004   -2.72243E+003    1.88577E+005   -1.08916E+004   -1.98101E+004
            3818    3.25271E+005    1.87424E+005   -1.88150E+005    2.60523E+003   -1.88150E+005    3.75575E+005   -6.26427E+002   -9.80285E+004   -2.22906E+002   -5.77089E+002    2.67928E+003    1.86540E+005   -1.55802E+002   -2.16041E+004
            3819    3.32523E+005    2.22507E+005    2.22507E+005    3.40896E+002   -1.59783E+005    3.82290E+005   -2.10218E+004    2.16664E+005    1.86153E+004    4.66305E+004   -2.18030E+003    1.89143E+005    1.04250E+004   -1.93243E+004
            3820    3.52701E+005    2.64595E+005    2.64595E+005    3.79644E+003   -1.36703E+005    4.01298E+005   -4.38963E+004    2.78397E+005    3.75607E+004    9.41923E+004   -6.41615E+001    1.96665E+005    1.91073E+004   -1.31339E+004
            3821    3.83998E+005    3.10480E+005    3.10480E+005   -6.56210E+003   -1.16496E+005    4.26975E+005   -6.24739E+004    3.45847E+005    5.74298E+004    1.39948E+005   -9.95602E+003    2.07163E+005    2.43099E+004   -2.66072E+003
            3822    4.19534E+005    3.63176E+005    3.63176E+005   -5.09438E+003   -9.35234E+004    4.56700E+005   -8.81862E+004    3.97747E+005    7.89785E+004    1.94298E+005   -8.71792E+003    2.18291E+005    2.54716E+004    1.58782E+003
            3823    4.56803E+005    4.10064E+005    4.10064E+005   -1.05442E+004   -7.58955E+004    4.85959E+005   -1.07875E+005    4.46104E+005    9.72834E+004    2.39899E+005   -1.35580E+004    2.30266E+005    1.96357E+004    2.05749E+003
            3824    4.88694E+005    4.54088E+005    4.54088E+005   -1.13325E+004   -5.49545E+004    5.09043E+005   -1.29267E+005    4.84285E+005    1.38605E+005    2.67267E+005   -1.80702E+004    2.42760E+005    1.40093E+004   -7.66469E+003
            3825    3.42472E+005    1.42434E+005   -2.48340E+005   -4.32748E+002   -2.48340E+005    3.90774E+005    3.54461E+004   -2.61589E+005   -1.26613E+004   -9.40752E+004    3.98235E+002    1.90410E+005   -1.47079E+004   -1.58700E+003
            3826    3.40449E+005    1.47529E+005   -2.41024E+005    4.97607E+003   -2.41024E+005    3.88553E+005    2.95064E+004   -2.59286E+005    5.19983E+002   -9.33875E+004    4.34827E+003    1.88041E+005   -1.21132E+004    8.04396E+003
            3827    3.41373E+005    1.49120E+005   -2.41164E+005    1.88351E+003   -2.41164E+005    3.90283E+005    3.00536E+004   -2.53593E+005    5.94797E+003   -9.68911E+004    7.82421E+002    1.87654E+005   -1.13534E+004    1.20529E+004
            3828    3.44727E+005    1.53601E+005   -2.40378E+005    5.82507E+003   -2.40378E+005    3.93980E+005    2.69841E+004   -2.57473E+005    9.73960E+003   -9.51633E+004    4.47138E+003    1.89142E+005   -9.40424E+003    1.59926E+004
            3829    3.48511E+005    1.55638E+005   -2.42926E+005    4.52084E+003   -2.42926E+005    3.98564E+005    2.75890E+004   -2.57648E+005    1.03178E+004   -9.67011E+004    3.61631E+003    1.91438E+005   -7.01316E+003    1.39756E+004
            3830    3.51850E+005    1.58266E+005   -2.44058E+005    6.09496E+003   -2.44058E+005    4.02324E+005    2.65655E+004   -2.60730E+005    1.11652E+004   -9.65341E+004    5.67245E+003    1.93547E+005   -4.34817E+003    1.03634E+004
            3831    3.53468E+005    1.59029E+005   -2.45247E+005    5.47914E+003   -2.45247E+005    4.04276E+005    2.69128E+004   -2.60869E+005    1.09160E+004   -9.70906E+004    5.43608E+003    1.94763E+005   -1.40376E+003    3.29291E+003
            3832    3.30372E+005    1.62583E+005   -2.17425E+005    1.57752E+003   -2.17425E+005    3.80008E+005    1.77547E+004   -2.11027E+005   -1.04641E+004   -4.48874E+004    2.08735E+003    1.88962E+005   -7.45424E+003   -5.32316E+003
            3833    3.30371E+005    1.64298E+005   -2.16200E+005   -2.27533E+003   -2.16200E+005    3.80498E+005    1.80590E+004   -1.97460E+005   -6.47086E+003   -4.52346E+004   -2.47163E+003    1.89140E+005   -5.92473E+003    3.81765E+003
            3834    3.33143E+005    1.70271E+005   -2.13437E+005    2.09311E+003   -2.13437E+005    3.83708E+005    1.36910E+004   -1.98573E+005   -2.11857E+003   -4.04818E+004    1.52746E+003    1.90485E+005   -4.78983E+003    1.20631E+004
            3835    3.37711E+005    1.74016E+005   -2.15234E+005   -3.14442E+002   -2.15234E+005    3.89251E+005    1.38441E+004   -1.90472E+005   -2.24384E+003   -3.84560E+004   -8.32598E+002    1.93274E+005   -3.77060E+003    1.38808E+004
            3836    3.42519E+005    1.80226E+005   -2.14691E+005    1.46947E+003   -2.14691E+005    3.94917E+005    1.09985E+004   -1.87161E+005   -9.13622E+002   -3.32326E+004    1.15091E+003    1.96300E+005   -2.35266E+003    1.39732E+004
            3837    3.46122E+005    1.83020E+005   -2.16171E+005    3.26621E+002   -2.16171E+005    3.99190E+005    1.09415E+004   -1.82269E+005   -1.19095E+003   -3.18272E+004    1.93523E+002    1.98795E+005   -1.49471E+003    9.17588E+003
            3838    3.48147E+005    1.85600E+005   -2.15979E+005    8.46662E+002   -2.15979E+005    4.01579E+005    9.84396E+003   -1.79820E+005   -8.60320E+002   -2.95031E+004    8.31568E+002    2.00243E+005   -4.21444E+002    3.75579E+003
            3839    3.21036E+005    1.87305E+005    1.87305E+005   -1.65983E+003   -1.83372E+005    3.70677E+005   -7.57719E+002    1.03882E+005    2.19749E+003    1.76655E+003   -1.69088E+003    1.85147E+005    2.53712E+002   -8.41535E+003
            3840    3.19772E+005    1.90544E+005    1.90544E+005    2.78477E+003   -1.78680E+005    3.69223E+005   -4.88296E+003    9.88314E+004    3.50272E+003    8.31258E+003    2.83359E+003    1.84549E+005    1.13241E+003    4.02246E+003
            3841    3.22456E+005    1.94017E+005    1.94017E+005   -1.12058E+003   -1.78177E+005    3.72194E+005   -4.90655E+003    1.41233E+005    1.81697E+003    1.38344E+004   -9.31655E+002    1.85704E+005    1.77531E+003    1.04243E+004
            3842    3.27395E+005    2.01694E+005    2.01694E+005    9.89159E+002   -1.76103E+005    3.77797E+005   -8.85989E+003    1.55909E+005    1.89631E+003    2.33168E+004    1.36652E+003    1.88006E+005    2.44927E+003    1.48372E+004
            3843    3.32502E+005    2.06918E+005    2.06918E+005   -1.33693E+003   -1.76547E+005    3.83466E+005   -9.67816E+003    1.76110E+005    2.91406E+002    2.97747E+004   -1.03168E+003    1.90712E+005    2.29992E+003    1.31464E+004
            3844    3.36599E+005    2.12378E+005    2.12378E+005   -4.93537E+002   -1.75683E+005    3.88061E+005   -1.20671E+004    1.85443E+005    7.11093E+001    3.64436E+004   -3.13338E+002    1.92920E+005    1.78930E+003    9.96143E+003
            3845    3.38757E+005    2.14731E+005    2.14731E+005   -1.21698E+003   -1.75698E+005    3.90429E+005   -1.26054E+004    1.92220E+005   -5.79835E+002    3.95946E+004   -1.19858E+003    1.94154E+005    6.00277E+002    3.06329E+003
            3846    3.30716E+005    2.19333E+005    2.19333E+005    2.62300E+003   -1.61328E+005    3.80661E+005   -2.02093E+004    2.04738E+005    8.69975E+003    4.99619E+004    1.96633E+003    1.88872E+005    8.54080E+003   -6.06272E+003
            3847    3.33301E+005    2.21111E+005    2.21111E+005   -2.71315E+003   -1.61940E+005    3.83051E+005   -1.88192E+004    2.19871E+005    1.80558E+003    5.71038E+004   -2.45187E+003    1.89318E+005    8.10313E+003    4.33701E+003
            3848    3.38897E+005    2.28816E+005    2.28816E+005   -4.98710E+002   -1.60454E+005    3.89270E+005   -2.26210E+004    2.27549E+005   -1.76281E+003    6.91602E+004    4.65576E+002    1.90877E+005    8.58724E+003    1.22520E+004
            3849    3.47385E+005    2.36937E+005    2.36937E+005   -4.16743E+003   -1.61244E+005    3.98181E+005   -2.38419E+004    2.46147E+005   -5.33542E+003    7.99309E+004   -3.06975E+003    1.93854E+005    8.13442E+003    1.47971E+004
            3850    3.56325E+005    2.47282E+005    2.47282E+005   -3.17660E+003   -1.60649E+005    4.07931E+005   -2.78191E+004    2.58669E+005   -6.90110E+003    9.26037E+004   -2.24537E+003    1.97234E+005    6.86842E+003    1.48576E+004
            3851    3.63356E+005    2.54066E+005    2.54066E+005   -4.77719E+003   -1.61324E+005    4.15389E+005   -2.93217E+004    2.70186E+005   -8.63204E+003    1.00981E+005   -4.38382E+003    2.00092E+005    4.50513E+003    9.80934E+003
            3852    3.67449E+005    2.58719E+005    2.58719E+005   -4.27423E+003   -1.61126E+005    4.19845E+005   -3.11060E+004    2.75448E+005   -9.14782E+003    1.06687E+005   -4.22154E+003    2.01739E+005    1.51951E+003    3.84477E+003
            3853    3.48357E+005    2.56233E+005    2.56233E+005   -3.57368E+003   -1.39618E+005    3.95851E+005   -3.76806E+004    2.78412E+005    1.94465E+004    9.80168E+004   -4.42156E+003    1.93246E+005    1.52625E+004   -1.01572E+003
            3854    3.49745E+005    2.59234E+005    2.59234E+005    4.11730E+002   -1.38653E+005    3.97888E+005   -4.03310E+004    2.76393E+005    9.24729E+003    1.10844E+005    9.01227E+002    1.91779E+005    1.39094E+004    7.37994E+003
            3855    3.56469E+005    2.64988E+005    2.64988E+005   -3.00369E+003   -1.39573E+005    4.04561E+005   -4.08035E+004    2.88108E+005    6.03850E+002    1.23561E+005   -1.75483E+003    1.91961E+005    1.39778E+004    1.31942E+004
            3856    3.67118E+005    2.77581E+005    2.77581E+005   -2.36838E+003   -1.38070E+005    4.15651E+005   -4.57142E+004    3.02428E+005   -3.17746E+003    1.40922E+005   -6.02050E+002    1.93984E+005    1.36331E+004    1.75930E+004
            3857    3.78776E+005    2.89230E+005    2.89230E+005   -4.78787E+003   -1.38200E+005    4.27430E+005   -4.87473E+004    3.19099E+005   -6.57435E+003    1.56370E+005   -3.55420E+003    1.96907E+005    1.09451E+004    1.55582E+004
            3858    3.87491E+005    2.99027E+005    2.99027E+005   -3.83009E+003   -1.37634E+005    4.36661E+005   -5.25208E+004    3.29147E+005   -8.00871E+003    1.68787E+005   -3.21578E+003    1.99299E+005    7.47154E+003    1.13954E+004
            3859    3.92766E+005    3.04462E+005    3.04462E+005   -4.35175E+003   -1.37591E+005    4.42053E+005   -5.41731E+004    3.35966E+005   -8.96490E+003    1.75774E+005   -4.28930E+003    2.00766E+005    2.40116E+003    3.67680E+003
            3860    3.78452E+005    3.03591E+005    3.03591E+005   -2.09015E+003   -1.19703E+005    4.23294E+005   -6.05995E+004    3.33458E+005    3.47924E+004    1.50116E+005   -3.10974E+003    2.02314E+005    2.07205E+004    3.55496E+003
            3861    3.82830E+005    3.04906E+005    3.04906E+005   -2.56992E+003   -1.23883E+005    4.28788E+005   -5.94844E+004    3.35310E+005    1.94235E+004    1.61095E+005   -2.06534E+003    2.01440E+005    1.77010E+004    1.01233E+004
            3862    3.93233E+005    3.15162E+005    3.15162E+005    9.92920E+002   -1.25834E+005    4.40995E+005   -6.34402E+004    3.42468E+005    6.86553E+003    1.80850E+005    2.60550E+003    2.01410E+005    1.85548E+004    1.70369E+004
            3863    4.10371E+005    3.31393E+005    3.31393E+005   -2.66966E+003   -1.26680E+005    4.58074E+005   -6.73477E+004    3.64497E+005    2.42002E+000    2.02973E+005   -9.32596E+002    2.04135E+005    1.75744E+004    1.89411E+004
            3864    4.26842E+005    3.48390E+005    3.48390E+005   -2.85667E+002   -1.27632E+005    4.76022E+005   -7.34909E+004    3.80448E+005   -5.08644E+003    2.24484E+005    1.07461E+003    2.07628E+005    1.42301E+004    1.76223E+004
            3865    4.41081E+005    3.62095E+005    3.62095E+005   -1.49971E+003   -1.28574E+005    4.90669E+005   -7.73404E+004    3.96655E+005   -8.40826E+003    2.41335E+005   -9.05892E+002    2.10784E+005    9.51341E+003    1.20565E+004
            3866    4.48878E+005    3.70140E+005    3.70140E+005   -3.54136E+002   -1.29020E+005    4.99160E+005   -8.02554E+004    4.04161E+005   -9.99564E+003    2.51049E+005   -2.87486E+002    2.12688E+005    2.98288E+003    4.13639E+003
            3867    4.10548E+005    3.45398E+005    3.45398E+005   -7.82070E+003   -1.05030E+005    4.50428E+005   -7.75160E+004    3.83350E+005    4.67978E+004    1.94919E+005   -9.16828E+003    2.11070E+005    2.18656E+004    5.81377E+003
            3868    4.12775E+005    3.48718E+005    3.48718E+005    6.86473E+002   -1.07323E+005    4.56041E+005   -8.06939E+004    3.78976E+005    2.97835E+004    2.10802E+005    1.49640E+003    2.07974E+005    2.07195E+004    1.46848E+004
            3869    4.30860E+005    3.65135E+005    3.65135E+005    1.02381E+003   -1.10532E+005    4.75667E+005   -8.52090E+004    3.96367E+005    1.63383E+004    2.36915E+005    2.37357E+003    2.09273E+005    2.07626E+004    1.85493E+004
            3870    4.51131E+005    3.86739E+005    3.86739E+005    5.20558E+003   -1.11181E+005    4.97920E+005   -9.35880E+004    4.15290E+005    8.81283E+003    2.65035E+005    6.91643E+003    2.11894E+005    2.08119E+004    2.14762E+004
            3871    4.74414E+005    4.10430E+005    4.10430E+005    5.47834E+003   -1.11544E+005    5.21974E+005   -1.01455E+005    4.40149E+005    4.66796E+003    2.92975E+005    6.72185E+003    2.16492E+005    1.66351E+004    1.91361E+004
            3872    4.91323E+005    4.28612E+005    4.28612E+005    9.01070E+003   -1.11869E+005    5.40481E+005   -1.08584E+005    4.56031E+005    2.27142E+003    3.13917E+005    9.56533E+003    2.20280E+005    1.15254E+004    1.32676E+004
            3873    5.02945E+005    4.40951E+005    4.40951E+005    9.74732E+003   -1.11550E+005    5.52501E+005   -1.13050E+005    4.68308E+005    1.73728E+003    3.27586E+005    9.82545E+003    2.23033E+005    3.66017E+003    4.98833E+003
            3874    4.35628E+005    3.88557E+005    3.88557E+005   -1.91368E+002   -8.22732E+004    4.70830E+005   -1.02031E+005    4.17695E+005    7.45541E+004    2.33151E+005   -1.61240E+003    2.19556E+005    2.47446E+004    9.78449E+003
            3875    4.56661E+005    4.06998E+005    4.06998E+005   -8.98530E+002   -8.63543E+004    4.93352E+005   -1.06582E+005    4.38126E+005    6.04292E+004    2.59597E+005   -2.81548E+002    2.24215E+005    2.19644E+004    1.66295E+004
            3876    4.74252E+005    4.26265E+005    4.26265E+005    1.20847E+004   -9.10758E+004    5.17341E+005   -1.15758E+005    4.47952E+005    4.27807E+004    2.91087E+005    1.34070E+004    2.25290E+005    2.26498E+004    2.07919E+004
            3877    5.06484E+005    4.58337E+005    4.58337E+005    1.50062E+004   -9.36604E+004    5.51998E+005   -1.26561E+005    4.79191E+005    3.29526E+004    3.30444E+005    1.62860E+004    2.30889E+005    2.18474E+004    2.18150E+004
            3878    5.33883E+005    4.87866E+005    4.87866E+005    2.44206E+004   -9.59136E+004    5.83780E+005   -1.38791E+005    5.01991E+005    2.45078E+004    3.66482E+005    2.53834E+004    2.35392E+005    1.83719E+004    1.95173E+004
            3879    5.60068E+005    5.14535E+005    5.14535E+005    2.67620E+004   -9.70933E+004    6.11629E+005   -1.48068E+005    5.27920E+005    1.99880E+004    3.96955E+005    2.72614E+004    2.40254E+005    1.25362E+004    1.44180E+004
            3880    5.75566E+005    5.31482E+005    5.31482E+005    3.08775E+004   -9.73995E+004    6.28881E+005   -1.54987E+005    5.41985E+005    1.81392E+004    4.15900E+005    3.09207E+004    2.43489E+005    4.37765E+003    4.63446E+003
            3881    4.60486E+005    4.09705E+005    4.09705E+005   -9.61186E+003   -8.31107E+004    4.92815E+005   -1.05661E+005    4.47003E+005    6.66275E+004    2.62998E+005   -1.26433E+004    2.23166E+005    2.58339E+004    8.64334E+003
            3882    4.81422E+005    4.46748E+005    4.46748E+005    7.18114E+003   -6.77440E+004    5.14492E+005   -1.28728E+005    4.68035E+005    8.51686E+004    2.94479E+005    6.53696E+003    2.33078E+005    2.39504E+004    1.43596E+004
            3883    5.19339E+005    4.83765E+005    4.83765E+005    1.65365E+004   -7.54041E+004    5.59170E+005   -1.41633E+005    5.00536E+005    6.96096E+004    3.38385E+005    1.69031E+004    2.43445E+005    2.37455E+004    1.86269E+004
            3884    5.59004E+005    5.35228E+005    5.35228E+005    3.94561E+004   -7.06298E+004    6.05857E+005   -1.68018E+005    5.33792E+005    7.47244E+004    3.88979E+005    4.03509E+004    2.57726E+005    2.07430E+004    1.98986E+004
            3885    6.07396E+005    5.86260E+005    5.86260E+005    5.21417E+004   -7.44595E+004    6.60719E+005   -1.87981E+005    5.76579E+005    6.94525E+004    4.41217E+005    5.32725E+004    2.72091E+005    1.79386E+004    2.14365E+004
            3886    6.47040E+005    6.32580E+005    6.32580E+005    6.63723E+004   -7.26815E+004    7.05262E+005   -2.08757E+005    6.12052E+005    7.29382E+004    4.86437E+005    6.68960E+004    2.85230E+005    1.15956E+004    1.49841E+004
            3887    6.72656E+005    6.59835E+005    6.59835E+005    7.18422E+004   -7.36653E+004    7.33501E+005   -2.19337E+005    6.35783E+005    7.29740E+004    5.13093E+005    7.19456E+004    2.93321E+005    4.45949E+003    6.75238E+003
            3888    7.20840E+005    7.82903E+005    7.82903E+005    1.47427E+005   -3.86610E+002    7.83290E+005   -3.09981E+005    6.85487E+005    2.12364E+005    5.70067E+005    1.47513E+005    3.48361E+005    5.18045E+003    6.01625E+003
            3889    6.92476E+005    7.42680E+005    7.42680E+005    1.27353E+005   -7.19729E+003    7.49877E+005   -2.87612E+005    6.62101E+005    1.99636E+005    5.35093E+005    1.28106E+005    3.34840E+005    1.42001E+004    1.75315E+004
            3890    6.45658E+005    6.79379E+005    6.79379E+005    9.93342E+004   -1.62733E+004    6.95652E+005   -2.54147E+005    6.21730E+005    1.81834E+005    4.80282E+005    1.00324E+005    3.13333E+005    1.92624E+004    1.98827E+004
            3891    5.97098E+005    6.11131E+005    6.11131E+005    6.39578E+004   -2.57420E+004    6.36873E+005   -2.16449E+005    5.81649E+005    1.63489E+005    4.21000E+005    6.48578E+004    2.89992E+005    2.26958E+004    2.04556E+004
            3892    5.49504E+005    5.49306E+005    5.49306E+005    4.07841E+004   -3.36019E+004    5.82908E+005   -1.85496E+005    5.38002E+005    1.51817E+005    3.64795E+005    3.98757E+004    2.69494E+005    2.43606E+004    1.36947E+004
            3893    5.22095E+005    5.03283E+005    5.03283E+005    9.74188E+003   -4.33139E+004    5.46597E+005   -1.56570E+005    5.15977E+005    1.41822E+005    3.22234E+005    5.65429E+003    2.54736E+005    2.57749E+004    9.33455E+003
            3894    4.97863E+005    4.74931E+005    4.74931E+005    3.82737E+003   -4.59511E+004    5.20882E+005   -1.44269E+005    4.92217E+005    1.48989E+005    2.85088E+005   -1.26903E+003    2.48092E+005    2.32053E+004    4.20498E+003
            3895    5.11568E+005    5.42905E+004   -4.79476E+005    6.54553E+003   -4.79476E+005    5.33767E+005    1.39547E+005   -5.06519E+005   -1.09827E+005   -3.15493E+005    6.67954E+003    2.46124E+005    5.92295E+003   -3.22944E+003
            3896    4.63179E+005    6.92625E+004   -4.24946E+005   -7.71582E+002   -4.24946E+005    4.94208E+005    1.18818E+005   -4.51036E+005   -9.85678E+004   -2.59441E+005    1.55431E+003    2.31435E+005    2.35334E+004   -7.64016E+003
            3897    4.23544E+005    9.57339E+004   -3.63718E+005    1.11555E+004   -3.63718E+005    4.59451E+005    8.56094E+004   -4.03883E+005   -7.67635E+004   -1.92791E+005    1.27264E+004    2.19965E+005    2.67290E+004   -8.91732E+003
            3898    3.79779E+005    1.14821E+005   -3.09139E+005   -7.38342E+001   -3.09139E+005    4.23960E+005    6.47973E+004   -3.37221E+005   -5.54232E+004   -1.42567E+005    3.59810E+003    2.05056E+005    2.46622E+004    3.75594E+003
            3899    3.78613E+005    1.21931E+005   -3.01254E+005    5.38331E+003   -3.01254E+005    4.23185E+005    5.79798E+004   -3.34535E+005   -3.42723E+004   -1.45301E+005    5.63406E+003    2.03055E+005    1.98113E+004   -6.45758E+003
            3900    3.79056E+005    1.25359E+005   -3.01117E+005   -2.60369E+003   -3.01117E+005    4.26476E+005    5.94541E+004   -3.24841E+005   -2.06235E+004   -1.54549E+005   -3.18940E+003    2.01671E+005    1.63977E+004   -9.79813E+003
            3901    3.80965E+005    1.32364E+005   -2.96939E+005    8.27731E+002   -2.96939E+005    4.29304E+005    5.45823E+004   -3.23617E+005   -6.37007E+003   -1.56674E+005   -7.02874E+002    2.00129E+005    1.57270E+004   -1.59422E+004
            3902    3.87546E+005    1.33586E+005   -3.02889E+005    8.42957E+002   -3.02889E+005    4.36474E+005    5.61534E+004   -3.30260E+005   -2.03556E+003   -1.65550E+005   -8.74598E+002    2.01383E+005    1.45548E+004   -1.79124E+004
            3903    3.94367E+005    1.37222E+005   -3.06592E+005    3.61676E+003   -3.06592E+005    4.43814E+005    5.52509E+004   -3.37506E+005    3.24644E+003   -1.71362E+005    2.36291E+003    2.03329E+005    1.08234E+004   -1.64389E+004
            3904    3.99697E+005    1.38229E+005   -3.11427E+005    3.48173E+003   -3.11427E+005    4.49656E+005    5.65724E+004   -3.42705E+005    5.29874E+003   -1.77941E+005    2.92477E+003    2.05008E+005    7.37728E+003   -1.09910E+004
            3905    4.02074E+005    1.39686E+005   -3.12640E+005    4.15715E+003   -3.12640E+005    4.52326E+005    5.62654E+004   -3.44761E+005    6.94102E+003   -1.79827E+005    4.08940E+003    2.05945E+005    2.22706E+003   -4.11379E+003
            3906    4.06191E+005    1.06494E+005   -3.41062E+005    4.21014E+003   -3.41062E+005    4.47556E+005    7.67861E+004   -3.75541E+005   -3.51321E+004   -2.00631E+005    5.40450E+003    2.06239E+005    2.23940E+004   -6.86400E+003
            3907    4.00526E+005    1.15150E+005   -3.29487E+005    3.03255E+003   -3.29487E+005    4.44637E+005    7.04346E+004   -3.62620E+005   -1.33802E+004   -2.00357E+005    2.43354E+003    2.00553E+005    1.90503E+004   -1.29092E+004
            3908    4.09219E+005    1.18620E+005   -3.37355E+005   -2.01108E+003   -3.37355E+005    4.55975E+005    7.35820E+004   -3.65892E+005   -1.12272E+003   -2.16048E+005   -3.57543E+003    1.99587E+005    2.03919E+004   -1.85885E+004
            3909    4.22949E+005    1.21744E+005   -3.47932E+005    2.83373E+003   -3.47932E+005    4.69676E+005    7.44513E+004   -3.82544E+005    6.46485E+003   -2.30689E+005    8.70830E+002    2.01256E+005    1.87222E+004   -2.14121E+004
            3910    4.36446E+005    1.22834E+005   -3.61479E+005    1.36661E+003   -3.61479E+005    4.84313E+005    7.90929E+004   -3.95655E+005    9.73024E+003   -2.46999E+005   -1.00908E+001    2.04353E+005    1.49934E+004   -1.84931E+004
            3911    4.47748E+005    1.24558E+005   -3.71493E+005    2.74244E+003   -3.71493E+005    4.96051E+005    8.13976E+004   -4.07896E+005    1.19545E+004   -2.58248E+005    2.10063E+003    2.07559E+005    9.82268E+003   -1.29558E+004
            3912    4.52971E+005    1.25113E+005   -3.76733E+005    1.84485E+003   -3.76733E+005    5.01846E+005    8.32585E+004   -4.12632E+005    1.25136E+004   -2.64070E+005    1.78114E+003    2.09329E+005    3.18659E+003   -4.11641E+003
            3913    4.53664E+005    8.40610E+004   -4.05603E+005    4.22200E+002   -4.05603E+005    4.89664E+005    1.07040E+005   -4.35809E+005   -7.74561E+004   -2.45375E+005    1.71155E+003    2.28629E+005    1.94338E+004   -5.94997E+003
            3914    4.56032E+005    9.02271E+004   -4.08110E+005   -1.15996E+004   -4.08110E+005    4.98337E+005    1.09828E+005   -4.29321E+005   -5.81308E+004   -2.58438E+005   -1.29138E+004    2.26973E+005    1.98128E+004   -1.83684E+004
            3915    4.72873E+005    9.67460E+004   -4.19895E+005   -8.53839E+003   -4.19895E+005    5.16641E+005    1.10562E+005   -4.45341E+005   -3.72794E+004   -2.83808E+005   -1.05996E+004    2.25580E+005    1.98450E+004   -2.38238E+004
            3916    4.92787E+005    9.86091E+004   -4.40141E+005   -1.21769E+004   -4.40141E+005    5.38750E+005    1.17903E+005   -4.63509E+005   -2.66082E+004   -3.13079E+005   -1.40215E+004    2.26550E+005    2.09673E+004   -2.39153E+004
            3917    5.12801E+005    1.01604E+005   -4.58665E+005   -1.25815E+004   -4.58665E+005    5.60268E+005    1.23214E+005   -4.82939E+005   -1.76479E+004   -3.38123E+005   -1.38721E+004    2.28673E+005    1.69857E+004   -2.07858E+004
            3918    5.27081E+005    1.02648E+005   -4.73616E+005   -1.59124E+004   -4.73616E+005    5.76263E+005    1.28960E+005   -4.95729E+005   -1.26447E+004   -3.57842E+005   -1.63938E+004    2.30198E+005    1.18015E+004   -1.34498E+004
            3919    5.34191E+005    1.03750E+005   -4.80304E+005   -1.64610E+004   -4.80304E+005    5.84054E+005    1.31005E+005   -5.02389E+005   -9.40164E+003   -3.67088E+005   -1.65260E+004    2.30800E+005    3.73730E+003   -4.84268E+003
            3920    4.19527E+005    7.97938E+004   -3.75933E+005   -5.80943E+003   -3.75933E+005    4.55727E+005    1.00650E+005   -3.99162E+005   -4.98656E+004   -2.48394E+005   -3.68934E+003    2.02230E+005    2.72844E+004   -1.10480E+004
            3921    4.65151E+005    7.47513E+004   -4.20024E+005    8.37041E+003   -4.20024E+005    4.94775E+005    1.12301E+005   -4.54311E+005   -5.62448E+004   -2.88478E+005    7.82032E+003    2.16238E+005    2.47607E+004   -2.10982E+004
            3922    4.99925E+005    7.82062E+004   -4.60978E+005   -1.28235E+004   -4.60978E+005    5.39185E+005    1.31865E+005   -4.80745E+005   -5.08777E+004   -3.31435E+005   -1.32834E+004    2.28057E+005    2.53853E+004   -2.07290E+004
            3923    5.47231E+005    8.12299E+004   -5.11767E+005   -2.62521E+004   -5.11767E+005    5.92997E+005    1.52263E+005   -5.22685E+005   -4.81863E+004   -3.81525E+005   -2.70779E+004    2.43494E+005    2.31188E+004   -2.15472E+004
            3924    5.88115E+005    8.39833E+004   -5.57227E+005   -4.29295E+004   -5.57227E+005    6.41210E+005    1.72058E+005   -5.56039E+005   -4.39512E+004   -4.28473E+005   -4.37488E+004    2.55469E+005    1.83111E+004   -1.95395E+004
            3925    6.23608E+005    8.71430E+004   -5.93652E+005   -5.00904E+004   -5.93652E+005    6.80795E+005    1.85533E+005   -5.88177E+005   -4.08124E+004   -4.65187E+005   -5.06004E+004    2.65650E+005    1.23416E+004   -1.51084E+004
            3926    6.44026E+005    8.89101E+004   -6.14635E+005   -5.42057E+004   -6.14635E+005    7.03545E+005    1.93310E+005   -6.06681E+005   -3.90557E+004   -4.86603E+005   -5.42722E+004    2.71360E+005    4.13945E+003   -5.46911E+003
            3927    7.28429E+005    6.53771E+003   -7.86082E+005   -1.46001E+005   -7.86082E+005    7.92620E+005    3.08515E+005   -6.91111E+005   -2.07731E+005   -5.71723E+005   -1.46091E+005    3.51991E+005    4.95481E+003   -6.21434E+003
            3928    7.03533E+005    1.22050E+004   -7.51443E+005   -1.29638E+005   -7.51443E+005    7.63648E+005    2.89625E+005   -6.70220E+005   -1.98034E+005   -5.40689E+005   -1.30153E+005    3.40866E+005    1.25689E+004   -1.45641E+004
            3929    6.63781E+005    2.15992E+004   -6.95035E+005   -1.01278E+005   -6.95035E+005    7.16634E+005    2.58238E+005   -6.37435E+005   -1.81573E+005   -4.91046E+005   -1.02095E+005    3.22496E+005    1.74750E+004   -1.81883E+004
            3930    6.16513E+005    3.08276E+004   -6.30492E+005   -7.16202E+004   -6.30492E+005    6.61320E+005    2.23762E+005   -5.96911E+005   -1.63336E+005   -4.36327E+005   -7.16209E+004    3.00181E+005    2.02178E+004   -1.37040E+004
            3931    5.77406E+005    4.19154E+004   -5.69371E+005   -3.31972E+004   -5.69371E+005    6.11286E+005    1.86884E+005   -5.66258E+005   -1.45199E+005   -3.84022E+005   -3.14325E+004    2.79660E+005    2.16092E+004   -8.54914E+003
            3932    5.40596E+005    5.33575E+004   -5.15618E+005   -8.77015E+003   -5.15618E+005    5.68975E+005    1.57010E+005   -5.32475E+005   -1.29751E+005   -3.39419E+005   -1.86006E+003    2.60588E+005    2.12083E+004    3.82895E+003
            3933    5.54143E+005    5.49423E+004   -5.07002E+005    3.89962E+004   -5.07002E+005    5.61944E+005    1.37688E+005   -5.53626E+005   -1.20946E+005   -3.33450E+005    4.13322E+004    2.58799E+005    2.02399E+003    7.18310E+003
            3934    6.73069E+005    6.60513E+005    6.60513E+005    7.21124E+004   -7.34152E+004    7.33928E+005   -2.19737E+005    6.36210E+005    7.34671E+004    5.13523E+005    7.22197E+004    2.93607E+005   -4.66086E+003   -6.88183E+003
            3935    5.76164E+005    5.32291E+005    5.32291E+005    3.11684E+004   -9.72457E+004    6.29537E+005   -1.55405E+005    5.42547E+005    1.84824E+004    4.16510E+005    3.12209E+004    2.43798E+005   -4.51735E+003   -4.96089E+003
            3936    5.03262E+005    4.41396E+005    4.41396E+005    9.82279E+003   -1.11409E+005    5.52804E+005   -1.13270E+005    4.68689E+005    1.88415E+003    3.28017E+005    9.90850E+003    2.23109E+005   -3.94854E+003   -5.23647E+003
            3937    4.48773E+005    3.70038E+005    3.70038E+005   -4.20917E+002   -1.28987E+005    4.99025E+005   -8.02098E+004    4.04120E+005   -9.98491E+003    2.50956E+005   -3.42057E+002    2.12632E+005   -3.31277E+003   -4.48693E+003
            3938    3.92658E+005    3.04351E+005    3.04351E+005   -4.35497E+003   -1.37588E+005    4.41939E+005   -5.41358E+004    3.35844E+005   -8.93929E+003    1.75628E+005   -4.28134E+003    2.00736E+005   -2.61367E+003   -3.98757E+003
            3939    3.67330E+005    2.58563E+005    2.58563E+005   -4.29452E+003   -1.61155E+005    4.19718E+005   -3.10377E+004    2.75269E+005   -9.16688E+003    1.06514E+005   -4.23417E+003    2.01691E+005   -1.63882E+003   -4.08965E+003
            3940    3.38766E+005    2.14800E+005    2.14800E+005   -1.17141E+003   -1.75639E+005    3.90439E+005   -1.26632E+004    1.92280E+005   -5.66738E+002    3.97074E+004   -1.15120E+003    1.94152E+005   -6.32463E+002   -3.19099E+003
            3941    3.48087E+005    1.85515E+005   -2.15992E+005    8.37953E+002   -2.15992E+005    4.01507E+005    9.87975E+003   -1.79949E+005   -8.39715E+002   -2.96228E+004    8.23276E+002    2.00202E+005    4.08263E+002   -3.77101E+003
            3942    3.53604E+005    1.59007E+005   -2.45406E+005    5.51727E+003   -2.45406E+005    4.04413E+005    2.69608E+004   -2.61157E+005    1.09815E+004   -9.73394E+004    5.47564E+003    1.94791E+005    1.36808E+003   -3.26040E+003
            3943    6.47131E+005    6.32960E+005    6.32960E+005    6.66664E+004   -7.23974E+004    7.05358E+005   -2.09077E+005    6.12143E+005    7.36008E+004    4.86419E+005    6.72095E+004    2.85520E+005   -1.17985E+004   -1.52488E+004
            3944    5.60379E+005    5.15221E+005    5.15221E+005    2.71854E+004   -9.67520E+004    6.11973E+005   -1.48551E+005    5.28206E+005    2.07022E+004    3.97245E+005    2.77073E+004    2.40614E+005   -1.28188E+004   -1.47304E+004
            3945    4.90823E+005    4.28117E+005    4.28117E+005    8.88736E+003   -1.11789E+005    5.39906E+005   -1.08405E+005    4.55617E+005    2.44629E+003    3.13290E+005    9.47922E+003    2.20176E+005   -1.19172E+004   -1.36964E+004
            3946    4.40046E+005    3.60950E+005    3.60950E+005   -1.63611E+003   -1.28627E+005    4.89577E+005   -7.68954E+004    3.95561E+005   -8.32695E+003    2.40020E+005   -1.00684E+003    2.10540E+005   -9.77509E+003   -1.23845E+004
            3947    3.86520E+005    2.97811E+005    2.97811E+005   -3.92437E+003   -1.37863E+005    4.35674E+005   -5.20081E+004    3.27855E+005   -7.95373E+003    1.67252E+005   -3.27334E+003    1.99090E+005   -7.68673E+003   -1.17020E+004
            3948    3.62855E+005    2.53282E+005    2.53282E+005   -4.71486E+003   -1.61622E+005    4.14904E+005   -2.89816E+004    2.68922E+005   -8.58663E+003    9.98450E+004   -4.31347E+003    1.99994E+005   -4.50977E+003   -9.95634E+003
            3949    3.36386E+005    2.11917E+005    2.11917E+005   -4.57065E+002   -1.75923E+005    3.87840E+005   -1.18455E+004    1.84097E+005    1.51611E+002    3.56573E+004   -2.72276E+002    1.92844E+005   -1.81722E+003   -1.00571E+004
            3950    3.46231E+005    1.82666E+005   -2.16621E+005    4.49666E+002   -2.16621E+005    3.99287E+005    1.11682E+004   -1.84162E+005   -1.13394E+003   -3.26813E+004    3.10703E+002    1.98809E+005    1.56730E+003   -9.14501E+003
            3951    3.52283E+005    1.57881E+005   -2.44856E+005    6.06382E+003   -2.44856E+005    4.02737E+005    2.69704E+004   -2.61889E+005    1.12440E+004   -9.78020E+004    5.64671E+003    1.93578E+005    4.32870E+003   -1.02942E+004
            3952    6.06256E+005    5.85220E+005    5.85220E+005    5.20088E+004   -7.42101E+004    6.59430E+005   -1.87673E+005    5.75570E+005    6.99131E+004    4.39968E+005    5.31378E+004    2.71885E+005   -1.80428E+004   -2.14172E+004
            3953    5.32263E+005    4.86131E+005    4.86131E+005    2.40487E+004   -9.58569E+004    5.81988E+005   -1.38108E+005    5.00504E+005    2.48264E+004    3.64465E+005    2.50319E+004    2.35096E+005   -1.86583E+004   -1.97076E+004
            3954    4.71877E+005    4.07538E+005    4.07538E+005    5.06089E+003   -1.11784E+005    5.19322E+005   -1.00271E+005    4.37517E+005    4.71402E+003    2.89750E+005    6.35004E+003    2.15944E+005   -1.69633E+004   -1.93868E+004
            3955    4.24080E+005    3.45113E+005    3.45113E+005   -5.96694E+002   -1.28087E+005    4.73200E+005   -7.21432E+004    3.77210E+005   -5.13158E+003    2.20748E+005    8.13298E+002    2.07008E+005   -1.43675E+004   -1.78343E+004
            3956    3.76741E+005    2.86635E+005    2.86635E+005   -4.79338E+003   -1.38786E+005    4.25421E+005   -4.76853E+004    3.16042E+005   -6.42050E+003    1.53015E+005   -3.53828E+003    1.96529E+005   -1.09706E+004   -1.56292E+004
            3957    3.55245E+005    2.45426E+005    2.45426E+005   -3.10216E+003   -1.61459E+005    4.06885E+005   -2.69548E+004    2.55620E+005   -6.83994E+003    8.98859E+004   -2.18143E+003    1.97038E+005   -6.72669E+003   -1.48808E+004
            3958    3.32195E+005    2.05900E+005    2.05900E+005   -1.17464E+003   -1.77268E+005    3.83168E+005   -9.15226E+003    1.72280E+005    4.72545E+002    2.78694E+004   -8.85193E+002    1.90644E+005   -2.18894E+003   -1.30930E+004
            3959    3.42762E+005    1.79434E+005   -2.15701E+005    1.53361E+003   -2.15701E+005    3.95135E+005    1.15777E+004   -1.90390E+005   -8.30529E+002   -3.50982E+004    1.19553E+003    1.96327E+005    2.49391E+003   -1.39822E+004
            3960    3.49076E+005    1.55284E+005   -2.43822E+005    4.61768E+003   -2.43822E+005    3.99105E+005    2.79735E+004   -2.59148E+005    1.05567E+004   -9.81915E+004    3.71434E+003    1.91480E+005    7.05936E+003   -1.39245E+004
            3961    5.57059E+005    5.32927E+005    5.32927E+005    3.84975E+004   -7.06155E+004    6.03542E+005   -1.66936E+005    5.32213E+005    7.47389E+004    3.86686E+005    3.93834E+004    2.57053E+005   -2.08829E+004   -1.98900E+004
            3962    5.03155E+005    4.54504E+005    4.54504E+005    1.42191E+004   -9.39320E+004    5.48436E+005   -1.24930E+005    4.75937E+005    3.28873E+004    3.26405E+005    1.54985E+004    2.30026E+005   -2.19898E+004   -2.17494E+004
            3963    4.47114E+005    3.82008E+005    3.82008E+005    4.52429E+003   -1.11759E+005    4.93767E+005   -9.15910E+004    4.10977E+005    8.70060E+003    2.59807E+005    6.26520E+003    2.10988E+005   -2.09069E+004   -2.14397E+004
            3964    4.06768E+005    3.27003E+005    3.27003E+005   -2.86304E+003   -1.27502E+005    4.54505E+005   -6.55462E+004    3.59891E+005   -8.76172E+001    1.97848E+005   -1.12142E+003    2.03391E+005   -1.74833E+004   -1.87579E+004
            3965    3.64623E+005    2.74218E+005    2.74218E+005   -2.36598E+003   -1.38984E+005    4.13202E+005   -4.42894E+004    2.98293E+005   -3.08031E+003    1.36560E+005   -6.11959E+002    1.93506E+005   -1.34400E+004   -1.74433E+004
            3966    3.46312E+005    2.34853E+005    2.34853E+005   -4.04829E+003   -1.62313E+005    3.97167E+005   -2.28306E+004    2.42407E+005   -5.28069E+003    7.67602E+004   -2.98766E+003    1.93696E+005   -7.85772E+003   -1.46593E+004
            3967    3.27082E+005    2.00485E+005    2.00485E+005    1.12129E+003   -1.76997E+005    3.77482E+005   -8.20319E+003    1.50437E+005    2.06835E+003    2.10743E+004    1.46689E+003    1.87912E+005   -2.24153E+003   -1.48451E+004
            3968    3.38146E+005    1.73394E+005   -2.16296E+005   -2.58134E+002   -2.16296E+005    3.89690E+005    1.43870E+004   -1.93382E+005   -2.23470E+003   -4.01296E+004   -7.96760E+002    1.93411E+005    3.92308E+003   -1.39057E+004
            3969    3.44884E+005    1.53485E+005   -2.40632E+005    5.91986E+003   -2.40632E+005    3.94116E+005    2.70757E+004   -2.58013E+005    1.00310E+004   -9.58176E+004    4.55950E+003    1.89078E+005    9.41357E+003   -1.60566E+004
            3970    5.16827E+005    4.80782E+005    4.80782E+005    1.56280E+004   -7.55763E+004    5.56358E+005   -1.40278E+005    4.98237E+005    6.93603E+004    3.35477E+005    1.59960E+004    2.42554E+005   -2.38197E+004   -1.86489E+004
            3971    4.70478E+005    4.21664E+005    4.21664E+005    1.09699E+004   -9.16554E+004    5.13320E+005   -1.13660E+005    4.44235E+005    4.24167E+004    2.86284E+005    1.22783E+004    2.24212E+005   -2.26381E+004   -2.05734E+004
            3972    4.26700E+005    3.60101E+005    3.60101E+005    5.44162E+002   -1.11418E+005    4.71519E+005   -8.30757E+004    3.91555E+005    1.60072E+004    2.31350E+005    1.86946E+003    2.08315E+005   -2.06588E+004   -1.81701E+004
            3973    3.89798E+005    3.10775E+005    3.10775E+005    8.40434E+002   -1.26854E+005    4.37630E+005   -6.15870E+004    3.37691E+005    6.62237E+003    1.75719E+005    2.41957E+003    2.00652E+005   -1.83177E+004   -1.66317E+004
            3974    3.54369E+005    2.61955E+005    2.61955E+005   -2.95091E+003   -1.40583E+005    4.02538E+005   -3.94738E+004    2.84153E+005    4.86575E+002    1.19666E+005   -1.73096E+003    1.91522E+005   -1.36758E+004   -1.29318E+004
            3975    3.38025E+005    2.26953E+005    2.26953E+005   -4.03883E+002   -1.61485E+005    3.88438E+005   -2.16879E+004    2.23827E+005   -1.81546E+003    6.63468E+004    5.32370E+002    1.90716E+005   -8.27289E+003   -1.22009E+004
            3976    3.22364E+005    1.93146E+005    1.93146E+005   -1.03807E+003   -1.78970E+005    3.72116E+005   -4.37917E+003    1.36282E+005    1.81383E+003    1.21948E+004   -8.71083E+002    1.85686E+005   -1.56468E+003   -1.04936E+004
            3977    3.33469E+005    1.69894E+005   -2.14143E+005    2.13498E+003   -2.14143E+005    3.84037E+005    1.40378E+004   -2.00298E+005   -2.02056E+003   -4.16364E+004    1.54368E+003    1.90574E+005    4.93931E+003   -1.22483E+004
            3978    3.41735E+005    1.49061E+005   -2.41594E+005    1.94736E+003   -2.41594E+005    3.90654E+005    3.01952E+004   -2.54290E+005    6.08543E+003   -9.75097E+004    8.38638E+002    1.87740E+005    1.13275E+004   -1.21519E+004
            3979    4.79585E+005    4.44367E+005    4.44367E+005    6.50099E+003   -6.81752E+004    5.12542E+005   -1.27564E+005    4.66235E+005    8.47643E+004    2.92109E+005    5.81941E+003    2.32430E+005   -2.40048E+004   -1.42352E+004
            3980    4.53680E+005    4.03350E+005    4.03350E+005   -1.40305E+003   -8.70491E+004    4.90399E+005   -1.04966E+005    4.34930E+005    5.99743E+004    2.55744E+005   -8.20760E+002    2.23351E+005   -2.19464E+004   -1.63284E+004
            3981    4.09707E+005    3.44800E+005    3.44800E+005    3.55091E+002   -1.08275E+005    4.53075E+005   -7.89600E+004    3.75200E+005    2.91871E+004    2.06591E+005    1.10232E+003    2.07159E+005   -2.05767E+004   -1.41609E+004
            3982    3.80664E+005    3.02001E+005    3.02001E+005   -2.55538E+003   -1.24757E+005    4.26758E+005   -5.82295E+004    3.32030E+005    1.90434E+004    1.57721E+005   -2.07584E+003    2.00910E+005   -1.74776E+004   -9.78570E+003
            3983    3.48391E+005    2.57149E+005    2.57149E+005    4.60813E+002   -1.39449E+005    3.96598E+005   -3.93871E+004    2.73530E+005    8.84254E+003    1.08378E+005    9.40436E+002    1.91404E+005   -1.36312E+004   -7.21048E+003
            3984    3.32959E+005    2.20238E+005    2.20238E+005   -2.65867E+003   -1.62503E+005    3.82740E+005   -1.83587E+004    2.17997E+005    1.60822E+003    5.58556E+004   -2.38760E+003    1.89243E+005   -7.89237E+003   -4.47598E+003
            3985    3.19729E+005    1.90154E+005    1.90154E+005    2.80793E+003   -1.79023E+005    3.69178E+005   -4.64623E+003    9.45620E+004    3.45770E+003    7.62665E+003    2.85434E+003    1.84524E+005   -1.00339E+003   -4.31244E+003
            3986    3.30537E+005    1.64209E+005   -2.16453E+005   -2.10127E+003   -2.16453E+005    3.80662E+005    1.81152E+004   -1.98469E+005   -6.32756E+003   -4.57024E+004   -2.31555E+003    1.89186E+005    5.93361E+003   -4.11399E+003
            3987    3.40786E+005    1.47379E+005   -2.41525E+005    4.89643E+003   -2.41525E+005    3.88904E+005    2.97499E+004   -2.59847E+005    5.39982E+002   -9.40327E+004    4.24300E+003    1.88130E+005    1.21674E+004   -8.25406E+003
            3988    4.59202E+005    4.08378E+005    4.08378E+005   -9.40890E+003   -8.32819E+004    4.91660E+005   -1.05229E+005    4.45538E+005    6.66352E+004    2.61529E+005   -1.24772E+004    2.22825E+005   -2.60151E+004   -8.61555E+003
            3989    4.33802E+005    3.86053E+005    3.86053E+005   -6.20175E+002   -8.30506E+004    4.69103E+005   -1.00794E+005    4.15631E+005    7.38312E+004    2.30680E+005   -2.12897E+003    2.18946E+005   -2.46656E+004   -9.33899E+003
            3990    4.08842E+005    3.43188E+005    3.43188E+005   -7.78416E+003   -1.05732E+005    4.48920E+005   -7.65573E+004    3.81079E+005    4.61867E+004    1.92646E+005   -9.16108E+003    2.10566E+005   -2.18049E+004   -5.53115E+003
            3991    3.77164E+005    3.01770E+005    3.01770E+005   -2.11525E+003   -1.20345E+005    4.22115E+005   -5.97699E+004    3.31458E+005    3.42204E+004    1.48230E+005   -3.14030E+003    2.01908E+005   -2.05404E+004   -3.33318E+003
            3992    3.47845E+005    2.55430E+005    2.55430E+005   -3.40719E+003   -1.39975E+005    3.95405E+005   -3.73493E+004    2.77101E+005    1.90307E+004    9.72459E+004   -4.22872E+003    1.93075E+005   -1.50688E+004    1.01247E+003
            3993    3.30591E+005    2.19087E+005    2.19087E+005    2.53702E+003   -1.61437E+005    3.80525E+005   -2.00624E+004    2.04454E+005    8.48775E+003    4.97893E+004    1.91027E+003    1.88815E+005   -8.43659E+003    5.83885E+003
            3994    3.21026E+005    1.87453E+005    1.87453E+005   -1.56515E+003   -1.83211E+005    3.70664E+005   -8.92294E+002    1.04448E+005    2.16564E+003    2.10624E+003   -1.59500E+003    1.85157E+005   -2.62164E+002    8.04586E+003
            3995    3.30204E+005    1.62830E+005   -2.17021E+005    1.53196E+003   -2.17021E+005    3.79851E+005    1.75528E+004   -2.10070E+005   -1.01679E+004   -4.45004E+004    2.00982E+003    1.88900E+005    7.40580E+003    4.99576E+003
            3996    3.42638E+005    1.42455E+005   -2.48476E+005   -2.79660E+002   -2.48476E+005    3.90931E+005    3.54335E+004   -2.62003E+005   -1.25340E+004   -9.42804E+004    5.14057E+002    1.90464E+005    1.46740E+004    1.36238E+003
            3997    3.53319E+005    1.37658E+005   -2.63501E+005    1.40562E+003   -2.63501E+005    4.01159E+005    4.14791E+004   -2.84494E+005   -3.65339E+004   -9.26916E+004    4.78832E+003    1.96821E+005    1.91000E+004    1.06813E+004
            3998    3.30985E+005    1.59426E+005   -2.21586E+005   -5.11869E+003   -2.21586E+005    3.81011E+005    2.24262E+004   -2.03780E+005   -1.73120E+004   -4.73847E+004   -2.58192E+003    1.88399E+005    1.06804E+004    1.96779E+004
            3999    3.25135E+005    1.87894E+005    1.87894E+005    2.56926E+003   -1.87529E+005    3.75424E+005   -9.78242E+002   -9.11299E+004    9.14002E+001    2.57864E+002    2.58546E+003    1.86472E+005   -7.29482E+001    2.15366E+004
            4000    3.32784E+005    2.23033E+005    2.23033E+005    4.93097E+002   -1.59534E+005    3.82567E+005   -2.13309E+004    2.17312E+005    1.88117E+004    4.71973E+004   -2.01619E+003    1.89285E+005   -1.04775E+004    1.91403E+004
            4001    3.52763E+005    2.64591E+005    2.64591E+005    3.60105E+003   -1.36745E+005    4.01336E+005   -4.38156E+004    2.78674E+005    3.73682E+004    9.43122E+004   -2.33528E+002    1.96676E+005   -1.90226E+004    1.30928E+004
            4002    3.83416E+005    3.09744E+005    3.09744E+005   -6.34550E+003   -1.16765E+005    4.26509E+005   -6.22114E+004    3.44829E+005    5.71051E+004    1.39282E+005   -9.75263E+003    2.06980E+005   -2.40966E+004    2.94477E+003
            4003    4.18222E+005    3.61285E+005    3.61285E+005   -5.39190E+003   -9.42132E+004    4.55498E+005   -8.72266E+004    3.96159E+005    7.81169E+004    1.92596E+005   -9.03307E+003    2.17790E+005   -2.53636E+004   -1.35908E+003
            4004    4.55422E+005    4.08486E+005    4.08486E+005   -1.03428E+004   -7.63298E+004    4.84816E+005   -1.07271E+005    4.44476E+005    9.69153E+004    2.38440E+005   -1.35416E+004    2.29760E+005   -1.97569E+004   -1.52561E+003
            4005    4.86881E+005    4.51705E+005    4.51705E+005   -1.13147E+004   -5.59626E+004    5.07668E+005   -1.28143E+005    4.82243E+005    1.36464E+005    2.65855E+005   -1.78914E+004    2.42029E+005   -1.43878E+004    7.27544E+003
            4006    7.20994E+005    7.83102E+005    7.83102E+005    1.47440E+005   -3.27280E+002    7.83430E+005   -3.10072E+005    6.85672E+005    2.12366E+005    5.70322E+005    1.47527E+005    3.48375E+005   -5.13142E+003   -6.08638E+003
            4007    6.92519E+005    7.42862E+005    7.42862E+005    1.27535E+005   -7.08282E+003    7.49945E+005   -2.87771E+005    6.62114E+005    1.99994E+005    5.35021E+005    1.28300E+005    3.34980E+005   -1.42530E+004   -1.76558E+004
            4008    6.45298E+005    6.79103E+005    6.79103E+005    9.93590E+004   -1.61490E+004    6.95252E+005   -2.54104E+005    6.21398E+005    1.82215E+005    4.79734E+005    1.00364E+005    3.13327E+005   -1.93147E+004   -1.99950E+004
            4009    5.95948E+005    6.09728E+005    6.09728E+005    6.36901E+004   -2.59700E+004    6.35698E+005   -2.15816E+005    5.80482E+005    1.63326E+005    4.19572E+005    6.45502E+004    2.89608E+005   -2.28764E+004   -2.02956E+004
            4010    5.47747E+005    5.46993E+005    5.46993E+005    3.98565E+004   -3.38917E+004    5.80885E+005   -1.84319E+005    5.36407E+005    1.51441E+005    3.62692E+005    3.88241E+004    2.68673E+005   -2.46463E+004   -1.35312E+004
            4011    5.20459E+005    5.00893E+005    5.00893E+005    8.79569E+003   -4.39169E+004    5.44809E+005   -1.55257E+005    5.14402E+005    1.41191E+005    3.20058E+005    4.52244E+003    2.53981E+005   -2.57985E+004   -9.03678E+003
            4012    4.97549E+005    4.74898E+005    4.74898E+005    3.87357E+003   -4.54947E+004    5.20393E+005   -1.44426E+005    4.91993E+005    1.50201E+005    2.84306E+005   -1.23050E+003    2.48092E+005   -2.32820E+004   -4.33226E+003
            4013    5.55589E+005    3.80103E+004   -5.51135E+005   -3.66537E+004   -5.51135E+005    5.89145E+005    1.83259E+005   -5.44130E+005   -1.97780E+004   -4.93323E+005   -3.66767E+004    1.75108E+005   -4.36872E+003    5.89067E+003
            4014    4.49123E+005    5.89353E+004   -4.16361E+005    9.58319E+002   -4.16361E+005    4.75296E+005    1.18822E+005   -4.40586E+005    6.75910E+003   -3.64110E+005    8.84247E+002    1.48502E+005   -3.78740E+003    6.05775E+003
            4015    3.74441E+005    6.70435E+004   -3.32685E+005    9.89877E+003   -3.32685E+005    3.99729E+005    8.52477E+004   -3.64437E+005    4.20352E+003   -2.69750E+005    9.80374E+003    1.45457E+005   -3.30945E+003    5.27723E+003
            4016    2.98684E+005    8.36138E+004   -2.43508E+005    1.46893E+004   -2.43508E+005    3.27122E+005    4.84016E+004   -2.79940E+005    1.50778E+004   -1.74846E+005    1.45633E+004    1.33091E+005   -2.32667E+003    5.25725E+003
            4017    5.37752E+005    3.65912E+004   -5.32953E+005   -3.39580E+004   -5.32953E+005    5.69544E+005    1.76773E+005   -5.27189E+005   -2.36159E+004   -4.72390E+005   -3.43141E+004    1.74400E+005   -1.13350E+004    1.66689E+004
            4018    4.40536E+005    5.91654E+004   -4.07145E+005    2.04301E+003   -4.07145E+005    4.66311E+005    1.15312E+005   -4.32086E+005    6.84738E+003   -3.54290E+005    1.50519E+003    1.46555E+005   -1.03648E+004    1.62863E+004
            4019    3.69035E+005    6.59727E+004   -3.27436E+005    1.10752E+004   -3.27436E+005    3.93408E+005    8.34626E+004   -3.59676E+005    2.44065E+003   -2.62959E+005    1.01300E+004    1.44507E+005   -8.67432E+003    1.60988E+004
            4020    2.96326E+005    8.30798E+004   -2.41581E+005    1.43186E+004   -2.41581E+005    3.24661E+005    4.80609E+004   -2.77511E+005    1.48867E+004   -1.72459E+005    1.33894E+004    1.31998E+005   -6.43858E+003    1.40721E+004
            4021    5.08038E+005    3.39066E+004   -5.02753E+005   -2.92395E+004   -5.02753E+005    5.36659E+005    1.66028E+005   -4.99094E+005   -3.09396E+004   -4.37518E+005   -2.96276E+004    1.73230E+005   -1.65962E+004    2.16753E+004
            4022    4.23867E+005    6.10387E+004   -3.87434E+005    6.55831E+003   -3.87434E+005    4.48473E+005    1.06612E+005   -4.15881E+005    7.94378E+003   -3.33046E+005    5.26526E+003    1.43309E+005   -1.63872E+004    2.50156E+004
            4023    3.57747E+005    6.38121E+004   -3.17681E+005    1.02888E+004   -3.17681E+005    3.81493E+005    8.11935E+004   -3.48569E+005   -9.83147E+002   -2.50762E+005    8.16456E+003    1.42548E+005   -1.40023E+004    2.36472E+004
            4024    2.91109E+005    8.31781E+004   -2.35696E+005    1.58508E+004   -2.35696E+005    3.18874E+005    4.55557E+004   -2.72754E+005    1.50950E+004   -1.65339E+005    1.35774E+004    1.30072E+005   -1.05972E+004    2.13445E+004
            4025    4.74791E+005    3.17090E+004   -4.64897E+005   -1.54395E+004   -4.64897E+005    4.96607E+005    1.49543E+005   -4.69481E+005   -3.91429E+004   -3.93393E+005   -1.60918E+004    1.71884E+005   -1.75113E+004    2.36939E+004
            4026    3.97841E+005    6.06039E+004   -3.61198E+005    7.30884E+003   -3.61198E+005    4.21802E+005    9.77619E+004   -3.89689E+005    6.18704E+003   -3.04901E+005    5.42855E+003    1.39244E+005   -1.93887E+004    2.85356E+004
            4027    3.42235E+005    6.24683E+004   -3.02648E+005    1.08408E+004   -3.02648E+005    3.65116E+005    7.64461E+004   -3.33305E+005   -5.35863E+003   -2.31640E+005    7.65998E+003    1.41047E+005   -1.64255E+004    2.77770E+004
            4028    2.84296E+005    8.15181E+004   -2.30751E+005    1.30795E+004   -2.30751E+005    3.12269E+005    4.53843E+004   -2.64794E+005    1.37368E+004   -1.59977E+005    1.00871E+004    1.27927E+005   -1.33785E+004    2.33505E+004
            4029    4.38965E+005    2.64496E+004   -4.26983E+005   -4.08024E+003   -4.26983E+005    4.53432E+005    1.34871E+005   -4.36566E+005   -5.27366E+004   -3.46895E+005   -4.98150E+003    1.70587E+005   -1.68984E+004    2.36361E+004
            4030    3.70626E+005    6.25061E+004   -3.31100E+005    1.11994E+004   -3.31100E+005    3.93606E+005    8.57980E+004   -3.62507E+005    4.85200E+003   -2.71455E+005    9.20862E+003    1.37037E+005   -1.98290E+004    2.75589E+004
            4031    3.26710E+005    5.95069E+004   -2.90783E+005    5.65771E+003   -2.90783E+005    3.50290E+005    7.52060E+004   -3.16495E+005   -1.26006E+004   -2.15878E+005    2.86053E+003    1.40288E+005   -1.88234E+004    2.53685E+004
            4032    2.75136E+005    8.14207E+004   -2.21073E+005    1.42756E+004   -2.21073E+005    3.02493E+005    4.17921E+004   -2.55708E+005    1.18965E+004   -1.48472E+005    1.11988E+004    1.26275E+005   -1.56931E+004    2.24948E+004
            4033    4.15956E+005    2.41318E+004   -4.00020E+005    7.22453E+003   -4.00020E+005    4.24151E+005    1.22888E+005   -4.15181E+005   -6.97673E+004   -3.06928E+005    8.03229E+003    1.73607E+005   -6.20872E+003    2.40574E+004
            4034    3.47034E+005    5.92912E+004   -3.12949E+005    1.66241E+003   -3.12949E+005    3.72241E+005    8.39986E+004   -3.36015E+005   -4.39582E+003   -2.48421E+005    8.20563E+002    1.38942E+005   -1.54429E+004    1.78369E+004
            4035    3.14515E+005    5.90280E+004   -2.79048E+005    4.87181E+003   -2.79048E+005    3.38076E+005    7.17161E+004   -3.03758E+005   -2.04930E+004   -1.98247E+005    3.59205E+003    1.42436E+005   -1.54812E+004    1.71154E+004
            4036    2.72519E+005    7.89515E+004   -2.22505E+005    6.38676E+003   -2.22505E+005    3.01457E+005    4.57224E+004   -2.49357E+005    5.77368E+003   -1.48347E+005    5.40602E+003    1.28304E+005   -1.48519E+004    1.31955E+004
            4037    4.03144E+005    1.30637E+004   -4.02567E+005   -1.31912E+004   -4.02567E+005    4.15630E+005    1.34231E+005   -4.01214E+005   -1.11563E+005   -2.79553E+005   -1.15781E+004    1.88300E+005   -3.37303E+003    1.92095E+004
            4038    3.44935E+005    5.08142E+004   -3.09590E+005    1.74524E+004   -3.09590E+005    3.60404E+005    8.04410E+004   -3.41277E+005   -2.46774E+004   -2.34458E+005    1.78126E+004    1.46111E+005   -6.98180E+003    4.55168E+003
            4039    3.24711E+005    4.60101E+004   -2.98120E+005    2.85665E+003   -2.98120E+005    3.44130E+005    8.30843E+004   -3.18164E+005   -4.71292E+004   -2.05113E+005    2.98893E+003    1.52243E+005   -1.06348E+004    7.64340E+003
            4040    2.75477E+005    7.49627E+004   -2.26379E+005    1.25112E+004   -2.26379E+005    3.01341E+005    4.63015E+004   -2.58821E+005   -1.06821E+004   -1.40217E+005    1.19946E+004    1.35295E+005   -1.22268E+004    9.89221E+003
            4041    2.90077E+005    6.28046E+004   -2.51048E+005    7.20536E+003   -2.51048E+005    3.13852E+005    6.03459E+004   -2.77706E+005   -5.00147E+004   -1.40911E+005    9.88778E+003    1.48532E+005   -1.48486E+004   -8.49519E+002
            4042    3.27929E+005    4.61220E+004   -2.91045E+005    2.67915E+004   -2.91045E+005    3.37167E+005    7.27105E+004   -3.26644E+005   -5.92718E+004   -1.85923E+005    2.70634E+004    1.54797E+005   -1.51427E+004    1.33458E+004
            4043    3.94644E+005    2.03977E+004   -3.76036E+005    1.67924E+004   -3.76036E+005    3.96434E+005    1.12949E+005   -3.94607E+005   -8.77128E+004   -2.68792E+005    1.76586E+004    1.75270E+005   -8.86553E+003    1.11887E+004
            4044    3.85945E+005    3.28404E+004   -3.66032E+005    5.53440E+003   -3.66032E+005    3.98873E+005    1.09219E+005   -3.83763E+005   -8.19391E+004   -2.77729E+005    3.20103E+004    1.58387E+005    3.99082E+003    2.46838E+003
            4045    7.19386E+005    7.17518E+003   -7.72896E+005   -1.35609E+005   -7.72896E+005    7.80071E+005    3.00443E+005   -6.86411E+005   -1.06047E+005   -6.59640E+005   -1.35643E+005    2.74760E+005   -2.83036E+003    4.34207E+003
            4046    6.79979E+005    1.04866E+004   -7.24707E+005   -1.18387E+005   -7.24707E+005    7.35193E+005    2.77536E+005   -6.51647E+005   -9.71917E+004   -6.16882E+005   -1.18532E+005    2.59768E+005   -8.02888E+003    9.93276E+003
            4047    6.16502E+005    1.42671E+004   -6.47605E+005   -8.96930E+004   -6.47605E+005    6.61873E+005    2.41010E+005   -5.96301E+005   -8.52685E+004   -5.47973E+005   -8.97903E+004    2.36205E+005   -1.02049E+004    1.09561E+004
            4048    5.40566E+005    1.57555E+004   -5.57791E+005   -5.77238E+004   -5.57791E+005    5.73547E+005    1.99920E+005   -5.29155E+005   -7.42423E+004   -4.68599E+005   -5.69180E+004    2.07307E+005   -1.26532E+004    7.14122E+003
            4049    4.70513E+005    1.97731E+004   -4.68005E+005   -1.69029E+004   -4.68005E+005    4.87778E+005    1.55045E+005   -4.67281E+005   -6.39489E+004   -3.87961E+005   -1.32251E+004    1.79533E+005   -1.44752E+004    4.70410E+003
            4050    3.98153E+005    3.69661E+004   -3.77158E+005    2.82404E+003   -3.77158E+005    4.14124E+005    1.12456E+005   -3.94839E+005   -5.17634E+004   -3.09130E+005    2.35258E+004    1.48521E+005   -1.88199E+004    1.15147E+003
            4051    3.60953E+005    8.22268E+004   -3.05805E+005    1.99713E+004   -3.05805E+005    3.88031E+005    6.78689E+004   -3.48566E+005   -3.04158E+004   -2.54144E+005    8.09531E+004    1.19096E+005   -1.05019E+004    3.22953E+003
            4052    2.53954E+005    8.45155E+004   -1.99338E+005    6.33160E+003   -1.99338E+005    2.83853E+005    3.61635E+004   -2.24381E+005   -2.73568E+004   -9.04024E+004    9.26880E+003    1.36859E+005   -1.27641E+004   -7.89497E+003
            4053    2.31881E+005    1.01982E+005   -1.64103E+005   -5.21083E+003   -1.64103E+005    2.66084E+005    2.24440E+004   -1.60060E+005   -1.65809E+004   -4.79872E+004   -2.76387E+003    1.30389E+005   -7.23763E+003   -1.82233E+004
            4054    2.22149E+005    1.28921E+005    1.28921E+005    3.38430E+003   -1.27576E+005    2.56497E+005   -1.57626E+003   -7.37692E+004    1.70306E+003   -4.48446E+002    3.47416E+003    1.26680E+005   -1.52561E+002   -1.99599E+004
            4055    2.32072E+005    1.61044E+005    1.61044E+005   -1.35347E+003   -1.04756E+005    2.65800E+005   -1.83118E+004    1.67071E+005    1.31664E+004    4.55410E+004   -3.77197E+003    1.30239E+005    7.05548E+003   -1.76846E+004
            4056    2.55107E+005    2.03715E+005    2.03715E+005    6.06223E+002   -8.26084E+004    2.86324E+005   -4.05711E+004    2.21330E+005    3.24440E+004    9.20461E+004   -2.77694E+003    1.38294E+005    1.24272E+004   -1.07752E+004
            4057    2.90310E+005    2.46385E+005    2.46385E+005   -1.60045E+004   -6.54859E+004    3.11871E+005   -5.49649E+004    2.80587E+005    4.67823E+004    1.36651E+005   -1.85389E+004    1.47631E+005    1.50567E+004    8.33904E+002
            4058    3.33935E+005    3.01803E+005    3.01803E+005   -1.90952E+004   -4.37969E+004    3.45600E+005   -7.96370E+004    3.31870E+005    6.76323E+004    1.92854E+005   -2.15753E+004    1.59225E+005    1.35438E+004    5.64741E+003
            4059    3.67017E+005    3.38589E+005    3.38589E+005   -2.27398E+004   -3.38621E+004    3.72451E+005   -9.39958E+004    3.66637E+005    7.84822E+004    2.35985E+005   -3.24795E+004    1.63065E+005    8.14750E+003    6.70217E+003
            4060    3.69092E+005    3.33333E+005    3.33333E+005   -2.28092E+004   -4.74723E+004    3.80805E+005   -8.76838E+004    3.67231E+005    5.55189E+004    2.48008E+005   -4.04760E+004    1.53961E+005    1.00269E+004   -4.84182E+003
            4061    2.45685E+005    8.29708E+004   -1.93792E+005   -1.44083E+003   -1.93792E+005    2.76763E+005    3.74209E+004   -2.09114E+005   -1.75497E+004   -9.36522E+004   -1.06068E+003    1.32613E+005   -9.68380E+003    9.89832E+002
            4062    2.43421E+005    8.76828E+004   -1.85882E+005    6.80466E+003   -1.85882E+005    2.73565E+005    3.04650E+004   -2.09832E+005   -5.64018E+003   -9.09604E+004    5.20560E+003    1.29109E+005   -1.09440E+004    1.37158E+004
            4063    2.48126E+005    8.81519E+004   -1.90814E+005    5.23635E+003   -1.90814E+005    2.78966E+005    3.24752E+004   -2.13442E+005   -4.05820E+003   -9.62892E+004    2.92183E+003    1.30359E+005   -1.06871E+004    1.86547E+004
            4064    2.53813E+005    9.32264E+004   -1.92084E+005    8.61924E+003   -1.92084E+005    2.85310E+005    3.00794E+004   -2.18531E+005   -1.33056E+003   -9.52746E+004    6.36708E+003    1.33097E+005   -8.53443E+003    2.19845E+004
            4065    2.58823E+005    9.51280E+004   -1.96227E+005    7.10412E+003   -1.96227E+005    2.91355E+005    3.13315E+004   -2.21178E+005   -9.30252E+002   -9.86538E+004    5.58955E+003    1.36099E+005   -6.73859E+003    1.87516E+004
            4066    2.62694E+005    9.79983E+004   -1.97870E+005    7.98148E+003   -1.97870E+005    2.95868E+005    3.06301E+004   -2.23825E+005    5.16648E+001   -9.93148E+004    7.37293E+003    1.38778E+005   -3.84464E+003    1.32984E+004
            4067    2.64384E+005    9.87637E+004   -1.99241E+005    7.15202E+003   -1.99241E+005    2.98005E+005    3.11084E+004   -2.24259E+005    2.13753E+002   -1.00610E+005    7.07103E+003    1.40155E+005   -1.58395E+003    4.35161E+003
            4068    2.21804E+005    1.06213E+005   -1.48202E+005    4.54291E+003   -1.48202E+005    2.54414E+005    1.24819E+004   -1.54702E+005    2.86364E+002   -4.24890E+004    4.75686E+003    1.25240E+005   -5.65200E+003   -1.27406E+003
            4069    2.19181E+005    1.06166E+005   -1.45737E+005    1.40030E+003   -1.45737E+005    2.51903E+005    1.27235E+004   -1.44469E+005    4.00317E+003   -4.28606E+004    6.86942E+002    1.23368E+005   -5.45787E+003    8.94764E+003
            4070    2.22440E+005    1.11451E+005   -1.44001E+005    6.91434E+003   -1.44001E+005    2.55452E+005    8.54528E+003   -1.50256E+005    6.52439E+003   -3.77456E+004    5.58542E+003    1.24449E+005   -4.69628E+003    1.85454E+004
            4071    2.26478E+005    1.14446E+005   -1.46085E+005    3.80469E+003   -1.46085E+005    2.60531E+005    9.27813E+003   -1.44056E+005    6.15880E+003   -3.67365E+004    2.74331E+003    1.27054E+005   -3.42141E+003    1.93552E+004
            4072    2.29821E+005    1.19717E+005   -1.44856E+005    5.28135E+003   -1.44856E+005    2.64572E+005    6.61929E+003   -1.41043E+005    6.72136E+003   -3.12310E+004    4.65178E+003    1.29627E+005   -2.14335E+003    1.85112E+004
            4073    2.31777E+005    1.21340E+005   -1.45673E+005    3.59308E+003   -1.45673E+005    2.67013E+005    6.91327E+003   -1.36157E+005    6.05261E+003   -3.01480E+004    3.35555E+003    1.31743E+005   -1.22285E+003    1.19267E+004
            4074    2.32588E+005    1.23265E+005   -1.44767E+005    3.94959E+003   -1.44767E+005    2.68032E+005    5.85084E+003   -1.33384E+005    6.14076E+003   -2.76192E+004    3.92592E+003    1.32864E+005   -2.93977E+002    4.76676E+003
            4075    2.17839E+005    1.24668E+005   -1.26859E+005   -3.12821E+003   -1.26859E+005    2.51527E+005    1.77319E+003    6.61393E+004   -2.98683E+003    8.36199E+002   -3.16893E+003    1.25639E+005    4.84601E+002   -5.23934E+003
            4076    2.18388E+005    1.28811E+005    1.28811E+005    1.39940E+003   -1.23356E+005    2.52168E+005   -2.28470E+003    5.74883E+004   -2.11693E+003    7.38227E+003    1.58877E+003    1.25626E+005    1.11276E+003    9.57676E+003
            4077    2.23916E+005    1.33518E+005    1.33518E+005   -3.55429E+003   -1.24878E+005    2.58396E+005   -1.69504E+003    1.05744E+005   -3.99364E+003    1.21672E+004   -3.08848E+003    1.27888E+005    1.79079E+003    1.64889E+004
            4078    2.31482E+005    1.42930E+005    1.42930E+005   -1.66278E+003   -1.24055E+005    2.66985E+005   -5.73726E+003    1.21166E+005   -3.81781E+003    2.19506E+004   -9.20981E+002    1.31276E+005    2.22521E+003    2.05833E+004
            4079    2.37607E+005    1.48689E+005    1.48689E+005   -4.34248E+003   -1.25040E+005    2.73729E+005   -6.43539E+003    1.39613E+005   -5.02759E+003    2.81459E+004   -3.81214E+003    1.34728E+005    2.01670E+003    1.75898E+004
            4080    2.42450E+005    1.54812E+005    1.54812E+005   -3.41419E+003   -1.24315E+005    2.79127E+005   -9.02731E+003    1.48353E+005   -4.92965E+003    3.51357E+004   -3.12413E+003    1.37535E+005    1.51742E+003    1.28031E+004
            4081    2.44778E+005    1.57268E+005    1.57268E+005   -4.18313E+003   -1.24372E+005    2.81640E+005   -9.57065E+003    1.54294E+005   -5.37394E+003    3.82444E+004   -4.15850E+003    1.39064E+005    4.18167E+002    4.00510E+003
            4082    2.23753E+005    1.56349E+005    1.56349E+005    2.40836E+003   -1.00321E+005    2.56670E+005   -1.94786E+004    1.55757E+005    7.67849E+003    4.86843E+004    2.07301E+003    1.26491E+005    5.91915E+003   -2.42512E+003
            4083    2.23973E+005    1.56162E+005    1.56162E+005   -5.11230E+003   -9.95655E+004    2.55728E+005   -1.71614E+004    1.69605E+005    1.05330E+003    5.46643E+004   -4.23338E+003    1.24571E+005    7.16016E+003    9.49349E+003
            4084    2.30790E+005    1.65962E+005    1.65962E+005   -4.10729E+003   -9.67569E+004    2.62719E+005   -2.16992E+004    1.81242E+005    1.49751E+001    6.71541E+004   -2.07151E+003    1.25654E+005    7.95906E+003    1.87526E+004
            4085    2.39903E+005    1.74589E+005    1.74589E+005   -8.52878E+003   -9.69820E+004    2.71571E+005   -2.30261E+004    1.97880E+005   -2.59240E+003    7.81659E+004   -6.49524E+003    1.28145E+005    7.55946E+003    2.05463E+004
            4086    2.48603E+005    1.85368E+005    1.85368E+005   -7.47894E+003   -9.52052E+004    2.80573E+005   -2.75613E+004    2.09268E+005   -3.09961E+003    9.16087E+004   -5.82528E+003    1.30748E+005    6.51513E+003    1.96312E+004
            4087    2.54748E+005    1.91653E+005    1.91653E+005   -8.93197E+003   -9.49751E+004    2.86628E+005   -2.92486E+004    2.18269E+005   -4.29048E+003    1.00297E+005   -8.26050E+003    1.32899E+005    4.18473E+003    1.27549E+004
            4088    2.58183E+005    1.96057E+005    1.96057E+005   -8.18429E+003   -9.41402E+004    2.90197E+005   -3.12441E+004    2.22395E+005   -4.48477E+003    1.06304E+005   -8.08705E+003    1.34031E+005    1.58530E+003    4.90013E+003
            4089    2.48700E+005    1.92929E+005    1.92929E+005   -6.04857E+003   -8.58856E+004    2.78814E+005   -3.36649E+004    2.16927E+005    1.20192E+004    9.53838E+004   -6.40841E+003    1.32525E+005    1.04216E+004    1.96426E+003
            4090    2.50402E+005    1.95888E+005    1.95888E+005   -3.96777E+003   -8.49946E+004    2.80882E+005   -3.56418E+004    2.17838E+005    2.36950E+003    1.07150E+005   -2.59382E+003    1.29415E+005    1.24404E+004    1.24940E+004
            4091    2.61069E+005    2.04463E+005    2.04463E+005   -1.12933E+004   -8.57452E+004    2.90208E+005   -3.58080E+004    2.35348E+005   -3.52743E+003    1.19543E+005   -8.59133E+003    1.29905E+005    1.36159E+004    1.98334E+004
            4092    2.75687E+005    2.20723E+005    2.20723E+005   -1.04390E+004   -8.44006E+004    3.05123E+005   -4.19610E+004    2.51875E+005   -5.24591E+003    1.38492E+005   -7.36350E+003    1.32797E+005    1.24107E+004    2.35671E+004
            4093    2.90040E+005    2.34161E+005    2.34161E+005   -1.34300E+004   -8.49484E+004    3.19109E+005   -4.52607E+004    2.69107E+005   -7.87585E+003    1.54994E+005   -1.13361E+004    1.35968E+005    1.02416E+004    2.03659E+004
            4094    3.00586E+005    2.45835E+005    2.45835E+005   -1.15505E+004   -8.45178E+004    3.30353E+005   -4.99222E+004    2.79599E+005   -8.42187E+003    1.68801E+005   -1.06125E+004    1.38817E+005    6.49308E+003    1.43065E+004
            4095    3.06892E+005    2.51990E+005    2.51990E+005   -1.19888E+004   -8.47400E+004    3.36730E+005   -5.17538E+004    2.86510E+005   -9.25740E+003    1.76406E+005   -1.18874E+004    1.40398E+005    2.22450E+003    4.70534E+003
            4096    2.81953E+005    2.40344E+005    2.40344E+005   -5.68160E+003   -6.73335E+004    3.07678E+005   -5.57764E+004    2.66146E+005    2.42561E+004    1.48877E+005   -5.80355E+003    1.40010E+005    1.14968E+004    6.12754E+003
            4097    2.81964E+005    2.35177E+005    2.35177E+005   -8.86898E+003   -7.34873E+004    3.08664E+005   -5.09403E+004    2.64524E+005    3.66328E+003    1.57082E+005   -7.92448E+003    1.32683E+005    1.50522E+004    1.36705E+004
            4098    2.94782E+005    2.49603E+005    2.49603E+005   -9.81241E+003   -7.09547E+004    3.20558E+005   -5.62787E+004    2.79977E+005   -8.47123E+002    1.76530E+005   -6.84679E+003    1.31322E+005    1.76271E+004    2.35577E+004
            4099    3.14278E+005    2.67480E+005    2.67480E+005   -1.41490E+004   -7.15376E+004    3.39017E+005   -6.05978E+004    3.02150E+005   -6.07364E+003    1.99172E+005   -1.13051E+004    1.32851E+005    1.60397E+004    2.46574E+004
            4100    3.31017E+005    2.86028E+005    2.86028E+005   -1.19808E+004   -7.02586E+004    3.56286E+005   -6.79294E+004    3.19168E+005   -7.69879E+003    2.21265E+005   -9.77795E+003    1.34857E+005    1.37056E+004    2.26912E+004
            4101    3.45326E+005    3.00173E+005    3.00173E+005   -1.28445E+004   -7.02627E+004    3.70436E+005   -7.23554E+004    3.34333E+005   -9.48512E+003    2.38467E+005   -1.19161E+004    1.36916E+005    8.60602E+003    1.52839E+004
            4102    3.52513E+005    3.08270E+005    3.08270E+005   -1.13696E+004   -6.98131E+004    3.78083E+005   -7.56956E+004    3.41358E+005   -9.95754E+003    2.48308E+005   -1.12636E+004    1.37974E+005    3.20601E+003    5.29960E+003
            4103    3.19031E+005    2.85464E+005    2.85464E+005   -1.23088E+004   -5.12508E+004    3.36715E+005   -7.39681E+004    3.13617E+005    3.93659E+004    1.95097E+005   -1.25590E+004    1.48578E+005    1.07789E+004    7.55773E+003
            4104    3.22245E+005    2.87981E+005    2.87981E+005   -3.98553E+003   -5.77735E+004    3.45754E+005   -7.54072E+004    3.11905E+005    1.90448E+004    2.09919E+005   -2.74185E+003    1.42665E+005    1.59864E+004    1.77885E+004
            4105    3.43728E+005    3.04984E+005    3.04984E+005   -1.09061E+004   -6.10701E+004    3.66054E+005   -7.76691E+004    3.35344E+005    7.01242E+003    2.35122E+005   -9.12668E+003    1.40504E+005    1.99388E+004    2.41992E+004
            4106    3.67309E+005    3.30898E+005    3.30898E+005   -6.52748E+003   -6.03546E+004    3.91252E+005   -8.80052E+004    3.58274E+005    2.98568E+003    2.65240E+005   -4.20992E+003    1.42683E+005    1.82785E+004    2.65942E+004
            4107    3.94577E+005    3.56368E+005    3.56368E+005   -7.95929E+003   -6.27356E+004    4.19103E+005   -9.52242E+004    3.85884E+005   -2.78972E+003    2.94922E+005   -6.45928E+003    1.45576E+005    1.56713E+004    2.33739E+004
            4108    4.13671E+005    3.77272E+005    3.77272E+005   -3.70490E+003   -6.27485E+004    4.40020E+005   -1.03606E+005    4.04028E+005   -4.44837E+003    3.18303E+005   -3.03653E+003    1.48740E+005    9.91782E+003    1.57392E+004
            4109    4.27215E+005    3.90618E+005    3.90618E+005   -3.41715E+003   -6.34304E+004    4.54048E+005   -1.07923E+005    4.17573E+005   -6.11146E+003    3.33209E+005   -3.32744E+003    1.50742E+005    3.56894E+003    5.86877E+003
            4110    3.53235E+005    3.26231E+005    3.26231E+005   -1.19730E+004   -4.03259E+004    3.66557E+005   -9.13108E+004    3.50661E+005    5.05623E+004    2.35007E+005   -1.16370E+004    1.57975E+005    8.60642E+003    1.03813E+004
            4111    3.65057E+005    3.33814E+005    3.33814E+005   -9.70997E+003   -4.95147E+004    3.83328E+005   -9.15297E+004    3.60126E+005    2.39807E+004    2.59716E+005   -9.10781E+003    1.49888E+005    1.38253E+004    1.66150E+004
            4112    3.87497E+005    3.59250E+005    3.59250E+005   -1.48443E+003   -5.03694E+004    4.09620E+005   -1.02465E+005    3.80467E+005    1.67919E+004    2.91091E+005   -4.86564E+002    1.49586E+005    1.91431E+004    2.34417E+004
            4113    4.20388E+005    3.92212E+005    3.92212E+005   -3.58973E+002   -5.13429E+004    4.43555E+005   -1.13503E+005    4.13347E+005    9.77032E+003    3.29986E+005    7.53452E+002    1.50665E+005    1.91739E+004    2.59248E+004
            4114    4.49361E+005    4.26076E+005    4.26076E+005    8.22818E+003   -4.92648E+004    4.75340E+005   -1.28346E+005    4.40972E+005    9.32721E+003    3.66616E+005    9.09573E+003    1.54543E+005    1.69280E+004    2.36404E+004
            4115    4.75794E+005    4.54166E+005    4.54166E+005    1.03032E+004   -4.81582E+004    5.02324E+005   -1.38770E+005    4.67612E+005    8.20836E+003    3.97228E+005    1.08748E+004    1.57853E+005    1.12339E+004    1.77287E+004
            4116    4.90835E+005    4.72162E+005    4.72162E+005    1.48397E+004   -4.64327E+004    5.18595E+005   -1.46856E+005    4.82119E+005    9.34716E+003    4.16354E+005    1.48680E+004    1.60555E+005    4.15426E+003    5.65710E+003
            4117    3.97655E+005    3.84106E+005    3.84106E+005   -4.32086E+003   -2.21750E+004    4.06281E+005   -1.19204E+005    3.96752E+005    1.01464E+005    2.77734E+005   -2.15872E+004    1.72734E+005    8.04071E+003    1.31836E+004
            4118    4.03030E+005    3.87792E+005    3.87792E+005   -1.38298E+003   -2.77932E+004    4.15586E+005   -1.19539E+005    4.01076E+005    5.84404E+004    3.01201E+005   -1.02475E+003    1.67622E+005    1.27146E+004    1.58353E+004
            4119    4.40177E+005    4.29707E+005    4.29707E+005    6.29765E+003   -2.55123E+004    4.55219E+005   -1.36831E+005    4.37580E+005    5.38700E+004    3.50416E+005    6.20624E+003    1.71009E+005    1.52320E+004    1.80869E+004
            4120    4.76762E+005    4.69477E+005    4.69477E+005    2.63549E+004   -3.49869E+004    5.04464E+005   -1.53615E+005    4.67760E+005    3.60724E+004    3.98302E+005    2.64703E+004    1.73563E+005    1.76866E+004    2.00881E+004
            4121    5.23951E+005    5.20997E+005    5.20997E+005    3.53675E+004   -3.43047E+004    5.55302E+005   -1.74020E+005    5.13374E+005    3.24971E+004    4.53617E+005    3.59454E+004    1.79295E+005    1.59604E+004    2.17460E+004
            4122    5.63579E+005    5.63215E+005    5.63215E+005    4.68224E+004   -3.79476E+004    6.01162E+005   -1.90697E+005    5.48961E+005    2.56301E+004    4.99410E+005    4.70494E+004    1.84127E+005    1.17294E+004    1.55200E+004
            4123    5.89068E+005    5.90494E+005    5.90494E+005    5.06288E+004   -3.77829E+004    6.28277E+005   -2.01113E+005    5.73856E+005    2.44733E+004    5.28149E+005    5.07174E+004    1.87658E+005    3.97104E+003    7.02446E+003
            4124    7.30225E+005    7.93581E+005    7.93581E+005    1.42486E+005    4.04573E+003    7.89536E+005   -3.13371E+005    6.99780E+005    1.29964E+005    6.67639E+005    1.42511E+005    2.89049E+005    3.06588E+003    3.92416E+003
            4125    6.89049E+005    7.41941E+005    7.41941E+005    1.21728E+005    2.19945E+002    7.41721E+005   -2.87963E+005    6.64301E+005    1.20231E+005    6.21617E+005    1.22041E+005    2.73060E+005    7.10992E+003    1.25194E+004
            4126    6.21960E+005    6.60716E+005    6.60716E+005    9.24481E+004   -3.73094E+003    6.64447E+005   -2.49811E+005    6.04889E+005    1.07962E+005    5.48744E+005    9.27268E+004    2.48255E+005    9.18676E+003    1.22887E+004
            4127    5.53106E+005    5.75142E+005    5.75142E+005    5.53752E+004   -6.15714E+003    5.81299E+005   -2.08120E+005    5.45326E+005    9.81918E+004    4.70451E+005    5.57169E+004    2.22851E+005    9.05564E+003    1.28979E+004
            4128    4.85465E+005    4.95037E+005    4.95037E+005    2.96524E+004   -8.28204E+003    5.03319E+005   -1.72136E+005    4.82114E+005    9.20951E+004    3.95169E+005    2.91436E+004    2.00330E+005    9.12630E+003    6.67889E+003
            4129    4.44479E+005    4.33668E+005    4.33668E+005   -5.00146E+003   -1.64021E+004    4.50070E+005   -1.37421E+005    4.44150E+005    8.63847E+004    3.36825E+005   -1.09454E+004    1.83155E+005    9.36088E+003    5.55855E+003
            4130    3.92331E+005    3.69567E+005    3.69567E+005   -1.41547E+004   -3.08414E+004    4.00408E+005   -1.08190E+005    3.91531E+005    6.91257E+004    2.78657E+005   -2.32124E+004    1.65123E+005    1.06000E+004    2.04635E+003
            4131    3.84871E+005    3.31456E+004   -3.64734E+005    5.65472E+003   -3.64734E+005    3.97880E+005    1.08645E+005   -3.82653E+005   -8.17607E+004   -2.76511E+005    3.23376E+004    1.58003E+005   -4.05348E+003   -2.26466E+003
            4132    3.96189E+005    1.99457E+004   -3.77708E+005    1.70010E+004   -3.77708E+005    3.97654E+005    1.13587E+005   -3.96165E+005   -8.77706E+004   -2.70728E+005    1.77377E+004    1.75562E+005    8.48423E+003   -1.11858E+004
            4133    3.29162E+005    4.57407E+004   -2.92587E+005    2.65718E+004   -2.92587E+005    3.38327E+005    7.34247E+004   -3.27903E+005   -5.96969E+004   -1.87380E+005    2.68031E+004    1.55211E+005    1.52060E+004   -1.35699E+004
            4134    2.90218E+005    6.28064E+004   -2.51166E+005    7.27354E+003   -2.51166E+005    3.13972E+005    6.03619E+004   -2.77885E+005   -4.98278E+004   -1.41154E+005    9.89583E+003    1.48547E+005    1.48877E+004    6.14826E+002
            4135    2.75879E+005    7.47058E+004   -2.27065E+005    1.21959E+004   -2.27065E+005    3.01770E+005    4.67210E+004   -2.59217E+005   -1.07518E+004   -1.41069E+005    1.16576E+004    1.35335E+005    1.23040E+004   -1.00558E+004
            4136    2.73256E+005    7.88090E+004   -2.23343E+005    6.45377E+003   -2.23343E+005    3.02152E+005    4.60266E+004   -2.50307E+005    5.80049E+003   -1.49302E+005    5.42172E+003    1.28395E+005    1.49247E+004   -1.34955E+004
            4137    2.75650E+005    8.12400E+004   -2.21729E+005    1.42538E+004   -2.21729E+005    3.02969E+005    4.20786E+004   -2.56360E+005    1.18194E+004   -1.49180E+005    1.11247E+004    1.26337E+005    1.56813E+004   -2.27515E+004
            4138    2.84524E+005    8.16469E+004   -2.30880E+005    1.31298E+004   -2.30880E+005    3.12526E+005    4.53676E+004   -2.64991E+005    1.38198E+004   -1.60077E+005    1.01545E+004    1.28034E+005    1.32422E+004   -2.33349E+004
            4139    2.91403E+005    8.32302E+004   -2.35948E+005    1.58880E+004   -2.35948E+005    3.19179E+005    4.56101E+004   -2.73060E+005    1.53335E+004   -1.65812E+005    1.36483E+004    1.30031E+005    1.05237E+004   -2.11979E+004
            4140    2.96900E+005    8.30580E+004   -2.42158E+005    1.43918E+004   -2.42158E+005    3.25217E+005    4.82362E+004   -2.78180E+005    1.50508E+004   -1.73253E+005    1.34939E+004    1.32018E+005    6.35919E+003   -1.38309E+004
            4141    2.98813E+005    8.35826E+004   -2.43676E+005    1.46396E+004   -2.43676E+005    3.27259E+005    4.84846E+004   -2.80067E+005    1.51174E+004   -1.75088E+005    1.45169E+004    1.33076E+005    2.26772E+003   -5.21460E+003
            4142    3.25212E+005    4.60563E+004   -2.98602E+005    2.84237E+003   -2.98602E+005    3.44658E+005    8.32343E+004   -3.18656E+005   -4.65481E+004   -2.06109E+005    2.95432E+003    1.52140E+005    1.05692E+004   -7.72891E+003
            4143    3.15442E+005    5.90224E+004   -2.80026E+005    4.77168E+003   -2.80026E+005    3.39049E+005    7.20774E+004   -3.04680E+005   -1.99168E+004   -1.99724E+005    3.40808E+003    1.42317E+005    1.56963E+004   -1.76368E+004
            4144    3.28436E+005    5.95201E+004   -2.92414E+005    5.93358E+003   -2.92414E+005    3.51934E+005    7.56534E+004   -3.18377E+005   -1.21491E+004   -2.17929E+005    3.11783E+003    1.40377E+005    1.88539E+004   -2.56015E+004
            4145    3.43067E+005    6.24770E+004   -3.03517E+005    1.07481E+004   -3.03517E+005    3.65994E+005    7.67641E+004   -3.34124E+005   -5.19490E+003   -2.32694E+005    7.59658E+003    1.41133E+005    1.64015E+004   -2.77063E+004
            4146    3.58113E+005    6.38279E+004   -3.18091E+005    1.01567E+004   -3.18091E+005    3.81919E+005    8.13689E+004   -3.48892E+005   -1.02340E+003   -2.51138E+005    8.05450E+003    1.42708E+005    1.38745E+004   -2.35249E+004
            4147    3.69375E+005    6.59358E+004   -3.27827E+005    1.10089E+004   -3.27827E+005    3.93763E+005    8.36274E+004   -3.60015E+005    2.45921E+003   -2.63420E+005    1.00789E+004    1.44541E+005    8.55526E+003   -1.59778E+004
            4148    3.74903E+005    6.69373E+004   -3.33178E+005    9.99809E+003   -3.33178E+005    4.00116E+005    8.54143E+004   -3.64985E+005    4.11659E+003   -2.70268E+005    9.90807E+003    1.45524E+005    3.24805E+003   -5.15263E+003
            4149    3.44620E+005    5.10837E+004   -3.09222E+005    1.72118E+004   -3.09222E+005    3.60306E+005    8.03088E+004   -3.40845E+005   -2.43532E+004   -2.34113E+005    1.75395E+004    1.46063E+005    7.05330E+003   -4.80162E+003
            4150    3.49129E+005    5.90461E+004   -3.15145E+005    1.86330E+003   -3.15145E+005    3.74191E+005    8.47450E+004   -3.38352E+005   -4.53291E+003   -2.50690E+005    9.88275E+002    1.39270E+005    1.55647E+004   -1.81894E+004
            4151    3.72484E+005    6.21348E+004   -3.33302E+005    1.09323E+004   -3.33302E+005    3.95436E+005    8.67448E+004   -3.64440E+005    4.54165E+003   -2.73689E+005    8.91335E+003    1.37351E+005    1.98603E+004   -2.77905E+004
            4152    3.99314E+005    6.07345E+004   -3.62655E+005    7.17706E+003   -3.62655E+005    4.23389E+005    9.82478E+004   -3.91111E+005    6.54991E+003   -3.06618E+005    5.32437E+003    1.39315E+005    1.92522E+004   -2.84116E+004
            4153    4.23872E+005    6.11168E+004   -3.87385E+005    6.57885E+003   -3.87385E+005    4.48501E+005    1.06563E+005   -4.15869E+005    8.10712E+003   -3.33077E+005    5.28096E+003    1.43233E+005    1.63108E+004   -2.49781E+004
            4154    4.41211E+005    5.92931E+004   -4.07770E+005    1.98885E+003   -4.07770E+005    4.67063E+005    1.15496E+005   -4.32720E+005    7.02658E+003   -3.54962E+005    1.44770E+003    1.46626E+005    1.03662E+004   -1.63236E+004
            4155    4.49617E+005    5.88450E+004   -4.16977E+005    7.94162E+002   -4.16977E+005    4.75822E+005    1.19113E+005   -4.41067E+005    6.67955E+003   -3.64741E+005    7.22921E+002    1.48586E+005    3.67584E+003   -5.91324E+003
            4156    4.04643E+005    1.26983E+004   -4.04227E+005   -1.31004E+004   -4.04227E+005    4.16925E+005    1.34876E+005   -4.02787E+005   -1.12454E+005   -2.80908E+005   -1.12674E+004    1.88778E+005    3.23948E+003   -1.94288E+004
            4157    4.16194E+005    2.42163E+004   -4.00162E+005    7.33228E+003   -4.00162E+005    4.24379E+005    1.22871E+005   -4.15422E+005   -6.88278E+004   -3.07653E+005    7.86667E+003    1.73382E+005    6.34232E+003   -2.36425E+004
            4158    4.40711E+005    2.63657E+004   -4.29070E+005   -4.73209E+003   -4.29070E+005    4.55436E+005    1.35812E+005   -4.38232E+005   -5.28263E+004   -3.49132E+005   -5.47842E+003    1.70947E+005    1.70275E+004   -2.32354E+004
            4159    4.75749E+005    3.17963E+004   -4.66173E+005   -1.62975E+004   -4.66173E+005    4.97970E+005    1.50225E+005   -4.70234E+005   -3.91788E+004   -3.94549E+005   -1.69469E+004    1.72282E+005    1.75963E+004   -2.36859E+004
            4160    5.09406E+005    3.37146E+004   -5.04434E+005   -2.97122E+004   -5.04434E+005    5.38149E+005    1.66811E+005   -5.00406E+005   -3.13147E+004   -4.38982E+005   -3.01357E+004    1.73771E+005    1.64802E+004   -2.17237E+004
            4161    5.37947E+005    3.65227E+004   -5.33355E+005   -3.43658E+004   -5.33355E+005    5.69877E+005    1.77066E+005   -5.27286E+005   -2.37409E+004   -4.72685E+005   -3.47717E+004    1.74587E+005    1.11315E+004   -1.68652E+004
            4162    5.55476E+005    3.77824E+004   -5.51236E+005   -3.68493E+004   -5.51236E+005    5.89018E+005    1.83434E+005   -5.44024E+005   -2.00721E+004   -4.93345E+005   -3.68854E+004    1.75186E+005    4.33575E+003   -6.14370E+003
            4163    7.19086E+005    7.39920E+003   -7.72367E+005   -1.35385E+005   -7.72367E+005    7.79766E+005    3.00117E+005   -6.86096E+005   -1.05774E+005   -6.59161E+005   -1.35418E+005    2.74645E+005    2.99769E+003   -4.35982E+003
            4164    6.80611E+005    1.05691E+004   -7.25250E+005   -1.18261E+005   -7.25250E+005    7.35819E+005    2.77647E+005   -6.52327E+005   -9.71533E+004   -6.17399E+005   -1.18389E+005    2.59939E+005    7.98255E+003   -9.61091E+003
            4165    6.16779E+005    1.45260E+004   -6.47625E+005   -8.94299E+004   -6.47625E+005    6.62151E+005    2.40843E+005   -5.96590E+005   -8.46592E+004   -5.48345E+005   -8.95253E+004    2.35910E+005    1.03033E+004   -1.10367E+004
            4166    5.41316E+005    1.57944E+004   -5.58426E+005   -5.74766E+004   -5.58426E+005    5.74220E+005    2.00036E+005   -5.29988E+005   -7.39066E+004   -4.69455E+005   -5.67465E+004    2.07234E+005    1.25495E+004   -7.57773E+003
            4167    4.72292E+005    1.94114E+004   -4.70523E+005   -1.81118E+004   -4.70523E+005    4.89935E+005    1.56408E+005   -4.68921E+005   -6.43809E+004   -3.90108E+005   -1.47347E+004    1.80414E+005    1.42423E+004   -4.81274E+003
            4168    4.00629E+005    3.52229E+004   -3.80832E+005    2.34441E+003   -3.80832E+005    4.16055E+005    1.14421E+005   -3.97576E+005   -5.35413E+004   -3.11678E+005    2.19552E+004    1.50160E+005    1.85045E+004   -1.73986E+003
            4169    3.61467E+005    8.09809E+004   -3.07265E+005    1.95488E+004   -3.07265E+005    3.88246E+005    6.89118E+004   -3.49431E+005   -3.10867E+004   -2.55161E+005    7.95118E+004    1.19793E+005    1.09817E+004   -2.69585E+003
            4170    5.89723E+005    5.91248E+005    5.91248E+005    5.08431E+004   -3.77652E+004    6.29014E+005   -2.01442E+005    5.74460E+005    2.46212E+004    5.28775E+005    5.09305E+004    1.87948E+005   -4.11930E+003   -7.08836E+003
            4171    4.91319E+005    4.72868E+005    4.72868E+005    1.51536E+004   -4.62791E+004    5.19147E+005   -1.47247E+005    4.82565E+005    9.53161E+003    4.17018E+005    1.51929E+004    1.60689E+005   -4.26483E+003   -5.99085E+003
            4172    4.27564E+005    3.91048E+005    3.91048E+005   -3.39090E+003   -6.33179E+004    4.54366E+005   -1.08113E+005    4.17959E+005   -5.98762E+003    3.33619E+005   -3.29236E+003    1.50803E+005   -3.86607E+003   -6.22927E+003
            4173    3.52469E+005    3.08217E+005    3.08217E+005   -1.14400E+004   -6.97834E+004    3.78001E+005   -7.56647E+004    3.41351E+005   -9.92698E+003    2.48238E+005   -1.13173E+004    1.37950E+005   -3.47060E+003   -5.70715E+003
            4174    3.06765E+005    2.51854E+005    2.51854E+005   -1.20005E+004   -8.47448E+004    3.36599E+005   -5.17028E+004    2.86378E+005   -9.24764E+003    1.76236E+005   -1.18802E+004    1.40367E+005   -2.44289E+003   -5.11036E+003
            4175    2.58059E+005    1.95901E+005    1.95901E+005   -8.20563E+003   -9.41676E+004    2.90069E+005   -3.11760E+004    2.22244E+005   -4.49746E+003    1.06122E+005   -8.09690E+003    1.33987E+005   -1.67099E+003   -5.19246E+003
            4176    2.44822E+005    1.57357E+005    1.57357E+005   -4.14167E+003   -1.24330E+005    2.81688E+005   -9.62851E+003    1.54373E+005   -5.35659E+003    3.83562E+004   -4.11409E+003    1.39077E+005   -4.51732E+002   -4.15916E+003
            4177    2.32607E+005    1.23172E+005   -1.44877E+005    3.92910E+003   -1.44877E+005    2.68049E+005    5.92510E+003   -1.33632E+005    6.08323E+003   -2.77642E+004    3.90566E+003    1.32867E+005    2.90074E+002   -4.78281E+003
            4178    2.64553E+005    9.86999E+004   -1.99459E+005    7.19076E+003   -1.99459E+005    2.98159E+005    3.11894E+004   -2.24564E+005    1.92798E+002   -1.00873E+005    7.11179E+003    1.40195E+005    1.56363E+003   -4.30213E+003
            4179    5.63710E+005    5.63598E+005    5.63598E+005    4.71482E+004   -3.77428E+004    6.01341E+005   -1.91001E+005    5.49052E+005    2.60119E+004    4.99598E+005    4.73940E+004    1.84373E+005   -1.18874E+004   -1.58210E+004
            4180    4.76084E+005    4.54697E+005    4.54697E+005    1.07256E+004   -4.80428E+004    5.02740E+005   -1.39127E+005    4.67819E+005    8.47566E+003    3.97594E+005    1.13101E+004    1.58074E+005   -1.15245E+004   -1.80491E+004
            4181    4.13019E+005    3.76597E+005    3.76597E+005   -3.86428E+003   -6.26750E+004    4.39272E+005   -1.03353E+005    4.03438E+005   -4.34900E+003    3.17555E+005   -3.14826E+003    1.48594E+005   -1.02300E+004   -1.62589E+004
            4182    3.44309E+005    2.99036E+005    2.99036E+005   -1.29905E+004   -7.03507E+004    3.69387E+005   -7.18982E+004    3.33304E+005   -9.43097E+003    2.37127E+005   -1.20011E+004    1.36789E+005   -8.94629E+003   -1.57433E+004
            4183    2.99457E+005    2.44514E+005    2.44514E+005   -1.16014E+004   -8.47356E+004    3.29250E+005   -4.93923E+004    2.78280E+005   -8.41398E+003    1.67206E+005   -1.06149E+004    1.38640E+005   -6.60564E+003   -1.46808E+004
            4184    2.54144E+005    1.90864E+005    1.90864E+005   -8.83250E+003   -9.52105E+004    2.86075E+005   -2.89404E+004    2.17233E+005   -4.19438E+003    9.91511E+004   -8.13535E+003    1.32825E+005   -4.26514E+003   -1.29693E+004
            4185    2.42271E+005    1.54315E+005    1.54315E+005   -3.34047E+003   -1.24647E+005    2.78962E+005   -8.77602E+003    1.46996E+005   -4.94886E+003    3.43350E+004   -3.05809E+003    1.37497E+005   -1.45551E+003   -1.29099E+004
            4186    2.32008E+005    1.21071E+005   -1.46168E+005    3.74002E+003   -1.46168E+005    2.67239E+005    7.11891E+003   -1.37736E+005    6.14546E+003   -3.10058E+004    3.50360E+003    1.31795E+005    1.22442E+003   -1.18926E+004
            4187    2.63231E+005    9.75794E+004   -1.98751E+005    7.99548E+003   -1.98751E+005    2.96330E+005    3.10586E+004   -2.24885E+005    2.31537E+001   -1.00583E+005    7.38357E+003    1.38810E+005    3.89840E+003   -1.32159E+004
            4188    5.22816E+005    5.19925E+005    5.19925E+005    3.53464E+004   -3.41728E+004    5.54097E+005   -1.73699E+005    5.12263E+005    3.28062E+004    4.52378E+005    3.59140E+004    1.79270E+005   -1.59892E+004   -2.16763E+004
            4189    4.47710E+005    4.24262E+005    4.24262E+005    7.91438E+003   -4.93076E+004    4.73570E+005   -1.27623E+005    4.39370E+005    9.48992E+003    3.64599E+005    8.78029E+003    1.54369E+005   -1.72341E+004   -2.38658E+004
            4190    3.91703E+005    3.53231E+005    3.53231E+005   -8.29158E+003   -6.29168E+004    4.16148E+005   -9.40076E+004    3.82993E+005   -2.77251E+003    2.91519E+005   -6.72391E+003    1.45148E+005   -1.58980E+004   -2.36842E+004
            4191    3.28051E+005    2.82732E+005    2.82732E+005   -1.22213E+004   -7.05840E+004    3.53316E+005   -6.66421E+004    3.16053E+005   -7.59370E+003    2.17435E+005   -9.91452E+003    1.34513E+005   -1.39033E+004   -2.30281E+004
            4192    2.87788E+005    2.31486E+005    2.31486E+005   -1.33090E+004   -8.55359E+004    3.17021E+005   -4.42136E+004    2.66226E+005   -7.78913E+003    1.51612E+005   -1.11825E+004    1.35757E+005   -1.02031E+004   -2.04818E+004
            4193    2.47256E+005    1.83465E+005    1.83465E+005   -7.28010E+003   -9.58847E+004    2.79350E+005   -2.67668E+004    2.06720E+005   -2.94573E+003    8.88772E+004   -5.63099E+003    1.30592E+005   -6.43585E+003   -1.96918E+004
            4194    2.37351E+005    1.47665E+005    1.47665E+005   -4.09370E+003   -1.25856E+005    2.73521E+005   -5.90526E+003    1.36106E+005   -4.96049E+003    2.62749E+004   -3.59860E+003    1.34743E+005   -1.87055E+003   -1.75395E+004
            4195    2.30176E+005    1.18961E+005   -1.45924E+005    5.43563E+003   -1.45924E+005    2.64885E+005    7.17554E+003   -1.43897E+005    6.79807E+003   -3.31053E+004    4.78065E+003    1.29644E+005    2.24471E+003   -1.85055E+004
            4196    2.59725E+005    9.46942E+004   -1.97483E+005    7.18774E+003   -1.97483E+005    2.92177E+005    3.18669E+004   -2.22742E+005   -1.06384E+003   -1.00211E+005    5.67412E+003    1.36292E+005    6.79163E+003   -1.86969E+004
            4197    4.74789E+005    4.67226E+005    4.67226E+005    2.54670E+004   -3.48326E+004    5.02058E+005   -1.52620E+005    4.66058E+005    3.63731E+004    3.95915E+005    2.55722E+004    1.73219E+005   -1.76562E+004   -2.00426E+004
            4198    4.16979E+005    3.88404E+005    3.88404E+005   -9.94211E+002   -5.15467E+004    4.39950E+005   -1.11954E+005    4.10000E+005    9.87292E+003    3.25884E+005    1.06019E+002    1.50222E+005   -1.93129E+004   -2.58711E+004
            4199    3.62816E+005    3.25821E+005    3.25821E+005   -7.11050E+003   -6.08795E+004    3.86700E+005   -8.59435E+004    3.53686E+005    2.80576E+003    2.59745E+005   -4.71992E+003    1.41994E+005   -1.83710E+004   -2.66376E+004
            4200    3.10179E+005    2.62962E+005    2.62962E+005   -1.41349E+004   -7.21162E+004    3.35078E+005   -5.89037E+004    2.97618E+005   -5.97439E+003    1.93922E+005   -1.12365E+004    1.32406E+005   -1.60026E+004   -2.45643E+004
            4201    2.72876E+005    2.17260E+005    2.17260E+005   -1.02399E+004   -8.52872E+004    3.02547E+005   -4.05775E+004    2.48017E+005   -5.19186E+003    1.34106E+005   -7.18129E+003    1.32519E+005   -1.21913E+004   -2.34310E+004
            4202    2.38520E+005    1.72498E+005    1.72498E+005   -8.19316E+003   -9.78603E+004    2.70358E+005   -2.21482E+004    1.94788E+005   -2.38385E+003    7.50494E+004   -6.22106E+003    1.28028E+005   -7.32075E+003   -2.04061E+004
            4203    2.31271E+005    1.41700E+005    1.41700E+005   -1.45338E+003   -1.25112E+005    2.66812E+005   -5.04504E+003    1.15988E+005   -3.82844E+003    1.97371E+004   -7.73527E+002    1.31289E+005   -2.00366E+003   -2.05870E+004
            4204    2.26911E+005    1.13914E+005   -1.47023E+005    4.00119E+003   -1.47023E+005    2.60937E+005    9.70240E+003   -1.46440E+005    6.33729E+003   -3.83504E+004    2.90587E+003    1.27109E+005    3.54605E+003   -1.93697E+004
            4205    2.54396E+005    9.30537E+004   -1.92824E+005    8.62055E+003   -1.92824E+005    2.85878E+005    3.03833E+004   -2.19379E+005   -1.48774E+003   -9.60230E+004    6.36085E+003    1.33290E+005    8.56825E+003   -2.20437E+004
            4206    4.37607E+005    4.26749E+005    4.26749E+005    5.49375E+003   -2.55557E+004    4.52305E+005   -1.35562E+005    4.35118E+005    5.40016E+004    3.47237E+005    5.44914E+003    1.70522E+005   -1.51742E+004   -1.82035E+004
            4207    3.83539E+005    3.54676E+005    3.54676E+005   -2.33497E+003   -5.07860E+004    4.05462E+005   -1.00518E+005    3.76561E+005    1.67218E+004    2.86163E+005   -1.33036E+003    1.48992E+005   -1.91056E+004   -2.32546E+004
            4208    3.39032E+005    2.99775E+005    2.99775E+005   -1.11248E+004   -6.17048E+004    3.61480E+005   -7.56485E+004    3.30383E+005    6.90291E+003    2.29367E+005   -9.32471E+003    1.39882E+005   -1.98009E+004   -2.38169E+004
            4209    2.90883E+005    2.45133E+005    2.45133E+005   -9.75093E+003   -7.17510E+004    3.16884E+005   -5.45437E+004    2.75421E+005   -9.01585E+002    1.71330E+005   -6.79755E+003    1.30869E+005   -1.74257E+004   -2.31479E+004
            4210    2.58786E+005    2.01540E+005    2.01540E+005   -1.10529E+004   -8.66183E+004    2.88158E+005   -3.46228E+004    2.31947E+005   -3.45388E+003    1.15714E+005   -8.39191E+003    1.29712E+005   -1.33221E+004   -1.95642E+004
            4211    2.29718E+005    1.64101E+005    1.64101E+005   -3.89029E+003   -9.76718E+004    2.61773E+005   -2.08464E+004    1.78316E+005    3.81715E+001    6.44099E+004   -1.90896E+003    1.25527E+005   -7.68932E+003   -1.87007E+004
            4212    2.23943E+005    1.32778E+005    1.32778E+005   -3.37969E+003   -1.25686E+005    2.58463E+005   -1.23732E+003    1.01336E+005   -3.92672E+003    1.05988E+004   -2.96012E+003    1.27962E+005   -1.59522E+003   -1.65557E+004
            4213    2.22795E+005    1.11022E+005   -1.44761E+005    6.98035E+003   -1.44761E+005    2.55783E+005    8.91975E+003   -1.51791E+005    6.51856E+003   -3.88874E+004    5.60958E+003    1.24488E+005    4.80374E+003   -1.87582E+004
            4214    2.48668E+005    8.81338E+004   -1.91368E+005    5.34769E+003   -1.91368E+005    2.79502E+005    3.26288E+004   -2.14201E+005   -3.97722E+003   -9.69348E+004    3.02554E+003    1.30509E+005    1.06884E+004   -1.87462E+004
            4215    4.00775E+005    3.85177E+005    3.85177E+005   -1.97484E+003   -2.79564E+004    4.13134E+005   -1.18415E+005    3.98874E+005    5.84406E+004    2.98428E+005   -1.62206E+003    1.67115E+005   -1.26652E+004   -1.57295E+004
            4216    3.61834E+005    3.30153E+005    3.30153E+005   -1.00440E+004   -5.00018E+004    3.80155E+005   -9.00357E+004    3.56820E+005    2.38351E+004    2.55713E+005   -9.44149E+003    1.49403E+005   -1.37201E+004   -1.63762E+004
            4217    3.18764E+005    2.83988E+005    2.83988E+005   -4.06843E+003   -5.84789E+004    3.42467E+005   -7.38136E+004    3.08055E+005    1.88118E+004    2.05503E+005   -2.87432E+003    1.42110E+005   -1.58613E+004   -1.72923E+004
            4218    2.79397E+005    2.32124E+005    2.32124E+005   -8.71833E+003   -7.41972E+004    3.06321E+005   -4.97362E+004    2.61284E+005    3.36692E+003    1.53626E+005   -7.78425E+003    1.32267E+005   -1.48865E+004   -1.33686E+004
            4219    2.48899E+005    1.93852E+005    1.93852E+005   -3.82279E+003   -8.56629E+004    2.79515E+005   -3.47888E+004    2.15350E+005    2.16661E+003    1.04655E+005   -2.45583E+003    1.29154E+005   -1.22624E+004   -1.23568E+004
            4220    2.23529E+005    1.55315E+005    1.55315E+005   -5.02279E+003   -1.00023E+005    2.55337E+005   -1.67565E+004    1.68187E+005    9.41127E+002    5.34662E+004   -4.13785E+003    1.24482E+005   -6.99672E+003   -9.65809E+003
            4221    2.18423E+005    1.28444E+005    1.28444E+005    1.43205E+003   -1.23766E+005    2.52211E+005   -2.03664E+003    5.06312E+004   -2.18683E+003    6.67954E+003    1.61720E+003    1.25632E+005   -1.03238E+003   -9.92597E+003
            4222    2.19425E+005    1.06062E+005   -1.46075E+005    1.62174E+003   -1.46075E+005    2.52137E+005    1.27969E+004   -1.45551E+005    4.04965E+003   -4.33129E+004    8.72724E+002    1.23416E+005    5.51355E+003   -9.29273E+003
            4223    2.43703E+005    8.76008E+004   -1.86228E+005    6.85132E+003   -1.86228E+005    2.73829E+005    3.05920E+004   -2.10283E+005   -5.38919E+003   -9.15975E+004    5.21076E+003    1.29080E+005    1.10026E+004   -1.39634E+004
            4224    3.96098E+005    3.82560E+005    3.82560E+005   -4.71463E+003   -2.18074E+004    4.04368E+005   -1.18679E+005    3.95267E+005    1.01208E+005    2.76053E+005   -2.12230E+004    1.72452E+005   -8.09868E+003   -1.30483E+004
            4225    3.51252E+005    3.23820E+005    3.23820E+005   -1.23412E+004   -4.07919E+004    3.64612E+005   -9.02290E+004    3.48646E+005    5.03133E+004    2.32432E+005   -1.20584E+004    1.57521E+005   -8.62811E+003   -9.99023E+003
            4226    3.17126E+005    2.83335E+005    2.83335E+005   -1.20991E+004   -5.17526E+004    3.35088E+005   -7.31612E+004    3.11475E+005    3.91230E+004    1.92734E+005   -1.23732E+004    1.48221E+005   -1.07067E+004   -7.25669E+003
            4227    2.80543E+005    2.38518E+005    2.38518E+005   -5.65255E+003   -6.79309E+004    3.06449E+005   -5.49782E+004    2.64310E+005    2.37673E+004    1.46960E+005   -5.79304E+003    1.39662E+005   -1.14241E+004   -5.90175E+003
            4228    2.48078E+005    1.92137E+005    1.92137E+005   -5.83002E+003   -8.61493E+004    2.78287E+005   -3.33860E+004    2.15776E+005    1.17193E+004    9.46079E+004   -6.16922E+003    1.32337E+005   -1.03024E+004   -1.97536E+003
            4229    2.23575E+005    1.56020E+005    1.56020E+005    2.28164E+003   -1.00457E+005    2.56477E+005   -1.92815E+004    1.55466E+005    7.39427E+003    4.84744E+004    1.97578E+003    1.26397E+005   -5.86517E+003    2.15915E+003
            4230    2.17751E+005    1.24848E+005   -1.26578E+005   -3.00096E+003   -1.26578E+005    2.51425E+005    1.57689E+003    6.72259E+004   -2.88253E+003    1.18998E+003   -3.03812E+003    1.25603E+005   -4.82506E+002    4.80563E+003
            4231    2.21595E+005    1.06285E+005   -1.47924E+005    4.43254E+003   -1.47924E+005    2.54209E+005    1.24021E+004   -1.54046E+005    3.14962E+002   -4.21330E+004    4.61169E+003    1.25171E+005    5.64240E+003    9.10901E+002
            4232    2.45715E+005    8.30442E+004   -1.93712E+005   -1.20275E+003   -1.93712E+005    2.76757E+005    3.72903E+004   -2.09312E+005   -1.71818E+004   -9.38245E+004   -8.64679E+002    1.32538E+005    9.67416E+003   -1.26965E+003
            4233    2.53430E+005    8.47417E+004   -1.98710E+005    6.00806E+003   -1.98710E+005    2.83451E+005    3.59866E+004   -2.23321E+005   -2.71070E+004   -8.97875E+004    8.93453E+003    1.36701E+005    1.27742E+004    7.92846E+003
            4234    2.31306E+005    1.02497E+005   -1.62996E+005   -4.99658E+003   -1.62996E+005    2.65492E+005    2.18319E+004   -1.58593E+005   -1.60424E+004   -4.68252E+004   -2.62814E+003    1.30169E+005    7.08734E+003    1.80645E+004
            4235    2.21977E+005    1.29319E+005    1.29319E+005    3.31713E+003   -1.26986E+005    2.56305E+005   -1.88336E+003   -6.82470E+004    1.92825E+003    3.68910E+002    3.35293E+003    1.26598E+005    4.84557E+000    1.98850E+004
            4236    2.32292E+005    1.61514E+005    1.61514E+005   -1.20524E+003   -1.04512E+005    2.66025E+005   -1.85989E+004    1.67554E+005    1.32947E+004    4.61062E+004   -3.60431E+003    1.30353E+005   -7.08995E+003    1.74802E+004
            4237    2.55159E+005    2.03731E+005    2.03731E+005    4.27406E+002   -8.26014E+004    2.86332E+005   -4.05190E+004    2.21559E+005    3.23308E+004    9.21563E+004   -2.93027E+003    1.38287E+005   -1.23452E+004    1.07530E+004
            4238    2.89597E+005    2.45572E+005    2.45572E+005   -1.57200E+004   -6.57986E+004    3.11370E+005   -5.46844E+004    2.79605E+005    4.63619E+004    1.35941E+005   -1.82498E+004    1.47438E+005   -1.48852E+004   -5.58137E+002
            4239    3.32434E+005    2.99937E+005    2.99937E+005   -1.92488E+004   -4.43241E+004    3.44261E+005   -7.87881E+004    3.30296E+005    6.70565E+004    1.91070E+005   -2.17619E+004    1.58740E+005   -1.35046E+004   -5.40368E+003
            4240    3.65530E+005    3.36812E+005    3.36812E+005   -2.30399E+004   -3.41438E+004    3.70956E+005   -9.32094E+004    3.65151E+005    7.78160E+004    2.34262E+005   -3.24496E+004    1.62690E+005   -8.31872E+003   -6.22022E+003
            4241    3.68540E+005    3.33538E+005    3.33538E+005   -2.20238E+004   -4.67370E+004    3.80275E+005   -8.82591E+004    3.66669E+005    5.73035E+004    2.47336E+005   -3.98618E+004    1.54308E+005   -1.01957E+004    4.45305E+003
            4242    7.30387E+005    7.93740E+005    7.93740E+005    1.42499E+005    4.03033E+003    7.89710E+005   -3.13423E+005    6.99936E+005    1.29868E+005    6.67876E+005    1.42526E+005    2.89013E+005   -3.04007E+003   -4.05319E+003
            4243    6.89289E+005    7.42327E+005    7.42327E+005    1.21936E+005    3.27163E+002    7.42000E+005   -2.88197E+005    6.64508E+005    1.20607E+005    6.21726E+005    1.22258E+005    2.73366E+005   -7.16624E+003   -1.26950E+004
            4244    6.21527E+005    6.60343E+005    6.60343E+005    9.25676E+004   -3.70065E+003    6.64044E+005   -2.49737E+005    6.04411E+005    1.08233E+005    5.48124E+005    9.28536E+004    2.48383E+005   -9.14492E+003   -1.23458E+004
            4245    5.51412E+005    5.73516E+005    5.73516E+005    5.52277E+004   -5.92082E+003    5.79437E+005   -2.07608E+005    5.43705E+005    9.85670E+004    4.68701E+005    5.55551E+004    2.22527E+005   -9.04204E+003   -1.27113E+004
            4246    4.83258E+005    4.92254E+005    4.92254E+005    2.85555E+004   -8.43672E+003    5.00691E+005   -1.70791E+005    4.80057E+005    9.18923E+004    3.92534E+005    2.79464E+004    1.99536E+005   -9.39687E+003   -6.57896E+003
            4247    4.42276E+005    4.30758E+005    4.30758E+005   -5.47725E+003   -1.73204E+004    4.48079E+005   -1.35987E+005    4.41919E+005    8.59707E+004    3.34251E+005   -1.22610E+004    1.82182E+005   -9.45145E+003   -5.40705E+003
            4248    3.91106E+005    3.67774E+005    3.67774E+005   -1.48067E+004   -3.13343E+004    3.99108E+005   -1.07211E+005    3.90319E+005    6.78636E+004    2.77290E+005   -2.35206E+004    1.64588E+005   -1.05619E+004   -2.10511E+003
            4249    4.68611E+005    1.31168E+004   -4.64831E+005   -6.15222E+003   -4.64831E+005    4.77948E+005    1.52622E+005   -4.67718E+005   -1.13203E+003   -4.50604E+005   -6.13034E+003    8.07925E+004   -3.16583E+003    7.74474E+003
            4250    3.83870E+005    1.61971E+004   -3.69364E+005    1.27916E+004   -3.69364E+005    3.85561E+005    1.13459E+005   -3.83836E+005   -6.82110E+003   -3.49156E+005    1.56017E+004    8.52435E+004   -2.88813E+003    7.29364E+003
            4251    2.98364E+005    3.50421E+004   -2.66856E+005    2.78426E+004   -2.66856E+005    3.01898E+005    6.79905E+004   -2.98168E+005    1.76811E+004   -2.49383E+005    2.77301E+004    7.01595E+004   -2.25464E+003    6.60380E+003
            4252    2.27507E+005    2.84210E+004   -2.03681E+005    1.89351E+004   -2.03681E+005    2.32102E+005    5.21083E+004   -2.27062E+005   -4.56408E+003   -1.70573E+005    1.88123E+004    8.09195E+004   -1.71334E+003    6.34368E+003
            4253    4.53771E+005    1.75287E+004   -4.45759E+005   -2.14447E+003   -4.45759E+005    4.63288E+005    1.43458E+005   -4.52810E+005    1.49883E+003   -4.30274E+005   -1.59994E+003    7.97853E+004   -9.62060E+003    2.18662E+004
            4254    3.73959E+005    1.99466E+004   -3.58870E+005    1.00335E+004   -3.58870E+005    3.78817E+005    1.09630E+005   -3.73663E+005   -8.35158E+003   -3.37531E+005    1.69925E+004    8.37411E+004   -8.70950E+003    2.02961E+004
            4255    2.94345E+005    3.63868E+004   -2.61229E+005    2.97323E+004   -2.61229E+005    2.97616E+005    6.50366E+004   -2.94176E+005    1.81871E+004   -2.42243E+005    2.89458E+004    6.96140E+004   -7.20493E+003    2.00293E+004
            4256    2.24695E+005    2.79724E+004   -2.00845E+005    1.94870E+004   -2.00845E+005    2.28817E+005    5.11285E+004   -2.24334E+005   -4.76169E+003   -1.66904E+005    1.82803E+004    7.93959E+004   -5.40947E+003    1.76219E+004
            4257    4.26819E+005    2.38862E+004   -4.12774E+005    3.47280E+003   -4.12774E+005    4.36660E+005    1.28472E+005   -4.25719E+005    4.78247E+003   -3.95976E+005    5.77940E+003    7.75195E+004   -1.41508E+004    2.90858E+004
            4258    3.55444E+005    2.67184E+004   -3.37699E+005    8.03389E+003   -3.37699E+005    3.64417E+005    1.00982E+005   -3.54336E+005   -1.11424E+004   -3.13849E+005    2.20445E+004    8.15751E+004   -1.31899E+004    3.20227E+004
            4259    2.84098E+005    3.66793E+004   -2.50833E+005    2.97230E+004   -2.50833E+005    2.87512E+005    6.14768E+004   -2.83906E+005    1.70708E+004   -2.29543E+005    2.80418E+004    6.84041E+004   -1.09462E+004    2.98349E+004
            4260    2.18976E+005    2.88292E+004   -1.93548E+005    2.18602E+004   -1.93548E+005    2.22377E+005    4.76195E+004   -2.18726E+005   -4.77155E+003   -1.57580E+005    1.94928E+004    7.72095E+004   -8.29665E+003    2.71601E+004
            4261    3.94497E+005    3.59448E+004   -3.69066E+005    1.40016E+004   -3.69066E+005    4.05011E+005    1.06373E+005   -3.93121E+005    9.87305E+003   -3.50970E+005    2.19774E+004    7.50841E+004   -1.76149E+004    3.19498E+004
            4262    3.28404E+005    3.05591E+004   -3.09778E+005    5.22650E+003   -3.09778E+005    3.40337E+005    9.13308E+004   -3.26195E+005   -1.48071E+004   -2.82940E+005    2.37544E+004    7.90341E+004   -1.69075E+004    3.88631E+004
            4263    2.69274E+005    4.10711E+004   -2.32711E+005    3.18159E+004   -2.32711E+005    2.73782E+005    5.32748E+004   -2.68916E+005    1.84722E+004   -2.08670E+005    3.03737E+004    6.70647E+004   -1.47198E+004    3.61798E+004
            4264    2.10349E+005    2.62618E+004   -1.86112E+005    2.21511E+004   -1.86112E+005    2.12374E+005    4.58998E+004   -2.10258E+005   -6.05620E+003   -1.49036E+005    1.73927E+004    7.39659E+004   -1.16875E+004    3.20323E+004
            4265    3.54145E+005    4.31544E+004   -3.21063E+005    2.20669E+004   -3.21063E+005    3.64217E+005    8.52805E+004   -3.52728E+005    1.32004E+004   -3.02559E+005    3.35169E+004    7.14988E+004   -1.65461E+004    3.01610E+004
            4266    3.00248E+005    3.49410E+004   -2.79817E+005    3.43643E+003   -2.79817E+005    3.14758E+005    8.04797E+004   -2.96495E+005   -2.05807E+004   -2.48855E+005    2.79968E+004    7.91429E+004   -1.76430E+004    4.02738E+004
            4267    2.49976E+005    3.92880E+004   -2.16097E+005    2.80938E+004   -2.16097E+005    2.55385E+005    4.95719E+004   -2.49412E+005    1.52920E+004   -1.90750E+005    2.67419E+004    6.56011E+004   -1.62785E+004    3.57739E+004
            4268    1.98838E+005    2.74417E+004   -1.73040E+005    2.41132E+004   -1.73040E+005    2.00481E+005    4.04950E+004   -1.98775E+005   -6.60935E+003   -1.34258E+005    1.93823E+004    7.20691E+004   -1.27939E+004    3.25379E+004
            4269    3.25108E+005    5.34535E+004   -2.80634E+005    3.46816E+004   -2.80634E+005    3.34088E+005    6.41664E+004   -3.23886E+005    2.16334E+004   -2.60974E+005    4.68415E+004    7.16000E+004   -1.42646E+004    2.63248E+004
            4270    2.70846E+005    2.79479E+004   -2.56017E+005   -5.42559E+002   -2.56017E+005    2.83965E+005    7.62040E+004   -2.67444E+005   -2.69057E+004   -2.22587E+005    2.08803E+004    7.94474E+004   -1.93828E+004    3.35138E+004
            4271    2.33691E+005    4.46732E+004   -1.96718E+005    2.84247E+004   -1.96718E+005    2.41391E+005    4.12067E+004   -2.32415E+005    1.57630E+004   -1.70523E+005    3.11394E+004    6.64882E+004   -1.79894E+004    2.93000E+004
            4272    1.88077E+005    2.53795E+004   -1.65979E+005    1.86341E+004   -1.65979E+005    1.91359E+005    4.06553E+004   -1.87805E+005   -9.04538E+003   -1.29268E+005    1.63478E+004    6.92370E+004   -1.57649E+004    2.64252E+004
            4273    2.82351E+005    4.41698E+004   -2.47378E+005    2.47762E+004   -2.47378E+005    2.91548E+005    5.94773E+004   -2.80847E+005    2.74113E+004   -2.30281E+005    2.44378E+004    6.77637E+004   -3.06851E+003    9.48820E+003
            4274    2.62577E+005    2.36195E+004   -2.51260E+005   -3.01543E+003   -2.51260E+005    2.74879E+005    7.68852E+004   -2.59511E+005   -3.98251E+004   -2.13383E+005    2.25529E+004    8.85459E+004   -8.22504E+003    1.12956E+004
            4275    2.33931E+005    3.43294E+004   -2.05914E+005    2.11472E+004   -2.05914E+005    2.40244E+005    5.01459E+004   -2.33093E+005    4.24310E+003   -1.78792E+005    2.41111E+004    7.30027E+004   -1.22105E+004    1.58670E+004
            4276    1.83212E+005    2.63494E+004   -1.59661E+005    2.06175E+004   -1.59661E+005    1.86011E+005    3.75648E+004   -1.83010E+005   -1.16768E+004   -1.19890E+005    1.88719E+004    7.36565E+004   -1.12376E+004    1.79165E+004
            4277    1.95083E+005    2.01091E+004   -1.80335E+005    8.90275E+003   -1.80335E+005    2.00444E+005    5.04411E+004   -1.94357E+005   -3.50086E+004   -1.27340E+005    1.10250E+004    8.75842E+004   -6.67231E+003    2.32736E+003
            4278    2.44077E+005    2.74548E+004   -2.29209E+005   -4.87605E+001   -2.29209E+005    2.56663E+005    6.72675E+004   -2.40553E+005   -5.48499E+004   -1.72475E+005    2.55224E+004    9.84372E+004   -2.77579E+003    1.56138E+004
            4279    2.94689E+005    2.15492E+004   -2.92406E+005   -2.17808E+004   -2.92406E+005    3.13955E+005    9.75458E+004   -2.87391E+005   -6.10454E+004   -2.52172E+005    2.05802E+004    9.63413E+004    3.47323E+003    7.47186E+003
            4280    3.48628E+005    2.96460E+004   -3.47436E+005   -3.68361E+004   -3.47436E+005    3.77082E+005    1.18209E+005   -3.33916E+005   -8.71111E+004   -2.96073E+005    2.85588E+004    1.15445E+005    1.01370E+004   -3.40402E+003
            4281    6.10472E+005    1.09449E+004   -6.43435E+005   -8.92744E+004   -6.43435E+005    6.54380E+005    2.40588E+005   -5.91538E+005   -2.15990E+004   -6.10907E+005   -8.92587E+004    1.42071E+005   -4.12386E+003    5.24106E+003
            4282    5.71299E+005    8.20209E+003   -5.99851E+005   -7.42709E+004   -5.99851E+005    6.08054E+005    2.21973E+005   -5.57670E+005   -2.44349E+004   -5.67489E+005   -7.39959E+004    1.35530E+005   -1.07194E+004    1.26815E+004
            4283    5.10426E+005    3.12571E+003   -5.31844E+005   -5.01385E+004   -5.31844E+005    5.34970E+005    1.92952E+005   -5.04117E+005   -3.08913E+004   -4.99181E+005   -4.87842E+004    1.26373E+005   -1.46543E+004    1.57475E+004
            4284    4.44331E+005   -5.29498E+003   -4.60903E+005   -2.87807E+004   -4.60903E+005    4.55608E+005    1.64993E+005   -4.42931E+005   -4.51618E+004   -4.26620E+005   -2.31964E+004    1.18212E+005   -1.44759E+004    1.30009E+004
            4285    3.92666E+005    1.44854E+004   -3.96703E+005   -2.56425E+004   -3.96703E+005    4.11189E+005    1.35953E+005   -3.88012E+005   -6.30066E+004   -3.57281E+005    1.24273E+004    1.13810E+005   -1.20613E+004    1.16317E+004
            4286    3.59452E+005    3.72418E+004   -3.55017E+005   -4.13905E+004   -3.55017E+005    3.92259E+005    1.19722E+005   -3.39282E+005   -9.40542E+004   -3.02252E+005    3.71402E+004    1.17301E+005   -3.59342E+003    2.33652E+003
            4287    3.94036E+005    7.51022E+004   -3.67514E+005   -5.49219E+004   -3.67514E+005    4.42616E+005    1.15778E+005   -3.40498E+005   -1.31257E+005   -2.90080E+005    7.40039E+004    1.35123E+005    1.33131E+004   -5.76598E+002
            4288    1.60160E+005    3.72889E+004   -1.35727E+005    7.35253E+003   -1.35727E+005    1.73016E+005    3.03618E+004   -1.53675E+005   -2.21349E+004   -7.82933E+004    9.34260E+003    8.07538E+004   -6.99885E+003   -3.07634E+003
            4289    1.33098E+005    5.18884E+004   -1.00066E+005   -4.15297E+003   -1.00066E+005    1.51954E+005    1.74435E+004   -1.00918E+005   -8.51748E+003   -4.18175E+004   -1.99545E+003    7.23246E+004   -4.57220E+003   -1.40371E+004
            4290    1.23416E+005    7.10410E+004   -7.14123E+004    3.25755E+003   -7.14123E+004    1.42453E+005   -9.62059E+002   -5.39668E+004   -3.54454E+002   -2.42881E+002    3.48351E+003    6.95200E+004   -1.04390E+002   -1.54719E+004
            4291    1.33743E+005    9.85336E+004    9.85336E+004   -2.20190E+003   -5.32076E+004    1.51741E+005   -1.43747E+004    1.08373E+005    9.24989E+003    3.84526E+004   -4.57838E+003    7.27068E+004    4.51770E+003   -1.31580E+004
            4292    1.59253E+005    1.37286E+005    1.37286E+005   -4.74245E+002   -3.70837E+004    1.74370E+005   -3.32426E+004    1.49338E+005    2.19830E+004    8.07763E+004   -3.03140E+003    8.06971E+004    6.68104E+003   -6.79194E+003
            4293    1.98599E+005    1.79545E+005    1.79545E+005   -1.64011E+004   -2.16055E+004    2.01150E+005   -4.71793E+004    1.98445E+005    3.83226E+004    1.21855E+005   -1.86401E+004    8.99640E+004    6.12207E+003    4.75500E+003
            4294    2.42428E+005    2.32065E+005    2.32065E+005    2.60537E+003   -2.15271E+004    2.53592E+005   -7.10476E+004    2.39703E+005    5.45991E+004    1.79830E+005   -2.12858E+004    9.61228E+004    1.33310E+003    5.85880E+003
            4295    2.82243E+005    2.72067E+005    2.72067E+005    1.82172E+004   -3.18644E+004    3.03931E+005   -8.61398E+004    2.71975E+005    6.65699E+004    2.23200E+005   -3.13508E+004    1.00194E+005   -3.64725E+003    3.89860E+003
            4296    3.17090E+005    3.09403E+005    3.09403E+005    4.63494E+004   -4.26876E+004    3.52091E+005   -1.04355E+005    2.86880E+005    1.05532E+005    2.50107E+005   -4.25744E+004    1.09813E+005   -3.05445E+003   -5.52482E+003
            4297    1.46083E+005    4.20113E+004   -1.17813E+005    8.81696E+003   -1.17813E+005    1.59824E+005    2.23281E+004   -1.37207E+005    3.57845E+003   -7.84344E+004    7.87160E+003    6.75718E+004   -9.53534E+003    9.54054E+003
            4298    1.52247E+005    4.50410E+004   -1.17538E+005    2.16763E+004   -1.17538E+005    1.62579E+005    1.69402E+004   -1.48133E+005    9.16694E+003   -7.67304E+004    1.67430E+004    6.58272E+004   -1.04972E+004    2.42378E+004
            4299    1.59806E+005    4.46912E+004   -1.26883E+005    1.77232E+004   -1.26883E+005    1.71574E+005    2.14895E+004   -1.54562E+005    8.69731E+003   -8.59963E+004    1.28305E+004    6.75803E+004   -8.85063E+003    2.72414E+004
            4300    1.65655E+005    4.92905E+004   -1.29051E+005    2.00120E+004   -1.29051E+005    1.78342E+005    1.99163E+004   -1.59677E+005    1.10486E+004   -8.67017E+004    1.59042E+004    7.00407E+004   -7.22705E+003    2.89502E+004
            4301    1.67919E+005    4.88355E+004   -1.33069E+005    1.60212E+004   -1.33069E+005    1.81904E+005    2.27373E+004   -1.60466E+005    1.00893E+004   -9.19251E+004    1.36240E+004    7.22600E+004   -4.96050E+003    2.36532E+004
            4302    1.68921E+005    5.01283E+004   -1.33191E+005    1.61730E+004   -1.33191E+005    1.83319E+005    2.22966E+004   -1.60972E+005    1.10677E+004   -9.30892E+004    1.51315E+004    7.39730E+004   -3.12184E+003    1.63363E+004
            4303    1.68575E+005    4.95668E+004   -1.33784E+005    1.44991E+004   -1.33784E+005    1.83351E+005    2.32394E+004   -1.60057E+005    1.06950E+004   -9.48122E+004    1.43990E+004    7.48194E+004   -8.96458E+002    5.32471E+003
            4304    1.23688E+005    5.01034E+004   -8.94358E+004    6.70408E+003   -8.94358E+004    1.39539E+005    1.08761E+004   -1.04371E+005   -4.12762E+003   -3.46517E+004    6.15090E+003    6.77963E+004   -4.48325E+003    5.72672E+003
            4305    1.27429E+005    4.99683E+004   -9.40681E+004    3.99502E+003   -9.40681E+004    1.44036E+005    1.33683E+004   -1.06210E+005   -4.78594E+003   -3.74077E+004    2.08882E+003    6.80173E+004   -4.91784E+003    1.78032E+004
            4306    1.36572E+005    5.79265E+004   -9.66283E+004    7.78635E+003   -9.66283E+004    1.54555E+005    1.03051E+004   -1.12886E+005   -3.33101E+003   -3.41956E+004    6.61115E+003    7.11725E+004   -3.64470E+003    2.61858E+004
            4307    1.40517E+005    5.95404E+004   -1.00322E+005    3.65254E+003   -1.00322E+005    1.59863E+005    1.23764E+004   -1.11027E+005   -4.69376E+003   -3.51357E+004    2.70010E+003    7.42168E+004   -2.82055E+003    2.57581E+004
            4308    1.43689E+005    6.45225E+004   -9.94333E+004    4.57847E+003   -9.94333E+004    1.63956E+005    1.01108E+004   -1.09751E+005   -4.03188E+003   -3.05951E+004    4.29466E+003    7.75585E+004   -1.76386E+003    2.30594E+004
            4309    1.43721E+005    6.45260E+004   -9.97833E+004    2.55715E+003   -9.97833E+004    1.64309E+005    1.09001E+004   -1.06793E+005   -4.72806E+003   -3.04012E+004    2.42914E+003    7.98148E+004   -1.01965E+003    1.46877E+004
            4310    1.43756E+005    6.58669E+004   -9.86302E+004    2.88689E+003   -9.86302E+004    1.64497E+005    9.95881E+003   -1.05252E+005   -4.56596E+003   -2.81840E+004    2.87351E+003    8.11995E+004   -3.56950E+002    5.66951E+003
            4311    1.14848E+005    6.73828E+004    6.73828E+004   -2.61665E+003   -6.51627E+004    1.32545E+005    1.32177E+002    5.28074E+004    2.09937E+003    1.19523E+002   -2.61542E+003    6.62388E+004    8.84634E+001    1.87268E+003
            4312    1.19316E+005    7.40972E+004    7.40972E+004    2.11809E+003   -6.36302E+004    1.37727E+005   -4.19503E+003    5.10364E+004    3.65982E+003    6.47857E+003    2.44672E+003    6.64756E+004    8.17414E+002    1.79301E+004
            4313    1.26654E+005    7.93002E+004    7.93002E+004   -3.37047E+003   -6.65117E+004    1.45812E+005   -3.13933E+003    7.75390E+004    2.22908E+003    1.03228E+004   -3.13395E+003    6.86438E+004    1.32529E+003    2.42373E+004
            4314    1.33691E+005    8.88967E+004    8.88967E+004   -1.50074E+003   -6.46741E+004    1.53571E+005   -7.57395E+003    8.96193E+004    3.17160E+003    2.04030E+004   -8.52752E+002    7.14066E+004    1.74020E+003    2.69880E+004
            4315    1.36423E+005    9.23670E+004    9.23670E+004   -4.66316E+003   -6.36192E+004    1.55986E+005   -8.02822E+003    1.01163E+005    2.00621E+003    2.63301E+004   -4.25169E+003    7.37858E+004    1.68900E+003    2.22604E+004
            4316    1.38212E+005    9.69583E+004    9.69583E+004   -3.64452E+003   -6.06360E+004    1.57594E+005   -1.08926E+004    1.06506E+005    2.37889E+003    3.37017E+004   -3.40278E+003    7.56404E+004    1.20743E+003    1.56845E+004
            4317    1.38302E+005    9.80280E+004    9.80280E+004   -4.59805E+003   -5.92496E+004    1.57278E+005   -1.13934E+004    1.09731E+005    1.95477E+003    3.67890E+004   -4.56350E+003    7.65306E+004    4.79312E+002    4.93720E+003
            4318    1.24661E+005    9.10658E+004    9.10658E+004   -1.91711E+003   -5.05890E+004    1.41655E+005   -1.28532E+004    9.96460E+004    3.12990E+002    3.96866E+004   -1.43991E+003    6.77282E+004    5.55979E+003    4.61860E+003
            4319    1.32950E+005    9.64861E+004    9.64861E+004   -1.29874E+004   -5.14572E+004    1.47943E+005   -1.06805E+004    1.19432E+005   -3.09636E+003    4.53249E+004   -1.01870E+004    6.76604E+004    6.84805E+003    1.88245E+004
            4320    1.46342E+005    1.11212E+005    1.11212E+005   -1.16026E+004   -5.07102E+004    1.61923E+005   -1.62999E+004    1.33807E+005   -2.85589E+003    5.96064E+004   -7.85081E+003    7.03682E+004    6.82981E+003    2.69722E+004
            4321    1.57773E+005    1.21118E+005    1.21118E+005   -1.57997E+004   -5.14189E+004    1.72537E+005   -1.79665E+004    1.48316E+005   -4.52472E+003    7.11464E+004   -1.27220E+004    7.32529E+004    6.33728E+003    2.74475E+004
            4322    1.67980E+005    1.33589E+005    1.33589E+005   -1.35942E+004   -4.94101E+004    1.82999E+005   -2.35282E+004    1.59045E+005   -3.93427E+003    8.59590E+004   -1.14401E+004    7.64048E+004    5.01443E+003    2.46087E+004
            4323    1.74019E+005    1.39945E+005    1.39945E+005   -1.46430E+004   -4.85229E+004    1.88468E+005   -2.55930E+004    1.66354E+005   -4.59284E+003    9.51410E+004   -1.37692E+004    7.86562E+004    3.27420E+003    1.57463E+004
            4324    1.77656E+005    1.44802E+005    1.44802E+005   -1.33946E+004   -4.73985E+004    1.92201E+005   -2.80030E+004    1.70102E+005   -4.35415E+003    1.01659E+005   -1.32962E+004    7.99756E+004    1.02031E+003    5.87456E+003
            4325    1.49421E+005    1.21321E+005    1.21321E+005   -1.45085E+004   -3.87317E+004    1.60053E+005   -2.26935E+004    1.44904E+005    2.76366E+003    7.87714E+004   -1.34544E+004    6.94792E+004    9.23695E+003    1.02576E+004
            4326    1.58481E+005    1.31115E+005    1.31115E+005   -1.75513E+004   -3.56304E+004    1.66745E+005   -2.59776E+004    1.56136E+005   -5.41243E+002    9.12126E+004   -1.27385E+004    6.67084E+004    1.19837E+004    2.34424E+004
            4327    1.75122E+005    1.44687E+005    1.44687E+005   -2.40266E+004   -3.62066E+004    1.80894E+005   -2.81514E+004    1.74165E+005   -2.57986E+003    1.05664E+005   -1.86296E+004    6.83142E+004    1.12138E+004    2.93167E+004
            4328    1.92475E+005    1.63362E+005    1.63362E+005   -2.24947E+004   -3.51093E+004    1.98472E+005   -3.52527E+004    1.91541E+005   -3.61958E+003    1.26532E+005   -1.71538E+004    7.03367E+004    1.05088E+004    3.15668E+004
            4329    2.06945E+005    1.77426E+005    1.77426E+005   -2.38536E+004   -3.47532E+004    2.12179E+005   -3.96064E+004    2.06298E+005   -4.76819E+003    1.44204E+005   -2.06162E+004    7.25487E+004    8.11836E+003    2.60375E+004
            4330    2.16732E+005    1.89030E+005    1.89030E+005   -2.08143E+004   -3.39891E+004    2.23019E+005   -4.47421E+004    2.15828E+005   -5.35241E+003    1.58883E+005   -1.93045E+004    7.40944E+004    5.36296E+003    1.78612E+004
            4331    2.22484E+005    1.94969E+005    1.94969E+005   -2.05877E+004   -3.38494E+004    2.28818E+005   -4.68440E+004    2.21592E+005   -5.84139E+003    1.66799E+005   -2.04256E+004    7.49493E+004    1.78522E+003    5.83880E+003
            4332    1.86892E+005    1.64289E+005    1.64289E+005   -1.56464E+004   -2.88588E+004    1.93148E+005   -3.99279E+004    1.85837E+005    7.58318E+003    1.27873E+005   -1.56725E+004    7.33849E+004    1.14530E+004    1.37988E+004
            4333    1.97625E+005    1.68247E+005    1.68247E+005   -2.41678E+004   -3.42061E+004    2.02453E+005   -3.66243E+004    1.97050E+005    1.33816E+002    1.34279E+005   -2.45402E+004    6.85762E+004    1.68420E+004    2.69746E+004
            4334    2.19076E+005    1.91105E+005    1.91105E+005   -2.57184E+004   -3.01577E+004    2.21262E+005   -4.50762E+004    2.18975E+005   -7.71228E+002    1.57768E+005   -2.17684E+004    7.03196E+004    1.54033E+004    3.43688E+004
            4335    2.42421E+005    2.12626E+005    2.12626E+005   -2.66908E+004   -3.27848E+004    2.45411E+005   -5.10502E+004    2.42249E+005   -2.94962E+003    1.82148E+005   -2.60477E+004    7.23316E+004    1.41654E+004    3.36678E+004
            4336    2.61362E+005    2.34832E+005    2.34832E+005   -2.52195E+004   -2.78221E+004    2.62654E+005   -6.05967E+004    2.61333E+005   -2.54728E+003    2.06873E+005   -2.25359E+004    7.52809E+004    1.06882E+004    2.90020E+004
            4337    2.77216E+005    2.50969E+005    2.50969E+005   -2.49088E+004   -2.75672E+004    2.78536E+005   -6.61642E+004    2.77188E+005   -3.20505E+003    2.25649E+005   -2.39509E+004    7.75652E+004    7.00913E+003    1.91510E+004
            4338    2.84994E+005    2.60355E+005    2.60355E+005   -2.26005E+004   -2.66344E+004    2.86989E+005   -7.03734E+004    2.84930E+005   -2.95027E+003    2.36514E+005   -2.24439E+004    7.89395E+004    2.04748E+003    6.41044E+003
            4339    2.28294E+005    2.02934E+005    2.02934E+005   -1.97885E+004   -3.05509E+004    2.33485E+005   -5.08649E+004    2.27722E+005    9.98643E+003    1.69856E+005   -2.72477E+004    7.80460E+004    1.04063E+004    1.44062E+004
            4340    2.40614E+005    2.11289E+005    2.11289E+005   -2.02063E+004   -3.75088E+004    2.48798E+005   -5.11914E+004    2.39208E+005   -1.55259E+003    1.82409E+005   -2.72821E+004    7.02446E+004    1.87517E+004    3.05513E+004
            4341    2.67038E+005    2.35901E+005    2.35901E+005   -2.15381E+004   -3.97980E+004    2.75699E+005   -5.81883E+004    2.65628E+005   -2.87502E+003    2.09209E+005   -3.17690E+004    7.02181E+004    1.71626E+004    3.50777E+004
            4342    2.92554E+005    2.63616E+005    2.63616E+005   -2.12313E+004   -3.60785E+004    2.99695E+005   -6.87688E+004    2.91704E+005   -7.04280E+003    2.39659E+005   -2.63104E+004    7.03365E+004    1.66914E+004    3.61644E+004
            4343    3.19249E+005    2.91073E+005    2.91073E+005   -2.19732E+004   -3.40374E+004    3.25110E+005   -7.83541E+004    3.18736E+005   -7.83500E+003    2.70249E+005   -2.73518E+004    7.17981E+004    1.30012E+004    3.06005E+004
            4344    3.36549E+005    3.11236E+005    3.11236E+005   -2.10593E+004   -2.94101E+004    3.40647E+005   -8.69223E+004    3.36316E+005   -9.63644E+003    2.93320E+005   -2.29166E+004    7.26375E+004    8.77697E+003    2.01913E+004
            4345    3.49022E+005    3.24495E+005    3.24495E+005   -2.25218E+004   -2.64983E+004    3.50993E+005   -9.18249E+004    3.48971E+005   -9.88448E+003    3.08178E+005   -2.28191E+004    7.34254E+004    2.98426E+003    7.53552E+003
            4346    2.60061E+005    2.44385E+005    2.44385E+005   -5.29444E+003   -2.49422E+004    2.69327E+005   -7.13828E+004    2.58383E+005    2.67831E+004    2.10818E+005   -2.34526E+004    8.37899E+004    8.73892E+003    1.53038E+004
            4347    2.86458E+005    2.60157E+005    2.60157E+005   -8.52955E+003   -4.12608E+004    3.01417E+005   -7.01221E+004    2.82205E+005    1.48769E+004    2.30708E+005   -3.52187E+004    7.91299E+004    1.83742E+004    2.80220E+004
            4348    3.09753E+005    2.88011E+005    2.88011E+005   -8.70025E+003   -3.33156E+004    3.21327E+005   -8.19984E+004    3.07541E+005    9.61138E+003    2.61773E+005   -2.53894E+004    7.67206E+004    1.84195E+004    3.48072E+004
            4349    3.48619E+005    3.26695E+005    3.26695E+005   -9.61792E+003   -3.30495E+004    3.59744E+005   -9.46757E+004    3.46841E+005    6.61023E+003    3.02536E+005   -2.51191E+004    7.92430E+004    1.77346E+004    3.55209E+004
            4350    3.78915E+005    3.63301E+005    3.63301E+005   -8.52865E+003   -2.23221E+004    3.85623E+005   -1.10817E+005    3.78350E+005    5.11773E+003    3.41535E+005   -1.42019E+004    8.21144E+004    1.38772E+004    3.01186E+004
            4351    4.08913E+005    3.95050E+005    3.95050E+005   -9.44698E+003   -1.81406E+004    4.13190E+005   -1.22487E+005    4.08705E+005    4.11152E+003    3.74883E+005   -1.15320E+004    8.56987E+004    9.12175E+003    2.16880E+004
            4352    4.25352E+005    4.14618E+005    4.14618E+005   -6.40032E+003   -1.49387E+004    4.29556E+005   -1.31093E+005    4.25159E+005    4.20523E+003    3.95597E+005   -6.52386E+003    8.80621E+004    2.87622E+003    6.63505E+003
            4353    3.05586E+005    2.75746E+005    2.75746E+005   -1.89113E+004   -3.97072E+004    3.15453E+005   -7.23758E+004    3.03988E+005    1.03626E+004    2.46080E+005   -3.93152E+004    8.82459E+004    1.63933E+003    9.52719E+003
            4354    3.18799E+005    3.01235E+005    3.01235E+005   -3.77772E+003   -2.97602E+004    3.30995E+005   -8.92323E+004    3.16404E+005    2.29408E+004    2.72271E+005   -2.75143E+004    8.72402E+004    1.08346E+004    1.96382E+004
            4355    3.59492E+005    3.35599E+005    3.35599E+005   -1.18163E+004   -3.48622E+004    3.70461E+005   -9.63068E+004    3.57825E+005    4.45399E+003    3.12185E+005   -2.77183E+004    8.30758E+004    1.63130E+004    2.64459E+004
            4356    3.91619E+005    3.82044E+005    3.82044E+005    1.35186E+003   -1.96569E+004    4.01700E+005   -1.21246E+005    3.90348E+005    1.18959E+004    3.59912E+005   -8.06967E+003    8.46048E+004    1.73718E+004    2.90043E+004
            4357    4.36788E+005    4.30743E+005    4.30743E+005    4.44866E+003   -1.58320E+004    4.46575E+005   -1.39787E+005    4.35727E+005    7.76443E+003    4.10554E+005    1.04107E+003    8.61402E+004    1.57012E+004    3.05006E+004
            4358    4.68448E+005    4.72977E+005    4.72977E+005    1.56437E+004   -5.84753E+003    4.78824E+005   -1.60924E+005    4.67337E+005    1.31617E+004    4.54776E+005    1.48354E+004    8.85503E+004    1.02869E+004    2.09466E+004
            4359    4.90129E+005    4.97554E+005    4.97554E+005    1.94655E+004   -3.78851E+003    5.01342E+005   -1.71077E+005    4.88885E+005    1.30167E+004    4.80741E+005    1.94733E+004    8.96809E+004    3.92085E+003    9.39573E+003
            4360    6.27940E+005    6.55255E+005    6.55255E+005    8.90726E+004   -2.01199E+004    6.75375E+005   -2.41403E+005    6.06026E+005    1.33356E+004    6.21818E+005    8.90549E+004    1.46395E+005    3.79733E+003    4.52850E+003
            4361    5.85782E+005    6.06887E+005    6.06887E+005    7.00698E+004   -1.79070E+004    6.24794E+005   -2.19683E+005    5.70634E+005    1.47776E+004    5.74198E+005    7.00745E+004    1.38007E+005    1.00951E+004    1.44007E+004
            4362    5.18876E+005    5.33888E+005    5.33888E+005    4.63156E+004   -1.14574E+004    5.45345E+005   -1.89582E+005    5.11565E+005    2.10847E+004    5.02021E+005    4.56403E+004    1.26484E+005    1.25507E+004    1.49781E+004
            4363    4.53506E+005    4.59121E+005    4.59121E+005    1.61901E+004   -4.26800E+003    4.63389E+005   -1.57014E+005    4.52466E+005    3.02355E+004    4.26963E+005    1.38448E+004    1.15799E+005    1.21847E+004    1.66401E+004
            4364    3.89928E+005    3.95046E+005    3.95046E+005    1.46159E+004   -3.73174E+003    3.98778E+005   -1.35310E+005    3.88955E+005    4.74755E+004    3.60007E+005   -1.55220E+003    1.09684E+005    8.93017E+003    1.01761E+004
            4365    3.59615E+005    3.52304E+005    3.52304E+005    2.38435E+004   -3.19450E+004    3.84249E+005   -1.14734E+005    3.49680E+005    6.32567E+004    3.12602E+005   -3.16563E+004    1.06768E+005    4.93734E+003    8.24641E+003
            4366    3.19170E+005    3.21005E+005    3.21005E+005    4.29998E+004   -2.75314E+004    3.48536E+005   -1.12158E+005    3.00877E+005    9.59087E+004    2.67949E+005   -2.73846E+004    1.09106E+005    2.33530E+003    6.58410E+003
            4367    3.47884E+005    3.00903E+004   -3.46077E+005   -3.59389E+004   -3.46077E+005    3.76167E+005    1.17309E+005   -3.33346E+005   -8.61919E+004   -2.94737E+005    2.90032E+004    1.15299E+005   -1.02212E+004    3.83361E+003
            4368    2.96550E+005    2.16054E+004   -2.94449E+005   -2.22982E+004   -2.94449E+005    3.16054E+005    9.83805E+004   -2.89102E+005   -6.13297E+004   -2.54417E+005    2.06047E+004    9.64775E+004   -3.75730E+003   -7.29181E+003
            4369    2.45034E+005    2.75055E+004   -2.30206E+005   -2.07524E+002   -2.30206E+005    2.57712E+005    6.76361E+004   -2.41470E+005   -5.47211E+004   -1.73709E+005    2.55216E+004    9.85160E+004    2.79552E+003   -1.58841E+004
            4370    1.95259E+005    2.00119E+004   -1.80511E+005    9.01982E+003   -1.80511E+005    2.00523E+005    5.04930E+004   -1.94561E+005   -3.50792E+004   -1.27429E+005    1.10288E+004    8.76664E+004    6.73419E+003   -2.66828E+003
            4371    1.83718E+005    2.64324E+004   -1.60155E+005    2.05524E+004   -1.60155E+005    1.86587E+005    3.77234E+004   -1.83506E+005   -1.12752E+004   -1.20673E+005    1.87775E+004    7.35201E+004    1.13652E+004   -1.81713E+004
            4372    1.89040E+005    2.55144E+004   -1.66762E+005    1.88675E+004   -1.66762E+005    1.92276E+005    4.07933E+004   -1.88777E+005   -8.71229E+003   -1.30223E+005    1.65559E+004    6.92124E+004    1.57748E+004   -2.67385E+004
            4373    1.99498E+005    2.74981E+004   -1.73664E+005    2.41278E+004   -1.73664E+005    2.01162E+005    4.06794E+004   -1.99434E+005   -6.35855E+003   -1.35010E+005    1.93301E+004    7.20842E+004    1.27701E+004   -3.26910E+004
            4374    2.10581E+005    2.63792E+004   -1.86301E+005    2.21154E+004   -1.86301E+005    2.12681E+005    4.59356E+004   -2.10484E+005   -5.98400E+003   -1.49232E+005    1.74096E+004    7.40726E+004    1.15961E+004   -3.19491E+004
            4375    2.19390E+005    2.86382E+004   -1.94123E+005    2.17321E+004   -1.94123E+005    2.22761E+005    4.79176E+004   -2.19145E+005   -5.03172E+003   -1.58145E+005    1.94240E+004    7.73713E+004    8.23837E+003   -2.69752E+004
            4376    2.25345E+005    2.77546E+004   -2.01596E+005    1.95157E+004   -2.01596E+005    2.29351E+005    5.14420E+004   -2.25005E+005   -4.93970E+003   -1.67716E+005    1.83295E+004    7.95050E+004    5.38675E+003   -1.73663E+004
            4377    2.27650E+005    2.83573E+004   -2.03874E+005    1.89011E+004   -2.03874E+005    2.32231E+005    5.22051E+004   -2.27208E+005   -4.58996E+003   -1.70807E+005    1.87813E+004    8.09106E+004    1.69274E+003   -6.26209E+003
            4378    2.34743E+005    3.43605E+004   -2.06744E+005    2.10749E+004   -2.06744E+005    2.41104E+005    5.04360E+004   -2.33895E+005    4.19558E+003   -1.79697E+005    2.41930E+004    7.30027E+004    1.23275E+004   -1.59867E+004
            4379    2.34945E+005    4.44446E+004   -1.98200E+005    2.82027E+004   -1.98200E+005    2.42645E+005    4.18510E+004   -2.33677E+005    1.54562E+004   -1.71942E+005    3.09328E+004    6.65209E+004    1.81388E+004   -2.98849E+004
            4380    2.52048E+005    3.91571E+004   -2.18232E+005    2.81111E+004   -2.18232E+005    2.57390E+005    5.03214E+004   -2.51503E+005    1.50032E+004   -1.92923E+005    2.69553E+004    6.58140E+004    1.62327E+004   -3.59728E+004
            4381    2.70169E+005    4.09263E+004   -2.33732E+005    3.17113E+004   -2.33732E+005    2.74658E+005    5.36981E+004   -2.69815E+005    1.84277E+004   -2.09782E+005    3.02597E+004    6.71584E+004    1.46286E+004   -3.60491E+004
            4382    2.84413E+005    3.66612E+004   -2.51176E+005    2.96845E+004   -2.51176E+005    2.87837E+005    6.16101E+004   -2.84220E+005    1.71953E+004   -2.29944E+005    2.79183E+004    6.84671E+004    1.08127E+004   -2.96308E+004
            4383    2.94728E+005    3.63159E+004   -2.61687E+005    2.96541E+004   -2.61687E+005    2.98002E+005    6.52389E+004   -2.94559E+005    1.81661E+004   -2.42737E+005    2.88547E+004    6.96619E+004    7.09797E+003   -1.98459E+004
            4384    2.98894E+005    3.50787E+004   -2.67330E+005    2.79212E+004   -2.67330E+005    3.02409E+005    6.81100E+004   -2.98701E+005    1.77384E+004   -2.49876E+005    2.78074E+004    7.02001E+004    2.17062E+003   -6.48389E+003
            4385    2.62014E+005    2.33300E+004   -2.50825E+005   -2.92976E+003   -2.50825E+005    2.74155E+005    7.68084E+004   -2.59029E+005   -3.97624E+004   -2.12903E+005    2.22400E+004    8.84876E+004    8.29244E+003   -1.15185E+004
            4386    2.73387E+005    2.84999E+004   -2.58260E+005   -5.69608E+002   -2.58260E+005    2.86760E+005    7.67767E+004   -2.69877E+005   -2.67708E+004   -2.24978E+005    2.14185E+004    7.96043E+004    1.94355E+004   -3.38480E+004
            4387    3.02103E+005    3.46974E+004   -2.81767E+005    3.56244E+003   -2.81767E+005    3.16464E+005    8.11691E+004   -2.98461E+005   -2.02494E+004   -2.50985E+005    2.77273E+004    7.92305E+004    1.76587E+004   -4.03626E+004
            4388    3.29939E+005    3.02146E+004   -3.11712E+005    4.76729E+003   -3.11712E+005    3.41926E+005    9.22433E+004   -3.27721E+005   -1.53492E+004   -2.84890E+005    2.35097E+004    7.93420E+004    1.68140E+004   -3.86864E+004
            4389    3.55425E+005    2.65363E+004   -3.37773E+005    8.04578E+003   -3.37773E+005    3.64310E+005    1.01064E+005   -3.54341E+005   -1.11434E+004   -3.13926E+005    2.18775E+004    8.16093E+004    1.31431E+004   -3.19540E+004
            4390    3.74487E+005    1.98250E+004   -3.59560E+005    9.82842E+003   -3.59560E+005    3.79385E+005    1.09969E+005   -3.74186E+005   -8.62514E+003   -3.38187E+005    1.69056E+004    8.38457E+004    8.71033E+003   -2.03767E+004
            4391    3.84275E+005    1.60921E+004   -3.69871E+005    1.26927E+004   -3.69871E+005    3.85963E+005    1.13695E+005   -3.84241E+005   -6.87721E+003   -3.49681E+005    1.54718E+004    8.52722E+004    2.88351E+003   -7.13989E+003
            4392    2.83950E+005    4.45193E+004   -2.48651E+005    2.50803E+004   -2.48651E+005    2.93171E+005    5.96838E+004   -2.82448E+005    2.78659E+004   -2.31633E+005    2.47158E+004    6.77715E+004    3.05373E+003   -9.81081E+003
            4393    3.25413E+005    5.27693E+004   -2.81821E+005    3.35634E+004   -2.81821E+005    3.34591E+005    6.51629E+004   -3.24134E+005    2.03234E+004   -2.62067E+005    4.62545E+004    7.19654E+004    1.42909E+004   -2.58500E+004
            4394    3.55756E+005    4.29060E+004   -3.22923E+005    2.18210E+004   -3.22923E+005    3.65829E+005    8.60654E+004   -3.54346E+005    1.31565E+004   -3.04524E+005    3.31714E+004    7.16420E+004    1.65145E+004   -2.98114E+004
            4395    3.95152E+005    3.56637E+004   -3.70094E+005    1.35218E+004   -3.70094E+005    4.05758E+005    1.06969E+005   -3.93753E+005    9.85615E+003   -3.51985E+005    2.12209E+004    7.52750E+004    1.76849E+004   -3.18184E+004
            4396    4.27976E+005    2.37501E+004   -4.14154E+005    3.14988E+003   -4.14154E+005    4.37904E+005    1.29085E+005   -4.26858E+005    4.91946E+003   -3.97330E+005    5.15687E+003    7.77718E+004    1.39735E+004   -2.90512E+004
            4397    4.54041E+005    1.73374E+004   -4.46252E+005   -2.40437E+003   -4.46252E+005    4.63590E+005    1.43773E+005   -4.53074E+005    1.44161E+003   -4.30735E+005   -2.02541E+003    7.98943E+004    9.40969E+003   -2.19656E+004
            4398    4.68707E+005    1.33584E+004   -4.64824E+005   -6.20476E+003   -4.64824E+005    4.78182E+005    1.52557E+005   -4.67787E+005   -8.34479E+002   -4.50604E+005   -6.23204E+003    8.07686E+004    3.00662E+003   -8.05453E+003
            4399    6.09872E+005    1.08935E+004   -6.42765E+005   -8.90163E+004   -6.42765E+005    6.53658E+005    2.40296E+005   -5.91039E+005   -2.16880E+004   -6.10209E+005   -8.89905E+004    1.42039E+005    4.35333E+003   -5.30428E+003
            4400    5.71404E+005    8.07703E+003   -5.99943E+005   -7.40416E+004   -5.99943E+005    6.08020E+005    2.21969E+005   -5.57896E+005   -2.46124E+004   -5.67569E+005   -7.37258E+004    1.35585E+005    1.07522E+004   -1.23502E+004
            4401    5.10698E+005    3.02938E+003   -5.32023E+005   -4.97836E+004   -5.32023E+005    5.35053E+005    1.92926E+005   -5.04500E+005   -3.09519E+004   -4.99416E+005   -4.84101E+004    1.26251E+005    1.47221E+004   -1.59147E+004
            4402    4.45072E+005   -5.31120E+003   -4.61502E+005   -2.84510E+004   -4.61502E+005    4.56191E+005    1.65088E+005   -4.43716E+005   -4.48556E+004   -4.27362E+005   -2.30465E+004    1.18031E+005    1.44014E+004   -1.34676E+004
            4403    3.94309E+005    1.32338E+004   -3.99025E+005   -2.55311E+004   -3.99025E+005    4.12259E+005    1.37108E+005   -3.89987E+005   -6.28285E+004   -3.59678E+005    1.11840E+004    1.14136E+005    1.18906E+004   -1.16361E+004
            4404    3.60451E+005    3.63499E+004   -3.56282E+005   -4.03604E+004   -3.56282E+005    3.92632E+005    1.20097E+005   -3.41354E+005   -9.22499E+004   -3.04289E+005    3.62470E+004    1.17105E+005    3.62998E+003   -2.97909E+003
            4405    3.93305E+005    7.32352E+004   -3.68266E+005   -5.53391E+004   -3.68266E+005    4.41501E+005    1.16790E+005   -3.40975E+005   -1.31751E+005   -2.90827E+005    7.22088E+004    1.35192E+005   -1.29728E+004    1.04050E+003
            4406    4.90539E+005    4.98112E+005    4.98112E+005    1.96981E+004   -3.71430E+003    5.01826E+005   -1.71365E+005    4.89280E+005    1.31231E+004    4.81277E+005    1.96958E+004    8.97589E+004   -4.06046E+003   -9.57830E+003
            4407    4.25742E+005    4.15106E+005    4.15106E+005   -6.25454E+003   -1.48858E+004    4.29992E+005   -1.31322E+005    4.25545E+005    4.27877E+003    3.96069E+005   -6.38237E+003    8.81066E+004   -3.03278E+003   -7.06498E+003
            4408    3.49433E+005    3.24954E+005    3.24954E+005   -2.24390E+004   -2.64828E+004    3.51437E+005   -9.20108E+004    3.49380E+005   -9.80185E+003    3.08609E+005   -2.27746E+004    7.34806E+004   -3.16147E+003   -7.97190E+003
            4409    2.84906E+005    2.60168E+005    2.60168E+005   -2.27498E+004   -2.66855E+004    2.86853E+005   -7.02441E+004    2.84845E+005   -3.03588E+003    2.36342E+005   -2.25733E+004    7.88459E+004   -2.32296E+003   -6.95141E+003
            4410    2.22366E+005    1.94860E+005    1.94860E+005   -2.05823E+004   -3.38353E+004    2.28696E+005   -4.68142E+004    2.21474E+005   -5.80504E+003    1.66641E+005   -2.03930E+004    7.49428E+004   -1.92163E+003   -6.32872E+003
            4411    1.77531E+005    1.44629E+005    1.44629E+005   -1.34313E+004   -4.74497E+004    1.92079E+005   -2.79160E+004    1.69964E+005   -4.38557E+003    1.01451E+005   -1.33176E+004    7.99398E+004   -1.10484E+003   -6.21646E+003
            4412    1.38345E+005    9.81258E+004    9.81258E+004   -4.55319E+003   -5.91960E+004    1.57322E+005   -1.14589E+004    1.09797E+005    1.98403E+003    3.69104E+004   -4.51783E+003    7.65310E+004   -4.83062E+002   -5.11858E+003
            4413    1.43725E+005    6.57931E+004   -9.86588E+004    2.89115E+003   -9.86588E+004    1.64452E+005    9.99150E+003   -1.05332E+005   -4.53236E+003   -2.83209E+004    2.87876E+003    8.11642E+004    3.48948E+002   -5.66767E+003
            4414    1.68776E+005    4.95780E+004   -1.33963E+005    1.45502E+004   -1.33963E+005    1.83541E+005    2.32784E+004   -1.60289E+005    1.07595E+004   -9.50472E+004    1.44524E+004    7.48328E+004    8.82526E+002   -5.28380E+003
            4415    4.68361E+005    4.72944E+005    4.72944E+005    1.58453E+004   -5.91985E+003    4.78864E+005   -1.60956E+005    4.67221E+005    1.31806E+004    4.54671E+005    1.50181E+004    8.86253E+004   -1.04920E+004   -2.13105E+004
            4416    4.08946E+005    3.95293E+005    3.95293E+005   -9.16911E+003   -1.79943E+004    4.13287E+005   -1.22710E+005    4.08732E+005    4.34418E+003    3.75053E+005   -1.12672E+004    8.57401E+004   -9.28998E+003   -2.21233E+004
            4417    3.36034E+005    3.10619E+005    3.10619E+005   -2.10142E+004   -2.96496E+004    3.40268E+005   -8.66517E+004    3.35784E+005   -9.50579E+003    2.92566E+005   -2.31055E+004    7.26229E+004   -9.13033E+003   -2.08634E+004
            4418    2.76113E+005    2.49760E+005    2.49760E+005   -2.50669E+004   -2.76224E+004    2.77382E+005   -6.56902E+004    2.76087E+005   -3.19506E+003    2.24289E+005   -2.40234E+004    7.74449E+004   -7.19580E+003   -1.97418E+004
            4419    2.15506E+005    1.87701E+005    1.87701E+005   -2.08695E+004   -3.41276E+004    2.21829E+005   -4.42347E+004    2.14585E+005   -5.32385E+003    1.57299E+005   -1.92712E+004    7.40132E+004   -5.52251E+003   -1.83347E+004
            4420    1.73342E+005    1.39141E+005    1.39141E+005   -1.44807E+004   -4.87900E+004    1.87931E+005   -2.52900E+004    1.65442E+005   -4.57480E+003    9.40370E+004   -1.35921E+004    7.86384E+004   -3.27370E+003   -1.60036E+004
            4421    1.37979E+005    9.65066E+004    9.65066E+004   -3.54715E+003   -6.08989E+004    1.57405E+005   -1.06869E+004    1.05688E+005    2.43140E+003    3.29304E+004   -3.30124E+003    7.55977E+004   -1.21312E+003   -1.58208E+004
            4422    1.43892E+005    6.41898E+004   -1.00218E+005    2.78112E+003   -1.00218E+005    1.64408E+005    1.10823E+004   -1.07886E+005   -4.67951E+003   -3.12049E+004    2.63745E+003    7.98061E+004    1.07721E+003   -1.46415E+004
            4423    1.69703E+005    4.98960E+004   -1.34107E+005    1.62579E+004   -1.34107E+005    1.84003E+005    2.26509E+004   -1.61945E+005    1.11288E+004   -9.43086E+004    1.52270E+004    7.39653E+004    3.11320E+003   -1.62415E+004
            4424    4.35557E+005    4.29506E+005    4.29506E+005    4.51545E+003   -1.58996E+004    4.45405E+005   -1.39374E+005    4.34478E+005    7.93809E+003    4.09262E+005    9.21057E+002    8.61281E+004   -1.58364E+004   -3.04227E+004
            4425    3.77173E+005    3.61220E+005    3.61220E+005   -8.67826E+003   -2.28305E+004    3.84050E+005   -1.09904E+005    3.76575E+005    5.03550E+003    3.39354E+005   -1.46785E+004    8.18844E+004   -1.41266E+004   -3.05374E+004
            4426    3.16387E+005    2.88017E+005    2.88017E+005   -2.19725E+004   -3.44020E+004    3.22419E+005   -7.72142E+004    3.15837E+005   -7.72092E+003    2.66919E+005   -2.75554E+004    7.16465E+004   -1.33173E+004   -3.10993E+004
            4427    2.58251E+005    2.31475E+005    2.31475E+005   -2.55951E+004   -2.79400E+004    2.59415E+005   -5.93134E+004    2.58227E+005   -2.60195E+003    2.03116E+005   -2.25742E+004    7.50789E+004   -1.08060E+004   -2.94681E+004
            4428    2.04292E+005    1.74699E+005    1.74699E+005   -2.35680E+004   -3.51264E+004    2.09826E+005   -3.86682E+004    2.03554E+005   -4.66317E+003    1.40953E+005   -2.02850E+004    7.24572E+004   -8.13325E+003   -2.62277E+004
            4429    1.66408E+005    1.31651E+005    1.31651E+005   -1.32513E+004   -5.00889E+004    1.81740E+005   -2.27704E+004    1.56836E+005   -3.91798E+003    8.33516E+004   -1.11224E+004    7.63630E+004   -4.90952E+003   -2.46903E+004
            4430    1.35978E+005    9.13733E+004    9.13733E+004   -4.27853E+003   -6.42866E+004    1.55660E+005   -7.60273E+003    9.88517E+004    2.13794E+003    2.45710E+004   -3.90078E+003    7.37734E+004   -1.59428E+003   -2.22095E+004
            4431    1.44082E+005    6.37727E+004   -1.00437E+005    4.82103E+003   -1.00437E+005    1.64210E+005    1.06144E+004   -1.11664E+005   -3.99380E+003   -3.23430E+004    4.49345E+003    7.75437E+004    1.86737E+003   -2.30498E+004
            4432    1.68936E+005    4.86840E+004   -1.34104E+005    1.62882E+004   -1.34104E+005    1.82787E+005    2.30438E+004   -1.61724E+005    1.03644E+004   -9.33839E+004    1.38882E+004    7.22448E+004    4.99016E+003   -2.35573E+004
            4433    3.89930E+005    3.79857E+005    3.79857E+005    1.01914E+003   -2.02912E+004    4.00148E+005   -1.20195E+005    3.88617E+005    1.18995E+004    3.57661E+005   -8.97521E+003    8.44581E+004   -1.74847E+004   -2.90093E+004
            4434    3.45028E+005    3.22676E+005    3.22676E+005   -9.85791E+003   -3.36178E+004    3.56294E+005   -9.30668E+004    3.43180E+005    6.47962E+003    2.98381E+005   -2.56606E+004    7.88713E+004   -1.78610E+004   -3.56086E+004
            4435    2.87931E+005    2.58697E+005    2.58697E+005   -2.15101E+004   -3.63817E+004    2.95079E+005   -6.69350E+004    2.87065E+005   -6.92599E+003    2.34345E+005   -2.66140E+004    7.00828E+004   -1.68468E+004   -3.63710E+004
            4436    2.38051E+005    2.08189E+005    2.08189E+005   -2.71849E+004   -3.24526E+004    2.40641E+005   -4.95170E+004    2.37920E+005   -2.89217E+003    1.77151E+005   -2.57083E+004    7.21809E+004   -1.41006E+004   -3.36519E+004
            4437    1.89119E+005    1.59882E+005    1.59882E+005   -2.19889E+004   -3.57344E+004    1.95616E+005   -3.40529E+004    1.87990E+005   -3.52616E+003    1.22376E+005   -1.66908E+004    7.02289E+004   -1.03629E+004   -3.14397E+004
            4438    1.56109E+005    1.19037E+005    1.19037E+005   -1.52378E+004   -5.22535E+004    1.71290E+005   -1.71818E+004    1.45736E+005   -4.47553E+003    6.82818E+004   -1.22610E+004    7.32695E+004   -6.11277E+003   -2.72763E+004
            4439    1.33325E+005    8.77800E+004    8.77800E+004   -1.11865E+003   -6.55198E+004    1.53300E+005   -7.04719E+003    8.64386E+004    3.31282E+003    1.83773E+004   -5.48604E+002    7.13773E+004   -1.59161E+003   -2.69808E+004
            4440    1.41063E+005    5.89532E+004   -1.01326E+005    3.94863E+003   -1.01326E+005    1.60279E+005    1.28079E+004   -1.12844E+005   -4.72579E+003   -3.66443E+004    2.94638E+003    7.42910E+004    2.94920E+003   -2.57720E+004
            4441    1.66166E+005    4.93549E+004   -1.29487E+005    2.01247E+004   -1.29487E+005    1.78842E+005    2.00025E+004   -1.60228E+005    1.13826E+004   -8.73930E+004    1.60029E+004    7.00108E+004    7.21493E+003   -2.89610E+004
            4442    3.57015E+005    3.32873E+005    3.32873E+005   -1.19891E+004   -3.51651E+004    3.68039E+005   -9.52397E+004    3.55317E+005    4.61764E+003    3.09313E+005   -2.82116E+004    8.29536E+004   -1.62465E+004   -2.64827E+004
            4443    3.05693E+005    2.83349E+005    2.83349E+005   -9.14660E+003   -3.40215E+004    3.17370E+005   -8.00603E+004    3.03403E+005    9.38140E+003    2.56926E+005   -2.61264E+004    7.63400E+004   -1.84750E+004   -3.46989E+004
            4444    2.61954E+005    2.30730E+005    2.30730E+005   -2.19299E+004   -3.96209E+004    2.70351E+005   -5.63932E+004    2.60605E+005   -2.91419E+003    2.03670E+005   -3.15763E+004    6.99494E+004   -1.71380E+004   -3.48349E+004
            4445    2.14637E+005    1.86684E+005    1.86684E+005   -2.60708E+004   -2.97878E+004    2.16472E+005   -4.36085E+004    2.14565E+005   -7.37536E+002    1.52838E+005   -2.12753E+004    7.01376E+004   -1.51951E+004   -3.39474E+004
            4446    1.72309E+005    1.41799E+005    1.41799E+005   -2.33379E+004   -3.68820E+004    1.78681E+005   -2.71931E+004    1.71105E+005   -2.52055E+003    1.02185E+005   -1.80851E+004    6.82694E+004   -1.09245E+004   -2.89538E+004
            4447    1.45112E+005    1.09512E+005    1.09512E+005   -1.11230E+004   -5.15183E+004    1.61030E+005   -1.56235E+004    1.31543E+005   -2.80799E+003    5.71698E+004   -7.49132E+003    7.03878E+004   -6.58226E+003   -2.68586E+004
            4448    1.26598E+005    7.86113E+004    7.86113E+004   -3.03806E+003   -6.72232E+004    1.45835E+005   -2.78336E+003    7.47212E+004    2.28781E+003    8.94630E+003   -2.88401E+003    6.86785E+004   -1.16093E+003   -2.42710E+004
            4449    1.37096E+005    5.76431E+004   -9.73755E+004    7.92335E+003   -9.73755E+004    1.55019E+005    1.06030E+004   -1.13989E+005   -3.26711E+003   -3.52295E+004    6.68757E+003    7.12380E+004    3.74281E+003   -2.63938E+004
            4450    1.60430E+005    4.46669E+004   -1.27491E+005    1.78259E+004   -1.27491E+005    1.72157E+005    2.16659E+004   -1.55257E+005    8.75850E+003   -8.67004E+004    1.29441E+004    6.76658E+004    8.82960E+003   -2.73154E+004
            4451    3.16983E+005    2.99047E+005    2.99047E+005   -3.97852E+003   -3.02575E+004    3.29305E+005   -8.82703E+004    3.14518E+005    2.29483E+004    2.69887E+005   -2.80241E+004    8.71948E+004   -1.08496E+004   -1.96004E+004
            4452    2.82902E+005    2.56549E+005    2.56549E+005   -8.82009E+003   -4.11153E+004    2.97664E+005   -6.88711E+004    2.78710E+005    1.48568E+004    2.26859E+005   -3.51031E+004    7.88897E+004   -1.83038E+004   -2.78393E+004
            4453    2.36721E+005    2.07354E+005    2.07354E+005   -2.05059E+004   -3.73296E+004    2.44684E+005   -4.98396E+004    2.35370E+005   -1.68975E+003    1.78243E+005   -2.70342E+004    7.00324E+004   -1.86302E+004   -3.00200E+004
            4454    1.94866E+005    1.65589E+005    1.65589E+005   -2.43153E+004   -3.38861E+004    1.99475E+005   -3.57958E+004    1.94336E+005    2.36758E+002    1.31209E+005   -2.40583E+004    6.85279E+004   -1.66564E+004   -2.66222E+004
            4455    1.56873E+005    1.29329E+005    1.29329E+005   -1.72665E+004   -3.61179E+004    1.65447E+005   -2.53150E+004    1.54294E+005   -6.31324E+002    8.90555E+004   -1.24792E+004    6.66337E+004   -1.18344E+004   -2.32538E+004
            4456    1.32608E+005    9.58876E+004    9.58876E+004   -1.28008E+004   -5.18646E+004    1.47752E+005   -1.04074E+004    1.18589E+005   -3.09967E+003    4.43424E+004   -1.00206E+004    6.76749E+004   -6.71618E+003   -1.89996E+004
            4457    1.19496E+005    7.38789E+004    7.38789E+004    2.15932E+003   -6.40665E+004    1.37945E+005   -3.99060E+003    4.89917E+004    3.64353E+003    5.85935E+003    2.46892E+003    6.64962E+004   -7.67152E+002   -1.82881E+004
            4458    1.27870E+005    4.99467E+004   -9.44968E+004    4.23729E+003   -9.44968E+004    1.44444E+005    1.34376E+004   -1.07027E+005   -4.71603E+003   -3.79027E+004    2.30598E+003    6.80765E+004    4.93197E+003   -1.81746E+004
            4459    1.52786E+005    4.48201E+004   -1.18216E+005    2.16798E+004   -1.18216E+005    1.63036E+005    1.72387E+004   -1.48767E+005    9.00956E+003   -7.74211E+004    1.66956E+004    6.58805E+004    1.05273E+004   -2.44723E+004
            4460    3.03983E+005    2.74430E+005    2.74430E+005   -1.88863E+004   -3.92012E+004    3.13631E+005   -7.21141E+004    3.02450E+005    1.06240E+004    2.44524E+005   -3.88054E+004    8.83180E+004   -1.81408E+003   -9.69099E+003
            4461    2.57742E+005    2.41851E+005    2.41851E+005   -5.64006E+003   -2.50463E+004    2.66897E+005   -7.03881E+004    2.56091E+005    2.65880E+004    2.08184E+005   -2.36075E+004    8.35384E+004   -8.59149E+003   -1.48522E+004
            4462    2.26211E+005    2.00948E+005    2.00948E+005   -1.99666E+004   -3.02114E+004    2.31159E+005   -5.02566E+004    2.25688E+005    9.89324E+003    1.67679E+005   -2.68023E+004    7.79341E+004   -1.03148E+004   -1.41187E+004
            4463    1.85235E+005    1.62493E+005    1.62493E+005   -1.55510E+004   -2.91810E+004    1.91674E+005   -3.92535E+004    1.84102E+005    7.27459E+003    1.26019E+005   -1.55331E+004    7.31136E+004   -1.14166E+004   -1.36073E+004
            4464    1.48711E+005    1.20606E+005    1.20606E+005   -1.42370E+004   -3.88926E+004    1.59498E+005   -2.24920E+004    1.44005E+005    2.55586E+003    7.80679E+004   -1.31478E+004    6.93027E+004   -9.19424E+003   -1.03016E+004
            4465    1.24511E+005    9.08127E+004    9.08127E+004   -2.11456E+003   -5.06582E+004    1.41471E+005   -1.26800E+004    9.96120E+004    1.61689E+002    3.94636E+004   -1.58532E+003    6.76289E+004   -5.55409E+003   -4.93661E+003
            4466    1.14830E+005    6.74675E+004    6.74675E+004   -2.52400E+003   -6.50570E+004    1.32525E+005    3.78516E+001    5.28137E+004    2.02434E+003    3.84255E+002   -2.52215E+003    6.62149E+004   -1.07151E+002   -2.36503E+003
            4467    1.23571E+005    5.02590E+004   -8.92014E+004    6.66214E+003   -8.92014E+004    1.39460E+005    1.07601E+004   -1.04028E+005   -3.97281E+003   -3.43631E+004    6.05556E+003    6.77409E+004    4.49485E+003   -6.16001E+003
            4468    1.46246E+005    4.19464E+004   -1.17920E+005    9.13014E+003   -1.17920E+005    1.59866E+005    2.22811E+004   -1.37591E+005    3.61821E+003   -7.85716E+004    8.11010E+003    6.75276E+004    9.54225E+003   -9.83702E+003
            4469    1.59539E+005    3.74496E+004   -1.35095E+005    7.07015E+003   -1.35095E+005    1.72544E+005    3.01916E+004   -1.52826E+005   -2.18221E+004   -7.77952E+004    9.04251E+003    8.05456E+004    7.02092E+003    3.09440E+003
            4470    1.32433E+005    5.22379E+004   -9.90262E+004   -3.95228E+003   -9.90262E+004    1.51264E+005    1.69135E+004   -9.97847E+004   -8.14928E+003   -4.07502E+004   -1.84120E+003    7.20946E+004    4.54737E+003    1.38493E+004
            4471    1.23245E+005    7.12954E+004    7.12954E+004    3.16981E+003   -7.09736E+004    1.42269E+005   -1.16386E+003   -5.15517E+004   -2.36908E+002    3.96709E+002    3.33178E+003    6.94472E+004   -1.23337E+001    1.53815E+004
            4472    1.33825E+005    9.88559E+004    9.88559E+004   -2.08166E+003   -5.29429E+004    1.51799E+005   -1.46104E+004    1.08646E+005    9.34125E+003    3.88876E+004   -4.39756E+003    7.27560E+004   -4.49191E+003    1.29168E+004
            4473    1.59288E+005    1.37231E+005    1.37231E+005   -7.33756E+002   -3.70935E+004    1.74325E+005   -3.31347E+004    1.49518E+005    2.17829E+004    8.08941E+004   -3.27294E+003    8.06253E+004   -6.64556E+003    6.73156E+003
            4474    1.97833E+005    1.78903E+005    1.78903E+005   -1.61484E+004   -2.16001E+004    2.00503E+005   -4.70514E+004    1.97664E+005    3.80834E+004    1.21302E+005   -1.82308E+004    8.97950E+004   -6.00103E+003   -4.38289E+003
            4475    2.40909E+005    2.30274E+005    2.30274E+005    2.03565E+003   -2.15673E+004    2.51842E+005   -7.02476E+004    2.38287E+005    5.41022E+004    1.77988E+005   -2.13479E+004    9.58224E+004   -1.43839E+003   -5.69717E+003
            4476    2.80766E+005    2.70819E+005    2.70819E+005    1.81856E+004   -3.14578E+004    3.02277E+005   -8.58489E+004    2.70627E+005    6.68112E+004    2.21744E+005   -3.10086E+004    1.00048E+005    3.51040E+003   -3.42644E+003
            4477    3.14864E+005    3.07020E+005    3.07020E+005    4.46372E+004   -4.21304E+004    3.49150E+005   -1.03175E+005    2.86056E+005    1.03187E+005    2.48375E+005   -4.20363E+004    1.09220E+005    2.89018E+003    4.93358E+003
            4478    6.28141E+005    6.55491E+005    6.55491E+005    8.90675E+004   -2.00654E+004    6.75556E+005   -2.41498E+005    6.06259E+005    1.33860E+004    6.22054E+005    8.90531E+004    1.46412E+005   -3.76468E+003   -4.59497E+003
            4479    5.86063E+005    6.07127E+005    6.07127E+005    7.02465E+004   -1.80894E+004    6.25216E+005   -2.19761E+005    5.70797E+005    1.46519E+004    5.74374E+005    7.02579E+004    1.38158E+005   -1.01905E+004   -1.45842E+004
            4480    5.18460E+005    5.33605E+005    5.33605E+005    4.63823E+004   -1.12731E+004    5.44878E+005   -1.89571E+005    5.11173E+005    2.13411E+004    5.01616E+005    4.57565E+004    1.26651E+005   -1.24300E+004   -1.50773E+004
            4481    4.51871E+005    4.57756E+005    4.57756E+005    1.63338E+004   -3.88385E+003    4.61640E+005   -1.56735E+005    4.50851E+005    3.07843E+004    4.25451E+005    1.39710E+004    1.15857E+005   -1.20690E+004   -1.63433E+004
            4482    3.87826E+005    3.92797E+005    3.92797E+005    1.51271E+004   -4.44408E+003    3.97241E+005   -1.34493E+005    3.86713E+005    4.83535E+004    3.57549E+005   -2.42240E+003    1.09519E+005   -8.91072E+003   -1.01286E+004
            4483    3.57533E+005    3.49696E+005    3.49696E+005    2.40520E+004   -3.28924E+004    3.82588E+005   -1.13618E+005    3.47110E+005    6.37769E+004    3.09683E+005   -3.26043E+004    1.06607E+005   -4.97192E+003   -8.18167E+003
            4484    3.18339E+005    3.20467E+005    3.20467E+005    4.38711E+004   -2.74997E+004    3.47967E+005   -1.12279E+005    2.99534E+005    9.74446E+004    2.66735E+005   -2.73413E+004    1.09275E+005   -2.65345E+003   -6.82301E+003
            4485    3.84686E+005    1.50016E+004   -3.91778E+005   -3.38535E+004   -3.91778E+005    4.06780E+005    1.36877E+005   -3.77612E+005   -3.67603E+004   -3.88652E+005    1.47823E+004    3.21202E+004   -1.07427E+003    9.36027E+003
            4486    3.40476E+005    4.42531E+004   -3.04092E+005    2.79279E+004   -3.04092E+005    3.48345E+005    7.73037E+004   -3.39594E+005    2.70880E+004   -3.02956E+005    4.39568E+004    1.71788E+004   -1.39553E+003    9.16502E+003
            4487    2.47678E+005    3.24212E+004   -2.35003E+005   -1.34980E+004   -2.35003E+005    2.67424E+005    7.20267E+004   -2.37817E+005   -1.64991E+004   -2.31778E+005    3.21968E+004    2.55948E+004   -9.73693E+002    7.67927E+003
            4488    1.85693E+005    3.01009E+004   -1.61757E+005    1.70868E+004   -1.61757E+005    1.91858E+005    3.81897E+004   -1.84663E+005    1.42308E+004   -1.58603E+005    2.98030E+004    2.24055E+004   -8.22334E+002    7.49428E+003
            4489    3.70148E+005    2.39713E+004   -3.71307E+005   -3.28630E+004   -3.71307E+005    3.95278E+005    1.26733E+005   -3.60135E+005   -3.56841E+004   -3.66556E+005    2.20414E+004    3.07311E+004   -3.23446E+003    2.73063E+004
            4490    3.32313E+005    4.87800E+004   -2.94255E+005    2.61829E+004   -2.94255E+005    3.43035E+005    7.30974E+004   -3.30578E+005    2.54487E+004   -2.91394E+005    4.66532E+004    1.73656E+004   -3.58840E+003    2.53731E+004
            4491    2.44071E+005    3.74674E+004   -2.27853E+005   -1.28861E+004   -2.27853E+005    2.65320E+005    6.77572E+004   -2.31948E+005   -1.58228E+004   -2.22679E+005    3.52297E+004    2.48225E+004   -2.96439E+003    2.40801E+004
            4492    1.83867E+005    3.18027E+004   -1.59475E+005    1.59545E+004   -1.59475E+005    1.91278E+005    3.72393E+004   -1.82320E+005    1.30896E+004   -1.54394E+005    2.95866E+004    2.22182E+004   -1.91268E+003    2.02410E+004
            4493    3.46953E+005    3.90234E+004   -3.37557E+005   -3.08740E+004   -3.37557E+005    3.76580E+005    1.09803E+005   -3.30550E+005   -3.35693E+004   -3.30594E+005    3.47561E+004    2.87703E+004   -5.92586E+003    3.91630E+004
            4494    3.16728E+005    6.05701E+004   -2.72161E+005    2.56759E+004   -2.72161E+005    3.32731E+005    6.19715E+004   -3.12360E+005    2.49849E+004   -2.65953E+005    5.50532E+004    1.71093E+004   -5.72095E+003    4.10034E+004
            4495    2.35163E+005    4.22062E+004   -2.15334E+005   -1.20230E+004   -2.15334E+005    2.57540E+005    6.17169E+004   -2.20426E+005   -1.49161E+004   -2.07048E+005    3.68138E+004    2.37599E+004   -4.74538E+003    3.65631E+004
            4496    1.79960E+005    3.88132E+004   -1.51311E+005    1.63814E+004   -1.51311E+005    1.90124E+005    3.20389E+004   -1.76774E+005    1.35432E+004   -1.42616E+005    3.29565E+004    2.13365E+004   -3.61054E+003    3.25911E+004
            4497    3.22633E+005    6.59902E+004   -2.93447E+005   -2.89018E+004   -2.93447E+005    3.59437E+005    8.54529E+004   -2.88641E+005   -3.14473E+004   -2.83661E+005    5.87495E+004    2.60874E+004   -8.56078E+003    4.94449E+004
            4498    2.92629E+005    6.89602E+004   -2.44067E+005    2.26373E+004   -2.44067E+005    3.13027E+005    5.08232E+004   -2.84204E+005    2.16514E+004   -2.34467E+005    6.03456E+004    1.73770E+004   -6.39674E+003    5.03290E+004
            4499    2.22567E+005    5.39572E+004   -1.93970E+005   -1.13955E+004   -1.93970E+005    2.47927E+005    5.04693E+004   -1.99202E+005   -1.43115E+004   -1.81268E+005    4.41717E+004    2.22665E+004   -6.69471E+003    4.78022E+004
            4500    1.72494E+005    4.10721E+004   -1.43403E+005    1.38785E+004   -1.43403E+005    1.84475E+005    2.94843E+004   -1.67569E+005    1.09743E+004   -1.31555E+005    3.21280E+004    2.07767E+004   -4.25232E+003    3.92758E+004
            4501    2.94643E+005    8.49791E+004   -2.50046E+005   -3.12155E+004   -2.50046E+005    3.35025E+005    6.54273E+004   -2.34073E+005   -3.44923E+004   -2.37447E+005    7.56575E+004    2.63839E+004   -1.03533E+004    5.39311E+004
            4502    2.70239E+005    8.76243E+004   -2.07892E+005    2.66510E+004   -2.07892E+005    2.95516E+005    3.12056E+004   -2.54061E+005    2.56744E+004   -1.94503E+005    7.52114E+004    1.64639E+004   -8.32300E+003    5.82219E+004
            4503    2.03654E+005    5.63241E+004   -1.72495E+005   -1.11147E+004   -1.72495E+005    2.28819E+005    4.24286E+004   -1.75764E+005   -1.41611E+004   -1.57036E+005    4.39109E+004    2.10942E+004   -7.87169E+003    5.12241E+004
            4504    1.62940E+005    5.21510E+004   -1.25586E+005    1.67319E+004   -1.25586E+005    1.77737E+005    1.89009E+004   -1.53917E+005    1.38625E+004   -1.10537E+005    3.99718E+004    1.91206E+004   -6.32404E+003    4.44517E+004
            4505    2.86656E+005    1.18017E+005   -2.12825E+005   -3.84981E+004   -2.12825E+005    3.30842E+005    4.44355E+004   -1.29914E+005   -4.33827E+004   -1.95371E+005    1.05447E+005    2.78074E+004   -1.36758E+004    6.16981E+004
            4506    2.39361E+005    8.66947E+004   -1.78724E+005    2.07579E+004   -1.78724E+005    2.65419E+005    2.37571E+004   -2.17479E+005    1.91394E+004   -1.64235E+005    7.38243E+004    1.76156E+004   -7.40862E+003    5.64324E+004
            4507    1.89430E+005    7.17517E+004   -1.45005E+005   -1.12088E+004   -1.45005E+005    2.16757E+005    2.81540E+004   -1.38740E+005   -1.47257E+004   -1.27987E+005    5.82507E+004    2.02658E+004   -9.01740E+003    5.16027E+004
            4508    1.49048E+005    5.04288E+004   -1.14593E+005    1.02414E+004   -1.14593E+005    1.65021E+005    1.79741E+004   -1.36036E+005    6.91896E+003   -9.95757E+004    3.87345E+004    1.91930E+004   -6.12440E+003    4.18575E+004
            4509    2.45654E+005    9.75009E+004   -1.85993E+005   -5.25748E+004   -1.85993E+005    2.83494E+005    4.70224E+004    1.14611E+005   -6.15209E+004   -1.62435E+005    8.28889E+004    3.13509E+004   -1.74821E+004    6.01932E+004
            4510    2.31582E+005    1.12201E+005   -1.48371E+005    3.39418E+004   -1.48371E+005    2.60572E+005    7.42602E+002   -1.98381E+005    3.29686E+004   -1.37082E+005    1.01886E+005    1.65205E+004   -1.17966E+004    4.83300E+004
            4511    1.82677E+005    7.53756E+004   -1.34079E+005   -7.72890E+003   -1.34079E+005    2.09454E+005    2.21440E+004   -1.28549E+005   -1.08445E+004   -1.19260E+005    6.36726E+004    1.88276E+004   -1.03102E+004    4.69147E+004
            4512    1.40523E+005    6.72641E+004   -9.12509E+004    1.80324E+004   -9.12509E+004    1.58515E+005    1.98478E+003   -1.18653E+005    1.48967E+004   -7.44020E+004    5.35510E+004    1.70850E+004   -9.16992E+003    4.35838E+004
            4513    1.23766E+005    5.12147E+004   -9.09853E+004   -7.54499E+003   -9.09853E+004    1.42200E+005    1.57718E+004   -8.24044E+004   -2.01804E+004   -7.27733E+004    4.56381E+004    3.02200E+004   -2.65116E+003    2.58032E+004
            4514    1.88700E+005    9.70932E+004   -1.20746E+005   -7.69056E+003   -1.20746E+005    2.17839E+005    1.04478E+004   -7.61469E+004   -1.69297E+004   -1.00751E+005    8.63372E+004    3.21039E+004   -1.03915E+003    4.53370E+004
            4515    2.43614E+005    1.04656E+005   -1.76643E+005   -3.50461E+004   -1.76643E+005    2.81299E+005    3.56778E+004   -5.52538E+004   -4.20272E+004   -1.60737E+005    9.57304E+004    3.31282E+004    3.75605E+003    4.68712E+004
            4516    2.64830E+005    1.31329E+005   -1.73830E+005   -4.11669E+003   -1.73830E+005    3.05159E+005    1.55392E+004   -1.53047E+005   -5.31259E+003   -1.67524E+005    1.26219E+005    1.75146E+004    5.73166E+003    3.72692E+004
            4517    5.01463E+005    4.59931E+004   -4.87577E+005   -2.60047E+004   -4.87577E+005    5.33570E+005    1.55863E+005   -4.89632E+005    4.45801E+004   -4.86075E+005   -2.60945E+004    2.67239E+004   -2.68160E+003    8.47795E+003
            4518    4.73068E+005    4.50101E+004   -4.52532E+005   -8.48666E+003   -4.52532E+005    4.97542E+005    1.38670E+005   -4.66190E+005    4.29251E+004   -4.50088E+005   -8.84603E+003    2.55743E+004   -7.48972E+003    2.19451E+004
            4519    4.29081E+005    4.43480E+004   -3.96401E+005    1.99729E+004   -3.96401E+005    4.40749E+005    1.10693E+005   -4.27519E+005    3.98599E+004   -3.92769E+005    2.08282E+004    2.39069E+004   -9.91874E+003    3.05784E+004
            4520    3.80255E+005    5.87699E+004   -3.32784E+005    3.50637E+004   -3.32784E+005    3.91554E+005    7.96500E+004   -3.78587E+005    3.67146E+004   -3.28754E+005    5.30896E+004    2.23835E+004   -9.86617E+003    3.15108E+004
            4521    3.41211E+005    9.84764E+004   -2.69230E+005    3.71731E+004   -2.69230E+005    3.67707E+005    4.45269E+004   -3.28476E+005    3.63705E+004   -2.65061E+005    9.51094E+004    1.87411E+004   -6.73258E+003    3.27526E+004
            4522    3.01880E+005    1.22856E+005   -2.09014E+005    4.92704E+004   -2.09014E+005    3.31870E+005    1.22958E+004   -2.80617E+005    4.88376E+004   -2.06634E+005    1.20909E+005    1.25610E+004    2.49425E+003    2.42718E+004
            4523    3.14460E+005    1.85792E+005    1.85792E+005    9.27399E+004   -1.64693E+005    3.50485E+005   -3.79463E+004   -2.80887E+005    9.33743E+004   -1.62636E+005    1.83101E+005   -2.36722E+003    8.06326E+003    2.65213E+004
            4524    7.96216E+004    3.16224E+004   -5.70798E+004    8.21250E+003   -5.70798E+004    8.87022E+004    5.74829E+003   -7.12393E+004   -5.49558E+003   -4.15157E+004    2.97664E+004    2.65091E+004   -2.91527E+003    1.14732E+004
            4525    4.69217E+004    1.27325E+004   -3.88964E+004    1.14815E+003   -3.88964E+004    5.16289E+004    8.33859E+003   -4.35264E+004   -5.24789E+003   -2.30671E+004    3.29927E+003    2.28353E+004   -2.13578E+003   -5.18724E+003
            4526    4.02201E+004    2.40902E+004    2.40902E+004    4.44785E+003   -2.21766E+004    4.62669E+004   -2.12048E+003   -2.55972E+004    1.82426E+003   -2.28626E+002    4.76581E+003    2.13270E+004    1.70319E+002   -8.83443E+003
            4527    4.88630E+004    3.48092E+004    3.48092E+004   -9.36912E+003   -1.76740E+004    5.24832E+004   -2.58872E+003    4.72359E+004    1.38189E+003    1.89296E+004   -1.25453E+004    2.28712E+004    1.82042E+003   -4.54940E+003
            4528    7.40113E+004    5.90377E+004    5.90377E+004   -4.40684E+003   -2.22705E+004    8.13082E+004   -1.07868E+004    6.89059E+004    1.04902E+004    4.30997E+004   -2.12296E+004    2.67428E+004    2.93102E+003    8.21528E+003
            4529    1.29163E+005    8.56766E+004    8.56766E+004    2.16762E+003   -6.30956E+004    1.48772E+005   -8.24954E+003    7.68323E+004    1.53494E+004    6.67205E+004   -5.73213E+004    3.07556E+004    2.61869E+003    2.69048E+004
            4530    1.82006E+005    1.23651E+005    1.23651E+005    1.70539E+004   -8.65047E+004    2.10155E+005   -1.80667E+004    5.32456E+004    2.75686E+004    1.05652E+005   -7.90204E+004    3.31991E+004   -8.92013E+002    3.66804E+004
            4531    2.26283E+005    1.40295E+005    1.40295E+005    2.02447E+004   -1.20715E+005    2.61010E+005   -1.32749E+004   -1.16995E+005    2.68393E+004    1.26700E+005   -1.13714E+005    2.87045E+004   -2.12511E+003    4.06426E+004
            4532    2.38366E+005    1.45820E+005    1.45820E+005    1.34475E+003   -1.29305E+005    2.75125E+005   -5.95305E+003    1.05581E+005    3.04056E+003    1.39592E+005   -1.24774E+005    2.10125E+004   -9.47249E+003    3.04865E+004
            4533    8.22773E+004    2.86044E+004   -6.39603E+004    8.52806E+002   -6.39603E+004    9.25647E+004    1.15010E+004   -7.05321E+004   -5.47015E+003   -4.90023E+004    1.99693E+004    1.86529E+004   -5.04374E+003    2.58185E+004
            4534    1.02991E+005    3.95075E+004   -7.73916E+004   -2.10779E+001   -7.73916E+004    1.16899E+005    1.26351E+004   -8.31548E+004   -5.92015E+003   -5.80507E+004    2.60657E+004    2.05844E+004   -4.50436E+003    3.59022E+004
            4535    1.08392E+005    2.98893E+004   -9.08905E+004   -2.07416E+003   -9.08905E+004    1.20780E+005    2.10251E+004   -9.69071E+004   -7.26374E+003   -7.31464E+004    1.73348E+004    2.16130E+004   -3.59142E+003    3.53203E+004
            4536    1.13603E+005    3.11001E+004   -9.51940E+004   -1.33965E+003   -9.51940E+004    1.26294E+005    2.18112E+004   -1.02378E+005   -6.88439E+003   -7.78823E+004    1.93331E+004    2.33469E+004   -3.04960E+003    3.48951E+004
            4537    1.11165E+005    2.17524E+004   -9.94836E+004   -2.34157E+003   -9.94836E+004    1.21236E+005    2.66909E+004   -1.05046E+005   -8.20459E+003   -8.61116E+004    1.42433E+004    2.47339E+004   -1.94027E+003    2.70110E+004
            4538    1.09302E+005    1.88683E+004   -9.91642E+004   -1.44265E+003   -9.91642E+004    1.18033E+005    2.72462E+004   -1.04929E+005   -8.21973E+003   -8.87345E+004    1.52157E+004    2.57859E+004   -1.31043E+003    1.85132E+004
            4539    1.06576E+005    1.39637E+004   -9.93827E+004   -1.20159E+003   -9.93827E+004    1.13346E+005    2.88735E+004   -1.04107E+005   -8.79399E+003   -9.14011E+004    1.35745E+004    2.63710E+004   -3.51649E+002    5.76537E+003
            4540    5.48496E+004    2.41742E+004   -3.54854E+004    1.27571E+004   -3.54854E+004    5.96596E+004   -4.81941E+002   -5.20745E+004    6.17751E+003   -1.99139E+004    1.51822E+004    1.88554E+004   -2.97445E+003    1.74983E+004
            4541    6.74546E+004    2.48775E+004   -4.97606E+004    6.84536E+003   -4.97606E+004    7.46382E+004    6.01257E+003   -6.16729E+004    3.55783E+003   -2.93337E+004    7.73815E+003    2.00003E+004   -2.08627E+003    2.64588E+004
            4542    7.84509E+004    3.42772E+004   -5.35055E+004    9.75591E+003   -5.35055E+004    8.77826E+004    3.15747E+003   -6.90044E+004    6.55174E+003   -2.86904E+004    1.26662E+004    2.09945E+004   -1.98824E+003    3.32941E+004
            4543    7.55621E+004    2.83994E+004   -5.56957E+004    6.49239E+003   -5.56957E+004    8.40951E+004    6.93463E+003   -6.78464E+004    5.02980E+003   -3.21991E+004    6.36543E+003    2.24174E+004   -1.06347E+003    3.03376E+004
            4544    7.09661E+004    2.86355E+004   -5.02911E+004    8.25468E+003   -5.02911E+004    7.89266E+004    4.46695E+003   -6.38671E+004    6.64960E+003   -2.83819E+004    8.33148E+003    2.33911E+004   -9.02282E+002    2.64787E+004
            4545    6.13842E+004    2.21860E+004   -4.57046E+004    5.88064E+003   -4.57046E+004    6.78906E+004    5.87933E+003   -5.61940E+004    5.94864E+003   -2.90621E+004    5.47549E+003    2.42221E+004   -2.82668E+002    1.63120E+004
            4546    5.51511E+004    2.01555E+004   -4.06155E+004    6.25654E+003   -4.06155E+004    6.07710E+004    4.73451E+003   -5.09824E+004    6.58929E+003   -2.69141E+004    6.12128E+003    2.45607E+004   -2.23815E+002    6.44943E+003
            4547    3.87420E+004    1.97781E+004   -2.48438E+004   -5.29082E+003   -2.48438E+004    4.46219E+004    3.45220E+003    2.31051E+004   -3.98006E+003   -1.29734E+003   -5.07921E+003    1.95480E+004    5.52013E+002    1.06818E+004
            4548    5.79875E+004    3.59304E+004    3.59304E+004   -1.19308E+003   -3.08903E+004    6.68208E+004   -1.28234E+003    3.33977E+004   -2.00557E+003    4.67329E+003    1.17929E+003    2.06315E+004    4.32419E+002    2.61504E+004
            4549    6.61301E+004    3.93436E+004    3.93436E+004   -5.88924E+003   -3.65521E+004    7.58957E+004    1.03258E+003    4.54731E+004   -4.26625E+003    7.57279E+003   -6.40429E+003    2.19172E+004    9.54481E+002    3.03278E+004
            4550    7.14121E+004    4.85075E+004    4.85075E+004   -3.64483E+003   -3.28841E+004    8.13915E+004   -3.99287E+003    5.53161E+004   -2.89708E+003    1.79390E+004   -3.06329E+003    2.34871E+004    7.20844E+002    3.16521E+004
            4551    6.77701E+004    4.73446E+004    4.73446E+004   -6.48333E+003   -2.87599E+004    7.61044E+004   -4.03380E+003    5.86416E+004   -4.10037E+003    2.35512E+004   -7.34944E+003    2.47510E+004    8.47573E+002    2.50851E+004
            4552    6.47882E+004    4.95014E+004    4.95014E+004   -5.32422E+003   -2.19923E+004    7.14937E+004   -7.39494E+003    5.96714E+004   -3.35266E+003    3.12973E+004   -5.75986E+003    2.57576E+004    3.89206E+002    1.74820E+004
            4553    6.12167E+004    4.81390E+004    4.81390E+004   -7.11981E+003   -1.76654E+004    6.58044E+004   -7.78459E+003    5.91211E+004   -3.79088E+003    3.43119E+004   -7.16726E+003    2.62690E+004    2.53695E+002    5.33026E+003
            4554    5.17898E+004    3.97587E+004    3.97587E+004   -4.62952E+003   -1.71406E+004    5.68993E+004   -5.99622E+003    4.82107E+004    2.25468E+003    2.30877E+004   -7.35375E+003    1.91599E+004    2.52237E+003    1.66861E+004
            4555    7.45170E+004    5.26390E+004    5.26390E+004   -5.58421E+003   -3.13392E+004    8.39781E+004   -5.23852E+003    6.32737E+004    4.37902E+002    3.25032E+004   -1.72255E+004    1.99037E+004    2.87265E+003    2.84780E+004
            4556    9.02796E+004    7.10316E+004    7.10316E+004   -2.65390E+003   -2.96723E+004    1.00704E+005   -1.29018E+004    8.04000E+004    1.82709E+003    4.95149E+004   -1.26365E+004    2.09104E+004    2.58006E+003    3.48599E+004
            4557    1.00297E+005    8.01209E+004    8.01209E+004   -4.69607E+003   -3.05817E+004    1.10703E+005   -1.49477E+004    9.23223E+004    2.46448E+002    6.23992E+004   -1.78026E+004    2.21599E+004    2.53936E+003    3.29467E+004
            4558    1.07797E+005    9.24989E+004    9.24989E+004   -3.88453E+003   -2.39046E+004    1.16404E+005   -2.15699E+004    1.03490E+005    8.38313E+002    7.87998E+004   -1.49283E+004    2.31820E+004    1.90643E+003    2.85266E+004
            4559    1.11172E+005    9.73340E+004    9.73340E+004   -5.57952E+003   -2.05748E+004    1.17909E+005   -2.37265E+004    1.08862E+005   -1.58333E+002    8.85854E+004   -1.72474E+004    2.39336E+004    1.37098E+003    1.78059E+004
            4560    1.13373E+005    1.01791E+005    1.01791E+005   -5.69789E+003   -1.66684E+004    1.18459E+005   -2.64749E+004    1.12169E+005   -8.21362E+000    9.56059E+004   -1.61730E+004    2.42926E+004    3.83628E+002    6.67423E+003
            4561    9.09076E+004    6.05245E+004    6.05245E+004   -9.79650E+003   -4.21298E+004    1.02654E+005   -2.86609E+003    7.62601E+004   -3.98290E+003    4.54806E+004   -3.28994E+004    1.83381E+004    6.24082E+003    2.84334E+004
            4562    1.11630E+005    8.58691E+004    8.58691E+004   -3.71219E+003   -3.91874E+004    1.25056E+005   -1.43232E+004    9.76849E+004    1.35184E+003    6.80528E+004   -2.64352E+004    2.01672E+004    5.34992E+003    3.68810E+004
            4563    1.31664E+005    1.02461E+005    1.02461E+005   -6.87177E+003   -4.36937E+004    1.46155E+005   -1.72985E+004    1.19228E+005   -2.54820E+003    8.60440E+004   -3.16004E+004    2.06510E+004    5.46957E+003    3.95803E+004
            4564    1.48807E+005    1.25763E+005    1.25763E+005   -3.67409E+003   -3.68237E+004    1.62587E+005   -2.84217E+004    1.40134E+005    4.01093E+002    1.11377E+005   -2.65132E+004    2.24163E+004    4.34452E+003    3.89556E+004
            4565    1.62178E+005    1.40419E+005    1.40419E+005   -4.74645E+003   -3.46183E+004    1.75037E+005   -3.36846E+004    1.55807E+005   -7.93951E+002    1.30685E+005   -2.88373E+004    2.34573E+004    3.48870E+003    3.08438E+004
            4566    1.70587E+005    1.53746E+005    1.53746E+005   -3.08901E+003   -2.78793E+004    1.81625E+005   -4.09259E+004    1.66461E+005    8.37064E+002    1.47345E+005   -2.54048E+004    2.45309E+004    2.00858E+003    2.06913E+004
            4567    1.75888E+005    1.59960E+005    1.59960E+005   -3.30316E+003   -2.62923E+004    1.86252E+005   -4.34549E+004    1.72460E+005    6.26624E+002    1.55785E+005   -2.60470E+004    2.50143E+004    7.71565E+002    6.67066E+003
            4568    1.36418E+005    9.47896E+004    9.47896E+004   -6.61846E+003   -6.03033E+004    1.55093E+005   -9.28928E+003    1.08515E+005   -2.72039E+003    7.92270E+004   -4.86388E+004    1.82931E+004    8.46858E+003    4.00162E+004
            4569    1.56470E+005    1.14203E+005    1.14203E+005   -4.79919E+003   -6.30335E+004    1.77236E+005   -1.54567E+004    1.28452E+005   -1.30397E+003    9.79785E+004   -5.03044E+004    1.90182E+004    7.10880E+003    4.51778E+004
            4570    1.79048E+005    1.43746E+005    1.43746E+005   -5.44927E+003   -5.48024E+004    1.98548E+005   -2.78314E+004    1.62657E+005   -2.61971E+003    1.28159E+005   -4.20449E+004    1.94443E+004    6.90144E+003    4.81931E+004
            4571    2.01520E+005    1.68018E+005    1.68018E+005   -6.53296E+003   -5.25213E+004    2.20540E+005   -3.63214E+004    1.89165E+005   -3.94487E+003    1.56469E+005   -4.35599E+004    2.05449E+004    5.70108E+003    4.31662E+004
            4572    2.18958E+005    1.91924E+005    1.91924E+005   -7.17055E+003   -4.25812E+004    2.34505E+005   -4.73907E+004    2.12372E+005   -4.83127E+003    1.83952E+005   -3.69485E+004    2.11888E+004    4.54373E+003    3.55901E+004
            4573    2.33813E+005    2.08387E+005    2.08387E+005   -8.51071E+003   -3.92916E+004    2.47679E+005   -5.35283E+004    2.29188E+005   -6.27451E+003    2.04007E+005   -3.71478E+004    2.18460E+004    2.87850E+003    2.27175E+004
            4574    2.40820E+005    2.17903E+005    2.17903E+005   -8.95453E+003   -3.47967E+004    2.52699E+005   -5.80505E+004    2.37671E+005   -6.79347E+003    2.15505E+005   -3.45604E+004    2.20333E+004    9.62582E+002    7.63745E+003
            4575    1.83994E+005    1.18976E+005    1.18976E+005   -7.49569E+003   -9.21036E+004    2.11079E+005   -6.45876E+003    1.27838E+005   -4.94649E+003    1.03972E+005   -7.96488E+004    1.73527E+004    1.12774E+004    4.82669E+004
            4576    2.01306E+005    1.52168E+005    1.52168E+005    3.63525E+003   -7.69448E+004    2.29113E+005   -2.62862E+004    1.58391E+005    6.69624E+003    1.34865E+005   -6.27030E+004    2.00971E+004    9.56272E+003    5.44655E+004
            4577    2.26356E+005    1.80158E+005    1.80158E+005   -2.04073E+003   -7.32375E+004    2.53395E+005   -3.49599E+004    1.98719E+005    1.38486E+002    1.66125E+005   -6.13843E+004    1.95980E+004    8.94582E+003    5.25872E+004
            4578    2.47494E+005    2.14442E+005    2.14442E+005    3.37680E+003   -5.79507E+004    2.72392E+005   -5.32892E+004    2.29446E+005    5.56005E+003    2.02927E+005   -4.86197E+004    2.11709E+004    7.19223E+003    4.88913E+004
            4579    2.71576E+005    2.43052E+005    2.43052E+005    2.29209E+003   -5.13393E+004    2.94391E+005   -6.46681E+004    2.59257E+005    4.33208E+003    2.35599E+005   -4.59266E+004    2.21679E+004    5.60603E+003    3.89519E+004
            4580    2.85479E+005    2.65676E+005    2.65676E+005    5.45320E+003   -3.96825E+004    3.05358E+005   -7.71488E+004    2.77281E+005    7.57101E+003    2.61431E+005   -3.75560E+004    2.34068E+004    3.30357E+003    2.50629E+004
            4581    2.96649E+005    2.78896E+005    2.78896E+005    5.34292E+003   -3.64228E+004    3.15319E+005   -8.26053E+004    2.89924E+005    7.45539E+003    2.76518E+005   -3.61576E+004    2.39569E+004    1.20355E+003    9.00215E+003
            4582    2.24718E+005    1.50311E+005    1.50311E+005   -8.17297E+003   -1.06865E+005    2.57175E+005   -1.17576E+004    1.64139E+005   -5.04493E+003    1.35312E+005   -9.49947E+004    2.16553E+004    1.17748E+004    5.24693E+004
            4583    2.46456E+005    1.79001E+005    1.79001E+005   -6.54928E+003   -1.00640E+005    2.79641E+005   -2.39371E+004    1.99586E+005   -4.46457E+003    1.65639E+005   -8.93636E+004    1.91311E+004    8.05995E+003    5.43529E+004
            4584    2.67196E+005    2.15187E+005    2.15187E+005   -7.52638E+003   -8.10823E+004    2.96269E+005   -4.21927E+004    2.42803E+005   -5.96156E+003    2.02320E+005   -6.97808E+004    1.92649E+004    9.06932E+003    5.56377E+004
            4585    3.00834E+005    2.54269E+005    2.54269E+005   -1.10215E+004   -7.25851E+004    3.26854E+005   -5.68873E+004    2.86142E+005   -9.89805E+003    2.44757E+005   -6.41973E+004    1.88840E+004    7.85441E+003    5.04013E+004
            4586    3.25838E+005    2.90573E+005    2.90573E+005   -1.28414E+004   -5.38131E+004    3.44386E+005   -7.46394E+004    3.19965E+005   -1.19948E+004    2.84384E+005   -4.84714E+004    1.91525E+004    6.61427E+003    4.06466E+004
            4587    3.51953E+005    3.19889E+005    3.19889E+005   -1.64692E+004   -4.58217E+004    3.65710E+005   -8.58659E+004    3.49184E+005   -1.56584E+004    3.16660E+005   -4.34038E+004    1.89763E+004    4.39044E+003    2.77336E+004
            4588    3.65789E+005    3.37499E+005    3.37499E+005   -1.81433E+004   -3.76556E+004    3.75155E+005   -9.39001E+004    3.64616E+005   -1.71887E+004    3.36275E+005   -3.73858E+004    1.89881E+004    1.57333E+003    8.74058E+003
            4589    2.63505E+005    1.80344E+005    1.80344E+005    2.51332E+004   -1.23904E+005    3.04248E+005   -2.71911E+004    8.63073E+004    3.14459E+004    1.65757E+005   -1.15630E+005    2.98120E+004    9.23359E+003    4.86067E+004
            4590    2.66865E+005    2.01424E+005    2.01424E+005    3.01256E+003   -1.01967E+005    3.03392E+005   -3.41564E+004    2.12333E+005    5.40151E+003    1.88795E+005   -9.17278E+004    2.19203E+004    1.09544E+004    5.33396E+004
            4591    3.02085E+005    2.47889E+005    2.47889E+005    1.43785E+004   -9.32767E+004    3.41165E+005   -5.63301E+004    2.53189E+005    1.68992E+004    2.36679E+005   -8.45881E+004    2.43986E+004    9.94448E+003    5.24873E+004
            4592    3.24182E+005    2.92687E+005    2.92687E+005    1.15343E+004   -6.19199E+004    3.54606E+005   -8.07670E+004    3.04602E+005    1.36439E+004    2.83639E+005   -5.49817E+004    2.51770E+004    8.47736E+003    4.77543E+004
            4593    3.59977E+005    3.44401E+005    3.44401E+005    2.01731E+004   -4.29707E+004    3.87371E+005   -1.07201E+005    3.47188E+005    2.27460E+004    3.37035E+005   -3.81783E+004    2.89163E+004    5.90176E+003    4.21634E+004
            4594    3.86507E+005    3.85828E+005    3.85828E+005    2.22557E+004   -2.01208E+004    4.05949E+005   -1.29321E+005    3.81228E+005    2.49739E+004    3.81216E+005   -1.82274E+004    3.13516E+004    3.31039E+003    2.73296E+004
            4595    4.04957E+005    4.11732E+005    4.11732E+005    2.65490E+004   -1.04583E+004    4.22190E+005   -1.42608E+005    4.01126E+005    2.95083E+004    4.08471E+005   -1.01569E+004    3.36186E+004    1.03359E+003    1.12275E+004
            4596    5.02073E+005    4.92061E+005    4.92061E+005    2.60700E+004   -3.96261E+004    5.31687E+005   -1.59502E+005    4.92263E+005   -3.81045E+004    4.90504E+005    2.61053E+004    2.75212E+004    2.86246E+003    7.58194E+003
            4597    4.71227E+005    4.54605E+005    4.54605E+005    5.49388E+003   -3.59939E+004    4.90599E+005   -1.41368E+005    4.67091E+005   -3.35318E+004    4.51727E+005    5.91037E+003    2.65198E+004    7.79569E+003    2.49732E+004
            4598    4.20908E+005    3.94489E+005    3.94489E+005   -1.81747E+004   -3.42058E+004    4.28694E+005   -1.14036E+005    4.20220E+005   -2.60217E+004    3.90347E+005   -2.22173E+004    2.59883E+004    9.90502E+003    3.18820E+004
            4599    3.73648E+005    3.30796E+005    3.30796E+005   -1.72001E+004   -6.40796E+004    3.94875E+005   -8.31720E+004    3.66944E+005   -1.63042E+004    3.24871E+005   -5.90504E+004    2.49089E+004    9.40105E+003    3.94743E+004
            4600    3.24090E+005    2.69978E+005    2.69978E+005   -9.13568E+003   -8.54640E+004    3.55442E+005   -5.84593E+004    3.02860E+005   -6.69577E+003    2.63303E+005   -8.12291E+004    2.62966E+004    6.39361E+003    3.76780E+004
            4601    3.03553E+005    2.24683E+005    2.24683E+005   -2.62607E+002   -1.20586E+005    3.45268E+005   -3.46115E+004    2.40369E+005    2.73976E+003    2.16828E+005   -1.15733E+005    2.58217E+004    1.89439E+003    4.04138E+004
            4602    2.58653E+005    1.79273E+005    1.79273E+005    3.99581E+003   -1.17792E+005    2.97065E+005   -2.18258E+004    1.74256E+005    6.32735E+003    1.70697E+005   -1.11547E+005    2.59029E+004   -8.57020E+003    3.82160E+004
            4603    2.63971E+005    1.32195E+005   -1.72034E+005   -3.66874E+003   -1.72034E+005    3.04229E+005    1.45024E+004   -1.50072E+005   -4.75857E+003   -1.65849E+005    1.27101E+005    1.67739E+004   -5.62719E+003   -3.72521E+004
            4604    2.44574E+005    1.05077E+005   -1.77329E+005   -3.49085E+004   -1.77329E+005    2.82406E+005    3.57200E+004   -6.02238E+004   -4.17685E+004   -1.61606E+005    9.62147E+004    3.29858E+004   -3.82793E+003   -4.68054E+004
            4605    1.89743E+005    9.72339E+004   -1.21804E+005   -7.91001E+003   -1.21804E+005    2.19038E+005    1.08266E+004   -7.78696E+004   -1.71824E+004   -1.01757E+005    8.64595E+004    3.22821E+004    1.04777E+003   -4.55068E+004
            4606    1.24362E+005    5.14665E+004   -9.13895E+004   -7.31019E+003   -9.13895E+004    1.42856E+005    1.57444E+004   -8.33424E+004   -1.99479E+004   -7.31307E+004    4.58454E+004    3.03396E+004    2.73516E+003   -2.59859E+004
            4607    1.41131E+005    6.70921E+004   -9.20838E+004    1.77563E+004   -9.20838E+004    1.59176E+005    2.41182E+003   -1.19277E+005    1.46621E+004   -7.52335E+004    5.33359E+004    1.70304E+004    9.19179E+003   -4.37450E+004
            4608    1.50121E+005    5.05480E+004   -1.15670E+005    1.00399E+004   -1.15670E+005    1.66218E+005    1.83608E+004   -1.36993E+005    6.72744E+003   -1.00622E+005    3.88127E+004    1.92342E+004    6.14516E+003   -4.20922E+004
            4609    1.63537E+005    5.18189E+004   -1.26489E+005    1.65087E+004   -1.26489E+005    1.78308E+005    1.93870E+004   -1.54607E+005    1.36437E+004   -1.11465E+005    3.96604E+004    1.91599E+004    6.29000E+003   -4.44983E+004
            4610    1.72667E+005    4.08696E+004   -1.43697E+005    1.38935E+004   -1.43697E+005    1.84567E+005    2.96447E+004   -1.67827E+005    1.09870E+004   -1.31924E+005    3.20023E+004    2.08199E+004    4.20941E+003   -3.91228E+004
            4611    1.80486E+005    3.87144E+004   -1.51777E+005    1.66802E+004   -1.51777E+005    1.90492E+005    3.21275E+004   -1.77422E+005    1.38581E+004   -1.43219E+005    3.29779E+004    2.13425E+004    3.53157E+003   -3.22974E+004
            4612    1.84651E+005    3.18716E+004   -1.60125E+005    1.61774E+004   -1.60125E+005    1.91997E+005    3.73588E+004   -1.83141E+005    1.33314E+004   -1.55134E+005    2.97261E+004    2.21996E+004    1.88804E+003   -1.99621E+004
            4613    1.85895E+005    3.00625E+004   -1.61972E+005    1.71066E+004   -1.61972E+005    1.92034E+005    3.82675E+004   -1.84875E+005    1.42536E+004   -1.58825E+005    2.97685E+004    2.24079E+004    8.34191E+002   -7.44995E+003
            4614    1.83707E+005    7.57092E+004   -1.34871E+005   -7.43623E+003   -1.34871E+005    2.10580E+005    2.21993E+004   -1.30031E+005   -1.04836E+004   -1.20066E+005    6.39521E+004    1.87385E+004    1.03712E+004   -4.71392E+004
            4615    1.90862E+005    7.16894E+004   -1.46562E+005   -1.09218E+004   -1.46562E+005    2.18252E+005    2.85982E+004   -1.41332E+005   -1.43928E+004   -1.29490E+005    5.80877E+004    2.02868E+004    8.98784E+003   -5.19884E+004
            4616    2.05692E+005    5.64998E+004   -1.74389E+005   -1.07097E+004   -1.74389E+005    2.30889E+005    4.28664E+004   -1.78354E+005   -1.36886E+004   -1.59112E+005    4.42017E+004    2.10435E+004    7.86770E+003   -5.12408E+004
            4617    2.23341E+005    5.35804E+004   -1.95021E+005   -1.13117E+004   -1.95021E+005    2.48601E+005    5.09174E+004   -2.00428E+005   -1.42164E+004   -1.82494E+005    4.39584E+004    2.23104E+004    6.64526E+003   -4.74845E+004
            4618    2.35309E+005    4.18667E+004   -2.15750E+005   -1.21361E+004   -2.15750E+005    2.57616E+005    6.20063E+004   -2.20711E+005   -1.50321E+004   -2.07529E+005    3.65426E+004    2.37953E+004    4.74193E+003   -3.63374E+004
            4619    2.44374E+005    3.73356E+004   -2.28231E+005   -1.28373E+004   -2.28231E+005    2.65567E+005    6.79110E+004   -2.32358E+005   -1.57685E+004   -2.23103E+005    3.51390E+004    2.48267E+004    2.92635E+003   -2.38729E+004
            4620    2.48140E+005    3.25330E+004   -2.35410E+005   -1.35280E+004   -2.35410E+005    2.67943E+005    7.21351E+004   -2.38235E+005   -1.65204E+004   -2.32205E+005    3.23200E+004    2.55809E+004    9.22269E+002   -7.49581E+003
            4621    2.31634E+005    1.12603E+005   -1.47978E+005    3.45390E+004   -1.47978E+005    2.60581E+005    2.78448E+002   -1.98630E+005    3.36240E+004   -1.36509E+005    1.02050E+005    1.63727E+004    1.19618E+004   -4.88273E+004
            4622    2.41629E+005    8.71896E+004   -1.80760E+005    2.05715E+004   -1.80760E+005    2.67949E+005    2.43328E+004   -2.19499E+005    1.89767E+004   -1.66315E+005    7.43401E+004    1.76211E+004    7.51584E+003   -5.66477E+004
            4623    2.71990E+005    8.72685E+004   -2.10009E+005    2.63693E+004   -2.10009E+005    2.97277E+005    3.21236E+004   -2.55967E+005    2.53761E+004   -1.96700E+005    7.49538E+004    1.66022E+004    8.26273E+003   -5.81972E+004
            4624    2.94151E+005    6.85744E+004   -2.45643E+005    2.31601E+004   -2.45643E+005    3.14217E+005    5.13027E+004   -2.86104E+005    2.21929E+004   -2.36210E+005    6.01094E+004    1.73075E+004    6.29361E+003   -4.99991E+004
            4625    3.16773E+005    6.03719E+004   -2.72202E+005    2.59601E+004   -2.72202E+005    3.32574E+005    6.19567E+004   -3.12526E+005    2.52663E+004   -2.66040E+005    5.49038E+004    1.70768E+004    5.63897E+003   -4.08391E+004
            4626    3.32899E+005    4.87152E+004   -2.94732E+005    2.65064E+004   -2.94732E+005    3.43447E+005    7.31701E+004   -3.31226E+005    2.57850E+004   -2.91873E+005    4.65781E+004    1.73031E+004    3.58234E+003   -2.54333E+004
            4627    3.40883E+005    4.41843E+004   -3.04516E+005    2.79696E+004   -3.04516E+005    3.48701E+005    7.74541E+004   -3.40013E+005    2.71327E+004   -3.03379E+005    4.38837E+004    1.72061E+004    1.43210E+003   -9.16265E+003
            4628    2.47153E+005    9.82794E+004   -1.86940E+005   -5.28288E+004   -1.86940E+005    2.85219E+005    4.71631E+004    1.15852E+005   -6.18745E+004   -1.63293E+005    8.36781E+004    3.16127E+004    1.77071E+004   -6.03134E+004
            4629    2.86586E+005    1.17336E+005   -2.13354E+005   -3.72984E+004   -2.13354E+005    3.30690E+005    4.44389E+004   -1.38106E+005   -4.20660E+004   -1.96250E+005    1.04999E+005    2.76676E+004    1.34726E+004   -6.11397E+004
            4630    2.95832E+005    8.42726E+004   -2.51923E+005   -3.14231E+004   -2.51923E+005    3.36196E+005    6.63579E+004   -2.36229E+005   -3.46890E+004   -2.39524E+005    7.51390E+004    2.65117E+004    1.04708E+004   -5.34266E+004
            4631    3.22928E+005    6.49582E+004   -2.94496E+005   -2.88780E+004   -2.94496E+005    3.59454E+005    8.61386E+004   -2.89791E+005   -3.14513E+004   -2.84737E+005    5.77722E+004    2.62962E+004    8.58572E+003   -4.92404E+004
            4632    3.47620E+005    3.83861E+004   -3.38685E+005   -3.09755E+004   -3.38685E+005    3.77071E+005    1.10425E+005   -3.31510E+005   -3.36577E+004   -3.31770E+005    3.41533E+004    2.87694E+004    5.93962E+003   -3.90124E+004
            4633    3.70079E+005    2.36636E+004   -3.71369E+005   -3.27128E+004   -3.71369E+005    3.95032E+005    1.26806E+005   -3.60228E+005   -3.55318E+004   -3.66612E+005    2.17262E+004    3.07249E+004    3.20060E+003   -2.73607E+004
            4634    3.84425E+005    1.48577E+004   -3.91800E+005   -3.43478E+004   -3.91800E+005    4.06658E+005    1.37097E+005   -3.77242E+005   -3.72672E+004   -3.88654E+005    1.46308E+004    3.21616E+004    9.04199E+002   -9.55994E+003
            4635    5.01351E+005    4.63776E+004   -4.87175E+005   -2.58643E+004   -4.87175E+005    5.33553E+005    1.55554E+005   -4.89435E+005    4.49742E+004   -4.85692E+005   -2.59436E+004    2.64772E+004    2.91600E+003   -8.58692E+003
            4636    4.73754E+005    4.54327E+004   -4.52994E+005   -8.53584E+003   -4.52994E+005    4.98427E+005    1.38699E+005   -4.66763E+005    4.33703E+004   -4.50596E+005   -8.87188E+003    2.54542E+004    7.46323E+003   -2.16484E+004
            4637    4.29374E+005    4.45304E+004   -3.96550E+005    2.00741E+004   -3.96550E+005    4.41080E+005    1.10648E+005   -4.27803E+005    4.01528E+004   -3.92988E+005    2.08897E+004    2.36041E+004    9.81359E+003   -3.03540E+004
            4638    3.81006E+005    5.87274E+004   -3.33400E+005    3.54134E+004   -3.33400E+005    3.92128E+005    7.97531E+004   -3.79396E+005    3.69655E+004   -3.29377E+005    5.31520E+004    2.22900E+004    9.65593E+003   -3.16063E+004
            4639    3.41878E+005    9.72983E+004   -2.70564E+005    3.74172E+004   -2.70564E+005    3.67862E+005    4.52828E+004   -3.29768E+005    3.66078E+004   -2.66403E+005    9.39466E+004    1.86320E+004    6.48855E+003   -3.28385E+004
            4640    3.02203E+005    1.21956E+005   -2.10373E+005    4.79568E+004   -2.10373E+005    3.32329E+005    1.34865E+004   -2.80711E+005    4.74486E+004   -2.07833E+005    1.19924E+005    1.31333E+004   -2.23342E+003   -2.49741E+004
            4641    3.14009E+005    1.84613E+005    1.84613E+005    9.20750E+004   -1.65266E+005    3.49879E+005   -3.71406E+004   -2.80784E+005    9.27693E+004   -1.63319E+005    1.81971E+005   -1.84666E+003   -8.27795E+003   -2.58479E+004
            4642    4.05207E+005    4.12137E+005    4.12137E+005    2.67194E+004   -1.03167E+004    4.22453E+005   -1.42846E+005    4.01372E+005    2.96839E+004    4.08856E+005   -1.00010E+004    3.36634E+004   -1.20362E+003   -1.14657E+004
            4643    3.66054E+005    3.37864E+005    3.37864E+005   -1.79564E+004   -3.76305E+004    3.75494E+005   -9.40922E+004    3.64861E+005   -1.69815E+004    3.36601E+005   -3.73429E+004    1.91046E+004   -1.53504E+003   -9.28621E+003
            4644    2.97007E+005    2.79163E+005    2.79163E+005    5.28613E+003   -3.65405E+004    3.15704E+005   -8.26362E+004    2.90270E+005    7.38576E+003    2.76762E+005   -3.62389E+004    2.39076E+004   -1.33662E+003   -9.57891E+003
            4645    2.40736E+005    2.17741E+005    2.17741E+005   -8.87956E+003   -3.49833E+004    2.52724E+005   -5.79592E+004    2.37520E+005   -6.71475E+003    2.15298E+005   -3.47051E+004    2.20393E+004   -1.03922E+003   -8.28976E+003
            4646    1.75790E+005    1.59844E+005    1.59844E+005   -3.30382E+003   -2.63200E+004    1.86164E+005   -4.34068E+004    1.72351E+005    6.25153E+002    1.55627E+005   -2.60323E+004    2.50000E+004   -8.50340E+002   -7.22539E+003
            4647    1.13246E+005    1.01616E+005    1.01616E+005   -5.70487E+003   -1.67461E+004    1.18362E+005   -2.63884E+004    1.12025E+005   -2.30925E+001    9.53810E+004   -1.61928E+004    2.42856E+004   -3.96636E+002   -7.04189E+003
            4648    6.13349E+004    4.82780E+004    4.82780E+004   -7.08154E+003   -1.76569E+004    6.59349E+004   -7.84653E+003    5.92314E+004   -3.77666E+003    3.44432E+004   -7.12696E+003    2.62699E+004   -2.71111E+002   -5.51940E+003
            4649    5.52313E+004    2.00667E+004   -4.07623E+004    6.24635E+003   -4.07623E+004    6.08290E+004    4.81640E+003   -5.11192E+004    6.51345E+003   -2.70699E+004    6.10728E+003    2.45677E+004    2.39176E+002   -6.46126E+003
            4650    1.06808E+005    1.40267E+004   -9.95933E+004   -1.24001E+003   -9.95933E+004    1.13620E+005    2.89356E+004   -1.04311E+005   -8.82188E+003   -9.16321E+004    1.36474E+004    2.63795E+004    3.25792E+002   -5.68429E+003
            4651    3.86348E+005    3.85714E+005    3.85714E+005    2.25287E+004   -2.02376E+004    4.05952E+005   -1.29335E+005    3.80968E+005    2.52744E+004    3.81011E+005   -1.82799E+004    3.14705E+004   -3.29775E+003   -2.78190E+004
            4652    3.51828E+005    3.19897E+005    3.19897E+005   -1.61359E+004   -4.58428E+004    3.65740E+005   -8.59727E+004    3.48990E+005   -1.53290E+004    3.16564E+005   -4.33168E+004    1.90800E+004   -4.53872E+003   -2.83078E+004
            4653    2.85088E+005    2.64831E+005    2.64831E+005    5.22550E+003   -4.02684E+004    3.05100E+005   -7.65962E+004    2.76745E+005    7.33322E+003    2.60443E+005   -3.79878E+004    2.33214E+004   -3.40523E+003   -2.59429E+004
            4654    2.32717E+005    2.07190E+005    2.07190E+005   -8.44660E+003   -3.94926E+004    2.46682E+005   -5.30834E+004    2.27989E+005   -6.20290E+003    2.02656E+005   -3.72027E+004    2.18139E+004   -2.99060E+003   -2.34198E+004
            4655    1.69344E+005    1.52393E+005    1.52393E+005   -3.15278E+003   -2.80035E+004    1.80396E+005   -4.04121E+004    1.65167E+005    7.95069E+002    1.45815E+005   -2.53735E+004    2.45002E+004   -2.05782E+003   -2.12400E+004
            4656    1.10254E+005    9.64683E+004    9.64683E+004   -5.53290E+003   -2.05074E+004    1.16976E+005   -2.34760E+004    1.07930E+005   -1.00733E+002    8.75465E+004   -1.70178E+004    2.39205E+004   -1.37550E+003   -1.80989E+004
            4657    6.44611E+004    4.89971E+004    4.89971E+004   -5.27101E+003   -2.22557E+004    7.12529E+004   -7.15680E+003    5.91042E+004   -3.42231E+003    3.05470E+004   -5.65426E+003    2.57571E+004   -3.85273E+002   -1.76049E+004
            4658    6.18507E+004    2.20596E+004   -4.62161E+004    6.06935E+003   -4.62161E+004    6.82756E+004    6.02905E+003   -5.69149E+004    5.99038E+003   -2.97811E+004    5.70354E+003    2.42185E+004    3.01274E+002   -1.62911E+004
            4659    1.10274E+005    1.88859E+004   -1.00177E+005   -1.55056E+003   -1.00177E+005    1.19063E+005    2.76140E+004   -1.05887E+005   -8.28990E+003   -8.98871E+004    1.53350E+004    2.57899E+004    1.32647E+003   -1.84016E+004
            4660    3.59066E+005    3.43162E+005    3.43162E+005    2.01211E+004   -4.34403E+004    3.86602E+005   -1.06614E+005    3.46067E+005    2.27008E+004    3.35714E+005   -3.85723E+004    2.89089E+004   -5.98641E+003   -4.24362E+004
            4661    3.24189E+005    2.88539E+005    2.88539E+005   -1.25126E+004   -5.46640E+004    3.43203E+005   -7.37876E+004    3.17937E+005   -1.16554E+004    2.82166E+005   -4.91479E+004    1.91698E+004   -6.75042E+003   -4.12583E+004
            4662    2.69137E+005    2.40180E+005    2.40180E+005    2.20784E+003   -5.19005E+004    2.92080E+005   -6.34957E+004    2.56467E+005    4.26390E+003    2.32449E+005   -4.62260E+004    2.21063E+004   -5.72941E+003   -3.97127E+004
            4663    2.15882E+005    1.88686E+005    1.88686E+005   -7.15743E+003   -4.27993E+004    2.31485E+005   -4.62430E+004    2.09109E+005   -4.78017E+003    1.80418E+005   -3.69086E+004    2.11496E+004   -4.59754E+003   -3.61440E+004
            4664    1.59338E+005    1.37693E+005    1.37693E+005   -4.77331E+003   -3.43683E+004    1.72061E+005   -3.28504E+004    1.52970E+005   -7.49404E+002    1.27671E+005   -2.83700E+004    2.34602E+004   -3.48987E+003   -3.10883E+004
            4665    1.05699E+005    9.04236E+004    9.04236E+004   -3.87855E+003   -2.38294E+004    1.14253E+005   -2.09052E+004    1.01332E+005    8.50313E+002    7.63655E+004   -1.45002E+004    2.31600E+004   -1.87591E+003   -2.86080E+004
            4666    6.69377E+004    4.62678E+004    4.62678E+004   -6.24044E+003   -2.91067E+004    7.53745E+004   -3.64020E+003    5.71032E+004   -4.10535E+003    2.19455E+004   -6.91956E+003    2.47608E+004   -7.90460E+002   -2.50306E+004
            4667    7.18523E+004    2.82745E+004   -5.14376E+004    8.34933E+003   -5.14376E+004    7.97121E+004    4.93791E+003   -6.51888E+004    6.60834E+003   -3.00250E+004    8.60291E+003    2.34026E+004    9.10919E+002   -2.64460E+004
            4668    1.12278E+005    2.17811E+004   -1.00669E+005   -2.55681E+003   -1.00669E+005    1.22450E+005    2.71483E+004   -1.06096E+005   -8.43000E+003   -8.74577E+004    1.44427E+004    2.47576E+004    1.99402E+003   -2.69530E+004
            4669    3.22851E+005    2.90328E+005    2.90328E+005    1.13123E+004   -6.32957E+004    3.53624E+005   -7.94481E+004    3.02529E+005    1.34112E+004    2.81191E+005   -5.62578E+004    2.49694E+004   -8.45838E+003   -4.80695E+004
            4670    2.97753E+005    2.50681E+005    2.50681E+005   -1.07415E+004   -7.34220E+004    3.24103E+005   -5.55059E+004    2.82331E+005   -9.60828E+003    2.40925E+005   -6.47995E+004    1.88494E+004   -8.04202E+003   -5.08470E+004
            4671    2.43439E+005    2.09824E+005    2.09824E+005    3.14203E+003   -5.85152E+004    2.68339E+005   -5.14837E+004    2.24842E+005    5.36408E+003    1.97959E+005   -4.88725E+004    2.10663E+004   -7.23095E+003   -4.93086E+004
            4672    1.97095E+005    1.63745E+005    1.63745E+005   -6.57354E+003   -5.21442E+004    2.15889E+005   -3.50089E+004    1.84675E+005   -3.91653E+003    1.51901E+005   -4.29577E+004    2.05210E+004   -5.70584E+003   -4.32002E+004
            4673    1.45118E+005    1.22299E+005    1.22299E+005   -3.76233E+003   -3.63385E+004    1.58637E+005   -2.73993E+004    1.36523E+005    3.91750E+002    1.07598E+005   -2.57921E+004    2.24009E+004   -4.26539E+003   -3.87870E+004
            4674    9.79329E+004    7.79570E+004    7.79570E+004   -4.61774E+003   -3.02402E+004    1.08197E+005   -1.43664E+004    8.99163E+004    3.41752E+002    5.98608E+004   -1.71035E+004    2.21708E+004   -2.44895E+003   -3.27264E+004
            4675    7.08207E+004    4.74248E+004    4.74248E+004   -3.50064E+003   -3.34502E+004    8.08750E+004   -3.49132E+003    5.35075E+004   -2.98827E+003    1.61441E+004   -2.68184E+003    2.34988E+004   -6.48984E+002   -3.16093E+004
            4676    7.64240E+004    2.82496E+004   -5.66224E+004    6.74661E+003   -5.66224E+004    8.48720E+004    7.20872E+003   -6.91109E+004    5.15418E+003   -3.35454E+004    6.76509E+003    2.24304E+004    1.10802E+003   -3.03589E+004
            4677    1.14040E+005    3.09464E+004   -9.58390E+004   -1.63557E+003   -9.58390E+004    1.26785E+005    2.21761E+004   -1.02760E+005   -7.20730E+003   -7.86024E+004    1.92816E+004    2.34191E+004    3.05034E+003   -3.48417E+004
            4678    3.00230E+005    2.45183E+005    2.45183E+005    1.41337E+004   -9.41721E+004    3.39355E+005   -5.50483E+004    2.50246E+005    1.66550E+004    2.33803E+005   -8.53135E+004    2.42366E+004   -9.97169E+003   -5.28655E+004
            4679    2.63558E+005    2.10892E+005    2.10892E+005   -7.45804E+003   -8.18721E+004    2.92764E+005   -4.05208E+004    2.38147E+005   -5.86262E+003    1.97786E+005   -7.03614E+004    1.91767E+004   -9.12888E+003   -5.58013E+004
            4680    2.21683E+005    1.75535E+005    1.75535E+005   -2.00469E+003   -7.29323E+004    2.48467E+005   -3.35326E+004    1.93571E+005    2.54785E+002    1.61226E+005   -6.08828E+004    1.95933E+004   -8.94427E+003   -5.24752E+004
            4681    1.74423E+005    1.39554E+005    1.39554E+005   -5.58673E+003   -5.39453E+004    1.93500E+005   -2.66741E+004    1.58254E+005   -2.67625E+003    1.23792E+005   -4.10935E+004    1.94119E+004   -6.82631E+003   -4.76948E+004
            4682    1.28370E+005    9.97050E+004    9.97050E+004   -6.88985E+003   -4.27944E+004    1.42499E+005   -1.66736E+004    1.16243E+005   -2.45904E+003    8.31175E+004   -3.06376E+004    2.06928E+004   -5.33699E+003   -3.90726E+004
            4683    8.85429E+004    6.93803E+004    6.93803E+004   -2.64526E+003   -2.94742E+004    9.88545E+004   -1.24203E+004    7.85865E+004    1.79190E+003    4.75047E+004   -1.20358E+004    2.09200E+004   -2.49156E+003   -3.46184E+004
            4684    6.59015E+004    3.87926E+004    3.87926E+004   -5.67728E+003   -3.69198E+004    7.57123E+004    1.26817E+003    4.39704E+004   -4.23913E+003    6.46971E+003   -6.03508E+003    2.19470E+004   -8.75738E+002   -3.03236E+004
            4685    7.91913E+004    3.42380E+004   -5.43026E+004    9.75852E+003   -5.43026E+004    8.85406E+004    3.43538E+003   -6.98865E+004    6.51988E+003   -2.96042E+004    1.27782E+004    2.10147E+004    2.02050E+003   -3.34861E+004
            4686    1.09039E+005    2.98789E+004   -9.15738E+004   -2.09985E+003   -9.15738E+004    1.21453E+005    2.12649E+004   -9.76223E+004   -7.28019E+003   -7.39385E+004    1.74239E+004    2.16653E+004    3.58562E+003   -3.53195E+004
            4687    2.64942E+005    1.98943E+005    1.98943E+005    2.76966E+003   -1.02445E+005    3.01388E+005   -3.30893E+004    2.09545E+005    5.16440E+003    1.86285E+005   -9.21812E+004    2.17816E+004   -1.09049E+004   -5.32363E+004
            4688    2.43466E+005    1.75873E+005    1.75873E+005   -6.62597E+003   -1.00569E+005    2.76442E+005   -2.28926E+004    1.95974E+005   -4.50469E+003    1.62320E+005   -8.91371E+004    1.91070E+004   -8.14085E+003   -5.43746E+004
            4689    1.97190E+005    1.48537E+005    1.48537E+005    3.61372E+003   -7.60158E+004    2.24553E+005   -2.53783E+004    1.54237E+005    6.73938E+003    1.31171E+005   -6.17758E+004    2.00053E+004   -9.47241E+003   -5.38852E+004
            4690    1.53331E+005    1.11796E+005    1.11796E+005   -4.89156E+003   -6.18672E+004    1.73663E+005   -1.50123E+004    1.25978E+005   -1.30678E+003    9.55585E+004   -4.92147E+004    1.90692E+004   -6.95482E+003   -4.45563E+004
            4691    1.09645E+005    8.43519E+004    8.43519E+004   -3.73665E+003   -3.84472E+004    1.22799E+005   -1.40560E+004    9.60646E+004    1.39854E+003    6.65023E+004   -2.57328E+004    2.01886E+004   -5.24078E+003   -3.64047E+004
            4692    7.41335E+004    5.22871E+004    5.22871E+004   -5.49778E+003   -3.12996E+004    8.35866E+004   -5.16324E+003    6.27684E+004    4.85871E+002    3.19193E+004   -1.69155E+004    1.99373E+004   -2.79618E+003   -2.85306E+004
            4693    5.84021E+004    3.59402E+004    3.59402E+004   -1.18274E+003   -3.13779E+004    6.73182E+004   -1.12651E+003    3.27969E+004   -2.04131E+003    4.17599E+003    1.24485E+003    2.06730E+004   -4.10357E+002   -2.64521E+004
            4694    6.81822E+004    2.50845E+004   -5.03571E+004    6.86325E+003   -5.03571E+004    7.54416E+004    6.13647E+003   -6.23419E+004    3.55277E+003   -2.98560E+004    7.89384E+003    2.00306E+004    2.09474E+003   -2.67828E+004
            4695    1.03675E+005    3.94793E+004   -7.81252E+004    5.23101E+001   -7.81252E+004    1.17604E+005    1.28645E+004   -8.41399E+004   -5.78678E+003   -5.88510E+004    2.60441E+004    2.06087E+004    4.49152E+003   -3.60358E+004
            4696    2.62283E+005    1.79183E+005    1.79183E+005    2.47663E+004   -1.23655E+005    3.02838E+005   -2.67646E+004    8.52016E+004    3.10325E+004    1.64564E+005   -1.15303E+005    2.96123E+004   -9.32064E+003   -4.87021E+004
            4697    2.22219E+005    1.48000E+005    1.48000E+005   -8.19731E+003   -1.06403E+005    2.54403E+005   -1.11334E+004    1.61318E+005   -5.02091E+003    1.33027E+005   -9.46058E+004    2.16090E+004   -1.16671E+004   -5.20337E+004
            4698    1.81642E+005    1.17510E+005    1.17510E+005   -7.47353E+003   -9.08525E+004    2.08362E+005   -6.39451E+003    1.26473E+005   -4.83277E+003    1.02523E+005   -7.85069E+004    1.74885E+004   -1.11725E+004   -4.77467E+004
            4699    1.34816E+005    9.35535E+004    9.35535E+004   -6.75827E+003   -5.96973E+004    1.53251E+005   -9.03265E+003    1.07387E+005   -2.82439E+003    7.80203E+004   -4.80979E+004    1.82623E+004   -8.50635E+003   -3.96321E+004
            4700    9.03743E+004    6.02469E+004    6.02469E+004   -9.77046E+003   -4.17744E+004    1.02021E+005   -2.90068E+003    7.59580E+004   -3.96414E+003    4.51298E+004   -3.24636E+004    1.82848E+004   -6.21543E+003   -2.84431E+004
            4701    5.20687E+004    3.97660E+004    3.97660E+004   -4.74658E+003   -1.74920E+004    5.72580E+004   -5.84246E+003    4.83686E+004    2.10200E+003    2.29655E+004   -7.54015E+003    1.91182E+004   -2.56762E+003   -1.69846E+004
            4702    3.91758E+004    2.01427E+004   -2.49765E+004   -5.23421E+003   -2.49765E+004    4.51192E+004    3.35598E+003    2.34421E+004   -3.88790E+003   -1.13508E+003   -5.04496E+003    1.95298E+004   -5.51855E+002   -1.12175E+004
            4703    5.50809E+004    2.42789E+004   -3.57445E+004    1.24827E+004   -3.57445E+004    6.00234E+004   -3.39037E+002   -5.21240E+004    6.01807E+003   -1.99272E+004    1.49262E+004    1.88805E+004    2.93618E+003   -1.78418E+004
            4704    8.28948E+004    2.89275E+004   -6.43368E+004    9.46869E+002   -6.43368E+004    9.32642E+004    1.14875E+004   -7.10416E+004   -5.29753E+003   -4.93436E+004    2.01787E+004    1.86273E+004    5.03320E+003   -2.60985E+004
            4705    7.91921E+004    3.11599E+004   -5.69688E+004    8.22346E+003   -5.69688E+004    8.81287E+004    5.86178E+003   -7.11233E+004   -5.44109E+003   -4.14393E+004    2.92951E+004    2.64613E+004    2.88745E+003   -1.14435E+004
            4706    4.65633E+004    1.28363E+004   -3.84248E+004    1.25454E+003   -3.84248E+004    5.12611E+004    8.11130E+003   -4.31403E+004   -5.03490E+003   -2.26269E+004    3.32791E+003    2.27438E+004    2.14867E+003    5.03054E+003
            4707    4.00186E+004    2.40395E+004    2.40395E+004    4.31199E+003   -2.20128E+004    4.60523E+004   -2.11291E+003   -2.50424E+004    1.83081E+003   -5.91427E+001    4.56707E+003    2.12817E+004   -2.01926E+002    8.68719E+003
            4708    4.88039E+004    3.48663E+004    3.48663E+004   -9.40196E+003   -1.74681E+004    5.23344E+004   -2.66539E+003    4.72692E+004    1.43144E+003    1.90454E+004   -1.24807E+004    2.28573E+004   -1.84697E+003    4.29592E+003
            4709    7.37155E+004    5.86924E+004    5.86924E+004   -4.36431E+003   -2.23522E+004    8.10446E+004   -1.06586E+004    6.85116E+004    1.03862E+004    4.28836E+004   -2.12938E+004    2.65551E+004   -2.85360E+003   -8.26249E+003
            4710    1.27952E+005    8.48571E+004    8.48571E+004    2.00904E+003   -6.25093E+004    1.47366E+005   -8.11896E+003    7.64633E+004    1.50371E+004    6.61213E+004   -5.68016E+004    3.04662E+004   -2.58899E+003   -2.66253E+004
            4711    1.80614E+005    1.22453E+005    1.22453E+005    1.69706E+004   -8.60975E+004    2.08550E+005   -1.77753E+004    4.90647E+004    2.73939E+004    1.04562E+005   -7.86299E+004    3.29160E+004    9.78214E+002   -3.64716E+004
            4712    2.25374E+005    1.40161E+005    1.40161E+005    2.03184E+004   -1.19815E+005    2.59976E+005   -1.35545E+004   -1.15526E+005    2.70397E+004    1.26514E+005   -1.12890E+005    2.89001E+004    2.05667E+003   -4.03343E+004
            4713    2.38495E+005    1.46186E+005    1.46186E+005    2.25213E+003   -1.29109E+005    2.75295E+005   -6.44289E+003    1.02334E+005    4.13959E+003    1.39756E+005   -1.24567E+005    2.15098E+004    9.25310E+003   -3.06786E+004
            4714    5.02260E+005    4.92238E+005    4.92238E+005    2.59667E+004   -3.95754E+004    5.31813E+005   -1.59543E+005    4.92501E+005   -3.80642E+004    4.90682E+005    2.60116E+004    2.74645E+004   -2.81141E+003   -7.75234E+003
            4715    4.71323E+005    4.54542E+005    4.54542E+005    5.46937E+003   -3.62555E+004    4.90798E+005   -1.41252E+005    4.67140E+005   -3.37763E+004    4.51634E+005    5.89890E+003    2.65510E+004   -7.87186E+003   -2.52060E+004
            4716    4.20375E+005    3.93776E+005    3.93776E+005   -1.83855E+004   -3.43570E+004    4.28133E+005   -1.13678E+005    4.19691E+005   -2.60632E+004    3.89588E+005   -2.24913E+004    2.60376E+004   -9.91915E+003   -3.21037E+004
            4717    3.72265E+005    3.29486E+005    3.29486E+005   -1.67361E+004   -6.42596E+004    3.93745E+005   -8.28299E+004    3.65347E+005   -1.58022E+004    3.23505E+005   -5.92132E+004    2.50780E+004   -9.47237E+003   -3.95050E+004
            4718    3.22867E+005    2.68154E+005    2.68154E+005   -8.87025E+003   -8.64295E+004    3.54583E+005   -5.76179E+004    3.00818E+005   -6.38662E+003    2.61422E+005   -8.21815E+004    2.64083E+004   -6.43668E+003   -3.76923E+004
            4719    3.02868E+005    2.23373E+005    2.23373E+005    2.90211E+002   -1.21416E+005    3.44790E+005   -3.40824E+004    2.37685E+005    3.36086E+003    2.15441E+005   -1.16555E+005    2.59959E+004   -1.92513E+003   -4.04200E+004
            4720    2.58077E+005    1.78580E+005    1.78580E+005    3.52791E+003   -1.17804E+005    2.96383E+005   -2.14346E+004    1.74235E+005    5.85561E+003    1.70008E+005   -1.11560E+005    2.57972E+004    8.45655E+003   -3.82366E+004


  Minimum           3.87420E+004   -5.31120E+003   -7.93740E+005   -1.47440E+005   -7.93740E+005    4.46219E+004   -3.13423E+005   -6.99936E+005   -2.32327E+005   -6.67876E+005   -1.83101E+005   -2.36722E+003   -1.01532E+005   -6.16981E+004
      At Element            4547            4402             702             938             702            4547            4242             702            1056             702              39            4523            2596              21

  Maximum           8.12017E+005    7.93740E+005    7.93740E+005    1.47440E+005    5.31120E+003    9.37412E+005    3.13423E+005    6.99936E+005    2.32327E+005    6.67876E+005    1.83101E+005    4.68435E+005    1.01318E+005    6.16981E+004
      At Element            2503            4242            4242            4006             390            2503             702            4242            3652            4242            4523            2503            2478            4505

           Total    2.47287E+009    1.39601E+009    0.00000E+000    0.00000E+000   -1.39601E+009    2.79202E+009    0.00000E+000    0.00000E+000    0.00000E+000    0.00000E+000   -1.90735E-006    1.27711E+009   -7.13185E+004    0.00000E+000


