********************************************************************************
Field Output Report, written Sun Apr 16 11:05:01 2023

Source 1
---------

   ODB: C:/Temp/12_shear.odb
   Step: Loading_step
   Frame: Increment      1: Step Time =    1.000

Loc 1 : Centroidal values from source 1

Output sorted by column "Element Label".

Field Output reported at element centroid for region: PART-1-1.Region_2

         Element         S.Mises     S.Max. Prin  S.Max. Prin(a)     S.Mid. Prin     S.Min. Prin        S.Tresca      S.Pressure     S.Third Inv           S.S11           S.S22           S.S33           S.S12           S.S13           S.S23
           Label          @Loc 1          @Loc 1          @Loc 1          @Loc 1          @Loc 1          @Loc 1          @Loc 1          @Loc 1          @Loc 1          @Loc 1          @Loc 1          @Loc 1          @Loc 1          @Loc 1
-------------------------------------------------------------------------------------------------------------------------------------------------------------------------------------------------------------------------------------------------
            4721    2.29473E+005    2.16112E+005    2.16112E+005    4.03117E+004   -4.34812E+004    2.59593E+005   -7.09809E+004    1.90175E+005    4.03255E+004    2.07161E+005   -3.45435E+004    3.95769E+004   -2.45046E+004    8.70524E+003
            4722    2.70381E+005    2.73609E+005    2.73609E+005    5.17458E+004   -2.75548E+004    3.01164E+005   -9.92667E+004    2.42068E+005    4.89836E+004    2.64366E+005   -1.55500E+004    4.44021E+004   -2.52749E+004    1.65417E+004
            4723    3.05490E+005    3.42903E+005    3.42903E+005    7.58863E+004    9.76797E+003    3.33135E+005   -1.42853E+005    2.88726E+005    7.02430E+004    3.33005E+005    2.53093E+004    5.03411E+004   -2.47633E+004    1.83676E+004
            4724    3.40949E+005    4.13873E+005    4.13873E+005    1.03505E+005    4.89284E+004    3.64945E+005   -1.88769E+005    3.30907E+005    9.22564E+004    4.02327E+005    7.17232E+004    5.64711E+004   -2.22313E+004    2.74729E+004
            4725    5.42614E+005    5.49973E+005    5.49973E+005    1.21573E+005   -6.01876E+004    6.10161E+005   -2.03786E+005    4.66354E+005   -4.08488E+004    5.26403E+005    1.25805E+005    1.01697E+005   -2.56626E+004   -4.62401E+004
            4726    7.38273E+005    9.40689E+005    9.40689E+005    3.43716E+005    1.15170E+005    8.25520E+005   -4.66525E+005    6.51248E+005    2.10585E+005    8.34108E+005    3.54883E+005    2.59644E+005   -1.20263E+004   -8.70594E+004
            4727    4.53685E+005    4.51461E+005    4.51461E+005    9.33094E+004   -5.87131E+004    5.10174E+005   -1.62019E+005    3.89875E+005   -4.45259E+004    4.31816E+005    9.87666E+004    7.71368E+004   -2.52642E+004   -4.79125E+004
            4728    6.42566E+005    8.16736E+005    8.16736E+005    2.95083E+005    9.89643E+004    7.17772E+005   -4.03595E+005    5.69150E+005    1.75912E+005    7.25034E+005    3.09837E+005    2.16753E+005   -1.25574E+004   -9.22728E+004
            4729    3.79498E+005    3.74138E+005    3.74138E+005    6.97637E+004   -5.10620E+004    4.25200E+005   -1.30947E+005    3.31896E+005   -4.14154E+004    3.57524E+005    7.67319E+004    5.58063E+004   -2.23985E+004   -4.89674E+004
            4730    5.52361E+005    6.95763E+005    6.95763E+005    2.45072E+005    7.95699E+004    6.16193E+005   -3.40135E+005    4.91758E+005    1.40958E+005    6.14886E+005    2.64561E+005    1.77622E+005   -1.22130E+004   -9.78093E+004
            4731    2.98241E+005    2.84506E+005    2.84506E+005    4.23136E+004   -4.86162E+004    3.33122E+005   -9.27344E+004    2.64246E+005   -4.27015E+004    2.73337E+005    4.75677E+004    3.77169E+004   -1.61917E+004   -3.82675E+004
            4732    4.81447E+005    6.07783E+005    6.07783E+005    2.08743E+005    7.30506E+004    5.34732E+005   -2.96526E+005    4.35207E+005    1.21070E+005    5.42693E+005    2.25814E+005    1.45737E+005   -7.84474E+003   -8.81562E+004
            4733    4.37264E+005    5.26882E+005    5.26882E+005    1.59920E+005    4.30609E+004    4.83821E+005   -2.43287E+005    3.99807E+005    8.60341E+004    4.61677E+005    1.82151E+005    1.21831E+005   -1.07915E+003   -1.03968E+005
            4734    4.43005E+005    5.15490E+005    5.15490E+005    1.00232E+005    4.91650E+004    4.66325E+005   -2.21629E+005    4.36309E+005    8.42460E+004    4.71890E+005    1.08752E+005    9.85994E+004    1.97004E+002   -9.25894E+004
            4735    2.87425E+005    2.84385E+005    2.84385E+005    2.26375E+004   -2.32073E+004    3.07592E+005   -9.46051E+004    2.79021E+005   -1.93954E+004    2.74995E+005    2.82157E+004    2.86756E+004   -1.08397E+004   -4.03223E+004
            4736    2.41455E+005    2.13327E+005    2.13327E+005   -2.07070E+004   -3.49205E+004    2.48248E+005   -5.25665E+004    2.40511E+005   -3.16235E+004    2.10906E+005   -2.15836E+004    2.41996E+004   -3.19707E+003    2.95749E+003
            4737    1.36659E+005    1.50748E+005    1.50748E+005    2.08112E+004    8.23655E+003    1.42512E+005   -5.99320E+004    1.35348E+005    2.00444E+004    1.40797E+005    1.89545E+004    3.58999E+004   -3.49948E+003    4.41531E+003
            4738    1.19350E+005    9.90702E+004    9.90702E+004   -1.30002E+004   -2.64247E+004    1.25495E+005   -1.98818E+004    1.17634E+005   -1.52536E+004    9.24817E+004   -1.75828E+004    2.03480E+004   -3.36093E+003    1.91938E+004
            4739    7.86647E+004    8.19388E+004    8.19388E+004    9.49490E+003   -1.73884E+003    8.36777E+004   -2.98983E+004    7.68290E+004    1.22820E+004    7.64301E+004    9.82813E+002    1.88370E+004   -2.94529E+003    6.58649E+003
            4740    6.79558E+004    5.77461E+004    5.77461E+004   -8.37978E+003   -1.19025E+004    6.96486E+004   -1.24879E+004    6.77499E+004   -8.68814E+003    5.66602E+004   -1.05082E+004    8.36429E+003   -1.51696E+003    1.68691E+003
            4741    1.71476E+005    1.65322E+005    1.65322E+005    2.06481E+004   -2.40885E+004    1.89410E+005   -5.39604E+004    1.57524E+005    1.24102E+004    1.56561E+005   -7.08996E+003    3.01156E+004   -1.63992E+004    2.52037E+004
            4742    1.33159E+005    1.03250E+005    1.03250E+005   -6.34937E+003   -4.49428E+004    1.48193E+005   -1.73193E+004    1.19571E+005   -1.17990E+004    9.85619E+004   -3.48048E+004    1.31044E+004   -1.25513E+004    2.23296E+004
            4743    8.32325E+004    6.05386E+004    6.05386E+004    7.58141E+003   -3.53972E+004    9.59358E+004   -1.09076E+004    4.69050E+004    6.27660E+003    5.62038E+004   -2.97576E+004    1.22621E+004   -9.95494E+003    1.40119E+004
            4744    5.33482E+004    3.84902E+004    3.84902E+004   -5.26558E+003   -2.09391E+004    5.94292E+004   -4.09517E+003    4.77410E+004   -6.51430E+003    3.73228E+004   -1.85230E+004    5.44560E+003   -5.76907E+003   -4.65109E+003
            4745    6.24782E+004    1.78573E+004   -5.31762E+004   -6.74147E+003   -5.31762E+004    7.10336E+004    1.40201E+004   -4.96847E+004   -7.39616E+003    1.36258E+004   -4.82901E+004    7.27125E+003   -1.44378E+004   -6.96802E+003
            4746    1.06473E+005    4.33464E+004   -7.81601E+004   -1.17241E+003   -7.81601E+004    1.21507E+005    1.19954E+004   -8.11808E+004   -1.87931E+003    3.84271E+004   -7.25339E+004    1.37897E+004   -2.06880E+004   -2.41323E+003
            4747    1.50563E+005    7.39429E+004   -9.97096E+004   -5.60614E+003   -9.97096E+004    1.73653E+005    1.04576E+004   -7.90176E+004   -8.15210E+003    6.91507E+004   -9.23715E+004    1.97653E+004   -2.39625E+004    8.07691E+003
            4748    2.10832E+005    1.55622E+005    1.55622E+005    9.80086E+003   -8.61144E+004    2.41736E+005   -2.64362E+004    1.48357E+005    9.14735E+003    1.49603E+005   -7.94418E+004    2.96726E+004   -2.36395E+004    6.15031E+003
            4749    8.30949E+005    1.06401E+006    1.06401E+006    3.92745E+005    1.34631E+005    9.29375E+005   -5.30461E+005    7.32260E+005    2.47504E+005    9.44707E+005    3.99170E+005    3.01017E+005   -1.00425E+004   -7.06806E+004
            4750    6.26353E+005    6.44505E+005    6.44505E+005    1.50435E+005   -5.99559E+004    7.04461E+005   -2.44995E+005    5.37773E+005   -3.46109E+004    6.16716E+005    1.52880E+005    1.28092E+005   -2.23976E+004   -3.79830E+004
            4751    3.72219E+005    4.90376E+005    4.90376E+005    1.45065E+005    9.60962E+004    3.94280E+005   -2.43846E+005    3.64867E+005    1.21748E+005    4.77688E+005    1.32101E+005    6.29762E+004   -1.78572E+004    2.93103E+004
            4752    9.05546E+005    1.16317E+006    1.16317E+006    4.32325E+005    1.50127E+005    1.01304E+006   -5.81874E+005    7.97227E+005    2.77633E+005    1.03301E+006    4.34980E+005    3.34907E+005   -6.74099E+003   -4.79355E+004
            4753    6.98726E+005    7.28695E+005    7.28695E+005    1.77526E+005   -5.71615E+004    7.85857E+005   -2.83020E+005    5.99925E+005   -2.65131E+004    6.97048E+005    1.78525E+005    1.50878E+005   -1.55869E+004   -2.56471E+004
            4754    3.95570E+005    5.55395E+005    5.55395E+005    1.93619E+005    1.33023E+005    4.22372E+005   -2.94012E+005    3.84920E+005    1.49280E+005    5.42176E+005    1.90580E+005    6.93466E+004   -1.17577E+004    2.44141E+004
            4755    9.48160E+005    1.22084E+006    1.22084E+006    4.55786E+005    1.60059E+005    1.06078E+006   -6.12228E+005    8.34531E+005    2.95791E+005    1.08481E+006    4.56080E+005    3.54216E+005   -2.30043E+003   -1.64008E+004
            4756    7.40056E+005    7.76624E+005    7.76624E+005    1.93127E+005   -5.58004E+004    8.32425E+005   -3.04650E+005    6.35070E+005   -2.20142E+004    7.42716E+005    1.93249E+005    1.64118E+005   -5.59110E+003   -9.16538E+003
            4757    4.08052E+005    5.95433E+005    5.95433E+005    2.29789E+005    1.55249E+005    4.40183E+005   -3.26824E+005    3.92293E+005    1.68358E+005    5.82576E+005    2.29537E+005    7.35261E+004   -4.23601E+003    9.24496E+003
            4758    5.22329E+004   -4.31158E+002   -5.53914E+004   -6.39829E+003   -5.53914E+004    5.49602E+004    2.07403E+004   -5.14577E+004   -7.61389E+003   -5.36077E+004   -9.99265E+002    9.14578E+003    1.92400E+003   -9.69942E+002
            4759    4.74817E+004    2.04643E+004   -3.41575E+004   -2.74091E+003   -3.41575E+004    5.46218E+004    5.47802E+003   -3.01811E+004   -2.71650E+003   -3.25200E+004    1.88024E+004    5.79795E+003    5.90210E+003   -4.33988E+003
            4760    6.09507E+004    4.76336E+004    4.76336E+004    2.72196E+003   -2.17498E+004    6.93834E+004   -9.53523E+003    4.78605E+004    2.38279E+003   -1.60470E+004    4.22699E+004    6.87389E+003    1.38209E+004   -1.05582E+004
            4761    4.09939E+004    6.83667E+003   -3.46598E+004    5.81249E+003   -3.46598E+004    4.14964E+004    7.33687E+003   -4.09651E+004    5.77154E+003   -3.39074E+004    6.12525E+003    3.33361E+003    7.98696E+002   -4.34637E+003
            4762    3.44136E+004    1.19856E+004   -2.58840E+004    3.47768E+003   -2.58840E+004    3.78695E+004    3.47356E+003   -3.19161E+004    3.54450E+003   -1.99848E+004    6.01966E+003    2.40295E+003    3.11096E+003   -1.31649E+004
            4763    3.80801E+004    2.78752E+004    2.78752E+004    3.68757E+003   -1.60197E+004    4.38950E+004   -5.18103E+003    2.13271E+004    3.39660E+003   -8.10810E+003    2.02546E+004    2.70429E+003    6.86788E+003   -1.50128E+004
            4764    1.43011E+004   -2.00001E+003   -1.79850E+004   -6.40341E+003   -1.79850E+004    1.59850E+004    8.79613E+003   -1.26352E+004   -6.49331E+003   -1.56141E+004   -4.28097E+003    9.11466E+002    5.90316E+002   -5.55941E+003
            4765    2.59000E+004    1.18621E+004   -1.80440E+004   -2.92289E+003   -1.80440E+004    2.99061E+004    3.03494E+003   -6.96728E+003   -3.01208E+003   -8.31055E+003    2.21781E+003    7.14981E+002    1.36272E+003   -1.39113E+004
            4766    3.25788E+004    1.68799E+004   -2.07389E+004   -1.93690E+003   -2.07389E+004    3.76187E+004    1.93197E+003    2.86728E+003   -2.06696E+003   -6.64949E+003    2.92056E+003    8.42277E+002    1.99637E+003   -1.80606E+004
            4767    1.04425E+004    8.93090E+003    8.93090E+003    6.47643E+003   -2.52017E+003    1.14511E+004   -4.29572E+003   -9.76128E+003    6.52882E+003    1.79771E+003    4.56063E+003    2.93722E+002   -2.24769E+002   -5.52839E+003
            4768    2.40329E+004    1.36311E+004   -1.38241E+004    3.40192E+003   -1.38241E+004    2.74552E+004   -1.06964E+003   -1.80600E+004    3.41646E+003    5.82218E+002   -7.89750E+002    3.63913E+002   -1.90619E+002   -1.37024E+004
            4769    3.32316E+004    2.06916E+004    2.06916E+004    1.96461E+003   -1.76774E+004    3.83690E+004   -1.65958E+003   -1.14863E+004    1.96601E+003    1.42931E+003    1.58343E+003    5.04369E+002   -2.17070E+001   -1.91777E+004
            4770    2.60463E+004    1.95058E+004    1.95058E+004   -6.20168E+003   -6.86647E+003    2.63723E+004   -2.14589E+003    2.60272E+004   -6.80951E+003    1.84271E+004   -5.17996E+003    7.15766E+002   -2.99672E+002   -5.10498E+003
            4771    2.85144E+004    2.04987E+004    2.04987E+004   -4.01211E+003   -1.07957E+004    3.12945E+004   -1.89696E+003    2.66065E+004   -4.03902E+003    1.11414E+004   -1.41146E+003    6.80779E+002   -1.42673E+003   -1.42374E+004
            4772    3.21452E+004    1.76739E+004   -1.94172E+004   -2.09733E+003   -1.94172E+004    3.70911E+004    1.28019E+003    1.55943E+004   -1.98771E+003    5.38203E+003   -7.23489E+003    9.10928E+002   -2.34610E+003   -1.72607E+004
            4773    3.50163E+004    3.99896E+004    3.99896E+004    7.75730E+003    2.73213E+003    3.72574E+004   -1.68263E+004    3.41910E+004    8.59941E+003    3.84127E+004    3.46686E+003    5.25896E+003   -1.37496E+003   -4.80650E+003
            4774    3.33752E+004    2.56448E+004    2.56448E+004    3.49162E+003   -1.27417E+004    3.83865E+004   -5.46488E+003    2.13906E+004    4.04696E+003    2.09512E+004   -8.60350E+003    3.48660E+003   -3.87162E+003   -1.11480E+004
            4775    3.92653E+004    2.00116E+004   -2.52053E+004    2.91484E+002   -2.52053E+004    4.52169E+004    1.63406E+003   -2.36708E+004    9.67350E+002    1.12721E+004   -1.71416E+004    3.06175E+003   -7.05694E+003   -1.57429E+004
            4776    3.72801E+005    4.90939E+005    4.90939E+005    1.45172E+005    9.59859E+004    3.94953E+005   -2.44032E+005    3.65394E+005    1.21685E+005    4.78251E+005    1.32160E+005    6.30851E+004    1.79594E+004   -2.92097E+004
            4777    6.27947E+005    6.46127E+005    6.46127E+005    1.50799E+005   -6.01271E+004    7.06254E+005   -2.45600E+005    5.39143E+005   -3.45959E+004    6.18075E+005    1.53320E+005    1.28769E+005    2.24088E+004    3.83941E+004
            4778    8.32385E+005    1.06605E+006    1.06605E+006    3.93684E+005    1.35055E+005    9.30999E+005   -5.31598E+005    7.33468E+005    2.48297E+005    9.46451E+005    4.00046E+005    3.01766E+005    1.00013E+004    7.04124E+004
            4779    3.95514E+005    5.55504E+005    5.55504E+005    1.93901E+005    1.33116E+005    4.22388E+005   -2.94174E+005    3.84794E+005    1.49428E+005    5.42281E+005    1.90813E+005    6.93736E+004    1.18623E+004   -2.43820E+004
            4780    6.99689E+005    7.29387E+005    7.29387E+005    1.77358E+005   -5.75221E+004    7.86909E+005   -2.83074E+005    6.00876E+005   -2.67935E+004    6.97661E+005    1.78355E+005    1.51190E+005    1.55198E+004    2.56050E+004
            4781    9.06314E+005    1.16433E+006    1.16433E+006    4.32854E+005    1.50435E+005    1.01390E+006   -5.82541E+005    7.97917E+005    2.78095E+005    1.03405E+006    4.35472E+005    3.35256E+005    6.67607E+003    4.76449E+004
            4782    4.07946E+005    5.95413E+005    5.95413E+005    2.29875E+005    1.55337E+005    4.40076E+005   -3.26875E+005    3.92184E+005    1.68412E+005    5.82576E+005    2.29636E+005    7.34730E+004    4.13919E+003   -9.14557E+003
            4783    7.40256E+005    7.76592E+005    7.76592E+005    1.92909E+005   -5.60487E+004    8.32641E+005   -3.04484E+005    6.35277E+005   -2.22362E+004    7.42663E+005    1.93025E+005    1.64199E+005    5.61004E+003    9.03855E+003
            4784    9.48273E+005    1.22116E+006    1.22116E+006    4.55993E+005    1.60260E+005    1.06090E+006   -6.12471E+005    8.34655E+005    2.96034E+005    1.08509E+006    4.56285E+005    3.54289E+005    2.33727E+003    1.62775E+004
            4785    4.82310E+005   -6.75279E+004   -6.02865E+005   -2.02219E+005   -6.02865E+005    5.35337E+005    2.90871E+005   -4.36898E+005   -1.17052E+005   -5.35939E+005   -2.19621E+005    1.45039E+005    4.26782E+003   -9.38737E+004
            4786    5.35405E+005   -7.23818E+004   -6.70151E+005   -2.34655E+005   -6.70151E+005    5.97769E+005    3.25729E+005   -4.75166E+005   -1.32677E+005   -5.90399E+005   -2.54112E+005    1.70121E+005    6.64143E+003   -1.01703E+005
            4787    6.05804E+005   -8.98882E+004   -7.67910E+005   -2.79861E+005   -7.67910E+005    6.78022E+005    3.79220E+005   -5.32329E+005   -1.63212E+005   -6.78873E+005   -2.95575E+005    2.02675E+005    7.43969E+003   -9.73453E+004
            4788    6.94941E+005   -1.04059E+005   -8.82138E+005   -3.23133E+005   -8.82138E+005    7.78079E+005    4.36443E+005   -6.09668E+005   -1.95501E+005   -7.76255E+005   -3.37574E+005    2.42878E+005    8.26222E+003   -1.01356E+005
            4789    7.90673E+005   -1.27677E+005   -1.01338E+006   -3.78651E+005   -1.01338E+006    8.85699E+005    5.06568E+005   -6.92160E+005   -2.39329E+005   -8.92023E+005   -3.88352E+005    2.88411E+005    7.52103E+003   -9.03696E+004
            4790    3.40880E+005    3.09517E+004   -3.48949E+005   -6.98061E+004   -3.48949E+005    3.79901E+005    1.29268E+005   -3.04575E+005    2.45951E+004   -3.27226E+005   -8.51727E+004    4.76684E+004    7.27151E+003   -6.32851E+004
            4791    3.94732E+005    2.43222E+004   -4.18244E+005   -1.02541E+005   -4.18244E+005    4.42566E+005    1.65488E+005   -3.44172E+005    1.49056E+004   -3.93062E+005   -1.18307E+005    6.26566E+004    1.13714E+004   -6.78520E+004
            4792    4.54755E+005    2.92054E+004   -4.82773E+005   -1.25734E+005   -4.82773E+005    5.11978E+005    1.93101E+005   -3.88339E+005    1.47905E+004   -4.51391E+005   -1.42702E+005    8.31903E+004    1.44576E+004   -7.46206E+004
            4793    5.39381E+005    2.32982E+004   -5.83340E+005   -1.57856E+005   -5.83340E+005    6.06638E+005    2.39299E+005   -4.63124E+005    2.11149E+003   -5.48533E+005   -1.71476E+005    1.09990E+005    1.64542E+004   -7.31884E+004
            4794    6.31824E+005    1.92895E+004   -6.91465E+005   -1.93531E+005   -6.91465E+005    7.10754E+005    2.88569E+005   -5.41906E+005   -1.15008E+004   -6.50014E+005   -2.04192E+005    1.43542E+005    1.61672E+004   -7.02627E+004
            4795    2.36274E+005   -1.17537E+004   -2.63683E+005   -4.70307E+004   -2.63683E+005    2.51929E+005    1.07489E+005   -2.30237E+005   -2.28424E+004   -2.52666E+005   -4.69593E+004    4.31043E+004    1.48266E+004   -2.40441E+004
            4796    2.65635E+005   -4.38702E+003   -2.93986E+005   -6.16567E+004   -2.93986E+005    2.89599E+005    1.20010E+005   -2.51175E+005   -1.84126E+004   -2.78564E+005   -6.30529E+004    5.40071E+004    1.95206E+004   -2.94974E+004
            4797    3.29482E+005   -1.18619E+004   -3.72131E+005   -8.61064E+004   -3.72131E+005    3.60269E+005    1.56700E+005   -3.09811E+005   -2.92709E+004   -3.51399E+005   -8.94294E+004    6.93664E+004    2.32928E+004   -3.86804E+004
            4798    3.95070E+005   -1.06528E+004   -4.45920E+005   -1.10019E+005   -4.45920E+005    4.35268E+005    1.88864E+005   -3.65334E+005   -3.24452E+004   -4.20973E+005   -1.13174E+005    8.87050E+004    2.45116E+004   -3.90168E+004
            4799    4.80342E+005   -1.78546E+004   -5.48281E+005   -1.42662E+005   -5.48281E+005    5.30427E+005    2.36266E+005   -4.41598E+005   -4.46105E+004   -5.18924E+005   -1.45264E+005    1.11702E+005    2.36027E+004   -3.76936E+004
            4800    1.97976E+005    5.21970E+004   -1.66483E+005    5.52036E+002   -1.66483E+005    2.18680E+005    3.79112E+004   -1.81871E+005    1.24077E+004   -1.62091E+005    3.59494E+004    2.65881E+004    2.22078E+004    1.26766E+004
            4801    2.41262E+005    4.00326E+004   -2.23317E+005   -1.29510E+004   -2.23317E+005    2.63350E+005    6.54120E+004   -2.27613E+005    6.15470E+003   -2.16732E+005    1.43410E+004    3.69008E+004    2.80948E+004   -7.83864E+003
            4802    2.90447E+005    3.89887E+004   -2.77259E+005   -2.24400E+004   -2.77259E+005    3.16248E+005    8.69035E+004   -2.75256E+005    8.32955E+003   -2.68202E+005   -8.37623E+002    4.96082E+004    3.08972E+004   -5.58883E+003
            4803    3.50022E+005    2.39024E+004   -3.57657E+005   -5.14435E+004   -3.57657E+005    3.81559E+005    1.28399E+005   -3.31030E+005   -2.09645E+003   -3.45021E+005   -3.80806E+004    6.46784E+004    3.19589E+004   -1.07912E+004
            4804    4.13190E+005    1.65155E+004   -4.36610E+005   -8.06881E+004   -4.36610E+005    4.53126E+005    1.66928E+005   -3.86188E+005   -8.80915E+003   -4.20623E+005   -7.13510E+004    8.20505E+004    3.02261E+004   -3.74198E+003
            4805    3.34187E+005   -2.12422E+004   -3.83586E+005   -8.74768E+004   -3.83586E+005    3.62344E+005    1.64102E+005   -3.18913E+005   -8.31192E+004   -3.74739E+005   -3.44477E+004    3.89334E+004    1.84376E+004    3.87688E+004
            4806    3.10073E+005    4.16368E+004   -3.04974E+005   -5.39466E+004   -3.04974E+005    3.46611E+005    1.05761E+005   -2.73862E+005   -5.10383E+004   -2.97172E+005    3.09267E+004    3.64148E+004    2.24374E+004    3.25682E+004
            4807    2.76679E+005    7.14794E+004   -2.42923E+005   -3.65822E+004   -2.42923E+005    3.14402E+005    6.93418E+004   -2.21113E+005   -3.48289E+004   -2.36874E+005    6.36778E+004    3.40167E+004    2.48990E+004    1.62401E+004
            4808    2.50568E+005    1.07064E+005   -1.81317E+005   -1.68383E+004   -1.81317E+005    2.88381E+005    3.03638E+004   -1.55884E+005   -1.55836E+004   -1.75318E+005    9.98101E+004    3.02902E+004    2.57974E+004    1.60436E+004
            4809    1.95483E+005    9.78690E+004   -1.27842E+005   -1.29142E+004   -1.27842E+005    2.25711E+005    1.42959E+004   -6.19332E+004   -1.19226E+004   -1.21831E+005    9.08657E+004    2.57603E+004    2.41987E+004    1.32102E+004
            4810    1.55774E+005    9.81470E+004    9.81470E+004   -8.28496E+002   -8.14120E+004    1.79559E+005   -5.30217E+003    8.73433E+004    6.91240E+002   -7.67457E+004    9.19610E+004    1.95371E+004    2.36629E+004    3.93494E+003
            4811    1.03297E+005    8.22405E+004    8.22405E+004    6.66402E+003   -3.54624E+004    1.17703E+005   -1.78140E+004    8.02422E+004    8.07541E+003   -3.12340E+004    7.66006E+004    1.27302E+004    2.03694E+004   -1.24856E+003
            4812    8.04559E+004    3.42371E+004   -5.72135E+004    2.68079E+003   -5.72135E+004    9.14505E+004    6.76521E+003   -6.41325E+004    5.08114E+003   -5.52762E+004    2.98994E+004    9.22356E+003    9.15566E+003    8.35740E+003
            4813    8.46649E+004    1.61184E+004   -7.27101E+004    7.06337E+003   -7.27101E+004    8.88285E+004    1.65095E+004   -8.35651E+004    6.73255E+003   -6.93306E+004    1.30696E+004    1.43244E+004    2.42797E+003    8.70110E+003
            4814    1.22336E+005    4.55144E+004   -9.43108E+004   -6.99933E+003   -9.43108E+004    1.39825E+005    1.85986E+004   -9.12623E+004   -3.04936E+003   -8.67552E+004    3.40089E+004    1.62595E+004    1.36069E+004    2.66801E+004
            4815    9.53307E+004    5.62675E+003   -9.57606E+004   -7.94029E+003   -9.57606E+004    1.01387E+005    3.26914E+004   -9.31215E+004   -8.35581E+003   -8.82935E+004   -1.42480E+003    2.29655E+004    3.62866E+003    1.25707E+004
            4816    1.36484E+005    2.17371E+004   -1.20560E+005    9.25144E+003   -1.20560E+005    1.42298E+005    2.98573E+004   -1.35190E+005    1.22135E+004   -1.14337E+005    1.25516E+004    2.45910E+004    3.33326E+003    1.55174E+004
            4817    1.62034E+005   -8.81636E+003   -1.77042E+005   -2.20068E+004   -1.77042E+005    1.68226E+005    6.92885E+004   -1.60819E+005   -1.84925E+004   -1.68382E+005   -2.09907E+004    3.70276E+004    3.75384E+003   -5.24166E+002
            4818    2.83667E+005    3.45992E+004   -2.55109E+005    2.21050E+004   -2.55109E+005    2.89708E+005    6.61348E+004   -2.83047E+005    3.10969E+004   -2.51595E+005    2.20934E+004    3.09231E+004    2.13353E+003   -6.69107E+003
            4819    4.76823E+005   -5.80460E+004   -5.58481E+005   -1.09432E+005   -5.58481E+005    5.00435E+005    2.41986E+005   -4.70533E+005   -1.00723E+005   -5.10558E+005   -1.14678E+005    1.06392E+005   -5.57427E+002   -1.01589E+005
            4820    1.57749E+005    2.57775E+004   -1.45028E+005   -4.81604E+003   -1.45028E+005    1.70805E+005    4.13554E+004   -1.50856E+005    5.75538E+003   -1.40284E+005    1.04621E+004    2.28104E+004    1.30297E+004    1.61001E+004
            4821    2.12640E+005    3.60310E+003   -2.19238E+005   -1.85325E+004   -2.19238E+005    2.22841E+005    7.80559E+004   -2.10024E+005   -1.09726E+004   -2.12872E+005   -1.03236E+004    3.62954E+004    1.00481E+004    4.68821E+003
            4822    3.46801E+005    1.72187E+004   -3.51076E+005   -3.07671E+004   -3.51076E+005    3.68295E+005    1.21541E+005   -3.39211E+005    1.29536E+004   -3.33116E+005   -4.44616E+004    3.81787E+004    4.79611E+003   -6.49038E+004
            4823    4.50851E+005   -4.73879E+004   -5.44418E+005   -1.61787E+005   -5.44418E+005    4.97030E+005    2.51198E+005   -4.16275E+005   -9.58792E+004   -4.71190E+005   -1.86524E+005    1.26911E+005    9.13833E+002   -1.15311E+005
            4824    4.81110E+005    6.07458E+005    6.07458E+005    2.08858E+005    7.30393E+004    5.34419E+005   -2.96452E+005    4.34739E+005    1.21009E+005    5.42428E+005    2.25918E+005    1.45645E+005    7.85559E+003    8.80421E+004
            4825    5.53032E+005    6.96458E+005    6.96458E+005    2.45358E+005    7.94675E+004    6.16991E+005   -3.40428E+005    4.92205E+005    1.40949E+005    6.15483E+005    2.64852E+005    1.77901E+005    1.22634E+004    9.78227E+004
            4826    6.45262E+005    8.20293E+005    8.20293E+005    2.96518E+005    9.94842E+004    7.20808E+005   -4.05432E+005    5.71463E+005    1.77063E+005    7.28080E+005    3.11152E+005    2.18104E+005    1.25499E+004    9.21394E+004
            4827    7.40993E+005    9.44285E+005    9.44285E+005    3.45145E+005    1.15712E+005    8.28573E+005   -4.68380E+005    6.53610E+005    2.11680E+005    8.37275E+005    3.56185E+005    2.60906E+005    1.20049E+004    8.67444E+004
            4828    2.98404E+005    2.84523E+005    2.84523E+005    4.23257E+004   -4.88266E+004    3.33349E+005   -9.26739E+004    2.64248E+005   -4.29420E+004    2.73352E+005    4.76122E+004    3.76430E+004    1.61658E+004    3.83405E+004
            4829    3.80180E+005    3.74935E+005    3.74935E+005    7.02848E+004   -5.11188E+004    4.26054E+005   -1.31367E+005    3.32175E+005   -4.14933E+004    3.58322E+005    7.72729E+004    5.57978E+004    2.24206E+004    4.90416E+004
            4830    4.55133E+005    4.52728E+005    4.52728E+005    9.37408E+004   -5.91688E+004    5.11897E+005   -1.62433E+005    3.90738E+005   -4.49853E+004    4.33063E+005    9.92227E+004    7.72943E+004    2.52749E+004    4.80229E+004
            4831    5.44326E+005    5.52103E+005    5.52103E+005    1.22405E+005   -5.99995E+004    6.12102E+005   -2.04836E+005    4.67759E+005   -4.04916E+004    5.28331E+005    1.26669E+005    1.02435E+005    2.55606E+004    4.63138E+004
            4832    3.41263E+005    4.13826E+005    4.13826E+005    1.03359E+005    4.84297E+004    3.65396E+005   -1.88538E+005    3.31098E+005    9.18356E+004    4.02275E+005    7.15039E+004    5.64889E+004    2.24220E+004   -2.75780E+004
            4833    3.05596E+005    3.43259E+005    3.43259E+005    7.61430E+004    1.00125E+004    3.33247E+005   -1.43138E+005    2.88831E+005    7.03122E+004    3.33349E+005    2.57536E+004    5.04198E+004    2.49114E+004   -1.83147E+004
            4834    2.70516E+005    2.74012E+005    2.74012E+005    5.18573E+004   -2.72348E+004    3.01247E+005   -9.95449E+004    2.42382E+005    4.90307E+004    2.64741E+005   -1.51367E+004    4.45093E+004    2.53205E+004   -1.65588E+004
            4835    2.29816E+005    2.16922E+005    2.16922E+005    4.04787E+004   -4.29571E+004    2.59879E+005   -7.14812E+004    1.90984E+005    4.04928E+004    2.07961E+005   -3.40102E+004    3.96734E+004    2.44720E+004   -8.63443E+003
            4836    2.11358E+005    1.55990E+005    1.55990E+005    9.76713E+003   -8.63443E+004    2.42334E+005   -2.64708E+004    1.48804E+005    9.12196E+003    1.49942E+005   -7.96513E+004    2.97876E+004    2.37306E+004   -6.02166E+003
            4837    1.50419E+005    7.37805E+004   -9.97010E+004   -5.61992E+003   -9.97010E+004    1.73481E+005    1.05134E+004   -7.91928E+004   -8.19048E+003    6.90030E+004   -9.23529E+004    1.97153E+004    2.39563E+004   -8.14527E+003
            4838    1.06198E+005    4.32164E+004   -7.79662E+004   -1.12396E+003   -7.79662E+004    1.21183E+005    1.19579E+004   -8.10622E+004   -1.77156E+003    3.82737E+004   -7.23759E+004    1.37944E+004    2.06090E+004    2.38061E+003
            4839    6.24886E+004    1.78311E+004   -5.32294E+004   -6.85358E+003   -5.32294E+004    7.10605E+004    1.40840E+004   -4.95896E+004   -7.51105E+003    1.36245E+004   -4.83654E+004    7.30069E+003    1.44118E+004    6.89334E+003
            4840    5.33076E+004    3.84582E+004    3.84582E+004   -5.10776E+003   -2.09839E+004    5.94420E+004   -4.12219E+003    4.75358E+004   -6.41576E+003    3.72920E+004   -1.85097E+004    5.45573E+003    5.87808E+003    4.60150E+003
            4841    6.82141E+004    5.79401E+004    5.79401E+004   -8.39587E+003   -1.20086E+004    6.99487E+004   -1.25119E+004    6.79984E+004   -8.72489E+003    5.68290E+004   -1.05684E+004    8.46313E+003    1.54907E+003   -1.78339E+003
            4842    8.36846E+004    6.06775E+004    6.06775E+004    7.50587E+003   -3.57847E+004    9.64621E+004   -1.07996E+004    4.69232E+004    6.24381E+003    5.63113E+004   -3.01565E+004    1.23030E+004    9.93637E+003   -1.41259E+004
            4843    7.84536E+004    8.17806E+004    8.17806E+004    9.66301E+003   -1.75723E+003    8.35379E+004   -2.98955E+004    7.65501E+004    1.24974E+004    7.62468E+004    9.42183E+002    1.88288E+004    2.96390E+003   -6.60569E+003
            4844    1.33231E+005    1.03168E+005    1.03168E+005   -6.33660E+003   -4.51625E+004    1.48331E+005   -1.72231E+004    1.19473E+005   -1.18035E+004    9.85438E+004   -3.50712E+004    1.31555E+004    1.26435E+004   -2.21071E+004
            4845    1.19080E+005    9.86931E+004    9.86931E+004   -1.31015E+004   -2.65329E+004    1.25226E+005   -1.96862E+004    1.17357E+005   -1.53453E+004    9.21980E+004   -1.77940E+004    2.01612E+004    3.40027E+003   -1.90698E+004
            4846    1.71611E+005    1.65490E+005    1.65490E+005    2.06728E+004   -2.40564E+004    1.89546E+005   -5.40354E+004    1.57676E+005    1.24281E+004    1.56720E+005   -7.04218E+003    3.01002E+004    1.63855E+004   -2.52851E+004
            4847    1.36063E+005    1.50099E+005    1.50099E+005    2.08773E+004    8.09694E+003    1.42002E+005   -5.96910E+004    1.34702E+005    1.99517E+004    1.40135E+005    1.89866E+004    3.58232E+004    3.52288E+003   -4.65519E+003
            4848    2.40633E+005    2.12214E+005    2.12214E+005   -2.11608E+004   -3.50732E+004    2.47287E+005   -5.19934E+004    2.39726E+005   -3.18001E+004    2.09815E+005   -2.20347E+004    2.40180E+004    3.14133E+003   -3.17983E+003
            4849    4.42093E+005    5.14392E+005    5.14392E+005    9.99161E+004    4.90770E+004    4.65315E+005   -2.21128E+005    4.35444E+005    8.38908E+004    4.71014E+005    1.08481E+005    9.83377E+004   -1.31346E+002    9.21698E+004
            4850    2.87240E+005    2.84189E+005    2.84189E+005    2.26602E+004   -2.32359E+004    3.07425E+005   -9.45378E+004    2.78811E+005   -1.94393E+004    2.74809E+005    2.82433E+004    2.86209E+004    1.08162E+004    4.03035E+004
            4851    4.36610E+005    5.26134E+005    5.26134E+005    1.59648E+005    4.30670E+004    4.83067E+005   -2.42950E+005    3.99280E+005    8.58588E+004    4.61065E+005    1.81926E+005    1.21561E+005    1.18555E+003    1.03810E+005
            4852    3.51569E+005   -8.43326E+004   -4.54569E+005   -1.25247E+005   -4.54569E+005    3.70236E+005    2.21383E+005   -3.46152E+005   -1.15140E+005   -4.43710E+005   -1.05298E+005    4.15238E+004    1.43065E+004    4.66371E+004
            4853    4.78125E+005    1.44314E+003   -5.26002E+005   -1.21019E+005   -5.26002E+005    5.27445E+005    2.15193E+005   -4.40719E+005   -2.34062E+004   -5.06047E+005   -1.16126E+005    9.97105E+004    2.55226E+004   -3.36386E+003
            4854    5.59492E+005   -2.17444E+004   -6.41540E+005   -1.73778E+005   -6.41540E+005    6.19796E+005    2.79021E+005   -5.09823E+005   -5.42160E+004   -6.07499E+005   -1.75348E+005    1.35487E+005    2.03643E+004   -3.13193E+004
            4855    7.24717E+005    1.03575E+004   -8.04481E+005   -2.32006E+005   -8.04481E+005    8.14839E+005    3.42043E+005   -6.23239E+005   -3.03936E+004   -7.57741E+005   -2.37996E+005    1.76908E+005    1.42178E+004   -5.65266E+004
            4856    8.85492E+005   -1.47806E+005   -1.13997E+006   -4.29855E+005   -1.13997E+006    9.92160E+005    5.72542E+005   -7.74311E+005   -2.80096E+005   -1.00154E+006   -4.35989E+005    3.33382E+005    6.12239E+003   -7.79590E+004
            4857    3.60365E+005   -1.41899E+005   -5.21128E+005   -1.83181E+005   -5.21128E+005    3.79229E+005    2.82069E+005   -3.54987E+005   -1.52201E+005   -5.12366E+005   -1.81641E+005    4.50199E+004    9.10660E+003    3.44086E+004
            4858    5.32115E+005   -9.83381E+003   -5.99590E+005   -1.55424E+005   -5.99590E+005    5.89756E+005    2.54949E+005   -4.84174E+005   -3.51411E+004   -5.76238E+005   -1.53469E+005    1.14776E+005    1.69561E+004    9.88813E+002
            4859    6.25691E+005   -3.06885E+004   -7.24671E+005   -2.03666E+005   -7.24671E+005    6.93982E+005    3.19675E+005   -5.68047E+005   -6.79159E+004   -6.86878E+005   -2.04232E+005    1.55241E+005    1.41655E+004   -2.05478E+004
            4860    7.96107E+005    4.87468E+003   -8.89978E+005   -2.60303E+005   -8.89978E+005    8.94853E+005    3.81802E+005   -6.85630E+005   -4.38035E+004   -8.38705E+005   -2.62898E+005    2.02638E+005    1.01255E+004   -3.90694E+004
            4861    9.61416E+005   -1.65326E+005   -1.24264E+006   -4.71884E+005   -1.24264E+006    1.07731E+006    6.26616E+005   -8.40418E+005   -3.13118E+005   -1.09254E+006   -4.74186E+005    3.69170E+005    4.18708E+003   -5.00032E+004
            4862    3.62165E+005   -1.68064E+005   -5.56486E+005   -2.28075E+005   -5.56486E+005    3.88422E+005    3.17541E+005   -3.50716E+005   -1.74323E+005   -5.49960E+005   -2.28342E+005    4.70884E+004    3.24691E+003    1.58107E+004
            4863    5.63847E+005   -1.93941E+004   -6.45983E+005   -1.79508E+005   -6.45983E+005    6.26588E+005    2.81628E+005   -5.08806E+005   -4.51807E+004   -6.20410E+005   -1.79294E+005    1.23937E+005    6.14116E+003   -4.28550E+002
            4864    6.67824E+005   -3.42193E+004   -7.75839E+005   -2.22029E+005   -7.75839E+005    7.41619E+005    3.44029E+005   -6.03986E+005   -7.47587E+004   -7.35244E+005   -2.22084E+005    1.68464E+005    4.85734E+003   -6.78504E+003
            4865    8.42016E+005   -3.81306E+002   -9.46891E+005   -2.81076E+005   -9.46891E+005    9.46510E+005    4.09449E+005   -7.24957E+005   -5.46526E+004   -8.92374E+005   -2.81322E+005    2.20021E+005    3.38666E+003   -1.23608E+004
            4866    1.00458E+006   -1.76527E+005   -1.30234E+006   -4.97381E+005   -1.30234E+006    1.12581E+006    6.58748E+005   -8.77675E+005   -3.34106E+005   -1.14444E+006   -4.97698E+005    3.90397E+005    1.59639E+003   -1.90907E+004
            4867    6.10739E+004    4.77549E+004    4.77549E+004    2.73362E+003   -2.17645E+004    6.95195E+004   -9.57468E+003    4.79875E+004    2.41155E+003   -1.60146E+004    4.23271E+004    6.85799E+003   -1.38948E+004    1.06685E+004
            4868    4.72938E+004    2.03343E+004   -3.40684E+004   -2.74839E+003   -3.40684E+004    5.44027E+004    5.49414E+003   -3.01317E+004   -2.73194E+003   -3.24284E+004    1.86779E+004    5.71917E+003   -5.83638E+003    4.48454E+003
            4869    5.16629E+004   -6.12261E+002   -5.49658E+004   -6.49745E+003   -5.49658E+004    5.43535E+004    2.06918E+004   -5.09006E+004   -7.68317E+003   -5.32031E+004   -1.18917E+003    9.02822E+003   -1.93476E+003    1.07342E+003
            4870    3.80389E+004    2.78595E+004    2.78595E+004    3.69738E+003   -1.59879E+004    4.38474E+004   -5.18964E+003    2.13060E+004    3.41175E+003   -8.09850E+003    2.02557E+004    2.68966E+003   -6.83695E+003    1.49993E+004
            4871    3.43587E+004    1.19688E+004   -2.58400E+004    3.47571E+003   -2.58400E+004    3.78087E+004    3.46516E+003   -3.18660E+004    3.53968E+003   -1.98786E+004    5.94351E+003    2.37819E+003   -3.09180E+003    1.32210E+004
            4872    4.06671E+004    6.91795E+003   -3.42365E+004    5.92517E+003   -3.42365E+004    4.11544E+004    7.13112E+003   -4.06399E+004    5.86337E+003   -3.34806E+004    6.22389E+003    3.24836E+003   -7.66382E+002    4.40208E+003
            4873    3.26890E+004    1.69116E+004   -2.08344E+004   -1.97624E+003   -2.08344E+004    3.77460E+004    1.96634E+003    3.62418E+003   -2.10285E+003   -6.65836E+003    2.86218E+003    8.28847E+002   -1.98148E+003    1.81357E+004
            4874    2.58779E+004    1.19334E+004   -1.79477E+004   -2.92658E+003   -1.79477E+004    2.98811E+004    2.98031E+003   -5.45021E+003   -3.01613E+003   -8.18216E+003    2.25737E+003    7.11427E+002   -1.35089E+003    1.39156E+004
            4875    1.39725E+004   -2.06879E+003   -1.77077E+004   -6.45313E+003   -1.77077E+004    1.56389E+004    8.74320E+003   -1.22755E+004   -6.54209E+003   -1.53060E+004   -4.38152E+003    8.89855E+002   -6.06540E+002    5.51793E+003
            4876    3.31205E+004    2.06750E+004    2.06750E+004    2.00931E+003   -1.75657E+004    3.82406E+004   -1.70620E+003   -1.14367E+004    2.01122E+003    1.49888E+003    1.60849E+003    5.11497E+002    3.02453E+001    1.91133E+004
            4877    2.40762E+004    1.36642E+004   -1.38450E+004    3.38723E+003   -1.38450E+004    2.75093E+004   -1.06881E+003   -1.80486E+004    3.40202E+003    5.97132E+002   -7.92707E+002    3.64235E+002    1.95363E+002    1.37290E+004
            4878    1.04711E+004    9.17842E+003    9.17842E+003    6.49409E+003   -2.37353E+003    1.15519E+004   -4.43299E+003   -9.65037E+003    6.55078E+003    2.11206E+003    4.63614E+003    2.99939E+002    2.56928E+002    5.60673E+003
            4879    3.22915E+004    1.76460E+004   -1.96177E+004   -2.12810E+003   -1.96177E+004    3.72637E+004    1.36661E+003    1.52795E+004   -2.01775E+003    5.36984E+003   -7.45190E+003    9.17238E+002    2.40749E+003    1.73068E+004
            4880    2.86164E+004    2.05673E+004    2.05673E+004   -4.05317E+003   -1.08287E+004    3.13961E+004   -1.89514E+003    2.67207E+004   -4.08414E+003    1.12231E+004   -1.45352E+003    6.87163E+002    1.45579E+003    1.42613E+004
            4881    2.63316E+004    1.98346E+004    1.98346E+004   -6.19503E+003   -6.78892E+003    2.66235E+004   -2.28355E+003    2.63165E+004   -6.73858E+003    1.88196E+004   -5.23040E+003    7.72076E+002    2.76516E+002    4.97948E+003
            4882    3.93284E+004    2.00477E+004   -2.52422E+004    2.90815E+002   -2.52422E+004    4.52899E+004    1.63459E+003   -2.36958E+004    9.62914E+002    1.13727E+004   -1.72394E+004    3.09313E+003    7.12790E+003    1.56677E+004
            4883    3.33588E+004    2.55794E+004    2.55794E+004    3.49897E+003   -1.27949E+004    3.83743E+004   -5.42786E+003    2.12253E+004    4.05853E+003    2.08730E+004   -8.64792E+003    3.47476E+003    3.85147E+003    1.11693E+004
            4884    3.54203E+004    4.04606E+004    4.04606E+004    7.80441E+003    2.80709E+003    3.76536E+004   -1.70240E+004    3.46138E+004    8.65925E+003    3.88554E+004    3.55753E+003    5.33039E+003    1.38873E+003    4.88832E+003
            4885    8.85029E+005   -1.47858E+005   -1.13949E+006   -4.29722E+005   -1.13949E+006    9.91632E+005    5.72357E+005   -7.73940E+005   -2.80088E+005   -1.00109E+006   -4.35894E+005    3.33232E+005   -6.26050E+003    7.79888E+004
            4886    7.23979E+005    1.00904E+004   -8.03846E+005   -2.31721E+005   -8.03846E+005    8.13936E+005    3.41825E+005   -6.22893E+005   -3.06271E+004   -7.57129E+005   -2.37719E+005    1.76732E+005   -1.43158E+004    5.65362E+004
            4887    5.58508E+005   -2.19567E+004   -6.40578E+005   -1.73432E+005   -6.40578E+005    6.18622E+005    2.78656E+005   -5.09130E+005   -5.43598E+004   -6.06652E+005   -1.74955E+005    1.35190E+005   -2.03468E+004    3.10593E+004
            4888    4.77086E+005    6.48511E+002   -5.25535E+005   -1.21168E+005   -5.25535E+005    5.26184E+005    2.15352E+005   -4.40008E+005   -2.40953E+004   -5.05718E+005   -1.16242E+005    9.92809E+004   -2.54365E+004    3.05771E+003
            4889    3.51000E+005   -8.49143E+004   -4.54535E+005   -1.25724E+005   -4.54535E+005    3.69621E+005    2.21725E+005   -3.45602E+005   -1.15668E+005   -4.43702E+005   -1.05804E+005    4.12964E+004   -1.42557E+004   -4.66763E+004
            4890    9.62009E+005   -1.66112E+005   -1.24413E+006   -4.73037E+005   -1.24413E+006    1.07802E+006    6.27761E+005   -8.40779E+005   -3.14413E+005   -1.09352E+006   -4.75347E+005    3.69840E+005   -4.19633E+003    5.01212E+004
            4891    7.97707E+005    4.17923E+003   -8.92587E+005   -2.62011E+005   -8.92587E+005    8.96766E+005    3.83473E+005   -6.86558E+005   -4.49641E+004   -8.40827E+005   -2.64627E+005    2.03777E+005   -1.00902E+004    3.92722E+004
            4892    6.26542E+005   -3.01581E+004   -7.25143E+005   -2.03577E+005   -7.25143E+005    6.94985E+005    3.19626E+005   -5.68672E+005   -6.73775E+004   -6.87352E+005   -2.04148E+005    1.55365E+005   -1.40731E+004    2.05339E+004
            4893    5.30052E+005   -1.09844E+004   -5.98338E+005   -1.55609E+005   -5.98338E+005    5.87354E+005    2.54977E+005   -4.82580E+005   -3.60311E+004   -5.75278E+005   -1.53623E+005    1.13852E+005   -1.69018E+004   -1.51868E+003
            4894    3.59198E+005   -1.43080E+005   -5.20818E+005   -1.83594E+005   -5.20818E+005    3.77737E+005    2.82497E+005   -3.54003E+005   -1.53297E+005   -5.12081E+005   -1.82113E+005    4.45210E+004   -8.97398E+003   -3.47259E+004
            4895    1.00500E+006   -1.76911E+005   -1.30321E+006   -4.97965E+005   -1.30321E+006    1.12630E+006    6.59361E+005   -8.77984E+005   -3.34779E+005   -1.14502E+006   -4.98280E+005    3.90783E+005   -1.43655E+003    1.93360E+004
            4896    8.42450E+005   -9.24414E+002   -9.47915E+005   -2.81730E+005   -9.47915E+005    9.46990E+005    4.10190E+005   -7.25363E+005   -5.54100E+004   -8.93185E+005   -2.81974E+005    2.20488E+005   -3.31391E+003    1.23132E+004
            4897    6.67925E+005   -3.43808E+004   -7.76151E+005   -2.22354E+005   -7.76151E+005    7.41770E+005    3.44295E+005   -6.03978E+005   -7.49595E+004   -7.35516E+005   -2.22410E+005    1.68553E+005   -4.96112E+003    6.86700E+003
            4898    5.63454E+005   -1.98212E+004   -6.45936E+005   -1.79691E+005   -6.45936E+005    6.26115E+005    2.81816E+005   -5.08550E+005   -4.55870E+004   -6.20380E+005   -1.79481E+005    1.23843E+005   -6.16981E+003    6.86070E+002
            4899    3.61570E+005   -1.68158E+005   -5.55798E+005   -2.27686E+005   -5.55798E+005    3.87640E+005    3.17214E+005   -3.50290E+005   -1.74352E+005   -5.49317E+005   -2.27972E+005    4.68549E+004   -3.12834E+003   -1.58023E+004
            4900    1.94967E+005    9.78759E+004   -1.27244E+005   -1.30045E+004   -1.27244E+005    2.25120E+005    1.41242E+004   -5.76413E+004   -1.19982E+004   -1.21217E+005    9.08426E+004    2.56667E+004   -2.41566E+004   -1.35144E+004
            4901    2.50778E+005    1.07365E+005   -1.81292E+005   -1.70240E+004   -1.81292E+005    2.88656E+005    3.03170E+004   -1.55088E+005   -1.58664E+004   -1.75300E+005    1.00216E+005    3.02234E+004   -2.56263E+004   -1.60964E+004
            4902    2.76361E+005    7.10322E+004   -2.43021E+005   -3.69696E+004   -2.43021E+005    3.14053E+005    6.96527E+004   -2.20779E+005   -3.53326E+004   -2.36972E+005    6.33468E+004    3.39716E+004   -2.46779E+004   -1.62502E+004
            4903    3.10354E+005    4.14776E+004   -3.05419E+005   -5.40830E+004   -3.05419E+005    3.46896E+005    1.06008E+005   -2.74202E+005   -5.13016E+004   -2.97591E+005    3.08679E+004    3.63544E+004   -2.21871E+004   -3.28132E+004
            4904    3.33972E+005   -2.22686E+004   -3.84225E+005   -8.80184E+004   -3.84225E+005    3.61957E+005    1.64837E+005   -3.18919E+005   -8.36691E+004   -3.75400E+005   -3.54437E+004    3.88290E+004   -1.83143E+004   -3.87580E+004
            4905    4.12733E+005    1.67633E+004   -4.35861E+005   -8.03291E+004   -4.35861E+005    4.52624E+005    1.66475E+005   -3.85763E+005   -8.56860E+003   -4.19935E+005   -7.09224E+004    8.18796E+004   -3.02231E+004    3.44496E+003
            4906    4.78439E+005   -1.79193E+004   -5.46114E+005   -1.41796E+005   -5.46114E+005    5.28195E+005    2.35276E+005   -4.40136E+005   -4.45962E+004   -5.16935E+005   -1.44298E+005    1.11161E+005   -2.37118E+004    3.73949E+004
            4907    6.29658E+005    1.98347E+004   -6.88463E+005   -1.92170E+005   -6.88463E+005    7.08298E+005    2.86933E+005   -5.40132E+005   -1.05635E+004   -6.47389E+005   -2.02846E+005    1.42393E+005   -1.64303E+004    7.01500E+004
            4908    7.89913E+005   -1.26913E+005   -1.01180E+006   -3.77805E+005   -1.01180E+006    8.84888E+005    5.05506E+005   -6.91356E+005   -2.38033E+005   -8.90904E+005   -3.87581E+005    2.87710E+005   -7.69734E+003    9.03389E+004
            4909    3.48962E+005    2.36902E+004   -3.56533E+005   -5.08909E+004   -3.56533E+005    3.80224E+005    1.27911E+005   -3.30309E+005   -2.34845E+003   -3.43944E+005   -3.74414E+004    6.44024E+004   -3.18612E+004    1.08767E+004
            4910    3.93315E+005   -1.05500E+004   -4.43756E+005   -1.09061E+005   -4.43756E+005    4.33206E+005    1.87789E+005   -3.63973E+005   -3.22911E+004   -4.19021E+005   -1.12056E+005    8.82206E+004   -2.45492E+004    3.85787E+004
            4911    5.38076E+005    2.37073E+004   -5.81413E+005   -1.56795E+005   -5.81413E+005    6.05120E+005    2.38167E+005   -4.62205E+005    2.71002E+003   -5.46848E+005   -1.70362E+005    1.09360E+005   -1.65608E+004    7.29585E+004
            4912    6.93754E+005   -1.03978E+005   -8.80714E+005   -3.22622E+005   -8.80714E+005    7.76736E+005    4.35771E+005   -6.08676E+005   -1.95100E+005   -7.75095E+005   -3.37119E+005    2.42347E+005   -8.48490E+003    1.01144E+005
            4913    2.88927E+005    3.97867E+004   -2.74876E+005   -2.15245E+004   -2.74876E+005    3.14662E+005    8.55378E+004   -2.73711E+005    8.75112E+003   -2.65927E+005    5.62819E+002    4.92013E+004   -3.09209E+004    5.23891E+003
            4914    3.27271E+005   -1.16531E+004   -3.69283E+005   -8.47210E+004   -3.69283E+005    3.57630E+005    1.55219E+005   -3.08107E+005   -2.90288E+004   -3.48895E+005   -8.77334E+004    6.87053E+004   -2.33163E+004    3.79986E+004
            4915    4.53225E+005    2.97157E+004   -4.80514E+005   -1.24591E+005   -4.80514E+005    5.10229E+005    1.91796E+005   -3.87140E+005    1.55080E+004   -4.49540E+005   -1.41357E+005    8.24630E+004   -1.44753E+004    7.40645E+004
            4916    6.06002E+005   -8.93160E+004   -7.67543E+005   -2.79283E+005   -7.67543E+005    6.78227E+005    3.78714E+005   -5.32561E+005   -1.62236E+005   -6.78949E+005   -2.94957E+005    2.02328E+005   -7.54715E+003    9.70046E+004
            4917    2.40516E+005    4.03784E+004   -2.22210E+005   -1.26011E+004   -2.22210E+005    2.62589E+005    6.48109E+004   -2.26823E+005    6.19929E+003   -2.15660E+005    1.50281E+004    3.66829E+004   -2.80793E+004    7.89916E+003
            4918    2.64455E+005   -4.62309E+003   -2.92859E+005   -6.14102E+004   -2.92859E+005    2.88236E+005    1.19631E+005   -2.50180E+005   -1.87716E+004   -2.77407E+005   -6.27138E+004    5.39927E+004   -1.95957E+004    2.93309E+004
            4919    3.94386E+005    2.48207E+004   -4.17277E+005   -1.01610E+005   -4.17277E+005    4.42098E+005    1.64689E+005   -3.44154E+005    1.55444E+004   -3.92256E+005   -1.17355E+005    6.21356E+004   -1.16956E+004    6.77748E+004
            4920    5.36669E+005   -7.25285E+004   -6.71716E+005   -2.35209E+005   -6.71716E+005    5.99187E+005    3.26485E+005   -4.76268E+005   -1.33098E+005   -5.91702E+005   -2.54653E+005    1.70697E+005   -6.63651E+003    1.01851E+005
            4921    1.98222E+005    5.25974E+004   -1.66392E+005    7.64816E+002   -1.66392E+005    2.18989E+005    3.76765E+004   -1.82015E+005    1.25058E+004   -1.61992E+005    3.64567E+004    2.65637E+004   -2.21959E+004   -1.28413E+004
            4922    2.37379E+005   -1.16115E+004   -2.64884E+005   -4.74817E+004   -2.64884E+005    2.53273E+005    1.07993E+005   -2.31164E+005   -2.25225E+004   -2.53724E+005   -4.77306E+004    4.31125E+004   -1.48422E+004    2.48350E+004
            4923    3.42311E+005    3.15607E+004   -3.50041E+005   -7.00078E+004   -3.50041E+005    3.81601E+005    1.29496E+005   -3.05548E+005    2.51752E+004   -3.28108E+005   -8.55551E+004    4.78543E+004   -7.08955E+003    6.37842E+004
            4924    4.82219E+005   -6.76879E+004   -6.03185E+005   -2.03273E+005   -6.03185E+005    5.35497E+005    2.91382E+005   -4.36144E+005   -1.17106E+005   -5.36459E+005   -2.20581E+005    1.45131E+005   -4.34140E+003    9.33060E+004
            4925    4.50813E+005   -4.73092E+004   -5.44309E+005   -1.61736E+005   -5.44309E+005    4.97000E+005    2.51118E+005   -4.16216E+005   -9.56531E+004   -4.71392E+005   -1.86310E+005    1.27035E+005   -1.03195E+003    1.14718E+005
            4926    4.75416E+005   -5.77393E+004   -5.56837E+005   -1.09306E+005   -5.56837E+005    4.99098E+005    2.41294E+005   -4.69063E+005   -9.99609E+004   -5.08959E+005   -1.14962E+005    1.06197E+005    5.09717E+002    1.01355E+005
            4927    3.47927E+005    1.75804E+004   -3.52199E+005   -3.12930E+004   -3.52199E+005    3.69779E+005    1.21971E+005   -3.40075E+005    1.33794E+004   -3.34030E+005   -4.52613E+004    3.79355E+004   -4.73858E+003    6.55968E+004
            4928    2.82783E+005    3.51648E+004   -2.53760E+005    2.24523E+004   -2.53760E+005    2.88925E+005    6.53811E+004   -2.82139E+005    3.17330E+004   -2.50330E+005    2.24534E+004    3.05070E+004   -2.17795E+003    6.63355E+003
            4929    2.13909E+005    3.69579E+003   -2.20307E+005   -1.81710E+004   -2.20307E+005    2.24003E+005    7.82606E+004   -2.11373E+005   -1.06961E+004   -2.13970E+005   -1.01160E+004    3.63460E+004   -9.94883E+003   -4.41906E+003
            4930    1.61737E+005   -8.96360E+003   -1.76849E+005   -2.20557E+004   -1.76849E+005    1.67885E+005    6.92894E+004   -1.60539E+005   -1.87029E+004   -1.68161E+005   -2.10041E+004    3.70451E+004   -3.75604E+003    3.68070E+002
            4931    1.57449E+005    2.55506E+004   -1.44972E+005   -5.10424E+003   -1.44972E+005    1.70522E+005    4.15084E+004   -1.50514E+005    5.65034E+003   -1.40246E+005    1.00703E+004    2.28052E+004   -1.30891E+004   -1.59781E+004
            4932    1.36429E+005    2.16471E+004   -1.20550E+005    9.26657E+003   -1.20550E+005    1.42197E+005    2.98789E+004   -1.35157E+005    1.22516E+004   -1.14340E+005    1.24521E+004    2.45856E+004   -3.27462E+003   -1.54535E+004
            4933    9.52266E+004    5.75120E+003   -9.55698E+004   -7.91417E+003   -9.55698E+004    1.01321E+005    3.25776E+004   -9.29822E+004   -8.28873E+003   -8.81313E+004   -1.31278E+003    2.28775E+004   -3.66921E+003   -1.26108E+004
            4934    8.43148E+004    1.60681E+004   -7.23309E+004    7.19848E+003   -7.23309E+004    8.83990E+004    1.63548E+004   -8.32555E+004    6.82164E+003   -6.90394E+004    1.31534E+004    1.41546E+004   -2.36608E+003   -8.48143E+003
            4935    1.22119E+005    4.56361E+004   -9.39555E+004   -6.87823E+003   -9.39555E+004    1.39592E+005    1.83992E+004   -9.09573E+004   -2.93192E+003   -8.64291E+004    3.41634E+004    1.61545E+004   -1.35913E+004   -2.66505E+004
            4936    7.98535E+004    3.38669E+004   -5.68768E+004    2.66411E+003   -5.68768E+004    9.07437E+004    6.78192E+003   -6.37982E+004    5.05368E+003   -5.49799E+004    2.95805E+004    9.16254E+003   -9.09623E+003   -8.13367E+003
            4937    1.03618E+005    8.25421E+004    8.25421E+004    6.73510E+003   -3.55276E+004    1.18070E+005   -1.79165E+004    8.04845E+004    8.18546E+003   -3.13083E+004    7.68725E+004    1.27331E+004   -2.04526E+004    1.28658E+003
            4938    1.55994E+005    9.81066E+004    9.81066E+004   -9.52705E+002   -8.17100E+004    1.79817E+005   -5.14797E+003    8.72844E+004    5.06015E+002   -7.70143E+004    9.19522E+004    1.96031E+004   -2.36545E+004   -3.74272E+003
            4939    2.98315E+005    2.80757E+005    2.80757E+005    3.91606E+004   -5.26797E+004    3.33437E+005   -8.90793E+004    2.63576E+005    9.79401E+003    2.60699E+005   -3.25486E+003    6.92088E+004   -5.08256E+004   -1.25832E+004
            4940    3.55481E+005    3.62769E+005    3.62769E+005    7.20801E+004   -3.35568E+004    3.96326E+005   -1.33764E+005    3.17176E+005    3.13484E+004    3.37402E+005    3.25417E+004    8.81346E+004   -5.61605E+004   -9.93884E+003
            4941    4.20238E+005    4.64338E+005    4.64338E+005    1.15124E+005   -2.05063E+003    4.66389E+005   -1.92470E+005    3.80803E+005    6.55712E+004    4.30514E+005    8.13259E+004    1.13162E+005   -5.85186E+004   -8.70366E+003
            4942    4.87049E+005    5.75741E+005    5.75741E+005    1.67947E+005    3.64412E+004    5.39299E+005   -2.60043E+005    4.44400E+005    1.09445E+005    5.30957E+005    1.39727E+005    1.43513E+005   -5.65684E+004    1.16741E+003
            4943    6.75271E+005    7.73478E+005    7.73478E+005    2.37066E+005    1.51831E+004    7.58295E+005   -3.41909E+005    5.84390E+005    1.49738E+005    6.34536E+005    2.41453E+005    2.85438E+005   -4.66187E+004   -4.49755E+004
            4944    6.06990E+005    7.09126E+005    7.09126E+005    2.40128E+005    2.35535E+004    6.85573E+005   -3.24269E+005    5.08471E+005    2.29812E+005    4.96510E+005    2.46485E+005    3.08805E+005   -1.44384E+004   -7.01675E+004
            4945    5.77634E+005    6.39959E+005    6.39959E+005    1.87402E+005   -1.06481E+004    6.50608E+005   -2.72238E+005    4.92055E+005    1.02849E+005    5.21889E+005    1.91975E+005    2.40708E+005   -5.06833E+004   -4.45097E+004
            4946    5.30178E+005    6.10512E+005    6.10512E+005    2.03672E+005    1.09239E+004    5.99588E+005   -2.75036E+005    4.40306E+005    1.89298E+005    4.24118E+005    2.11693E+005    2.67247E+005   -1.47039E+004   -7.25579E+004
            4947    4.86212E+005    5.23549E+005    5.23549E+005    1.41075E+005   -2.36199E+004    5.47169E+005   -2.13668E+005    4.16134E+005    6.85880E+004    4.26799E+005    1.45617E+005    1.97238E+005   -4.99072E+004   -4.30707E+004
            4948    4.57163E+005    5.15651E+005    5.15651E+005    1.66152E+005   -1.71551E+003    5.17366E+005   -2.26696E+005    3.77847E+005    1.51418E+005    3.52872E+005    1.75797E+005    2.27043E+005   -1.36023E+004   -7.64447E+004
            4949    3.89262E+005    3.98662E+005    3.98662E+005    9.19447E+004   -3.92459E+004    4.37908E+005   -1.50454E+005    3.33795E+005    3.22455E+004    3.24673E+005    9.44421E+004    1.54770E+005   -4.13866E+004   -3.33210E+004
            4950    3.90725E+005    4.43262E+005    4.43262E+005    1.41969E+005    1.78453E+003    4.41478E+005   -1.95672E+005    3.26491E+005    1.26863E+005    3.10958E+005    1.49195E+005    1.89506E+005   -8.23815E+003   -6.93918E+004
            4951    3.50787E+005    3.90830E+005    3.90830E+005    1.17505E+005   -4.71772E+003    3.95548E+005   -1.67872E+005    2.96875E+005    1.12618E+005    2.65967E+005    1.25032E+005    1.63752E+005   -6.61700E+003   -8.30853E+004
            4952    3.31707E+005    3.76265E+005    3.76265E+005    8.34666E+004    1.60169E+004    3.60248E+005   -1.58583E+005    3.15720E+005    1.14392E+005    2.89298E+005    7.20590E+004    1.34497E+005   -1.59769E+003   -7.29492E+004
            4953    3.41584E+005    3.47728E+005    3.47728E+005    5.02949E+004   -2.53313E+004    3.73059E+005   -1.24230E+005    3.21929E+005    2.46396E+004    2.93474E+005    5.45776E+004    1.24799E+005   -2.23056E+004   -3.33778E+004
            4954    2.87146E+005    2.60128E+005    2.60128E+005   -7.50918E+001   -4.79450E+004    3.08073E+005   -7.07026E+004    2.77956E+005    1.08852E+003    2.11428E+005   -4.08399E+002    1.12313E+005   -4.05516E+003    7.06743E+002
            4955    1.79650E+005    1.60756E+005    1.60756E+005    6.07706E+003   -3.62911E+004    1.97047E+005   -4.35139E+004    1.67848E+005   -4.75813E+003    1.32178E+005    3.12198E+003    6.87727E+004   -1.01741E+004    3.64831E+003
            4956    1.67956E+005    1.48677E+005    1.48677E+005   -5.93018E+002   -3.31875E+004    1.81864E+005   -3.82987E+004    1.60607E+005    5.05383E+003    1.16509E+005   -6.66647E+003    6.78273E+004   -9.78957E+003    9.20493E+003
            4957    1.22111E+005    1.08914E+005    1.08914E+005   -1.62422E+003   -2.21657E+004    1.31079E+005   -2.83746E+004    1.18130E+005   -5.12092E+003    9.58132E+004   -5.56834E+003    3.86488E+004   -7.79790E+003    2.20207E+003
            4958    9.41120E+004    9.13288E+004    9.13288E+004    1.61230E+003   -6.63563E+003    9.79645E+004   -2.87685E+004    9.32936E+004    9.08702E+003    8.00692E+004   -2.85074E+003    3.00385E+004   -5.51867E+003   -3.18351E+003
            4959    2.18438E+005    1.83325E+005    1.83325E+005    1.88964E+004   -6.45319E+004    2.47857E+005   -4.58966E+004    1.76856E+005   -1.44303E+004    1.63582E+005   -1.14624E+004    6.22427E+004   -3.68041E+004    1.69314E+004
            4960    1.74271E+005    1.47434E+005    1.47434E+005    1.68431E+004   -5.04506E+004    1.97885E+005   -3.79423E+004    1.40217E+005    5.29898E+003    1.25126E+005   -1.65978E+004    5.62430E+004   -3.22784E+004    9.88573E+003
            4961    1.22115E+005    8.61953E+004    8.61953E+004   -1.26754E+003   -5.33214E+004    1.39517E+005   -1.05355E+004    9.16502E+004   -1.56762E+004    7.76942E+004   -3.04117E+004    2.92051E+004   -2.58353E+004    3.64722E+003
            4962    8.37906E+004    7.24034E+004    7.24034E+004    4.30692E+003   -2.11681E+004    9.35715E+004   -1.85141E+004    7.42985E+004    5.32616E+003    5.97599E+004   -9.54378E+003    2.33752E+004   -1.74496E+004   -1.25780E+004
            4963    9.14169E+004    6.06111E+004    6.06111E+004   -1.89897E+003   -4.43081E+004    1.04919E+005   -4.80133E+003    6.28205E+004   -1.97166E+003    4.35422E+004   -2.71665E+004    1.75541E+004   -2.51814E+004   -2.36453E+004
            4964    1.40073E+005    9.47650E+004    9.47650E+004    1.30157E+003   -6.62857E+004    1.61051E+005   -9.92699E+003    9.09726E+004   -3.92408E+003    7.77106E+004   -4.40055E+004    2.80927E+004   -3.70111E+004   -2.30980E+004
            4965    1.95158E+005    1.46354E+005    1.46354E+005    8.70560E+003   -7.69904E+004    2.23344E+005   -2.60231E+004    1.42571E+005    3.59567E+003    1.23720E+005   -4.92463E+004    4.95062E+004   -4.64056E+004   -1.53197E+004
            4966    2.59338E+005    2.27430E+005    2.27430E+005    2.57178E+004   -6.51036E+004    2.92534E+005   -6.26815E+004    2.19013E+005    1.70764E+004    2.03395E+005   -3.24269E+004    6.41996E+004   -5.01465E+004   -1.78784E+004
            4967    6.78554E+005    8.08399E+005    8.08399E+005    2.78590E+005    4.35819E+004    7.64817E+005   -3.76857E+005    5.75690E+005    2.73002E+005    5.75140E+005    2.82428E+005    3.46969E+005   -1.21159E+004   -5.86067E+004
            4968    7.63455E+005    8.97332E+005    8.97332E+005    2.84272E+005    4.21835E+004    8.55148E+005   -4.07929E+005    6.68549E+005    1.96222E+005    7.40343E+005    2.87222E+005    3.26306E+005   -3.72576E+004   -3.84691E+004
            4969    5.54316E+005    6.98216E+005    6.98216E+005    2.32334E+005    8.51685E+004    6.13048E+005   -3.38573E+005    5.07499E+005    1.64067E+005    6.38167E+005    2.13485E+005    1.78929E+005   -4.89495E+004    9.06984E+003
            4970    7.34387E+005    8.89272E+005    8.89272E+005    3.10643E+005    6.31014E+004    8.26171E+005   -4.21006E+005    6.29707E+005    3.10108E+005    6.40677E+005    3.12233E+005    3.76683E+005   -8.12053E+003   -4.03239E+004
            4971    8.34700E+005    1.00195E+006    1.00195E+006    3.24876E+005    6.93560E+004    9.32593E+005   -4.65394E+005    7.38706E+005    2.39220E+005    8.30783E+005    3.26178E+005    3.59077E+005   -2.41202E+004   -2.64711E+004
            4972    6.11425E+005    8.08843E+005    8.08843E+005    2.95453E+005    1.32430E+005    6.76414E+005   -4.12242E+005    5.59310E+005    2.17957E+005    7.31859E+005    2.86910E+005    2.13280E+005   -3.43727E+004    1.17771E+004
            4973    7.65209E+005    9.36092E+005    9.36092E+005    3.30057E+005    7.62212E+004    8.59871E+005   -4.47457E+005    6.60002E+005    3.32412E+005    6.79720E+005    3.30239E+005    3.93088E+005   -2.84753E+003   -1.39537E+004
            4974    8.73976E+005    1.06044E+006    1.06044E+006    3.47984E+005    8.52266E+004    9.75211E+005   -4.97883E+005    7.77371E+005    2.63867E+005    8.81633E+005    3.48148E+005    3.77136E+005   -8.09069E+003   -9.50139E+003
            4975    6.46194E+005    8.78993E+005    8.78993E+005    3.37326E+005    1.63734E+005    7.15260E+005   -4.60018E+005    5.90222E+005    2.53647E+005    7.90160E+005    3.36245E+005    2.35692E+005   -1.25732E+004    5.36304E+003
            4976    8.60267E+004    1.06338E+004   -7.95650E+004    1.57220E+003   -7.95650E+004    9.01989E+004    2.24530E+004   -8.49431E+004    2.35775E+003   -7.29153E+004    3.19858E+003    2.27576E+004    4.92678E+003   -3.83084E+003
            4977    8.08761E+004    2.98609E+004   -6.07493E+004    4.13361E+003   -6.07493E+004    9.06102E+004    8.91825E+003   -7.07508E+004    8.69781E+003   -5.28002E+004    1.73477E+004    1.77105E+004    1.62433E+004   -1.18272E+004
            4978    9.00307E+004    4.30800E+004   -6.01626E+004    2.00553E+003   -6.01626E+004    1.03243E+005    5.02570E+003   -6.31444E+004    3.13227E+003   -4.31372E+004    2.49279E+004    1.51445E+004    2.41278E+004   -2.61190E+004
            4979    5.29773E+004    1.97530E+003   -5.35236E+004   -3.49176E+003   -5.35236E+004    5.54989E+004    1.83467E+004   -5.23370E+004   -6.75020E+003   -4.90313E+004    7.41448E+002    1.29282E+004    3.19449E+003   -6.16447E+003
            4980    5.00859E+004    9.79475E+003   -4.52271E+004   -2.28759E+003   -4.52271E+004    5.50219E+004    1.25733E+004   -4.66348E+004   -4.45803E+003   -3.44000E+004    1.13813E+003    9.97371E+003    8.75375E+003   -1.71744E+004
            4981    5.90194E+004    2.51189E+004   -4.22500E+004    3.43019E+002   -4.22500E+004    6.73689E+004    5.59604E+003   -4.48581E+004   -1.37956E+003   -2.46749E+004    9.26636E+003    7.81992E+003    1.28408E+004   -2.51739E+004
            4982    2.83982E+004    5.42296E+003   -2.45457E+004    1.96549E+003   -2.45457E+004    2.99686E+004    5.71908E+003   -2.79188E+004    4.39408E+003   -2.19453E+004    3.94021E+002    5.29503E+003    1.06851E+003   -6.17830E+003
            4983    3.58781E+004    1.31144E+004   -2.56057E+004    6.51354E+003   -2.56057E+004    3.87202E+004    1.99259E+003   -3.44720E+004    5.53899E+003   -1.53415E+004    3.82477E+003    4.61628E+003    3.35073E+003   -1.61914E+004
            4984    4.35263E+004    1.84631E+004   -3.12261E+004    1.59512E+002   -3.12261E+004    4.96891E+004    4.20115E+003   -3.30367E+004   -7.98515E+002   -1.26338E+004    8.28836E+002    3.65734E+003    4.71431E+003   -2.32792E+004
            4985    1.29233E+004    7.04748E+003   -7.36695E+003   -3.50329E+003   -7.36695E+003    1.44144E+004    1.27425E+003    1.15122E+004   -5.28602E+003    1.86108E+003   -3.97826E+002    2.99634E+003    5.33801E+001   -5.77435E+003
            4986    2.79078E+004    1.48033E+004   -1.69926E+004   -5.63439E+003   -1.69926E+004    3.17959E+004    2.60788E+003    2.17104E+004   -5.61917E+003    1.27522E+003   -3.47969E+003    2.79987E+003   -2.38997E+002   -1.54682E+004
            4987    3.96067E+004    2.35996E+004    2.35996E+004   -9.04431E+002   -2.20943E+004    4.56939E+004   -2.00282E+002    1.98150E+004   -8.83765E+002    1.21145E+003    2.73158E+002    2.57394E+003   -1.57897E+002   -2.26968E+004
            4988    3.04797E+004    3.17050E+004    3.17050E+004    4.21336E+003   -1.07155E+003    3.27765E+004   -1.16156E+004    2.94222E+004    6.52939E+003    2.80092E+004    3.08177E+002    7.44473E+003   -1.71004E+003   -6.33109E+003
            4989    3.54350E+004    3.22416E+004    3.22416E+004    3.93405E+003   -7.49838E+003    3.97400E+004   -9.55909E+003    3.08571E+004    6.04643E+003    1.97352E+004    2.89562E+003    6.12999E+003   -4.27861E+003   -1.68082E+004
            4990    4.33088E+004    3.10899E+004    3.10899E+004    1.18308E+003   -1.85743E+004    4.96642E+004   -4.56622E+003    3.03776E+004    2.51068E+003    1.29753E+004   -1.78736E+003    4.24649E+003   -5.14697E+003   -2.28701E+004
            4991    6.09981E+004    5.61952E+004    5.61952E+004   -1.65218E+003   -7.52837E+003    6.37235E+004   -1.56715E+004    6.03564E+004   -4.22871E+003    5.30124E+004   -1.76903E+003    1.22010E+004   -3.25864E+003   -5.78844E+003
            4992    5.81086E+004    4.41040E+004    4.41040E+004   -6.11086E+003   -1.95452E+004    6.36491E+004   -6.14933E+003    5.44476E+004   -8.29606E+003    3.66028E+004   -9.85872E+003    9.46073E+003   -9.81612E+003   -1.56047E+004
            4993    6.14657E+004    4.47435E+004    4.47435E+004   -1.02658E+003   -2.51187E+004    6.98622E+004   -6.19940E+003    4.90149E+004   -3.48187E+002    2.73914E+004   -8.44498E+003    7.60313E+003   -1.33974E+004   -2.58618E+004
            4994    5.54546E+005    6.98582E+005    6.98582E+005    2.32478E+005    8.52913E+004    6.13291E+005   -3.38784E+005    5.07736E+005    1.64420E+005    6.38386E+005    2.13546E+005    1.79151E+005    4.90301E+004   -9.13982E+003
            4995    7.64674E+005    8.98677E+005    8.98677E+005    2.84533E+005    4.21990E+004    8.56478E+005   -4.08470E+005    6.69738E+005    1.96637E+005    7.41211E+005    2.87561E+005    3.26992E+005    3.70849E+004    3.87986E+004
            4996    6.79405E+005    8.09673E+005    8.09673E+005    2.79128E+005    4.39176E+004    7.65755E+005   -3.77573E+005    5.76505E+005    2.73669E+005    5.76133E+005    2.82917E+005    3.47460E+005    1.20460E+004    5.83058E+004
            4997    6.11462E+005    8.09402E+005    8.09402E+005    2.96047E+005    1.32919E+005    6.76483E+005   -4.12789E+005    5.59279E+005    2.18588E+005    7.32230E+005    2.87550E+005    2.13527E+005    3.42753E+004   -1.18090E+004
            4998    8.35154E+005    1.00197E+006    1.00197E+006    3.24445E+005    6.88998E+004    9.33071E+005   -4.65105E+005    7.39202E+005    2.38850E+005    8.30722E+005    3.25744E+005    3.59264E+005    2.40699E+004    2.64430E+004
            4999    7.34640E+005    8.89669E+005    8.89669E+005    3.10872E+005    6.32022E+004    8.26466E+005   -4.21248E+005    6.29884E+005    3.10388E+005    6.40914E+005    3.12441E+005    3.76882E+005    8.08158E+003    4.00313E+004
            5000    6.46187E+005    8.79365E+005    8.79365E+005    3.37696E+005    1.64117E+005    7.15248E+005   -4.60392E+005    5.90223E+005    2.54062E+005    7.90442E+005    3.36673E+005    2.35804E+005    1.22693E+004   -5.11373E+003
            5001    8.73860E+005    1.05997E+006    1.05997E+006    3.47590E+005    8.48973E+004    9.75073E+005   -4.97486E+005    7.77291E+005    2.63448E+005    8.81264E+005    3.47747E+005    3.77022E+005    8.33209E+003    9.37437E+003
            5002    7.65157E+005    9.36005E+005    9.36005E+005    3.30103E+005    7.61629E+004    8.59842E+005   -4.47424E+005    6.59844E+005    3.32405E+005    6.79581E+005    3.30285E+005    3.93102E+005    2.84641E+003    1.39425E+004
            5003    3.63965E+005   -7.98938E+003   -4.19127E+005   -1.38095E+005   -4.19127E+005    4.11138E+005    1.88404E+005   -3.04635E+005   -1.37353E+005   -2.86673E+005   -1.41186E+005    1.77216E+005    3.62777E+003   -7.41076E+004
            5004    4.06143E+005   -6.02478E+003   -4.66499E+005   -1.59290E+005   -4.66499E+005    4.60474E+005    2.10605E+005   -3.31003E+005   -1.58097E+005   -3.10087E+005   -1.63629E+005    2.03072E+005    5.48933E+003   -7.92801E+004
            5005    4.57003E+005   -1.69182E+004   -5.34779E+005   -1.88004E+005   -5.34779E+005    5.17861E+005    2.46567E+005   -3.74034E+005   -1.90389E+005   -3.56724E+005   -1.92589E+005    2.33900E+005    7.68863E+003   -7.58070E+004
            5006    5.21015E+005   -2.44616E+004   -6.14343E+005   -2.16998E+005   -6.14343E+005    5.89882E+005    2.85268E+005   -4.29264E+005   -2.26445E+005   -4.08495E+005   -2.20863E+005    2.69561E+005    8.05498E+003   -7.97548E+004
            5007    5.85222E+005   -4.42614E+004   -7.05286E+005   -2.53246E+005   -7.05286E+005    6.61025E+005    3.34265E+005   -4.90050E+005   -2.71537E+005   -4.75333E+005   -2.55923E+005    3.06313E+005    7.87555E+003   -7.27039E+004
            5008    3.86447E+005    2.56983E+004   -4.07815E+005   -9.94544E+004   -4.07815E+005    4.33513E+005    1.60524E+005   -3.36097E+005   -5.21497E+004   -3.20410E+005   -1.09011E+005    1.64107E+005    2.11714E+004   -4.91937E+004
            5009    4.47311E+005    1.76472E+004   -4.86229E+005   -1.35962E+005   -4.86229E+005    5.03877E+005    2.01515E+005   -3.80803E+005   -7.79694E+004   -3.80414E+005   -1.46160E+005    1.95047E+005    2.81138E+004   -5.19218E+004
            5010    5.18391E+005    1.79824E+004   -5.67751E+005   -1.68033E+005   -5.67751E+005    5.85733E+005    2.39267E+005   -4.33142E+005   -1.03011E+005   -4.35399E+005   -1.79391E+005    2.34159E+005    3.31339E+004   -5.77825E+004
            5011    6.06419E+005    4.57932E+003   -6.79639E+005   -2.08580E+005   -6.79639E+005    6.84218E+005    2.94546E+005   -5.11321E+005   -1.44116E+005   -5.21379E+005   -2.18144E+005    2.79597E+005    3.41424E+004   -5.72835E+004
            5012    6.96739E+005   -1.06555E+004   -7.95742E+005   -2.50966E+005   -7.95742E+005    7.85086E+005    3.52455E+005   -5.92109E+005   -1.91488E+005   -6.07135E+005   -2.58741E+005    3.28424E+005    3.13824E+004   -5.64829E+004
            5013    2.95930E+005    3.55238E+004   -2.92915E+005   -4.70232E+004   -2.92915E+005    3.28439E+005    1.01472E+005   -2.68136E+005   -2.87593E+003   -2.56579E+005   -4.49601E+004    9.56264E+004    3.14354E+004   -2.39271E+004
            5014    3.52405E+005    4.71160E+004   -3.49362E+005   -7.17945E+004   -3.49362E+005    3.96478E+005    1.24680E+005   -3.02054E+005   -3.27652E+003   -2.99202E+005   -7.15623E+004    1.21123E+005    4.15161E+004   -3.15100E+004
            5015    4.37489E+005    4.08307E+004   -4.51551E+005   -1.07553E+005   -4.51551E+005    4.92382E+005    1.72758E+005   -3.74246E+005   -2.20400E+004   -3.85990E+005   -1.10244E+005    1.54366E+005    4.71146E+004   -4.12843E+004
            5016    5.27198E+005    3.75096E+004   -5.56692E+005   -1.45001E+005   -5.56692E+005    5.94202E+005    2.21394E+005   -4.47357E+005   -4.16465E+004   -4.73935E+005   -1.48602E+005    1.94042E+005    4.85139E+004   -4.41331E+004
            5017    6.29890E+005    1.98921E+004   -6.88540E+005   -1.91658E+005   -6.88540E+005    7.08432E+005    2.86769E+005   -5.40838E+005   -7.79349E+004   -5.87285E+005   -1.95085E+005    2.39243E+005    4.45075E+004   -4.32607E+004
            5018    2.58945E+005    6.01494E+004   -2.32452E+005   -3.28511E+004   -2.32452E+005    2.92601E+005    6.83844E+004   -2.16273E+005   -9.53875E+003   -2.00557E+005    4.94226E+003    8.25537E+004    4.87905E+004    7.58664E+002
            5019    3.22951E+005    4.00953E+004   -3.21460E+005   -6.15895E+004   -3.21460E+005    3.61555E+005    1.14318E+005   -2.83429E+005   -3.01735E+004   -2.77992E+005   -3.47886E+004    1.04929E+005    5.74898E+004   -1.88018E+004
            5020    3.90032E+005    2.62432E+004   -4.09412E+005   -9.26994E+004   -4.09412E+005    4.35656E+005    1.58623E+005   -3.45552E+005   -4.81432E+004   -3.56628E+005   -7.10971E+004    1.31177E+005    5.99073E+004   -1.93875E+004
            5021    4.67351E+005   -6.15429E+003   -5.25882E+005   -1.40201E+005   -5.25882E+005    5.19727E+005    2.24079E+005   -4.20730E+005   -8.29253E+004   -4.62015E+005   -1.27297E+005    1.60519E+005    5.83890E+004   -2.60327E+004
            5022    5.48257E+005   -3.56754E+004   -6.44560E+005   -1.90016E+005   -6.44560E+005    6.08884E+005    2.90084E+005   -4.95734E+005   -1.19899E+005   -5.70115E+005   -1.80237E+005    1.93139E+005    5.27026E+004   -1.97905E+004
            5023    4.63925E+005   -5.73655E+004   -5.69478E+005   -1.77290E+005   -5.69478E+005    5.12112E+005    2.68045E+005   -4.26911E+005   -1.53805E+005   -5.23197E+005   -1.27131E+005    1.38523E+005    5.82938E+004    1.22622E+004
            5024    4.07319E+005   -3.28977E+002   -4.53417E+005   -1.17592E+005   -4.53417E+005    4.53088E+005    1.90446E+005   -3.66358E+005   -9.76845E+004   -4.18771E+005   -5.48823E+004    1.09621E+005    6.10629E+004    4.90027E+002
            5025    3.54220E+005    3.44886E+004   -3.62022E+005   -7.68382E+004   -3.62022E+005    3.96510E+005    1.34790E+005   -3.11046E+005   -5.97604E+004   -3.33795E+005   -1.08155E+004    8.73361E+004    6.07541E+004   -1.42895E+004
            5026    3.05536E+005    7.00706E+004   -2.75611E+005   -4.16908E+004   -2.75611E+005    3.45681E+005    8.24103E+004   -2.53000E+005   -2.58919E+004   -2.53138E+005    3.17986E+004    6.97432E+004    5.81386E+004   -1.34288E+004
            5027    2.44697E+005    7.66174E+004   -2.02276E+005   -2.35804E+004   -2.02276E+005    2.78894E+005    4.97464E+004   -1.89532E+005   -8.32693E+003   -1.83792E+005    4.28797E+004    5.39183E+004    5.22183E+004   -1.39022E+004
            5028    1.94878E+005    7.71537E+004   -1.46123E+005   -1.02334E+004   -1.46123E+005    2.23277E+005    2.64010E+004   -1.39350E+005   -3.13883E+003   -1.26800E+005    5.07359E+004    4.32894E+004    4.59339E+004   -1.97407E+004
            5029    1.36587E+005    6.66869E+004   -9.04206E+004    1.33431E+002   -9.04206E+004    1.57107E+005    7.86677E+003   -8.72731E+004    3.06894E+003   -7.24099E+004    4.57407E+004    2.86618E+004    3.62447E+004   -2.24484E+004
            5030    1.14155E+005    3.89787E+004   -9.10961E+004   -7.56875E+003   -9.10961E+004    1.30075E+005    1.98954E+004   -8.86874E+004   -1.32800E+003   -7.84648E+004    2.01068E+004    3.21205E+004    2.49102E+004   -1.98055E+003
            5031    1.18335E+005    1.62489E+004   -1.09520E+005   -3.77252E+002   -1.09520E+005    1.25769E+005    3.12161E+004   -1.15663E+005   -6.50300E+003   -9.29345E+004    5.78930E+003    4.13168E+004    7.90301E+003    1.88025E+003
            5032    1.64411E+005    6.38295E+004   -1.24227E+005   -7.68758E+003   -1.24227E+005    1.88057E+005    2.26952E+004   -1.21189E+005    1.25563E+004   -1.09495E+005    2.88529E+004    4.48390E+004    3.33161E+004    1.31438E+004
            5033    1.45662E+005    3.18585E+004   -1.26953E+005    4.29153E+002   -1.26953E+005    1.58811E+005    3.15550E+004   -1.37720E+005    5.64688E+003   -1.05479E+005    5.16685E+003    5.32577E+004    9.35677E+003    7.06824E+003
            5034    1.82834E+005    3.68865E+004   -1.61880E+005   -8.74878E+002   -1.61880E+005    1.98766E+005    4.19561E+004   -1.73732E+005   -3.19328E+003   -1.26405E+005    3.72957E+003    7.48807E+004    9.43557E+003    9.27223E+003
            5035    2.04297E+005    3.86070E+004   -1.85461E+005   -9.53311E+003   -1.85461E+005    2.24068E+005    5.21290E+004   -1.90899E+005    4.10909E+003   -1.52359E+005   -8.13723E+003    7.91732E+004    8.42521E+003    1.00831E+003
            5036    3.10916E+005    4.21644E+004   -2.87951E+005   -6.78242E+002   -2.87951E+005    3.30116E+005    8.21551E+004   -3.04169E+005   -1.45532E+004   -2.31070E+005   -8.42024E+002    1.24461E+005    2.16535E+003   -7.00179E+003
            5037    3.41989E+005   -1.91135E+004   -3.92399E+005   -9.41748E+004   -3.92399E+005    3.73285E+005    1.68562E+005   -3.22665E+005   -1.27272E+005   -3.05268E+005   -7.31467E+004    1.33316E+005   -5.98306E+002   -8.03949E+004
            5038    2.04640E+005    4.28984E+004   -1.86810E+005   -2.39662E+004   -1.86810E+005    2.29709E+005    5.59593E+004   -1.77443E+005   -7.76691E+003   -1.58935E+005   -1.17585E+003    7.04915E+004    3.11271E+004    7.57296E+003
            5039    2.55855E+005    4.43548E+004   -2.35473E+005   -1.34998E+004   -2.35473E+005    2.79828E+005    6.82061E+004   -2.40468E+005    7.07717E+003   -2.07297E+005   -4.39815E+003    8.24750E+004    2.17286E+004    1.89212E+003
            5040    3.65615E+005    1.25030E+004   -3.84402E+005   -6.13546E+004   -3.84402E+005    3.96905E+005    1.44418E+005   -3.48232E+005   -4.95121E+004   -3.15520E+005   -6.82220E+004    1.40482E+005    1.05278E+004   -5.16504E+004
            5041    3.42599E+005    7.55354E+003   -3.80089E+005   -1.17900E+005   -3.80089E+005    3.87642E+005    1.63478E+005   -2.83541E+005   -1.18806E+005   -2.52085E+005   -1.19545E+005    1.57230E+005    1.67301E+003   -9.22616E+004
            5042    3.90399E+005    4.42969E+005    4.42969E+005    1.42083E+005    1.81591E+003    4.41153E+005   -1.95622E+005    3.26008E+005    1.26838E+005    3.10715E+005    1.49314E+005    1.89396E+005    8.23438E+003    6.93107E+004
            5043    4.57581E+005    5.16034E+005    5.16034E+005    1.66358E+005   -1.84269E+003    5.17877E+005   -2.26850E+005    3.77994E+005    1.51556E+005    3.53020E+005    1.75973E+005    2.27319E+005    1.35514E+004    7.64698E+004
            5044    5.32099E+005    6.13108E+005    6.13108E+005    2.04632E+005    1.13907E+004    6.01718E+005   -2.76377E+005    4.42124E+005    1.90470E+005    4.26028E+005    2.12633E+005    2.68263E+005    1.47377E+004    7.26281E+004
            5045    6.09080E+005    7.11852E+005    7.11852E+005    2.41123E+005    2.39507E+004    6.87901E+005   -3.25642E+005    5.10377E+005    2.30810E+005    4.98711E+005    2.47404E+005    3.09886E+005    1.43635E+004    6.99309E+004
            5046    3.89493E+005    3.98877E+005    3.98877E+005    9.20458E+004   -3.93122E+004    4.38189E+005   -1.50537E+005    3.33908E+005    3.22237E+004    3.24831E+005    9.45561E+004    1.54854E+005    4.14609E+004    3.33820E+004
            5047    4.87231E+005    5.25130E+005    5.25130E+005    1.41984E+005   -2.32252E+004    5.48355E+005   -2.14629E+005    4.16843E+005    6.92672E+004    4.28128E+005    1.46493E+005    1.97763E+005    4.99451E+004    4.30029E+004
            5048    5.79603E+005    6.42766E+005    6.42766E+005    1.88704E+005   -1.00706E+004    6.52837E+005   -2.73800E+005    4.93685E+005    1.04088E+005    5.23974E+005    1.93338E+005    2.41823E+005    5.07289E+004    4.46831E+004
            5049    6.76957E+005    7.75871E+005    7.75871E+005    2.38153E+005    1.56714E+004    7.60200E+005   -3.43232E+005    5.85808E+005    1.50710E+005    6.36392E+005    2.42594E+005    2.86374E+005    4.63427E+004    4.50754E+004
            5050    4.86795E+005    5.75379E+005    5.75379E+005    1.67907E+005    3.63162E+004    5.39063E+005   -2.59868E+005    4.44061E+005    1.09615E+005    5.30527E+005    1.39460E+005    1.43540E+005    5.67414E+004   -1.22805E+003
            5051    4.19908E+005    4.63558E+005    4.63558E+005    1.14779E+005   -2.53057E+003    4.66088E+005   -1.91935E+005    3.80339E+005    6.48684E+004    4.29826E+005    8.11116E+004    1.12947E+005    5.85546E+004    8.87230E+003
            5052    3.55276E+005    3.62266E+005    3.62266E+005    7.18398E+004   -3.38674E+004    3.96133E+005   -1.33413E+005    3.16889E+005    3.07622E+004    3.36969E+005    3.25071E+004    8.80256E+004    5.61239E+004    9.91354E+003
            5053    2.98882E+005    2.81492E+005    2.81492E+005    3.92365E+004   -5.25086E+004    3.34000E+005   -8.94065E+004    2.64302E+005    9.67448E+003    2.61378E+005   -2.83298E+003    6.94185E+004    5.07789E+004    1.26347E+004
            5054    2.59836E+005    2.27828E+005    2.27828E+005    2.57087E+004   -6.52617E+004    2.93090E+005   -6.27584E+004    2.19460E+005    1.71236E+004    2.03713E+005   -3.25618E+004    6.43358E+004    5.02392E+004    1.79860E+004
            5055    1.94700E+005    1.46004E+005    1.46004E+005    8.68979E+003   -7.68180E+004    2.22822E+005   -2.59585E+004    1.42214E+005    3.56164E+003    1.23420E+005   -4.91067E+004    4.93935E+004    4.63165E+004    1.52799E+004
            5056    1.39656E+005    9.45060E+004    9.45060E+004    1.26070E+003   -6.60583E+004    1.60564E+005   -9.90280E+003    9.08470E+004   -3.96589E+003    7.74908E+004   -4.38165E+004    2.80234E+004    3.69008E+004    2.30467E+004
            5057    9.15508E+004    6.07772E+004    6.07772E+004   -1.86518E+003   -4.42902E+004    1.05067E+005   -4.87392E+003    6.30000E+004   -1.87633E+003    4.37087E+004   -2.72106E+004    1.76681E+004    2.51874E+004    2.35738E+004
            5058    8.37772E+004    7.23498E+004    7.23498E+004    4.34745E+003   -2.12365E+004    9.35863E+004   -1.84869E+004    7.41938E+004    5.24978E+003    5.97435E+004   -9.53261E+003    2.33222E+004    1.75055E+004    1.25682E+004
            5059    9.44363E+004    9.16095E+004    9.16095E+004    1.63792E+003   -6.73410E+003    9.83436E+004   -2.88378E+004    9.35960E+004    9.15193E+003    8.02549E+004   -2.89350E+003    3.02070E+004    5.58385E+003    3.16813E+003
            5060    1.22549E+005    8.64435E+004    8.64435E+004   -1.36357E+003   -5.35623E+004    1.40006E+005   -1.05059E+004    9.20354E+004   -1.56559E+004    7.78985E+004   -3.07249E+004    2.93043E+004    2.59110E+004   -3.58508E+003
            5061    1.21925E+005    1.08589E+005    1.08589E+005   -1.70814E+003   -2.23328E+004    1.30922E+005   -2.81827E+004    1.17904E+005   -5.34033E+003    9.56111E+004   -5.72273E+003    3.84490E+004    7.88492E+003   -2.17814E+003
            5062    1.74549E+005    1.47603E+005    1.47603E+005    1.69044E+004   -5.06218E+004    1.98225E+005   -3.79619E+004    1.40288E+005    5.36182E+003    1.25233E+005   -1.67097E+004    5.63292E+004    3.24683E+004   -9.72742E+003
            5063    1.67540E+005    1.48349E+005    1.48349E+005   -5.64853E+002   -3.30566E+004    1.81406E+005   -3.82425E+004    1.60219E+005    5.07263E+003    1.16372E+005   -6.71762E+003    6.75465E+004    9.85126E+003   -9.16289E+003
            5064    2.18673E+005    1.83613E+005    1.83613E+005    1.89159E+004   -6.44879E+004    2.48101E+005   -4.60137E+004    1.77181E+005   -1.43989E+004    1.63865E+005   -1.14246E+004    6.22882E+004    3.67805E+004   -1.69638E+004
            5065    1.79099E+005    1.60342E+005    1.60342E+005    6.17598E+003   -3.61184E+004    1.96461E+005   -4.34666E+004    1.67300E+005   -4.61947E+003    1.31816E+005    3.20377E+003    6.85973E+004    1.01530E+004   -3.74572E+003
            5066    2.86754E+005    2.59400E+005    2.59400E+005   -4.37698E+002   -4.82571E+004    3.07657E+005   -7.02350E+004    2.77570E+005    6.54280E+002    2.10846E+005   -7.94886E+002    1.12082E+005    4.12208E+003   -8.80772E+002
            5067    3.31438E+005    3.75854E+005    3.75854E+005    8.32207E+004    1.59357E+004    3.59918E+005   -1.58337E+005    3.15518E+005    1.14011E+005    2.89131E+005    7.18680E+004    1.34395E+005    1.53277E+003    7.26525E+004
            5068    3.41440E+005    3.47542E+005    3.47542E+005    5.03188E+004   -2.54027E+004    3.72944E+005   -1.24153E+005    3.21724E+005    2.45200E+004    2.93367E+005    5.45709E+004    1.24711E+005    2.23302E+004    3.32877E+004
            5069    3.50296E+005    3.90364E+005    3.90364E+005    1.17412E+005   -4.62756E+003    3.94992E+005   -1.67716E+005    2.96472E+005    1.12482E+005    2.65767E+005    1.24899E+005    1.63525E+005    6.57507E+003    8.28851E+004
            5070    5.17499E+005   -1.17349E+005   -6.86889E+005   -2.45522E+005   -6.86889E+005    5.69541E+005    3.49920E+005   -4.79797E+005   -2.14556E+005   -6.22993E+005   -2.12212E+005    1.73585E+005    5.05575E+004    2.55491E+004
            5071    6.28205E+005   -7.59168E+004   -7.72266E+005   -2.48122E+005   -7.72266E+005    6.96349E+005    3.65435E+005   -5.71378E+005   -1.68118E+005   -6.85090E+005   -2.43096E+005    2.26666E+005    4.27045E+004   -1.74863E+004
            5072    7.23808E+005   -2.88628E+001   -8.12744E+005   -2.37512E+005   -8.12744E+005    8.12715E+005    3.50095E+005   -6.26714E+005   -1.16673E+005   -6.93880E+005   -2.39732E+005    2.81986E+005    3.68689E+004   -3.64800E+004
            5073    7.84238E+005   -3.40130E+004   -9.15671E+005   -2.95847E+005   -9.15671E+005    8.81658E+005    4.15177E+005   -6.74836E+005   -2.43099E+005   -7.01982E+005   -3.00449E+005    3.73709E+005    2.49504E+004   -4.70497E+004
            5074    6.48784E+005   -6.52879E+004   -7.96262E+005   -2.88724E+005   -7.96262E+005    7.30974E+005    3.83425E+005   -5.51687E+005   -3.16048E+005   -5.43856E+005   -2.90369E+005    3.41629E+005    6.97536E+003   -6.38669E+004
            5075    5.66145E+005   -1.79964E+005   -8.01623E+005   -3.15651E+005   -8.01623E+005    6.21659E+005    4.32413E+005   -5.27667E+005   -2.77626E+005   -7.18055E+005   -3.01557E+005    2.09066E+005    3.56012E+004    2.29567E+004
            5076    6.92968E+005   -1.12375E+005   -8.79308E+005   -2.98192E+005   -8.79308E+005    7.66933E+005    4.29958E+005   -6.33179E+005   -2.13158E+005   -7.80834E+005   -2.95882E+005    2.55273E+005    2.79477E+004   -8.77166E+003
            5077    8.00682E+005   -2.39807E+004   -9.21133E+005   -2.79091E+005   -9.21133E+005    8.97153E+005    4.08068E+005   -7.00083E+005   -1.54620E+005   -7.89596E+005   -2.79989E+005    3.15280E+005    2.44164E+004   -2.44414E+004
            5078    8.55202E+005   -5.38531E+004   -1.01364E+006   -3.32565E+005   -1.01364E+006    9.59789E+005    4.66687E+005   -7.42199E+005   -2.83844E+005   -7.81637E+005   -3.34580E+005    4.09117E+005    1.69690E+004   -3.29657E+004
            5079    6.98431E+005   -8.81541E+004   -8.73308E+005   -3.21182E+005   -8.73308E+005    7.85154E+005    4.27548E+005   -6.01146E+005   -3.54297E+005   -6.06482E+005   -3.21866E+005    3.69548E+005    4.91085E+003   -4.16616E+004
            5080    5.95224E+005   -2.17466E+005   -8.71479E+005   -3.61467E+005   -8.71479E+005    6.54013E+005    4.83471E+005   -5.53961E+005   -3.16932E+005   -7.73901E+005   -3.59579E+005    2.32543E+005    1.32842E+004    1.12687E+004
            5081    7.31609E+005   -1.33480E+005   -9.42992E+005   -3.29024E+005   -9.42992E+005    8.09512E+005    4.68499E+005   -6.68923E+005   -2.39923E+005   -8.36801E+005   -3.28773E+005    2.73129E+005    9.89804E+003   -3.44032E+003
            5082    8.45126E+005   -3.77526E+004   -9.83977E+005   -3.04149E+005   -9.83977E+005    9.46225E+005    4.41960E+005   -7.41443E+005   -1.78853E+005   -8.42759E+005   -3.04267E+005    3.36919E+005    8.59304E+003   -8.86136E+003
            5083    8.94313E+005   -6.92475E+004   -1.07171E+006   -3.55784E+005   -1.07171E+006    1.00246E+006    4.98914E+005   -7.80548E+005   -3.12344E+005   -8.28405E+005   -3.55994E+005    4.29591E+005    5.86079E+003   -1.07804E+004
            5084    7.26384E+005   -1.02720E+005   -9.18026E+005   -3.39816E+005   -9.18026E+005    8.15307E+005    4.53521E+005   -6.30069E+005   -3.77473E+005   -6.43224E+005   -3.39866E+005    3.85050E+005    1.38521E+003   -1.63921E+004
            5085    9.02187E+004    4.33047E+004   -6.01619E+004    2.07976E+003   -6.01619E+004    1.03467E+005    4.92580E+003   -6.31597E+004    3.22226E+003   -4.31047E+004    2.51050E+004    1.51262E+004   -2.41766E+004    2.62087E+004
            5086    8.05257E+004    2.96055E+004   -6.05660E+004    4.17209E+003   -6.05660E+004    9.01715E+004    8.92946E+003   -7.06030E+004    8.68936E+003   -5.26759E+004    1.71982E+004    1.75478E+004   -1.60847E+004    1.18913E+004
            5087    8.52687E+004    1.04735E+004   -7.89223E+004    1.51115E+003   -7.89223E+004    8.93958E+004    2.23126E+004   -8.41992E+004    2.39217E+003   -7.23911E+004    3.06129E+003    2.24395E+004   -4.86732E+003    3.91782E+003
            5088    5.88708E+004    2.50235E+004   -4.21772E+004    3.01618E+002   -4.21772E+004    6.72006E+004    5.61736E+003   -4.47330E+004   -1.41510E+003   -2.46152E+004    9.17820E+003    7.77449E+003   -1.27785E+004    2.51551E+004
            5089    4.98910E+004    9.77908E+003   -4.50552E+004   -2.34050E+003   -4.50552E+004    5.48343E+004    1.25389E+004   -4.64023E+004   -4.51205E+003   -3.42226E+004    1.11803E+003    9.91826E+003   -8.74279E+003    1.71562E+004
            5090    5.23642E+004    1.98354E+003   -5.29095E+004   -3.50678E+003   -5.29095E+004    5.48930E+004    1.81442E+004   -5.17107E+004   -6.73029E+003   -4.84649E+004    7.62534E+002    1.27505E+004   -3.16229E+003    6.15478E+003
            5091    4.35503E+004    1.84969E+004   -3.12205E+004    1.77409E+002   -3.12205E+004    4.97174E+004    4.18208E+003   -3.30465E+004   -7.65212E+002   -1.25435E+004    7.62430E+002    3.62507E+003   -4.66797E+003    2.33294E+004
            5092    3.58801E+004    1.32312E+004   -2.55260E+004    6.53299E+003   -2.55260E+004    3.87571E+004    1.92060E+003   -3.44310E+004    5.56385E+003   -1.51865E+004    3.86087E+003    4.59017E+003   -3.34040E+003    1.62538E+004
            5093    2.79659E+004    5.42617E+003   -2.41070E+004    1.97056E+003   -2.41070E+004    2.95331E+004    5.57008E+003   -2.74794E+004    4.40695E+003   -2.14883E+004    3.71140E+002    5.21953E+003   -1.04013E+003    6.18523E+003
            5094    3.95646E+004    2.36585E+004    2.36585E+004   -8.57151E+002   -2.19849E+004    4.56433E+004   -2.72156E+002    1.99461E+004   -8.22806E+002    1.32729E+003    3.11979E+002    2.58945E+003    2.17236E+002    2.26688E+004
            5095    2.79173E+004    1.48604E+004   -1.69321E+004   -5.65138E+003   -1.69321E+004    3.17925E+004    2.57435E+003    2.18267E+004   -5.63282E+003    1.37486E+003   -3.46510E+003    2.81114E+003    2.51660E+002    1.54581E+004
            5096    1.30976E+004    7.32204E+003    7.32204E+003   -3.42291E+003   -7.26757E+003    1.45896E+004    1.12282E+003    1.17235E+004   -5.26464E+003    2.27370E+003   -3.77512E+002    3.02596E+003   -4.76011E+001    5.77928E+003
            5097    4.35477E+004    3.12096E+004    3.12096E+004    1.14923E+003   -1.87303E+004    4.99399E+004   -4.54282E+003    3.05215E+004    2.48157E+003    1.31078E+004   -1.96088E+003    4.25115E+003    5.25304E+003    2.29459E+004
            5098    3.56425E+004    3.23892E+004    3.23892E+004    3.91252E+003   -7.58230E+003    3.99715E+004   -9.57313E+003    3.10418E+004    6.03283E+003    1.98497E+004    2.83686E+003    6.16018E+003    4.30370E+003    1.68888E+004
            5099    3.10067E+004    3.22079E+004    3.22079E+004    4.15733E+003   -1.08636E+003    3.32942E+004   -1.17596E+004    2.99847E+004    6.47096E+003    2.85511E+004    2.56742E+002    7.52634E+003    1.72762E+003    6.30249E+003
            5100    6.17350E+004    4.49737E+004    4.49737E+004   -9.75852E+002   -2.51995E+004    7.01732E+004   -6.26611E+003    4.91973E+004   -2.91403E+002    2.76348E+004   -8.54503E+003    7.71454E+003    1.35388E+004    2.58476E+004
            5101    5.80345E+004    4.39910E+004    4.39910E+004   -6.14832E+003   -1.95824E+004    6.35734E+004   -6.08678E+003    5.43685E+004   -8.38774E+003    3.64812E+004   -9.83313E+003    9.41674E+003    9.82626E+003    1.56221E+004
            5102    6.16464E+004    5.68514E+004    5.68514E+004   -1.61342E+003   -7.54738E+003    6.43988E+004   -1.58969E+004    6.09989E+004   -4.19123E+003    5.36100E+004   -1.72817E+003    1.24202E+004    3.27275E+003    5.79296E+003
            5103    6.48346E+005   -6.50647E+004   -7.95627E+005   -2.88707E+005   -7.95627E+005    7.30562E+005    3.83133E+005   -5.50961E+005   -3.15737E+005   -5.43378E+005   -2.90284E+005    3.41404E+005   -6.75871E+003    6.39898E+004
            5104    7.83892E+005   -3.38715E+004   -9.15116E+005   -2.95493E+005   -9.15116E+005    8.81245E+005    4.14827E+005   -6.74629E+005   -2.42407E+005   -7.01959E+005   -3.00115E+005    3.73252E+005   -2.52446E+004    4.69878E+004
            5105    7.23365E+005   -3.78748E+002   -8.12563E+005   -2.37580E+005   -8.12563E+005    8.12185E+005    3.50174E+005   -6.26456E+005   -1.16605E+005   -6.94122E+005   -2.39795E+005    2.81435E+005   -3.69027E+004    3.65045E+004
            5106    6.27300E+005   -7.70028E+004   -7.72267E+005   -2.48675E+005   -7.72267E+005    6.95264E+005    3.65981E+005   -5.70757E+005   -1.69151E+005   -6.85334E+005   -2.43460E+005    2.26216E+005   -4.28356E+004    1.70361E+004
            5107    5.17369E+005   -1.17846E+005   -6.87312E+005   -2.46205E+005   -6.87312E+005    5.69465E+005    3.50454E+005   -4.79541E+005   -2.15145E+005   -6.23369E+005   -2.12849E+005    1.73618E+005   -5.06406E+004   -2.55510E+004
            5108    6.97721E+005   -8.84050E+004   -8.72728E+005   -3.21056E+005   -8.72728E+005    7.84323E+005    4.27396E+005   -6.00668E+005   -3.54727E+005   -6.05740E+005   -3.21723E+005    3.69302E+005   -4.86382E+003    4.16790E+004
            5109    8.54612E+005   -5.43621E+004   -1.01351E+006   -3.32956E+005   -1.01351E+006    9.59145E+005    4.66942E+005   -7.41619E+005   -2.85125E+005   -7.80733E+005   -3.34967E+005    4.09403E+005   -1.68363E+004    3.30038E+004
            5110    8.00514E+005   -2.45795E+004   -9.21478E+005   -2.79373E+005   -9.21478E+005    8.96899E+005    4.08477E+005   -7.00168E+005   -1.55555E+005   -7.89603E+005   -2.80273E+005    3.15573E+005   -2.43615E+004    2.44156E+004
            5111    6.91701E+005   -1.13383E+005   -8.78828E+005   -2.98571E+005   -8.78828E+005    7.65446E+005    4.30261E+005   -6.32220E+005   -2.13976E+005   -7.80596E+005   -2.96211E+005    2.54749E+005   -2.78443E+004    8.34331E+003
            5112    5.65264E+005   -1.80392E+005   -8.01084E+005   -3.15868E+005   -8.01084E+005    6.20692E+005    4.32448E+005   -5.26846E+005   -2.78055E+005   -7.17649E+005   -3.01640E+005    2.08692E+005   -3.56374E+004   -2.32649E+004
            5113    7.25901E+005   -1.02729E+005   -9.17561E+005   -3.39944E+005   -9.17561E+005    8.14832E+005    4.53412E+005   -6.29398E+005   -3.77580E+005   -6.42655E+005   -3.39999E+005    3.84907E+005   -1.44878E+003    1.65923E+004
            5114    8.94040E+005   -6.91666E+004   -1.07137E+006   -3.55790E+005   -1.07137E+006    1.00220E+006    4.98775E+005   -7.80156E+005   -3.12488E+005   -8.27837E+005   -3.56001E+005    4.29651E+005   -5.75587E+003    1.08724E+004
            5115    8.45086E+005   -3.78520E+004   -9.84063E+005   -3.04354E+005   -9.84063E+005    9.46211E+005    4.42089E+005   -7.41308E+005   -1.79065E+005   -8.42733E+005   -3.04470E+005    3.37026E+005   -8.63842E+003    8.83539E+003
            5116    7.31070E+005   -1.33816E+005   -9.42751E+005   -3.29283E+005   -9.42751E+005    8.08936E+005    4.68616E+005   -6.68384E+005   -2.40236E+005   -8.36568E+005   -3.29046E+005    2.73004E+005   -9.84857E+003    3.65784E+003
            5117    5.94068E+005   -2.17458E+005   -8.70127E+005   -3.60942E+005   -8.70127E+005    6.52669E+005    4.82843E+005   -5.53029E+005   -3.16715E+005   -7.72773E+005   -3.59040E+005    2.32037E+005   -1.33012E+004   -1.13209E+004
            5118    2.44518E+005    7.66196E+004   -2.02106E+005   -2.37175E+004   -2.02106E+005    2.78726E+005    4.97347E+004   -1.89102E+005   -8.33080E+003   -1.83728E+005    4.28541E+004    5.38639E+004   -5.21985E+004    1.35352E+004
            5119    3.06020E+005    7.01976E+004   -2.76026E+005   -4.17163E+004   -2.76026E+005    3.46224E+005    8.25150E+004   -2.53428E+005   -2.61725E+004   -2.53626E+005    3.22534E+004    6.96885E+004   -5.80375E+004    1.33671E+004
            5120    3.54559E+005    3.34086E+004   -3.63457E+005   -7.79298E+004   -3.63457E+005    3.96866E+005    1.35993E+005   -3.11426E+005   -6.09685E+004   -3.35126E+005   -1.18844E+004    8.75274E+004   -6.07828E+004    1.43453E+004
            5121    4.08012E+005   -9.62834E+002   -4.54779E+005   -1.18274E+005   -4.54779E+005    4.53817E+005    1.91339E+005   -3.67096E+005   -9.84333E+004   -4.20004E+005   -5.55791E+004    1.09989E+005   -6.09756E+004   -8.91020E+002
            5122    4.64455E+005   -5.85117E+004   -5.71098E+005   -1.78204E+005   -5.71098E+005    5.12586E+005    2.69271E+005   -4.27642E+005   -1.54719E+005   -5.24619E+005   -1.28476E+005    1.38944E+005   -5.80906E+004   -1.23387E+004
            5123    5.47442E+005   -3.57305E+004   -6.43669E+005   -1.89698E+005   -6.43669E+005    6.07939E+005    2.89699E+005   -4.95103E+005   -1.19884E+005   -5.69362E+005   -1.79851E+005    1.92796E+005   -5.27254E+004    1.97378E+004
            5124    6.28587E+005    2.00764E+004   -6.86835E+005   -1.90803E+005   -6.86835E+005    7.06911E+005    2.85854E+005   -5.39941E+005   -7.70069E+004   -5.86398E+005   -1.94156E+005    2.38025E+005   -4.47854E+004    4.32338E+004
            5125    6.96513E+005   -1.03633E+004   -7.95172E+005   -2.50494E+005   -7.95172E+005    7.84808E+005    3.52010E+005   -5.92018E+005   -1.90194E+005   -6.07536E+005   -2.58298E+005    3.27702E+005   -3.17791E+004    5.64057E+004
            5126    5.85559E+005   -4.41546E+004   -7.05559E+005   -2.53255E+005   -7.05559E+005    6.61405E+005    3.34323E+005   -4.90337E+005   -2.71146E+005   -4.75795E+005   -2.56029E+005    3.06424E+005   -8.05005E+003    7.25575E+004
            5127    4.66059E+005   -5.55452E+003   -5.23779E+005   -1.38997E+005   -5.23779E+005    5.18225E+005    2.22777E+005   -4.19742E+005   -8.19775E+004   -4.60315E+005   -1.26039E+005    1.59765E+005   -5.82879E+004    2.60327E+004
            5128    5.25523E+005    3.77827E+004   -5.54535E+005   -1.44167E+005   -5.54535E+005    5.92318E+005    2.20306E+005   -4.45915E+005   -4.09773E+004   -4.72324E+005   -1.47618E+005    1.93119E+005   -4.86220E+004    4.38315E+004
            5129    6.05977E+005    4.84832E+003   -6.78824E+005   -2.07948E+005   -6.78824E+005    6.83673E+005    2.93975E+005   -5.11160E+005   -1.43167E+005   -5.21272E+005   -2.17485E+005    2.78985E+005   -3.43930E+004    5.70795E+004
            5130    5.21337E+005   -2.44527E+004   -6.14679E+005   -2.17016E+005   -6.14679E+005    5.90227E+005    2.85383E+005   -4.29632E+005   -2.26040E+005   -4.09144E+005   -2.20964E+005    2.69629E+005   -8.15662E+003    7.96057E+004
            5131    3.87860E+005    2.70154E+004   -4.06255E+005   -9.14209E+004   -4.06255E+005    4.33270E+005    1.56887E+005   -3.43499E+005   -4.72947E+004   -3.53905E+005   -6.94604E+004    1.30214E+005   -5.98958E+004    1.91534E+004
            5132    4.35155E+005    4.11004E+004   -4.48575E+005   -1.06146E+005   -4.48575E+005    4.89675E+005    1.71207E+005   -3.72584E+005   -2.12874E+004   -3.83759E+005   -1.08574E+005    1.53065E+005   -4.72228E+004    4.08974E+004
            5133    5.18689E+005    1.82397E+004   -5.67777E+005   -1.67640E+005   -5.67777E+005    5.86017E+005    2.39059E+005   -4.33647E+005   -1.02093E+005   -4.36160E+005   -1.78924E+005    2.33755E+005   -3.35184E+004    5.74619E+004
            5134    4.58320E+005   -1.69407E+004   -5.36250E+005   -1.88305E+005   -5.36250E+005    5.19309E+005    2.47165E+005   -3.75357E+005   -1.90210E+005   -3.58306E+005   -1.92980E+005    2.34493E+005   -7.81441E+003    7.55315E+004
            5135    3.21887E+005    4.00014E+004   -3.20365E+005   -6.13581E+004   -3.20365E+005    3.60366E+005    1.13907E+005   -2.82486E+005   -3.03211E+004   -2.77001E+005   -3.43989E+004    1.04513E+005   -5.74831E+004    1.88590E+004
            5136    3.51452E+005    4.76729E+004   -3.47784E+005   -7.11307E+004   -3.47784E+005    3.95457E+005    1.23747E+005   -3.01032E+005   -2.48242E+003   -2.98050E+005   -7.07096E+004    1.20471E+005   -4.16282E+004    3.12557E+004
            5137    4.48094E+005    1.79204E+004   -4.86809E+005   -1.35833E+005   -4.86809E+005    5.04730E+005    2.01574E+005   -3.81592E+005   -7.75137E+004   -3.81158E+005   -1.46050E+005    1.95098E+005   -2.83768E+004    5.19511E+004
            5138    4.07705E+005   -6.21842E+003   -4.68403E+005   -1.59772E+005   -4.68403E+005    4.62185E+005    2.11465E+005   -3.32625E+005   -1.58547E+005   -3.11503E+005   -1.64343E+005    2.03825E+005   -5.80769E+003    7.94687E+004
            5139    2.58928E+005    6.03704E+004   -2.32189E+005   -3.25194E+004   -2.32189E+005    2.92559E+005    6.81125E+004   -2.16370E+005   -9.37735E+003   -2.00379E+005    5.41843E+003    8.24138E+004   -4.87839E+004   -6.93545E+002
            5140    2.97128E+005    3.51076E+004   -2.94667E+005   -4.77957E+004   -2.94667E+005    3.29775E+005    1.02452E+005   -2.69205E+005   -3.58054E+003   -2.57819E+005   -4.59552E+004    9.63639E+004   -3.15252E+004    2.43970E+004
            5141    3.87905E+005    2.59598E+004   -4.09268E+005   -9.99884E+004   -4.09268E+005    4.35228E+005    1.61099E+005   -3.37074E+005   -5.24285E+004   -3.21249E+005   -1.09619E+005    1.64922E+005   -2.09947E+004    4.96287E+004
            5142    3.64315E+005   -8.44989E+003   -4.20003E+005   -1.38770E+005   -4.20003E+005    4.11553E+005    1.89074E+005   -3.04835E+005   -1.37812E+005   -2.87376E+005   -1.42035E+005    1.77665E+005   -3.84683E+003    7.35552E+004
            5143    3.42940E+005    7.63557E+003   -3.80334E+005   -1.17662E+005   -3.80334E+005    3.87969E+005    1.63453E+005   -2.84132E+005   -1.18655E+005   -2.52364E+005   -1.19341E+005    1.57571E+005   -1.73560E+003    9.18806E+004
            5144    3.41434E+005   -1.87966E+004   -3.91600E+005   -9.41112E+004   -3.91600E+005    3.72803E+005    1.68169E+005   -3.21938E+005   -1.26719E+005   -3.04307E+005   -7.34813E+004    1.33447E+005    7.38450E+002    8.02597E+004
            5145    3.66939E+005    1.21324E+004   -3.86441E+005   -6.26594E+004   -3.86441E+005    3.98573E+005    1.45656E+005   -3.49166E+005   -5.02919E+004   -3.17077E+005   -6.95987E+004    1.41145E+005   -1.05016E+004    5.21272E+004
            5146    3.11029E+005    4.26515E+004   -2.87766E+005   -6.67483E+002   -2.87766E+005    3.30417E+005    8.19272E+004   -3.04130E+005   -1.40036E+004   -2.30938E+005   -8.40590E+002    1.24485E+005   -2.37682E+003    6.90890E+003
            5147    2.56882E+005    4.41900E+004   -2.36531E+005   -1.31937E+004   -2.36531E+005    2.80721E+005    6.85114E+004   -2.41822E+005    6.98901E+003   -2.08152E+005   -4.37146E+003    8.29263E+004   -2.14427E+004   -1.62958E+003
            5148    2.03931E+005    3.86291E+004   -1.85016E+005   -9.35916E+003   -1.85016E+005    2.23645E+005    5.19155E+004   -1.90596E+005    4.30248E+003   -1.52100E+005   -7.94909E+003    7.88994E+004   -8.43921E+003   -1.03335E+003
            5149    2.04450E+005    4.28278E+004   -1.86747E+005   -2.42987E+004   -1.86747E+005    2.29575E+005    5.60726E+004   -1.76983E+005   -7.82365E+003   -1.58870E+005   -1.52351E+003    7.04668E+004   -3.12217E+004   -7.57971E+003
            5150    1.82751E+005    3.67294E+004   -1.61940E+005   -9.95577E+002   -1.61940E+005    1.98669E+005    4.20687E+004   -1.73663E+005   -3.32688E+003   -1.26415E+005    3.53550E+003    7.49149E+004   -9.34471E+003   -9.25144E+003
            5151    1.45436E+005    3.17968E+004   -1.26756E+005    4.52908E+002   -1.26756E+005    1.58552E+005    3.15020E+004   -1.37525E+005    5.59651E+003   -1.05374E+005    5.27199E+003    5.30925E+004   -9.41540E+003   -7.08556E+003
            5152    1.17704E+005    1.59546E+004   -1.09052E+005   -3.52661E+002   -1.09052E+005    1.25007E+005    3.11502E+004   -1.15121E+005   -6.60757E+003   -9.26548E+004    5.81192E+003    4.09635E+004   -7.84081E+003   -1.70066E+003
            5153    1.64000E+005    6.38238E+004   -1.23765E+005   -7.52411E+003   -1.23765E+005    1.87589E+005    2.24884E+004   -1.20872E+005    1.26618E+004   -1.09116E+005    2.89890E+004    4.46518E+004   -3.32362E+004   -1.31150E+004
            5154    1.13436E+005    3.86150E+004   -9.06191E+004   -7.52116E+003   -9.06191E+004    1.29234E+005    1.98418E+004   -8.82872E+004   -1.32451E+003   -7.80478E+004    1.98470E+004    3.19380E+004   -2.47370E+004    2.05883E+003
            5155    1.37213E+005    6.70084E+004   -9.08283E+004    5.53769E+001   -9.08283E+004    1.57837E+005    7.92151E+003   -8.74589E+004    2.95634E+003   -7.27734E+004    4.60525E+004    2.87243E+004   -3.63654E+004    2.25757E+004
            5156    1.95532E+005    7.73514E+004   -1.46666E+005   -1.02705E+004   -1.46666E+005    2.24018E+005    2.65284E+004   -1.39917E+005   -3.23508E+003   -1.27229E+005    5.08787E+004    4.34349E+004   -4.60725E+004    1.99356E+004
            5157    3.53412E+005    3.55775E+005    3.55775E+005    6.54927E+004   -3.77644E+004    3.93540E+005   -1.27835E+005    3.16712E+005    6.11461E+004    2.89643E+005    3.27147E+004    1.32166E+005   -6.33835E+004   -1.75879E+004
            5158    4.18006E+005    4.50383E+005    4.50383E+005    1.08622E+005   -1.56726E+004    4.66055E+005   -1.81111E+005    3.72902E+005    1.04815E+005    3.66514E+005    7.20036E+004    1.64190E+005   -7.13016E+004   -1.22744E+004
            5159    4.87355E+005    5.60346E+005    5.60346E+005    1.60519E+005    1.74770E+004    5.42869E+005   -2.46114E+005    4.36240E+005    1.60009E+005    4.54191E+005    1.24143E+005    2.01219E+005   -7.63596E+004   -7.61434E+003
            5160    5.58955E+005    6.75165E+005    6.75165E+005    2.16271E+005    5.26619E+004    6.22503E+005   -3.14699E+005    5.00680E+005    2.20269E+005    5.41347E+005    1.82482E+005    2.44376E+005   -7.42645E+004    4.98649E+003
            5161    5.32431E+005    6.34172E+005    6.34172E+005    1.97975E+005    4.08637E+004    5.93308E+005   -2.91003E+005    4.75934E+005    1.80766E+005    4.88540E+005    2.03704E+005    2.49567E+005   -3.38663E+004   -4.08216E+004
            5162    5.12489E+005    6.52748E+005    6.52748E+005    2.40884E+005    7.88209E+004    5.73927E+005   -3.24151E+005    4.49166E+005    2.26915E+005    4.97900E+005    2.47638E+005    2.44028E+005   -1.10509E+004   -7.16070E+004
            5163    4.74705E+005    5.37903E+005    5.37903E+005    1.58589E+005    5.55759E+003    5.32346E+005   -2.34017E+005    4.13487E+005    1.33646E+005    4.02656E+005    1.65748E+005    2.24092E+005   -3.95216E+004   -4.18170E+004
            5164    4.53411E+005    5.54054E+005    5.54054E+005    1.96837E+005    4.39657E+004    5.10088E+005   -2.64952E+005    3.88745E+005    1.83814E+005    4.05567E+005    2.05475E+005    2.19329E+005   -1.25963E+004   -7.29157E+004
            5165    4.18704E+005    4.52172E+005    4.52172E+005    1.21319E+005   -1.85662E+004    4.70738E+005   -1.84975E+005    3.60207E+005    9.54274E+004    3.29919E+005    1.29577E+005    1.97303E+005   -4.16259E+004   -4.15690E+004
            5166    3.95815E+005    4.59642E+005    4.59642E+005    1.54354E+005    1.24317E+004    4.47210E+005   -2.08809E+005    3.30839E+005    1.43110E+005    3.18776E+005    1.64542E+005    1.93516E+005   -1.28575E+004   -7.36574E+004
            5167    3.52925E+005    3.55727E+005    3.55727E+005    8.03323E+004   -4.21133E+004    3.97841E+005   -1.31315E+005    2.99210E+005    5.67322E+004    2.49897E+005    8.73173E+004    1.67558E+005   -3.82638E+004   -3.46279E+004
            5168    3.43877E+005    3.86828E+005    3.86828E+005    1.22675E+005   -1.99571E+003    3.88823E+005   -1.69169E+005    2.85961E+005    1.16145E+005    2.60453E+005    1.30909E+005    1.69419E+005   -1.03684E+004   -6.55973E+004
            5169    3.05700E+005    3.24285E+005    3.24285E+005    9.12694E+004   -2.18541E+004    3.46139E+005   -1.31233E+005    2.51693E+005    8.98512E+004    2.06061E+005    9.77875E+004    1.46936E+005   -6.50072E+003   -7.28228E+004
            5170    2.85981E+005    3.09802E+005    3.09802E+005    6.32360E+004   -3.71490E+003    3.13517E+005   -1.23108E+005    2.67482E+005    8.92001E+004    2.22667E+005    5.74563E+004    1.24805E+005   -2.44310E+003   -6.31942E+004
            5171    3.13242E+005    3.09460E+005    3.09460E+005    4.43508E+004   -3.61868E+004    3.45647E+005   -1.05875E+005    2.88536E+005    5.00432E+004    2.16637E+005    5.09438E+004    1.47506E+005   -2.37951E+004   -3.43679E+004
            5172    2.67768E+005    2.29192E+005    2.29192E+005   -2.67925E+003   -6.38786E+004    2.93070E+005   -5.42112E+004    2.51300E+005    2.54048E+004    1.39842E+005   -2.61258E+003    1.34780E+005   -5.03365E+003   -3.62998E+003
            5173    2.38420E+005    2.01125E+005    2.01125E+005    1.29592E+004   -6.69963E+004    2.68121E+005   -4.90293E+004    2.04825E+005   -1.05813E+003    1.36994E+005    1.11519E+004    1.13854E+005   -1.11471E+004    4.50808E+003
            5174    1.80851E+005    1.46047E+005    1.46047E+005   -2.98588E+003   -5.51537E+004    2.01201E+005   -2.93026E+004    1.62586E+005   -6.98606E+003    1.04234E+005   -9.34061E+003    7.99902E+004   -1.48841E+004    8.36257E+003
            5175    1.54311E+005    1.37910E+005    1.37910E+005    3.88422E+003   -3.07875E+004    1.68698E+005   -3.70023E+004    1.45154E+005    5.56095E+003    1.04709E+005    7.37507E+002    6.61668E+004   -1.06681E+004    1.25176E+003
            5176    1.07748E+005    9.41947E+004    9.41947E+004   -3.67337E+003   -2.12683E+004    1.15463E+005   -2.30843E+004    1.04443E+005   -3.62119E+003    7.95041E+004   -6.62988E+003    3.73552E+004   -8.62747E+003   -3.22546E+003
            5177    2.68971E+005    2.36754E+005    2.36754E+005    2.95532E+004   -6.72116E+004    3.03966E+005   -6.63652E+004    2.24474E+005    4.06601E+002    1.84249E+005    1.44401E+004    1.11133E+005   -3.48076E+004    9.01489E+003
            5178    1.86214E+005    1.51045E+005    1.51045E+005    1.32095E+004   -6.07953E+004    2.11840E+005   -3.44864E+004    1.47208E+005   -5.94238E+003    1.20566E+005   -1.11643E+004    6.79854E+004   -3.68947E+004    3.35911E+003
            5179    1.50273E+005    1.23968E+005    1.23968E+005    6.22535E+003   -4.52871E+004    1.69255E+005   -2.83020E+004    1.28020E+005   -1.33570E+002    9.54984E+004   -1.04589E+004    5.69317E+004   -2.92897E+004   -3.88059E+003
            5180    9.97221E+004    8.06596E+004    8.06596E+004   -1.65086E+003   -3.02325E+004    1.10892E+005   -1.62587E+004    8.97899E+004   -7.06117E+003    6.46434E+004   -8.80600E+003    2.99771E+004   -2.08866E+004   -1.49462E+004
            5181    1.09494E+005    7.97025E+004    7.97025E+004    6.80997E+002   -4.52809E+004    1.24983E+005   -1.17009E+004    8.32253E+004    2.82834E+003    5.47871E+004   -2.25129E+004    2.42188E+004   -3.15661E+004   -2.93336E+004
            5182    1.63248E+005    1.24876E+005    1.24876E+005    6.96341E+003   -6.14471E+004    1.86324E+005   -2.34642E+004    1.24251E+005    9.22649E+003    9.37297E+004   -3.25636E+004    4.30987E+004   -4.51663E+004   -2.90911E+004
            5183    2.12476E+005    1.69431E+005    1.69431E+005    1.59897E+004   -7.30840E+004    2.42515E+005   -3.74456E+004    1.61669E+005    1.54772E+004    1.34241E+005   -3.73814E+004    6.17179E+004   -5.49707E+004   -2.21870E+004
            5184    2.94299E+005    2.68582E+005    2.68582E+005    3.17198E+004   -6.08803E+004    3.29462E+005   -7.98072E+004    2.58338E+005    3.13066E+004    2.21964E+005   -1.38486E+004    9.57221E+004   -5.95600E+004   -2.22367E+004
            5185    5.68730E+005    7.52744E+005    7.52744E+005    2.86081E+005    1.19260E+005    6.33485E+005   -3.86028E+005    5.09163E+005    2.72493E+005    5.95512E+005    2.90081E+005    2.66576E+005   -8.41713E+003   -6.07806E+004
            5186    5.84098E+005    7.25007E+005    7.25007E+005    2.36314E+005    7.81011E+004    6.46906E+005   -3.46474E+005    5.32599E+005    2.29081E+005    5.70643E+005    2.39698E+005    2.72385E+005   -2.60454E+004   -3.36783E+004
            5187    6.28639E+005    7.95339E+005    7.95339E+005    2.78069E+005    9.56710E+004    6.99668E+005   -3.89693E+005    5.64338E+005    2.87013E+005    6.28701E+005    2.53365E+005    2.90179E+005   -6.48237E+004    1.40219E+004
            5188    6.13080E+005    8.34245E+005    8.34245E+005    3.23406E+005    1.54386E+005    6.79859E+005   -4.37346E+005    5.56936E+005    3.10486E+005    6.76536E+005    3.25015E+005    2.83777E+005   -5.17337E+003   -4.20794E+004
            5189    6.25793E+005    8.01987E+005    8.01987E+005    2.70106E+005    1.12438E+005    6.89549E+005   -3.94844E+005    5.78519E+005    2.71867E+005    6.41217E+005    2.71447E+005    2.90270E+005   -1.59998E+004   -2.23987E+004
            5190    6.86043E+005    8.98663E+005    8.98663E+005    3.32968E+005    1.35559E+005    7.63105E+005   -4.55730E+005    6.17125E+005    3.45862E+005    6.99997E+005    3.21331E+005    3.31217E+005   -4.50162E+004    1.59129E+004
            5191    6.38029E+005    8.81695E+005    8.81695E+005    3.45645E+005    1.75984E+005    7.05711E+005   -4.67774E+005    5.83957E+005    3.33148E+005    7.24350E+005    3.45826E+005    2.93365E+005   -1.73399E+003   -1.46407E+004
            5192    6.48486E+005    8.45062E+005    8.45062E+005    2.89371E+005    1.32545E+005    7.12517E+005   -4.22326E+005    6.03567E+005    2.96626E+005    6.80824E+005    2.89529E+005    2.99931E+005   -5.32098E+003   -7.92714E+003
            5193    7.20206E+005    9.62586E+005    9.62586E+005    3.67513E+005    1.61947E+005    8.00639E+005   -4.97349E+005    6.49117E+005    3.82831E+005    7.43230E+005    3.65985E+005    3.56599E+005   -1.65484E+004    6.93070E+003
            5194    1.00527E+005    1.08398E+004   -9.58869E+004   -2.99337E+003   -9.58869E+004    1.06727E+005    2.93468E+004   -9.83510E+004   -8.34700E+003   -7.82929E+004   -1.40060E+003    3.85009E+004    7.51419E+003   -4.57057E+003
            5195    9.56071E+004    2.27529E+004   -8.22583E+004   -2.53492E+002   -8.22583E+004    1.05011E+005    1.99196E+004   -8.90539E+004   -2.96520E+003   -6.27384E+004    5.94478E+003    3.20640E+004    1.96434E+004   -1.54274E+004
            5196    1.08198E+005    4.18380E+004   -8.14186E+004   -2.10866E+003   -8.14186E+004    1.23257E+005    1.38964E+004   -8.42905E+004   -6.35730E+003   -5.44250E+004    1.90929E+004    2.41172E+004    3.09013E+004   -3.11750E+004
            5197    6.71351E+004    1.14182E+004   -5.90711E+004    4.11201E+003   -5.90711E+004    7.04894E+004    1.45136E+004   -6.62318E+004    3.29972E+003   -5.07500E+004    3.90943E+003    2.13869E+004    4.46499E+003   -6.33544E+003
            5198    6.43784E+004    1.40876E+004   -5.36381E+004    6.76703E+003   -5.36381E+004    6.77258E+004    1.09278E+004   -6.34319E+004    3.72014E+003   -3.91906E+004    2.68699E+003    1.77284E+004    1.08716E+004   -1.86999E+004
            5199    7.27295E+004    2.72940E+004   -5.48468E+004    1.36422E+003   -5.48468E+004    8.21408E+004    8.72954E+003   -6.09460E+004   -3.04568E+003   -3.11037E+004    7.96074E+003    1.32675E+004    1.78097E+004   -2.93980E+004
            5200    3.29516E+004    7.07111E+002   -3.39241E+004   -2.95846E+003   -3.39241E+004    3.46312E+004    1.20585E+004   -3.24882E+004   -7.13467E+003   -2.54495E+004   -3.59120E+003    1.33929E+004    1.69386E+003   -6.48597E+003
            5201    4.05456E+004    9.79804E+003   -3.49416E+004   -6.25161E+002   -3.49416E+004    4.47397E+004    8.58958E+003   -3.73487E+004   -5.34913E+003   -1.91968E+004   -1.22283E+003    1.13659E+004    4.76324E+003   -1.75348E+004
            5202    5.12512E+004    1.95732E+004   -3.88441E+004   -1.43550E+003   -3.88441E+004    5.84174E+004    6.90214E+003   -3.96661E+004   -4.82442E+003   -1.54023E+004   -4.79666E+002    7.92147E+003    7.48553E+003   -2.64172E+004
            5203    2.27012E+004    1.78638E+004    1.78638E+004    4.11442E+003   -8.33860E+003    2.62024E+004   -4.54655E+003    1.00035E+004    6.24565E+003    3.84566E+003    3.54834E+003    1.14317E+004   -6.04201E+001   -6.23755E+003
            5204    3.40880E+004    2.23289E+004    2.23289E+004    3.37201E+003   -1.70238E+004    3.93527E+004   -2.89237E+003   -1.35839E+004    4.83522E+003    2.65953E+003    1.18236E+003    9.92647E+003   -5.93160E+002   -1.68839E+004
            5205    4.51245E+004    2.73510E+004    2.73510E+004    1.65804E+003   -2.47527E+004    5.21037E+004   -1.41880E+003   -1.29902E+004    1.84543E+003    1.32868E+003    1.08228E+003    6.48954E+003   -2.89963E+002   -2.52268E+004
            5206    4.14151E+004    3.41081E+004    3.41081E+004   -4.77737E+003   -9.44177E+003    4.35499E+004   -6.62965E+003    4.08179E+004   -4.95273E+003    2.84200E+004   -3.57828E+003    1.30217E+004   -2.39581E+003   -6.31243E+003
            5207    4.46554E+004    3.52619E+004    3.52619E+004   -7.68693E+003   -1.09237E+004    4.61857E+004   -5.55042E+003    4.43903E+004   -3.96435E+003    2.18377E+004   -1.22212E+003    1.08027E+004   -5.52116E+003   -1.77955E+004
            5208    5.20967E+004    3.80265E+004    3.80265E+004   -1.71507E+003   -2.09534E+004    5.89799E+004   -5.11935E+003    4.29376E+004    1.43304E+003    1.60302E+004   -2.10516E+003    7.90473E+003   -7.86172E+003   -2.62294E+004
            5209    7.27741E+004    7.22165E+004    7.22165E+004    2.76974E+003   -3.48148E+003    7.56980E+004   -2.38349E+004    7.21663E+004    8.77375E+003    5.95169E+004    3.21411E+003    2.71600E+004   -4.65167E+003   -6.58932E+003
            5210    7.01666E+004    6.32688E+004    6.32688E+004   -2.57297E+003   -1.05422E+004    7.38110E+004   -1.67179E+004    6.91375E+004    5.49817E+003    4.55284E+004   -8.73004E+002    2.28517E+004   -1.24478E+004   -1.82012E+004
            5211    7.49845E+004    5.96070E+004    5.96070E+004    1.04234E+003   -2.49049E+004    8.45119E+004   -1.19148E+004    6.36399E+004    6.77806E+003    3.44568E+004   -5.49046E+003    1.48439E+004   -1.85861E+004   -2.98279E+004
            5212    6.28719E+005    7.95278E+005    7.95278E+005    2.77998E+005    9.54989E+004    6.99779E+005   -3.89592E+005    5.64350E+005    2.86890E+005    6.28653E+005    2.53231E+005    2.90188E+005    6.48718E+004   -1.41018E+004
            5213    5.84325E+005    7.25293E+005    7.25293E+005    2.36334E+005    7.81667E+004    6.47126E+005   -3.46598E+005    5.32881E+005    2.29025E+005    5.70990E+005    2.39778E+005    2.72390E+005    2.57800E+004    3.40305E+004
            5214    5.69418E+005    7.54089E+005    7.54089E+005    2.86777E+005    1.19869E+005    6.34220E+005   -3.86911E+005    5.09868E+005    2.73175E+005    5.96828E+005    2.90732E+005    2.66870E+005    8.36282E+003    6.05262E+004
            5215    6.86149E+005    8.98893E+005    8.98893E+005    3.33228E+005    1.35626E+005    7.63267E+005   -4.55916E+005    6.17096E+005    3.45918E+005    7.00113E+005    3.21716E+005    3.31371E+005    4.47415E+004   -1.59471E+004
            5216    6.25492E+005    8.01372E+005    8.01372E+005    2.69563E+005    1.12236E+005    6.89136E+005   -3.94390E+005    5.78409E+005    2.71359E+005    6.40904E+005    2.70908E+005    2.89964E+005    1.59336E+004    2.24354E+004
            5217    6.13337E+005    8.34752E+005    8.34752E+005    3.23684E+005    1.54613E+005    6.80139E+005   -4.37683E+005    5.57183E+005    3.10739E+005    6.77032E+005    3.25278E+005    2.83905E+005    5.16695E+003    4.17877E+004
            5218    7.20291E+005    9.62778E+005    9.62778E+005    3.67650E+005    1.62037E+005    8.00741E+005   -4.97489E+005    6.49177E+005    3.82904E+005    7.43350E+005    3.66212E+005    3.56694E+005    1.60969E+004   -6.67738E+003
            5219    6.48223E+005    8.44587E+005    8.44587E+005    2.89028E+005    1.32401E+005    7.12186E+005   -4.22005E+005    6.03405E+005    2.96302E+005    6.80528E+005    2.89186E+005    2.99721E+005    5.61517E+003    7.87353E+003
            5220    6.38001E+005    8.81648E+005    8.81648E+005    3.45700E+005    1.75935E+005    7.05713E+005   -4.67761E+005    5.83855E+005    3.33123E+005    7.24275E+005    3.45884E+005    2.93384E+005    1.77265E+003    1.46218E+004
            5221    3.13854E+005    1.98230E+003   -3.52643E+005   -1.10637E+005   -3.52643E+005    3.54625E+005    1.53766E+005   -2.62242E+005   -1.09020E+005   -2.36220E+005   -1.16057E+005    1.52054E+005    6.01279E+003   -6.75787E+004
            5222    3.50372E+005   -1.99703E+003   -3.98755E+005   -1.31838E+005   -3.98755E+005    3.96758E+005    1.77530E+005   -2.88263E+005   -1.23805E+005   -2.69175E+005   -1.39612E+005    1.70342E+005    7.87534E+003   -7.40274E+004
            5223    3.94279E+005   -2.16246E+004   -4.67150E+005   -1.63233E+005   -4.67150E+005    4.45526E+005    2.17336E+005   -3.29303E+005   -1.51270E+005   -3.29600E+005   -1.71139E+005    1.91792E+005    9.06619E+003   -7.34920E+004
            5224    4.51196E+005   -4.15199E+004   -5.49845E+005   -1.96775E+005   -5.49845E+005    5.08325E+005    2.62713E+005   -3.83802E+005   -1.81699E+005   -4.01934E+005   -2.04507E+005    2.16536E+005    9.05832E+003   -7.88841E+004
            5225    5.10252E+005   -7.46143E+004   -6.47153E+005   -2.40443E+005   -6.47153E+005    5.72539E+005    3.20737E+005   -4.43248E+005   -2.21955E+005   -4.93987E+005   -2.46268E+005    2.42104E+005    7.94636E+003   -7.38135E+004
            5226    3.26506E+005    3.66909E+004   -3.31440E+005   -7.69057E+004   -3.31440E+005    3.68131E+005    1.23885E+005   -2.76493E+005   -7.27728E+004   -2.13296E+005   -8.55862E+004    1.64695E+005    1.90675E+004   -4.48399E+004
            5227    3.66076E+005    2.24553E+004   -3.91042E+005   -1.08287E+005   -3.91042E+005    4.13497E+005    1.58958E+005   -3.06527E+005   -9.76675E+004   -2.60682E+005   -1.18524E+005    1.84070E+005    2.37545E+004   -4.85294E+004
            5228    4.09353E+005    1.22086E+004   -4.50266E+005   -1.34424E+005   -4.50266E+005    4.62475E+005    1.90827E+005   -3.42307E+005   -1.21294E+005   -3.05127E+005   -1.46061E+005    2.05349E+005    2.61531E+004   -5.52522E+004
            5229    4.59551E+005   -1.52168E+004   -5.31703E+005   -1.68017E+005   -5.31703E+005    5.16486E+005    2.38312E+005   -3.96034E+005   -1.57808E+005   -3.78981E+005   -1.78147E+005    2.27215E+005    2.51432E+004   -5.65036E+004
            5230    5.08920E+005   -4.59038E+004   -6.14847E+005   -2.02989E+005   -6.14847E+005    5.68943E+005    2.87913E+005   -4.49317E+005   -1.96606E+005   -4.56259E+005   -2.10875E+005    2.47818E+005    2.11724E+004   -5.62593E+004
            5231    3.36164E+005    4.50174E+004   -3.31543E+005   -6.16653E+004   -3.31543E+005    3.76560E+005    1.16064E+005   -2.94300E+005   -3.87624E+004   -2.45945E+005   -6.34835E+004    1.51418E+005    3.61058E+004   -2.51592E+004
            5232    3.86113E+005    4.41486E+004   -3.91080E+005   -8.97109E+004   -3.91080E+005    4.35229E+005    1.45548E+005   -3.27447E+005   -5.55714E+004   -2.87082E+005   -9.39893E+004    1.76705E+005    4.46634E+004   -3.28932E+004
            5233    4.51871E+005    2.21672E+004   -4.85634E+005   -1.27856E+005   -4.85634E+005    5.07802E+005    1.97108E+005   -3.89625E+005   -9.40374E+004   -3.63034E+005   -1.34252E+005    2.07699E+005    4.71848E+004   -4.05483E+004
            5234    5.13192E+005   -1.76584E+003   -5.77086E+005   -1.66460E+005   -5.77086E+005    5.75321E+005    2.48438E+005   -4.47672E+005   -1.37430E+005   -4.35143E+005   -1.72740E+005    2.39903E+005    4.50271E+004   -4.18563E+004
            5235    5.76065E+005   -4.08225E+004   -6.82884E+005   -2.11290E+005   -6.82884E+005    6.42061E+005    3.11666E+005   -5.14560E+005   -1.94051E+005   -5.24793E+005   -2.16153E+005    2.70883E+005    3.87076E+004   -3.93919E+004
            5236    2.74408E+005    6.20931E+004   -2.46503E+005   -2.99434E+004   -2.46503E+005    3.08596E+005    7.14510E+004   -2.35731E+005   -6.14237E+003   -1.99269E+005   -8.94200E+003    1.01904E+005    4.86533E+004   -9.66792E+003
            5237    3.39876E+005    4.20219E+004   -3.37529E+005   -6.13177E+004   -3.37529E+005    3.79551E+005    1.18942E+005   -3.01367E+005   -3.42895E+004   -2.74910E+005   -4.76250E+004    1.27648E+005    5.70737E+004   -2.57804E+004
            5238    4.03064E+005    2.71782E+004   -4.22805E+005   -9.48744E+004   -4.22805E+005    4.49984E+005    1.63501E+005   -3.57804E+005   -6.29641E+004   -3.45589E+005   -8.19482E+004    1.58257E+005    5.98365E+004   -2.38820E+004
            5239    4.73644E+005   -5.04343E+003   -5.31794E+005   -1.40987E+005   -5.31794E+005    5.26751E+005    2.25941E+005   -4.26326E+005   -1.10442E+005   -4.35258E+005   -1.32124E+005    1.94081E+005    5.89335E+004   -2.57201E+004
            5240    5.43827E+005   -3.51198E+004   -6.39222E+005   -1.88700E+005   -6.39222E+005    6.04102E+005    2.87681E+005   -4.91370E+005   -1.61678E+005   -5.21364E+005   -1.79999E+005    2.33151E+005    5.39995E+004   -1.63460E+004
            5241    5.26787E+005   -4.26056E+004   -6.32139E+005   -2.07593E+005   -6.32139E+005    5.89533E+005    2.94113E+005   -4.63073E+005   -2.13776E+005   -5.19256E+005   -1.49305E+005    2.15840E+005    8.13941E+004    1.52806E+004
            5242    4.58223E+005    8.51969E+002   -5.13719E+005   -1.49752E+005   -5.13719E+005    5.14571E+005    2.20873E+005   -3.96516E+005   -1.55518E+005   -4.27070E+005   -8.00305E+004    1.72803E+005    8.25070E+004    2.89740E+003
            5243    3.95241E+005    2.49295E+004   -4.19373E+005   -1.06879E+005   -4.19373E+005    4.44303E+005    1.67108E+005   -3.40247E+005   -1.13193E+005   -3.50320E+005   -3.78103E+004    1.38245E+005    7.86355E+004   -1.34590E+004
            5244    3.39645E+005    5.46381E+004   -3.29230E+005   -6.77062E+004   -3.29230E+005    3.83868E+005    1.14099E+005   -2.83291E+005   -7.29158E+004   -2.74005E+005    4.62329E+003    1.11462E+005    7.15992E+004   -1.49027E+004
            5245    2.74963E+005    6.07982E+004   -2.50974E+005   -4.30951E+004   -2.50974E+005    3.11772E+005    7.77569E+004   -2.23940E+005   -4.60161E+004   -2.05170E+005    1.79154E+004    8.78947E+004    6.28778E+004   -1.80290E+004
            5246    2.19171E+005    7.18406E+004   -1.77950E+005   -1.78475E+004   -1.77950E+005    2.49791E+005    4.13190E+004   -1.69839E+005   -1.80015E+004   -1.42277E+005    3.63211E+004    6.23887E+004    5.56547E+004   -2.53015E+004
            5247    1.56131E+005    6.41968E+004   -1.14545E+005   -4.79240E+003   -1.14545E+005    1.78742E+005    1.83803E+004   -1.13358E+005   -5.55752E+003   -8.60363E+004    3.64530E+004    3.87643E+004    4.38766E+004   -2.86984E+004
            5248    1.35437E+005    4.56081E+004   -1.07389E+005   -2.83597E+003   -1.07389E+005    1.52997E+005    2.15389E+004   -1.13328E+005    8.16687E+003   -8.65397E+004    1.37562E+004    4.54103E+004    2.86936E+004   -7.23116E+003
            5249    1.38396E+005    3.36587E+004   -1.17383E+005    3.33891E+003   -1.17383E+005    1.51042E+005    2.67951E+004   -1.30605E+005    4.77521E+003   -9.31788E+004    8.01828E+003    5.42680E+004    1.13644E+004    1.59543E+003
            5250    1.89266E+005    5.79429E+004   -1.57078E+005   -1.57145E+004   -1.57078E+005    2.15021E+005    3.82831E+004   -1.51580E+005   -8.41102E+002   -1.21943E+005    7.93442E+003    7.30476E+004    3.62674E+004    4.55555E+003
            5251    1.78753E+005    4.56829E+004   -1.53097E+005   -5.56393E+003   -1.53097E+005    1.98780E+005    3.76593E+004   -1.60940E+005   -2.75005E+003   -1.08864E+005   -1.36434E+003    8.15341E+004    1.30415E+004    5.48005E+003
            5252    2.03983E+005    6.30418E+004   -1.64526E+005    1.87633E+003   -1.64526E+005    2.27567E+005    3.32025E+004   -1.81565E+005    7.57390E+003   -1.12755E+005    5.57372E+003    9.43861E+004    1.23805E+004    7.75592E+003
            5253    2.53792E+005    6.77768E+004   -2.17135E+005   -1.52714E+004   -2.17135E+005    2.84912E+005    5.48766E+004   -2.19950E+005   -8.11063E+003   -1.41748E+005   -1.47712E+004    1.25459E+005    7.67052E+003    4.60445E+002
            5254    2.72513E+005    5.75776E+004   -2.37668E+005    4.21986E+003   -2.37668E+005    2.95246E+005    5.86236E+004   -2.60369E+005   -3.49699E+004   -1.45070E+005    4.16875E+003    1.36593E+005    1.89931E+003   -1.02775E+004
            5255    2.91328E+005   -2.37531E+003   -3.21700E+005   -7.04100E+004   -3.21700E+005    3.19325E+005    1.31495E+005   -2.72581E+005   -9.69802E+004   -2.38822E+005   -5.86832E+004    1.21301E+005    8.38782E+001   -6.76077E+004
            5256    2.26038E+005    5.94811E+004   -1.95767E+005   -2.09264E+004   -1.95767E+005    2.55248E+005    5.24042E+004   -1.89605E+005   -2.47497E+001   -1.51660E+005   -5.52813E+003    9.18173E+004    3.46196E+004    2.41075E+003
            5257    2.95235E+005    5.68472E+004   -2.70669E+005   -2.49756E+004   -2.70669E+005    3.27516E+005    7.95992E+004   -2.67890E+005   -1.86270E+004   -1.99340E+005   -2.08300E+004    1.33329E+005    2.27842E+004   -2.00918E+003
            5258    3.10769E+005    3.02137E+004   -3.11578E+005   -4.60195E+004   -3.11578E+005    3.41792E+005    1.09128E+005   -2.88585E+005   -6.69419E+004   -2.10146E+005   -5.02965E+004    1.48672E+005    1.02003E+004   -4.75629E+004
            5259    2.95447E+005    2.25076E+004   -3.12764E+005   -9.05044E+004   -3.12764E+005    3.35272E+005    1.26920E+005   -2.39002E+005   -9.05460E+004   -1.96926E+005   -9.32886E+004    1.37226E+005    2.39387E+003   -8.11299E+004
            5260    3.43547E+005    3.86530E+005    3.86530E+005    1.22827E+005   -1.97349E+003    3.88504E+005   -1.69128E+005    2.85418E+005    1.16146E+005    2.60225E+005    1.31013E+005    1.69316E+005    1.02847E+004    6.54869E+004
            5261    3.96056E+005    4.60095E+005    4.60095E+005    1.54600E+005    1.26185E+004    4.47476E+005   -2.09105E+005    3.31068E+005    1.43369E+005    3.19162E+005    1.64783E+005    1.93607E+005    1.28339E+004    7.37506E+004
            5262    4.54852E+005    5.56725E+005    5.56725E+005    1.98082E+005    4.51065E+004    5.11619E+005   -2.66638E+005    3.90344E+005    1.85157E+005    4.08094E+005    2.06663E+005    2.19920E+005    1.25547E+004    7.29234E+004
            5263    5.14073E+005    6.55602E+005    6.55602E+005    2.42182E+005    7.99964E+004    5.75606E+005   -3.25927E+005    4.50883E+005    2.28260E+005    5.00654E+005    2.48866E+005    2.44683E+005    1.10102E+004    7.13872E+004
            5264    3.53078E+005    3.55834E+005    3.55834E+005    8.03781E+004   -4.21967E+004    3.98030E+005   -1.31338E+005    2.99263E+005    5.67493E+004    2.49899E+005    8.73671E+004    1.67653E+005    3.83508E+004    3.46378E+004
            5265    4.19374E+005    4.53192E+005    4.53192E+005    1.21909E+005   -1.83302E+004    4.71522E+005   -1.85590E+005    3.60660E+005    9.59895E+004    3.30638E+005    1.30143E+005    1.97725E+005    4.16500E+004    4.15201E+004
            5266    4.75622E+005    5.39161E+005    5.39161E+005    1.59167E+005    5.76922E+003    5.33391E+005   -2.34699E+005    4.14222E+005    1.34203E+005    4.03534E+005    1.66360E+005    2.24608E+005    3.95028E+004    4.19353E+004
            5267    5.33244E+005    6.35494E+005    6.35494E+005    1.98700E+005    4.12549E+004    5.94239E+005   -2.91816E+005    4.76587E+005    1.81318E+005    4.89700E+005    2.04431E+005    2.49972E+005    3.35320E+004    4.08757E+004
            5268    5.58413E+005    6.74258E+005    6.74258E+005    2.16003E+005    5.22866E+004    6.21972E+005   -3.14183E+005    4.99988E+005    2.19877E+005    5.40678E+005    1.81993E+005    2.44014E+005    7.44275E+004   -5.05597E+003
            5269    4.87079E+005    5.60087E+005    5.60087E+005    1.60459E+005    1.75360E+004    5.42551E+005   -2.46028E+005    4.36024E+005    1.59907E+005    4.53950E+005    1.24226E+005    2.01109E+005    7.63779E+004    7.83667E+003
            5270    4.17924E+005    4.50364E+005    4.50364E+005    1.08577E+005   -1.55666E+004    4.65931E+005   -1.81125E+005    3.72930E+005    1.04715E+005    3.66419E+005    7.22398E+004    1.64308E+005    7.11245E+004    1.22616E+004
            5271    3.54121E+005    3.56733E+005    3.56733E+005    6.57536E+004   -3.75524E+004    3.94286E+005   -1.28312E+005    3.17469E+005    6.13005E+004    2.90374E+005    3.32599E+004    1.32594E+005    6.33509E+004    1.76377E+004
            5272    2.94675E+005    2.68928E+005    2.68928E+005    3.17603E+004   -6.09550E+004    3.29883E+005   -7.99110E+004    2.58671E+005    3.14743E+004    2.22206E+005   -1.39467E+004    9.58426E+004    5.96558E+004    2.23235E+004
            5273    2.12090E+005    1.69148E+005    1.69148E+005    1.59908E+004   -7.29279E+004    2.42076E+005   -3.74036E+004    1.61366E+005    1.54982E+004    1.34021E+005   -3.73081E+004    6.15936E+004    5.48704E+004    2.21642E+004
            5274    1.62809E+005    1.24620E+005    1.24620E+005    6.92389E+003   -6.11833E+004    1.85803E+005   -2.34535E+004    1.24088E+005    9.24472E+003    9.35225E+004   -3.24067E+004    4.30457E+004    4.50050E+004    2.90050E+004
            5275    1.09564E+005    7.97107E+004    7.97107E+004    6.24489E+002   -4.53505E+004    1.25061E+005   -1.16616E+004    8.33027E+004    2.74268E+003    5.48531E+004   -2.26111E+004    2.42747E+004    3.15692E+004    2.92528E+004
            5276    9.97982E+004    8.07575E+004    8.07575E+004   -1.55636E+003   -3.02422E+004    1.11000E+005   -1.63196E+004    8.97963E+004   -6.96902E+003    6.46947E+004   -8.76676E+003    2.99950E+004    2.09713E+004    1.49826E+004
            5277    1.08153E+005    9.44912E+004    9.44912E+004   -3.64145E+003   -2.14677E+004    1.15959E+005   -2.31274E+004    1.04771E+005   -3.68135E+003    7.97108E+004   -6.64739E+003    3.75377E+004    8.72862E+003    3.21145E+003
            5278    1.50622E+005    1.24238E+005    1.24238E+005    6.18018E+003   -4.53982E+004    1.69636E+005   -2.83399E+004    1.28371E+005   -6.77692E+001    9.57209E+004   -1.06335E+004    5.70059E+004    2.93951E+004    3.94672E+003
            5279    1.54293E+005    1.37899E+005    1.37899E+005    3.91534E+003   -3.07909E+004    1.68690E+005   -3.70078E+004    1.45115E+005    5.60954E+003    1.04699E+005    7.14628E+002    6.61428E+004    1.07935E+004   -1.19931E+003
            5280    1.86471E+005    1.51259E+005    1.51259E+005    1.31951E+004   -6.08643E+004    2.12123E+005   -3.45300E+004    1.47472E+005   -5.91503E+003    1.20757E+005   -1.12519E+004    6.80172E+004    3.70192E+004   -3.20552E+003
            5281    1.80196E+005    1.45587E+005    1.45587E+005   -3.05105E+003   -5.48305E+004    2.00417E+005   -2.92350E+004    1.62148E+005   -6.91209E+003    1.04076E+005   -9.45860E+003    7.95616E+004    1.48936E+004   -8.31884E+003
            5282    2.69218E+005    2.37053E+005    2.37053E+005    2.96767E+004   -6.71965E+004    3.04249E+005   -6.65110E+004    2.24659E+005    4.69164E+002    1.84521E+005    1.45427E+004    1.11215E+005    3.48634E+004   -8.99996E+003
            5283    2.37764E+005    2.00600E+005    2.00600E+005    1.30064E+004   -6.68006E+004    2.67401E+005   -4.89353E+004    2.04194E+005   -1.12337E+003    1.36767E+005    1.11627E+004    1.13461E+005    1.12301E+004   -4.57046E+003
            5284    2.67732E+005    2.28869E+005    2.28869E+005   -2.90978E+003   -6.41918E+004    2.93061E+005   -5.39224E+004    2.51215E+005    2.50074E+004    1.39622E+005   -2.86192E+003    1.34736E+005    5.06472E+003    3.41448E+003
            5285    2.85831E+005    3.09517E+005    3.09517E+005    6.30989E+004   -3.84404E+003    3.13361E+005   -1.22924E+005    2.67326E+005    8.89990E+004    2.22449E+005    5.73246E+004    1.24848E+005    2.37422E+003    6.29348E+004
            5286    3.13118E+005    3.09329E+005    3.09329E+005    4.44003E+004   -3.62136E+004    3.45542E+005   -1.05838E+005    2.88351E+005    4.99740E+004    2.16589E+005    5.09527E+004    1.47460E+005    2.37642E+004    3.42392E+004
            5287    3.05382E+005    3.23882E+005    3.23882E+005    9.11338E+004   -2.19028E+004    3.45785E+005   -1.31038E+005    2.51397E+005    8.97074E+004    2.05780E+005    9.76261E+004    1.46809E+005    6.47672E+003    7.27032E+004
            5288    5.93020E+005   -8.60881E+004   -7.48827E+005   -2.68274E+005   -7.48827E+005    6.62739E+005    3.67730E+005   -5.24282E+005   -2.73609E+005   -6.01742E+005   -2.27837E+005    2.64156E+005    7.10899E+004    2.82270E+004
            5289    6.10984E+005   -7.40736E+004   -7.51212E+005   -2.41134E+005   -7.51212E+005    6.77138E+005    3.55473E+005   -5.56015E+005   -2.21054E+005   -6.09816E+005   -2.35549E+005    2.71654E+005    4.41363E+004   -1.09387E+004
            5290    6.31693E+005   -8.02751E+004   -7.80750E+005   -2.54339E+005   -7.80750E+005    7.00475E+005    3.71788E+005   -5.73907E+005   -2.50334E+005   -6.07780E+005   -2.57251E+005    2.98840E+005    2.97903E+004   -3.22192E+004
            5291    5.57763E+005   -8.47782E+004   -7.03996E+005   -2.41002E+005   -7.03996E+005    6.19218E+005    3.43259E+005   -5.04911E+005   -2.39869E+005   -5.44191E+005   -2.45716E+005    2.66213E+005    1.62733E+004   -4.77160E+004
            5292    5.69459E+005   -1.09069E+005   -7.45594E+005   -2.84463E+005   -7.45594E+005    6.36524E+005    3.79709E+005   -5.03082E+005   -2.62689E+005   -5.88212E+005   -2.88225E+005    2.66530E+005    6.06241E+003   -6.52035E+004
            5293    6.51401E+005   -1.33616E+005   -8.59839E+005   -3.27101E+005   -8.59839E+005    7.26223E+005    4.40185E+005   -5.81280E+005   -3.33072E+005   -6.78041E+005   -3.09443E+005    3.09426E+005    5.01221E+004    2.47694E+004
            5294    6.65356E+005   -1.06629E+005   -8.43035E+005   -2.85153E+005   -8.43035E+005    7.36406E+005    4.11606E+005   -6.07873E+005   -2.72009E+005   -6.80607E+005   -2.82201E+005    3.03924E+005    2.97846E+004   -3.46079E+003
            5295    6.78961E+005   -1.18600E+005   -8.67901E+005   -2.93504E+005   -8.67901E+005    7.49301E+005    4.26668E+005   -6.25190E+005   -3.01877E+005   -6.83540E+005   -2.94588E+005    3.21503E+005    1.91936E+004   -2.07245E+004
            5296    5.98145E+005   -1.18271E+005   -7.78541E+005   -2.72876E+005   -7.78541E+005    6.60270E+005    3.89896E+005   -5.50434E+005   -2.76849E+005   -6.18037E+005   -2.74802E+005    2.81111E+005    1.02078E+004   -3.30760E+004
            5297    6.16016E+005   -1.42366E+005   -8.28529E+005   -3.23086E+005   -8.28529E+005    6.86163E+005    4.31327E+005   -5.51475E+005   -2.99064E+005   -6.70329E+005   -3.24588E+005    2.85654E+005    3.84971E+003   -4.32968E+004
            5298    6.86082E+005   -1.61479E+005   -9.25780E+005   -3.63100E+005   -9.25780E+005    7.64301E+005    4.83453E+005   -6.13929E+005   -3.68778E+005   -7.20810E+005   -3.60770E+005    3.37887E+005    1.80194E+004    1.18524E+004
            5299    6.96102E+005   -1.27790E+005   -8.97708E+005   -3.12806E+005   -8.97708E+005    7.69918E+005    4.46101E+005   -6.37167E+005   -3.03902E+005   -7.21930E+005   -3.12472E+005    3.23002E+005    1.03961E+004   -1.20372E+003
            5300    7.02829E+005   -1.40169E+005   -9.14115E+005   -3.15662E+005   -9.14115E+005    7.73946E+005    4.56649E+005   -6.50737E+005   -3.30699E+005   -7.23465E+005   -3.15781E+005    3.33334E+005    6.72628E+003   -7.07458E+003
            5301    6.20121E+005   -1.39351E+005   -8.21766E+005   -2.92721E+005   -8.21766E+005    6.82414E+005    4.17946E+005   -5.75080E+005   -2.98817E+005   -6.62089E+005   -2.92932E+005    2.88678E+005    3.48466E+003   -1.11166E+004
            5302    6.43066E+005   -1.62629E+005   -8.77615E+005   -3.46543E+005   -8.77615E+005    7.14987E+005    4.62262E+005   -5.79316E+005   -3.20867E+005   -7.19162E+005   -3.46758E+005    2.96478E+005    1.47730E+003   -1.66655E+004
            5303    1.08441E+005    4.20162E+004   -8.15320E+004   -2.11515E+003   -8.15320E+004    1.23548E+005    1.38770E+004   -8.43638E+004   -6.34964E+003   -5.44639E+004    1.91825E+004    2.41164E+004   -3.09973E+004    3.12877E+004
            5304    9.51514E+004    2.24872E+004   -8.19707E+004   -2.42493E+002   -8.19707E+004    1.04458E+005    1.99086E+004   -8.87294E+004   -3.00538E+003   -6.25483E+004    5.82774E+003    3.19116E+004   -1.94726E+004    1.54041E+004
            5305    9.96717E+004    1.05526E+004   -9.52358E+004   -3.08528E+003   -9.52358E+004    1.05788E+005    2.92562E+004   -9.75394E+004   -8.41910E+003   -7.77916E+004   -1.55775E+003    3.81579E+004   -7.44131E+003    4.64214E+003
            5306    7.26015E+004    2.72312E+004   -5.47590E+004    1.37482E+003   -5.47590E+004    8.19902E+004    8.71766E+003   -6.08679E+004   -3.03329E+003   -3.10316E+004    7.91189E+003    1.32261E+004   -1.77316E+004    2.93985E+004
            5307    6.42220E+004    1.40453E+004   -5.34830E+004    6.82193E+003   -5.34830E+004    6.75283E+004    1.08719E+004   -6.32984E+004    3.75850E+003   -3.90487E+004    2.67443E+003    1.76434E+004   -1.08146E+004    1.87306E+004
            5308    6.64471E+004    1.13880E+004   -5.83514E+004    4.22280E+003   -5.83514E+004    6.97394E+004    1.42468E+004   -6.55695E+004    3.40677E+003   -5.01421E+004    3.99479E+003    2.11132E+004   -4.40257E+003    6.33671E+003
            5309    5.11996E+004    1.96036E+004   -3.87731E+004   -1.49073E+003   -3.87731E+004    5.83768E+004    6.88674E+003   -3.94791E+004   -4.82917E+003   -1.53024E+004   -5.28613E+002    7.85790E+003   -7.40331E+003    2.64481E+004
            5310    4.04509E+004    9.86379E+003   -3.48006E+004   -6.32472E+002   -3.48006E+004    4.46644E+004    8.52311E+003   -3.71974E+004   -5.34516E+003   -1.90192E+004   -1.20500E+003    1.13236E+004   -4.75751E+003    1.75401E+004
            5311    3.25467E+004    7.57968E+002   -3.35089E+004   -3.01052E+003   -3.35089E+004    3.42669E+004    1.19205E+004   -3.20503E+004   -7.14769E+003   -2.49731E+004   -3.64065E+003    1.33318E+004   -1.67973E+003    6.45631E+003
            5312    4.51129E+004    2.74802E+004    2.74802E+004    1.68358E+003   -2.46108E+004    5.20911E+004   -1.51766E+003   -1.14964E+004    1.91969E+003    1.51074E+003    1.12256E+003    6.51399E+003    3.84302E+002    2.52121E+004
            5313    3.41721E+004    2.24355E+004    2.24355E+004    3.34754E+003   -1.70162E+004    3.94517E+004   -2.92230E+003   -1.30716E+004    4.82351E+003    2.77487E+003    1.16853E+003    9.94468E+003    6.10265E+002    1.69299E+004
            5314    2.27130E+004    1.81065E+004    1.81065E+004    4.14112E+003   -8.10143E+003    2.62079E+004   -4.71539E+003    1.09989E+004    6.26885E+003    4.29306E+003    3.58425E+003    1.14242E+004    8.05033E+001    6.28542E+003
            5315    5.24199E+004    3.82513E+004    3.82513E+004   -1.71578E+003   -2.11000E+004    5.93513E+004   -5.14519E+003    4.31743E+004    1.45746E+003    1.61922E+004   -2.21404E+003    7.92307E+003    8.04215E+003    2.63363E+004
            5316    4.48297E+004    3.53967E+004    3.53967E+004   -7.74461E+003   -1.09494E+004    4.63461E+004   -5.56754E+003    4.45709E+004   -3.99949E+003    2.19510E+004   -1.24889E+003    1.08421E+004    5.56378E+003    1.78378E+004
            5317    4.20376E+004    3.47448E+004    3.47448E+004   -4.74734E+003   -9.44380E+003    4.41886E+004   -6.85121E+003    4.14412E+004   -4.88405E+003    2.90330E+004   -3.59532E+003    1.32233E+004    2.41629E+003    6.23856E+003
            5318    7.53504E+004    5.99183E+004    5.99183E+004    1.06255E+003   -2.50046E+004    8.49228E+004   -1.19921E+004    6.39573E+004    6.80641E+003    3.47464E+004   -5.57658E+003    1.49747E+004    1.87566E+004    2.98305E+004
            5319    7.01271E+004    6.32080E+004    6.32080E+004   -2.59072E+003   -1.05656E+004    7.37736E+004   -1.66839E+004    6.90959E+004    5.50027E+003    4.54254E+004   -8.74014E+002    2.28306E+004    1.24707E+004    1.82428E+004
            5320    7.34109E+004    7.29037E+004    7.29037E+004    2.83562E+003   -3.44642E+003    7.63501E+004   -2.40976E+004    7.28025E+004    8.90523E+003    6.00954E+004    3.29224E+003    2.74053E+004    4.65221E+003    6.62851E+003
            5321    5.69106E+005   -1.08944E+005   -7.45088E+005   -2.84282E+005   -7.45088E+005    6.36144E+005    3.79438E+005   -5.02725E+005   -2.62535E+005   -5.87686E+005   -2.88093E+005    2.66379E+005   -6.14088E+003    6.53956E+004
            5322    5.58138E+005   -8.49017E+004   -7.04480E+005   -2.41038E+005   -7.04480E+005    6.19579E+005    3.43473E+005   -5.05390E+005   -2.40025E+005   -5.44650E+005   -2.45745E+005    2.66353E+005   -1.63227E+004    4.76079E+004
            5323    6.32080E+005   -8.05110E+004   -7.81363E+005   -2.54502E+005   -7.81363E+005    7.00852E+005    3.72126E+005   -5.74386E+005   -2.50537E+005   -6.08489E+005   -2.57351E+005    2.98890E+005   -3.00913E+004    3.19649E+004
            5324    6.11060E+005   -7.44943E+004   -7.51769E+005   -2.41760E+005   -7.51769E+005    6.77275E+005    3.56008E+005   -5.55953E+005   -2.21737E+005   -6.10328E+005   -2.35958E+005    2.71688E+005   -4.44822E+004    1.05898E+004
            5325    5.93236E+005   -8.64552E+004   -7.49492E+005   -2.68924E+005   -7.49492E+005    6.63036E+005    3.68290E+005   -5.24293E+005   -2.74226E+005   -6.02165E+005   -2.28480E+005    2.64386E+005   -7.11741E+004   -2.82499E+004
            5326    6.16048E+005   -1.42497E+005   -8.28738E+005   -3.23385E+005   -8.28738E+005    6.86242E+005    4.31540E+005   -5.51379E+005   -2.99164E+005   -6.70582E+005   -3.24874E+005    2.85648E+005   -3.78170E+003    4.32985E+004
            5327    5.97677E+005   -1.18203E+005   -7.78097E+005   -2.73158E+005   -7.78097E+005    6.59894E+005    3.89820E+005   -5.49693E+005   -2.76619E+005   -6.17770E+005   -2.75070E+005    2.80889E+005   -1.00321E+004    3.31955E+004
            5328    6.78366E+005   -1.18407E+005   -8.67072E+005   -2.93223E+005   -8.67072E+005    7.48664E+005    4.26234E+005   -6.24600E+005   -3.01344E+005   -6.83053E+005   -2.94305E+005    3.21124E+005   -1.91042E+004    2.06934E+004
            5329    6.65458E+005   -1.06976E+005   -8.43571E+005   -2.85787E+005   -8.43571E+005    7.36595E+005    4.12111E+005   -6.07786E+005   -2.72652E+005   -6.80938E+005   -2.82745E+005    3.04113E+005   -2.98538E+004    3.02299E+003
            5330    6.51340E+005   -1.33865E+005   -8.60089E+005   -3.27589E+005   -8.60089E+005    7.26224E+005    4.40514E+005   -5.81022E+005   -3.33645E+005   -6.78142E+005   -3.09756E+005    3.09459E+005   -5.03029E+004   -2.50253E+004
            5331    6.43005E+005   -1.62605E+005   -8.77568E+005   -3.46662E+005   -8.77568E+005    7.14963E+005    4.62278E+005   -5.79141E+005   -3.20884E+005   -7.19071E+005   -3.46880E+005    2.96493E+005   -1.48673E+003    1.68159E+004
            5332    6.20017E+005   -1.39580E+005   -8.21824E+005   -2.92741E+005   -8.21824E+005    6.82243E+005    4.18048E+005   -5.75098E+005   -2.98993E+005   -6.62194E+005   -2.92958E+005    2.88596E+005   -3.56902E+003    1.11950E+004
            5333    7.02729E+005   -1.40332E+005   -9.14162E+005   -3.15779E+005   -9.14162E+005    7.73830E+005    4.56758E+005   -6.50658E+005   -3.30885E+005   -7.23486E+005   -3.15903E+005    3.33316E+005   -6.66368E+003    7.17180E+003
            5334    6.95795E+005   -1.27812E+005   -8.97461E+005   -3.12984E+005   -8.97461E+005    7.69649E+005    4.46086E+005   -6.36725E+005   -3.03941E+005   -7.21647E+005   -3.12669E+005    3.22955E+005   -1.02737E+004    1.37134E+003
            5335    6.85396E+005   -1.61346E+005   -9.24887E+005   -3.62781E+005   -9.24887E+005    7.63541E+005    4.83005E+005   -6.13303E+005   -3.68472E+005   -7.20122E+005   -3.60421E+005    3.37541E+005   -1.81514E+004   -1.18814E+004
            5336    2.74807E+005    6.07036E+004   -2.50934E+005   -4.33427E+004   -2.50934E+005    3.11637E+005    7.78575E+004   -2.23566E+005   -4.62301E+004   -2.05106E+005    1.77639E+004    8.79837E+004   -6.28582E+004    1.76803E+004
            5337    3.39964E+005    5.46417E+004   -3.29632E+005   -6.80263E+004   -3.29632E+005    3.84274E+005    1.14339E+005   -2.83335E+005   -7.34078E+004   -2.74453E+005    4.84437E+003    1.11434E+005   -7.16261E+004    1.48020E+004
            5338    3.95859E+005    2.44487E+004   -4.20589E+005   -1.07736E+005   -4.20589E+005    4.45037E+005    1.67959E+005   -3.40618E+005   -1.14099E+005   -3.51270E+005   -3.85073E+004    1.38599E+005   -7.88383E+004    1.33728E+004
            5339    4.59162E+005    4.70443E+002   -5.15150E+005   -1.50419E+005   -5.15150E+005    5.15620E+005    2.21699E+005   -3.97351E+005   -1.56209E+005   -4.28172E+005   -8.07182E+004    1.73377E+005   -8.25182E+004   -3.20610E+003
            5340    5.27265E+005   -4.35975E+004   -6.33574E+005   -2.08378E+005   -6.33574E+005    5.89977E+005    2.95183E+005   -4.63797E+005   -2.14714E+005   -5.20296E+005   -1.50540E+005    2.16376E+005   -8.11000E+004   -1.54021E+004
            5341    5.43257E+005   -3.50894E+004   -6.38522E+005   -1.88381E+005   -6.38522E+005    6.03433E+005    2.87331E+005   -4.90949E+005   -1.61516E+005   -5.20917E+005   -1.79560E+005    2.32760E+005   -5.41312E+004    1.62920E+004
            5342    5.76137E+005   -4.06643E+004   -6.82762E+005   -2.10992E+005   -6.82762E+005    6.42098E+005    3.11473E+005   -5.14751E+005   -1.93672E+005   -5.24942E+005   -2.15805E+005    2.70702E+005   -3.90141E+004    3.92925E+004
            5343    5.09395E+005   -4.57365E+004   -6.15195E+005   -2.02908E+005   -6.15195E+005    5.69458E+005    2.87947E+005   -4.49786E+005   -1.96452E+005   -4.56583E+005   -2.10805E+005    2.48017E+005   -2.13482E+004    5.60925E+004
            5344    5.10146E+005   -7.44185E+004   -6.46849E+005   -2.40251E+005   -6.46849E+005    5.72430E+005    3.20506E+005   -4.43122E+005   -2.21757E+005   -4.93705E+005   -2.46056E+005    2.42082E+005   -7.92025E+003    7.37375E+004
            5345    4.72597E+005   -4.84049E+003   -5.30344E+005   -1.40187E+005   -5.30344E+005    5.25504E+005    2.25124E+005   -4.25607E+005   -1.09985E+005   -4.34120E+005   -1.31267E+005    1.93504E+005   -5.89083E+004    2.57388E+004
            5346    5.12295E+005   -1.36587E+003   -5.75667E+005   -1.65717E+005   -5.75667E+005    5.74301E+005    2.47583E+005   -4.46938E+005   -1.36522E+005   -4.34352E+005   -1.71875E+005    2.39231E+005   -4.52398E+004    4.15834E+004
            5347    4.59764E+005   -1.50411E+004   -5.31733E+005   -1.67766E+005   -5.31733E+005    5.16691E+005    2.38180E+005   -3.96355E+005   -1.57452E+005   -3.79171E+005   -1.77917E+005    2.27227E+005   -2.53983E+004    5.63067E+004
            5348    4.51300E+005   -4.14875E+004   -5.49967E+005   -1.96942E+005   -5.49967E+005    5.08479E+005    2.62799E+005   -3.83729E+005   -1.81752E+005   -4.01902E+005   -2.04741E+005    2.16658E+005   -9.16065E+003    7.88753E+004
            5349    4.01058E+005    2.77759E+004   -4.19997E+005   -9.37780E+004   -4.19997E+005    4.47773E+005    1.62000E+005   -3.55935E+005   -6.19022E+004   -3.43447E+005   -8.06498E+004    1.57127E+005   -5.98392E+004    2.37897E+004
            5350    4.50475E+005    2.28369E+004   -4.83374E+005   -1.26629E+005   -4.83374E+005    5.06211E+005    1.95722E+005   -3.88509E+005   -9.26100E+004   -3.61690E+005   -1.32867E+005    2.06656E+005   -4.74211E+004    4.02882E+004
            5351    4.10221E+005    1.24061E+004   -4.51017E+005   -1.34390E+005   -4.51017E+005    4.63423E+005    1.91000E+005   -3.43187E+005   -1.21001E+005   -3.06071E+005   -1.45929E+005    2.05696E+005   -2.63190E+004    5.48086E+004
            5352    3.95189E+005   -2.18271E+004   -4.68320E+005   -1.63480E+005   -4.68320E+005    4.46493E+005    2.17876E+005   -3.30363E+005   -1.51554E+005   -3.30665E+005   -1.71409E+005    1.92276E+005   -9.19984E+003    7.32388E+004
            5353    3.38818E+005    4.20123E+004   -3.36295E+005   -6.07681E+004   -3.36295E+005    3.78308E+005    1.18350E+005   -3.00624E+005   -3.40592E+004   -2.74106E+005   -4.68862E+004    1.26932E+005   -5.70347E+004    2.57923E+004
            5354    3.86057E+005    4.44251E+004   -3.90780E+005   -8.95860E+004   -3.90780E+005    4.35205E+005    1.45314E+005   -3.27228E+005   -5.52937E+004   -2.86879E+005   -9.37688E+004    1.76629E+005   -4.48283E+004    3.27421E+004
            5355    3.66762E+005    2.24266E+004   -3.91761E+005   -1.08176E+005   -3.91761E+005    4.14187E+005    1.59170E+005   -3.07505E+005   -9.76477E+004   -2.61291E+005   -1.18571E+005    1.84258E+005   -2.42354E+004    4.86724E+004
            5356    3.51845E+005   -2.04327E+003   -4.00448E+005   -1.32324E+005   -4.00448E+005    3.98405E+005    1.78272E+005   -2.89595E+005   -1.24240E+005   -2.70392E+005   -1.40184E+005    1.71032E+005   -7.98056E+003    7.43050E+004
            5357    2.74566E+005    6.23677E+004   -2.46387E+005   -2.96453E+004   -2.46387E+005    3.08755E+005    7.12217E+004   -2.35939E+005   -5.95803E+003   -1.99215E+005   -8.49198E+003    1.01823E+005   -4.87628E+004    9.73544E+003
            5358    3.36343E+005    4.46482E+004   -3.32126E+005   -6.21448E+004   -3.32126E+005    3.76774E+005    1.16541E+005   -2.94410E+005   -3.93325E+004   -2.46113E+005   -6.41777E+004    1.51770E+005   -3.58026E+004    2.54348E+004
            5359    3.26928E+005    3.67569E+004   -3.31868E+005   -7.70659E+004   -3.31868E+005    3.68625E+005    1.24059E+005   -2.76771E+005   -7.30446E+004   -2.13370E+005   -8.57624E+004    1.64949E+005   -1.89431E+004    4.51413E+004
            5360    3.14220E+005    1.58677E+003   -3.53507E+005   -1.11420E+005   -3.53507E+005    3.55093E+005    1.54446E+005   -2.62276E+005   -1.09438E+005   -2.36943E+005   -1.16958E+005    1.52464E+005   -6.15026E+003    6.71544E+004
            5361    2.95768E+005    2.24022E+004   -3.13176E+005   -9.04406E+004   -3.13176E+005    3.35578E+005    1.27071E+005   -2.39608E+005   -9.06099E+004   -1.97325E+005   -9.32793E+004    1.37512E+005   -2.49068E+003    8.08724E+004
            5362    2.90902E+005   -1.98598E+003   -3.20995E+005   -7.03930E+004   -3.20995E+005    3.19009E+005    1.31125E+005   -2.71907E+005   -9.66499E+004   -2.37874E+005   -5.88499E+004    1.21419E+005   -2.21579E+001    6.75402E+004
            5363    3.11051E+005    2.99403E+004   -3.12279E+005   -4.67366E+004   -3.12279E+005    3.42219E+005    1.09692E+005   -2.88616E+005   -6.76315E+004   -2.10425E+005   -5.10185E+004    1.48870E+005   -1.01662E+004    4.80203E+004
            5364    2.72605E+005    5.80294E+004   -2.37495E+005    4.14248E+003   -2.37495E+005    2.95524E+005    5.84409E+004   -2.60214E+005   -3.47502E+004   -1.44648E+005    4.07518E+003    1.36803E+005   -1.95551E+003    1.00897E+004
            5365    2.95598E+005    5.66822E+004   -2.71080E+005   -2.46946E+004   -2.71080E+005    3.27762E+005    7.96974E+004   -2.68611E+005   -1.88897E+004   -1.99518E+005   -2.06845E+004    1.33550E+005   -2.27191E+004    2.40767E+003
            5366    2.53904E+005    6.78365E+004   -2.17189E+005   -1.51978E+004   -2.17189E+005    2.85025E+005    5.48501E+004   -2.20093E+005   -7.96849E+003   -1.41899E+005   -1.46823E+004    1.25438E+005   -7.72469E+003   -5.28539E+002
            5367    2.25908E+005    5.94361E+004   -1.95727E+005   -2.12039E+004   -1.95727E+005    2.55163E+005    5.24981E+004   -1.89204E+005   -8.27950E+001   -1.51564E+005   -5.84802E+003    9.18596E+004   -3.46178E+004   -2.47869E+003
            5368    2.03750E+005    6.28916E+004   -1.64412E+005    1.81431E+003   -1.64412E+005    2.27304E+005    3.32353E+004   -1.81373E+005    7.52470E+003   -1.12681E+005    5.45012E+003    9.43056E+004   -1.22762E+004   -7.68534E+003
            5369    1.78382E+005    4.55597E+004   -1.52810E+005   -5.59099E+003   -1.52810E+005    1.98369E+005    3.76137E+004   -1.60597E+005   -2.73877E+003   -1.08767E+005   -1.33474E+003    8.12837E+004   -1.30905E+004   -5.53573E+003
            5370    1.37577E+005    3.32989E+004   -1.16745E+005    3.47030E+003   -1.16745E+005    1.50044E+005    2.66587E+004   -1.29999E+005    4.79688E+003   -9.28934E+004    8.12055E+003    5.37272E+004   -1.12870E+004   -1.43824E+003
            5371    1.88959E+005    5.80365E+004   -1.56647E+005   -1.55573E+004   -1.56647E+005    2.14683E+005    3.80559E+004   -1.51267E+005   -6.94524E+002   -1.21634E+005    8.16101E+003    7.28500E+004   -3.62694E+004   -4.54858E+003
            5372    1.34656E+005    4.52945E+004   -1.06784E+005   -2.69985E+003   -1.06784E+005    1.52078E+005    2.13963E+004   -1.12854E+005    8.21621E+003   -8.60581E+004    1.36529E+004    4.51359E+004   -2.84652E+004    7.30297E+003
            5373    1.56809E+005    6.45661E+004   -1.14965E+005   -4.81480E+003   -1.14965E+005    1.79531E+005    1.84045E+004   -1.13699E+005   -5.52139E+003   -8.63847E+004    3.66925E+004    3.88485E+004   -4.40794E+004    2.88560E+004
            5374    2.19852E+005    7.20805E+004   -1.78496E+005   -1.79465E+004   -1.78496E+005    2.50577E+005    4.14541E+004   -1.70284E+005   -1.80841E+004   -1.42676E+005    3.63981E+004    6.25360E+004   -5.58975E+004    2.54915E+004
            5375    3.45495E+005    3.41778E+005    3.41778E+005    6.12764E+004   -4.41476E+004    3.85926E+005   -1.19636E+005    3.06042E+005    7.59681E+004    2.52083E+005    3.08557E+004    1.45776E+005   -6.78837E+004   -1.62686E+004
            5376    3.98932E+005    4.15968E+005    4.15968E+005    9.95368E+004   -3.21616E+004    4.48130E+005   -1.61114E+005    3.44674E+005    1.11311E+005    3.11382E+005    6.06504E+004    1.71937E+005   -7.65384E+004   -7.18255E+003
            5377    4.58544E+005    5.02220E+005    5.02220E+005    1.40189E+005   -1.34047E+004    5.15624E+005   -2.09668E+005    3.94105E+005    1.52122E+005    3.76413E+005    1.00469E+005    2.04314E+005   -8.25832E+004   -1.92589E+003
            5378    5.19408E+005    5.90434E+005    5.90434E+005    1.82409E+005    5.73568E+003    5.84698E+005   -2.59526E+005    4.43837E+005    1.93544E+005    4.39645E+005    1.45389E+005    2.41609E+005   -8.09500E+004    9.41609E+003
            5379    5.11222E+005    6.19333E+005    6.19333E+005    1.97159E+005    5.09301E+004    5.68403E+005   -2.89141E+005    4.60526E+005    1.99324E+005    4.66729E+005    2.01369E+005    2.47535E+005   -3.24134E+004   -3.37241E+004
            5380    4.82654E+005    5.85172E+005    5.85172E+005    2.06754E+005    4.16268E+004    5.43545E+005   -2.77851E+005    4.11498E+005    2.03568E+005    4.18912E+005    2.11072E+005    2.41802E+005   -8.20152E+003   -6.46393E+004
            5381    4.48415E+005    5.18656E+005    5.18656E+005    1.55702E+005    1.73756E+004    5.01281E+005   -2.30578E+005    3.95967E+005    1.50709E+005    3.79580E+005    1.61445E+005    2.18715E+005   -3.49770E+004   -3.58556E+004
            5382    4.28661E+005    4.98275E+005    4.98275E+005    1.69535E+005    1.34408E+004    4.84834E+005   -2.27084E+005    3.55723E+005    1.63024E+005    3.42709E+005    1.75517E+005    2.15951E+005   -9.43407E+003   -6.67838E+004
            5383    3.93538E+005    4.32265E+005    4.32265E+005    1.17583E+005   -8.98353E+003    4.41248E+005   -1.80288E+005    3.43053E+005    1.09901E+005    3.05683E+005    1.25280E+005    1.92444E+005   -3.57702E+004   -3.81815E+004
            5384    3.77090E+005    4.13274E+005    4.13274E+005    1.31547E+005   -1.51120E+004    4.28386E+005   -1.76570E+005    3.02122E+005    1.24480E+005    2.65832E+005    1.39397E+005    1.91053E+005   -1.04326E+004   -6.89732E+004
            5385    3.33076E+005    3.36083E+005    3.36083E+005    7.64600E+004   -3.94649E+004    3.75548E+005   -1.24359E+005    2.82014E+005    6.71160E+004    2.21795E+005    8.41677E+004    1.66172E+005   -3.19123E+004   -3.39918E+004
            5386    3.29076E+005    3.46556E+005    3.46556E+005    1.04568E+005   -2.81548E+004    3.74711E+005   -1.40990E+005    2.57613E+005    9.93879E+004    2.13111E+005    1.10471E+005    1.68611E+005   -7.75840E+003   -6.06254E+004
            5387    2.99060E+005    2.91807E+005    2.91807E+005    7.62625E+004   -4.96145E+004    3.41422E+005   -1.06152E+005    2.26817E+005    7.59202E+004    1.61409E+005    8.11263E+004    1.51786E+005   -5.60030E+003   -6.66712E+004
            5388    2.73150E+005    2.74357E+005    2.74357E+005    4.95770E+004   -2.96476E+004    3.04005E+005   -9.80955E+004    2.45233E+005    7.39161E+004    1.73713E+005    4.66570E+004    1.32448E+005   -1.93923E+003   -5.33817E+004
            5389    2.95371E+005    2.86453E+005    2.86453E+005    4.51605E+004   -4.29447E+004    3.29398E+005   -9.62230E+004    2.63280E+005    5.03764E+004    1.87226E+005    5.10660E+004    1.46550E+005   -1.92670E+004   -3.19671E+004
            5390    2.57100E+005    2.12208E+005    2.12208E+005    1.96495E+003   -7.44321E+004    2.86640E+005   -4.65801E+004    2.29400E+005    2.09207E+004    1.16561E+005    2.25900E+003    1.34938E+005   -5.40762E+003   -5.99391E+003
            5391    2.36836E+005    1.86526E+005    1.86526E+005    1.01390E+004   -8.26567E+004    2.69182E+005   -3.80027E+004    1.88905E+005    6.26209E+003    9.81462E+004    9.59967E+003    1.26079E+005   -9.22661E+003    5.44020E+002
            5392    2.12117E+005    1.68336E+005    1.68336E+005    3.10360E+003   -7.08601E+004    2.39197E+005   -3.35267E+004    1.79460E+005   -5.55466E+003    1.05850E+005    2.84309E+002    1.04238E+005   -1.23330E+004    6.97528E+003
            5393    1.56208E+005    1.28986E+005    1.28986E+005   -2.53801E+002   -4.46011E+004    1.73587E+005   -2.80436E+004    1.40968E+005   -2.04125E+003    8.84919E+004   -2.31969E+003    7.25475E+004   -1.14004E+004   -2.01576E+002
            5394    1.25106E+005    1.11471E+005    1.11471E+005    1.59622E+003   -2.46885E+004    1.36160E+005   -2.94597E+004    1.18652E+005    5.64553E+003    8.17322E+004    1.00127E+003    5.55824E+004   -7.70503E+003   -3.69853E+003
            5395    2.58939E+005    2.23192E+005    2.23192E+005    2.26398E+004   -6.91351E+004    2.92327E+005   -5.88989E+004    2.17553E+005    1.81459E+004    1.45748E+005    1.28024E+004    1.25250E+005   -3.11673E+004    5.16156E+003
            5396    2.14375E+005    1.79221E+005    1.79221E+005    1.34383E+004   -6.28677E+004    2.42088E+005   -4.32638E+004    1.79772E+005    5.68112E+003    1.27842E+005   -3.73161E+003    9.30405E+004   -3.55930E+004    2.86873E+003
            5397    1.49789E+005    1.16620E+005    1.16620E+005    7.56048E+002   -5.25255E+004    1.69146E+005   -2.16168E+004    1.25648E+005   -1.22703E+003    8.15541E+004   -1.54765E+004    6.10964E+004   -3.13553E+004   -4.23034E+003
            5398    1.16965E+005    1.00769E+005    1.00769E+005   -3.50903E+002   -2.73263E+004    1.28096E+005   -2.43641E+004    1.09633E+005    7.05858E+003    6.97159E+004   -3.68226E+003    4.75702E+004   -2.25926E+004   -1.46786E+004
            5399    1.25256E+005    9.47867E+004    9.47867E+004   -1.65220E+001   -4.72111E+004    1.41998E+005   -1.58530E+004    1.02168E+005    7.77040E+003    5.80990E+004   -1.83103E+004    3.47957E+004   -3.95983E+004   -3.06980E+004
            5400    1.75380E+005    1.33794E+005    1.33794E+005    7.37964E+003   -6.64273E+004    2.00221E+005   -2.49153E+004    1.33032E+005    1.25083E+004    9.09795E+004   -2.87420E+004    5.23103E+004   -5.42925E+004   -2.94945E+004
            5401    2.34101E+005    1.88594E+005    1.88594E+005    1.55482E+004   -7.77755E+004    2.66370E+005   -4.21222E+004    1.84694E+005    1.97877E+004    1.35848E+005   -2.92694E+004    7.94864E+004   -6.47157E+004   -2.39064E+004
            5402    3.04049E+005    2.74137E+005    2.74137E+005    3.01393E+004   -6.64820E+004    3.40619E+005   -7.92646E+004    2.66070E+005    4.58692E+004    1.99504E+005   -7.57894E+003    1.18480E+005   -6.84851E+004   -2.30285E+004
            5403    5.33652E+005    6.72207E+005    6.72207E+005    2.44630E+005    7.41428E+004    5.98065E+005   -3.30327E+005    4.66203E+005    2.46451E+005    4.97579E+005    2.46950E+005    2.66550E+005   -6.27638E+003   -5.34778E+004
            5404    5.72035E+005    7.14429E+005    7.14429E+005    2.36750E+005    8.05061E+004    6.33923E+005   -3.43895E+005    5.20687E+005    2.45325E+005    5.47333E+005    2.39027E+005    2.76783E+005   -2.64442E+004   -2.67583E+004
            5405    5.78886E+005    6.84214E+005    6.84214E+005    2.26942E+005    3.33390E+004    6.50875E+005   -3.14832E+005    4.97818E+005    2.38227E+005    5.05313E+005    2.00954E+005    2.81143E+005   -6.96536E+004    1.58077E+004
            5406    5.74330E+005    7.42340E+005    7.42340E+005    2.75322E+005    1.01062E+005    6.41278E+005   -3.72908E+005    5.09557E+005    2.82081E+005    5.60438E+005    2.76206E+005    2.86756E+005   -4.05499E+003   -3.63550E+004
            5407    6.24046E+005    7.95798E+005    7.95798E+005    2.71195E+005    1.05681E+005    6.90118E+005   -3.90891E+005    5.71451E+005    2.84706E+005    6.15896E+005    2.72072E+005    3.01958E+005   -1.76793E+004   -1.75965E+004
            5408    6.28877E+005    7.66294E+005    7.66294E+005    2.66893E+005    6.00467E+004    7.06248E+005   -3.64411E+005    5.44048E+005    2.77470E+005    5.60875E+005    2.54889E+005    3.16516E+005   -4.82028E+004    1.57170E+004
            5409    5.97245E+005    7.82814E+005    7.82814E+005    2.93482E+005    1.17295E+005    6.65519E+005   -3.97864E+005    5.33909E+005    3.03122E+005    5.96893E+005    2.93575E+005    2.98347E+005   -1.35977E+003   -1.24737E+004
            5410    6.53517E+005    8.41401E+005    8.41401E+005    2.90709E+005    1.19247E+005    7.22154E+005   -4.17119E+005    5.99698E+005    3.06566E+005    6.53979E+005    2.90812E+005    3.16466E+005   -5.84412E+003   -6.14072E+003
            5411    6.58926E+005    8.17938E+005    8.17938E+005    2.92189E+005    7.87505E+004    7.39188E+005   -3.96292E+005    5.73037E+005    3.02306E+005    5.95890E+005    2.90681E+005    3.38336E+005   -1.73569E+004    6.46935E+003
            5412    1.09561E+005    2.50122E+004   -9.44749E+004    1.26408E+003   -9.44749E+004    1.19487E+005    2.27329E+004   -1.03529E+005    1.05531E+003   -7.10275E+004    1.77352E+003    4.65833E+004    7.81021E+003   -4.55751E+003
            5413    1.04427E+005    3.12235E+004   -8.36515E+004    5.53174E+003   -8.36515E+004    1.14875E+005    1.56321E+004   -9.69261E+004    1.63045E+003   -5.87202E+004    1.01934E+004    3.92433E+004    2.16491E+004   -1.46801E+004
            5414    1.20749E+005    4.63472E+004   -9.07019E+004    3.62829E+001   -9.07019E+004    1.37049E+005    1.47728E+004   -9.75330E+004   -6.68609E+003   -5.52620E+004    1.76296E+004    3.15207E+004    3.83328E+004   -3.19344E+004
            5415    7.45344E+004    9.77909E+003   -6.93396E+004   -4.44989E+002   -6.93396E+004    7.91187E+004    2.00018E+004   -7.29318E+004   -7.38177E+003   -5.14273E+004   -1.19647E+003    3.22840E+004    4.47480E+003   -6.26729E+003
            5416    7.17954E+004    9.78082E+003   -6.41819E+004    5.22980E+003   -6.41819E+004    7.39627E+004    1.63904E+004   -7.14698E+004   -7.71684E+003   -4.10080E+004   -4.46391E+002    2.72127E+004    1.30830E+004   -1.84056E+004
            5417    8.14356E+004    2.77068E+004   -6.34174E+004    2.24531E+003   -6.34174E+004    9.11242E+004    1.11551E+004   -7.16234E+004   -6.85818E+003   -3.27500E+004    6.14287E+003    1.92869E+004    2.33015E+004   -3.00604E+004
            5418    4.56304E+004    1.53566E+004   -3.53740E+004    2.31782E+003   -3.53740E+004    5.07306E+004    5.89985E+003   -4.11154E+004    2.87791E+003   -2.18721E+004    1.29463E+003    2.13890E+004    2.07597E+003   -6.34697E+003
            5419    4.89463E+004    1.62806E+004   -3.60857E+004    8.51122E+003   -3.60857E+004    5.23664E+004    3.76464E+003   -4.75293E+004    2.82158E+003   -1.71551E+004    3.03959E+003    1.80576E+004    5.58017E+003   -1.75179E+004
            5420    5.61759E+004    2.10378E+004   -4.17940E+004    3.58090E+003   -4.17940E+004    6.28318E+004    5.72509E+003   -4.94980E+004   -2.67292E+003   -1.52351E+004    7.32772E+002    1.20925E+004    1.00083E+004   -2.71069E+004
            5421    3.29663E+004    1.74374E+004   -2.06259E+004   -2.00864E+003   -2.06259E+004    3.80632E+004    1.73238E+003    1.10541E+004   -4.55832E+003    8.53195E+002   -1.49201E+003    1.78237E+004   -3.39197E+002   -6.09055E+003
            5422    3.93410E+004    2.12979E+004   -2.39962E+004   -4.35754E+003   -2.39962E+004    4.52941E+004    2.35191E+003    2.40207E+004   -4.62881E+003    4.94307E+002   -2.92124E+003    1.48254E+004   -4.76584E+002   -1.70024E+004
            5423    4.76104E+004    2.78062E+004    2.78062E+004   -1.07095E+003   -2.71458E+004    5.49519E+004    1.36853E+002    2.11918E+004   -1.00632E+003    7.82451E+002   -1.86686E+002    9.71313E+003   -2.52627E+002   -2.56977E+004
            5424    5.17578E+004    4.71676E+004    4.71676E+004    9.24837E+002   -8.74217E+003    5.59097E+004   -1.31167E+004    4.96654E+004    6.57608E+003    3.11058E+004    1.66839E+003    2.44657E+004   -2.24372E+003   -6.37391E+003
            5425    5.29945E+004    4.65356E+004    4.65356E+004   -2.26238E+003   -9.83978E+003    5.63753E+004   -1.14778E+004    5.17547E+004    7.13433E+003    2.46600E+004    2.63910E+003    2.07489E+004   -7.00412E+003   -1.79217E+004
            5426    5.75159E+004    4.40055E+004    4.40055E+004   -2.37386E+003   -2.03521E+004    6.43576E+004   -7.09319E+003    5.05897E+004    4.91735E+003    1.71589E+004   -7.96700E+002    1.30693E+004   -1.08631E+004   -2.70135E+004
            5427    7.87381E+004    6.83335E+004    6.83335E+004   -2.29247E+003   -1.65643E+004    8.48979E+004   -1.64922E+004    7.57456E+004   -1.15884E+003    5.24257E+004   -1.79012E+003    3.21141E+004   -5.40186E+003   -6.12814E+003
            5428    7.57024E+004    6.12177E+004    6.12177E+004   -8.66501E+003   -1.92006E+004    8.04183E+004   -1.11174E+004    7.40260E+004   -1.55224E+003    4.11762E+004   -6.27189E+003    2.66368E+004   -1.45283E+004   -1.75064E+004
            5429    8.31439E+004    6.45958E+004    6.45958E+004   -2.42809E+003   -2.84456E+004    9.30414E+004   -1.12407E+004    7.31072E+004    5.34542E+003    3.46109E+004   -6.23420E+003    1.92871E+004   -2.38574E+004   -3.03313E+004
            5430    5.79333E+005    6.84583E+005    6.84583E+005    2.26999E+005    3.31926E+004    6.51390E+005   -3.14925E+005    4.98152E+005    2.38286E+005    5.05511E+005    2.00978E+005    2.81379E+005    6.97111E+004   -1.58574E+004
            5431    5.72396E+005    7.15043E+005    7.15043E+005    2.36965E+005    8.07595E+004    6.34283E+005   -3.44256E+005    5.21113E+005    2.45568E+005    5.47895E+005    2.39305E+005    2.76915E+005    2.61882E+004    2.70764E+004
            5432    5.34288E+005    6.73242E+005    6.73242E+005    2.45123E+005    7.44759E+004    5.98766E+005   -3.30947E+005    4.66796E+005    2.46947E+005    4.98475E+005    2.47418E+005    2.66892E+005    6.24528E+003    5.32423E+004
            5433    6.29335E+005    7.66972E+005    7.66972E+005    2.67278E+005    6.01871E+004    7.06785E+005   -3.64812E+005    5.44359E+005    2.77820E+005    5.61219E+005    2.55397E+005    3.16886E+005    4.79542E+004   -1.57161E+004
            5434    6.23786E+005    7.95463E+005    7.95463E+005    2.70864E+005    1.05722E+005    6.89741E+005   -3.90683E+005    5.71419E+005    2.84513E+005    6.15795E+005    2.71742E+005    3.01723E+005    1.76037E+004    1.75915E+004
            5435    5.74507E+005    7.42647E+005    7.42647E+005    2.75503E+005    1.01164E+005    6.41482E+005   -3.73105E+005    5.09694E+005    2.82219E+005    5.60725E+005    2.76370E+005    2.86860E+005    4.00553E+003    3.61295E+004
            5436    6.59197E+005    8.18348E+005    8.18348E+005    2.92398E+005    7.88510E+004    7.39497E+005   -3.96532E+005    5.73255E+005    3.02515E+005    5.96105E+005    2.90976E+005    3.38551E+005    1.69085E+004   -6.23154E+003
            5437    6.53205E+005    8.40967E+005    8.40967E+005    2.90426E+005    1.19205E+005    7.21762E+005   -4.16866E+005    5.99520E+005    3.06361E+005    6.53713E+005    2.90523E+005    3.16253E+005    6.15999E+003    6.05063E+003
            5438    5.97180E+005    7.82732E+005    7.82732E+005    2.93494E+005    1.17271E+005    6.65461E+005   -3.97833E+005    5.33807E+005    3.03095E+005    5.96813E+005    2.93590E+005    2.98328E+005    1.39361E+003    1.24631E+004
            5439    3.07568E+005    3.64229E+004   -3.14363E+005   -9.09115E+004   -3.14363E+005    3.50786E+005    1.22951E+005   -2.36302E+005   -9.09184E+004   -1.84036E+005   -9.38972E+004    1.57650E+005    3.85848E+003   -6.21555E+004
            5440    3.41141E+005    2.96573E+004   -3.59480E+005   -1.11935E+005   -3.59480E+005    3.89137E+005    1.47252E+005   -2.61593E+005   -1.08715E+005   -2.16382E+005   -1.16661E+005    1.74665E+005    5.62739E+003   -6.82111E+004
            5441    3.80773E+005    1.06219E+004   -4.22669E+005   -1.41353E+005   -4.22669E+005    4.33291E+005    1.84467E+005   -3.00176E+005   -1.37159E+005   -2.70408E+005   -1.45833E+005    1.95019E+005    5.89080E+003   -6.85845E+004
            5442    4.29326E+005   -1.09042E+004   -4.97642E+005   -1.72815E+005   -4.97642E+005    4.86738E+005    2.27121E+005   -3.50017E+005   -1.71195E+005   -3.33649E+005   -1.76518E+005    2.18150E+005    5.45659E+003   -7.28203E+004
            5443    4.78131E+005   -4.28936E+004   -5.82434E+005   -2.11266E+005   -5.82434E+005    5.39541E+005    2.78865E+005   -4.02837E+005   -2.13618E+005   -4.09434E+005   -2.13542E+005    2.42565E+005    4.50582E+003   -6.75173E+004
            5444    3.11507E+005    4.26884E+004   -3.10234E+005   -7.36005E+004   -3.10234E+005    3.52922E+005    1.13715E+005   -2.55327E+005   -6.78053E+004   -1.92121E+005   -8.12196E+004    1.60028E+005    1.61744E+004   -4.26550E+004
            5445    3.48713E+005    2.59543E+004   -3.68972E+005   -1.03499E+005   -3.68972E+005    3.94926E+005    1.48839E+005   -2.86644E+005   -9.04976E+004   -2.43381E+005   -1.12638E+005    1.76482E+005    2.01283E+004   -4.64364E+004
            5446    3.92313E+005    1.18373E+004   -4.31762E+005   -1.30434E+005   -4.31762E+005    4.43599E+005    1.83453E+005   -3.26196E+005   -1.13941E+005   -2.95923E+005   -1.40493E+005    1.96049E+005    2.19310E+004   -5.21883E+004
            5447    4.47359E+005   -1.47432E+004   -5.17762E+005   -1.64473E+005   -5.17762E+005    5.03018E+005    2.32326E+005   -3.84602E+005   -1.50135E+005   -3.73989E+005   -1.72854E+005    2.19908E+005    2.11276E+004   -5.21884E+004
            5448    5.06774E+005   -4.19511E+004   -6.09195E+005   -2.01091E+005   -6.09195E+005    5.67244E+005    2.84079E+005   -4.45121E+005   -1.90209E+005   -4.54651E+005   -2.07377E+005    2.46602E+005    1.82611E+004   -5.06580E+004
            5449    3.02755E+005    4.93810E+004   -2.90741E+005   -5.06923E+004   -2.90741E+005    3.40122E+005    9.73509E+004   -2.61462E+005   -4.72477E+004   -1.89939E+005   -5.48664E+004    1.50565E+005    2.91808E+004   -2.42593E+004
            5450    3.37392E+005    4.13739E+004   -3.38554E+005   -7.39258E+004   -3.38554E+005    3.79928E+005    1.23702E+005   -2.87779E+005   -6.69104E+004   -2.24256E+005   -7.99389E+004    1.67552E+005    3.65328E+004   -3.01743E+004
            5451    3.84633E+005    1.77055E+004   -4.13376E+005   -1.05265E+005   -4.13376E+005    4.31081E+005    1.66978E+005   -3.35938E+005   -1.01611E+005   -2.87449E+005   -1.11875E+005    1.88850E+005    3.90669E+004   -3.48178E+004
            5452    4.31645E+005   -4.54719E+003   -4.86845E+005   -1.36796E+005   -4.86845E+005    4.82298E+005    2.09396E+005   -3.81911E+005   -1.36629E+005   -3.49253E+005   -1.42306E+005    2.11612E+005    3.82374E+004   -3.44414E+004
            5453    4.87504E+005   -3.54501E+004   -5.77295E+005   -1.74225E+005   -5.77295E+005    5.41845E+005    2.62323E+005   -4.39662E+005   -1.79929E+005   -4.29116E+005   -1.77925E+005    2.37103E+005    3.41010E+004   -3.12040E+004
            5454    2.90381E+005    6.00844E+004   -2.65474E+005   -3.31983E+004   -2.65474E+005    3.25558E+005    7.95293E+004   -2.53225E+005   -3.21728E+004   -1.88072E+005   -1.83432E+004    1.29194E+005    4.93301E+004   -9.92208E+003
            5455    3.52757E+005    4.13074E+004   -3.52272E+005   -6.46039E+004   -3.52272E+005    3.93580E+005    1.25190E+005   -3.13881E+005   -6.90886E+004   -2.53227E+005   -5.32532E+004    1.58188E+005    6.02485E+004   -2.16327E+004
            5456    4.11316E+005    2.69953E+004   -4.32536E+005   -9.88276E+004   -4.32536E+005    4.59532E+005    1.68123E+005   -3.64088E+005   -1.06670E+005   -3.12213E+005   -8.54861E+004    1.90262E+005    6.47759E+004   -1.77366E+004
            5457    4.72875E+005   -1.15523E+003   -5.28439E+005   -1.41960E+005   -5.28439E+005    5.27284E+005    2.23851E+005   -4.21696E+005   -1.55898E+005   -3.84990E+005   -1.30666E+005    2.24381E+005    6.52330E+004   -1.73546E+004
            5458    5.33279E+005   -2.71503E+004   -6.21558E+005   -1.85082E+005   -6.21558E+005    5.94407E+005    2.77930E+005   -4.76243E+005   -2.04773E+005   -4.55289E+005   -1.73728E+005    2.59394E+005    6.00115E+004   -8.70608E+003
            5459    5.39050E+005    1.61906E+004   -5.93243E+005   -1.78899E+005   -5.93243E+005    6.09434E+005    2.51984E+005   -4.48629E+005   -1.84505E+005   -4.45889E+005   -1.25557E+005    2.42143E+005    9.46119E+004    1.43322E+004
            5460    4.70138E+005    4.38079E+004   -4.88646E+005   -1.30771E+005   -4.88646E+005    5.32454E+005    1.91870E+005   -3.86401E+005   -1.35163E+005   -3.73170E+005   -6.72770E+004    1.96096E+005    9.70205E+004    2.42452E+003
            5461    4.05670E+005    5.72251E+004   -4.02043E+005   -9.25803E+004   -4.02043E+005    4.59268E+005    1.45799E+005   -3.34350E+005   -9.77321E+004   -3.10094E+005   -2.95726E+004    1.57381E+005    9.23239E+004   -1.25536E+004
            5462    3.46505E+005    7.41259E+004   -3.19037E+005   -5.81692E+004   -3.19037E+005    3.93163E+005    1.01027E+005   -2.80599E+005   -6.26451E+004   -2.46426E+005    5.99010E+003    1.26146E+005    8.26938E+004   -1.54107E+004
            5463    2.84060E+005    7.57257E+004   -2.47076E+005   -3.52806E+004   -2.47076E+005    3.22801E+005    6.88769E+004   -2.26935E+005   -3.82963E+004   -1.87429E+005    1.90945E+004    9.99342E+004    7.20259E+004   -1.89150E+004
            5464    2.33071E+005    7.73103E+004   -1.88257E+005   -1.76882E+004   -1.88257E+005    2.65567E+005    4.28782E+004   -1.81123E+005   -2.30017E+004   -1.36145E+005    3.05120E+004    7.67779E+004    6.56291E+004   -2.57950E+004
            5465    1.73046E+005    6.69582E+004   -1.30526E+005   -5.42532E+003   -1.30526E+005    1.97484E+005    2.29978E+004   -1.31898E+005   -1.13168E+004   -8.77618E+004    3.00853E+004    5.14446E+004    5.35530E+004   -2.98800E+004
            5466    1.50185E+005    4.39229E+004   -1.24430E+005   -4.21961E+003   -1.24430E+005    1.68353E+005    2.82423E+004   -1.31059E+005   -6.49837E+003   -8.71748E+004    8.94626E+003    6.22386E+004    3.04057E+004   -7.47970E+003
            5467    1.54851E+005    3.96340E+004   -1.31624E+005   -1.47732E+003   -1.31624E+005    1.71258E+005    3.11556E+004   -1.41772E+005   -2.97697E+003   -9.10788E+004    5.88859E+002    7.19990E+004    1.06170E+004    2.17868E+002
            5468    1.93335E+005    6.40420E+004   -1.55311E+005   -9.69543E+003   -1.55311E+005    2.19353E+005    3.36547E+004   -1.56653E+005   -1.92727E+003   -1.09167E+005    1.01298E+004    8.25826E+004    3.62744E+004    3.29178E+003
            5469    1.85852E+005    6.15440E+004   -1.47968E+005   -2.97054E+003   -1.47968E+005    2.09512E+005    2.97982E+004   -1.57531E+005    4.49040E+003   -9.33384E+004   -5.46603E+002    9.11700E+004    1.24670E+004    3.44218E+003
            5470    2.29944E+005    7.94014E+004   -1.80408E+005   -3.08256E+003   -1.80408E+005    2.59809E+005    3.46963E+004   -1.92159E+005    1.77250E+003   -1.04603E+005   -1.25854E+003    1.17513E+005    1.06313E+004    5.91647E+003
            5471    2.44776E+005    8.36228E+004   -1.93955E+005   -9.03668E+003   -1.93955E+005    2.77578E+005    3.97897E+004   -1.99154E+005   -1.26721E+004   -9.77175E+004   -8.97948E+003    1.31946E+005    6.27666E+003   -1.52424E+003
            5472    2.60658E+005    6.89864E+004   -2.19542E+005   -1.07464E+003   -2.19542E+005    2.88528E+005    5.05433E+004   -2.38053E+005   -2.77564E+004   -1.22619E+005   -1.25490E+003    1.35853E+005    2.19535E+003   -1.07198E+004
            5473    2.75634E+005    2.33569E+004   -2.82307E+005   -5.26556E+004   -2.82307E+005    3.05664E+005    1.03869E+005   -2.50376E+005   -8.00769E+004   -1.85377E+005   -4.61518E+004    1.29537E+005    2.92236E+002   -5.72213E+004
            5474    2.45393E+005    6.31074E+004   -2.13542E+005   -2.21427E+004   -2.13542E+005    2.76649E+005    5.75256E+004   -2.07932E+005   -1.45857E+004   -1.44657E+005   -1.33341E+004    1.15615E+005    3.18015E+004    2.71383E+002
            5475    2.73800E+005    6.53957E+004   -2.40441E+005   -1.81364E+004   -2.40441E+005    3.05837E+005    6.43939E+004   -2.42546E+005   -2.66684E+004   -1.49564E+005   -1.69496E+004    1.38243E+005    1.96018E+004   -5.42440E+003
            5476    2.94921E+005    4.25280E+004   -2.86348E+005   -4.53647E+004   -2.86348E+005    3.28876E+005    9.63948E+004   -2.62942E+005   -5.85412E+004   -1.81676E+005   -4.89672E+004    1.46641E+005    8.17485E+003   -4.41000E+004
            5477    2.89006E+005    5.27661E+004   -2.77842E+005   -7.31857E+004   -2.77842E+005    3.30608E+005    9.94204E+004   -2.12656E+005   -7.43563E+004   -1.48819E+005   -7.50863E+004    1.44516E+005    2.21871E+003   -7.15639E+004
            5478    3.28843E+005    3.46289E+005    3.46289E+005    1.04654E+005   -2.81960E+004    3.74485E+005   -1.40916E+005    2.57138E+005    9.93494E+004    2.12878E+005    1.10520E+005    1.68536E+005    7.68774E+003    6.05593E+004
            5479    3.77365E+005    4.13660E+005    4.13660E+005    1.31685E+005   -1.50285E+004    4.28688E+005   -1.76772E+005    3.02408E+005    1.24664E+005    2.66115E+005    1.39537E+005    1.91200E+005    1.04520E+004    6.89884E+004
            5480    4.30074E+005    5.00572E+005    5.00572E+005    1.70539E+005    1.41948E+004    4.86377E+005   -2.28435E+005    3.57182E+005    1.64138E+005    3.44687E+005    1.76481E+005    2.16637E+005    9.41089E+003    6.67866E+004
            5481    4.84140E+005    5.87552E+005    5.87552E+005    2.07741E+005    4.23998E+004    5.45152E+005   -2.79231E+005    4.13053E+005    2.04652E+005    4.21046E+005    2.11995E+005    2.42525E+005    8.13939E+003    6.44106E+004
            5482    3.33183E+005    3.36204E+005    3.36204E+005    7.65009E+004   -3.94665E+004    3.75670E+005   -1.24413E+005    2.82100E+005    6.71581E+004    2.21854E+005    8.42258E+004    1.66218E+005    3.19913E+004    3.40255E+004
            5483    3.94186E+005    4.33311E+005    4.33311E+005    1.18172E+005   -8.68475E+003    4.41996E+005   -1.80933E+005    3.43546E+005    1.10396E+005    3.06555E+005    1.25847E+005    1.92776E+005    3.57881E+004    3.81529E+004
            5484    4.49550E+005    5.20292E+005    5.20292E+005    1.56479E+005    1.77214E+004    5.02571E+005   -2.31498E+005    3.96902E+005    1.51411E+005    3.80850E+005    1.62232E+005    2.19302E+005    3.49569E+004    3.59271E+004
            5485    5.12169E+005    6.20845E+005    6.20845E+005    1.97955E+005    5.13634E+004    5.69481E+005   -2.90054E+005    4.61311E+005    2.00023E+005    4.67971E+005    2.02169E+005    2.48049E+005    3.20829E+004    3.37538E+004
            5486    5.19222E+005    5.90006E+005    5.90006E+005    1.82386E+005    5.43844E+003    5.84568E+005   -2.59277E+005    4.43350E+005    1.93356E+005    4.39320E+005    1.45155E+005    2.41438E+005    8.11756E+004   -9.47257E+003
            5487    4.57988E+005    5.01648E+005    5.01648E+005    1.40102E+005   -1.33648E+004    5.15013E+005   -2.09462E+005    3.93570E+005    1.51898E+005    3.76096E+005    1.00392E+005    2.03970E+005    8.25923E+004    2.02731E+003
            5488    3.98483E+005    4.15647E+005    4.15647E+005    9.94206E+004   -3.19300E+004    4.47577E+005   -1.61046E+005    3.44471E+005    1.11192E+005    3.11177E+005    6.07691E+004    1.71804E+005    7.62967E+004    7.20051E+003
            5489    3.46037E+005    3.42615E+005    3.42615E+005    6.14896E+004   -4.38489E+004    3.86464E+005   -1.20085E+005    3.06728E+005    7.62172E+004    2.52690E+005    3.13486E+004    1.46159E+005    6.77776E+004    1.63153E+004
            5490    3.04385E+005    2.74438E+005    2.74438E+005    3.01918E+004   -6.65645E+004    3.41002E+005   -7.93550E+004    2.66339E+005    4.59895E+004    1.99723E+005   -7.64740E+003    1.18560E+005    6.86101E+004    2.31073E+004
            5491    2.33692E+005    1.88286E+005    1.88286E+005    1.55703E+004   -7.76242E+004    2.65910E+005   -4.20773E+004    1.84327E+005    1.98112E+004    1.35640E+005   -2.92197E+004    7.93190E+004    6.46193E+004    2.38803E+004
            5492    1.74954E+005    1.33504E+005    1.33504E+005    7.32269E+003   -6.62167E+004    1.99720E+005   -2.48698E+004    1.32837E+005    1.24833E+004    9.07537E+004   -2.86275E+004    5.22300E+004    5.41392E+004    2.94263E+004
            5493    1.25391E+005    9.49422E+004    9.49422E+004   -2.07280E+001   -4.71934E+004    1.42136E+005   -1.59094E+004    1.02361E+005    7.81881E+003    5.82451E+004   -1.83359E+004    3.49343E+004    3.95941E+004    3.06203E+004
            5494    1.16987E+005    1.00748E+005    1.00748E+005   -2.84547E+002   -2.74230E+004    1.28171E+005   -2.43468E+004    1.09564E+005    7.03810E+003    6.96933E+004   -3.69097E+003    4.75240E+004    2.27195E+004    1.47059E+004
            5495    1.25560E+005    1.11824E+005    1.11824E+005    1.56862E+003   -2.48397E+004    1.36664E+005   -2.95176E+004    1.19069E+005    5.67911E+003    8.19232E+004    9.50546E+002    5.58097E+004    7.82051E+003    3.72375E+003
            5496    1.50130E+005    1.16870E+005    1.16870E+005    7.00493E+002   -5.26476E+004    1.69518E+005   -2.16411E+004    1.25991E+005   -1.19227E+003    8.17666E+004   -1.56510E+004    6.11669E+004    3.14583E+004    4.28853E+003
            5497    1.55916E+005    1.28714E+005    1.28714E+005   -2.55858E+002   -4.45587E+004    1.73273E+005   -2.79665E+004    1.40675E+005   -2.07076E+003    8.83394E+004   -2.36926E+003    7.23650E+004    1.15234E+004    2.14284E+002
            5498    2.14734E+005    1.79524E+005    1.79524E+005    1.34047E+004   -6.29533E+004    2.42477E+005   -4.33252E+004    1.80153E+005    5.74741E+003    1.28062E+005   -3.83386E+003    9.31364E+004    3.57835E+004   -2.68689E+003
            5499    2.11465E+005    1.67968E+005    1.67968E+005    3.07970E+003   -7.04452E+004    2.38413E+005   -3.35341E+004    1.79121E+005   -5.56148E+003    1.05925E+005    2.39267E+002    1.03760E+005    1.23850E+004   -6.90280E+003
            5500    2.59136E+005    2.23462E+005    2.23462E+005    2.27699E+004   -6.90898E+004    2.92552E+005   -5.90475E+004    2.17702E+005    1.82457E+004    1.45997E+005    1.28997E+004    1.25326E+005    3.11835E+004   -5.22339E+003
            5501    2.36490E+005    1.86294E+005    1.86294E+005    1.02151E+004   -8.25065E+004    2.68801E+005   -3.80010E+004    1.88552E+005    6.14736E+003    9.82044E+004    9.65123E+003    1.25835E+005    9.28633E+003   -6.60974E+002
            5502    2.57099E+005    2.11931E+005    2.11931E+005    1.72207E+003   -7.47197E+004    2.86651E+005   -4.63112E+004    2.29363E+005    2.06184E+004    1.16311E+005    2.00442E+003    1.34938E+005    5.41731E+003    5.83912E+003
            5503    2.73042E+005    2.74147E+005    2.74147E+005    4.94602E+004   -2.97407E+004    3.03887E+005   -9.79553E+004    2.45131E+005    7.37514E+004    1.73584E+005    4.65309E+004    1.32450E+005    1.88847E+003    5.31889E+004
            5504    2.95237E+005    2.86360E+005    2.86360E+005    4.52382E+004   -4.29112E+004    3.29271E+005   -9.62289E+004    2.63093E+005    5.03512E+004    1.87223E+005    5.11128E+004    1.46492E+005    1.92102E+004    3.18737E+004
            5505    2.98759E+005    2.91430E+005    2.91430E+005    7.61227E+004   -4.96523E+004    3.41083E+005   -1.05967E+005    2.26554E+005    7.57642E+004    1.61149E+005    8.09878E+004    1.51673E+005    5.60734E+003    6.65244E+004
            5506    6.04523E+005   -1.27128E+004   -6.95681E+005   -2.29239E+005   -6.95681E+005    6.82968E+005    3.12544E+005   -5.05529E+005   -2.34365E+005   -5.10859E+005   -1.92409E+005    2.90899E+005    8.13549E+004    2.52733E+004
            5507    5.92131E+005   -5.91887E+004   -7.18236E+005   -2.31038E+005   -7.18236E+005    6.59047E+005    3.36154E+005   -5.31531E+005   -2.56177E+005   -5.28794E+005   -2.23491E+005    2.93721E+005    4.97698E+004   -4.91150E+003
            5508    5.43271E+005   -6.28463E+004   -6.64831E+005   -2.11019E+005   -6.64831E+005    6.01985E+005    3.12899E+005   -4.94657E+005   -2.21104E+005   -5.04633E+005   -2.12959E+005    2.63385E+005    2.83509E+004   -2.48458E+004
            5509    5.67894E+005   -7.32148E+004   -7.05818E+005   -2.39975E+005   -7.05818E+005    6.32604E+005    3.39669E+005   -5.08271E+005   -2.34729E+005   -5.40759E+005   -2.43520E+005    2.74278E+005    1.42420E+004   -4.15039E+004
            5510    5.25954E+005   -7.58385E+004   -6.66488E+005   -2.48781E+005   -6.66488E+005    5.90649E+005    3.30369E+005   -4.55056E+005   -2.56889E+005   -4.84370E+005   -2.49848E+005    2.66392E+005    3.33547E+003   -5.85982E+004
            5511    6.60367E+005   -4.60880E+004   -7.90686E+005   -2.76034E+005   -7.90686E+005    7.44598E+005    3.70936E+005   -5.59019E+005   -2.82038E+005   -5.70689E+005   -2.60081E+005    3.34196E+005    5.60783E+004    2.19827E+004
            5512    6.41639E+005   -8.55006E+004   -7.98968E+005   -2.69247E+005   -7.98968E+005    7.13467E+005    3.84572E+005   -5.77851E+005   -2.98572E+005   -5.89688E+005   -2.65455E+005    3.22920E+005    3.35773E+004   -7.02754E+001
            5513    5.93146E+005   -8.73850E+004   -7.43263E+005   -2.44473E+005   -7.43263E+005    6.55878E+005    3.58374E+005   -5.43312E+005   -2.57817E+005   -5.72206E+005   -2.45098E+005    2.86943E+005    1.89819E+004   -1.56130E+004
            5514    6.19341E+005   -9.78313E+004   -7.85623E+005   -2.72051E+005   -7.85623E+005    6.87792E+005    3.85168E+005   -5.60105E+005   -2.71489E+005   -6.10487E+005   -2.73528E+005    2.98149E+005    9.67504E+003   -2.82298E+004
            5515    5.63296E+005   -1.06513E+005   -7.36431E+005   -2.81099E+005   -7.36431E+005    6.29918E+005    3.74681E+005   -4.96723E+005   -2.94139E+005   -5.48424E+005   -2.81480E+005    2.85670E+005    2.29864E+003   -3.84013E+004
            5516    6.93863E+005   -6.60253E+004   -8.47884E+005   -3.05402E+005   -8.47884E+005    7.81859E+005    4.06437E+005   -5.89608E+005   -3.10694E+005   -6.05296E+005   -3.03321E+005    3.60978E+005    2.00057E+004    1.01975E+004
            5517    6.69221E+005   -1.01363E+005   -8.45150E+005   -2.91754E+005   -8.45150E+005    7.43787E+005    4.12756E+005   -6.03630E+005   -3.22211E+005   -6.24755E+005   -2.91301E+005    3.39406E+005    1.19411E+004    2.17309E+001
            5518    6.21264E+005   -1.00735E+005   -7.87358E+005   -2.64102E+005   -7.87358E+005    6.86623E+005    3.84065E+005   -5.69856E+005   -2.77953E+005   -6.10079E+005   -2.64163E+005    3.00374E+005    6.71029E+003   -5.25761E+003
            5519    6.49298E+005   -1.13130E+005   -8.33208E+005   -2.92328E+005   -8.33208E+005    7.20078E+005    4.12889E+005   -5.89699E+005   -2.94430E+005   -6.51748E+005   -2.92488E+005    3.12474E+005    3.42430E+003   -9.27856E+003
            5520    5.84950E+005   -1.24129E+005   -7.76752E+005   -2.99679E+005   -7.76752E+005    6.52623E+005    4.00187E+005   -5.20545E+005   -3.16089E+005   -5.84772E+005   -2.99699E+005    2.97025E+005    6.08334E+002   -1.45187E+004
            5521    1.20985E+005    4.65435E+004   -9.07931E+004    4.15079E+001   -9.07931E+004    1.37337E+005    1.47360E+004   -9.76031E+004   -6.64628E+003   -5.53022E+004    1.77404E+004    3.15051E+004   -3.84316E+004    3.20417E+004
            5522    1.03904E+005    3.09324E+004   -8.32963E+004    5.59781E+003   -8.32963E+004    1.14229E+005    1.55887E+004   -9.65814E+004    1.65259E+003   -5.85228E+004    1.01042E+004    3.90396E+004   -2.14216E+004    1.46752E+004
            5523    1.08598E+005    2.46853E+004   -9.37335E+004    1.20145E+003   -9.37335E+004    1.18419E+005    2.26156E+004   -1.02649E+005    1.03629E+003   -7.05456E+004    1.66260E+003    4.61189E+004   -7.72168E+003    4.64183E+003
            5524    8.12924E+004    2.76174E+004   -6.33398E+004    2.22693E+003   -6.33398E+004    9.09573E+004    1.11652E+004   -7.15198E+004   -6.89043E+003   -3.26817E+004    6.07667E+003    1.92439E+004   -2.32298E+004    3.00601E+004
            5525    7.16157E+004    9.69042E+003   -6.40481E+004    5.23686E+003   -6.40481E+004    7.37385E+004    1.63736E+004   -7.13031E+004   -7.76254E+003   -4.08795E+004   -4.78768E+002    2.71489E+004   -1.30415E+004    1.84062E+004
            5526    7.38928E+004    9.72327E+003   -6.87140E+004   -4.11952E+002   -6.87140E+004    7.84372E+004    1.98009E+004   -7.23042E+004   -7.34333E+003   -5.08896E+004   -1.16968E+003    3.20474E+004   -4.42343E+003    6.24771E+003
            5527    5.60919E+004    2.10823E+004   -4.16819E+004    3.54889E+003   -4.16819E+004    6.27642E+004    5.68357E+003   -4.93369E+004   -2.62132E+003   -1.51285E+004    6.99085E+002    1.20130E+004   -9.91000E+003    2.71401E+004
            5528    4.88865E+004    1.63691E+004   -3.59567E+004    8.54746E+003   -3.59567E+004    5.23258E+004    3.68004E+003   -4.74481E+004    2.86652E+003   -1.69946E+004    3.08797E+003    1.80069E+004   -5.56925E+003    1.75612E+004
            5529    4.52198E+004    1.54098E+004   -3.49191E+004    2.29066E+003   -3.49191E+004    5.03288E+004    5.73955E+003   -4.05955E+004    2.92059E+003   -2.14064E+004    1.26712E+003    2.12679E+004   -2.04154E+003    6.35204E+003
            5530    4.76371E+004    2.79725E+004    2.79725E+004   -1.08419E+003   -2.70042E+004    5.49768E+004    3.86249E+001    2.20094E+004   -9.25735E+002    9.61260E+002   -1.51399E+002    9.74491E+003    3.85791E+002    2.56986E+004
            5531    3.94051E+004    2.14010E+004   -2.39585E+004   -4.38478E+003   -2.39585E+004    4.53595E+004    2.31410E+003    2.43000E+004   -4.63305E+003    6.23373E+002   -2.93263E+003    1.48530E+004    4.97604E+002    1.70157E+004
            5532    3.30998E+004    1.77476E+004   -2.04658E+004   -1.98850E+003   -2.04658E+004    3.82134E+004    1.56887E+003    1.27401E+004   -4.52898E+003    1.28908E+003   -1.46671E+003    1.78739E+004    3.54115E+002    6.09326E+003
            5533    5.78545E+004    4.42615E+004    4.42615E+004   -2.40931E+003   -2.04686E+004    6.47301E+004   -7.12784E+003    5.09086E+004    4.94111E+003    1.73325E+004   -8.90130E+002    1.30830E+004    1.10996E+004    2.71062E+004
            5534    5.31590E+004    4.66819E+004    4.66819E+004   -2.29097E+003   -9.85318E+003    5.65351E+004   -1.15126E+004    5.19281E+004    7.14497E+003    2.47740E+004    2.61885E+003    2.07859E+004    7.03269E+003    1.79840E+004
            5535    5.22371E+004    4.76485E+004    4.76485E+004    8.61930E+002   -8.71412E+003    5.63627E+004   -1.32654E+004    5.02051E+004    6.56762E+003    3.16245E+004    1.60426E+003    2.46022E+004    2.26186E+003    6.34354E+003
            5536    8.35707E+004    6.49581E+004    6.49581E+004   -2.37900E+003   -2.85714E+004    9.35296E+004   -1.13359E+004    7.34471E+004    5.41284E+003    3.49048E+004   -6.30993E+003    1.94547E+004    2.40467E+004    3.03367E+004
            5537    7.56342E+004    6.11104E+004    6.11104E+004   -8.68646E+003   -1.92504E+004    8.03608E+004   -1.10578E+004    7.39471E+004   -1.61825E+003    4.10561E+004   -6.26436E+003    2.65850E+004    1.45605E+004    1.75429E+004
            5538    7.94433E+004    6.89949E+004    6.89949E+004   -2.24993E+003   -1.66712E+004    8.56661E+004   -1.66913E+004    7.64147E+004   -1.13756E+003    5.29655E+004   -1.75417E+003    3.23994E+004    5.42450E+003    6.13526E+003
            5539    5.25592E+005   -7.57052E+004   -6.65992E+005   -2.48711E+005   -6.65992E+005    5.90287E+005    3.30136E+005   -4.54574E+005   -2.56673E+005   -4.83972E+005   -2.49763E+005    2.66204E+005   -3.28092E+003    5.87006E+004
            5540    5.67784E+005   -7.31784E+004   -7.05611E+005   -2.39728E+005   -7.05611E+005    6.32433E+005    3.39506E+005   -5.08312E+005   -2.34573E+005   -5.40657E+005   -2.43288E+005    2.74168E+005   -1.43396E+004    4.14767E+004
            5541    5.43678E+005   -6.28927E+004   -6.65338E+005   -2.11210E+005   -6.65338E+005    6.02446E+005    3.13147E+005   -4.95004E+005   -2.21386E+005   -5.04972E+005   -2.13084E+005    2.63632E+005   -2.84405E+004    2.45640E+004
            5542    5.92770E+005   -5.90702E+004   -7.18964E+005   -2.31594E+005   -7.18964E+005    6.59894E+005    3.36543E+005   -5.31729E+005   -2.56569E+005   -5.29236E+005   -2.23823E+005    2.94061E+005   -5.01636E+004    4.58558E+003
            5543    6.04790E+005   -1.27821E+004   -6.96092E+005   -2.29592E+005   -6.96092E+005    6.83310E+005    3.12822E+005   -5.05552E+005   -2.34546E+005   -5.11118E+005   -1.92802E+005    2.91091E+005   -8.13878E+004   -2.52843E+004
            5544    5.63032E+005   -1.06532E+005   -7.36174E+005   -2.81112E+005   -7.36174E+005    6.29642E+005    3.74606E+005   -4.96425E+005   -2.94235E+005   -5.48103E+005   -2.81481E+005    2.85603E+005   -2.25659E+003    3.84382E+004
            5545    6.19044E+005   -9.80540E+004   -7.85589E+005   -2.72452E+005   -7.85589E+005    6.87536E+005    3.85365E+005   -5.59644E+005   -2.71825E+005   -6.10348E+005   -2.73922E+005    2.98127E+005   -9.54369E+003    2.83456E+004
            5546    5.93318E+005   -8.75900E+004   -7.43635E+005   -2.44642E+005   -7.43635E+005    6.56045E+005    3.58622E+005   -5.43525E+005   -2.58094E+005   -5.72503E+005   -2.45270E+005    2.87033E+005   -1.89776E+004    1.56290E+004
            5547    6.42258E+005   -8.51907E+004   -7.99472E+005   -2.69566E+005   -7.99472E+005    7.14281E+005    3.84743E+005   -5.78067E+005   -2.98690E+005   -5.89847E+005   -2.65693E+005    3.23331E+005   -3.36544E+004   -2.78581E+002
            5548    6.60559E+005   -4.57421E+004   -7.90658E+005   -2.76201E+005   -7.90658E+005    7.44916E+005    3.70867E+005   -5.58732E+005   -2.81893E+005   -5.70585E+005   -2.60122E+005    3.34295E+005   -5.62745E+004   -2.21877E+004
            5549    5.84713E+005   -1.24106E+005   -7.76517E+005   -2.99779E+005   -7.76517E+005    6.52411E+005    4.00134E+005   -5.20178E+005   -3.16094E+005   -5.84506E+005   -2.99802E+005    2.96961E+005   -6.37314E+002    1.46823E+004
            5550    6.49155E+005   -1.13067E+005   -8.33006E+005   -2.92295E+005   -8.33006E+005    7.19939E+005    4.12789E+005   -5.89519E+005   -2.94318E+005   -6.51596E+005   -2.92454E+005    3.12405E+005   -3.40214E+003    9.30906E+003
            5551    6.21394E+005   -1.00656E+005   -7.87483E+005   -2.64257E+005   -7.87483E+005    6.86827E+005    3.84132E+005   -5.69841E+005   -2.77915E+005   -6.10160E+005   -2.64321E+005    3.00458E+005   -6.67018E+003    5.30552E+003
            5552    6.69004E+005   -1.01399E+005   -8.44993E+005   -2.91899E+005   -8.44993E+005    7.43593E+005    4.12764E+005   -6.03307E+005   -3.22229E+005   -6.24593E+005   -2.91468E+005    3.39351E+005   -1.18135E+004    1.49753E+002
            5553    6.93222E+005   -6.59150E+004   -8.47042E+005   -3.05028E+005   -8.47042E+005    7.81127E+005    4.05995E+005   -5.89106E+005   -3.10401E+005   -6.04666E+005   -3.02918E+005    3.60636E+005   -2.01642E+004   -1.02197E+004
            5554    2.84024E+005    7.58020E+004   -2.47006E+005   -3.54427E+004   -2.47006E+005    3.22808E+005    6.88821E+004   -2.26592E+005   -3.82936E+004   -1.87375E+005    1.90219E+004    9.99965E+004   -7.20501E+004    1.86465E+004
            5555    3.46776E+005    7.42977E+004   -3.19221E+005   -5.83436E+004   -3.19221E+005    3.93519E+005    1.01089E+005   -2.80530E+005   -6.28122E+004   -2.46729E+005    6.27438E+003    1.26059E+005   -8.28054E+004    1.53433E+004
            5556    4.06394E+005    5.68898E+004   -4.03214E+005   -9.32580E+004   -4.03214E+005    4.60104E+005    1.46527E+005   -3.34863E+005   -9.84125E+004   -3.10925E+005   -3.02451E+004    1.57813E+005   -9.25165E+004    1.25086E+004
            5557    4.71212E+005    4.36783E+004   -4.89990E+005   -1.31287E+005   -4.89990E+005    5.33668E+005    1.92533E+005   -3.87297E+005   -1.35671E+005   -3.74068E+005   -6.78598E+004    1.96783E+005   -9.70407E+004   -2.68077E+003
            5558    5.39567E+005    1.55414E+004   -5.94416E+005   -1.79452E+005   -5.94416E+005    6.09957E+005    2.52775E+005   -4.49364E+005   -1.85102E+005   -4.46691E+005   -1.26533E+005    2.42664E+005   -9.42902E+004   -1.44043E+004
            5559    5.32998E+005   -2.70003E+004   -6.21098E+005   -1.84865E+005   -6.21098E+005    5.94098E+005    2.77655E+005   -4.75979E+005   -2.04626E+005   -4.54968E+005   -1.73369E+005    2.59174E+005   -6.02107E+004    8.64595E+003
            5560    4.87221E+005   -3.53378E+004   -5.76797E+005   -1.73776E+005   -5.76797E+005    5.41459E+005    2.61970E+005   -4.39598E+005   -1.79834E+005   -4.28648E+005   -1.77428E+005    2.36906E+005   -3.45983E+004    3.11285E+004
            5561    5.06685E+005   -4.19841E+004   -6.09067E+005   -2.00857E+005   -6.09067E+005    5.67083E+005    2.83970E+005   -4.45246E+005   -1.90090E+005   -4.54634E+005   -2.07184E+005    2.46505E+005   -1.85349E+004    5.04994E+004
            5562    4.78148E+005   -4.29520E+004   -5.82499E+005   -2.11277E+005   -5.82499E+005    5.39547E+005    2.78909E+005   -4.02906E+005   -2.13521E+005   -4.09626E+005   -2.13581E+005    2.42534E+005   -4.54839E+003    6.74522E+004
            5563    4.71629E+005   -7.22059E+002   -5.26583E+005   -1.41032E+005   -5.26583E+005    5.25861E+005    2.22779E+005   -4.20684E+005   -1.54952E+005   -3.83717E+005   -1.29669E+005    2.23614E+005   -6.52233E+004    1.73747E+004
            5564    4.31018E+005   -4.25125E+003   -4.85835E+005   -1.36256E+005   -4.85835E+005    4.81583E+005    2.08781E+005   -3.81399E+005   -1.36124E+005   -3.48574E+005   -1.41644E+005    2.11264E+005   -3.82827E+004    3.41020E+004
            5565    4.47296E+005   -1.46173E+004   -5.17512E+005   -1.64102E+005   -5.17512E+005    5.02894E+005    2.32077E+005   -3.84760E+005   -1.49837E+005   -3.73894E+005   -1.72500E+005    2.19807E+005   -2.12956E+004    5.20573E+004
            5566    4.29417E+005   -1.10054E+004   -4.97851E+005   -1.72974E+005   -4.97851E+005    4.86845E+005    2.27277E+005   -3.50064E+005   -1.71207E+005   -3.33881E+005   -1.76742E+005    2.18203E+005   -5.54705E+003    7.27466E+004
            5567    4.09835E+005    2.77112E+004   -4.30194E+005   -9.77674E+004   -4.30194E+005    4.57905E+005    1.66750E+005   -3.62687E+005   -1.05576E+005   -3.10459E+005   -8.42153E+004    1.89347E+005   -6.49472E+004    1.77375E+004
            5568    3.83647E+005    1.81540E+004   -4.11783E+005   -1.04344E+005   -4.11783E+005    4.29937E+005    1.65991E+005   -3.35216E+005   -1.00796E+005   -2.86333E+005   -1.10844E+005    1.88219E+005   -3.94120E+004    3.45717E+004
            5569    3.92805E+005    1.18122E+004   -4.32292E+005   -1.30400E+005   -4.32292E+005    4.44104E+005    1.83627E+005   -3.26860E+005   -1.13870E+005   -2.96593E+005   -1.40417E+005    1.96237E+005   -2.21463E+004    5.18164E+004
            5570    3.81554E+005    1.01496E+004   -4.23963E+005   -1.41765E+005   -4.23963E+005    4.34112E+005    1.85193E+005   -3.01272E+005   -1.37535E+005   -2.71758E+005   -1.46285E+005    1.95394E+005   -5.98686E+003    6.83653E+004
            5571    3.52110E+005    4.13880E+004   -3.51417E+005   -6.41325E+004   -3.51417E+005    3.92805E+005    1.24720E+005   -3.13462E+005   -6.87676E+004   -2.52733E+005   -5.26607E+004    1.57734E+005   -6.02067E+004    2.16088E+004
            5572    3.36944E+005    4.16286E+004   -3.37798E+005   -7.35333E+004   -3.37798E+005    3.79426E+005    1.23234E+005   -2.87381E+005   -6.65364E+004   -2.23666E+005   -7.95000E+004    1.67317E+005   -3.65861E+004    3.00535E+004
            5573    3.49255E+005    2.57148E+004   -3.69744E+005   -1.03544E+005   -3.69744E+005    3.95459E+005    1.49191E+005   -2.87532E+005   -9.05958E+004   -2.44191E+005   -1.12787E+005    1.76609E+005   -2.04992E+004    4.64425E+004
            5574    3.42373E+005    2.93774E+004   -3.61129E+005   -1.12508E+005   -3.61129E+005    3.90506E+005    1.48087E+005   -2.62844E+005   -1.09249E+005   -2.17698E+005   -1.17312E+005    1.75212E+005   -5.72026E+003    6.84865E+004
            5575    2.90510E+005    6.02764E+004   -2.65400E+005   -3.29409E+004   -2.65400E+005    3.25676E+005    7.93548E+004   -2.53432E+005   -3.20637E+004   -1.88008E+005   -1.79924E+004    1.29180E+005   -4.94143E+004    9.95308E+003
            5576    3.03028E+005    4.91229E+004   -2.91327E+005   -5.11302E+004   -2.91327E+005    3.40450E+005    9.77781E+004   -2.61614E+005   -4.76698E+004   -1.90180E+005   -5.54849E+004    1.50796E+005   -2.89972E+004    2.46906E+004
            5577    3.11992E+005    4.26082E+004   -3.10857E+005   -7.38286E+004   -3.10857E+005    3.53465E+005    1.14026E+005   -2.55762E+005   -6.80299E+004   -1.92565E+005   -8.14826E+004    1.60221E+005   -1.61307E+004    4.29404E+004
            5578    3.07953E+005    3.60006E+004   -3.15248E+005   -9.16333E+004   -3.15248E+005    3.51249E+005    1.23627E+005   -2.36402E+005   -9.13710E+004   -1.84803E+005   -9.47072E+004    1.58012E+005   -3.95719E+003    6.17954E+004
            5579    2.89376E+005    5.27128E+004   -2.78276E+005   -7.31199E+004   -2.78276E+005    3.30989E+005    9.95611E+004   -2.13370E+005   -7.44255E+004   -1.49190E+005   -7.50678E+004    1.44770E+005   -2.30629E+003    7.14269E+004
            5580    2.75406E+005    2.37970E+004   -2.81768E+005   -5.26896E+004   -2.81768E+005    3.05565E+005    1.03554E+005   -2.49783E+005   -7.97801E+004   -1.84600E+005   -4.62803E+004    1.29647E+005   -2.49592E+002    5.71618E+004
            5581    2.95247E+005    4.22104E+004   -2.87117E+005   -4.61105E+004   -2.87117E+005    3.29327E+005    9.70056E+004   -2.62968E+005   -5.90249E+004   -1.82279E+005   -4.97129E+004    1.46764E+005   -8.10220E+003    4.44526E+004
            5582    2.60737E+005    6.92728E+004   -2.19425E+005   -1.09098E+003   -2.19425E+005    2.88698E+005    5.04145E+004   -2.37930E+005   -2.75953E+004   -1.22368E+005   -1.27976E+003    1.35961E+005   -2.24346E+003    1.07060E+004
            5583    2.74020E+005    6.52656E+004   -2.40726E+005   -1.79890E+004   -2.40726E+005    3.05991E+005    6.44830E+004   -2.43023E+005   -2.67949E+004   -1.49785E+005   -1.68695E+004    1.38334E+005   -1.94801E+004    5.59696E+003
            5584    2.44767E+005    8.36910E+004   -1.93846E+005   -8.80966E+003   -1.93846E+005    2.77537E+005    3.96549E+004   -1.99328E+005   -1.26026E+004   -9.76138E+004   -8.74820E+003    1.31927E+005   -6.33779E+003    1.51098E+003
            5585    2.45307E+005    6.31297E+004   -2.13497E+005   -2.24256E+004   -2.13497E+005    2.76627E+005    5.75977E+004   -2.07521E+005   -1.46408E+004   -1.44528E+005   -1.36240E+004    1.15655E+005   -3.18472E+004   -3.06306E+002
            5586    2.29853E+005    7.92869E+004   -1.80430E+005   -3.21260E+003   -1.80430E+005    2.59717E+005    3.47852E+004   -1.92032E+005    1.71157E+003   -1.04652E+005   -1.41476E+003    1.17479E+005   -1.05757E+004   -5.84885E+003
            5587    1.85451E+005    6.13245E+004   -1.47710E+005   -2.93939E+003   -1.47710E+005    2.09034E+005    2.97750E+004   -1.57302E+005    4.42924E+003   -9.32635E+004   -4.90653E+002    9.09234E+004   -1.24744E+004   -3.48603E+003
            5588    1.54099E+005    3.92088E+004   -1.31116E+005   -1.36170E+003   -1.31116E+005    1.70325E+005    3.10897E+004   -1.41315E+005   -3.03738E+003   -9.09202E+004    6.88327E+002    7.15209E+004   -1.05828E+004   -9.81948E+001
            5589    1.93009E+005    6.40569E+004   -1.54932E+005   -9.58769E+003   -1.54932E+005    2.18989E+005    3.34877E+004   -1.56352E+005   -1.81093E+003   -1.08926E+005    1.02737E+004    8.23843E+004   -3.62606E+004   -3.28341E+003
            5590    1.49429E+005    4.36322E+004   -1.23838E+005   -4.12471E+003   -1.23838E+005    1.67470E+005    2.81101E+004   -1.30526E+005   -6.40169E+003   -8.67507E+004    8.82202E+003    6.19471E+004   -3.01947E+004    7.54216E+003
            5591    1.73711E+005    6.72041E+004   -1.31051E+005   -5.52687E+003   -1.31051E+005    1.98255E+005    2.31245E+004   -1.32306E+005   -1.14414E+004   -8.81573E+004    3.02251E+004    5.15839E+004   -5.37628E+004    3.00201E+004
            5592    2.33735E+005    7.76086E+004   -1.88727E+005   -1.77313E+004   -1.88727E+005    2.66336E+005    4.29500E+004   -1.81544E+005   -2.29951E+004   -1.36487E+005    3.06322E+004    7.69264E+004   -6.58734E+004    2.59396E+004
            5593    3.48483E+005    3.27599E+005    3.27599E+005    5.20011E+004   -6.41183E+004    3.91718E+005   -1.05161E+005    3.00084E+005    7.28326E+004    2.16698E+005    2.59521E+004    1.58481E+005   -7.28094E+004   -1.35199E+004
            5594    4.04382E+005    3.98013E+005    3.98013E+005    8.71081E+004   -5.91475E+004    4.57161E+005   -1.41991E+005    3.36653E+005    1.04308E+005    2.68360E+005    5.33057E+004    1.87092E+005   -8.27626E+004   -5.30145E+003
            5595    4.70110E+005    4.82592E+005    4.82592E+005    1.24467E+005   -4.97594E+004    5.32352E+005   -1.85767E+005    3.86762E+005    1.40417E+005    3.26507E+005    9.03762E+004    2.23882E+005   -8.97912E+004   -7.48135E+002
            5596    5.39095E+005    5.72471E+005    5.72471E+005    1.62964E+005   -3.83019E+004    6.10773E+005   -2.32378E+005    4.41853E+005    1.78716E+005    3.85937E+005    1.32479E+005    2.66461E+005   -8.71296E+004    7.83301E+003
            5597    4.83885E+005    5.46575E+005    5.46575E+005    1.59425E+005    4.10052E+003    5.42475E+005   -2.36700E+005    4.22075E+005    1.78250E+005    3.69313E+005    1.62538E+005    2.50970E+005   -3.39126E+004   -2.57099E+004
            5598    4.34149E+005    5.24423E+005    5.24423E+005    1.84786E+005    3.52772E+004    4.89146E+005   -2.48162E+005    3.69183E+005    1.88760E+005    3.67941E+005    1.87785E+005    2.21307E+005   -6.76343E+003   -5.51858E+004
            5599    4.24607E+005    4.63559E+005    4.63559E+005    1.27703E+005   -1.37095E+004    4.77269E+005   -1.92518E+005    3.65704E+005    1.40322E+005    3.05354E+005    1.31877E+005    2.20288E+005   -3.54982E+004   -2.72673E+004
            5600    3.87845E+005    4.46801E+005    4.46801E+005    1.50864E+005    7.73160E+003    4.39069E+005   -2.01799E+005    3.19760E+005    1.50710E+005    2.99938E+005    1.54748E+005    1.98610E+005   -6.88059E+003   -5.84841E+004
            5601    3.71769E+005    3.90268E+005    3.90268E+005    9.75033E+004   -2.80132E+004    4.18281E+005   -1.53253E+005    3.18583E+005    1.06969E+005    2.49435E+005    1.03354E+005    1.92561E+005   -3.39046E+004   -2.99990E+004
            5602    3.45161E+005    3.70522E+005    3.70522E+005    1.16270E+005   -2.24113E+004    3.92933E+005   -1.54793E+005    2.70904E+005    1.12702E+005    2.30450E+005    1.21228E+005    1.77760E+005   -6.92163E+003   -6.12734E+004
            5603    3.16230E+005    3.07657E+005    3.07657E+005    6.49704E+004   -4.99676E+004    3.57625E+005   -1.07553E+005    2.62656E+005    6.92076E+004    1.82132E+005    7.13206E+004    1.65946E+005   -2.83494E+004   -2.86274E+004
            5604    3.06746E+005    3.09948E+005    3.09948E+005    9.08295E+004   -4.06164E+004    3.50564E+005   -1.20054E+005    2.29179E+005    8.56980E+004    1.80026E+005    9.44374E+004    1.60011E+005   -4.56734E+003   -5.49864E+004
            5605    2.78123E+005    2.60130E+005    2.60130E+005    6.59601E+004   -5.84863E+004    3.18616E+005   -8.92013E+004    1.99335E+005    6.43709E+004    1.34013E+005    6.92201E+004    1.44349E+005   -3.77906E+003   -5.84922E+004
            5606    2.54163E+005    2.42756E+005    2.42756E+005    4.09637E+004   -4.26903E+004    2.85446E+005   -8.03432E+004    2.19828E+005    5.98492E+004    1.42062E+005    3.91185E+004    1.28083E+005   -1.19444E+003   -4.64970E+004
            5607    2.84618E+005    2.61287E+005    2.61287E+005    3.79768E+004   -5.91915E+004    3.20478E+005   -8.00240E+004    2.42860E+005    4.90136E+004    1.48441E+005    4.26177E+004    1.49661E+005   -1.53191E+004   -2.91317E+004
            5608    2.51935E+005    1.94492E+005    1.94492E+005    6.93276E+002   -9.02980E+004    2.84790E+005   -3.49625E+004    2.09877E+005    1.74541E+004    8.65044E+004    9.28942E+002    1.38010E+005   -3.37099E+003   -6.20036E+003
            5609    2.37130E+005    1.80721E+005    1.80721E+005    1.01320E+004   -9.00596E+004    2.70780E+005   -3.35978E+004    1.79290E+005    6.32753E+003    8.46031E+004    9.86273E+003    1.29394E+005   -6.78149E+003    6.61929E+002
            5610    2.10076E+005    1.55408E+005    1.55408E+005   -3.76142E+003   -8.27037E+004    2.38112E+005   -2.29811E+004    1.71597E+005   -2.03283E+003    7.65178E+004   -5.54176E+003    1.11439E+005   -1.02592E+004    5.84022E+003
            5611    1.74260E+005    1.40541E+005    1.40541E+005    1.29335E+003   -5.48776E+004    1.95418E+005   -2.89855E+004    1.51793E+005    2.27566E+003    8.48627E+004   -1.81835E+002    8.75627E+004   -1.05211E+004    1.05170E+003
            5612    1.23830E+005    1.00711E+005    1.00711E+005   -4.54553E+003   -3.57300E+004    1.36441E+005   -2.01452E+004    1.14484E+005    1.23411E+003    6.41950E+004   -4.99365E+003    5.97212E+004   -8.25957E+003   -3.38083E+003
            5613    2.58961E+005    2.20454E+005    2.20454E+005    2.11773E+004   -7.22575E+004    2.92711E+005   -5.64579E+004    2.15830E+005    2.46742E+004    1.30448E+005    1.42509E+004    1.31844E+005   -2.87092E+004    3.65166E+003
            5614    2.11986E+005    1.69166E+005    1.69166E+005    6.44118E+003   -7.05587E+004    2.39724E+005   -3.50161E+004    1.76126E+005    1.17680E+004    1.00348E+005   -7.06790E+003    1.01739E+005   -3.65722E+004    1.00313E+003
            5615    1.66708E+005    1.32621E+005    1.32621E+005    2.69118E+003   -5.53487E+004    1.87969E+005   -2.66544E+004    1.41132E+005    5.76302E+003    8.29002E+004   -8.69996E+003    7.60790E+004   -3.21603E+004   -4.06344E+003
            5616    1.16635E+005    9.23978E+004    9.23978E+004   -5.06808E+003   -3.68274E+004    1.29225E+005   -1.68341E+004    1.06234E+005    2.83100E+003    5.54111E+004   -7.73974E+003    5.07158E+004   -2.52581E+004   -1.34326E+004
            5617    1.28187E+005    9.43983E+004    9.43983E+004   -2.03091E+003   -5.10683E+004    1.45467E+005   -1.37664E+004    1.03692E+005    8.06852E+003    5.12615E+004   -1.80309E+004    3.89674E+004   -4.41891E+004   -2.79544E+004
            5618    1.83802E+005    1.39695E+005    1.39695E+005    5.02227E+003   -6.96997E+004    2.09395E+005   -2.50058E+004    1.43098E+005    1.41928E+004    8.56227E+004   -2.47980E+004    6.20367E+004   -5.95445E+004   -2.70380E+004
            5619    2.36068E+005    1.85597E+005    1.85597E+005    1.15600E+004   -8.31118E+004    2.68709E+005   -3.80150E+004    1.85512E+005    2.40301E+004    1.16360E+005   -2.63449E+004    8.88785E+004   -7.03873E+004   -2.20086E+004
            5620    3.00388E+005    2.61114E+005    2.61114E+005    2.58712E+004   -7.72518E+004    3.38366E+005   -6.99113E+004    2.55756E+005    4.55901E+004    1.71434E+005   -7.29031E+003    1.26058E+005   -7.33553E+004   -1.94076E+004
            5621    4.80149E+005    6.01794E+005    6.01794E+005    2.18330E+005    6.32777E+004    5.38517E+005   -2.94467E+005    4.17990E+005    2.26683E+005    4.36552E+005    2.20167E+005    2.44195E+005   -5.94801E+003   -4.50483E+004
            5622    5.40697E+005    6.24308E+005    6.24308E+005    1.89617E+005    1.88439E+004    6.05464E+005   -2.77590E+005    4.74072E+005    2.13353E+005    4.28051E+005    1.91365E+005    2.81241E+005   -2.87062E+004   -2.07498E+004
            5623    6.07853E+005    6.68465E+005    6.68465E+005    2.05305E+005   -1.98405E+004    6.88305E+005   -2.84643E+005    5.00230E+005    2.21076E+005    4.48503E+005    1.84350E+005    3.11320E+005   -7.49031E+004    1.25146E+004
            5624    5.18388E+005    6.64176E+005    6.64176E+005    2.45305E+005    8.44214E+004    5.79755E+005   -3.31301E+005    4.56941E+005    2.56605E+005    4.91216E+005    2.46081E+005    2.63504E+005   -4.15959E+003   -3.02751E+004
            5625    5.87635E+005    6.89404E+005    6.89404E+005    2.15424E+005    3.19121E+004    6.57492E+005   -3.12247E+005    5.17016E+005    2.42897E+005    4.77712E+005    2.16131E+005    3.06336E+005   -1.89289E+004   -1.38359E+004
            5626    6.65734E+005    7.52326E+005    7.52326E+005    2.43406E+005   -1.08547E+003    7.53411E+005   -3.31549E+005    5.50191E+005    2.59070E+005    5.01582E+005    2.33994E+005    3.50891E+005   -5.11544E+004    1.23326E+004
            5627    5.40628E+005    7.00257E+005    7.00257E+005    2.61117E+005    9.64402E+004    6.03817E+005   -3.52605E+005    4.79130E+005    2.73766E+005    5.22839E+005    2.61210E+005    2.74849E+005   -1.51199E+003   -1.03792E+004
            5628    6.13591E+005    7.25445E+005    7.25445E+005    2.29992E+005    3.90973E+004    6.86348E+005   -3.31512E+005    5.40466E+005    2.59259E+005    5.05198E+005    2.30077E+005    3.20301E+005   -6.55765E+003   -4.90875E+003
            5629    7.00696E+005    8.04633E+005    8.04633E+005    2.67808E+005    1.19707E+004    7.92663E+005   -3.61471E+005    5.80725E+005    2.83252E+005    5.34547E+005    2.66613E+005    3.75167E+005   -1.86119E+004    5.05123E+003
            5630    1.19837E+005    2.89418E+004   -1.03056E+005   -1.09331E+003   -1.03056E+005    1.31998E+005    2.50691E+004   -1.10884E+005   -7.57364E+003   -6.67533E+004   -8.80355E+002    5.82891E+004    7.78492E+003   -3.78982E+003
            5631    1.14020E+005    3.13761E+004   -9.40940E+004    3.18920E+003   -9.40940E+004    1.25470E+005    1.98429E+004   -1.05747E+005   -7.46411E+003   -5.72001E+004    5.13545E+003    4.99213E+004    2.38033E+004   -1.37281E+004
            5632    1.26917E+005    4.80643E+004   -9.55613E+004    1.48471E+003   -9.55613E+004    1.43626E+005    1.53374E+004   -1.04924E+005   -9.67624E+003   -5.17904E+004    1.54544E+004    3.82785E+004    4.33885E+004   -2.94452E+004
            5633    8.13429E+004    2.32249E+004   -6.59309E+004    4.24214E+003   -6.59309E+004    8.91558E+004    1.28213E+004   -7.61162E+004    5.34573E+001   -4.20849E+004    3.56766E+003    3.87605E+004    5.12594E+003   -5.61654E+003
            5634    7.71010E+004    2.04379E+004   -6.14505E+004    9.74713E+003   -6.14505E+004    8.18885E+004    1.04218E+004   -7.54064E+004   -7.25278E+002   -3.40744E+004    3.53420E+003    3.24899E+004    1.46679E+004   -1.69310E+004
            5635    8.47209E+004    2.97447E+004   -6.41460E+004    6.59084E+003   -6.41460E+004    9.38907E+004    9.27014E+003   -7.71066E+004   -5.29842E+003   -2.95850E+004    7.07304E+003    2.34843E+004    2.67197E+004   -2.79161E+004
            5636    5.42374E+004    1.49393E+004   -4.57979E+004   -2.20288E+003   -4.57979E+004    6.07373E+004    1.10205E+004   -4.75439E+004   -6.61158E+003   -2.35895E+004   -2.86033E+003    2.86121E+004    2.14916E+003   -5.94060E+003
            5637    5.38473E+004    1.45420E+004   -4.39421E+004    3.58211E+003   -4.39421E+004    5.84841E+004    8.60603E+003   -5.12469E+004   -5.85130E+003   -1.88660E+004   -1.10079E+003    2.38107E+004    6.64849E+003   -1.64549E+004
            5638    5.74329E+004    1.91197E+004   -4.40779E+004    4.93021E+003   -4.40779E+004    6.31977E+004    6.67599E+003   -5.32707E+004   -5.12165E+003   -1.48339E+004   -7.23977E+001    1.56290E+004    1.21508E+004   -2.55210E+004
            5639    4.64153E+004    3.15338E+004    3.15338E+004    2.96195E+003   -2.20220E+004    5.35557E+004   -4.15792E+003    2.26184E+004    4.60064E+003    4.92964E+003    2.94347E+003    2.61515E+004   -1.38484E+002   -5.75118E+003
            5640    4.69049E+004    3.08615E+004    3.08615E+004    1.65449E+003   -2.32424E+004    5.41039E+004   -3.09121E+003    2.42065E+004    3.86223E+003    3.94914E+003    1.46226E+003    2.16766E+004   -6.96737E+002   -1.61556E+004
            5641    4.83305E+004    2.93713E+004    2.93713E+004    8.81359E+002   -2.64318E+004    5.58031E+004   -1.27364E+003    1.60345E+004    1.44815E+003    1.47662E+003    8.96156E+002    1.35880E+004   -5.12504E+002   -2.43641E+004
            5642    5.74104E+004    4.33363E+004    4.33363E+004   -3.97883E+003   -2.05321E+004    6.38684E+004   -6.27512E+003    5.16177E+004   -1.48799E+003    2.34036E+004   -3.09020E+003    2.88798E+004   -2.90872E+003   -5.95552E+003
            5643    5.58690E+004    4.21235E+004    4.21235E+004   -8.91015E+003   -1.75696E+004    5.96931E+004   -5.21459E+003    5.43284E+004   -7.30347E+002    1.83834E+004   -2.00931E+003    2.38433E+004   -8.14896E+003   -1.65852E+004
            5644    5.82079E+004    4.32674E+004    4.32674E+004   -7.18401E+003   -2.04180E+004    6.36854E+004   -5.22180E+003    5.46671E+004    2.78808E+003    1.50279E+004   -2.15059E+003    1.57089E+004   -1.27149E+004   -2.53521E+004
            5645    9.19641E+004    8.07673E+004    8.07673E+004    1.50538E+003   -2.00647E+004    1.00832E+005   -2.07360E+004    8.59919E+004    7.53195E+003    5.26323E+004    2.04380E+003    4.46153E+004   -5.43801E+003   -5.33629E+003
            5646    8.67618E+004    7.36651E+004    7.36651E+004   -6.01951E+003   -1.87641E+004    9.24292E+004   -1.62938E+004    8.46175E+004    7.06286E+003    4.30997E+004   -1.28099E+003    3.77601E+004   -1.60565E+004   -1.64089E+004
            5647    8.86670E+004    6.97423E+004    6.97423E+004   -5.11248E+003   -2.81781E+004    9.79204E+004   -1.21506E+004    8.14970E+004    7.97878E+003    3.34993E+004   -5.02637E+003    2.56084E+004   -2.78293E+004   -2.83944E+004
            5648    6.08150E+005    6.68688E+005    6.68688E+005    2.05342E+005   -1.99638E+004    6.88652E+005   -2.84689E+005    5.00418E+005    2.21115E+005    4.48599E+005    1.84352E+005    3.11476E+005    7.49640E+004   -1.25553E+004
            5649    5.40709E+005    6.24539E+005    6.24539E+005    1.89703E+005    1.91071E+004    6.05432E+005   -2.77783E+005    4.74239E+005    2.13487E+005    4.28355E+005    1.91507E+005    2.81214E+005    2.84325E+004    2.10019E+004
            5650    4.80698E+005    6.02752E+005    6.02752E+005    2.18802E+005    6.36349E+004    5.39117E+005   -2.95063E+005    4.18524E+005    2.27158E+005    4.37418E+005    2.20613E+005    2.44474E+005    5.89698E+003    4.48497E+004
            5651    6.65994E+005    7.52681E+005    7.52681E+005    2.43644E+005   -1.04598E+003    7.53727E+005   -3.31760E+005    5.50292E+005    2.59211E+005    5.01742E+005    2.34326E+005    3.51118E+005    5.08702E+004   -1.23452E+004
            5652    5.87135E+005    6.88885E+005    6.88885E+005    2.15085E+005    3.20296E+004    6.56855E+005   -3.12000E+005    5.16831E+005    2.42675E+005    4.77532E+005    2.15793E+005    3.05990E+005    1.88683E+004    1.38458E+004
            5653    5.18524E+005    6.64506E+005    6.64506E+005    2.45499E+005    8.46085E+004    5.79898E+005   -3.31538E+005    4.57090E+005    2.56799E+005    4.91548E+005    2.46266E+005    2.63573E+005    4.14063E+003    3.00690E+004
            5654    7.00842E+005    8.04864E+005    8.04864E+005    2.67934E+005    1.20333E+004    7.92831E+005   -3.61611E+005    5.80835E+005    2.83358E+005    5.34671E+005    2.66803E+005    3.75290E+005    1.81556E+004   -4.86798E+003
            5655    6.13231E+005    7.25024E+005    7.25024E+005    2.29755E+005    3.91165E+004    6.85908E+005   -3.31298E+005    5.40270E+005    2.59075E+005    5.04985E+005    2.29836E+005    3.20063E+005    6.90361E+003    4.84431E+003
            5656    5.40560E+005    7.00200E+005    7.00200E+005    2.61151E+005    9.64458E+004    6.03754E+005   -3.52599E+005    4.79030E+005    2.73757E+005    5.22793E+005    2.61247E+005    2.74824E+005    1.56128E+003    1.03604E+004
            5657    2.84270E+005    4.43727E+004   -2.80767E+005   -7.91785E+004   -2.80767E+005    3.25139E+005    1.05191E+005   -2.09701E+005   -7.79286E+004   -1.56566E+005   -8.10780E+004    1.47836E+005    2.32601E+003   -5.56192E+004
            5658    3.11318E+005    3.50411E+004   -3.20725E+005   -9.82117E+004   -3.20725E+005    3.55766E+005    1.27965E+005   -2.32825E+005   -9.44908E+004   -1.88012E+005   -1.01392E+005    1.60711E+005    3.57752E+003   -6.12313E+004
            5659    3.43563E+005    1.43814E+004   -3.76899E+005   -1.24599E+005   -3.76899E+005    3.91280E+005    1.62372E+005   -2.68404E+005   -1.20581E+005   -2.38680E+005   -1.27856E+005    1.76614E+005    4.15577E+003   -6.12795E+004
            5660    3.84897E+005   -6.69256E+003   -4.43182E+005   -1.52458E+005   -4.43182E+005    4.36489E+005    2.00778E+005   -3.13085E+005   -1.50143E+005   -2.96788E+005   -1.55401E+005    1.95800E+005    4.26118E+003   -6.40759E+004
            5661    4.28764E+005   -3.46388E+004   -5.18533E+005   -1.85905E+005   -5.18533E+005    4.83894E+005    2.46359E+005   -3.60958E+005   -1.85618E+005   -3.65390E+005   -1.88068E+005    2.17276E+005    4.09912E+003   -5.85308E+004
            5662    2.96677E+005    6.23552E+004   -2.76138E+005   -6.12376E+004   -2.76138E+005    3.38493E+005    9.16734E+004   -2.26853E+005   -6.05130E+004   -1.48155E+005   -6.63526E+004    1.59269E+005    1.16745E+004   -3.78832E+004
            5663    3.27360E+005    4.63860E+004   -3.26317E+005   -8.53410E+004   -3.26317E+005    3.72703E+005    1.21757E+005   -2.56671E+005   -8.35316E+004   -1.90095E+005   -9.16457E+004    1.74163E+005    1.51243E+004   -4.05119E+004
            5664    3.63752E+005    3.40371E+004   -3.79059E+005   -1.06715E+005   -3.79059E+005    4.13096E+005    1.50579E+005   -2.92316E+005   -1.07080E+005   -2.30846E+005   -1.13810E+005    1.92303E+005    1.76687E+004   -4.43721E+004
            5665    4.08831E+005    1.23133E+004   -4.49425E+005   -1.33459E+005   -4.49425E+005    4.61738E+005    1.90190E+005   -3.42578E+005   -1.40702E+005   -2.90370E+005   -1.39498E+005    2.14414E+005    1.79746E+004   -4.34806E+004
            5666    4.56279E+005   -8.84405E+003   -5.21956E+005   -1.61824E+005   -5.21956E+005    5.13112E+005    2.30875E+005   -3.92021E+005   -1.76427E+005   -3.49760E+005   -1.66437E+005    2.38273E+005    1.64054E+004   -4.15751E+004
            5667    2.97786E+005    5.61724E+004   -2.79606E+005   -4.75608E+004   -2.79606E+005    3.35779E+005    9.03316E+004   -2.52043E+005   -5.13527E+004   -1.68049E+005   -5.15929E+004    1.54507E+005    2.58190E+004   -2.21335E+004
            5668    3.33786E+005    4.93805E+004   -3.27399E+005   -6.87166E+004   -3.27399E+005    3.76780E+005    1.15578E+005   -2.80650E+005   -7.08397E+004   -2.02040E+005   -7.38558E+004    1.72191E+005    3.45483E+004   -2.61818E+004
            5669    3.84990E+005    3.18396E+004   -4.01179E+005   -9.75565E+004   -4.01179E+005    4.33019E+005    1.55632E+005   -3.30470E+005   -1.03239E+005   -2.60841E+005   -1.02816E+005    1.96745E+005    3.90820E+004   -2.94596E+004
            5670    4.39135E+005    1.73688E+004   -4.75895E+005   -1.27493E+005   -4.75895E+005    4.93264E+005    1.95340E+005   -3.79510E+005   -1.36385E+005   -3.18014E+005   -1.31619E+005    2.24880E+005    4.00058E+004   -2.85599E+004
            5671    5.00758E+005   -3.17339E+003   -5.64162E+005   -1.62311E+005   -5.64162E+005    5.60989E+005    2.43215E+005   -4.38203E+005   -1.76979E+005   -3.87645E+005   -1.65021E+005    2.56660E+005    3.70331E+004   -2.56875E+004
            5672    2.77870E+005    6.88861E+004   -2.43685E+005   -2.46610E+004   -2.43685E+005    3.12571E+005    6.64867E+004   -2.38372E+005   -3.50168E+004   -1.51722E+005   -1.27211E+004    1.33130E+005    4.87165E+004   -8.19825E+003
            5673    3.32903E+005    5.67226E+004   -3.16718E+005   -5.10625E+004   -3.16718E+005    3.73441E+005    1.03686E+005   -2.89554E+005   -6.60901E+004   -2.04022E+005   -4.09464E+004    1.59017E+005    6.04234E+004   -1.71906E+004
            5674    3.84676E+005    5.03506E+004   -3.82301E+005   -7.88804E+004   -3.82301E+005    4.32651E+005    1.36943E+005   -3.30257E+005   -9.35822E+004   -2.51326E+005   -6.59227E+004    1.86664E+005    6.55842E+004   -1.33024E+004
            5675    4.42801E+005    3.37878E+004   -4.63933E+005   -1.13690E+005   -4.63933E+005    4.97721E+005    1.81278E+005   -3.81369E+005   -1.29945E+005   -3.11731E+005   -1.02158E+005    2.18657E+005    6.65745E+004   -1.25750E+004
            5676    5.03813E+005    2.10196E+004   -5.45737E+005   -1.48703E+005   -5.45737E+005    5.66756E+005    2.24473E+005   -4.32094E+005   -1.64747E+005   -3.71086E+005   -1.37587E+005    2.53813E+005    6.20426E+004   -5.71861E+003
            5677    5.46818E+005    4.98624E+004   -5.71488E+005   -1.63584E+005   -5.71488E+005    6.21350E+005    2.28403E+005   -4.37152E+005   -1.83219E+005   -3.84816E+005   -1.17174E+005    2.63979E+005    1.01773E+005    1.37217E+004
            5678    4.80430E+005    6.82680E+004   -4.78080E+005   -1.21597E+005   -4.78080E+005    5.46348E+005    1.77136E+005   -3.81155E+005   -1.40855E+005   -3.24412E+005   -6.61416E+004    2.19282E+005    1.05708E+005    3.95514E+003
            5679    4.17709E+005    7.41292E+004   -4.00256E+005   -8.75644E+004   -4.00256E+005    4.74385E+005    1.37897E+005   -3.35601E+005   -1.07117E+005   -2.73258E+005   -3.33168E+004    1.80555E+005    1.01802E+005   -9.65004E+003
            5680    3.59991E+005    8.47158E+004   -3.24170E+005   -5.48956E+004   -3.24170E+005    4.08885E+005    9.81164E+004   -2.88911E+005   -7.32049E+004   -2.20197E+005   -9.47035E+002    1.48701E+005    9.17768E+004   -1.34091E+004
            5681    2.97945E+005    8.29820E+004   -2.55513E+005   -3.30033E+004   -2.55513E+005    3.38495E+005    6.85114E+004   -2.38580E+005   -4.73264E+004   -1.70043E+005    1.18347E+004    1.19585E+005    7.99446E+004   -1.70928E+004
            5682    2.39461E+005    8.31882E+004   -1.89644E+005   -1.43246E+004   -1.89644E+005    2.72833E+005    4.02603E+004   -1.86212E+005   -2.43792E+004   -1.22815E+005    2.64128E+004    8.77241E+004    7.15628E+004   -2.32551E+004
            5683    1.76379E+005    7.09372E+004   -1.30360E+005   -2.89199E+003   -1.30360E+005    2.01297E+005    2.07715E+004   -1.34365E+005   -1.21935E+004   -7.79905E+004    2.78695E+004    5.78825E+004    5.86023E+004   -2.69905E+004
            5684    1.52639E+005    5.30556E+004   -1.18886E+005    6.35862E+002   -1.18886E+005    1.71941E+005    2.17314E+004   -1.29941E+005   -3.41032E+003   -7.31366E+004    1.13527E+004    6.80447E+004    3.23976E+004   -7.07967E+003
            5685    1.56844E+005    5.25292E+004   -1.22687E+005    4.60042E+003   -1.22687E+005    1.75216E+005    2.18524E+004   -1.38876E+005    1.36586E+003   -7.31670E+004    6.24387E+003    7.81588E+004    1.04845E+004    6.56634E+002
            5686    2.06488E+005    6.75188E+004   -1.66543E+005   -1.01614E+004   -1.66543E+005    2.34062E+005    3.63952E+004   -1.68566E+005   -1.16249E+004   -1.02273E+005    4.71205E+003    9.76565E+004    3.67328E+004    2.16706E+003
            5687    2.00132E+005    7.14066E+004   -1.55330E+005   -3.28541E+003   -1.55330E+005    2.26736E+005    2.90695E+004   -1.64061E+005   -1.50009E+003   -8.39438E+004   -1.76453E+003    1.04731E+005    1.05219E+004    3.62752E+003
            5688    2.24760E+005    9.03552E+004   -1.65296E+005    1.24449E+003   -1.65296E+005    2.55652E+005    2.45655E+004   -1.77952E+005    1.76630E+002   -7.61366E+004    2.26341E+003    1.21449E+005    8.61629E+003    4.38597E+003
            5689    2.45064E+005    9.20267E+004   -1.87716E+005   -1.09058E+004   -1.87716E+005    2.79743E+005    3.55317E+004   -1.86181E+005   -1.11954E+004   -8.44423E+004   -1.09573E+004    1.34897E+005    4.81617E+003   -2.03432E+003
            5690    2.52516E+005    8.61047E+004   -1.97990E+005    9.05737E+002   -1.97990E+005    2.84095E+005    3.69932E+004   -2.16443E+005   -2.24073E+004   -8.94779E+004    9.05555E+002    1.37647E+005    8.96283E+002   -1.02677E+004
            5691    2.54356E+005    3.52354E+004   -2.49134E+005   -4.33283E+004   -2.49134E+005    2.84369E+005    8.57423E+004   -2.24522E+005   -6.48656E+004   -1.52994E+005   -3.93668E+004    1.24932E+005   -5.86994E+001   -4.90209E+004
            5692    2.37872E+005    7.12036E+004   -1.97580E+005   -1.42019E+004   -1.97580E+005    2.68784E+005    4.68596E+004   -1.98702E+005   -1.87259E+004   -1.13728E+005   -8.12512E+003    1.20791E+005    2.98163E+004   -3.54421E+002
            5693    2.70459E+005    7.19103E+004   -2.32307E+005   -1.90678E+004   -2.32307E+005    3.04217E+005    5.98214E+004   -2.32085E+005   -2.88176E+004   -1.31554E+005   -1.90923E+004    1.42206E+005    1.54166E+004   -6.29262E+003
            5694    2.81105E+005    6.30643E+004   -2.54470E+005   -3.74005E+004   -2.54470E+005    3.17534E+005    7.62686E+004   -2.35304E+005   -5.08680E+004   -1.38539E+005   -3.93992E+004    1.47725E+005    5.58476E+003   -3.93058E+004
            5695    2.68303E+005    6.05985E+004   -2.47152E+005   -6.23951E+004   -2.47152E+005    3.07750E+005    8.29829E+004   -1.87116E+005   -6.18785E+004   -1.23604E+005   -6.34656E+004    1.37296E+005    1.06428E+003   -6.24985E+004
            5696    3.06541E+005    3.09709E+005    3.09709E+005    9.09034E+004   -4.06508E+004    3.50360E+005   -1.19987E+005    2.28727E+005    8.56521E+004    1.79832E+005    9.44774E+004    1.59941E+005    4.50087E+003    5.49141E+004
            5697    3.45387E+005    3.70897E+005    3.70897E+005    1.16427E+005   -2.22809E+004    3.93178E+005   -1.55015E+005    2.71163E+005    1.12887E+005    2.30762E+005    1.21394E+005    1.77864E+005    6.93876E+003    6.13104E+004
            5698    3.89064E+005    4.48855E+005    4.48855E+005    1.51753E+005    8.46867E+003    4.40387E+005   -2.03026E+005    3.21095E+005    1.51707E+005    3.01754E+005    1.55616E+005    1.99199E+005    6.88418E+003    5.84390E+004
            5699    4.35450E+005    5.26579E+005    5.26579E+005    1.85722E+005    3.60262E+004    4.90552E+005   -2.49442E+005    3.70547E+005    1.89770E+005    3.69875E+005    1.88681E+005    2.21947E+005    6.72599E+003    5.49692E+004
            5700    3.16284E+005    3.07743E+005    3.07743E+005    6.50087E+004   -4.99410E+004    3.57684E+005   -1.07604E+005    2.62709E+005    6.92541E+004    1.82186E+005    7.13710E+004    1.65962E+005    2.84377E+004    2.86378E+004
            5701    3.72347E+005    3.91095E+005    3.91095E+005    9.79551E+004   -2.78608E+004    4.18955E+005   -1.53730E+005    3.18977E+005    1.07365E+005    2.50040E+005    1.03784E+005    1.92890E+005    3.39129E+004    2.99549E+004
            5702    4.25499E+005    4.64741E+005    4.64741E+005    1.28246E+005   -1.35511E+004    4.78292E+005   -1.93145E+005    3.66391E+005    1.40860E+005    3.06139E+005    1.32437E+005    2.20796E+005    3.54733E+004    2.73351E+004
            5703    4.84575E+005    5.47702E+005    5.47702E+005    1.60049E+005    4.43776E+003    5.43265E+005   -2.37396E+005    4.22620E+005    1.78813E+005    3.70201E+005    1.63175E+005    2.51381E+005    3.35690E+004    2.57446E+004
            5704    5.38801E+005    5.71941E+005    5.71941E+005    1.62848E+005   -3.85479E+004    6.10488E+005   -2.32080E+005    4.41339E+005    1.78503E+005    3.85548E+005    1.32189E+005    2.66232E+005    8.73307E+004   -7.88616E+003
            5705    4.69713E+005    4.82257E+005    4.82257E+005    1.24451E+005   -4.96498E+004    5.31907E+005   -1.85686E+005    3.86412E+005    1.40349E+005    3.26307E+005    9.04017E+004    2.23658E+005    8.98086E+004    8.50167E+002
            5706    4.04063E+005    3.97841E+005    3.97841E+005    8.70728E+004   -5.89304E+004    4.56772E+005   -1.41995E+005    3.36535E+005    1.04284E+005    2.68259E+005    5.34407E+004    1.87030E+005    8.25281E+004    5.27802E+003
            5707    3.49006E+005    3.28347E+005    3.28347E+005    5.21870E+004   -6.39121E+004    3.92259E+005   -1.05541E+005    3.00717E+005    7.30762E+004    2.17188E+005    2.63576E+004    1.58862E+005    7.27056E+004    1.35590E+004
            5708    3.00693E+005    2.61377E+005    2.61377E+005    2.59049E+004   -7.73367E+004    3.38713E+005   -6.99816E+004    2.56002E+005    4.56977E+004    1.71604E+005   -7.35658E+003    1.26141E+005    7.34801E+004    1.94659E+004
            5709    2.35734E+005    1.85356E+005    1.85356E+005    1.15544E+004   -8.29709E+004    2.68327E+005   -3.79797E+004    1.85266E+005    2.40298E+004    1.16224E+005   -2.63144E+004    8.87249E+004    7.02959E+004    2.20147E+004
            5710    1.83382E+005    1.39427E+005    1.39427E+005    4.97477E+003   -6.94704E+004    2.08898E+005   -2.49772E+004    1.42914E+005    1.41716E+004    8.54580E+004   -2.46980E+004    6.19528E+004    5.93564E+004    2.69653E+004
            5711    1.28256E+005    9.44219E+004    9.44219E+004   -2.06632E+003   -5.11207E+004    1.45543E+005   -1.37450E+004    1.03758E+005    8.02603E+003    5.13136E+004   -1.81047E+004    3.90560E+004    4.41757E+004    2.78754E+004
            5712    1.16730E+005    9.24843E+004    9.24843E+004   -4.99606E+003   -3.68729E+004    1.29357E+005   -1.68718E+004    1.06257E+005    2.86490E+003    5.54752E+004   -7.72483E+003    5.07091E+004    2.53717E+004    1.34586E+004
            5713    1.24274E+005    1.01009E+005    1.01009E+005   -4.54675E+003   -3.59556E+004    1.36965E+005   -2.01689E+004    1.14823E+005    1.18951E+003    6.43437E+004   -5.02649E+003    5.99407E+004    8.39814E+003    3.36689E+003
            5714    1.67089E+005    1.32922E+005    1.32922E+005    2.64374E+003   -5.54634E+004    1.88385E+005   -2.67007E+004    1.41521E+005    5.81553E+003    8.31158E+004   -8.82936E+003    7.61863E+004    3.23130E+004    4.14574E+003
            5715    1.74156E+005    1.40506E+005    1.40506E+005    1.29460E+003   -5.47789E+004    1.95285E+005   -2.90073E+004    1.51758E+005    2.30649E+003    8.49189E+004   -2.03571E+002    8.74617E+004    1.06470E+004   -9.94971E+002
            5716    2.12298E+005    1.69417E+005    1.69417E+005    6.46492E+003   -7.06642E+004    2.40081E+005   -3.50724E+004    1.76368E+005    1.18276E+004    1.00519E+005   -7.12937E+003    1.01819E+005    3.67882E+004   -9.05190E+002
            5717    2.09519E+005    1.55116E+005    1.55116E+005   -3.81953E+003   -8.23158E+004    2.37432E+005   -2.29937E+004    1.71413E+005   -2.01527E+003    7.66195E+004   -5.62313E+003    1.11051E+005    1.03139E+004   -5.83327E+003
            5718    2.59152E+005    2.20713E+005    2.20713E+005    2.12740E+004   -7.22099E+004    2.92923E+005   -5.65924E+004    2.16010E+005    2.47790E+004    1.30662E+005    1.43365E+004    1.31934E+005    2.87125E+004   -3.67864E+003
            5719    2.36813E+005    1.80498E+005    1.80498E+005    1.01433E+004   -8.99217E+004    2.70420E+005   -3.35731E+004    1.79040E+005    6.26077E+003    8.45962E+004    9.86239E+003    1.29192E+005    6.82741E+003   -7.37445E+002
            5720    2.51976E+005    1.94311E+005    1.94311E+005    5.17013E+002   -9.05353E+004    2.84847E+005   -3.47643E+004    2.09861E+005    1.72042E+004    8.63410E+004    7.47680E+002    1.38033E+005    3.39445E+003    6.04301E+003
            5721    2.54102E+005    2.42590E+005    2.42590E+005    4.09086E+004   -4.28069E+004    2.85397E+005   -8.02306E+004    2.19699E+005    5.97202E+004    1.41932E+005    3.90394E+004    1.28112E+005    1.12692E+003    4.63280E+004
            5722    2.84493E+005    2.61195E+005    2.61195E+005    3.80268E+004   -5.91546E+004    3.20350E+005   -8.00226E+004    2.42698E+005    4.90007E+004    1.48426E+005    4.26407E+004    1.49608E+005    1.52578E+004    2.90543E+004
            5723    2.77887E+005    2.59804E+005    2.59804E+005    6.58340E+004   -5.85467E+004    3.18351E+005   -8.90304E+004    1.99097E+005    6.42340E+004    1.33773E+005    6.90844E+004    1.44255E+005    3.76975E+003    5.83882E+004
            5724    6.10283E+005    3.01050E+004   -6.62981E+005   -2.06121E+005   -6.62981E+005    6.93086E+005    2.79666E+005   -4.90336E+005   -2.24998E+005   -4.39651E+005   -1.74348E+005    3.10538E+005    8.58931E+004    2.23377E+004
            5725    5.65765E+005    3.55515E+003   -6.32570E+005   -1.85672E+005   -6.32570E+005    6.36125E+005    2.71562E+005   -4.86524E+005   -2.02481E+005   -4.33653E+005   -1.78552E+005    2.90119E+005    5.16673E+004   -3.08785E+003
            5726    5.61314E+005   -2.02743E+004   -6.48455E+005   -1.96110E+005   -6.48455E+005    6.28181E+005    2.88280E+005   -4.93394E+005   -2.15784E+005   -4.51540E+005   -1.97515E+005    2.89091E+005    3.10509E+004   -2.03201E+004
            5727    5.04724E+005   -3.21640E+004   -5.97421E+005   -1.91871E+005   -5.97421E+005    5.65257E+005    2.73818E+005   -4.42275E+005   -2.13889E+005   -4.12879E+005   -1.94687E+005    2.62613E+005    1.39057E+004   -3.40703E+004
            5728    4.74421E+005   -5.99487E+004   -5.93274E+005   -2.18222E+005   -5.93274E+005    5.33325E+005    2.90482E+005   -4.08353E+005   -2.19675E+005   -4.32132E+005   -2.19638E+005    2.39742E+005    3.65657E+003   -4.98670E+004
            5729    6.65566E+005    5.53052E+003   -7.49267E+005   -2.46610E+005   -7.49267E+005    7.54797E+005    3.30115E+005   -5.41294E+005   -2.65283E+005   -4.92109E+005   -2.32954E+005    3.52016E+005    5.87242E+004    1.87787E+004
            5730    6.18950E+005   -9.34985E+003   -7.05324E+005   -2.16574E+005   -7.05324E+005    6.95974E+005    3.10416E+005   -5.32063E+005   -2.33136E+005   -4.84951E+005   -2.13160E+005    3.21739E+005    3.51738E+004    2.71321E+002
            5731    6.14409E+005   -3.58650E+004   -7.23008E+005   -2.26547E+005   -7.23008E+005    6.87143E+005    3.28473E+005   -5.41581E+005   -2.50285E+005   -5.08133E+005   -2.27002E+005    3.17613E+005    2.11219E+004   -1.28467E+004
            5732    5.46323E+005   -4.96405E+004   -6.60039E+005   -2.16895E+005   -6.60039E+005    6.10398E+005    3.08858E+005   -4.83482E+005   -2.44508E+005   -4.63972E+005   -2.18095E+005    2.83984E+005    9.65549E+003   -2.30117E+004
            5733    5.12153E+005   -8.13576E+004   -6.55480E+005   -2.45582E+005   -6.55480E+005    5.74122E+005    3.27473E+005   -4.46887E+005   -2.48175E+005   -4.88057E+005   -2.46188E+005    2.58921E+005    2.66732E+003   -3.23244E+004
            5734    6.99096E+005   -9.00954E+003   -8.01380E+005   -2.71602E+005   -8.01380E+005    7.92370E+005    3.60664E+005   -5.71171E+005   -2.89629E+005   -5.22520E+005   -2.69842E+005    3.77710E+005    2.06387E+004    8.65403E+003
            5735    6.49832E+005   -1.84462E+004   -7.49072E+005   -2.35701E+005   -7.49072E+005    7.30626E+005    3.34406E+005   -5.58902E+005   -2.52243E+005   -5.15651E+005   -2.35326E+005    3.40447E+005    1.21485E+004    5.07375E+001
            5736    6.42592E+005   -4.46511E+004   -7.63244E+005   -2.43814E+005   -7.63244E+005    7.18593E+005    3.50570E+005   -5.66647E+005   -2.69582E+005   -5.38265E+005   -2.43862E+005    3.33132E+005    7.59006E+003   -4.42478E+003
            5737    5.68898E+005   -6.05327E+004   -6.95517E+005   -2.32284E+005   -6.95517E+005    6.34985E+005    3.29445E+005   -5.05437E+005   -2.62307E+005   -4.93607E+005   -2.32420E+005    2.95595E+005    3.52794E+003   -7.56781E+003
            5738    5.34776E+005   -9.31203E+004   -6.91885E+005   -2.61754E+005   -6.91885E+005    5.98765E+005    3.48920E+005   -4.69112E+005   -2.64464E+005   -5.20456E+005   -2.61840E+005    2.70385E+005    1.04275E+003   -1.22043E+004
            5739    1.27164E+005    4.82294E+004   -9.56963E+004    1.45998E+003   -9.56963E+004    1.43926E+005    1.53356E+004   -1.05018E+005   -9.68301E+003   -5.18481E+004    1.55243E+004    3.82780E+004   -4.35151E+004    2.95420E+004
            5740    1.13554E+005    3.11113E+004   -9.37928E+004    3.20945E+003   -9.37928E+004    1.24904E+005    1.98240E+004   -1.05419E+005   -7.46512E+003   -5.70439E+004    5.03698E+003    4.97515E+004   -2.35950E+004    1.37172E+004
            5741    1.18993E+005    2.86155E+004   -1.02445E+005   -1.18197E+003   -1.02445E+005    1.31060E+005    2.50037E+004   -1.10120E+005   -7.60870E+003   -6.64010E+004   -1.00132E+003    5.78724E+004   -7.71092E+003    3.85904E+003
            5742    8.45754E+004    2.96653E+004   -6.40473E+004    6.60957E+003   -6.40473E+004    9.37125E+004    9.25748E+003   -7.70154E+004   -5.28169E+003   -2.95188E+004    7.02806E+003    2.34307E+004   -2.66392E+004    2.79269E+004
            5743    7.69048E+004    2.03764E+004   -6.12725E+004    9.79155E+003   -6.12725E+004    8.16489E+004    1.03682E+004   -7.52398E+004   -6.94695E+002   -3.39438E+004    3.53392E+003    3.23967E+004   -1.46046E+004    1.69493E+004
            5744    8.06367E+004    2.31339E+004   -6.52493E+004    4.31118E+003   -6.52493E+004    8.83832E+004    1.26014E+004   -7.54525E+004    1.40521E+002   -4.15730E+004    3.62831E+003    3.84412E+004   -5.06011E+003    5.61597E+003
            5745    5.73044E+004    1.91554E+004   -4.39528E+004    4.82941E+003   -4.39528E+004    6.31082E+004    6.65601E+003   -5.30463E+004   -5.11561E+003   -1.47425E+004   -1.09954E+002    1.55412E+004   -1.20381E+004    2.55509E+004
            5746    5.37771E+004    1.45868E+004   -4.38359E+004    3.59803E+003   -4.38359E+004    5.84227E+004    8.55036E+003   -5.11587E+004   -5.83851E+003   -1.87295E+004   -1.08307E+003    2.37681E+004   -6.64765E+003    1.64777E+004
            5747    5.39681E+004    1.50331E+004   -4.54576E+004   -2.24303E+003   -4.54576E+004    6.04908E+004    1.08892E+004   -4.71162E+004   -6.59499E+003   -2.31803E+004   -2.89225E+003    2.85395E+004   -2.11754E+003    5.92733E+003
            5748    4.83578E+004    2.95618E+004    2.95618E+004    8.05738E+002   -2.62685E+004    5.58304E+004   -1.36633E+003    1.80665E+004    1.53082E+003    1.64617E+003    9.22011E+002    1.36094E+004    6.82014E+002    2.43651E+004
            5749    4.69660E+004    3.09609E+004    3.09609E+004    1.62965E+003   -2.32087E+004    5.41696E+004   -3.12729E+003    2.45633E+004    3.87238E+003    4.05784E+003    1.45166E+003    2.16964E+004    7.20283E+002    1.61834E+004
            5750    4.64423E+004    3.17656E+004    3.17656E+004    2.98352E+003   -2.18119E+004    5.35775E+004   -4.31239E+003    2.34325E+004    4.65767E+003    5.30985E+003    2.96964E+003    2.61561E+004    1.53701E+002    5.77374E+003
            5751    5.85752E+004    4.35540E+004    4.35540E+004   -7.22646E+003   -2.05282E+004    6.40822E+004   -5.26643E+003    5.50209E+004    2.82643E+003    1.51994E+004   -2.22652E+003    1.57407E+004    1.29812E+004    2.54367E+004
            5752    5.60200E+004    4.22424E+004    4.22424E+004   -8.96113E+003   -1.75922E+004    5.98346E+004   -5.22971E+003    5.44939E+004   -7.53117E+002    1.84784E+004   -2.03617E+003    2.38866E+004    8.17594E+003    1.66316E+004
            5753    5.79734E+004    4.39150E+004    4.39150E+004   -3.98595E+003   -2.05328E+004    6.44479E+004   -6.46542E+003    5.22512E+004   -1.43550E+003    2.39394E+004   -3.10766E+003    2.91031E+004    2.93981E+003    5.91345E+003
            5754    8.91422E+004    7.01067E+004    7.01067E+004   -5.06411E+003   -2.83748E+004    9.84816E+004   -1.22226E+004    8.18530E+004    8.02291E+003    3.37501E+004   -5.10521E+003    2.57890E+004    2.80471E+004    2.83972E+004
            5755    8.67081E+004    7.36157E+004    7.36157E+004   -6.02381E+003   -1.87535E+004    9.23692E+004   -1.62795E+004    8.45674E+004    7.07385E+003    4.30183E+004   -1.25368E+003    3.77139E+004    1.61078E+004    1.64540E+004
            5756    9.26059E+004    8.14133E+004    8.14133E+004    1.59569E+003   -2.01211E+004    1.01534E+005   -2.09626E+004    8.65942E+004    7.64161E+003    5.31152E+004    2.13104E+003    4.49185E+004    5.43090E+003    5.34001E+003
            5757    4.74085E+005   -5.98819E+004   -5.92856E+005   -2.18152E+005   -5.92856E+005    5.32974E+005    2.90297E+005   -4.07961E+005   -2.19537E+005   -4.31784E+005   -2.19569E+005    2.39559E+005   -3.63615E+003    5.00307E+004
            5758    5.04943E+005   -3.22702E+004   -5.97734E+005   -1.91897E+005   -5.97734E+005    5.65464E+005    2.73967E+005   -4.42596E+005   -2.13990E+005   -4.13197E+005   -1.94714E+005    2.62695E+005   -1.39715E+004    3.39674E+004
            5759    5.61834E+005   -2.02392E+004   -6.49004E+005   -1.96242E+005   -6.49004E+005    6.28765E+005    2.88495E+005   -4.93848E+005   -2.15967E+005   -4.51917E+005   -1.97601E+005    2.89340E+005   -3.13057E+004    2.01763E+004
            5760    5.66427E+005    3.70064E+003   -6.33261E+005   -1.86139E+005   -6.33261E+005    6.36962E+005    2.71900E+005   -4.86723E+005   -2.02856E+005   -4.33990E+005   -1.78855E+005    2.90491E+005   -5.20042E+004    2.84317E+003
            5761    6.10682E+005    2.99617E+004   -6.63600E+005   -2.06539E+005   -6.63600E+005    6.93561E+005    2.80059E+005   -4.90510E+005   -2.25388E+005   -4.39984E+005   -1.74804E+005    3.10819E+005   -8.59104E+004   -2.23541E+004
            5762    5.11958E+005   -8.15336E+004   -6.55448E+005   -2.45738E+005   -6.55448E+005    5.73914E+005    3.27573E+005   -4.46678E+005   -2.48198E+005   -4.88191E+005   -2.46331E+005    2.58777E+005   -2.60232E+003    3.23346E+004
            5763    5.45643E+005   -4.98476E+004   -6.59541E+005   -2.17103E+005   -6.59541E+005    6.09694E+005    3.08830E+005   -4.82709E+005   -2.44423E+005   -4.63778E+005   -2.18289E+005    2.83621E+005   -9.47589E+003    2.31098E+004
            5764    6.13868E+005   -3.58567E+004   -7.22382E+005   -2.26322E+005   -7.22382E+005    6.86525E+005    3.28187E+005   -5.41146E+005   -2.50038E+005   -5.07745E+005   -2.26778E+005    3.17312E+005   -2.10636E+004    1.28412E+004
            5765    6.19666E+005   -9.19394E+003   -7.06049E+005   -2.16981E+005   -7.06049E+005    6.96855E+005    3.10742E+005   -5.32371E+005   -2.33535E+005   -4.85193E+005   -2.13497E+005    3.22223E+005   -3.52412E+004   -5.82564E+002
            5766    6.66012E+005    5.61932E+003   -7.49741E+005   -2.46982E+005   -7.49741E+005    7.55361E+005    3.30368E+005   -5.41315E+005   -2.65646E+005   -4.92252E+005   -2.33207E+005    3.52285E+005   -5.89511E+004   -1.89587E+004
            5767    5.34604E+005   -9.31611E+004   -6.91764E+005   -2.61860E+005   -6.91764E+005    5.98603E+005    3.48928E+005   -4.68859E+005   -2.64451E+005   -5.20383E+005   -2.61950E+005    2.70306E+005   -1.09338E+003    1.23129E+004
            5768    5.68640E+005   -6.07352E+004   -6.95409E+005   -2.32322E+005   -6.95409E+005    6.34674E+005    3.29489E+005   -5.05279E+005   -2.62373E+005   -4.93632E+005   -2.32460E+005    2.95435E+005   -3.56727E+003    7.64751E+003
            5769    6.42541E+005   -4.47569E+004   -7.63306E+005   -2.43957E+005   -7.63306E+005    7.18550E+005    3.50673E+005   -5.66558E+005   -2.69737E+005   -5.38276E+005   -2.44007E+005    3.33139E+005   -7.51732E+003    4.46437E+003
            5770    6.49674E+005   -1.84420E+004   -7.48933E+005   -2.35823E+005   -7.48933E+005    7.30491E+005    3.34399E+005   -5.58597E+005   -2.52258E+005   -5.15475E+005   -2.35465E+005    3.40420E+005   -1.20368E+004    8.51500E+001
            5771    6.98564E+005   -8.89074E+003   -8.00663E+005   -2.71304E+005   -8.00663E+005    7.91772E+005    3.60286E+005   -5.70713E+005   -2.89318E+005   -5.22018E+005   -2.69522E+005    3.77412E+005   -2.08035E+004   -8.66145E+003
            5772    2.98070E+005    8.30375E+004   -2.55636E+005   -3.31878E+004   -2.55636E+005    3.38673E+005    6.85954E+004   -2.38444E+005   -4.74130E+004   -1.70084E+005    1.17108E+004    1.19748E+005   -7.99542E+004    1.68568E+004
            5773    3.60282E+005    8.48384E+004   -3.24400E+005   -5.50030E+004   -3.24400E+005    4.09239E+005    9.81883E+004   -2.89001E+005   -7.33384E+004   -2.20494E+005   -7.32734E+002    1.48702E+005   -9.18725E+004    1.33491E+004
            5774    4.18534E+005    7.40761E+004   -4.01275E+005   -8.80907E+004   -4.01275E+005    4.75351E+005    1.38430E+005   -3.36075E+005   -1.07579E+005   -2.73874E+005   -3.38366E+004    1.81012E+005   -1.02049E+005    9.61762E+003
            5775    4.81504E+005    6.82366E+004   -4.79331E+005   -1.22042E+005   -4.79331E+005    5.47568E+005    1.77712E+005   -3.82021E+005   -1.41334E+005   -3.25151E+005   -6.66510E+004    2.19982E+005   -1.05710E+005   -4.15910E+003
            5776    5.47332E+005    4.93029E+004   -5.72587E+005   -1.64114E+005   -5.72587E+005    6.21890E+005    2.29133E+005   -4.37846E+005   -1.83851E+005   -3.85498E+005   -1.18049E+005    2.64500E+005   -1.01423E+005   -1.38002E+004
            5777    5.03495E+005    2.11424E+004   -5.45264E+005   -1.48505E+005   -5.45264E+005    5.66407E+005    2.24209E+005   -4.31791E+005   -1.64578E+005   -3.70785E+005   -1.37264E+005    2.53568E+005   -6.22375E+004    5.66869E+003
            5778    5.00839E+005   -2.90847E+003   -5.63976E+005   -1.62026E+005   -5.63976E+005    5.61068E+005    2.42970E+005   -4.38314E+005   -1.76682E+005   -3.87554E+005   -1.64674E+005    2.56592E+005   -3.74825E+004    2.55792E+004
            5779    4.56774E+005   -8.64184E+003   -5.22284E+005   -1.61679E+005   -5.22284E+005    5.13643E+005    2.30868E+005   -3.92550E+005   -1.76354E+005   -3.49923E+005   -1.66328E+005    2.38539E+005   -1.66677E+004    4.13915E+004
            5780    4.28769E+005   -3.45222E+004   -5.18430E+005   -1.85824E+005   -5.18430E+005    4.83908E+005    2.46259E+005   -3.60926E+005   -1.85550E+005   -3.65256E+005   -1.87970E+005    2.17314E+005   -4.07256E+003    5.84577E+004
            5781    4.41916E+005    3.38753E+004   -4.62803E+005   -1.13108E+005   -4.62803E+005    4.96678E+005    1.80678E+005   -3.80794E+005   -1.29521E+005   -3.10978E+005   -1.01537E+005    2.18113E+005   -6.65910E+004    1.26400E+004
            5782    4.38528E+005    1.76685E+004   -4.74900E+005   -1.26938E+005   -4.74900E+005    4.92569E+005    1.94723E+005   -3.79035E+005   -1.35870E+005   -3.17325E+005   -1.30975E+005    2.24503E+005   -4.02257E+004    2.83369E+004
            5783    4.08910E+005    1.22680E+004   -4.49503E+005   -1.33276E+005   -4.49503E+005    4.61771E+005    1.90170E+005   -3.42914E+005   -1.40641E+005   -2.90517E+005   -1.39354E+005    2.14419E+005   -1.82195E+004    4.33127E+004
            5784    3.85099E+005   -6.59698E+003   -4.43341E+005   -1.52568E+005   -4.43341E+005    4.36744E+005    2.00835E+005   -3.13099E+005   -1.50173E+005   -2.96778E+005   -1.55555E+005    1.95966E+005   -4.32795E+003    6.40413E+004
            5785    3.83274E+005    5.08144E+004   -3.80288E+005   -7.80667E+004   -3.80288E+005    4.31102E+005    1.35847E+005   -3.28937E+005   -9.27332E+004   -2.49880E+005   -6.49266E+004    1.85815E+005   -6.57057E+004    1.32591E+004
            5786    3.83991E+005    3.22122E+004   -3.99636E+005   -9.66541E+004   -3.99636E+005    4.31849E+005    1.54693E+005   -3.29796E+005   -1.02447E+005   -2.59815E+005   -1.01816E+005    1.96102E+005   -3.93774E+004    2.92398E+004
            5787    3.64388E+005    3.39933E+004   -3.79766E+005   -1.06701E+005   -3.79766E+005    4.13760E+005    1.50825E+005   -2.93196E+005   -1.07171E+005   -2.31541E+005   -1.13762E+005    1.92641E+005   -1.78408E+004    4.39721E+004
            5788    3.44266E+005    1.40593E+004   -3.77967E+005   -1.24896E+005   -3.77967E+005    3.92027E+005    1.62935E+005   -2.69365E+005   -1.20947E+005   -2.39675E+005   -1.28182E+005    1.77004E+005   -4.24619E+003    6.10580E+004
            5789    3.32314E+005    5.68161E+004   -3.15932E+005   -5.06487E+004   -3.15932E+005    3.72748E+005    1.03255E+005   -2.89157E+005   -6.58215E+004   -2.03501E+005   -4.04415E+004    1.58623E+005   -6.04597E+004    1.72088E+004
            5790    3.33628E+005    4.95649E+004   -3.27052E+005   -6.85499E+004   -3.27052E+005    3.76617E+005    1.15346E+005   -2.80440E+005   -7.06033E+004   -2.01785E+005   -7.36486E+004    1.72094E+005   -3.46443E+004    2.60747E+004
            5791    3.27936E+005    4.62187E+004   -3.27060E+005   -8.52957E+004   -3.27060E+005    3.73279E+005    1.22046E+005   -2.57705E+005   -8.37225E+004   -1.90677E+005   -9.17380E+004    1.74382E+005   -1.55181E+004    4.06039E+004
            5792    3.12382E+005    3.47626E+004   -3.22179E+005   -9.86884E+004   -3.22179E+005    3.56942E+005    1.28702E+005   -2.34009E+005   -9.50340E+004   -1.89139E+005   -1.01932E+005    1.61201E+005   -3.67295E+003    6.14562E+004
            5793    2.77982E+005    6.90944E+004   -2.43583E+005   -2.44085E+004   -2.43583E+005    3.12678E+005    6.62991E+004   -2.38547E+005   -3.48676E+004   -1.51647E+005   -1.23830E+004    1.33098E+005   -4.88399E+004    8.24471E+003
            5794    2.97939E+005    5.60418E+004   -2.79968E+005   -4.80037E+004   -2.79968E+005    3.36010E+005    9.06434E+004   -2.51911E+005   -5.16604E+004   -1.68158E+005   -5.21118E+004    1.54688E+005   -2.55842E+004    2.23587E+004
            5795    2.97013E+005    6.23904E+004   -2.76487E+005   -6.13501E+004   -2.76487E+005    3.38878E+005    9.18156E+004   -2.27099E+005   -6.06437E+004   -1.48347E+005   -6.64566E+004    1.59424E+005   -1.15941E+004    3.80794E+004
            5796    2.84615E+005    4.39583E+004   -2.81593E+005   -7.98555E+004   -2.81593E+005    3.25551E+005    1.05830E+005   -2.09779E+005   -7.83955E+004   -1.57271E+005   -8.18240E+004    1.48145E+005   -2.40353E+003    5.53313E+004
            5797    2.68686E+005    6.05963E+004   -2.47565E+005   -6.23433E+004   -2.47565E+005    3.08161E+005    8.31040E+004   -1.87801E+005   -6.19456E+004   -1.23923E+005   -6.34435E+004    1.37543E+005   -1.12833E+003    6.24062E+004
            5798    2.54209E+005    3.56624E+004   -2.48682E+005   -4.33982E+004   -2.48682E+005    2.84345E+005    8.54727E+004   -2.23936E+005   -6.46286E+004   -1.52318E+005   -3.94717E+004    1.25025E+005    1.09683E+002    4.89893E+004
            5799    2.81338E+005    6.29325E+004   -2.54935E+005   -3.79379E+004   -2.54935E+005    3.17868E+005    7.66468E+004   -2.35160E+005   -5.12361E+004   -1.38785E+005   -3.99193E+004    1.47829E+005   -5.51198E+003    3.96479E+004
            5800    2.52653E+005    8.64101E+004   -1.97924E+005    8.02361E+002   -1.97924E+005    2.84335E+005    3.69040E+004   -2.16212E+005   -2.23042E+004   -8.92013E+004    7.93521E+002    1.37802E+005   -9.32187E+002    1.01476E+004
            5801    2.70636E+005    7.18736E+004   -2.32473E+005   -1.88715E+004   -2.32473E+005    3.04347E+005    5.98237E+004   -2.32515E+005   -2.88867E+004   -1.31624E+005   -1.89602E+004    1.42286E+005   -1.53294E+004    6.56133E+003
            5802    2.45079E+005    9.20207E+004   -1.87731E+005   -1.08701E+004   -1.87731E+005    2.79752E+005    3.55269E+004   -1.86261E+005   -1.11484E+004   -8.45151E+004   -1.09170E+004    1.34883E+005   -4.89929E+003    1.98307E+003
            5803    2.37793E+005    7.12109E+004   -1.97545E+005   -1.44517E+004   -1.97545E+005    2.68756E+005    4.69287E+004   -1.98332E+005   -1.87875E+004   -1.13618E+005   -8.38081E+003    1.20813E+005   -2.98350E+004    3.15240E+002
            5804    2.24639E+005    9.02733E+004   -1.65250E+005    1.15384E+003   -1.65250E+005    2.55524E+005    2.46077E+004   -1.77783E+005    1.30665E+002   -7.61067E+004    2.15291E+003    1.21404E+005   -8.54339E+003   -4.33277E+003
            5805    1.99721E+005    7.12088E+004   -1.55049E+005   -3.26507E+003   -1.55049E+005    2.26257E+005    2.90350E+004   -1.63798E+005   -1.48268E+003   -8.39019E+004   -1.72042E+003    1.04466E+005   -1.05715E+004   -3.66333E+003
            5806    1.55922E+005    5.20414E+004   -1.22066E+005    4.69301E+003   -1.22066E+005    1.74108E+005    2.17773E+004   -1.38305E+005    1.34276E+003   -7.29941E+004    6.31942E+003    7.75940E+004   -1.04499E+004   -5.45467E+002
            5807    2.06143E+005    6.75334E+004   -1.66142E+005   -1.00362E+004   -1.66142E+005    2.33675E+005    3.62149E+004   -1.68263E+005   -1.14769E+004   -1.02034E+005    4.86664E+003    9.74444E+004   -3.67293E+004   -2.15378E+003
            5808    1.51824E+005    5.27238E+004   -1.18261E+005    7.52802E+002   -1.18261E+005    1.70984E+005    2.15947E+004   -1.29413E+005   -3.32645E+003   -7.27421E+004    1.12844E+004    6.77058E+004   -3.21434E+004    7.12716E+003
            5809    1.77001E+005    7.12444E+004   -1.30779E+005   -2.94608E+003   -1.30779E+005    2.02023E+005    2.08267E+004   -1.34694E+005   -1.22159E+004   -7.82916E+004    2.80274E+004    5.80112E+004   -5.88353E+004    2.71049E+004
            5810    2.40187E+005    8.34493E+004   -1.90222E+005   -1.44277E+004   -1.90222E+005    2.73671E+005    4.04001E+004   -1.86683E+005   -2.44595E+004   -1.23185E+005    2.64442E+004    8.79354E+004   -7.18514E+004    2.33850E+004
            5811    3.41276E+005    3.03883E+005    3.03883E+005    4.24602E+004   -8.21969E+004    3.86079E+005   -8.80486E+004    2.82788E+005    6.59011E+004    1.77019E+005    2.12261E+004    1.63222E+005   -7.50455E+004   -1.06847E+004
            5812    3.94401E+005    3.64126E+005    3.64126E+005    7.08926E+004   -8.42563E+004    4.48382E+005   -1.16921E+005    3.13808E+005    9.02382E+004    2.17655E+005    4.28688E+004    1.91070E+005   -8.46187E+004   -3.32638E+003
            5813    4.56227E+005    4.36003E+005    4.36003E+005    1.00334E+005   -8.34526E+004    5.19456E+005   -1.50962E+005    3.57440E+005    1.18116E+005    2.62654E+005    7.21154E+004    2.26192E+005   -9.12834E+004    2.36431E+002
            5814    5.20096E+005    5.10538E+005    5.10538E+005    1.30246E+005   -8.21407E+004    5.92679E+005   -1.86214E+005    4.03636E+005    1.46700E+005    3.07024E+005    1.04919E+005    2.66309E+005   -8.83805E+004    7.23950E+003
            5815    4.73898E+005    5.01783E+005    5.01783E+005    1.35945E+005   -3.35576E+004    5.35341E+005   -2.01390E+005    3.96543E+005    1.53290E+005    3.12192E+005    1.38689E+005    2.52711E+005   -3.52993E+004   -2.21362E+004
            5816    4.22345E+005    4.63844E+005    4.63844E+005    1.46869E+005   -1.56113E+004    4.79456E+005   -1.98368E+005    3.40545E+005    1.53348E+005    2.92012E+005    1.49742E+005    2.25472E+005   -8.29554E+003   -4.44071E+004
            5817    4.15720E+005    4.24952E+005    4.24952E+005    1.06962E+005   -4.54664E+004    4.70419E+005   -1.62149E+005    3.43839E+005    1.21163E+005    2.54755E+005    1.10531E+005    2.22048E+005   -3.62402E+004   -2.29945E+004
            5818    3.73261E+005    3.97155E+005    3.97155E+005    1.21544E+005   -2.76218E+004    4.24777E+005   -1.63692E+005    2.94009E+005    1.25616E+005    2.40605E+005    1.24856E+005    1.99228E+005   -7.72692E+003   -4.74665E+004
            5819    3.63267E+005    3.57067E+005    3.57067E+005    8.01684E+004   -5.42538E+004    4.11320E+005   -1.27660E+005    2.99095E+005    9.24039E+004    2.05545E+005    8.50319E+004    1.94042E+005   -3.39658E+004   -2.48736E+004
            5820    3.29464E+005    3.31440E+005    3.31440E+005    9.51441E+004   -4.49133E+004    3.76353E+005   -1.27224E+005    2.47842E+005    9.64035E+004    1.86395E+005    9.88722E+004    1.75878E+005   -6.85951E+003   -5.07399E+004
            5821    3.08438E+005    2.82100E+005    2.82100E+005    5.23890E+004   -6.84636E+004    3.50564E+005   -8.86753E+004    2.46013E+005    6.05549E+004    1.47929E+005    5.75421E+004    1.66658E+005   -2.72523E+004   -2.36274E+004
            5822    2.93156E+005    2.79115E+005    2.79115E+005    7.55193E+004   -5.68883E+004    3.36003E+005   -9.92486E+004    2.07981E+005    7.42131E+004    1.46087E+005    7.74454E+004    1.57661E+005   -3.15758E+003   -4.61733E+004
            5823    2.70568E+005    2.34822E+005    2.34822E+005    5.36477E+004   -7.61949E+004    3.11016E+005   -7.07581E+004    1.77254E+005    5.18548E+004    1.05284E+005    5.51358E+004    1.44986E+005   -1.87984E+003   -4.98129E+004
            5824    2.45499E+005    2.17782E+005    2.17782E+005    3.19157E+004   -6.05152E+004    2.78297E+005   -6.30609E+004    2.00326E+005    4.64399E+004    1.11832E+005    3.09110E+004    1.29515E+005   -5.74230E+002   -3.83547E+004
            5825    2.73116E+005    2.39534E+005    2.39534E+005    3.24748E+004   -6.99982E+004    3.09533E+005   -6.73370E+004    2.23271E+005    4.39475E+004    1.22236E+005    3.58277E+004    1.47802E+005   -1.28545E+004   -2.40111E+004
            5826    2.42474E+005    1.80619E+005    1.80619E+005    2.14333E+003   -9.54435E+004    2.76062E+005   -2.91062E+004    1.90092E+005    1.44482E+004    7.05779E+004    2.29253E+003    1.35023E+005   -2.06828E+003   -5.94909E+003
            5827    2.35756E+005    1.68688E+005    1.68688E+005    6.54688E+003   -1.01760E+005    2.70448E+005   -2.44916E+004    1.63991E+005    6.46857E+003    6.05371E+004    6.46906E+003    1.32388E+005   -5.08888E+003   -2.52259E+001
            5828    2.14262E+005    1.56373E+005    1.56373E+005    6.32528E+002   -8.79807E+004    2.44354E+005   -2.30083E+004    1.64744E+005    1.57419E+003    6.81749E+004   -7.24281E+002    1.16823E+005   -9.87445E+003    5.12347E+003
            5829    1.72958E+005    1.29927E+005    1.29927E+005   -1.57173E+003   -6.59977E+004    1.95924E+005   -2.07858E+004    1.41926E+005    2.75169E+003    6.21201E+004   -2.51446E+003    9.25390E+004   -1.09398E+004    9.42791E+001
            5830    1.35347E+005    1.09666E+005    1.09666E+005    1.00918E+003   -4.19463E+004    1.51612E+005   -2.29096E+004    1.18489E+005    6.35808E+003    6.16387E+004    7.31868E+002    6.99589E+004   -8.49439E+003   -2.64602E+003
            5831    2.55121E+005    2.04590E+005    2.04590E+005    1.30510E+004   -8.50135E+004    2.89603E+005   -4.42092E+004    2.05809E+005    2.46470E+004    9.97735E+004    8.20707E+003    1.36232E+005   -2.73124E+004    2.72131E+003
            5832    2.14562E+005    1.67719E+005    1.67719E+005    6.05020E+003   -7.57010E+004    2.43420E+005   -3.26895E+004    1.73951E+005    1.42032E+004    8.87547E+004   -4.88925E+003    1.07691E+005   -3.60164E+004    1.57136E+003
            5833    1.63660E+005    1.21283E+005    1.21283E+005   -3.40869E+003   -6.40413E+004    1.85324E+005   -1.79444E+004    1.34668E+005    5.65397E+003    6.03580E+004   -1.21789E+004    7.99122E+004   -3.31705E+004   -3.64876E+003
            5834    1.26516E+005    1.00596E+005    1.00596E+005   -2.19202E+003   -4.06992E+004    1.41295E+005   -1.92349E+004    1.12149E+005    7.62602E+003    5.37634E+004   -3.68482E+003    6.00239E+004   -2.61316E+004   -1.11137E+004
            5835    1.33013E+005    9.70844E+004    9.70844E+004   -3.11988E+003   -5.38228E+004    1.50907E+005   -1.33806E+004    1.07809E+005    8.47711E+003    4.63048E+004   -1.46403E+004    4.50195E+004   -4.83324E+004   -2.42499E+004
            5836    1.84483E+005    1.35320E+005    1.35320E+005    1.79617E+003   -7.51860E+004    2.10506E+005   -2.06436E+004    1.40881E+005    1.43284E+004    6.96419E+004   -2.20396E+004    6.75375E+004   -6.42669E+004   -2.28437E+004
            5837    2.36044E+005    1.79488E+005    1.79488E+005    9.55384E+003   -9.00286E+004    2.69517E+005   -3.30044E+004    1.78690E+005    2.24378E+004    9.86190E+004   -2.20436E+004    9.45129E+004   -7.47524E+004   -1.81119E+004
            5838    2.97611E+005    2.46440E+005    2.46440E+005    1.92242E+004   -9.04434E+004    3.36883E+005   -5.84069E+004    2.45548E+005    4.18436E+004    1.40109E+005   -6.73215E+003    1.33216E+005   -7.69360E+004   -1.61868E+004
            5839    4.71975E+005    5.30545E+005    5.30545E+005    1.72008E+005   -4.17959E+003    5.34725E+005   -2.32791E+005    3.86863E+005    1.80626E+005    3.43914E+005    1.73833E+005    2.52256E+005   -7.38503E+003   -3.59584E+004
            5840    5.29344E+005    5.73788E+005    5.73788E+005    1.63292E+005   -2.36656E+004    5.97454E+005   -2.37805E+005    4.45418E+005    1.83077E+005    3.65497E+005    1.64841E+005    2.82650E+005   -2.95793E+004   -1.79919E+004
            5841    5.82156E+005    5.88514E+005    5.88514E+005    1.62065E+005   -7.47228E+004    6.63237E+005   -2.25285E+005    4.53074E+005    1.78335E+005    3.52787E+005    1.44734E+005    3.07744E+005   -7.52938E+004    1.08840E+004
            5842    5.13292E+005    5.84468E+005    5.84468E+005    1.92183E+005    3.54884E+003    5.80919E+005   -2.60067E+005    4.24066E+005    2.02116E+005    3.85115E+005    1.92968E+005    2.74707E+005   -5.17753E+003   -2.41582E+004
            5843    5.75165E+005    6.34214E+005    6.34214E+005    1.86918E+005   -1.45915E+004    6.48806E+005   -2.68847E+005    4.85647E+005    2.08080E+005    4.10930E+005    1.87531E+005    3.07387E+005   -1.98600E+004   -1.19927E+004
            5844    6.34290E+005    6.55469E+005    6.55469E+005    1.90374E+005   -6.70673E+004    7.22537E+005   -2.59592E+005    4.94389E+005    2.05854E+005    3.90401E+005    1.82522E+005    3.44049E+005   -5.15739E+004    1.04673E+004
            5845    5.37173E+005    6.15682E+005    6.15682E+005    2.04081E+005    8.01847E+003    6.07663E+005   -2.75927E+005    4.45276E+005    2.14559E+005    4.09052E+005    2.04171E+005    2.87741E+005   -1.81096E+003   -8.24697E+003
            5846    6.00672E+005    6.67847E+005    6.67847E+005    2.00201E+005   -9.58269E+003    6.77430E+005   -2.86155E+005    5.07856E+005    2.21998E+005    4.36194E+005    2.00274E+005    3.21257E+005   -6.59937E+003   -4.20332E+003
            5847    6.65458E+005    6.96831E+005    6.96831E+005    2.08053E+005   -6.10323E+004    7.57864E+005   -2.81284E+005    5.20026E+005    2.23213E+005    4.13566E+005    2.07073E+005    3.66145E+005   -1.85014E+004    4.26254E+003
            5848    1.21764E+005    4.12844E+004   -9.52700E+004    2.00809E+003   -9.52700E+004    1.36554E+005    1.73258E+004   -1.06040E+005   -2.76689E+003   -5.12704E+004    2.05981E+003    6.31355E+004    8.58950E+003   -3.50021E+003
            5849    1.14760E+005    4.14290E+004   -8.64576E+004    7.54767E+003   -8.64576E+004    1.27887E+005    1.24936E+004   -1.02569E+005   -2.68616E+003   -4.34033E+004    8.60858E+003    5.35941E+004    2.52078E+004   -1.15659E+004
            5850    1.28433E+005    5.23813E+004   -9.31641E+004    4.25421E+003   -9.31641E+004    1.45545E+005    1.21762E+004   -1.05063E+005   -7.94049E+003   -4.30075E+004    1.44194E+004    4.24136E+004    4.72225E+004   -2.51303E+004
            5851    8.89812E+004    2.51830E+004   -7.38535E+004   -6.39630E+002   -7.38535E+004    9.90366E+004    1.64367E+004   -7.98760E+004   -7.42298E+003   -4.06451E+004   -1.24209E+003    4.62262E+004    5.39506E+003   -4.91646E+003
            5852    8.26342E+004    2.17203E+004   -6.78134E+004    5.52268E+003   -6.78134E+004    8.95337E+004    1.35235E+004   -7.89431E+004   -7.45035E+003   -3.30879E+004   -3.22530E+001    3.87186E+004    1.60964E+004   -1.47338E+004
            5853    8.67164E+004    2.98811E+004   -6.57436E+004    7.79148E+003   -6.57436E+004    9.56248E+004    9.35702E+003   -8.00107E+004   -6.68015E+003   -2.66425E+004    5.25161E+003    2.74971E+004    2.99503E+004   -2.43675E+004
            5854    6.26161E+004    2.79521E+004   -4.34318E+004    2.21143E+003   -4.34318E+004    7.13839E+004    4.42278E+003   -4.83614E+004    6.03119E+002   -1.54025E+004    1.53099E+003    3.43793E+004    2.64964E+003   -5.22869E+003
            5855    5.84972E+004    2.42402E+004   -4.06722E+004    7.96157E+003   -4.06722E+004    6.49124E+004    2.82348E+003   -5.30312E+004    8.34424E+002   -1.20712E+004    2.76630E+003    2.85003E+004    7.32910E+003   -1.44772E+004
            5856    5.69278E+004    1.80404E+004   -4.21809E+004    1.07514E+004   -4.21809E+004    6.02212E+004    4.46302E+003   -5.58635E+004   -2.75297E+003   -1.17533E+004    1.11715E+003    1.87291E+004    1.35197E+004   -2.24297E+004
            5857    5.37369E+004    2.92859E+004   -3.27641E+004   -1.81247E+003   -3.27641E+004    6.20500E+004    1.76353E+003    8.59964E+003   -2.85509E+003   -8.00685E+002   -1.63482E+003    3.05764E+004   -4.42522E+002   -5.13571E+003
            5858    4.98569E+004    2.71961E+004   -3.03417E+004   -3.23477E+003   -3.03417E+004    5.75378E+004    2.12680E+003    2.31304E+004   -2.98972E+003   -9.34541E+002   -2.45614E+003    2.49671E+004   -7.52576E+002   -1.42658E+004
            5859    4.62322E+004    2.66952E+004    2.66952E+004   -9.42361E+002   -2.66778E+004    5.33730E+004    3.08337E+002    1.82664E+004   -6.50571E+002    7.94257E+001   -3.53866E+002    1.58555E+004   -4.14863E+002   -2.14655E+004
            5860    6.87961E+004    5.48055E+004    5.48055E+004    1.06061E+003   -2.27277E+004    7.75332E+004   -1.10461E+004    5.84053E+004    5.75739E+003    2.57050E+004    1.67605E+003    3.71151E+004   -2.91580E+003   -5.12607E+003
            5861    6.36450E+004    5.10521E+004    5.10521E+004   -3.79434E+003   -1.87336E+004    6.97857E+004   -9.50808E+003    5.95051E+004    5.88620E+003    2.07471E+004    1.89097E+003    3.09289E+004   -9.01409E+003   -1.46168E+004
            5862    5.90676E+004    4.51910E+004    4.51910E+004   -1.02989E+004   -1.68998E+004    6.20908E+004   -5.99747E+003    5.82292E+004    4.34886E+003    1.44717E+004   -8.28163E+002    1.96784E+004   -1.45540E+004   -2.24361E+004
            5863    9.26103E+004    7.24935E+004    7.24935E+004   -2.49246E+003   -3.10259E+004    1.03519E+005   -1.29917E+004    8.18074E+004    2.55848E+003    3.83219E+004   -1.90521E+003    4.80488E+004   -6.31080E+003   -4.91768E+003
            5864    8.61800E+004    6.55876E+004    6.55876E+004   -9.84996E+003   -2.83350E+004    9.39226E+004   -9.13423E+003    8.15386E+004    2.11612E+003    3.06266E+004   -5.34004E+003    3.99802E+004   -1.77330E+004   -1.42285E+004
            5865    8.86208E+004    6.66816E+004    6.66816E+004   -8.14160E+003   -3.11847E+004    9.78663E+004   -9.11843E+003    8.14616E+004    6.03876E+003    2.69821E+004   -5.66560E+003    2.82335E+004   -3.08006E+004   -2.44641E+004
            5866    5.82558E+005    5.88809E+005    5.88809E+005    1.62095E+005   -7.48920E+004    6.63701E+005   -2.25337E+005    4.53338E+005    1.78373E+005    3.52900E+005    1.44740E+005    3.07962E+005    7.53524E+004   -1.09184E+004
            5867    5.29416E+005    5.74085E+005    5.74085E+005    1.63415E+005   -2.34160E+004    5.97501E+005   -2.38028E+005    4.45636E+005    1.83240E+005    3.65833E+005    1.65011E+005    2.82671E+005    2.93159E+004    1.82018E+004
            5868    4.72556E+005    5.31340E+005    5.31340E+005    1.72358E+005   -4.04159E+003    5.35382E+005   -2.33219E+005    3.87344E+005    1.80957E+005    3.44535E+005    1.74164E+005    2.52579E+005    7.34943E+003    3.57919E+004
            5869    6.34744E+005    6.55988E+005    6.55988E+005    1.90632E+005   -6.70807E+004    7.23069E+005   -2.59847E+005    4.94626E+005    2.06064E+005    3.90617E+005    1.82859E+005    3.44380E+005    5.13104E+004   -1.04629E+004
            5870    5.74713E+005    6.33816E+005    6.33816E+005    1.86677E+005   -1.44235E+004    6.48240E+005   -2.68690E+005    4.85519E+005    2.07951E+005    4.10829E+005    1.87289E+005    3.07088E+005    1.98048E+004    1.19858E+004
            5871    5.13441E+005    5.84704E+005    5.84704E+005    1.92307E+005    3.61539E+003    5.81089E+005   -2.60209E+005    4.24185E+005    2.02222E+005    3.85324E+005    1.93081E+005    2.74792E+005    5.13688E+003    2.39985E+004
            5872    6.65726E+005    6.97139E+005    6.97139E+005    2.08183E+005   -6.10335E+004    7.58173E+005   -2.81430E+005    5.20206E+005    2.23329E+005    4.13702E+005    2.07258E+005    3.66335E+005    1.80381E+004   -4.09968E+003
            5873    6.00322E+005    6.67477E+005    6.67477E+005    2.00012E+005   -9.53222E+003    6.77009E+005   -2.85986E+005    5.07678E+005    2.21864E+005    4.36012E+005    2.00081E+005    3.21035E+005    6.95198E+003    4.15350E+003
            5874    5.37111E+005    6.15620E+005    6.15620E+005    2.04095E+005    8.02092E+003    6.07599E+005   -2.75912E+005    4.45187E+005    2.14548E+005    4.09002E+005    2.04186E+005    2.87715E+005    1.86308E+003    8.23264E+003
            5875    2.77234E+005    6.61635E+004   -2.52104E+005   -6.31692E+004   -2.52104E+005    3.18267E+005    8.30364E+004   -1.89133E+005   -6.20427E+004   -1.23030E+005   -6.40367E+004    1.48954E+005    1.19986E+003   -4.72256E+004
            5876    3.02637E+005    5.97782E+004   -2.87348E+005   -7.88992E+004   -2.87348E+005    3.47126E+005    1.02156E+005   -2.11162E+005   -7.68042E+004   -1.48881E+005   -8.07838E+004    1.61920E+005    2.66911E+003   -5.16061E+004
            5877    3.33767E+005    4.59283E+004   -3.35916E+005   -9.97545E+004   -3.35916E+005    3.81844E+005    1.29914E+005   -2.45236E+005   -9.87771E+004   -1.89128E+005   -1.01837E+005    1.78530E+005    3.56663E+003   -5.11449E+004
            5878    3.73866E+005    3.33168E+004   -3.93116E+005   -1.21659E+005   -3.93116E+005    4.26433E+005    1.60486E+005   -2.86966E+005   -1.23437E+005   -2.34316E+005   -1.23706E+005    1.99287E+005    4.18297E+003   -5.26395E+004
            5879    4.18001E+005    1.74476E+004   -4.57903E+005   -1.47729E+005   -4.57903E+005    4.75351E+005    1.96061E+005   -3.31647E+005   -1.52321E+005   -2.86533E+005   -1.49331E+005    2.23229E+005    4.33135E+003   -4.74393E+004
            5880    2.84003E+005    7.16311E+004   -2.53396E+005   -5.31265E+004   -2.53396E+005    3.25027E+005    7.82972E+004   -2.07395E+005   -5.33271E+004   -1.24985E+005   -5.65796E+004    1.55334E+005    8.89704E+003   -3.22588E+004
            5881    3.12649E+005    5.82093E+004   -2.98708E+005   -7.32771E+004   -2.98708E+005    3.56918E+005    1.04592E+005   -2.37284E+005   -7.33469E+004   -1.62452E+005   -7.79770E+004    1.69491E+005    1.29172E+004   -3.42441E+004
            5882    3.48464E+005    4.87572E+004   -3.47999E+005   -9.16113E+004   -3.47999E+005    3.96756E+005    1.30284E+005   -2.73020E+005   -9.36593E+004   -1.99888E+005   -9.73064E+004    1.87558E+005    1.65990E+004   -3.72198E+004
            5883    3.94502E+005    3.36514E+004   -4.13595E+005   -1.15071E+005   -4.13595E+005    4.47246E+005    1.65005E+005   -3.21691E+005   -1.21372E+005   -2.53392E+005   -1.20249E+005    2.10625E+005    1.82703E+004   -3.63424E+004
            5884    4.45143E+005    2.10859E+004   -4.82253E+005   -1.40362E+005   -4.82253E+005    5.03339E+005    2.00510E+005   -3.70103E+005   -1.49655E+005   -3.07354E+005   -1.44521E+005    2.36580E+005    1.76618E+004   -3.46515E+004
            5885    2.86358E+005    7.35971E+004   -2.51379E+005   -3.60313E+004   -2.51379E+005    3.24976E+005    7.12709E+004   -2.31539E+005   -4.60975E+004   -1.28399E+005   -3.93159E+004    1.54947E+005    2.33752E+004   -1.78759E+004
            5886    3.19449E+005    7.06954E+004   -2.91945E+005   -5.21711E+004   -2.91945E+005    3.62640E+005    9.11401E+004   -2.57612E+005   -6.31637E+004   -1.53907E+005   -5.63500E+004    1.71842E+005    3.30707E+004   -2.06476E+004
            5887    3.64878E+005    6.07732E+004   -3.52393E+005   -7.43527E+004   -3.52393E+005    4.13166E+005    1.21991E+005   -3.00300E+005   -8.93177E+004   -1.98192E+005   -7.84622E+004    1.94992E+005    3.82156E+004   -2.26223E+004
            5888    4.12336E+005    5.42563E+004   -4.12326E+005   -9.68954E+004   -4.12326E+005    4.66583E+005    1.51655E+005   -3.41080E+005   -1.15037E+005   -2.39853E+005   -1.00075E+005    2.20744E+005    3.97991E+004   -2.17228E+004
            5889    4.65552E+005    4.30558E+004   -4.82853E+005   -1.23444E+005   -4.82853E+005    5.25909E+005    1.87747E+005   -3.89578E+005   -1.45621E+005   -2.92117E+005   -1.25503E+005    2.49428E+005    3.71508E+004   -1.95135E+004
            5890    2.79282E+005    7.93238E+004   -2.36334E+005   -2.13334E+004   -2.36334E+005    3.15658E+005    5.94479E+004   -2.32884E+005   -3.66965E+004   -1.29366E+005   -1.22809E+004    1.40339E+005    4.93581E+004   -7.27165E+003
            5891    3.36015E+005    7.44445E+004   -3.04928E+005   -4.47914E+004   -3.04928E+005    3.79373E+005    9.17584E+004   -2.82161E+005   -6.37396E+004   -1.74954E+005   -3.65812E+004    1.67802E+005    6.24257E+004   -1.43292E+004
            5892    3.91762E+005    7.43989E+004   -3.69107E+005   -7.01874E+004   -3.69107E+005    4.43506E+005    1.21632E+005   -3.22980E+005   -8.95450E+004   -2.16161E+005   -5.91897E+004    1.98455E+005    6.87718E+004   -1.06433E+004
            5893    4.53019E+005    6.67908E+004   -4.46223E+005   -1.01178E+005   -4.46223E+005    5.13014E+005    1.60203E+005   -3.72616E+005   -1.22085E+005   -2.67096E+005   -9.14289E+004    2.33504E+005    7.05649E+004   -1.00304E+004
            5894    5.15699E+005    6.15574E+004   -5.22870E+005   -1.31767E+005   -5.22870E+005    5.84427E+005    1.97693E+005   -4.21771E+005   -1.54225E+005   -3.16201E+005   -1.22653E+005    2.71171E+005    6.56632E+004   -4.58503E+003
            5895    5.30061E+005    1.01780E+005   -5.03923E+005   -1.24864E+005   -5.03923E+005    6.05703E+005    1.75669E+005   -3.96775E+005   -1.35449E+005   -3.04406E+005   -8.71533E+004    2.64116E+005    1.03701E+005    1.14422E+004
            5896    4.62700E+005    1.07242E+005   -4.21810E+005   -9.27114E+004   -4.21810E+005    5.29052E+005    1.35760E+005   -3.43121E+005   -1.04394E+005   -2.56035E+005   -4.68506E+004    2.18881E+005    1.08452E+005    3.97036E+003
            5897    4.00847E+005    1.03125E+005   -3.54661E+005   -6.65895E+004   -3.54661E+005    4.57786E+005    1.06042E+005   -3.02560E+005   -8.13004E+004   -2.16001E+005   -2.08238E+004    1.80373E+005    1.04865E+005   -6.74997E+003
            5898    3.44582E+005    1.03396E+005   -2.89973E+005   -4.14936E+004   -2.89973E+005    3.93368E+005    7.60235E+004   -2.61559E+005   -5.74175E+004   -1.74853E+005    4.19965E+003    1.49117E+005    9.47150E+004   -9.87390E+003
            5899    2.88416E+005    9.58344E+004   -2.33207E+005   -2.41618E+004   -2.33207E+005    3.29042E+005    5.38449E+004   -2.20756E+005   -3.91883E+004   -1.35912E+005    1.35660E+004    1.22008E+005    8.31201E+004   -1.36381E+004
            5900    2.39138E+005    9.06516E+004   -1.82369E+005   -1.00536E+004   -1.82369E+005    2.73020E+005    3.39236E+004   -1.81299E+005   -2.37932E+004   -1.00943E+005    2.29653E+004    9.46498E+004    7.62546E+004   -1.93326E+004
            5901    1.80140E+005    7.49412E+004   -1.30807E+005   -1.45633E+003   -1.30807E+005    2.05749E+005    1.91075E+004   -1.35781E+005   -1.26196E+004   -6.77751E+004    2.30721E+004    6.45047E+004    6.34613E+004   -2.31029E+004
            5902    1.59942E+005    5.69173E+004   -1.23794E+005   -4.35817E+002   -1.23794E+005    1.80711E+005    2.24374E+004   -1.33681E+005   -9.06975E+003   -6.59645E+004    7.72214E+003    7.68271E+004    3.31840E+004   -5.66792E+003
            5903    1.65942E+005    5.86296E+004   -1.28761E+005   -4.16159E+002   -1.28761E+005    1.87390E+005    2.35157E+004   -1.39179E+005   -4.92097E+003   -6.63428E+004    7.16730E+002    8.76486E+004    1.06238E+004    4.96591E+002
            5904    2.02535E+005    7.68045E+004   -1.53552E+005   -3.41229E+003   -1.53552E+005    2.30356E+005    2.67199E+004   -1.60460E+005   -1.07485E+004   -7.77557E+004    8.34458E+003    1.01442E+005    3.65246E+004    2.07318E+003
            5905    1.98296E+005    8.20667E+004   -1.44176E+005   -5.21531E+002   -1.44176E+005    2.26242E+005    2.08768E+004   -1.51655E+005   -1.41319E+003   -6.17526E+004    5.35350E+002    1.08353E+005    1.02852E+004    2.63223E+003
            5906    2.27210E+005    9.59004E+004   -1.63756E+005   -1.39103E+003   -1.63756E+005    2.59656E+005    2.30821E+004   -1.69865E+005   -2.98042E+003   -6.55504E+004   -7.15466E+002    1.25634E+005    7.54706E+003    3.64841E+003
            5907    2.40425E+005    1.03752E+005   -1.72011E+005   -6.37883E+003   -1.72011E+005    2.75764E+005    2.48792E+004   -1.67825E+005   -8.98535E+003   -5.92128E+004   -6.43948E+003    1.35529E+005    3.26852E+003   -1.89566E+003
            5908    2.42496E+005    9.14876E+004   -1.83755E+005   -1.57562E+003   -1.83755E+005    2.75242E+005    3.12809E+004   -1.95802E+005   -1.79448E+004   -7.43958E+004   -1.50200E+003    1.34372E+005    5.28373E+001   -9.15267E+003
            5909    2.44457E+005    5.40159E+004   -2.21948E+005   -3.25615E+004   -2.21948E+005    2.75964E+005    6.68311E+004   -2.05453E+005   -5.00762E+004   -1.20062E+005   -3.03549E+004    1.26719E+005   -3.23971E+002   -4.04917E+004
            5910    2.39500E+005    7.86694E+004   -1.93097E+005   -1.28570E+004   -1.93097E+005    2.71767E+005    4.24282E+004   -1.93845E+005   -2.09587E+004   -9.78014E+004   -8.52463E+003    1.26416E+005    2.82981E+004   -2.47284E+002
            5911    2.61906E+005    8.61918E+004   -2.10744E+005   -1.26100E+004   -2.10744E+005    2.96935E+005    4.57206E+004   -2.13490E+005   -2.59119E+004   -9.82921E+004   -1.29579E+004    1.43345E+005    1.29773E+004   -5.81419E+003
            5912    2.67999E+005    7.24161E+004   -2.32409E+005   -3.37968E+004   -2.32409E+005    3.04825E+005    6.45966E+004   -2.12238E+005   -4.34674E+004   -1.15678E+005   -3.46440E+004    1.44371E+005    2.95512E+003   -3.33591E+004
            5913    2.61610E+005    7.87267E+004   -2.22248E+005   -4.93872E+004   -2.22248E+005    3.00975E+005    6.43030E+004   -1.65693E+005   -4.77512E+004   -9.53773E+004   -4.97804E+004    1.38995E+005    2.11775E+002   -5.26155E+004
            5914    2.92984E+005    2.78909E+005    2.78909E+005    7.55807E+004   -5.69199E+004    3.35828E+005   -9.91898E+004    2.07561E+005    7.41689E+004    1.45926E+005    7.74743E+004    1.57591E+005    3.08684E+003    4.61297E+004
            5915    3.29690E+005    3.31756E+005    3.31756E+005    9.52456E+004   -4.48454E+004    3.76602E+005   -1.27385E+005    2.48105E+005    9.65360E+004    1.86631E+005    9.89891E+004    1.75997E+005    6.89578E+003    5.07484E+004
            5916    3.74502E+005    3.98910E+005    3.98910E+005    1.22249E+005   -2.72492E+004    4.26160E+005   -1.64637E+005    2.95197E+005    1.26372E+005    2.41992E+005    1.25547E+005    1.99884E+005    7.72916E+003    4.74270E+004
            5917    4.23679E+005    4.65686E+005    4.65686E+005    1.47562E+005   -1.52480E+004    4.80934E+005   -1.99333E+005    3.41841E+005    1.54120E+005    2.93483E+005    1.50398E+005    2.26185E+005    8.25470E+003    4.42193E+004
            5918    3.08484E+005    2.82167E+005    2.82167E+005    5.24101E+004   -6.84480E+004    3.50615E+005   -8.87095E+004    2.46066E+005    6.05826E+004    1.47971E+005    5.75749E+004    1.66669E+005    2.73326E+004    2.36413E+004
            5919    3.63827E+005    3.57827E+005    3.57827E+005    8.05651E+004   -5.41427E+004    4.11970E+005   -1.28083E+005    2.99467E+005    9.27382E+004    2.06097E+005    8.54137E+004    1.94353E+005    3.39817E+004    2.48480E+004
            5920    4.16663E+005    4.26121E+005    4.26121E+005    1.07477E+005   -4.53826E+004    4.71504E+005   -1.62739E+005    3.44524E+005    1.21630E+005    2.55529E+005    1.11057E+005    2.22578E+005    3.62190E+004    2.30475E+004
            5921    4.74633E+005    5.02855E+005    5.02855E+005    1.36490E+005   -3.33269E+004    5.36182E+005   -2.02006E+005    3.97104E+005    1.53778E+005    3.12996E+005    1.39245E+005    2.53154E+005    3.49544E+004    2.21666E+004
            5922    5.19895E+005    5.10170E+005    5.10170E+005    1.30211E+005   -8.23193E+004    5.92489E+005   -1.86020E+005    4.03173E+005    1.46548E+005    3.06773E+005    1.04739E+005    2.66120E+005    8.86046E+004   -7.28147E+003
            5923    4.55741E+005    4.35578E+005    4.35578E+005    1.00294E+005   -8.33299E+004    5.18908E+005   -1.50848E+005    3.57016E+005    1.18012E+005    2.62452E+005    7.20786E+004    2.25896E+005    9.12962E+004   -1.73773E+002
            5924    3.94004E+005    3.63886E+005    3.63886E+005    7.08449E+004   -8.40223E+004    4.47908E+005   -1.16903E+005    3.13651E+005    9.02084E+004    2.17536E+005    4.29646E+004    1.90955E+005    8.43703E+004    3.32008E+003
            5925    3.41778E+005    3.04564E+005    3.04564E+005    4.26317E+004   -8.20500E+004    3.86614E+005   -8.83818E+004    2.83377E+005    6.61373E+004    1.77434E+005    2.15741E+004    1.63598E+005    7.49274E+004    1.07124E+004
            5926    2.97884E+005    2.46665E+005    2.46665E+005    1.92542E+004   -9.05309E+004    3.37196E+005   -5.84627E+004    2.45755E+005    4.19209E+004    1.40249E+005   -6.78167E+003    1.33286E+005    7.70696E+004    1.62339E+004
            5927    2.35717E+005    1.79257E+005    1.79257E+005    9.56988E+003   -8.98895E+004    2.69146E+005   -3.29790E+004    1.78421E+005    2.24496E+004    9.85051E+004   -2.20177E+004    9.43479E+004    7.46779E+004    1.81105E+004
            5928    1.84104E+005    1.35076E+005    1.35076E+005    1.74195E+003   -7.49816E+004    2.10057E+005   -2.06120E+004    1.40735E+005    1.43081E+004    6.94918E+004   -2.19640E+004    6.74514E+004    6.40904E+004    2.28024E+004
            5929    1.33146E+005    9.72051E+004    9.72051E+004   -3.13111E+003   -5.38459E+004    1.51051E+005   -1.34094E+004    1.07963E+005    8.49453E+003    4.63988E+004   -1.46652E+004    4.51611E+004    4.83169E+004    2.41852E+004
            5930    1.26582E+005    1.00622E+005    1.00622E+005   -2.15652E+003   -4.07696E+004    1.41391E+005   -1.92318E+004    1.12137E+005    7.62691E+003    5.37664E+004   -3.69791E+003    5.99994E+004    2.62762E+004    1.11380E+004
            5931    1.35806E+005    1.09998E+005    1.09998E+005    9.85758E+002   -4.21328E+004    1.52131E+005   -2.29503E+004    1.18876E+005    6.38479E+003    6.17703E+004    6.95900E+002    7.01991E+004    8.62698E+003    2.66591E+003
            5932    1.63986E+005    1.21519E+005    1.21519E+005   -3.44315E+003   -6.41676E+004    1.85687E+005   -1.79695E+004    1.34968E+005    5.68922E+003    6.05128E+004   -1.22936E+004    8.00097E+004    3.33218E+004    3.68518E+003
            5933    1.72765E+005    1.29758E+005    1.29758E+005   -1.59487E+003   -6.59481E+004    1.95706E+005   -2.07382E+004    1.41768E+005    2.73321E+003    6.20445E+004   -2.56307E+003    9.24115E+004    1.10762E+004   -9.48993E+001
            5934    2.14894E+005    1.67980E+005    1.67980E+005    6.01557E+003   -7.58059E+004    2.43786E+005   -3.27299E+004    1.74286E+005    1.42550E+004    8.89091E+004   -4.97447E+003    1.07790E+005    3.62329E+004   -1.45196E+003
            5935    2.13716E+005    1.56121E+005    1.56121E+005    5.99376E+002   -8.75750E+004    2.43696E+005   -2.30483E+004    1.64622E+005    1.60258E+003    6.83095E+004   -7.67176E+002    1.16459E+005    9.93131E+003   -5.07402E+003
            5936    2.55295E+005    2.04807E+005    2.04807E+005    1.31410E+004   -8.49947E+004    2.89802E+005   -4.43177E+004    2.05944E+005    2.47334E+004    9.99427E+004    8.27714E+003    1.36319E+005    2.73203E+004   -2.76747E+003
            5937    2.35518E+005    1.68569E+005    1.68569E+005    6.58797E+003   -1.01605E+005    2.70174E+005   -2.45171E+004    1.63833E+005    6.43469E+003    6.06162E+004    6.50036E+003    1.32233E+005    5.16003E+003   -6.89245E+001
            5938    2.42533E+005    1.80478E+005    1.80478E+005    1.97287E+003   -9.56551E+004    2.76133E+005   -2.89318E+004    1.90115E+005    1.42630E+004    7.04129E+004    2.11928E+003    1.35062E+005    2.06798E+003    5.83333E+003
            5939    2.45443E+005    2.17649E+005    2.17649E+005    3.18578E+004   -6.05929E+004    2.78242E+005   -6.29713E+004    2.00232E+005    4.63410E+004    1.11739E+005    3.08337E+004    1.29521E+005    5.23826E+002    3.82217E+004
            5940    2.72999E+005    2.39462E+005    2.39462E+005    3.25301E+004   -6.99478E+004    3.09409E+005   -6.73480E+004    2.23119E+005    4.39437E+004    1.22240E+005    3.58599E+004    1.47748E+005    1.27856E+004    2.39514E+004
            5941    2.70350E+005    2.34545E+005    2.34545E+005    5.35469E+004   -7.62237E+004    3.10769E+005   -7.06227E+004    1.77040E+005    5.17379E+004    1.05089E+005    5.50412E+004    1.44894E+005    1.88971E+003    4.97141E+004
            5942    5.96217E+005    9.55723E+004   -5.85629E+005   -1.58726E+005   -5.85629E+005    6.81201E+005    2.16261E+005   -4.47248E+005   -1.66875E+005   -3.48667E+005   -1.33241E+005    3.11581E+005    8.74980E+004    1.79363E+004
            5943    5.77149E+005    5.22071E+004   -6.01805E+005   -1.63884E+005   -6.01805E+005    6.54012E+005    2.37827E+005   -4.72336E+005   -1.88040E+005   -3.67258E+005   -1.58184E+005    3.08636E+005    5.46144E+004   -2.72279E+003
            5944    5.18242E+005    3.48448E+004   -5.50299E+005   -1.49192E+005   -5.50299E+005    5.85144E+005    2.21549E+005   -4.35040E+005   -1.73965E+005   -3.40396E+005   -1.50285E+005    2.78469E+005    3.16065E+004   -1.57203E+004
            5945    4.98221E+005    8.14955E+003   -5.54023E+005   -1.67128E+005   -5.54023E+005    5.62173E+005    2.37667E+005   -4.19936E+005   -1.79002E+005   -3.64330E+005   -1.69670E+005    2.63941E+005    1.52788E+004   -2.80851E+004
            5946    4.64173E+005    4.04463E+003   -5.22593E+005   -1.72983E+005   -5.22593E+005    5.26638E+005    2.30510E+005   -3.76115E+005   -1.80513E+005   -3.36999E+005   -1.74020E+005    2.48354E+005    3.87801E+003   -4.01116E+004
            5947    6.53987E+005    8.47446E+004   -6.61880E+005   -1.90526E+005   -6.61880E+005    7.46625E+005    2.55887E+005   -4.96005E+005   -1.97832E+005   -3.90118E+005   -1.79712E+005    3.53848E+005    5.94825E+004    1.49765E+004
            5948    6.28272E+005    4.46566E+004   -6.67267E+005   -1.90475E+005   -6.67267E+005    7.11924E+005    2.71028E+005   -5.14292E+005   -2.16257E+005   -4.09035E+005   -1.87793E+005    3.40204E+005    3.67394E+004    1.22169E+001
            5949    5.64345E+005    2.72774E+004   -6.09717E+005   -1.72205E+005   -6.09717E+005    6.36994E+005    2.51548E+005   -4.74702E+005   -1.98640E+005   -3.83451E+005   -1.72552E+005    3.03947E+005    2.14407E+004   -9.96814E+003
            5950    5.44158E+005    4.84612E+001   -6.13425E+005   -1.89018E+005   -6.13425E+005    6.13473E+005    2.67465E+005   -4.61063E+005   -2.02191E+005   -4.10090E+005   -1.90112E+005    2.87981E+005    1.08441E+004   -1.89464E+004
            5951    5.02627E+005   -7.59140E+003   -5.76937E+005   -1.94703E+005   -5.76937E+005    5.69346E+005    2.59744E+005   -4.12574E+005   -2.04373E+005   -3.79694E+005   -1.95165E+005    2.69671E+005    2.92566E+003   -2.58495E+004
            5952    6.89515E+005    7.90608E+004   -7.08016E+005   -2.10494E+005   -7.08016E+005    7.87077E+005    2.79817E+005   -5.23923E+005   -2.16443E+005   -4.13910E+005   -2.09097E+005    3.80115E+005    2.10499E+004    6.85825E+003
            5953    6.56355E+005    3.95983E+004   -7.04170E+005   -2.06159E+005   -7.04170E+005    7.43769E+005    2.90244E+005   -5.37147E+005   -2.32297E+005   -4.32583E+005   -2.05851E+005    3.57857E+005    1.29831E+004   -5.90047E+001
            5954    5.88723E+005    2.26263E+004   -6.41882E+005   -1.85467E+005   -6.41882E+005    6.64509E+005    2.68241E+005   -4.95213E+005   -2.12006E+005   -4.07219E+005   -1.85498E+005    3.17491E+005    7.63468E+003   -3.32806E+003
            5955    5.70520E+005   -5.26830E+003   -6.48292E+005   -2.02750E+005   -6.48292E+005    6.43024E+005    2.85437E+005   -4.84144E+005   -2.16082E+005   -4.37356E+005   -2.02872E+005    3.01811E+005    3.94297E+003   -6.24984E+003
            5956    5.25609E+005   -1.35880E+004   -6.08561E+005   -2.07296E+005   -6.08561E+005    5.94973E+005    2.76481E+005   -4.33635E+005   -2.18164E+005   -4.03931E+005   -2.07349E+005    2.82456E+005    9.70187E+002   -9.70518E+003
            5957    1.28646E+005    5.25505E+004   -9.32558E+004    4.24907E+003   -9.32558E+004    1.45806E+005    1.21521E+004   -1.05129E+005   -7.91359E+003   -4.30436E+004    1.45009E+004    4.24003E+004   -4.73494E+004    2.52101E+004
            5958    1.14247E+005    4.11565E+004   -8.61167E+004    7.57716E+003   -8.61167E+004    1.27273E+005    1.24610E+004   -1.02228E+005   -2.67120E+003   -4.32519E+004    8.53999E+003    5.33972E+004   -2.49696E+004    1.15562E+004
            5959    1.20850E+005    4.09170E+004   -9.46072E+004    1.95702E+003   -9.46072E+004    1.35524E+005    1.72444E+004   -1.05264E+005   -2.77534E+003   -5.09384E+004    1.98060E+003    6.26589E+004   -8.50101E+003    3.56324E+003
            5960    8.65760E+004    2.97706E+004   -6.56736E+004    7.80115E+003   -6.56736E+004    9.54442E+004    9.36727E+003   -7.99355E+004   -6.70223E+003   -2.65979E+004    5.19837E+003    2.74522E+004   -2.98760E+004    2.43760E+004
            5961    8.24864E+004    2.16451E+004   -6.77107E+004    5.52697E+003   -6.77107E+004    8.93558E+004    1.35129E+004   -7.88257E+004   -7.46760E+003   -3.30120E+004   -5.90585E+001    3.86540E+004   -1.60431E+004    1.47515E+004
            5962    8.83978E+004    2.50805E+004   -7.33203E+004   -6.22247E+002   -7.33203E+004    9.84008E+004    1.62874E+004   -7.93144E+004   -7.37140E+003   -4.02627E+004   -1.22793E+003    4.59517E+004   -5.33846E+003    4.91087E+003
            5963    5.67526E+004    1.80960E+004   -4.20155E+004    1.06413E+004   -4.20155E+004    6.01115E+004    4.42605E+003   -5.56351E+004   -2.70814E+003   -1.16660E+004    1.09596E+003    1.86228E+004   -1.33922E+004    2.24617E+004
            5964    5.84024E+004    2.42689E+004   -4.05401E+004    8.01026E+003   -4.05401E+004    6.48090E+004    2.75365E+003   -5.29406E+004    8.76746E+002   -1.19439E+004    2.80620E+003    2.84403E+004   -7.32076E+003    1.44993E+004
            5965    6.23210E+004    2.80128E+004   -4.30691E+004    2.18907E+003   -4.30691E+004    7.10819E+004    4.28908E+003   -4.78491E+004    6.60696E+002   -1.50418E+004    1.51384E+003    3.42583E+004   -2.60741E+003    5.22562E+003
            5966    4.62755E+004    2.68967E+004    2.68967E+004   -1.06897E+003   -2.65178E+004    5.34145E+004    2.30021E+002    2.00635E+004   -5.89533E+002    2.33152E+002   -3.33682E+002    1.58913E+004    5.95978E+002    2.14649E+004
            5967    4.99346E+004    2.72986E+004   -3.03253E+004   -3.26884E+003   -3.03253E+004    5.76239E+004    2.09851E+003    2.35796E+004   -2.98749E+003   -8.37234E+002   -2.47081E+003    2.50032E+004    7.79977E+002    1.42873E+004
            5968    5.38309E+004    2.95281E+004   -3.26298E+004   -1.80346E+003   -3.26298E+004    6.21579E+004    1.63504E+003    1.29982E+004   -2.81648E+003   -4.67632E+002   -1.62102E+003    3.06241E+004    4.59284E+002    5.14717E+003
            5969    5.94489E+004    4.54815E+004    4.54815E+004   -1.03782E+004   -1.70018E+004    6.24833E+004   -6.03382E+003    5.86101E+004    4.38604E+003    1.46112E+004   -8.95799E+002    1.97021E+004    1.48660E+004    2.25107E+004
            5970    6.37542E+004    5.11650E+004    5.11650E+004   -3.81609E+003   -1.87214E+004    6.98864E+004   -9.54252E+003    5.96419E+004    5.90785E+003    2.08307E+004    1.88897E+003    3.09627E+004    9.03985E+003    1.46578E+004
            5971    6.92094E+004    5.52233E+004    5.52233E+004    1.02197E+003   -2.27360E+004    7.79594E+004   -1.11697E+004    5.89278E+004    5.79049E+003    2.60866E+004    1.63220E+003    3.72950E+004    2.94181E+003    5.08655E+003
            5972    8.91146E+004    6.70508E+004    6.70508E+004   -8.06976E+003   -3.14117E+004    9.84625E+004   -9.18979E+003    8.18020E+004    6.09137E+003    2.72065E+004   -5.72852E+003    2.84309E+004    3.10210E+004    2.44568E+004
            5973    8.61001E+004    6.54852E+004    6.54852E+004   -9.87485E+003   -2.83542E+004    9.38394E+004   -9.08541E+003    8.14571E+004    2.07020E+003    3.05291E+004   -5.34308E+003    3.99118E+004    1.77839E+004    1.42563E+004
            5974    9.32487E+004    7.30469E+004    7.30469E+004   -2.47986E+003   -3.11778E+004    1.04225E+005   -1.31298E+004    8.23983E+004    2.58641E+003    3.86959E+004   -1.89302E+003    4.83620E+004    6.32037E+003    4.93759E+003
            5975    4.63805E+005    4.04089E+003   -5.22195E+005   -1.72924E+005   -5.22195E+005    5.26236E+005    2.30359E+005   -3.75725E+005   -1.80392E+005   -3.36729E+005   -1.73956E+005    2.48149E+005   -3.85092E+003    4.01971E+004
            5976    4.98283E+005    8.23684E+003   -5.53982E+005   -1.66954E+005   -5.53982E+005    5.62218E+005    2.37566E+005   -4.20101E+005   -1.78931E+005   -3.64266E+005   -1.69501E+005    2.63964E+005   -1.53430E+004    2.80681E+004
            5977    5.18892E+005    3.50414E+004   -5.50853E+005   -1.49306E+005   -5.50853E+005    5.85895E+005    2.21706E+005   -4.35501E+005   -1.74104E+005   -3.40675E+005   -1.50339E+005    2.78828E+005   -3.17539E+004    1.54928E+004
            5978    5.77903E+005    5.24915E+004   -6.02448E+005   -1.64244E+005   -6.02448E+005    6.54940E+005    2.38067E+005   -4.72539E+005   -1.88219E+005   -3.67574E+005   -1.58408E+005    3.09020E+005   -5.49779E+004    2.52687E+003
            5979    5.96507E+005    9.56241E+004   -5.85929E+005   -1.58931E+005   -5.85929E+005    6.81553E+005    2.16412E+005   -4.47266E+005   -1.66954E+005   -3.48808E+005   -1.33474E+005    3.11771E+005   -8.75013E+004   -1.79485E+004
            5980    5.02395E+005   -7.64179E+003   -5.76741E+005   -1.94743E+005   -5.76741E+005    5.69099E+005    2.59709E+005   -4.12298E+005   -2.04384E+005   -3.79547E+005   -1.95195E+005    2.69563E+005   -2.86626E+003    2.58719E+004
            5981    5.43722E+005   -2.10318E+002   -6.13230E+005   -1.89297E+005   -6.13230E+005    6.13020E+005    2.67579E+005   -4.60520E+005   -2.02311E+005   -4.10040E+005   -1.90386E+005    2.87769E+005   -1.06752E+004    1.90391E+004
            5982    5.64269E+005    2.70251E+004   -6.09863E+005   -1.72340E+005   -6.09863E+005    6.36888E+005    2.51726E+005   -4.74731E+005   -1.98773E+005   -3.83715E+005   -1.72690E+005    3.03873E+005   -2.14165E+004    9.98284E+003
            5983    6.29057E+005    4.51157E+004   -6.67770E+005   -1.90670E+005   -6.67770E+005    7.12886E+005    2.71108E+005   -5.14522E+005   -2.16247E+005   -4.09144E+005   -1.87933E+005    3.40672E+005   -3.68219E+004   -2.44789E+002
            5984    6.54244E+005    8.51195E+004   -6.61851E+005   -1.90584E+005   -6.61851E+005    7.46970E+005    2.55772E+005   -4.95726E+005   -1.97651E+005   -3.89982E+005   -1.79682E+005    3.53975E+005   -5.96787E+004   -1.51208E+004
            5985    5.25421E+005   -1.35916E+004   -6.08375E+005   -2.07339E+005   -6.08375E+005    5.94783E+005    2.76435E+005   -4.33359E+005   -2.18140E+005   -4.03771E+005   -2.07395E+005    2.82375E+005   -1.00589E+003    9.80969E+003
            5986    5.70311E+005   -5.32710E+003   -6.48106E+005   -2.02697E+005   -6.48106E+005    6.42779E+005    2.85377E+005   -4.84005E+005   -2.16011E+005   -4.37300E+005   -2.02819E+005    3.01677E+005   -3.96354E+003    6.26187E+003
            5987    5.88820E+005    2.26776E+004   -6.41960E+005   -1.85537E+005   -6.41960E+005    6.64637E+005    2.68273E+005   -4.95205E+005   -2.11974E+005   -4.07274E+005   -1.85571E+005    3.17546E+005   -7.58066E+003    3.38003E+003
            5988    6.56174E+005    3.95628E+004   -7.04024E+005   -2.06241E+005   -7.04024E+005    7.43587E+005    2.90234E+005   -5.36869E+005   -2.32289E+005   -4.32466E+005   -2.05948E+005    3.57786E+005   -1.28507E+004    1.72340E+002
            5989    6.88944E+005    7.90373E+004   -7.07385E+005   -2.10256E+005   -7.07385E+005    7.86423E+005    2.79535E+005   -5.23520E+005   -2.16261E+005   -4.13503E+005   -2.08840E+005    3.79793E+005   -2.12217E+004   -6.86834E+003
            5990    2.88518E+005    9.59628E+004   -2.33233E+005   -2.43035E+004   -2.33233E+005    3.29196E+005    5.38579E+004   -2.20511E+005   -3.92066E+004   -1.35861E+005    1.34935E+004    1.22128E+005   -8.31497E+004    1.34454E+004
            5991    3.44765E+005    1.03532E+005   -2.90068E+005   -4.15774E+004   -2.90068E+005    3.93600E+005    7.60379E+004   -2.61490E+005   -5.74620E+004   -1.75036E+005    4.38402E+003    1.49075E+005   -9.48380E+004    9.82828E+003
            5992    4.01658E+005    1.03105E+005   -3.55619E+005   -6.70219E+004   -3.55619E+005    4.58724E+005    1.06512E+005   -3.03071E+005   -8.17137E+004   -2.16522E+005   -2.12996E+004    1.80850E+005   -1.05050E+005    6.72409E+003
            5993    4.63752E+005    1.07360E+005   -4.22893E+005   -9.30373E+004   -4.22893E+005    5.30253E+005    1.36190E+005   -3.43918E+005   -1.04726E+005   -2.56619E+005   -4.72250E+004    2.19560E+005   -1.08448E+005   -4.13233E+003
            5994    5.30509E+005    1.01430E+005   -5.04757E+005   -1.25226E+005   -5.04757E+005    6.06187E+005    1.76184E+005   -3.97381E+005   -1.35824E+005   -3.04913E+005   -8.78163E+004    2.64580E+005   -1.03315E+005   -1.14908E+004
            5995    5.15456E+005    6.16628E+004   -5.22498E+005   -1.31616E+005   -5.22498E+005    5.84161E+005    1.97484E+005   -4.21521E+005   -1.54060E+005   -3.15993E+005   -1.22398E+005    2.70961E+005   -6.58834E+004    4.54242E+003
            5996    4.65650E+005    4.32929E+004   -4.82717E+005   -1.23197E+005   -4.82717E+005    5.26010E+005    1.87540E+005   -3.89708E+005   -1.45532E+005   -2.91879E+005   -1.25211E+005    2.49420E+005   -3.76816E+004    1.94510E+004
            5997    4.45435E+005    2.12616E+004   -4.82394E+005   -1.40228E+005   -4.82394E+005    5.03655E+005    2.00453E+005   -3.70415E+005   -1.49638E+005   -3.07305E+005   -1.44418E+005    2.36758E+005   -1.79404E+004    3.45204E+004
            5998    4.18014E+005    1.74097E+004   -4.57953E+005   -1.47755E+005   -4.57953E+005    4.75362E+005    1.96099E+005   -3.31679E+005   -1.52325E+005   -2.86616E+005   -1.49357E+005    2.23233E+005   -4.33392E+003    4.73955E+004
            5999    4.51850E+005    6.68645E+004   -4.44797E+005   -1.00534E+005   -4.44797E+005    5.11661E+005    1.59489E+005   -3.71808E+005   -1.21481E+005   -2.66249E+005   -9.07357E+004    2.32788E+005   -7.05686E+004    1.00572E+004
            6000    4.11869E+005    5.44283E+004   -4.11614E+005   -9.64999E+004   -4.11614E+005    4.66043E+005    1.51229E+005   -3.40751E+005   -1.14684E+005   -2.39420E+005   -9.95821E+004    2.20455E+005   -3.99176E+004    2.14715E+004
            6001    3.94585E+005    3.37780E+004   -4.13524E+005   -1.14785E+005   -4.13524E+005    4.47302E+005    1.64844E+005   -3.21978E+005   -1.21233E+005   -2.53306E+005   -1.19992E+005    2.10655E+005   -1.84977E+004    3.62170E+004
            6002    3.74002E+005    3.32728E+004   -3.93321E+005   -1.21789E+005   -3.93321E+005    4.26593E+005    1.60612E+005   -2.87030E+005   -1.23522E+005   -2.34433E+005   -1.23881E+005    1.99389E+005   -4.27368E+003    5.25783E+004
            6003    3.90422E+005    7.46863E+004   -3.67308E+005   -6.94356E+004   -3.67308E+005    4.41995E+005    1.20686E+005   -3.21841E+005   -8.87811E+004   -2.14961E+005   -5.83159E+004    1.97599E+005   -6.89373E+004    1.06784E+004
            6004    3.64061E+005    6.09889E+004   -3.51223E+005   -7.36937E+004   -3.51223E+005    4.12212E+005    1.21309E+005   -2.99786E+005   -8.87585E+004   -1.97437E+005   -7.77327E+004    1.94448E+005   -3.85831E+004    2.24593E+004
            6005    3.49110E+005    4.88313E+004   -3.48620E+005   -9.15644E+004   -3.48620E+005    3.97451E+005    1.30451E+005   -2.73834E+005   -9.37692E+004   -2.00334E+005   -9.72496E+004    1.87925E+005   -1.68083E+004    3.69056E+004
            6006    3.34399E+005    4.55741E+004   -3.36945E+005   -1.00056E+005   -3.36945E+005    3.82519E+005    1.30476E+005   -2.46223E+005   -9.91944E+004   -1.90071E+005   -1.02162E+005    1.78880E+005   -3.64797E+003    5.09604E+004
            6007    3.35494E+005    7.44873E+004   -3.04273E+005   -4.44564E+004   -3.04273E+005    3.78760E+005    9.14141E+004   -2.81835E+005   -6.34637E+004   -1.74608E+005   -3.61702E+004    1.67445E+005   -6.24388E+004    1.43224E+004
            6008    3.19211E+005    7.08656E+004   -2.91511E+005   -5.19400E+004   -2.91511E+005    3.62376E+005    9.08617E+004   -2.57384E+005   -6.29578E+004   -1.53541E+005   -5.60866E+004    1.71717E+005   -3.31373E+004    2.05481E+004
            6009    3.13139E+005    5.80279E+004   -2.99383E+005   -7.32501E+004   -2.99383E+005    3.57410E+005    1.04868E+005   -2.38256E+005   -7.35242E+004   -1.63018E+005   -7.80621E+004    1.69691E+005   -1.33141E+004    3.42317E+004
            6010    3.03612E+005    5.95930E+004   -2.88626E+005   -7.93255E+004   -2.88626E+005    3.48219E+005    1.02786E+005   -2.12217E+005   -7.72797E+004   -1.49829E+005   -8.12496E+004    1.62401E+005   -2.73897E+003    5.17832E+004
            6011    2.79395E+005    7.94723E+004   -2.36296E+005   -2.11439E+004   -2.36296E+005    3.15768E+005    5.93226E+004   -2.33066E+005   -3.66082E+004   -1.29336E+005   -1.20232E+004    1.40329E+005   -4.94731E+004    7.29458E+003
            6012    2.86523E+005    7.35253E+004   -2.51682E+005   -3.63922E+004   -2.51682E+005    3.25207E+005    7.15163E+004   -2.31403E+005   -4.63065E+004   -1.28488E+005   -3.97546E+004    1.55096E+005   -2.31404E+004    1.81668E+004
            6013    2.84265E+005    7.15353E+004   -2.53781E+005   -5.32597E+004   -2.53781E+005    3.25316E+005    7.85017E+004   -2.07712E+005   -5.34985E+004   -1.25293E+005   -5.67136E+004    1.55434E+005   -8.85198E+003    3.24446E+004
            6014    2.77637E+005    6.58955E+004   -2.52845E+005   -6.37161E+004   -2.52845E+005    3.18741E+005    8.35553E+004   -1.89232E+005   -6.24213E+004   -1.23615E+005   -6.46299E+004    1.49266E+005   -1.25957E+003    4.69825E+004
            6015    2.61958E+005    7.87141E+004   -2.22641E+005   -4.93611E+004   -2.22641E+005    3.01355E+005    6.44294E+004   -1.66394E+005   -4.78354E+004   -9.56714E+004   -4.97815E+004    1.39211E+005   -2.71139E+002    5.25490E+004
            6016    2.44413E+005    5.43950E+004   -2.21622E+005   -3.26387E+004   -2.21622E+005    2.76017E+005    6.66219E+004   -2.04924E+005   -4.99028E+004   -1.19519E+005   -3.04438E+004    1.26812E+005    3.62089E+002    4.04714E+004
            6017    2.68129E+005    7.21869E+004   -2.32838E+005   -3.43595E+004   -2.32838E+005    3.05025E+005    6.50036E+004   -2.11980E+005   -4.37868E+004   -1.16045E+005   -3.51787E+004    1.44408E+005   -2.86078E+003    3.36141E+004
            6018    2.42634E+005    9.17264E+004   -1.83714E+005   -1.60378E+003   -1.83714E+005    2.75441E+005    3.11973E+004   -1.95657E+005   -1.78681E+004   -7.41893E+004   -1.53439E+003    1.34489E+005   -7.55061E+001    9.13879E+003
            6019    2.61992E+005    8.61127E+004   -2.10886E+005   -1.25503E+004   -2.10886E+005    2.96998E+005    4.57744E+004   -2.13758E+005   -2.59753E+004   -9.84236E+004   -1.29244E+004    1.43377E+005   -1.28839E+004    5.95197E+003
            6020    2.40441E+005    1.03807E+005   -1.71959E+005   -6.20436E+003   -1.71959E+005    2.75766E+005    2.47856E+004   -1.68068E+005   -8.94487E+003   -5.91466E+004   -6.26528E+003    1.35531E+005   -3.33739E+003    1.88994E+003
            6021    2.39459E+005    7.87080E+004   -1.93063E+005   -1.30628E+004   -1.93063E+005    2.71771E+005    4.24726E+004   -1.93502E+005   -2.09864E+004   -9.77022E+004   -8.72915E+003    1.26434E+005   -2.83330E+004    2.20149E+002
            6022    2.27128E+005    9.58155E+004   -1.63754E+005   -1.48469E+003   -1.63754E+005    2.59569E+005    2.31409E+004   -1.69737E+005   -3.02257E+003   -6.55776E+004   -8.22586E+002    1.25598E+005   -7.48992E+003   -3.59511E+003
            6023    1.97924E+005    8.18381E+004   -1.43967E+005   -5.18373E+002   -1.43967E+005    2.25805E+005    2.08823E+004   -1.51479E+005   -1.43683E+003   -6.17635E+004    5.53307E+002    1.08120E+005   -1.03156E+004   -2.66467E+003
            6024    1.65130E+005    5.81484E+004   -1.28263E+005   -3.33350E+002   -1.28263E+005    1.86412E+005    2.34828E+004   -1.38783E+005   -4.93874E+003   -6.62973E+004    7.87715E+002    8.71405E+004   -1.06122E+004   -4.01520E+002
            6025    2.02186E+005    7.67384E+004   -1.53221E+005   -3.33661E+003   -1.53221E+005    2.29959E+005    2.66063E+004   -1.60189E+005   -1.06606E+004   -7.76009E+004    8.44253E+003    1.01230E+005   -3.65118E+004   -2.06516E+003
            6026    1.59207E+005    5.66091E+004   -1.23246E+005   -3.67419E+002   -1.23246E+005    1.79856E+005    2.23349E+004   -1.33186E+005   -8.97057E+003   -6.56718E+004    7.63759E+003    7.65028E+004   -3.29545E+004    5.72142E+003
            6027    1.80767E+005    7.51900E+004   -1.31282E+005   -1.52075E+003   -1.31282E+005    2.06472E+005    1.92042E+004   -1.36183E+005   -1.27028E+004   -6.80790E+004    2.31693E+004    6.46767E+004   -6.36986E+004    2.32020E+004
            6028    2.39791E+005    9.09526E+004   -1.82826E+005   -1.01057E+004   -1.82826E+005    2.73779E+005    3.39931E+004   -1.81680E+005   -2.38291E+004   -1.01184E+005    2.30338E+004    9.48500E+004   -7.65370E+004    1.94217E+004
            6029    3.37279E+005    2.78094E+005    2.78094E+005    3.08920E+004   -1.06132E+005    3.84226E+005   -6.76179E+004    2.62711E+005    5.13961E+004    1.36683E+005    1.47745E+004    1.67457E+005   -7.68041E+004   -8.10147E+003
            6030    3.90367E+005    3.32136E+005    3.32136E+005    5.38648E+004   -1.14099E+005    4.46235E+005   -9.06338E+004    2.90608E+005    7.07447E+004    1.68741E+005    3.24161E+004    1.95846E+005   -8.65539E+004   -2.34808E+003
            6031    4.54230E+005    3.98066E+005    3.98066E+005    7.78658E+004   -1.21796E+005    5.19862E+005   -1.18045E+005    3.31501E+005    9.31800E+004    2.04637E+005    5.63192E+004    2.32469E+005   -9.36470E+004    2.48882E+002
            6032    5.20442E+005    4.67317E+005    4.67317E+005    1.02498E+005   -1.28663E+005    5.95980E+005   -1.47051E+005    3.75888E+005    1.16924E+005    2.40908E+005    8.33198E+004    2.74159E+005   -9.05827E+004    5.37804E+003
            6033    4.61664E+005    4.41728E+005    4.41728E+005    1.02994E+005   -8.41202E+004    5.25848E+005   -1.53534E+005    3.60191E+005    1.21315E+005    2.34313E+005    1.04972E+005    2.53982E+005   -3.62128E+004   -1.63077E+004
            6034    4.03445E+005    4.06777E+005    4.06777E+005    1.15582E+005   -5.37371E+004    4.60514E+005   -1.56207E+005    3.06704E+005    1.21252E+005    2.29528E+005    1.17842E+005    2.21256E+005   -8.03788E+003   -3.46763E+004
            6035    4.06158E+005    3.78561E+005    3.78561E+005    8.21741E+004   -8.44021E+004    4.62964E+005   -1.25444E+005    3.14231E+005    9.78597E+004    1.93626E+005    8.48477E+004    2.23122E+005   -3.70970E+004   -1.73070E+004
            6036    3.57377E+005    3.48701E+005    3.48701E+005    9.46656E+004   -5.99507E+004    4.08652E+005   -1.27805E+005    2.64741E+005    9.84563E+004    1.87664E+005    9.72960E+004    1.96063E+005   -7.58723E+003   -3.72407E+004
            6037    3.55396E+005    3.21811E+005    3.21811E+005    6.22833E+004   -8.32536E+004    4.05065E+005   -1.00280E+005    2.75261E+005    7.67815E+004    1.58054E+005    6.60053E+004    1.95026E+005   -3.42503E+004   -1.90119E+004
            6038    3.16185E+005    2.92134E+005    2.92134E+005    7.31770E+004   -7.03588E+004    3.62493E+005   -9.83174E+004    2.23040E+005    7.47659E+004    1.44123E+005    7.60634E+004    1.73522E+005   -6.65416E+003   -3.99520E+004
            6039    3.02672E+005    2.57678E+005    2.57678E+005    4.08072E+004   -8.81083E+004    3.45786E+005   -7.01256E+004    2.27317E+005    5.15573E+004    1.14037E+005    4.47824E+004    1.67418E+005   -2.67087E+004   -1.83552E+004
            6040    2.82217E+005    2.47360E+005    2.47360E+005    5.78520E+004   -7.69834E+004    3.24344E+005   -7.60764E+004    1.86146E+005    5.70169E+004    1.12106E+005    5.91060E+004    1.55641E+005   -2.60147E+003   -3.66489E+004
            6041    2.58049E+005    2.10946E+005    2.10946E+005    4.27747E+004   -8.61612E+004    2.97107E+005   -5.58532E+004    1.57256E+005    4.19373E+004    8.20410E+004    4.35815E+004    1.41891E+005   -1.34824E+003   -3.93279E+004
            6042    2.32681E+005    1.94569E+005    1.94569E+005    2.53424E+004   -7.07710E+004    2.65340E+005   -4.97136E+004    1.79071E+005    3.71706E+004    8.72502E+004    2.47200E+004    1.26582E+005   -1.90126E+002   -3.04694E+004
            6043    2.68627E+005    2.17772E+005    2.17772E+005    2.39334E+004   -8.88630E+004    3.06635E+005   -5.09473E+004    2.04130E+005    3.50655E+004    9.13854E+004    2.63911E+004    1.49355E+005   -1.15088E+004   -1.92038E+004
            6044    2.39585E+005    1.67675E+005    1.67675E+005    2.48002E+002   -1.06767E+005    2.74441E+005   -2.03853E+004    1.72032E+005    1.02460E+004    5.05944E+004    3.15396E+002    1.35648E+005   -1.15978E+003   -4.77232E+003
            6045    2.32684E+005    1.61777E+005    1.61777E+005    6.11821E+003   -1.05708E+005    2.67485E+005   -2.07291E+004    1.52084E+005    7.14999E+003    4.89885E+004    6.04878E+003    1.32013E+005   -4.53635E+003    2.70954E+002
            6046    2.13787E+005    1.46024E+005    1.46024E+005   -3.04660E+003   -9.89173E+004    2.44942E+005   -1.46868E+004    1.52863E+005    2.00463E+003    4.60457E+004   -3.98983E+003    1.19931E+005   -9.48090E+003    3.88890E+003
            6047    1.77820E+005    1.30764E+005    1.30764E+005    7.82887E+002   -7.18798E+004    2.02644E+005   -1.98891E+004    1.37937E+005    5.70379E+003    5.40421E+004   -7.85147E+001    9.76385E+004   -1.10936E+004    6.59899E+002
            6048    1.34472E+005    9.86741E+004    9.86741E+004   -3.58218E+003   -5.36488E+004    1.52323E+005   -1.38144E+004    1.10371E+005    3.86875E+003    4.12505E+004   -3.67612E+003    7.32319E+004   -8.94645E+003   -2.41107E+003
            6049    2.51857E+005    1.93242E+005    1.93242E+005    1.15148E+004   -9.42516E+004    2.87494E+005   -3.68350E+004    1.91369E+005    2.22644E+004    8.05215E+004    7.71905E+003    1.37564E+005   -2.70096E+004    2.50367E+003
            6050    2.12626E+005    1.55317E+005    1.55317E+005    1.80361E+003   -8.73766E+004    2.42694E+005   -2.32482E+004    1.61722E+005    1.22434E+004    6.36336E+004   -6.13257E+003    1.11244E+005   -3.72342E+004    8.88506E+002
            6051    1.68016E+005    1.22973E+005    1.22973E+005    5.01948E+002   -6.85699E+004    1.91543E+005   -1.83016E+004    1.29763E+005    7.81128E+003    5.36104E+004   -6.51692E+003    8.49802E+004   -3.45653E+004   -2.64522E+003
            6052    1.25654E+005    9.12104E+004    9.12104E+004   -5.53702E+003   -5.08057E+004    1.42016E+005   -1.16226E+004    1.04799E+005    4.64618E+003    3.60950E+004   -5.87349E+003    6.24960E+004   -2.81754E+004   -9.30211E+003
            6053    1.31735E+005    9.17690E+004    9.17690E+004   -5.29933E+003   -5.81917E+004    1.49961E+005   -9.42599E+003    1.03442E+005    6.78886E+003    3.43902E+004   -1.29011E+004    4.77094E+004   -5.07463E+004   -1.92089E+004
            6054    1.83134E+005    1.29821E+005    1.29821E+005    6.87953E+002   -7.97688E+004    2.09590E+005   -1.69133E+004    1.33721E+005    1.18081E+004    5.64253E+004   -1.74934E+004    7.11600E+004   -6.64216E+004   -1.78402E+004
            6055    2.32531E+005    1.68375E+005    1.68375E+005    4.64492E+003   -9.77865E+004    2.66161E+005   -2.50777E+004    1.69346E+005    1.86444E+004    7.53060E+004   -1.87174E+004    9.84896E+004   -7.66809E+004   -1.42214E+004
            6056    2.91090E+005    2.27397E+005    2.27397E+005    1.38357E+004   -1.04166E+005    3.31563E+005   -4.56891E+004    2.27080E+005    3.42123E+004    1.08991E+005   -6.13578E+003    1.36012E+005   -7.86395E+004   -1.21891E+004
            6057    4.49681E+005    4.65057E+005    4.65057E+005    1.36606E+005   -4.74532E+004    5.12511E+005   -1.84737E+005    3.48405E+005    1.44090E+005    2.72089E+005    1.38031E+005    2.46651E+005   -7.08514E+003   -2.80180E+004
            6058    5.15002E+005    5.00371E+005    5.00371E+005    1.22335E+005   -8.61947E+004    5.86565E+005   -1.78837E+005    4.02075E+005    1.42216E+005    2.70901E+005    1.23395E+005    2.84342E+005   -3.07567E+004   -1.29462E+004
            6059    5.86116E+005    5.39792E+005    5.39792E+005    1.29026E+005   -1.31407E+005    6.71199E+005   -1.79137E+005    4.23149E+005    1.42635E+005    2.78790E+005    1.15986E+005    3.17526E+005   -7.74564E+004    7.90542E+003
            6060    4.88134E+005    5.12426E+005    5.12426E+005    1.53600E+005   -4.34286E+004    5.55855E+005   -2.07533E+005    3.81926E+005    1.62324E+005    3.06073E+005    1.54201E+005    2.67863E+005   -4.87727E+003   -1.87499E+004
            6061    5.59159E+005    5.49273E+005    5.49273E+005    1.38586E+005   -8.75338E+004    6.36807E+005   -2.00109E+005    4.36935E+005    1.59783E+005    3.01551E+005    1.38992E+005    3.09685E+005   -2.04224E+004   -8.46098E+003
            6062    6.41559E+005    6.02435E+005    6.02435E+005    1.52508E+005   -1.32206E+005    7.34642E+005   -2.07579E+005    4.63767E+005    1.65384E+005    3.10687E+005    1.46666E+005    3.55382E+005   -5.27658E+004    7.59460E+003
            6063    5.10399E+005    5.39908E+005    5.39908E+005    1.63653E+005   -4.10703E+004    5.80978E+005   -2.20830E+005    4.01049E+005    1.72955E+005    3.25814E+005    1.63722E+005    2.80187E+005   -1.73504E+003   -6.39638E+003
            6064    5.83835E+005    5.76313E+005    5.76313E+005    1.47672E+005   -8.86333E+004    6.64947E+005   -2.11784E+005    4.55942E+005    1.69328E+005    3.18304E+005    1.47720E+005    3.23938E+005   -7.04704E+003   -2.95677E+003
            6065    6.75100E+005    6.41202E+005    6.41202E+005    1.67344E+005   -1.31780E+005    7.72983E+005   -2.25589E+005    4.88801E+005    1.79623E+005    3.30534E+005    1.66609E+005    3.78474E+005   -1.91163E+004    3.04764E+003
            6066    1.28108E+005    4.60066E+004   -9.89612E+004   -9.86328E+002   -9.89612E+004    1.44968E+005    1.79803E+004   -1.05934E+005   -7.54153E+003   -4.54876E+004   -9.11814E+002    6.93391E+004    8.80024E+003   -2.58408E+003
            6067    1.20127E+005    4.47656E+004   -9.06698E+004    2.99817E+003   -9.06698E+004    1.35435E+005    1.43020E+004   -1.01753E+005   -7.07442E+003   -3.93615E+004    3.52990E+003    5.91427E+004    2.69202E+004   -9.40763E+003
            6068    1.29062E+005    5.52010E+004   -9.15437E+004    4.33259E+003   -9.15437E+004    1.46745E+005    1.06700E+004   -1.02565E+005   -7.57454E+003   -3.54665E+004    1.10309E+004    4.60401E+004    4.97813E+004   -2.01681E+004
            6069    9.20086E+004    3.74424E+004   -6.67272E+004    3.44387E+003   -6.67272E+004    1.04170E+005    8.61365E+003   -7.58086E+004   -1.91984E+003   -2.68398E+004    2.91868E+003    5.01558E+004    5.92911E+003   -4.01317E+003
            6070    8.43220E+004    3.26479E+004   -6.12841E+004    7.88059E+003   -6.12841E+004    9.39320E+004    6.91854E+003   -7.54641E+004   -2.01438E+003   -2.17703E+004    3.02905E+003    4.18627E+004    1.73732E+004   -1.19986E+004
            6071    8.58525E+004    3.32991E+004   -6.18955E+004    9.66322E+003   -6.18955E+004    9.51946E+004    6.31106E+003   -7.80138E+004   -4.35166E+003   -1.98982E+004    5.31670E+003    3.00482E+004    3.17804E+004   -1.95491E+004
            6072    6.91339E+004    2.78480E+004   -5.11806E+004   -1.90121E+003   -5.11806E+004    7.90286E+004    8.41127E+003   -5.14624E+004   -5.20967E+003   -1.76325E+004   -2.39164E+003    3.87555E+004    2.66074E+003   -4.28213E+003
            6073    6.18779E+004    2.30987E+004   -4.62780E+004    3.21006E+003   -4.62780E+004    6.93767E+004    6.65644E+003   -5.39507E+004   -4.54091E+003   -1.42903E+004   -1.13814E+003    3.20132E+004    7.99719E+003   -1.18698E+004
            6074    5.55273E+004    1.42418E+004   -4.19091E+004    1.29727E+004   -4.19091E+004    5.61509E+004    4.89822E+003   -5.54946E+004   -3.80123E+003   -1.08304E+004   -6.29894E+001    2.10332E+004    1.47969E+004   -1.83447E+004
            6075    6.24132E+004    4.00633E+004    4.00633E+004    2.41533E+003   -3.19808E+004    7.20441E+004   -3.49928E+003    2.66763E+004    3.02990E+003    5.00075E+003    2.46718E+003    3.57694E+004   -2.59586E+002   -4.14544E+003
            6076    5.48035E+004    3.51736E+004    3.51736E+004    1.02714E+003   -2.80401E+004    6.32137E+004   -2.72019E+003    2.83630E+004    2.55994E+003    4.15994E+003    1.44069E+003    2.93615E+004   -8.24832E+002   -1.16831E+004
            6077    4.42738E+004    2.70445E+004    2.70445E+004    2.35925E+002   -2.40578E+004    5.11023E+004   -1.07419E+003    1.94748E+004    9.32866E+002    1.54448E+003    7.45232E+002    1.85090E+004   -5.99224E+002   -1.76145E+004
            6078    7.16597E+004    4.85847E+004    4.85847E+004   -3.15752E+003   -3.32075E+004    8.17922E+004   -4.07323E+003    5.45119E+004    3.55756E+002    1.44282E+004   -2.56431E+003    3.99838E+004   -3.39426E+003   -4.35035E+003
            6079    6.42468E+004    4.44875E+004    4.44875E+004   -7.07762E+003   -2.74841E+004    7.19716E+004   -3.30861E+003    5.62305E+004    5.56392E+002    1.12326E+004   -1.86312E+003    3.29465E+004   -9.90230E+003   -1.19917E+004
            6080    5.67071E+004    4.13730E+004    4.13730E+004   -1.49888E+004   -1.56731E+004    5.70461E+004   -3.57038E+003    5.66978E+004    2.43526E+003    9.99444E+003   -1.71857E+003    2.14464E+004   -1.56568E+004   -1.82085E+004
            6081    1.01223E+005    7.91693E+004    7.91693E+004    1.29949E+003   -3.52533E+004    1.14423E+005   -1.50718E+004    8.43314E+004    6.80100E+003    3.67390E+004    1.67550E+003    5.47832E+004   -6.47562E+003   -3.68714E+003
            6082    9.27870E+004    7.16680E+004    7.16680E+004   -4.28601E+003   -3.17511E+004    1.03419E+005   -1.18770E+004    8.28742E+004    6.03198E+003    3.03618E+004   -7.62861E+002    4.59739E+004   -1.88954E+004   -1.14614E+004
            6083    8.97077E+004    6.66069E+004    6.66069E+004   -7.73671E+003   -3.30327E+004    9.96397E+004   -8.61250E+003    8.10825E+004    6.03213E+003    2.35265E+004   -3.72116E+003    3.18379E+004   -3.29143E+004   -1.98717E+004
            6084    5.86463E+005    5.40047E+005    5.40047E+005    1.29063E+005   -1.31553E+005    6.71601E+005   -1.79186E+005    4.23351E+005    1.42675E+005    2.78876E+005    1.16006E+005    3.17716E+005    7.75126E+004   -7.92737E+003
            6085    5.14961E+005    5.00505E+005    5.00505E+005    1.22393E+005   -8.59912E+004    5.86496E+005   -1.78969E+005    4.02214E+005    1.42314E+005    2.71101E+005    1.23492E+005    2.84322E+005    3.04870E+004    1.31039E+004
            6086    4.50225E+005    4.65761E+005    4.65761E+005    1.36892E+005   -4.73654E+004    5.13126E+005   -1.85096E+005    3.48861E+005    1.44374E+005    2.72613E+005    1.38300E+005    2.46954E+005    7.04012E+003    2.78904E+004
            6087    6.41915E+005    6.02781E+005    6.02781E+005    1.52662E+005   -1.32278E+005    7.35059E+005   -2.07722E+005    4.63912E+005    1.65487E+005    3.10801E+005    1.46877E+005    3.55646E+005    5.24844E+004   -7.59863E+003
            6088    5.58609E+005    5.48836E+005    5.48836E+005    1.38388E+005   -8.73097E+004    6.36146E+005   -1.99972E+005    4.36770E+005    1.59665E+005    3.01455E+005    1.38795E+005    3.09346E+005    2.03698E+004    8.46529E+003
            6089    4.88273E+005    5.12654E+005    5.12654E+005    1.53720E+005   -4.33568E+004    5.56011E+005   -2.07672E+005    3.82044E+005    1.62432E+005    3.06272E+005    1.54313E+005    2.67940E+005    4.85026E+003    1.86227E+004
            6090    6.75296E+005    6.41415E+005    6.41415E+005    1.67430E+005   -1.31795E+005    7.73210E+005   -2.25683E+005    4.88922E+005    1.79698E+005    3.30618E+005    1.66734E+005    3.78617E+005    1.86568E+004   -2.93456E+003
            6091    5.83459E+005    5.75974E+005    5.75974E+005    1.47531E+005   -8.85265E+004    6.64501E+005   -2.11660E+005    4.55775E+005    1.69227E+005    3.18177E+005    1.47575E+005    3.23705E+005    7.40833E+003    2.91510E+003
            6092    5.10343E+005    5.39859E+005    5.39859E+005    1.63667E+005   -4.10592E+004    5.80918E+005   -2.20822E+005    4.00970E+005    1.72945E+005    3.25783E+005    1.63738E+005    2.80159E+005    1.78758E+003    6.38295E+003
            6093    2.63055E+005    7.76922E+004   -2.24900E+005   -5.06595E+004   -2.24900E+005    3.02592E+005    6.59557E+004   -1.67682E+005   -5.00604E+004   -9.69564E+004   -5.08503E+004    1.44648E+005    2.88733E+002   -3.77086E+004
            6094    2.85409E+005    7.33440E+004   -2.54674E+005   -6.30735E+004   -2.54674E+005    3.28018E+005    8.14678E+004   -1.88131E+005   -6.21994E+004   -1.18068E+005   -6.41362E+004    1.56402E+005    1.93202E+003   -4.10082E+004
            6095    3.14060E+005    6.38826E+004   -2.96329E+005   -7.98951E+004   -2.96329E+005    3.60211E+005    1.04114E+005   -2.19376E+005   -8.01315E+004   -1.50866E+005   -8.13436E+004    1.72044E+005    3.16414E+003   -4.03638E+004
            6096    3.51614E+005    5.67344E+004   -3.45630E+005   -9.74449E+004   -3.45630E+005    4.02364E+005    1.28780E+005   -2.57218E+005   -9.96507E+004   -1.87612E+005   -9.90778E+004    1.92085E+005    4.11520E+003   -4.12434E+004
            6097    3.94250E+005    4.82185E+004   -4.01995E+005   -1.18457E+005   -4.01995E+005    4.50213E+005    1.57411E+005   -2.97944E+005   -1.22135E+005   -2.30254E+005   -1.19844E+005    2.15509E+005    4.46254E+003   -3.69633E+004
            6098    2.78405E+005    9.17237E+004   -2.28072E+005   -3.97565E+004   -2.28072E+005    3.19796E+005    5.87017E+004   -1.86780E+005   -4.21280E+004   -9.19226E+004   -4.20543E+004    1.55911E+005    7.60375E+003   -2.53526E+004
            6099    3.05856E+005    8.45976E+004   -2.66083E+005   -5.44770E+004   -2.66083E+005    3.50680E+005    7.86541E+004   -2.15350E+005   -5.84714E+004   -1.19604E+005   -5.78864E+004    1.70490E+005    1.21946E+004   -2.66304E+004
            6100    3.40175E+005    8.24309E+004   -3.06970E+005   -6.76080E+004   -3.06970E+005    3.89401E+005    9.73823E+004   -2.47431E+005   -7.42201E+004   -1.45999E+005   -7.19282E+004    1.88961E+005    1.65346E+004   -2.86248E+004
            6101    3.83330E+005    7.73552E+004   -3.60340E+005   -8.44035E+004   -3.60340E+005    4.37696E+005    1.22463E+005   -2.90131E+005   -9.54263E+004   -1.83573E+005   -8.83897E+004    2.12273E+005    1.86105E+004   -2.75917E+004
            6102    4.30000E+005    7.47988E+004   -4.15505E+005   -1.02522E+005   -4.15505E+005    4.90304E+005    1.47743E+005   -3.31342E+005   -1.17006E+005   -2.20492E+005   -1.05731E+005    2.37959E+005    1.81174E+004   -2.60676E+004
            6103    2.81923E+005    8.81792E+004   -2.33501E+005   -2.93911E+004   -2.33501E+005    3.21680E+005    5.82375E+004   -2.15395E+005   -3.93173E+004   -1.03375E+005   -3.20204E+004    1.55707E+005    2.23041E+004   -1.44987E+004
            6104    3.15596E+005    8.90306E+004   -2.71090E+005   -4.26983E+004   -2.71090E+005    3.60121E+005    7.49193E+004   -2.40957E+005   -5.31797E+004   -1.25580E+005   -4.59986E+004    1.72969E+005    3.27086E+004   -1.65636E+004
            6105    3.62084E+005    8.57608E+004   -3.26736E+005   -6.14172E+004   -3.26736E+005    4.12497E+005    1.00797E+005   -2.81929E+005   -7.45154E+004   -1.63213E+005   -6.46644E+004    1.97254E+005    3.88903E+004   -1.82728E+004
            6106    4.12327E+005    8.61574E+004   -3.83505E+005   -8.10223E+004   -3.83505E+005    4.69662E+005    1.26123E+005   -3.21615E+005   -9.53043E+004   -1.99548E+005   -8.35178E+004    2.24901E+005    4.12311E+004   -1.76838E+004
            6107    4.68618E+005    8.39839E+004   -4.49386E+005   -1.03709E+005   -4.49386E+005    5.33370E+005    1.56371E+005   -3.68572E+005   -1.19900E+005   -2.43867E+005   -1.05345E+005    2.56174E+005    3.90233E+004   -1.60661E+004
            6108    2.72586E+005    9.54234E+004   -2.14894E+005   -1.41215E+004   -2.14894E+005    3.10317E+005    4.45307E+004   -2.13911E+005   -3.05375E+004   -9.61163E+004   -6.93848E+003    1.41943E+005    4.96208E+004   -4.77108E+003
            6109    3.26362E+005    9.90617E+004   -2.72425E+005   -3.18123E+004   -2.72425E+005    3.71486E+005    6.83918E+004   -2.56481E+005   -5.12401E+004   -1.28989E+005   -2.49464E+004    1.68744E+005    6.33026E+004   -9.76979E+003
            6110    3.78405E+005    1.07191E+005   -3.24483E+005   -5.00472E+004   -3.24483E+005    4.31674E+005    8.91133E+004   -2.89915E+005   -6.86840E+004   -1.57625E+005   -4.10304E+004    1.97785E+005    6.96634E+004   -6.83304E+003
            6111    4.35397E+005    1.09678E+005   -3.87180E+005   -7.22733E+004   -3.87180E+005    4.96858E+005    1.16592E+005   -3.32112E+005   -9.13015E+004   -1.94092E+005   -6.43812E+004    2.31076E+005    7.11731E+004   -6.52978E+003
            6112    4.93554E+005    1.14425E+005   -4.49175E+005   -9.41566E+004   -4.49175E+005    5.63601E+005    1.42969E+005   -3.73100E+005   -1.12401E+005   -2.29609E+005   -8.68968E+004    2.66512E+005    6.61053E+004   -2.67695E+003
            6113    5.34785E+005    1.38362E+005   -4.74722E+005   -1.04228E+005   -4.74722E+005    6.13085E+005    1.46863E+005   -3.77564E+005   -1.19817E+005   -2.45000E+005   -7.57715E+004    2.76029E+005    1.06572E+005    8.59584E+003
            6114    4.67232E+005    1.35655E+005   -4.00050E+005   -7.67788E+004   -4.00050E+005    5.35705E+005    1.13725E+005   -3.29008E+005   -9.24032E+004   -2.06430E+005   -4.23400E+004    2.30665E+005    1.11724E+005    2.79641E+003
            6115    4.04285E+005    1.26401E+005   -3.36730E+005   -5.43815E+004   -3.36730E+005    4.63131E+005    8.82371E+004   -2.89954E+005   -7.07746E+004   -1.73644E+005   -2.02927E+004    1.91154E+005    1.08647E+005   -5.52173E+003
            6116    3.46659E+005    1.20314E+005   -2.76564E+005   -3.29728E+004   -2.76564E+005    3.96877E+005    6.30742E+004   -2.51510E+005   -4.98962E+004   -1.40328E+005    1.00105E+003    1.58587E+005    9.85854E+004   -8.05182E+003
            6117    2.89712E+005    1.08690E+005   -2.22847E+005   -1.84091E+004   -2.22847E+005    3.31537E+005    4.41887E+004   -2.11833E+005   -3.36760E+004   -1.08747E+005    9.85665E+003    1.29528E+005    8.65062E+004   -1.08241E+004
            6118    2.35822E+005    9.80924E+004   -1.71956E+005   -6.63847E+003   -1.71956E+005    2.70048E+005    2.68340E+004   -1.70343E+005   -1.94498E+004   -7.97652E+004    1.87130E+004    9.84202E+004    7.84909E+004   -1.49889E+004
            6119    1.77639E+005    7.99499E+004   -1.23405E+005    1.52198E+003   -1.23405E+005    2.03355E+005    1.39778E+004   -1.29080E+005   -1.00700E+004   -5.15605E+004    1.96972E+004    6.78030E+004    6.56953E+004   -1.80147E+004
            6120    1.58873E+005    6.71421E+004   -1.13818E+005    2.75027E+003   -1.13818E+005    1.80960E+005    1.46420E+004   -1.23953E+005   -5.77235E+003   -4.67897E+004    8.63603E+003    7.96380E+004    3.49668E+004   -4.65262E+003
            6121    1.65344E+005    7.03999E+004   -1.17866E+005    3.75417E+003   -1.17866E+005    1.88266E+005    1.45705E+004   -1.29491E+005   -2.60852E+003   -4.56972E+004    4.59415E+003    9.08520E+004    1.09071E+004    3.96115E+002
            6122    2.05408E+005    8.28735E+004   -1.51844E+005   -4.93632E+003   -1.51844E+005    2.34718E+005    2.46358E+004   -1.53786E+005   -1.25633E+004   -6.55261E+004    4.18207E+003    1.06446E+005    3.74995E+004    1.73860E+003
            6123    2.02005E+005    8.76268E+004   -1.43694E+005   -2.06670E+003   -1.43694E+005    2.31321E+005    1.93779E+004   -1.45947E+005   -4.85984E+003   -5.20477E+004   -1.22608E+003    1.12661E+005    9.98230E+003    2.46961E+003
            6124    2.24722E+005    1.05858E+005   -1.52074E+005    1.44734E+003   -1.52074E+005    2.57933E+005    1.49229E+004   -1.54121E+005   -2.33681E+003   -4.43418E+004    1.91000E+003    1.26976E+005    6.96164E+003    2.90076E+003
            6125    2.36946E+005    1.07535E+005   -1.64911E+005   -6.93245E+003   -1.64911E+005    2.72446E+005    2.14363E+004   -1.53589E+005   -8.73172E+003   -4.85960E+004   -6.98100E+003    1.34725E+005    2.63326E+003   -1.65075E+003
            6126    2.38326E+005    1.03921E+005   -1.68649E+005    4.73979E+002   -1.68649E+005    2.72571E+005    2.14180E+004   -1.76023E+005   -1.20999E+004   -5.27419E+004    5.87929E+002    1.34544E+005   -6.43700E+002   -7.38362E+003
            6127    2.30030E+005    6.40066E+004   -1.97466E+005   -2.62553E+004   -1.97466E+005    2.61472E+005    5.32381E+004   -1.83311E+005   -4.03786E+004   -9.44184E+004   -2.49173E+004    1.23629E+005   -5.95491E+002   -3.19659E+004
            6128    2.35574E+005    9.20521E+004   -1.76899E+005   -7.15339E+003   -1.76899E+005    2.68951E+005    3.06667E+004   -1.78594E+005   -1.73063E+004   -7.06051E+004   -4.08881E+003    1.28369E+005    2.79222E+004   -1.31722E+002
            6129    2.57224E+005    9.50924E+004   -1.98322E+005   -1.16779E+004   -1.98322E+005    2.93414E+005    3.83025E+004   -1.97232E+005   -2.30825E+004   -7.98365E+004   -1.19885E+004    1.43455E+005    1.13527E+004   -4.66160E+003
            6130    2.61313E+005    9.06835E+004   -2.08450E+005   -2.46224E+004   -2.08450E+005    2.99134E+005    4.74630E+004   -1.89987E+005   -3.28862E+004   -8.45444E+004   -2.49584E+004    1.44941E+005    1.67454E+003   -2.65324E+004
            6131    2.48147E+005    8.59083E+004   -1.99961E+005   -4.01146E+004   -1.99961E+005    2.85869E+005    5.13892E+004   -1.45885E+005   -3.90298E+004   -7.51901E+004   -3.99475E+004    1.35488E+005   -4.38232E+002   -4.17544E+004
            6132    2.82061E+005    2.47186E+005    2.47186E+005    5.79065E+004   -7.69931E+004    3.24179E+005   -7.60331E+004    1.85752E+005    5.69811E+004    1.11984E+005    5.91339E+004    1.55571E+005    2.53485E+003    3.66093E+004
            6133    3.16394E+005    2.92418E+005    2.92418E+005    7.32760E+004   -7.03093E+004    3.62727E+005   -9.84615E+004    2.23269E+005    7.48851E+004    1.44327E+005    7.61725E+004    1.73633E+005    6.68150E+003    3.99671E+004
            6134    3.58553E+005    3.50217E+005    3.50217E+005    9.52197E+004   -5.97565E+004    4.09974E+005   -1.28560E+005    2.65843E+005    9.90573E+004    1.88783E+005    9.78406E+004    1.96702E+005    7.59760E+003    3.71957E+004
            6135    4.04718E+005    4.08378E+005    4.08378E+005    1.16162E+005   -5.35683E+004    4.61947E+005   -1.56991E+005    3.07849E+005    1.21863E+005    2.30716E+005    1.18394E+005    2.21953E+005    7.99708E+003    3.45301E+004
            6136    3.02707E+005    2.57739E+005    2.57739E+005    4.08352E+004   -8.80865E+004    3.45826E+005   -7.01626E+004    2.27357E+005    5.15895E+004    1.14079E+005    4.48193E+004    1.67424E+005    2.67946E+004    1.83626E+004
            6137    3.55940E+005    3.22444E+005    3.22444E+005    6.25789E+004   -8.32526E+004    4.05697E+005   -1.00590E+005    2.75583E+005    7.70326E+004    1.58449E+005    6.62884E+004    1.95338E+005    3.42623E+004    1.89875E+004
            6138    4.07029E+005    3.79508E+005    3.79508E+005    8.25471E+004   -8.44618E+004    4.63969E+005   -1.25864E+005    3.14802E+005    9.82092E+004    1.94152E+005    8.52319E+004    2.23627E+005    3.70767E+004    1.73498E+004
            6139    4.62312E+005    4.42567E+005    4.42567E+005    1.03395E+005   -8.40253E+004    5.26593E+005   -1.53979E+005    3.60637E+005    1.21673E+005    2.34880E+005    1.05384E+005    2.54395E+005    3.58570E+004    1.63286E+004
            6140    5.20216E+005    4.66965E+005    4.66965E+005    1.02442E+005   -1.28778E+005    5.95743E+005   -1.46876E+005    3.75459E+005    1.16798E+005    2.40682E+005    8.31490E+004    2.73955E+005    9.07995E+004   -5.41791E+003
            6141    4.53806E+005    3.97745E+005    3.97745E+005    7.78620E+004   -1.21635E+005    5.19380E+005   -1.17991E+005    3.31156E+005    9.31369E+004    2.04509E+005    5.63263E+004    2.32209E+005    9.36636E+004   -1.95629E+002
            6142    3.90016E+005    3.31935E+005    3.31935E+005    5.38428E+004   -1.13886E+005    4.45821E+005   -9.06304E+004    2.90476E+005    7.07358E+004    1.68663E+005    3.24925E+004    1.95746E+005    8.63108E+004    2.33172E+003
            6143    3.37776E+005    2.78677E+005    2.78677E+005    3.10160E+004   -1.06096E+005    3.84772E+005   -6.78656E+004    2.63251E+005    5.15741E+004    1.36989E+005    1.50342E+004    1.67830E+005    7.66854E+004    8.12759E+003
            6144    2.91350E+005    2.27594E+005    2.27594E+005    1.38465E+004   -1.04265E+005    3.31859E+005   -4.57252E+004    2.27275E+005    3.42639E+004    1.09095E+005   -6.18359E+003    1.36088E+005    7.87702E+004    1.22225E+004
            6145    2.32219E+005    1.68159E+005    1.68159E+005    4.64191E+003   -9.76438E+004    2.65803E+005   -2.50525E+004    1.69132E+005    1.86396E+004    7.52243E+004   -1.87066E+004    9.83261E+004    7.66040E+004    1.42295E+004
            6146    1.82763E+005    1.29589E+005    1.29589E+005    6.62079E+002   -7.95661E+004    2.09155E+005   -1.68950E+004    1.33555E+005    1.17937E+004    5.63193E+004   -1.74281E+004    7.10697E+004    6.62367E+004    1.77960E+004
            6147    1.31836E+005    9.18175E+004    9.18175E+004   -5.32631E+003   -5.82586E+004    1.50076E+005   -9.41085E+003    1.03522E+005    6.76429E+003    3.44176E+004   -1.29493E+004    4.78228E+004    5.07294E+004    1.91560E+004
            6148    1.25738E+005    9.12790E+004    9.12790E+004   -5.49712E+003   -5.08422E+004    1.42121E+005   -1.16466E+004    1.04820E+005    4.66687E+003    3.61403E+004   -5.86743E+003    6.24850E+004    2.83052E+004    9.31561E+003
            6149    1.34896E+005    9.89371E+004    9.89371E+004   -3.60107E+003   -5.38771E+004    1.52814E+005   -1.38196E+004    1.10661E+005    3.84654E+003    4.13216E+004   -3.70920E+003    7.34553E+004    9.09192E+003    2.40264E+003
            6150    1.68353E+005    1.23223E+005    1.23223E+005    4.61626E+002   -6.86954E+004    1.91918E+005   -1.83297E+004    1.30097E+005    7.84542E+003    5.37506E+004   -6.60706E+003    8.50928E+004    3.47324E+004    2.69615E+003
            6151    1.77687E+005    1.30722E+005    1.30722E+005    7.85531E+002   -7.17609E+004    2.02483E+005   -1.99155E+004    1.37919E+005    5.73526E+003    5.41000E+004   -8.87972E+001    9.75342E+004    1.12275E+004   -6.22826E+002
            6152    2.12931E+005    1.55539E+005    1.55539E+005    1.80944E+003   -8.75028E+004    2.43042E+005   -2.32820E+004    1.61947E+005    1.22801E+004    6.37443E+004   -6.17845E+003    1.11336E+005    3.74664E+004   -8.25652E+002
            6153    2.13283E+005    1.45783E+005    1.45783E+005   -3.08352E+003   -9.85575E+004    2.44341E+005   -1.47141E+004    1.52794E+005    2.02734E+003    4.61555E+004   -4.04053E+003    1.19609E+005    9.54880E+003   -3.88906E+003
            6154    2.52034E+005    1.93443E+005    1.93443E+005    1.15742E+004   -9.42498E+004    2.87693E+005   -3.69225E+004    1.91528E+005    2.23384E+004    8.06579E+004    7.77110E+003    1.37659E+005    2.70119E+004   -2.52337E+003
            6155    2.32485E+005    1.61660E+005    1.61660E+005    6.12027E+003   -1.05596E+005    2.67256E+005   -2.07281E+004    1.51986E+005    7.13013E+003    4.90085E+004    6.04560E+003    1.31891E+005    4.59443E+003   -3.22012E+002
            6156    2.39658E+005    1.67593E+005    1.67593E+005    1.31318E+002   -1.06935E+005    2.74528E+005   -2.02628E+004    1.72052E+005    1.01083E+004    5.04815E+004    1.98617E+002    1.35694E+005    1.17825E+003    4.66806E+003
            6157    2.32656E+005    1.94469E+005    1.94469E+005    2.53175E+004   -7.08541E+004    2.65323E+005   -4.96441E+004    1.78956E+005    3.70922E+004    8.71698E+004    2.46703E+004    1.26595E+005    1.24229E+002    3.03633E+004
            6158    2.68521E+005    2.17700E+005    2.17700E+005    2.39697E+004   -8.88194E+004    3.06519E+005   -5.09501E+004    2.03995E+005    3.50600E+004    9.13810E+004    2.64092E+004    1.49305E+005    1.14441E+004    1.91539E+004
            6159    2.57861E+005    2.10715E+005    2.10715E+005    4.26950E+004   -8.61780E+004    2.96893E+005   -5.57440E+004    1.57062E+005    4.18477E+004    8.18857E+004    4.34986E+004    1.41802E+005    1.34276E+003    3.92595E+004
            6160    6.00281E+005    1.40274E+005   -5.47903E+005   -1.32073E+005   -5.47903E+005    6.88176E+005    1.79901E+005   -4.23724E+005   -1.47345E+005   -2.79627E+005   -1.12730E+005    3.22783E+005    8.93085E+004    1.37374E+004
            6161    5.51019E+005    1.15715E+005   -5.13500E+005   -1.17110E+005   -5.13500E+005    6.29215E+005    1.71632E+005   -4.16603E+005   -1.35246E+005   -2.67057E+005   -1.12592E+005    3.02071E+005    5.47767E+004   -1.51195E+003
            6162    5.24803E+005    8.46339E+004   -5.12675E+005   -1.25508E+005   -5.12675E+005    5.97309E+005    1.84516E+005   -4.12834E+005   -1.42627E+005   -2.84588E+005   -1.26335E+005    2.88036E+005    3.31833E+004   -1.27794E+004
            6163    4.78280E+005    7.19327E+004   -4.72793E+005   -1.21647E+005   -4.72793E+005    5.44726E+005    1.74169E+005   -3.73513E+005   -1.39380E+005   -2.59499E+005   -1.23629E+005    2.64638E+005    1.57225E+004   -2.11427E+004
            6164    4.39509E+005    4.27966E+004   -4.58379E+005   -1.38613E+005   -4.58379E+005    5.01176E+005    1.84732E+005   -3.38438E+005   -1.43294E+005   -2.71322E+005   -1.39580E+005    2.40374E+005    4.15484E+003   -3.10756E+004
            6165    6.57159E+005    1.38011E+005   -6.15105E+005   -1.58111E+005   -6.15105E+005    7.53116E+005    2.11735E+005   -4.67430E+005   -1.73402E+005   -3.11933E+005   -1.49870E+005    3.63959E+005    6.07348E+004    1.13743E+004
            6166    5.99663E+005    1.18005E+005   -5.66878E+005   -1.36137E+005   -5.66878E+005    6.84883E+005    1.95003E+005   -4.52257E+005   -1.53413E+005   -2.97607E+005   -1.33989E+005    3.32419E+005    3.70504E+004    3.91141E+002
            6167    5.74037E+005    8.48586E+004   -5.68472E+005   -1.44916E+005   -5.68472E+005    6.53331E+005    2.09510E+005   -4.51670E+005   -1.62650E+005   -3.20704E+005   -1.45175E+005    3.16092E+005    2.25773E+004   -8.11716E+003
            6168    5.20254E+005    7.14158E+004   -5.20825E+005   -1.37517E+005   -5.20825E+005    5.92241E+005    1.95642E+005   -4.08455E+005   -1.57593E+005   -2.90971E+005   -1.38362E+005    2.88079E+005    1.10411E+004   -1.41959E+004
            6169    4.77748E+005    3.87451E+004   -5.05555E+005   -1.55652E+005   -5.05555E+005    5.44301E+005    2.07487E+005   -3.71712E+005   -1.60761E+005   -3.05624E+005   -1.56077E+005    2.61619E+005    3.08703E+003   -1.99621E+004
            6170    6.91850E+005    1.37199E+005   -6.55603E+005   -1.74025E+005   -6.55603E+005    7.92802E+005    2.30809E+005   -4.93022E+005   -1.89061E+005   -3.30404E+005   -1.72963E+005    3.89316E+005    2.12986E+004    5.25163E+003
            6171    6.27558E+005    1.18116E+005   -5.98639E+005   -1.47928E+005   -5.98639E+005    7.16755E+005    2.09484E+005   -4.73175E+005   -1.64714E+005   -3.16049E+005   -1.47687E+005    3.50032E+005    1.28099E+004    1.39952E+002
            6172    6.00329E+005    8.47989E+004   -5.98512E+005   -1.55816E+005   -5.98512E+005    6.83311E+005    2.23176E+005   -4.71945E+005   -1.73663E+005   -3.40023E+005   -1.55843E+005    3.31269E+005    8.09606E+003   -2.81675E+003
            6173    5.43399E+005    7.04891E+004   -5.48003E+005   -1.47201E+005   -5.48003E+005    6.18493E+005    2.08239E+005   -4.27329E+005   -1.68243E+005   -3.09178E+005   -1.47294E+005    3.01063E+005    4.02158E+003   -4.60353E+003
            6174    5.00634E+005    3.70186E+004   -5.33171E+005   -1.65632E+005   -5.33171E+005    5.70190E+005    2.20595E+005   -3.90939E+005   -1.70689E+005   -3.25407E+005   -1.65688E+005    2.74302E+005    1.12857E+003   -7.52728E+003
            6175    1.29283E+005    5.53348E+004   -9.16724E+004    4.31708E+003   -9.16724E+004    1.47007E+005    1.06735E+004   -1.02662E+005   -7.58306E+003   -3.55149E+004    1.10774E+004    4.60400E+004   -4.99229E+004    2.02355E+004
            6176    1.19676E+005    4.45065E+004   -9.03943E+004    3.00940E+003   -9.03943E+004    1.34901E+005    1.42928E+004   -1.01485E+005   -7.06701E+003   -3.92723E+004    3.46093E+003    5.89699E+004   -2.66893E+004    9.41418E+003
            6177    1.27293E+005    4.56350E+004   -9.84084E+004   -1.04883E+003   -9.84084E+004    1.44043E+005    1.79407E+004   -1.05271E+005   -7.54658E+003   -4.52809E+004   -9.94779E+002    6.88969E+004   -8.72068E+003    2.63636E+003
            6178    8.56970E+004    3.31998E+004   -6.17980E+004    9.69131E+003   -6.17980E+004    9.49978E+004    6.30230E+003   -7.79328E+004   -4.33906E+003   -1.98551E+004    5.28726E+003    2.99929E+004   -3.16999E+004    1.95604E+004
            6179    8.41325E+004    3.25927E+004   -6.11232E+004    7.89949E+003   -6.11232E+004    9.37159E+004    6.87699E+003   -7.53088E+004   -1.99091E+003   -2.16711E+004    3.03108E+003    4.17774E+004   -1.73084E+004    1.20015E+004
            6180    9.13890E+004    3.73038E+004   -6.61737E+004    3.48870E+003   -6.61737E+004    1.03477E+005    8.46042E+003   -7.52472E+004   -1.84522E+003   -2.64970E+004    2.96092E+003    4.98377E+004   -5.86108E+003    4.00940E+003
            6181    5.53130E+004    1.42539E+004   -4.17540E+004    1.28368E+004   -4.17540E+004    5.60079E+004    4.88775E+003   -5.52722E+004   -3.79656E+003   -1.07737E+004   -9.29819E+001    2.09283E+004   -1.46668E+004    1.83664E+004
            6182    6.18074E+004    2.30992E+004   -4.61981E+004    3.23472E+003   -4.61981E+004    6.92973E+004    6.62137E+003   -5.38905E+004   -4.52674E+003   -1.42093E+004   -1.12804E+003    3.19664E+004   -7.99420E+003    1.18979E+004
            6183    6.89263E+004    2.78924E+004   -5.09232E+004   -1.92838E+003   -5.09232E+004    7.88156E+004    8.31972E+003   -5.10593E+004   -5.18215E+003   -1.73627E+004   -2.41428E+003    3.86673E+004   -2.61990E+003    4.28272E+003
            6184    4.43287E+004    2.72538E+004    2.72538E+004    6.81713E+001   -2.38988E+004    5.11526E+004   -1.14103E+003    2.11570E+004    9.97821E+002    1.66261E+003    7.62671E+002    1.85350E+004    8.07191E+002    1.76237E+004
            6185    5.48540E+004    3.52530E+004    3.52530E+004    1.00525E+003   -2.80151E+004    6.32681E+004   -2.74772E+003    2.86523E+004    2.57355E+003    4.23442E+003    1.43519E+003    2.93862E+004    8.52513E+002    1.16932E+004
            6186    6.24598E+004    4.02486E+004    4.02486E+004    2.43022E+003   -3.18447E+004    7.20933E+004   -3.61140E+003    2.74634E+004    3.08817E+003    5.26020E+003    2.48584E+003    3.57908E+004    2.78364E+002    4.14947E+003
            6187    5.70785E+004    4.16489E+004    4.16489E+004   -1.49506E+004   -1.58968E+004    5.75458E+004   -3.60050E+003    5.70609E+004    2.46189E+003    1.01117E+004   -1.77205E+003    2.14781E+004    1.59773E+004    1.82518E+004
            6188    6.43545E+004    4.45722E+004    4.45722E+004   -7.12083E+003   -2.75060E+004    7.20782E+004   -3.31513E+003    5.63730E+004    5.43033E+002    1.12905E+004   -1.88810E+003    3.29855E+004    9.92740E+003    1.20300E+004
            6189    7.21095E+004    4.90343E+004    4.90343E+004   -3.16737E+003   -3.32450E+004    8.22793E+004   -4.20730E+003    5.50848E+004    4.04638E+002    1.47942E+004   -2.57691E+003    4.02049E+004    3.42593E+003    4.33619E+003
            6190    9.02414E+004    6.69729E+004    6.69729E+004   -7.67448E+003   -3.33138E+004    1.00287E+005   -8.66155E+003    8.14221E+004    6.06745E+003    2.36960E+004   -3.77883E+003    3.20464E+004    3.31493E+004    1.98718E+004
            6191    9.27194E+004    7.16218E+004    7.16218E+004   -4.28455E+003   -3.17192E+004    1.03341E+005   -1.18727E+004    8.28220E+004    6.03968E+003    3.03161E+004   -7.37725E+002    4.59081E+004    1.89567E+004    1.14942E+004
            6192    1.01831E+005    7.97205E+004    7.97205E+004    1.37943E+003   -3.53876E+004    1.15108E+005   -1.52374E+004    8.48428E+004    6.89208E+003    3.70715E+004    1.74869E+003    5.51084E+004    6.47564E+003    3.67050E+003
            6193    4.39163E+005    4.27619E+004   -4.58031E+005   -1.38578E+005   -4.58031E+005    5.00793E+005    1.84616E+005   -3.38069E+005   -1.43199E+005   -2.71107E+005   -1.39542E+005    2.40177E+005   -4.12092E+003    3.11808E+004
            6194    4.78425E+005    7.18728E+004   -4.73005E+005   -1.21687E+005   -4.73005E+005    5.44877E+005    1.74273E+005   -3.73730E+005   -1.39449E+005   -2.59703E+005   -1.23666E+005    2.64703E+005   -1.57917E+004    2.10664E+004
            6195    5.25404E+005    8.48281E+004   -5.13176E+005   -1.25618E+005   -5.13176E+005    5.98005E+005    1.84655E+005   -4.13224E+005   -1.42748E+005   -2.84800E+005   -1.26418E+005    2.88360E+005   -3.33952E+004    1.27026E+004
            6196    5.51839E+005    1.16037E+005   -5.14158E+005   -1.17409E+005   -5.14158E+005    6.30195E+005    1.71843E+005   -4.16819E+005   -1.35455E+005   -2.67284E+005   -1.12791E+005    3.02506E+005   -5.51084E+004    1.35087E+003
            6197    6.00715E+005    1.40270E+005   -5.48415E+005   -1.32354E+005   -5.48415E+005    6.88685E+005    1.80166E+005   -4.23890E+005   -1.47592E+005   -2.79873E+005   -1.13034E+005    3.23057E+005   -8.93130E+004   -1.37466E+004
            6198    4.77515E+005    3.85754E+004   -5.05461E+005   -1.55733E+005   -5.05461E+005    5.44037E+005    2.07540E+005   -3.71523E+005   -1.60777E+005   -3.05693E+005   -1.56149E+005    2.61473E+005   -3.01537E+003    1.99715E+004
            6199    5.19636E+005    7.11558E+004   -5.20399E+005   -1.37626E+005   -5.20399E+005    5.91555E+005    1.95623E+005   -4.07842E+005   -1.57556E+005   -2.90848E+005   -1.38466E+005    2.87740E+005   -1.08579E+004    1.42554E+004
            6200    5.73619E+005    8.48369E+004   -5.68010E+005   -1.44727E+005   -5.68010E+005    6.52847E+005    2.09300E+005   -4.51397E+005   -1.62500E+005   -3.20412E+005   -1.44988E+005    3.15864E+005   -2.25318E+004    8.11685E+003
            6201    6.00566E+005    1.18323E+005   -5.67623E+005   -1.36402E+005   -5.67623E+005    6.85946E+005    1.95234E+005   -4.52641E+005   -1.53680E+005   -2.97812E+005   -1.34210E+005    3.32960E+005   -3.71158E+004   -5.87095E+002
            6202    6.57691E+005    1.38138E+005   -6.15611E+005   -1.58395E+005   -6.15611E+005    7.53749E+005    2.11956E+005   -4.67513E+005   -1.73659E+005   -3.12125E+005   -1.50084E+005    3.64244E+005   -6.09635E+004   -1.14766E+004
            6203    5.00459E+005    3.69417E+004   -5.33062E+005   -1.65713E+005   -5.33062E+005    5.70003E+005    2.20611E+005   -3.90703E+005   -1.70690E+005   -3.25371E+005   -1.65772E+005    2.74208E+005   -1.18239E+003    7.59205E+003
            6204    5.43132E+005    7.03198E+004   -5.47865E+005   -1.47241E+005   -5.47865E+005    6.18185E+005    2.08262E+005   -4.27149E+005   -1.68268E+005   -3.09182E+005   -1.47335E+005    3.00906E+005   -4.05170E+003    4.66072E+003
            6205    6.00335E+005    8.47574E+004   -5.98574E+005   -1.55935E+005   -5.98574E+005    6.83332E+005    2.23251E+005   -4.71852E+005   -1.73759E+005   -3.40029E+005   -1.55964E+005    3.31292E+005   -8.02777E+003    2.83103E+003
            6206    6.27457E+005    1.18106E+005   -5.98554E+005   -1.48016E+005   -5.98554E+005    7.16659E+005    2.09488E+005   -4.72922E+005   -1.64719E+005   -3.15959E+005   -1.47786E+005    3.49999E+005   -1.26933E+004   -5.03917E+001
            6207    6.91349E+005    1.37188E+005   -6.55041E+005   -1.73821E+005   -6.55041E+005    7.92229E+005    2.30558E+005   -4.92648E+005   -1.88836E+005   -3.30093E+005   -1.72746E+005    3.89021E+005   -2.14691E+004   -5.25363E+003
            6208    2.89895E+005    1.08807E+005   -2.22964E+005   -1.85445E+004   -2.22964E+005    3.31771E+005    4.42341E+004   -2.11689E+005   -3.37112E+004   -1.08766E+005    9.77512E+003    1.29682E+005   -8.65191E+004    1.06763E+004
            6209    3.46828E+005    1.20392E+005   -2.76685E+005   -3.30134E+004   -2.76685E+005    3.97077E+005    6.31022E+004   -2.51560E+005   -4.99381E+004   -1.40508E+005    1.13994E+003    1.58581E+005   -9.86827E+004    8.02471E+003
            6210    4.05137E+005    1.26564E+005   -3.37557E+005   -5.47105E+004   -3.37557E+005    4.64122E+005    8.85679E+004   -2.90374E+005   -7.10339E+004   -1.74035E+005   -2.06346E+004    1.91612E+005   -1.08871E+005    5.51544E+003
            6211    4.68317E+005    1.35865E+005   -4.01085E+005   -7.70742E+004   -4.01085E+005    5.36950E+005    1.14098E+005   -3.29750E+005   -9.27030E+004   -2.06913E+005   -4.26785E+004    2.31370E+005   -1.11714E+005   -2.92001E+003
            6212    5.35332E+005    1.38137E+005   -4.75558E+005   -1.04568E+005   -4.75558E+005    6.13695E+005    1.47330E+005   -3.78187E+005   -1.20215E+005   -2.45445E+005   -7.63296E+004    2.76536E+005   -1.06201E+005   -8.63400E+003
            6213    4.93296E+005    1.14469E+005   -4.48841E+005   -9.40250E+004   -4.48841E+005    5.63310E+005    1.42799E+005   -3.72875E+005   -1.12288E+005   -2.29423E+005   -8.66867E+004    2.66302E+005   -6.63182E+004    2.64292E+003
            6214    4.68747E+005    8.42017E+004   -4.49310E+005   -1.03515E+005   -4.49310E+005    5.33512E+005    1.56208E+005   -3.68711E+005   -1.19740E+005   -2.43780E+005   -1.05103E+005    2.56161E+005   -3.95196E+004    1.59932E+004
            6215    4.30499E+005    7.50255E+004   -4.15834E+005   -1.02418E+005   -4.15834E+005    4.90860E+005    1.47742E+005   -3.31843E+005   -1.16988E+005   -2.20591E+005   -1.05648E+005    2.38227E+005   -1.84034E+004    2.59522E+004
            6216    3.94300E+005    4.83119E+004   -4.01961E+005   -1.18402E+005   -4.01961E+005    4.50273E+005    1.57350E+005   -2.97955E+005   -1.22096E+005   -2.30174E+005   -1.19782E+005    2.15552E+005   -4.44765E+003    3.69201E+004
            6217    4.34431E+005    1.09505E+005   -3.86226E+005   -7.18936E+004   -3.86226E+005    4.95732E+005    1.16205E+005   -3.31588E+005   -9.10076E+004   -1.93631E+005   -6.39762E+004    2.30480E+005   -7.11835E+004    6.56819E+003
            6218    4.11865E+005    8.62964E+004   -3.82837E+005   -8.06792E+004   -3.82837E+005    4.69133E+005    1.25740E+005   -3.21277E+005   -9.49986E+004   -1.99108E+005   -8.31130E+004    2.24609E+005   -4.14165E+004    1.75330E+004
            6219    3.83449E+005    7.73541E+004   -3.60452E+005   -8.42967E+004   -3.60452E+005    4.37806E+005    1.22465E+005   -2.90452E+005   -9.54186E+004   -1.83668E+005   -8.83074E+004    2.12315E+005   -1.88554E+004    2.74891E+004
            6220    3.51881E+005    5.68831E+004   -3.45800E+005   -9.74987E+004   -3.45800E+005    4.02683E+005    1.28805E+005   -2.57277E+005   -9.96681E+004   -1.87585E+005   -9.91622E+004    1.92265E+005   -4.19208E+003    4.12156E+004
            6221    3.77123E+005    1.07247E+005   -3.22972E+005   -4.95065E+004   -3.22972E+005    4.30219E+005    8.84107E+004   -2.88865E+005   -6.81247E+004   -1.56746E+005   -4.03615E+004    1.96954E+005   -6.98224E+004    6.80598E+003
            6222    3.61250E+005    8.58642E+004   -3.25661E+005   -6.08472E+004   -3.25661E+005    4.11525E+005    1.00215E+005   -2.81452E+005   -7.40439E+004   -1.62573E+005   -6.40277E+004    1.96704E+005   -3.92234E+004    1.81214E+004
            6223    3.40894E+005    8.25699E+004   -3.07625E+005   -6.75826E+004   -3.07625E+005    3.90194E+005    9.75457E+004   -2.48286E+005   -7.43321E+004   -1.46415E+005   -7.18903E+004    1.89367E+005   -1.67384E+004    2.83456E+004
            6224    3.14747E+005    6.37951E+004   -2.97176E+005   -8.00731E+004   -2.97176E+005    3.60971E+005    1.04485E+005   -2.20263E+005   -8.04045E+004   -1.51501E+005   -8.15485E+004    1.72444E+005   -3.25481E+003    4.02025E+004
            6225    3.25849E+005    9.90270E+004   -2.71858E+005   -3.15455E+004   -2.71858E+005    3.70885E+005    6.81254E+004   -2.56202E+005   -5.10569E+004   -1.28675E+005   -2.46444E+004    1.68407E+005   -6.33371E+004    9.79109E+003
            6226    3.15454E+005    8.91402E+004   -2.70823E+005   -4.25564E+004   -2.70823E+005    3.59963E+005    7.47464E+004   -2.40810E+005   -5.30200E+004   -1.25387E+005   -4.58322E+004    1.72879E+005   -3.27909E+004    1.64911E+004
            6227    3.06378E+005    8.45402E+004   -2.66694E+005   -5.44303E+004   -2.66694E+005    3.51234E+005    7.88614E+004   -2.16322E+005   -5.86512E+004   -1.19992E+005   -5.79408E+004    1.70733E+005   -1.26011E+004    2.66734E+004
            6228    2.86326E+005    7.32897E+004   -2.55762E+005   -6.33704E+004   -2.55762E+005    3.29052E+005    8.19475E+004   -1.89146E+005   -6.25721E+004   -1.18791E+005   -6.44799E+004    1.56884E+005   -2.03272E+003    4.11326E+004
            6229    2.72671E+005    9.55744E+004   -2.14830E+005   -1.39513E+004   -2.14830E+005    3.10404E+005    4.44022E+004   -2.14047E+005   -3.04232E+004   -9.60626E+004   -6.72081E+003    1.41926E+005   -4.97504E+004    4.79746E+003
            6230    2.82068E+005    8.81368E+004   -2.33745E+005   -2.97197E+004   -2.33745E+005    3.21882E+005    5.84427E+004   -2.15183E+005   -3.94951E+004   -1.03449E+005   -3.23839E+004    1.55844E+005   -2.20623E+004    1.46545E+004
            6231    2.78633E+005    9.17476E+004   -2.28309E+005   -3.98275E+004   -2.28309E+005    3.20056E+005    5.87962E+004   -1.86958E+005   -4.22075E+004   -9.20609E+004   -4.21202E+004    1.56022E+005   -7.55379E+003    2.54760E+004
            6232    2.63466E+005    7.74976E+004   -2.25573E+005   -5.11114E+004   -2.25573E+005    3.03070E+005    6.63955E+004   -1.67815E+005   -5.04043E+004   -9.74396E+004   -5.13428E+004    1.44940E+005   -3.56602E+002    3.75144E+004
            6233    2.48527E+005    8.59780E+004   -2.00315E+005   -4.00582E+004   -2.00315E+005    2.86293E+005    5.14650E+004   -1.46596E+005   -3.90869E+004   -7.53942E+004   -3.99139E+004    1.35717E+005    3.83981E+002    4.17097E+004
            6234    2.30058E+005    6.43704E+004   -1.97212E+005   -2.63267E+004   -1.97212E+005    2.61583E+005    5.30562E+004   -1.82799E+005   -4.02150E+004   -9.39715E+004   -2.49820E+004    1.23723E+005    6.46880E+002    3.19506E+004
            6235    2.61450E+005    9.06038E+004   -2.08717E+005   -2.49804E+004   -2.08717E+005    2.99321E+005    4.76979E+004   -1.89729E+005   -3.30989E+004   -8.47092E+004   -2.52856E+004    1.44997E+005   -1.57623E+003    2.67598E+004
            6236    2.38520E+005    1.04169E+005   -1.68660E+005    3.91907E+002   -1.68660E+005    2.72829E+005    2.13661E+004   -1.75779E+005   -1.20379E+004   -5.25619E+004    5.01474E+002    1.34688E+005    6.24424E+002    7.31316E+003
            6237    2.57303E+005    9.50844E+004   -1.98393E+005   -1.15531E+004   -1.98393E+005    2.93477E+005    3.82872E+004   -1.97526E+005   -2.30969E+004   -7.98739E+004   -1.18908E+004    1.43491E+005   -1.12554E+004    4.83361E+003
            6238    2.36945E+005    1.07523E+005   -1.64919E+005   -6.91272E+003   -1.64919E+005    2.72442E+005    2.14361E+004   -1.53656E+005   -8.71021E+003   -4.86372E+004   -6.96086E+003    1.34717E+005   -2.71539E+003    1.61616E+003
            6239    2.35554E+005    9.20743E+004   -1.76885E+005   -7.32023E+003   -1.76885E+005    2.68960E+005    3.07105E+004   -1.78291E+005   -1.73448E+004   -7.05330E+004   -4.25357E+003    1.28382E+005   -2.79464E+004    1.07079E+002
            6240    2.24631E+005    1.05796E+005   -1.52038E+005    1.37953E+003   -1.52038E+005    2.57834E+005    1.49542E+004   -1.53968E+005   -2.36792E+003   -4.43273E+004    1.83254E+003    1.26935E+005   -6.89719E+003   -2.86498E+003
            6241    2.01637E+005    8.74359E+004   -1.43455E+005   -2.04024E+003   -1.43455E+005    2.30891E+005    1.93531E+004   -1.45770E+005   -4.84263E+003   -5.20286E+004   -1.18811E+003    1.12435E+005   -1.00259E+004   -2.48865E+003
            6242    1.64473E+005    6.99178E+004   -1.17322E+005    3.81337E+003   -1.17322E+005    1.87240E+005    1.45304E+004   -1.29060E+005   -2.61008E+003   -4.56243E+004    4.64325E+003    9.03329E+004   -1.08928E+004   -3.26052E+002
            6243    2.05062E+005    8.28083E+004   -1.51514E+005   -4.85167E+003   -1.51514E+005    2.34322E+005    2.45192E+004   -1.53530E+005   -1.24645E+004   -6.53742E+004    4.28122E+003    1.06235E+005   -3.74969E+004   -1.72547E+003
            6244    1.58131E+005    6.68052E+004   -1.13292E+005    2.81649E+003   -1.13292E+005    1.80097E+005    1.45568E+004   -1.23511E+005   -5.71595E+003   -4.65438E+004    8.58921E+003    7.93040E+004   -3.47206E+004    4.68829E+003
            6245    1.78206E+005    8.02393E+004   -1.23774E+005    1.49570E+003   -1.23774E+005    2.04014E+005    1.40132E+004   -1.29385E+005   -1.00928E+004   -5.17503E+004    1.98036E+004    6.79625E+004   -6.59429E+004    1.80805E+004
            6246    2.36479E+005    9.83681E+004   -1.72440E+005   -6.71425E+003   -1.72440E+005    2.70808E+005    2.69288E+004   -1.70718E+005   -1.95110E+004   -8.00014E+004    1.87261E+004    9.86384E+004   -7.87802E+004    1.50618E+004
            6247    3.32087E+005    2.53308E+005    2.53308E+005    2.23789E+004   -1.27270E+005    3.80578E+005   -4.94721E+004    2.36196E+005    3.92672E+004    9.80434E+004    1.11058E+004    1.69477E+005   -7.77087E+004   -5.62107E+003
            6248    3.84286E+005    2.99697E+005    2.99697E+005    3.85597E+004   -1.41566E+005    4.41263E+005   -6.55634E+004    2.60508E+005    5.27793E+004    1.20390E+005    2.35206E+004    1.97774E+005   -8.74049E+004   -1.57470E+003
            6249    4.46260E+005    3.55524E+005    3.55524E+005    5.54565E+004   -1.57301E+005    5.12825E+005   -8.45599E+004    2.95292E+005    6.82725E+004    1.45143E+005    4.02639E+004    2.33548E+005   -9.42817E+004    3.17410E+002
            6250    5.10423E+005    4.13153E+005    4.13153E+005    7.22348E+004   -1.73675E+005    5.86827E+005   -1.03904E+005    3.32319E+005    8.37042E+004    1.69312E+005    5.86962E+004    2.74179E+005   -9.10438E+004    3.96252E+003
            6251    4.55955E+005    3.90232E+005    3.90232E+005    7.43495E+004   -1.32481E+005    5.22713E+005   -1.10700E+005    3.21911E+005    8.67684E+004    1.69516E+005    7.58160E+004    2.55265E+005   -3.70233E+004   -1.19592E+004
            6252    3.97603E+005    3.53053E+005    3.53053E+005    8.14478E+004   -1.03314E+005    4.56366E+005   -1.10396E+005    2.72639E+005    8.66966E+004    1.61321E+005    8.31690E+004    2.23782E+005   -8.67110E+003   -2.43744E+004
            6253    4.01221E+005    3.35212E+005    3.35212E+005    5.83936E+004   -1.24921E+005    4.60134E+005   -8.95614E+004    2.80921E+005    6.98048E+004    1.38542E+005    6.03378E+004    2.24177E+005   -3.77543E+004   -1.25218E+004
            6254    3.50294E+005    3.04464E+005    3.04464E+005    6.73762E+004   -9.78894E+004    4.02353E+005   -9.13169E+004    2.35340E+005    7.15768E+004    1.33022E+005    6.93522E+004    1.97068E+005   -8.01354E+003   -2.63850E+004
            6255    3.51008E+005    2.85668E+005    2.85668E+005    4.34249E+004   -1.16870E+005    4.02538E+005   -7.07411E+004    2.45905E+005    5.42700E+004    1.11835E+005    4.61186E+004    1.95941E+005   -3.47273E+004   -1.36634E+004
            6256    3.08265E+005    2.57548E+005    2.57548E+005    5.27026E+004   -9.69787E+004    3.54526E+005   -7.10906E+004    1.98143E+005    5.55099E+004    1.02963E+005    5.47991E+004    1.73355E+005   -6.79858E+003   -2.85604E+004
            6257    2.99249E+005    2.31718E+005    2.31718E+005    2.81818E+004   -1.11876E+005    3.43594E+005   -4.93413E+004    2.03270E+005    3.66584E+004    8.03357E+004    3.10298E+004    1.68022E+005   -2.68011E+004   -1.31089E+004
            6258    2.75187E+005    2.20256E+005    2.20256E+005    4.18891E+004   -9.66705E+004    3.16927E+005   -5.51582E+004    1.64977E+005    4.26253E+004    8.01808E+004    4.26685E+004    1.55139E+005   -2.37257E+003   -2.64469E+004
            6259    2.52967E+005    1.88719E+005    1.88719E+005    2.96106E+004   -1.02982E+005    2.91700E+005   -3.84491E+004    1.36367E+005    2.86647E+004    5.66996E+004    2.99831E+004    1.42350E+005   -8.36425E+002   -2.85747E+004
            6260    2.26431E+005    1.72546E+005    1.72546E+005    1.69257E+004   -8.72183E+004    2.59765E+005   -3.40846E+004    1.57280E+005    2.49055E+004    6.06452E+004    1.67032E+004    1.26760E+005   -5.46711E+001   -2.18239E+004
            6261    2.62853E+005    1.98254E+005    1.98254E+005    1.78146E+004   -1.03325E+005    3.01579E+005   -3.75813E+004    1.82129E+005    2.68015E+004    6.63956E+004    1.95468E+004    1.48608E+005   -1.11593E+004   -1.36334E+004
            6262    2.34590E+005    1.58052E+005    1.58052E+005    1.39418E+003   -1.11656E+005    2.69708E+005   -1.59301E+004    1.52668E+005    8.87471E+003    3.74768E+004    1.43882E+003    1.34047E+005   -9.64114E+002   -3.55117E+003
            6263    2.32554E+005    1.51889E+005    1.51889E+005    3.13443E+003   -1.16099E+005    2.67989E+005   -1.29748E+004    1.33550E+005    4.62493E+003    3.11977E+004    3.10178E+003    1.33264E+005   -4.25807E+003    6.13092E+001
            6264    2.13788E+005    1.42915E+005    1.42915E+005    4.10340E+002   -1.02908E+005    2.45823E+005   -1.34724E+004    1.38495E+005    3.89690E+003    3.68411E+004   -3.20740E+002    1.21311E+005   -9.78098E+003    3.01259E+003
            6265    1.77750E+005    1.20182E+005    1.20182E+005   -1.52985E+003   -8.37993E+004    2.03981E+005   -1.16175E+004    1.22507E+005    3.53751E+003    3.33317E+004   -2.01667E+003    1.00189E+005   -1.15160E+004    7.68256E+001
            6266    1.38689E+005    1.00106E+005    1.00106E+005    1.06808E+003   -5.84015E+004    1.58507E+005   -1.42573E+004    1.03560E+005    6.02890E+003    3.58191E+004    9.24026E+002    7.72464E+004   -9.33012E+003   -1.52762E+003
            6267    2.50241E+005    1.77326E+005    1.77326E+005    6.05907E+003   -1.09856E+005    2.87181E+005   -2.45097E+004    1.72293E+005    1.58954E+004    5.41020E+004    3.53166E+003    1.39451E+005   -2.70010E+004    1.71307E+003
            6268    2.11500E+005    1.48181E+005    1.48181E+005    2.83726E+003   -9.44575E+004    2.42638E+005   -1.88535E+004    1.46876E+005    1.07887E+004    4.90020E+004   -3.23021E+003    1.12957E+005   -3.76741E+004    1.13450E+003
            6269    1.66863E+005    1.12267E+005    1.12267E+005   -3.27037E+003   -7.90368E+004    1.91304E+005   -9.98667E+003    1.17677E+005    4.74563E+003    3.29368E+004   -7.72244E+003    8.70676E+004   -3.55224E+004   -2.14473E+003
            6270    1.29079E+005    9.19905E+004    9.19905E+004   -1.27154E+003   -5.53278E+004    1.47318E+005   -1.17970E+004    9.82943E+004    6.05547E+003    3.12866E+004   -1.95095E+003    6.61444E+004   -2.89140E+004   -6.46138E+003
            6271    1.32204E+005    8.93854E+004    8.93854E+004   -3.35941E+003   -6.19954E+004    1.51381E+005   -8.01019E+003    9.56242E+004    5.70400E+003    2.67907E+004   -8.46415E+003    5.03162E+004   -5.27669E+004   -1.39713E+004
            6272    1.81630E+005    1.22238E+005    1.22238E+005   -1.22379E+003   -8.63167E+004    2.08555E+005   -1.15659E+004    1.23210E+005    8.92394E+003    3.89684E+004   -1.31946E+004    7.37623E+004   -6.85841E+004   -1.28974E+004
            6273    2.29460E+005    1.57986E+005    1.57986E+005    3.63818E+003   -1.05694E+005    2.63680E+005   -1.86432E+004    1.51968E+005    1.41441E+004    5.49093E+004   -1.31238E+004    1.00557E+005   -7.85368E+004   -9.92804E+003
            6274    2.86939E+005    2.08751E+005    2.08751E+005    8.69603E+003   -1.20007E+005    3.28758E+005   -3.24802E+004    2.05122E+005    2.50580E+004    7.72259E+004   -4.84344E+003    1.38734E+005   -7.99745E+004   -8.74933E+003
            6275    4.45754E+005    4.01670E+005    4.01670E+005    9.52550E+004   -1.09698E+005    5.11368E+005   -1.29076E+005    3.09747E+005    1.01366E+005    1.89516E+005    9.63450E+004    2.51086E+005   -7.75272E+003   -1.95449E+004
            6276    5.08739E+005    4.42468E+005    4.42468E+005    8.94536E+004   -1.40673E+005    5.83141E+005   -1.30416E+005    3.60318E+005    1.02552E+005    1.98435E+005    9.02618E+004    2.85824E+005   -3.12304E+004   -9.65619E+003
            6277    5.73237E+005    4.72356E+005    4.72356E+005    8.98917E+004   -1.86735E+005    6.59091E+005   -1.25171E+005    3.72232E+005    1.00728E+005    1.94118E+005    8.06676E+004    3.15976E+005   -7.74121E+004    5.83735E+003
            6278    4.86058E+005    4.41182E+005    4.41182E+005    1.06237E+005   -1.16305E+005    5.57487E+005   -1.43705E+005    3.39477E+005    1.12782E+005    2.11631E+005    1.06701E+005    2.74011E+005   -5.43010E+003   -1.30245E+004
            6279    5.52376E+005    4.86133E+005    4.86133E+005    1.02465E+005   -1.46970E+005    6.33103E+005   -1.47209E+005    3.91979E+005    1.15695E+005    2.23149E+005    1.02784E+005    3.11225E+005   -2.09128E+004   -6.43247E+003
            6280    6.26547E+005    5.22971E+005    5.22971E+005    1.05353E+005   -1.97461E+005    7.20431E+005   -1.43621E+005    4.05842E+005    1.15270E+005    2.14390E+005    1.01204E+005    3.52465E+005   -5.27798E+004    5.56239E+003
            6281    5.09475E+005    4.64005E+005    4.64005E+005    1.12642E+005   -1.20300E+005    5.84304E+005   -1.52116E+005    3.56416E+005    1.19305E+005    2.24347E+005    1.12695E+005    2.87357E+005   -1.91399E+003   -4.43106E+003
            6282    5.76765E+005    5.10570E+005    5.10570E+005    1.09774E+005   -1.50457E+005    6.61027E+005   -1.56629E+005    4.09663E+005    1.23094E+005    2.36981E+005    1.09813E+005    3.25492E+005   -7.02070E+003   -2.26106E+003
            6283    6.58660E+005    5.54101E+005    5.54101E+005    1.14963E+005   -2.03243E+005    7.57344E+005   -1.55274E+005    4.26923E+005    1.24511E+005    2.26867E+005    1.14443E+005    3.74670E+005   -1.89428E+004    2.27166E+003
            6284    1.28583E+005    5.82446E+004   -8.88943E+004    1.88274E+003   -8.88943E+004    1.47139E+005    9.58900E+003   -9.40958E+004   -3.07553E+003   -2.75318E+004    1.84033E+003    7.19161E+004    9.34849E+003   -2.08642E+003
            6285    1.19802E+005    5.53056E+004   -8.13184E+004    5.78130E+003   -8.13184E+004    1.36624E+005    6.74383E+003   -9.21471E+004   -2.56369E+003   -2.33513E+004    5.68356E+003    6.11277E+004    2.78697E+004   -6.85652E+003
            6286    1.28267E+005    6.05272E+004   -8.61590E+004    4.92347E+003   -8.61590E+004    1.46686E+005    6.90280E+003   -9.48468E+004   -5.18272E+003   -2.42095E+004    8.68385E+003    4.82120E+004    5.17298E+004   -1.45265E+004
            6287    9.65021E+004    3.95807E+004   -7.05917E+004   -1.04206E+003   -7.05917E+004    1.10172E+005    1.06844E+004   -7.31847E+004   -5.68496E+003   -2.49688E+004   -1.39933E+003    5.38552E+004    6.13334E+003   -2.93131E+003
            6288    8.72417E+004    3.48491E+004   -6.38813E+004    2.81473E+003   -6.38813E+004    9.87303E+004    8.73914E+003   -7.21060E+004   -5.31271E+003   -2.04119E+004   -4.92815E+002    4.49759E+004    1.81387E+004   -8.78610E+003
            6289    8.58627E+004    3.61295E+004   -6.05380E+004    6.87323E+003   -6.05380E+004    9.66675E+004    5.84508E+003   -7.33208E+004   -4.38735E+003   -1.60479E+004    2.90005E+003    3.22173E+004    3.34660E+004   -1.44288E+004
            6290    7.34604E+004    3.85356E+004   -4.60303E+004    1.98829E+003   -4.60303E+004    8.45658E+004    1.83546E+003   -4.51601E+004    8.15608E+001   -7.18076E+003    1.59282E+003    4.19282E+004    2.96883E+003   -3.16617E+003
            6291    6.39951E+004    3.22255E+004   -4.07825E+004    5.60882E+003   -4.07825E+004    7.30079E+004    9.82725E+002   -4.89947E+004    3.46914E+002   -5.48733E+003    2.19224E+003    3.46705E+004    8.40557E+003   -8.73838E+003
            6292    5.36305E+004    1.95315E+004   -3.78568E+004    1.09910E+004   -3.78568E+004    5.73883E+004    2.44476E+003   -5.20675E+004   -1.79470E+003   -6.40427E+003    8.64696E+002    2.28825E+004    1.55140E+004   -1.34507E+004
            6293    6.64910E+004    3.64137E+004   -4.03630E+004   -1.74081E+003   -4.03630E+004    7.67767E+004    1.89671E+003   -1.45834E+004   -1.83502E+003   -2.18777E+003   -1.66735E+003    3.82561E+004   -4.42633E+002   -3.14439E+003
            6294    5.62325E+004    3.07208E+004   -3.42056E+004   -2.46383E+003   -3.42056E+004    6.49264E+004    1.98288E+003    1.89845E+004   -1.90028E+003   -2.04132E+003   -2.00704E+003    3.12702E+004   -9.01235E+002   -8.68266E+003
            6295    4.12270E+004    2.36015E+004   -2.39961E+004   -9.16676E+002   -2.39961E+004    4.75976E+004    4.37077E+002    1.54203E+004   -3.97790E+002   -5.01391E+002   -4.12050E+002    1.99142E+004   -5.55481E+002   -1.30258E+004
            6296    7.80779E+004    5.53342E+004    5.53342E+004    1.30209E+003   -3.41843E+004    8.95185E+004   -7.48402E+003    5.50025E+004    4.22535E+003    1.65471E+004    1.67959E+003    4.41331E+004   -3.42919E+003   -3.05612E+003
            6297    6.84559E+004    4.94170E+004    4.94170E+004   -1.98021E+003   -2.82908E+004    7.77077E+004   -6.38199E+003    5.52274E+004    4.03839E+003    1.34729E+004    1.63472E+003    3.66010E+004   -1.03311E+004   -8.74898E+003
            6298    5.58504E+004    4.07077E+004    4.07077E+004   -9.86881E+003   -1.92327E+004    5.99404E+004   -3.86873E+003    5.40418E+004    2.82677E+003    9.07561E+003   -2.96185E+002    2.36620E+004   -1.66039E+004   -1.34685E+004
            6299    1.01692E+005    6.98730E+004    6.98730E+004   -2.12172E+003   -4.64607E+004    1.16334E+005   -7.09686E+003    7.47948E+004    2.52321E+003    2.04972E+004   -1.72985E+003    5.70119E+004   -6.97537E+003   -2.98542E+003
            6300    9.22227E+004    6.29725E+004    6.29725E+004   -6.79568E+003   -4.15845E+004    1.04557E+005   -4.86413E+003    7.51760E+004    1.95433E+003    1.63054E+004   -3.66740E+003    4.75533E+004   -1.98516E+004   -8.57452E+003
            6301    8.85332E+004    6.16000E+004    6.16000E+004   -7.73026E+003   -3.81276E+004    9.97276E+004   -5.24737E+003    7.53750E+004    3.98678E+003    1.52619E+004   -3.50657E+003    3.35007E+004   -3.45244E+004   -1.44645E+004
            6302    5.73618E+005    4.72605E+005    4.72605E+005    8.99017E+004   -1.86925E+005    6.59530E+005   -1.25194E+005    3.72442E+005    1.00744E+005    1.94174E+005    8.06643E+004    3.16187E+005    7.74678E+004   -5.85699E+003
            6303    5.08715E+005    4.42595E+005    4.42595E+005    8.95161E+004   -1.40507E+005    5.83102E+005   -1.30535E+005    3.60465E+005    1.02640E+005    1.98613E+005    9.03517E+004    2.85825E+005    3.09639E+004    9.76883E+003
            6304    4.46319E+005    4.02247E+005    4.02247E+005    9.54510E+004   -1.09769E+005    5.12017E+005   -1.29310E+005    3.10125E+005    1.01545E+005    1.89855E+005    9.65290E+004    2.51409E+005    7.71166E+003    1.94539E+004
            6305    6.26987E+005    5.23362E+005    5.23362E+005    1.05497E+005   -1.97581E+005    7.20943E+005   -1.43760E+005    4.06016E+005    1.15384E+005    2.14506E+005    1.01388E+005    3.52770E+005    5.25099E+004   -5.55907E+003
            6306    5.51847E+005    4.85757E+005    4.85757E+005    1.02331E+005   -1.46721E+005    6.32478E+005   -1.47123E+005    3.91854E+005    1.15629E+005    2.23089E+005    1.02650E+005    3.10910E+005    2.08630E+004    6.42764E+003
            6307    4.86201E+005    4.41351E+005    4.41351E+005    1.06305E+005   -1.16300E+005    5.57651E+005   -1.43785E+005    3.39583E+005    1.12845E+005    2.11748E+005    1.06763E+005    2.74093E+005    5.39297E+003    1.29366E+004
            6308    6.58912E+005    5.54326E+005    5.54326E+005    1.15030E+005   -2.03308E+005    7.57635E+005   -1.55349E+005    4.27063E+005    1.24570E+005    2.26939E+005    1.14538E+005    3.74842E+005    1.84786E+004   -2.18459E+003
            6309    5.76394E+005    5.10266E+005    5.10266E+005    1.09673E+005   -1.50328E+005    6.60594E+005   -1.56537E+005    4.09509E+005    1.23021E+005    2.36881E+005    1.09709E+005    3.25266E+005    7.38327E+003    2.23436E+003
            6310    5.09420E+005    4.63961E+005    4.63961E+005    1.12653E+005   -1.20283E+005    5.84244E+005   -1.52111E+005    3.56343E+005    1.19302E+005    2.24323E+005    1.12708E+005    2.87329E+005    1.96876E+003    4.42156E+003
            6311    2.58384E+005    9.78853E+004   -1.99899E+005   -3.50179E+004   -1.99899E+005    2.97785E+005    4.56773E+004   -1.47147E+005   -3.47424E+004   -6.71752E+004   -3.51143E+004    1.45484E+005    2.32028E+002   -2.72359E+004
            6312    2.80750E+005    9.87595E+004   -2.24656E+005   -4.36415E+004   -2.24656E+005    3.23415E+005    5.65126E+004   -1.65541E+005   -4.33488E+004   -8.17788E+004   -4.44102E+004    1.57866E+005    2.04931E+003   -2.94729E+004
            6313    3.09902E+005    9.81245E+004   -2.58515E+005   -5.47929E+004   -2.58515E+005    3.56640E+005    7.17279E+004   -1.93574E+005   -5.52885E+004   -1.03992E+005   -5.59028E+004    1.74324E+005    3.45154E+003   -2.88353E+004
            6314    3.47749E+005    1.00743E+005   -2.99032E+005   -6.65165E+004   -2.99032E+005    3.99775E+005    8.82683E+004   -2.27006E+005   -6.83766E+004   -1.28647E+005   -6.77811E+004    1.95476E+005    4.45911E+003   -2.92576E+004
            6315    3.91333E+005    1.03998E+005   -3.45484E+005   -8.05360E+004   -3.45484E+005    4.49481E+005    1.07341E+005   -2.63100E+005   -8.34959E+004   -1.56928E+005   -8.15980E+004    2.20228E+005    4.79533E+003   -2.60568E+004
            6316    2.72129E+005    1.06242E+005   -2.07056E+005   -2.94906E+004   -2.07056E+005    3.13298E+005    4.34351E+004   -1.66435E+005   -3.14802E+004   -6.77931E+004   -3.10320E+004    1.54433E+005    6.83318E+003   -1.85331E+004
            6317    2.98471E+005    1.04209E+005   -2.39016E+005   -4.03394E+004   -2.39016E+005    3.43225E+005    5.83822E+004   -1.92684E+005   -4.34582E+004   -8.89067E+004   -4.27817E+004    1.68756E+005    1.16904E+004   -1.95172E+004
            6318    3.32062E+005    1.06461E+005   -2.74988E+005   -5.05333E+004   -2.74988E+005    3.81449E+005    7.30199E+004   -2.22426E+005   -5.54213E+004   -1.09909E+005   -5.37294E+004    1.87144E+005    1.65116E+004   -2.09283E+004
            6319    3.74858E+005    1.08212E+005   -3.21785E+005   -6.38268E+004   -3.21785E+005    4.29997E+005    9.24668E+004   -2.61065E+005   -7.09590E+004   -1.39610E+005   -6.68312E+004    2.10708E+005    1.90055E+004   -2.02341E+004
            6320    4.22139E+005    1.12778E+005   -3.71091E+005   -7.81236E+004   -3.71091E+005    4.83869E+005    1.12146E+005   -2.99074E+005   -8.64070E+004   -1.69472E+005   -8.05572E+004    2.37086E+005    1.87404E+004   -1.91383E+004
            6321    2.77799E+005    1.09068E+005   -2.09714E+005   -1.94105E+004   -2.09714E+005    3.18782E+005    4.00186E+004   -1.91643E+005   -2.88965E+004   -6.99633E+004   -2.11960E+004    1.56384E+005    2.19608E+004   -9.91805E+003
            6322    3.11101E+005    1.15877E+005   -2.41148E+005   -2.82251E+004   -2.41148E+005    3.57025E+005    5.11656E+004   -2.14203E+005   -3.89773E+004   -8.40735E+004   -3.04459E+004    1.73838E+005    3.29680E+004   -1.11512E+004
            6323    3.55517E+005    1.22109E+005   -2.85628E+005   -4.04675E+004   -2.85628E+005    4.07738E+005    6.79955E+004   -2.48661E+005   -5.33132E+004   -1.08070E+005   -4.26034E+004    1.97995E+005    3.93629E+004   -1.20931E+004
            6324    4.02874E+005    1.31611E+005   -3.30472E+005   -5.28762E+004   -3.30472E+005    4.62083E+005    8.39125E+004   -2.81324E+005   -6.70201E+004   -1.30211E+005   -5.45059E+004    2.24893E+005    4.17698E+004   -1.15751E+004
            6325    4.54566E+005    1.39570E+005   -3.81648E+005   -6.73788E+004   -3.81648E+005    5.21218E+005    1.03152E+005   -3.19600E+005   -8.31680E+004   -1.57868E+005   -6.84198E+004    2.54795E+005    3.93587E+004   -1.03692E+004
            6326    2.71757E+005    1.10912E+005   -2.00413E+005   -1.07002E+004   -2.00413E+005    3.11325E+005    3.34005E+004   -1.94748E+005   -2.34876E+004   -7.08952E+004   -5.81854E+003    1.44684E+005    5.03741E+004   -3.73845E+003
            6327    3.25948E+005    1.21582E+005   -2.51794E+005   -2.40657E+004   -2.51794E+005    3.73376E+005    5.14258E+004   -2.33946E+005   -3.84680E+004   -9.62561E+004   -1.95533E+004    1.72125E+005    6.42743E+004   -7.68705E+003
            6328    3.79515E+005    1.34544E+005   -3.00678E+005   -3.87082E+004   -3.00678E+005    4.35222E+005    6.82807E+004   -2.65986E+005   -5.26179E+004   -1.19550E+005   -3.26740E+004    2.02185E+005    7.09004E+004   -5.82377E+003
            6329    4.38035E+005    1.44425E+005   -3.58020E+005   -5.64390E+004   -3.58020E+005    5.02446E+005    9.00113E+004   -3.05372E+005   -7.03914E+004   -1.48497E+005   -5.11456E+004    2.36616E+005    7.26649E+004   -5.72819E+003
            6330    4.98135E+005    1.55989E+005   -4.15585E+005   -7.39811E+004   -4.15585E+005    5.71574E+005    1.11192E+005   -3.44416E+005   -8.80748E+004   -1.76470E+005   -6.90324E+004    2.73587E+005    6.75886E+004   -2.84024E+003
            6331    5.19142E+005    1.88131E+005   -4.09272E+005   -6.76688E+004   -4.09272E+005    5.97404E+005    9.62699E+004   -3.25136E+005   -7.60966E+004   -1.65405E+005   -4.73084E+004    2.73172E+005    1.06662E+005    6.69747E+003
            6332    4.52319E+005    1.72797E+005   -3.47707E+005   -5.00555E+004   -3.47707E+005    5.20504E+005    7.49888E+004   -2.83336E+005   -5.96389E+004   -1.40023E+005   -2.53042E+004    2.28386E+005    1.12084E+005    2.72228E+003
            6333    3.90955E+005    1.53747E+005   -2.95825E+005   -3.55490E+004   -2.95825E+005    4.49572E+005    5.92090E+004   -2.52480E+005   -4.74838E+004   -1.19108E+005   -1.10353E+004    1.89795E+005    1.09053E+005   -3.26738E+003
            6334    3.35052E+005    1.39228E+005   -2.45866E+005   -2.11268E+004   -2.45866E+005    3.85094E+005    4.25883E+004   -2.20414E+005   -3.40911E+004   -9.68280E+004    3.15424E+003    1.58186E+005    9.90845E+004   -5.09769E+003
            6335    2.81832E+005    1.22024E+005   -2.01776E+005   -1.16930E+004   -2.01776E+005    3.23800E+005    3.04816E+004   -1.87825E+005   -2.40259E+004   -7.57421E+004    8.32317E+003    1.30269E+005    8.74918E+004   -7.32992E+003
            6336    2.33077E+005    1.07193E+005   -1.60605E+005   -3.51429E+003   -1.60605E+005    2.67798E+005    1.89757E+004   -1.55082E+005   -1.45555E+004   -5.62361E+004    1.38645E+004    1.01363E+005    8.04772E+004   -1.06822E+004
            6337    1.76950E+005    8.46271E+004   -1.18651E+005    8.63598E+002   -1.18651E+005    2.03278E+005    1.10535E+004   -1.18316E+005   -8.18311E+003   -3.85175E+004    1.35400E+004    7.04841E+004    6.79371E+004   -1.30353E+004
            6338    1.61165E+005    7.20289E+004   -1.12593E+005   -2.71912E+001   -1.12593E+005    1.84622E+005    1.35306E+004   -1.15607E+005   -7.20329E+003   -3.78365E+004    4.44809E+003    8.30090E+004    3.57840E+004   -3.17538E+003
            6339    1.68616E+005    7.53020E+004   -1.17928E+005   -6.21755E+002   -1.17928E+005    1.93230E+005    1.44159E+004   -1.20032E+005   -5.39725E+003   -3.78578E+004    7.50224E+000    9.45002E+004    1.12818E+004    3.59990E+002
            6340    2.03208E+005    9.46856E+004   -1.38646E+005   -5.18316E+002   -1.38646E+005    2.33332E+005    1.48262E+004   -1.37844E+005   -8.09646E+003   -4.21688E+004    5.78661E+003    1.08177E+005    3.80971E+004    1.37415E+003
            6341    2.01418E+005    9.86216E+004   -1.33060E+005    4.48032E+002   -1.33060E+005    2.31681E+005    1.13300E+004   -1.28628E+005   -2.72446E+003   -3.22633E+004    9.97921E+002    1.14389E+005    1.01784E+004    1.60655E+003
            6342    2.24194E+005    1.09657E+005   -1.48345E+005   -9.16109E+002   -1.48345E+005    2.58001E+005    1.32013E+004   -1.40165E+005   -4.03329E+003   -3.49780E+004   -5.92739E+002    1.27845E+005    6.85920E+003    2.07260E+003
            6343    2.35446E+005    1.18010E+005   -1.53340E+005   -3.10291E+003   -1.53340E+005    2.71350E+005    1.28111E+004   -1.34062E+005   -5.07166E+003   -3.02296E+004   -3.13205E+003    1.35069E+005    2.24592E+003   -1.10329E+003
            6344    2.32596E+005    1.08501E+005   -1.58669E+005   -1.28770E+003   -1.58669E+005    2.67170E+005    1.71520E+004   -1.56163E+005   -1.04413E+004   -3.98211E+004   -1.19378E+003    1.32651E+005   -9.10083E+002   -5.44989E+003
            6345    2.22679E+005    8.19058E+004   -1.73083E+005   -1.69310E+004   -1.73083E+005    2.54989E+005    3.60362E+004   -1.60944E+005   -2.65065E+004   -6.52613E+004   -1.63407E+004    1.23830E+005   -6.50359E+002   -2.29780E+004
            6346    2.34617E+005    1.01603E+005   -1.67586E+005   -6.56326E+003   -1.67586E+005    2.69189E+005    2.41820E+004   -1.62492E+005   -1.47103E+004   -5.35724E+004   -4.26346E+003    1.29968E+005    2.79573E+004    1.68370E+002
            6347    2.54023E+005    1.11427E+005   -1.80100E+005   -6.28824E+003   -1.80100E+005    2.91527E+005    2.49873E+004   -1.74805E+005   -1.58063E+004   -5.26144E+004   -6.54143E+003    1.44176E+005    1.08073E+004   -3.42514E+003
            6348    2.53819E+005    1.01611E+005   -1.90059E+005   -1.93138E+004   -1.90059E+005    2.91670E+005    3.59207E+004   -1.68130E+005   -2.55474E+004   -6.27595E+004   -1.94553E+004    1.43370E+005    9.45670E+002   -1.92217E+004
            6349    2.42682E+005    1.01702E+005   -1.78230E+005   -2.71635E+004   -1.78230E+005    2.79932E+005    3.45638E+004   -1.25057E+005   -2.55945E+004   -5.11559E+004   -2.69409E+004    1.36059E+005   -6.75174E+002   -3.02010E+004
            6350    2.75043E+005    2.20110E+005    2.20110E+005    4.19284E+004   -9.66589E+004    3.16769E+005   -5.51265E+004    1.64629E+005    4.26006E+004    8.00930E+004    4.26859E+004    1.55065E+005    2.30208E+003    2.64238E+004
            6351    3.08475E+005    2.57773E+005    2.57773E+005    5.27599E+004   -9.69915E+004    3.54764E+005   -7.11804E+004    1.98348E+005    5.55783E+004    1.03097E+005    5.48661E+004    1.73471E+005    6.83461E+003    2.85638E+004
            6352    3.51476E+005    3.05725E+005    3.05725E+005    6.77692E+004   -9.79781E+004    4.03703E+005   -9.18386E+004    2.36286E+005    7.19872E+004    1.33791E+005    6.97374E+004    1.97733E+005    8.01936E+003    2.63540E+004
            6353    3.98887E+005    3.54394E+005    3.54394E+005    8.18355E+004   -1.03437E+005    4.57830E+005   -1.10931E+005    2.73684E+005    8.71252E+004    1.62132E+005    8.35351E+004    2.24509E+005    8.63153E+003    2.42637E+004
            6354    2.99285E+005    2.31761E+005    2.31761E+005    2.81931E+004   -1.11873E+005    3.43634E+005   -4.93606E+004    2.03311E+005    3.66748E+004    8.03594E+004    3.10476E+004    1.68029E+005    2.68833E+004    1.31156E+004
            6355    3.51541E+005    2.86215E+005    2.86215E+005    4.36479E+004   -1.16941E+005    4.03156E+005   -7.09738E+004    2.46187E+005    5.44546E+004    1.12133E+005    4.63337E+004    1.96248E+005    3.47435E+004    1.36495E+004
            6356    4.02102E+005    3.36050E+005    3.36050E+005    5.86720E+004   -1.25102E+005    4.61151E+005   -8.98732E+004    2.81436E+005    7.00496E+004    1.38947E+005    6.06230E+004    2.24690E+005    3.77324E+004    1.25500E+004
            6357    4.56618E+005    3.90964E+005    3.90964E+005    7.46468E+004   -1.32513E+005    5.23477E+005   -1.11033E+005    3.22329E+005    8.70293E+004    1.69947E+005    7.61213E+004    2.55693E+005    3.66693E+004    1.19763E+004
            6358    5.10228E+005    4.12893E+005    4.12893E+005    7.22136E+004   -1.73723E+005    5.86616E+005   -1.03794E+005    3.31931E+005    8.36131E+004    1.69174E+005    5.85966E+004    2.73989E+005    9.12667E+004   -3.98627E+003
            6359    4.45812E+005    3.55188E+005    3.55188E+005    5.54378E+004   -1.57125E+005    5.12312E+005   -8.45004E+004    2.94957E+005    6.82213E+004    1.45036E+005    4.02440E+004    2.33266E+005    9.42978E+004   -2.87100E+002
            6360    3.83925E+005    2.99487E+005    2.99487E+005    3.85403E+004   -1.41355E+005    4.40842E+005   -6.55576E+004    2.60385E+005    5.27692E+004    1.20329E+005    2.35748E+004    1.97663E+005    8.71597E+004    1.56933E+003
            6361    3.32584E+005    2.53821E+005    2.53821E+005    2.24804E+004   -1.27318E+005    3.81139E+005   -4.96610E+004    2.36680E+005    3.94106E+004    9.82732E+004    1.12991E+004    1.69851E+005    7.75874E+004    5.63697E+003
            6362    2.87179E+005    2.08928E+005    2.08928E+005    8.70406E+003   -1.20104E+005    3.29032E+005   -3.25092E+004    2.05296E+005    2.50971E+004    7.73028E+004   -4.87250E+003    1.38806E+005    8.01060E+004    8.77505E+003
            6363    2.29157E+005    1.57785E+005    1.57785E+005    3.64521E+003   -1.05548E+005    2.63332E+005   -1.86275E+004    1.51758E+005    1.41436E+004    5.48495E+004   -1.31106E+004    1.00393E+005    7.84683E+004    9.92956E+003
            6364    1.81286E+005    1.22024E+005    1.22024E+005   -1.25553E+003   -8.61296E+004    2.08154E+005   -1.15463E+004    1.23090E+005    8.90779E+003    3.88843E+004   -1.31532E+004    7.36709E+004    6.84066E+004    1.28780E+004
            6365    1.32339E+005    8.94899E+004    8.94899E+004   -3.35584E+003   -6.20445E+004    1.51534E+005   -8.02986E+003    9.57339E+004    5.71993E+003    2.68445E+004   -8.47488E+003    5.04528E+004    5.27484E+004    1.39338E+004
            6366    1.29153E+005    9.20256E+004    9.20256E+004   -1.25858E+003   -5.53840E+004    1.47410E+005   -1.17944E+004    9.82965E+004    6.05509E+003    3.12897E+004   -1.96170E+003    6.61259E+004    2.90602E+004    6.47533E+003
            6367    1.39121E+005    1.00400E+005    1.00400E+005    1.06159E+003   -5.86011E+004    1.59001E+005   -1.42869E+004    1.03870E+005    6.05249E+003    3.58981E+004    9.09990E+002    7.74758E+004    9.47495E+003    1.53632E+003
            6368    1.67166E+005    1.12468E+005    1.12468E+005   -3.29650E+003   -7.91807E+004    1.91649E+005   -9.99700E+003    1.17926E+005    4.76245E+003    3.30192E+004   -7.79064E+003    8.71762E+004    3.56874E+004    2.16167E+003
            6369    1.77597E+005    1.20048E+005    1.20048E+005   -1.55715E+003   -8.37573E+004    2.03806E+005   -1.15780E+004    1.22399E+005    3.51271E+003    3.32787E+004   -2.05756E+003    1.00084E+005    1.16573E+004   -8.14727E+001
            6370    2.11806E+005    1.48399E+005    1.48399E+005    2.81287E+003   -9.45859E+004    2.42985E+005   -1.88752E+004    1.47156E+005    1.08200E+004    4.90878E+004   -3.28219E+003    1.13056E+005    3.79038E+004   -1.06818E+003
            6371    2.13288E+005    1.42678E+005    1.42678E+005    3.89524E+002   -1.02555E+005    2.45234E+005   -1.35042E+004    1.38457E+005    3.92576E+003    3.69330E+004   -3.46041E+002    1.21003E+005    9.84526E+003   -2.98051E+003
            6372    2.50414E+005    1.77490E+005    1.77490E+005    6.10734E+003   -1.09889E+005    2.87379E+005   -2.45694E+004    1.72408E+005    1.59424E+004    5.41967E+004    3.56925E+003    1.39546E+005    2.70094E+004   -1.73958E+003
            6373    2.32377E+005    1.51813E+005    1.51813E+005    3.16044E+003   -1.15972E+005    2.67784E+005   -1.30005E+004    1.33481E+005    4.62517E+003    3.12534E+004    3.12297E+003    1.33156E+005    4.33152E+003   -1.17654E+002
            6374    2.34679E+005    1.58011E+005    1.58011E+005    1.29899E+003   -1.11801E+005    2.69812E+005   -1.58364E+004    1.52712E+005    8.78325E+003    3.73829E+004    1.34309E+003    1.34101E+005    9.69167E+002    3.48512E+003
            6375    2.26412E+005    1.72481E+005    1.72481E+005    1.69031E+004   -8.72666E+004    2.59748E+005   -3.40391E+004    1.57204E+005    2.48585E+004    6.05950E+004    1.66639E+004    1.26763E+005    4.19967E-001    2.17485E+004
            6376    2.62754E+005    1.98195E+005    1.98195E+005    1.78478E+004   -1.03274E+005    3.01469E+005   -3.75895E+004    1.82009E+005    2.68027E+004    6.63990E+004    1.95669E+004    1.48559E+005    1.10914E+004    1.36010E+004
            6377    2.52786E+005    1.88529E+005    1.88529E+005    2.95596E+004   -1.02963E+005    2.91493E+005   -3.83751E+004    1.36184E+005    2.85989E+004    5.65920E+004    2.99344E+004    1.42256E+005    8.41808E+002    2.85202E+004
            6378    5.85222E+005    2.03549E+005   -4.69989E+005   -8.58390E+004   -4.69989E+005    6.73538E+005    1.17426E+005   -3.64071E+005   -9.19446E+004   -1.88220E+005   -7.21147E+004    3.19678E+005    8.94997E+004    1.00181E+004
            6379    5.57499E+005    1.65513E+005   -4.74224E+005   -9.22453E+004   -4.74224E+005    6.39737E+005    1.33652E+005   -3.84746E+005   -1.06472E+005   -2.05352E+005   -8.91312E+004    3.10663E+005    5.61836E+004   -1.76288E+003
            6380    5.06134E+005    1.49255E+005   -4.31114E+005   -8.13347E+004   -4.31114E+005    5.80368E+005    1.21064E+005   -3.55565E+005   -9.81657E+004   -1.83139E+005   -8.18883E+004    2.85035E+005    3.34610E+004   -8.34540E+003
            6381    4.71633E+005    1.17906E+005   -4.22400E+005   -9.31698E+004   -4.22400E+005    5.40306E+005    1.32555E+005   -3.37954E+005   -1.02107E+005   -2.00910E+005   -9.46475E+004    2.64810E+005    1.63265E+004   -1.53853E+004
            6382    4.37336E+005    1.09409E+005   -3.92608E+005   -9.42026E+004   -3.92608E+005    5.02018E+005    1.25801E+005   -2.99146E+005   -9.82876E+004   -1.84196E+005   -9.49182E+004    2.46367E+005    4.34674E+003   -2.18645E+004
            6383    6.43096E+005    2.14217E+005   -5.25830E+005   -1.02701E+005   -5.25830E+005    7.40047E+005    1.38105E+005   -4.02669E+005   -1.07518E+005   -2.09900E+005   -9.68962E+004    3.60860E+005    6.06291E+004    8.19441E+003
            6384    6.07510E+005    1.73947E+005   -5.23221E+005   -1.07290E+005   -5.23221E+005    6.97168E+005    1.52188E+005   -4.18591E+005   -1.21883E+005   -2.28862E+005   -1.05820E+005    3.42224E+005    3.78364E+004   -1.71866E+002
            6385    5.51135E+005    1.57502E+005   -4.74479E+005   -9.36824E+004   -4.74479E+005    6.31981E+005    1.36887E+005   -3.87012E+005   -1.11275E+005   -2.05536E+005   -9.38488E+004    3.11605E+005    2.26792E+004   -5.22413E+003
            6386    5.14862E+005    1.24349E+005   -4.65374E+005   -1.05303E+005   -4.65374E+005    5.89723E+005    1.48776E+005   -3.70233E+005   -1.14361E+005   -2.26035E+005   -1.05930E+005    2.89183E+005    1.15197E+004   -1.03281E+004
            6387    4.76192E+005    1.13924E+005   -4.32484E+005   -1.06013E+005   -4.32484E+005    5.46408E+005    1.41524E+005   -3.29063E+005   -1.10973E+005   -2.07275E+005   -1.06325E+005    2.68574E+005    3.23937E+003   -1.40045E+004
            6388    6.78935E+005    2.21522E+005   -5.59775E+005   -1.13154E+005   -5.59775E+005    7.81298E+005    1.50469E+005   -4.24880E+005   -1.16664E+005   -2.22338E+005   -1.12405E+005    3.86396E+005    2.13653E+004    3.73091E+003
            6389    6.35514E+005    1.78579E+005   -5.50772E+005   -1.15999E+005   -5.50772E+005    7.29351E+005    1.62731E+005   -4.37177E+005   -1.30513E+005   -2.41845E+005   -1.15835E+005    3.60141E+005    1.32916E+004   -1.26768E+002
            6390    5.74864E+005    1.61476E+005   -4.97750E+005   -1.00809E+005   -4.97750E+005    6.59227E+005    1.45694E+005   -4.03159E+005   -1.18453E+005   -2.17809E+005   -1.00821E+005    3.25745E+005    8.08127E+003   -1.69995E+003
            6391    5.39316E+005    1.27472E+005   -4.90238E+005   -1.12912E+005   -4.90238E+005    6.17710E+005    1.58559E+005   -3.88115E+005   -1.21638E+005   -2.41058E+005   -1.12981E+005    3.02988E+005    4.18358E+003   -3.41822E+003
            6392    4.99388E+005    1.17118E+005   -4.55828E+005   -1.12890E+005   -4.55828E+005    5.72946E+005    1.50533E+005   -3.46288E+005   -1.18306E+005   -2.20365E+005   -1.12929E+005    2.81844E+005    1.12231E+003   -5.25240E+003
            6393    1.28452E+005    6.06612E+004   -8.62446E+004    4.92692E+003   -8.62446E+004    1.46906E+005    6.88551E+003   -9.49055E+004   -5.16605E+003   -2.42255E+004    8.73505E+003    4.82032E+004   -5.18690E+004    1.45677E+004
            6394    1.19325E+005    5.50546E+004   -8.10155E+004    5.78651E+003   -8.10155E+004    1.36070E+005    6.72482E+003   -9.18625E+004   -2.55559E+003   -2.32627E+004    5.64380E+003    6.09436E+004   -2.76264E+004    6.84746E+003
            6395    1.27751E+005    5.78560E+004   -8.83314E+004    1.85442E+003   -8.83314E+004    1.46187E+005    9.54035E+003   -9.34798E+004   -3.06706E+003   -2.73519E+004    1.79793E+003    7.14560E+004   -9.26025E+003    2.12103E+003
            6396    8.57134E+004    3.60193E+004   -6.04641E+004    6.88251E+003   -6.04641E+004    9.64834E+004    5.85407E+003   -7.32598E+004   -4.40169E+003   -1.60273E+004    2.86679E+003    3.21690E+004   -3.33897E+004    1.44354E+004
            6397    8.70963E+004    3.47626E+004   -6.37957E+004    2.81756E+003   -6.37957E+004    9.85583E+004    8.73851E+003   -7.20255E+004   -5.31922E+003   -2.03841E+004   -5.12249E+002    4.49084E+004   -1.80766E+004    8.80734E+003
            6398    9.59568E+004    3.93927E+004   -7.01629E+004   -1.03664E+003   -7.01629E+004    1.09556E+005    1.06023E+004   -7.27184E+004   -5.64635E+003   -2.47637E+004   -1.39677E+003    5.35618E+004   -6.06935E+003    2.93382E+003
            6399    5.33725E+004    1.94032E+004   -3.76694E+004    1.10080E+004   -3.76694E+004    5.70726E+004    2.41941E+003   -5.18558E+004   -1.76559E+003   -6.34846E+003    8.55818E+002    2.27661E+004   -1.53742E+004    1.34753E+004
            6400    6.38911E+004    3.22191E+004   -4.06710E+004    5.64084E+003   -4.06710E+004    7.28901E+004    9.37023E+002   -4.89082E+004    3.75828E+002   -5.40605E+003    2.21915E+003    3.46112E+004   -8.39828E+003    8.74059E+003
            6401    7.32420E+004    3.85478E+004   -4.57780E+004    1.97618E+003   -4.57780E+004    8.43258E+004    1.75131E+003   -4.46945E+004    1.27861E+002   -6.96723E+003    1.58542E+003    4.18173E+004   -2.92231E+003    3.15721E+003
            6402    4.12797E+004    2.37838E+004   -2.38664E+004   -1.09146E+003   -2.38664E+004    4.76502E+004    3.91373E+002    1.75047E+004   -3.63635E+002   -4.08014E+002   -4.02469E+002    1.99484E+004    7.65480E+002    1.30184E+004
            6403    5.63054E+004    3.07967E+004   -3.42129E+004   -2.48962E+003   -3.42129E+004    6.50096E+004    1.96859E+003    1.95144E+004   -1.89824E+003   -1.98958E+003   -2.01794E+003    3.13071E+004    9.31035E+002    8.70394E+003
            6404    6.65642E+004    3.65670E+004   -4.02945E+004   -1.73774E+003   -4.02945E+004    7.68616E+004    1.82175E+003   -1.18762E+004   -1.80548E+003   -1.99866E+003   -1.66110E+003    3.82975E+004    4.61272E+002    3.16042E+003
            6405    5.62488E+004    4.09915E+004    4.09915E+004   -9.91209E+003   -1.93966E+004    6.03881E+004   -3.89424E+003    5.44060E+004    2.85377E+003    9.16267E+003   -3.33724E+002    2.36912E+004    1.69493E+004    1.35179E+004
            6406    6.85317E+004    4.94957E+004    4.94957E+004   -1.98517E+003   -2.82917E+004    7.77874E+004   -6.40628E+003    5.53284E+004    4.05607E+003    1.35230E+004    1.63981E+003    3.66327E+004    1.03563E+004    8.76782E+003
            6407    7.84619E+004    5.56659E+004    5.56659E+004    1.27908E+003   -3.42795E+004    8.99454E+004   -7.55516E+003    5.54541E+004    4.25713E+003    1.67572E+004    1.65112E+003    4.43371E+004    3.46210E+003    3.01912E+003
            6408    8.90722E+004    6.19484E+004    6.19484E+004   -7.67204E+003   -3.84255E+004    1.00374E+005   -5.28361E+003    7.56646E+004    4.01535E+003    1.53817E+004   -3.54624E+003    3.37143E+004    3.47608E+004    1.44528E+004
            6409    9.21441E+004    6.28911E+004    6.28911E+004   -6.81744E+003   -4.15769E+004    1.04468E+005   -4.83226E+003    7.51116E+004    1.92676E+003    1.62429E+004   -3.67287E+003    4.74795E+004    1.99145E+004    8.59067E+003
            6410    1.02275E+005    7.03110E+004    7.03110E+004   -2.13031E+003   -4.66828E+004    1.16994E+005   -7.16594E+003    7.52868E+004    2.54779E+003    2.06852E+004   -1.73517E+003    5.73349E+004    6.97659E+003    3.01210E+003
            6411    4.36969E+005    1.09303E+005   -3.92296E+005   -9.41646E+004   -3.92296E+005    5.01600E+005    1.25719E+005   -2.98843E+005   -9.82281E+004   -1.84051E+005   -9.48789E+004    2.46158E+005   -4.32490E+003    2.19107E+004
            6412    4.71731E+005    1.18006E+005   -4.22403E+005   -9.30458E+004   -4.22403E+005    5.40409E+005    1.32481E+005   -3.38138E+005   -1.02065E+005   -2.00850E+005   -9.45275E+004    2.64861E+005   -1.63900E+004    1.53885E+004
            6413    5.06799E+005    1.49540E+005   -4.31594E+005   -8.13776E+004   -4.31594E+005    5.81134E+005    1.21144E+005   -3.55986E+005   -9.82347E+004   -1.83304E+005   -8.18926E+004    2.85398E+005   -3.36314E+004    8.20359E+003
            6414    5.58292E+005    1.65880E+005   -4.74790E+005   -9.24372E+004   -4.74790E+005    6.40670E+005    1.33782E+005   -3.84933E+005   -1.06565E+005   -2.05527E+005   -8.92550E+004    3.11067E+005   -5.65319E+004    1.66690E+003
            6415    5.85557E+005    2.03710E+005   -4.70221E+005   -8.59270E+004   -4.70221E+005    6.73931E+005    1.17479E+005   -3.64077E+005   -9.19628E+004   -1.88256E+005   -7.22187E+004    3.19888E+005   -8.94946E+004   -1.00267E+004
            6416    4.75968E+005    1.13850E+005   -4.32308E+005   -1.06038E+005   -4.32308E+005    5.46158E+005    1.41499E+005   -3.28805E+005   -1.10958E+005   -2.07194E+005   -1.06344E+005    2.68452E+005   -3.17286E+003    1.40148E+004
            6417    5.14373E+005    1.24061E+005   -4.65117E+005   -1.05473E+005   -4.65117E+005    5.89178E+005    1.48843E+005   -3.69713E+005   -1.14408E+005   -2.26022E+005   -1.06099E+005    2.88916E+005   -1.13385E+004    1.03806E+004
            6418    5.50913E+005    1.57213E+005   -4.74507E+005   -9.38159E+004   -4.74507E+005    6.31720E+005    1.37037E+005   -3.86954E+005   -1.11369E+005   -2.05758E+005   -9.39834E+004    3.11465E+005   -2.26467E+004    5.23207E+003
            6419    6.08356E+005    1.74479E+005   -5.23688E+005   -1.07373E+005   -5.23688E+005    6.98167E+005    1.52194E+005   -4.18755E+005   -1.21831E+005   -2.28876E+005   -1.05874E+005    3.42717E+005   -3.79113E+004    4.79413E+001
            6420    6.43435E+005    2.14607E+005   -5.25848E+005   -1.02676E+005   -5.25848E+005    7.40455E+005    1.37972E+005   -4.02412E+005   -1.07361E+005   -2.09736E+005   -9.68209E+004    3.61031E+005   -6.08307E+004   -8.28123E+003
            6421    4.99229E+005    1.17092E+005   -4.55678E+005   -1.12896E+005   -4.55678E+005    5.72770E+005    1.50494E+005   -3.46078E+005   -1.18280E+005   -2.20266E+005   -1.12937E+005    2.81760E+005   -1.16145E+003    5.31123E+003
            6422    5.39076E+005    1.27363E+005   -4.90063E+005   -1.12859E+005   -4.90063E+005    6.17427E+005    1.58520E+005   -3.88032E+005   -1.21596E+005   -2.41034E+005   -1.12929E+005    3.02841E+005   -4.21232E+003    3.41679E+003
            6423    5.74944E+005    1.61517E+005   -4.97804E+005   -1.00820E+005   -4.97804E+005    6.59321E+005    1.45702E+005   -4.03187E+005   -1.18429E+005   -2.17843E+005   -1.00835E+005    3.25790E+005   -8.02171E+003    1.73792E+003
            6424    6.35371E+005    1.78538E+005   -5.50655E+005   -1.16031E+005   -5.50655E+005    7.29193E+005    1.62716E+005   -4.36970E+005   -1.30510E+005   -2.41764E+005   -1.15874E+005    3.60072E+005   -1.31615E+004    1.86189E+002
            6425    6.78408E+005    2.21371E+005   -5.59320E+005   -1.13038E+005   -5.59320E+005    7.80691E+005    1.50329E+005   -4.24568E+005   -1.16587E+005   -2.22121E+005   -1.12280E+005    3.86089E+005   -2.15388E+004   -3.73493E+003
            6426    2.82010E+005    1.22169E+005   -2.01852E+005   -1.17834E+004   -2.01852E+005    3.24022E+005    3.04888E+004   -1.87635E+005   -2.40350E+004   -7.57103E+004    8.27888E+003    1.30401E+005   -8.75129E+004    7.22002E+003
            6427    3.35157E+005    1.39303E+005   -2.45918E+005   -2.11547E+004   -2.45918E+005    3.85221E+005    4.25896E+004   -2.20372E+005   -3.41056E+004   -9.69237E+004    3.26049E+003    1.58158E+005   -9.91987E+004    5.07243E+003
            6428    3.91815E+005    1.53977E+005   -2.96591E+005   -3.58063E+004   -2.96591E+005    4.50569E+005    5.94735E+004   -2.52880E+005   -4.77187E+004   -1.19390E+005   -1.13123E+004    1.90275E+005   -1.09243E+005    3.25224E+003
            6429    4.53375E+005    1.73150E+005   -3.48571E+005   -5.02245E+004   -3.48571E+005    5.21720E+005    7.52151E+004   -2.83994E+005   -5.98222E+004   -1.40324E+005   -2.54995E+004    2.29072E+005   -1.12074E+005   -2.80975E+003
            6430    5.19615E+005    1.88096E+005   -4.09845E+005   -6.78639E+004   -4.09845E+005    5.97941E+005    9.65375E+004   -3.25605E+005   -7.62911E+004   -1.65655E+005   -4.76667E+004    2.73633E+005   -1.06264E+005   -6.72300E+003
            6431    4.97892E+005    1.55982E+005   -4.15317E+005   -7.39022E+004   -4.15317E+005    5.71298E+005    1.11079E+005   -3.44199E+005   -8.79762E+004   -1.76365E+005   -6.88966E+004    2.73384E+005   -6.78074E+004    2.81377E+003
            6432    4.54734E+005    1.39769E+005   -3.81642E+005   -6.72608E+004   -3.81642E+005    5.21410E+005    1.03045E+005   -3.19710E+005   -8.31097E+004   -1.57748E+005   -6.82765E+004    2.54815E+005   -3.98831E+004    1.03381E+004
            6433    4.22571E+005    1.13046E+005   -3.71320E+005   -7.80595E+004   -3.71320E+005    4.84366E+005    1.12111E+005   -2.99366E+005   -8.64042E+004   -1.69422E+005   -8.05080E+004    2.37328E+005   -1.90255E+004    1.90632E+004
            6434    3.91363E+005    1.03974E+005   -3.45540E+005   -8.05631E+004   -3.45540E+005    4.49514E+005    1.07377E+005   -2.63141E+005   -8.35240E+004   -1.56983E+005   -8.16232E+004    2.20245E+005   -4.79123E+003    2.60335E+004
            6435    4.36926E+005    1.44198E+005   -3.56965E+005   -5.60686E+004   -3.56965E+005    5.01163E+005    8.96119E+004   -3.04763E+005   -7.00601E+004   -1.48025E+005   -5.07512E+004    2.35941E+005   -7.26739E+004    5.74329E+003
            6436    4.02466E+005    1.31614E+005   -3.29996E+005   -5.26494E+004   -3.29996E+005    4.61610E+005    8.36769E+004   -2.81105E+005   -6.68302E+004   -1.29980E+005   -5.42201E+004    2.24627E+005   -4.19206E+004    1.14308E+004
            6437    3.74986E+005    1.08335E+005   -3.21795E+005   -6.36518E+004   -3.21795E+005    4.30130E+005    9.23704E+004   -2.61356E+005   -7.08971E+004   -1.39542E+005   -6.66720E+004    2.10764E+005   -1.92513E+004    2.01569E+004
            6438    3.47964E+005    1.00790E+005   -2.99234E+005   -6.65956E+004   -2.99234E+005    4.00024E+005    8.83466E+004   -2.27098E+005   -6.84398E+004   -1.28716E+005   -6.78835E+004    1.95608E+005   -4.54750E+003    2.92244E+004
            6439    3.78233E+005    1.34383E+005   -2.99369E+005   -3.82850E+004   -2.99369E+005    4.33752E+005    6.77571E+004   -2.65086E+005   -5.21959E+004   -1.18887E+005   -3.21888E+004    2.01349E+005   -7.10660E+004    5.84349E+003
            6440    3.54752E+005    1.22044E+005   -2.84805E+005   -4.01003E+004   -2.84805E+005    4.06849E+005    6.76203E+004   -2.48275E+005   -5.30101E+004   -1.07658E+005   -4.21929E+004    1.97475E+005   -3.97226E+004    1.19984E+004
            6441    3.32808E+005    1.06726E+005   -2.75567E+005   -5.05076E+004   -2.75567E+005    3.82293E+005    7.31163E+004   -2.23155E+005   -5.55060E+004   -1.10144E+005   -5.36990E+004    1.87566E+005   -1.67209E+004    2.07492E+004
            6442    3.10566E+005    9.80974E+004   -2.59289E+005   -5.49561E+004   -2.59289E+005    3.57386E+005    7.20492E+004   -1.94443E+005   -5.55457E+004   -1.04517E+005   -5.60852E+004    1.74705E+005   -3.54063E+003    2.87261E+004
            6443    3.25439E+005    1.21489E+005   -2.51296E+005   -2.38691E+004   -2.51296E+005    3.72785E+005    5.12257E+004   -2.33688E+005   -3.82956E+004   -9.60627E+004   -1.93187E+004    1.71791E+005   -6.42993E+004    7.68498E+003
            6444    3.10944E+005    1.15947E+005   -2.40901E+005   -2.81130E+004   -2.40901E+005    3.56848E+005    5.10225E+004   -2.14036E+005   -3.88764E+004   -8.38775E+004   -3.03136E+004    1.73741E+005   -3.30455E+004    1.10884E+004
            6445    2.98955E+005    1.04232E+005   -2.39524E+005   -4.03032E+004   -2.39524E+005    3.43756E+005    5.85318E+004   -1.93539E+005   -4.35630E+004   -8.92142E+004   -4.28182E+004    1.68991E+005   -1.21147E+004    1.94992E+004
            6446    2.81639E+005    9.88463E+004   -2.25582E+005   -4.38716E+004   -2.25582E+005    3.24428E+005    5.68691E+004   -1.66427E+005   -4.36312E+004   -8.23061E+004   -4.46701E+004    1.58355E+005   -2.13575E+003    2.95608E+004
            6447    2.71830E+005    1.10995E+005   -2.00406E+005   -1.05929E+004   -2.00406E+005    3.11401E+005    3.33348E+004   -1.94897E+005   -2.34429E+004   -7.08847E+004   -5.67667E+003    1.44673E+005   -5.04963E+004    3.75262E+003
            6448    2.77941E+005    1.09074E+005   -2.09889E+005   -1.96118E+004   -2.09889E+005    3.18963E+005    4.01423E+004   -1.91477E+005   -2.89950E+004   -6.99949E+004   -2.14371E+004    1.56508E+005   -2.17100E+004    1.00875E+004
            6449    2.72309E+005    1.06199E+005   -2.07300E+005   -2.95513E+004   -2.07300E+005    3.13499E+005    4.35510E+004   -1.66724E+005   -3.15912E+004   -6.79700E+004   -3.10919E+004    1.54520E+005   -6.79577E+003    1.86392E+004
            6450    2.58870E+005    9.78814E+004   -2.00466E+005   -3.53218E+004   -2.00466E+005    2.98347E+005    4.59688E+004   -1.47276E+005   -3.49637E+004   -6.75009E+004   -3.54418E+004    1.45793E+005   -2.90032E+002    2.70977E+004
            6451    2.43055E+005    1.01791E+005   -1.78565E+005   -2.71427E+004   -1.78565E+005    2.80356E+005    3.46390E+004   -1.25721E+005   -2.56530E+004   -5.13231E+004   -2.69409E+004    1.36281E+005    6.20548E+002    3.01641E+004
            6452    2.22777E+005    8.21818E+004   -1.72961E+005   -1.69923E+004   -1.72961E+005    2.55142E+005    3.59237E+004   -1.60525E+005   -2.64240E+004   -6.49563E+004   -1.63907E+004    1.23926E+005    6.96476E+002    2.29732E+004
            6453    2.53883E+005    1.01471E+005   -1.90291E+005   -1.96601E+004   -1.90291E+005    2.91762E+005    3.61602E+004   -1.67807E+005   -2.57341E+004   -6.29704E+004   -1.97761E+004    1.43394E+005   -8.39417E+002    1.93665E+004
            6454    2.32801E+005    1.08705E+005   -1.58714E+005   -1.29641E+003   -1.58714E+005    2.67418E+005    1.71018E+004   -1.56068E+005   -1.04061E+004   -3.96950E+004   -1.20424E+003    1.32782E+005    8.94227E+002    5.44204E+003
            6455    2.54051E+005    1.11375E+005   -1.80175E+005   -6.27561E+003   -1.80175E+005    2.91550E+005    2.50252E+004   -1.74970E+005   -1.58385E+004   -5.26968E+004   -6.54021E+003    1.44191E+005   -1.07123E+004    3.50515E+003
            6456    2.35457E+005    1.18047E+005   -1.53309E+005   -2.98845E+003   -1.53309E+005    2.71356E+005    1.27498E+004   -1.34308E+005   -5.04658E+003   -3.01847E+004   -3.01825E+003    1.35072E+005   -2.32090E+003    1.10206E+003
            6457    2.34620E+005    1.01639E+005   -1.67571E+005   -6.68098E+003   -1.67571E+005    2.69211E+005    2.42043E+004   -1.62210E+005   -1.47207E+004   -5.35134E+004   -4.37874E+003    1.29980E+005   -2.79855E+004   -1.85545E+002
            6458    2.24117E+005    1.09590E+005   -1.48324E+005   -9.66316E+002   -1.48324E+005    2.57914E+005    1.32332E+004   -1.40064E+005   -4.05628E+003   -3.49933E+004   -6.50076E+002    1.27806E+005   -6.79874E+003   -2.04083E+003
            6459    2.01059E+005    9.83924E+004   -1.32871E+005    4.40480E+002   -1.32871E+005    2.31264E+005    1.13462E+004   -1.28504E+005   -2.74362E+003   -3.22936E+004    9.98731E+002    1.14172E+005   -1.02177E+004   -1.62565E+003
            6460    1.67788E+005    7.48113E+004   -1.17448E+005   -5.75632E+002   -1.17448E+005    1.92259E+005    1.44041E+004   -1.19726E+005   -5.40538E+003   -3.78522E+004    4.53993E+001    9.40070E+004   -1.12746E+004   -3.00738E+002
            6461    2.02862E+005    9.45550E+004   -1.38379E+005   -4.79397E+002   -1.38379E+005    2.32934E+005    1.47678E+004   -1.37624E+005   -8.04902E+003   -4.20922E+004    5.83779E+003    1.07967E+005   -3.80894E+004   -1.36931E+003
            6462    1.60466E+005    7.16871E+004   -1.12125E+005    9.60877E+000   -1.12125E+005    1.83812E+005    1.34761E+004   -1.15217E+005   -7.14557E+003   -3.76805E+004    4.39766E+003    8.26822E+004   -3.55495E+004    3.21341E+003
            6463    1.77501E+005    8.48755E+004   -1.19039E+005    8.31047E+002   -1.19039E+005    2.03915E+005    1.11108E+004   -1.18645E+005   -8.23376E+003   -3.86943E+004    1.35955E+004    7.06603E+004   -6.81782E+004    1.30897E+004
            6464    2.33695E+005    1.07505E+005   -1.61009E+005   -3.54075E+003   -1.61009E+005    2.68514E+005    1.90148E+004   -1.55402E+005   -1.45805E+004   -5.63668E+004    1.39029E+004    1.01576E+005   -8.07619E+004    1.07285E+004
            6465    3.28940E+005    2.26185E+005    2.26185E+005    1.22382E+004   -1.52582E+005    3.78767E+005   -2.86136E+004    1.99281E+005    2.23721E+004    5.78189E+004    5.64965E+003    1.70892E+005   -7.83698E+004   -3.38590E+003
            6466    3.80746E+005    2.65904E+005    2.65904E+005    2.22502E+004   -1.72849E+005    4.38752E+005   -3.84351E+004    2.18983E+005    3.05800E+004    7.14264E+004    1.32990E+004    1.99207E+005   -8.80192E+004   -8.39722E+002
            6467    4.43417E+005    3.14316E+005    3.14316E+005    3.25883E+004   -1.96806E+005    5.11122E+005   -5.00328E+004    2.48595E+005    3.99583E+004    8.65401E+004    2.35998E+004    2.35469E+005   -9.50121E+004    1.73384E+002
            6468    5.08390E+005    3.65008E+005    3.65008E+005    4.32797E+004   -2.21096E+005    5.86104E+005   -6.23971E+004    2.80800E+005    5.00748E+004    1.01865E+005    3.52511E+004    2.76619E+005   -9.16888E+004    2.33768E+003
            6469    4.51235E+005    3.36699E+005    3.36699E+005    4.41916E+004   -1.82975E+005    5.19674E+005   -6.59717E+004    2.70610E+005    5.31513E+004    9.97361E+004    4.50278E+004    2.56032E+005   -3.74039E+004   -6.91970E+003
            6470    3.90715E+005    2.99900E+005    2.99900E+005    4.87623E+004   -1.50255E+005    4.50155E+005   -6.61357E+004    2.28075E+005    5.15218E+004    9.70603E+004    4.98252E+004    2.23330E+005   -8.69114E+003   -1.47133E+004
            6471    3.97529E+005    2.92421E+005    2.92421E+005    3.52329E+004   -1.65444E+005    4.57865E+005   -5.40700E+004    2.36961E+005    4.33290E+004    8.25014E+004    3.63796E+004    2.24824E+005   -3.81781E+004   -7.39000E+003
            6472    3.44467E+005    2.59787E+005    2.59787E+005    3.98604E+004   -1.37198E+005    3.96985E+005   -5.41497E+004    1.96527E+005    4.19946E+004    7.93660E+004    4.10886E+004    1.96869E+005   -8.09717E+003   -1.58788E+004
            6473    3.47864E+005    2.52136E+005    2.52136E+005    2.67029E+004   -1.48495E+005    4.00630E+005   -4.34479E+004    2.08431E+005    3.45668E+004    6.74665E+004    2.83104E+004    1.96473E+005   -3.50135E+004   -8.14292E+003
            6474    3.03239E+005    2.21826E+005    2.21826E+005    3.06723E+004   -1.27816E+005    3.49643E+005   -4.15608E+004    1.64952E+005    3.18988E+004    6.07972E+004    3.19865E+004    1.73291E+005   -6.90620E+003   -1.72207E+004
            6475    2.97028E+005    2.07928E+005    2.07928E+005    1.72802E+004   -1.34308E+005    3.42236E+005   -3.03000E+004    1.72571E+005    2.35033E+004    4.83911E+004    1.90057E+004    1.68441E+005   -2.68969E+004   -7.89274E+003
            6476    2.70635E+005    1.92216E+005    1.92216E+005    2.43598E+004   -1.19992E+005    3.12208E+005   -3.21943E+004    1.37078E+005    2.44633E+004    4.72772E+004    2.48424E+004    1.54871E+005   -2.37995E+003   -1.59129E+004
            6477    2.47025E+005    1.69359E+005    1.69359E+005    1.85840E+004   -1.15722E+005    2.85082E+005   -2.40737E+004    1.14604E+005    1.85649E+004    3.48618E+004    1.87945E+004    1.41272E+005   -8.67640E+002   -1.71649E+004
            6478    2.19821E+005    1.53500E+005    1.53500E+005    1.09291E+004   -9.96542E+004    2.53154E+005   -2.15916E+004    1.32042E+005    1.65012E+004    3.73999E+004    1.08738E+004    1.25446E+005   -3.38230E+001   -1.32250E+004
            6479    2.60909E+005    1.77582E+005    1.77582E+005    9.75052E+003   -1.23008E+005    3.00590E+005   -2.14415E+004    1.52688E+005    1.53472E+004    3.81573E+004    1.08200E+004    1.49280E+005   -1.10682E+004   -8.33146E+003
            6480    2.33447E+005    1.46904E+005    1.46904E+005   -3.40080E+002   -1.22261E+005    2.69165E+005   -8.10110E+003    1.27281E+005    4.13377E+003    2.04841E+004   -3.14606E+002    1.34315E+005   -8.53315E+002   -2.15093E+003
            6481    2.31084E+005    1.45916E+005    1.45916E+005    2.90040E+003   -1.20681E+005    2.66596E+005   -9.37849E+003    1.15804E+005    4.41670E+003    2.08481E+004    2.87065E+003    1.32974E+005   -4.31190E+003    1.66974E+002
            6482    2.13985E+005    1.32930E+005    1.32930E+005   -2.00269E+003   -1.13798E+005    2.46728E+005   -5.70976E+003    1.16545E+005    1.34263E+003    1.81932E+004   -2.40651E+003    1.22651E+005   -9.83476E+003    1.69307E+003
            6483    1.78858E+005    1.17001E+005    1.17001E+005    9.00470E+002   -8.89703E+004    2.05971E+005   -9.64362E+003    1.07710E+005    4.22270E+003    2.42003E+004    5.07900E+002    1.01798E+005   -1.17516E+004    3.42560E+002
            6484    1.38596E+005    8.87650E+004    8.87650E+004   -2.51262E+003   -7.07164E+004    1.59481E+005   -5.17867E+003    8.70083E+004    1.94450E+003    1.61012E+004   -2.50964E+003    7.88389E+004   -9.57250E+003   -1.14601E+003
            6485    2.48320E+005    1.64948E+005    1.64948E+005    4.99319E+003   -1.21120E+005    2.86068E+005   -1.62736E+004    1.45978E+005    1.09389E+004    3.45116E+004    3.37017E+003    1.39797E+005   -2.73073E+004    1.23295E+003
            6486    2.10696E+005    1.35636E+005    1.35636E+005   -5.34461E+001   -1.07092E+005    2.42727E+005   -9.49701E+003    1.23772E+005    5.62650E+003    2.61980E+004   -3.33343E+003    1.14419E+005   -3.84237E+004    4.20058E+002
            6487    1.67675E+005    1.09380E+005    1.09380E+005    7.51021E+002   -8.37321E+004    1.93112E+005   -8.79955E+003    1.00373E+005    4.69986E+003    2.40133E+004   -2.31450E+003    8.86865E+004   -3.63222E+004   -1.06555E+003
            6488    1.28860E+005    8.23503E+004    8.23503E+004   -3.48979E+003   -6.58243E+004    1.48175E+005   -4.34539E+003    8.33460E+004    2.09045E+003    1.41685E+004   -3.22276E+003    6.74192E+004   -2.98712E+004   -4.23152E+003
            6489    1.31157E+005    8.30443E+004    8.30443E+004   -3.62396E+003   -6.78470E+004    1.50891E+005   -3.85777E+003    8.30830E+004    3.10005E+003    1.44234E+004   -5.95017E+003    5.16368E+004   -5.37829E+004   -8.41866E+003
            6490    1.79883E+005    1.15054E+005    1.15054E+005   -2.51701E+002   -9.22186E+004    2.07273E+005   -7.52804E+003    1.04049E+005    5.62691E+003    2.45872E+004   -7.63002E+003    7.51001E+004   -6.94651E+004   -7.63528E+003
            6491    2.26924E+005    1.46089E+005    1.46089E+005    9.29894E+002   -1.15411E+005    2.61500E+005   -1.05359E+004    1.30334E+005    8.30672E+003    3.18915E+004   -8.59060E+003    1.02128E+005   -7.92763E+004   -6.03533E+003
            6492    2.82982E+005    1.89839E+005    1.89839E+005    5.16370E+003   -1.35952E+005    3.25791E+005   -1.96834E+004    1.73147E+005    1.54521E+004    4.65522E+004   -2.95424E+003    1.39776E+005   -8.06469E+004   -5.07020E+003
            6493    4.37404E+005    3.40453E+005    3.40453E+005    5.78181E+004   -1.63371E+005    5.03824E+005   -7.83000E+004    2.59713E+005    6.12069E+004    1.15206E+005    5.84867E+004    2.50103E+005   -7.69815E+003   -1.18336E+004
            6494    5.03124E+005    3.78160E+005    3.78160E+005    5.22790E+004   -2.01296E+005    5.79456E+005   -7.63810E+004    3.00980E+005    6.16093E+004    1.14813E+005    5.27207E+004    2.86736E+005   -3.16745E+004   -5.45399E+003
            6495    5.72844E+005    4.16933E+005    4.16933E+005    5.46908E+004   -2.43495E+005    6.60428E+005   -7.60431E+004    3.15480E+005    6.08908E+004    1.17980E+005    4.92589E+004    3.19248E+005   -7.81059E+004    3.31505E+003
            6496    4.76343E+005    3.73801E+005    3.73801E+005    6.51627E+004   -1.74801E+005    5.48602E+005   -8.80541E+004    2.85256E+005    6.89594E+004    1.29757E+005    6.54454E+004    2.72462E+005   -5.32534E+003   -7.91985E+003
            6497    5.45956E+005    4.12523E+005    4.12523E+005    5.89692E+004   -2.16270E+005    6.28793E+005   -8.50742E+004    3.26403E+005    6.87862E+004    1.27301E+005    5.91353E+004    3.12312E+005   -2.10800E+004   -3.53751E+003
            6498    6.27667E+005    4.61764E+005    4.61764E+005    6.48300E+004   -2.61868E+005    7.23632E+005   -8.82421E+004    3.45753E+005    7.06551E+004    1.31681E+005    6.23899E+004    3.56447E+005   -5.31504E+004    3.17131E+003
            6499    4.98916E+005    3.93208E+005    3.93208E+005    6.95456E+004   -1.81357E+005    5.74565E+005   -9.37988E+004    2.99904E+005    7.35374E+004    1.38281E+005    6.95779E+004    2.85436E+005   -1.88426E+003   -2.69475E+003
            6500    5.69910E+005    4.31490E+005    4.31490E+005    6.26492E+004   -2.24911E+005    6.56400E+005   -8.97428E+004    3.40079E+005    7.25765E+004    1.33983E+005    6.26687E+004    3.26680E+005   -7.20568E+003   -1.22991E+003
            6501    6.60889E+005    4.89303E+005    4.89303E+005    7.12334E+004   -2.72623E+005    7.61925E+005   -9.59711E+004    3.64474E+005    7.67224E+004    1.40262E+005    7.09295E+004    3.79134E+005   -1.91820E+004    1.24893E+003
            6502    1.31009E+005    6.22724E+004   -8.83838E+004   -1.20252E+003   -8.83838E+004    1.50656E+005    9.10462E+003   -8.45145E+004   -4.75777E+003   -2.13964E+004   -1.15971E+003    7.42491E+004    9.50754E+003   -1.13114E+003
            6503    1.21729E+005    5.86200E+004   -8.12676E+004    5.78883E+002   -8.12676E+004    1.39888E+005    7.35624E+003   -8.05370E+004   -4.25116E+003   -1.85824E+004    7.64781E+002    6.32329E+004    2.86839E+004   -4.16896E+003
            6504    1.27785E+005    6.48089E+004   -8.21813E+004    2.46659E+003   -8.21813E+004    1.46990E+005    4.96858E+003   -8.14722E+004   -3.70291E+003   -1.59078E+004    4.70499E+003    4.97103E+004    5.27852E+004   -8.84174E+003
            6505    9.77182E+004    5.09146E+004   -6.15577E+004    2.51051E+003   -6.15577E+004    1.12472E+005    2.71084E+003   -6.05904E+004   -6.68310E+002   -9.71685E+003    2.25264E+003    5.56771E+004    6.38169E+003   -1.82649E+003
            6506    8.77679E+004    4.49446E+004   -5.57599E+004    4.44942E+003   -5.57599E+004    1.00704E+005    2.12196E+003   -6.07284E+004   -6.27529E+002   -7.82268E+003    2.08432E+003    4.64866E+004    1.87423E+004   -5.40763E+003
            6507    8.48170E+004    4.19014E+004   -5.50181E+004    5.64362E+003   -5.50181E+004    9.69195E+004    2.49101E+003   -6.35020E+004   -1.94361E+003   -8.15350E+003    2.62410E+003    3.34604E+004    3.42682E+004   -8.64894E+003
            6508    7.65672E+004    3.74981E+004   -5.07383E+004   -1.79442E+003   -5.07383E+004    8.82364E+004    5.01156E+003   -4.38686E+004   -3.23429E+003   -9.78191E+003   -2.01847E+003    4.38657E+004    2.96321E+003   -1.93905E+003
            6509    6.55333E+004    3.11508E+004   -4.40700E+004    6.80547E+002   -4.40700E+004    7.52208E+004    4.07956E+003   -4.49029E+004   -2.82200E+003   -8.05388E+003   -1.36280E+003    3.62611E+004    8.68449E+003   -5.37313E+003
            6510    5.22501E+004    2.25718E+004   -3.60090E+004    5.78320E+003   -3.60090E+004    5.85808E+004    2.55135E+003   -4.55612E+004   -1.93679E+003   -5.42087E+003   -2.96383E+002    2.40001E+004    1.60721E+004   -8.29820E+003
            6511    7.03660E+004    4.38178E+004    4.38178E+004    2.04007E+003   -3.74229E+004    8.12406E+004   -2.81165E+003    2.58060E+004    2.06696E+003    4.29579E+003    2.07219E+003    4.05617E+004   -3.54268E+002   -1.85180E+003
            6512    5.84036E+004    3.65613E+004    3.65613E+004    1.21348E+003   -3.08508E+004    6.74121E+004   -2.30802E+003    2.56028E+004    1.78630E+003    3.65101E+003    1.48674E+003    3.32735E+004   -9.14387E+002   -5.25935E+003
            6513    3.92243E+004    2.37940E+004    2.37940E+004    1.84877E+002   -2.14845E+004    4.52785E+004   -8.31436E+002    1.64763E+004    5.74428E+002    1.31926E+003    6.00622E+002    2.11936E+004   -6.28363E+002   -7.94410E+003
            6514    7.95132E+004    4.79946E+004    4.79946E+004   -2.38330E+003   -4.36692E+004    9.16638E+004   -6.47383E+002    4.41142E+004   -2.25515E+002    4.27457E+003   -2.10691E+003    4.56009E+004   -3.63388E+003   -2.01392E+003
            6515    6.86886E+004    4.22192E+004    4.22192E+004   -4.11065E+003   -3.66978E+004    7.89170E+004   -4.70254E+002    4.57826E+004   -1.34265E+002    3.16453E+003   -1.61950E+003    3.77020E+004   -1.07425E+004   -5.46564E+003
            6516    5.40011E+004    3.58104E+004    3.58104E+004   -7.13570E+003   -2.48142E+004    6.06246E+004   -1.28683E+003    4.67932E+004    1.04843E+003    3.82686E+003   -1.01481E+003    2.46141E+004   -1.71104E+004   -8.21694E+003
            6517    1.05049E+005    7.14963E+004    7.14963E+004    1.42576E+003   -4.92875E+004    1.20784E+005   -7.87817E+003    6.81696E+004    4.23974E+003    1.78183E+004    1.57651E+003    5.95797E+004   -7.08505E+003   -1.60894E+003
            6518    9.46806E+004    6.42858E+004    6.42858E+004   -1.00440E+003   -4.43020E+004    1.08588E+005   -6.32647E+003    6.62220E+004    3.63198E+003    1.48593E+004    4.88088E+002    4.98911E+004   -2.04011E+004   -5.07307E+003
            6519    8.82653E+004    5.86590E+004    5.86590E+004   -3.88634E+003   -4.23046E+004    1.00964E+005   -4.15599E+003    6.50240E+004    2.99324E+003    1.08953E+004   -1.42055E+003    3.50208E+004   -3.54115E+004   -8.80659E+003
            6520    5.73205E+005    4.17174E+005    4.17174E+005    5.47143E+004   -2.43672E+005    6.60846E+005   -7.60724E+004    3.15641E+005    6.09157E+004    1.18024E+005    4.92769E+004    3.19449E+005    7.81608E+004   -3.32235E+003
            6521    5.03064E+005    3.78194E+005    3.78194E+005    5.23030E+004   -2.01188E+005    5.79382E+005   -7.64364E+004    3.01085E+005    6.16522E+004    1.14896E+005    5.27613E+004    2.86726E+005    3.14073E+004    5.52097E+003
            6522    4.37955E+005    3.40936E+005    3.40936E+005    5.79374E+004   -1.63520E+005    5.04457E+005   -7.84512E+004    2.60066E+005    6.13271E+004    1.15428E+005    5.85983E+004    2.50420E+005    7.65473E+003    1.17786E+004
            6523    6.28072E+005    4.62054E+005    4.62054E+005    6.48909E+004   -2.62047E+005    7.24101E+005   -8.82991E+004    3.45883E+005    7.06965E+004    1.31727E+005    6.24740E+004    3.56727E+005    5.28734E+004   -3.17381E+003
            6524    5.45390E+005    4.12150E+005    4.12150E+005    5.88870E+004   -2.15984E+005    6.28133E+005   -8.50177E+004    3.26281E+005    6.87366E+004    1.27263E+005    5.90534E+004    3.11983E+005    2.10296E+004    3.53929E+003
            6525    4.76485E+005    3.73945E+005    3.73945E+005    6.52157E+004   -1.74822E+005    5.48767E+005   -8.81130E+004    2.85337E+005    6.90027E+004    1.29842E+005    6.54947E+004    2.72545E+005    5.29325E+003    7.86610E+003
            6526    6.61114E+005    4.89475E+005    4.89475E+005    7.12722E+004   -2.72710E+005    7.62185E+005   -9.60126E+004    3.64570E+005    7.67558E+004    1.40297E+005    7.09846E+004    3.79288E+005    1.87198E+004   -1.20239E+003
            6527    5.69529E+005    4.31222E+005    4.31222E+005    6.25908E+004   -2.24735E+005    6.55958E+005   -8.96926E+004    3.39959E+005    7.25374E+004    1.33932E+005    6.26086E+004    3.26450E+005    7.57079E+003    1.21235E+003
            6528    4.98866E+005    3.93171E+005    3.93171E+005    6.95484E+004   -1.81338E+005    5.74508E+005   -9.37938E+004    2.99852E+005    7.35328E+004    1.38267E+005    6.95815E+004    2.85408E+005    1.93833E+003    2.68877E+003
            6529    2.51799E+005    1.13811E+005   -1.76725E+005   -2.17216E+004   -1.76725E+005    2.90535E+005    2.82119E+004   -1.22717E+005   -2.16723E+004   -4.12495E+004   -2.17137E+004    1.43990E+005   -3.72312E+001   -1.65389E+004
            6530    2.73091E+005    1.18568E+005   -1.96468E+005   -2.70062E+004   -1.96468E+005    3.15037E+005    3.49687E+004   -1.38651E+005   -2.70460E+004   -5.04415E+004   -2.74186E+004    1.56066E+005    1.81477E+003   -1.78894E+004
            6531    3.01481E+005    1.23464E+005   -2.24169E+005   -3.44112E+004   -2.24169E+005    3.47633E+005    4.50388E+004   -1.62998E+005   -3.52219E+004   -6.48336E+004   -3.50608E+004    1.72300E+005    3.29889E+003   -1.74593E+004
            6532    3.38356E+005    1.32212E+005   -2.57761E+005   -4.21348E+004   -2.57761E+005    3.89973E+005    5.58946E+004   -1.91780E+005   -4.39473E+004   -8.08251E+004   -4.29113E+004    1.93295E+005    4.42871E+003   -1.76872E+004
            6533    3.81325E+005    1.42700E+005   -2.96627E+005   -5.14227E+004   -2.96627E+005    4.39327E+005    6.84500E+004   -2.22902E+005   -5.39151E+004   -9.93504E+004   -5.20844E+004    2.17903E+005    4.82190E+003   -1.57367E+004
            6534    2.69988E+005    1.26662E+005   -1.84768E+005   -1.67347E+004   -1.84768E+005    3.11430E+005    2.49467E+004   -1.39010E+005   -1.87724E+004   -3.84221E+004   -1.76454E+004    1.54901E+005    6.75721E+003   -1.10104E+004
            6535    2.96233E+005    1.31999E+005   -2.09562E+005   -2.27894E+004   -2.09562E+005    3.41561E+005    3.34506E+004   -1.61262E+005   -2.60235E+004   -5.00847E+004   -2.42436E+004    1.69622E+005    1.18814E+004   -1.14088E+004
            6536    3.29662E+005    1.42433E+005   -2.37561E+005   -2.80582E+004   -2.37561E+005    3.79994E+005    4.10623E+004   -1.84983E+005   -3.24199E+004   -6.08040E+004   -2.99629E+004    1.88412E+005    1.68765E+004   -1.21576E+004
            6537    3.71644E+005    1.54666E+005   -2.73535E+005   -3.48948E+004   -2.73535E+005    4.28201E+005    5.12547E+004   -2.16225E+005   -4.09618E+004   -7.61381E+004   -3.66642E+004    2.12272E+005    1.94104E+004   -1.16063E+004
            6538    4.17638E+005    1.69599E+005   -3.11511E+005   -4.22956E+004   -3.11511E+005    4.81110E+005    6.14024E+004   -2.46087E+005   -4.95329E+004   -9.09547E+004   -4.37195E+004    2.38736E+005    1.90706E+004   -1.08955E+004
            6539    2.75824E+005    1.27315E+005   -1.90412E+005   -1.24110E+004   -1.90412E+005    3.17727E+005    2.51693E+004   -1.63114E+005   -1.79492E+004   -4.40068E+004   -1.35517E+004    1.56741E+005    2.19404E+004   -6.28871E+003
            6540    3.09162E+005    1.38429E+005   -2.17700E+005   -1.81817E+004   -2.17700E+005    3.56129E+005    3.24841E+004   -1.82837E+005   -2.39908E+004   -5.38171E+004   -1.96443E+004    1.74272E+005    3.30318E+004   -7.23563E+003
            6541    3.53353E+005    1.50722E+005   -2.56177E+005   -2.65860E+004   -2.56177E+005    4.06899E+005    4.40137E+004   -2.13417E+005   -3.33804E+004   -7.06129E+004   -2.80478E+004    1.98602E+005    3.96760E+004   -8.05656E+003
            6542    4.01326E+005    1.65803E+005   -2.96330E+005   -3.54719E+004   -2.96330E+005    4.62133E+005    5.53331E+004   -2.42663E+005   -4.24176E+004   -8.69778E+004   -3.66038E+004    2.26006E+005    4.22808E+004   -7.84413E+003
            6543    4.54145E+005    1.81113E+005   -3.41763E+005   -4.57094E+004   -3.41763E+005    5.22876E+005    6.87865E+004   -2.76993E+005   -5.30468E+004   -1.06865E+005   -4.64478E+004    2.56895E+005    4.00588E+004   -7.13805E+003
            6544    2.68648E+005    1.28785E+005   -1.80529E+005   -5.48326E+003   -1.80529E+005    3.09314E+005    1.90757E+004   -1.63623E+005   -1.42580E+004   -4.05248E+004   -2.44426E+003    1.45287E+005    5.06533E+004   -1.81561E+003
            6545    3.21589E+005    1.47846E+005   -2.22432E+005   -1.29972E+004   -2.22432E+005    3.70278E+005    2.91946E+004   -1.95575E+005   -2.32955E+004   -5.42497E+004   -1.00386E+004    1.72518E+005    6.46614E+004   -3.84722E+003
            6546    3.73673E+005    1.69206E+005   -2.61264E+005   -2.04779E+004   -2.61264E+005    4.30470E+005    3.75120E+004   -2.19921E+005   -3.04687E+004   -6.55216E+004   -1.65458E+004    2.02033E+005    7.12991E+004   -2.44054E+003
            6547    4.30334E+005    1.89828E+005   -3.05991E+005   -2.96118E+004   -3.05991E+005    4.95819E+005    4.85917E+004   -2.50530E+005   -3.97636E+004   -7.98549E+004   -2.61566E+004    2.35833E+005    7.29907E+004   -2.24603E+003
            6548    4.88143E+005    2.12125E+005   -3.50412E+005   -3.83698E+004   -3.50412E+005    5.62538E+005    5.88856E+004   -2.79702E+005   -4.79488E+004   -9.34788E+004   -3.52292E+004    2.71829E+005    6.78133E+004   -6.24754E+002
            6549    5.21216E+005    2.26617E+005   -3.74349E+005   -4.56572E+004   -3.74349E+005    6.00966E+005    6.44632E+004   -2.83976E+005   -5.31509E+004   -1.06387E+005   -3.38513E+004    2.78414E+005    1.07786E+005    3.40089E+003
            6550    4.53532E+005    2.03543E+005   -3.19378E+005   -3.32825E+004   -3.19378E+005    5.22921E+005    4.97059E+004   -2.47396E+005   -4.09454E+004   -8.92683E+004   -1.89040E+004    2.33276E+005    1.13356E+005    1.07541E+003
            6551    3.91114E+005    1.79677E+005   -2.71182E+005   -2.30609E+004   -2.71182E+005    4.50859E+005    3.81887E+004   -2.18046E+005   -3.10765E+004   -7.46503E+004   -8.83928E+003    1.94036E+005    1.10517E+005   -2.34554E+003
            6552    3.34158E+005    1.58429E+005   -2.26688E+005   -1.35199E+004   -2.26688E+005    3.85118E+005    2.72596E+004   -1.90091E+005   -2.21102E+004   -6.02561E+004    5.87495E+002    1.61711E+005    1.00565E+005   -3.36682E+003
            6553    2.80691E+005    1.36889E+005   -1.86570E+005   -6.99890E+003   -1.86570E+005    3.23459E+005    1.88935E+004   -1.61272E+005   -1.48955E+004   -4.65003E+004    4.71535E+003    1.32999E+005    8.87978E+004   -4.57576E+003
            6554    2.30177E+005    1.16181E+005   -1.49088E+005   -2.11888E+003   -1.49088E+005    2.65269E+005    1.16750E+004   -1.31357E+005   -9.01208E+003   -3.43496E+004    8.33673E+003    1.02680E+005    8.13409E+004   -6.32249E+003
            6555    1.75051E+005    9.12296E+004   -1.10465E+005    1.88375E+003   -1.10465E+005    2.01694E+005    5.78379E+003   -1.01679E+005   -4.54727E+003   -2.17875E+004    8.98347E+003    7.19454E+004    6.88473E+004   -7.76463E+003
            6556    1.60571E+005    8.28690E+004   -1.02039E+005    2.24845E+003   -1.02039E+005    1.84908E+005    5.64040E+003   -9.68579E+004   -2.65963E+003   -1.87370E+004    4.47541E+003    8.42681E+004    3.67106E+004   -2.05552E+003
            6557    1.68439E+005    8.74398E+004   -1.06554E+005    2.55351E+003   -1.06554E+005    1.93994E+005    5.52021E+003   -1.00784E+005   -1.54966E+003   -1.78967E+004    2.88575E+003    9.59417E+004    1.15169E+004    1.43784E+002
            6558    2.03458E+005    1.01342E+005   -1.33082E+005   -2.47702E+003   -1.33082E+005    2.34424E+005    1.14056E+004   -1.18252E+005   -6.81060E+003   -2.88924E+004    1.48622E+003    1.09772E+005    3.87443E+004    8.99000E+002
            6559    2.02300E+005    1.03401E+005   -1.29796E+005   -1.39425E+003   -1.29796E+005    2.33197E+005    9.26317E+003   -1.12992E+005   -3.75844E+003   -2.30145E+004   -1.01659E+003    1.15717E+005    1.03107E+004    1.14665E+003
            6560    2.23649E+005    1.19834E+005   -1.38131E+005    1.31100E+003   -1.38131E+005    2.57965E+005    5.66206E+003   -1.16100E+005   -1.24259E+003   -1.72507E+004    1.50707E+003    1.28535E+005    6.86780E+003    1.33102E+003
            6561    2.33679E+005    1.21939E+005   -1.47671E+005   -3.43954E+003   -1.47671E+005    2.69610E+005    9.72383E+003   -1.15502E+005   -4.89795E+003   -2.08145E+004   -3.45908E+003    1.34551E+005    2.17243E+003   -7.45749E+002
            6562    2.30833E+005    1.20219E+005   -1.45865E+005    7.05090E+002   -1.45865E+005    2.66084E+005    8.31370E+003   -1.29118E+005   -4.42788E+003   -2.12737E+004    7.60493E+002    1.32728E+005   -1.02158E+003   -3.28696E+003
            6563    2.15002E+005    9.44114E+004   -1.52989E+005   -1.13858E+004   -1.52989E+005    2.47400E+005    2.33211E+004   -1.34989E+005   -1.81017E+004   -4.07265E+004   -1.11351E+004    1.22376E+005   -7.05104E+002   -1.38830E+004
            6564    2.33188E+005    1.16527E+005   -1.52139E+005   -2.29717E+003   -1.52139E+005    2.68666E+005    1.26365E+004   -1.35993E+005   -7.89356E+003   -2.89766E+004   -1.03947E+003    1.30842E+005    2.81759E+004    2.21722E+001
            6565    2.51650E+005    1.22093E+005   -1.67780E+005   -5.28794E+003   -1.67780E+005    2.89873E+005    1.69918E+004   -1.49086E+005   -1.12692E+004   -3.42830E+004   -5.42334E+003    1.44083E+005    1.06143E+004   -1.98702E+003
            6566    2.50783E+005    1.20143E+005   -1.68961E+005   -1.00481E+004   -1.68961E+005    2.89104E+005    1.96221E+004   -1.39208E+005   -1.37616E+004   -3.49593E+004   -1.01453E+004    1.43697E+005    7.52172E+002   -1.16203E+004
            6567    2.35860E+005    1.11432E+005   -1.60794E+005   -1.76440E+004   -1.60794E+005    2.72226E+005    2.23352E+004   -1.05462E+005   -1.74068E+004   -3.21630E+004   -1.74359E+004    1.34674E+005   -7.82218E+002   -1.82541E+004
            6568    2.70500E+005    1.92098E+005    1.92098E+005    2.43866E+004   -1.19956E+005    3.12054E+005   -3.21760E+004    1.36770E+005    2.44469E+004    4.72255E+004    2.48557E+004    1.54797E+005    2.31205E+003    1.58965E+004
            6569    3.03444E+005    2.22020E+005    2.22020E+005    3.07170E+004   -1.27857E+005    3.49877E+005   -4.16265E+004    1.65131E+005    3.19551E+004    6.08879E+004    3.20364E+004    1.73406E+005    6.93724E+003    1.72262E+004
            6570    3.45627E+005    2.60814E+005    2.60814E+005    4.00966E+004   -1.37505E+005    3.98319E+005   -5.44683E+004    1.97345E+005    4.22465E+004    7.98386E+004    4.13199E+004    1.97533E+005    8.10679E+003    1.58559E+004
            6571    3.91980E+005    3.00997E+005    3.00997E+005    4.90089E+004   -1.50612E+005    4.51609E+005   -6.64646E+004    2.28926E+005    5.17743E+004    9.75608E+004    5.00587E+004    2.24055E+005    8.64958E+003    1.46503E+004
            6572    2.97062E+005    2.07967E+005    2.07967E+005    1.72952E+004   -1.34308E+005    3.42275E+005   -3.03181E+004    1.72598E+005    2.35189E+004    4.84109E+004    1.90246E+004    1.68447E+005    2.69815E+004    7.89633E+003
            6573    3.48394E+005    2.52576E+005    2.52576E+005    2.68283E+004   -1.48668E+005    4.01243E+005   -4.35787E+004    2.08666E+005    3.46713E+004    6.76343E+004    2.84305E+004    1.96781E+005    3.50274E+004    8.13277E+003
            6574    3.98392E+005    2.93112E+005    2.93112E+005    3.53981E+004   -1.65751E+005    4.58863E+005   -5.42529E+004    2.37379E+005    4.34798E+004    8.27292E+004    3.65498E+004    2.25332E+005    3.81576E+004    7.40834E+003
            6575    4.51871E+005    3.37264E+005    3.37264E+005    4.43623E+004   -1.83144E+005    5.20408E+005   -6.61607E+004    2.70941E+005    5.33032E+004    9.99759E+004    4.52032E+004    2.56453E+005    3.70447E+004    6.92807E+003
            6576    5.08192E+005    3.64798E+005    3.64798E+005    4.32564E+004   -2.21081E+005    5.85879E+005   -6.23244E+004    2.80486E+005    5.00249E+004    1.01770E+005    3.51777E+004    2.76425E+005    9.19107E+004   -2.35691E+003
            6577    4.42992E+005    3.14040E+005    3.14040E+005    3.25915E+004   -1.96593E+005    5.10632E+005   -5.00128E+004    2.48326E+005    3.99425E+004    8.64900E+004    2.36059E+004    2.35199E+005    9.50297E+004   -1.51491E+002
            6578    3.80400E+005    2.65705E+005    2.65705E+005    2.22415E+004   -1.72647E+005    4.38352E+005   -3.84332E+004    2.18880E+005    3.05781E+004    7.13920E+004    1.33293E+004    1.99099E+005    8.77762E+004    8.31553E+002
            6579    3.29436E+005    2.26599E+005    2.26599E+005    1.22914E+004   -1.52735E+005    3.79334E+005   -2.87184E+004    1.99689E+005    2.24492E+004    5.79463E+004    5.75963E+003    1.71264E+005    7.82478E+004    3.39873E+003
            6580    2.83215E+005    1.89990E+005    1.89990E+005    5.16266E+003   -1.36068E+005    3.26058E+005   -1.96950E+004    1.73292E+005    1.54688E+004    4.65945E+004   -2.97834E+003    1.39851E+005    8.07774E+004    5.08377E+003
            6581    2.26624E+005    1.45901E+005    1.45901E+005    9.28083E+002   -1.15253E+005    2.61154E+005   -1.05253E+004    1.30179E+005    8.30381E+003    3.18590E+004   -8.58698E+003    1.01964E+005    7.92066E+004    6.04034E+003
            6582    1.79547E+005    1.14855E+005    1.14855E+005   -2.55975E+002   -9.20299E+004    2.06885E+005   -7.52298E+003    1.03915E+005    5.62430E+003    2.45436E+004   -7.59893E+003    7.50082E+004    6.92856E+004    7.61486E+003
            6583    1.31282E+005    8.31027E+004    8.31027E+004   -3.64382E+003   -6.79328E+004    1.51036E+005   -3.84201E+003    8.31511E+004    3.07925E+003    1.44243E+004   -5.97746E+003    5.17621E+004    5.37648E+004    8.39629E+003
            6584    1.28938E+005    8.24089E+004    8.24089E+004   -3.47093E+003   -6.58572E+004    1.48266E+005   -4.36027E+003    8.33664E+004    2.10488E+003    1.41940E+004   -3.21805E+003    6.74056E+004    3.00106E+004    4.23497E+003
            6585    1.39011E+005    8.90011E+004    8.90011E+004   -2.53048E+003   -7.09596E+004    1.59961E+005   -5.17034E+003    8.72187E+004    1.92726E+003    1.61158E+004   -2.53205E+003    7.90614E+004    9.72116E+003    1.14382E+003
            6586    1.67978E+005    1.09584E+005    1.09584E+005    7.31032E+002   -8.38747E+004    1.93458E+005   -8.81329E+003    1.00633E+005    4.71590E+003    2.40773E+004   -2.35335E+003    8.87998E+004    3.64923E+004    1.08934E+003
            6587    1.78718E+005    1.16957E+005    1.16957E+005    9.12162E+002   -8.88496E+004    2.05807E+005   -9.67323E+003    1.07726E+005    4.25274E+003    2.42522E+004    5.14794E+002    1.01697E+005    1.18926E+004   -3.21332E+002
            6588    2.10991E+005    1.35823E+005    1.35823E+005   -5.15669E+001   -1.07245E+005    2.43068E+005   -9.50883E+003    1.23930E+005    5.63620E+003    2.62436E+004   -3.35328E+003    1.14517E+005    3.86589E+004   -3.95985E+002
            6589    2.13498E+005    1.32673E+005    1.32673E+005   -2.02031E+003   -1.13488E+005    2.46161E+005   -5.72167E+003    1.16514E+005    1.35085E+003    1.82451E+004   -2.43097E+003    1.22358E+005    9.90544E+003   -1.70050E+003
            6590    2.48492E+005    1.65093E+005    1.65093E+005    5.01818E+003   -1.21173E+005    2.86267E+005   -1.63126E+004    1.46106E+005    1.09741E+004    3.45709E+004    3.39272E+003    1.39896E+005    2.73133E+004   -1.23912E+003
            6591    2.30928E+005    1.45823E+005    1.45823E+005    2.89500E+003   -1.20593E+005    2.66416E+005   -9.37482E+003    1.15762E+005    4.40992E+003    2.08513E+004    2.86322E+003    1.32881E+005    4.37827E+003   -1.85661E+002
            6592    2.33544E+005    1.46908E+005    1.46908E+005   -3.87942E+002   -1.22368E+005    2.69277E+005   -8.05071E+003    1.27303E+005    4.07889E+003    2.04358E+004   -3.62613E+002    1.34372E+005    8.67259E+002    2.10416E+003
            6593    2.19822E+005    1.53461E+005    1.53461E+005    1.09202E+004   -9.96971E+004    2.53158E+005   -2.15614E+004    1.31956E+005    1.64683E+004    3.73637E+004    1.08523E+004    1.25453E+005   -2.84206E+001    1.31799E+004
            6594    2.60816E+005    1.77522E+005    1.77522E+005    9.76619E+003   -1.22962E+005    3.00484E+005   -2.14423E+004    1.52588E+005    1.53439E+004    3.81555E+004    1.08274E+004    1.49232E+005    1.10032E+004    8.30880E+003
            6595    2.46856E+005    1.69211E+005    1.69211E+005    1.85495E+004   -1.15676E+005    2.84887E+005   -2.40280E+004    1.14474E+005    1.85288E+004    3.47957E+004    1.87594E+004    1.41178E+005    8.66187E+002    1.71359E+004
            6596    5.87815E+005    2.48982E+005   -4.28784E+005   -5.82439E+004   -4.28784E+005    6.77766E+005    7.93486E+004   -3.19740E+005   -6.58726E+004   -1.21955E+005   -5.02182E+004    3.24951E+005    9.01620E+004    5.55332E+003
            6597    5.45093E+005    2.32615E+005   -3.95584E+005   -4.75482E+004   -3.95584E+005    6.28199E+005    7.01722E+004   -3.11046E+005   -5.69129E+004   -1.07975E+005   -4.56285E+004    3.07866E+005    5.61856E+004   -2.85906E+002
            6598    5.07402E+005    1.98047E+005   -3.86152E+005   -5.54502E+004   -3.86152E+005    5.84199E+005    8.11853E+004   -3.09285E+005   -6.26551E+004   -1.25097E+005   -5.58039E+004    2.88387E+005    3.40895E+004   -5.61500E+003
            6599    4.65448E+005    1.84984E+005   -3.51120E+005   -5.01091E+004   -3.51120E+005    5.36103E+005    7.20818E+004   -2.77103E+005   -5.86333E+004   -1.06629E+005   -5.09827E+004    2.66368E+005    1.65621E+004   -8.80927E+003
            6600    4.26798E+005    1.55516E+005   -3.36082E+005   -6.01989E+004   -3.36082E+005    4.91598E+005    8.02551E+004   -2.53711E+005   -6.30722E+004   -1.17041E+005   -6.06520E+004    2.43946E+005    4.44088E+003   -1.31584E+004
            6601    6.45983E+005    2.67007E+005   -4.77787E+005   -6.99516E+004   -4.77787E+005    7.44794E+005    9.35770E+004   -3.53533E+005   -7.78569E+004   -1.36321E+005   -6.65532E+004    3.65974E+005    6.11375E+004    4.58423E+003
            6602    5.93174E+005    2.50532E+005   -4.33126E+005   -5.50421E+004   -4.33126E+005    6.83658E+005    7.92121E+004   -3.36430E+005   -6.37261E+004   -1.19770E+005   -5.41405E+004    3.38517E+005    3.78780E+004    3.87878E+002
            6603    5.54041E+005    2.12699E+005   -4.25198E+005   -6.41001E+004   -4.25198E+005    6.37897E+005    9.21999E+004   -3.37711E+005   -7.10768E+004   -1.41312E+005   -6.42104E+004    3.16150E+005    2.31465E+004   -3.58165E+003
            6604    5.07257E+005    1.99205E+005   -3.85029E+005   -5.66725E+004   -3.85029E+005    5.84233E+005    8.08323E+004   -3.02876E+005   -6.61993E+004   -1.19255E+005   -5.70428E+004    2.90640E+005    1.16371E+004   -5.89339E+003
            6605    4.65413E+005    1.66839E+005   -3.69169E+005   -6.75315E+004   -3.69169E+005    5.36008E+005    8.99539E+004   -2.78941E+005   -7.04384E+004   -1.31696E+005   -6.77277E+004    2.66107E+005    3.29481E+003   -8.41731E+003
            6606    6.81806E+005    2.78379E+005   -5.07709E+005   -7.71351E+004   -5.07709E+005    7.86089E+005    1.02155E+005   -3.73555E+005   -8.52238E+004   -1.44546E+005   -7.66952E+004    3.91309E+005    2.14547E+004    2.14690E+003
            6607    6.20525E+005    2.59920E+005   -4.55268E+005   -5.98519E+004   -4.55268E+005    7.15188E+005    8.50667E+004   -3.51623E+005   -6.81943E+004   -1.27258E+005   -5.97478E+004    3.56124E+005    1.31515E+004    1.58318E+002
            6608    5.78937E+005    2.20497E+005   -4.46075E+005   -6.88609E+004   -4.46075E+005    6.66572E+005    9.81461E+004   -3.52581E+005   -7.56102E+004   -1.49954E+005   -6.88740E+004    3.31101E+005    8.27746E+003   -1.27677E+003
            6609    5.30547E+005    2.06955E+005   -4.04098E+005   -6.06175E+004   -4.04098E+005    6.11053E+005    8.59200E+004   -3.16920E+005   -7.06576E+004   -1.26446E+005   -6.06567E+004    3.04218E+005    4.22726E+003   -1.87218E+003
            6610    4.88452E+005    1.73886E+005   -3.88630E+005   -7.17790E+004   -3.88630E+005    5.62516E+005    9.55075E+004   -2.93549E+005   -7.45825E+004   -1.40136E+005   -7.18042E+004    2.79323E+005    1.17330E+003   -3.18037E+003
            6611    1.27972E+005    6.49111E+004   -8.22962E+004    2.46021E+003   -8.22962E+004    1.47207E+005    4.97497E+003   -8.15527E+004   -3.71152E+003   -1.59349E+004    4.72147E+003    4.97070E+004   -5.29298E+004    8.87322E+003
            6612    1.21280E+005    5.83556E+004   -8.10095E+004    5.85665E+002   -8.10095E+004    1.39365E+005    7.35608E+003   -8.03579E+004   -4.24749E+003   -1.85530E+004    7.32311E+002    6.30583E+004   -2.84413E+004    4.18084E+003
            6613    1.30220E+005    6.18521E+004   -8.78952E+004   -1.23364E+003   -8.78952E+004    1.49747E+005    9.09223E+003   -8.40194E+004   -4.75879E+003   -2.13175E+004   -1.20044E+003    7.38038E+004   -9.42259E+003    1.15712E+003
            6614    8.46558E+004    4.18082E+004   -5.49207E+004    5.66048E+003   -5.49207E+004    9.67289E+004    2.48401E+003   -6.34434E+004   -1.93372E+003   -8.13271E+003    2.61440E+003    3.34065E+004   -3.41885E+004    8.65564E+003
            6615    8.75983E+004    4.48855E+004   -5.56258E+004    4.45645E+003   -5.56258E+004    1.00511E+005    2.09463E+003   -6.05884E+004   -6.11348E+002   -7.76333E+003    2.09079E+003    4.64107E+004   -1.86761E+004    5.39875E+003
            6616    9.71636E+004    5.06977E+004   -6.11390E+004    2.53632E+003   -6.11390E+004    1.11837E+005    2.63497E+003   -6.01687E+004   -6.25399E+002   -9.55808E+003    2.27857E+003    5.53688E+004   -6.31265E+003    1.82074E+003
            6617    5.19639E+004    2.24041E+004   -3.58379E+004    5.77890E+003   -3.58379E+004    5.82420E+004    2.55165E+003   -4.53748E+004   -1.93876E+003   -5.40254E+003   -3.13645E+002    2.38856E+004   -1.59323E+004    8.30466E+003
            6618    6.54489E+004    3.11096E+004   -4.40128E+004    6.92249E+002   -4.40128E+004    7.51224E+004    4.07032E+003   -4.48712E+004   -2.81767E+003   -8.02940E+003   -1.36388E+003    3.62093E+004   -8.67953E+003    5.39669E+003
            6619    7.63853E+004    3.74571E+004   -5.05744E+004   -1.80834E+003   -5.05744E+004    8.80315E+004    4.97523E+003   -4.35719E+004   -3.22214E+003   -9.67212E+003   -2.03142E+003    4.37688E+004   -2.91720E+003    1.94687E+003
            6620    3.92930E+004    2.39435E+004    2.39435E+004    5.00757E+001   -2.14062E+004    4.53498E+004   -8.62456E+002    1.77971E+004    6.07340E+002    1.37087E+003    6.09160E+002    2.12232E+004    8.51742E+002    7.95633E+003
            6621    5.84577E+004    3.66182E+004    3.66182E+004    1.20488E+003   -3.08551E+004    6.74733E+004   -2.32267E+003    2.57984E+004    1.79534E+003    3.68605E+003    1.48662E+003    3.33042E+004    9.44487E+002    5.25521E+003
            6622    7.04235E+004    4.39257E+004    4.39257E+004    2.04864E+003   -3.73801E+004    8.13058E+004   -2.86473E+003    2.63069E+004    2.10004E+003    4.41179E+003    2.08236E+003    4.05934E+004    3.74473E+002    1.84419E+003
            6623    5.43877E+004    3.60608E+004    3.60608E+004   -7.15475E+003   -2.50101E+004    6.10709E+004   -1.29862E+003    4.70822E+004    1.05981E+003    3.87476E+003   -1.03872E+003    2.46462E+004    1.74596E+004    8.22535E+003
            6624    6.87638E+004    4.22713E+004    4.22713E+004   -4.14015E+003   -3.67282E+004    7.89995E+004   -4.67633E+002    4.59034E+004   -1.43754E+002    3.18425E+003   -1.63760E+003    3.77361E+004    1.07668E+004    5.48844E+003
            6625    7.99014E+004    4.83164E+004    4.83164E+004   -2.38506E+003   -4.37895E+004    9.21060E+004   -7.13937E+002    4.45854E+004   -1.95653E+002    4.44491E+003   -2.10745E+003    4.58169E+004    3.66724E+003    2.02178E+003
            6626    8.88272E+004    5.90082E+004    5.90082E+004   -3.85719E+003   -4.26115E+004    1.01620E+005   -4.17983E+003    6.52930E+004    3.01101E+003    1.09732E+004   -1.44474E+003    3.52387E+004    3.56532E+004    8.80892E+003
            6627    9.46054E+004    6.42471E+004    6.42471E+004   -9.97744E+002   -4.42536E+004    1.08501E+005   -6.33189E+003    6.61828E+004    3.64103E+003    1.48498E+004    5.04886E+002    4.98167E+004    2.04675E+004    5.08892E+003
            6628    1.05618E+005    7.19292E+004    7.19292E+004    1.48163E+003   -4.95095E+004    1.21439E+005   -7.96713E+003    6.85326E+004    4.29412E+003    1.79819E+004    1.62535E+003    5.99054E+004    7.08665E+003    1.58386E+003
            6629    4.26442E+005    1.55381E+005   -3.35810E+005   -6.01887E+004   -3.35810E+005    4.91191E+005    8.02058E+004   -2.53406E+005   -6.30278E+004   -1.16949E+005   -6.06410E+004    2.43741E+005   -4.40990E+003    1.32091E+004
            6630    4.65561E+005    1.84960E+005   -3.51272E+005   -5.01683E+004   -3.51272E+005    5.36232E+005    7.21604E+004   -2.77229E+005   -5.86816E+004   -1.06761E+005   -5.10381E+004    2.66427E+005   -1.66306E+004    8.76026E+003
            6631    5.08036E+005    1.98349E+005   -3.86584E+005   -5.55180E+004   -3.86584E+005    5.84934E+005    8.12510E+004   -3.09537E+005   -6.27112E+004   -1.25176E+005   -5.58661E+004    2.88735E+005   -3.42818E+004    5.60372E+003
            6632    5.45933E+005    2.33036E+005   -3.96139E+005   -4.76796E+004   -3.96139E+005    6.29175E+005    7.02610E+004   -3.11173E+005   -5.69992E+004   -1.08069E+005   -4.57152E+004    3.08301E+005   -5.65179E+004    2.09086E+002
            6633    5.88232E+005    2.49076E+005   -4.29172E+005   -5.83926E+004   -4.29172E+005    6.78248E+005    7.94963E+004   -3.19887E+005   -6.60087E+004   -1.22104E+005   -5.03760E+004    3.25202E+005   -9.01603E+004   -5.55549E+003
            6634    4.65179E+005    1.66669E+005   -3.69068E+005   -6.75681E+004   -3.69068E+005    5.35737E+005    8.99893E+004   -2.78842E+005   -7.04600E+004   -1.31748E+005   -6.77604E+004    2.65969E+005   -3.22255E+003    8.42213E+003
            6635    5.06700E+005    1.98929E+005   -3.84664E+005   -5.66912E+004   -3.84664E+005    5.83593E+005    8.08088E+004   -3.02479E+005   -6.61789E+004   -1.19188E+005   -5.70594E+004    2.90327E+005   -1.14524E+004    5.91651E+003
            6636    5.53694E+005    2.12668E+005   -4.24828E+005   -6.39402E+004   -4.24828E+005    6.37497E+005    9.20335E+004   -3.37543E+005   -7.09705E+004   -1.41079E+005   -6.40512E+004    3.15958E+005   -2.31063E+004    3.58149E+003
            6637    5.94096E+005    2.50922E+005   -4.33801E+005   -5.51803E+004   -4.33801E+005    6.84724E+005    7.93530E+004   -3.36793E+005   -6.38919E+004   -1.19908E+005   -5.42591E+004    3.39047E+005   -3.79445E+004   -4.73173E+002
            6638    6.46474E+005    2.67117E+005   -4.78246E+005   -7.01414E+004   -4.78246E+005    7.45362E+005    9.37568E+004   -3.53662E+005   -7.80423E+004   -1.36511E+005   -6.67167E+004    3.66225E+005   -6.13569E+004   -4.61706E+003
            6639    4.88291E+005    1.73787E+005   -3.88547E+005   -7.18318E+004   -3.88547E+005    5.62334E+005    9.55307E+004   -2.93364E+005   -7.45930E+004   -1.40141E+005   -7.18582E+004    2.79231E+005   -1.22276E+003    3.20389E+003
            6640    5.30283E+005    2.06793E+005   -4.03957E+005   -6.06615E+004   -4.03957E+005    6.10750E+005    8.59420E+004   -3.16724E+005   -7.06740E+004   -1.26450E+005   -6.07019E+004    3.04066E+005   -4.25608E+003    1.90749E+003
            6641    5.78980E+005    2.20500E+005   -4.46126E+005   -6.89410E+004   -4.46126E+005    6.66626E+005    9.81887E+004   -3.52450E+005   -7.56631E+004   -1.49949E+005   -6.89543E+004    3.31134E+005   -8.21258E+003    1.27302E+003
            6642    6.20432E+005    2.59877E+005   -4.55208E+005   -5.99022E+004   -4.55208E+005    7.15085E+005    8.50779E+004   -3.51407E+005   -6.81940E+004   -1.27237E+005   -5.98029E+004    3.56078E+005   -1.30296E+004   -1.18167E+002
            6643    6.81303E+005    2.78220E+005   -5.07288E+005   -7.70333E+004   -5.07288E+005    7.85509E+005    1.02034E+005   -3.73274E+005   -8.51005E+004   -1.44413E+005   -7.65879E+004    3.91008E+005   -2.16257E+004   -2.14694E+003
            6644    2.80902E+005    1.37015E+005   -1.86693E+005   -7.06522E+003   -1.86693E+005    3.23708E+005    1.89145E+004   -1.61150E+005   -1.49111E+004   -4.65113E+004    4.67886E+003    1.33143E+005   -8.88118E+004    4.51344E+003
            6645    3.34250E+005    1.58473E+005   -2.26751E+005   -1.35363E+004   -2.26751E+005    3.85225E+005    2.72714E+004   -1.90105E+005   -2.21194E+004   -6.03401E+004    6.45258E+002    1.61697E+005   -1.00668E+005    3.35775E+003
            6646    3.91986E+005    1.80047E+005   -2.71820E+005   -2.31908E+004   -2.71820E+005    4.51867E+005    3.83213E+004   -2.18384E+005   -3.11679E+004   -7.48151E+004   -8.98083E+003    1.94501E+005   -1.10724E+005    2.35023E+003
            6647    4.54606E+005    2.03980E+005   -3.20180E+005   -3.34220E+004   -3.20180E+005    5.24160E+005    4.98742E+004   -2.47932E+005   -4.10726E+004   -8.94874E+004   -1.90627E+004    2.33973E+005   -1.13341E+005   -1.12526E+003
            6648    5.21756E+005    2.26683E+005   -3.74903E+005   -4.58111E+004   -3.74903E+005    6.01586E+005    6.46769E+004   -2.84471E+005   -5.33337E+004   -1.06599E+005   -3.40981E+004    2.78901E+005   -1.07402E+005   -3.41307E+003
            6649    4.87896E+005    2.12064E+005   -3.50189E+005   -3.83068E+004   -3.50189E+005    5.62253E+005    5.88105E+004   -2.79553E+005   -4.79042E+004   -9.33924E+004   -3.51350E+004    2.71627E+005   -6.80307E+004    6.11722E+002
            6650    4.54296E+005    1.81255E+005   -3.41793E+005   -4.56156E+004   -3.41793E+005    5.23048E+005    6.87176E+004   -2.77153E+005   -5.29869E+004   -1.06835E+005   -4.63311E+004    2.56900E+005   -4.05724E+004    7.10167E+003
            6651    4.18132E+005    1.69843E+005   -3.11832E+005   -4.22455E+004   -3.11832E+005    4.81675E+005    6.14114E+004   -2.46533E+005   -4.95332E+004   -9.10243E+004   -4.36769E+004    2.38996E+005   -1.93615E+004    1.08480E+004
            6652    3.81382E+005    1.42779E+005   -2.96615E+005   -5.13825E+004   -2.96615E+005    4.39394E+005    6.84060E+004   -2.22908E+005   -5.38837E+004   -9.92923E+004   -5.20420E+004    2.17939E+005   -4.81289E+003    1.57184E+004
            6653    4.29307E+005    1.89376E+005   -3.05254E+005   -2.94666E+004   -3.05254E+005    4.94630E+005    4.84480E+004   -2.50135E+005   -3.96557E+004   -7.96879E+004   -2.60004E+004    2.35207E+005   -7.29996E+004    2.26246E+003
            6654    4.00912E+005    1.65741E+005   -2.95915E+005   -3.53292E+004   -2.95915E+005    4.61656E+005    5.51678E+004   -2.42404E+005   -4.22867E+004   -8.67791E+004   -3.64376E+004    2.25735E+005   -4.24494E+004    7.78584E+003
            6655    3.71781E+005    1.54702E+005   -2.73653E+005   -3.48720E+004   -2.73653E+005    4.28355E+005    5.12746E+004   -2.16464E+005   -4.09664E+004   -7.62061E+004   -3.66512E+004    2.12327E+005   -1.96582E+004    1.15659E+004
            6656    3.38642E+005    1.32389E+005   -2.57916E+005   -4.21462E+004   -2.57916E+005    3.90305E+005    5.58911E+004   -1.91820E+005   -4.39460E+004   -8.07909E+004   -4.29363E+004    1.93463E+005   -4.51344E+003    1.76761E+004
            6657    3.72420E+005    1.68815E+005   -2.60212E+005   -2.02422E+004   -2.60212E+005    4.29027E+005    3.72131E+004   -2.19157E+005   -3.02305E+004   -6.51582E+004   -1.62507E+004    2.01207E+005   -7.14663E+004    2.42221E+003
            6658    3.52578E+005    1.50528E+005   -2.55474E+005   -2.63383E+004   -2.55474E+005    4.06002E+005    4.37614E+004   -2.13085E+005   -3.31776E+004   -7.03365E+004   -2.77702E+004    1.98077E+005   -4.00239E+004    7.98868E+003
            6659    3.30435E+005    1.42760E+005   -2.38119E+005   -2.80456E+004   -2.38119E+005    3.80879E+005    4.11349E+004   -1.85674E+005   -3.24743E+004   -6.09874E+004   -2.99431E+004    1.88843E+005   -1.70899E+004    1.20302E+004
            6660    3.02184E+005    1.23674E+005   -2.24764E+005   -3.44775E+004   -2.24764E+005    3.48438E+005    4.51890E+004   -1.63677E+005   -3.53357E+004   -6.50908E+004   -3.51405E+004    1.72707E+005   -3.39222E+003    1.73850E+004
            6661    3.21081E+005    1.47656E+005   -2.22033E+005   -1.28872E+004   -2.22033E+005    3.69688E+005    2.90880E+004   -1.95381E+005   -2.32270E+004   -5.41174E+004   -9.91980E+003    1.72192E+005   -6.46923E+004    3.85950E+003
            6662    3.09038E+005    1.38444E+005   -2.17542E+005   -1.81084E+004   -2.17542E+005    3.55986E+005    3.24022E+004   -1.82752E+005   -2.39141E+004   -5.37321E+004   -1.95605E+004    1.74185E+005   -3.31115E+004    7.20545E+003
            6663    2.96729E+005    1.32127E+005   -2.09998E+005   -2.27669E+004   -2.09998E+005    3.42124E+005    3.35459E+004   -1.62030E+005   -2.61179E+004   -5.02511E+004   -2.42686E+004    1.69874E+005   -1.23042E+004    1.14332E+004
            6664    2.73964E+005    1.18830E+005   -1.97210E+005   -2.71250E+004   -1.97210E+005    3.16040E+005    3.51684E+004   -1.39414E+005   -2.72017E+004   -5.07439E+004   -2.75596E+004    1.56561E+005   -1.91673E+003    1.79377E+004
            6665    2.68705E+005    1.28872E+005   -1.80505E+005   -5.40363E+003   -1.80505E+005    3.09377E+005    1.90123E+004   -1.63710E+005   -1.41962E+004   -4.04941E+004   -2.34642E+003    1.45272E+005   -5.07826E+004    1.82635E+003
            6666    2.75964E+005    1.27333E+005   -1.90563E+005   -1.25705E+004   -1.90563E+005    3.17896E+005    2.52670E+004   -1.62909E+005   -1.80300E+004   -4.40472E+004   -1.37237E+004    1.56861E+005   -2.16904E+004    6.34950E+003
            6667    2.70158E+005    1.26727E+005   -1.84900E+005   -1.67637E+004   -1.84900E+005    3.11627E+005    2.49787E+004   -1.39086E+005   -1.87944E+004   -3.84686E+004   -1.76731E+004    1.54997E+005   -6.71890E+003    1.10600E+004
            6668    2.52306E+005    1.13908E+005   -1.77213E+005   -2.19243E+004   -1.77213E+005    2.91121E+005    2.84100E+004   -1.22853E+005   -2.18338E+004   -4.14647E+004   -2.19315E+004    1.44295E+005   -2.62520E+001    1.64514E+004
            6669    2.36260E+005    1.11605E+005   -1.61079E+005   -1.76026E+004   -1.61079E+005    2.72685E+005    2.23589E+004   -1.06066E+005   -1.74263E+004   -3.22417E+004   -1.74087E+004    1.34907E+005    7.27816E+002    1.82379E+004
            6670    2.15147E+005    9.46526E+004   -1.52933E+005   -1.14211E+004   -1.52933E+005    2.47586E+005    2.32339E+004   -1.34595E+005   -1.80167E+004   -4.05243E+004   -1.11608E+004    1.22476E+005    7.55793E+002    1.38753E+004
            6671    2.50852E+005    1.20129E+005   -1.69060E+005   -1.01826E+004   -1.69060E+005    2.89189E+005    1.97045E+004   -1.38983E+005   -1.38388E+004   -3.50114E+004   -1.02633E+004    1.43732E+005   -6.44580E+002    1.17235E+004
            6672    2.31070E+005    1.20413E+005   -1.45953E+005    6.53107E+002   -1.45953E+005    2.66366E+005    8.29556E+003   -1.28874E+005   -4.39856E+003   -2.11951E+004    7.06951E+002    1.32871E+005    1.00607E+003    3.25097E+003
            6673    2.51674E+005    1.22097E+005   -1.67797E+005   -5.21342E+003   -1.67797E+005    2.89894E+005    1.69709E+004   -1.49320E+005   -1.12662E+004   -3.42858E+004   -5.36068E+003    1.44100E+005   -1.05148E+004    2.06971E+003
            6674    2.33677E+005    1.21925E+005   -1.47683E+005   -3.45337E+003   -1.47683E+005    2.69608E+005    9.73691E+003   -1.15497E+005   -4.89189E+003   -2.08461E+004   -3.47279E+003    1.34548E+005   -2.25272E+003    7.26000E+002
            6675    2.33204E+005    1.16545E+005   -1.52146E+005   -2.36988E+003   -1.52146E+005    2.68691E+005    1.26569E+004   -1.35772E+005   -7.91307E+003   -2.89470E+004   -1.11065E+003    1.30852E+005   -2.82002E+004   -3.25047E+001
            6676    2.23569E+005    1.19784E+005   -1.38090E+005    1.27879E+003   -1.38090E+005    2.57874E+005    5.67584E+003   -1.15971E+005   -1.25641E+003   -1.72422E+004    1.47106E+003    1.28494E+005   -6.80541E+003   -1.31707E+003
            6677    2.01945E+005    1.03216E+005   -1.29571E+005   -1.37315E+003   -1.29571E+005    2.32788E+005    9.24268E+003   -1.12862E+005   -3.74198E+003   -2.29947E+004   -9.91324E+002    1.15506E+005   -1.03525E+004   -1.15167E+003
            6678    1.67592E+005    8.69656E+004   -1.06046E+005    2.57917E+003   -1.06046E+005    1.93012E+005    5.50043E+003   -1.00467E+005   -1.54335E+003   -1.78653E+004    2.90738E+003    9.54476E+004   -1.15085E+004   -1.15906E+002
            6679    2.03116E+005    1.01207E+005   -1.32823E+005   -2.43413E+003   -1.32823E+005    2.34029E+005    1.13501E+004   -1.18064E+005   -6.76338E+003   -2.88200E+004    1.53304E+003    1.09564E+005   -3.87405E+004   -8.91239E+002
            6680    1.59876E+005    8.25090E+004   -1.01595E+005    2.27386E+003   -1.01595E+005    1.84104E+005    5.60416E+003   -9.65327E+004   -2.63887E+003   -1.86304E+004    4.45675E+003    8.39402E+004   -3.64699E+004    2.06914E+003
            6681    1.75571E+005    9.15205E+004   -1.10775E+005    1.88303E+003   -1.10775E+005    2.02296E+005    5.79051E+003   -1.01907E+005   -4.54947E+003   -2.18582E+004    9.03615E+003    7.21164E+004   -6.90929E+004    7.78866E+003
            6682    2.30789E+005    1.16484E+005   -1.49493E+005   -2.15587E+003   -1.49493E+005    2.65976E+005    1.17215E+004   -1.31635E+005   -9.04457E+003   -3.44573E+004    8.33743E+003    1.02899E+005   -8.16252E+004    6.35310E+003
            6683    3.27062E+005    2.01944E+005    2.01944E+005    4.75870E+003   -1.75589E+005    3.77533E+005   -1.03712E+004    1.39235E+005    8.64361E+003    1.99310E+004    2.53905E+003    1.71441E+005   -7.86484E+004   -1.06592E+003
            6684    3.78662E+005    2.34908E+005    2.34908E+005    7.89154E+003   -2.02225E+005    4.37132E+005   -1.35250E+004    1.53721E+005    1.13075E+004    2.42809E+004    4.98647E+003    1.99771E+005   -8.82590E+004   -3.37285E+002
            6685    4.40828E+005    2.74754E+005    2.74754E+005    1.13199E+004   -2.34164E+005    5.08918E+005   -1.73031E+004    1.73573E+005    1.44240E+004    2.91449E+004    8.34053E+003    2.35806E+005   -9.51710E+004    9.02637E+001
            6686    5.05327E+005    3.15779E+005    3.15779E+005    1.44743E+004   -2.67617E+005    5.83396E+005   -2.08788E+004    1.94482E+005    1.71344E+004    3.36544E+004    1.18476E+004    2.76695E+005   -9.18053E+004    7.73777E+002
            6687    4.49377E+005    2.84845E+005    2.84845E+005    1.46625E+004   -2.33900E+005    5.18745E+005   -2.18691E+004    1.87044E+005    1.68690E+004    3.37754E+004    1.49630E+004    2.56482E+005   -3.76398E+004   -2.42646E+003
            6688    3.88923E+005    2.49607E+005    2.49607E+005    1.63518E+004   -1.99368E+005    4.48975E+005   -2.21972E+004    1.58423E+005    1.77735E+004    3.21124E+004    1.67056E+004    2.24154E+005   -8.85805E+003   -4.79441E+003
            6689    3.95981E+005    2.49178E+005    2.49178E+005    1.13357E+004   -2.07936E+005    4.57114E+005   -1.75260E+004    1.63425E+005    1.35234E+004    2.73306E+004    1.17239E+004    2.25198E+005   -3.83894E+004   -2.50195E+003
            6690    3.42348E+005    2.18623E+005    2.18623E+005    1.36676E+004   -1.76596E+005    3.95219E+005   -1.85649E+004    1.37177E+005    1.49151E+004    2.66975E+004    1.40822E+004    1.97288E+005   -8.22347E+003   -5.25388E+003
            6691    3.46522E+005    2.16303E+005    2.16303E+005    8.17623E+003   -1.83716E+005    4.00019E+005   -1.35876E+004    1.42962E+005    1.02874E+004    2.17572E+004    8.71825E+003    1.96795E+005   -3.52049E+004   -2.72972E+003
            6692    3.00844E+005    1.90280E+005    1.90280E+005    1.08483E+004   -1.57040E+005    3.47321E+005   -1.46961E+004    1.16135E+005    1.19095E+004    2.08892E+004    1.12897E+004    1.73375E+005   -6.96782E+003   -5.70494E+003
            6693    2.96020E+005    1.82514E+005    1.82514E+005    5.32603E+003   -1.59222E+005    3.41736E+005   -9.53963E+003    1.18417E+005    7.03800E+003    1.56876E+004    5.89324E+003    1.68650E+005   -2.70386E+004   -2.59973E+003
            6694    2.68482E+005    1.67725E+005    1.67725E+005    8.60506E+003   -1.42254E+005    3.09980E+005   -1.13587E+004    9.62949E+004    9.10669E+003    1.62019E+004    8.76741E+003    1.54840E+005   -2.38026E+003   -5.35759E+003
            6695    2.45273E+005    1.49540E+005    1.49540E+005    5.47405E+003   -1.33662E+005    2.83202E+005   -7.11752E+003    7.63376E+004    5.08270E+003    1.07295E+004    5.54038E+003    1.41453E+005   -8.04085E+002   -5.79230E+003
            6696    2.17624E+005    1.33469E+005    1.33469E+005    2.88084E+003   -1.17755E+005    2.51225E+005   -6.19835E+003    8.90660E+004    4.19603E+003    1.15178E+004    2.88128E+003    1.25483E+005   -2.93039E+001   -4.37874E+003
            6697    2.59127E+005    1.59631E+005    1.59631E+005    3.89752E+003   -1.39498E+005    2.99129E+005   -8.01046E+003    1.07486E+005    6.02094E+003    1.37648E+004    4.24560E+003    1.49081E+005   -1.11389E+004   -2.70041E+003
            6698    2.31944E+005    1.39254E+005    1.39254E+005    8.25853E+002   -1.28520E+005    2.67774E+005   -3.85317E+003    9.01443E+004    2.56575E+003    8.15877E+003    8.35000E+002    1.33853E+005   -8.90119E+002   -7.15438E+002
            6699    2.31175E+005    1.36158E+005    1.36158E+005    8.92008E+001   -1.30763E+005    2.66921E+005   -1.82802E+003    7.47754E+004    3.72571E+002    5.02611E+003    8.53700E+001    1.33370E+005   -4.32706E+003   -2.10535E+001
            6700    2.13803E+005    1.28667E+005    1.28667E+005    1.05451E+003   -1.18164E+005    2.46831E+005   -3.85274E+003    8.31700E+004    1.79167E+003    8.87305E+003    8.93510E+002    1.22955E+005   -9.98667E+003    6.73075E+002
            6701    1.78962E+005    1.05660E+005    1.05660E+005   -1.19729E+003   -1.00947E+005    2.06607E+005   -1.17216E+003    6.98851E+004    8.20012E+001    4.68861E+003   -1.25413E+003    1.02589E+005   -1.18987E+004   -9.64843E+001
            6702    1.39568E+005    8.65384E+004    8.65384E+004    1.64435E+003   -7.45420E+004    1.61080E+005   -4.54692E+003    6.33384E+004    2.38676E+003    9.67340E+003    1.58061E+003    7.98680E+004   -9.70683E+003   -2.25956E+002
            6703    2.47839E+005    1.49095E+005    1.49095E+005    5.04869E+002   -1.37014E+005    2.86109E+005   -4.19534E+003    1.00643E+005    2.77923E+003    9.77327E+003    3.35293E+001    1.40344E+005   -2.74431E+004    2.97718E+002
            6704    2.10087E+005    1.27590E+005    1.27590E+005    1.28825E+003   -1.14928E+005    2.42518E+005   -4.64990E+003    8.73795E+004    2.97300E+003    1.10493E+004   -7.26380E+001    1.14823E+005   -3.86620E+004    3.74983E+002
            6705    1.67423E+005    9.88061E+004    9.88061E+004   -1.95445E+003   -9.44581E+004    1.93264E+005   -7.97880E+002    7.02635E+004    3.25511E+002    4.69841E+003   -2.63028E+003    8.93626E+004   -3.66591E+004   -5.42549E+002
            6706    1.29627E+005    7.98892E+004    7.98892E+004    9.45081E+002   -6.97142E+004    1.49603E+005   -3.70670E+003    5.93004E+004    2.19586E+003    8.38186E+003    5.42378E+002    6.83751E+004   -3.01229E+004   -1.18245E+003
            6707    1.31042E+005    7.88965E+004    7.88965E+004   -2.51739E+002   -7.23635E+004    1.51260E+005   -2.09373E+003    5.65739E+004    1.44534E+003    6.16161E+003   -1.32576E+003    5.23765E+004   -5.43917E+004   -2.81735E+003
            6708    1.79218E+005    1.06900E+005    1.06900E+005   -8.38871E+002   -9.99834E+004    2.06884E+005   -2.02596E+003    7.45155E+004    1.73112E+003    7.24197E+003   -2.89522E+003    7.58908E+004   -7.01020E+004   -2.62483E+003
            6709    2.25644E+005    1.35826E+005    1.35826E+005    9.30763E+002   -1.24670E+005    2.60496E+005   -4.02880E+003    8.91868E+004    3.12233E+003    1.13843E+004   -2.42024E+003    1.02703E+005   -7.98243E+004   -1.91187E+003
            6710    2.81319E+005    1.71182E+005    1.71182E+005    1.40377E+003   -1.53545E+005    3.24727E+005   -6.34692E+003    1.20708E+005    4.99961E+003    1.51699E+004   -1.12880E+003    1.40505E+005   -8.10412E+004   -1.78066E+003
            6711    4.36164E+005    2.80639E+005    2.80639E+005    1.88261E+004   -2.22866E+005    5.03505E+005   -2.55330E+004    1.79023E+005    2.03157E+004    3.72366E+004    1.90467E+004    2.51462E+005   -7.87443E+003   -3.81432E+003
            6712    5.01041E+005    3.19550E+005    3.19550E+005    1.80124E+004   -2.58827E+005    5.78377E+005   -2.62454E+004    2.10244E+005    2.02950E+004    4.02591E+004    1.81821E+004    2.87258E+005   -3.18050E+004   -1.99816E+003
            6713    5.69007E+005    3.56759E+005    3.56759E+005    1.77384E+004   -3.00160E+005    6.56919E+005   -2.47794E+004    2.17250E+005    2.02952E+004    3.81104E+004    1.59326E+004    3.18884E+005   -7.80798E+004    1.19143E+003
            6714    4.75649E+005    3.06249E+005    3.06249E+005    2.07203E+004   -2.42837E+005    5.49086E+005   -2.80442E+004    1.95317E+005    2.22138E+004    4.11064E+004    2.08125E+004    2.74316E+005   -5.47364E+003   -2.51375E+003
            6715    5.43692E+005    3.48357E+005    3.48357E+005    2.09873E+004   -2.79249E+005    6.27606E+005   -3.00317E+004    2.29075E+005    2.30696E+004    4.59679E+004    2.10575E+004    3.12874E+005   -2.12218E+004   -1.36477E+003
            6716    6.23270E+005    3.91492E+005    3.91492E+005    2.04716E+004   -3.28081E+005    7.19573E+005   -2.79611E+004    2.35654E+005    2.27115E+004    4.15055E+004    1.96662E+004    3.55699E+005   -5.31522E+004    1.12249E+003
            6717    4.98575E+005    3.21013E+005    3.21013E+005    2.17682E+004   -2.54540E+005    5.75553E+005   -2.94137E+004    2.04452E+005    2.32206E+004    4.32419E+004    2.17787E+004    2.87595E+005   -1.93199E+003   -8.55555E+002
            6718    5.67559E+005    3.64623E+005    3.64623E+005    2.27085E+004   -2.90529E+005    6.55152E+005   -3.22674E+004    2.40118E+005    2.47615E+004    4.93237E+004    2.27170E+004    3.27266E+005   -7.19000E+003   -4.85768E+002
            6719    6.56094E+005    4.12596E+005    4.12596E+005    2.21264E+004   -3.44875E+005    7.57471E+005   -2.99492E+004    2.47423E+005    2.43086E+004    4.35161E+004    2.20230E+004    3.78128E+005   -1.91242E+004    4.81249E+002
            6720    1.31152E+005    7.42873E+004   -7.71160E+004    1.52926E+003   -7.71160E+004    1.51403E+005    4.33131E+002   -5.33440E+004    3.22061E+002   -3.10234E+003    1.48088E+003    7.50603E+004    9.67790E+003   -4.86192E+002
            6721    1.21616E+005    6.90378E+004   -7.13252E+004    2.62845E+003   -7.13252E+004    1.40363E+005   -1.13697E+002   -5.50865E+004    4.21037E+002   -2.47031E+003    2.39037E+003    6.38878E+004    2.89921E+004   -1.41970E+003
            6722    1.27380E+005    7.11550E+004   -7.58587E+004    1.64181E+003   -7.58587E+004    1.47014E+005    1.02064E+003   -5.79041E+004   -8.95327E+002   -4.19970E+003    2.03311E+003    5.04072E+004    5.33805E+004   -2.91337E+003
            6723    9.90584E+004    5.20128E+004   -6.23004E+004   -1.68725E+003   -6.23004E+004    1.14313E+005    3.99162E+003   -4.66603E+004   -2.49131E+003   -7.74100E+003   -1.74255E+003    5.67301E+004    6.44445E+003   -5.87284E+002
            6724    8.85914E+004    4.65081E+004   -5.56902E+004   -7.11005E+002   -5.56902E+004    1.02198E+005    3.29770E+003   -4.49997E+004   -2.27210E+003   -6.39454E+003   -1.22647E+003    4.73884E+004    1.89697E+004   -1.78162E+003
            6725    8.46356E+004    4.57268E+004   -5.18879E+004    1.00660E+003   -5.18879E+004    9.76147E+004    1.71815E+003   -4.44049E+004   -1.25199E+003   -4.06725E+003    1.64796E+002    3.41280E+004    3.47757E+004   -3.00264E+003
            6726    7.78855E+004    4.62278E+004    4.62278E+004    1.82992E+003   -4.37043E+004    8.99321E+004   -1.45113E+003   -2.17854E+004    1.26353E+003    1.34631E+003    1.74354E+003    4.48577E+004    3.05718E+003   -6.50986E+002
            6727    6.61378E+004    3.90530E+004    3.90530E+004    2.48425E+003   -3.72938E+004    7.63469E+004   -1.41448E+003   -2.76071E+004    1.22466E+003    1.31486E+003    1.70390E+003    3.71101E+004    8.81220E+003   -1.78635E+003
            6728    5.13460E+004    2.81690E+004   -3.09292E+004    2.73743E+003   -3.09292E+004    5.90983E+004    7.58225E+000   -3.18427E+004   -7.98118E+001   -5.01578E+002    5.58644E+002    2.46087E+004    1.62953E+004   -2.71875E+003
            6729    7.16762E+004    3.89079E+004   -4.38532E+004   -1.81476E+003   -4.38532E+004    8.27611E+004    2.25337E+003   -2.16437E+004   -1.65577E+003   -3.30325E+003   -1.80109E+003    4.13646E+004   -4.10463E+002   -6.83570E+002
            6730    5.88460E+004    3.17998E+004   -3.61481E+004   -1.77450E+003   -3.61481E+004    6.79479E+004    2.04095E+003   -1.60723E+004   -1.55729E+003   -2.89275E+003   -1.67279E+003    3.39046E+004   -9.43451E+002   -1.82357E+003
            6731    3.78513E+004    2.12593E+004   -2.24476E+004   -6.38659E+002   -2.24476E+004    4.37069E+004    6.09004E+002    5.76086E+003   -3.91643E+002   -9.48392E+002   -4.86977E+002    2.16732E+004   -6.19931E+002   -2.71521E+003
            6732    8.14114E+004    5.11742E+004    5.11742E+004    1.75216E+003   -4.27893E+004    9.39635E+004   -3.37903E+003    3.64590E+004    2.13566E+003    6.18832E+003    1.81310E+003    4.67943E+004   -3.64662E+003   -5.63908E+002
            6733    6.98945E+004    4.42092E+004    4.42092E+004    9.13722E+002   -3.64247E+004    8.06338E+004   -2.89940E+003    3.51818E+004    1.95748E+003    5.19028E+003    1.55043E+003    3.87731E+004   -1.08658E+004   -1.73560E+003
            6734    5.34337E+004    3.34602E+004    3.34602E+004   -1.47341E+003   -2.80507E+004    6.15110E+004   -1.31204E+003    3.28645E+004    8.89745E+002    2.70233E+003    3.44036E+002    2.52999E+004   -1.73927E+004   -2.75722E+003
            6735    1.05281E+005    6.13471E+004    6.13471E+004   -1.71721E+003   -6.01921E+004    1.21539E+005    1.87410E+002    4.24057E+004   -4.56362E+002    1.48830E+003   -1.59417E+003    6.03282E+004   -7.23045E+003   -7.05524E+002
            6736    9.45488E+004    5.51925E+004    5.51925E+004   -2.86427E+003   -5.39079E+004    1.09100E+005    5.26542E+002    4.54472E+004   -4.94650E+002    8.95802E+002   -1.98078E+003    5.04605E+004   -2.06902E+004   -1.84833E+003
            6737    8.77694E+004    5.27175E+004    5.27175E+004   -2.30590E+003   -4.85016E+004    1.01219E+005   -6.36648E+002    4.66715E+004    6.39813E+002    2.29993E+003   -1.02980E+003    3.55939E+004   -3.59078E+004   -2.95902E+003
            6738    5.69376E+005    3.56970E+005    3.56970E+005    1.77312E+004   -3.00375E+005    6.57345E+005   -2.47753E+004    2.17376E+005    2.02901E+004    3.81141E+004    1.59216E+004    3.19090E+005    7.81345E+004   -1.19754E+003
            6739    5.00984E+005    3.19551E+005    3.19551E+005    1.80281E+004   -2.58760E+005    5.78311E+005   -2.62729E+004    2.10328E+005    2.03143E+004    4.03012E+004    1.82031E+004    2.87253E+005    3.15382E+004    2.01999E+003
            6740    4.36721E+005    2.81005E+005    2.81005E+005    1.88655E+004   -2.23142E+005    5.04148E+005   -2.55761E+004    1.79208E+005    2.03467E+004    3.72980E+004    1.90836E+004    2.51785E+005    7.83156E+003    3.79672E+003
            6741    6.23699E+005    3.91775E+005    3.91775E+005    2.05098E+004   -3.28293E+005    7.20068E+005   -2.79974E+004    2.35743E+005    2.27427E+004    4.15366E+004    1.97128E+004    3.55991E+005    5.28785E+004   -1.11998E+003
            6742    5.43131E+005    3.48021E+005    3.48021E+005    2.09613E+004   -2.78936E+005    6.26957E+005   -3.00156E+004    2.29001E+005    2.30601E+004    4.59555E+004    2.10311E+004    3.12552E+005    2.11724E+004    1.36233E+003
            6743    4.75793E+005    3.06347E+005    3.06347E+005    2.07292E+004   -2.42904E+005    5.49251E+005   -2.80574E+004    1.95395E+005    2.22261E+004    4.11261E+004    2.08201E+004    2.74400E+005    5.43885E+003    2.49651E+003
            6744    6.56334E+005    4.12751E+005    4.12751E+005    2.21381E+004   -3.44997E+005    7.57748E+005   -2.99640E+004    2.47516E+005    2.43197E+004    4.35318E+004    2.20404E+004    3.78291E+005    1.86605E+004   -4.62346E+002
            6745    5.67178E+005    3.64383E+005    3.64383E+005    2.26876E+004   -2.90329E+005    6.54712E+005   -3.22469E+004    2.40014E+005    2.47445E+004    4.93006E+004    2.26956E+004    3.27038E+005    7.55524E+003    4.80927E+002
            6746    4.98526E+005    3.20983E+005    3.20983E+005    2.17734E+004   -2.54513E+005    5.75496E+005   -2.94143E+004    2.04397E+005    2.32208E+004    4.32378E+004    2.17842E+004    2.87566E+005    1.98660E+003    8.53620E+002
            6747    2.50237E+005    1.34640E+005   -1.54286E+005   -6.71327E+003   -1.54286E+005    2.88926E+005    8.78655E+003   -8.35914E+004   -6.71714E+003   -1.29269E+004   -6.71557E+003    1.44326E+005    3.04451E+001   -5.47334E+003
            6748    2.71685E+005    1.44724E+005   -1.68962E+005   -8.37571E+003   -1.68962E+005    3.13685E+005    1.08712E+004   -9.39280E+004   -8.41420E+003   -1.56796E+004   -8.51967E+003    1.56680E+005    1.93496E+003   -5.87567E+003
            6749    3.00393E+005    1.58397E+005   -1.88422E+005   -1.02017E+004   -1.88422E+005    3.46820E+005    1.34089E+004   -1.09191E+005   -1.02198E+004   -1.95806E+004   -1.04263E+004    1.73221E+005    3.45787E+003   -5.71776E+003
            6750    3.37442E+005    1.76578E+005   -2.13004E+005   -1.21402E+004   -2.13004E+005    3.89581E+005    1.61888E+004   -1.27519E+005   -1.22618E+004   -2.38999E+004   -1.24047E+004    1.94569E+005    4.57426E+003   -5.76575E+003
            6751    3.80764E+005    1.97986E+005   -2.41600E+005   -1.44478E+004   -2.41600E+005    4.39586E+005    1.93539E+004   -1.47349E+005   -1.46302E+004   -2.87610E+004   -1.46705E+004    2.19568E+005    4.94810E+003   -5.10484E+003
            6752    2.68129E+005    1.44293E+005   -1.65275E+005   -6.15894E+003   -1.65275E+005    3.09568E+005    9.04688E+003   -9.77490E+004   -6.51793E+003   -1.41499E+004   -6.47282E+003    1.54550E+005    6.67006E+003   -3.81098E+003
            6753    2.94040E+005    1.55616E+005   -1.83849E+005   -8.45259E+003   -1.83849E+005    3.39466E+005    1.22285E+004   -1.13661E+005   -8.92549E+003   -1.87856E+004   -8.97444E+003    1.69208E+005    1.18102E+004   -4.10031E+003
            6754    3.27165E+005    1.70702E+005   -2.06983E+005   -1.08954E+004   -2.06983E+005    3.77685E+005    1.57252E+004   -1.32474E+005   -1.17613E+004   -2.38321E+004   -1.15823E+004    1.87949E+005    1.68965E+004   -4.40350E+003
            6755    3.68912E+005    1.89554E+005   -2.36295E+005   -1.41118E+004   -2.36295E+005    4.25849E+005    2.02845E+004   -1.55736E+005   -1.52866E+004   -3.08060E+004   -1.47607E+004    2.11856E+005    1.95199E+004   -4.29165E+003
            6756    4.14961E+005    2.10825E+005   -2.68158E+005   -1.75385E+004   -2.68158E+005    4.78983E+005    2.49571E+004   -1.79078E+005   -1.87694E+004   -3.80420E+004   -1.80598E+004    2.38500E+005    1.92404E+004   -4.05903E+003
            6757    2.74673E+005    1.48868E+005   -1.68216E+005   -3.50799E+003   -1.68216E+005    3.17085E+005    7.61871E+003   -1.11727E+005   -5.95892E+003   -1.30581E+004   -3.83916E+003    1.56966E+005    2.19823E+004   -1.85118E+003
            6758    3.07976E+005    1.65875E+005   -1.89657E+005   -5.05977E+003   -1.89657E+005    3.55532E+005    9.61376E+003   -1.24772E+005   -8.07293E+003   -1.53342E+004   -5.43414E+003    1.74592E+005    3.32254E+004   -1.96123E+003
            6759    3.51681E+005    1.88062E+005   -2.17921E+005   -7.01116E+003   -2.17921E+005    4.05983E+005    1.22902E+004   -1.43194E+005   -1.05534E+004   -1.89855E+004   -7.33170E+003    1.98980E+005    3.99166E+004   -2.00003E+003
            6760    3.98963E+005    2.12805E+005   -2.47770E+005   -8.84241E+003   -2.47770E+005    4.60575E+005    1.46026E+004   -1.60355E+005   -1.28128E+004   -2.19296E+004   -9.06543E+003    2.26278E+005    4.25269E+004   -1.82323E+003
            6761    4.50472E+005    2.39342E+005   -2.80699E+005   -1.10144E+004   -2.80699E+005    5.20041E+005    1.74573E+004   -1.80491E+005   -1.54310E+004   -2.57948E+004   -1.11462E+004    2.56839E+005    4.02038E+004   -1.57794E+003
            6762    2.68176E+005    1.45402E+005   -1.64153E+005   -2.30321E+003   -1.64153E+005    3.09555E+005    7.01826E+003   -1.15092E+005   -4.93976E+003   -1.47317E+004   -1.38330E+003    1.46036E+005    5.09681E+004   -8.53113E+002
            6763    3.21155E+005    1.71649E+005   -1.99057E+005   -5.17240E+003   -1.99057E+005    3.70707E+005    1.08601E+004   -1.38162E+005   -7.86652E+003   -2.03257E+004   -4.38794E+003    1.73442E+005    6.49977E+004   -1.79455E+003
            6764    3.73606E+005    1.97479E+005   -2.33786E+005   -8.71474E+003   -2.33786E+005    4.31265E+005    1.50073E+004   -1.58064E+005   -1.11762E+004   -2.61633E+004   -7.68252E+003    2.03207E+005    7.16593E+004   -1.61473E+003
            6765    4.30662E+005    2.24725E+005   -2.72402E+005   -1.29708E+004   -2.72402E+005    4.97128E+005    2.02160E+004   -1.82133E+005   -1.51788E+004   -3.33810E+004   -1.20882E+004    2.37284E+005    7.33778E+004   -1.72999E+003
            6766    4.89132E+005    2.52616E+005   -3.12005E+005   -1.73560E+004   -3.12005E+005    5.64621E+005    2.55814E+004   -2.06832E+005   -1.96413E+004   -4.06125E+004   -1.64904E+004    2.73729E+005    6.81832E+004   -1.16012E+003
            6767    5.15549E+005    2.78688E+005   -3.16548E+005   -1.11287E+004   -3.16548E+005    5.95237E+005    1.63295E+004   -1.83893E+005   -1.24423E+004   -2.94794E+004   -7.06677E+003    2.77236E+005    1.07692E+005    1.66251E+003
            6768    4.48248E+005    2.43380E+005   -2.74149E+005   -8.37474E+003   -2.74149E+005    5.17529E+005    1.30479E+004   -1.61649E+005   -1.01418E+004   -2.55241E+004   -3.47773E+003    2.32387E+005    1.13329E+005    8.36317E+002
            6769    3.86441E+005    2.09843E+005   -2.36305E+005   -6.12390E+003   -2.36305E+005    4.46148E+005    1.08618E+004   -1.47092E+005   -8.84261E+003   -2.24384E+004   -1.30434E+003    1.93523E+005    1.10510E+005   -4.43206E+002
            6770    3.30126E+005    1.80486E+005   -2.00634E+005   -3.50649E+003   -2.00634E+005    3.81121E+005    7.88482E+003   -1.28988E+005   -6.43977E+003   -1.84470E+004    1.23230E+003    1.61563E+005    1.00628E+005   -8.55057E+002
            6771    2.77896E+005    1.52495E+005   -1.68321E+005   -2.07316E+003   -1.68321E+005    3.20816E+005    5.96656E+003   -1.10582E+005   -4.93719E+003   -1.47808E+004    1.81830E+003    1.33193E+005    8.90520E+004   -1.34414E+003
            6772    2.28993E+005    1.26904E+005   -1.37452E+005   -3.10521E+002   -1.37452E+005    2.64356E+005    3.61967E+003   -9.20661E+004   -2.89091E+003   -1.09077E+004    2.93955E+003    1.03524E+005    8.19086E+004   -2.14431E+003
            6773    1.74507E+005    9.68449E+004   -1.04611E+005   -1.03331E+002   -1.04611E+005    2.01456E+005    2.62319E+003   -7.01425E+004   -1.95690E+003   -8.32990E+003    2.41722E+003    7.26879E+004    6.95076E+004   -2.62044E+003
            6774    1.61028E+005    8.75275E+004   -9.83429E+004   -1.01611E+003   -9.83429E+004    1.85870E+005    3.94386E+003   -6.98833E+004   -2.48216E+003   -9.42694E+003    7.75075E+001    8.51438E+004    3.70054E+004   -5.71862E+002
            6775    1.69186E+005    9.16779E+004   -1.03611E+005   -1.45062E+003   -1.03611E+005    1.95289E+005    4.46128E+003   -7.29003E+004   -2.27225E+003   -9.80867E+003   -1.30291E+003    9.68688E+004    1.16614E+004    1.09943E+002
            6776    2.02820E+005    1.13779E+005   -1.20365E+005    9.90624E+002   -1.20365E+005    2.34145E+005    1.86525E+003   -8.08423E+004   -1.02061E+003   -6.72576E+003    2.15062E+003    1.10312E+005    3.90259E+004    2.72385E+002
            6777    2.02270E+005    1.14567E+005   -1.18966E+005    9.25565E+002   -1.18966E+005    2.33533E+005    1.15783E+003   -7.26500E+004    7.48935E+001   -4.56713E+003    1.01874E+003    1.16276E+005    1.04187E+004    2.73658E+002
            6778    2.23363E+005    1.23858E+005   -1.34017E+005   -1.04471E+003   -1.34017E+005    2.57875E+005    3.73438E+003   -8.45112E+004   -1.80402E+003   -8.41795E+003   -9.81166E+002    1.28708E+005    6.91968E+003    3.92513E+002
            6779    2.33410E+005    1.32359E+005   -1.37144E+005    1.54775E+002   -1.37144E+005    2.69503E+005    1.54347E+003   -7.46667E+004   -2.20818E+002   -4.55976E+003    1.50180E+002    1.34717E+005    2.14834E+003   -1.81657E+002
            6780    2.29029E+005    1.26164E+005   -1.38231E+005   -9.70861E+002   -1.38231E+005    2.64395E+005    4.34570E+003   -9.26804E+004   -3.14464E+003   -8.93995E+003   -9.52511E+002    1.32157E+005   -1.04302E+003   -1.12006E+003
            6781    2.12336E+005    1.14412E+005   -1.30690E+005   -2.63931E+003   -1.30690E+005    2.45102E+005    6.30588E+003   -9.05824E+004   -4.13407E+003   -1.21993E+004   -2.58431E+003    1.22394E+005   -6.95223E+002   -4.62229E+003
            6782    2.32696E+005    1.26721E+005   -1.41895E+005   -1.96523E+003   -1.41895E+005    2.68616E+005    5.71290E+003   -9.69925E+004   -3.78274E+003   -1.19108E+004   -1.44514E+003    1.31212E+005    2.83246E+004    1.29904E+002
            6783    2.50809E+005    1.38928E+005   -1.50615E+005   -4.82491E+002   -1.50615E+005    2.89544E+005    4.05651E+003   -1.00368E+005   -2.50645E+003   -9.12090E+003   -5.42172E+002    1.44344E+005    1.06100E+004   -7.23460E+002
            6784    2.48362E+005    1.33556E+005   -1.53164E+005   -4.53599E+003   -1.53164E+005    2.86719E+005    8.04801E+003   -9.91349E+004   -6.07950E+003   -1.34923E+004   -4.57220E+003    1.43258E+005    6.92347E+002   -3.88248E+003
            6785    2.33857E+005    1.28330E+005   -1.41696E+005   -4.79261E+003   -1.41696E+005    2.70026E+005    6.05287E+003   -6.76880E+004   -4.07526E+003   -9.36165E+003   -4.72169E+003    1.34846E+005   -7.98457E+002   -6.10008E+003
            6786    2.68349E+005    1.67636E+005    1.67636E+005    8.61238E+003   -1.42191E+005    3.09827E+005   -1.13523E+004    9.61039E+004    9.10266E+003    1.61844E+004    8.77003E+003    1.54765E+005    2.31118E+003    5.35373E+003
            6787    3.01049E+005    1.90413E+005    1.90413E+005    1.08561E+004   -1.57144E+005    3.47557E+005   -1.47087E+004    1.16236E+005    1.19152E+004    2.09117E+004    1.12991E+004    1.73492E+005    7.00130E+003    5.70440E+003
            6788    3.43510E+005    2.19408E+005    2.19408E+005    1.37462E+004   -1.77152E+005    3.96560E+005   -1.86672E+004    1.37708E+005    1.49941E+004    2.68483E+004    1.41593E+004    1.97958E+005    8.23111E+003    5.24816E+003
            6789    3.90190E+005    2.50459E+005    2.50459E+005    1.64260E+004   -1.99978E+005    4.50437E+005   -2.23025E+004    1.59048E+005    1.78621E+004    3.22701E+004    1.67752E+004    2.24887E+005    8.81727E+003    4.77014E+003
            6790    2.96054E+005    1.82537E+005    1.82537E+005    5.32508E+003   -1.59239E+005    3.41775E+005   -9.54095E+003    1.18447E+005    7.03914E+003    1.56902E+004    5.89351E+003    1.68656E+005    2.71220E+004    2.60094E+003
            6791    3.47049E+005    2.16658E+005    2.16658E+005    8.22485E+003   -1.83970E+005    4.00628E+005   -1.36374E+004    1.43118E+005    1.03270E+004    2.18197E+004    8.76557E+003    1.97101E+005    3.52198E+004    2.72767E+003
            6792    3.96846E+005    2.49741E+005    2.49741E+005    1.13890E+004   -2.08372E+005    4.58112E+005   -1.75859E+004    1.63721E+005    1.35680E+004    2.74115E+004    1.17783E+004    2.25708E+005    3.83680E+004    2.50688E+003
            6793    4.50016E+005    2.85286E+005    2.85286E+005    1.47238E+004   -2.34198E+005    5.19484E+005   -2.19373E+004    1.87281E+005    1.69204E+004    3.38654E+004    1.50261E+004    2.56907E+005    3.72815E+004    2.43065E+003
            6794    5.05135E+005    3.15639E+005    3.15639E+005    1.44732E+004   -2.67536E+005    5.83175E+005   -2.08586E+004    1.94239E+005    1.71125E+004    3.36307E+004    1.18325E+004    2.76504E+005    9.20284E+004   -7.76280E+002
            6795    4.40397E+005    2.74484E+005    2.74484E+005    1.13108E+004   -2.33938E+005    5.08421E+005   -1.72856E+004    1.73378E+005    1.44091E+004    2.91182E+004    8.32962E+003    2.35531E+005    9.51886E+004   -8.62477E+001
            6796    3.78317E+005    2.34709E+005    2.34709E+005    7.88798E+003   -2.02025E+005    4.36734E+005   -1.35238E+004    1.53650E+005    1.13042E+004    2.42688E+004    4.99851E+003    1.99661E+005    8.80159E+004    3.37829E+002
            6797    3.27559E+005    2.02281E+005    2.02281E+005    4.78283E+003   -1.75826E+005    3.78107E+005   -1.04125E+004    1.39518E+005    8.67711E+003    1.99808E+004    2.57972E+003    1.71812E+005    7.85261E+004    1.06791E+003
            6798    2.81545E+005    1.71323E+005    1.71323E+005    1.40656E+003   -1.53664E+005    3.24987E+005   -6.35531E+003    1.20819E+005    5.01024E+003    1.51874E+004   -1.13169E+003    1.40580E+005    8.11715E+004    1.78662E+003
            6799    2.25348E+005    1.35649E+005    1.35649E+005    9.33772E+002   -1.24506E+005    2.60155E+005   -4.02550E+003    8.90483E+004    3.12180E+003    1.13709E+004   -2.41619E+003    1.02539E+005    7.97569E+004    1.91082E+003
            6800    1.78892E+005    1.06707E+005    1.06707E+005   -8.51548E+002   -9.97997E+004    2.06506E+005   -2.01848E+003    7.44699E+004    1.72309E+003    7.22229E+003   -2.88994E+003    7.57985E+004    6.99248E+004    2.62496E+003
            6801    1.31177E+005    7.89931E+004    7.89931E+004   -2.38260E+002   -7.24222E+004    1.51415E+005   -2.11086E+003    5.66419E+004    1.46400E+003    6.18652E+003   -1.31795E+003    5.25080E+004    5.43729E+004    2.80958E+003
            6802    1.29702E+005    7.99232E+004    7.99232E+004    9.41850E+002   -6.97681E+004    1.49691E+005   -3.69898E+003    5.92915E+004    2.18832E+003    8.37332E+003    5.35310E+002    6.83592E+004    3.02673E+004    1.18745E+003
            6803    1.39984E+005    8.68036E+004    8.68036E+004    1.65255E+003   -7.47570E+004    1.61561E+005   -4.56639E+003    6.35462E+004    2.40643E+003    9.70608E+003    1.58664E+003    8.00915E+004    9.85627E+003    2.27998E+002
            6804    1.67715E+005    9.89744E+004    9.89744E+004   -1.96000E+003   -9.46276E+004    1.93602E+005   -7.95610E+002    7.03732E+004    3.25266E+002    4.70770E+003   -2.64614E+003    8.94753E+004    3.68283E+004    5.40414E+002
            6805    1.78819E+005    1.05537E+005    1.05537E+005   -1.21863E+003   -1.00905E+005    2.06442E+005   -1.13798E+003    6.97216E+004    5.34822E+001    4.63981E+003   -1.27935E+003    1.02490E+005    1.20419E+004    8.59424E+001
            6806    2.10381E+005    1.27773E+005    1.27773E+005    1.27723E+003   -1.15084E+005    2.42857E+005   -4.65546E+003    8.76046E+004    2.98441E+003    1.10691E+004   -8.71023E+001    1.14922E+005    3.88963E+004   -3.55886E+002
            6807    2.13316E+005    1.28403E+005    1.28403E+005    1.05256E+003   -1.17865E+005    2.46268E+005   -3.86358E+003    8.31698E+004    1.80351E+003    8.89487E+003    8.92367E+002    1.22667E+005    1.00558E+004   -6.55094E+002
            6808    2.48010E+005    1.49204E+005    1.49204E+005    5.15216E+002   -1.37103E+005    2.86306E+005   -4.20538E+003    1.00686E+005    2.78451E+003    9.79129E+003    4.03324E+001    1.40443E+005    2.74512E+004   -3.06887E+002
            6809    2.31024E+005    1.36086E+005    1.36086E+005    1.04079E+002   -1.30661E+005    2.66747E+005   -1.84288E+003    7.47426E+004    3.78419E+002    5.05132E+003    9.89058E+001    1.33280E+005    4.39803E+003    3.24586E+000
            6810    2.32046E+005    1.39294E+005    1.39294E+005    8.03367E+002   -1.28599E+005    2.67893E+005   -3.83282E+003    9.01920E+004    2.54958E+003    8.13642E+003    8.12464E+002    1.33913E+005    8.99773E+002    7.04711E+002
            6811    2.17628E+005    1.33464E+005    1.33464E+005    2.87721E+003   -1.17767E+005    2.51230E+005   -6.19140E+003    8.90375E+004    4.19007E+003    1.15105E+004    2.87360E+003    1.25486E+005   -2.90907E+001    4.36337E+003
            6812    2.59037E+005    1.59581E+005    1.59581E+005    3.90623E+003   -1.39444E+005    2.99025E+005   -8.01434E+003    1.07419E+005    6.02411E+003    1.37669E+004    4.25197E+003    1.49034E+005    1.10731E+004    2.69551E+003
            6813    2.45106E+005    1.49426E+005    1.49426E+005    5.46661E+003   -1.33583E+005    2.83010E+005   -7.10316E+003    7.61957E+004    5.06777E+003    1.07087E+004    5.53301E+003    1.41357E+005    8.05975E+002    5.78017E+003
            6814    5.82203E+005    3.14070E+005   -3.58134E+005   -1.39039E+004   -3.58134E+005    6.72204E+005    1.93227E+004   -2.02170E+005   -1.40178E+004   -3.27603E+004   -1.11900E+004    3.23603E+005    9.01422E+004    2.24504E+003
            6815    5.46876E+005    2.79920E+005   -3.51355E+005   -2.18641E+004   -3.51355E+005    6.31275E+005    3.10999E+004   -2.31578E+005   -2.41009E+004   -4.79085E+004   -2.12904E+004    3.10287E+005    5.65566E+004   -8.00901E+002
            6816    5.02307E+005    2.66255E+005   -3.13631E+005   -1.31456E+004   -3.13631E+005    5.79886E+005    2.01738E+004   -1.99793E+005   -1.79969E+004   -2.92893E+004   -1.32354E+004    2.87865E+005    3.41729E+004   -1.33631E+003
            6817    4.62989E+005    2.33233E+005   -3.01174E+005   -2.11003E+004   -3.01174E+005    5.34407E+005    2.96805E+004   -2.02209E+005   -2.20561E+004   -4.55775E+004   -2.14080E+004    2.66408E+005    1.67316E+004   -3.21811E+003
            6818    4.26506E+005    2.20730E+005   -2.71656E+005   -1.68438E+004   -2.71656E+005    4.92386E+005    2.25898E+004   -1.67519E+005   -1.72405E+004   -3.35336E+004   -1.69952E+004    2.45982E+005    4.51098E+003   -4.28351E+003
            6819    6.40577E+005    3.44467E+005   -3.95136E+005   -1.64357E+004   -3.95136E+005    7.39603E+005    2.23683E+004   -2.22074E+005   -1.57290E+004   -3.60950E+004   -1.52809E+004    3.64565E+005    6.10507E+004    1.80200E+003
            6820    5.95663E+005    3.02904E+005   -3.84684E+005   -2.56341E+004   -3.84684E+005    6.87587E+005    3.58047E+004   -2.53159E+005   -2.81917E+004   -5.38667E+004   -2.53557E+004    3.41430E+005    3.80883E+004   -3.27663E+002
            6821    5.47566E+005    2.89754E+005   -3.42385E+005   -1.49907E+004   -3.42385E+005    6.32139E+005    2.25405E+004   -2.16732E+005   -2.02638E+004   -3.23423E+004   -1.50153E+004    3.15161E+005    2.31625E+004   -8.05153E+002
            6822    5.05048E+005    2.53441E+005   -3.29507E+005   -2.38201E+004   -3.29507E+005    5.82948E+005    3.32952E+004   -2.21480E+005   -2.43894E+004   -5.15463E+004   -2.39497E+004    2.90915E+005    1.17666E+004   -2.16355E+003
            6823    4.65341E+005    2.39849E+005   -2.97363E+005   -1.90340E+004   -2.97363E+005    5.37212E+005    2.55160E+004   -1.84815E+005   -1.97389E+004   -3.77098E+004   -1.90992E+004    2.68422E+005    3.34597E+003   -2.73577E+003
            6824    6.76709E+005    3.63493E+005   -4.17831E+005   -1.79703E+004   -4.17831E+005    7.81324E+005    2.41029E+004   -2.32909E+005   -1.65052E+004   -3.79810E+004   -1.78226E+004    3.89921E+005    2.14615E+004    7.91378E+002
            6825    6.23260E+005    3.16289E+005   -4.03157E+005   -2.75882E+004   -4.03157E+005    7.19446E+005    3.81522E+004   -2.64242E+005   -3.01993E+004   -5.66970E+004   -2.75602E+004    3.59232E+005    1.32981E+004   -1.61122E+002
            6826    5.71586E+005    3.02095E+005   -3.57777E+005   -1.61700E+004   -3.57777E+005    6.59873E+005    2.39507E+004   -2.25278E+005   -2.15824E+004   -3.41006E+004   -1.61691E+004    3.29773E+005    8.26428E+003   -2.07561E+002
            6827    5.28634E+005    2.64566E+005   -3.45605E+005   -2.55943E+004   -3.45605E+005    6.10171E+005    3.55446E+004   -2.32077E+005   -2.57546E+004   -5.52695E+004   -2.56096E+004    3.04698E+005    4.27019E+003   -7.54754E+002
            6828    4.88494E+005    2.51331E+005   -3.12608E+005   -2.03369E+004   -3.12608E+005    5.63939E+005    2.72047E+004   -1.94610E+005   -2.12326E+004   -4.00365E+004   -2.03450E+004    2.81809E+005    1.17724E+003   -1.01630E+003
            6829    1.27555E+005    7.12696E+004   -7.59460E+004    1.64754E+003   -7.59460E+004    1.47216E+005    1.00962E+003   -5.79188E+004   -8.84294E+002   -4.19482E+003    2.05025E+003    5.04013E+004   -5.35242E+004    2.91767E+003
            6830    1.21160E+005    6.87893E+004   -7.10468E+004    2.62504E+003   -7.10468E+004    1.39836E+005   -1.22513E+002   -5.48593E+004    4.23466E+002   -2.44154E+003    2.38561E+003    6.37103E+004   -2.87463E+004    1.40881E+003
            6831    1.30360E+005    7.38563E+004   -7.66330E+004    1.52939E+003   -7.66330E+004    1.50489E+005    4.15776E+002   -5.29732E+004    3.29203E+002   -3.05568E+003    1.47914E+003    7.46111E+004   -9.59045E+003    4.90147E+002
            6832    8.44761E+004    4.56256E+004   -5.18045E+004    1.00276E+003   -5.18045E+004    9.74301E+004    1.72537E+003   -4.43672E+004   -1.26234E+003   -4.06721E+003    1.53437E+002    3.40764E+004   -3.46973E+004    3.00275E+003
            6833    8.84371E+004    4.63999E+004   -5.56192E+004   -7.11574E+002   -5.56192E+004    1.02019E+005    3.31031E+003   -4.50166E+004   -2.28097E+003   -6.41098E+003   -1.23898E+003    4.73177E+004   -1.89038E+004    1.79875E+003
            6834    9.85262E+004    5.17173E+004   -6.19817E+004   -1.69625E+003   -6.19817E+004    1.13699E+005    3.98688E+003   -4.64004E+004   -2.49041E+003   -7.71686E+003   -1.75336E+003    5.64289E+004   -6.37637E+003    5.92856E+002
            6835    5.10413E+004    2.80029E+004   -3.07420E+004    2.75327E+003   -3.07420E+004    5.87449E+004   -4.73680E+000   -3.17289E+004   -6.60756E+001   -4.82140E+002    5.62426E+002    2.44905E+004   -1.61523E+004    2.72912E+003
            6836    6.60402E+004    3.90199E+004    3.90199E+004    2.49353E+003   -3.72147E+004    7.62345E+004   -1.43291E+003   -2.75012E+004    1.23643E+003    1.34470E+003    1.71758E+003    3.70542E+004   -8.80588E+003    1.77340E+003
            6837    7.77019E+004    4.61586E+004    4.61586E+004    1.83047E+003   -4.35618E+004    8.97204E+004   -1.47574E+003   -2.12805E+004    1.28130E+003    1.39956E+003    1.74635E+003    4.47549E+004   -3.00962E+003    6.40697E+002
            6838    3.79169E+004    2.13360E+004   -2.24464E+004   -6.92000E+002   -2.24464E+004    4.37824E+004    6.00795E+002    8.38744E+003   -3.89376E+002   -9.26804E+002   -4.86205E+002    2.17054E+004    8.43522E+002    2.70401E+003
            6839    5.89088E+004    3.18403E+004   -3.61802E+004   -1.78406E+003   -3.61802E+004    6.80205E+004    2.04133E+003   -1.58968E+004   -1.55977E+003   -2.88588E+003   -1.67833E+003    3.39394E+004    9.73912E+002    1.83838E+003
            6840    7.17401E+004    3.89639E+004   -4.38712E+004   -1.81743E+003   -4.38712E+004    8.28350E+004    2.24157E+003   -2.14158E+004   -1.65427E+003   -3.26763E+003   -1.80281E+003    4.14014E+004    4.30428E+002    6.97734E+002
            6841    5.38327E+004    3.37089E+004    3.37089E+004   -1.48811E+003   -2.82613E+004    6.19701E+004   -1.31983E+003    3.31165E+004    8.97709E+002    2.72445E+003    3.37330E+002    2.53314E+004    1.77491E+004    2.77853E+003
            6842    6.99585E+004    4.42594E+004    4.42594E+004    9.26323E+002   -3.64484E+004    8.07078E+004   -2.91246E+003    3.52060E+004    1.96957E+003    5.20628E+003    1.56152E+003    3.88047E+004    1.08904E+004    1.73260E+003
            6843    8.17821E+004    5.13994E+004    5.13994E+004    1.74237E+003   -4.29917E+004    9.43911E+004   -3.38336E+003    3.66750E+004    2.13906E+003    6.21168E+003    1.79935E+003    4.70061E+004    3.68109E+003    5.38841E+002
            6844    8.83333E+004    5.30438E+004    5.30438E+004   -2.29230E+003   -4.88280E+004    1.01872E+005   -6.41164E+002    4.68239E+004    6.44459E+002    2.31819E+003   -1.03916E+003    3.58131E+004    3.61499E+004    2.95098E+003
            6845    9.44713E+004    5.51290E+004    5.51290E+004   -2.87839E+003   -5.38821E+004    1.09011E+005    5.43845E+002    4.54018E+004   -5.10411E+002    8.69472E+002   -1.99060E+003    5.03846E+004    2.07575E+004    1.84960E+003
            6846    1.05840E+005    6.16728E+004    6.16728E+004   -1.74808E+003   -6.05116E+004    1.22184E+005    1.95622E+002    4.27647E+004   -4.65730E+002    1.49823E+003   -1.61936E+003    6.06528E+004    7.23093E+003    7.33543E+002
            6847    4.26143E+005    2.20537E+005   -2.71429E+005   -1.68298E+004   -2.71429E+005    4.91967E+005    2.25739E+004   -1.67406E+005   -1.72338E+004   -3.35075E+004   -1.69805E+004    2.45773E+005   -4.48572E+003    4.28334E+003
            6848    4.63093E+005    2.33352E+005   -3.01174E+005   -2.10140E+004   -3.01174E+005    5.34526E+005    2.96120E+004   -2.02379E+005   -2.20182E+004   -4.54924E+004   -2.13255E+004    2.66464E+005   -1.67979E+004    3.24265E+003
            6849    5.02959E+005    2.66614E+005   -3.14024E+005   -1.31291E+004   -3.14024E+005    5.80638E+005    2.01797E+004   -2.00178E+005   -1.80034E+004   -2.93329E+004   -1.32029E+004    2.88222E+005   -3.43543E+004    1.27550E+003
            6850    5.47697E+005    2.80373E+005   -3.51851E+005   -2.18951E+004   -3.51851E+005    6.32224E+005    3.11245E+004   -2.31757E+005   -2.41118E+004   -4.79500E+004   -2.13118E+004    3.10707E+005   -5.68947E+004    7.93517E+002
            6851    5.82583E+005    3.14342E+005   -3.58303E+005   -1.38776E+004   -3.58303E+005    6.72644E+005    1.92795E+004   -2.02048E+005   -1.39673E+004   -3.27040E+004   -1.11671E+004    3.23833E+005   -9.01369E+004   -2.24866E+003
            6852    4.65113E+005    2.39759E+005   -2.97192E+005   -1.90317E+004   -2.97192E+005    5.36950E+005    2.54883E+004   -1.84513E+005   -1.97157E+004   -3.76535E+004   -1.90958E+004    2.68292E+005   -3.27560E+003    2.73750E+003
            6853    5.04529E+005    2.53120E+005   -3.29231E+005   -2.38931E+004   -3.29231E+005    5.82351E+005    3.33347E+004   -2.21067E+005   -2.44120E+004   -5.15693E+004   -2.40227E+004    2.90623E+005   -1.15820E+004    2.17740E+003
            6854    5.47271E+005    2.89434E+005   -3.42365E+005   -1.51322E+004   -3.42365E+005    6.31799E+005    2.26878E+004   -2.16710E+005   -2.03523E+004   -3.25540E+004   -1.51570E+004    3.14992E+005   -2.31255E+004    8.08190E+002
            6855    5.96556E+005    3.03502E+005   -3.85118E+005   -2.56098E+004   -3.85118E+005    6.88620E+005    3.57418E+004   -2.53092E+005   -2.80959E+004   -5.38024E+004   -2.53272E+004    3.41941E+005   -3.81577E+004    3.07610E+002
            6856    6.40997E+005    3.44881E+005   -3.95208E+005   -1.63319E+004   -3.95208E+005    7.40089E+005    2.22194E+004   -2.21606E+005   -1.55762E+004   -3.59173E+004   -1.51647E+004    3.64776E+005   -6.12606E+004   -1.83099E+003
            6857    4.88342E+005    2.51277E+005   -3.12486E+005   -2.03127E+004   -3.12486E+005    5.63763E+005    2.71740E+004   -1.94507E+005   -2.12135E+004   -3.99870E+004   -2.03213E+004    2.81721E+005   -1.22122E+003    1.03328E+003
            6858    5.28377E+005    2.64434E+005   -3.45439E+005   -2.55458E+004   -3.45439E+005    6.09873E+005    3.55169E+004   -2.32163E+005   -2.57315E+004   -5.52584E+004   -2.55608E+004    3.04548E+005   -4.29967E+003    7.38016E+002
            6859    5.71651E+005    3.02137E+005   -3.57810E+005   -1.61335E+004   -3.57810E+005    6.59947E+005    2.39353E+004   -2.25498E+005   -2.15532E+004   -3.41190E+004   -1.61337E+004    3.29812E+005   -8.20207E+003    2.28369E+002
            6860    6.23150E+005    3.16241E+005   -4.03078E+005   -2.75779E+004   -4.03078E+005    7.19319E+005    3.81381E+004   -2.64179E+005   -3.01999E+004   -5.66631E+004   -2.75512E+004    3.59174E+005   -1.31718E+004    1.70435E+002
            6861    6.76199E+005    3.63209E+005   -4.17527E+005   -1.79658E+004   -4.17527E+005    7.80736E+005    2.40947E+004   -2.32744E+005   -1.65273E+004   -3.79405E+004   -1.78162E+004    3.89618E+005   -2.16338E+004   -7.92906E+002
            6862    2.78108E+005    1.52632E+005   -1.68430E+005   -2.08886E+003   -1.68430E+005    3.21062E+005    5.96233E+003   -1.10449E+005   -4.93467E+003   -1.47644E+004    1.81212E+003    1.33331E+005   -8.90681E+004    1.32015E+003
            6863    3.30196E+005    1.80533E+005   -2.00669E+005   -3.50701E+003   -2.00669E+005    3.81202E+005    7.88095E+003   -1.28963E+005   -6.44448E+003   -1.84548E+004    1.25647E+003    1.61542E+005   -1.00736E+005    8.47703E+002
            6864    3.87319E+005    2.10287E+005   -2.36875E+005   -6.19272E+003   -2.36875E+005    4.47162E+005    1.09270E+004   -1.47277E+005   -8.91245E+003   -2.24959E+004   -1.37263E+003    1.93996E+005   -1.10707E+005    4.33613E+002
            6865    4.49313E+005    2.43958E+005   -2.74801E+005   -8.39003E+003   -2.74801E+005    5.18759E+005    1.30780E+004   -1.62075E+005   -1.01744E+004   -2.55628E+004   -3.49678E+003    2.33078E+005   -1.13315E+005   -8.55200E+002
            6866    5.16063E+005    2.78954E+005   -3.16876E+005   -1.11536E+004   -3.16876E+005    5.95830E+005    1.63583E+004   -1.84061E+005   -1.24544E+004   -2.94967E+004   -7.12391E+003    2.77707E+005   -1.07298E+005   -1.66948E+003
            6867    4.88886E+005    2.52499E+005   -3.11838E+005   -1.73485E+004   -3.11838E+005    5.64337E+005    2.55625E+004   -2.06667E+005   -1.96144E+004   -4.06031E+004   -1.64699E+004    2.73528E+005   -6.84010E+004    1.15223E+003
            6868    4.50638E+005    2.39463E+005   -2.80770E+005   -1.10049E+004   -2.80770E+005    5.20233E+005    1.74373E+004   -1.80437E+005   -1.54218E+004   -2.57551E+004   -1.11349E+004    2.56854E+005   -4.07236E+004    1.57953E+003
            6869    4.15440E+005    2.11130E+005   -2.68407E+005   -1.75329E+004   -2.68407E+005    4.79537E+005    2.49366E+004   -1.79097E+005   -1.87664E+004   -3.79859E+004   -1.80574E+004    2.38756E+005   -1.95301E+004    4.04346E+003
            6870    3.80811E+005    1.97974E+005   -2.41667E+005   -1.44791E+004   -2.41667E+005    4.39641E+005    1.93909E+004   -1.47419E+005   -1.46605E+004   -2.88108E+004   -1.47013E+004    2.19595E+005   -4.94194E+003    5.10180E+003
            6871    4.29592E+005    2.24229E+005   -2.71663E+005   -1.28640E+004   -2.71663E+005    4.95892E+005    2.00992E+004   -1.81748E+005   -1.50794E+004   -3.32413E+004   -1.19770E+004    2.36635E+005   -7.33871E+004    1.73113E+003
            6872    3.98565E+005    2.12610E+005   -2.47505E+005   -8.79552E+003   -2.47505E+005    4.60114E+005    1.45634E+004   -1.60319E+005   -1.27829E+004   -2.19060E+004   -9.00122E+003    2.26013E+005   -4.26888E+004    1.78278E+003
            6873    3.69051E+005    1.89673E+005   -2.36335E+005   -1.40419E+004   -2.36335E+005    4.26009E+005    2.02347E+004   -1.55944E+005   -1.52640E+004   -3.07466E+004   -1.46934E+004    2.11914E+005   -1.97696E+004    4.27237E+003
            6874    3.37709E+005    1.76692E+005   -2.13197E+005   -1.21712E+004   -2.13197E+005    3.89889E+005    1.62254E+004   -1.27645E+005   -1.22908E+004   -2.39453E+004   -1.24400E+004    1.94721E+005   -4.66201E+003    5.75641E+003
            6875    3.72349E+005    1.96873E+005   -2.32942E+005   -8.62438E+003   -2.32942E+005    4.29814E+005    1.48978E+004   -1.57549E+005   -1.10865E+004   -2.60182E+004   -7.58886E+003    2.02379E+005   -7.18268E+004    1.62956E+003
            6876    3.50923E+005    1.87689E+005   -2.17419E+005   -6.94740E+003   -2.17419E+005    4.05108E+005    1.22259E+004   -1.42983E+005   -1.05027E+004   -1.89151E+004   -7.25977E+003    1.98462E+005   -4.02711E+004    1.98397E+003
            6877    3.27947E+005    1.71130E+005   -2.07457E+005   -1.08907E+004   -2.07457E+005    3.78587E+005    1.57395E+004   -1.32858E+005   -1.17792E+004   -2.38609E+004   -1.15783E+004    1.88383E+005   -1.71090E+004    4.37591E+003
            6878    3.01090E+005    1.58699E+005   -1.88924E+005   -1.02453E+004   -1.88924E+005    3.47624E+005    1.34902E+004   -1.09786E+005   -1.02884E+004   -1.97076E+004   -1.04745E+004    1.73621E+005   -3.55103E+003    5.69889E+003
            6879    3.20644E+005    1.71404E+005   -1.98712E+005   -5.12631E+003   -1.98712E+005    3.70116E+005    1.08114E+004   -1.37994E+005   -7.81326E+003   -2.02914E+004   -4.32951E+003    1.73115E+005   -6.50264E+004    1.78940E+003
            6880    3.07849E+005    1.65834E+005   -1.89553E+005   -5.04651E+003   -1.89553E+005    3.55387E+005    9.58861E+003   -1.24629E+005   -8.06294E+003   -1.52870E+004   -5.41585E+003    1.74503E+005   -3.33054E+004    1.94483E+003
            6881    2.94525E+005    1.55854E+005   -1.84171E+005   -8.44248E+003   -1.84171E+005    3.40025E+005    1.22533E+004   -1.14135E+005   -8.93177E+003   -1.88506E+004   -8.97756E+003    1.69458E+005   -1.22398E+004    4.08126E+003
            6882    2.72551E+005    1.45131E+005   -1.69553E+005   -8.42706E+003   -1.69553E+005    3.14684E+005    1.09496E+004   -9.44660E+004   -8.47907E+003   -1.57915E+004   -8.57814E+003    1.57178E+005   -2.03199E+003    5.89356E+003
            6883    2.68227E+005    1.45427E+005   -1.64187E+005   -2.28849E+003   -1.64187E+005    3.09614E+005    7.01621E+003   -1.15210E+005   -4.94679E+003   -1.47407E+004   -1.36115E+003    1.46023E+005   -5.10945E+004    8.55632E+002
            6884    2.74811E+005    1.48941E+005   -1.68304E+005   -3.52880E+003   -1.68304E+005    3.17245E+005    7.63048E+003   -1.11682E+005   -5.96696E+003   -1.30518E+004   -3.87266E+003    1.57082E+005   -2.17290E+004    1.90166E+003
            6885    2.68284E+005    1.44331E+005   -1.65415E+005   -6.17035E+003   -1.65415E+005    3.09746E+005    9.08464E+003   -9.80830E+004   -6.56076E+003   -1.42085E+004   -6.48469E+003    1.54640E+005   -6.63384E+003    3.83845E+003
            6886    2.50774E+005    1.34904E+005   -1.54643E+005   -6.76440E+003   -1.54643E+005    2.89547E+005    8.83450E+003   -8.36682E+004   -6.74953E+003   -1.29827E+004   -6.77124E+003    1.44637E+005   -9.05498E+001    5.44748E+003
            6887    2.34258E+005    1.28527E+005   -1.41962E+005   -4.79910E+003   -1.41962E+005    2.70489E+005    6.07786E+003   -6.80954E+004   -4.09573E+003   -9.40445E+003   -4.73339E+003    1.35079E+005    7.43161E+002    6.08953E+003
            6888    2.12507E+005    1.14538E+005   -1.30763E+005   -2.65514E+003   -1.30763E+005    2.45301E+005    6.29321E+003   -9.03960E+004   -4.13659E+003   -1.21466E+004   -2.59640E+003    1.22494E+005    7.44578E+002    4.62453E+003
            6889    2.48407E+005    1.33520E+005   -1.53252E+005   -4.64183E+003   -1.53252E+005    2.86772E+005    8.12449E+003   -9.88701E+004   -6.13466E+003   -1.35664E+004   -4.67239E+003    1.43284E+005   -5.83300E+002    3.90545E+003
            6890    2.29271E+005    1.26318E+005   -1.38356E+005   -9.50592E+002   -1.38356E+005    2.64674E+005    4.32943E+003   -9.27821E+004   -3.14249E+003   -8.91342E+003   -9.32370E+002    1.32296E+005    1.02794E+003    1.13023E+003
            6891    2.50817E+005    1.38906E+005   -1.50646E+005   -5.11411E+002   -1.50646E+005    2.89552E+005    4.08402E+003   -1.00357E+005   -2.52198E+003   -9.15873E+003   -5.71358E+002    1.44355E+005   -1.05119E+004    7.26471E+002
            6892    2.33413E+005    1.32382E+005   -1.37124E+005    2.14614E+002   -1.37124E+005    2.69505E+005    1.50916E+003   -7.50396E+004   -2.11218E+002   -4.52593E+003    2.09659E+002    1.34717E+005   -2.22678E+003    1.89052E+002
            6893    2.32720E+005    1.26745E+005   -1.41899E+005   -1.98863E+003   -1.41899E+005    2.68645E+005    5.71429E+003   -9.68092E+004   -3.77906E+003   -1.18960E+004   -1.46783E+003    1.31222E+005   -2.83499E+004   -1.33832E+002
            6894    2.23286E+005    1.23806E+005   -1.33980E+005   -1.05261E+003   -1.33980E+005    2.57787E+005    3.74210E+003   -8.44901E+004   -1.80830E+003   -8.42726E+003   -9.90747E+002    1.28667E+005   -6.85779E+003   -3.83532E+002
            6895    2.01916E+005    1.14341E+005   -1.18783E+005    9.10952E+002   -1.18783E+005    2.33124E+005    1.17688E+003   -7.26167E+004    5.75106E+001   -4.59447E+003    1.00631E+003    1.16067E+005   -1.04598E+004   -2.80799E+002
            6896    1.68348E+005    9.11832E+004   -1.03138E+005   -1.44110E+003   -1.03138E+005    1.94321E+005    4.46524E+003   -7.27674E+004   -2.27929E+003   -9.82060E+003   -1.29583E+003    9.63817E+004   -1.16542E+004   -9.36320E+001
            6897    2.02478E+005    1.13586E+005   -1.20164E+005    9.89585E+002   -1.20164E+005    2.33750E+005    1.86299E+003   -8.07203E+004   -1.01923E+003   -6.72333E+003    2.15360E+003    1.10104E+005   -3.90208E+004   -2.73400E+002
            6898    1.60346E+005    8.71431E+004   -9.79390E+004   -1.00915E+003   -9.79390E+004    1.85082E+005    3.93501E+003   -6.96706E+004   -2.46542E+003   -9.40211E+003    6.24980E+001    8.48177E+004   -3.67676E+004    5.85248E+002
            6899    1.75019E+005    9.71120E+004   -1.04935E+005   -1.17054E+002   -1.04935E+005    2.02047E+005    2.64674E+003   -7.03708E+004   -1.97974E+003   -8.38105E+003    2.42057E+003    7.28630E+004   -6.97502E+004    2.63515E+003
            6900    2.29593E+005    1.27251E+005   -1.37798E+005   -3.06241E+002   -1.37798E+005    2.65049E+005    3.61788E+003   -9.22501E+004   -2.88876E+003   -1.09212E+004    2.95632E+003    1.03742E+005   -8.21917E+004    2.15193E+003
            6901    3.27062E+005    1.75589E+005   -2.01944E+005   -4.75870E+003   -2.01944E+005    3.77533E+005    1.03712E+004   -1.39235E+005   -8.64361E+003   -1.99310E+004   -2.53905E+003    1.71441E+005   -7.86484E+004    1.06592E+003
            6902    3.78662E+005    2.02225E+005   -2.34908E+005   -7.89154E+003   -2.34908E+005    4.37132E+005    1.35250E+004   -1.53721E+005   -1.13075E+004   -2.42809E+004   -4.98647E+003    1.99771E+005   -8.82590E+004    3.37285E+002
            6903    4.40828E+005    2.34164E+005   -2.74754E+005   -1.13199E+004   -2.74754E+005    5.08918E+005    1.73031E+004   -1.73573E+005   -1.44240E+004   -2.91449E+004   -8.34053E+003    2.35806E+005   -9.51710E+004   -9.02637E+001
            6904    5.05327E+005    2.67617E+005   -3.15779E+005   -1.44743E+004   -3.15779E+005    5.83396E+005    2.08788E+004   -1.94482E+005   -1.71344E+004   -3.36544E+004   -1.18476E+004    2.76695E+005   -9.18053E+004   -7.73777E+002
            6905    4.49377E+005    2.33900E+005   -2.84845E+005   -1.46625E+004   -2.84845E+005    5.18745E+005    2.18691E+004   -1.87044E+005   -1.68690E+004   -3.37754E+004   -1.49630E+004    2.56482E+005   -3.76398E+004    2.42646E+003
            6906    3.88923E+005    1.99368E+005   -2.49607E+005   -1.63518E+004   -2.49607E+005    4.48975E+005    2.21972E+004   -1.58423E+005   -1.77735E+004   -3.21124E+004   -1.67056E+004    2.24154E+005   -8.85805E+003    4.79441E+003
            6907    3.95981E+005    2.07936E+005   -2.49178E+005   -1.13357E+004   -2.49178E+005    4.57114E+005    1.75260E+004   -1.63425E+005   -1.35234E+004   -2.73306E+004   -1.17239E+004    2.25198E+005   -3.83894E+004    2.50195E+003
            6908    3.42348E+005    1.76596E+005   -2.18623E+005   -1.36676E+004   -2.18623E+005    3.95219E+005    1.85649E+004   -1.37177E+005   -1.49151E+004   -2.66975E+004   -1.40822E+004    1.97288E+005   -8.22347E+003    5.25388E+003
            6909    3.46522E+005    1.83716E+005   -2.16303E+005   -8.17623E+003   -2.16303E+005    4.00019E+005    1.35876E+004   -1.42962E+005   -1.02874E+004   -2.17572E+004   -8.71825E+003    1.96795E+005   -3.52049E+004    2.72972E+003
            6910    3.00844E+005    1.57040E+005   -1.90280E+005   -1.08483E+004   -1.90280E+005    3.47321E+005    1.46961E+004   -1.16135E+005   -1.19095E+004   -2.08892E+004   -1.12897E+004    1.73375E+005   -6.96782E+003    5.70494E+003
            6911    2.96020E+005    1.59222E+005   -1.82514E+005   -5.32603E+003   -1.82514E+005    3.41736E+005    9.53963E+003   -1.18417E+005   -7.03800E+003   -1.56876E+004   -5.89324E+003    1.68650E+005   -2.70386E+004    2.59973E+003
            6912    2.68482E+005    1.42254E+005   -1.67725E+005   -8.60506E+003   -1.67725E+005    3.09980E+005    1.13587E+004   -9.62949E+004   -9.10669E+003   -1.62019E+004   -8.76741E+003    1.54840E+005   -2.38026E+003    5.35759E+003
            6913    2.45273E+005    1.33662E+005   -1.49540E+005   -5.47405E+003   -1.49540E+005    2.83202E+005    7.11752E+003   -7.63376E+004   -5.08270E+003   -1.07295E+004   -5.54038E+003    1.41453E+005   -8.04085E+002    5.79230E+003
            6914    2.17624E+005    1.17755E+005   -1.33469E+005   -2.88084E+003   -1.33469E+005    2.51225E+005    6.19835E+003   -8.90660E+004   -4.19603E+003   -1.15178E+004   -2.88128E+003    1.25483E+005   -2.93039E+001    4.37874E+003
            6915    2.59127E+005    1.39498E+005   -1.59631E+005   -3.89752E+003   -1.59631E+005    2.99129E+005    8.01046E+003   -1.07486E+005   -6.02094E+003   -1.37648E+004   -4.24560E+003    1.49081E+005   -1.11389E+004    2.70041E+003
            6916    2.31944E+005    1.28520E+005   -1.39254E+005   -8.25853E+002   -1.39254E+005    2.67774E+005    3.85317E+003   -9.01443E+004   -2.56575E+003   -8.15877E+003   -8.35000E+002    1.33853E+005   -8.90119E+002    7.15438E+002
            6917    2.31175E+005    1.30763E+005   -1.36158E+005   -8.92008E+001   -1.36158E+005    2.66921E+005    1.82802E+003   -7.47754E+004   -3.72571E+002   -5.02611E+003   -8.53700E+001    1.33370E+005   -4.32706E+003    2.10535E+001
            6918    2.13803E+005    1.18164E+005   -1.28667E+005   -1.05451E+003   -1.28667E+005    2.46831E+005    3.85274E+003   -8.31700E+004   -1.79167E+003   -8.87305E+003   -8.93510E+002    1.22955E+005   -9.98667E+003   -6.73075E+002
            6919    1.78962E+005    1.00947E+005   -1.05660E+005    1.19729E+003   -1.05660E+005    2.06607E+005    1.17216E+003   -6.98851E+004   -8.20012E+001   -4.68861E+003    1.25413E+003    1.02589E+005   -1.18987E+004    9.64843E+001
            6920    1.39568E+005    7.45420E+004   -8.65384E+004   -1.64435E+003   -8.65384E+004    1.61080E+005    4.54692E+003   -6.33384E+004   -2.38676E+003   -9.67340E+003   -1.58061E+003    7.98680E+004   -9.70683E+003    2.25956E+002
            6921    2.47839E+005    1.37014E+005   -1.49095E+005   -5.04869E+002   -1.49095E+005    2.86109E+005    4.19534E+003   -1.00643E+005   -2.77923E+003   -9.77327E+003   -3.35293E+001    1.40344E+005   -2.74431E+004   -2.97718E+002
            6922    2.10087E+005    1.14928E+005   -1.27590E+005   -1.28825E+003   -1.27590E+005    2.42518E+005    4.64990E+003   -8.73795E+004   -2.97300E+003   -1.10493E+004    7.26380E+001    1.14823E+005   -3.86620E+004   -3.74983E+002
            6923    1.67423E+005    9.44581E+004   -9.88061E+004    1.95445E+003   -9.88061E+004    1.93264E+005    7.97880E+002   -7.02635E+004   -3.25511E+002   -4.69841E+003    2.63028E+003    8.93626E+004   -3.66591E+004    5.42549E+002
            6924    1.29627E+005    6.97142E+004   -7.98892E+004   -9.45081E+002   -7.98892E+004    1.49603E+005    3.70670E+003   -5.93004E+004   -2.19586E+003   -8.38186E+003   -5.42378E+002    6.83751E+004   -3.01229E+004    1.18245E+003
            6925    1.31042E+005    7.23635E+004   -7.88965E+004    2.51739E+002   -7.88965E+004    1.51260E+005    2.09373E+003   -5.65739E+004   -1.44534E+003   -6.16161E+003    1.32576E+003    5.23765E+004   -5.43917E+004    2.81735E+003
            6926    1.79218E+005    9.99834E+004   -1.06900E+005    8.38871E+002   -1.06900E+005    2.06884E+005    2.02596E+003   -7.45155E+004   -1.73112E+003   -7.24197E+003    2.89522E+003    7.58908E+004   -7.01020E+004    2.62483E+003
            6927    2.25644E+005    1.24670E+005   -1.35826E+005   -9.30763E+002   -1.35826E+005    2.60496E+005    4.02880E+003   -8.91868E+004   -3.12233E+003   -1.13843E+004    2.42024E+003    1.02703E+005   -7.98243E+004    1.91187E+003
            6928    2.81319E+005    1.53545E+005   -1.71182E+005   -1.40377E+003   -1.71182E+005    3.24727E+005    6.34692E+003   -1.20708E+005   -4.99961E+003   -1.51699E+004    1.12880E+003    1.40505E+005   -8.10412E+004    1.78066E+003
            6929    4.36164E+005    2.22866E+005   -2.80639E+005   -1.88261E+004   -2.80639E+005    5.03505E+005    2.55330E+004   -1.79023E+005   -2.03157E+004   -3.72366E+004   -1.90467E+004    2.51462E+005   -7.87443E+003    3.81432E+003
            6930    5.01041E+005    2.58827E+005   -3.19550E+005   -1.80124E+004   -3.19550E+005    5.78377E+005    2.62454E+004   -2.10244E+005   -2.02950E+004   -4.02591E+004   -1.81821E+004    2.87258E+005   -3.18050E+004    1.99816E+003
            6931    5.69007E+005    3.00160E+005   -3.56759E+005   -1.77384E+004   -3.56759E+005    6.56919E+005    2.47794E+004   -2.17250E+005   -2.02952E+004   -3.81104E+004   -1.59326E+004    3.18884E+005   -7.80798E+004   -1.19143E+003
            6932    4.75649E+005    2.42837E+005   -3.06249E+005   -2.07203E+004   -3.06249E+005    5.49086E+005    2.80442E+004   -1.95317E+005   -2.22138E+004   -4.11064E+004   -2.08125E+004    2.74316E+005   -5.47364E+003    2.51375E+003
            6933    5.43692E+005    2.79249E+005   -3.48357E+005   -2.09873E+004   -3.48357E+005    6.27606E+005    3.00317E+004   -2.29075E+005   -2.30696E+004   -4.59679E+004   -2.10575E+004    3.12874E+005   -2.12218E+004    1.36477E+003
            6934    6.23270E+005    3.28081E+005   -3.91492E+005   -2.04716E+004   -3.91492E+005    7.19573E+005    2.79611E+004   -2.35654E+005   -2.27115E+004   -4.15055E+004   -1.96662E+004    3.55699E+005   -5.31522E+004   -1.12249E+003
            6935    4.98575E+005    2.54540E+005   -3.21013E+005   -2.17682E+004   -3.21013E+005    5.75553E+005    2.94137E+004   -2.04452E+005   -2.32206E+004   -4.32419E+004   -2.17787E+004    2.87595E+005   -1.93199E+003    8.55555E+002
            6936    5.67559E+005    2.90529E+005   -3.64623E+005   -2.27085E+004   -3.64623E+005    6.55152E+005    3.22674E+004   -2.40118E+005   -2.47615E+004   -4.93237E+004   -2.27170E+004    3.27266E+005   -7.19000E+003    4.85768E+002
            6937    6.56094E+005    3.44875E+005   -4.12596E+005   -2.21264E+004   -4.12596E+005    7.57471E+005    2.99492E+004   -2.47423E+005   -2.43086E+004   -4.35161E+004   -2.20230E+004    3.78128E+005   -1.91242E+004   -4.81249E+002
            6938    1.31152E+005    7.71160E+004    7.71160E+004   -1.52926E+003   -7.42873E+004    1.51403E+005   -4.33131E+002    5.33440E+004   -3.22061E+002    3.10234E+003   -1.48088E+003    7.50603E+004    9.67790E+003    4.86192E+002
            6939    1.21616E+005    7.13252E+004    7.13252E+004   -2.62845E+003   -6.90378E+004    1.40363E+005    1.13697E+002    5.50865E+004   -4.21037E+002    2.47031E+003   -2.39037E+003    6.38878E+004    2.89921E+004    1.41970E+003
            6940    1.27380E+005    7.58587E+004    7.58587E+004   -1.64181E+003   -7.11550E+004    1.47014E+005   -1.02064E+003    5.79041E+004    8.95327E+002    4.19970E+003   -2.03311E+003    5.04072E+004    5.33805E+004    2.91337E+003
            6941    9.90584E+004    6.23004E+004    6.23004E+004    1.68725E+003   -5.20128E+004    1.14313E+005   -3.99162E+003    4.66603E+004    2.49131E+003    7.74100E+003    1.74255E+003    5.67301E+004    6.44445E+003    5.87284E+002
            6942    8.85914E+004    5.56902E+004    5.56902E+004    7.11005E+002   -4.65081E+004    1.02198E+005   -3.29770E+003    4.49997E+004    2.27210E+003    6.39454E+003    1.22647E+003    4.73884E+004    1.89697E+004    1.78162E+003
            6943    8.46356E+004    5.18879E+004    5.18879E+004   -1.00660E+003   -4.57268E+004    9.76147E+004   -1.71815E+003    4.44049E+004    1.25199E+003    4.06725E+003   -1.64796E+002    3.41280E+004    3.47757E+004    3.00264E+003
            6944    7.78855E+004    4.37043E+004   -4.62278E+004   -1.82992E+003   -4.62278E+004    8.99321E+004    1.45113E+003    2.17854E+004   -1.26353E+003   -1.34631E+003   -1.74354E+003    4.48577E+004    3.05718E+003    6.50986E+002
            6945    6.61378E+004    3.72938E+004   -3.90530E+004   -2.48425E+003   -3.90530E+004    7.63469E+004    1.41448E+003    2.76071E+004   -1.22466E+003   -1.31486E+003   -1.70390E+003    3.71101E+004    8.81220E+003    1.78635E+003
            6946    5.13460E+004    3.09292E+004    3.09292E+004   -2.73743E+003   -2.81690E+004    5.90983E+004   -7.58225E+000    3.18427E+004    7.98118E+001    5.01578E+002   -5.58644E+002    2.46087E+004    1.62953E+004    2.71875E+003
            6947    7.16762E+004    4.38532E+004    4.38532E+004    1.81476E+003   -3.89079E+004    8.27611E+004   -2.25337E+003    2.16437E+004    1.65577E+003    3.30325E+003    1.80109E+003    4.13646E+004   -4.10463E+002    6.83570E+002
            6948    5.88460E+004    3.61481E+004    3.61481E+004    1.77450E+003   -3.17998E+004    6.79479E+004   -2.04095E+003    1.60723E+004    1.55729E+003    2.89275E+003    1.67279E+003    3.39046E+004   -9.43451E+002    1.82357E+003
            6949    3.78513E+004    2.24476E+004    2.24476E+004    6.38659E+002   -2.12593E+004    4.37069E+004   -6.09004E+002   -5.76086E+003    3.91643E+002    9.48392E+002    4.86977E+002    2.16732E+004   -6.19931E+002    2.71521E+003
            6950    8.14114E+004    4.27893E+004   -5.11742E+004   -1.75216E+003   -5.11742E+004    9.39635E+004    3.37903E+003   -3.64590E+004   -2.13566E+003   -6.18832E+003   -1.81310E+003    4.67943E+004   -3.64662E+003    5.63908E+002
            6951    6.98945E+004    3.64247E+004   -4.42092E+004   -9.13722E+002   -4.42092E+004    8.06338E+004    2.89940E+003   -3.51818E+004   -1.95748E+003   -5.19028E+003   -1.55043E+003    3.87731E+004   -1.08658E+004    1.73560E+003
            6952    5.34337E+004    2.80507E+004   -3.34602E+004    1.47341E+003   -3.34602E+004    6.15110E+004    1.31204E+003   -3.28645E+004   -8.89745E+002   -2.70233E+003   -3.44036E+002    2.52999E+004   -1.73927E+004    2.75722E+003
            6953    1.05281E+005    6.01921E+004   -6.13471E+004    1.71721E+003   -6.13471E+004    1.21539E+005   -1.87410E+002   -4.24057E+004    4.56362E+002   -1.48830E+003    1.59417E+003    6.03282E+004   -7.23045E+003    7.05524E+002
            6954    9.45488E+004    5.39079E+004   -5.51925E+004    2.86427E+003   -5.51925E+004    1.09100E+005   -5.26542E+002   -4.54472E+004    4.94650E+002   -8.95802E+002    1.98078E+003    5.04605E+004   -2.06902E+004    1.84833E+003
            6955    8.77694E+004    4.85016E+004   -5.27175E+004    2.30590E+003   -5.27175E+004    1.01219E+005    6.36648E+002   -4.66715E+004   -6.39813E+002   -2.29993E+003    1.02980E+003    3.55939E+004   -3.59078E+004    2.95902E+003
            6956    5.69376E+005    3.00375E+005   -3.56970E+005   -1.77312E+004   -3.56970E+005    6.57345E+005    2.47753E+004   -2.17376E+005   -2.02901E+004   -3.81141E+004   -1.59216E+004    3.19090E+005    7.81345E+004    1.19754E+003
            6957    5.00984E+005    2.58760E+005   -3.19551E+005   -1.80281E+004   -3.19551E+005    5.78311E+005    2.62729E+004   -2.10328E+005   -2.03143E+004   -4.03012E+004   -1.82031E+004    2.87253E+005    3.15382E+004   -2.01999E+003
            6958    4.36721E+005    2.23142E+005   -2.81005E+005   -1.88655E+004   -2.81005E+005    5.04148E+005    2.55761E+004   -1.79208E+005   -2.03467E+004   -3.72980E+004   -1.90836E+004    2.51785E+005    7.83156E+003   -3.79672E+003
            6959    6.23699E+005    3.28293E+005   -3.91775E+005   -2.05098E+004   -3.91775E+005    7.20068E+005    2.79974E+004   -2.35743E+005   -2.27427E+004   -4.15366E+004   -1.97128E+004    3.55991E+005    5.28785E+004    1.11998E+003
            6960    5.43131E+005    2.78936E+005   -3.48021E+005   -2.09613E+004   -3.48021E+005    6.26957E+005    3.00156E+004   -2.29001E+005   -2.30601E+004   -4.59555E+004   -2.10311E+004    3.12552E+005    2.11724E+004   -1.36233E+003
            6961    4.75793E+005    2.42904E+005   -3.06347E+005   -2.07292E+004   -3.06347E+005    5.49251E+005    2.80574E+004   -1.95395E+005   -2.22261E+004   -4.11261E+004   -2.08201E+004    2.74400E+005    5.43885E+003   -2.49651E+003
            6962    6.56334E+005    3.44997E+005   -4.12751E+005   -2.21381E+004   -4.12751E+005    7.57748E+005    2.99640E+004   -2.47516E+005   -2.43197E+004   -4.35318E+004   -2.20404E+004    3.78291E+005    1.86605E+004    4.62346E+002
            6963    5.67178E+005    2.90329E+005   -3.64383E+005   -2.26876E+004   -3.64383E+005    6.54712E+005    3.22469E+004   -2.40014E+005   -2.47445E+004   -4.93006E+004   -2.26956E+004    3.27038E+005    7.55524E+003   -4.80927E+002
            6964    4.98526E+005    2.54513E+005   -3.20983E+005   -2.17734E+004   -3.20983E+005    5.75496E+005    2.94143E+004   -2.04397E+005   -2.32208E+004   -4.32378E+004   -2.17842E+004    2.87566E+005    1.98660E+003   -8.53620E+002
            6965    2.50237E+005    1.54286E+005    1.54286E+005    6.71327E+003   -1.34640E+005    2.88926E+005   -8.78655E+003    8.35914E+004    6.71714E+003    1.29269E+004    6.71557E+003    1.44326E+005    3.04451E+001    5.47334E+003
            6966    2.71685E+005    1.68962E+005    1.68962E+005    8.37571E+003   -1.44724E+005    3.13685E+005   -1.08712E+004    9.39280E+004    8.41420E+003    1.56796E+004    8.51967E+003    1.56680E+005    1.93496E+003    5.87567E+003
            6967    3.00393E+005    1.88422E+005    1.88422E+005    1.02017E+004   -1.58397E+005    3.46820E+005   -1.34089E+004    1.09191E+005    1.02198E+004    1.95806E+004    1.04263E+004    1.73221E+005    3.45787E+003    5.71776E+003
            6968    3.37442E+005    2.13004E+005    2.13004E+005    1.21402E+004   -1.76578E+005    3.89581E+005   -1.61888E+004    1.27519E+005    1.22618E+004    2.38999E+004    1.24047E+004    1.94569E+005    4.57426E+003    5.76575E+003
            6969    3.80764E+005    2.41600E+005    2.41600E+005    1.44478E+004   -1.97986E+005    4.39586E+005   -1.93539E+004    1.47349E+005    1.46302E+004    2.87610E+004    1.46705E+004    2.19568E+005    4.94810E+003    5.10484E+003
            6970    2.68129E+005    1.65275E+005    1.65275E+005    6.15894E+003   -1.44293E+005    3.09568E+005   -9.04688E+003    9.77490E+004    6.51793E+003    1.41499E+004    6.47282E+003    1.54550E+005    6.67006E+003    3.81098E+003
            6971    2.94040E+005    1.83849E+005    1.83849E+005    8.45259E+003   -1.55616E+005    3.39466E+005   -1.22285E+004    1.13661E+005    8.92549E+003    1.87856E+004    8.97444E+003    1.69208E+005    1.18102E+004    4.10031E+003
            6972    3.27165E+005    2.06983E+005    2.06983E+005    1.08954E+004   -1.70702E+005    3.77685E+005   -1.57252E+004    1.32474E+005    1.17613E+004    2.38321E+004    1.15823E+004    1.87949E+005    1.68965E+004    4.40350E+003
            6973    3.68912E+005    2.36295E+005    2.36295E+005    1.41118E+004   -1.89554E+005    4.25849E+005   -2.02845E+004    1.55736E+005    1.52866E+004    3.08060E+004    1.47607E+004    2.11856E+005    1.95199E+004    4.29165E+003
            6974    4.14961E+005    2.68158E+005    2.68158E+005    1.75385E+004   -2.10825E+005    4.78983E+005   -2.49571E+004    1.79078E+005    1.87694E+004    3.80420E+004    1.80598E+004    2.38500E+005    1.92404E+004    4.05903E+003
            6975    2.74673E+005    1.68216E+005    1.68216E+005    3.50799E+003   -1.48868E+005    3.17085E+005   -7.61871E+003    1.11727E+005    5.95892E+003    1.30581E+004    3.83916E+003    1.56966E+005    2.19823E+004    1.85118E+003
            6976    3.07976E+005    1.89657E+005    1.89657E+005    5.05977E+003   -1.65875E+005    3.55532E+005   -9.61376E+003    1.24772E+005    8.07293E+003    1.53342E+004    5.43414E+003    1.74592E+005    3.32254E+004    1.96123E+003
            6977    3.51681E+005    2.17921E+005    2.17921E+005    7.01116E+003   -1.88062E+005    4.05983E+005   -1.22902E+004    1.43194E+005    1.05534E+004    1.89855E+004    7.33170E+003    1.98980E+005    3.99166E+004    2.00003E+003
            6978    3.98963E+005    2.47770E+005    2.47770E+005    8.84241E+003   -2.12805E+005    4.60575E+005   -1.46026E+004    1.60355E+005    1.28128E+004    2.19296E+004    9.06543E+003    2.26278E+005    4.25269E+004    1.82323E+003
            6979    4.50472E+005    2.80699E+005    2.80699E+005    1.10144E+004   -2.39342E+005    5.20041E+005   -1.74573E+004    1.80491E+005    1.54310E+004    2.57948E+004    1.11462E+004    2.56839E+005    4.02038E+004    1.57794E+003
            6980    2.68176E+005    1.64153E+005    1.64153E+005    2.30321E+003   -1.45402E+005    3.09555E+005   -7.01826E+003    1.15092E+005    4.93976E+003    1.47317E+004    1.38330E+003    1.46036E+005    5.09681E+004    8.53113E+002
            6981    3.21155E+005    1.99057E+005    1.99057E+005    5.17240E+003   -1.71649E+005    3.70707E+005   -1.08601E+004    1.38162E+005    7.86652E+003    2.03257E+004    4.38794E+003    1.73442E+005    6.49977E+004    1.79455E+003
            6982    3.73606E+005    2.33786E+005    2.33786E+005    8.71474E+003   -1.97479E+005    4.31265E+005   -1.50073E+004    1.58064E+005    1.11762E+004    2.61633E+004    7.68252E+003    2.03207E+005    7.16593E+004    1.61473E+003
            6983    4.30662E+005    2.72402E+005    2.72402E+005    1.29708E+004   -2.24725E+005    4.97128E+005   -2.02160E+004    1.82133E+005    1.51788E+004    3.33810E+004    1.20882E+004    2.37284E+005    7.33778E+004    1.72999E+003
            6984    4.89132E+005    3.12005E+005    3.12005E+005    1.73560E+004   -2.52616E+005    5.64621E+005   -2.55814E+004    2.06832E+005    1.96413E+004    4.06125E+004    1.64904E+004    2.73729E+005    6.81832E+004    1.16012E+003
            6985    5.15549E+005    3.16548E+005    3.16548E+005    1.11287E+004   -2.78688E+005    5.95237E+005   -1.63295E+004    1.83893E+005    1.24423E+004    2.94794E+004    7.06677E+003    2.77236E+005    1.07692E+005   -1.66251E+003
            6986    4.48248E+005    2.74149E+005    2.74149E+005    8.37474E+003   -2.43380E+005    5.17529E+005   -1.30479E+004    1.61649E+005    1.01418E+004    2.55241E+004    3.47773E+003    2.32387E+005    1.13329E+005   -8.36317E+002
            6987    3.86441E+005    2.36305E+005    2.36305E+005    6.12390E+003   -2.09843E+005    4.46148E+005   -1.08618E+004    1.47092E+005    8.84261E+003    2.24384E+004    1.30434E+003    1.93523E+005    1.10510E+005    4.43206E+002
            6988    3.30126E+005    2.00634E+005    2.00634E+005    3.50649E+003   -1.80486E+005    3.81121E+005   -7.88482E+003    1.28988E+005    6.43977E+003    1.84470E+004   -1.23230E+003    1.61563E+005    1.00628E+005    8.55057E+002
            6989    2.77896E+005    1.68321E+005    1.68321E+005    2.07316E+003   -1.52495E+005    3.20816E+005   -5.96656E+003    1.10582E+005    4.93719E+003    1.47808E+004   -1.81830E+003    1.33193E+005    8.90520E+004    1.34414E+003
            6990    2.28993E+005    1.37452E+005    1.37452E+005    3.10521E+002   -1.26904E+005    2.64356E+005   -3.61967E+003    9.20661E+004    2.89091E+003    1.09077E+004   -2.93955E+003    1.03524E+005    8.19086E+004    2.14431E+003
            6991    1.74507E+005    1.04611E+005    1.04611E+005    1.03331E+002   -9.68449E+004    2.01456E+005   -2.62319E+003    7.01425E+004    1.95690E+003    8.32990E+003   -2.41722E+003    7.26879E+004    6.95076E+004    2.62044E+003
            6992    1.61028E+005    9.83429E+004    9.83429E+004    1.01611E+003   -8.75275E+004    1.85870E+005   -3.94386E+003    6.98833E+004    2.48216E+003    9.42694E+003   -7.75075E+001    8.51438E+004    3.70054E+004    5.71862E+002
            6993    1.69186E+005    1.03611E+005    1.03611E+005    1.45062E+003   -9.16779E+004    1.95289E+005   -4.46128E+003    7.29003E+004    2.27225E+003    9.80867E+003    1.30291E+003    9.68688E+004    1.16614E+004   -1.09943E+002
            6994    2.02820E+005    1.20365E+005    1.20365E+005   -9.90624E+002   -1.13779E+005    2.34145E+005   -1.86525E+003    8.08423E+004    1.02061E+003    6.72576E+003   -2.15062E+003    1.10312E+005    3.90259E+004   -2.72385E+002
            6995    2.02270E+005    1.18966E+005    1.18966E+005   -9.25565E+002   -1.14567E+005    2.33533E+005   -1.15783E+003    7.26500E+004   -7.48935E+001    4.56713E+003   -1.01874E+003    1.16276E+005    1.04187E+004   -2.73658E+002
            6996    2.23363E+005    1.34017E+005    1.34017E+005    1.04471E+003   -1.23858E+005    2.57875E+005   -3.73438E+003    8.45112E+004    1.80402E+003    8.41795E+003    9.81166E+002    1.28708E+005    6.91968E+003   -3.92513E+002
            6997    2.33410E+005    1.37144E+005    1.37144E+005   -1.54775E+002   -1.32359E+005    2.69503E+005   -1.54347E+003    7.46667E+004    2.20818E+002    4.55976E+003   -1.50180E+002    1.34717E+005    2.14834E+003    1.81657E+002
            6998    2.29029E+005    1.38231E+005    1.38231E+005    9.70861E+002   -1.26164E+005    2.64395E+005   -4.34570E+003    9.26804E+004    3.14464E+003    8.93995E+003    9.52511E+002    1.32157E+005   -1.04302E+003    1.12006E+003
            6999    2.12336E+005    1.30690E+005    1.30690E+005    2.63931E+003   -1.14412E+005    2.45102E+005   -6.30588E+003    9.05824E+004    4.13407E+003    1.21993E+004    2.58431E+003    1.22394E+005   -6.95223E+002    4.62229E+003
            7000    2.32696E+005    1.41895E+005    1.41895E+005    1.96523E+003   -1.26721E+005    2.68616E+005   -5.71290E+003    9.69925E+004    3.78274E+003    1.19108E+004    1.44514E+003    1.31212E+005    2.83246E+004   -1.29904E+002
            7001    2.50809E+005    1.50615E+005    1.50615E+005    4.82491E+002   -1.38928E+005    2.89544E+005   -4.05651E+003    1.00368E+005    2.50645E+003    9.12090E+003    5.42172E+002    1.44344E+005    1.06100E+004    7.23460E+002
            7002    2.48362E+005    1.53164E+005    1.53164E+005    4.53599E+003   -1.33556E+005    2.86719E+005   -8.04801E+003    9.91349E+004    6.07950E+003    1.34923E+004    4.57220E+003    1.43258E+005    6.92347E+002    3.88248E+003
            7003    2.33857E+005    1.41696E+005    1.41696E+005    4.79261E+003   -1.28330E+005    2.70026E+005   -6.05287E+003    6.76880E+004    4.07526E+003    9.36165E+003    4.72169E+003    1.34846E+005   -7.98457E+002    6.10008E+003
            7004    2.68349E+005    1.42191E+005   -1.67636E+005   -8.61238E+003   -1.67636E+005    3.09827E+005    1.13523E+004   -9.61039E+004   -9.10266E+003   -1.61844E+004   -8.77003E+003    1.54765E+005    2.31118E+003   -5.35373E+003
            7005    3.01049E+005    1.57144E+005   -1.90413E+005   -1.08561E+004   -1.90413E+005    3.47557E+005    1.47087E+004   -1.16236E+005   -1.19152E+004   -2.09117E+004   -1.12991E+004    1.73492E+005    7.00130E+003   -5.70440E+003
            7006    3.43510E+005    1.77152E+005   -2.19408E+005   -1.37462E+004   -2.19408E+005    3.96560E+005    1.86672E+004   -1.37708E+005   -1.49941E+004   -2.68483E+004   -1.41593E+004    1.97958E+005    8.23111E+003   -5.24816E+003
            7007    3.90190E+005    1.99978E+005   -2.50459E+005   -1.64260E+004   -2.50459E+005    4.50437E+005    2.23025E+004   -1.59048E+005   -1.78621E+004   -3.22701E+004   -1.67752E+004    2.24887E+005    8.81727E+003   -4.77014E+003
            7008    2.96054E+005    1.59239E+005   -1.82537E+005   -5.32508E+003   -1.82537E+005    3.41775E+005    9.54095E+003   -1.18447E+005   -7.03914E+003   -1.56902E+004   -5.89351E+003    1.68656E+005    2.71220E+004   -2.60094E+003
            7009    3.47049E+005    1.83970E+005   -2.16658E+005   -8.22485E+003   -2.16658E+005    4.00628E+005    1.36374E+004   -1.43118E+005   -1.03270E+004   -2.18197E+004   -8.76557E+003    1.97101E+005    3.52198E+004   -2.72767E+003
            7010    3.96846E+005    2.08372E+005   -2.49741E+005   -1.13890E+004   -2.49741E+005    4.58112E+005    1.75859E+004   -1.63721E+005   -1.35680E+004   -2.74115E+004   -1.17783E+004    2.25708E+005    3.83680E+004   -2.50688E+003
            7011    4.50016E+005    2.34198E+005   -2.85286E+005   -1.47238E+004   -2.85286E+005    5.19484E+005    2.19373E+004   -1.87281E+005   -1.69204E+004   -3.38654E+004   -1.50261E+004    2.56907E+005    3.72815E+004   -2.43065E+003
            7012    5.05135E+005    2.67536E+005   -3.15639E+005   -1.44732E+004   -3.15639E+005    5.83175E+005    2.08586E+004   -1.94239E+005   -1.71125E+004   -3.36307E+004   -1.18325E+004    2.76504E+005    9.20284E+004    7.76280E+002
            7013    4.40397E+005    2.33938E+005   -2.74484E+005   -1.13108E+004   -2.74484E+005    5.08421E+005    1.72856E+004   -1.73378E+005   -1.44091E+004   -2.91182E+004   -8.32962E+003    2.35531E+005    9.51886E+004    8.62477E+001
            7014    3.78317E+005    2.02025E+005   -2.34709E+005   -7.88798E+003   -2.34709E+005    4.36734E+005    1.35238E+004   -1.53650E+005   -1.13042E+004   -2.42688E+004   -4.99851E+003    1.99661E+005    8.80159E+004   -3.37829E+002
            7015    3.27559E+005    1.75826E+005   -2.02281E+005   -4.78283E+003   -2.02281E+005    3.78107E+005    1.04125E+004   -1.39518E+005   -8.67711E+003   -1.99808E+004   -2.57972E+003    1.71812E+005    7.85261E+004   -1.06791E+003
            7016    2.81545E+005    1.53664E+005   -1.71323E+005   -1.40656E+003   -1.71323E+005    3.24987E+005    6.35531E+003   -1.20819E+005   -5.01024E+003   -1.51874E+004    1.13169E+003    1.40580E+005    8.11715E+004   -1.78662E+003
            7017    2.25348E+005    1.24506E+005   -1.35649E+005   -9.33772E+002   -1.35649E+005    2.60155E+005    4.02550E+003   -8.90483E+004   -3.12180E+003   -1.13709E+004    2.41619E+003    1.02539E+005    7.97569E+004   -1.91082E+003
            7018    1.78892E+005    9.97997E+004   -1.06707E+005    8.51548E+002   -1.06707E+005    2.06506E+005    2.01848E+003   -7.44699E+004   -1.72309E+003   -7.22229E+003    2.88994E+003    7.57985E+004    6.99248E+004   -2.62496E+003
            7019    1.31177E+005    7.24222E+004   -7.89931E+004    2.38260E+002   -7.89931E+004    1.51415E+005    2.11086E+003   -5.66419E+004   -1.46400E+003   -6.18652E+003    1.31795E+003    5.25080E+004    5.43729E+004   -2.80958E+003
            7020    1.29702E+005    6.97681E+004   -7.99232E+004   -9.41850E+002   -7.99232E+004    1.49691E+005    3.69898E+003   -5.92915E+004   -2.18832E+003   -8.37332E+003   -5.35310E+002    6.83592E+004    3.02673E+004   -1.18745E+003
            7021    1.39984E+005    7.47570E+004   -8.68036E+004   -1.65255E+003   -8.68036E+004    1.61561E+005    4.56639E+003   -6.35462E+004   -2.40643E+003   -9.70608E+003   -1.58664E+003    8.00915E+004    9.85627E+003   -2.27998E+002
            7022    1.67715E+005    9.46276E+004   -9.89744E+004    1.96000E+003   -9.89744E+004    1.93602E+005    7.95610E+002   -7.03732E+004   -3.25266E+002   -4.70770E+003    2.64614E+003    8.94753E+004    3.68283E+004   -5.40414E+002
            7023    1.78819E+005    1.00905E+005   -1.05537E+005    1.21863E+003   -1.05537E+005    2.06442E+005    1.13798E+003   -6.97216E+004   -5.34822E+001   -4.63981E+003    1.27935E+003    1.02490E+005    1.20419E+004   -8.59424E+001
            7024    2.10381E+005    1.15084E+005   -1.27773E+005   -1.27723E+003   -1.27773E+005    2.42857E+005    4.65546E+003   -8.76046E+004   -2.98441E+003   -1.10691E+004    8.71023E+001    1.14922E+005    3.88963E+004    3.55886E+002
            7025    2.13316E+005    1.17865E+005   -1.28403E+005   -1.05256E+003   -1.28403E+005    2.46268E+005    3.86358E+003   -8.31698E+004   -1.80351E+003   -8.89487E+003   -8.92367E+002    1.22667E+005    1.00558E+004    6.55094E+002
            7026    2.48010E+005    1.37103E+005   -1.49204E+005   -5.15216E+002   -1.49204E+005    2.86306E+005    4.20538E+003   -1.00686E+005   -2.78451E+003   -9.79129E+003   -4.03324E+001    1.40443E+005    2.74512E+004    3.06887E+002
            7027    2.31024E+005    1.30661E+005   -1.36086E+005   -1.04079E+002   -1.36086E+005    2.66747E+005    1.84288E+003   -7.47426E+004   -3.78419E+002   -5.05132E+003   -9.89058E+001    1.33280E+005    4.39803E+003   -3.24586E+000
            7028    2.32046E+005    1.28599E+005   -1.39294E+005   -8.03367E+002   -1.39294E+005    2.67893E+005    3.83282E+003   -9.01920E+004   -2.54958E+003   -8.13642E+003   -8.12464E+002    1.33913E+005    8.99773E+002   -7.04711E+002
            7029    2.17628E+005    1.17767E+005   -1.33464E+005   -2.87721E+003   -1.33464E+005    2.51230E+005    6.19140E+003   -8.90375E+004   -4.19007E+003   -1.15105E+004   -2.87360E+003    1.25486E+005   -2.90907E+001   -4.36337E+003
            7030    2.59037E+005    1.39444E+005   -1.59581E+005   -3.90623E+003   -1.59581E+005    2.99025E+005    8.01434E+003   -1.07419E+005   -6.02411E+003   -1.37669E+004   -4.25197E+003    1.49034E+005    1.10731E+004   -2.69551E+003
            7031    2.45106E+005    1.33583E+005   -1.49426E+005   -5.46661E+003   -1.49426E+005    2.83010E+005    7.10316E+003   -7.61957E+004   -5.06777E+003   -1.07087E+004   -5.53301E+003    1.41357E+005    8.05975E+002   -5.78017E+003
            7032    5.82203E+005    3.58134E+005    3.58134E+005    1.39039E+004   -3.14070E+005    6.72204E+005   -1.93227E+004    2.02170E+005    1.40178E+004    3.27603E+004    1.11900E+004    3.23603E+005    9.01422E+004   -2.24504E+003
            7033    5.46876E+005    3.51355E+005    3.51355E+005    2.18641E+004   -2.79920E+005    6.31275E+005   -3.10999E+004    2.31578E+005    2.41009E+004    4.79085E+004    2.12904E+004    3.10287E+005    5.65566E+004    8.00901E+002
            7034    5.02307E+005    3.13631E+005    3.13631E+005    1.31456E+004   -2.66255E+005    5.79886E+005   -2.01738E+004    1.99793E+005    1.79969E+004    2.92893E+004    1.32354E+004    2.87865E+005    3.41729E+004    1.33631E+003
            7035    4.62989E+005    3.01174E+005    3.01174E+005    2.11003E+004   -2.33233E+005    5.34407E+005   -2.96805E+004    2.02209E+005    2.20561E+004    4.55775E+004    2.14080E+004    2.66408E+005    1.67316E+004    3.21811E+003
            7036    4.26506E+005    2.71656E+005    2.71656E+005    1.68438E+004   -2.20730E+005    4.92386E+005   -2.25898E+004    1.67519E+005    1.72405E+004    3.35336E+004    1.69952E+004    2.45982E+005    4.51098E+003    4.28351E+003
            7037    6.40577E+005    3.95136E+005    3.95136E+005    1.64357E+004   -3.44467E+005    7.39603E+005   -2.23683E+004    2.22074E+005    1.57290E+004    3.60950E+004    1.52809E+004    3.64565E+005    6.10507E+004   -1.80200E+003
            7038    5.95663E+005    3.84684E+005    3.84684E+005    2.56341E+004   -3.02904E+005    6.87587E+005   -3.58047E+004    2.53159E+005    2.81917E+004    5.38667E+004    2.53557E+004    3.41430E+005    3.80883E+004    3.27663E+002
            7039    5.47566E+005    3.42385E+005    3.42385E+005    1.49907E+004   -2.89754E+005    6.32139E+005   -2.25405E+004    2.16732E+005    2.02638E+004    3.23423E+004    1.50153E+004    3.15161E+005    2.31625E+004    8.05153E+002
            7040    5.05048E+005    3.29507E+005    3.29507E+005    2.38201E+004   -2.53441E+005    5.82948E+005   -3.32952E+004    2.21480E+005    2.43894E+004    5.15463E+004    2.39497E+004    2.90915E+005    1.17666E+004    2.16355E+003
            7041    4.65341E+005    2.97363E+005    2.97363E+005    1.90340E+004   -2.39849E+005    5.37212E+005   -2.55160E+004    1.84815E+005    1.97389E+004    3.77098E+004    1.90992E+004    2.68422E+005    3.34597E+003    2.73577E+003
            7042    6.76709E+005    4.17831E+005    4.17831E+005    1.79703E+004   -3.63493E+005    7.81324E+005   -2.41029E+004    2.32909E+005    1.65052E+004    3.79810E+004    1.78226E+004    3.89921E+005    2.14615E+004   -7.91378E+002
            7043    6.23260E+005    4.03157E+005    4.03157E+005    2.75882E+004   -3.16289E+005    7.19446E+005   -3.81522E+004    2.64242E+005    3.01993E+004    5.66970E+004    2.75602E+004    3.59232E+005    1.32981E+004    1.61122E+002
            7044    5.71586E+005    3.57777E+005    3.57777E+005    1.61700E+004   -3.02095E+005    6.59873E+005   -2.39507E+004    2.25278E+005    2.15824E+004    3.41006E+004    1.61691E+004    3.29773E+005    8.26428E+003    2.07561E+002
            7045    5.28634E+005    3.45605E+005    3.45605E+005    2.55943E+004   -2.64566E+005    6.10171E+005   -3.55446E+004    2.32077E+005    2.57546E+004    5.52695E+004    2.56096E+004    3.04698E+005    4.27019E+003    7.54754E+002
            7046    4.88494E+005    3.12608E+005    3.12608E+005    2.03369E+004   -2.51331E+005    5.63939E+005   -2.72047E+004    1.94610E+005    2.12326E+004    4.00365E+004    2.03450E+004    2.81809E+005    1.17724E+003    1.01630E+003
            7047    1.27555E+005    7.59460E+004    7.59460E+004   -1.64754E+003   -7.12696E+004    1.47216E+005   -1.00962E+003    5.79188E+004    8.84294E+002    4.19482E+003   -2.05025E+003    5.04013E+004   -5.35242E+004   -2.91767E+003
            7048    1.21160E+005    7.10468E+004    7.10468E+004   -2.62504E+003   -6.87893E+004    1.39836E+005    1.22513E+002    5.48593E+004   -4.23466E+002    2.44154E+003   -2.38561E+003    6.37103E+004   -2.87463E+004   -1.40881E+003
            7049    1.30360E+005    7.66330E+004    7.66330E+004   -1.52939E+003   -7.38563E+004    1.50489E+005   -4.15776E+002    5.29732E+004   -3.29203E+002    3.05568E+003   -1.47914E+003    7.46111E+004   -9.59045E+003   -4.90147E+002
            7050    8.44761E+004    5.18045E+004    5.18045E+004   -1.00276E+003   -4.56256E+004    9.74301E+004   -1.72537E+003    4.43672E+004    1.26234E+003    4.06721E+003   -1.53437E+002    3.40764E+004   -3.46973E+004   -3.00275E+003
            7051    8.84371E+004    5.56192E+004    5.56192E+004    7.11574E+002   -4.63999E+004    1.02019E+005   -3.31031E+003    4.50166E+004    2.28097E+003    6.41098E+003    1.23898E+003    4.73177E+004   -1.89038E+004   -1.79875E+003
            7052    9.85262E+004    6.19817E+004    6.19817E+004    1.69625E+003   -5.17173E+004    1.13699E+005   -3.98688E+003    4.64004E+004    2.49041E+003    7.71686E+003    1.75336E+003    5.64289E+004   -6.37637E+003   -5.92856E+002
            7053    5.10413E+004    3.07420E+004    3.07420E+004   -2.75327E+003   -2.80029E+004    5.87449E+004    4.73680E+000    3.17289E+004    6.60756E+001    4.82140E+002   -5.62426E+002    2.44905E+004   -1.61523E+004   -2.72912E+003
            7054    6.60402E+004    3.72147E+004   -3.90199E+004   -2.49353E+003   -3.90199E+004    7.62345E+004    1.43291E+003    2.75012E+004   -1.23643E+003   -1.34470E+003   -1.71758E+003    3.70542E+004   -8.80588E+003   -1.77340E+003
            7055    7.77019E+004    4.35618E+004   -4.61586E+004   -1.83047E+003   -4.61586E+004    8.97204E+004    1.47574E+003    2.12805E+004   -1.28130E+003   -1.39956E+003   -1.74635E+003    4.47549E+004   -3.00962E+003   -6.40697E+002
            7056    3.79169E+004    2.24464E+004    2.24464E+004    6.92000E+002   -2.13360E+004    4.37824E+004   -6.00795E+002   -8.38744E+003    3.89376E+002    9.26804E+002    4.86205E+002    2.17054E+004    8.43522E+002   -2.70401E+003
            7057    5.89088E+004    3.61802E+004    3.61802E+004    1.78406E+003   -3.18403E+004    6.80205E+004   -2.04133E+003    1.58968E+004    1.55977E+003    2.88588E+003    1.67833E+003    3.39394E+004    9.73912E+002   -1.83838E+003
            7058    7.17401E+004    4.38712E+004    4.38712E+004    1.81743E+003   -3.89639E+004    8.28350E+004   -2.24157E+003    2.14158E+004    1.65427E+003    3.26763E+003    1.80281E+003    4.14014E+004    4.30428E+002   -6.97734E+002
            7059    5.38327E+004    2.82613E+004   -3.37089E+004    1.48811E+003   -3.37089E+004    6.19701E+004    1.31983E+003   -3.31165E+004   -8.97709E+002   -2.72445E+003   -3.37330E+002    2.53314E+004    1.77491E+004   -2.77853E+003
            7060    6.99585E+004    3.64484E+004   -4.42594E+004   -9.26323E+002   -4.42594E+004    8.07078E+004    2.91246E+003   -3.52060E+004   -1.96957E+003   -5.20628E+003   -1.56152E+003    3.88047E+004    1.08904E+004   -1.73260E+003
            7061    8.17821E+004    4.29917E+004   -5.13994E+004   -1.74237E+003   -5.13994E+004    9.43911E+004    3.38336E+003   -3.66750E+004   -2.13906E+003   -6.21168E+003   -1.79935E+003    4.70061E+004    3.68109E+003   -5.38841E+002
            7062    8.83333E+004    4.88280E+004   -5.30438E+004    2.29230E+003   -5.30438E+004    1.01872E+005    6.41164E+002   -4.68239E+004   -6.44459E+002   -2.31819E+003    1.03916E+003    3.58131E+004    3.61499E+004   -2.95098E+003
            7063    9.44713E+004    5.38821E+004   -5.51290E+004    2.87839E+003   -5.51290E+004    1.09011E+005   -5.43845E+002   -4.54018E+004    5.10411E+002   -8.69472E+002    1.99060E+003    5.03846E+004    2.07575E+004   -1.84960E+003
            7064    1.05840E+005    6.05116E+004   -6.16728E+004    1.74808E+003   -6.16728E+004    1.22184E+005   -1.95622E+002   -4.27647E+004    4.65730E+002   -1.49823E+003    1.61936E+003    6.06528E+004    7.23093E+003   -7.33543E+002
            7065    4.26143E+005    2.71429E+005    2.71429E+005    1.68298E+004   -2.20537E+005    4.91967E+005   -2.25739E+004    1.67406E+005    1.72338E+004    3.35075E+004    1.69805E+004    2.45773E+005   -4.48572E+003   -4.28334E+003
            7066    4.63093E+005    3.01174E+005    3.01174E+005    2.10140E+004   -2.33352E+005    5.34526E+005   -2.96120E+004    2.02379E+005    2.20182E+004    4.54924E+004    2.13255E+004    2.66464E+005   -1.67979E+004   -3.24265E+003
            7067    5.02959E+005    3.14024E+005    3.14024E+005    1.31291E+004   -2.66614E+005    5.80638E+005   -2.01797E+004    2.00178E+005    1.80034E+004    2.93329E+004    1.32029E+004    2.88222E+005   -3.43543E+004   -1.27550E+003
            7068    5.47697E+005    3.51851E+005    3.51851E+005    2.18951E+004   -2.80373E+005    6.32224E+005   -3.11245E+004    2.31757E+005    2.41118E+004    4.79500E+004    2.13118E+004    3.10707E+005   -5.68947E+004   -7.93517E+002
            7069    5.82583E+005    3.58303E+005    3.58303E+005    1.38776E+004   -3.14342E+005    6.72644E+005   -1.92795E+004    2.02048E+005    1.39673E+004    3.27040E+004    1.11671E+004    3.23833E+005   -9.01369E+004    2.24866E+003
            7070    4.65113E+005    2.97192E+005    2.97192E+005    1.90317E+004   -2.39759E+005    5.36950E+005   -2.54883E+004    1.84513E+005    1.97157E+004    3.76535E+004    1.90958E+004    2.68292E+005   -3.27560E+003   -2.73750E+003
            7071    5.04529E+005    3.29231E+005    3.29231E+005    2.38931E+004   -2.53120E+005    5.82351E+005   -3.33347E+004    2.21067E+005    2.44120E+004    5.15693E+004    2.40227E+004    2.90623E+005   -1.15820E+004   -2.17740E+003
            7072    5.47271E+005    3.42365E+005    3.42365E+005    1.51322E+004   -2.89434E+005    6.31799E+005   -2.26878E+004    2.16710E+005    2.03523E+004    3.25540E+004    1.51570E+004    3.14992E+005   -2.31255E+004   -8.08190E+002
            7073    5.96556E+005    3.85118E+005    3.85118E+005    2.56098E+004   -3.03502E+005    6.88620E+005   -3.57418E+004    2.53092E+005    2.80959E+004    5.38024E+004    2.53272E+004    3.41941E+005   -3.81577E+004   -3.07610E+002
            7074    6.40997E+005    3.95208E+005    3.95208E+005    1.63319E+004   -3.44881E+005    7.40089E+005   -2.22194E+004    2.21606E+005    1.55762E+004    3.59173E+004    1.51647E+004    3.64776E+005   -6.12606E+004    1.83099E+003
            7075    4.88342E+005    3.12486E+005    3.12486E+005    2.03127E+004   -2.51277E+005    5.63763E+005   -2.71740E+004    1.94507E+005    2.12135E+004    3.99870E+004    2.03213E+004    2.81721E+005   -1.22122E+003   -1.03328E+003
            7076    5.28377E+005    3.45439E+005    3.45439E+005    2.55458E+004   -2.64434E+005    6.09873E+005   -3.55169E+004    2.32163E+005    2.57315E+004    5.52584E+004    2.55608E+004    3.04548E+005   -4.29967E+003   -7.38016E+002
            7077    5.71651E+005    3.57810E+005    3.57810E+005    1.61335E+004   -3.02137E+005    6.59947E+005   -2.39353E+004    2.25498E+005    2.15532E+004    3.41190E+004    1.61337E+004    3.29812E+005   -8.20207E+003   -2.28369E+002
            7078    6.23150E+005    4.03078E+005    4.03078E+005    2.75779E+004   -3.16241E+005    7.19319E+005   -3.81381E+004    2.64179E+005    3.01999E+004    5.66631E+004    2.75512E+004    3.59174E+005   -1.31718E+004   -1.70435E+002
            7079    6.76199E+005    4.17527E+005    4.17527E+005    1.79658E+004   -3.63209E+005    7.80736E+005   -2.40947E+004    2.32744E+005    1.65273E+004    3.79405E+004    1.78162E+004    3.89618E+005   -2.16338E+004    7.92906E+002
            7080    2.78108E+005    1.68430E+005    1.68430E+005    2.08886E+003   -1.52632E+005    3.21062E+005   -5.96233E+003    1.10449E+005    4.93467E+003    1.47644E+004   -1.81212E+003    1.33331E+005   -8.90681E+004   -1.32015E+003
            7081    3.30196E+005    2.00669E+005    2.00669E+005    3.50701E+003   -1.80533E+005    3.81202E+005   -7.88095E+003    1.28963E+005    6.44448E+003    1.84548E+004   -1.25647E+003    1.61542E+005   -1.00736E+005   -8.47703E+002
            7082    3.87319E+005    2.36875E+005    2.36875E+005    6.19272E+003   -2.10287E+005    4.47162E+005   -1.09270E+004    1.47277E+005    8.91245E+003    2.24959E+004    1.37263E+003    1.93996E+005   -1.10707E+005   -4.33613E+002
            7083    4.49313E+005    2.74801E+005    2.74801E+005    8.39003E+003   -2.43958E+005    5.18759E+005   -1.30780E+004    1.62075E+005    1.01744E+004    2.55628E+004    3.49678E+003    2.33078E+005   -1.13315E+005    8.55200E+002
            7084    5.16063E+005    3.16876E+005    3.16876E+005    1.11536E+004   -2.78954E+005    5.95830E+005   -1.63583E+004    1.84061E+005    1.24544E+004    2.94967E+004    7.12391E+003    2.77707E+005   -1.07298E+005    1.66948E+003
            7085    4.88886E+005    3.11838E+005    3.11838E+005    1.73485E+004   -2.52499E+005    5.64337E+005   -2.55625E+004    2.06667E+005    1.96144E+004    4.06031E+004    1.64699E+004    2.73528E+005   -6.84010E+004   -1.15223E+003
            7086    4.50638E+005    2.80770E+005    2.80770E+005    1.10049E+004   -2.39463E+005    5.20233E+005   -1.74373E+004    1.80437E+005    1.54218E+004    2.57551E+004    1.11349E+004    2.56854E+005   -4.07236E+004   -1.57953E+003
            7087    4.15440E+005    2.68407E+005    2.68407E+005    1.75329E+004   -2.11130E+005    4.79537E+005   -2.49366E+004    1.79097E+005    1.87664E+004    3.79859E+004    1.80574E+004    2.38756E+005   -1.95301E+004   -4.04346E+003
            7088    3.80811E+005    2.41667E+005    2.41667E+005    1.44791E+004   -1.97974E+005    4.39641E+005   -1.93909E+004    1.47419E+005    1.46605E+004    2.88108E+004    1.47013E+004    2.19595E+005   -4.94194E+003   -5.10180E+003
            7089    4.29592E+005    2.71663E+005    2.71663E+005    1.28640E+004   -2.24229E+005    4.95892E+005   -2.00992E+004    1.81748E+005    1.50794E+004    3.32413E+004    1.19770E+004    2.36635E+005   -7.33871E+004   -1.73113E+003
            7090    3.98565E+005    2.47505E+005    2.47505E+005    8.79552E+003   -2.12610E+005    4.60114E+005   -1.45634E+004    1.60319E+005    1.27829E+004    2.19060E+004    9.00122E+003    2.26013E+005   -4.26888E+004   -1.78278E+003
            7091    3.69051E+005    2.36335E+005    2.36335E+005    1.40419E+004   -1.89673E+005    4.26009E+005   -2.02347E+004    1.55944E+005    1.52640E+004    3.07466E+004    1.46934E+004    2.11914E+005   -1.97696E+004   -4.27237E+003
            7092    3.37709E+005    2.13197E+005    2.13197E+005    1.21712E+004   -1.76692E+005    3.89889E+005   -1.62254E+004    1.27645E+005    1.22908E+004    2.39453E+004    1.24400E+004    1.94721E+005   -4.66201E+003   -5.75641E+003
            7093    3.72349E+005    2.32942E+005    2.32942E+005    8.62438E+003   -1.96873E+005    4.29814E+005   -1.48978E+004    1.57549E+005    1.10865E+004    2.60182E+004    7.58886E+003    2.02379E+005   -7.18268E+004   -1.62956E+003
            7094    3.50923E+005    2.17419E+005    2.17419E+005    6.94740E+003   -1.87689E+005    4.05108E+005   -1.22259E+004    1.42983E+005    1.05027E+004    1.89151E+004    7.25977E+003    1.98462E+005   -4.02711E+004   -1.98397E+003
            7095    3.27947E+005    2.07457E+005    2.07457E+005    1.08907E+004   -1.71130E+005    3.78587E+005   -1.57395E+004    1.32858E+005    1.17792E+004    2.38609E+004    1.15783E+004    1.88383E+005   -1.71090E+004   -4.37591E+003
            7096    3.01090E+005    1.88924E+005    1.88924E+005    1.02453E+004   -1.58699E+005    3.47624E+005   -1.34902E+004    1.09786E+005    1.02884E+004    1.97076E+004    1.04745E+004    1.73621E+005   -3.55103E+003   -5.69889E+003
            7097    3.20644E+005    1.98712E+005    1.98712E+005    5.12631E+003   -1.71404E+005    3.70116E+005   -1.08114E+004    1.37994E+005    7.81326E+003    2.02914E+004    4.32951E+003    1.73115E+005   -6.50264E+004   -1.78940E+003
            7098    3.07849E+005    1.89553E+005    1.89553E+005    5.04651E+003   -1.65834E+005    3.55387E+005   -9.58861E+003    1.24629E+005    8.06294E+003    1.52870E+004    5.41585E+003    1.74503E+005   -3.33054E+004   -1.94483E+003
            7099    2.94525E+005    1.84171E+005    1.84171E+005    8.44248E+003   -1.55854E+005    3.40025E+005   -1.22533E+004    1.14135E+005    8.93177E+003    1.88506E+004    8.97756E+003    1.69458E+005   -1.22398E+004   -4.08126E+003
            7100    2.72551E+005    1.69553E+005    1.69553E+005    8.42706E+003   -1.45131E+005    3.14684E+005   -1.09496E+004    9.44660E+004    8.47907E+003    1.57915E+004    8.57814E+003    1.57178E+005   -2.03199E+003   -5.89356E+003
            7101    2.68227E+005    1.64187E+005    1.64187E+005    2.28849E+003   -1.45427E+005    3.09614E+005   -7.01621E+003    1.15210E+005    4.94679E+003    1.47407E+004    1.36115E+003    1.46023E+005   -5.10945E+004   -8.55632E+002
            7102    2.74811E+005    1.68304E+005    1.68304E+005    3.52880E+003   -1.48941E+005    3.17245E+005   -7.63048E+003    1.11682E+005    5.96696E+003    1.30518E+004    3.87266E+003    1.57082E+005   -2.17290E+004   -1.90166E+003
            7103    2.68284E+005    1.65415E+005    1.65415E+005    6.17035E+003   -1.44331E+005    3.09746E+005   -9.08464E+003    9.80830E+004    6.56076E+003    1.42085E+004    6.48469E+003    1.54640E+005   -6.63384E+003   -3.83845E+003
            7104    2.50774E+005    1.54643E+005    1.54643E+005    6.76440E+003   -1.34904E+005    2.89547E+005   -8.83450E+003    8.36682E+004    6.74953E+003    1.29827E+004    6.77124E+003    1.44637E+005   -9.05498E+001   -5.44748E+003
            7105    2.34258E+005    1.41962E+005    1.41962E+005    4.79910E+003   -1.28527E+005    2.70489E+005   -6.07786E+003    6.80954E+004    4.09573E+003    9.40445E+003    4.73339E+003    1.35079E+005    7.43161E+002   -6.08953E+003
            7106    2.12507E+005    1.30763E+005    1.30763E+005    2.65514E+003   -1.14538E+005    2.45301E+005   -6.29321E+003    9.03960E+004    4.13659E+003    1.21466E+004    2.59640E+003    1.22494E+005    7.44578E+002   -4.62453E+003
            7107    2.48407E+005    1.53252E+005    1.53252E+005    4.64183E+003   -1.33520E+005    2.86772E+005   -8.12449E+003    9.88701E+004    6.13466E+003    1.35664E+004    4.67239E+003    1.43284E+005   -5.83300E+002   -3.90545E+003
            7108    2.29271E+005    1.38356E+005    1.38356E+005    9.50592E+002   -1.26318E+005    2.64674E+005   -4.32943E+003    9.27821E+004    3.14249E+003    8.91342E+003    9.32370E+002    1.32296E+005    1.02794E+003   -1.13023E+003
            7109    2.50817E+005    1.50646E+005    1.50646E+005    5.11411E+002   -1.38906E+005    2.89552E+005   -4.08402E+003    1.00357E+005    2.52198E+003    9.15873E+003    5.71358E+002    1.44355E+005   -1.05119E+004   -7.26471E+002
            7110    2.33413E+005    1.37124E+005    1.37124E+005   -2.14614E+002   -1.32382E+005    2.69505E+005   -1.50916E+003    7.50396E+004    2.11218E+002    4.52593E+003   -2.09659E+002    1.34717E+005   -2.22678E+003   -1.89052E+002
            7111    2.32720E+005    1.41899E+005    1.41899E+005    1.98863E+003   -1.26745E+005    2.68645E+005   -5.71429E+003    9.68092E+004    3.77906E+003    1.18960E+004    1.46783E+003    1.31222E+005   -2.83499E+004    1.33832E+002
            7112    2.23286E+005    1.33980E+005    1.33980E+005    1.05261E+003   -1.23806E+005    2.57787E+005   -3.74210E+003    8.44901E+004    1.80830E+003    8.42726E+003    9.90747E+002    1.28667E+005   -6.85779E+003    3.83532E+002
            7113    2.01916E+005    1.18783E+005    1.18783E+005   -9.10952E+002   -1.14341E+005    2.33124E+005   -1.17688E+003    7.26167E+004   -5.75106E+001    4.59447E+003   -1.00631E+003    1.16067E+005   -1.04598E+004    2.80799E+002
            7114    1.68348E+005    1.03138E+005    1.03138E+005    1.44110E+003   -9.11832E+004    1.94321E+005   -4.46524E+003    7.27674E+004    2.27929E+003    9.82060E+003    1.29583E+003    9.63817E+004   -1.16542E+004    9.36320E+001
            7115    2.02478E+005    1.20164E+005    1.20164E+005   -9.89585E+002   -1.13586E+005    2.33750E+005   -1.86299E+003    8.07203E+004    1.01923E+003    6.72333E+003   -2.15360E+003    1.10104E+005   -3.90208E+004    2.73400E+002
            7116    1.60346E+005    9.79390E+004    9.79390E+004    1.00915E+003   -8.71431E+004    1.85082E+005   -3.93501E+003    6.96706E+004    2.46542E+003    9.40211E+003   -6.24980E+001    8.48177E+004   -3.67676E+004   -5.85248E+002
            7117    1.75019E+005    1.04935E+005    1.04935E+005    1.17054E+002   -9.71120E+004    2.02047E+005   -2.64674E+003    7.03708E+004    1.97974E+003    8.38105E+003   -2.42057E+003    7.28630E+004   -6.97502E+004   -2.63515E+003
            7118    2.29593E+005    1.37798E+005    1.37798E+005    3.06241E+002   -1.27251E+005    2.65049E+005   -3.61788E+003    9.22501E+004    2.88876E+003    1.09212E+004   -2.95632E+003    1.03742E+005   -8.21917E+004   -2.15193E+003
            7119    3.28940E+005    1.52582E+005   -2.26185E+005   -1.22382E+004   -2.26185E+005    3.78767E+005    2.86136E+004   -1.99281E+005   -2.23721E+004   -5.78189E+004   -5.64965E+003    1.70892E+005   -7.83698E+004    3.38590E+003
            7120    3.80746E+005    1.72849E+005   -2.65904E+005   -2.22502E+004   -2.65904E+005    4.38752E+005    3.84351E+004   -2.18983E+005   -3.05800E+004   -7.14264E+004   -1.32990E+004    1.99207E+005   -8.80192E+004    8.39722E+002
            7121    4.43417E+005    1.96806E+005   -3.14316E+005   -3.25883E+004   -3.14316E+005    5.11122E+005    5.00328E+004   -2.48595E+005   -3.99583E+004   -8.65401E+004   -2.35998E+004    2.35469E+005   -9.50121E+004   -1.73384E+002
            7122    5.08390E+005    2.21096E+005   -3.65008E+005   -4.32797E+004   -3.65008E+005    5.86104E+005    6.23971E+004   -2.80800E+005   -5.00748E+004   -1.01865E+005   -3.52511E+004    2.76619E+005   -9.16888E+004   -2.33768E+003
            7123    4.51235E+005    1.82975E+005   -3.36699E+005   -4.41916E+004   -3.36699E+005    5.19674E+005    6.59717E+004   -2.70610E+005   -5.31513E+004   -9.97361E+004   -4.50278E+004    2.56032E+005   -3.74039E+004    6.91970E+003
            7124    3.90715E+005    1.50255E+005   -2.99900E+005   -4.87623E+004   -2.99900E+005    4.50155E+005    6.61357E+004   -2.28075E+005   -5.15218E+004   -9.70603E+004   -4.98252E+004    2.23330E+005   -8.69114E+003    1.47133E+004
            7125    3.97529E+005    1.65444E+005   -2.92421E+005   -3.52329E+004   -2.92421E+005    4.57865E+005    5.40700E+004   -2.36961E+005   -4.33290E+004   -8.25014E+004   -3.63796E+004    2.24824E+005   -3.81781E+004    7.39000E+003
            7126    3.44467E+005    1.37198E+005   -2.59787E+005   -3.98604E+004   -2.59787E+005    3.96985E+005    5.41497E+004   -1.96527E+005   -4.19946E+004   -7.93660E+004   -4.10886E+004    1.96869E+005   -8.09717E+003    1.58788E+004
            7127    3.47864E+005    1.48495E+005   -2.52136E+005   -2.67029E+004   -2.52136E+005    4.00630E+005    4.34479E+004   -2.08431E+005   -3.45668E+004   -6.74665E+004   -2.83104E+004    1.96473E+005   -3.50135E+004    8.14292E+003
            7128    3.03239E+005    1.27816E+005   -2.21826E+005   -3.06723E+004   -2.21826E+005    3.49643E+005    4.15608E+004   -1.64952E+005   -3.18988E+004   -6.07972E+004   -3.19865E+004    1.73291E+005   -6.90620E+003    1.72207E+004
            7129    2.97028E+005    1.34308E+005   -2.07928E+005   -1.72802E+004   -2.07928E+005    3.42236E+005    3.03000E+004   -1.72571E+005   -2.35033E+004   -4.83911E+004   -1.90057E+004    1.68441E+005   -2.68969E+004    7.89274E+003
            7130    2.70635E+005    1.19992E+005   -1.92216E+005   -2.43598E+004   -1.92216E+005    3.12208E+005    3.21943E+004   -1.37078E+005   -2.44633E+004   -4.72772E+004   -2.48424E+004    1.54871E+005   -2.37995E+003    1.59129E+004
            7131    2.47025E+005    1.15722E+005   -1.69359E+005   -1.85840E+004   -1.69359E+005    2.85082E+005    2.40737E+004   -1.14604E+005   -1.85649E+004   -3.48618E+004   -1.87945E+004    1.41272E+005   -8.67640E+002    1.71649E+004
            7132    2.19821E+005    9.96542E+004   -1.53500E+005   -1.09291E+004   -1.53500E+005    2.53154E+005    2.15916E+004   -1.32042E+005   -1.65012E+004   -3.73999E+004   -1.08738E+004    1.25446E+005   -3.38230E+001    1.32250E+004
            7133    2.60909E+005    1.23008E+005   -1.77582E+005   -9.75052E+003   -1.77582E+005    3.00590E+005    2.14415E+004   -1.52688E+005   -1.53472E+004   -3.81573E+004   -1.08200E+004    1.49280E+005   -1.10682E+004    8.33146E+003
            7134    2.33447E+005    1.22261E+005   -1.46904E+005    3.40080E+002   -1.46904E+005    2.69165E+005    8.10110E+003   -1.27281E+005   -4.13377E+003   -2.04841E+004    3.14606E+002    1.34315E+005   -8.53315E+002    2.15093E+003
            7135    2.31084E+005    1.20681E+005   -1.45916E+005   -2.90040E+003   -1.45916E+005    2.66596E+005    9.37849E+003   -1.15804E+005   -4.41670E+003   -2.08481E+004   -2.87065E+003    1.32974E+005   -4.31190E+003   -1.66974E+002
            7136    2.13985E+005    1.13798E+005   -1.32930E+005    2.00269E+003   -1.32930E+005    2.46728E+005    5.70976E+003   -1.16545E+005   -1.34263E+003   -1.81932E+004    2.40651E+003    1.22651E+005   -9.83476E+003   -1.69307E+003
            7137    1.78858E+005    8.89703E+004   -1.17001E+005   -9.00470E+002   -1.17001E+005    2.05971E+005    9.64362E+003   -1.07710E+005   -4.22270E+003   -2.42003E+004   -5.07900E+002    1.01798E+005   -1.17516E+004   -3.42560E+002
            7138    1.38596E+005    7.07164E+004   -8.87650E+004    2.51262E+003   -8.87650E+004    1.59481E+005    5.17867E+003   -8.70083E+004   -1.94450E+003   -1.61012E+004    2.50964E+003    7.88389E+004   -9.57250E+003    1.14601E+003
            7139    2.48320E+005    1.21120E+005   -1.64948E+005   -4.99319E+003   -1.64948E+005    2.86068E+005    1.62736E+004   -1.45978E+005   -1.09389E+004   -3.45116E+004   -3.37017E+003    1.39797E+005   -2.73073E+004   -1.23295E+003
            7140    2.10696E+005    1.07092E+005   -1.35636E+005    5.34461E+001   -1.35636E+005    2.42727E+005    9.49701E+003   -1.23772E+005   -5.62650E+003   -2.61980E+004    3.33343E+003    1.14419E+005   -3.84237E+004   -4.20058E+002
            7141    1.67675E+005    8.37321E+004   -1.09380E+005   -7.51021E+002   -1.09380E+005    1.93112E+005    8.79955E+003   -1.00373E+005   -4.69986E+003   -2.40133E+004    2.31450E+003    8.86865E+004   -3.63222E+004    1.06555E+003
            7142    1.28860E+005    6.58243E+004   -8.23503E+004    3.48979E+003   -8.23503E+004    1.48175E+005    4.34539E+003   -8.33460E+004   -2.09045E+003   -1.41685E+004    3.22276E+003    6.74192E+004   -2.98712E+004    4.23152E+003
            7143    1.31157E+005    6.78470E+004   -8.30443E+004    3.62396E+003   -8.30443E+004    1.50891E+005    3.85777E+003   -8.30830E+004   -3.10005E+003   -1.44234E+004    5.95017E+003    5.16368E+004   -5.37829E+004    8.41866E+003
            7144    1.79883E+005    9.22186E+004   -1.15054E+005    2.51701E+002   -1.15054E+005    2.07273E+005    7.52804E+003   -1.04049E+005   -5.62691E+003   -2.45872E+004    7.63002E+003    7.51001E+004   -6.94651E+004    7.63528E+003
            7145    2.26924E+005    1.15411E+005   -1.46089E+005   -9.29894E+002   -1.46089E+005    2.61500E+005    1.05359E+004   -1.30334E+005   -8.30672E+003   -3.18915E+004    8.59060E+003    1.02128E+005   -7.92763E+004    6.03533E+003
            7146    2.82982E+005    1.35952E+005   -1.89839E+005   -5.16370E+003   -1.89839E+005    3.25791E+005    1.96834E+004   -1.73147E+005   -1.54521E+004   -4.65522E+004    2.95424E+003    1.39776E+005   -8.06469E+004    5.07020E+003
            7147    4.37404E+005    1.63371E+005   -3.40453E+005   -5.78181E+004   -3.40453E+005    5.03824E+005    7.83000E+004   -2.59713E+005   -6.12069E+004   -1.15206E+005   -5.84867E+004    2.50103E+005   -7.69815E+003    1.18336E+004
            7148    5.03124E+005    2.01296E+005   -3.78160E+005   -5.22790E+004   -3.78160E+005    5.79456E+005    7.63810E+004   -3.00980E+005   -6.16093E+004   -1.14813E+005   -5.27207E+004    2.86736E+005   -3.16745E+004    5.45399E+003
            7149    5.72844E+005    2.43495E+005   -4.16933E+005   -5.46908E+004   -4.16933E+005    6.60428E+005    7.60431E+004   -3.15480E+005   -6.08908E+004   -1.17980E+005   -4.92589E+004    3.19248E+005   -7.81059E+004   -3.31505E+003
            7150    4.76343E+005    1.74801E+005   -3.73801E+005   -6.51627E+004   -3.73801E+005    5.48602E+005    8.80541E+004   -2.85256E+005   -6.89594E+004   -1.29757E+005   -6.54454E+004    2.72462E+005   -5.32534E+003    7.91985E+003
            7151    5.45956E+005    2.16270E+005   -4.12523E+005   -5.89692E+004   -4.12523E+005    6.28793E+005    8.50742E+004   -3.26403E+005   -6.87862E+004   -1.27301E+005   -5.91353E+004    3.12312E+005   -2.10800E+004    3.53751E+003
            7152    6.27667E+005    2.61868E+005   -4.61764E+005   -6.48300E+004   -4.61764E+005    7.23632E+005    8.82421E+004   -3.45753E+005   -7.06551E+004   -1.31681E+005   -6.23899E+004    3.56447E+005   -5.31504E+004   -3.17131E+003
            7153    4.98916E+005    1.81357E+005   -3.93208E+005   -6.95456E+004   -3.93208E+005    5.74565E+005    9.37988E+004   -2.99904E+005   -7.35374E+004   -1.38281E+005   -6.95779E+004    2.85436E+005   -1.88426E+003    2.69475E+003
            7154    5.69910E+005    2.24911E+005   -4.31490E+005   -6.26492E+004   -4.31490E+005    6.56400E+005    8.97428E+004   -3.40079E+005   -7.25765E+004   -1.33983E+005   -6.26687E+004    3.26680E+005   -7.20568E+003    1.22991E+003
            7155    6.60889E+005    2.72623E+005   -4.89303E+005   -7.12334E+004   -4.89303E+005    7.61925E+005    9.59711E+004   -3.64474E+005   -7.67224E+004   -1.40262E+005   -7.09295E+004    3.79134E+005   -1.91820E+004   -1.24893E+003
            7156    1.31009E+005    8.83838E+004    8.83838E+004    1.20252E+003   -6.22724E+004    1.50656E+005   -9.10462E+003    8.45145E+004    4.75777E+003    2.13964E+004    1.15971E+003    7.42491E+004    9.50754E+003    1.13114E+003
            7157    1.21729E+005    8.12676E+004    8.12676E+004   -5.78883E+002   -5.86200E+004    1.39888E+005   -7.35624E+003    8.05370E+004    4.25116E+003    1.85824E+004   -7.64781E+002    6.32329E+004    2.86839E+004    4.16896E+003
            7158    1.27785E+005    8.21813E+004    8.21813E+004   -2.46659E+003   -6.48089E+004    1.46990E+005   -4.96858E+003    8.14722E+004    3.70291E+003    1.59078E+004   -4.70499E+003    4.97103E+004    5.27852E+004    8.84174E+003
            7159    9.77182E+004    6.15577E+004    6.15577E+004   -2.51051E+003   -5.09146E+004    1.12472E+005   -2.71084E+003    6.05904E+004    6.68310E+002    9.71685E+003   -2.25264E+003    5.56771E+004    6.38169E+003    1.82649E+003
            7160    8.77679E+004    5.57599E+004    5.57599E+004   -4.44942E+003   -4.49446E+004    1.00704E+005   -2.12196E+003    6.07284E+004    6.27529E+002    7.82268E+003   -2.08432E+003    4.64866E+004    1.87423E+004    5.40763E+003
            7161    8.48170E+004    5.50181E+004    5.50181E+004   -5.64362E+003   -4.19014E+004    9.69195E+004   -2.49101E+003    6.35020E+004    1.94361E+003    8.15350E+003   -2.62410E+003    3.34604E+004    3.42682E+004    8.64894E+003
            7162    7.65672E+004    5.07383E+004    5.07383E+004    1.79442E+003   -3.74981E+004    8.82364E+004   -5.01156E+003    4.38686E+004    3.23429E+003    9.78191E+003    2.01847E+003    4.38657E+004    2.96321E+003    1.93905E+003
            7163    6.55333E+004    4.40700E+004    4.40700E+004   -6.80547E+002   -3.11508E+004    7.52208E+004   -4.07956E+003    4.49029E+004    2.82200E+003    8.05388E+003    1.36280E+003    3.62611E+004    8.68449E+003    5.37313E+003
            7164    5.22501E+004    3.60090E+004    3.60090E+004   -5.78320E+003   -2.25718E+004    5.85808E+004   -2.55135E+003    4.55612E+004    1.93679E+003    5.42087E+003    2.96383E+002    2.40001E+004    1.60721E+004    8.29820E+003
            7165    7.03660E+004    3.74229E+004   -4.38178E+004   -2.04007E+003   -4.38178E+004    8.12406E+004    2.81165E+003   -2.58060E+004   -2.06696E+003   -4.29579E+003   -2.07219E+003    4.05617E+004   -3.54268E+002    1.85180E+003
            7166    5.84036E+004    3.08508E+004   -3.65613E+004   -1.21348E+003   -3.65613E+004    6.74121E+004    2.30802E+003   -2.56028E+004   -1.78630E+003   -3.65101E+003   -1.48674E+003    3.32735E+004   -9.14387E+002    5.25935E+003
            7167    3.92243E+004    2.14845E+004   -2.37940E+004   -1.84877E+002   -2.37940E+004    4.52785E+004    8.31436E+002   -1.64763E+004   -5.74428E+002   -1.31926E+003   -6.00622E+002    2.11936E+004   -6.28363E+002    7.94410E+003
            7168    7.95132E+004    4.36692E+004   -4.79946E+004    2.38330E+003   -4.79946E+004    9.16638E+004    6.47383E+002   -4.41142E+004    2.25515E+002   -4.27457E+003    2.10691E+003    4.56009E+004   -3.63388E+003    2.01392E+003
            7169    6.86886E+004    3.66978E+004   -4.22192E+004    4.11065E+003   -4.22192E+004    7.89170E+004    4.70254E+002   -4.57826E+004    1.34265E+002   -3.16453E+003    1.61950E+003    3.77020E+004   -1.07425E+004    5.46564E+003
            7170    5.40011E+004    2.48142E+004   -3.58104E+004    7.13570E+003   -3.58104E+004    6.06246E+004    1.28683E+003   -4.67932E+004   -1.04843E+003   -3.82686E+003    1.01481E+003    2.46141E+004   -1.71104E+004    8.21694E+003
            7171    1.05049E+005    4.92875E+004   -7.14963E+004   -1.42576E+003   -7.14963E+004    1.20784E+005    7.87817E+003   -6.81696E+004   -4.23974E+003   -1.78183E+004   -1.57651E+003    5.95797E+004   -7.08505E+003    1.60894E+003
            7172    9.46806E+004    4.43020E+004   -6.42858E+004    1.00440E+003   -6.42858E+004    1.08588E+005    6.32647E+003   -6.62220E+004   -3.63198E+003   -1.48593E+004   -4.88088E+002    4.98911E+004   -2.04011E+004    5.07307E+003
            7173    8.82653E+004    4.23046E+004   -5.86590E+004    3.88634E+003   -5.86590E+004    1.00964E+005    4.15599E+003   -6.50240E+004   -2.99324E+003   -1.08953E+004    1.42055E+003    3.50208E+004   -3.54115E+004    8.80659E+003
            7174    5.73205E+005    2.43672E+005   -4.17174E+005   -5.47143E+004   -4.17174E+005    6.60846E+005    7.60724E+004   -3.15641E+005   -6.09157E+004   -1.18024E+005   -4.92769E+004    3.19449E+005    7.81608E+004    3.32235E+003
            7175    5.03064E+005    2.01188E+005   -3.78194E+005   -5.23030E+004   -3.78194E+005    5.79382E+005    7.64364E+004   -3.01085E+005   -6.16522E+004   -1.14896E+005   -5.27613E+004    2.86726E+005    3.14073E+004   -5.52097E+003
            7176    4.37955E+005    1.63520E+005   -3.40936E+005   -5.79374E+004   -3.40936E+005    5.04457E+005    7.84512E+004   -2.60066E+005   -6.13271E+004   -1.15428E+005   -5.85983E+004    2.50420E+005    7.65473E+003   -1.17786E+004
            7177    6.28072E+005    2.62047E+005   -4.62054E+005   -6.48909E+004   -4.62054E+005    7.24101E+005    8.82991E+004   -3.45883E+005   -7.06965E+004   -1.31727E+005   -6.24740E+004    3.56727E+005    5.28734E+004    3.17381E+003
            7178    5.45390E+005    2.15984E+005   -4.12150E+005   -5.88870E+004   -4.12150E+005    6.28133E+005    8.50177E+004   -3.26281E+005   -6.87366E+004   -1.27263E+005   -5.90534E+004    3.11983E+005    2.10296E+004   -3.53929E+003
            7179    4.76485E+005    1.74822E+005   -3.73945E+005   -6.52157E+004   -3.73945E+005    5.48767E+005    8.81130E+004   -2.85337E+005   -6.90027E+004   -1.29842E+005   -6.54947E+004    2.72545E+005    5.29325E+003   -7.86610E+003
            7180    6.61114E+005    2.72710E+005   -4.89475E+005   -7.12722E+004   -4.89475E+005    7.62185E+005    9.60126E+004   -3.64570E+005   -7.67558E+004   -1.40297E+005   -7.09846E+004    3.79288E+005    1.87198E+004    1.20239E+003
            7181    5.69529E+005    2.24735E+005   -4.31222E+005   -6.25908E+004   -4.31222E+005    6.55958E+005    8.96926E+004   -3.39959E+005   -7.25374E+004   -1.33932E+005   -6.26086E+004    3.26450E+005    7.57079E+003   -1.21235E+003
            7182    4.98866E+005    1.81338E+005   -3.93171E+005   -6.95484E+004   -3.93171E+005    5.74508E+005    9.37938E+004   -2.99852E+005   -7.35328E+004   -1.38267E+005   -6.95815E+004    2.85408E+005    1.93833E+003   -2.68877E+003
            7183    2.51799E+005    1.76725E+005    1.76725E+005    2.17216E+004   -1.13811E+005    2.90535E+005   -2.82119E+004    1.22717E+005    2.16723E+004    4.12495E+004    2.17137E+004    1.43990E+005   -3.72312E+001    1.65389E+004
            7184    2.73091E+005    1.96468E+005    1.96468E+005    2.70062E+004   -1.18568E+005    3.15037E+005   -3.49687E+004    1.38651E+005    2.70460E+004    5.04415E+004    2.74186E+004    1.56066E+005    1.81477E+003    1.78894E+004
            7185    3.01481E+005    2.24169E+005    2.24169E+005    3.44112E+004   -1.23464E+005    3.47633E+005   -4.50388E+004    1.62998E+005    3.52219E+004    6.48336E+004    3.50608E+004    1.72300E+005    3.29889E+003    1.74593E+004
            7186    3.38356E+005    2.57761E+005    2.57761E+005    4.21348E+004   -1.32212E+005    3.89973E+005   -5.58946E+004    1.91780E+005    4.39473E+004    8.08251E+004    4.29113E+004    1.93295E+005    4.42871E+003    1.76872E+004
            7187    3.81325E+005    2.96627E+005    2.96627E+005    5.14227E+004   -1.42700E+005    4.39327E+005   -6.84500E+004    2.22902E+005    5.39151E+004    9.93504E+004    5.20844E+004    2.17903E+005    4.82190E+003    1.57367E+004
            7188    2.69988E+005    1.84768E+005    1.84768E+005    1.67347E+004   -1.26662E+005    3.11430E+005   -2.49467E+004    1.39010E+005    1.87724E+004    3.84221E+004    1.76454E+004    1.54901E+005    6.75721E+003    1.10104E+004
            7189    2.96233E+005    2.09562E+005    2.09562E+005    2.27894E+004   -1.31999E+005    3.41561E+005   -3.34506E+004    1.61262E+005    2.60235E+004    5.00847E+004    2.42436E+004    1.69622E+005    1.18814E+004    1.14088E+004
            7190    3.29662E+005    2.37561E+005    2.37561E+005    2.80582E+004   -1.42433E+005    3.79994E+005   -4.10623E+004    1.84983E+005    3.24199E+004    6.08040E+004    2.99629E+004    1.88412E+005    1.68765E+004    1.21576E+004
            7191    3.71644E+005    2.73535E+005    2.73535E+005    3.48948E+004   -1.54666E+005    4.28201E+005   -5.12547E+004    2.16225E+005    4.09618E+004    7.61381E+004    3.66642E+004    2.12272E+005    1.94104E+004    1.16063E+004
            7192    4.17638E+005    3.11511E+005    3.11511E+005    4.22956E+004   -1.69599E+005    4.81110E+005   -6.14024E+004    2.46087E+005    4.95329E+004    9.09547E+004    4.37195E+004    2.38736E+005    1.90706E+004    1.08955E+004
            7193    2.75824E+005    1.90412E+005    1.90412E+005    1.24110E+004   -1.27315E+005    3.17727E+005   -2.51693E+004    1.63114E+005    1.79492E+004    4.40068E+004    1.35517E+004    1.56741E+005    2.19404E+004    6.28871E+003
            7194    3.09162E+005    2.17700E+005    2.17700E+005    1.81817E+004   -1.38429E+005    3.56129E+005   -3.24841E+004    1.82837E+005    2.39908E+004    5.38171E+004    1.96443E+004    1.74272E+005    3.30318E+004    7.23563E+003
            7195    3.53353E+005    2.56177E+005    2.56177E+005    2.65860E+004   -1.50722E+005    4.06899E+005   -4.40137E+004    2.13417E+005    3.33804E+004    7.06129E+004    2.80478E+004    1.98602E+005    3.96760E+004    8.05656E+003
            7196    4.01326E+005    2.96330E+005    2.96330E+005    3.54719E+004   -1.65803E+005    4.62133E+005   -5.53331E+004    2.42663E+005    4.24176E+004    8.69778E+004    3.66038E+004    2.26006E+005    4.22808E+004    7.84413E+003
            7197    4.54145E+005    3.41763E+005    3.41763E+005    4.57094E+004   -1.81113E+005    5.22876E+005   -6.87865E+004    2.76993E+005    5.30468E+004    1.06865E+005    4.64478E+004    2.56895E+005    4.00588E+004    7.13805E+003
            7198    2.68648E+005    1.80529E+005    1.80529E+005    5.48326E+003   -1.28785E+005    3.09314E+005   -1.90757E+004    1.63623E+005    1.42580E+004    4.05248E+004    2.44426E+003    1.45287E+005    5.06533E+004    1.81561E+003
            7199    3.21589E+005    2.22432E+005    2.22432E+005    1.29972E+004   -1.47846E+005    3.70278E+005   -2.91946E+004    1.95575E+005    2.32955E+004    5.42497E+004    1.00386E+004    1.72518E+005    6.46614E+004    3.84722E+003
            7200    3.73673E+005    2.61264E+005    2.61264E+005    2.04779E+004   -1.69206E+005    4.30470E+005   -3.75120E+004    2.19921E+005    3.04687E+004    6.55216E+004    1.65458E+004    2.02033E+005    7.12991E+004    2.44054E+003
            7201    4.30334E+005    3.05991E+005    3.05991E+005    2.96118E+004   -1.89828E+005    4.95819E+005   -4.85917E+004    2.50530E+005    3.97636E+004    7.98549E+004    2.61566E+004    2.35833E+005    7.29907E+004    2.24603E+003
            7202    4.88143E+005    3.50412E+005    3.50412E+005    3.83698E+004   -2.12125E+005    5.62538E+005   -5.88856E+004    2.79702E+005    4.79488E+004    9.34788E+004    3.52292E+004    2.71829E+005    6.78133E+004    6.24754E+002
            7203    5.21216E+005    3.74349E+005    3.74349E+005    4.56572E+004   -2.26617E+005    6.00966E+005   -6.44632E+004    2.83976E+005    5.31509E+004    1.06387E+005    3.38513E+004    2.78414E+005    1.07786E+005   -3.40089E+003
            7204    4.53532E+005    3.19378E+005    3.19378E+005    3.32825E+004   -2.03543E+005    5.22921E+005   -4.97059E+004    2.47396E+005    4.09454E+004    8.92683E+004    1.89040E+004    2.33276E+005    1.13356E+005   -1.07541E+003
            7205    3.91114E+005    2.71182E+005    2.71182E+005    2.30609E+004   -1.79677E+005    4.50859E+005   -3.81887E+004    2.18046E+005    3.10765E+004    7.46503E+004    8.83928E+003    1.94036E+005    1.10517E+005    2.34554E+003
            7206    3.34158E+005    2.26688E+005    2.26688E+005    1.35199E+004   -1.58429E+005    3.85118E+005   -2.72596E+004    1.90091E+005    2.21102E+004    6.02561E+004   -5.87495E+002    1.61711E+005    1.00565E+005    3.36682E+003
            7207    2.80691E+005    1.86570E+005    1.86570E+005    6.99890E+003   -1.36889E+005    3.23459E+005   -1.88935E+004    1.61272E+005    1.48955E+004    4.65003E+004   -4.71535E+003    1.32999E+005    8.87978E+004    4.57576E+003
            7208    2.30177E+005    1.49088E+005    1.49088E+005    2.11888E+003   -1.16181E+005    2.65269E+005   -1.16750E+004    1.31357E+005    9.01208E+003    3.43496E+004   -8.33673E+003    1.02680E+005    8.13409E+004    6.32249E+003
            7209    1.75051E+005    1.10465E+005    1.10465E+005   -1.88375E+003   -9.12296E+004    2.01694E+005   -5.78379E+003    1.01679E+005    4.54727E+003    2.17875E+004   -8.98347E+003    7.19454E+004    6.88473E+004    7.76463E+003
            7210    1.60571E+005    1.02039E+005    1.02039E+005   -2.24845E+003   -8.28690E+004    1.84908E+005   -5.64040E+003    9.68579E+004    2.65963E+003    1.87370E+004   -4.47541E+003    8.42681E+004    3.67106E+004    2.05552E+003
            7211    1.68439E+005    1.06554E+005    1.06554E+005   -2.55351E+003   -8.74398E+004    1.93994E+005   -5.52021E+003    1.00784E+005    1.54966E+003    1.78967E+004   -2.88575E+003    9.59417E+004    1.15169E+004   -1.43784E+002
            7212    2.03458E+005    1.33082E+005    1.33082E+005    2.47702E+003   -1.01342E+005    2.34424E+005   -1.14056E+004    1.18252E+005    6.81060E+003    2.88924E+004   -1.48622E+003    1.09772E+005    3.87443E+004   -8.99000E+002
            7213    2.02300E+005    1.29796E+005    1.29796E+005    1.39425E+003   -1.03401E+005    2.33197E+005   -9.26317E+003    1.12992E+005    3.75844E+003    2.30145E+004    1.01659E+003    1.15717E+005    1.03107E+004   -1.14665E+003
            7214    2.23649E+005    1.38131E+005    1.38131E+005   -1.31100E+003   -1.19834E+005    2.57965E+005   -5.66206E+003    1.16100E+005    1.24259E+003    1.72507E+004   -1.50707E+003    1.28535E+005    6.86780E+003   -1.33102E+003
            7215    2.33679E+005    1.47671E+005    1.47671E+005    3.43954E+003   -1.21939E+005    2.69610E+005   -9.72383E+003    1.15502E+005    4.89795E+003    2.08145E+004    3.45908E+003    1.34551E+005    2.17243E+003    7.45749E+002
            7216    2.30833E+005    1.45865E+005    1.45865E+005   -7.05090E+002   -1.20219E+005    2.66084E+005   -8.31370E+003    1.29118E+005    4.42788E+003    2.12737E+004   -7.60493E+002    1.32728E+005   -1.02158E+003    3.28696E+003
            7217    2.15002E+005    1.52989E+005    1.52989E+005    1.13858E+004   -9.44114E+004    2.47400E+005   -2.33211E+004    1.34989E+005    1.81017E+004    4.07265E+004    1.11351E+004    1.22376E+005   -7.05104E+002    1.38830E+004
            7218    2.33188E+005    1.52139E+005    1.52139E+005    2.29717E+003   -1.16527E+005    2.68666E+005   -1.26365E+004    1.35993E+005    7.89356E+003    2.89766E+004    1.03947E+003    1.30842E+005    2.81759E+004   -2.21722E+001
            7219    2.51650E+005    1.67780E+005    1.67780E+005    5.28794E+003   -1.22093E+005    2.89873E+005   -1.69918E+004    1.49086E+005    1.12692E+004    3.42830E+004    5.42334E+003    1.44083E+005    1.06143E+004    1.98702E+003
            7220    2.50783E+005    1.68961E+005    1.68961E+005    1.00481E+004   -1.20143E+005    2.89104E+005   -1.96221E+004    1.39208E+005    1.37616E+004    3.49593E+004    1.01453E+004    1.43697E+005    7.52172E+002    1.16203E+004
            7221    2.35860E+005    1.60794E+005    1.60794E+005    1.76440E+004   -1.11432E+005    2.72226E+005   -2.23352E+004    1.05462E+005    1.74068E+004    3.21630E+004    1.74359E+004    1.34674E+005   -7.82218E+002    1.82541E+004
            7222    2.70500E+005    1.19956E+005   -1.92098E+005   -2.43866E+004   -1.92098E+005    3.12054E+005    3.21760E+004   -1.36770E+005   -2.44469E+004   -4.72255E+004   -2.48557E+004    1.54797E+005    2.31205E+003   -1.58965E+004
            7223    3.03444E+005    1.27857E+005   -2.22020E+005   -3.07170E+004   -2.22020E+005    3.49877E+005    4.16265E+004   -1.65131E+005   -3.19551E+004   -6.08879E+004   -3.20364E+004    1.73406E+005    6.93724E+003   -1.72262E+004
            7224    3.45627E+005    1.37505E+005   -2.60814E+005   -4.00966E+004   -2.60814E+005    3.98319E+005    5.44683E+004   -1.97345E+005   -4.22465E+004   -7.98386E+004   -4.13199E+004    1.97533E+005    8.10679E+003   -1.58559E+004
            7225    3.91980E+005    1.50612E+005   -3.00997E+005   -4.90089E+004   -3.00997E+005    4.51609E+005    6.64646E+004   -2.28926E+005   -5.17743E+004   -9.75608E+004   -5.00587E+004    2.24055E+005    8.64958E+003   -1.46503E+004
            7226    2.97062E+005    1.34308E+005   -2.07967E+005   -1.72952E+004   -2.07967E+005    3.42275E+005    3.03181E+004   -1.72598E+005   -2.35189E+004   -4.84109E+004   -1.90246E+004    1.68447E+005    2.69815E+004   -7.89633E+003
            7227    3.48394E+005    1.48668E+005   -2.52576E+005   -2.68283E+004   -2.52576E+005    4.01243E+005    4.35787E+004   -2.08666E+005   -3.46713E+004   -6.76343E+004   -2.84305E+004    1.96781E+005    3.50274E+004   -8.13277E+003
            7228    3.98392E+005    1.65751E+005   -2.93112E+005   -3.53981E+004   -2.93112E+005    4.58863E+005    5.42529E+004   -2.37379E+005   -4.34798E+004   -8.27292E+004   -3.65498E+004    2.25332E+005    3.81576E+004   -7.40834E+003
            7229    4.51871E+005    1.83144E+005   -3.37264E+005   -4.43623E+004   -3.37264E+005    5.20408E+005    6.61607E+004   -2.70941E+005   -5.33032E+004   -9.99759E+004   -4.52032E+004    2.56453E+005    3.70447E+004   -6.92807E+003
            7230    5.08192E+005    2.21081E+005   -3.64798E+005   -4.32564E+004   -3.64798E+005    5.85879E+005    6.23244E+004   -2.80486E+005   -5.00249E+004   -1.01770E+005   -3.51777E+004    2.76425E+005    9.19107E+004    2.35691E+003
            7231    4.42992E+005    1.96593E+005   -3.14040E+005   -3.25915E+004   -3.14040E+005    5.10632E+005    5.00128E+004   -2.48326E+005   -3.99425E+004   -8.64900E+004   -2.36059E+004    2.35199E+005    9.50297E+004    1.51491E+002
            7232    3.80400E+005    1.72647E+005   -2.65705E+005   -2.22415E+004   -2.65705E+005    4.38352E+005    3.84332E+004   -2.18880E+005   -3.05781E+004   -7.13920E+004   -1.33293E+004    1.99099E+005    8.77762E+004   -8.31553E+002
            7233    3.29436E+005    1.52735E+005   -2.26599E+005   -1.22914E+004   -2.26599E+005    3.79334E+005    2.87184E+004   -1.99689E+005   -2.24492E+004   -5.79463E+004   -5.75963E+003    1.71264E+005    7.82478E+004   -3.39873E+003
            7234    2.83215E+005    1.36068E+005   -1.89990E+005   -5.16266E+003   -1.89990E+005    3.26058E+005    1.96950E+004   -1.73292E+005   -1.54688E+004   -4.65945E+004    2.97834E+003    1.39851E+005    8.07774E+004   -5.08377E+003
            7235    2.26624E+005    1.15253E+005   -1.45901E+005   -9.28083E+002   -1.45901E+005    2.61154E+005    1.05253E+004   -1.30179E+005   -8.30381E+003   -3.18590E+004    8.58698E+003    1.01964E+005    7.92066E+004   -6.04034E+003
            7236    1.79547E+005    9.20299E+004   -1.14855E+005    2.55975E+002   -1.14855E+005    2.06885E+005    7.52298E+003   -1.03915E+005   -5.62430E+003   -2.45436E+004    7.59893E+003    7.50082E+004    6.92856E+004   -7.61486E+003
            7237    1.31282E+005    6.79328E+004   -8.31027E+004    3.64382E+003   -8.31027E+004    1.51036E+005    3.84201E+003   -8.31511E+004   -3.07925E+003   -1.44243E+004    5.97746E+003    5.17621E+004    5.37648E+004   -8.39629E+003
            7238    1.28938E+005    6.58572E+004   -8.24089E+004    3.47093E+003   -8.24089E+004    1.48266E+005    4.36027E+003   -8.33664E+004   -2.10488E+003   -1.41940E+004    3.21805E+003    6.74056E+004    3.00106E+004   -4.23497E+003
            7239    1.39011E+005    7.09596E+004   -8.90011E+004    2.53048E+003   -8.90011E+004    1.59961E+005    5.17034E+003   -8.72187E+004   -1.92726E+003   -1.61158E+004    2.53205E+003    7.90614E+004    9.72116E+003   -1.14382E+003
            7240    1.67978E+005    8.38747E+004   -1.09584E+005   -7.31032E+002   -1.09584E+005    1.93458E+005    8.81329E+003   -1.00633E+005   -4.71590E+003   -2.40773E+004    2.35335E+003    8.87998E+004    3.64923E+004   -1.08934E+003
            7241    1.78718E+005    8.88496E+004   -1.16957E+005   -9.12162E+002   -1.16957E+005    2.05807E+005    9.67323E+003   -1.07726E+005   -4.25274E+003   -2.42522E+004   -5.14794E+002    1.01697E+005    1.18926E+004    3.21332E+002
            7242    2.10991E+005    1.07245E+005   -1.35823E+005    5.15669E+001   -1.35823E+005    2.43068E+005    9.50883E+003   -1.23930E+005   -5.63620E+003   -2.62436E+004    3.35328E+003    1.14517E+005    3.86589E+004    3.95985E+002
            7243    2.13498E+005    1.13488E+005   -1.32673E+005    2.02031E+003   -1.32673E+005    2.46161E+005    5.72167E+003   -1.16514E+005   -1.35085E+003   -1.82451E+004    2.43097E+003    1.22358E+005    9.90544E+003    1.70050E+003
            7244    2.48492E+005    1.21173E+005   -1.65093E+005   -5.01818E+003   -1.65093E+005    2.86267E+005    1.63126E+004   -1.46106E+005   -1.09741E+004   -3.45709E+004   -3.39272E+003    1.39896E+005    2.73133E+004    1.23912E+003
            7245    2.30928E+005    1.20593E+005   -1.45823E+005   -2.89500E+003   -1.45823E+005    2.66416E+005    9.37482E+003   -1.15762E+005   -4.40992E+003   -2.08513E+004   -2.86322E+003    1.32881E+005    4.37827E+003    1.85661E+002
            7246    2.33544E+005    1.22368E+005   -1.46908E+005    3.87942E+002   -1.46908E+005    2.69277E+005    8.05071E+003   -1.27303E+005   -4.07889E+003   -2.04358E+004    3.62613E+002    1.34372E+005    8.67259E+002   -2.10416E+003
            7247    2.19822E+005    9.96971E+004   -1.53461E+005   -1.09202E+004   -1.53461E+005    2.53158E+005    2.15614E+004   -1.31956E+005   -1.64683E+004   -3.73637E+004   -1.08523E+004    1.25453E+005   -2.84206E+001   -1.31799E+004
            7248    2.60816E+005    1.22962E+005   -1.77522E+005   -9.76619E+003   -1.77522E+005    3.00484E+005    2.14423E+004   -1.52588E+005   -1.53439E+004   -3.81555E+004   -1.08274E+004    1.49232E+005    1.10032E+004   -8.30880E+003
            7249    2.46856E+005    1.15676E+005   -1.69211E+005   -1.85495E+004   -1.69211E+005    2.84887E+005    2.40280E+004   -1.14474E+005   -1.85288E+004   -3.47957E+004   -1.87594E+004    1.41178E+005    8.66187E+002   -1.71359E+004
            7250    5.87815E+005    4.28784E+005    4.28784E+005    5.82439E+004   -2.48982E+005    6.77766E+005   -7.93486E+004    3.19740E+005    6.58726E+004    1.21955E+005    5.02182E+004    3.24951E+005    9.01620E+004   -5.55332E+003
            7251    5.45093E+005    3.95584E+005    3.95584E+005    4.75482E+004   -2.32615E+005    6.28199E+005   -7.01722E+004    3.11046E+005    5.69129E+004    1.07975E+005    4.56285E+004    3.07866E+005    5.61856E+004    2.85906E+002
            7252    5.07402E+005    3.86152E+005    3.86152E+005    5.54502E+004   -1.98047E+005    5.84199E+005   -8.11853E+004    3.09285E+005    6.26551E+004    1.25097E+005    5.58039E+004    2.88387E+005    3.40895E+004    5.61500E+003
            7253    4.65448E+005    3.51120E+005    3.51120E+005    5.01091E+004   -1.84984E+005    5.36103E+005   -7.20818E+004    2.77103E+005    5.86333E+004    1.06629E+005    5.09827E+004    2.66368E+005    1.65621E+004    8.80927E+003
            7254    4.26798E+005    3.36082E+005    3.36082E+005    6.01989E+004   -1.55516E+005    4.91598E+005   -8.02551E+004    2.53711E+005    6.30722E+004    1.17041E+005    6.06520E+004    2.43946E+005    4.44088E+003    1.31584E+004
            7255    6.45983E+005    4.77787E+005    4.77787E+005    6.99516E+004   -2.67007E+005    7.44794E+005   -9.35770E+004    3.53533E+005    7.78569E+004    1.36321E+005    6.65532E+004    3.65974E+005    6.11375E+004   -4.58423E+003
            7256    5.93174E+005    4.33126E+005    4.33126E+005    5.50421E+004   -2.50532E+005    6.83658E+005   -7.92121E+004    3.36430E+005    6.37261E+004    1.19770E+005    5.41405E+004    3.38517E+005    3.78780E+004   -3.87878E+002
            7257    5.54041E+005    4.25198E+005    4.25198E+005    6.41001E+004   -2.12699E+005    6.37897E+005   -9.21999E+004    3.37711E+005    7.10768E+004    1.41312E+005    6.42104E+004    3.16150E+005    2.31465E+004    3.58165E+003
            7258    5.07257E+005    3.85029E+005    3.85029E+005    5.66725E+004   -1.99205E+005    5.84233E+005   -8.08323E+004    3.02876E+005    6.61993E+004    1.19255E+005    5.70428E+004    2.90640E+005    1.16371E+004    5.89339E+003
            7259    4.65413E+005    3.69169E+005    3.69169E+005    6.75315E+004   -1.66839E+005    5.36008E+005   -8.99539E+004    2.78941E+005    7.04384E+004    1.31696E+005    6.77277E+004    2.66107E+005    3.29481E+003    8.41731E+003
            7260    6.81806E+005    5.07709E+005    5.07709E+005    7.71351E+004   -2.78379E+005    7.86089E+005   -1.02155E+005    3.73555E+005    8.52238E+004    1.44546E+005    7.66952E+004    3.91309E+005    2.14547E+004   -2.14690E+003
            7261    6.20525E+005    4.55268E+005    4.55268E+005    5.98519E+004   -2.59920E+005    7.15188E+005   -8.50667E+004    3.51623E+005    6.81943E+004    1.27258E+005    5.97478E+004    3.56124E+005    1.31515E+004   -1.58318E+002
            7262    5.78937E+005    4.46075E+005    4.46075E+005    6.88609E+004   -2.20497E+005    6.66572E+005   -9.81461E+004    3.52581E+005    7.56102E+004    1.49954E+005    6.88740E+004    3.31101E+005    8.27746E+003    1.27677E+003
            7263    5.30547E+005    4.04098E+005    4.04098E+005    6.06175E+004   -2.06955E+005    6.11053E+005   -8.59200E+004    3.16920E+005    7.06576E+004    1.26446E+005    6.06567E+004    3.04218E+005    4.22726E+003    1.87218E+003
            7264    4.88452E+005    3.88630E+005    3.88630E+005    7.17790E+004   -1.73886E+005    5.62516E+005   -9.55075E+004    2.93549E+005    7.45825E+004    1.40136E+005    7.18042E+004    2.79323E+005    1.17330E+003    3.18037E+003
            7265    1.27972E+005    8.22962E+004    8.22962E+004   -2.46021E+003   -6.49111E+004    1.47207E+005   -4.97497E+003    8.15527E+004    3.71152E+003    1.59349E+004   -4.72147E+003    4.97070E+004   -5.29298E+004   -8.87322E+003
            7266    1.21280E+005    8.10095E+004    8.10095E+004   -5.85665E+002   -5.83556E+004    1.39365E+005   -7.35608E+003    8.03579E+004    4.24749E+003    1.85530E+004   -7.32311E+002    6.30583E+004   -2.84413E+004   -4.18084E+003
            7267    1.30220E+005    8.78952E+004    8.78952E+004    1.23364E+003   -6.18521E+004    1.49747E+005   -9.09223E+003    8.40194E+004    4.75879E+003    2.13175E+004    1.20044E+003    7.38038E+004   -9.42259E+003   -1.15712E+003
            7268    8.46558E+004    5.49207E+004    5.49207E+004   -5.66048E+003   -4.18082E+004    9.67289E+004   -2.48401E+003    6.34434E+004    1.93372E+003    8.13271E+003   -2.61440E+003    3.34065E+004   -3.41885E+004   -8.65564E+003
            7269    8.75983E+004    5.56258E+004    5.56258E+004   -4.45645E+003   -4.48855E+004    1.00511E+005   -2.09463E+003    6.05884E+004    6.11348E+002    7.76333E+003   -2.09079E+003    4.64107E+004   -1.86761E+004   -5.39875E+003
            7270    9.71636E+004    6.11390E+004    6.11390E+004   -2.53632E+003   -5.06977E+004    1.11837E+005   -2.63497E+003    6.01687E+004    6.25399E+002    9.55808E+003   -2.27857E+003    5.53688E+004   -6.31265E+003   -1.82074E+003
            7271    5.19639E+004    3.58379E+004    3.58379E+004   -5.77890E+003   -2.24041E+004    5.82420E+004   -2.55165E+003    4.53748E+004    1.93876E+003    5.40254E+003    3.13645E+002    2.38856E+004   -1.59323E+004   -8.30466E+003
            7272    6.54489E+004    4.40128E+004    4.40128E+004   -6.92249E+002   -3.11096E+004    7.51224E+004   -4.07032E+003    4.48712E+004    2.81767E+003    8.02940E+003    1.36388E+003    3.62093E+004   -8.67953E+003   -5.39669E+003
            7273    7.63853E+004    5.05744E+004    5.05744E+004    1.80834E+003   -3.74571E+004    8.80315E+004   -4.97523E+003    4.35719E+004    3.22214E+003    9.67212E+003    2.03142E+003    4.37688E+004   -2.91720E+003   -1.94687E+003
            7274    3.92930E+004    2.14062E+004   -2.39435E+004   -5.00757E+001   -2.39435E+004    4.53498E+004    8.62456E+002   -1.77971E+004   -6.07340E+002   -1.37087E+003   -6.09160E+002    2.12232E+004    8.51742E+002   -7.95633E+003
            7275    5.84577E+004    3.08551E+004   -3.66182E+004   -1.20488E+003   -3.66182E+004    6.74733E+004    2.32267E+003   -2.57984E+004   -1.79534E+003   -3.68605E+003   -1.48662E+003    3.33042E+004    9.44487E+002   -5.25521E+003
            7276    7.04235E+004    3.73801E+004   -4.39257E+004   -2.04864E+003   -4.39257E+004    8.13058E+004    2.86473E+003   -2.63069E+004   -2.10004E+003   -4.41179E+003   -2.08236E+003    4.05934E+004    3.74473E+002   -1.84419E+003
            7277    5.43877E+004    2.50101E+004   -3.60608E+004    7.15475E+003   -3.60608E+004    6.10709E+004    1.29862E+003   -4.70822E+004   -1.05981E+003   -3.87476E+003    1.03872E+003    2.46462E+004    1.74596E+004   -8.22535E+003
            7278    6.87638E+004    3.67282E+004   -4.22713E+004    4.14015E+003   -4.22713E+004    7.89995E+004    4.67633E+002   -4.59034E+004    1.43754E+002   -3.18425E+003    1.63760E+003    3.77361E+004    1.07668E+004   -5.48844E+003
            7279    7.99014E+004    4.37895E+004   -4.83164E+004    2.38506E+003   -4.83164E+004    9.21060E+004    7.13937E+002   -4.45854E+004    1.95653E+002   -4.44491E+003    2.10745E+003    4.58169E+004    3.66724E+003   -2.02178E+003
            7280    8.88272E+004    4.26115E+004   -5.90082E+004    3.85719E+003   -5.90082E+004    1.01620E+005    4.17983E+003   -6.52930E+004   -3.01101E+003   -1.09732E+004    1.44474E+003    3.52387E+004    3.56532E+004   -8.80892E+003
            7281    9.46054E+004    4.42536E+004   -6.42471E+004    9.97744E+002   -6.42471E+004    1.08501E+005    6.33189E+003   -6.61828E+004   -3.64103E+003   -1.48498E+004   -5.04886E+002    4.98167E+004    2.04675E+004   -5.08892E+003
            7282    1.05618E+005    4.95095E+004   -7.19292E+004   -1.48163E+003   -7.19292E+004    1.21439E+005    7.96713E+003   -6.85326E+004   -4.29412E+003   -1.79819E+004   -1.62535E+003    5.99054E+004    7.08665E+003   -1.58386E+003
            7283    4.26442E+005    3.35810E+005    3.35810E+005    6.01887E+004   -1.55381E+005    4.91191E+005   -8.02058E+004    2.53406E+005    6.30278E+004    1.16949E+005    6.06410E+004    2.43741E+005   -4.40990E+003   -1.32091E+004
            7284    4.65561E+005    3.51272E+005    3.51272E+005    5.01683E+004   -1.84960E+005    5.36232E+005   -7.21604E+004    2.77229E+005    5.86816E+004    1.06761E+005    5.10381E+004    2.66427E+005   -1.66306E+004   -8.76026E+003
            7285    5.08036E+005    3.86584E+005    3.86584E+005    5.55180E+004   -1.98349E+005    5.84934E+005   -8.12510E+004    3.09537E+005    6.27112E+004    1.25176E+005    5.58661E+004    2.88735E+005   -3.42818E+004   -5.60372E+003
            7286    5.45933E+005    3.96139E+005    3.96139E+005    4.76796E+004   -2.33036E+005    6.29175E+005   -7.02610E+004    3.11173E+005    5.69992E+004    1.08069E+005    4.57152E+004    3.08301E+005   -5.65179E+004   -2.09086E+002
            7287    5.88232E+005    4.29172E+005    4.29172E+005    5.83926E+004   -2.49076E+005    6.78248E+005   -7.94963E+004    3.19887E+005    6.60087E+004    1.22104E+005    5.03760E+004    3.25202E+005   -9.01603E+004    5.55549E+003
            7288    4.65179E+005    3.69068E+005    3.69068E+005    6.75681E+004   -1.66669E+005    5.35737E+005   -8.99893E+004    2.78842E+005    7.04600E+004    1.31748E+005    6.77604E+004    2.65969E+005   -3.22255E+003   -8.42213E+003
            7289    5.06700E+005    3.84664E+005    3.84664E+005    5.66912E+004   -1.98929E+005    5.83593E+005   -8.08088E+004    3.02479E+005    6.61789E+004    1.19188E+005    5.70594E+004    2.90327E+005   -1.14524E+004   -5.91651E+003
            7290    5.53694E+005    4.24828E+005    4.24828E+005    6.39402E+004   -2.12668E+005    6.37497E+005   -9.20335E+004    3.37543E+005    7.09705E+004    1.41079E+005    6.40512E+004    3.15958E+005   -2.31063E+004   -3.58149E+003
            7291    5.94096E+005    4.33801E+005    4.33801E+005    5.51803E+004   -2.50922E+005    6.84724E+005   -7.93530E+004    3.36793E+005    6.38919E+004    1.19908E+005    5.42591E+004    3.39047E+005   -3.79445E+004    4.73173E+002
            7292    6.46474E+005    4.78246E+005    4.78246E+005    7.01414E+004   -2.67117E+005    7.45362E+005   -9.37568E+004    3.53662E+005    7.80423E+004    1.36511E+005    6.67167E+004    3.66225E+005   -6.13569E+004    4.61706E+003
            7293    4.88291E+005    3.88547E+005    3.88547E+005    7.18318E+004   -1.73787E+005    5.62334E+005   -9.55307E+004    2.93364E+005    7.45930E+004    1.40141E+005    7.18582E+004    2.79231E+005   -1.22276E+003   -3.20389E+003
            7294    5.30283E+005    4.03957E+005    4.03957E+005    6.06615E+004   -2.06793E+005    6.10750E+005   -8.59420E+004    3.16724E+005    7.06740E+004    1.26450E+005    6.07019E+004    3.04066E+005   -4.25608E+003   -1.90749E+003
            7295    5.78980E+005    4.46126E+005    4.46126E+005    6.89410E+004   -2.20500E+005    6.66626E+005   -9.81887E+004    3.52450E+005    7.56631E+004    1.49949E+005    6.89543E+004    3.31134E+005   -8.21258E+003   -1.27302E+003
            7296    6.20432E+005    4.55208E+005    4.55208E+005    5.99022E+004   -2.59877E+005    7.15085E+005   -8.50779E+004    3.51407E+005    6.81940E+004    1.27237E+005    5.98029E+004    3.56078E+005   -1.30296E+004    1.18167E+002
            7297    6.81303E+005    5.07288E+005    5.07288E+005    7.70333E+004   -2.78220E+005    7.85509E+005   -1.02034E+005    3.73274E+005    8.51005E+004    1.44413E+005    7.65879E+004    3.91008E+005   -2.16257E+004    2.14694E+003
            7298    2.80902E+005    1.86693E+005    1.86693E+005    7.06522E+003   -1.37015E+005    3.23708E+005   -1.89145E+004    1.61150E+005    1.49111E+004    4.65113E+004   -4.67886E+003    1.33143E+005   -8.88118E+004   -4.51344E+003
            7299    3.34250E+005    2.26751E+005    2.26751E+005    1.35363E+004   -1.58473E+005    3.85225E+005   -2.72714E+004    1.90105E+005    2.21194E+004    6.03401E+004   -6.45258E+002    1.61697E+005   -1.00668E+005   -3.35775E+003
            7300    3.91986E+005    2.71820E+005    2.71820E+005    2.31908E+004   -1.80047E+005    4.51867E+005   -3.83213E+004    2.18384E+005    3.11679E+004    7.48151E+004    8.98083E+003    1.94501E+005   -1.10724E+005   -2.35023E+003
            7301    4.54606E+005    3.20180E+005    3.20180E+005    3.34220E+004   -2.03980E+005    5.24160E+005   -4.98742E+004    2.47932E+005    4.10726E+004    8.94874E+004    1.90627E+004    2.33973E+005   -1.13341E+005    1.12526E+003
            7302    5.21756E+005    3.74903E+005    3.74903E+005    4.58111E+004   -2.26683E+005    6.01586E+005   -6.46769E+004    2.84471E+005    5.33337E+004    1.06599E+005    3.40981E+004    2.78901E+005   -1.07402E+005    3.41307E+003
            7303    4.87896E+005    3.50189E+005    3.50189E+005    3.83068E+004   -2.12064E+005    5.62253E+005   -5.88105E+004    2.79553E+005    4.79042E+004    9.33924E+004    3.51350E+004    2.71627E+005   -6.80307E+004   -6.11722E+002
            7304    4.54296E+005    3.41793E+005    3.41793E+005    4.56156E+004   -1.81255E+005    5.23048E+005   -6.87176E+004    2.77153E+005    5.29869E+004    1.06835E+005    4.63311E+004    2.56900E+005   -4.05724E+004   -7.10167E+003
            7305    4.18132E+005    3.11832E+005    3.11832E+005    4.22455E+004   -1.69843E+005    4.81675E+005   -6.14114E+004    2.46533E+005    4.95332E+004    9.10243E+004    4.36769E+004    2.38996E+005   -1.93615E+004   -1.08480E+004
            7306    3.81382E+005    2.96615E+005    2.96615E+005    5.13825E+004   -1.42779E+005    4.39394E+005   -6.84060E+004    2.22908E+005    5.38837E+004    9.92923E+004    5.20420E+004    2.17939E+005   -4.81289E+003   -1.57184E+004
            7307    4.29307E+005    3.05254E+005    3.05254E+005    2.94666E+004   -1.89376E+005    4.94630E+005   -4.84480E+004    2.50135E+005    3.96557E+004    7.96879E+004    2.60004E+004    2.35207E+005   -7.29996E+004   -2.26246E+003
            7308    4.00912E+005    2.95915E+005    2.95915E+005    3.53292E+004   -1.65741E+005    4.61656E+005   -5.51678E+004    2.42404E+005    4.22867E+004    8.67791E+004    3.64376E+004    2.25735E+005   -4.24494E+004   -7.78584E+003
            7309    3.71781E+005    2.73653E+005    2.73653E+005    3.48720E+004   -1.54702E+005    4.28355E+005   -5.12746E+004    2.16464E+005    4.09664E+004    7.62061E+004    3.66512E+004    2.12327E+005   -1.96582E+004   -1.15659E+004
            7310    3.38642E+005    2.57916E+005    2.57916E+005    4.21462E+004   -1.32389E+005    3.90305E+005   -5.58911E+004    1.91820E+005    4.39460E+004    8.07909E+004    4.29363E+004    1.93463E+005   -4.51344E+003   -1.76761E+004
            7311    3.72420E+005    2.60212E+005    2.60212E+005    2.02422E+004   -1.68815E+005    4.29027E+005   -3.72131E+004    2.19157E+005    3.02305E+004    6.51582E+004    1.62507E+004    2.01207E+005   -7.14663E+004   -2.42221E+003
            7312    3.52578E+005    2.55474E+005    2.55474E+005    2.63383E+004   -1.50528E+005    4.06002E+005   -4.37614E+004    2.13085E+005    3.31776E+004    7.03365E+004    2.77702E+004    1.98077E+005   -4.00239E+004   -7.98868E+003
            7313    3.30435E+005    2.38119E+005    2.38119E+005    2.80456E+004   -1.42760E+005    3.80879E+005   -4.11349E+004    1.85674E+005    3.24743E+004    6.09874E+004    2.99431E+004    1.88843E+005   -1.70899E+004   -1.20302E+004
            7314    3.02184E+005    2.24764E+005    2.24764E+005    3.44775E+004   -1.23674E+005    3.48438E+005   -4.51890E+004    1.63677E+005    3.53357E+004    6.50908E+004    3.51405E+004    1.72707E+005   -3.39222E+003   -1.73850E+004
            7315    3.21081E+005    2.22033E+005    2.22033E+005    1.28872E+004   -1.47656E+005    3.69688E+005   -2.90880E+004    1.95381E+005    2.32270E+004    5.41174E+004    9.91980E+003    1.72192E+005   -6.46923E+004   -3.85950E+003
            7316    3.09038E+005    2.17542E+005    2.17542E+005    1.81084E+004   -1.38444E+005    3.55986E+005   -3.24022E+004    1.82752E+005    2.39141E+004    5.37321E+004    1.95605E+004    1.74185E+005   -3.31115E+004   -7.20545E+003
            7317    2.96729E+005    2.09998E+005    2.09998E+005    2.27669E+004   -1.32127E+005    3.42124E+005   -3.35459E+004    1.62030E+005    2.61179E+004    5.02511E+004    2.42686E+004    1.69874E+005   -1.23042E+004   -1.14332E+004
            7318    2.73964E+005    1.97210E+005    1.97210E+005    2.71250E+004   -1.18830E+005    3.16040E+005   -3.51684E+004    1.39414E+005    2.72017E+004    5.07439E+004    2.75596E+004    1.56561E+005   -1.91673E+003   -1.79377E+004
            7319    2.68705E+005    1.80505E+005    1.80505E+005    5.40363E+003   -1.28872E+005    3.09377E+005   -1.90123E+004    1.63710E+005    1.41962E+004    4.04941E+004    2.34642E+003    1.45272E+005   -5.07826E+004   -1.82635E+003
            7320    2.75964E+005    1.90563E+005    1.90563E+005    1.25705E+004   -1.27333E+005    3.17896E+005   -2.52670E+004    1.62909E+005    1.80300E+004    4.40472E+004    1.37237E+004    1.56861E+005   -2.16904E+004   -6.34950E+003
            7321    2.70158E+005    1.84900E+005    1.84900E+005    1.67637E+004   -1.26727E+005    3.11627E+005   -2.49787E+004    1.39086E+005    1.87944E+004    3.84686E+004    1.76731E+004    1.54997E+005   -6.71890E+003   -1.10600E+004
            7322    2.52306E+005    1.77213E+005    1.77213E+005    2.19243E+004   -1.13908E+005    2.91121E+005   -2.84100E+004    1.22853E+005    2.18338E+004    4.14647E+004    2.19315E+004    1.44295E+005   -2.62520E+001   -1.64514E+004
            7323    2.36260E+005    1.61079E+005    1.61079E+005    1.76026E+004   -1.11605E+005    2.72685E+005   -2.23589E+004    1.06066E+005    1.74263E+004    3.22417E+004    1.74087E+004    1.34907E+005    7.27816E+002   -1.82379E+004
            7324    2.15147E+005    1.52933E+005    1.52933E+005    1.14211E+004   -9.46526E+004    2.47586E+005   -2.32339E+004    1.34595E+005    1.80167E+004    4.05243E+004    1.11608E+004    1.22476E+005    7.55793E+002   -1.38753E+004
            7325    2.50852E+005    1.69060E+005    1.69060E+005    1.01826E+004   -1.20129E+005    2.89189E+005   -1.97045E+004    1.38983E+005    1.38388E+004    3.50114E+004    1.02633E+004    1.43732E+005   -6.44580E+002   -1.17235E+004
            7326    2.31070E+005    1.45953E+005    1.45953E+005   -6.53107E+002   -1.20413E+005    2.66366E+005   -8.29556E+003    1.28874E+005    4.39856E+003    2.11951E+004   -7.06951E+002    1.32871E+005    1.00607E+003   -3.25097E+003
            7327    2.51674E+005    1.67797E+005    1.67797E+005    5.21342E+003   -1.22097E+005    2.89894E+005   -1.69709E+004    1.49320E+005    1.12662E+004    3.42858E+004    5.36068E+003    1.44100E+005   -1.05148E+004   -2.06971E+003
            7328    2.33677E+005    1.47683E+005    1.47683E+005    3.45337E+003   -1.21925E+005    2.69608E+005   -9.73691E+003    1.15497E+005    4.89189E+003    2.08461E+004    3.47279E+003    1.34548E+005   -2.25272E+003   -7.26000E+002
            7329    2.33204E+005    1.52146E+005    1.52146E+005    2.36988E+003   -1.16545E+005    2.68691E+005   -1.26569E+004    1.35772E+005    7.91307E+003    2.89470E+004    1.11065E+003    1.30852E+005   -2.82002E+004    3.25047E+001
            7330    2.23569E+005    1.38090E+005    1.38090E+005   -1.27879E+003   -1.19784E+005    2.57874E+005   -5.67584E+003    1.15971E+005    1.25641E+003    1.72422E+004   -1.47106E+003    1.28494E+005   -6.80541E+003    1.31707E+003
            7331    2.01945E+005    1.29571E+005    1.29571E+005    1.37315E+003   -1.03216E+005    2.32788E+005   -9.24268E+003    1.12862E+005    3.74198E+003    2.29947E+004    9.91324E+002    1.15506E+005   -1.03525E+004    1.15167E+003
            7332    1.67592E+005    1.06046E+005    1.06046E+005   -2.57917E+003   -8.69656E+004    1.93012E+005   -5.50043E+003    1.00467E+005    1.54335E+003    1.78653E+004   -2.90738E+003    9.54476E+004   -1.15085E+004    1.15906E+002
            7333    2.03116E+005    1.32823E+005    1.32823E+005    2.43413E+003   -1.01207E+005    2.34029E+005   -1.13501E+004    1.18064E+005    6.76338E+003    2.88200E+004   -1.53304E+003    1.09564E+005   -3.87405E+004    8.91239E+002
            7334    1.59876E+005    1.01595E+005    1.01595E+005   -2.27386E+003   -8.25090E+004    1.84104E+005   -5.60416E+003    9.65327E+004    2.63887E+003    1.86304E+004   -4.45675E+003    8.39402E+004   -3.64699E+004   -2.06914E+003
            7335    1.75571E+005    1.10775E+005    1.10775E+005   -1.88303E+003   -9.15205E+004    2.02296E+005   -5.79051E+003    1.01907E+005    4.54947E+003    2.18582E+004   -9.03615E+003    7.21164E+004   -6.90929E+004   -7.78866E+003
            7336    2.30789E+005    1.49493E+005    1.49493E+005    2.15587E+003   -1.16484E+005    2.65976E+005   -1.17215E+004    1.31635E+005    9.04457E+003    3.44573E+004   -8.33743E+003    1.02899E+005   -8.16252E+004   -6.35310E+003
            7337    3.32087E+005    1.27270E+005   -2.53308E+005   -2.23789E+004   -2.53308E+005    3.80578E+005    4.94721E+004   -2.36196E+005   -3.92672E+004   -9.80434E+004   -1.11058E+004    1.69477E+005   -7.77087E+004    5.62107E+003
            7338    3.84286E+005    1.41566E+005   -2.99697E+005   -3.85597E+004   -2.99697E+005    4.41263E+005    6.55634E+004   -2.60508E+005   -5.27793E+004   -1.20390E+005   -2.35206E+004    1.97774E+005   -8.74049E+004    1.57470E+003
            7339    4.46260E+005    1.57301E+005   -3.55524E+005   -5.54565E+004   -3.55524E+005    5.12825E+005    8.45599E+004   -2.95292E+005   -6.82725E+004   -1.45143E+005   -4.02639E+004    2.33548E+005   -9.42817E+004   -3.17410E+002
            7340    5.10423E+005    1.73675E+005   -4.13153E+005   -7.22348E+004   -4.13153E+005    5.86827E+005    1.03904E+005   -3.32319E+005   -8.37042E+004   -1.69312E+005   -5.86962E+004    2.74179E+005   -9.10438E+004   -3.96252E+003
            7341    4.55955E+005    1.32481E+005   -3.90232E+005   -7.43495E+004   -3.90232E+005    5.22713E+005    1.10700E+005   -3.21911E+005   -8.67684E+004   -1.69516E+005   -7.58160E+004    2.55265E+005   -3.70233E+004    1.19592E+004
            7342    3.97603E+005    1.03314E+005   -3.53053E+005   -8.14478E+004   -3.53053E+005    4.56366E+005    1.10396E+005   -2.72639E+005   -8.66966E+004   -1.61321E+005   -8.31690E+004    2.23782E+005   -8.67110E+003    2.43744E+004
            7343    4.01221E+005    1.24921E+005   -3.35212E+005   -5.83936E+004   -3.35212E+005    4.60134E+005    8.95614E+004   -2.80921E+005   -6.98048E+004   -1.38542E+005   -6.03378E+004    2.24177E+005   -3.77543E+004    1.25218E+004
            7344    3.50294E+005    9.78894E+004   -3.04464E+005   -6.73762E+004   -3.04464E+005    4.02353E+005    9.13169E+004   -2.35340E+005   -7.15768E+004   -1.33022E+005   -6.93522E+004    1.97068E+005   -8.01354E+003    2.63850E+004
            7345    3.51008E+005    1.16870E+005   -2.85668E+005   -4.34249E+004   -2.85668E+005    4.02538E+005    7.07411E+004   -2.45905E+005   -5.42700E+004   -1.11835E+005   -4.61186E+004    1.95941E+005   -3.47273E+004    1.36634E+004
            7346    3.08265E+005    9.69787E+004   -2.57548E+005   -5.27026E+004   -2.57548E+005    3.54526E+005    7.10906E+004   -1.98143E+005   -5.55099E+004   -1.02963E+005   -5.47991E+004    1.73355E+005   -6.79858E+003    2.85604E+004
            7347    2.99249E+005    1.11876E+005   -2.31718E+005   -2.81818E+004   -2.31718E+005    3.43594E+005    4.93413E+004   -2.03270E+005   -3.66584E+004   -8.03357E+004   -3.10298E+004    1.68022E+005   -2.68011E+004    1.31089E+004
            7348    2.75187E+005    9.66705E+004   -2.20256E+005   -4.18891E+004   -2.20256E+005    3.16927E+005    5.51582E+004   -1.64977E+005   -4.26253E+004   -8.01808E+004   -4.26685E+004    1.55139E+005   -2.37257E+003    2.64469E+004
            7349    2.52967E+005    1.02982E+005   -1.88719E+005   -2.96106E+004   -1.88719E+005    2.91700E+005    3.84491E+004   -1.36367E+005   -2.86647E+004   -5.66996E+004   -2.99831E+004    1.42350E+005   -8.36425E+002    2.85747E+004
            7350    2.26431E+005    8.72183E+004   -1.72546E+005   -1.69257E+004   -1.72546E+005    2.59765E+005    3.40846E+004   -1.57280E+005   -2.49055E+004   -6.06452E+004   -1.67032E+004    1.26760E+005   -5.46711E+001    2.18239E+004
            7351    2.62853E+005    1.03325E+005   -1.98254E+005   -1.78146E+004   -1.98254E+005    3.01579E+005    3.75813E+004   -1.82129E+005   -2.68015E+004   -6.63956E+004   -1.95468E+004    1.48608E+005   -1.11593E+004    1.36334E+004
            7352    2.34590E+005    1.11656E+005   -1.58052E+005   -1.39418E+003   -1.58052E+005    2.69708E+005    1.59301E+004   -1.52668E+005   -8.87471E+003   -3.74768E+004   -1.43882E+003    1.34047E+005   -9.64114E+002    3.55117E+003
            7353    2.32554E+005    1.16099E+005   -1.51889E+005   -3.13443E+003   -1.51889E+005    2.67989E+005    1.29748E+004   -1.33550E+005   -4.62493E+003   -3.11977E+004   -3.10178E+003    1.33264E+005   -4.25807E+003   -6.13092E+001
            7354    2.13788E+005    1.02908E+005   -1.42915E+005   -4.10340E+002   -1.42915E+005    2.45823E+005    1.34724E+004   -1.38495E+005   -3.89690E+003   -3.68411E+004    3.20740E+002    1.21311E+005   -9.78098E+003   -3.01259E+003
            7355    1.77750E+005    8.37993E+004   -1.20182E+005    1.52985E+003   -1.20182E+005    2.03981E+005    1.16175E+004   -1.22507E+005   -3.53751E+003   -3.33317E+004    2.01667E+003    1.00189E+005   -1.15160E+004   -7.68256E+001
            7356    1.38689E+005    5.84015E+004   -1.00106E+005   -1.06808E+003   -1.00106E+005    1.58507E+005    1.42573E+004   -1.03560E+005   -6.02890E+003   -3.58191E+004   -9.24026E+002    7.72464E+004   -9.33012E+003    1.52762E+003
            7357    2.50241E+005    1.09856E+005   -1.77326E+005   -6.05907E+003   -1.77326E+005    2.87181E+005    2.45097E+004   -1.72293E+005   -1.58954E+004   -5.41020E+004   -3.53166E+003    1.39451E+005   -2.70010E+004   -1.71307E+003
            7358    2.11500E+005    9.44575E+004   -1.48181E+005   -2.83726E+003   -1.48181E+005    2.42638E+005    1.88535E+004   -1.46876E+005   -1.07887E+004   -4.90020E+004    3.23021E+003    1.12957E+005   -3.76741E+004   -1.13450E+003
            7359    1.66863E+005    7.90368E+004   -1.12267E+005    3.27037E+003   -1.12267E+005    1.91304E+005    9.98667E+003   -1.17677E+005   -4.74563E+003   -3.29368E+004    7.72244E+003    8.70676E+004   -3.55224E+004    2.14473E+003
            7360    1.29079E+005    5.53278E+004   -9.19905E+004    1.27154E+003   -9.19905E+004    1.47318E+005    1.17970E+004   -9.82943E+004   -6.05547E+003   -3.12866E+004    1.95095E+003    6.61444E+004   -2.89140E+004    6.46138E+003
            7361    1.32204E+005    6.19954E+004   -8.93854E+004    3.35941E+003   -8.93854E+004    1.51381E+005    8.01019E+003   -9.56242E+004   -5.70400E+003   -2.67907E+004    8.46415E+003    5.03162E+004   -5.27669E+004    1.39713E+004
            7362    1.81630E+005    8.63167E+004   -1.22238E+005    1.22379E+003   -1.22238E+005    2.08555E+005    1.15659E+004   -1.23210E+005   -8.92394E+003   -3.89684E+004    1.31946E+004    7.37623E+004   -6.85841E+004    1.28974E+004
            7363    2.29460E+005    1.05694E+005   -1.57986E+005   -3.63818E+003   -1.57986E+005    2.63680E+005    1.86432E+004   -1.51968E+005   -1.41441E+004   -5.49093E+004    1.31238E+004    1.00557E+005   -7.85368E+004    9.92804E+003
            7364    2.86939E+005    1.20007E+005   -2.08751E+005   -8.69603E+003   -2.08751E+005    3.28758E+005    3.24802E+004   -2.05122E+005   -2.50580E+004   -7.72259E+004    4.84344E+003    1.38734E+005   -7.99745E+004    8.74933E+003
            7365    4.45754E+005    1.09698E+005   -4.01670E+005   -9.52550E+004   -4.01670E+005    5.11368E+005    1.29076E+005   -3.09747E+005   -1.01366E+005   -1.89516E+005   -9.63450E+004    2.51086E+005   -7.75272E+003    1.95449E+004
            7366    5.08739E+005    1.40673E+005   -4.42468E+005   -8.94536E+004   -4.42468E+005    5.83141E+005    1.30416E+005   -3.60318E+005   -1.02552E+005   -1.98435E+005   -9.02618E+004    2.85824E+005   -3.12304E+004    9.65619E+003
            7367    5.73237E+005    1.86735E+005   -4.72356E+005   -8.98917E+004   -4.72356E+005    6.59091E+005    1.25171E+005   -3.72232E+005   -1.00728E+005   -1.94118E+005   -8.06676E+004    3.15976E+005   -7.74121E+004   -5.83735E+003
            7368    4.86058E+005    1.16305E+005   -4.41182E+005   -1.06237E+005   -4.41182E+005    5.57487E+005    1.43705E+005   -3.39477E+005   -1.12782E+005   -2.11631E+005   -1.06701E+005    2.74011E+005   -5.43010E+003    1.30245E+004
            7369    5.52376E+005    1.46970E+005   -4.86133E+005   -1.02465E+005   -4.86133E+005    6.33103E+005    1.47209E+005   -3.91979E+005   -1.15695E+005   -2.23149E+005   -1.02784E+005    3.11225E+005   -2.09128E+004    6.43247E+003
            7370    6.26547E+005    1.97461E+005   -5.22971E+005   -1.05353E+005   -5.22971E+005    7.20431E+005    1.43621E+005   -4.05842E+005   -1.15270E+005   -2.14390E+005   -1.01204E+005    3.52465E+005   -5.27798E+004   -5.56239E+003
            7371    5.09475E+005    1.20300E+005   -4.64005E+005   -1.12642E+005   -4.64005E+005    5.84304E+005    1.52116E+005   -3.56416E+005   -1.19305E+005   -2.24347E+005   -1.12695E+005    2.87357E+005   -1.91399E+003    4.43106E+003
            7372    5.76765E+005    1.50457E+005   -5.10570E+005   -1.09774E+005   -5.10570E+005    6.61027E+005    1.56629E+005   -4.09663E+005   -1.23094E+005   -2.36981E+005   -1.09813E+005    3.25492E+005   -7.02070E+003    2.26106E+003
            7373    6.58660E+005    2.03243E+005   -5.54101E+005   -1.14963E+005   -5.54101E+005    7.57344E+005    1.55274E+005   -4.26923E+005   -1.24511E+005   -2.26867E+005   -1.14443E+005    3.74670E+005   -1.89428E+004   -2.27166E+003
            7374    1.28583E+005    8.88943E+004    8.88943E+004   -1.88274E+003   -5.82446E+004    1.47139E+005   -9.58900E+003    9.40958E+004    3.07553E+003    2.75318E+004   -1.84033E+003    7.19161E+004    9.34849E+003    2.08642E+003
            7375    1.19802E+005    8.13184E+004    8.13184E+004   -5.78130E+003   -5.53056E+004    1.36624E+005   -6.74383E+003    9.21471E+004    2.56369E+003    2.33513E+004   -5.68356E+003    6.11277E+004    2.78697E+004    6.85652E+003
            7376    1.28267E+005    8.61590E+004    8.61590E+004   -4.92347E+003   -6.05272E+004    1.46686E+005   -6.90280E+003    9.48468E+004    5.18272E+003    2.42095E+004   -8.68385E+003    4.82120E+004    5.17298E+004    1.45265E+004
            7377    9.65021E+004    7.05917E+004    7.05917E+004    1.04206E+003   -3.95807E+004    1.10172E+005   -1.06844E+004    7.31847E+004    5.68496E+003    2.49688E+004    1.39933E+003    5.38552E+004    6.13334E+003    2.93131E+003
            7378    8.72417E+004    6.38813E+004    6.38813E+004   -2.81473E+003   -3.48491E+004    9.87303E+004   -8.73914E+003    7.21060E+004    5.31271E+003    2.04119E+004    4.92815E+002    4.49759E+004    1.81387E+004    8.78610E+003
            7379    8.58627E+004    6.05380E+004    6.05380E+004   -6.87323E+003   -3.61295E+004    9.66675E+004   -5.84508E+003    7.33208E+004    4.38735E+003    1.60479E+004   -2.90005E+003    3.22173E+004    3.34660E+004    1.44288E+004
            7380    7.34604E+004    4.60303E+004    4.60303E+004   -1.98829E+003   -3.85356E+004    8.45658E+004   -1.83546E+003    4.51601E+004   -8.15608E+001    7.18076E+003   -1.59282E+003    4.19282E+004    2.96883E+003    3.16617E+003
            7381    6.39951E+004    4.07825E+004    4.07825E+004   -5.60882E+003   -3.22255E+004    7.30079E+004   -9.82725E+002    4.89947E+004   -3.46914E+002    5.48733E+003   -2.19224E+003    3.46705E+004    8.40557E+003    8.73838E+003
            7382    5.36305E+004    3.78568E+004    3.78568E+004   -1.09910E+004   -1.95315E+004    5.73883E+004   -2.44476E+003    5.20675E+004    1.79470E+003    6.40427E+003   -8.64696E+002    2.28825E+004    1.55140E+004    1.34507E+004
            7383    6.64910E+004    4.03630E+004    4.03630E+004    1.74081E+003   -3.64137E+004    7.67767E+004   -1.89671E+003    1.45834E+004    1.83502E+003    2.18777E+003    1.66735E+003    3.82561E+004   -4.42633E+002    3.14439E+003
            7384    5.62325E+004    3.42056E+004    3.42056E+004    2.46383E+003   -3.07208E+004    6.49264E+004   -1.98288E+003   -1.89845E+004    1.90028E+003    2.04132E+003    2.00704E+003    3.12702E+004   -9.01235E+002    8.68266E+003
            7385    4.12270E+004    2.39961E+004    2.39961E+004    9.16676E+002   -2.36015E+004    4.75976E+004   -4.37077E+002   -1.54203E+004    3.97790E+002    5.01391E+002    4.12050E+002    1.99142E+004   -5.55481E+002    1.30258E+004
            7386    7.80779E+004    3.41843E+004   -5.53342E+004   -1.30209E+003   -5.53342E+004    8.95185E+004    7.48402E+003   -5.50025E+004   -4.22535E+003   -1.65471E+004   -1.67959E+003    4.41331E+004   -3.42919E+003    3.05612E+003
            7387    6.84559E+004    2.82908E+004   -4.94170E+004    1.98021E+003   -4.94170E+004    7.77077E+004    6.38199E+003   -5.52274E+004   -4.03839E+003   -1.34729E+004   -1.63472E+003    3.66010E+004   -1.03311E+004    8.74898E+003
            7388    5.58504E+004    1.92327E+004   -4.07077E+004    9.86881E+003   -4.07077E+004    5.99404E+004    3.86873E+003   -5.40418E+004   -2.82677E+003   -9.07561E+003    2.96185E+002    2.36620E+004   -1.66039E+004    1.34685E+004
            7389    1.01692E+005    4.64607E+004   -6.98730E+004    2.12172E+003   -6.98730E+004    1.16334E+005    7.09686E+003   -7.47948E+004   -2.52321E+003   -2.04972E+004    1.72985E+003    5.70119E+004   -6.97537E+003    2.98542E+003
            7390    9.22227E+004    4.15845E+004   -6.29725E+004    6.79568E+003   -6.29725E+004    1.04557E+005    4.86413E+003   -7.51760E+004   -1.95433E+003   -1.63054E+004    3.66740E+003    4.75533E+004   -1.98516E+004    8.57452E+003
            7391    8.85332E+004    3.81276E+004   -6.16000E+004    7.73026E+003   -6.16000E+004    9.97276E+004    5.24737E+003   -7.53750E+004   -3.98678E+003   -1.52619E+004    3.50657E+003    3.35007E+004   -3.45244E+004    1.44645E+004
            7392    5.73618E+005    1.86925E+005   -4.72605E+005   -8.99017E+004   -4.72605E+005    6.59530E+005    1.25194E+005   -3.72442E+005   -1.00744E+005   -1.94174E+005   -8.06643E+004    3.16187E+005    7.74678E+004    5.85699E+003
            7393    5.08715E+005    1.40507E+005   -4.42595E+005   -8.95161E+004   -4.42595E+005    5.83102E+005    1.30535E+005   -3.60465E+005   -1.02640E+005   -1.98613E+005   -9.03517E+004    2.85825E+005    3.09639E+004   -9.76883E+003
            7394    4.46319E+005    1.09769E+005   -4.02247E+005   -9.54510E+004   -4.02247E+005    5.12017E+005    1.29310E+005   -3.10125E+005   -1.01545E+005   -1.89855E+005   -9.65290E+004    2.51409E+005    7.71166E+003   -1.94539E+004
            7395    6.26987E+005    1.97581E+005   -5.23362E+005   -1.05497E+005   -5.23362E+005    7.20943E+005    1.43760E+005   -4.06016E+005   -1.15384E+005   -2.14506E+005   -1.01388E+005    3.52770E+005    5.25099E+004    5.55907E+003
            7396    5.51847E+005    1.46721E+005   -4.85757E+005   -1.02331E+005   -4.85757E+005    6.32478E+005    1.47123E+005   -3.91854E+005   -1.15629E+005   -2.23089E+005   -1.02650E+005    3.10910E+005    2.08630E+004   -6.42764E+003
            7397    4.86201E+005    1.16300E+005   -4.41351E+005   -1.06305E+005   -4.41351E+005    5.57651E+005    1.43785E+005   -3.39583E+005   -1.12845E+005   -2.11748E+005   -1.06763E+005    2.74093E+005    5.39297E+003   -1.29366E+004
            7398    6.58912E+005    2.03308E+005   -5.54326E+005   -1.15030E+005   -5.54326E+005    7.57635E+005    1.55349E+005   -4.27063E+005   -1.24570E+005   -2.26939E+005   -1.14538E+005    3.74842E+005    1.84786E+004    2.18459E+003
            7399    5.76394E+005    1.50328E+005   -5.10266E+005   -1.09673E+005   -5.10266E+005    6.60594E+005    1.56537E+005   -4.09509E+005   -1.23021E+005   -2.36881E+005   -1.09709E+005    3.25266E+005    7.38327E+003   -2.23436E+003
            7400    5.09420E+005    1.20283E+005   -4.63961E+005   -1.12653E+005   -4.63961E+005    5.84244E+005    1.52111E+005   -3.56343E+005   -1.19302E+005   -2.24323E+005   -1.12708E+005    2.87329E+005    1.96876E+003   -4.42156E+003
            7401    2.58384E+005    1.99899E+005    1.99899E+005    3.50179E+004   -9.78853E+004    2.97785E+005   -4.56773E+004    1.47147E+005    3.47424E+004    6.71752E+004    3.51143E+004    1.45484E+005    2.32028E+002    2.72359E+004
            7402    2.80750E+005    2.24656E+005    2.24656E+005    4.36415E+004   -9.87595E+004    3.23415E+005   -5.65126E+004    1.65541E+005    4.33488E+004    8.17788E+004    4.44102E+004    1.57866E+005    2.04931E+003    2.94729E+004
            7403    3.09902E+005    2.58515E+005    2.58515E+005    5.47929E+004   -9.81245E+004    3.56640E+005   -7.17279E+004    1.93574E+005    5.52885E+004    1.03992E+005    5.59028E+004    1.74324E+005    3.45154E+003    2.88353E+004
            7404    3.47749E+005    2.99032E+005    2.99032E+005    6.65165E+004   -1.00743E+005    3.99775E+005   -8.82683E+004    2.27006E+005    6.83766E+004    1.28647E+005    6.77811E+004    1.95476E+005    4.45911E+003    2.92576E+004
            7405    3.91333E+005    3.45484E+005    3.45484E+005    8.05360E+004   -1.03998E+005    4.49481E+005   -1.07341E+005    2.63100E+005    8.34959E+004    1.56928E+005    8.15980E+004    2.20228E+005    4.79533E+003    2.60568E+004
            7406    2.72129E+005    2.07056E+005    2.07056E+005    2.94906E+004   -1.06242E+005    3.13298E+005   -4.34351E+004    1.66435E+005    3.14802E+004    6.77931E+004    3.10320E+004    1.54433E+005    6.83318E+003    1.85331E+004
            7407    2.98471E+005    2.39016E+005    2.39016E+005    4.03394E+004   -1.04209E+005    3.43225E+005   -5.83822E+004    1.92684E+005    4.34582E+004    8.89067E+004    4.27817E+004    1.68756E+005    1.16904E+004    1.95172E+004
            7408    3.32062E+005    2.74988E+005    2.74988E+005    5.05333E+004   -1.06461E+005    3.81449E+005   -7.30199E+004    2.22426E+005    5.54213E+004    1.09909E+005    5.37294E+004    1.87144E+005    1.65116E+004    2.09283E+004
            7409    3.74858E+005    3.21785E+005    3.21785E+005    6.38268E+004   -1.08212E+005    4.29997E+005   -9.24668E+004    2.61065E+005    7.09590E+004    1.39610E+005    6.68312E+004    2.10708E+005    1.90055E+004    2.02341E+004
            7410    4.22139E+005    3.71091E+005    3.71091E+005    7.81236E+004   -1.12778E+005    4.83869E+005   -1.12146E+005    2.99074E+005    8.64070E+004    1.69472E+005    8.05572E+004    2.37086E+005    1.87404E+004    1.91383E+004
            7411    2.77799E+005    2.09714E+005    2.09714E+005    1.94105E+004   -1.09068E+005    3.18782E+005   -4.00186E+004    1.91643E+005    2.88965E+004    6.99633E+004    2.11960E+004    1.56384E+005    2.19608E+004    9.91805E+003
            7412    3.11101E+005    2.41148E+005    2.41148E+005    2.82251E+004   -1.15877E+005    3.57025E+005   -5.11656E+004    2.14203E+005    3.89773E+004    8.40735E+004    3.04459E+004    1.73838E+005    3.29680E+004    1.11512E+004
            7413    3.55517E+005    2.85628E+005    2.85628E+005    4.04675E+004   -1.22109E+005    4.07738E+005   -6.79955E+004    2.48661E+005    5.33132E+004    1.08070E+005    4.26034E+004    1.97995E+005    3.93629E+004    1.20931E+004
            7414    4.02874E+005    3.30472E+005    3.30472E+005    5.28762E+004   -1.31611E+005    4.62083E+005   -8.39125E+004    2.81324E+005    6.70201E+004    1.30211E+005    5.45059E+004    2.24893E+005    4.17698E+004    1.15751E+004
            7415    4.54566E+005    3.81648E+005    3.81648E+005    6.73788E+004   -1.39570E+005    5.21218E+005   -1.03152E+005    3.19600E+005    8.31680E+004    1.57868E+005    6.84198E+004    2.54795E+005    3.93587E+004    1.03692E+004
            7416    2.71757E+005    2.00413E+005    2.00413E+005    1.07002E+004   -1.10912E+005    3.11325E+005   -3.34005E+004    1.94748E+005    2.34876E+004    7.08952E+004    5.81854E+003    1.44684E+005    5.03741E+004    3.73845E+003
            7417    3.25948E+005    2.51794E+005    2.51794E+005    2.40657E+004   -1.21582E+005    3.73376E+005   -5.14258E+004    2.33946E+005    3.84680E+004    9.62561E+004    1.95533E+004    1.72125E+005    6.42743E+004    7.68705E+003
            7418    3.79515E+005    3.00678E+005    3.00678E+005    3.87082E+004   -1.34544E+005    4.35222E+005   -6.82807E+004    2.65986E+005    5.26179E+004    1.19550E+005    3.26740E+004    2.02185E+005    7.09004E+004    5.82377E+003
            7419    4.38035E+005    3.58020E+005    3.58020E+005    5.64390E+004   -1.44425E+005    5.02446E+005   -9.00113E+004    3.05372E+005    7.03914E+004    1.48497E+005    5.11456E+004    2.36616E+005    7.26649E+004    5.72819E+003
            7420    4.98135E+005    4.15585E+005    4.15585E+005    7.39811E+004   -1.55989E+005    5.71574E+005   -1.11192E+005    3.44416E+005    8.80748E+004    1.76470E+005    6.90324E+004    2.73587E+005    6.75886E+004    2.84024E+003
            7421    5.19142E+005    4.09272E+005    4.09272E+005    6.76688E+004   -1.88131E+005    5.97404E+005   -9.62699E+004    3.25136E+005    7.60966E+004    1.65405E+005    4.73084E+004    2.73172E+005    1.06662E+005   -6.69747E+003
            7422    4.52319E+005    3.47707E+005    3.47707E+005    5.00555E+004   -1.72797E+005    5.20504E+005   -7.49888E+004    2.83336E+005    5.96389E+004    1.40023E+005    2.53042E+004    2.28386E+005    1.12084E+005   -2.72228E+003
            7423    3.90955E+005    2.95825E+005    2.95825E+005    3.55490E+004   -1.53747E+005    4.49572E+005   -5.92090E+004    2.52480E+005    4.74838E+004    1.19108E+005    1.10353E+004    1.89795E+005    1.09053E+005    3.26738E+003
            7424    3.35052E+005    2.45866E+005    2.45866E+005    2.11268E+004   -1.39228E+005    3.85094E+005   -4.25883E+004    2.20414E+005    3.40911E+004    9.68280E+004   -3.15424E+003    1.58186E+005    9.90845E+004    5.09769E+003
            7425    2.81832E+005    2.01776E+005    2.01776E+005    1.16930E+004   -1.22024E+005    3.23800E+005   -3.04816E+004    1.87825E+005    2.40259E+004    7.57421E+004   -8.32317E+003    1.30269E+005    8.74918E+004    7.32992E+003
            7426    2.33077E+005    1.60605E+005    1.60605E+005    3.51429E+003   -1.07193E+005    2.67798E+005   -1.89757E+004    1.55082E+005    1.45555E+004    5.62361E+004   -1.38645E+004    1.01363E+005    8.04772E+004    1.06822E+004
            7427    1.76950E+005    1.18651E+005    1.18651E+005   -8.63598E+002   -8.46271E+004    2.03278E+005   -1.10535E+004    1.18316E+005    8.18311E+003    3.85175E+004   -1.35400E+004    7.04841E+004    6.79371E+004    1.30353E+004
            7428    1.61165E+005    1.12593E+005    1.12593E+005    2.71912E+001   -7.20289E+004    1.84622E+005   -1.35306E+004    1.15607E+005    7.20329E+003    3.78365E+004   -4.44809E+003    8.30090E+004    3.57840E+004    3.17538E+003
            7429    1.68616E+005    1.17928E+005    1.17928E+005    6.21755E+002   -7.53020E+004    1.93230E+005   -1.44159E+004    1.20032E+005    5.39725E+003    3.78578E+004   -7.50224E+000    9.45002E+004    1.12818E+004   -3.59990E+002
            7430    2.03208E+005    1.38646E+005    1.38646E+005    5.18316E+002   -9.46856E+004    2.33332E+005   -1.48262E+004    1.37844E+005    8.09646E+003    4.21688E+004   -5.78661E+003    1.08177E+005    3.80971E+004   -1.37415E+003
            7431    2.01418E+005    1.33060E+005    1.33060E+005   -4.48032E+002   -9.86216E+004    2.31681E+005   -1.13300E+004    1.28628E+005    2.72446E+003    3.22633E+004   -9.97921E+002    1.14389E+005    1.01784E+004   -1.60655E+003
            7432    2.24194E+005    1.48345E+005    1.48345E+005    9.16109E+002   -1.09657E+005    2.58001E+005   -1.32013E+004    1.40165E+005    4.03329E+003    3.49780E+004    5.92739E+002    1.27845E+005    6.85920E+003   -2.07260E+003
            7433    2.35446E+005    1.53340E+005    1.53340E+005    3.10291E+003   -1.18010E+005    2.71350E+005   -1.28111E+004    1.34062E+005    5.07166E+003    3.02296E+004    3.13205E+003    1.35069E+005    2.24592E+003    1.10329E+003
            7434    2.32596E+005    1.58669E+005    1.58669E+005    1.28770E+003   -1.08501E+005    2.67170E+005   -1.71520E+004    1.56163E+005    1.04413E+004    3.98211E+004    1.19378E+003    1.32651E+005   -9.10083E+002    5.44989E+003
            7435    2.22679E+005    1.73083E+005    1.73083E+005    1.69310E+004   -8.19058E+004    2.54989E+005   -3.60362E+004    1.60944E+005    2.65065E+004    6.52613E+004    1.63407E+004    1.23830E+005   -6.50359E+002    2.29780E+004
            7436    2.34617E+005    1.67586E+005    1.67586E+005    6.56326E+003   -1.01603E+005    2.69189E+005   -2.41820E+004    1.62492E+005    1.47103E+004    5.35724E+004    4.26346E+003    1.29968E+005    2.79573E+004   -1.68370E+002
            7437    2.54023E+005    1.80100E+005    1.80100E+005    6.28824E+003   -1.11427E+005    2.91527E+005   -2.49873E+004    1.74805E+005    1.58063E+004    5.26144E+004    6.54143E+003    1.44176E+005    1.08073E+004    3.42514E+003
            7438    2.53819E+005    1.90059E+005    1.90059E+005    1.93138E+004   -1.01611E+005    2.91670E+005   -3.59207E+004    1.68130E+005    2.55474E+004    6.27595E+004    1.94553E+004    1.43370E+005    9.45670E+002    1.92217E+004
            7439    2.42682E+005    1.78230E+005    1.78230E+005    2.71635E+004   -1.01702E+005    2.79932E+005   -3.45638E+004    1.25057E+005    2.55945E+004    5.11559E+004    2.69409E+004    1.36059E+005   -6.75174E+002    3.02010E+004
            7440    2.75043E+005    9.66589E+004   -2.20110E+005   -4.19284E+004   -2.20110E+005    3.16769E+005    5.51265E+004   -1.64629E+005   -4.26006E+004   -8.00930E+004   -4.26859E+004    1.55065E+005    2.30208E+003   -2.64238E+004
            7441    3.08475E+005    9.69915E+004   -2.57773E+005   -5.27599E+004   -2.57773E+005    3.54764E+005    7.11804E+004   -1.98348E+005   -5.55783E+004   -1.03097E+005   -5.48661E+004    1.73471E+005    6.83461E+003   -2.85638E+004
            7442    3.51476E+005    9.79781E+004   -3.05725E+005   -6.77692E+004   -3.05725E+005    4.03703E+005    9.18386E+004   -2.36286E+005   -7.19872E+004   -1.33791E+005   -6.97374E+004    1.97733E+005    8.01936E+003   -2.63540E+004
            7443    3.98887E+005    1.03437E+005   -3.54394E+005   -8.18355E+004   -3.54394E+005    4.57830E+005    1.10931E+005   -2.73684E+005   -8.71252E+004   -1.62132E+005   -8.35351E+004    2.24509E+005    8.63153E+003   -2.42637E+004
            7444    2.99285E+005    1.11873E+005   -2.31761E+005   -2.81931E+004   -2.31761E+005    3.43634E+005    4.93606E+004   -2.03311E+005   -3.66748E+004   -8.03594E+004   -3.10476E+004    1.68029E+005    2.68833E+004   -1.31156E+004
            7445    3.51541E+005    1.16941E+005   -2.86215E+005   -4.36479E+004   -2.86215E+005    4.03156E+005    7.09738E+004   -2.46187E+005   -5.44546E+004   -1.12133E+005   -4.63337E+004    1.96248E+005    3.47435E+004   -1.36495E+004
            7446    4.02102E+005    1.25102E+005   -3.36050E+005   -5.86720E+004   -3.36050E+005    4.61151E+005    8.98732E+004   -2.81436E+005   -7.00496E+004   -1.38947E+005   -6.06230E+004    2.24690E+005    3.77324E+004   -1.25500E+004
            7447    4.56618E+005    1.32513E+005   -3.90964E+005   -7.46468E+004   -3.90964E+005    5.23477E+005    1.11033E+005   -3.22329E+005   -8.70293E+004   -1.69947E+005   -7.61213E+004    2.55693E+005    3.66693E+004   -1.19763E+004
            7448    5.10228E+005    1.73723E+005   -4.12893E+005   -7.22136E+004   -4.12893E+005    5.86616E+005    1.03794E+005   -3.31931E+005   -8.36131E+004   -1.69174E+005   -5.85966E+004    2.73989E+005    9.12667E+004    3.98627E+003
            7449    4.45812E+005    1.57125E+005   -3.55188E+005   -5.54378E+004   -3.55188E+005    5.12312E+005    8.45004E+004   -2.94957E+005   -6.82213E+004   -1.45036E+005   -4.02440E+004    2.33266E+005    9.42978E+004    2.87100E+002
            7450    3.83925E+005    1.41355E+005   -2.99487E+005   -3.85403E+004   -2.99487E+005    4.40842E+005    6.55576E+004   -2.60385E+005   -5.27692E+004   -1.20329E+005   -2.35748E+004    1.97663E+005    8.71597E+004   -1.56933E+003
            7451    3.32584E+005    1.27318E+005   -2.53821E+005   -2.24804E+004   -2.53821E+005    3.81139E+005    4.96610E+004   -2.36680E+005   -3.94106E+004   -9.82732E+004   -1.12991E+004    1.69851E+005    7.75874E+004   -5.63697E+003
            7452    2.87179E+005    1.20104E+005   -2.08928E+005   -8.70406E+003   -2.08928E+005    3.29032E+005    3.25092E+004   -2.05296E+005   -2.50971E+004   -7.73028E+004    4.87250E+003    1.38806E+005    8.01060E+004   -8.77505E+003
            7453    2.29157E+005    1.05548E+005   -1.57785E+005   -3.64521E+003   -1.57785E+005    2.63332E+005    1.86275E+004   -1.51758E+005   -1.41436E+004   -5.48495E+004    1.31106E+004    1.00393E+005    7.84683E+004   -9.92956E+003
            7454    1.81286E+005    8.61296E+004   -1.22024E+005    1.25553E+003   -1.22024E+005    2.08154E+005    1.15463E+004   -1.23090E+005   -8.90779E+003   -3.88843E+004    1.31532E+004    7.36709E+004    6.84066E+004   -1.28780E+004
            7455    1.32339E+005    6.20445E+004   -8.94899E+004    3.35584E+003   -8.94899E+004    1.51534E+005    8.02986E+003   -9.57339E+004   -5.71993E+003   -2.68445E+004    8.47488E+003    5.04528E+004    5.27484E+004   -1.39338E+004
            7456    1.29153E+005    5.53840E+004   -9.20256E+004    1.25858E+003   -9.20256E+004    1.47410E+005    1.17944E+004   -9.82965E+004   -6.05509E+003   -3.12897E+004    1.96170E+003    6.61259E+004    2.90602E+004   -6.47533E+003
            7457    1.39121E+005    5.86011E+004   -1.00400E+005   -1.06159E+003   -1.00400E+005    1.59001E+005    1.42869E+004   -1.03870E+005   -6.05249E+003   -3.58981E+004   -9.09990E+002    7.74758E+004    9.47495E+003   -1.53632E+003
            7458    1.67166E+005    7.91807E+004   -1.12468E+005    3.29650E+003   -1.12468E+005    1.91649E+005    9.99700E+003   -1.17926E+005   -4.76245E+003   -3.30192E+004    7.79064E+003    8.71762E+004    3.56874E+004   -2.16167E+003
            7459    1.77597E+005    8.37573E+004   -1.20048E+005    1.55715E+003   -1.20048E+005    2.03806E+005    1.15780E+004   -1.22399E+005   -3.51271E+003   -3.32787E+004    2.05756E+003    1.00084E+005    1.16573E+004    8.14727E+001
            7460    2.11806E+005    9.45859E+004   -1.48399E+005   -2.81287E+003   -1.48399E+005    2.42985E+005    1.88752E+004   -1.47156E+005   -1.08200E+004   -4.90878E+004    3.28219E+003    1.13056E+005    3.79038E+004    1.06818E+003
            7461    2.13288E+005    1.02555E+005   -1.42678E+005   -3.89524E+002   -1.42678E+005    2.45234E+005    1.35042E+004   -1.38457E+005   -3.92576E+003   -3.69330E+004    3.46041E+002    1.21003E+005    9.84526E+003    2.98051E+003
            7462    2.50414E+005    1.09889E+005   -1.77490E+005   -6.10734E+003   -1.77490E+005    2.87379E+005    2.45694E+004   -1.72408E+005   -1.59424E+004   -5.41967E+004   -3.56925E+003    1.39546E+005    2.70094E+004    1.73958E+003
            7463    2.32377E+005    1.15972E+005   -1.51813E+005   -3.16044E+003   -1.51813E+005    2.67784E+005    1.30005E+004   -1.33481E+005   -4.62517E+003   -3.12534E+004   -3.12297E+003    1.33156E+005    4.33152E+003    1.17654E+002
            7464    2.34679E+005    1.11801E+005   -1.58011E+005   -1.29899E+003   -1.58011E+005    2.69812E+005    1.58364E+004   -1.52712E+005   -8.78325E+003   -3.73829E+004   -1.34309E+003    1.34101E+005    9.69167E+002   -3.48512E+003
            7465    2.26412E+005    8.72666E+004   -1.72481E+005   -1.69031E+004   -1.72481E+005    2.59748E+005    3.40391E+004   -1.57204E+005   -2.48585E+004   -6.05950E+004   -1.66639E+004    1.26763E+005    4.19967E-001   -2.17485E+004
            7466    2.62754E+005    1.03274E+005   -1.98195E+005   -1.78478E+004   -1.98195E+005    3.01469E+005    3.75895E+004   -1.82009E+005   -2.68027E+004   -6.63990E+004   -1.95669E+004    1.48559E+005    1.10914E+004   -1.36010E+004
            7467    2.52786E+005    1.02963E+005   -1.88529E+005   -2.95596E+004   -1.88529E+005    2.91493E+005    3.83751E+004   -1.36184E+005   -2.85989E+004   -5.65920E+004   -2.99344E+004    1.42256E+005    8.41808E+002   -2.85202E+004
            7468    5.85222E+005    4.69989E+005    4.69989E+005    8.58390E+004   -2.03549E+005    6.73538E+005   -1.17426E+005    3.64071E+005    9.19446E+004    1.88220E+005    7.21147E+004    3.19678E+005    8.94997E+004   -1.00181E+004
            7469    5.57499E+005    4.74224E+005    4.74224E+005    9.22453E+004   -1.65513E+005    6.39737E+005   -1.33652E+005    3.84746E+005    1.06472E+005    2.05352E+005    8.91312E+004    3.10663E+005    5.61836E+004    1.76288E+003
            7470    5.06134E+005    4.31114E+005    4.31114E+005    8.13347E+004   -1.49255E+005    5.80368E+005   -1.21064E+005    3.55565E+005    9.81657E+004    1.83139E+005    8.18883E+004    2.85035E+005    3.34610E+004    8.34540E+003
            7471    4.71633E+005    4.22400E+005    4.22400E+005    9.31698E+004   -1.17906E+005    5.40306E+005   -1.32555E+005    3.37954E+005    1.02107E+005    2.00910E+005    9.46475E+004    2.64810E+005    1.63265E+004    1.53853E+004
            7472    4.37336E+005    3.92608E+005    3.92608E+005    9.42026E+004   -1.09409E+005    5.02018E+005   -1.25801E+005    2.99146E+005    9.82876E+004    1.84196E+005    9.49182E+004    2.46367E+005    4.34674E+003    2.18645E+004
            7473    6.43096E+005    5.25830E+005    5.25830E+005    1.02701E+005   -2.14217E+005    7.40047E+005   -1.38105E+005    4.02669E+005    1.07518E+005    2.09900E+005    9.68962E+004    3.60860E+005    6.06291E+004   -8.19441E+003
            7474    6.07510E+005    5.23221E+005    5.23221E+005    1.07290E+005   -1.73947E+005    6.97168E+005   -1.52188E+005    4.18591E+005    1.21883E+005    2.28862E+005    1.05820E+005    3.42224E+005    3.78364E+004    1.71866E+002
            7475    5.51135E+005    4.74479E+005    4.74479E+005    9.36824E+004   -1.57502E+005    6.31981E+005   -1.36887E+005    3.87012E+005    1.11275E+005    2.05536E+005    9.38488E+004    3.11605E+005    2.26792E+004    5.22413E+003
            7476    5.14862E+005    4.65374E+005    4.65374E+005    1.05303E+005   -1.24349E+005    5.89723E+005   -1.48776E+005    3.70233E+005    1.14361E+005    2.26035E+005    1.05930E+005    2.89183E+005    1.15197E+004    1.03281E+004
            7477    4.76192E+005    4.32484E+005    4.32484E+005    1.06013E+005   -1.13924E+005    5.46408E+005   -1.41524E+005    3.29063E+005    1.10973E+005    2.07275E+005    1.06325E+005    2.68574E+005    3.23937E+003    1.40045E+004
            7478    6.78935E+005    5.59775E+005    5.59775E+005    1.13154E+005   -2.21522E+005    7.81298E+005   -1.50469E+005    4.24880E+005    1.16664E+005    2.22338E+005    1.12405E+005    3.86396E+005    2.13653E+004   -3.73091E+003
            7479    6.35514E+005    5.50772E+005    5.50772E+005    1.15999E+005   -1.78579E+005    7.29351E+005   -1.62731E+005    4.37177E+005    1.30513E+005    2.41845E+005    1.15835E+005    3.60141E+005    1.32916E+004    1.26768E+002
            7480    5.74864E+005    4.97750E+005    4.97750E+005    1.00809E+005   -1.61476E+005    6.59227E+005   -1.45694E+005    4.03159E+005    1.18453E+005    2.17809E+005    1.00821E+005    3.25745E+005    8.08127E+003    1.69995E+003
            7481    5.39316E+005    4.90238E+005    4.90238E+005    1.12912E+005   -1.27472E+005    6.17710E+005   -1.58559E+005    3.88115E+005    1.21638E+005    2.41058E+005    1.12981E+005    3.02988E+005    4.18358E+003    3.41822E+003
            7482    4.99388E+005    4.55828E+005    4.55828E+005    1.12890E+005   -1.17118E+005    5.72946E+005   -1.50533E+005    3.46288E+005    1.18306E+005    2.20365E+005    1.12929E+005    2.81844E+005    1.12231E+003    5.25240E+003
            7483    1.28452E+005    8.62446E+004    8.62446E+004   -4.92692E+003   -6.06612E+004    1.46906E+005   -6.88551E+003    9.49055E+004    5.16605E+003    2.42255E+004   -8.73505E+003    4.82032E+004   -5.18690E+004   -1.45677E+004
            7484    1.19325E+005    8.10155E+004    8.10155E+004   -5.78651E+003   -5.50546E+004    1.36070E+005   -6.72482E+003    9.18625E+004    2.55559E+003    2.32627E+004   -5.64380E+003    6.09436E+004   -2.76264E+004   -6.84746E+003
            7485    1.27751E+005    8.83314E+004    8.83314E+004   -1.85442E+003   -5.78560E+004    1.46187E+005   -9.54035E+003    9.34798E+004    3.06706E+003    2.73519E+004   -1.79793E+003    7.14560E+004   -9.26025E+003   -2.12103E+003
            7486    8.57134E+004    6.04641E+004    6.04641E+004   -6.88251E+003   -3.60193E+004    9.64834E+004   -5.85407E+003    7.32598E+004    4.40169E+003    1.60273E+004   -2.86679E+003    3.21690E+004   -3.33897E+004   -1.44354E+004
            7487    8.70963E+004    6.37957E+004    6.37957E+004   -2.81756E+003   -3.47626E+004    9.85583E+004   -8.73851E+003    7.20255E+004    5.31922E+003    2.03841E+004    5.12249E+002    4.49084E+004   -1.80766E+004   -8.80734E+003
            7488    9.59568E+004    7.01629E+004    7.01629E+004    1.03664E+003   -3.93927E+004    1.09556E+005   -1.06023E+004    7.27184E+004    5.64635E+003    2.47637E+004    1.39677E+003    5.35618E+004   -6.06935E+003   -2.93382E+003
            7489    5.33725E+004    3.76694E+004    3.76694E+004   -1.10080E+004   -1.94032E+004    5.70726E+004   -2.41941E+003    5.18558E+004    1.76559E+003    6.34846E+003   -8.55818E+002    2.27661E+004   -1.53742E+004   -1.34753E+004
            7490    6.38911E+004    4.06710E+004    4.06710E+004   -5.64084E+003   -3.22191E+004    7.28901E+004   -9.37023E+002    4.89082E+004   -3.75828E+002    5.40605E+003   -2.21915E+003    3.46112E+004   -8.39828E+003   -8.74059E+003
            7491    7.32420E+004    4.57780E+004    4.57780E+004   -1.97618E+003   -3.85478E+004    8.43258E+004   -1.75131E+003    4.46945E+004   -1.27861E+002    6.96723E+003   -1.58542E+003    4.18173E+004   -2.92231E+003   -3.15721E+003
            7492    4.12797E+004    2.38664E+004    2.38664E+004    1.09146E+003   -2.37838E+004    4.76502E+004   -3.91373E+002   -1.75047E+004    3.63635E+002    4.08014E+002    4.02469E+002    1.99484E+004    7.65480E+002   -1.30184E+004
            7493    5.63054E+004    3.42129E+004    3.42129E+004    2.48962E+003   -3.07967E+004    6.50096E+004   -1.96859E+003   -1.95144E+004    1.89824E+003    1.98958E+003    2.01794E+003    3.13071E+004    9.31035E+002   -8.70394E+003
            7494    6.65642E+004    4.02945E+004    4.02945E+004    1.73774E+003   -3.65670E+004    7.68616E+004   -1.82175E+003    1.18762E+004    1.80548E+003    1.99866E+003    1.66110E+003    3.82975E+004    4.61272E+002   -3.16042E+003
            7495    5.62488E+004    1.93966E+004   -4.09915E+004    9.91209E+003   -4.09915E+004    6.03881E+004    3.89424E+003   -5.44060E+004   -2.85377E+003   -9.16267E+003    3.33724E+002    2.36912E+004    1.69493E+004   -1.35179E+004
            7496    6.85317E+004    2.82917E+004   -4.94957E+004    1.98517E+003   -4.94957E+004    7.77874E+004    6.40628E+003   -5.53284E+004   -4.05607E+003   -1.35230E+004   -1.63981E+003    3.66327E+004    1.03563E+004   -8.76782E+003
            7497    7.84619E+004    3.42795E+004   -5.56659E+004   -1.27908E+003   -5.56659E+004    8.99454E+004    7.55516E+003   -5.54541E+004   -4.25713E+003   -1.67572E+004   -1.65112E+003    4.43371E+004    3.46210E+003   -3.01912E+003
            7498    8.90722E+004    3.84255E+004   -6.19484E+004    7.67204E+003   -6.19484E+004    1.00374E+005    5.28361E+003   -7.56646E+004   -4.01535E+003   -1.53817E+004    3.54624E+003    3.37143E+004    3.47608E+004   -1.44528E+004
            7499    9.21441E+004    4.15769E+004   -6.28911E+004    6.81744E+003   -6.28911E+004    1.04468E+005    4.83226E+003   -7.51116E+004   -1.92676E+003   -1.62429E+004    3.67287E+003    4.74795E+004    1.99145E+004   -8.59067E+003
            7500    1.02275E+005    4.66828E+004   -7.03110E+004    2.13031E+003   -7.03110E+004    1.16994E+005    7.16594E+003   -7.52868E+004   -2.54779E+003   -2.06852E+004    1.73517E+003    5.73349E+004    6.97659E+003   -3.01210E+003
            7501    4.36969E+005    3.92296E+005    3.92296E+005    9.41646E+004   -1.09303E+005    5.01600E+005   -1.25719E+005    2.98843E+005    9.82281E+004    1.84051E+005    9.48789E+004    2.46158E+005   -4.32490E+003   -2.19107E+004
            7502    4.71731E+005    4.22403E+005    4.22403E+005    9.30458E+004   -1.18006E+005    5.40409E+005   -1.32481E+005    3.38138E+005    1.02065E+005    2.00850E+005    9.45275E+004    2.64861E+005   -1.63900E+004   -1.53885E+004
            7503    5.06799E+005    4.31594E+005    4.31594E+005    8.13776E+004   -1.49540E+005    5.81134E+005   -1.21144E+005    3.55986E+005    9.82347E+004    1.83304E+005    8.18926E+004    2.85398E+005   -3.36314E+004   -8.20359E+003
            7504    5.58292E+005    4.74790E+005    4.74790E+005    9.24372E+004   -1.65880E+005    6.40670E+005   -1.33782E+005    3.84933E+005    1.06565E+005    2.05527E+005    8.92550E+004    3.11067E+005   -5.65319E+004   -1.66690E+003
            7505    5.85557E+005    4.70221E+005    4.70221E+005    8.59270E+004   -2.03710E+005    6.73931E+005   -1.17479E+005    3.64077E+005    9.19628E+004    1.88256E+005    7.22187E+004    3.19888E+005   -8.94946E+004    1.00267E+004
            7506    4.75968E+005    4.32308E+005    4.32308E+005    1.06038E+005   -1.13850E+005    5.46158E+005   -1.41499E+005    3.28805E+005    1.10958E+005    2.07194E+005    1.06344E+005    2.68452E+005   -3.17286E+003   -1.40148E+004
            7507    5.14373E+005    4.65117E+005    4.65117E+005    1.05473E+005   -1.24061E+005    5.89178E+005   -1.48843E+005    3.69713E+005    1.14408E+005    2.26022E+005    1.06099E+005    2.88916E+005   -1.13385E+004   -1.03806E+004
            7508    5.50913E+005    4.74507E+005    4.74507E+005    9.38159E+004   -1.57213E+005    6.31720E+005   -1.37037E+005    3.86954E+005    1.11369E+005    2.05758E+005    9.39834E+004    3.11465E+005   -2.26467E+004   -5.23207E+003
            7509    6.08356E+005    5.23688E+005    5.23688E+005    1.07373E+005   -1.74479E+005    6.98167E+005   -1.52194E+005    4.18755E+005    1.21831E+005    2.28876E+005    1.05874E+005    3.42717E+005   -3.79113E+004   -4.79413E+001
            7510    6.43435E+005    5.25848E+005    5.25848E+005    1.02676E+005   -2.14607E+005    7.40455E+005   -1.37972E+005    4.02412E+005    1.07361E+005    2.09736E+005    9.68209E+004    3.61031E+005   -6.08307E+004    8.28123E+003
            7511    4.99229E+005    4.55678E+005    4.55678E+005    1.12896E+005   -1.17092E+005    5.72770E+005   -1.50494E+005    3.46078E+005    1.18280E+005    2.20266E+005    1.12937E+005    2.81760E+005   -1.16145E+003   -5.31123E+003
            7512    5.39076E+005    4.90063E+005    4.90063E+005    1.12859E+005   -1.27363E+005    6.17427E+005   -1.58520E+005    3.88032E+005    1.21596E+005    2.41034E+005    1.12929E+005    3.02841E+005   -4.21232E+003   -3.41679E+003
            7513    5.74944E+005    4.97804E+005    4.97804E+005    1.00820E+005   -1.61517E+005    6.59321E+005   -1.45702E+005    4.03187E+005    1.18429E+005    2.17843E+005    1.00835E+005    3.25790E+005   -8.02171E+003   -1.73792E+003
            7514    6.35371E+005    5.50655E+005    5.50655E+005    1.16031E+005   -1.78538E+005    7.29193E+005   -1.62716E+005    4.36970E+005    1.30510E+005    2.41764E+005    1.15874E+005    3.60072E+005   -1.31615E+004   -1.86189E+002
            7515    6.78408E+005    5.59320E+005    5.59320E+005    1.13038E+005   -2.21371E+005    7.80691E+005   -1.50329E+005    4.24568E+005    1.16587E+005    2.22121E+005    1.12280E+005    3.86089E+005   -2.15388E+004    3.73493E+003
            7516    2.82010E+005    2.01852E+005    2.01852E+005    1.17834E+004   -1.22169E+005    3.24022E+005   -3.04888E+004    1.87635E+005    2.40350E+004    7.57103E+004   -8.27888E+003    1.30401E+005   -8.75129E+004   -7.22002E+003
            7517    3.35157E+005    2.45918E+005    2.45918E+005    2.11547E+004   -1.39303E+005    3.85221E+005   -4.25896E+004    2.20372E+005    3.41056E+004    9.69237E+004   -3.26049E+003    1.58158E+005   -9.91987E+004   -5.07243E+003
            7518    3.91815E+005    2.96591E+005    2.96591E+005    3.58063E+004   -1.53977E+005    4.50569E+005   -5.94735E+004    2.52880E+005    4.77187E+004    1.19390E+005    1.13123E+004    1.90275E+005   -1.09243E+005   -3.25224E+003
            7519    4.53375E+005    3.48571E+005    3.48571E+005    5.02245E+004   -1.73150E+005    5.21720E+005   -7.52151E+004    2.83994E+005    5.98222E+004    1.40324E+005    2.54995E+004    2.29072E+005   -1.12074E+005    2.80975E+003
            7520    5.19615E+005    4.09845E+005    4.09845E+005    6.78639E+004   -1.88096E+005    5.97941E+005   -9.65375E+004    3.25605E+005    7.62911E+004    1.65655E+005    4.76667E+004    2.73633E+005   -1.06264E+005    6.72300E+003
            7521    4.97892E+005    4.15317E+005    4.15317E+005    7.39022E+004   -1.55982E+005    5.71298E+005   -1.11079E+005    3.44199E+005    8.79762E+004    1.76365E+005    6.88966E+004    2.73384E+005   -6.78074E+004   -2.81377E+003
            7522    4.54734E+005    3.81642E+005    3.81642E+005    6.72608E+004   -1.39769E+005    5.21410E+005   -1.03045E+005    3.19710E+005    8.31097E+004    1.57748E+005    6.82765E+004    2.54815E+005   -3.98831E+004   -1.03381E+004
            7523    4.22571E+005    3.71320E+005    3.71320E+005    7.80595E+004   -1.13046E+005    4.84366E+005   -1.12111E+005    2.99366E+005    8.64042E+004    1.69422E+005    8.05080E+004    2.37328E+005   -1.90255E+004   -1.90632E+004
            7524    3.91363E+005    3.45540E+005    3.45540E+005    8.05631E+004   -1.03974E+005    4.49514E+005   -1.07377E+005    2.63141E+005    8.35240E+004    1.56983E+005    8.16232E+004    2.20245E+005   -4.79123E+003   -2.60335E+004
            7525    4.36926E+005    3.56965E+005    3.56965E+005    5.60686E+004   -1.44198E+005    5.01163E+005   -8.96119E+004    3.04763E+005    7.00601E+004    1.48025E+005    5.07512E+004    2.35941E+005   -7.26739E+004   -5.74329E+003
            7526    4.02466E+005    3.29996E+005    3.29996E+005    5.26494E+004   -1.31614E+005    4.61610E+005   -8.36769E+004    2.81105E+005    6.68302E+004    1.29980E+005    5.42201E+004    2.24627E+005   -4.19206E+004   -1.14308E+004
            7527    3.74986E+005    3.21795E+005    3.21795E+005    6.36518E+004   -1.08335E+005    4.30130E+005   -9.23704E+004    2.61356E+005    7.08971E+004    1.39542E+005    6.66720E+004    2.10764E+005   -1.92513E+004   -2.01569E+004
            7528    3.47964E+005    2.99234E+005    2.99234E+005    6.65956E+004   -1.00790E+005    4.00024E+005   -8.83466E+004    2.27098E+005    6.84398E+004    1.28716E+005    6.78835E+004    1.95608E+005   -4.54750E+003   -2.92244E+004
            7529    3.78233E+005    2.99369E+005    2.99369E+005    3.82850E+004   -1.34383E+005    4.33752E+005   -6.77571E+004    2.65086E+005    5.21959E+004    1.18887E+005    3.21888E+004    2.01349E+005   -7.10660E+004   -5.84349E+003
            7530    3.54752E+005    2.84805E+005    2.84805E+005    4.01003E+004   -1.22044E+005    4.06849E+005   -6.76203E+004    2.48275E+005    5.30101E+004    1.07658E+005    4.21929E+004    1.97475E+005   -3.97226E+004   -1.19984E+004
            7531    3.32808E+005    2.75567E+005    2.75567E+005    5.05076E+004   -1.06726E+005    3.82293E+005   -7.31163E+004    2.23155E+005    5.55060E+004    1.10144E+005    5.36990E+004    1.87566E+005   -1.67209E+004   -2.07492E+004
            7532    3.10566E+005    2.59289E+005    2.59289E+005    5.49561E+004   -9.80974E+004    3.57386E+005   -7.20492E+004    1.94443E+005    5.55457E+004    1.04517E+005    5.60852E+004    1.74705E+005   -3.54063E+003   -2.87261E+004
            7533    3.25439E+005    2.51296E+005    2.51296E+005    2.38691E+004   -1.21489E+005    3.72785E+005   -5.12257E+004    2.33688E+005    3.82956E+004    9.60627E+004    1.93187E+004    1.71791E+005   -6.42993E+004   -7.68498E+003
            7534    3.10944E+005    2.40901E+005    2.40901E+005    2.81130E+004   -1.15947E+005    3.56848E+005   -5.10225E+004    2.14036E+005    3.88764E+004    8.38775E+004    3.03136E+004    1.73741E+005   -3.30455E+004   -1.10884E+004
            7535    2.98955E+005    2.39524E+005    2.39524E+005    4.03032E+004   -1.04232E+005    3.43756E+005   -5.85318E+004    1.93539E+005    4.35630E+004    8.92142E+004    4.28182E+004    1.68991E+005   -1.21147E+004   -1.94992E+004
            7536    2.81639E+005    2.25582E+005    2.25582E+005    4.38716E+004   -9.88463E+004    3.24428E+005   -5.68691E+004    1.66427E+005    4.36312E+004    8.23061E+004    4.46701E+004    1.58355E+005   -2.13575E+003   -2.95608E+004
            7537    2.71830E+005    2.00406E+005    2.00406E+005    1.05929E+004   -1.10995E+005    3.11401E+005   -3.33348E+004    1.94897E+005    2.34429E+004    7.08847E+004    5.67667E+003    1.44673E+005   -5.04963E+004   -3.75262E+003
            7538    2.77941E+005    2.09889E+005    2.09889E+005    1.96118E+004   -1.09074E+005    3.18963E+005   -4.01423E+004    1.91477E+005    2.89950E+004    6.99949E+004    2.14371E+004    1.56508E+005   -2.17100E+004   -1.00875E+004
            7539    2.72309E+005    2.07300E+005    2.07300E+005    2.95513E+004   -1.06199E+005    3.13499E+005   -4.35510E+004    1.66724E+005    3.15912E+004    6.79700E+004    3.10919E+004    1.54520E+005   -6.79577E+003   -1.86392E+004
            7540    2.58870E+005    2.00466E+005    2.00466E+005    3.53218E+004   -9.78814E+004    2.98347E+005   -4.59688E+004    1.47276E+005    3.49637E+004    6.75009E+004    3.54418E+004    1.45793E+005   -2.90032E+002   -2.70977E+004
            7541    2.43055E+005    1.78565E+005    1.78565E+005    2.71427E+004   -1.01791E+005    2.80356E+005   -3.46390E+004    1.25721E+005    2.56530E+004    5.13231E+004    2.69409E+004    1.36281E+005    6.20548E+002   -3.01641E+004
            7542    2.22777E+005    1.72961E+005    1.72961E+005    1.69923E+004   -8.21818E+004    2.55142E+005   -3.59237E+004    1.60525E+005    2.64240E+004    6.49563E+004    1.63907E+004    1.23926E+005    6.96476E+002   -2.29732E+004
            7543    2.53883E+005    1.90291E+005    1.90291E+005    1.96601E+004   -1.01471E+005    2.91762E+005   -3.61602E+004    1.67807E+005    2.57341E+004    6.29704E+004    1.97761E+004    1.43394E+005   -8.39417E+002   -1.93665E+004
            7544    2.32801E+005    1.58714E+005    1.58714E+005    1.29641E+003   -1.08705E+005    2.67418E+005   -1.71018E+004    1.56068E+005    1.04061E+004    3.96950E+004    1.20424E+003    1.32782E+005    8.94227E+002   -5.44204E+003
            7545    2.54051E+005    1.80175E+005    1.80175E+005    6.27561E+003   -1.11375E+005    2.91550E+005   -2.50252E+004    1.74970E+005    1.58385E+004    5.26968E+004    6.54021E+003    1.44191E+005   -1.07123E+004   -3.50515E+003
            7546    2.35457E+005    1.53309E+005    1.53309E+005    2.98845E+003   -1.18047E+005    2.71356E+005   -1.27498E+004    1.34308E+005    5.04658E+003    3.01847E+004    3.01825E+003    1.35072E+005   -2.32090E+003   -1.10206E+003
            7547    2.34620E+005    1.67571E+005    1.67571E+005    6.68098E+003   -1.01639E+005    2.69211E+005   -2.42043E+004    1.62210E+005    1.47207E+004    5.35134E+004    4.37874E+003    1.29980E+005   -2.79855E+004    1.85545E+002
            7548    2.24117E+005    1.48324E+005    1.48324E+005    9.66316E+002   -1.09590E+005    2.57914E+005   -1.32332E+004    1.40064E+005    4.05628E+003    3.49933E+004    6.50076E+002    1.27806E+005   -6.79874E+003    2.04083E+003
            7549    2.01059E+005    1.32871E+005    1.32871E+005   -4.40480E+002   -9.83924E+004    2.31264E+005   -1.13462E+004    1.28504E+005    2.74362E+003    3.22936E+004   -9.98731E+002    1.14172E+005   -1.02177E+004    1.62565E+003
            7550    1.67788E+005    1.17448E+005    1.17448E+005    5.75632E+002   -7.48113E+004    1.92259E+005   -1.44041E+004    1.19726E+005    5.40538E+003    3.78522E+004   -4.53993E+001    9.40070E+004   -1.12746E+004    3.00738E+002
            7551    2.02862E+005    1.38379E+005    1.38379E+005    4.79397E+002   -9.45550E+004    2.32934E+005   -1.47678E+004    1.37624E+005    8.04902E+003    4.20922E+004   -5.83779E+003    1.07967E+005   -3.80894E+004    1.36931E+003
            7552    1.60466E+005    1.12125E+005    1.12125E+005   -9.60877E+000   -7.16871E+004    1.83812E+005   -1.34761E+004    1.15217E+005    7.14557E+003    3.76805E+004   -4.39766E+003    8.26822E+004   -3.55495E+004   -3.21341E+003
            7553    1.77501E+005    1.19039E+005    1.19039E+005   -8.31047E+002   -8.48755E+004    2.03915E+005   -1.11108E+004    1.18645E+005    8.23376E+003    3.86943E+004   -1.35955E+004    7.06603E+004   -6.81782E+004   -1.30897E+004
            7554    2.33695E+005    1.61009E+005    1.61009E+005    3.54075E+003   -1.07505E+005    2.68514E+005   -1.90148E+004    1.55402E+005    1.45805E+004    5.63668E+004   -1.39029E+004    1.01576E+005   -8.07619E+004   -1.07285E+004
            7555    3.37279E+005    1.06132E+005   -2.78094E+005   -3.08920E+004   -2.78094E+005    3.84226E+005    6.76179E+004   -2.62711E+005   -5.13961E+004   -1.36683E+005   -1.47745E+004    1.67457E+005   -7.68041E+004    8.10147E+003
            7556    3.90367E+005    1.14099E+005   -3.32136E+005   -5.38648E+004   -3.32136E+005    4.46235E+005    9.06338E+004   -2.90608E+005   -7.07447E+004   -1.68741E+005   -3.24161E+004    1.95846E+005   -8.65539E+004    2.34808E+003
            7557    4.54230E+005    1.21796E+005   -3.98066E+005   -7.78658E+004   -3.98066E+005    5.19862E+005    1.18045E+005   -3.31501E+005   -9.31800E+004   -2.04637E+005   -5.63192E+004    2.32469E+005   -9.36470E+004   -2.48882E+002
            7558    5.20442E+005    1.28663E+005   -4.67317E+005   -1.02498E+005   -4.67317E+005    5.95980E+005    1.47051E+005   -3.75888E+005   -1.16924E+005   -2.40908E+005   -8.33198E+004    2.74159E+005   -9.05827E+004   -5.37804E+003
            7559    4.61664E+005    8.41202E+004   -4.41728E+005   -1.02994E+005   -4.41728E+005    5.25848E+005    1.53534E+005   -3.60191E+005   -1.21315E+005   -2.34313E+005   -1.04972E+005    2.53982E+005   -3.62128E+004    1.63077E+004
            7560    4.03445E+005    5.37371E+004   -4.06777E+005   -1.15582E+005   -4.06777E+005    4.60514E+005    1.56207E+005   -3.06704E+005   -1.21252E+005   -2.29528E+005   -1.17842E+005    2.21256E+005   -8.03788E+003    3.46763E+004
            7561    4.06158E+005    8.44021E+004   -3.78561E+005   -8.21741E+004   -3.78561E+005    4.62964E+005    1.25444E+005   -3.14231E+005   -9.78597E+004   -1.93626E+005   -8.48477E+004    2.23122E+005   -3.70970E+004    1.73070E+004
            7562    3.57377E+005    5.99507E+004   -3.48701E+005   -9.46656E+004   -3.48701E+005    4.08652E+005    1.27805E+005   -2.64741E+005   -9.84563E+004   -1.87664E+005   -9.72960E+004    1.96063E+005   -7.58723E+003    3.72407E+004
            7563    3.55396E+005    8.32536E+004   -3.21811E+005   -6.22833E+004   -3.21811E+005    4.05065E+005    1.00280E+005   -2.75261E+005   -7.67815E+004   -1.58054E+005   -6.60053E+004    1.95026E+005   -3.42503E+004    1.90119E+004
            7564    3.16185E+005    7.03588E+004   -2.92134E+005   -7.31770E+004   -2.92134E+005    3.62493E+005    9.83174E+004   -2.23040E+005   -7.47659E+004   -1.44123E+005   -7.60634E+004    1.73522E+005   -6.65416E+003    3.99520E+004
            7565    3.02672E+005    8.81083E+004   -2.57678E+005   -4.08072E+004   -2.57678E+005    3.45786E+005    7.01256E+004   -2.27317E+005   -5.15573E+004   -1.14037E+005   -4.47824E+004    1.67418E+005   -2.67087E+004    1.83552E+004
            7566    2.82217E+005    7.69834E+004   -2.47360E+005   -5.78520E+004   -2.47360E+005    3.24344E+005    7.60764E+004   -1.86146E+005   -5.70169E+004   -1.12106E+005   -5.91060E+004    1.55641E+005   -2.60147E+003    3.66489E+004
            7567    2.58049E+005    8.61612E+004   -2.10946E+005   -4.27747E+004   -2.10946E+005    2.97107E+005    5.58532E+004   -1.57256E+005   -4.19373E+004   -8.20410E+004   -4.35815E+004    1.41891E+005   -1.34824E+003    3.93279E+004
            7568    2.32681E+005    7.07710E+004   -1.94569E+005   -2.53424E+004   -1.94569E+005    2.65340E+005    4.97136E+004   -1.79071E+005   -3.71706E+004   -8.72502E+004   -2.47200E+004    1.26582E+005   -1.90126E+002    3.04694E+004
            7569    2.68627E+005    8.88630E+004   -2.17772E+005   -2.39334E+004   -2.17772E+005    3.06635E+005    5.09473E+004   -2.04130E+005   -3.50655E+004   -9.13854E+004   -2.63911E+004    1.49355E+005   -1.15088E+004    1.92038E+004
            7570    2.39585E+005    1.06767E+005   -1.67675E+005   -2.48002E+002   -1.67675E+005    2.74441E+005    2.03853E+004   -1.72032E+005   -1.02460E+004   -5.05944E+004   -3.15396E+002    1.35648E+005   -1.15978E+003    4.77232E+003
            7571    2.32684E+005    1.05708E+005   -1.61777E+005   -6.11821E+003   -1.61777E+005    2.67485E+005    2.07291E+004   -1.52084E+005   -7.14999E+003   -4.89885E+004   -6.04878E+003    1.32013E+005   -4.53635E+003   -2.70954E+002
            7572    2.13787E+005    9.89173E+004   -1.46024E+005    3.04660E+003   -1.46024E+005    2.44942E+005    1.46868E+004   -1.52863E+005   -2.00463E+003   -4.60457E+004    3.98983E+003    1.19931E+005   -9.48090E+003   -3.88890E+003
            7573    1.77820E+005    7.18798E+004   -1.30764E+005   -7.82887E+002   -1.30764E+005    2.02644E+005    1.98891E+004   -1.37937E+005   -5.70379E+003   -5.40421E+004    7.85147E+001    9.76385E+004   -1.10936E+004   -6.59899E+002
            7574    1.34472E+005    5.36488E+004   -9.86741E+004    3.58218E+003   -9.86741E+004    1.52323E+005    1.38144E+004   -1.10371E+005   -3.86875E+003   -4.12505E+004    3.67612E+003    7.32319E+004   -8.94645E+003    2.41107E+003
            7575    2.51857E+005    9.42516E+004   -1.93242E+005   -1.15148E+004   -1.93242E+005    2.87494E+005    3.68350E+004   -1.91369E+005   -2.22644E+004   -8.05215E+004   -7.71905E+003    1.37564E+005   -2.70096E+004   -2.50367E+003
            7576    2.12626E+005    8.73766E+004   -1.55317E+005   -1.80361E+003   -1.55317E+005    2.42694E+005    2.32482E+004   -1.61722E+005   -1.22434E+004   -6.36336E+004    6.13257E+003    1.11244E+005   -3.72342E+004   -8.88506E+002
            7577    1.68016E+005    6.85699E+004   -1.22973E+005   -5.01948E+002   -1.22973E+005    1.91543E+005    1.83016E+004   -1.29763E+005   -7.81128E+003   -5.36104E+004    6.51692E+003    8.49802E+004   -3.45653E+004    2.64522E+003
            7578    1.25654E+005    5.08057E+004   -9.12104E+004    5.53702E+003   -9.12104E+004    1.42016E+005    1.16226E+004   -1.04799E+005   -4.64618E+003   -3.60950E+004    5.87349E+003    6.24960E+004   -2.81754E+004    9.30211E+003
            7579    1.31735E+005    5.81917E+004   -9.17690E+004    5.29933E+003   -9.17690E+004    1.49961E+005    9.42599E+003   -1.03442E+005   -6.78886E+003   -3.43902E+004    1.29011E+004    4.77094E+004   -5.07463E+004    1.92089E+004
            7580    1.83134E+005    7.97688E+004   -1.29821E+005   -6.87953E+002   -1.29821E+005    2.09590E+005    1.69133E+004   -1.33721E+005   -1.18081E+004   -5.64253E+004    1.74934E+004    7.11600E+004   -6.64216E+004    1.78402E+004
            7581    2.32531E+005    9.77865E+004   -1.68375E+005   -4.64492E+003   -1.68375E+005    2.66161E+005    2.50777E+004   -1.69346E+005   -1.86444E+004   -7.53060E+004    1.87174E+004    9.84896E+004   -7.66809E+004    1.42214E+004
            7582    2.91090E+005    1.04166E+005   -2.27397E+005   -1.38357E+004   -2.27397E+005    3.31563E+005    4.56891E+004   -2.27080E+005   -3.42123E+004   -1.08991E+005    6.13578E+003    1.36012E+005   -7.86395E+004    1.21891E+004
            7583    4.49681E+005    4.74532E+004   -4.65057E+005   -1.36606E+005   -4.65057E+005    5.12511E+005    1.84737E+005   -3.48405E+005   -1.44090E+005   -2.72089E+005   -1.38031E+005    2.46651E+005   -7.08514E+003    2.80180E+004
            7584    5.15002E+005    8.61947E+004   -5.00371E+005   -1.22335E+005   -5.00371E+005    5.86565E+005    1.78837E+005   -4.02075E+005   -1.42216E+005   -2.70901E+005   -1.23395E+005    2.84342E+005   -3.07567E+004    1.29462E+004
            7585    5.86116E+005    1.31407E+005   -5.39792E+005   -1.29026E+005   -5.39792E+005    6.71199E+005    1.79137E+005   -4.23149E+005   -1.42635E+005   -2.78790E+005   -1.15986E+005    3.17526E+005   -7.74564E+004   -7.90542E+003
            7586    4.88134E+005    4.34286E+004   -5.12426E+005   -1.53600E+005   -5.12426E+005    5.55855E+005    2.07533E+005   -3.81926E+005   -1.62324E+005   -3.06073E+005   -1.54201E+005    2.67863E+005   -4.87727E+003    1.87499E+004
            7587    5.59159E+005    8.75338E+004   -5.49273E+005   -1.38586E+005   -5.49273E+005    6.36807E+005    2.00109E+005   -4.36935E+005   -1.59783E+005   -3.01551E+005   -1.38992E+005    3.09685E+005   -2.04224E+004    8.46098E+003
            7588    6.41559E+005    1.32206E+005   -6.02435E+005   -1.52508E+005   -6.02435E+005    7.34642E+005    2.07579E+005   -4.63767E+005   -1.65384E+005   -3.10687E+005   -1.46666E+005    3.55382E+005   -5.27658E+004   -7.59460E+003
            7589    5.10399E+005    4.10703E+004   -5.39908E+005   -1.63653E+005   -5.39908E+005    5.80978E+005    2.20830E+005   -4.01049E+005   -1.72955E+005   -3.25814E+005   -1.63722E+005    2.80187E+005   -1.73504E+003    6.39638E+003
            7590    5.83835E+005    8.86333E+004   -5.76313E+005   -1.47672E+005   -5.76313E+005    6.64947E+005    2.11784E+005   -4.55942E+005   -1.69328E+005   -3.18304E+005   -1.47720E+005    3.23938E+005   -7.04704E+003    2.95677E+003
            7591    6.75100E+005    1.31780E+005   -6.41202E+005   -1.67344E+005   -6.41202E+005    7.72983E+005    2.25589E+005   -4.88801E+005   -1.79623E+005   -3.30534E+005   -1.66609E+005    3.78474E+005   -1.91163E+004   -3.04764E+003
            7592    1.28108E+005    9.89612E+004    9.89612E+004    9.86328E+002   -4.60066E+004    1.44968E+005   -1.79803E+004    1.05934E+005    7.54153E+003    4.54876E+004    9.11814E+002    6.93391E+004    8.80024E+003    2.58408E+003
            7593    1.20127E+005    9.06698E+004    9.06698E+004   -2.99817E+003   -4.47656E+004    1.35435E+005   -1.43020E+004    1.01753E+005    7.07442E+003    3.93615E+004   -3.52990E+003    5.91427E+004    2.69202E+004    9.40763E+003
            7594    1.29062E+005    9.15437E+004    9.15437E+004   -4.33259E+003   -5.52010E+004    1.46745E+005   -1.06700E+004    1.02565E+005    7.57454E+003    3.54665E+004   -1.10309E+004    4.60401E+004    4.97813E+004    2.01681E+004
            7595    9.20086E+004    6.67272E+004    6.67272E+004   -3.44387E+003   -3.74424E+004    1.04170E+005   -8.61365E+003    7.58086E+004    1.91984E+003    2.68398E+004   -2.91868E+003    5.01558E+004    5.92911E+003    4.01317E+003
            7596    8.43220E+004    6.12841E+004    6.12841E+004   -7.88059E+003   -3.26479E+004    9.39320E+004   -6.91854E+003    7.54641E+004    2.01438E+003    2.17703E+004   -3.02905E+003    4.18627E+004    1.73732E+004    1.19986E+004
            7597    8.58525E+004    6.18955E+004    6.18955E+004   -9.66322E+003   -3.32991E+004    9.51946E+004   -6.31106E+003    7.80138E+004    4.35166E+003    1.98982E+004   -5.31670E+003    3.00482E+004    3.17804E+004    1.95491E+004
            7598    6.91339E+004    5.11806E+004    5.11806E+004    1.90121E+003   -2.78480E+004    7.90286E+004   -8.41127E+003    5.14624E+004    5.20967E+003    1.76325E+004    2.39164E+003    3.87555E+004    2.66074E+003    4.28213E+003
            7599    6.18779E+004    4.62780E+004    4.62780E+004   -3.21006E+003   -2.30987E+004    6.93767E+004   -6.65644E+003    5.39507E+004    4.54091E+003    1.42903E+004    1.13814E+003    3.20132E+004    7.99719E+003    1.18698E+004
            7600    5.55273E+004    4.19091E+004    4.19091E+004   -1.29727E+004   -1.42418E+004    5.61509E+004   -4.89822E+003    5.54946E+004    3.80123E+003    1.08304E+004    6.29894E+001    2.10332E+004    1.47969E+004    1.83447E+004
            7601    6.24132E+004    3.19808E+004   -4.00633E+004   -2.41533E+003   -4.00633E+004    7.20441E+004    3.49928E+003   -2.66763E+004   -3.02990E+003   -5.00075E+003   -2.46718E+003    3.57694E+004   -2.59586E+002    4.14544E+003
            7602    5.48035E+004    2.80401E+004   -3.51736E+004   -1.02714E+003   -3.51736E+004    6.32137E+004    2.72019E+003   -2.83630E+004   -2.55994E+003   -4.15994E+003   -1.44069E+003    2.93615E+004   -8.24832E+002    1.16831E+004
            7603    4.42738E+004    2.40578E+004   -2.70445E+004   -2.35925E+002   -2.70445E+004    5.11023E+004    1.07419E+003   -1.94748E+004   -9.32866E+002   -1.54448E+003   -7.45232E+002    1.85090E+004   -5.99224E+002    1.76145E+004
            7604    7.16597E+004    3.32075E+004   -4.85847E+004    3.15752E+003   -4.85847E+004    8.17922E+004    4.07323E+003   -5.45119E+004   -3.55756E+002   -1.44282E+004    2.56431E+003    3.99838E+004   -3.39426E+003    4.35035E+003
            7605    6.42468E+004    2.74841E+004   -4.44875E+004    7.07762E+003   -4.44875E+004    7.19716E+004    3.30861E+003   -5.62305E+004   -5.56392E+002   -1.12326E+004    1.86312E+003    3.29465E+004   -9.90230E+003    1.19917E+004
            7606    5.67071E+004    1.56731E+004   -4.13730E+004    1.49888E+004   -4.13730E+004    5.70461E+004    3.57038E+003   -5.66978E+004   -2.43526E+003   -9.99444E+003    1.71857E+003    2.14464E+004   -1.56568E+004    1.82085E+004
            7607    1.01223E+005    3.52533E+004   -7.91693E+004   -1.29949E+003   -7.91693E+004    1.14423E+005    1.50718E+004   -8.43314E+004   -6.80100E+003   -3.67390E+004   -1.67550E+003    5.47832E+004   -6.47562E+003    3.68714E+003
            7608    9.27870E+004    3.17511E+004   -7.16680E+004    4.28601E+003   -7.16680E+004    1.03419E+005    1.18770E+004   -8.28742E+004   -6.03198E+003   -3.03618E+004    7.62861E+002    4.59739E+004   -1.88954E+004    1.14614E+004
            7609    8.97077E+004    3.30327E+004   -6.66069E+004    7.73671E+003   -6.66069E+004    9.96397E+004    8.61250E+003   -8.10825E+004   -6.03213E+003   -2.35265E+004    3.72116E+003    3.18379E+004   -3.29143E+004    1.98717E+004
            7610    5.86463E+005    1.31553E+005   -5.40047E+005   -1.29063E+005   -5.40047E+005    6.71601E+005    1.79186E+005   -4.23351E+005   -1.42675E+005   -2.78876E+005   -1.16006E+005    3.17716E+005    7.75126E+004    7.92737E+003
            7611    5.14961E+005    8.59912E+004   -5.00505E+005   -1.22393E+005   -5.00505E+005    5.86496E+005    1.78969E+005   -4.02214E+005   -1.42314E+005   -2.71101E+005   -1.23492E+005    2.84322E+005    3.04870E+004   -1.31039E+004
            7612    4.50225E+005    4.73654E+004   -4.65761E+005   -1.36892E+005   -4.65761E+005    5.13126E+005    1.85096E+005   -3.48861E+005   -1.44374E+005   -2.72613E+005   -1.38300E+005    2.46954E+005    7.04012E+003   -2.78904E+004
            7613    6.41915E+005    1.32278E+005   -6.02781E+005   -1.52662E+005   -6.02781E+005    7.35059E+005    2.07722E+005   -4.63912E+005   -1.65487E+005   -3.10801E+005   -1.46877E+005    3.55646E+005    5.24844E+004    7.59863E+003
            7614    5.58609E+005    8.73097E+004   -5.48836E+005   -1.38388E+005   -5.48836E+005    6.36146E+005    1.99972E+005   -4.36770E+005   -1.59665E+005   -3.01455E+005   -1.38795E+005    3.09346E+005    2.03698E+004   -8.46529E+003
            7615    4.88273E+005    4.33568E+004   -5.12654E+005   -1.53720E+005   -5.12654E+005    5.56011E+005    2.07672E+005   -3.82044E+005   -1.62432E+005   -3.06272E+005   -1.54313E+005    2.67940E+005    4.85026E+003   -1.86227E+004
            7616    6.75296E+005    1.31795E+005   -6.41415E+005   -1.67430E+005   -6.41415E+005    7.73210E+005    2.25683E+005   -4.88922E+005   -1.79698E+005   -3.30618E+005   -1.66734E+005    3.78617E+005    1.86568E+004    2.93456E+003
            7617    5.83459E+005    8.85265E+004   -5.75974E+005   -1.47531E+005   -5.75974E+005    6.64501E+005    2.11660E+005   -4.55775E+005   -1.69227E+005   -3.18177E+005   -1.47575E+005    3.23705E+005    7.40833E+003   -2.91510E+003
            7618    5.10343E+005    4.10592E+004   -5.39859E+005   -1.63667E+005   -5.39859E+005    5.80918E+005    2.20822E+005   -4.00970E+005   -1.72945E+005   -3.25783E+005   -1.63738E+005    2.80159E+005    1.78758E+003   -6.38295E+003
            7619    2.63055E+005    2.24900E+005    2.24900E+005    5.06595E+004   -7.76922E+004    3.02592E+005   -6.59557E+004    1.67682E+005    5.00604E+004    9.69564E+004    5.08503E+004    1.44648E+005    2.88733E+002    3.77086E+004
            7620    2.85409E+005    2.54674E+005    2.54674E+005    6.30735E+004   -7.33440E+004    3.28018E+005   -8.14678E+004    1.88131E+005    6.21994E+004    1.18068E+005    6.41362E+004    1.56402E+005    1.93202E+003    4.10082E+004
            7621    3.14060E+005    2.96329E+005    2.96329E+005    7.98951E+004   -6.38826E+004    3.60211E+005   -1.04114E+005    2.19376E+005    8.01315E+004    1.50866E+005    8.13436E+004    1.72044E+005    3.16414E+003    4.03638E+004
            7622    3.51614E+005    3.45630E+005    3.45630E+005    9.74449E+004   -5.67344E+004    4.02364E+005   -1.28780E+005    2.57218E+005    9.96507E+004    1.87612E+005    9.90778E+004    1.92085E+005    4.11520E+003    4.12434E+004
            7623    3.94250E+005    4.01995E+005    4.01995E+005    1.18457E+005   -4.82185E+004    4.50213E+005   -1.57411E+005    2.97944E+005    1.22135E+005    2.30254E+005    1.19844E+005    2.15509E+005    4.46254E+003    3.69633E+004
            7624    2.78405E+005    2.28072E+005    2.28072E+005    3.97565E+004   -9.17237E+004    3.19796E+005   -5.87017E+004    1.86780E+005    4.21280E+004    9.19226E+004    4.20543E+004    1.55911E+005    7.60375E+003    2.53526E+004
            7625    3.05856E+005    2.66083E+005    2.66083E+005    5.44770E+004   -8.45976E+004    3.50680E+005   -7.86541E+004    2.15350E+005    5.84714E+004    1.19604E+005    5.78864E+004    1.70490E+005    1.21946E+004    2.66304E+004
            7626    3.40175E+005    3.06970E+005    3.06970E+005    6.76080E+004   -8.24309E+004    3.89401E+005   -9.73823E+004    2.47431E+005    7.42201E+004    1.45999E+005    7.19282E+004    1.88961E+005    1.65346E+004    2.86248E+004
            7627    3.83330E+005    3.60340E+005    3.60340E+005    8.44035E+004   -7.73552E+004    4.37696E+005   -1.22463E+005    2.90131E+005    9.54263E+004    1.83573E+005    8.83897E+004    2.12273E+005    1.86105E+004    2.75917E+004
            7628    4.30000E+005    4.15505E+005    4.15505E+005    1.02522E+005   -7.47988E+004    4.90304E+005   -1.47743E+005    3.31342E+005    1.17006E+005    2.20492E+005    1.05731E+005    2.37959E+005    1.81174E+004    2.60676E+004
            7629    2.81923E+005    2.33501E+005    2.33501E+005    2.93911E+004   -8.81792E+004    3.21680E+005   -5.82375E+004    2.15395E+005    3.93173E+004    1.03375E+005    3.20204E+004    1.55707E+005    2.23041E+004    1.44987E+004
            7630    3.15596E+005    2.71090E+005    2.71090E+005    4.26983E+004   -8.90306E+004    3.60121E+005   -7.49193E+004    2.40957E+005    5.31797E+004    1.25580E+005    4.59986E+004    1.72969E+005    3.27086E+004    1.65636E+004
            7631    3.62084E+005    3.26736E+005    3.26736E+005    6.14172E+004   -8.57608E+004    4.12497E+005   -1.00797E+005    2.81929E+005    7.45154E+004    1.63213E+005    6.46644E+004    1.97254E+005    3.88903E+004    1.82728E+004
            7632    4.12327E+005    3.83505E+005    3.83505E+005    8.10223E+004   -8.61574E+004    4.69662E+005   -1.26123E+005    3.21615E+005    9.53043E+004    1.99548E+005    8.35178E+004    2.24901E+005    4.12311E+004    1.76838E+004
            7633    4.68618E+005    4.49386E+005    4.49386E+005    1.03709E+005   -8.39839E+004    5.33370E+005   -1.56371E+005    3.68572E+005    1.19900E+005    2.43867E+005    1.05345E+005    2.56174E+005    3.90233E+004    1.60661E+004
            7634    2.72586E+005    2.14894E+005    2.14894E+005    1.41215E+004   -9.54234E+004    3.10317E+005   -4.45307E+004    2.13911E+005    3.05375E+004    9.61163E+004    6.93848E+003    1.41943E+005    4.96208E+004    4.77108E+003
            7635    3.26362E+005    2.72425E+005    2.72425E+005    3.18123E+004   -9.90617E+004    3.71486E+005   -6.83918E+004    2.56481E+005    5.12401E+004    1.28989E+005    2.49464E+004    1.68744E+005    6.33026E+004    9.76979E+003
            7636    3.78405E+005    3.24483E+005    3.24483E+005    5.00472E+004   -1.07191E+005    4.31674E+005   -8.91133E+004    2.89915E+005    6.86840E+004    1.57625E+005    4.10304E+004    1.97785E+005    6.96634E+004    6.83304E+003
            7637    4.35397E+005    3.87180E+005    3.87180E+005    7.22733E+004   -1.09678E+005    4.96858E+005   -1.16592E+005    3.32112E+005    9.13015E+004    1.94092E+005    6.43812E+004    2.31076E+005    7.11731E+004    6.52978E+003
            7638    4.93554E+005    4.49175E+005    4.49175E+005    9.41566E+004   -1.14425E+005    5.63601E+005   -1.42969E+005    3.73100E+005    1.12401E+005    2.29609E+005    8.68968E+004    2.66512E+005    6.61053E+004    2.67695E+003
            7639    5.34785E+005    4.74722E+005    4.74722E+005    1.04228E+005   -1.38362E+005    6.13085E+005   -1.46863E+005    3.77564E+005    1.19817E+005    2.45000E+005    7.57715E+004    2.76029E+005    1.06572E+005   -8.59584E+003
            7640    4.67232E+005    4.00050E+005    4.00050E+005    7.67788E+004   -1.35655E+005    5.35705E+005   -1.13725E+005    3.29008E+005    9.24032E+004    2.06430E+005    4.23400E+004    2.30665E+005    1.11724E+005   -2.79641E+003
            7641    4.04285E+005    3.36730E+005    3.36730E+005    5.43815E+004   -1.26401E+005    4.63131E+005   -8.82371E+004    2.89954E+005    7.07746E+004    1.73644E+005    2.02927E+004    1.91154E+005    1.08647E+005    5.52173E+003
            7642    3.46659E+005    2.76564E+005    2.76564E+005    3.29728E+004   -1.20314E+005    3.96877E+005   -6.30742E+004    2.51510E+005    4.98962E+004    1.40328E+005   -1.00105E+003    1.58587E+005    9.85854E+004    8.05182E+003
            7643    2.89712E+005    2.22847E+005    2.22847E+005    1.84091E+004   -1.08690E+005    3.31537E+005   -4.41887E+004    2.11833E+005    3.36760E+004    1.08747E+005   -9.85665E+003    1.29528E+005    8.65062E+004    1.08241E+004
            7644    2.35822E+005    1.71956E+005    1.71956E+005    6.63847E+003   -9.80924E+004    2.70048E+005   -2.68340E+004    1.70343E+005    1.94498E+004    7.97652E+004   -1.87130E+004    9.84202E+004    7.84909E+004    1.49889E+004
            7645    1.77639E+005    1.23405E+005    1.23405E+005   -1.52198E+003   -7.99499E+004    2.03355E+005   -1.39778E+004    1.29080E+005    1.00700E+004    5.15605E+004   -1.96972E+004    6.78030E+004    6.56953E+004    1.80147E+004
            7646    1.58873E+005    1.13818E+005    1.13818E+005   -2.75027E+003   -6.71421E+004    1.80960E+005   -1.46420E+004    1.23953E+005    5.77235E+003    4.67897E+004   -8.63603E+003    7.96380E+004    3.49668E+004    4.65262E+003
            7647    1.65344E+005    1.17866E+005    1.17866E+005   -3.75417E+003   -7.03999E+004    1.88266E+005   -1.45705E+004    1.29491E+005    2.60852E+003    4.56972E+004   -4.59415E+003    9.08520E+004    1.09071E+004   -3.96115E+002
            7648    2.05408E+005    1.51844E+005    1.51844E+005    4.93632E+003   -8.28735E+004    2.34718E+005   -2.46358E+004    1.53786E+005    1.25633E+004    6.55261E+004   -4.18207E+003    1.06446E+005    3.74995E+004   -1.73860E+003
            7649    2.02005E+005    1.43694E+005    1.43694E+005    2.06670E+003   -8.76268E+004    2.31321E+005   -1.93779E+004    1.45947E+005    4.85984E+003    5.20477E+004    1.22608E+003    1.12661E+005    9.98230E+003   -2.46961E+003
            7650    2.24722E+005    1.52074E+005    1.52074E+005   -1.44734E+003   -1.05858E+005    2.57933E+005   -1.49229E+004    1.54121E+005    2.33681E+003    4.43418E+004   -1.91000E+003    1.26976E+005    6.96164E+003   -2.90076E+003
            7651    2.36946E+005    1.64911E+005    1.64911E+005    6.93245E+003   -1.07535E+005    2.72446E+005   -2.14363E+004    1.53589E+005    8.73172E+003    4.85960E+004    6.98100E+003    1.34725E+005    2.63326E+003    1.65075E+003
            7652    2.38326E+005    1.68649E+005    1.68649E+005   -4.73979E+002   -1.03921E+005    2.72571E+005   -2.14180E+004    1.76023E+005    1.20999E+004    5.27419E+004   -5.87929E+002    1.34544E+005   -6.43700E+002    7.38362E+003
            7653    2.30030E+005    1.97466E+005    1.97466E+005    2.62553E+004   -6.40066E+004    2.61472E+005   -5.32381E+004    1.83311E+005    4.03786E+004    9.44184E+004    2.49173E+004    1.23629E+005   -5.95491E+002    3.19659E+004
            7654    2.35574E+005    1.76899E+005    1.76899E+005    7.15339E+003   -9.20521E+004    2.68951E+005   -3.06667E+004    1.78594E+005    1.73063E+004    7.06051E+004    4.08881E+003    1.28369E+005    2.79222E+004    1.31722E+002
            7655    2.57224E+005    1.98322E+005    1.98322E+005    1.16779E+004   -9.50924E+004    2.93414E+005   -3.83025E+004    1.97232E+005    2.30825E+004    7.98365E+004    1.19885E+004    1.43455E+005    1.13527E+004    4.66160E+003
            7656    2.61313E+005    2.08450E+005    2.08450E+005    2.46224E+004   -9.06835E+004    2.99134E+005   -4.74630E+004    1.89987E+005    3.28862E+004    8.45444E+004    2.49584E+004    1.44941E+005    1.67454E+003    2.65324E+004
            7657    2.48147E+005    1.99961E+005    1.99961E+005    4.01146E+004   -8.59083E+004    2.85869E+005   -5.13892E+004    1.45885E+005    3.90298E+004    7.51901E+004    3.99475E+004    1.35488E+005   -4.38232E+002    4.17544E+004
            7658    2.82061E+005    7.69931E+004   -2.47186E+005   -5.79065E+004   -2.47186E+005    3.24179E+005    7.60331E+004   -1.85752E+005   -5.69811E+004   -1.11984E+005   -5.91339E+004    1.55571E+005    2.53485E+003   -3.66093E+004
            7659    3.16394E+005    7.03093E+004   -2.92418E+005   -7.32760E+004   -2.92418E+005    3.62727E+005    9.84615E+004   -2.23269E+005   -7.48851E+004   -1.44327E+005   -7.61725E+004    1.73633E+005    6.68150E+003   -3.99671E+004
            7660    3.58553E+005    5.97565E+004   -3.50217E+005   -9.52197E+004   -3.50217E+005    4.09974E+005    1.28560E+005   -2.65843E+005   -9.90573E+004   -1.88783E+005   -9.78406E+004    1.96702E+005    7.59760E+003   -3.71957E+004
            7661    4.04718E+005    5.35683E+004   -4.08378E+005   -1.16162E+005   -4.08378E+005    4.61947E+005    1.56991E+005   -3.07849E+005   -1.21863E+005   -2.30716E+005   -1.18394E+005    2.21953E+005    7.99708E+003   -3.45301E+004
            7662    3.02707E+005    8.80865E+004   -2.57739E+005   -4.08352E+004   -2.57739E+005    3.45826E+005    7.01626E+004   -2.27357E+005   -5.15895E+004   -1.14079E+005   -4.48193E+004    1.67424E+005    2.67946E+004   -1.83626E+004
            7663    3.55940E+005    8.32526E+004   -3.22444E+005   -6.25789E+004   -3.22444E+005    4.05697E+005    1.00590E+005   -2.75583E+005   -7.70326E+004   -1.58449E+005   -6.62884E+004    1.95338E+005    3.42623E+004   -1.89875E+004
            7664    4.07029E+005    8.44618E+004   -3.79508E+005   -8.25471E+004   -3.79508E+005    4.63969E+005    1.25864E+005   -3.14802E+005   -9.82092E+004   -1.94152E+005   -8.52319E+004    2.23627E+005    3.70767E+004   -1.73498E+004
            7665    4.62312E+005    8.40253E+004   -4.42567E+005   -1.03395E+005   -4.42567E+005    5.26593E+005    1.53979E+005   -3.60637E+005   -1.21673E+005   -2.34880E+005   -1.05384E+005    2.54395E+005    3.58570E+004   -1.63286E+004
            7666    5.20216E+005    1.28778E+005   -4.66965E+005   -1.02442E+005   -4.66965E+005    5.95743E+005    1.46876E+005   -3.75459E+005   -1.16798E+005   -2.40682E+005   -8.31490E+004    2.73955E+005    9.07995E+004    5.41791E+003
            7667    4.53806E+005    1.21635E+005   -3.97745E+005   -7.78620E+004   -3.97745E+005    5.19380E+005    1.17991E+005   -3.31156E+005   -9.31369E+004   -2.04509E+005   -5.63263E+004    2.32209E+005    9.36636E+004    1.95629E+002
            7668    3.90016E+005    1.13886E+005   -3.31935E+005   -5.38428E+004   -3.31935E+005    4.45821E+005    9.06304E+004   -2.90476E+005   -7.07358E+004   -1.68663E+005   -3.24925E+004    1.95746E+005    8.63108E+004   -2.33172E+003
            7669    3.37776E+005    1.06096E+005   -2.78677E+005   -3.10160E+004   -2.78677E+005    3.84772E+005    6.78656E+004   -2.63251E+005   -5.15741E+004   -1.36989E+005   -1.50342E+004    1.67830E+005    7.66854E+004   -8.12759E+003
            7670    2.91350E+005    1.04265E+005   -2.27594E+005   -1.38465E+004   -2.27594E+005    3.31859E+005    4.57252E+004   -2.27275E+005   -3.42639E+004   -1.09095E+005    6.18359E+003    1.36088E+005    7.87702E+004   -1.22225E+004
            7671    2.32219E+005    9.76438E+004   -1.68159E+005   -4.64191E+003   -1.68159E+005    2.65803E+005    2.50525E+004   -1.69132E+005   -1.86396E+004   -7.52243E+004    1.87066E+004    9.83261E+004    7.66040E+004   -1.42295E+004
            7672    1.82763E+005    7.95661E+004   -1.29589E+005   -6.62079E+002   -1.29589E+005    2.09155E+005    1.68950E+004   -1.33555E+005   -1.17937E+004   -5.63193E+004    1.74281E+004    7.10697E+004    6.62367E+004   -1.77960E+004
            7673    1.31836E+005    5.82586E+004   -9.18175E+004    5.32631E+003   -9.18175E+004    1.50076E+005    9.41085E+003   -1.03522E+005   -6.76429E+003   -3.44176E+004    1.29493E+004    4.78228E+004    5.07294E+004   -1.91560E+004
            7674    1.25738E+005    5.08422E+004   -9.12790E+004    5.49712E+003   -9.12790E+004    1.42121E+005    1.16466E+004   -1.04820E+005   -4.66687E+003   -3.61403E+004    5.86743E+003    6.24850E+004    2.83052E+004   -9.31561E+003
            7675    1.34896E+005    5.38771E+004   -9.89371E+004    3.60107E+003   -9.89371E+004    1.52814E+005    1.38196E+004   -1.10661E+005   -3.84654E+003   -4.13216E+004    3.70920E+003    7.34553E+004    9.09192E+003   -2.40264E+003
            7676    1.68353E+005    6.86954E+004   -1.23223E+005   -4.61626E+002   -1.23223E+005    1.91918E+005    1.83297E+004   -1.30097E+005   -7.84542E+003   -5.37506E+004    6.60706E+003    8.50928E+004    3.47324E+004   -2.69615E+003
            7677    1.77687E+005    7.17609E+004   -1.30722E+005   -7.85531E+002   -1.30722E+005    2.02483E+005    1.99155E+004   -1.37919E+005   -5.73526E+003   -5.41000E+004    8.87972E+001    9.75342E+004    1.12275E+004    6.22826E+002
            7678    2.12931E+005    8.75028E+004   -1.55539E+005   -1.80944E+003   -1.55539E+005    2.43042E+005    2.32820E+004   -1.61947E+005   -1.22801E+004   -6.37443E+004    6.17845E+003    1.11336E+005    3.74664E+004    8.25652E+002
            7679    2.13283E+005    9.85575E+004   -1.45783E+005    3.08352E+003   -1.45783E+005    2.44341E+005    1.47141E+004   -1.52794E+005   -2.02734E+003   -4.61555E+004    4.04053E+003    1.19609E+005    9.54880E+003    3.88906E+003
            7680    2.52034E+005    9.42498E+004   -1.93443E+005   -1.15742E+004   -1.93443E+005    2.87693E+005    3.69225E+004   -1.91528E+005   -2.23384E+004   -8.06579E+004   -7.77110E+003    1.37659E+005    2.70119E+004    2.52337E+003
            7681    2.32485E+005    1.05596E+005   -1.61660E+005   -6.12027E+003   -1.61660E+005    2.67256E+005    2.07281E+004   -1.51986E+005   -7.13013E+003   -4.90085E+004   -6.04560E+003    1.31891E+005    4.59443E+003    3.22012E+002
            7682    2.39658E+005    1.06935E+005   -1.67593E+005   -1.31318E+002   -1.67593E+005    2.74528E+005    2.02628E+004   -1.72052E+005   -1.01083E+004   -5.04815E+004   -1.98617E+002    1.35694E+005    1.17825E+003   -4.66806E+003
            7683    2.32656E+005    7.08541E+004   -1.94469E+005   -2.53175E+004   -1.94469E+005    2.65323E+005    4.96441E+004   -1.78956E+005   -3.70922E+004   -8.71698E+004   -2.46703E+004    1.26595E+005    1.24229E+002   -3.03633E+004
            7684    2.68521E+005    8.88194E+004   -2.17700E+005   -2.39697E+004   -2.17700E+005    3.06519E+005    5.09501E+004   -2.03995E+005   -3.50600E+004   -9.13810E+004   -2.64092E+004    1.49305E+005    1.14441E+004   -1.91539E+004
            7685    2.57861E+005    8.61780E+004   -2.10715E+005   -4.26950E+004   -2.10715E+005    2.96893E+005    5.57440E+004   -1.57062E+005   -4.18477E+004   -8.18857E+004   -4.34986E+004    1.41802E+005    1.34276E+003   -3.92595E+004
            7686    6.00281E+005    5.47903E+005    5.47903E+005    1.32073E+005   -1.40274E+005    6.88176E+005   -1.79901E+005    4.23724E+005    1.47345E+005    2.79627E+005    1.12730E+005    3.22783E+005    8.93085E+004   -1.37374E+004
            7687    5.51019E+005    5.13500E+005    5.13500E+005    1.17110E+005   -1.15715E+005    6.29215E+005   -1.71632E+005    4.16603E+005    1.35246E+005    2.67057E+005    1.12592E+005    3.02071E+005    5.47767E+004    1.51195E+003
            7688    5.24803E+005    5.12675E+005    5.12675E+005    1.25508E+005   -8.46339E+004    5.97309E+005   -1.84516E+005    4.12834E+005    1.42627E+005    2.84588E+005    1.26335E+005    2.88036E+005    3.31833E+004    1.27794E+004
            7689    4.78280E+005    4.72793E+005    4.72793E+005    1.21647E+005   -7.19327E+004    5.44726E+005   -1.74169E+005    3.73513E+005    1.39380E+005    2.59499E+005    1.23629E+005    2.64638E+005    1.57225E+004    2.11427E+004
            7690    4.39509E+005    4.58379E+005    4.58379E+005    1.38613E+005   -4.27966E+004    5.01176E+005   -1.84732E+005    3.38438E+005    1.43294E+005    2.71322E+005    1.39580E+005    2.40374E+005    4.15484E+003    3.10756E+004
            7691    6.57159E+005    6.15105E+005    6.15105E+005    1.58111E+005   -1.38011E+005    7.53116E+005   -2.11735E+005    4.67430E+005    1.73402E+005    3.11933E+005    1.49870E+005    3.63959E+005    6.07348E+004   -1.13743E+004
            7692    5.99663E+005    5.66878E+005    5.66878E+005    1.36137E+005   -1.18005E+005    6.84883E+005   -1.95003E+005    4.52257E+005    1.53413E+005    2.97607E+005    1.33989E+005    3.32419E+005    3.70504E+004   -3.91141E+002
            7693    5.74037E+005    5.68472E+005    5.68472E+005    1.44916E+005   -8.48586E+004    6.53331E+005   -2.09510E+005    4.51670E+005    1.62650E+005    3.20704E+005    1.45175E+005    3.16092E+005    2.25773E+004    8.11716E+003
            7694    5.20254E+005    5.20825E+005    5.20825E+005    1.37517E+005   -7.14158E+004    5.92241E+005   -1.95642E+005    4.08455E+005    1.57593E+005    2.90971E+005    1.38362E+005    2.88079E+005    1.10411E+004    1.41959E+004
            7695    4.77748E+005    5.05555E+005    5.05555E+005    1.55652E+005   -3.87451E+004    5.44301E+005   -2.07487E+005    3.71712E+005    1.60761E+005    3.05624E+005    1.56077E+005    2.61619E+005    3.08703E+003    1.99621E+004
            7696    6.91850E+005    6.55603E+005    6.55603E+005    1.74025E+005   -1.37199E+005    7.92802E+005   -2.30809E+005    4.93022E+005    1.89061E+005    3.30404E+005    1.72963E+005    3.89316E+005    2.12986E+004   -5.25163E+003
            7697    6.27558E+005    5.98639E+005    5.98639E+005    1.47928E+005   -1.18116E+005    7.16755E+005   -2.09484E+005    4.73175E+005    1.64714E+005    3.16049E+005    1.47687E+005    3.50032E+005    1.28099E+004   -1.39952E+002
            7698    6.00329E+005    5.98512E+005    5.98512E+005    1.55816E+005   -8.47989E+004    6.83311E+005   -2.23176E+005    4.71945E+005    1.73663E+005    3.40023E+005    1.55843E+005    3.31269E+005    8.09606E+003    2.81675E+003
            7699    5.43399E+005    5.48003E+005    5.48003E+005    1.47201E+005   -7.04891E+004    6.18493E+005   -2.08239E+005    4.27329E+005    1.68243E+005    3.09178E+005    1.47294E+005    3.01063E+005    4.02158E+003    4.60353E+003
            7700    5.00634E+005    5.33171E+005    5.33171E+005    1.65632E+005   -3.70186E+004    5.70190E+005   -2.20595E+005    3.90939E+005    1.70689E+005    3.25407E+005    1.65688E+005    2.74302E+005    1.12857E+003    7.52728E+003
            7701    1.29283E+005    9.16724E+004    9.16724E+004   -4.31708E+003   -5.53348E+004    1.47007E+005   -1.06735E+004    1.02662E+005    7.58306E+003    3.55149E+004   -1.10774E+004    4.60400E+004   -4.99229E+004   -2.02355E+004
            7702    1.19676E+005    9.03943E+004    9.03943E+004   -3.00940E+003   -4.45065E+004    1.34901E+005   -1.42928E+004    1.01485E+005    7.06701E+003    3.92723E+004   -3.46093E+003    5.89699E+004   -2.66893E+004   -9.41418E+003
            7703    1.27293E+005    9.84084E+004    9.84084E+004    1.04883E+003   -4.56350E+004    1.44043E+005   -1.79407E+004    1.05271E+005    7.54658E+003    4.52809E+004    9.94779E+002    6.88969E+004   -8.72068E+003   -2.63636E+003
            7704    8.56970E+004    6.17980E+004    6.17980E+004   -9.69131E+003   -3.31998E+004    9.49978E+004   -6.30230E+003    7.79328E+004    4.33906E+003    1.98551E+004   -5.28726E+003    2.99929E+004   -3.16999E+004   -1.95604E+004
            7705    8.41325E+004    6.11232E+004    6.11232E+004   -7.89949E+003   -3.25927E+004    9.37159E+004   -6.87699E+003    7.53088E+004    1.99091E+003    2.16711E+004   -3.03108E+003    4.17774E+004   -1.73084E+004   -1.20015E+004
            7706    9.13890E+004    6.61737E+004    6.61737E+004   -3.48870E+003   -3.73038E+004    1.03477E+005   -8.46042E+003    7.52472E+004    1.84522E+003    2.64970E+004   -2.96092E+003    4.98377E+004   -5.86108E+003   -4.00940E+003
            7707    5.53130E+004    4.17540E+004    4.17540E+004   -1.28368E+004   -1.42539E+004    5.60079E+004   -4.88775E+003    5.52722E+004    3.79656E+003    1.07737E+004    9.29819E+001    2.09283E+004   -1.46668E+004   -1.83664E+004
            7708    6.18074E+004    4.61981E+004    4.61981E+004   -3.23472E+003   -2.30992E+004    6.92973E+004   -6.62137E+003    5.38905E+004    4.52674E+003    1.42093E+004    1.12804E+003    3.19664E+004   -7.99420E+003   -1.18979E+004
            7709    6.89263E+004    5.09232E+004    5.09232E+004    1.92838E+003   -2.78924E+004    7.88156E+004   -8.31972E+003    5.10593E+004    5.18215E+003    1.73627E+004    2.41428E+003    3.86673E+004   -2.61990E+003   -4.28272E+003
            7710    4.43287E+004    2.38988E+004   -2.72538E+004   -6.81713E+001   -2.72538E+004    5.11526E+004    1.14103E+003   -2.11570E+004   -9.97821E+002   -1.66261E+003   -7.62671E+002    1.85350E+004    8.07191E+002   -1.76237E+004
            7711    5.48540E+004    2.80151E+004   -3.52530E+004   -1.00525E+003   -3.52530E+004    6.32681E+004    2.74772E+003   -2.86523E+004   -2.57355E+003   -4.23442E+003   -1.43519E+003    2.93862E+004    8.52513E+002   -1.16932E+004
            7712    6.24598E+004    3.18447E+004   -4.02486E+004   -2.43022E+003   -4.02486E+004    7.20933E+004    3.61140E+003   -2.74634E+004   -3.08817E+003   -5.26020E+003   -2.48584E+003    3.57908E+004    2.78364E+002   -4.14947E+003
            7713    5.70785E+004    1.58968E+004   -4.16489E+004    1.49506E+004   -4.16489E+004    5.75458E+004    3.60050E+003   -5.70609E+004   -2.46189E+003   -1.01117E+004    1.77205E+003    2.14781E+004    1.59773E+004   -1.82518E+004
            7714    6.43545E+004    2.75060E+004   -4.45722E+004    7.12083E+003   -4.45722E+004    7.20782E+004    3.31513E+003   -5.63730E+004   -5.43033E+002   -1.12905E+004    1.88810E+003    3.29855E+004    9.92740E+003   -1.20300E+004
            7715    7.21095E+004    3.32450E+004   -4.90343E+004    3.16737E+003   -4.90343E+004    8.22793E+004    4.20730E+003   -5.50848E+004   -4.04638E+002   -1.47942E+004    2.57691E+003    4.02049E+004    3.42593E+003   -4.33619E+003
            7716    9.02414E+004    3.33138E+004   -6.69729E+004    7.67448E+003   -6.69729E+004    1.00287E+005    8.66155E+003   -8.14221E+004   -6.06745E+003   -2.36960E+004    3.77883E+003    3.20464E+004    3.31493E+004   -1.98718E+004
            7717    9.27194E+004    3.17192E+004   -7.16218E+004    4.28455E+003   -7.16218E+004    1.03341E+005    1.18727E+004   -8.28220E+004   -6.03968E+003   -3.03161E+004    7.37725E+002    4.59081E+004    1.89567E+004   -1.14942E+004
            7718    1.01831E+005    3.53876E+004   -7.97205E+004   -1.37943E+003   -7.97205E+004    1.15108E+005    1.52374E+004   -8.48428E+004   -6.89208E+003   -3.70715E+004   -1.74869E+003    5.51084E+004    6.47564E+003   -3.67050E+003
            7719    4.39163E+005    4.58031E+005    4.58031E+005    1.38578E+005   -4.27619E+004    5.00793E+005   -1.84616E+005    3.38069E+005    1.43199E+005    2.71107E+005    1.39542E+005    2.40177E+005   -4.12092E+003   -3.11808E+004
            7720    4.78425E+005    4.73005E+005    4.73005E+005    1.21687E+005   -7.18728E+004    5.44877E+005   -1.74273E+005    3.73730E+005    1.39449E+005    2.59703E+005    1.23666E+005    2.64703E+005   -1.57917E+004   -2.10664E+004
            7721    5.25404E+005    5.13176E+005    5.13176E+005    1.25618E+005   -8.48281E+004    5.98005E+005   -1.84655E+005    4.13224E+005    1.42748E+005    2.84800E+005    1.26418E+005    2.88360E+005   -3.33952E+004   -1.27026E+004
            7722    5.51839E+005    5.14158E+005    5.14158E+005    1.17409E+005   -1.16037E+005    6.30195E+005   -1.71843E+005    4.16819E+005    1.35455E+005    2.67284E+005    1.12791E+005    3.02506E+005   -5.51084E+004   -1.35087E+003
            7723    6.00715E+005    5.48415E+005    5.48415E+005    1.32354E+005   -1.40270E+005    6.88685E+005   -1.80166E+005    4.23890E+005    1.47592E+005    2.79873E+005    1.13034E+005    3.23057E+005   -8.93130E+004    1.37466E+004
            7724    4.77515E+005    5.05461E+005    5.05461E+005    1.55733E+005   -3.85754E+004    5.44037E+005   -2.07540E+005    3.71523E+005    1.60777E+005    3.05693E+005    1.56149E+005    2.61473E+005   -3.01537E+003   -1.99715E+004
            7725    5.19636E+005    5.20399E+005    5.20399E+005    1.37626E+005   -7.11558E+004    5.91555E+005   -1.95623E+005    4.07842E+005    1.57556E+005    2.90848E+005    1.38466E+005    2.87740E+005   -1.08579E+004   -1.42554E+004
            7726    5.73619E+005    5.68010E+005    5.68010E+005    1.44727E+005   -8.48369E+004    6.52847E+005   -2.09300E+005    4.51397E+005    1.62500E+005    3.20412E+005    1.44988E+005    3.15864E+005   -2.25318E+004   -8.11685E+003
            7727    6.00566E+005    5.67623E+005    5.67623E+005    1.36402E+005   -1.18323E+005    6.85946E+005   -1.95234E+005    4.52641E+005    1.53680E+005    2.97812E+005    1.34210E+005    3.32960E+005   -3.71158E+004    5.87095E+002
            7728    6.57691E+005    6.15611E+005    6.15611E+005    1.58395E+005   -1.38138E+005    7.53749E+005   -2.11956E+005    4.67513E+005    1.73659E+005    3.12125E+005    1.50084E+005    3.64244E+005   -6.09635E+004    1.14766E+004
            7729    5.00459E+005    5.33062E+005    5.33062E+005    1.65713E+005   -3.69417E+004    5.70003E+005   -2.20611E+005    3.90703E+005    1.70690E+005    3.25371E+005    1.65772E+005    2.74208E+005   -1.18239E+003   -7.59205E+003
            7730    5.43132E+005    5.47865E+005    5.47865E+005    1.47241E+005   -7.03198E+004    6.18185E+005   -2.08262E+005    4.27149E+005    1.68268E+005    3.09182E+005    1.47335E+005    3.00906E+005   -4.05170E+003   -4.66072E+003
            7731    6.00335E+005    5.98574E+005    5.98574E+005    1.55935E+005   -8.47574E+004    6.83332E+005   -2.23251E+005    4.71852E+005    1.73759E+005    3.40029E+005    1.55964E+005    3.31292E+005   -8.02777E+003   -2.83103E+003
            7732    6.27457E+005    5.98554E+005    5.98554E+005    1.48016E+005   -1.18106E+005    7.16659E+005   -2.09488E+005    4.72922E+005    1.64719E+005    3.15959E+005    1.47786E+005    3.49999E+005   -1.26933E+004    5.03917E+001
            7733    6.91349E+005    6.55041E+005    6.55041E+005    1.73821E+005   -1.37188E+005    7.92229E+005   -2.30558E+005    4.92648E+005    1.88836E+005    3.30093E+005    1.72746E+005    3.89021E+005   -2.14691E+004    5.25363E+003
            7734    2.89895E+005    2.22964E+005    2.22964E+005    1.85445E+004   -1.08807E+005    3.31771E+005   -4.42341E+004    2.11689E+005    3.37112E+004    1.08766E+005   -9.77512E+003    1.29682E+005   -8.65191E+004   -1.06763E+004
            7735    3.46828E+005    2.76685E+005    2.76685E+005    3.30134E+004   -1.20392E+005    3.97077E+005   -6.31022E+004    2.51560E+005    4.99381E+004    1.40508E+005   -1.13994E+003    1.58581E+005   -9.86827E+004   -8.02471E+003
            7736    4.05137E+005    3.37557E+005    3.37557E+005    5.47105E+004   -1.26564E+005    4.64122E+005   -8.85679E+004    2.90374E+005    7.10339E+004    1.74035E+005    2.06346E+004    1.91612E+005   -1.08871E+005   -5.51544E+003
            7737    4.68317E+005    4.01085E+005    4.01085E+005    7.70742E+004   -1.35865E+005    5.36950E+005   -1.14098E+005    3.29750E+005    9.27030E+004    2.06913E+005    4.26785E+004    2.31370E+005   -1.11714E+005    2.92001E+003
            7738    5.35332E+005    4.75558E+005    4.75558E+005    1.04568E+005   -1.38137E+005    6.13695E+005   -1.47330E+005    3.78187E+005    1.20215E+005    2.45445E+005    7.63296E+004    2.76536E+005   -1.06201E+005    8.63400E+003
            7739    4.93296E+005    4.48841E+005    4.48841E+005    9.40250E+004   -1.14469E+005    5.63310E+005   -1.42799E+005    3.72875E+005    1.12288E+005    2.29423E+005    8.66867E+004    2.66302E+005   -6.63182E+004   -2.64292E+003
            7740    4.68747E+005    4.49310E+005    4.49310E+005    1.03515E+005   -8.42017E+004    5.33512E+005   -1.56208E+005    3.68711E+005    1.19740E+005    2.43780E+005    1.05103E+005    2.56161E+005   -3.95196E+004   -1.59932E+004
            7741    4.30499E+005    4.15834E+005    4.15834E+005    1.02418E+005   -7.50255E+004    4.90860E+005   -1.47742E+005    3.31843E+005    1.16988E+005    2.20591E+005    1.05648E+005    2.38227E+005   -1.84034E+004   -2.59522E+004
            7742    3.94300E+005    4.01961E+005    4.01961E+005    1.18402E+005   -4.83119E+004    4.50273E+005   -1.57350E+005    2.97955E+005    1.22096E+005    2.30174E+005    1.19782E+005    2.15552E+005   -4.44765E+003   -3.69201E+004
            7743    4.34431E+005    3.86226E+005    3.86226E+005    7.18936E+004   -1.09505E+005    4.95732E+005   -1.16205E+005    3.31588E+005    9.10076E+004    1.93631E+005    6.39762E+004    2.30480E+005   -7.11835E+004   -6.56819E+003
            7744    4.11865E+005    3.82837E+005    3.82837E+005    8.06792E+004   -8.62964E+004    4.69133E+005   -1.25740E+005    3.21277E+005    9.49986E+004    1.99108E+005    8.31130E+004    2.24609E+005   -4.14165E+004   -1.75330E+004
            7745    3.83449E+005    3.60452E+005    3.60452E+005    8.42967E+004   -7.73541E+004    4.37806E+005   -1.22465E+005    2.90452E+005    9.54186E+004    1.83668E+005    8.83074E+004    2.12315E+005   -1.88554E+004   -2.74891E+004
            7746    3.51881E+005    3.45800E+005    3.45800E+005    9.74987E+004   -5.68831E+004    4.02683E+005   -1.28805E+005    2.57277E+005    9.96681E+004    1.87585E+005    9.91622E+004    1.92265E+005   -4.19208E+003   -4.12156E+004
            7747    3.77123E+005    3.22972E+005    3.22972E+005    4.95065E+004   -1.07247E+005    4.30219E+005   -8.84107E+004    2.88865E+005    6.81247E+004    1.56746E+005    4.03615E+004    1.96954E+005   -6.98224E+004   -6.80598E+003
            7748    3.61250E+005    3.25661E+005    3.25661E+005    6.08472E+004   -8.58642E+004    4.11525E+005   -1.00215E+005    2.81452E+005    7.40439E+004    1.62573E+005    6.40277E+004    1.96704E+005   -3.92234E+004   -1.81214E+004
            7749    3.40894E+005    3.07625E+005    3.07625E+005    6.75826E+004   -8.25699E+004    3.90194E+005   -9.75457E+004    2.48286E+005    7.43321E+004    1.46415E+005    7.18903E+004    1.89367E+005   -1.67384E+004   -2.83456E+004
            7750    3.14747E+005    2.97176E+005    2.97176E+005    8.00731E+004   -6.37951E+004    3.60971E+005   -1.04485E+005    2.20263E+005    8.04045E+004    1.51501E+005    8.15485E+004    1.72444E+005   -3.25481E+003   -4.02025E+004
            7751    3.25849E+005    2.71858E+005    2.71858E+005    3.15455E+004   -9.90270E+004    3.70885E+005   -6.81254E+004    2.56202E+005    5.10569E+004    1.28675E+005    2.46444E+004    1.68407E+005   -6.33371E+004   -9.79109E+003
            7752    3.15454E+005    2.70823E+005    2.70823E+005    4.25564E+004   -8.91402E+004    3.59963E+005   -7.47464E+004    2.40810E+005    5.30200E+004    1.25387E+005    4.58322E+004    1.72879E+005   -3.27909E+004   -1.64911E+004
            7753    3.06378E+005    2.66694E+005    2.66694E+005    5.44303E+004   -8.45402E+004    3.51234E+005   -7.88614E+004    2.16322E+005    5.86512E+004    1.19992E+005    5.79408E+004    1.70733E+005   -1.26011E+004   -2.66734E+004
            7754    2.86326E+005    2.55762E+005    2.55762E+005    6.33704E+004   -7.32897E+004    3.29052E+005   -8.19475E+004    1.89146E+005    6.25721E+004    1.18791E+005    6.44799E+004    1.56884E+005   -2.03272E+003   -4.11326E+004
            7755    2.72671E+005    2.14830E+005    2.14830E+005    1.39513E+004   -9.55744E+004    3.10404E+005   -4.44022E+004    2.14047E+005    3.04232E+004    9.60626E+004    6.72081E+003    1.41926E+005   -4.97504E+004   -4.79746E+003
            7756    2.82068E+005    2.33745E+005    2.33745E+005    2.97197E+004   -8.81368E+004    3.21882E+005   -5.84427E+004    2.15183E+005    3.94951E+004    1.03449E+005    3.23839E+004    1.55844E+005   -2.20623E+004   -1.46545E+004
            7757    2.78633E+005    2.28309E+005    2.28309E+005    3.98275E+004   -9.17476E+004    3.20056E+005   -5.87962E+004    1.86958E+005    4.22075E+004    9.20609E+004    4.21202E+004    1.56022E+005   -7.55379E+003   -2.54760E+004
            7758    2.63466E+005    2.25573E+005    2.25573E+005    5.11114E+004   -7.74976E+004    3.03070E+005   -6.63955E+004    1.67815E+005    5.04043E+004    9.74396E+004    5.13428E+004    1.44940E+005   -3.56602E+002   -3.75144E+004
            7759    2.48527E+005    2.00315E+005    2.00315E+005    4.00582E+004   -8.59780E+004    2.86293E+005   -5.14650E+004    1.46596E+005    3.90869E+004    7.53942E+004    3.99139E+004    1.35717E+005    3.83981E+002   -4.17097E+004
            7760    2.30058E+005    1.97212E+005    1.97212E+005    2.63267E+004   -6.43704E+004    2.61583E+005   -5.30562E+004    1.82799E+005    4.02150E+004    9.39715E+004    2.49820E+004    1.23723E+005    6.46880E+002   -3.19506E+004
            7761    2.61450E+005    2.08717E+005    2.08717E+005    2.49804E+004   -9.06038E+004    2.99321E+005   -4.76979E+004    1.89729E+005    3.30989E+004    8.47092E+004    2.52856E+004    1.44997E+005   -1.57623E+003   -2.67598E+004
            7762    2.38520E+005    1.68660E+005    1.68660E+005   -3.91907E+002   -1.04169E+005    2.72829E+005   -2.13661E+004    1.75779E+005    1.20379E+004    5.25619E+004   -5.01474E+002    1.34688E+005    6.24424E+002   -7.31316E+003
            7763    2.57303E+005    1.98393E+005    1.98393E+005    1.15531E+004   -9.50844E+004    2.93477E+005   -3.82872E+004    1.97526E+005    2.30969E+004    7.98739E+004    1.18908E+004    1.43491E+005   -1.12554E+004   -4.83361E+003
            7764    2.36945E+005    1.64919E+005    1.64919E+005    6.91272E+003   -1.07523E+005    2.72442E+005   -2.14361E+004    1.53656E+005    8.71021E+003    4.86372E+004    6.96086E+003    1.34717E+005   -2.71539E+003   -1.61616E+003
            7765    2.35554E+005    1.76885E+005    1.76885E+005    7.32023E+003   -9.20743E+004    2.68960E+005   -3.07105E+004    1.78291E+005    1.73448E+004    7.05330E+004    4.25357E+003    1.28382E+005   -2.79464E+004   -1.07079E+002
            7766    2.24631E+005    1.52038E+005    1.52038E+005   -1.37953E+003   -1.05796E+005    2.57834E+005   -1.49542E+004    1.53968E+005    2.36792E+003    4.43273E+004   -1.83254E+003    1.26935E+005   -6.89719E+003    2.86498E+003
            7767    2.01637E+005    1.43455E+005    1.43455E+005    2.04024E+003   -8.74359E+004    2.30891E+005   -1.93531E+004    1.45770E+005    4.84263E+003    5.20286E+004    1.18811E+003    1.12435E+005   -1.00259E+004    2.48865E+003
            7768    1.64473E+005    1.17322E+005    1.17322E+005   -3.81337E+003   -6.99178E+004    1.87240E+005   -1.45304E+004    1.29060E+005    2.61008E+003    4.56243E+004   -4.64325E+003    9.03329E+004   -1.08928E+004    3.26052E+002
            7769    2.05062E+005    1.51514E+005    1.51514E+005    4.85167E+003   -8.28083E+004    2.34322E+005   -2.45192E+004    1.53530E+005    1.24645E+004    6.53742E+004   -4.28122E+003    1.06235E+005   -3.74969E+004    1.72547E+003
            7770    1.58131E+005    1.13292E+005    1.13292E+005   -2.81649E+003   -6.68052E+004    1.80097E+005   -1.45568E+004    1.23511E+005    5.71595E+003    4.65438E+004   -8.58921E+003    7.93040E+004   -3.47206E+004   -4.68829E+003
            7771    1.78206E+005    1.23774E+005    1.23774E+005   -1.49570E+003   -8.02393E+004    2.04014E+005   -1.40132E+004    1.29385E+005    1.00928E+004    5.17503E+004   -1.98036E+004    6.79625E+004   -6.59429E+004   -1.80805E+004
            7772    2.36479E+005    1.72440E+005    1.72440E+005    6.71425E+003   -9.83681E+004    2.70808E+005   -2.69288E+004    1.70718E+005    1.95110E+004    8.00014E+004   -1.87261E+004    9.86384E+004   -7.87802E+004   -1.50618E+004
            7773    3.41276E+005    8.21969E+004   -3.03883E+005   -4.24602E+004   -3.03883E+005    3.86079E+005    8.80486E+004   -2.82788E+005   -6.59011E+004   -1.77019E+005   -2.12261E+004    1.63222E+005   -7.50455E+004    1.06847E+004
            7774    3.94401E+005    8.42563E+004   -3.64126E+005   -7.08926E+004   -3.64126E+005    4.48382E+005    1.16921E+005   -3.13808E+005   -9.02382E+004   -2.17655E+005   -4.28688E+004    1.91070E+005   -8.46187E+004    3.32638E+003
            7775    4.56227E+005    8.34526E+004   -4.36003E+005   -1.00334E+005   -4.36003E+005    5.19456E+005    1.50962E+005   -3.57440E+005   -1.18116E+005   -2.62654E+005   -7.21154E+004    2.26192E+005   -9.12834E+004   -2.36431E+002
            7776    5.20096E+005    8.21407E+004   -5.10538E+005   -1.30246E+005   -5.10538E+005    5.92679E+005    1.86214E+005   -4.03636E+005   -1.46700E+005   -3.07024E+005   -1.04919E+005    2.66309E+005   -8.83805E+004   -7.23950E+003
            7777    4.73898E+005    3.35576E+004   -5.01783E+005   -1.35945E+005   -5.01783E+005    5.35341E+005    2.01390E+005   -3.96543E+005   -1.53290E+005   -3.12192E+005   -1.38689E+005    2.52711E+005   -3.52993E+004    2.21362E+004
            7778    4.22345E+005    1.56113E+004   -4.63844E+005   -1.46869E+005   -4.63844E+005    4.79456E+005    1.98368E+005   -3.40545E+005   -1.53348E+005   -2.92012E+005   -1.49742E+005    2.25472E+005   -8.29554E+003    4.44071E+004
            7779    4.15720E+005    4.54664E+004   -4.24952E+005   -1.06962E+005   -4.24952E+005    4.70419E+005    1.62149E+005   -3.43839E+005   -1.21163E+005   -2.54755E+005   -1.10531E+005    2.22048E+005   -3.62402E+004    2.29945E+004
            7780    3.73261E+005    2.76218E+004   -3.97155E+005   -1.21544E+005   -3.97155E+005    4.24777E+005    1.63692E+005   -2.94009E+005   -1.25616E+005   -2.40605E+005   -1.24856E+005    1.99228E+005   -7.72692E+003    4.74665E+004
            7781    3.63267E+005    5.42538E+004   -3.57067E+005   -8.01684E+004   -3.57067E+005    4.11320E+005    1.27660E+005   -2.99095E+005   -9.24039E+004   -2.05545E+005   -8.50319E+004    1.94042E+005   -3.39658E+004    2.48736E+004
            7782    3.29464E+005    4.49133E+004   -3.31440E+005   -9.51441E+004   -3.31440E+005    3.76353E+005    1.27224E+005   -2.47842E+005   -9.64035E+004   -1.86395E+005   -9.88722E+004    1.75878E+005   -6.85951E+003    5.07399E+004
            7783    3.08438E+005    6.84636E+004   -2.82100E+005   -5.23890E+004   -2.82100E+005    3.50564E+005    8.86753E+004   -2.46013E+005   -6.05549E+004   -1.47929E+005   -5.75421E+004    1.66658E+005   -2.72523E+004    2.36274E+004
            7784    2.93156E+005    5.68883E+004   -2.79115E+005   -7.55193E+004   -2.79115E+005    3.36003E+005    9.92486E+004   -2.07981E+005   -7.42131E+004   -1.46087E+005   -7.74454E+004    1.57661E+005   -3.15758E+003    4.61733E+004
            7785    2.70568E+005    7.61949E+004   -2.34822E+005   -5.36477E+004   -2.34822E+005    3.11016E+005    7.07581E+004   -1.77254E+005   -5.18548E+004   -1.05284E+005   -5.51358E+004    1.44986E+005   -1.87984E+003    4.98129E+004
            7786    2.45499E+005    6.05152E+004   -2.17782E+005   -3.19157E+004   -2.17782E+005    2.78297E+005    6.30609E+004   -2.00326E+005   -4.64399E+004   -1.11832E+005   -3.09110E+004    1.29515E+005   -5.74230E+002    3.83547E+004
            7787    2.73116E+005    6.99982E+004   -2.39534E+005   -3.24748E+004   -2.39534E+005    3.09533E+005    6.73370E+004   -2.23271E+005   -4.39475E+004   -1.22236E+005   -3.58277E+004    1.47802E+005   -1.28545E+004    2.40111E+004
            7788    2.42474E+005    9.54435E+004   -1.80619E+005   -2.14333E+003   -1.80619E+005    2.76062E+005    2.91062E+004   -1.90092E+005   -1.44482E+004   -7.05779E+004   -2.29253E+003    1.35023E+005   -2.06828E+003    5.94909E+003
            7789    2.35756E+005    1.01760E+005   -1.68688E+005   -6.54688E+003   -1.68688E+005    2.70448E+005    2.44916E+004   -1.63991E+005   -6.46857E+003   -6.05371E+004   -6.46906E+003    1.32388E+005   -5.08888E+003    2.52259E+001
            7790    2.14262E+005    8.79807E+004   -1.56373E+005   -6.32528E+002   -1.56373E+005    2.44354E+005    2.30083E+004   -1.64744E+005   -1.57419E+003   -6.81749E+004    7.24281E+002    1.16823E+005   -9.87445E+003   -5.12347E+003
            7791    1.72958E+005    6.59977E+004   -1.29927E+005    1.57173E+003   -1.29927E+005    1.95924E+005    2.07858E+004   -1.41926E+005   -2.75169E+003   -6.21201E+004    2.51446E+003    9.25390E+004   -1.09398E+004   -9.42791E+001
            7792    1.35347E+005    4.19463E+004   -1.09666E+005   -1.00918E+003   -1.09666E+005    1.51612E+005    2.29096E+004   -1.18489E+005   -6.35808E+003   -6.16387E+004   -7.31868E+002    6.99589E+004   -8.49439E+003    2.64602E+003
            7793    2.55121E+005    8.50135E+004   -2.04590E+005   -1.30510E+004   -2.04590E+005    2.89603E+005    4.42092E+004   -2.05809E+005   -2.46470E+004   -9.97735E+004   -8.20707E+003    1.36232E+005   -2.73124E+004   -2.72131E+003
            7794    2.14562E+005    7.57010E+004   -1.67719E+005   -6.05020E+003   -1.67719E+005    2.43420E+005    3.26895E+004   -1.73951E+005   -1.42032E+004   -8.87547E+004    4.88925E+003    1.07691E+005   -3.60164E+004   -1.57136E+003
            7795    1.63660E+005    6.40413E+004   -1.21283E+005    3.40869E+003   -1.21283E+005    1.85324E+005    1.79444E+004   -1.34668E+005   -5.65397E+003   -6.03580E+004    1.21789E+004    7.99122E+004   -3.31705E+004    3.64876E+003
            7796    1.26516E+005    4.06992E+004   -1.00596E+005    2.19202E+003   -1.00596E+005    1.41295E+005    1.92349E+004   -1.12149E+005   -7.62602E+003   -5.37634E+004    3.68482E+003    6.00239E+004   -2.61316E+004    1.11137E+004
            7797    1.33013E+005    5.38228E+004   -9.70844E+004    3.11988E+003   -9.70844E+004    1.50907E+005    1.33806E+004   -1.07809E+005   -8.47711E+003   -4.63048E+004    1.46403E+004    4.50195E+004   -4.83324E+004    2.42499E+004
            7798    1.84483E+005    7.51860E+004   -1.35320E+005   -1.79617E+003   -1.35320E+005    2.10506E+005    2.06436E+004   -1.40881E+005   -1.43284E+004   -6.96419E+004    2.20396E+004    6.75375E+004   -6.42669E+004    2.28437E+004
            7799    2.36044E+005    9.00286E+004   -1.79488E+005   -9.55384E+003   -1.79488E+005    2.69517E+005    3.30044E+004   -1.78690E+005   -2.24378E+004   -9.86190E+004    2.20436E+004    9.45129E+004   -7.47524E+004    1.81119E+004
            7800    2.97611E+005    9.04434E+004   -2.46440E+005   -1.92242E+004   -2.46440E+005    3.36883E+005    5.84069E+004   -2.45548E+005   -4.18436E+004   -1.40109E+005    6.73215E+003    1.33216E+005   -7.69360E+004    1.61868E+004
            7801    4.71975E+005    4.17959E+003   -5.30545E+005   -1.72008E+005   -5.30545E+005    5.34725E+005    2.32791E+005   -3.86863E+005   -1.80626E+005   -3.43914E+005   -1.73833E+005    2.52256E+005   -7.38503E+003    3.59584E+004
            7802    5.29344E+005    2.36656E+004   -5.73788E+005   -1.63292E+005   -5.73788E+005    5.97454E+005    2.37805E+005   -4.45418E+005   -1.83077E+005   -3.65497E+005   -1.64841E+005    2.82650E+005   -2.95793E+004    1.79919E+004
            7803    5.82156E+005    7.47228E+004   -5.88514E+005   -1.62065E+005   -5.88514E+005    6.63237E+005    2.25285E+005   -4.53074E+005   -1.78335E+005   -3.52787E+005   -1.44734E+005    3.07744E+005   -7.52938E+004   -1.08840E+004
            7804    5.13292E+005   -3.54884E+003   -5.84468E+005   -1.92183E+005   -5.84468E+005    5.80919E+005    2.60067E+005   -4.24066E+005   -2.02116E+005   -3.85115E+005   -1.92968E+005    2.74707E+005   -5.17753E+003    2.41582E+004
            7805    5.75165E+005    1.45915E+004   -6.34214E+005   -1.86918E+005   -6.34214E+005    6.48806E+005    2.68847E+005   -4.85647E+005   -2.08080E+005   -4.10930E+005   -1.87531E+005    3.07387E+005   -1.98600E+004    1.19927E+004
            7806    6.34290E+005    6.70673E+004   -6.55469E+005   -1.90374E+005   -6.55469E+005    7.22537E+005    2.59592E+005   -4.94389E+005   -2.05854E+005   -3.90401E+005   -1.82522E+005    3.44049E+005   -5.15739E+004   -1.04673E+004
            7807    5.37173E+005   -8.01847E+003   -6.15682E+005   -2.04081E+005   -6.15682E+005    6.07663E+005    2.75927E+005   -4.45276E+005   -2.14559E+005   -4.09052E+005   -2.04171E+005    2.87741E+005   -1.81096E+003    8.24697E+003
            7808    6.00672E+005    9.58269E+003   -6.67847E+005   -2.00201E+005   -6.67847E+005    6.77430E+005    2.86155E+005   -5.07856E+005   -2.21998E+005   -4.36194E+005   -2.00274E+005    3.21257E+005   -6.59937E+003    4.20332E+003
            7809    6.65458E+005    6.10323E+004   -6.96831E+005   -2.08053E+005   -6.96831E+005    7.57864E+005    2.81284E+005   -5.20026E+005   -2.23213E+005   -4.13566E+005   -2.07073E+005    3.66145E+005   -1.85014E+004   -4.26254E+003
            7810    1.21764E+005    9.52700E+004    9.52700E+004   -2.00809E+003   -4.12844E+004    1.36554E+005   -1.73258E+004    1.06040E+005    2.76689E+003    5.12704E+004   -2.05981E+003    6.31355E+004    8.58950E+003    3.50021E+003
            7811    1.14760E+005    8.64576E+004    8.64576E+004   -7.54767E+003   -4.14290E+004    1.27887E+005   -1.24936E+004    1.02569E+005    2.68616E+003    4.34033E+004   -8.60858E+003    5.35941E+004    2.52078E+004    1.15659E+004
            7812    1.28433E+005    9.31641E+004    9.31641E+004   -4.25421E+003   -5.23813E+004    1.45545E+005   -1.21762E+004    1.05063E+005    7.94049E+003    4.30075E+004   -1.44194E+004    4.24136E+004    4.72225E+004    2.51303E+004
            7813    8.89812E+004    7.38535E+004    7.38535E+004    6.39630E+002   -2.51830E+004    9.90366E+004   -1.64367E+004    7.98760E+004    7.42298E+003    4.06451E+004    1.24209E+003    4.62262E+004    5.39506E+003    4.91646E+003
            7814    8.26342E+004    6.78134E+004    6.78134E+004   -5.52268E+003   -2.17203E+004    8.95337E+004   -1.35235E+004    7.89431E+004    7.45035E+003    3.30879E+004    3.22530E+001    3.87186E+004    1.60964E+004    1.47338E+004
            7815    8.67164E+004    6.57436E+004    6.57436E+004   -7.79148E+003   -2.98811E+004    9.56248E+004   -9.35702E+003    8.00107E+004    6.68015E+003    2.66425E+004   -5.25161E+003    2.74971E+004    2.99503E+004    2.43675E+004
            7816    6.26161E+004    4.34318E+004    4.34318E+004   -2.21143E+003   -2.79521E+004    7.13839E+004   -4.42278E+003    4.83614E+004   -6.03119E+002    1.54025E+004   -1.53099E+003    3.43793E+004    2.64964E+003    5.22869E+003
            7817    5.84972E+004    4.06722E+004    4.06722E+004   -7.96157E+003   -2.42402E+004    6.49124E+004   -2.82348E+003    5.30312E+004   -8.34424E+002    1.20712E+004   -2.76630E+003    2.85003E+004    7.32910E+003    1.44772E+004
            7818    5.69278E+004    4.21809E+004    4.21809E+004   -1.07514E+004   -1.80404E+004    6.02212E+004   -4.46302E+003    5.58635E+004    2.75297E+003    1.17533E+004   -1.11715E+003    1.87291E+004    1.35197E+004    2.24297E+004
            7819    5.37369E+004    3.27641E+004    3.27641E+004    1.81247E+003   -2.92859E+004    6.20500E+004   -1.76353E+003   -8.59964E+003    2.85509E+003    8.00685E+002    1.63482E+003    3.05764E+004   -4.42522E+002    5.13571E+003
            7820    4.98569E+004    3.03417E+004    3.03417E+004    3.23477E+003   -2.71961E+004    5.75378E+004   -2.12680E+003   -2.31304E+004    2.98972E+003    9.34541E+002    2.45614E+003    2.49671E+004   -7.52576E+002    1.42658E+004
            7821    4.62322E+004    2.66778E+004   -2.66952E+004    9.42361E+002   -2.66952E+004    5.33730E+004   -3.08337E+002   -1.82664E+004    6.50571E+002   -7.94257E+001    3.53866E+002    1.58555E+004   -4.14863E+002    2.14655E+004
            7822    6.87961E+004    2.27277E+004   -5.48055E+004   -1.06061E+003   -5.48055E+004    7.75332E+004    1.10461E+004   -5.84053E+004   -5.75739E+003   -2.57050E+004   -1.67605E+003    3.71151E+004   -2.91580E+003    5.12607E+003
            7823    6.36450E+004    1.87336E+004   -5.10521E+004    3.79434E+003   -5.10521E+004    6.97857E+004    9.50808E+003   -5.95051E+004   -5.88620E+003   -2.07471E+004   -1.89097E+003    3.09289E+004   -9.01409E+003    1.46168E+004
            7824    5.90676E+004    1.68998E+004   -4.51910E+004    1.02989E+004   -4.51910E+004    6.20908E+004    5.99747E+003   -5.82292E+004   -4.34886E+003   -1.44717E+004    8.28163E+002    1.96784E+004   -1.45540E+004    2.24361E+004
            7825    9.26103E+004    3.10259E+004   -7.24935E+004    2.49246E+003   -7.24935E+004    1.03519E+005    1.29917E+004   -8.18074E+004   -2.55848E+003   -3.83219E+004    1.90521E+003    4.80488E+004   -6.31080E+003    4.91768E+003
            7826    8.61800E+004    2.83350E+004   -6.55876E+004    9.84996E+003   -6.55876E+004    9.39226E+004    9.13423E+003   -8.15386E+004   -2.11612E+003   -3.06266E+004    5.34004E+003    3.99802E+004   -1.77330E+004    1.42285E+004
            7827    8.86208E+004    3.11847E+004   -6.66816E+004    8.14160E+003   -6.66816E+004    9.78663E+004    9.11843E+003   -8.14616E+004   -6.03876E+003   -2.69821E+004    5.66560E+003    2.82335E+004   -3.08006E+004    2.44641E+004
            7828    5.82558E+005    7.48920E+004   -5.88809E+005   -1.62095E+005   -5.88809E+005    6.63701E+005    2.25337E+005   -4.53338E+005   -1.78373E+005   -3.52900E+005   -1.44740E+005    3.07962E+005    7.53524E+004    1.09184E+004
            7829    5.29416E+005    2.34160E+004   -5.74085E+005   -1.63415E+005   -5.74085E+005    5.97501E+005    2.38028E+005   -4.45636E+005   -1.83240E+005   -3.65833E+005   -1.65011E+005    2.82671E+005    2.93159E+004   -1.82018E+004
            7830    4.72556E+005    4.04159E+003   -5.31340E+005   -1.72358E+005   -5.31340E+005    5.35382E+005    2.33219E+005   -3.87344E+005   -1.80957E+005   -3.44535E+005   -1.74164E+005    2.52579E+005    7.34943E+003   -3.57919E+004
            7831    6.34744E+005    6.70807E+004   -6.55988E+005   -1.90632E+005   -6.55988E+005    7.23069E+005    2.59847E+005   -4.94626E+005   -2.06064E+005   -3.90617E+005   -1.82859E+005    3.44380E+005    5.13104E+004    1.04629E+004
            7832    5.74713E+005    1.44235E+004   -6.33816E+005   -1.86677E+005   -6.33816E+005    6.48240E+005    2.68690E+005   -4.85519E+005   -2.07951E+005   -4.10829E+005   -1.87289E+005    3.07088E+005    1.98048E+004   -1.19858E+004
            7833    5.13441E+005   -3.61539E+003   -5.84704E+005   -1.92307E+005   -5.84704E+005    5.81089E+005    2.60209E+005   -4.24185E+005   -2.02222E+005   -3.85324E+005   -1.93081E+005    2.74792E+005    5.13688E+003   -2.39985E+004
            7834    6.65726E+005    6.10335E+004   -6.97139E+005   -2.08183E+005   -6.97139E+005    7.58173E+005    2.81430E+005   -5.20206E+005   -2.23329E+005   -4.13702E+005   -2.07258E+005    3.66335E+005    1.80381E+004    4.09968E+003
            7835    6.00322E+005    9.53222E+003   -6.67477E+005   -2.00012E+005   -6.67477E+005    6.77009E+005    2.85986E+005   -5.07678E+005   -2.21864E+005   -4.36012E+005   -2.00081E+005    3.21035E+005    6.95198E+003   -4.15350E+003
            7836    5.37111E+005   -8.02092E+003   -6.15620E+005   -2.04095E+005   -6.15620E+005    6.07599E+005    2.75912E+005   -4.45187E+005   -2.14548E+005   -4.09002E+005   -2.04186E+005    2.87715E+005    1.86308E+003   -8.23264E+003
            7837    2.77234E+005    2.52104E+005    2.52104E+005    6.31692E+004   -6.61635E+004    3.18267E+005   -8.30364E+004    1.89133E+005    6.20427E+004    1.23030E+005    6.40367E+004    1.48954E+005    1.19986E+003    4.72256E+004
            7838    3.02637E+005    2.87348E+005    2.87348E+005    7.88992E+004   -5.97782E+004    3.47126E+005   -1.02156E+005    2.11162E+005    7.68042E+004    1.48881E+005    8.07838E+004    1.61920E+005    2.66911E+003    5.16061E+004
            7839    3.33767E+005    3.35916E+005    3.35916E+005    9.97545E+004   -4.59283E+004    3.81844E+005   -1.29914E+005    2.45236E+005    9.87771E+004    1.89128E+005    1.01837E+005    1.78530E+005    3.56663E+003    5.11449E+004
            7840    3.73866E+005    3.93116E+005    3.93116E+005    1.21659E+005   -3.33168E+004    4.26433E+005   -1.60486E+005    2.86966E+005    1.23437E+005    2.34316E+005    1.23706E+005    1.99287E+005    4.18297E+003    5.26395E+004
            7841    4.18001E+005    4.57903E+005    4.57903E+005    1.47729E+005   -1.74476E+004    4.75351E+005   -1.96061E+005    3.31647E+005    1.52321E+005    2.86533E+005    1.49331E+005    2.23229E+005    4.33135E+003    4.74393E+004
            7842    2.84003E+005    2.53396E+005    2.53396E+005    5.31265E+004   -7.16311E+004    3.25027E+005   -7.82972E+004    2.07395E+005    5.33271E+004    1.24985E+005    5.65796E+004    1.55334E+005    8.89704E+003    3.22588E+004
            7843    3.12649E+005    2.98708E+005    2.98708E+005    7.32771E+004   -5.82093E+004    3.56918E+005   -1.04592E+005    2.37284E+005    7.33469E+004    1.62452E+005    7.79770E+004    1.69491E+005    1.29172E+004    3.42441E+004
            7844    3.48464E+005    3.47999E+005    3.47999E+005    9.16113E+004   -4.87572E+004    3.96756E+005   -1.30284E+005    2.73020E+005    9.36593E+004    1.99888E+005    9.73064E+004    1.87558E+005    1.65990E+004    3.72198E+004
            7845    3.94502E+005    4.13595E+005    4.13595E+005    1.15071E+005   -3.36514E+004    4.47246E+005   -1.65005E+005    3.21691E+005    1.21372E+005    2.53392E+005    1.20249E+005    2.10625E+005    1.82703E+004    3.63424E+004
            7846    4.45143E+005    4.82253E+005    4.82253E+005    1.40362E+005   -2.10859E+004    5.03339E+005   -2.00510E+005    3.70103E+005    1.49655E+005    3.07354E+005    1.44521E+005    2.36580E+005    1.76618E+004    3.46515E+004
            7847    2.86358E+005    2.51379E+005    2.51379E+005    3.60313E+004   -7.35971E+004    3.24976E+005   -7.12709E+004    2.31539E+005    4.60975E+004    1.28399E+005    3.93159E+004    1.54947E+005    2.33752E+004    1.78759E+004
            7848    3.19449E+005    2.91945E+005    2.91945E+005    5.21711E+004   -7.06954E+004    3.62640E+005   -9.11401E+004    2.57612E+005    6.31637E+004    1.53907E+005    5.63500E+004    1.71842E+005    3.30707E+004    2.06476E+004
            7849    3.64878E+005    3.52393E+005    3.52393E+005    7.43527E+004   -6.07732E+004    4.13166E+005   -1.21991E+005    3.00300E+005    8.93177E+004    1.98192E+005    7.84622E+004    1.94992E+005    3.82156E+004    2.26223E+004
            7850    4.12336E+005    4.12326E+005    4.12326E+005    9.68954E+004   -5.42563E+004    4.66583E+005   -1.51655E+005    3.41080E+005    1.15037E+005    2.39853E+005    1.00075E+005    2.20744E+005    3.97991E+004    2.17228E+004
            7851    4.65552E+005    4.82853E+005    4.82853E+005    1.23444E+005   -4.30558E+004    5.25909E+005   -1.87747E+005    3.89578E+005    1.45621E+005    2.92117E+005    1.25503E+005    2.49428E+005    3.71508E+004    1.95135E+004
            7852    2.79282E+005    2.36334E+005    2.36334E+005    2.13334E+004   -7.93238E+004    3.15658E+005   -5.94479E+004    2.32884E+005    3.66965E+004    1.29366E+005    1.22809E+004    1.40339E+005    4.93581E+004    7.27165E+003
            7853    3.36015E+005    3.04928E+005    3.04928E+005    4.47914E+004   -7.44445E+004    3.79373E+005   -9.17584E+004    2.82161E+005    6.37396E+004    1.74954E+005    3.65812E+004    1.67802E+005    6.24257E+004    1.43292E+004
            7854    3.91762E+005    3.69107E+005    3.69107E+005    7.01874E+004   -7.43989E+004    4.43506E+005   -1.21632E+005    3.22980E+005    8.95450E+004    2.16161E+005    5.91897E+004    1.98455E+005    6.87718E+004    1.06433E+004
            7855    4.53019E+005    4.46223E+005    4.46223E+005    1.01178E+005   -6.67908E+004    5.13014E+005   -1.60203E+005    3.72616E+005    1.22085E+005    2.67096E+005    9.14289E+004    2.33504E+005    7.05649E+004    1.00304E+004
            7856    5.15699E+005    5.22870E+005    5.22870E+005    1.31767E+005   -6.15574E+004    5.84427E+005   -1.97693E+005    4.21771E+005    1.54225E+005    3.16201E+005    1.22653E+005    2.71171E+005    6.56632E+004    4.58503E+003
            7857    5.30061E+005    5.03923E+005    5.03923E+005    1.24864E+005   -1.01780E+005    6.05703E+005   -1.75669E+005    3.96775E+005    1.35449E+005    3.04406E+005    8.71533E+004    2.64116E+005    1.03701E+005   -1.14422E+004
            7858    4.62700E+005    4.21810E+005    4.21810E+005    9.27114E+004   -1.07242E+005    5.29052E+005   -1.35760E+005    3.43121E+005    1.04394E+005    2.56035E+005    4.68506E+004    2.18881E+005    1.08452E+005   -3.97036E+003
            7859    4.00847E+005    3.54661E+005    3.54661E+005    6.65895E+004   -1.03125E+005    4.57786E+005   -1.06042E+005    3.02560E+005    8.13004E+004    2.16001E+005    2.08238E+004    1.80373E+005    1.04865E+005    6.74997E+003
            7860    3.44582E+005    2.89973E+005    2.89973E+005    4.14936E+004   -1.03396E+005    3.93368E+005   -7.60235E+004    2.61559E+005    5.74175E+004    1.74853E+005   -4.19965E+003    1.49117E+005    9.47150E+004    9.87390E+003
            7861    2.88416E+005    2.33207E+005    2.33207E+005    2.41618E+004   -9.58344E+004    3.29042E+005   -5.38449E+004    2.20756E+005    3.91883E+004    1.35912E+005   -1.35660E+004    1.22008E+005    8.31201E+004    1.36381E+004
            7862    2.39138E+005    1.82369E+005    1.82369E+005    1.00536E+004   -9.06516E+004    2.73020E+005   -3.39236E+004    1.81299E+005    2.37932E+004    1.00943E+005   -2.29653E+004    9.46498E+004    7.62546E+004    1.93326E+004
            7863    1.80140E+005    1.30807E+005    1.30807E+005    1.45633E+003   -7.49412E+004    2.05749E+005   -1.91075E+004    1.35781E+005    1.26196E+004    6.77751E+004   -2.30721E+004    6.45047E+004    6.34613E+004    2.31029E+004
            7864    1.59942E+005    1.23794E+005    1.23794E+005    4.35817E+002   -5.69173E+004    1.80711E+005   -2.24374E+004    1.33681E+005    9.06975E+003    6.59645E+004   -7.72214E+003    7.68271E+004    3.31840E+004    5.66792E+003
            7865    1.65942E+005    1.28761E+005    1.28761E+005    4.16159E+002   -5.86296E+004    1.87390E+005   -2.35157E+004    1.39179E+005    4.92097E+003    6.63428E+004   -7.16730E+002    8.76486E+004    1.06238E+004   -4.96591E+002
            7866    2.02535E+005    1.53552E+005    1.53552E+005    3.41229E+003   -7.68045E+004    2.30356E+005   -2.67199E+004    1.60460E+005    1.07485E+004    7.77557E+004   -8.34458E+003    1.01442E+005    3.65246E+004   -2.07318E+003
            7867    1.98296E+005    1.44176E+005    1.44176E+005    5.21531E+002   -8.20667E+004    2.26242E+005   -2.08768E+004    1.51655E+005    1.41319E+003    6.17526E+004   -5.35350E+002    1.08353E+005    1.02852E+004   -2.63223E+003
            7868    2.27210E+005    1.63756E+005    1.63756E+005    1.39103E+003   -9.59004E+004    2.59656E+005   -2.30821E+004    1.69865E+005    2.98042E+003    6.55504E+004    7.15466E+002    1.25634E+005    7.54706E+003   -3.64841E+003
            7869    2.40425E+005    1.72011E+005    1.72011E+005    6.37883E+003   -1.03752E+005    2.75764E+005   -2.48792E+004    1.67825E+005    8.98535E+003    5.92128E+004    6.43948E+003    1.35529E+005    3.26852E+003    1.89566E+003
            7870    2.42496E+005    1.83755E+005    1.83755E+005    1.57562E+003   -9.14876E+004    2.75242E+005   -3.12809E+004    1.95802E+005    1.79448E+004    7.43958E+004    1.50200E+003    1.34372E+005    5.28373E+001    9.15267E+003
            7871    2.44457E+005    2.21948E+005    2.21948E+005    3.25615E+004   -5.40159E+004    2.75964E+005   -6.68311E+004    2.05453E+005    5.00762E+004    1.20062E+005    3.03549E+004    1.26719E+005   -3.23971E+002    4.04917E+004
            7872    2.39500E+005    1.93097E+005    1.93097E+005    1.28570E+004   -7.86694E+004    2.71767E+005   -4.24282E+004    1.93845E+005    2.09587E+004    9.78014E+004    8.52463E+003    1.26416E+005    2.82981E+004    2.47284E+002
            7873    2.61906E+005    2.10744E+005    2.10744E+005    1.26100E+004   -8.61918E+004    2.96935E+005   -4.57206E+004    2.13490E+005    2.59119E+004    9.82921E+004    1.29579E+004    1.43345E+005    1.29773E+004    5.81419E+003
            7874    2.67999E+005    2.32409E+005    2.32409E+005    3.37968E+004   -7.24161E+004    3.04825E+005   -6.45966E+004    2.12238E+005    4.34674E+004    1.15678E+005    3.46440E+004    1.44371E+005    2.95512E+003    3.33591E+004
            7875    2.61610E+005    2.22248E+005    2.22248E+005    4.93872E+004   -7.87267E+004    3.00975E+005   -6.43030E+004    1.65693E+005    4.77512E+004    9.53773E+004    4.97804E+004    1.38995E+005    2.11775E+002    5.26155E+004
            7876    2.92984E+005    5.69199E+004   -2.78909E+005   -7.55807E+004   -2.78909E+005    3.35828E+005    9.91898E+004   -2.07561E+005   -7.41689E+004   -1.45926E+005   -7.74743E+004    1.57591E+005    3.08684E+003   -4.61297E+004
            7877    3.29690E+005    4.48454E+004   -3.31756E+005   -9.52456E+004   -3.31756E+005    3.76602E+005    1.27385E+005   -2.48105E+005   -9.65360E+004   -1.86631E+005   -9.89891E+004    1.75997E+005    6.89578E+003   -5.07484E+004
            7878    3.74502E+005    2.72492E+004   -3.98910E+005   -1.22249E+005   -3.98910E+005    4.26160E+005    1.64637E+005   -2.95197E+005   -1.26372E+005   -2.41992E+005   -1.25547E+005    1.99884E+005    7.72916E+003   -4.74270E+004
            7879    4.23679E+005    1.52480E+004   -4.65686E+005   -1.47562E+005   -4.65686E+005    4.80934E+005    1.99333E+005   -3.41841E+005   -1.54120E+005   -2.93483E+005   -1.50398E+005    2.26185E+005    8.25470E+003   -4.42193E+004
            7880    3.08484E+005    6.84480E+004   -2.82167E+005   -5.24101E+004   -2.82167E+005    3.50615E+005    8.87095E+004   -2.46066E+005   -6.05826E+004   -1.47971E+005   -5.75749E+004    1.66669E+005    2.73326E+004   -2.36413E+004
            7881    3.63827E+005    5.41427E+004   -3.57827E+005   -8.05651E+004   -3.57827E+005    4.11970E+005    1.28083E+005   -2.99467E+005   -9.27382E+004   -2.06097E+005   -8.54137E+004    1.94353E+005    3.39817E+004   -2.48480E+004
            7882    4.16663E+005    4.53826E+004   -4.26121E+005   -1.07477E+005   -4.26121E+005    4.71504E+005    1.62739E+005   -3.44524E+005   -1.21630E+005   -2.55529E+005   -1.11057E+005    2.22578E+005    3.62190E+004   -2.30475E+004
            7883    4.74633E+005    3.33269E+004   -5.02855E+005   -1.36490E+005   -5.02855E+005    5.36182E+005    2.02006E+005   -3.97104E+005   -1.53778E+005   -3.12996E+005   -1.39245E+005    2.53154E+005    3.49544E+004   -2.21666E+004
            7884    5.19895E+005    8.23193E+004   -5.10170E+005   -1.30211E+005   -5.10170E+005    5.92489E+005    1.86020E+005   -4.03173E+005   -1.46548E+005   -3.06773E+005   -1.04739E+005    2.66120E+005    8.86046E+004    7.28147E+003
            7885    4.55741E+005    8.33299E+004   -4.35578E+005   -1.00294E+005   -4.35578E+005    5.18908E+005    1.50848E+005   -3.57016E+005   -1.18012E+005   -2.62452E+005   -7.20786E+004    2.25896E+005    9.12962E+004    1.73773E+002
            7886    3.94004E+005    8.40223E+004   -3.63886E+005   -7.08449E+004   -3.63886E+005    4.47908E+005    1.16903E+005   -3.13651E+005   -9.02084E+004   -2.17536E+005   -4.29646E+004    1.90955E+005    8.43703E+004   -3.32008E+003
            7887    3.41778E+005    8.20500E+004   -3.04564E+005   -4.26317E+004   -3.04564E+005    3.86614E+005    8.83818E+004   -2.83377E+005   -6.61373E+004   -1.77434E+005   -2.15741E+004    1.63598E+005    7.49274E+004   -1.07124E+004
            7888    2.97884E+005    9.05309E+004   -2.46665E+005   -1.92542E+004   -2.46665E+005    3.37196E+005    5.84627E+004   -2.45755E+005   -4.19209E+004   -1.40249E+005    6.78167E+003    1.33286E+005    7.70696E+004   -1.62339E+004
            7889    2.35717E+005    8.98895E+004   -1.79257E+005   -9.56988E+003   -1.79257E+005    2.69146E+005    3.29790E+004   -1.78421E+005   -2.24496E+004   -9.85051E+004    2.20177E+004    9.43479E+004    7.46779E+004   -1.81105E+004
            7890    1.84104E+005    7.49816E+004   -1.35076E+005   -1.74195E+003   -1.35076E+005    2.10057E+005    2.06120E+004   -1.40735E+005   -1.43081E+004   -6.94918E+004    2.19640E+004    6.74514E+004    6.40904E+004   -2.28024E+004
            7891    1.33146E+005    5.38459E+004   -9.72051E+004    3.13111E+003   -9.72051E+004    1.51051E+005    1.34094E+004   -1.07963E+005   -8.49453E+003   -4.63988E+004    1.46652E+004    4.51611E+004    4.83169E+004   -2.41852E+004
            7892    1.26582E+005    4.07696E+004   -1.00622E+005    2.15652E+003   -1.00622E+005    1.41391E+005    1.92318E+004   -1.12137E+005   -7.62691E+003   -5.37664E+004    3.69791E+003    5.99994E+004    2.62762E+004   -1.11380E+004
            7893    1.35806E+005    4.21328E+004   -1.09998E+005   -9.85758E+002   -1.09998E+005    1.52131E+005    2.29503E+004   -1.18876E+005   -6.38479E+003   -6.17703E+004   -6.95900E+002    7.01991E+004    8.62698E+003   -2.66591E+003
            7894    1.63986E+005    6.41676E+004   -1.21519E+005    3.44315E+003   -1.21519E+005    1.85687E+005    1.79695E+004   -1.34968E+005   -5.68922E+003   -6.05128E+004    1.22936E+004    8.00097E+004    3.33218E+004   -3.68518E+003
            7895    1.72765E+005    6.59481E+004   -1.29758E+005    1.59487E+003   -1.29758E+005    1.95706E+005    2.07382E+004   -1.41768E+005   -2.73321E+003   -6.20445E+004    2.56307E+003    9.24115E+004    1.10762E+004    9.48993E+001
            7896    2.14894E+005    7.58059E+004   -1.67980E+005   -6.01557E+003   -1.67980E+005    2.43786E+005    3.27299E+004   -1.74286E+005   -1.42550E+004   -8.89091E+004    4.97447E+003    1.07790E+005    3.62329E+004    1.45196E+003
            7897    2.13716E+005    8.75750E+004   -1.56121E+005   -5.99376E+002   -1.56121E+005    2.43696E+005    2.30483E+004   -1.64622E+005   -1.60258E+003   -6.83095E+004    7.67176E+002    1.16459E+005    9.93131E+003    5.07402E+003
            7898    2.55295E+005    8.49947E+004   -2.04807E+005   -1.31410E+004   -2.04807E+005    2.89802E+005    4.43177E+004   -2.05944E+005   -2.47334E+004   -9.99427E+004   -8.27714E+003    1.36319E+005    2.73203E+004    2.76747E+003
            7899    2.35518E+005    1.01605E+005   -1.68569E+005   -6.58797E+003   -1.68569E+005    2.70174E+005    2.45171E+004   -1.63833E+005   -6.43469E+003   -6.06162E+004   -6.50036E+003    1.32233E+005    5.16003E+003    6.89245E+001
            7900    2.42533E+005    9.56551E+004   -1.80478E+005   -1.97287E+003   -1.80478E+005    2.76133E+005    2.89318E+004   -1.90115E+005   -1.42630E+004   -7.04129E+004   -2.11928E+003    1.35062E+005    2.06798E+003   -5.83333E+003
            7901    2.45443E+005    6.05929E+004   -2.17649E+005   -3.18578E+004   -2.17649E+005    2.78242E+005    6.29713E+004   -2.00232E+005   -4.63410E+004   -1.11739E+005   -3.08337E+004    1.29521E+005    5.23826E+002   -3.82217E+004
            7902    2.72999E+005    6.99478E+004   -2.39462E+005   -3.25301E+004   -2.39462E+005    3.09409E+005    6.73480E+004   -2.23119E+005   -4.39437E+004   -1.22240E+005   -3.58599E+004    1.47748E+005    1.27856E+004   -2.39514E+004
            7903    2.70350E+005    7.62237E+004   -2.34545E+005   -5.35469E+004   -2.34545E+005    3.10769E+005    7.06227E+004   -1.77040E+005   -5.17379E+004   -1.05089E+005   -5.50412E+004    1.44894E+005    1.88971E+003   -4.97141E+004
            7904    5.96217E+005    5.85629E+005    5.85629E+005    1.58726E+005   -9.55723E+004    6.81201E+005   -2.16261E+005    4.47248E+005    1.66875E+005    3.48667E+005    1.33241E+005    3.11581E+005    8.74980E+004   -1.79363E+004
            7905    5.77149E+005    6.01805E+005    6.01805E+005    1.63884E+005   -5.22071E+004    6.54012E+005   -2.37827E+005    4.72336E+005    1.88040E+005    3.67258E+005    1.58184E+005    3.08636E+005    5.46144E+004    2.72279E+003
            7906    5.18242E+005    5.50299E+005    5.50299E+005    1.49192E+005   -3.48448E+004    5.85144E+005   -2.21549E+005    4.35040E+005    1.73965E+005    3.40396E+005    1.50285E+005    2.78469E+005    3.16065E+004    1.57203E+004
            7907    4.98221E+005    5.54023E+005    5.54023E+005    1.67128E+005   -8.14955E+003    5.62173E+005   -2.37667E+005    4.19936E+005    1.79002E+005    3.64330E+005    1.69670E+005    2.63941E+005    1.52788E+004    2.80851E+004
            7908    4.64173E+005    5.22593E+005    5.22593E+005    1.72983E+005   -4.04463E+003    5.26638E+005   -2.30510E+005    3.76115E+005    1.80513E+005    3.36999E+005    1.74020E+005    2.48354E+005    3.87801E+003    4.01116E+004
            7909    6.53987E+005    6.61880E+005    6.61880E+005    1.90526E+005   -8.47446E+004    7.46625E+005   -2.55887E+005    4.96005E+005    1.97832E+005    3.90118E+005    1.79712E+005    3.53848E+005    5.94825E+004   -1.49765E+004
            7910    6.28272E+005    6.67267E+005    6.67267E+005    1.90475E+005   -4.46566E+004    7.11924E+005   -2.71028E+005    5.14292E+005    2.16257E+005    4.09035E+005    1.87793E+005    3.40204E+005    3.67394E+004   -1.22169E+001
            7911    5.64345E+005    6.09717E+005    6.09717E+005    1.72205E+005   -2.72774E+004    6.36994E+005   -2.51548E+005    4.74702E+005    1.98640E+005    3.83451E+005    1.72552E+005    3.03947E+005    2.14407E+004    9.96814E+003
            7912    5.44158E+005    6.13425E+005    6.13425E+005    1.89018E+005   -4.84612E+001    6.13473E+005   -2.67465E+005    4.61063E+005    2.02191E+005    4.10090E+005    1.90112E+005    2.87981E+005    1.08441E+004    1.89464E+004
            7913    5.02627E+005    5.76937E+005    5.76937E+005    1.94703E+005    7.59140E+003    5.69346E+005   -2.59744E+005    4.12574E+005    2.04373E+005    3.79694E+005    1.95165E+005    2.69671E+005    2.92566E+003    2.58495E+004
            7914    6.89515E+005    7.08016E+005    7.08016E+005    2.10494E+005   -7.90608E+004    7.87077E+005   -2.79817E+005    5.23923E+005    2.16443E+005    4.13910E+005    2.09097E+005    3.80115E+005    2.10499E+004   -6.85825E+003
            7915    6.56355E+005    7.04170E+005    7.04170E+005    2.06159E+005   -3.95983E+004    7.43769E+005   -2.90244E+005    5.37147E+005    2.32297E+005    4.32583E+005    2.05851E+005    3.57857E+005    1.29831E+004    5.90047E+001
            7916    5.88723E+005    6.41882E+005    6.41882E+005    1.85467E+005   -2.26263E+004    6.64509E+005   -2.68241E+005    4.95213E+005    2.12006E+005    4.07219E+005    1.85498E+005    3.17491E+005    7.63468E+003    3.32806E+003
            7917    5.70520E+005    6.48292E+005    6.48292E+005    2.02750E+005    5.26830E+003    6.43024E+005   -2.85437E+005    4.84144E+005    2.16082E+005    4.37356E+005    2.02872E+005    3.01811E+005    3.94297E+003    6.24984E+003
            7918    5.25609E+005    6.08561E+005    6.08561E+005    2.07296E+005    1.35880E+004    5.94973E+005   -2.76481E+005    4.33635E+005    2.18164E+005    4.03931E+005    2.07349E+005    2.82456E+005    9.70187E+002    9.70518E+003
            7919    1.28646E+005    9.32558E+004    9.32558E+004   -4.24907E+003   -5.25505E+004    1.45806E+005   -1.21521E+004    1.05129E+005    7.91359E+003    4.30436E+004   -1.45009E+004    4.24003E+004   -4.73494E+004   -2.52101E+004
            7920    1.14247E+005    8.61167E+004    8.61167E+004   -7.57716E+003   -4.11565E+004    1.27273E+005   -1.24610E+004    1.02228E+005    2.67120E+003    4.32519E+004   -8.53999E+003    5.33972E+004   -2.49696E+004   -1.15562E+004
            7921    1.20850E+005    9.46072E+004    9.46072E+004   -1.95702E+003   -4.09170E+004    1.35524E+005   -1.72444E+004    1.05264E+005    2.77534E+003    5.09384E+004   -1.98060E+003    6.26589E+004   -8.50101E+003   -3.56324E+003
            7922    8.65760E+004    6.56736E+004    6.56736E+004   -7.80115E+003   -2.97706E+004    9.54442E+004   -9.36727E+003    7.99355E+004    6.70223E+003    2.65979E+004   -5.19837E+003    2.74522E+004   -2.98760E+004   -2.43760E+004
            7923    8.24864E+004    6.77107E+004    6.77107E+004   -5.52697E+003   -2.16451E+004    8.93558E+004   -1.35129E+004    7.88257E+004    7.46760E+003    3.30120E+004    5.90585E+001    3.86540E+004   -1.60431E+004   -1.47515E+004
            7924    8.83978E+004    7.33203E+004    7.33203E+004    6.22247E+002   -2.50805E+004    9.84008E+004   -1.62874E+004    7.93144E+004    7.37140E+003    4.02627E+004    1.22793E+003    4.59517E+004   -5.33846E+003   -4.91087E+003
            7925    5.67526E+004    4.20155E+004    4.20155E+004   -1.06413E+004   -1.80960E+004    6.01115E+004   -4.42605E+003    5.56351E+004    2.70814E+003    1.16660E+004   -1.09596E+003    1.86228E+004   -1.33922E+004   -2.24617E+004
            7926    5.84024E+004    4.05401E+004    4.05401E+004   -8.01026E+003   -2.42689E+004    6.48090E+004   -2.75365E+003    5.29406E+004   -8.76746E+002    1.19439E+004   -2.80620E+003    2.84403E+004   -7.32076E+003   -1.44993E+004
            7927    6.23210E+004    4.30691E+004    4.30691E+004   -2.18907E+003   -2.80128E+004    7.10819E+004   -4.28908E+003    4.78491E+004   -6.60696E+002    1.50418E+004   -1.51384E+003    3.42583E+004   -2.60741E+003   -5.22562E+003
            7928    4.62755E+004    2.65178E+004   -2.68967E+004    1.06897E+003   -2.68967E+004    5.34145E+004   -2.30021E+002   -2.00635E+004    5.89533E+002   -2.33152E+002    3.33682E+002    1.58913E+004    5.95978E+002   -2.14649E+004
            7929    4.99346E+004    3.03253E+004    3.03253E+004    3.26884E+003   -2.72986E+004    5.76239E+004   -2.09851E+003   -2.35796E+004    2.98749E+003    8.37234E+002    2.47081E+003    2.50032E+004    7.79977E+002   -1.42873E+004
            7930    5.38309E+004    3.26298E+004    3.26298E+004    1.80346E+003   -2.95281E+004    6.21579E+004   -1.63504E+003   -1.29982E+004    2.81648E+003    4.67632E+002    1.62102E+003    3.06241E+004    4.59284E+002   -5.14717E+003
            7931    5.94489E+004    1.70018E+004   -4.54815E+004    1.03782E+004   -4.54815E+004    6.24833E+004    6.03382E+003   -5.86101E+004   -4.38604E+003   -1.46112E+004    8.95799E+002    1.97021E+004    1.48660E+004   -2.25107E+004
            7932    6.37542E+004    1.87214E+004   -5.11650E+004    3.81609E+003   -5.11650E+004    6.98864E+004    9.54252E+003   -5.96419E+004   -5.90785E+003   -2.08307E+004   -1.88897E+003    3.09627E+004    9.03985E+003   -1.46578E+004
            7933    6.92094E+004    2.27360E+004   -5.52233E+004   -1.02197E+003   -5.52233E+004    7.79594E+004    1.11697E+004   -5.89278E+004   -5.79049E+003   -2.60866E+004   -1.63220E+003    3.72950E+004    2.94181E+003   -5.08655E+003
            7934    8.91146E+004    3.14117E+004   -6.70508E+004    8.06976E+003   -6.70508E+004    9.84625E+004    9.18979E+003   -8.18020E+004   -6.09137E+003   -2.72065E+004    5.72852E+003    2.84309E+004    3.10210E+004   -2.44568E+004
            7935    8.61001E+004    2.83542E+004   -6.54852E+004    9.87485E+003   -6.54852E+004    9.38394E+004    9.08541E+003   -8.14571E+004   -2.07020E+003   -3.05291E+004    5.34308E+003    3.99118E+004    1.77839E+004   -1.42563E+004
            7936    9.32487E+004    3.11778E+004   -7.30469E+004    2.47986E+003   -7.30469E+004    1.04225E+005    1.31298E+004   -8.23983E+004   -2.58641E+003   -3.86959E+004    1.89302E+003    4.83620E+004    6.32037E+003   -4.93759E+003
            7937    4.63805E+005    5.22195E+005    5.22195E+005    1.72924E+005   -4.04089E+003    5.26236E+005   -2.30359E+005    3.75725E+005    1.80392E+005    3.36729E+005    1.73956E+005    2.48149E+005   -3.85092E+003   -4.01971E+004
            7938    4.98283E+005    5.53982E+005    5.53982E+005    1.66954E+005   -8.23684E+003    5.62218E+005   -2.37566E+005    4.20101E+005    1.78931E+005    3.64266E+005    1.69501E+005    2.63964E+005   -1.53430E+004   -2.80681E+004
            7939    5.18892E+005    5.50853E+005    5.50853E+005    1.49306E+005   -3.50414E+004    5.85895E+005   -2.21706E+005    4.35501E+005    1.74104E+005    3.40675E+005    1.50339E+005    2.78828E+005   -3.17539E+004   -1.54928E+004
            7940    5.77903E+005    6.02448E+005    6.02448E+005    1.64244E+005   -5.24915E+004    6.54940E+005   -2.38067E+005    4.72539E+005    1.88219E+005    3.67574E+005    1.58408E+005    3.09020E+005   -5.49779E+004   -2.52687E+003
            7941    5.96507E+005    5.85929E+005    5.85929E+005    1.58931E+005   -9.56241E+004    6.81553E+005   -2.16412E+005    4.47266E+005    1.66954E+005    3.48808E+005    1.33474E+005    3.11771E+005   -8.75013E+004    1.79485E+004
            7942    5.02395E+005    5.76741E+005    5.76741E+005    1.94743E+005    7.64179E+003    5.69099E+005   -2.59709E+005    4.12298E+005    2.04384E+005    3.79547E+005    1.95195E+005    2.69563E+005   -2.86626E+003   -2.58719E+004
            7943    5.43722E+005    6.13230E+005    6.13230E+005    1.89297E+005    2.10318E+002    6.13020E+005   -2.67579E+005    4.60520E+005    2.02311E+005    4.10040E+005    1.90386E+005    2.87769E+005   -1.06752E+004   -1.90391E+004
            7944    5.64269E+005    6.09863E+005    6.09863E+005    1.72340E+005   -2.70251E+004    6.36888E+005   -2.51726E+005    4.74731E+005    1.98773E+005    3.83715E+005    1.72690E+005    3.03873E+005   -2.14165E+004   -9.98284E+003
            7945    6.29057E+005    6.67770E+005    6.67770E+005    1.90670E+005   -4.51157E+004    7.12886E+005   -2.71108E+005    5.14522E+005    2.16247E+005    4.09144E+005    1.87933E+005    3.40672E+005   -3.68219E+004    2.44789E+002
            7946    6.54244E+005    6.61851E+005    6.61851E+005    1.90584E+005   -8.51195E+004    7.46970E+005   -2.55772E+005    4.95726E+005    1.97651E+005    3.89982E+005    1.79682E+005    3.53975E+005   -5.96787E+004    1.51208E+004
            7947    5.25421E+005    6.08375E+005    6.08375E+005    2.07339E+005    1.35916E+004    5.94783E+005   -2.76435E+005    4.33359E+005    2.18140E+005    4.03771E+005    2.07395E+005    2.82375E+005   -1.00589E+003   -9.80969E+003
            7948    5.70311E+005    6.48106E+005    6.48106E+005    2.02697E+005    5.32710E+003    6.42779E+005   -2.85377E+005    4.84005E+005    2.16011E+005    4.37300E+005    2.02819E+005    3.01677E+005   -3.96354E+003   -6.26187E+003
            7949    5.88820E+005    6.41960E+005    6.41960E+005    1.85537E+005   -2.26776E+004    6.64637E+005   -2.68273E+005    4.95205E+005    2.11974E+005    4.07274E+005    1.85571E+005    3.17546E+005   -7.58066E+003   -3.38003E+003
            7950    6.56174E+005    7.04024E+005    7.04024E+005    2.06241E+005   -3.95628E+004    7.43587E+005   -2.90234E+005    5.36869E+005    2.32289E+005    4.32466E+005    2.05948E+005    3.57786E+005   -1.28507E+004   -1.72340E+002
            7951    6.88944E+005    7.07385E+005    7.07385E+005    2.10256E+005   -7.90373E+004    7.86423E+005   -2.79535E+005    5.23520E+005    2.16261E+005    4.13503E+005    2.08840E+005    3.79793E+005   -2.12217E+004    6.86834E+003
            7952    2.88518E+005    2.33233E+005    2.33233E+005    2.43035E+004   -9.59628E+004    3.29196E+005   -5.38579E+004    2.20511E+005    3.92066E+004    1.35861E+005   -1.34935E+004    1.22128E+005   -8.31497E+004   -1.34454E+004
            7953    3.44765E+005    2.90068E+005    2.90068E+005    4.15774E+004   -1.03532E+005    3.93600E+005   -7.60379E+004    2.61490E+005    5.74620E+004    1.75036E+005   -4.38402E+003    1.49075E+005   -9.48380E+004   -9.82828E+003
            7954    4.01658E+005    3.55619E+005    3.55619E+005    6.70219E+004   -1.03105E+005    4.58724E+005   -1.06512E+005    3.03071E+005    8.17137E+004    2.16522E+005    2.12996E+004    1.80850E+005   -1.05050E+005   -6.72409E+003
            7955    4.63752E+005    4.22893E+005    4.22893E+005    9.30373E+004   -1.07360E+005    5.30253E+005   -1.36190E+005    3.43918E+005    1.04726E+005    2.56619E+005    4.72250E+004    2.19560E+005   -1.08448E+005    4.13233E+003
            7956    5.30509E+005    5.04757E+005    5.04757E+005    1.25226E+005   -1.01430E+005    6.06187E+005   -1.76184E+005    3.97381E+005    1.35824E+005    3.04913E+005    8.78163E+004    2.64580E+005   -1.03315E+005    1.14908E+004
            7957    5.15456E+005    5.22498E+005    5.22498E+005    1.31616E+005   -6.16628E+004    5.84161E+005   -1.97484E+005    4.21521E+005    1.54060E+005    3.15993E+005    1.22398E+005    2.70961E+005   -6.58834E+004   -4.54242E+003
            7958    4.65650E+005    4.82717E+005    4.82717E+005    1.23197E+005   -4.32929E+004    5.26010E+005   -1.87540E+005    3.89708E+005    1.45532E+005    2.91879E+005    1.25211E+005    2.49420E+005   -3.76816E+004   -1.94510E+004
            7959    4.45435E+005    4.82394E+005    4.82394E+005    1.40228E+005   -2.12616E+004    5.03655E+005   -2.00453E+005    3.70415E+005    1.49638E+005    3.07305E+005    1.44418E+005    2.36758E+005   -1.79404E+004   -3.45204E+004
            7960    4.18014E+005    4.57953E+005    4.57953E+005    1.47755E+005   -1.74097E+004    4.75362E+005   -1.96099E+005    3.31679E+005    1.52325E+005    2.86616E+005    1.49357E+005    2.23233E+005   -4.33392E+003   -4.73955E+004
            7961    4.51850E+005    4.44797E+005    4.44797E+005    1.00534E+005   -6.68645E+004    5.11661E+005   -1.59489E+005    3.71808E+005    1.21481E+005    2.66249E+005    9.07357E+004    2.32788E+005   -7.05686E+004   -1.00572E+004
            7962    4.11869E+005    4.11614E+005    4.11614E+005    9.64999E+004   -5.44283E+004    4.66043E+005   -1.51229E+005    3.40751E+005    1.14684E+005    2.39420E+005    9.95821E+004    2.20455E+005   -3.99176E+004   -2.14715E+004
            7963    3.94585E+005    4.13524E+005    4.13524E+005    1.14785E+005   -3.37780E+004    4.47302E+005   -1.64844E+005    3.21978E+005    1.21233E+005    2.53306E+005    1.19992E+005    2.10655E+005   -1.84977E+004   -3.62170E+004
            7964    3.74002E+005    3.93321E+005    3.93321E+005    1.21789E+005   -3.32728E+004    4.26593E+005   -1.60612E+005    2.87030E+005    1.23522E+005    2.34433E+005    1.23881E+005    1.99389E+005   -4.27368E+003   -5.25783E+004
            7965    3.90422E+005    3.67308E+005    3.67308E+005    6.94356E+004   -7.46863E+004    4.41995E+005   -1.20686E+005    3.21841E+005    8.87811E+004    2.14961E+005    5.83159E+004    1.97599E+005   -6.89373E+004   -1.06784E+004
            7966    3.64061E+005    3.51223E+005    3.51223E+005    7.36937E+004   -6.09889E+004    4.12212E+005   -1.21309E+005    2.99786E+005    8.87585E+004    1.97437E+005    7.77327E+004    1.94448E+005   -3.85831E+004   -2.24593E+004
            7967    3.49110E+005    3.48620E+005    3.48620E+005    9.15644E+004   -4.88313E+004    3.97451E+005   -1.30451E+005    2.73834E+005    9.37692E+004    2.00334E+005    9.72496E+004    1.87925E+005   -1.68083E+004   -3.69056E+004
            7968    3.34399E+005    3.36945E+005    3.36945E+005    1.00056E+005   -4.55741E+004    3.82519E+005   -1.30476E+005    2.46223E+005    9.91944E+004    1.90071E+005    1.02162E+005    1.78880E+005   -3.64797E+003   -5.09604E+004
            7969    3.35494E+005    3.04273E+005    3.04273E+005    4.44564E+004   -7.44873E+004    3.78760E+005   -9.14141E+004    2.81835E+005    6.34637E+004    1.74608E+005    3.61702E+004    1.67445E+005   -6.24388E+004   -1.43224E+004
            7970    3.19211E+005    2.91511E+005    2.91511E+005    5.19400E+004   -7.08656E+004    3.62376E+005   -9.08617E+004    2.57384E+005    6.29578E+004    1.53541E+005    5.60866E+004    1.71717E+005   -3.31373E+004   -2.05481E+004
            7971    3.13139E+005    2.99383E+005    2.99383E+005    7.32501E+004   -5.80279E+004    3.57410E+005   -1.04868E+005    2.38256E+005    7.35242E+004    1.63018E+005    7.80621E+004    1.69691E+005   -1.33141E+004   -3.42317E+004
            7972    3.03612E+005    2.88626E+005    2.88626E+005    7.93255E+004   -5.95930E+004    3.48219E+005   -1.02786E+005    2.12217E+005    7.72797E+004    1.49829E+005    8.12496E+004    1.62401E+005   -2.73897E+003   -5.17832E+004
            7973    2.79395E+005    2.36296E+005    2.36296E+005    2.11439E+004   -7.94723E+004    3.15768E+005   -5.93226E+004    2.33066E+005    3.66082E+004    1.29336E+005    1.20232E+004    1.40329E+005   -4.94731E+004   -7.29458E+003
            7974    2.86523E+005    2.51682E+005    2.51682E+005    3.63922E+004   -7.35253E+004    3.25207E+005   -7.15163E+004    2.31403E+005    4.63065E+004    1.28488E+005    3.97546E+004    1.55096E+005   -2.31404E+004   -1.81668E+004
            7975    2.84265E+005    2.53781E+005    2.53781E+005    5.32597E+004   -7.15353E+004    3.25316E+005   -7.85017E+004    2.07712E+005    5.34985E+004    1.25293E+005    5.67136E+004    1.55434E+005   -8.85198E+003   -3.24446E+004
            7976    2.77637E+005    2.52845E+005    2.52845E+005    6.37161E+004   -6.58955E+004    3.18741E+005   -8.35553E+004    1.89232E+005    6.24213E+004    1.23615E+005    6.46299E+004    1.49266E+005   -1.25957E+003   -4.69825E+004
            7977    2.61958E+005    2.22641E+005    2.22641E+005    4.93611E+004   -7.87141E+004    3.01355E+005   -6.44294E+004    1.66394E+005    4.78354E+004    9.56714E+004    4.97815E+004    1.39211E+005   -2.71139E+002   -5.25490E+004
            7978    2.44413E+005    2.21622E+005    2.21622E+005    3.26387E+004   -5.43950E+004    2.76017E+005   -6.66219E+004    2.04924E+005    4.99028E+004    1.19519E+005    3.04438E+004    1.26812E+005    3.62089E+002   -4.04714E+004
            7979    2.68129E+005    2.32838E+005    2.32838E+005    3.43595E+004   -7.21869E+004    3.05025E+005   -6.50036E+004    2.11980E+005    4.37868E+004    1.16045E+005    3.51787E+004    1.44408E+005   -2.86078E+003   -3.36141E+004
            7980    2.42634E+005    1.83714E+005    1.83714E+005    1.60378E+003   -9.17264E+004    2.75441E+005   -3.11973E+004    1.95657E+005    1.78681E+004    7.41893E+004    1.53439E+003    1.34489E+005   -7.55061E+001   -9.13879E+003
            7981    2.61992E+005    2.10886E+005    2.10886E+005    1.25503E+004   -8.61127E+004    2.96998E+005   -4.57744E+004    2.13758E+005    2.59753E+004    9.84236E+004    1.29244E+004    1.43377E+005   -1.28839E+004   -5.95197E+003
            7982    2.40441E+005    1.71959E+005    1.71959E+005    6.20436E+003   -1.03807E+005    2.75766E+005   -2.47856E+004    1.68068E+005    8.94487E+003    5.91466E+004    6.26528E+003    1.35531E+005   -3.33739E+003   -1.88994E+003
            7983    2.39459E+005    1.93063E+005    1.93063E+005    1.30628E+004   -7.87080E+004    2.71771E+005   -4.24726E+004    1.93502E+005    2.09864E+004    9.77022E+004    8.72915E+003    1.26434E+005   -2.83330E+004   -2.20149E+002
            7984    2.27128E+005    1.63754E+005    1.63754E+005    1.48469E+003   -9.58155E+004    2.59569E+005   -2.31409E+004    1.69737E+005    3.02257E+003    6.55776E+004    8.22586E+002    1.25598E+005   -7.48992E+003    3.59511E+003
            7985    1.97924E+005    1.43967E+005    1.43967E+005    5.18373E+002   -8.18381E+004    2.25805E+005   -2.08823E+004    1.51479E+005    1.43683E+003    6.17635E+004   -5.53307E+002    1.08120E+005   -1.03156E+004    2.66467E+003
            7986    1.65130E+005    1.28263E+005    1.28263E+005    3.33350E+002   -5.81484E+004    1.86412E+005   -2.34828E+004    1.38783E+005    4.93874E+003    6.62973E+004   -7.87715E+002    8.71405E+004   -1.06122E+004    4.01520E+002
            7987    2.02186E+005    1.53221E+005    1.53221E+005    3.33661E+003   -7.67384E+004    2.29959E+005   -2.66063E+004    1.60189E+005    1.06606E+004    7.76009E+004   -8.44253E+003    1.01230E+005   -3.65118E+004    2.06516E+003
            7988    1.59207E+005    1.23246E+005    1.23246E+005    3.67419E+002   -5.66091E+004    1.79856E+005   -2.23349E+004    1.33186E+005    8.97057E+003    6.56718E+004   -7.63759E+003    7.65028E+004   -3.29545E+004   -5.72142E+003
            7989    1.80767E+005    1.31282E+005    1.31282E+005    1.52075E+003   -7.51900E+004    2.06472E+005   -1.92042E+004    1.36183E+005    1.27028E+004    6.80790E+004   -2.31693E+004    6.46767E+004   -6.36986E+004   -2.32020E+004
            7990    2.39791E+005    1.82826E+005    1.82826E+005    1.01057E+004   -9.09526E+004    2.73779E+005   -3.39931E+004    1.81680E+005    2.38291E+004    1.01184E+005   -2.30338E+004    9.48500E+004   -7.65370E+004   -1.94217E+004
            7991    3.48483E+005    6.41183E+004   -3.27599E+005   -5.20011E+004   -3.27599E+005    3.91718E+005    1.05161E+005   -3.00084E+005   -7.28326E+004   -2.16698E+005   -2.59521E+004    1.58481E+005   -7.28094E+004    1.35199E+004
            7992    4.04382E+005    5.91475E+004   -3.98013E+005   -8.71081E+004   -3.98013E+005    4.57161E+005    1.41991E+005   -3.36653E+005   -1.04308E+005   -2.68360E+005   -5.33057E+004    1.87092E+005   -8.27626E+004    5.30145E+003
            7993    4.70110E+005    4.97594E+004   -4.82592E+005   -1.24467E+005   -4.82592E+005    5.32352E+005    1.85767E+005   -3.86762E+005   -1.40417E+005   -3.26507E+005   -9.03762E+004    2.23882E+005   -8.97912E+004    7.48135E+002
            7994    5.39095E+005    3.83019E+004   -5.72471E+005   -1.62964E+005   -5.72471E+005    6.10773E+005    2.32378E+005   -4.41853E+005   -1.78716E+005   -3.85937E+005   -1.32479E+005    2.66461E+005   -8.71296E+004   -7.83301E+003
            7995    4.83885E+005   -4.10052E+003   -5.46575E+005   -1.59425E+005   -5.46575E+005    5.42475E+005    2.36700E+005   -4.22075E+005   -1.78250E+005   -3.69313E+005   -1.62538E+005    2.50970E+005   -3.39126E+004    2.57099E+004
            7996    4.34149E+005   -3.52772E+004   -5.24423E+005   -1.84786E+005   -5.24423E+005    4.89146E+005    2.48162E+005   -3.69183E+005   -1.88760E+005   -3.67941E+005   -1.87785E+005    2.21307E+005   -6.76343E+003    5.51858E+004
            7997    4.24607E+005    1.37095E+004   -4.63559E+005   -1.27703E+005   -4.63559E+005    4.77269E+005    1.92518E+005   -3.65704E+005   -1.40322E+005   -3.05354E+005   -1.31877E+005    2.20288E+005   -3.54982E+004    2.72673E+004
            7998    3.87845E+005   -7.73160E+003   -4.46801E+005   -1.50864E+005   -4.46801E+005    4.39069E+005    2.01799E+005   -3.19760E+005   -1.50710E+005   -2.99938E+005   -1.54748E+005    1.98610E+005   -6.88059E+003    5.84841E+004
            7999    3.71769E+005    2.80132E+004   -3.90268E+005   -9.75033E+004   -3.90268E+005    4.18281E+005    1.53253E+005   -3.18583E+005   -1.06969E+005   -2.49435E+005   -1.03354E+005    1.92561E+005   -3.39046E+004    2.99990E+004
            8000    3.45161E+005    2.24113E+004   -3.70522E+005   -1.16270E+005   -3.70522E+005    3.92933E+005    1.54793E+005   -2.70904E+005   -1.12702E+005   -2.30450E+005   -1.21228E+005    1.77760E+005   -6.92163E+003    6.12734E+004
            8001    3.16230E+005    4.99676E+004   -3.07657E+005   -6.49704E+004   -3.07657E+005    3.57625E+005    1.07553E+005   -2.62656E+005   -6.92076E+004   -1.82132E+005   -7.13206E+004    1.65946E+005   -2.83494E+004    2.86274E+004
            8002    3.06746E+005    4.06164E+004   -3.09948E+005   -9.08295E+004   -3.09948E+005    3.50564E+005    1.20054E+005   -2.29179E+005   -8.56980E+004   -1.80026E+005   -9.44374E+004    1.60011E+005   -4.56734E+003    5.49864E+004
            8003    2.78123E+005    5.84863E+004   -2.60130E+005   -6.59601E+004   -2.60130E+005    3.18616E+005    8.92013E+004   -1.99335E+005   -6.43709E+004   -1.34013E+005   -6.92201E+004    1.44349E+005   -3.77906E+003    5.84922E+004
            8004    2.54163E+005    4.26903E+004   -2.42756E+005   -4.09637E+004   -2.42756E+005    2.85446E+005    8.03432E+004   -2.19828E+005   -5.98492E+004   -1.42062E+005   -3.91185E+004    1.28083E+005   -1.19444E+003    4.64970E+004
            8005    2.84618E+005    5.91915E+004   -2.61287E+005   -3.79768E+004   -2.61287E+005    3.20478E+005    8.00240E+004   -2.42860E+005   -4.90136E+004   -1.48441E+005   -4.26177E+004    1.49661E+005   -1.53191E+004    2.91317E+004
            8006    2.51935E+005    9.02980E+004   -1.94492E+005   -6.93276E+002   -1.94492E+005    2.84790E+005    3.49625E+004   -2.09877E+005   -1.74541E+004   -8.65044E+004   -9.28942E+002    1.38010E+005   -3.37099E+003    6.20036E+003
            8007    2.37130E+005    9.00596E+004   -1.80721E+005   -1.01320E+004   -1.80721E+005    2.70780E+005    3.35978E+004   -1.79290E+005   -6.32753E+003   -8.46031E+004   -9.86273E+003    1.29394E+005   -6.78149E+003   -6.61929E+002
            8008    2.10076E+005    8.27037E+004   -1.55408E+005    3.76142E+003   -1.55408E+005    2.38112E+005    2.29811E+004   -1.71597E+005    2.03283E+003   -7.65178E+004    5.54176E+003    1.11439E+005   -1.02592E+004   -5.84022E+003
            8009    1.74260E+005    5.48776E+004   -1.40541E+005   -1.29335E+003   -1.40541E+005    1.95418E+005    2.89855E+004   -1.51793E+005   -2.27566E+003   -8.48627E+004    1.81835E+002    8.75627E+004   -1.05211E+004   -1.05170E+003
            8010    1.23830E+005    3.57300E+004   -1.00711E+005    4.54553E+003   -1.00711E+005    1.36441E+005    2.01452E+004   -1.14484E+005   -1.23411E+003   -6.41950E+004    4.99365E+003    5.97212E+004   -8.25957E+003    3.38083E+003
            8011    2.58961E+005    7.22575E+004   -2.20454E+005   -2.11773E+004   -2.20454E+005    2.92711E+005    5.64579E+004   -2.15830E+005   -2.46742E+004   -1.30448E+005   -1.42509E+004    1.31844E+005   -2.87092E+004   -3.65166E+003
            8012    2.11986E+005    7.05587E+004   -1.69166E+005   -6.44118E+003   -1.69166E+005    2.39724E+005    3.50161E+004   -1.76126E+005   -1.17680E+004   -1.00348E+005    7.06790E+003    1.01739E+005   -3.65722E+004   -1.00313E+003
            8013    1.66708E+005    5.53487E+004   -1.32621E+005   -2.69118E+003   -1.32621E+005    1.87969E+005    2.66544E+004   -1.41132E+005   -5.76302E+003   -8.29002E+004    8.69996E+003    7.60790E+004   -3.21603E+004    4.06344E+003
            8014    1.16635E+005    3.68274E+004   -9.23978E+004    5.06808E+003   -9.23978E+004    1.29225E+005    1.68341E+004   -1.06234E+005   -2.83100E+003   -5.54111E+004    7.73974E+003    5.07158E+004   -2.52581E+004    1.34326E+004
            8015    1.28187E+005    5.10683E+004   -9.43983E+004    2.03091E+003   -9.43983E+004    1.45467E+005    1.37664E+004   -1.03692E+005   -8.06852E+003   -5.12615E+004    1.80309E+004    3.89674E+004   -4.41891E+004    2.79544E+004
            8016    1.83802E+005    6.96997E+004   -1.39695E+005   -5.02227E+003   -1.39695E+005    2.09395E+005    2.50058E+004   -1.43098E+005   -1.41928E+004   -8.56227E+004    2.47980E+004    6.20367E+004   -5.95445E+004    2.70380E+004
            8017    2.36068E+005    8.31118E+004   -1.85597E+005   -1.15600E+004   -1.85597E+005    2.68709E+005    3.80150E+004   -1.85512E+005   -2.40301E+004   -1.16360E+005    2.63449E+004    8.88785E+004   -7.03873E+004    2.20086E+004
            8018    3.00388E+005    7.72518E+004   -2.61114E+005   -2.58712E+004   -2.61114E+005    3.38366E+005    6.99113E+004   -2.55756E+005   -4.55901E+004   -1.71434E+005    7.29031E+003    1.26058E+005   -7.33553E+004    1.94076E+004
            8019    4.80149E+005   -6.32777E+004   -6.01794E+005   -2.18330E+005   -6.01794E+005    5.38517E+005    2.94467E+005   -4.17990E+005   -2.26683E+005   -4.36552E+005   -2.20167E+005    2.44195E+005   -5.94801E+003    4.50483E+004
            8020    5.40697E+005   -1.88439E+004   -6.24308E+005   -1.89617E+005   -6.24308E+005    6.05464E+005    2.77590E+005   -4.74072E+005   -2.13353E+005   -4.28051E+005   -1.91365E+005    2.81241E+005   -2.87062E+004    2.07498E+004
            8021    6.07853E+005    1.98405E+004   -6.68465E+005   -2.05305E+005   -6.68465E+005    6.88305E+005    2.84643E+005   -5.00230E+005   -2.21076E+005   -4.48503E+005   -1.84350E+005    3.11320E+005   -7.49031E+004   -1.25146E+004
            8022    5.18388E+005   -8.44214E+004   -6.64176E+005   -2.45305E+005   -6.64176E+005    5.79755E+005    3.31301E+005   -4.56941E+005   -2.56605E+005   -4.91216E+005   -2.46081E+005    2.63504E+005   -4.15959E+003    3.02751E+004
            8023    5.87635E+005   -3.19121E+004   -6.89404E+005   -2.15424E+005   -6.89404E+005    6.57492E+005    3.12247E+005   -5.17016E+005   -2.42897E+005   -4.77712E+005   -2.16131E+005    3.06336E+005   -1.89289E+004    1.38359E+004
            8024    6.65734E+005    1.08547E+003   -7.52326E+005   -2.43406E+005   -7.52326E+005    7.53411E+005    3.31549E+005   -5.50191E+005   -2.59070E+005   -5.01582E+005   -2.33994E+005    3.50891E+005   -5.11544E+004   -1.23326E+004
            8025    5.40628E+005   -9.64402E+004   -7.00257E+005   -2.61117E+005   -7.00257E+005    6.03817E+005    3.52605E+005   -4.79130E+005   -2.73766E+005   -5.22839E+005   -2.61210E+005    2.74849E+005   -1.51199E+003    1.03792E+004
            8026    6.13591E+005   -3.90973E+004   -7.25445E+005   -2.29992E+005   -7.25445E+005    6.86348E+005    3.31512E+005   -5.40466E+005   -2.59259E+005   -5.05198E+005   -2.30077E+005    3.20301E+005   -6.55765E+003    4.90875E+003
            8027    7.00696E+005   -1.19707E+004   -8.04633E+005   -2.67808E+005   -8.04633E+005    7.92663E+005    3.61471E+005   -5.80725E+005   -2.83252E+005   -5.34547E+005   -2.66613E+005    3.75167E+005   -1.86119E+004   -5.05123E+003
            8028    1.19837E+005    1.03056E+005    1.03056E+005    1.09331E+003   -2.89418E+004    1.31998E+005   -2.50691E+004    1.10884E+005    7.57364E+003    6.67533E+004    8.80355E+002    5.82891E+004    7.78492E+003    3.78982E+003
            8029    1.14020E+005    9.40940E+004    9.40940E+004   -3.18920E+003   -3.13761E+004    1.25470E+005   -1.98429E+004    1.05747E+005    7.46411E+003    5.72001E+004   -5.13545E+003    4.99213E+004    2.38033E+004    1.37281E+004
            8030    1.26917E+005    9.55613E+004    9.55613E+004   -1.48471E+003   -4.80643E+004    1.43626E+005   -1.53374E+004    1.04924E+005    9.67624E+003    5.17904E+004   -1.54544E+004    3.82785E+004    4.33885E+004    2.94452E+004
            8031    8.13429E+004    6.59309E+004    6.59309E+004   -4.24214E+003   -2.32249E+004    8.91558E+004   -1.28213E+004    7.61162E+004   -5.34573E+001    4.20849E+004   -3.56766E+003    3.87605E+004    5.12594E+003    5.61654E+003
            8032    7.71010E+004    6.14505E+004    6.14505E+004   -9.74713E+003   -2.04379E+004    8.18885E+004   -1.04218E+004    7.54064E+004    7.25278E+002    3.40744E+004   -3.53420E+003    3.24899E+004    1.46679E+004    1.69310E+004
            8033    8.47209E+004    6.41460E+004    6.41460E+004   -6.59084E+003   -2.97447E+004    9.38907E+004   -9.27014E+003    7.71066E+004    5.29842E+003    2.95850E+004   -7.07304E+003    2.34843E+004    2.67197E+004    2.79161E+004
            8034    5.42374E+004    4.57979E+004    4.57979E+004    2.20288E+003   -1.49393E+004    6.07373E+004   -1.10205E+004    4.75439E+004    6.61158E+003    2.35895E+004    2.86033E+003    2.86121E+004    2.14916E+003    5.94060E+003
            8035    5.38473E+004    4.39421E+004    4.39421E+004   -3.58211E+003   -1.45420E+004    5.84841E+004   -8.60603E+003    5.12469E+004    5.85130E+003    1.88660E+004    1.10079E+003    2.38107E+004    6.64849E+003    1.64549E+004
            8036    5.74329E+004    4.40779E+004    4.40779E+004   -4.93021E+003   -1.91197E+004    6.31977E+004   -6.67599E+003    5.32707E+004    5.12165E+003    1.48339E+004    7.23977E+001    1.56290E+004    1.21508E+004    2.55210E+004
            8037    4.64153E+004    2.20220E+004   -3.15338E+004   -2.96195E+003   -3.15338E+004    5.35557E+004    4.15792E+003   -2.26184E+004   -4.60064E+003   -4.92964E+003   -2.94347E+003    2.61515E+004   -1.38484E+002    5.75118E+003
            8038    4.69049E+004    2.32424E+004   -3.08615E+004   -1.65449E+003   -3.08615E+004    5.41039E+004    3.09121E+003   -2.42065E+004   -3.86223E+003   -3.94914E+003   -1.46226E+003    2.16766E+004   -6.96737E+002    1.61556E+004
            8039    4.83305E+004    2.64318E+004   -2.93713E+004   -8.81359E+002   -2.93713E+004    5.58031E+004    1.27364E+003   -1.60345E+004   -1.44815E+003   -1.47662E+003   -8.96156E+002    1.35880E+004   -5.12504E+002    2.43641E+004
            8040    5.74104E+004    2.05321E+004   -4.33363E+004    3.97883E+003   -4.33363E+004    6.38684E+004    6.27512E+003   -5.16177E+004    1.48799E+003   -2.34036E+004    3.09020E+003    2.88798E+004   -2.90872E+003    5.95552E+003
            8041    5.58690E+004    1.75696E+004   -4.21235E+004    8.91015E+003   -4.21235E+004    5.96931E+004    5.21459E+003   -5.43284E+004    7.30347E+002   -1.83834E+004    2.00931E+003    2.38433E+004   -8.14896E+003    1.65852E+004
            8042    5.82079E+004    2.04180E+004   -4.32674E+004    7.18401E+003   -4.32674E+004    6.36854E+004    5.22180E+003   -5.46671E+004   -2.78808E+003   -1.50279E+004    2.15059E+003    1.57089E+004   -1.27149E+004    2.53521E+004
            8043    9.19641E+004    2.00647E+004   -8.07673E+004   -1.50538E+003   -8.07673E+004    1.00832E+005    2.07360E+004   -8.59919E+004   -7.53195E+003   -5.26323E+004   -2.04380E+003    4.46153E+004   -5.43801E+003    5.33629E+003
            8044    8.67618E+004    1.87641E+004   -7.36651E+004    6.01951E+003   -7.36651E+004    9.24292E+004    1.62938E+004   -8.46175E+004   -7.06286E+003   -4.30997E+004    1.28099E+003    3.77601E+004   -1.60565E+004    1.64089E+004
            8045    8.86670E+004    2.81781E+004   -6.97423E+004    5.11248E+003   -6.97423E+004    9.79204E+004    1.21506E+004   -8.14970E+004   -7.97878E+003   -3.34993E+004    5.02637E+003    2.56084E+004   -2.78293E+004    2.83944E+004
            8046    6.08150E+005    1.99638E+004   -6.68688E+005   -2.05342E+005   -6.68688E+005    6.88652E+005    2.84689E+005   -5.00418E+005   -2.21115E+005   -4.48599E+005   -1.84352E+005    3.11476E+005    7.49640E+004    1.25553E+004
            8047    5.40709E+005   -1.91071E+004   -6.24539E+005   -1.89703E+005   -6.24539E+005    6.05432E+005    2.77783E+005   -4.74239E+005   -2.13487E+005   -4.28355E+005   -1.91507E+005    2.81214E+005    2.84325E+004   -2.10019E+004
            8048    4.80698E+005   -6.36349E+004   -6.02752E+005   -2.18802E+005   -6.02752E+005    5.39117E+005    2.95063E+005   -4.18524E+005   -2.27158E+005   -4.37418E+005   -2.20613E+005    2.44474E+005    5.89698E+003   -4.48497E+004
            8049    6.65994E+005    1.04598E+003   -7.52681E+005   -2.43644E+005   -7.52681E+005    7.53727E+005    3.31760E+005   -5.50292E+005   -2.59211E+005   -5.01742E+005   -2.34326E+005    3.51118E+005    5.08702E+004    1.23452E+004
            8050    5.87135E+005   -3.20296E+004   -6.88885E+005   -2.15085E+005   -6.88885E+005    6.56855E+005    3.12000E+005   -5.16831E+005   -2.42675E+005   -4.77532E+005   -2.15793E+005    3.05990E+005    1.88683E+004   -1.38458E+004
            8051    5.18524E+005   -8.46085E+004   -6.64506E+005   -2.45499E+005   -6.64506E+005    5.79898E+005    3.31538E+005   -4.57090E+005   -2.56799E+005   -4.91548E+005   -2.46266E+005    2.63573E+005    4.14063E+003   -3.00690E+004
            8052    7.00842E+005   -1.20333E+004   -8.04864E+005   -2.67934E+005   -8.04864E+005    7.92831E+005    3.61611E+005   -5.80835E+005   -2.83358E+005   -5.34671E+005   -2.66803E+005    3.75290E+005    1.81556E+004    4.86798E+003
            8053    6.13231E+005   -3.91165E+004   -7.25024E+005   -2.29755E+005   -7.25024E+005    6.85908E+005    3.31298E+005   -5.40270E+005   -2.59075E+005   -5.04985E+005   -2.29836E+005    3.20063E+005    6.90361E+003   -4.84431E+003
            8054    5.40560E+005   -9.64458E+004   -7.00200E+005   -2.61151E+005   -7.00200E+005    6.03754E+005    3.52599E+005   -4.79030E+005   -2.73757E+005   -5.22793E+005   -2.61247E+005    2.74824E+005    1.56128E+003   -1.03604E+004
            8055    2.84270E+005    2.80767E+005    2.80767E+005    7.91785E+004   -4.43727E+004    3.25139E+005   -1.05191E+005    2.09701E+005    7.79286E+004    1.56566E+005    8.10780E+004    1.47836E+005    2.32601E+003    5.56192E+004
            8056    3.11318E+005    3.20725E+005    3.20725E+005    9.82117E+004   -3.50411E+004    3.55766E+005   -1.27965E+005    2.32825E+005    9.44908E+004    1.88012E+005    1.01392E+005    1.60711E+005    3.57752E+003    6.12313E+004
            8057    3.43563E+005    3.76899E+005    3.76899E+005    1.24599E+005   -1.43814E+004    3.91280E+005   -1.62372E+005    2.68404E+005    1.20581E+005    2.38680E+005    1.27856E+005    1.76614E+005    4.15577E+003    6.12795E+004
            8058    3.84897E+005    4.43182E+005    4.43182E+005    1.52458E+005    6.69256E+003    4.36489E+005   -2.00778E+005    3.13085E+005    1.50143E+005    2.96788E+005    1.55401E+005    1.95800E+005    4.26118E+003    6.40759E+004
            8059    4.28764E+005    5.18533E+005    5.18533E+005    1.85905E+005    3.46388E+004    4.83894E+005   -2.46359E+005    3.60958E+005    1.85618E+005    3.65390E+005    1.88068E+005    2.17276E+005    4.09912E+003    5.85308E+004
            8060    2.96677E+005    2.76138E+005    2.76138E+005    6.12376E+004   -6.23552E+004    3.38493E+005   -9.16734E+004    2.26853E+005    6.05130E+004    1.48155E+005    6.63526E+004    1.59269E+005    1.16745E+004    3.78832E+004
            8061    3.27360E+005    3.26317E+005    3.26317E+005    8.53410E+004   -4.63860E+004    3.72703E+005   -1.21757E+005    2.56671E+005    8.35316E+004    1.90095E+005    9.16457E+004    1.74163E+005    1.51243E+004    4.05119E+004
            8062    3.63752E+005    3.79059E+005    3.79059E+005    1.06715E+005   -3.40371E+004    4.13096E+005   -1.50579E+005    2.92316E+005    1.07080E+005    2.30846E+005    1.13810E+005    1.92303E+005    1.76687E+004    4.43721E+004
            8063    4.08831E+005    4.49425E+005    4.49425E+005    1.33459E+005   -1.23133E+004    4.61738E+005   -1.90190E+005    3.42578E+005    1.40702E+005    2.90370E+005    1.39498E+005    2.14414E+005    1.79746E+004    4.34806E+004
            8064    4.56279E+005    5.21956E+005    5.21956E+005    1.61824E+005    8.84405E+003    5.13112E+005   -2.30875E+005    3.92021E+005    1.76427E+005    3.49760E+005    1.66437E+005    2.38273E+005    1.64054E+004    4.15751E+004
            8065    2.97786E+005    2.79606E+005    2.79606E+005    4.75608E+004   -5.61724E+004    3.35779E+005   -9.03316E+004    2.52043E+005    5.13527E+004    1.68049E+005    5.15929E+004    1.54507E+005    2.58190E+004    2.21335E+004
            8066    3.33786E+005    3.27399E+005    3.27399E+005    6.87166E+004   -4.93805E+004    3.76780E+005   -1.15578E+005    2.80650E+005    7.08397E+004    2.02040E+005    7.38558E+004    1.72191E+005    3.45483E+004    2.61818E+004
            8067    3.84990E+005    4.01179E+005    4.01179E+005    9.75565E+004   -3.18396E+004    4.33019E+005   -1.55632E+005    3.30470E+005    1.03239E+005    2.60841E+005    1.02816E+005    1.96745E+005    3.90820E+004    2.94596E+004
            8068    4.39135E+005    4.75895E+005    4.75895E+005    1.27493E+005   -1.73688E+004    4.93264E+005   -1.95340E+005    3.79510E+005    1.36385E+005    3.18014E+005    1.31619E+005    2.24880E+005    4.00058E+004    2.85599E+004
            8069    5.00758E+005    5.64162E+005    5.64162E+005    1.62311E+005    3.17339E+003    5.60989E+005   -2.43215E+005    4.38203E+005    1.76979E+005    3.87645E+005    1.65021E+005    2.56660E+005    3.70331E+004    2.56875E+004
            8070    2.77870E+005    2.43685E+005    2.43685E+005    2.46610E+004   -6.88861E+004    3.12571E+005   -6.64867E+004    2.38372E+005    3.50168E+004    1.51722E+005    1.27211E+004    1.33130E+005    4.87165E+004    8.19825E+003
            8071    3.32903E+005    3.16718E+005    3.16718E+005    5.10625E+004   -5.67226E+004    3.73441E+005   -1.03686E+005    2.89554E+005    6.60901E+004    2.04022E+005    4.09464E+004    1.59017E+005    6.04234E+004    1.71906E+004
            8072    3.84676E+005    3.82301E+005    3.82301E+005    7.88804E+004   -5.03506E+004    4.32651E+005   -1.36943E+005    3.30257E+005    9.35822E+004    2.51326E+005    6.59227E+004    1.86664E+005    6.55842E+004    1.33024E+004
            8073    4.42801E+005    4.63933E+005    4.63933E+005    1.13690E+005   -3.37878E+004    4.97721E+005   -1.81278E+005    3.81369E+005    1.29945E+005    3.11731E+005    1.02158E+005    2.18657E+005    6.65745E+004    1.25750E+004
            8074    5.03813E+005    5.45737E+005    5.45737E+005    1.48703E+005   -2.10196E+004    5.66756E+005   -2.24473E+005    4.32094E+005    1.64747E+005    3.71086E+005    1.37587E+005    2.53813E+005    6.20426E+004    5.71861E+003
            8075    5.46818E+005    5.71488E+005    5.71488E+005    1.63584E+005   -4.98624E+004    6.21350E+005   -2.28403E+005    4.37152E+005    1.83219E+005    3.84816E+005    1.17174E+005    2.63979E+005    1.01773E+005   -1.37217E+004
            8076    4.80430E+005    4.78080E+005    4.78080E+005    1.21597E+005   -6.82680E+004    5.46348E+005   -1.77136E+005    3.81155E+005    1.40855E+005    3.24412E+005    6.61416E+004    2.19282E+005    1.05708E+005   -3.95514E+003
            8077    4.17709E+005    4.00256E+005    4.00256E+005    8.75644E+004   -7.41292E+004    4.74385E+005   -1.37897E+005    3.35601E+005    1.07117E+005    2.73258E+005    3.33168E+004    1.80555E+005    1.01802E+005    9.65004E+003
            8078    3.59991E+005    3.24170E+005    3.24170E+005    5.48956E+004   -8.47158E+004    4.08885E+005   -9.81164E+004    2.88911E+005    7.32049E+004    2.20197E+005    9.47035E+002    1.48701E+005    9.17768E+004    1.34091E+004
            8079    2.97945E+005    2.55513E+005    2.55513E+005    3.30033E+004   -8.29820E+004    3.38495E+005   -6.85114E+004    2.38580E+005    4.73264E+004    1.70043E+005   -1.18347E+004    1.19585E+005    7.99446E+004    1.70928E+004
            8080    2.39461E+005    1.89644E+005    1.89644E+005    1.43246E+004   -8.31882E+004    2.72833E+005   -4.02603E+004    1.86212E+005    2.43792E+004    1.22815E+005   -2.64128E+004    8.77241E+004    7.15628E+004    2.32551E+004
            8081    1.76379E+005    1.30360E+005    1.30360E+005    2.89199E+003   -7.09372E+004    2.01297E+005   -2.07715E+004    1.34365E+005    1.21935E+004    7.79905E+004   -2.78695E+004    5.78825E+004    5.86023E+004    2.69905E+004
            8082    1.52639E+005    1.18886E+005    1.18886E+005   -6.35862E+002   -5.30556E+004    1.71941E+005   -2.17314E+004    1.29941E+005    3.41032E+003    7.31366E+004   -1.13527E+004    6.80447E+004    3.23976E+004    7.07967E+003
            8083    1.56844E+005    1.22687E+005    1.22687E+005   -4.60042E+003   -5.25292E+004    1.75216E+005   -2.18524E+004    1.38876E+005   -1.36586E+003    7.31670E+004   -6.24387E+003    7.81588E+004    1.04845E+004   -6.56634E+002
            8084    2.06488E+005    1.66543E+005    1.66543E+005    1.01614E+004   -6.75188E+004    2.34062E+005   -3.63952E+004    1.68566E+005    1.16249E+004    1.02273E+005   -4.71205E+003    9.76565E+004    3.67328E+004   -2.16706E+003
            8085    2.00132E+005    1.55330E+005    1.55330E+005    3.28541E+003   -7.14066E+004    2.26736E+005   -2.90695E+004    1.64061E+005    1.50009E+003    8.39438E+004    1.76453E+003    1.04731E+005    1.05219E+004   -3.62752E+003
            8086    2.24760E+005    1.65296E+005    1.65296E+005   -1.24449E+003   -9.03552E+004    2.55652E+005   -2.45655E+004    1.77952E+005   -1.76630E+002    7.61366E+004   -2.26341E+003    1.21449E+005    8.61629E+003   -4.38597E+003
            8087    2.45064E+005    1.87716E+005    1.87716E+005    1.09058E+004   -9.20267E+004    2.79743E+005   -3.55317E+004    1.86181E+005    1.11954E+004    8.44423E+004    1.09573E+004    1.34897E+005    4.81617E+003    2.03432E+003
            8088    2.52516E+005    1.97990E+005    1.97990E+005   -9.05737E+002   -8.61047E+004    2.84095E+005   -3.69932E+004    2.16443E+005    2.24073E+004    8.94779E+004   -9.05555E+002    1.37647E+005    8.96283E+002    1.02677E+004
            8089    2.54356E+005    2.49134E+005    2.49134E+005    4.33283E+004   -3.52354E+004    2.84369E+005   -8.57423E+004    2.24522E+005    6.48656E+004    1.52994E+005    3.93668E+004    1.24932E+005   -5.86994E+001    4.90209E+004
            8090    2.37872E+005    1.97580E+005    1.97580E+005    1.42019E+004   -7.12036E+004    2.68784E+005   -4.68596E+004    1.98702E+005    1.87259E+004    1.13728E+005    8.12512E+003    1.20791E+005    2.98163E+004    3.54421E+002
            8091    2.70459E+005    2.32307E+005    2.32307E+005    1.90678E+004   -7.19103E+004    3.04217E+005   -5.98214E+004    2.32085E+005    2.88176E+004    1.31554E+005    1.90923E+004    1.42206E+005    1.54166E+004    6.29262E+003
            8092    2.81105E+005    2.54470E+005    2.54470E+005    3.74005E+004   -6.30643E+004    3.17534E+005   -7.62686E+004    2.35304E+005    5.08680E+004    1.38539E+005    3.93992E+004    1.47725E+005    5.58476E+003    3.93058E+004
            8093    2.68303E+005    2.47152E+005    2.47152E+005    6.23951E+004   -6.05985E+004    3.07750E+005   -8.29829E+004    1.87116E+005    6.18785E+004    1.23604E+005    6.34656E+004    1.37296E+005    1.06428E+003    6.24985E+004
            8094    3.06541E+005    4.06508E+004   -3.09709E+005   -9.09034E+004   -3.09709E+005    3.50360E+005    1.19987E+005   -2.28727E+005   -8.56521E+004   -1.79832E+005   -9.44774E+004    1.59941E+005    4.50087E+003   -5.49141E+004
            8095    3.45387E+005    2.22809E+004   -3.70897E+005   -1.16427E+005   -3.70897E+005    3.93178E+005    1.55015E+005   -2.71163E+005   -1.12887E+005   -2.30762E+005   -1.21394E+005    1.77864E+005    6.93876E+003   -6.13104E+004
            8096    3.89064E+005   -8.46867E+003   -4.48855E+005   -1.51753E+005   -4.48855E+005    4.40387E+005    2.03026E+005   -3.21095E+005   -1.51707E+005   -3.01754E+005   -1.55616E+005    1.99199E+005    6.88418E+003   -5.84390E+004
            8097    4.35450E+005   -3.60262E+004   -5.26579E+005   -1.85722E+005   -5.26579E+005    4.90552E+005    2.49442E+005   -3.70547E+005   -1.89770E+005   -3.69875E+005   -1.88681E+005    2.21947E+005    6.72599E+003   -5.49692E+004
            8098    3.16284E+005    4.99410E+004   -3.07743E+005   -6.50087E+004   -3.07743E+005    3.57684E+005    1.07604E+005   -2.62709E+005   -6.92541E+004   -1.82186E+005   -7.13710E+004    1.65962E+005    2.84377E+004   -2.86378E+004
            8099    3.72347E+005    2.78608E+004   -3.91095E+005   -9.79551E+004   -3.91095E+005    4.18955E+005    1.53730E+005   -3.18977E+005   -1.07365E+005   -2.50040E+005   -1.03784E+005    1.92890E+005    3.39129E+004   -2.99549E+004
            8100    4.25499E+005    1.35511E+004   -4.64741E+005   -1.28246E+005   -4.64741E+005    4.78292E+005    1.93145E+005   -3.66391E+005   -1.40860E+005   -3.06139E+005   -1.32437E+005    2.20796E+005    3.54733E+004   -2.73351E+004
            8101    4.84575E+005   -4.43776E+003   -5.47702E+005   -1.60049E+005   -5.47702E+005    5.43265E+005    2.37396E+005   -4.22620E+005   -1.78813E+005   -3.70201E+005   -1.63175E+005    2.51381E+005    3.35690E+004   -2.57446E+004
            8102    5.38801E+005    3.85479E+004   -5.71941E+005   -1.62848E+005   -5.71941E+005    6.10488E+005    2.32080E+005   -4.41339E+005   -1.78503E+005   -3.85548E+005   -1.32189E+005    2.66232E+005    8.73307E+004    7.88616E+003
            8103    4.69713E+005    4.96498E+004   -4.82257E+005   -1.24451E+005   -4.82257E+005    5.31907E+005    1.85686E+005   -3.86412E+005   -1.40349E+005   -3.26307E+005   -9.04017E+004    2.23658E+005    8.98086E+004   -8.50167E+002
            8104    4.04063E+005    5.89304E+004   -3.97841E+005   -8.70728E+004   -3.97841E+005    4.56772E+005    1.41995E+005   -3.36535E+005   -1.04284E+005   -2.68259E+005   -5.34407E+004    1.87030E+005    8.25281E+004   -5.27802E+003
            8105    3.49006E+005    6.39121E+004   -3.28347E+005   -5.21870E+004   -3.28347E+005    3.92259E+005    1.05541E+005   -3.00717E+005   -7.30762E+004   -2.17188E+005   -2.63576E+004    1.58862E+005    7.27056E+004   -1.35590E+004
            8106    3.00693E+005    7.73367E+004   -2.61377E+005   -2.59049E+004   -2.61377E+005    3.38713E+005    6.99816E+004   -2.56002E+005   -4.56977E+004   -1.71604E+005    7.35658E+003    1.26141E+005    7.34801E+004   -1.94659E+004
            8107    2.35734E+005    8.29709E+004   -1.85356E+005   -1.15544E+004   -1.85356E+005    2.68327E+005    3.79797E+004   -1.85266E+005   -2.40298E+004   -1.16224E+005    2.63144E+004    8.87249E+004    7.02959E+004   -2.20147E+004
            8108    1.83382E+005    6.94704E+004   -1.39427E+005   -4.97477E+003   -1.39427E+005    2.08898E+005    2.49772E+004   -1.42914E+005   -1.41716E+004   -8.54580E+004    2.46980E+004    6.19528E+004    5.93564E+004   -2.69653E+004
            8109    1.28256E+005    5.11207E+004   -9.44219E+004    2.06632E+003   -9.44219E+004    1.45543E+005    1.37450E+004   -1.03758E+005   -8.02603E+003   -5.13136E+004    1.81047E+004    3.90560E+004    4.41757E+004   -2.78754E+004
            8110    1.16730E+005    3.68729E+004   -9.24843E+004    4.99606E+003   -9.24843E+004    1.29357E+005    1.68718E+004   -1.06257E+005   -2.86490E+003   -5.54752E+004    7.72483E+003    5.07091E+004    2.53717E+004   -1.34586E+004
            8111    1.24274E+005    3.59556E+004   -1.01009E+005    4.54675E+003   -1.01009E+005    1.36965E+005    2.01689E+004   -1.14823E+005   -1.18951E+003   -6.43437E+004    5.02649E+003    5.99407E+004    8.39814E+003   -3.36689E+003
            8112    1.67089E+005    5.54634E+004   -1.32922E+005   -2.64374E+003   -1.32922E+005    1.88385E+005    2.67007E+004   -1.41521E+005   -5.81553E+003   -8.31158E+004    8.82936E+003    7.61863E+004    3.23130E+004   -4.14574E+003
            8113    1.74156E+005    5.47789E+004   -1.40506E+005   -1.29460E+003   -1.40506E+005    1.95285E+005    2.90073E+004   -1.51758E+005   -2.30649E+003   -8.49189E+004    2.03571E+002    8.74617E+004    1.06470E+004    9.94971E+002
            8114    2.12298E+005    7.06642E+004   -1.69417E+005   -6.46492E+003   -1.69417E+005    2.40081E+005    3.50724E+004   -1.76368E+005   -1.18276E+004   -1.00519E+005    7.12937E+003    1.01819E+005    3.67882E+004    9.05190E+002
            8115    2.09519E+005    8.23158E+004   -1.55116E+005    3.81953E+003   -1.55116E+005    2.37432E+005    2.29937E+004   -1.71413E+005    2.01527E+003   -7.66195E+004    5.62313E+003    1.11051E+005    1.03139E+004    5.83327E+003
            8116    2.59152E+005    7.22099E+004   -2.20713E+005   -2.12740E+004   -2.20713E+005    2.92923E+005    5.65924E+004   -2.16010E+005   -2.47790E+004   -1.30662E+005   -1.43365E+004    1.31934E+005    2.87125E+004    3.67864E+003
            8117    2.36813E+005    8.99217E+004   -1.80498E+005   -1.01433E+004   -1.80498E+005    2.70420E+005    3.35731E+004   -1.79040E+005   -6.26077E+003   -8.45962E+004   -9.86239E+003    1.29192E+005    6.82741E+003    7.37445E+002
            8118    2.51976E+005    9.05353E+004   -1.94311E+005   -5.17013E+002   -1.94311E+005    2.84847E+005    3.47643E+004   -2.09861E+005   -1.72042E+004   -8.63410E+004   -7.47680E+002    1.38033E+005    3.39445E+003   -6.04301E+003
            8119    2.54102E+005    4.28069E+004   -2.42590E+005   -4.09086E+004   -2.42590E+005    2.85397E+005    8.02306E+004   -2.19699E+005   -5.97202E+004   -1.41932E+005   -3.90394E+004    1.28112E+005    1.12692E+003   -4.63280E+004
            8120    2.84493E+005    5.91546E+004   -2.61195E+005   -3.80268E+004   -2.61195E+005    3.20350E+005    8.00226E+004   -2.42698E+005   -4.90007E+004   -1.48426E+005   -4.26407E+004    1.49608E+005    1.52578E+004   -2.90543E+004
            8121    2.77887E+005    5.85467E+004   -2.59804E+005   -6.58340E+004   -2.59804E+005    3.18351E+005    8.90304E+004   -1.99097E+005   -6.42340E+004   -1.33773E+005   -6.90844E+004    1.44255E+005    3.76975E+003   -5.83882E+004
            8122    6.10283E+005    6.62981E+005    6.62981E+005    2.06121E+005   -3.01050E+004    6.93086E+005   -2.79666E+005    4.90336E+005    2.24998E+005    4.39651E+005    1.74348E+005    3.10538E+005    8.58931E+004   -2.23377E+004
            8123    5.65765E+005    6.32570E+005    6.32570E+005    1.85672E+005   -3.55515E+003    6.36125E+005   -2.71562E+005    4.86524E+005    2.02481E+005    4.33653E+005    1.78552E+005    2.90119E+005    5.16673E+004    3.08785E+003
            8124    5.61314E+005    6.48455E+005    6.48455E+005    1.96110E+005    2.02743E+004    6.28181E+005   -2.88280E+005    4.93394E+005    2.15784E+005    4.51540E+005    1.97515E+005    2.89091E+005    3.10509E+004    2.03201E+004
            8125    5.04724E+005    5.97421E+005    5.97421E+005    1.91871E+005    3.21640E+004    5.65257E+005   -2.73818E+005    4.42275E+005    2.13889E+005    4.12879E+005    1.94687E+005    2.62613E+005    1.39057E+004    3.40703E+004
            8126    4.74421E+005    5.93274E+005    5.93274E+005    2.18222E+005    5.99487E+004    5.33325E+005   -2.90482E+005    4.08353E+005    2.19675E+005    4.32132E+005    2.19638E+005    2.39742E+005    3.65657E+003    4.98670E+004
            8127    6.65566E+005    7.49267E+005    7.49267E+005    2.46610E+005   -5.53052E+003    7.54797E+005   -3.30115E+005    5.41294E+005    2.65283E+005    4.92109E+005    2.32954E+005    3.52016E+005    5.87242E+004   -1.87787E+004
            8128    6.18950E+005    7.05324E+005    7.05324E+005    2.16574E+005    9.34985E+003    6.95974E+005   -3.10416E+005    5.32063E+005    2.33136E+005    4.84951E+005    2.13160E+005    3.21739E+005    3.51738E+004   -2.71321E+002
            8129    6.14409E+005    7.23008E+005    7.23008E+005    2.26547E+005    3.58650E+004    6.87143E+005   -3.28473E+005    5.41581E+005    2.50285E+005    5.08133E+005    2.27002E+005    3.17613E+005    2.11219E+004    1.28467E+004
            8130    5.46323E+005    6.60039E+005    6.60039E+005    2.16895E+005    4.96405E+004    6.10398E+005   -3.08858E+005    4.83482E+005    2.44508E+005    4.63972E+005    2.18095E+005    2.83984E+005    9.65549E+003    2.30117E+004
            8131    5.12153E+005    6.55480E+005    6.55480E+005    2.45582E+005    8.13576E+004    5.74122E+005   -3.27473E+005    4.46887E+005    2.48175E+005    4.88057E+005    2.46188E+005    2.58921E+005    2.66732E+003    3.23244E+004
            8132    6.99096E+005    8.01380E+005    8.01380E+005    2.71602E+005    9.00954E+003    7.92370E+005   -3.60664E+005    5.71171E+005    2.89629E+005    5.22520E+005    2.69842E+005    3.77710E+005    2.06387E+004   -8.65403E+003
            8133    6.49832E+005    7.49072E+005    7.49072E+005    2.35701E+005    1.84462E+004    7.30626E+005   -3.34406E+005    5.58902E+005    2.52243E+005    5.15651E+005    2.35326E+005    3.40447E+005    1.21485E+004   -5.07375E+001
            8134    6.42592E+005    7.63244E+005    7.63244E+005    2.43814E+005    4.46511E+004    7.18593E+005   -3.50570E+005    5.66647E+005    2.69582E+005    5.38265E+005    2.43862E+005    3.33132E+005    7.59006E+003    4.42478E+003
            8135    5.68898E+005    6.95517E+005    6.95517E+005    2.32284E+005    6.05327E+004    6.34985E+005   -3.29445E+005    5.05437E+005    2.62307E+005    4.93607E+005    2.32420E+005    2.95595E+005    3.52794E+003    7.56781E+003
            8136    5.34776E+005    6.91885E+005    6.91885E+005    2.61754E+005    9.31203E+004    5.98765E+005   -3.48920E+005    4.69112E+005    2.64464E+005    5.20456E+005    2.61840E+005    2.70385E+005    1.04275E+003    1.22043E+004
            8137    1.27164E+005    9.56963E+004    9.56963E+004   -1.45998E+003   -4.82294E+004    1.43926E+005   -1.53356E+004    1.05018E+005    9.68301E+003    5.18481E+004   -1.55243E+004    3.82780E+004   -4.35151E+004   -2.95420E+004
            8138    1.13554E+005    9.37928E+004    9.37928E+004   -3.20945E+003   -3.11113E+004    1.24904E+005   -1.98240E+004    1.05419E+005    7.46512E+003    5.70439E+004   -5.03698E+003    4.97515E+004   -2.35950E+004   -1.37172E+004
            8139    1.18993E+005    1.02445E+005    1.02445E+005    1.18197E+003   -2.86155E+004    1.31060E+005   -2.50037E+004    1.10120E+005    7.60870E+003    6.64010E+004    1.00132E+003    5.78724E+004   -7.71092E+003   -3.85904E+003
            8140    8.45754E+004    6.40473E+004    6.40473E+004   -6.60957E+003   -2.96653E+004    9.37125E+004   -9.25748E+003    7.70154E+004    5.28169E+003    2.95188E+004   -7.02806E+003    2.34307E+004   -2.66392E+004   -2.79269E+004
            8141    7.69048E+004    6.12725E+004    6.12725E+004   -9.79155E+003   -2.03764E+004    8.16489E+004   -1.03682E+004    7.52398E+004    6.94695E+002    3.39438E+004   -3.53392E+003    3.23967E+004   -1.46046E+004   -1.69493E+004
            8142    8.06367E+004    6.52493E+004    6.52493E+004   -4.31118E+003   -2.31339E+004    8.83832E+004   -1.26014E+004    7.54525E+004   -1.40521E+002    4.15730E+004   -3.62831E+003    3.84412E+004   -5.06011E+003   -5.61597E+003
            8143    5.73044E+004    4.39528E+004    4.39528E+004   -4.82941E+003   -1.91554E+004    6.31082E+004   -6.65601E+003    5.30463E+004    5.11561E+003    1.47425E+004    1.09954E+002    1.55412E+004   -1.20381E+004   -2.55509E+004
            8144    5.37771E+004    4.38359E+004    4.38359E+004   -3.59803E+003   -1.45868E+004    5.84227E+004   -8.55036E+003    5.11587E+004    5.83851E+003    1.87295E+004    1.08307E+003    2.37681E+004   -6.64765E+003   -1.64777E+004
            8145    5.39681E+004    4.54576E+004    4.54576E+004    2.24303E+003   -1.50331E+004    6.04908E+004   -1.08892E+004    4.71162E+004    6.59499E+003    2.31803E+004    2.89225E+003    2.85395E+004   -2.11754E+003   -5.92733E+003
            8146    4.83578E+004    2.62685E+004   -2.95618E+004   -8.05738E+002   -2.95618E+004    5.58304E+004    1.36633E+003   -1.80665E+004   -1.53082E+003   -1.64617E+003   -9.22011E+002    1.36094E+004    6.82014E+002   -2.43651E+004
            8147    4.69660E+004    2.32087E+004   -3.09609E+004   -1.62965E+003   -3.09609E+004    5.41696E+004    3.12729E+003   -2.45633E+004   -3.87238E+003   -4.05784E+003   -1.45166E+003    2.16964E+004    7.20283E+002   -1.61834E+004
            8148    4.64423E+004    2.18119E+004   -3.17656E+004   -2.98352E+003   -3.17656E+004    5.35775E+004    4.31239E+003   -2.34325E+004   -4.65767E+003   -5.30985E+003   -2.96964E+003    2.61561E+004    1.53701E+002   -5.77374E+003
            8149    5.85752E+004    2.05282E+004   -4.35540E+004    7.22646E+003   -4.35540E+004    6.40822E+004    5.26643E+003   -5.50209E+004   -2.82643E+003   -1.51994E+004    2.22652E+003    1.57407E+004    1.29812E+004   -2.54367E+004
            8150    5.60200E+004    1.75922E+004   -4.22424E+004    8.96113E+003   -4.22424E+004    5.98346E+004    5.22971E+003   -5.44939E+004    7.53117E+002   -1.84784E+004    2.03617E+003    2.38866E+004    8.17594E+003   -1.66316E+004
            8151    5.79734E+004    2.05328E+004   -4.39150E+004    3.98595E+003   -4.39150E+004    6.44479E+004    6.46542E+003   -5.22512E+004    1.43550E+003   -2.39394E+004    3.10766E+003    2.91031E+004    2.93981E+003   -5.91345E+003
            8152    8.91422E+004    2.83748E+004   -7.01067E+004    5.06411E+003   -7.01067E+004    9.84816E+004    1.22226E+004   -8.18530E+004   -8.02291E+003   -3.37501E+004    5.10521E+003    2.57890E+004    2.80471E+004   -2.83972E+004
            8153    8.67081E+004    1.87535E+004   -7.36157E+004    6.02381E+003   -7.36157E+004    9.23692E+004    1.62795E+004   -8.45674E+004   -7.07385E+003   -4.30183E+004    1.25368E+003    3.77139E+004    1.61078E+004   -1.64540E+004
            8154    9.26059E+004    2.01211E+004   -8.14133E+004   -1.59569E+003   -8.14133E+004    1.01534E+005    2.09626E+004   -8.65942E+004   -7.64161E+003   -5.31152E+004   -2.13104E+003    4.49185E+004    5.43090E+003   -5.34001E+003
            8155    4.74085E+005    5.92856E+005    5.92856E+005    2.18152E+005    5.98819E+004    5.32974E+005   -2.90297E+005    4.07961E+005    2.19537E+005    4.31784E+005    2.19569E+005    2.39559E+005   -3.63615E+003   -5.00307E+004
            8156    5.04943E+005    5.97734E+005    5.97734E+005    1.91897E+005    3.22702E+004    5.65464E+005   -2.73967E+005    4.42596E+005    2.13990E+005    4.13197E+005    1.94714E+005    2.62695E+005   -1.39715E+004   -3.39674E+004
            8157    5.61834E+005    6.49004E+005    6.49004E+005    1.96242E+005    2.02392E+004    6.28765E+005   -2.88495E+005    4.93848E+005    2.15967E+005    4.51917E+005    1.97601E+005    2.89340E+005   -3.13057E+004   -2.01763E+004
            8158    5.66427E+005    6.33261E+005    6.33261E+005    1.86139E+005   -3.70064E+003    6.36962E+005   -2.71900E+005    4.86723E+005    2.02856E+005    4.33990E+005    1.78855E+005    2.90491E+005   -5.20042E+004   -2.84317E+003
            8159    6.10682E+005    6.63600E+005    6.63600E+005    2.06539E+005   -2.99617E+004    6.93561E+005   -2.80059E+005    4.90510E+005    2.25388E+005    4.39984E+005    1.74804E+005    3.10819E+005   -8.59104E+004    2.23541E+004
            8160    5.11958E+005    6.55448E+005    6.55448E+005    2.45738E+005    8.15336E+004    5.73914E+005   -3.27573E+005    4.46678E+005    2.48198E+005    4.88191E+005    2.46331E+005    2.58777E+005   -2.60232E+003   -3.23346E+004
            8161    5.45643E+005    6.59541E+005    6.59541E+005    2.17103E+005    4.98476E+004    6.09694E+005   -3.08830E+005    4.82709E+005    2.44423E+005    4.63778E+005    2.18289E+005    2.83621E+005   -9.47589E+003   -2.31098E+004
            8162    6.13868E+005    7.22382E+005    7.22382E+005    2.26322E+005    3.58567E+004    6.86525E+005   -3.28187E+005    5.41146E+005    2.50038E+005    5.07745E+005    2.26778E+005    3.17312E+005   -2.10636E+004   -1.28412E+004
            8163    6.19666E+005    7.06049E+005    7.06049E+005    2.16981E+005    9.19394E+003    6.96855E+005   -3.10742E+005    5.32371E+005    2.33535E+005    4.85193E+005    2.13497E+005    3.22223E+005   -3.52412E+004    5.82564E+002
            8164    6.66012E+005    7.49741E+005    7.49741E+005    2.46982E+005   -5.61932E+003    7.55361E+005   -3.30368E+005    5.41315E+005    2.65646E+005    4.92252E+005    2.33207E+005    3.52285E+005   -5.89511E+004    1.89587E+004
            8165    5.34604E+005    6.91764E+005    6.91764E+005    2.61860E+005    9.31611E+004    5.98603E+005   -3.48928E+005    4.68859E+005    2.64451E+005    5.20383E+005    2.61950E+005    2.70306E+005   -1.09338E+003   -1.23129E+004
            8166    5.68640E+005    6.95409E+005    6.95409E+005    2.32322E+005    6.07352E+004    6.34674E+005   -3.29489E+005    5.05279E+005    2.62373E+005    4.93632E+005    2.32460E+005    2.95435E+005   -3.56727E+003   -7.64751E+003
            8167    6.42541E+005    7.63306E+005    7.63306E+005    2.43957E+005    4.47569E+004    7.18550E+005   -3.50673E+005    5.66558E+005    2.69737E+005    5.38276E+005    2.44007E+005    3.33139E+005   -7.51732E+003   -4.46437E+003
            8168    6.49674E+005    7.48933E+005    7.48933E+005    2.35823E+005    1.84420E+004    7.30491E+005   -3.34399E+005    5.58597E+005    2.52258E+005    5.15475E+005    2.35465E+005    3.40420E+005   -1.20368E+004   -8.51500E+001
            8169    6.98564E+005    8.00663E+005    8.00663E+005    2.71304E+005    8.89074E+003    7.91772E+005   -3.60286E+005    5.70713E+005    2.89318E+005    5.22018E+005    2.69522E+005    3.77412E+005   -2.08035E+004    8.66145E+003
            8170    2.98070E+005    2.55636E+005    2.55636E+005    3.31878E+004   -8.30375E+004    3.38673E+005   -6.85954E+004    2.38444E+005    4.74130E+004    1.70084E+005   -1.17108E+004    1.19748E+005   -7.99542E+004   -1.68568E+004
            8171    3.60282E+005    3.24400E+005    3.24400E+005    5.50030E+004   -8.48384E+004    4.09239E+005   -9.81883E+004    2.89001E+005    7.33384E+004    2.20494E+005    7.32734E+002    1.48702E+005   -9.18725E+004   -1.33491E+004
            8172    4.18534E+005    4.01275E+005    4.01275E+005    8.80907E+004   -7.40761E+004    4.75351E+005   -1.38430E+005    3.36075E+005    1.07579E+005    2.73874E+005    3.38366E+004    1.81012E+005   -1.02049E+005   -9.61762E+003
            8173    4.81504E+005    4.79331E+005    4.79331E+005    1.22042E+005   -6.82366E+004    5.47568E+005   -1.77712E+005    3.82021E+005    1.41334E+005    3.25151E+005    6.66510E+004    2.19982E+005   -1.05710E+005    4.15910E+003
            8174    5.47332E+005    5.72587E+005    5.72587E+005    1.64114E+005   -4.93029E+004    6.21890E+005   -2.29133E+005    4.37846E+005    1.83851E+005    3.85498E+005    1.18049E+005    2.64500E+005   -1.01423E+005    1.38002E+004
            8175    5.03495E+005    5.45264E+005    5.45264E+005    1.48505E+005   -2.11424E+004    5.66407E+005   -2.24209E+005    4.31791E+005    1.64578E+005    3.70785E+005    1.37264E+005    2.53568E+005   -6.22375E+004   -5.66869E+003
            8176    5.00839E+005    5.63976E+005    5.63976E+005    1.62026E+005    2.90847E+003    5.61068E+005   -2.42970E+005    4.38314E+005    1.76682E+005    3.87554E+005    1.64674E+005    2.56592E+005   -3.74825E+004   -2.55792E+004
            8177    4.56774E+005    5.22284E+005    5.22284E+005    1.61679E+005    8.64184E+003    5.13643E+005   -2.30868E+005    3.92550E+005    1.76354E+005    3.49923E+005    1.66328E+005    2.38539E+005   -1.66677E+004   -4.13915E+004
            8178    4.28769E+005    5.18430E+005    5.18430E+005    1.85824E+005    3.45222E+004    4.83908E+005   -2.46259E+005    3.60926E+005    1.85550E+005    3.65256E+005    1.87970E+005    2.17314E+005   -4.07256E+003   -5.84577E+004
            8179    4.41916E+005    4.62803E+005    4.62803E+005    1.13108E+005   -3.38753E+004    4.96678E+005   -1.80678E+005    3.80794E+005    1.29521E+005    3.10978E+005    1.01537E+005    2.18113E+005   -6.65910E+004   -1.26400E+004
            8180    4.38528E+005    4.74900E+005    4.74900E+005    1.26938E+005   -1.76685E+004    4.92569E+005   -1.94723E+005    3.79035E+005    1.35870E+005    3.17325E+005    1.30975E+005    2.24503E+005   -4.02257E+004   -2.83369E+004
            8181    4.08910E+005    4.49503E+005    4.49503E+005    1.33276E+005   -1.22680E+004    4.61771E+005   -1.90170E+005    3.42914E+005    1.40641E+005    2.90517E+005    1.39354E+005    2.14419E+005   -1.82195E+004   -4.33127E+004
            8182    3.85099E+005    4.43341E+005    4.43341E+005    1.52568E+005    6.59698E+003    4.36744E+005   -2.00835E+005    3.13099E+005    1.50173E+005    2.96778E+005    1.55555E+005    1.95966E+005   -4.32795E+003   -6.40413E+004
            8183    3.83274E+005    3.80288E+005    3.80288E+005    7.80667E+004   -5.08144E+004    4.31102E+005   -1.35847E+005    3.28937E+005    9.27332E+004    2.49880E+005    6.49266E+004    1.85815E+005   -6.57057E+004   -1.32591E+004
            8184    3.83991E+005    3.99636E+005    3.99636E+005    9.66541E+004   -3.22122E+004    4.31849E+005   -1.54693E+005    3.29796E+005    1.02447E+005    2.59815E+005    1.01816E+005    1.96102E+005   -3.93774E+004   -2.92398E+004
            8185    3.64388E+005    3.79766E+005    3.79766E+005    1.06701E+005   -3.39933E+004    4.13760E+005   -1.50825E+005    2.93196E+005    1.07171E+005    2.31541E+005    1.13762E+005    1.92641E+005   -1.78408E+004   -4.39721E+004
            8186    3.44266E+005    3.77967E+005    3.77967E+005    1.24896E+005   -1.40593E+004    3.92027E+005   -1.62935E+005    2.69365E+005    1.20947E+005    2.39675E+005    1.28182E+005    1.77004E+005   -4.24619E+003   -6.10580E+004
            8187    3.32314E+005    3.15932E+005    3.15932E+005    5.06487E+004   -5.68161E+004    3.72748E+005   -1.03255E+005    2.89157E+005    6.58215E+004    2.03501E+005    4.04415E+004    1.58623E+005   -6.04597E+004   -1.72088E+004
            8188    3.33628E+005    3.27052E+005    3.27052E+005    6.85499E+004   -4.95649E+004    3.76617E+005   -1.15346E+005    2.80440E+005    7.06033E+004    2.01785E+005    7.36486E+004    1.72094E+005   -3.46443E+004   -2.60747E+004
            8189    3.27936E+005    3.27060E+005    3.27060E+005    8.52957E+004   -4.62187E+004    3.73279E+005   -1.22046E+005    2.57705E+005    8.37225E+004    1.90677E+005    9.17380E+004    1.74382E+005   -1.55181E+004   -4.06039E+004
            8190    3.12382E+005    3.22179E+005    3.22179E+005    9.86884E+004   -3.47626E+004    3.56942E+005   -1.28702E+005    2.34009E+005    9.50340E+004    1.89139E+005    1.01932E+005    1.61201E+005   -3.67295E+003   -6.14562E+004
            8191    2.77982E+005    2.43583E+005    2.43583E+005    2.44085E+004   -6.90944E+004    3.12678E+005   -6.62991E+004    2.38547E+005    3.48676E+004    1.51647E+005    1.23830E+004    1.33098E+005   -4.88399E+004   -8.24471E+003
            8192    2.97939E+005    2.79968E+005    2.79968E+005    4.80037E+004   -5.60418E+004    3.36010E+005   -9.06434E+004    2.51911E+005    5.16604E+004    1.68158E+005    5.21118E+004    1.54688E+005   -2.55842E+004   -2.23587E+004
            8193    2.97013E+005    2.76487E+005    2.76487E+005    6.13501E+004   -6.23904E+004    3.38878E+005   -9.18156E+004    2.27099E+005    6.06437E+004    1.48347E+005    6.64566E+004    1.59424E+005   -1.15941E+004   -3.80794E+004
            8194    2.84615E+005    2.81593E+005    2.81593E+005    7.98555E+004   -4.39583E+004    3.25551E+005   -1.05830E+005    2.09779E+005    7.83955E+004    1.57271E+005    8.18240E+004    1.48145E+005   -2.40353E+003   -5.53313E+004
            8195    2.68686E+005    2.47565E+005    2.47565E+005    6.23433E+004   -6.05963E+004    3.08161E+005   -8.31040E+004    1.87801E+005    6.19456E+004    1.23923E+005    6.34435E+004    1.37543E+005   -1.12833E+003   -6.24062E+004
            8196    2.54209E+005    2.48682E+005    2.48682E+005    4.33982E+004   -3.56624E+004    2.84345E+005   -8.54727E+004    2.23936E+005    6.46286E+004    1.52318E+005    3.94717E+004    1.25025E+005    1.09683E+002   -4.89893E+004
            8197    2.81338E+005    2.54935E+005    2.54935E+005    3.79379E+004   -6.29325E+004    3.17868E+005   -7.66468E+004    2.35160E+005    5.12361E+004    1.38785E+005    3.99193E+004    1.47829E+005   -5.51198E+003   -3.96479E+004
            8198    2.52653E+005    1.97924E+005    1.97924E+005   -8.02361E+002   -8.64101E+004    2.84335E+005   -3.69040E+004    2.16212E+005    2.23042E+004    8.92013E+004   -7.93521E+002    1.37802E+005   -9.32187E+002   -1.01476E+004
            8199    2.70636E+005    2.32473E+005    2.32473E+005    1.88715E+004   -7.18736E+004    3.04347E+005   -5.98237E+004    2.32515E+005    2.88867E+004    1.31624E+005    1.89602E+004    1.42286E+005   -1.53294E+004   -6.56133E+003
            8200    2.45079E+005    1.87731E+005    1.87731E+005    1.08701E+004   -9.20207E+004    2.79752E+005   -3.55269E+004    1.86261E+005    1.11484E+004    8.45151E+004    1.09170E+004    1.34883E+005   -4.89929E+003   -1.98307E+003
            8201    2.37793E+005    1.97545E+005    1.97545E+005    1.44517E+004   -7.12109E+004    2.68756E+005   -4.69287E+004    1.98332E+005    1.87875E+004    1.13618E+005    8.38081E+003    1.20813E+005   -2.98350E+004   -3.15240E+002
            8202    2.24639E+005    1.65250E+005    1.65250E+005   -1.15384E+003   -9.02733E+004    2.55524E+005   -2.46077E+004    1.77783E+005   -1.30665E+002    7.61067E+004   -2.15291E+003    1.21404E+005   -8.54339E+003    4.33277E+003
            8203    1.99721E+005    1.55049E+005    1.55049E+005    3.26507E+003   -7.12088E+004    2.26257E+005   -2.90350E+004    1.63798E+005    1.48268E+003    8.39019E+004    1.72042E+003    1.04466E+005   -1.05715E+004    3.66333E+003
            8204    1.55922E+005    1.22066E+005    1.22066E+005   -4.69301E+003   -5.20414E+004    1.74108E+005   -2.17773E+004    1.38305E+005   -1.34276E+003    7.29941E+004   -6.31942E+003    7.75940E+004   -1.04499E+004    5.45467E+002
            8205    2.06143E+005    1.66142E+005    1.66142E+005    1.00362E+004   -6.75334E+004    2.33675E+005   -3.62149E+004    1.68263E+005    1.14769E+004    1.02034E+005   -4.86664E+003    9.74444E+004   -3.67293E+004    2.15378E+003
            8206    1.51824E+005    1.18261E+005    1.18261E+005   -7.52802E+002   -5.27238E+004    1.70984E+005   -2.15947E+004    1.29413E+005    3.32645E+003    7.27421E+004   -1.12844E+004    6.77058E+004   -3.21434E+004   -7.12716E+003
            8207    1.77001E+005    1.30779E+005    1.30779E+005    2.94608E+003   -7.12444E+004    2.02023E+005   -2.08267E+004    1.34694E+005    1.22159E+004    7.82916E+004   -2.80274E+004    5.80112E+004   -5.88353E+004   -2.71049E+004
            8208    2.40187E+005    1.90222E+005    1.90222E+005    1.44277E+004   -8.34493E+004    2.73671E+005   -4.04001E+004    1.86683E+005    2.44595E+004    1.23185E+005   -2.64442E+004    8.79354E+004   -7.18514E+004   -2.33850E+004
            8209    3.45495E+005    4.41476E+004   -3.41778E+005   -6.12764E+004   -3.41778E+005    3.85926E+005    1.19636E+005   -3.06042E+005   -7.59681E+004   -2.52083E+005   -3.08557E+004    1.45776E+005   -6.78837E+004    1.62686E+004
            8210    3.98932E+005    3.21616E+004   -4.15968E+005   -9.95368E+004   -4.15968E+005    4.48130E+005    1.61114E+005   -3.44674E+005   -1.11311E+005   -3.11382E+005   -6.06504E+004    1.71937E+005   -7.65384E+004    7.18255E+003
            8211    4.58544E+005    1.34047E+004   -5.02220E+005   -1.40189E+005   -5.02220E+005    5.15624E+005    2.09668E+005   -3.94105E+005   -1.52122E+005   -3.76413E+005   -1.00469E+005    2.04314E+005   -8.25832E+004    1.92589E+003
            8212    5.19408E+005   -5.73568E+003   -5.90434E+005   -1.82409E+005   -5.90434E+005    5.84698E+005    2.59526E+005   -4.43837E+005   -1.93544E+005   -4.39645E+005   -1.45389E+005    2.41609E+005   -8.09500E+004   -9.41609E+003
            8213    5.11222E+005   -5.09301E+004   -6.19333E+005   -1.97159E+005   -6.19333E+005    5.68403E+005    2.89141E+005   -4.60526E+005   -1.99324E+005   -4.66729E+005   -2.01369E+005    2.47535E+005   -3.24134E+004    3.37241E+004
            8214    4.82654E+005   -4.16268E+004   -5.85172E+005   -2.06754E+005   -5.85172E+005    5.43545E+005    2.77851E+005   -4.11498E+005   -2.03568E+005   -4.18912E+005   -2.11072E+005    2.41802E+005   -8.20152E+003    6.46393E+004
            8215    4.48415E+005   -1.73756E+004   -5.18656E+005   -1.55702E+005   -5.18656E+005    5.01281E+005    2.30578E+005   -3.95967E+005   -1.50709E+005   -3.79580E+005   -1.61445E+005    2.18715E+005   -3.49770E+004    3.58556E+004
            8216    4.28661E+005   -1.34408E+004   -4.98275E+005   -1.69535E+005   -4.98275E+005    4.84834E+005    2.27084E+005   -3.55723E+005   -1.63024E+005   -3.42709E+005   -1.75517E+005    2.15951E+005   -9.43407E+003    6.67838E+004
            8217    3.93538E+005    8.98353E+003   -4.32265E+005   -1.17583E+005   -4.32265E+005    4.41248E+005    1.80288E+005   -3.43053E+005   -1.09901E+005   -3.05683E+005   -1.25280E+005    1.92444E+005   -3.57702E+004    3.81815E+004
            8218    3.77090E+005    1.51120E+004   -4.13274E+005   -1.31547E+005   -4.13274E+005    4.28386E+005    1.76570E+005   -3.02122E+005   -1.24480E+005   -2.65832E+005   -1.39397E+005    1.91053E+005   -1.04326E+004    6.89732E+004
            8219    3.33076E+005    3.94649E+004   -3.36083E+005   -7.64600E+004   -3.36083E+005    3.75548E+005    1.24359E+005   -2.82014E+005   -6.71160E+004   -2.21795E+005   -8.41677E+004    1.66172E+005   -3.19123E+004    3.39918E+004
            8220    3.29076E+005    2.81548E+004   -3.46556E+005   -1.04568E+005   -3.46556E+005    3.74711E+005    1.40990E+005   -2.57613E+005   -9.93879E+004   -2.13111E+005   -1.10471E+005    1.68611E+005   -7.75840E+003    6.06254E+004
            8221    2.99060E+005    4.96145E+004   -2.91807E+005   -7.62625E+004   -2.91807E+005    3.41422E+005    1.06152E+005   -2.26817E+005   -7.59202E+004   -1.61409E+005   -8.11263E+004    1.51786E+005   -5.60030E+003    6.66712E+004
            8222    2.73150E+005    2.96476E+004   -2.74357E+005   -4.95770E+004   -2.74357E+005    3.04005E+005    9.80955E+004   -2.45233E+005   -7.39161E+004   -1.73713E+005   -4.66570E+004    1.32448E+005   -1.93923E+003    5.33817E+004
            8223    2.95371E+005    4.29447E+004   -2.86453E+005   -4.51605E+004   -2.86453E+005    3.29398E+005    9.62230E+004   -2.63280E+005   -5.03764E+004   -1.87226E+005   -5.10660E+004    1.46550E+005   -1.92670E+004    3.19671E+004
            8224    2.57100E+005    7.44321E+004   -2.12208E+005   -1.96495E+003   -2.12208E+005    2.86640E+005    4.65801E+004   -2.29400E+005   -2.09207E+004   -1.16561E+005   -2.25900E+003    1.34938E+005   -5.40762E+003    5.99391E+003
            8225    2.36836E+005    8.26567E+004   -1.86526E+005   -1.01390E+004   -1.86526E+005    2.69182E+005    3.80027E+004   -1.88905E+005   -6.26209E+003   -9.81462E+004   -9.59967E+003    1.26079E+005   -9.22661E+003   -5.44020E+002
            8226    2.12117E+005    7.08601E+004   -1.68336E+005   -3.10360E+003   -1.68336E+005    2.39197E+005    3.35267E+004   -1.79460E+005    5.55466E+003   -1.05850E+005   -2.84309E+002    1.04238E+005   -1.23330E+004   -6.97528E+003
            8227    1.56208E+005    4.46011E+004   -1.28986E+005    2.53801E+002   -1.28986E+005    1.73587E+005    2.80436E+004   -1.40968E+005    2.04125E+003   -8.84919E+004    2.31969E+003    7.25475E+004   -1.14004E+004    2.01576E+002
            8228    1.25106E+005    2.46885E+004   -1.11471E+005   -1.59622E+003   -1.11471E+005    1.36160E+005    2.94597E+004   -1.18652E+005   -5.64553E+003   -8.17322E+004   -1.00127E+003    5.55824E+004   -7.70503E+003    3.69853E+003
            8229    2.58939E+005    6.91351E+004   -2.23192E+005   -2.26398E+004   -2.23192E+005    2.92327E+005    5.88989E+004   -2.17553E+005   -1.81459E+004   -1.45748E+005   -1.28024E+004    1.25250E+005   -3.11673E+004   -5.16156E+003
            8230    2.14375E+005    6.28677E+004   -1.79221E+005   -1.34383E+004   -1.79221E+005    2.42088E+005    4.32638E+004   -1.79772E+005   -5.68112E+003   -1.27842E+005    3.73161E+003    9.30405E+004   -3.55930E+004   -2.86873E+003
            8231    1.49789E+005    5.25255E+004   -1.16620E+005   -7.56048E+002   -1.16620E+005    1.69146E+005    2.16168E+004   -1.25648E+005    1.22703E+003   -8.15541E+004    1.54765E+004    6.10964E+004   -3.13553E+004    4.23034E+003
            8232    1.16965E+005    2.73263E+004   -1.00769E+005    3.50903E+002   -1.00769E+005    1.28096E+005    2.43641E+004   -1.09633E+005   -7.05858E+003   -6.97159E+004    3.68226E+003    4.75702E+004   -2.25926E+004    1.46786E+004
            8233    1.25256E+005    4.72111E+004   -9.47867E+004    1.65220E+001   -9.47867E+004    1.41998E+005    1.58530E+004   -1.02168E+005   -7.77040E+003   -5.80990E+004    1.83103E+004    3.47957E+004   -3.95983E+004    3.06980E+004
            8234    1.75380E+005    6.64273E+004   -1.33794E+005   -7.37964E+003   -1.33794E+005    2.00221E+005    2.49153E+004   -1.33032E+005   -1.25083E+004   -9.09795E+004    2.87420E+004    5.23103E+004   -5.42925E+004    2.94945E+004
            8235    2.34101E+005    7.77755E+004   -1.88594E+005   -1.55482E+004   -1.88594E+005    2.66370E+005    4.21222E+004   -1.84694E+005   -1.97877E+004   -1.35848E+005    2.92694E+004    7.94864E+004   -6.47157E+004    2.39064E+004
            8236    3.04049E+005    6.64820E+004   -2.74137E+005   -3.01393E+004   -2.74137E+005    3.40619E+005    7.92646E+004   -2.66070E+005   -4.58692E+004   -1.99504E+005    7.57894E+003    1.18480E+005   -6.84851E+004    2.30285E+004
            8237    5.33652E+005   -7.41428E+004   -6.72207E+005   -2.44630E+005   -6.72207E+005    5.98065E+005    3.30327E+005   -4.66203E+005   -2.46451E+005   -4.97579E+005   -2.46950E+005    2.66550E+005   -6.27638E+003    5.34778E+004
            8238    5.72035E+005   -8.05061E+004   -7.14429E+005   -2.36750E+005   -7.14429E+005    6.33923E+005    3.43895E+005   -5.20687E+005   -2.45325E+005   -5.47333E+005   -2.39027E+005    2.76783E+005   -2.64442E+004    2.67583E+004
            8239    5.78886E+005   -3.33390E+004   -6.84214E+005   -2.26942E+005   -6.84214E+005    6.50875E+005    3.14832E+005   -4.97818E+005   -2.38227E+005   -5.05313E+005   -2.00954E+005    2.81143E+005   -6.96536E+004   -1.58077E+004
            8240    5.74330E+005   -1.01062E+005   -7.42340E+005   -2.75322E+005   -7.42340E+005    6.41278E+005    3.72908E+005   -5.09557E+005   -2.82081E+005   -5.60438E+005   -2.76206E+005    2.86756E+005   -4.05499E+003    3.63550E+004
            8241    6.24046E+005   -1.05681E+005   -7.95798E+005   -2.71195E+005   -7.95798E+005    6.90118E+005    3.90891E+005   -5.71451E+005   -2.84706E+005   -6.15896E+005   -2.72072E+005    3.01958E+005   -1.76793E+004    1.75965E+004
            8242    6.28877E+005   -6.00467E+004   -7.66294E+005   -2.66893E+005   -7.66294E+005    7.06248E+005    3.64411E+005   -5.44048E+005   -2.77470E+005   -5.60875E+005   -2.54889E+005    3.16516E+005   -4.82028E+004   -1.57170E+004
            8243    5.97245E+005   -1.17295E+005   -7.82814E+005   -2.93482E+005   -7.82814E+005    6.65519E+005    3.97864E+005   -5.33909E+005   -3.03122E+005   -5.96893E+005   -2.93575E+005    2.98347E+005   -1.35977E+003    1.24737E+004
            8244    6.53517E+005   -1.19247E+005   -8.41401E+005   -2.90709E+005   -8.41401E+005    7.22154E+005    4.17119E+005   -5.99698E+005   -3.06566E+005   -6.53979E+005   -2.90812E+005    3.16466E+005   -5.84412E+003    6.14072E+003
            8245    6.58926E+005   -7.87505E+004   -8.17938E+005   -2.92189E+005   -8.17938E+005    7.39188E+005    3.96292E+005   -5.73037E+005   -3.02306E+005   -5.95890E+005   -2.90681E+005    3.38336E+005   -1.73569E+004   -6.46935E+003
            8246    1.09561E+005    9.44749E+004    9.44749E+004   -1.26408E+003   -2.50122E+004    1.19487E+005   -2.27329E+004    1.03529E+005   -1.05531E+003    7.10275E+004   -1.77352E+003    4.65833E+004    7.81021E+003    4.55751E+003
            8247    1.04427E+005    8.36515E+004    8.36515E+004   -5.53174E+003   -3.12235E+004    1.14875E+005   -1.56321E+004    9.69261E+004   -1.63045E+003    5.87202E+004   -1.01934E+004    3.92433E+004    2.16491E+004    1.46801E+004
            8248    1.20749E+005    9.07019E+004    9.07019E+004   -3.62829E+001   -4.63472E+004    1.37049E+005   -1.47728E+004    9.75330E+004    6.68609E+003    5.52620E+004   -1.76296E+004    3.15207E+004    3.83328E+004    3.19344E+004
            8249    7.45344E+004    6.93396E+004    6.93396E+004    4.44989E+002   -9.77909E+003    7.91187E+004   -2.00018E+004    7.29318E+004    7.38177E+003    5.14273E+004    1.19647E+003    3.22840E+004    4.47480E+003    6.26729E+003
            8250    7.17954E+004    6.41819E+004    6.41819E+004   -5.22980E+003   -9.78082E+003    7.39627E+004   -1.63904E+004    7.14698E+004    7.71684E+003    4.10080E+004    4.46391E+002    2.72127E+004    1.30830E+004    1.84056E+004
            8251    8.14356E+004    6.34174E+004    6.34174E+004   -2.24531E+003   -2.77068E+004    9.11242E+004   -1.11551E+004    7.16234E+004    6.85818E+003    3.27500E+004   -6.14287E+003    1.92869E+004    2.33015E+004    3.00604E+004
            8252    4.56304E+004    3.53740E+004    3.53740E+004   -2.31782E+003   -1.53566E+004    5.07306E+004   -5.89985E+003    4.11154E+004   -2.87791E+003    2.18721E+004   -1.29463E+003    2.13890E+004    2.07597E+003    6.34697E+003
            8253    4.89463E+004    3.60857E+004    3.60857E+004   -8.51122E+003   -1.62806E+004    5.23664E+004   -3.76464E+003    4.75293E+004   -2.82158E+003    1.71551E+004   -3.03959E+003    1.80576E+004    5.58017E+003    1.75179E+004
            8254    5.61759E+004    4.17940E+004    4.17940E+004   -3.58090E+003   -2.10378E+004    6.28318E+004   -5.72509E+003    4.94980E+004    2.67292E+003    1.52351E+004   -7.32772E+002    1.20925E+004    1.00083E+004    2.71069E+004
            8255    3.29663E+004    2.06259E+004    2.06259E+004    2.00864E+003   -1.74374E+004    3.80632E+004   -1.73238E+003   -1.10541E+004    4.55832E+003   -8.53195E+002    1.49201E+003    1.78237E+004   -3.39197E+002    6.09055E+003
            8256    3.93410E+004    2.39962E+004    2.39962E+004    4.35754E+003   -2.12979E+004    4.52941E+004   -2.35191E+003   -2.40207E+004    4.62881E+003   -4.94307E+002    2.92124E+003    1.48254E+004   -4.76584E+002    1.70024E+004
            8257    4.76104E+004    2.71458E+004   -2.78062E+004    1.07095E+003   -2.78062E+004    5.49519E+004   -1.36853E+002   -2.11918E+004    1.00632E+003   -7.82451E+002    1.86686E+002    9.71313E+003   -2.52627E+002    2.56977E+004
            8258    5.17578E+004    8.74217E+003   -4.71676E+004   -9.24837E+002   -4.71676E+004    5.59097E+004    1.31167E+004   -4.96654E+004   -6.57608E+003   -3.11058E+004   -1.66839E+003    2.44657E+004   -2.24372E+003    6.37391E+003
            8259    5.29945E+004    9.83978E+003   -4.65356E+004    2.26238E+003   -4.65356E+004    5.63753E+004    1.14778E+004   -5.17547E+004   -7.13433E+003   -2.46600E+004   -2.63910E+003    2.07489E+004   -7.00412E+003    1.79217E+004
            8260    5.75159E+004    2.03521E+004   -4.40055E+004    2.37386E+003   -4.40055E+004    6.43576E+004    7.09319E+003   -5.05897E+004   -4.91735E+003   -1.71589E+004    7.96700E+002    1.30693E+004   -1.08631E+004    2.70135E+004
            8261    7.87381E+004    1.65643E+004   -6.83335E+004    2.29247E+003   -6.83335E+004    8.48979E+004    1.64922E+004   -7.57456E+004    1.15884E+003   -5.24257E+004    1.79012E+003    3.21141E+004   -5.40186E+003    6.12814E+003
            8262    7.57024E+004    1.92006E+004   -6.12177E+004    8.66501E+003   -6.12177E+004    8.04183E+004    1.11174E+004   -7.40260E+004    1.55224E+003   -4.11762E+004    6.27189E+003    2.66368E+004   -1.45283E+004    1.75064E+004
            8263    8.31439E+004    2.84456E+004   -6.45958E+004    2.42809E+003   -6.45958E+004    9.30414E+004    1.12407E+004   -7.31072E+004   -5.34542E+003   -3.46109E+004    6.23420E+003    1.92871E+004   -2.38574E+004    3.03313E+004
            8264    5.79333E+005   -3.31926E+004   -6.84583E+005   -2.26999E+005   -6.84583E+005    6.51390E+005    3.14925E+005   -4.98152E+005   -2.38286E+005   -5.05511E+005   -2.00978E+005    2.81379E+005    6.97111E+004    1.58574E+004
            8265    5.72396E+005   -8.07595E+004   -7.15043E+005   -2.36965E+005   -7.15043E+005    6.34283E+005    3.44256E+005   -5.21113E+005   -2.45568E+005   -5.47895E+005   -2.39305E+005    2.76915E+005    2.61882E+004   -2.70764E+004
            8266    5.34288E+005   -7.44759E+004   -6.73242E+005   -2.45123E+005   -6.73242E+005    5.98766E+005    3.30947E+005   -4.66796E+005   -2.46947E+005   -4.98475E+005   -2.47418E+005    2.66892E+005    6.24528E+003   -5.32423E+004
            8267    6.29335E+005   -6.01871E+004   -7.66972E+005   -2.67278E+005   -7.66972E+005    7.06785E+005    3.64812E+005   -5.44359E+005   -2.77820E+005   -5.61219E+005   -2.55397E+005    3.16886E+005    4.79542E+004    1.57161E+004
            8268    6.23786E+005   -1.05722E+005   -7.95463E+005   -2.70864E+005   -7.95463E+005    6.89741E+005    3.90683E+005   -5.71419E+005   -2.84513E+005   -6.15795E+005   -2.71742E+005    3.01723E+005    1.76037E+004   -1.75915E+004
            8269    5.74507E+005   -1.01164E+005   -7.42647E+005   -2.75503E+005   -7.42647E+005    6.41482E+005    3.73105E+005   -5.09694E+005   -2.82219E+005   -5.60725E+005   -2.76370E+005    2.86860E+005    4.00553E+003   -3.61295E+004
            8270    6.59197E+005   -7.88510E+004   -8.18348E+005   -2.92398E+005   -8.18348E+005    7.39497E+005    3.96532E+005   -5.73255E+005   -3.02515E+005   -5.96105E+005   -2.90976E+005    3.38551E+005    1.69085E+004    6.23154E+003
            8271    6.53205E+005   -1.19205E+005   -8.40967E+005   -2.90426E+005   -8.40967E+005    7.21762E+005    4.16866E+005   -5.99520E+005   -3.06361E+005   -6.53713E+005   -2.90523E+005    3.16253E+005    6.15999E+003   -6.05063E+003
            8272    5.97180E+005   -1.17271E+005   -7.82732E+005   -2.93494E+005   -7.82732E+005    6.65461E+005    3.97833E+005   -5.33807E+005   -3.03095E+005   -5.96813E+005   -2.93590E+005    2.98328E+005    1.39361E+003   -1.24631E+004
            8273    3.07568E+005    3.14363E+005    3.14363E+005    9.09115E+004   -3.64229E+004    3.50786E+005   -1.22951E+005    2.36302E+005    9.09184E+004    1.84036E+005    9.38972E+004    1.57650E+005    3.85848E+003    6.21555E+004
            8274    3.41141E+005    3.59480E+005    3.59480E+005    1.11935E+005   -2.96573E+004    3.89137E+005   -1.47252E+005    2.61593E+005    1.08715E+005    2.16382E+005    1.16661E+005    1.74665E+005    5.62739E+003    6.82111E+004
            8275    3.80773E+005    4.22669E+005    4.22669E+005    1.41353E+005   -1.06219E+004    4.33291E+005   -1.84467E+005    3.00176E+005    1.37159E+005    2.70408E+005    1.45833E+005    1.95019E+005    5.89080E+003    6.85845E+004
            8276    4.29326E+005    4.97642E+005    4.97642E+005    1.72815E+005    1.09042E+004    4.86738E+005   -2.27121E+005    3.50017E+005    1.71195E+005    3.33649E+005    1.76518E+005    2.18150E+005    5.45659E+003    7.28203E+004
            8277    4.78131E+005    5.82434E+005    5.82434E+005    2.11266E+005    4.28936E+004    5.39541E+005   -2.78865E+005    4.02837E+005    2.13618E+005    4.09434E+005    2.13542E+005    2.42565E+005    4.50582E+003    6.75173E+004
            8278    3.11507E+005    3.10234E+005    3.10234E+005    7.36005E+004   -4.26884E+004    3.52922E+005   -1.13715E+005    2.55327E+005    6.78053E+004    1.92121E+005    8.12196E+004    1.60028E+005    1.61744E+004    4.26550E+004
            8279    3.48713E+005    3.68972E+005    3.68972E+005    1.03499E+005   -2.59543E+004    3.94926E+005   -1.48839E+005    2.86644E+005    9.04976E+004    2.43381E+005    1.12638E+005    1.76482E+005    2.01283E+004    4.64364E+004
            8280    3.92313E+005    4.31762E+005    4.31762E+005    1.30434E+005   -1.18373E+004    4.43599E+005   -1.83453E+005    3.26196E+005    1.13941E+005    2.95923E+005    1.40493E+005    1.96049E+005    2.19310E+004    5.21883E+004
            8281    4.47359E+005    5.17762E+005    5.17762E+005    1.64473E+005    1.47432E+004    5.03018E+005   -2.32326E+005    3.84602E+005    1.50135E+005    3.73989E+005    1.72854E+005    2.19908E+005    2.11276E+004    5.21884E+004
            8282    5.06774E+005    6.09195E+005    6.09195E+005    2.01091E+005    4.19511E+004    5.67244E+005   -2.84079E+005    4.45121E+005    1.90209E+005    4.54651E+005    2.07377E+005    2.46602E+005    1.82611E+004    5.06580E+004
            8283    3.02755E+005    2.90741E+005    2.90741E+005    5.06923E+004   -4.93810E+004    3.40122E+005   -9.73509E+004    2.61462E+005    4.72477E+004    1.89939E+005    5.48664E+004    1.50565E+005    2.91808E+004    2.42593E+004
            8284    3.37392E+005    3.38554E+005    3.38554E+005    7.39258E+004   -4.13739E+004    3.79928E+005   -1.23702E+005    2.87779E+005    6.69104E+004    2.24256E+005    7.99389E+004    1.67552E+005    3.65328E+004    3.01743E+004
            8285    3.84633E+005    4.13376E+005    4.13376E+005    1.05265E+005   -1.77055E+004    4.31081E+005   -1.66978E+005    3.35938E+005    1.01611E+005    2.87449E+005    1.11875E+005    1.88850E+005    3.90669E+004    3.48178E+004
            8286    4.31645E+005    4.86845E+005    4.86845E+005    1.36796E+005    4.54719E+003    4.82298E+005   -2.09396E+005    3.81911E+005    1.36629E+005    3.49253E+005    1.42306E+005    2.11612E+005    3.82374E+004    3.44414E+004
            8287    4.87504E+005    5.77295E+005    5.77295E+005    1.74225E+005    3.54501E+004    5.41845E+005   -2.62323E+005    4.39662E+005    1.79929E+005    4.29116E+005    1.77925E+005    2.37103E+005    3.41010E+004    3.12040E+004
            8288    2.90381E+005    2.65474E+005    2.65474E+005    3.31983E+004   -6.00844E+004    3.25558E+005   -7.95293E+004    2.53225E+005    3.21728E+004    1.88072E+005    1.83432E+004    1.29194E+005    4.93301E+004    9.92208E+003
            8289    3.52757E+005    3.52272E+005    3.52272E+005    6.46039E+004   -4.13074E+004    3.93580E+005   -1.25190E+005    3.13881E+005    6.90886E+004    2.53227E+005    5.32532E+004    1.58188E+005    6.02485E+004    2.16327E+004
            8290    4.11316E+005    4.32536E+005    4.32536E+005    9.88276E+004   -2.69953E+004    4.59532E+005   -1.68123E+005    3.64088E+005    1.06670E+005    3.12213E+005    8.54861E+004    1.90262E+005    6.47759E+004    1.77366E+004
            8291    4.72875E+005    5.28439E+005    5.28439E+005    1.41960E+005    1.15523E+003    5.27284E+005   -2.23851E+005    4.21696E+005    1.55898E+005    3.84990E+005    1.30666E+005    2.24381E+005    6.52330E+004    1.73546E+004
            8292    5.33279E+005    6.21558E+005    6.21558E+005    1.85082E+005    2.71503E+004    5.94407E+005   -2.77930E+005    4.76243E+005    2.04773E+005    4.55289E+005    1.73728E+005    2.59394E+005    6.00115E+004    8.70608E+003
            8293    5.39050E+005    5.93243E+005    5.93243E+005    1.78899E+005   -1.61906E+004    6.09434E+005   -2.51984E+005    4.48629E+005    1.84505E+005    4.45889E+005    1.25557E+005    2.42143E+005    9.46119E+004   -1.43322E+004
            8294    4.70138E+005    4.88646E+005    4.88646E+005    1.30771E+005   -4.38079E+004    5.32454E+005   -1.91870E+005    3.86401E+005    1.35163E+005    3.73170E+005    6.72770E+004    1.96096E+005    9.70205E+004   -2.42452E+003
            8295    4.05670E+005    4.02043E+005    4.02043E+005    9.25803E+004   -5.72251E+004    4.59268E+005   -1.45799E+005    3.34350E+005    9.77321E+004    3.10094E+005    2.95726E+004    1.57381E+005    9.23239E+004    1.25536E+004
            8296    3.46505E+005    3.19037E+005    3.19037E+005    5.81692E+004   -7.41259E+004    3.93163E+005   -1.01027E+005    2.80599E+005    6.26451E+004    2.46426E+005   -5.99010E+003    1.26146E+005    8.26938E+004    1.54107E+004
            8297    2.84060E+005    2.47076E+005    2.47076E+005    3.52806E+004   -7.57257E+004    3.22801E+005   -6.88769E+004    2.26935E+005    3.82963E+004    1.87429E+005   -1.90945E+004    9.99342E+004    7.20259E+004    1.89150E+004
            8298    2.33071E+005    1.88257E+005    1.88257E+005    1.76882E+004   -7.73103E+004    2.65567E+005   -4.28782E+004    1.81123E+005    2.30017E+004    1.36145E+005   -3.05120E+004    7.67779E+004    6.56291E+004    2.57950E+004
            8299    1.73046E+005    1.30526E+005    1.30526E+005    5.42532E+003   -6.69582E+004    1.97484E+005   -2.29978E+004    1.31898E+005    1.13168E+004    8.77618E+004   -3.00853E+004    5.14446E+004    5.35530E+004    2.98800E+004
            8300    1.50185E+005    1.24430E+005    1.24430E+005    4.21961E+003   -4.39229E+004    1.68353E+005   -2.82423E+004    1.31059E+005    6.49837E+003    8.71748E+004   -8.94626E+003    6.22386E+004    3.04057E+004    7.47970E+003
            8301    1.54851E+005    1.31624E+005    1.31624E+005    1.47732E+003   -3.96340E+004    1.71258E+005   -3.11556E+004    1.41772E+005    2.97697E+003    9.10788E+004   -5.88859E+002    7.19990E+004    1.06170E+004   -2.17868E+002
            8302    1.93335E+005    1.55311E+005    1.55311E+005    9.69543E+003   -6.40420E+004    2.19353E+005   -3.36547E+004    1.56653E+005    1.92727E+003    1.09167E+005   -1.01298E+004    8.25826E+004    3.62744E+004   -3.29178E+003
            8303    1.85852E+005    1.47968E+005    1.47968E+005    2.97054E+003   -6.15440E+004    2.09512E+005   -2.97982E+004    1.57531E+005   -4.49040E+003    9.33384E+004    5.46603E+002    9.11700E+004    1.24670E+004   -3.44218E+003
            8304    2.29944E+005    1.80408E+005    1.80408E+005    3.08256E+003   -7.94014E+004    2.59809E+005   -3.46963E+004    1.92159E+005   -1.77250E+003    1.04603E+005    1.25854E+003    1.17513E+005    1.06313E+004   -5.91647E+003
            8305    2.44776E+005    1.93955E+005    1.93955E+005    9.03668E+003   -8.36228E+004    2.77578E+005   -3.97897E+004    1.99154E+005    1.26721E+004    9.77175E+004    8.97948E+003    1.31946E+005    6.27666E+003    1.52424E+003
            8306    2.60658E+005    2.19542E+005    2.19542E+005    1.07464E+003   -6.89864E+004    2.88528E+005   -5.05433E+004    2.38053E+005    2.77564E+004    1.22619E+005    1.25490E+003    1.35853E+005    2.19535E+003    1.07198E+004
            8307    2.75634E+005    2.82307E+005    2.82307E+005    5.26556E+004   -2.33569E+004    3.05664E+005   -1.03869E+005    2.50376E+005    8.00769E+004    1.85377E+005    4.61518E+004    1.29537E+005    2.92236E+002    5.72213E+004
            8308    2.45393E+005    2.13542E+005    2.13542E+005    2.21427E+004   -6.31074E+004    2.76649E+005   -5.75256E+004    2.07932E+005    1.45857E+004    1.44657E+005    1.33341E+004    1.15615E+005    3.18015E+004   -2.71383E+002
            8309    2.73800E+005    2.40441E+005    2.40441E+005    1.81364E+004   -6.53957E+004    3.05837E+005   -6.43939E+004    2.42546E+005    2.66684E+004    1.49564E+005    1.69496E+004    1.38243E+005    1.96018E+004    5.42440E+003
            8310    2.94921E+005    2.86348E+005    2.86348E+005    4.53647E+004   -4.25280E+004    3.28876E+005   -9.63948E+004    2.62942E+005    5.85412E+004    1.81676E+005    4.89672E+004    1.46641E+005    8.17485E+003    4.41000E+004
            8311    2.89006E+005    2.77842E+005    2.77842E+005    7.31857E+004   -5.27661E+004    3.30608E+005   -9.94204E+004    2.12656E+005    7.43563E+004    1.48819E+005    7.50863E+004    1.44516E+005    2.21871E+003    7.15639E+004
            8312    3.28843E+005    2.81960E+004   -3.46289E+005   -1.04654E+005   -3.46289E+005    3.74485E+005    1.40916E+005   -2.57138E+005   -9.93494E+004   -2.12878E+005   -1.10520E+005    1.68536E+005    7.68774E+003   -6.05593E+004
            8313    3.77365E+005    1.50285E+004   -4.13660E+005   -1.31685E+005   -4.13660E+005    4.28688E+005    1.76772E+005   -3.02408E+005   -1.24664E+005   -2.66115E+005   -1.39537E+005    1.91200E+005    1.04520E+004   -6.89884E+004
            8314    4.30074E+005   -1.41948E+004   -5.00572E+005   -1.70539E+005   -5.00572E+005    4.86377E+005    2.28435E+005   -3.57182E+005   -1.64138E+005   -3.44687E+005   -1.76481E+005    2.16637E+005    9.41089E+003   -6.67866E+004
            8315    4.84140E+005   -4.23998E+004   -5.87552E+005   -2.07741E+005   -5.87552E+005    5.45152E+005    2.79231E+005   -4.13053E+005   -2.04652E+005   -4.21046E+005   -2.11995E+005    2.42525E+005    8.13939E+003   -6.44106E+004
            8316    3.33183E+005    3.94665E+004   -3.36204E+005   -7.65009E+004   -3.36204E+005    3.75670E+005    1.24413E+005   -2.82100E+005   -6.71581E+004   -2.21854E+005   -8.42258E+004    1.66218E+005    3.19913E+004   -3.40255E+004
            8317    3.94186E+005    8.68475E+003   -4.33311E+005   -1.18172E+005   -4.33311E+005    4.41996E+005    1.80933E+005   -3.43546E+005   -1.10396E+005   -3.06555E+005   -1.25847E+005    1.92776E+005    3.57881E+004   -3.81529E+004
            8318    4.49550E+005   -1.77214E+004   -5.20292E+005   -1.56479E+005   -5.20292E+005    5.02571E+005    2.31498E+005   -3.96902E+005   -1.51411E+005   -3.80850E+005   -1.62232E+005    2.19302E+005    3.49569E+004   -3.59271E+004
            8319    5.12169E+005   -5.13634E+004   -6.20845E+005   -1.97955E+005   -6.20845E+005    5.69481E+005    2.90054E+005   -4.61311E+005   -2.00023E+005   -4.67971E+005   -2.02169E+005    2.48049E+005    3.20829E+004   -3.37538E+004
            8320    5.19222E+005   -5.43844E+003   -5.90006E+005   -1.82386E+005   -5.90006E+005    5.84568E+005    2.59277E+005   -4.43350E+005   -1.93356E+005   -4.39320E+005   -1.45155E+005    2.41438E+005    8.11756E+004    9.47257E+003
            8321    4.57988E+005    1.33648E+004   -5.01648E+005   -1.40102E+005   -5.01648E+005    5.15013E+005    2.09462E+005   -3.93570E+005   -1.51898E+005   -3.76096E+005   -1.00392E+005    2.03970E+005    8.25923E+004   -2.02731E+003
            8322    3.98483E+005    3.19300E+004   -4.15647E+005   -9.94206E+004   -4.15647E+005    4.47577E+005    1.61046E+005   -3.44471E+005   -1.11192E+005   -3.11177E+005   -6.07691E+004    1.71804E+005    7.62967E+004   -7.20051E+003
            8323    3.46037E+005    4.38489E+004   -3.42615E+005   -6.14896E+004   -3.42615E+005    3.86464E+005    1.20085E+005   -3.06728E+005   -7.62172E+004   -2.52690E+005   -3.13486E+004    1.46159E+005    6.77776E+004   -1.63153E+004
            8324    3.04385E+005    6.65645E+004   -2.74438E+005   -3.01918E+004   -2.74438E+005    3.41002E+005    7.93550E+004   -2.66339E+005   -4.59895E+004   -1.99723E+005    7.64740E+003    1.18560E+005    6.86101E+004   -2.31073E+004
            8325    2.33692E+005    7.76242E+004   -1.88286E+005   -1.55703E+004   -1.88286E+005    2.65910E+005    4.20773E+004   -1.84327E+005   -1.98112E+004   -1.35640E+005    2.92197E+004    7.93190E+004    6.46193E+004   -2.38803E+004
            8326    1.74954E+005    6.62167E+004   -1.33504E+005   -7.32269E+003   -1.33504E+005    1.99720E+005    2.48698E+004   -1.32837E+005   -1.24833E+004   -9.07537E+004    2.86275E+004    5.22300E+004    5.41392E+004   -2.94263E+004
            8327    1.25391E+005    4.71934E+004   -9.49422E+004    2.07280E+001   -9.49422E+004    1.42136E+005    1.59094E+004   -1.02361E+005   -7.81881E+003   -5.82451E+004    1.83359E+004    3.49343E+004    3.95941E+004   -3.06203E+004
            8328    1.16987E+005    2.74230E+004   -1.00748E+005    2.84547E+002   -1.00748E+005    1.28171E+005    2.43468E+004   -1.09564E+005   -7.03810E+003   -6.96933E+004    3.69097E+003    4.75240E+004    2.27195E+004   -1.47059E+004
            8329    1.25560E+005    2.48397E+004   -1.11824E+005   -1.56862E+003   -1.11824E+005    1.36664E+005    2.95176E+004   -1.19069E+005   -5.67911E+003   -8.19232E+004   -9.50546E+002    5.58097E+004    7.82051E+003   -3.72375E+003
            8330    1.50130E+005    5.26476E+004   -1.16870E+005   -7.00493E+002   -1.16870E+005    1.69518E+005    2.16411E+004   -1.25991E+005    1.19227E+003   -8.17666E+004    1.56510E+004    6.11669E+004    3.14583E+004   -4.28853E+003
            8331    1.55916E+005    4.45587E+004   -1.28714E+005    2.55858E+002   -1.28714E+005    1.73273E+005    2.79665E+004   -1.40675E+005    2.07076E+003   -8.83394E+004    2.36926E+003    7.23650E+004    1.15234E+004   -2.14284E+002
            8332    2.14734E+005    6.29533E+004   -1.79524E+005   -1.34047E+004   -1.79524E+005    2.42477E+005    4.33252E+004   -1.80153E+005   -5.74741E+003   -1.28062E+005    3.83386E+003    9.31364E+004    3.57835E+004    2.68689E+003
            8333    2.11465E+005    7.04452E+004   -1.67968E+005   -3.07970E+003   -1.67968E+005    2.38413E+005    3.35341E+004   -1.79121E+005    5.56148E+003   -1.05925E+005   -2.39267E+002    1.03760E+005    1.23850E+004    6.90280E+003
            8334    2.59136E+005    6.90898E+004   -2.23462E+005   -2.27699E+004   -2.23462E+005    2.92552E+005    5.90475E+004   -2.17702E+005   -1.82457E+004   -1.45997E+005   -1.28997E+004    1.25326E+005    3.11835E+004    5.22339E+003
            8335    2.36490E+005    8.25065E+004   -1.86294E+005   -1.02151E+004   -1.86294E+005    2.68801E+005    3.80010E+004   -1.88552E+005   -6.14736E+003   -9.82044E+004   -9.65123E+003    1.25835E+005    9.28633E+003    6.60974E+002
            8336    2.57099E+005    7.47197E+004   -2.11931E+005   -1.72207E+003   -2.11931E+005    2.86651E+005    4.63112E+004   -2.29363E+005   -2.06184E+004   -1.16311E+005   -2.00442E+003    1.34938E+005    5.41731E+003   -5.83912E+003
            8337    2.73042E+005    2.97407E+004   -2.74147E+005   -4.94602E+004   -2.74147E+005    3.03887E+005    9.79553E+004   -2.45131E+005   -7.37514E+004   -1.73584E+005   -4.65309E+004    1.32450E+005    1.88847E+003   -5.31889E+004
            8338    2.95237E+005    4.29112E+004   -2.86360E+005   -4.52382E+004   -2.86360E+005    3.29271E+005    9.62289E+004   -2.63093E+005   -5.03512E+004   -1.87223E+005   -5.11128E+004    1.46492E+005    1.92102E+004   -3.18737E+004
            8339    2.98759E+005    4.96523E+004   -2.91430E+005   -7.61227E+004   -2.91430E+005    3.41083E+005    1.05967E+005   -2.26554E+005   -7.57642E+004   -1.61149E+005   -8.09878E+004    1.51673E+005    5.60734E+003   -6.65244E+004
            8340    6.04523E+005    6.95681E+005    6.95681E+005    2.29239E+005    1.27128E+004    6.82968E+005   -3.12544E+005    5.05529E+005    2.34365E+005    5.10859E+005    1.92409E+005    2.90899E+005    8.13549E+004   -2.52733E+004
            8341    5.92131E+005    7.18236E+005    7.18236E+005    2.31038E+005    5.91887E+004    6.59047E+005   -3.36154E+005    5.31531E+005    2.56177E+005    5.28794E+005    2.23491E+005    2.93721E+005    4.97698E+004    4.91150E+003
            8342    5.43271E+005    6.64831E+005    6.64831E+005    2.11019E+005    6.28463E+004    6.01985E+005   -3.12899E+005    4.94657E+005    2.21104E+005    5.04633E+005    2.12959E+005    2.63385E+005    2.83509E+004    2.48458E+004
            8343    5.67894E+005    7.05818E+005    7.05818E+005    2.39975E+005    7.32148E+004    6.32604E+005   -3.39669E+005    5.08271E+005    2.34729E+005    5.40759E+005    2.43520E+005    2.74278E+005    1.42420E+004    4.15039E+004
            8344    5.25954E+005    6.66488E+005    6.66488E+005    2.48781E+005    7.58385E+004    5.90649E+005   -3.30369E+005    4.55056E+005    2.56889E+005    4.84370E+005    2.49848E+005    2.66392E+005    3.33547E+003    5.85982E+004
            8345    6.60367E+005    7.90686E+005    7.90686E+005    2.76034E+005    4.60880E+004    7.44598E+005   -3.70936E+005    5.59019E+005    2.82038E+005    5.70689E+005    2.60081E+005    3.34196E+005    5.60783E+004   -2.19827E+004
            8346    6.41639E+005    7.98968E+005    7.98968E+005    2.69247E+005    8.55006E+004    7.13467E+005   -3.84572E+005    5.77851E+005    2.98572E+005    5.89688E+005    2.65455E+005    3.22920E+005    3.35773E+004    7.02754E+001
            8347    5.93146E+005    7.43263E+005    7.43263E+005    2.44473E+005    8.73850E+004    6.55878E+005   -3.58374E+005    5.43312E+005    2.57817E+005    5.72206E+005    2.45098E+005    2.86943E+005    1.89819E+004    1.56130E+004
            8348    6.19341E+005    7.85623E+005    7.85623E+005    2.72051E+005    9.78313E+004    6.87792E+005   -3.85168E+005    5.60105E+005    2.71489E+005    6.10487E+005    2.73528E+005    2.98149E+005    9.67504E+003    2.82298E+004
            8349    5.63296E+005    7.36431E+005    7.36431E+005    2.81099E+005    1.06513E+005    6.29918E+005   -3.74681E+005    4.96723E+005    2.94139E+005    5.48424E+005    2.81480E+005    2.85670E+005    2.29864E+003    3.84013E+004
            8350    6.93863E+005    8.47884E+005    8.47884E+005    3.05402E+005    6.60253E+004    7.81859E+005   -4.06437E+005    5.89608E+005    3.10694E+005    6.05296E+005    3.03321E+005    3.60978E+005    2.00057E+004   -1.01975E+004
            8351    6.69221E+005    8.45150E+005    8.45150E+005    2.91754E+005    1.01363E+005    7.43787E+005   -4.12756E+005    6.03630E+005    3.22211E+005    6.24755E+005    2.91301E+005    3.39406E+005    1.19411E+004   -2.17309E+001
            8352    6.21264E+005    7.87358E+005    7.87358E+005    2.64102E+005    1.00735E+005    6.86623E+005   -3.84065E+005    5.69856E+005    2.77953E+005    6.10079E+005    2.64163E+005    3.00374E+005    6.71029E+003    5.25761E+003
            8353    6.49298E+005    8.33208E+005    8.33208E+005    2.92328E+005    1.13130E+005    7.20078E+005   -4.12889E+005    5.89699E+005    2.94430E+005    6.51748E+005    2.92488E+005    3.12474E+005    3.42430E+003    9.27856E+003
            8354    5.84950E+005    7.76752E+005    7.76752E+005    2.99679E+005    1.24129E+005    6.52623E+005   -4.00187E+005    5.20545E+005    3.16089E+005    5.84772E+005    2.99699E+005    2.97025E+005    6.08334E+002    1.45187E+004
            8355    1.20985E+005    9.07931E+004    9.07931E+004   -4.15079E+001   -4.65435E+004    1.37337E+005   -1.47360E+004    9.76031E+004    6.64628E+003    5.53022E+004   -1.77404E+004    3.15051E+004   -3.84316E+004   -3.20417E+004
            8356    1.03904E+005    8.32963E+004    8.32963E+004   -5.59781E+003   -3.09324E+004    1.14229E+005   -1.55887E+004    9.65814E+004   -1.65259E+003    5.85228E+004   -1.01042E+004    3.90396E+004   -2.14216E+004   -1.46752E+004
            8357    1.08598E+005    9.37335E+004    9.37335E+004   -1.20145E+003   -2.46853E+004    1.18419E+005   -2.26156E+004    1.02649E+005   -1.03629E+003    7.05456E+004   -1.66260E+003    4.61189E+004   -7.72168E+003   -4.64183E+003
            8358    8.12924E+004    6.33398E+004    6.33398E+004   -2.22693E+003   -2.76174E+004    9.09573E+004   -1.11652E+004    7.15198E+004    6.89043E+003    3.26817E+004   -6.07667E+003    1.92439E+004   -2.32298E+004   -3.00601E+004
            8359    7.16157E+004    6.40481E+004    6.40481E+004   -5.23686E+003   -9.69042E+003    7.37385E+004   -1.63736E+004    7.13031E+004    7.76254E+003    4.08795E+004    4.78768E+002    2.71489E+004   -1.30415E+004   -1.84062E+004
            8360    7.38928E+004    6.87140E+004    6.87140E+004    4.11952E+002   -9.72327E+003    7.84372E+004   -1.98009E+004    7.23042E+004    7.34333E+003    5.08896E+004    1.16968E+003    3.20474E+004   -4.42343E+003   -6.24771E+003
            8361    5.60919E+004    4.16819E+004    4.16819E+004   -3.54889E+003   -2.10823E+004    6.27642E+004   -5.68357E+003    4.93369E+004    2.62132E+003    1.51285E+004   -6.99085E+002    1.20130E+004   -9.91000E+003   -2.71401E+004
            8362    4.88865E+004    3.59567E+004    3.59567E+004   -8.54746E+003   -1.63691E+004    5.23258E+004   -3.68004E+003    4.74481E+004   -2.86652E+003    1.69946E+004   -3.08797E+003    1.80069E+004   -5.56925E+003   -1.75612E+004
            8363    4.52198E+004    3.49191E+004    3.49191E+004   -2.29066E+003   -1.54098E+004    5.03288E+004   -5.73955E+003    4.05955E+004   -2.92059E+003    2.14064E+004   -1.26712E+003    2.12679E+004   -2.04154E+003   -6.35204E+003
            8364    4.76371E+004    2.70042E+004   -2.79725E+004    1.08419E+003   -2.79725E+004    5.49768E+004   -3.86249E+001   -2.20094E+004    9.25735E+002   -9.61260E+002    1.51399E+002    9.74491E+003    3.85791E+002   -2.56986E+004
            8365    3.94051E+004    2.39585E+004    2.39585E+004    4.38478E+003   -2.14010E+004    4.53595E+004   -2.31410E+003   -2.43000E+004    4.63305E+003   -6.23373E+002    2.93263E+003    1.48530E+004    4.97604E+002   -1.70157E+004
            8366    3.30998E+004    2.04658E+004    2.04658E+004    1.98850E+003   -1.77476E+004    3.82134E+004   -1.56887E+003   -1.27401E+004    4.52898E+003   -1.28908E+003    1.46671E+003    1.78739E+004    3.54115E+002   -6.09326E+003
            8367    5.78545E+004    2.04686E+004   -4.42615E+004    2.40931E+003   -4.42615E+004    6.47301E+004    7.12784E+003   -5.09086E+004   -4.94111E+003   -1.73325E+004    8.90130E+002    1.30830E+004    1.10996E+004   -2.71062E+004
            8368    5.31590E+004    9.85318E+003   -4.66819E+004    2.29097E+003   -4.66819E+004    5.65351E+004    1.15126E+004   -5.19281E+004   -7.14497E+003   -2.47740E+004   -2.61885E+003    2.07859E+004    7.03269E+003   -1.79840E+004
            8369    5.22371E+004    8.71412E+003   -4.76485E+004   -8.61930E+002   -4.76485E+004    5.63627E+004    1.32654E+004   -5.02051E+004   -6.56762E+003   -3.16245E+004   -1.60426E+003    2.46022E+004    2.26186E+003   -6.34354E+003
            8370    8.35707E+004    2.85714E+004   -6.49581E+004    2.37900E+003   -6.49581E+004    9.35296E+004    1.13359E+004   -7.34471E+004   -5.41284E+003   -3.49048E+004    6.30993E+003    1.94547E+004    2.40467E+004   -3.03367E+004
            8371    7.56342E+004    1.92504E+004   -6.11104E+004    8.68646E+003   -6.11104E+004    8.03608E+004    1.10578E+004   -7.39471E+004    1.61825E+003   -4.10561E+004    6.26436E+003    2.65850E+004    1.45605E+004   -1.75429E+004
            8372    7.94433E+004    1.66712E+004   -6.89949E+004    2.24993E+003   -6.89949E+004    8.56661E+004    1.66913E+004   -7.64147E+004    1.13756E+003   -5.29655E+004    1.75417E+003    3.23994E+004    5.42450E+003   -6.13526E+003
            8373    5.25592E+005    6.65992E+005    6.65992E+005    2.48711E+005    7.57052E+004    5.90287E+005   -3.30136E+005    4.54574E+005    2.56673E+005    4.83972E+005    2.49763E+005    2.66204E+005   -3.28092E+003   -5.87006E+004
            8374    5.67784E+005    7.05611E+005    7.05611E+005    2.39728E+005    7.31784E+004    6.32433E+005   -3.39506E+005    5.08312E+005    2.34573E+005    5.40657E+005    2.43288E+005    2.74168E+005   -1.43396E+004   -4.14767E+004
            8375    5.43678E+005    6.65338E+005    6.65338E+005    2.11210E+005    6.28927E+004    6.02446E+005   -3.13147E+005    4.95004E+005    2.21386E+005    5.04972E+005    2.13084E+005    2.63632E+005   -2.84405E+004   -2.45640E+004
            8376    5.92770E+005    7.18964E+005    7.18964E+005    2.31594E+005    5.90702E+004    6.59894E+005   -3.36543E+005    5.31729E+005    2.56569E+005    5.29236E+005    2.23823E+005    2.94061E+005   -5.01636E+004   -4.58558E+003
            8377    6.04790E+005    6.96092E+005    6.96092E+005    2.29592E+005    1.27821E+004    6.83310E+005   -3.12822E+005    5.05552E+005    2.34546E+005    5.11118E+005    1.92802E+005    2.91091E+005   -8.13878E+004    2.52843E+004
            8378    5.63032E+005    7.36174E+005    7.36174E+005    2.81112E+005    1.06532E+005    6.29642E+005   -3.74606E+005    4.96425E+005    2.94235E+005    5.48103E+005    2.81481E+005    2.85603E+005   -2.25659E+003   -3.84382E+004
            8379    6.19044E+005    7.85589E+005    7.85589E+005    2.72452E+005    9.80540E+004    6.87536E+005   -3.85365E+005    5.59644E+005    2.71825E+005    6.10348E+005    2.73922E+005    2.98127E+005   -9.54369E+003   -2.83456E+004
            8380    5.93318E+005    7.43635E+005    7.43635E+005    2.44642E+005    8.75900E+004    6.56045E+005   -3.58622E+005    5.43525E+005    2.58094E+005    5.72503E+005    2.45270E+005    2.87033E+005   -1.89776E+004   -1.56290E+004
            8381    6.42258E+005    7.99472E+005    7.99472E+005    2.69566E+005    8.51907E+004    7.14281E+005   -3.84743E+005    5.78067E+005    2.98690E+005    5.89847E+005    2.65693E+005    3.23331E+005   -3.36544E+004    2.78581E+002
            8382    6.60559E+005    7.90658E+005    7.90658E+005    2.76201E+005    4.57421E+004    7.44916E+005   -3.70867E+005    5.58732E+005    2.81893E+005    5.70585E+005    2.60122E+005    3.34295E+005   -5.62745E+004    2.21877E+004
            8383    5.84713E+005    7.76517E+005    7.76517E+005    2.99779E+005    1.24106E+005    6.52411E+005   -4.00134E+005    5.20178E+005    3.16094E+005    5.84506E+005    2.99802E+005    2.96961E+005   -6.37314E+002   -1.46823E+004
            8384    6.49155E+005    8.33006E+005    8.33006E+005    2.92295E+005    1.13067E+005    7.19939E+005   -4.12789E+005    5.89519E+005    2.94318E+005    6.51596E+005    2.92454E+005    3.12405E+005   -3.40214E+003   -9.30906E+003
            8385    6.21394E+005    7.87483E+005    7.87483E+005    2.64257E+005    1.00656E+005    6.86827E+005   -3.84132E+005    5.69841E+005    2.77915E+005    6.10160E+005    2.64321E+005    3.00458E+005   -6.67018E+003   -5.30552E+003
            8386    6.69004E+005    8.44993E+005    8.44993E+005    2.91899E+005    1.01399E+005    7.43593E+005   -4.12764E+005    6.03307E+005    3.22229E+005    6.24593E+005    2.91468E+005    3.39351E+005   -1.18135E+004   -1.49753E+002
            8387    6.93222E+005    8.47042E+005    8.47042E+005    3.05028E+005    6.59150E+004    7.81127E+005   -4.05995E+005    5.89106E+005    3.10401E+005    6.04666E+005    3.02918E+005    3.60636E+005   -2.01642E+004    1.02197E+004
            8388    2.84024E+005    2.47006E+005    2.47006E+005    3.54427E+004   -7.58020E+004    3.22808E+005   -6.88821E+004    2.26592E+005    3.82936E+004    1.87375E+005   -1.90219E+004    9.99965E+004   -7.20501E+004   -1.86465E+004
            8389    3.46776E+005    3.19221E+005    3.19221E+005    5.83436E+004   -7.42977E+004    3.93519E+005   -1.01089E+005    2.80530E+005    6.28122E+004    2.46729E+005   -6.27438E+003    1.26059E+005   -8.28054E+004   -1.53433E+004
            8390    4.06394E+005    4.03214E+005    4.03214E+005    9.32580E+004   -5.68898E+004    4.60104E+005   -1.46527E+005    3.34863E+005    9.84125E+004    3.10925E+005    3.02451E+004    1.57813E+005   -9.25165E+004   -1.25086E+004
            8391    4.71212E+005    4.89990E+005    4.89990E+005    1.31287E+005   -4.36783E+004    5.33668E+005   -1.92533E+005    3.87297E+005    1.35671E+005    3.74068E+005    6.78598E+004    1.96783E+005   -9.70407E+004    2.68077E+003
            8392    5.39567E+005    5.94416E+005    5.94416E+005    1.79452E+005   -1.55414E+004    6.09957E+005   -2.52775E+005    4.49364E+005    1.85102E+005    4.46691E+005    1.26533E+005    2.42664E+005   -9.42902E+004    1.44043E+004
            8393    5.32998E+005    6.21098E+005    6.21098E+005    1.84865E+005    2.70003E+004    5.94098E+005   -2.77655E+005    4.75979E+005    2.04626E+005    4.54968E+005    1.73369E+005    2.59174E+005   -6.02107E+004   -8.64595E+003
            8394    4.87221E+005    5.76797E+005    5.76797E+005    1.73776E+005    3.53378E+004    5.41459E+005   -2.61970E+005    4.39598E+005    1.79834E+005    4.28648E+005    1.77428E+005    2.36906E+005   -3.45983E+004   -3.11285E+004
            8395    5.06685E+005    6.09067E+005    6.09067E+005    2.00857E+005    4.19841E+004    5.67083E+005   -2.83970E+005    4.45246E+005    1.90090E+005    4.54634E+005    2.07184E+005    2.46505E+005   -1.85349E+004   -5.04994E+004
            8396    4.78148E+005    5.82499E+005    5.82499E+005    2.11277E+005    4.29520E+004    5.39547E+005   -2.78909E+005    4.02906E+005    2.13521E+005    4.09626E+005    2.13581E+005    2.42534E+005   -4.54839E+003   -6.74522E+004
            8397    4.71629E+005    5.26583E+005    5.26583E+005    1.41032E+005    7.22059E+002    5.25861E+005   -2.22779E+005    4.20684E+005    1.54952E+005    3.83717E+005    1.29669E+005    2.23614E+005   -6.52233E+004   -1.73747E+004
            8398    4.31018E+005    4.85835E+005    4.85835E+005    1.36256E+005    4.25125E+003    4.81583E+005   -2.08781E+005    3.81399E+005    1.36124E+005    3.48574E+005    1.41644E+005    2.11264E+005   -3.82827E+004   -3.41020E+004
            8399    4.47296E+005    5.17512E+005    5.17512E+005    1.64102E+005    1.46173E+004    5.02894E+005   -2.32077E+005    3.84760E+005    1.49837E+005    3.73894E+005    1.72500E+005    2.19807E+005   -2.12956E+004   -5.20573E+004
            8400    4.29417E+005    4.97851E+005    4.97851E+005    1.72974E+005    1.10054E+004    4.86845E+005   -2.27277E+005    3.50064E+005    1.71207E+005    3.33881E+005    1.76742E+005    2.18203E+005   -5.54705E+003   -7.27466E+004
            8401    4.09835E+005    4.30194E+005    4.30194E+005    9.77674E+004   -2.77112E+004    4.57905E+005   -1.66750E+005    3.62687E+005    1.05576E+005    3.10459E+005    8.42153E+004    1.89347E+005   -6.49472E+004   -1.77375E+004
            8402    3.83647E+005    4.11783E+005    4.11783E+005    1.04344E+005   -1.81540E+004    4.29937E+005   -1.65991E+005    3.35216E+005    1.00796E+005    2.86333E+005    1.10844E+005    1.88219E+005   -3.94120E+004   -3.45717E+004
            8403    3.92805E+005    4.32292E+005    4.32292E+005    1.30400E+005   -1.18122E+004    4.44104E+005   -1.83627E+005    3.26860E+005    1.13870E+005    2.96593E+005    1.40417E+005    1.96237E+005   -2.21463E+004   -5.18164E+004
            8404    3.81554E+005    4.23963E+005    4.23963E+005    1.41765E+005   -1.01496E+004    4.34112E+005   -1.85193E+005    3.01272E+005    1.37535E+005    2.71758E+005    1.46285E+005    1.95394E+005   -5.98686E+003   -6.83653E+004
            8405    3.52110E+005    3.51417E+005    3.51417E+005    6.41325E+004   -4.13880E+004    3.92805E+005   -1.24720E+005    3.13462E+005    6.87676E+004    2.52733E+005    5.26607E+004    1.57734E+005   -6.02067E+004   -2.16088E+004
            8406    3.36944E+005    3.37798E+005    3.37798E+005    7.35333E+004   -4.16286E+004    3.79426E+005   -1.23234E+005    2.87381E+005    6.65364E+004    2.23666E+005    7.95000E+004    1.67317E+005   -3.65861E+004   -3.00535E+004
            8407    3.49255E+005    3.69744E+005    3.69744E+005    1.03544E+005   -2.57148E+004    3.95459E+005   -1.49191E+005    2.87532E+005    9.05958E+004    2.44191E+005    1.12787E+005    1.76609E+005   -2.04992E+004   -4.64425E+004
            8408    3.42373E+005    3.61129E+005    3.61129E+005    1.12508E+005   -2.93774E+004    3.90506E+005   -1.48087E+005    2.62844E+005    1.09249E+005    2.17698E+005    1.17312E+005    1.75212E+005   -5.72026E+003   -6.84865E+004
            8409    2.90510E+005    2.65400E+005    2.65400E+005    3.29409E+004   -6.02764E+004    3.25676E+005   -7.93548E+004    2.53432E+005    3.20637E+004    1.88008E+005    1.79924E+004    1.29180E+005   -4.94143E+004   -9.95308E+003
            8410    3.03028E+005    2.91327E+005    2.91327E+005    5.11302E+004   -4.91229E+004    3.40450E+005   -9.77781E+004    2.61614E+005    4.76698E+004    1.90180E+005    5.54849E+004    1.50796E+005   -2.89972E+004   -2.46906E+004
            8411    3.11992E+005    3.10857E+005    3.10857E+005    7.38286E+004   -4.26082E+004    3.53465E+005   -1.14026E+005    2.55762E+005    6.80299E+004    1.92565E+005    8.14826E+004    1.60221E+005   -1.61307E+004   -4.29404E+004
            8412    3.07953E+005    3.15248E+005    3.15248E+005    9.16333E+004   -3.60006E+004    3.51249E+005   -1.23627E+005    2.36402E+005    9.13710E+004    1.84803E+005    9.47072E+004    1.58012E+005   -3.95719E+003   -6.17954E+004
            8413    2.89376E+005    2.78276E+005    2.78276E+005    7.31199E+004   -5.27128E+004    3.30989E+005   -9.95611E+004    2.13370E+005    7.44255E+004    1.49190E+005    7.50678E+004    1.44770E+005   -2.30629E+003   -7.14269E+004
            8414    2.75406E+005    2.81768E+005    2.81768E+005    5.26896E+004   -2.37970E+004    3.05565E+005   -1.03554E+005    2.49783E+005    7.97801E+004    1.84600E+005    4.62803E+004    1.29647E+005   -2.49592E+002   -5.71618E+004
            8415    2.95247E+005    2.87117E+005    2.87117E+005    4.61105E+004   -4.22104E+004    3.29327E+005   -9.70056E+004    2.62968E+005    5.90249E+004    1.82279E+005    4.97129E+004    1.46764E+005   -8.10220E+003   -4.44526E+004
            8416    2.60737E+005    2.19425E+005    2.19425E+005    1.09098E+003   -6.92728E+004    2.88698E+005   -5.04145E+004    2.37930E+005    2.75953E+004    1.22368E+005    1.27976E+003    1.35961E+005   -2.24346E+003   -1.07060E+004
            8417    2.74020E+005    2.40726E+005    2.40726E+005    1.79890E+004   -6.52656E+004    3.05991E+005   -6.44830E+004    2.43023E+005    2.67949E+004    1.49785E+005    1.68695E+004    1.38334E+005   -1.94801E+004   -5.59696E+003
            8418    2.44767E+005    1.93846E+005    1.93846E+005    8.80966E+003   -8.36910E+004    2.77537E+005   -3.96549E+004    1.99328E+005    1.26026E+004    9.76138E+004    8.74820E+003    1.31927E+005   -6.33779E+003   -1.51098E+003
            8419    2.45307E+005    2.13497E+005    2.13497E+005    2.24256E+004   -6.31297E+004    2.76627E+005   -5.75977E+004    2.07521E+005    1.46408E+004    1.44528E+005    1.36240E+004    1.15655E+005   -3.18472E+004    3.06306E+002
            8420    2.29853E+005    1.80430E+005    1.80430E+005    3.21260E+003   -7.92869E+004    2.59717E+005   -3.47852E+004    1.92032E+005   -1.71157E+003    1.04652E+005    1.41476E+003    1.17479E+005   -1.05757E+004    5.84885E+003
            8421    1.85451E+005    1.47710E+005    1.47710E+005    2.93939E+003   -6.13245E+004    2.09034E+005   -2.97750E+004    1.57302E+005   -4.42924E+003    9.32635E+004    4.90653E+002    9.09234E+004   -1.24744E+004    3.48603E+003
            8422    1.54099E+005    1.31116E+005    1.31116E+005    1.36170E+003   -3.92088E+004    1.70325E+005   -3.10897E+004    1.41315E+005    3.03738E+003    9.09202E+004   -6.88327E+002    7.15209E+004   -1.05828E+004    9.81948E+001
            8423    1.93009E+005    1.54932E+005    1.54932E+005    9.58769E+003   -6.40569E+004    2.18989E+005   -3.34877E+004    1.56352E+005    1.81093E+003    1.08926E+005   -1.02737E+004    8.23843E+004   -3.62606E+004    3.28341E+003
            8424    1.49429E+005    1.23838E+005    1.23838E+005    4.12471E+003   -4.36322E+004    1.67470E+005   -2.81101E+004    1.30526E+005    6.40169E+003    8.67507E+004   -8.82202E+003    6.19471E+004   -3.01947E+004   -7.54216E+003
            8425    1.73711E+005    1.31051E+005    1.31051E+005    5.52687E+003   -6.72041E+004    1.98255E+005   -2.31245E+004    1.32306E+005    1.14414E+004    8.81573E+004   -3.02251E+004    5.15839E+004   -5.37628E+004   -3.00201E+004
            8426    2.33735E+005    1.88727E+005    1.88727E+005    1.77313E+004   -7.76086E+004    2.66336E+005   -4.29500E+004    1.81544E+005    2.29951E+004    1.36487E+005   -3.06322E+004    7.69264E+004   -6.58734E+004   -2.59396E+004
            8427    3.53412E+005    3.77644E+004   -3.55775E+005   -6.54927E+004   -3.55775E+005    3.93540E+005    1.27835E+005   -3.16712E+005   -6.11461E+004   -2.89643E+005   -3.27147E+004    1.32166E+005   -6.33835E+004    1.75879E+004
            8428    4.18006E+005    1.56726E+004   -4.50383E+005   -1.08622E+005   -4.50383E+005    4.66055E+005    1.81111E+005   -3.72902E+005   -1.04815E+005   -3.66514E+005   -7.20036E+004    1.64190E+005   -7.13016E+004    1.22744E+004
            8429    4.87355E+005   -1.74770E+004   -5.60346E+005   -1.60519E+005   -5.60346E+005    5.42869E+005    2.46114E+005   -4.36240E+005   -1.60009E+005   -4.54191E+005   -1.24143E+005    2.01219E+005   -7.63596E+004    7.61434E+003
            8430    5.58955E+005   -5.26619E+004   -6.75165E+005   -2.16271E+005   -6.75165E+005    6.22503E+005    3.14699E+005   -5.00680E+005   -2.20269E+005   -5.41347E+005   -1.82482E+005    2.44376E+005   -7.42645E+004   -4.98649E+003
            8431    5.32431E+005   -4.08637E+004   -6.34172E+005   -1.97975E+005   -6.34172E+005    5.93308E+005    2.91003E+005   -4.75934E+005   -1.80766E+005   -4.88540E+005   -2.03704E+005    2.49567E+005   -3.38663E+004    4.08216E+004
            8432    5.12489E+005   -7.88209E+004   -6.52748E+005   -2.40884E+005   -6.52748E+005    5.73927E+005    3.24151E+005   -4.49166E+005   -2.26915E+005   -4.97900E+005   -2.47638E+005    2.44028E+005   -1.10509E+004    7.16070E+004
            8433    4.74705E+005   -5.55759E+003   -5.37903E+005   -1.58589E+005   -5.37903E+005    5.32346E+005    2.34017E+005   -4.13487E+005   -1.33646E+005   -4.02656E+005   -1.65748E+005    2.24092E+005   -3.95216E+004    4.18170E+004
            8434    4.53411E+005   -4.39657E+004   -5.54054E+005   -1.96837E+005   -5.54054E+005    5.10088E+005    2.64952E+005   -3.88745E+005   -1.83814E+005   -4.05567E+005   -2.05475E+005    2.19329E+005   -1.25963E+004    7.29157E+004
            8435    4.18704E+005    1.85662E+004   -4.52172E+005   -1.21319E+005   -4.52172E+005    4.70738E+005    1.84975E+005   -3.60207E+005   -9.54274E+004   -3.29919E+005   -1.29577E+005    1.97303E+005   -4.16259E+004    4.15690E+004
            8436    3.95815E+005   -1.24317E+004   -4.59642E+005   -1.54354E+005   -4.59642E+005    4.47210E+005    2.08809E+005   -3.30839E+005   -1.43110E+005   -3.18776E+005   -1.64542E+005    1.93516E+005   -1.28575E+004    7.36574E+004
            8437    3.52925E+005    4.21133E+004   -3.55727E+005   -8.03323E+004   -3.55727E+005    3.97841E+005    1.31315E+005   -2.99210E+005   -5.67322E+004   -2.49897E+005   -8.73173E+004    1.67558E+005   -3.82638E+004    3.46279E+004
            8438    3.43877E+005    1.99571E+003   -3.86828E+005   -1.22675E+005   -3.86828E+005    3.88823E+005    1.69169E+005   -2.85961E+005   -1.16145E+005   -2.60453E+005   -1.30909E+005    1.69419E+005   -1.03684E+004    6.55973E+004
            8439    3.05700E+005    2.18541E+004   -3.24285E+005   -9.12694E+004   -3.24285E+005    3.46139E+005    1.31233E+005   -2.51693E+005   -8.98512E+004   -2.06061E+005   -9.77875E+004    1.46936E+005   -6.50072E+003    7.28228E+004
            8440    2.85981E+005    3.71490E+003   -3.09802E+005   -6.32360E+004   -3.09802E+005    3.13517E+005    1.23108E+005   -2.67482E+005   -8.92001E+004   -2.22667E+005   -5.74563E+004    1.24805E+005   -2.44310E+003    6.31942E+004
            8441    3.13242E+005    3.61868E+004   -3.09460E+005   -4.43508E+004   -3.09460E+005    3.45647E+005    1.05875E+005   -2.88536E+005   -5.00432E+004   -2.16637E+005   -5.09438E+004    1.47506E+005   -2.37951E+004    3.43679E+004
            8442    2.67768E+005    6.38786E+004   -2.29192E+005    2.67925E+003   -2.29192E+005    2.93070E+005    5.42112E+004   -2.51300E+005   -2.54048E+004   -1.39842E+005    2.61258E+003    1.34780E+005   -5.03365E+003    3.62998E+003
            8443    2.38420E+005    6.69963E+004   -2.01125E+005   -1.29592E+004   -2.01125E+005    2.68121E+005    4.90293E+004   -2.04825E+005    1.05813E+003   -1.36994E+005   -1.11519E+004    1.13854E+005   -1.11471E+004   -4.50808E+003
            8444    1.80851E+005    5.51537E+004   -1.46047E+005    2.98588E+003   -1.46047E+005    2.01201E+005    2.93026E+004   -1.62586E+005    6.98606E+003   -1.04234E+005    9.34061E+003    7.99902E+004   -1.48841E+004   -8.36257E+003
            8445    1.54311E+005    3.07875E+004   -1.37910E+005   -3.88422E+003   -1.37910E+005    1.68698E+005    3.70023E+004   -1.45154E+005   -5.56095E+003   -1.04709E+005   -7.37507E+002    6.61668E+004   -1.06681E+004   -1.25176E+003
            8446    1.07748E+005    2.12683E+004   -9.41947E+004    3.67337E+003   -9.41947E+004    1.15463E+005    2.30843E+004   -1.04443E+005    3.62119E+003   -7.95041E+004    6.62988E+003    3.73552E+004   -8.62747E+003    3.22546E+003
            8447    2.68971E+005    6.72116E+004   -2.36754E+005   -2.95532E+004   -2.36754E+005    3.03966E+005    6.63652E+004   -2.24474E+005   -4.06601E+002   -1.84249E+005   -1.44401E+004    1.11133E+005   -3.48076E+004   -9.01489E+003
            8448    1.86214E+005    6.07953E+004   -1.51045E+005   -1.32095E+004   -1.51045E+005    2.11840E+005    3.44864E+004   -1.47208E+005    5.94238E+003   -1.20566E+005    1.11643E+004    6.79854E+004   -3.68947E+004   -3.35911E+003
            8449    1.50273E+005    4.52871E+004   -1.23968E+005   -6.22535E+003   -1.23968E+005    1.69255E+005    2.83020E+004   -1.28020E+005    1.33570E+002   -9.54984E+004    1.04589E+004    5.69317E+004   -2.92897E+004    3.88059E+003
            8450    9.97221E+004    3.02325E+004   -8.06596E+004    1.65086E+003   -8.06596E+004    1.10892E+005    1.62587E+004   -8.97899E+004    7.06117E+003   -6.46434E+004    8.80600E+003    2.99771E+004   -2.08866E+004    1.49462E+004
            8451    1.09494E+005    4.52809E+004   -7.97025E+004   -6.80997E+002   -7.97025E+004    1.24983E+005    1.17009E+004   -8.32253E+004   -2.82834E+003   -5.47871E+004    2.25129E+004    2.42188E+004   -3.15661E+004    2.93336E+004
            8452    1.63248E+005    6.14471E+004   -1.24876E+005   -6.96341E+003   -1.24876E+005    1.86324E+005    2.34642E+004   -1.24251E+005   -9.22649E+003   -9.37297E+004    3.25636E+004    4.30987E+004   -4.51663E+004    2.90911E+004
            8453    2.12476E+005    7.30840E+004   -1.69431E+005   -1.59897E+004   -1.69431E+005    2.42515E+005    3.74456E+004   -1.61669E+005   -1.54772E+004   -1.34241E+005    3.73814E+004    6.17179E+004   -5.49707E+004    2.21870E+004
            8454    2.94299E+005    6.08803E+004   -2.68582E+005   -3.17198E+004   -2.68582E+005    3.29462E+005    7.98072E+004   -2.58338E+005   -3.13066E+004   -2.21964E+005    1.38486E+004    9.57221E+004   -5.95600E+004    2.22367E+004
            8455    5.68730E+005   -1.19260E+005   -7.52744E+005   -2.86081E+005   -7.52744E+005    6.33485E+005    3.86028E+005   -5.09163E+005   -2.72493E+005   -5.95512E+005   -2.90081E+005    2.66576E+005   -8.41713E+003    6.07806E+004
            8456    5.84098E+005   -7.81011E+004   -7.25007E+005   -2.36314E+005   -7.25007E+005    6.46906E+005    3.46474E+005   -5.32599E+005   -2.29081E+005   -5.70643E+005   -2.39698E+005    2.72385E+005   -2.60454E+004    3.36783E+004
            8457    6.28639E+005   -9.56710E+004   -7.95339E+005   -2.78069E+005   -7.95339E+005    6.99668E+005    3.89693E+005   -5.64338E+005   -2.87013E+005   -6.28701E+005   -2.53365E+005    2.90179E+005   -6.48237E+004   -1.40219E+004
            8458    6.13080E+005   -1.54386E+005   -8.34245E+005   -3.23406E+005   -8.34245E+005    6.79859E+005    4.37346E+005   -5.56936E+005   -3.10486E+005   -6.76536E+005   -3.25015E+005    2.83777E+005   -5.17337E+003    4.20794E+004
            8459    6.25793E+005   -1.12438E+005   -8.01987E+005   -2.70106E+005   -8.01987E+005    6.89549E+005    3.94844E+005   -5.78519E+005   -2.71867E+005   -6.41217E+005   -2.71447E+005    2.90270E+005   -1.59998E+004    2.23987E+004
            8460    6.86043E+005   -1.35559E+005   -8.98663E+005   -3.32968E+005   -8.98663E+005    7.63105E+005    4.55730E+005   -6.17125E+005   -3.45862E+005   -6.99997E+005   -3.21331E+005    3.31217E+005   -4.50162E+004   -1.59129E+004
            8461    6.38029E+005   -1.75984E+005   -8.81695E+005   -3.45645E+005   -8.81695E+005    7.05711E+005    4.67774E+005   -5.83957E+005   -3.33148E+005   -7.24350E+005   -3.45826E+005    2.93365E+005   -1.73399E+003    1.46407E+004
            8462    6.48486E+005   -1.32545E+005   -8.45062E+005   -2.89371E+005   -8.45062E+005    7.12517E+005    4.22326E+005   -6.03567E+005   -2.96626E+005   -6.80824E+005   -2.89529E+005    2.99931E+005   -5.32098E+003    7.92714E+003
            8463    7.20206E+005   -1.61947E+005   -9.62586E+005   -3.67513E+005   -9.62586E+005    8.00639E+005    4.97349E+005   -6.49117E+005   -3.82831E+005   -7.43230E+005   -3.65985E+005    3.56599E+005   -1.65484E+004   -6.93070E+003
            8464    1.00527E+005    9.58869E+004    9.58869E+004    2.99337E+003   -1.08398E+004    1.06727E+005   -2.93468E+004    9.83510E+004    8.34700E+003    7.82929E+004    1.40060E+003    3.85009E+004    7.51419E+003    4.57057E+003
            8465    9.56071E+004    8.22583E+004    8.22583E+004    2.53492E+002   -2.27529E+004    1.05011E+005   -1.99196E+004    8.90539E+004    2.96520E+003    6.27384E+004   -5.94478E+003    3.20640E+004    1.96434E+004    1.54274E+004
            8466    1.08198E+005    8.14186E+004    8.14186E+004    2.10866E+003   -4.18380E+004    1.23257E+005   -1.38964E+004    8.42905E+004    6.35730E+003    5.44250E+004   -1.90929E+004    2.41172E+004    3.09013E+004    3.11750E+004
            8467    6.71351E+004    5.90711E+004    5.90711E+004   -4.11201E+003   -1.14182E+004    7.04894E+004   -1.45136E+004    6.62318E+004   -3.29972E+003    5.07500E+004   -3.90943E+003    2.13869E+004    4.46499E+003    6.33544E+003
            8468    6.43784E+004    5.36381E+004    5.36381E+004   -6.76703E+003   -1.40876E+004    6.77258E+004   -1.09278E+004    6.34319E+004   -3.72014E+003    3.91906E+004   -2.68699E+003    1.77284E+004    1.08716E+004    1.86999E+004
            8469    7.27295E+004    5.48468E+004    5.48468E+004   -1.36422E+003   -2.72940E+004    8.21408E+004   -8.72954E+003    6.09460E+004    3.04568E+003    3.11037E+004   -7.96074E+003    1.32675E+004    1.78097E+004    2.93980E+004
            8470    3.29516E+004    3.39241E+004    3.39241E+004    2.95846E+003   -7.07111E+002    3.46312E+004   -1.20585E+004    3.24882E+004    7.13467E+003    2.54495E+004    3.59120E+003    1.33929E+004    1.69386E+003    6.48597E+003
            8471    4.05456E+004    3.49416E+004    3.49416E+004    6.25161E+002   -9.79804E+003    4.47397E+004   -8.58958E+003    3.73487E+004    5.34913E+003    1.91968E+004    1.22283E+003    1.13659E+004    4.76324E+003    1.75348E+004
            8472    5.12512E+004    3.88441E+004    3.88441E+004    1.43550E+003   -1.95732E+004    5.84174E+004   -6.90214E+003    3.96661E+004    4.82442E+003    1.54023E+004    4.79666E+002    7.92147E+003    7.48553E+003    2.64172E+004
            8473    2.27012E+004    8.33860E+003   -1.78638E+004   -4.11442E+003   -1.78638E+004    2.62024E+004    4.54655E+003   -1.00035E+004   -6.24565E+003   -3.84566E+003   -3.54834E+003    1.14317E+004   -6.04201E+001    6.23755E+003
            8474    3.40880E+004    1.70238E+004   -2.23289E+004   -3.37201E+003   -2.23289E+004    3.93527E+004    2.89237E+003    1.35839E+004   -4.83522E+003   -2.65953E+003   -1.18236E+003    9.92647E+003   -5.93160E+002    1.68839E+004
            8475    4.51245E+004    2.47527E+004   -2.73510E+004   -1.65804E+003   -2.73510E+004    5.21037E+004    1.41880E+003    1.29902E+004   -1.84543E+003   -1.32868E+003   -1.08228E+003    6.48954E+003   -2.89963E+002    2.52268E+004
            8476    4.14151E+004    9.44177E+003   -3.41081E+004    4.77737E+003   -3.41081E+004    4.35499E+004    6.62965E+003   -4.08179E+004    4.95273E+003   -2.84200E+004    3.57828E+003    1.30217E+004   -2.39581E+003    6.31243E+003
            8477    4.46554E+004    1.09237E+004   -3.52619E+004    7.68693E+003   -3.52619E+004    4.61857E+004    5.55042E+003   -4.43903E+004    3.96435E+003   -2.18377E+004    1.22212E+003    1.08027E+004   -5.52116E+003    1.77955E+004
            8478    5.20967E+004    2.09534E+004   -3.80265E+004    1.71507E+003   -3.80265E+004    5.89799E+004    5.11935E+003   -4.29376E+004   -1.43304E+003   -1.60302E+004    2.10516E+003    7.90473E+003   -7.86172E+003    2.62294E+004
            8479    7.27741E+004    3.48148E+003   -7.22165E+004   -2.76974E+003   -7.22165E+004    7.56980E+004    2.38349E+004   -7.21663E+004   -8.77375E+003   -5.95169E+004   -3.21411E+003    2.71600E+004   -4.65167E+003    6.58932E+003
            8480    7.01666E+004    1.05422E+004   -6.32688E+004    2.57297E+003   -6.32688E+004    7.38110E+004    1.67179E+004   -6.91375E+004   -5.49817E+003   -4.55284E+004    8.73004E+002    2.28517E+004   -1.24478E+004    1.82012E+004
            8481    7.49845E+004    2.49049E+004   -5.96070E+004   -1.04234E+003   -5.96070E+004    8.45119E+004    1.19148E+004   -6.36399E+004   -6.77806E+003   -3.44568E+004    5.49046E+003    1.48439E+004   -1.85861E+004    2.98279E+004
            8482    6.28719E+005   -9.54989E+004   -7.95278E+005   -2.77998E+005   -7.95278E+005    6.99779E+005    3.89592E+005   -5.64350E+005   -2.86890E+005   -6.28653E+005   -2.53231E+005    2.90188E+005    6.48718E+004    1.41018E+004
            8483    5.84325E+005   -7.81667E+004   -7.25293E+005   -2.36334E+005   -7.25293E+005    6.47126E+005    3.46598E+005   -5.32881E+005   -2.29025E+005   -5.70990E+005   -2.39778E+005    2.72390E+005    2.57800E+004   -3.40305E+004
            8484    5.69418E+005   -1.19869E+005   -7.54089E+005   -2.86777E+005   -7.54089E+005    6.34220E+005    3.86911E+005   -5.09868E+005   -2.73175E+005   -5.96828E+005   -2.90732E+005    2.66870E+005    8.36282E+003   -6.05262E+004
            8485    6.86149E+005   -1.35626E+005   -8.98893E+005   -3.33228E+005   -8.98893E+005    7.63267E+005    4.55916E+005   -6.17096E+005   -3.45918E+005   -7.00113E+005   -3.21716E+005    3.31371E+005    4.47415E+004    1.59471E+004
            8486    6.25492E+005   -1.12236E+005   -8.01372E+005   -2.69563E+005   -8.01372E+005    6.89136E+005    3.94390E+005   -5.78409E+005   -2.71359E+005   -6.40904E+005   -2.70908E+005    2.89964E+005    1.59336E+004   -2.24354E+004
            8487    6.13337E+005   -1.54613E+005   -8.34752E+005   -3.23684E+005   -8.34752E+005    6.80139E+005    4.37683E+005   -5.57183E+005   -3.10739E+005   -6.77032E+005   -3.25278E+005    2.83905E+005    5.16695E+003   -4.17877E+004
            8488    7.20291E+005   -1.62037E+005   -9.62778E+005   -3.67650E+005   -9.62778E+005    8.00741E+005    4.97489E+005   -6.49177E+005   -3.82904E+005   -7.43350E+005   -3.66212E+005    3.56694E+005    1.60969E+004    6.67738E+003
            8489    6.48223E+005   -1.32401E+005   -8.44587E+005   -2.89028E+005   -8.44587E+005    7.12186E+005    4.22005E+005   -6.03405E+005   -2.96302E+005   -6.80528E+005   -2.89186E+005    2.99721E+005    5.61517E+003   -7.87353E+003
            8490    6.38001E+005   -1.75935E+005   -8.81648E+005   -3.45700E+005   -8.81648E+005    7.05713E+005    4.67761E+005   -5.83855E+005   -3.33123E+005   -7.24275E+005   -3.45884E+005    2.93384E+005    1.77265E+003   -1.46218E+004
            8491    3.13854E+005    3.52643E+005    3.52643E+005    1.10637E+005   -1.98230E+003    3.54625E+005   -1.53766E+005    2.62242E+005    1.09020E+005    2.36220E+005    1.16057E+005    1.52054E+005    6.01279E+003    6.75787E+004
            8492    3.50372E+005    3.98755E+005    3.98755E+005    1.31838E+005    1.99703E+003    3.96758E+005   -1.77530E+005    2.88263E+005    1.23805E+005    2.69175E+005    1.39612E+005    1.70342E+005    7.87534E+003    7.40274E+004
            8493    3.94279E+005    4.67150E+005    4.67150E+005    1.63233E+005    2.16246E+004    4.45526E+005   -2.17336E+005    3.29303E+005    1.51270E+005    3.29600E+005    1.71139E+005    1.91792E+005    9.06619E+003    7.34920E+004
            8494    4.51196E+005    5.49845E+005    5.49845E+005    1.96775E+005    4.15199E+004    5.08325E+005   -2.62713E+005    3.83802E+005    1.81699E+005    4.01934E+005    2.04507E+005    2.16536E+005    9.05832E+003    7.88841E+004
            8495    5.10252E+005    6.47153E+005    6.47153E+005    2.40443E+005    7.46143E+004    5.72539E+005   -3.20737E+005    4.43248E+005    2.21955E+005    4.93987E+005    2.46268E+005    2.42104E+005    7.94636E+003    7.38135E+004
            8496    3.26506E+005    3.31440E+005    3.31440E+005    7.69057E+004   -3.66909E+004    3.68131E+005   -1.23885E+005    2.76493E+005    7.27728E+004    2.13296E+005    8.55862E+004    1.64695E+005    1.90675E+004    4.48399E+004
            8497    3.66076E+005    3.91042E+005    3.91042E+005    1.08287E+005   -2.24553E+004    4.13497E+005   -1.58958E+005    3.06527E+005    9.76675E+004    2.60682E+005    1.18524E+005    1.84070E+005    2.37545E+004    4.85294E+004
            8498    4.09353E+005    4.50266E+005    4.50266E+005    1.34424E+005   -1.22086E+004    4.62475E+005   -1.90827E+005    3.42307E+005    1.21294E+005    3.05127E+005    1.46061E+005    2.05349E+005    2.61531E+004    5.52522E+004
            8499    4.59551E+005    5.31703E+005    5.31703E+005    1.68017E+005    1.52168E+004    5.16486E+005   -2.38312E+005    3.96034E+005    1.57808E+005    3.78981E+005    1.78147E+005    2.27215E+005    2.51432E+004    5.65036E+004
            8500    5.08920E+005    6.14847E+005    6.14847E+005    2.02989E+005    4.59038E+004    5.68943E+005   -2.87913E+005    4.49317E+005    1.96606E+005    4.56259E+005    2.10875E+005    2.47818E+005    2.11724E+004    5.62593E+004
            8501    3.36164E+005    3.31543E+005    3.31543E+005    6.16653E+004   -4.50174E+004    3.76560E+005   -1.16064E+005    2.94300E+005    3.87624E+004    2.45945E+005    6.34835E+004    1.51418E+005    3.61058E+004    2.51592E+004
            8502    3.86113E+005    3.91080E+005    3.91080E+005    8.97109E+004   -4.41486E+004    4.35229E+005   -1.45548E+005    3.27447E+005    5.55714E+004    2.87082E+005    9.39893E+004    1.76705E+005    4.46634E+004    3.28932E+004
            8503    4.51871E+005    4.85634E+005    4.85634E+005    1.27856E+005   -2.21672E+004    5.07802E+005   -1.97108E+005    3.89625E+005    9.40374E+004    3.63034E+005    1.34252E+005    2.07699E+005    4.71848E+004    4.05483E+004
            8504    5.13192E+005    5.77086E+005    5.77086E+005    1.66460E+005    1.76584E+003    5.75321E+005   -2.48438E+005    4.47672E+005    1.37430E+005    4.35143E+005    1.72740E+005    2.39903E+005    4.50271E+004    4.18563E+004
            8505    5.76065E+005    6.82884E+005    6.82884E+005    2.11290E+005    4.08225E+004    6.42061E+005   -3.11666E+005    5.14560E+005    1.94051E+005    5.24793E+005    2.16153E+005    2.70883E+005    3.87076E+004    3.93919E+004
            8506    2.74408E+005    2.46503E+005    2.46503E+005    2.99434E+004   -6.20931E+004    3.08596E+005   -7.14510E+004    2.35731E+005    6.14237E+003    1.99269E+005    8.94200E+003    1.01904E+005    4.86533E+004    9.66792E+003
            8507    3.39876E+005    3.37529E+005    3.37529E+005    6.13177E+004   -4.20219E+004    3.79551E+005   -1.18942E+005    3.01367E+005    3.42895E+004    2.74910E+005    4.76250E+004    1.27648E+005    5.70737E+004    2.57804E+004
            8508    4.03064E+005    4.22805E+005    4.22805E+005    9.48744E+004   -2.71782E+004    4.49984E+005   -1.63501E+005    3.57804E+005    6.29641E+004    3.45589E+005    8.19482E+004    1.58257E+005    5.98365E+004    2.38820E+004
            8509    4.73644E+005    5.31794E+005    5.31794E+005    1.40987E+005    5.04343E+003    5.26751E+005   -2.25941E+005    4.26326E+005    1.10442E+005    4.35258E+005    1.32124E+005    1.94081E+005    5.89335E+004    2.57201E+004
            8510    5.43827E+005    6.39222E+005    6.39222E+005    1.88700E+005    3.51198E+004    6.04102E+005   -2.87681E+005    4.91370E+005    1.61678E+005    5.21364E+005    1.79999E+005    2.33151E+005    5.39995E+004    1.63460E+004
            8511    5.26787E+005    6.32139E+005    6.32139E+005    2.07593E+005    4.26056E+004    5.89533E+005   -2.94113E+005    4.63073E+005    2.13776E+005    5.19256E+005    1.49305E+005    2.15840E+005    8.13941E+004   -1.52806E+004
            8512    4.58223E+005    5.13719E+005    5.13719E+005    1.49752E+005   -8.51969E+002    5.14571E+005   -2.20873E+005    3.96516E+005    1.55518E+005    4.27070E+005    8.00305E+004    1.72803E+005    8.25070E+004   -2.89740E+003
            8513    3.95241E+005    4.19373E+005    4.19373E+005    1.06879E+005   -2.49295E+004    4.44303E+005   -1.67108E+005    3.40247E+005    1.13193E+005    3.50320E+005    3.78103E+004    1.38245E+005    7.86355E+004    1.34590E+004
            8514    3.39645E+005    3.29230E+005    3.29230E+005    6.77062E+004   -5.46381E+004    3.83868E+005   -1.14099E+005    2.83291E+005    7.29158E+004    2.74005E+005   -4.62329E+003    1.11462E+005    7.15992E+004    1.49027E+004
            8515    2.74963E+005    2.50974E+005    2.50974E+005    4.30951E+004   -6.07982E+004    3.11772E+005   -7.77569E+004    2.23940E+005    4.60161E+004    2.05170E+005   -1.79154E+004    8.78947E+004    6.28778E+004    1.80290E+004
            8516    2.19171E+005    1.77950E+005    1.77950E+005    1.78475E+004   -7.18406E+004    2.49791E+005   -4.13190E+004    1.69839E+005    1.80015E+004    1.42277E+005   -3.63211E+004    6.23887E+004    5.56547E+004    2.53015E+004
            8517    1.56131E+005    1.14545E+005    1.14545E+005    4.79240E+003   -6.41968E+004    1.78742E+005   -1.83803E+004    1.13358E+005    5.55752E+003    8.60363E+004   -3.64530E+004    3.87643E+004    4.38766E+004    2.86984E+004
            8518    1.35437E+005    1.07389E+005    1.07389E+005    2.83597E+003   -4.56081E+004    1.52997E+005   -2.15389E+004    1.13328E+005   -8.16687E+003    8.65397E+004   -1.37562E+004    4.54103E+004    2.86936E+004    7.23116E+003
            8519    1.38396E+005    1.17383E+005    1.17383E+005   -3.33891E+003   -3.36587E+004    1.51042E+005   -2.67951E+004    1.30605E+005   -4.77521E+003    9.31788E+004   -8.01828E+003    5.42680E+004    1.13644E+004   -1.59543E+003
            8520    1.89266E+005    1.57078E+005    1.57078E+005    1.57145E+004   -5.79429E+004    2.15021E+005   -3.82831E+004    1.51580E+005    8.41102E+002    1.21943E+005   -7.93442E+003    7.30476E+004    3.62674E+004   -4.55555E+003
            8521    1.78753E+005    1.53097E+005    1.53097E+005    5.56393E+003   -4.56829E+004    1.98780E+005   -3.76593E+004    1.60940E+005    2.75005E+003    1.08864E+005    1.36434E+003    8.15341E+004    1.30415E+004   -5.48005E+003
            8522    2.03983E+005    1.64526E+005    1.64526E+005   -1.87633E+003   -6.30418E+004    2.27567E+005   -3.32025E+004    1.81565E+005   -7.57390E+003    1.12755E+005   -5.57372E+003    9.43861E+004    1.23805E+004   -7.75592E+003
            8523    2.53792E+005    2.17135E+005    2.17135E+005    1.52714E+004   -6.77768E+004    2.84912E+005   -5.48766E+004    2.19950E+005    8.11063E+003    1.41748E+005    1.47712E+004    1.25459E+005    7.67052E+003   -4.60445E+002
            8524    2.72513E+005    2.37668E+005    2.37668E+005   -4.21986E+003   -5.75776E+004    2.95246E+005   -5.86236E+004    2.60369E+005    3.49699E+004    1.45070E+005   -4.16875E+003    1.36593E+005    1.89931E+003    1.02775E+004
            8525    2.91328E+005    3.21700E+005    3.21700E+005    7.04100E+004    2.37531E+003    3.19325E+005   -1.31495E+005    2.72581E+005    9.69802E+004    2.38822E+005    5.86832E+004    1.21301E+005    8.38782E+001    6.76077E+004
            8526    2.26038E+005    1.95767E+005    1.95767E+005    2.09264E+004   -5.94811E+004    2.55248E+005   -5.24042E+004    1.89605E+005    2.47497E+001    1.51660E+005    5.52813E+003    9.18173E+004    3.46196E+004   -2.41075E+003
            8527    2.95235E+005    2.70669E+005    2.70669E+005    2.49756E+004   -5.68472E+004    3.27516E+005   -7.95992E+004    2.67890E+005    1.86270E+004    1.99340E+005    2.08300E+004    1.33329E+005    2.27842E+004    2.00918E+003
            8528    3.10769E+005    3.11578E+005    3.11578E+005    4.60195E+004   -3.02137E+004    3.41792E+005   -1.09128E+005    2.88585E+005    6.69419E+004    2.10146E+005    5.02965E+004    1.48672E+005    1.02003E+004    4.75629E+004
            8529    2.95447E+005    3.12764E+005    3.12764E+005    9.05044E+004   -2.25076E+004    3.35272E+005   -1.26920E+005    2.39002E+005    9.05460E+004    1.96926E+005    9.32886E+004    1.37226E+005    2.39387E+003    8.11299E+004
            8530    3.43547E+005    1.97349E+003   -3.86530E+005   -1.22827E+005   -3.86530E+005    3.88504E+005    1.69128E+005   -2.85418E+005   -1.16146E+005   -2.60225E+005   -1.31013E+005    1.69316E+005    1.02847E+004   -6.54869E+004
            8531    3.96056E+005   -1.26185E+004   -4.60095E+005   -1.54600E+005   -4.60095E+005    4.47476E+005    2.09105E+005   -3.31068E+005   -1.43369E+005   -3.19162E+005   -1.64783E+005    1.93607E+005    1.28339E+004   -7.37506E+004
            8532    4.54852E+005   -4.51065E+004   -5.56725E+005   -1.98082E+005   -5.56725E+005    5.11619E+005    2.66638E+005   -3.90344E+005   -1.85157E+005   -4.08094E+005   -2.06663E+005    2.19920E+005    1.25547E+004   -7.29234E+004
            8533    5.14073E+005   -7.99964E+004   -6.55602E+005   -2.42182E+005   -6.55602E+005    5.75606E+005    3.25927E+005   -4.50883E+005   -2.28260E+005   -5.00654E+005   -2.48866E+005    2.44683E+005    1.10102E+004   -7.13872E+004
            8534    3.53078E+005    4.21967E+004   -3.55834E+005   -8.03781E+004   -3.55834E+005    3.98030E+005    1.31338E+005   -2.99263E+005   -5.67493E+004   -2.49899E+005   -8.73671E+004    1.67653E+005    3.83508E+004   -3.46378E+004
            8535    4.19374E+005    1.83302E+004   -4.53192E+005   -1.21909E+005   -4.53192E+005    4.71522E+005    1.85590E+005   -3.60660E+005   -9.59895E+004   -3.30638E+005   -1.30143E+005    1.97725E+005    4.16500E+004   -4.15201E+004
            8536    4.75622E+005   -5.76922E+003   -5.39161E+005   -1.59167E+005   -5.39161E+005    5.33391E+005    2.34699E+005   -4.14222E+005   -1.34203E+005   -4.03534E+005   -1.66360E+005    2.24608E+005    3.95028E+004   -4.19353E+004
            8537    5.33244E+005   -4.12549E+004   -6.35494E+005   -1.98700E+005   -6.35494E+005    5.94239E+005    2.91816E+005   -4.76587E+005   -1.81318E+005   -4.89700E+005   -2.04431E+005    2.49972E+005    3.35320E+004   -4.08757E+004
            8538    5.58413E+005   -5.22866E+004   -6.74258E+005   -2.16003E+005   -6.74258E+005    6.21972E+005    3.14183E+005   -4.99988E+005   -2.19877E+005   -5.40678E+005   -1.81993E+005    2.44014E+005    7.44275E+004    5.05597E+003
            8539    4.87079E+005   -1.75360E+004   -5.60087E+005   -1.60459E+005   -5.60087E+005    5.42551E+005    2.46028E+005   -4.36024E+005   -1.59907E+005   -4.53950E+005   -1.24226E+005    2.01109E+005    7.63779E+004   -7.83667E+003
            8540    4.17924E+005    1.55666E+004   -4.50364E+005   -1.08577E+005   -4.50364E+005    4.65931E+005    1.81125E+005   -3.72930E+005   -1.04715E+005   -3.66419E+005   -7.22398E+004    1.64308E+005    7.11245E+004   -1.22616E+004
            8541    3.54121E+005    3.75524E+004   -3.56733E+005   -6.57536E+004   -3.56733E+005    3.94286E+005    1.28312E+005   -3.17469E+005   -6.13005E+004   -2.90374E+005   -3.32599E+004    1.32594E+005    6.33509E+004   -1.76377E+004
            8542    2.94675E+005    6.09550E+004   -2.68928E+005   -3.17603E+004   -2.68928E+005    3.29883E+005    7.99110E+004   -2.58671E+005   -3.14743E+004   -2.22206E+005    1.39467E+004    9.58426E+004    5.96558E+004   -2.23235E+004
            8543    2.12090E+005    7.29279E+004   -1.69148E+005   -1.59908E+004   -1.69148E+005    2.42076E+005    3.74036E+004   -1.61366E+005   -1.54982E+004   -1.34021E+005    3.73081E+004    6.15936E+004    5.48704E+004   -2.21642E+004
            8544    1.62809E+005    6.11833E+004   -1.24620E+005   -6.92389E+003   -1.24620E+005    1.85803E+005    2.34535E+004   -1.24088E+005   -9.24472E+003   -9.35225E+004    3.24067E+004    4.30457E+004    4.50050E+004   -2.90050E+004
            8545    1.09564E+005    4.53505E+004   -7.97107E+004   -6.24489E+002   -7.97107E+004    1.25061E+005    1.16616E+004   -8.33027E+004   -2.74268E+003   -5.48531E+004    2.26111E+004    2.42747E+004    3.15692E+004   -2.92528E+004
            8546    9.97982E+004    3.02422E+004   -8.07575E+004    1.55636E+003   -8.07575E+004    1.11000E+005    1.63196E+004   -8.97963E+004    6.96902E+003   -6.46947E+004    8.76676E+003    2.99950E+004    2.09713E+004   -1.49826E+004
            8547    1.08153E+005    2.14677E+004   -9.44912E+004    3.64145E+003   -9.44912E+004    1.15959E+005    2.31274E+004   -1.04771E+005    3.68135E+003   -7.97108E+004    6.64739E+003    3.75377E+004    8.72862E+003   -3.21145E+003
            8548    1.50622E+005    4.53982E+004   -1.24238E+005   -6.18018E+003   -1.24238E+005    1.69636E+005    2.83399E+004   -1.28371E+005    6.77692E+001   -9.57209E+004    1.06335E+004    5.70059E+004    2.93951E+004   -3.94672E+003
            8549    1.54293E+005    3.07909E+004   -1.37899E+005   -3.91534E+003   -1.37899E+005    1.68690E+005    3.70078E+004   -1.45115E+005   -5.60954E+003   -1.04699E+005   -7.14628E+002    6.61428E+004    1.07935E+004    1.19931E+003
            8550    1.86471E+005    6.08643E+004   -1.51259E+005   -1.31951E+004   -1.51259E+005    2.12123E+005    3.45300E+004   -1.47472E+005    5.91503E+003   -1.20757E+005    1.12519E+004    6.80172E+004    3.70192E+004    3.20552E+003
            8551    1.80196E+005    5.48305E+004   -1.45587E+005    3.05105E+003   -1.45587E+005    2.00417E+005    2.92350E+004   -1.62148E+005    6.91209E+003   -1.04076E+005    9.45860E+003    7.95616E+004    1.48936E+004    8.31884E+003
            8552    2.69218E+005    6.71965E+004   -2.37053E+005   -2.96767E+004   -2.37053E+005    3.04249E+005    6.65110E+004   -2.24659E+005   -4.69164E+002   -1.84521E+005   -1.45427E+004    1.11215E+005    3.48634E+004    8.99996E+003
            8553    2.37764E+005    6.68006E+004   -2.00600E+005   -1.30064E+004   -2.00600E+005    2.67401E+005    4.89353E+004   -2.04194E+005    1.12337E+003   -1.36767E+005   -1.11627E+004    1.13461E+005    1.12301E+004    4.57046E+003
            8554    2.67732E+005    6.41918E+004   -2.28869E+005    2.90978E+003   -2.28869E+005    2.93061E+005    5.39224E+004   -2.51215E+005   -2.50074E+004   -1.39622E+005    2.86192E+003    1.34736E+005    5.06472E+003   -3.41448E+003
            8555    2.85831E+005    3.84404E+003   -3.09517E+005   -6.30989E+004   -3.09517E+005    3.13361E+005    1.22924E+005   -2.67326E+005   -8.89990E+004   -2.22449E+005   -5.73246E+004    1.24848E+005    2.37422E+003   -6.29348E+004
            8556    3.13118E+005    3.62136E+004   -3.09329E+005   -4.44003E+004   -3.09329E+005    3.45542E+005    1.05838E+005   -2.88351E+005   -4.99740E+004   -2.16589E+005   -5.09527E+004    1.47460E+005    2.37642E+004   -3.42392E+004
            8557    3.05382E+005    2.19028E+004   -3.23882E+005   -9.11338E+004   -3.23882E+005    3.45785E+005    1.31038E+005   -2.51397E+005   -8.97074E+004   -2.05780E+005   -9.76261E+004    1.46809E+005    6.47672E+003   -7.27032E+004
            8558    5.93020E+005    7.48827E+005    7.48827E+005    2.68274E+005    8.60881E+004    6.62739E+005   -3.67730E+005    5.24282E+005    2.73609E+005    6.01742E+005    2.27837E+005    2.64156E+005    7.10899E+004   -2.82270E+004
            8559    6.10984E+005    7.51212E+005    7.51212E+005    2.41134E+005    7.40736E+004    6.77138E+005   -3.55473E+005    5.56015E+005    2.21054E+005    6.09816E+005    2.35549E+005    2.71654E+005    4.41363E+004    1.09387E+004
            8560    6.31693E+005    7.80750E+005    7.80750E+005    2.54339E+005    8.02751E+004    7.00475E+005   -3.71788E+005    5.73907E+005    2.50334E+005    6.07780E+005    2.57251E+005    2.98840E+005    2.97903E+004    3.22192E+004
            8561    5.57763E+005    7.03996E+005    7.03996E+005    2.41002E+005    8.47782E+004    6.19218E+005   -3.43259E+005    5.04911E+005    2.39869E+005    5.44191E+005    2.45716E+005    2.66213E+005    1.62733E+004    4.77160E+004
            8562    5.69459E+005    7.45594E+005    7.45594E+005    2.84463E+005    1.09069E+005    6.36524E+005   -3.79709E+005    5.03082E+005    2.62689E+005    5.88212E+005    2.88225E+005    2.66530E+005    6.06241E+003    6.52035E+004
            8563    6.51401E+005    8.59839E+005    8.59839E+005    3.27101E+005    1.33616E+005    7.26223E+005   -4.40185E+005    5.81280E+005    3.33072E+005    6.78041E+005    3.09443E+005    3.09426E+005    5.01221E+004   -2.47694E+004
            8564    6.65356E+005    8.43035E+005    8.43035E+005    2.85153E+005    1.06629E+005    7.36406E+005   -4.11606E+005    6.07873E+005    2.72009E+005    6.80607E+005    2.82201E+005    3.03924E+005    2.97846E+004    3.46079E+003
            8565    6.78961E+005    8.67901E+005    8.67901E+005    2.93504E+005    1.18600E+005    7.49301E+005   -4.26668E+005    6.25190E+005    3.01877E+005    6.83540E+005    2.94588E+005    3.21503E+005    1.91936E+004    2.07245E+004
            8566    5.98145E+005    7.78541E+005    7.78541E+005    2.72876E+005    1.18271E+005    6.60270E+005   -3.89896E+005    5.50434E+005    2.76849E+005    6.18037E+005    2.74802E+005    2.81111E+005    1.02078E+004    3.30760E+004
            8567    6.16016E+005    8.28529E+005    8.28529E+005    3.23086E+005    1.42366E+005    6.86163E+005   -4.31327E+005    5.51475E+005    2.99064E+005    6.70329E+005    3.24588E+005    2.85654E+005    3.84971E+003    4.32968E+004
            8568    6.86082E+005    9.25780E+005    9.25780E+005    3.63100E+005    1.61479E+005    7.64301E+005   -4.83453E+005    6.13929E+005    3.68778E+005    7.20810E+005    3.60770E+005    3.37887E+005    1.80194E+004   -1.18524E+004
            8569    6.96102E+005    8.97708E+005    8.97708E+005    3.12806E+005    1.27790E+005    7.69918E+005   -4.46101E+005    6.37167E+005    3.03902E+005    7.21930E+005    3.12472E+005    3.23002E+005    1.03961E+004    1.20372E+003
            8570    7.02829E+005    9.14115E+005    9.14115E+005    3.15662E+005    1.40169E+005    7.73946E+005   -4.56649E+005    6.50737E+005    3.30699E+005    7.23465E+005    3.15781E+005    3.33334E+005    6.72628E+003    7.07458E+003
            8571    6.20121E+005    8.21766E+005    8.21766E+005    2.92721E+005    1.39351E+005    6.82414E+005   -4.17946E+005    5.75080E+005    2.98817E+005    6.62089E+005    2.92932E+005    2.88678E+005    3.48466E+003    1.11166E+004
            8572    6.43066E+005    8.77615E+005    8.77615E+005    3.46543E+005    1.62629E+005    7.14987E+005   -4.62262E+005    5.79316E+005    3.20867E+005    7.19162E+005    3.46758E+005    2.96478E+005    1.47730E+003    1.66655E+004
            8573    1.08441E+005    8.15320E+004    8.15320E+004    2.11515E+003   -4.20162E+004    1.23548E+005   -1.38770E+004    8.43638E+004    6.34964E+003    5.44639E+004   -1.91825E+004    2.41164E+004   -3.09973E+004   -3.12877E+004
            8574    9.51514E+004    8.19707E+004    8.19707E+004    2.42493E+002   -2.24872E+004    1.04458E+005   -1.99086E+004    8.87294E+004    3.00538E+003    6.25483E+004   -5.82774E+003    3.19116E+004   -1.94726E+004   -1.54041E+004
            8575    9.96717E+004    9.52358E+004    9.52358E+004    3.08528E+003   -1.05526E+004    1.05788E+005   -2.92562E+004    9.75394E+004    8.41910E+003    7.77916E+004    1.55775E+003    3.81579E+004   -7.44131E+003   -4.64214E+003
            8576    7.26015E+004    5.47590E+004    5.47590E+004   -1.37482E+003   -2.72312E+004    8.19902E+004   -8.71766E+003    6.08679E+004    3.03329E+003    3.10316E+004   -7.91189E+003    1.32261E+004   -1.77316E+004   -2.93985E+004
            8577    6.42220E+004    5.34830E+004    5.34830E+004   -6.82193E+003   -1.40453E+004    6.75283E+004   -1.08719E+004    6.32984E+004   -3.75850E+003    3.90487E+004   -2.67443E+003    1.76434E+004   -1.08146E+004   -1.87306E+004
            8578    6.64471E+004    5.83514E+004    5.83514E+004   -4.22280E+003   -1.13880E+004    6.97394E+004   -1.42468E+004    6.55695E+004   -3.40677E+003    5.01421E+004   -3.99479E+003    2.11132E+004   -4.40257E+003   -6.33671E+003
            8579    5.11996E+004    3.87731E+004    3.87731E+004    1.49073E+003   -1.96036E+004    5.83768E+004   -6.88674E+003    3.94791E+004    4.82917E+003    1.53024E+004    5.28613E+002    7.85790E+003   -7.40331E+003   -2.64481E+004
            8580    4.04509E+004    3.48006E+004    3.48006E+004    6.32472E+002   -9.86379E+003    4.46644E+004   -8.52311E+003    3.71974E+004    5.34516E+003    1.90192E+004    1.20500E+003    1.13236E+004   -4.75751E+003   -1.75401E+004
            8581    3.25467E+004    3.35089E+004    3.35089E+004    3.01052E+003   -7.57968E+002    3.42669E+004   -1.19205E+004    3.20503E+004    7.14769E+003    2.49731E+004    3.64065E+003    1.33318E+004   -1.67973E+003   -6.45631E+003
            8582    4.51129E+004    2.46108E+004   -2.74802E+004   -1.68358E+003   -2.74802E+004    5.20911E+004    1.51766E+003    1.14964E+004   -1.91969E+003   -1.51074E+003   -1.12256E+003    6.51399E+003    3.84302E+002   -2.52121E+004
            8583    3.41721E+004    1.70162E+004   -2.24355E+004   -3.34754E+003   -2.24355E+004    3.94517E+004    2.92230E+003    1.30716E+004   -4.82351E+003   -2.77487E+003   -1.16853E+003    9.94468E+003    6.10265E+002   -1.69299E+004
            8584    2.27130E+004    8.10143E+003   -1.81065E+004   -4.14112E+003   -1.81065E+004    2.62079E+004    4.71539E+003   -1.09989E+004   -6.26885E+003   -4.29306E+003   -3.58425E+003    1.14242E+004    8.05033E+001   -6.28542E+003
            8585    5.24199E+004    2.11000E+004   -3.82513E+004    1.71578E+003   -3.82513E+004    5.93513E+004    5.14519E+003   -4.31743E+004   -1.45746E+003   -1.61922E+004    2.21404E+003    7.92307E+003    8.04215E+003   -2.63363E+004
            8586    4.48297E+004    1.09494E+004   -3.53967E+004    7.74461E+003   -3.53967E+004    4.63461E+004    5.56754E+003   -4.45709E+004    3.99949E+003   -2.19510E+004    1.24889E+003    1.08421E+004    5.56378E+003   -1.78378E+004
            8587    4.20376E+004    9.44380E+003   -3.47448E+004    4.74734E+003   -3.47448E+004    4.41886E+004    6.85121E+003   -4.14412E+004    4.88405E+003   -2.90330E+004    3.59532E+003    1.32233E+004    2.41629E+003   -6.23856E+003
            8588    7.53504E+004    2.50046E+004   -5.99183E+004   -1.06255E+003   -5.99183E+004    8.49228E+004    1.19921E+004   -6.39573E+004   -6.80641E+003   -3.47464E+004    5.57658E+003    1.49747E+004    1.87566E+004   -2.98305E+004
            8589    7.01271E+004    1.05656E+004   -6.32080E+004    2.59072E+003   -6.32080E+004    7.37736E+004    1.66839E+004   -6.90959E+004   -5.50027E+003   -4.54254E+004    8.74014E+002    2.28306E+004    1.24707E+004   -1.82428E+004
            8590    7.34109E+004    3.44642E+003   -7.29037E+004   -2.83562E+003   -7.29037E+004    7.63501E+004    2.40976E+004   -7.28025E+004   -8.90523E+003   -6.00954E+004   -3.29224E+003    2.74053E+004    4.65221E+003   -6.62851E+003
            8591    5.69106E+005    7.45088E+005    7.45088E+005    2.84282E+005    1.08944E+005    6.36144E+005   -3.79438E+005    5.02725E+005    2.62535E+005    5.87686E+005    2.88093E+005    2.66379E+005   -6.14088E+003   -6.53956E+004
            8592    5.58138E+005    7.04480E+005    7.04480E+005    2.41038E+005    8.49017E+004    6.19579E+005   -3.43473E+005    5.05390E+005    2.40025E+005    5.44650E+005    2.45745E+005    2.66353E+005   -1.63227E+004   -4.76079E+004
            8593    6.32080E+005    7.81363E+005    7.81363E+005    2.54502E+005    8.05110E+004    7.00852E+005   -3.72126E+005    5.74386E+005    2.50537E+005    6.08489E+005    2.57351E+005    2.98890E+005   -3.00913E+004   -3.19649E+004
            8594    6.11060E+005    7.51769E+005    7.51769E+005    2.41760E+005    7.44943E+004    6.77275E+005   -3.56008E+005    5.55953E+005    2.21737E+005    6.10328E+005    2.35958E+005    2.71688E+005   -4.44822E+004   -1.05898E+004
            8595    5.93236E+005    7.49492E+005    7.49492E+005    2.68924E+005    8.64552E+004    6.63036E+005   -3.68290E+005    5.24293E+005    2.74226E+005    6.02165E+005    2.28480E+005    2.64386E+005   -7.11741E+004    2.82499E+004
            8596    6.16048E+005    8.28738E+005    8.28738E+005    3.23385E+005    1.42497E+005    6.86242E+005   -4.31540E+005    5.51379E+005    2.99164E+005    6.70582E+005    3.24874E+005    2.85648E+005   -3.78170E+003   -4.32985E+004
            8597    5.97677E+005    7.78097E+005    7.78097E+005    2.73158E+005    1.18203E+005    6.59894E+005   -3.89820E+005    5.49693E+005    2.76619E+005    6.17770E+005    2.75070E+005    2.80889E+005   -1.00321E+004   -3.31955E+004
            8598    6.78366E+005    8.67072E+005    8.67072E+005    2.93223E+005    1.18407E+005    7.48664E+005   -4.26234E+005    6.24600E+005    3.01344E+005    6.83053E+005    2.94305E+005    3.21124E+005   -1.91042E+004   -2.06934E+004
            8599    6.65458E+005    8.43571E+005    8.43571E+005    2.85787E+005    1.06976E+005    7.36595E+005   -4.12111E+005    6.07786E+005    2.72652E+005    6.80938E+005    2.82745E+005    3.04113E+005   -2.98538E+004   -3.02299E+003
            8600    6.51340E+005    8.60089E+005    8.60089E+005    3.27589E+005    1.33865E+005    7.26224E+005   -4.40514E+005    5.81022E+005    3.33645E+005    6.78142E+005    3.09756E+005    3.09459E+005   -5.03029E+004    2.50253E+004
            8601    6.43005E+005    8.77568E+005    8.77568E+005    3.46662E+005    1.62605E+005    7.14963E+005   -4.62278E+005    5.79141E+005    3.20884E+005    7.19071E+005    3.46880E+005    2.96493E+005   -1.48673E+003   -1.68159E+004
            8602    6.20017E+005    8.21824E+005    8.21824E+005    2.92741E+005    1.39580E+005    6.82243E+005   -4.18048E+005    5.75098E+005    2.98993E+005    6.62194E+005    2.92958E+005    2.88596E+005   -3.56902E+003   -1.11950E+004
            8603    7.02729E+005    9.14162E+005    9.14162E+005    3.15779E+005    1.40332E+005    7.73830E+005   -4.56758E+005    6.50658E+005    3.30885E+005    7.23486E+005    3.15903E+005    3.33316E+005   -6.66368E+003   -7.17180E+003
            8604    6.95795E+005    8.97461E+005    8.97461E+005    3.12984E+005    1.27812E+005    7.69649E+005   -4.46086E+005    6.36725E+005    3.03941E+005    7.21647E+005    3.12669E+005    3.22955E+005   -1.02737E+004   -1.37134E+003
            8605    6.85396E+005    9.24887E+005    9.24887E+005    3.62781E+005    1.61346E+005    7.63541E+005   -4.83005E+005    6.13303E+005    3.68472E+005    7.20122E+005    3.60421E+005    3.37541E+005   -1.81514E+004    1.18814E+004
            8606    2.74807E+005    2.50934E+005    2.50934E+005    4.33427E+004   -6.07036E+004    3.11637E+005   -7.78575E+004    2.23566E+005    4.62301E+004    2.05106E+005   -1.77639E+004    8.79837E+004   -6.28582E+004   -1.76803E+004
            8607    3.39964E+005    3.29632E+005    3.29632E+005    6.80263E+004   -5.46417E+004    3.84274E+005   -1.14339E+005    2.83335E+005    7.34078E+004    2.74453E+005   -4.84437E+003    1.11434E+005   -7.16261E+004   -1.48020E+004
            8608    3.95859E+005    4.20589E+005    4.20589E+005    1.07736E+005   -2.44487E+004    4.45037E+005   -1.67959E+005    3.40618E+005    1.14099E+005    3.51270E+005    3.85073E+004    1.38599E+005   -7.88383E+004   -1.33728E+004
            8609    4.59162E+005    5.15150E+005    5.15150E+005    1.50419E+005   -4.70443E+002    5.15620E+005   -2.21699E+005    3.97351E+005    1.56209E+005    4.28172E+005    8.07182E+004    1.73377E+005   -8.25182E+004    3.20610E+003
            8610    5.27265E+005    6.33574E+005    6.33574E+005    2.08378E+005    4.35975E+004    5.89977E+005   -2.95183E+005    4.63797E+005    2.14714E+005    5.20296E+005    1.50540E+005    2.16376E+005   -8.11000E+004    1.54021E+004
            8611    5.43257E+005    6.38522E+005    6.38522E+005    1.88381E+005    3.50894E+004    6.03433E+005   -2.87331E+005    4.90949E+005    1.61516E+005    5.20917E+005    1.79560E+005    2.32760E+005   -5.41312E+004   -1.62920E+004
            8612    5.76137E+005    6.82762E+005    6.82762E+005    2.10992E+005    4.06643E+004    6.42098E+005   -3.11473E+005    5.14751E+005    1.93672E+005    5.24942E+005    2.15805E+005    2.70702E+005   -3.90141E+004   -3.92925E+004
            8613    5.09395E+005    6.15195E+005    6.15195E+005    2.02908E+005    4.57365E+004    5.69458E+005   -2.87947E+005    4.49786E+005    1.96452E+005    4.56583E+005    2.10805E+005    2.48017E+005   -2.13482E+004   -5.60925E+004
            8614    5.10146E+005    6.46849E+005    6.46849E+005    2.40251E+005    7.44185E+004    5.72430E+005   -3.20506E+005    4.43122E+005    2.21757E+005    4.93705E+005    2.46056E+005    2.42082E+005   -7.92025E+003   -7.37375E+004
            8615    4.72597E+005    5.30344E+005    5.30344E+005    1.40187E+005    4.84049E+003    5.25504E+005   -2.25124E+005    4.25607E+005    1.09985E+005    4.34120E+005    1.31267E+005    1.93504E+005   -5.89083E+004   -2.57388E+004
            8616    5.12295E+005    5.75667E+005    5.75667E+005    1.65717E+005    1.36587E+003    5.74301E+005   -2.47583E+005    4.46938E+005    1.36522E+005    4.34352E+005    1.71875E+005    2.39231E+005   -4.52398E+004   -4.15834E+004
            8617    4.59764E+005    5.31733E+005    5.31733E+005    1.67766E+005    1.50411E+004    5.16691E+005   -2.38180E+005    3.96355E+005    1.57452E+005    3.79171E+005    1.77917E+005    2.27227E+005   -2.53983E+004   -5.63067E+004
            8618    4.51300E+005    5.49967E+005    5.49967E+005    1.96942E+005    4.14875E+004    5.08479E+005   -2.62799E+005    3.83729E+005    1.81752E+005    4.01902E+005    2.04741E+005    2.16658E+005   -9.16065E+003   -7.88753E+004
            8619    4.01058E+005    4.19997E+005    4.19997E+005    9.37780E+004   -2.77759E+004    4.47773E+005   -1.62000E+005    3.55935E+005    6.19022E+004    3.43447E+005    8.06498E+004    1.57127E+005   -5.98392E+004   -2.37897E+004
            8620    4.50475E+005    4.83374E+005    4.83374E+005    1.26629E+005   -2.28369E+004    5.06211E+005   -1.95722E+005    3.88509E+005    9.26100E+004    3.61690E+005    1.32867E+005    2.06656E+005   -4.74211E+004   -4.02882E+004
            8621    4.10221E+005    4.51017E+005    4.51017E+005    1.34390E+005   -1.24061E+004    4.63423E+005   -1.91000E+005    3.43187E+005    1.21001E+005    3.06071E+005    1.45929E+005    2.05696E+005   -2.63190E+004   -5.48086E+004
            8622    3.95189E+005    4.68320E+005    4.68320E+005    1.63480E+005    2.18271E+004    4.46493E+005   -2.17876E+005    3.30363E+005    1.51554E+005    3.30665E+005    1.71409E+005    1.92276E+005   -9.19984E+003   -7.32388E+004
            8623    3.38818E+005    3.36295E+005    3.36295E+005    6.07681E+004   -4.20123E+004    3.78308E+005   -1.18350E+005    3.00624E+005    3.40592E+004    2.74106E+005    4.68862E+004    1.26932E+005   -5.70347E+004   -2.57923E+004
            8624    3.86057E+005    3.90780E+005    3.90780E+005    8.95860E+004   -4.44251E+004    4.35205E+005   -1.45314E+005    3.27228E+005    5.52937E+004    2.86879E+005    9.37688E+004    1.76629E+005   -4.48283E+004   -3.27421E+004
            8625    3.66762E+005    3.91761E+005    3.91761E+005    1.08176E+005   -2.24266E+004    4.14187E+005   -1.59170E+005    3.07505E+005    9.76477E+004    2.61291E+005    1.18571E+005    1.84258E+005   -2.42354E+004   -4.86724E+004
            8626    3.51845E+005    4.00448E+005    4.00448E+005    1.32324E+005    2.04327E+003    3.98405E+005   -1.78272E+005    2.89595E+005    1.24240E+005    2.70392E+005    1.40184E+005    1.71032E+005   -7.98056E+003   -7.43050E+004
            8627    2.74566E+005    2.46387E+005    2.46387E+005    2.96453E+004   -6.23677E+004    3.08755E+005   -7.12217E+004    2.35939E+005    5.95803E+003    1.99215E+005    8.49198E+003    1.01823E+005   -4.87628E+004   -9.73544E+003
            8628    3.36343E+005    3.32126E+005    3.32126E+005    6.21448E+004   -4.46482E+004    3.76774E+005   -1.16541E+005    2.94410E+005    3.93325E+004    2.46113E+005    6.41777E+004    1.51770E+005   -3.58026E+004   -2.54348E+004
            8629    3.26928E+005    3.31868E+005    3.31868E+005    7.70659E+004   -3.67569E+004    3.68625E+005   -1.24059E+005    2.76771E+005    7.30446E+004    2.13370E+005    8.57624E+004    1.64949E+005   -1.89431E+004   -4.51413E+004
            8630    3.14220E+005    3.53507E+005    3.53507E+005    1.11420E+005   -1.58677E+003    3.55093E+005   -1.54446E+005    2.62276E+005    1.09438E+005    2.36943E+005    1.16958E+005    1.52464E+005   -6.15026E+003   -6.71544E+004
            8631    2.95768E+005    3.13176E+005    3.13176E+005    9.04406E+004   -2.24022E+004    3.35578E+005   -1.27071E+005    2.39608E+005    9.06099E+004    1.97325E+005    9.32793E+004    1.37512E+005   -2.49068E+003   -8.08724E+004
            8632    2.90902E+005    3.20995E+005    3.20995E+005    7.03930E+004    1.98598E+003    3.19009E+005   -1.31125E+005    2.71907E+005    9.66499E+004    2.37874E+005    5.88499E+004    1.21419E+005   -2.21579E+001   -6.75402E+004
            8633    3.11051E+005    3.12279E+005    3.12279E+005    4.67366E+004   -2.99403E+004    3.42219E+005   -1.09692E+005    2.88616E+005    6.76315E+004    2.10425E+005    5.10185E+004    1.48870E+005   -1.01662E+004   -4.80203E+004
            8634    2.72605E+005    2.37495E+005    2.37495E+005   -4.14248E+003   -5.80294E+004    2.95524E+005   -5.84409E+004    2.60214E+005    3.47502E+004    1.44648E+005   -4.07518E+003    1.36803E+005   -1.95551E+003   -1.00897E+004
            8635    2.95598E+005    2.71080E+005    2.71080E+005    2.46946E+004   -5.66822E+004    3.27762E+005   -7.96974E+004    2.68611E+005    1.88897E+004    1.99518E+005    2.06845E+004    1.33550E+005   -2.27191E+004   -2.40767E+003
            8636    2.53904E+005    2.17189E+005    2.17189E+005    1.51978E+004   -6.78365E+004    2.85025E+005   -5.48501E+004    2.20093E+005    7.96849E+003    1.41899E+005    1.46823E+004    1.25438E+005   -7.72469E+003    5.28539E+002
            8637    2.25908E+005    1.95727E+005    1.95727E+005    2.12039E+004   -5.94361E+004    2.55163E+005   -5.24981E+004    1.89204E+005    8.27950E+001    1.51564E+005    5.84802E+003    9.18596E+004   -3.46178E+004    2.47869E+003
            8638    2.03750E+005    1.64412E+005    1.64412E+005   -1.81431E+003   -6.28916E+004    2.27304E+005   -3.32353E+004    1.81373E+005   -7.52470E+003    1.12681E+005   -5.45012E+003    9.43056E+004   -1.22762E+004    7.68534E+003
            8639    1.78382E+005    1.52810E+005    1.52810E+005    5.59099E+003   -4.55597E+004    1.98369E+005   -3.76137E+004    1.60597E+005    2.73877E+003    1.08767E+005    1.33474E+003    8.12837E+004   -1.30905E+004    5.53573E+003
            8640    1.37577E+005    1.16745E+005    1.16745E+005   -3.47030E+003   -3.32989E+004    1.50044E+005   -2.66587E+004    1.29999E+005   -4.79688E+003    9.28934E+004   -8.12055E+003    5.37272E+004   -1.12870E+004    1.43824E+003
            8641    1.88959E+005    1.56647E+005    1.56647E+005    1.55573E+004   -5.80365E+004    2.14683E+005   -3.80559E+004    1.51267E+005    6.94524E+002    1.21634E+005   -8.16101E+003    7.28500E+004   -3.62694E+004    4.54858E+003
            8642    1.34656E+005    1.06784E+005    1.06784E+005    2.69985E+003   -4.52945E+004    1.52078E+005   -2.13963E+004    1.12854E+005   -8.21621E+003    8.60581E+004   -1.36529E+004    4.51359E+004   -2.84652E+004   -7.30297E+003
            8643    1.56809E+005    1.14965E+005    1.14965E+005    4.81480E+003   -6.45661E+004    1.79531E+005   -1.84045E+004    1.13699E+005    5.52139E+003    8.63847E+004   -3.66925E+004    3.88485E+004   -4.40794E+004   -2.88560E+004
            8644    2.19852E+005    1.78496E+005    1.78496E+005    1.79465E+004   -7.20805E+004    2.50577E+005   -4.14541E+004    1.70284E+005    1.80841E+004    1.42676E+005   -3.63981E+004    6.25360E+004   -5.58975E+004   -2.54915E+004
            8645    2.98315E+005    5.26797E+004   -2.80757E+005   -3.91606E+004   -2.80757E+005    3.33437E+005    8.90793E+004   -2.63576E+005   -9.79401E+003   -2.60699E+005    3.25486E+003    6.92088E+004   -5.08256E+004    1.25832E+004
            8646    3.55481E+005    3.35568E+004   -3.62769E+005   -7.20801E+004   -3.62769E+005    3.96326E+005    1.33764E+005   -3.17176E+005   -3.13484E+004   -3.37402E+005   -3.25417E+004    8.81346E+004   -5.61605E+004    9.93884E+003
            8647    4.20238E+005    2.05063E+003   -4.64338E+005   -1.15124E+005   -4.64338E+005    4.66389E+005    1.92470E+005   -3.80803E+005   -6.55712E+004   -4.30514E+005   -8.13259E+004    1.13162E+005   -5.85186E+004    8.70366E+003
            8648    4.87049E+005   -3.64412E+004   -5.75741E+005   -1.67947E+005   -5.75741E+005    5.39299E+005    2.60043E+005   -4.44400E+005   -1.09445E+005   -5.30957E+005   -1.39727E+005    1.43513E+005   -5.65684E+004   -1.16741E+003
            8649    6.75271E+005   -1.51831E+004   -7.73478E+005   -2.37066E+005   -7.73478E+005    7.58295E+005    3.41909E+005   -5.84390E+005   -1.49738E+005   -6.34536E+005   -2.41453E+005    2.85438E+005   -4.66187E+004    4.49755E+004
            8650    6.06990E+005   -2.35535E+004   -7.09126E+005   -2.40128E+005   -7.09126E+005    6.85573E+005    3.24269E+005   -5.08471E+005   -2.29812E+005   -4.96510E+005   -2.46485E+005    3.08805E+005   -1.44384E+004    7.01675E+004
            8651    5.77634E+005    1.06481E+004   -6.39959E+005   -1.87402E+005   -6.39959E+005    6.50608E+005    2.72238E+005   -4.92055E+005   -1.02849E+005   -5.21889E+005   -1.91975E+005    2.40708E+005   -5.06833E+004    4.45097E+004
            8652    5.30178E+005   -1.09239E+004   -6.10512E+005   -2.03672E+005   -6.10512E+005    5.99588E+005    2.75036E+005   -4.40306E+005   -1.89298E+005   -4.24118E+005   -2.11693E+005    2.67247E+005   -1.47039E+004    7.25579E+004
            8653    4.86212E+005    2.36199E+004   -5.23549E+005   -1.41075E+005   -5.23549E+005    5.47169E+005    2.13668E+005   -4.16134E+005   -6.85880E+004   -4.26799E+005   -1.45617E+005    1.97238E+005   -4.99072E+004    4.30707E+004
            8654    4.57163E+005    1.71551E+003   -5.15651E+005   -1.66152E+005   -5.15651E+005    5.17366E+005    2.26696E+005   -3.77847E+005   -1.51418E+005   -3.52872E+005   -1.75797E+005    2.27043E+005   -1.36023E+004    7.64447E+004
            8655    3.89262E+005    3.92459E+004   -3.98662E+005   -9.19447E+004   -3.98662E+005    4.37908E+005    1.50454E+005   -3.33795E+005   -3.22455E+004   -3.24673E+005   -9.44421E+004    1.54770E+005   -4.13866E+004    3.33210E+004
            8656    3.90725E+005   -1.78453E+003   -4.43262E+005   -1.41969E+005   -4.43262E+005    4.41478E+005    1.95672E+005   -3.26491E+005   -1.26863E+005   -3.10958E+005   -1.49195E+005    1.89506E+005   -8.23815E+003    6.93918E+004
            8657    3.50787E+005    4.71772E+003   -3.90830E+005   -1.17505E+005   -3.90830E+005    3.95548E+005    1.67872E+005   -2.96875E+005   -1.12618E+005   -2.65967E+005   -1.25032E+005    1.63752E+005   -6.61700E+003    8.30853E+004
            8658    3.31707E+005   -1.60169E+004   -3.76265E+005   -8.34666E+004   -3.76265E+005    3.60248E+005    1.58583E+005   -3.15720E+005   -1.14392E+005   -2.89298E+005   -7.20590E+004    1.34497E+005   -1.59769E+003    7.29492E+004
            8659    3.41584E+005    2.53313E+004   -3.47728E+005   -5.02949E+004   -3.47728E+005    3.73059E+005    1.24230E+005   -3.21929E+005   -2.46396E+004   -2.93474E+005   -5.45776E+004    1.24799E+005   -2.23056E+004    3.33778E+004
            8660    2.87146E+005    4.79450E+004   -2.60128E+005    7.50918E+001   -2.60128E+005    3.08073E+005    7.07026E+004   -2.77956E+005   -1.08852E+003   -2.11428E+005    4.08399E+002    1.12313E+005   -4.05516E+003   -7.06743E+002
            8661    1.79650E+005    3.62911E+004   -1.60756E+005   -6.07706E+003   -1.60756E+005    1.97047E+005    4.35139E+004   -1.67848E+005    4.75813E+003   -1.32178E+005   -3.12198E+003    6.87727E+004   -1.01741E+004   -3.64831E+003
            8662    1.67956E+005    3.31875E+004   -1.48677E+005    5.93018E+002   -1.48677E+005    1.81864E+005    3.82987E+004   -1.60607E+005   -5.05383E+003   -1.16509E+005    6.66647E+003    6.78273E+004   -9.78957E+003   -9.20493E+003
            8663    1.22111E+005    2.21657E+004   -1.08914E+005    1.62422E+003   -1.08914E+005    1.31079E+005    2.83746E+004   -1.18130E+005    5.12092E+003   -9.58132E+004    5.56834E+003    3.86488E+004   -7.79790E+003   -2.20207E+003
            8664    9.41120E+004    6.63563E+003   -9.13288E+004   -1.61230E+003   -9.13288E+004    9.79645E+004    2.87685E+004   -9.32936E+004   -9.08702E+003   -8.00692E+004    2.85074E+003    3.00385E+004   -5.51867E+003    3.18351E+003
            8665    2.18438E+005    6.45319E+004   -1.83325E+005   -1.88964E+004   -1.83325E+005    2.47857E+005    4.58966E+004   -1.76856E+005    1.44303E+004   -1.63582E+005    1.14624E+004    6.22427E+004   -3.68041E+004   -1.69314E+004
            8666    1.74271E+005    5.04506E+004   -1.47434E+005   -1.68431E+004   -1.47434E+005    1.97885E+005    3.79423E+004   -1.40217E+005   -5.29898E+003   -1.25126E+005    1.65978E+004    5.62430E+004   -3.22784E+004   -9.88573E+003
            8667    1.22115E+005    5.33214E+004   -8.61953E+004    1.26754E+003   -8.61953E+004    1.39517E+005    1.05355E+004   -9.16502E+004    1.56762E+004   -7.76942E+004    3.04117E+004    2.92051E+004   -2.58353E+004   -3.64722E+003
            8668    8.37906E+004    2.11681E+004   -7.24034E+004   -4.30692E+003   -7.24034E+004    9.35715E+004    1.85141E+004   -7.42985E+004   -5.32616E+003   -5.97599E+004    9.54378E+003    2.33752E+004   -1.74496E+004    1.25780E+004
            8669    9.14169E+004    4.43081E+004   -6.06111E+004    1.89897E+003   -6.06111E+004    1.04919E+005    4.80133E+003   -6.28205E+004    1.97166E+003   -4.35422E+004    2.71665E+004    1.75541E+004   -2.51814E+004    2.36453E+004
            8670    1.40073E+005    6.62857E+004   -9.47650E+004   -1.30157E+003   -9.47650E+004    1.61051E+005    9.92699E+003   -9.09726E+004    3.92408E+003   -7.77106E+004    4.40055E+004    2.80927E+004   -3.70111E+004    2.30980E+004
            8671    1.95158E+005    7.69904E+004   -1.46354E+005   -8.70560E+003   -1.46354E+005    2.23344E+005    2.60231E+004   -1.42571E+005   -3.59567E+003   -1.23720E+005    4.92463E+004    4.95062E+004   -4.64056E+004    1.53197E+004
            8672    2.59338E+005    6.51036E+004   -2.27430E+005   -2.57178E+004   -2.27430E+005    2.92534E+005    6.26815E+004   -2.19013E+005   -1.70764E+004   -2.03395E+005    3.24269E+004    6.41996E+004   -5.01465E+004    1.78784E+004
            8673    6.78554E+005   -4.35819E+004   -8.08399E+005   -2.78590E+005   -8.08399E+005    7.64817E+005    3.76857E+005   -5.75690E+005   -2.73002E+005   -5.75140E+005   -2.82428E+005    3.46969E+005   -1.21159E+004    5.86067E+004
            8674    7.63455E+005   -4.21835E+004   -8.97332E+005   -2.84272E+005   -8.97332E+005    8.55148E+005    4.07929E+005   -6.68549E+005   -1.96222E+005   -7.40343E+005   -2.87222E+005    3.26306E+005   -3.72576E+004    3.84691E+004
            8675    5.54316E+005   -8.51685E+004   -6.98216E+005   -2.32334E+005   -6.98216E+005    6.13048E+005    3.38573E+005   -5.07499E+005   -1.64067E+005   -6.38167E+005   -2.13485E+005    1.78929E+005   -4.89495E+004   -9.06984E+003
            8676    7.34387E+005   -6.31014E+004   -8.89272E+005   -3.10643E+005   -8.89272E+005    8.26171E+005    4.21006E+005   -6.29707E+005   -3.10108E+005   -6.40677E+005   -3.12233E+005    3.76683E+005   -8.12053E+003    4.03239E+004
            8677    8.34700E+005   -6.93560E+004   -1.00195E+006   -3.24876E+005   -1.00195E+006    9.32593E+005    4.65394E+005   -7.38706E+005   -2.39220E+005   -8.30783E+005   -3.26178E+005    3.59077E+005   -2.41202E+004    2.64711E+004
            8678    6.11425E+005   -1.32430E+005   -8.08843E+005   -2.95453E+005   -8.08843E+005    6.76414E+005    4.12242E+005   -5.59310E+005   -2.17957E+005   -7.31859E+005   -2.86910E+005    2.13280E+005   -3.43727E+004   -1.17771E+004
            8679    7.65209E+005   -7.62212E+004   -9.36092E+005   -3.30057E+005   -9.36092E+005    8.59871E+005    4.47457E+005   -6.60002E+005   -3.32412E+005   -6.79720E+005   -3.30239E+005    3.93088E+005   -2.84753E+003    1.39537E+004
            8680    8.73976E+005   -8.52266E+004   -1.06044E+006   -3.47984E+005   -1.06044E+006    9.75211E+005    4.97883E+005   -7.77371E+005   -2.63867E+005   -8.81633E+005   -3.48148E+005    3.77136E+005   -8.09069E+003    9.50139E+003
            8681    6.46194E+005   -1.63734E+005   -8.78993E+005   -3.37326E+005   -8.78993E+005    7.15260E+005    4.60018E+005   -5.90222E+005   -2.53647E+005   -7.90160E+005   -3.36245E+005    2.35692E+005   -1.25732E+004   -5.36304E+003
            8682    8.60267E+004    7.95650E+004    7.95650E+004   -1.57220E+003   -1.06338E+004    9.01989E+004   -2.24530E+004    8.49431E+004   -2.35775E+003    7.29153E+004   -3.19858E+003    2.27576E+004    4.92678E+003    3.83084E+003
            8683    8.08761E+004    6.07493E+004    6.07493E+004   -4.13361E+003   -2.98609E+004    9.06102E+004   -8.91825E+003    7.07508E+004   -8.69781E+003    5.28002E+004   -1.73477E+004    1.77105E+004    1.62433E+004    1.18272E+004
            8684    9.00307E+004    6.01626E+004    6.01626E+004   -2.00553E+003   -4.30800E+004    1.03243E+005   -5.02570E+003    6.31444E+004   -3.13227E+003    4.31372E+004   -2.49279E+004    1.51445E+004    2.41278E+004    2.61190E+004
            8685    5.29773E+004    5.35236E+004    5.35236E+004    3.49176E+003   -1.97530E+003    5.54989E+004   -1.83467E+004    5.23370E+004    6.75020E+003    4.90313E+004   -7.41448E+002    1.29282E+004    3.19449E+003    6.16447E+003
            8686    5.00859E+004    4.52271E+004    4.52271E+004    2.28759E+003   -9.79475E+003    5.50219E+004   -1.25733E+004    4.66348E+004    4.45803E+003    3.44000E+004   -1.13813E+003    9.97371E+003    8.75375E+003    1.71744E+004
            8687    5.90194E+004    4.22500E+004    4.22500E+004   -3.43019E+002   -2.51189E+004    6.73689E+004   -5.59604E+003    4.48581E+004    1.37956E+003    2.46749E+004   -9.26636E+003    7.81992E+003    1.28408E+004    2.51739E+004
            8688    2.83982E+004    2.45457E+004    2.45457E+004   -1.96549E+003   -5.42296E+003    2.99686E+004   -5.71908E+003    2.79188E+004   -4.39408E+003    2.19453E+004   -3.94021E+002    5.29503E+003    1.06851E+003    6.17830E+003
            8689    3.58781E+004    2.56057E+004    2.56057E+004   -6.51354E+003   -1.31144E+004    3.87202E+004   -1.99259E+003    3.44720E+004   -5.53899E+003    1.53415E+004   -3.82477E+003    4.61628E+003    3.35073E+003    1.61914E+004
            8690    4.35263E+004    3.12261E+004    3.12261E+004   -1.59512E+002   -1.84631E+004    4.96891E+004   -4.20115E+003    3.30367E+004    7.98515E+002    1.26338E+004   -8.28836E+002    3.65734E+003    4.71431E+003    2.32792E+004
            8691    1.29233E+004    7.36695E+003    7.36695E+003    3.50329E+003   -7.04748E+003    1.44144E+004   -1.27425E+003   -1.15122E+004    5.28602E+003   -1.86108E+003    3.97826E+002    2.99634E+003    5.33801E+001    5.77435E+003
            8692    2.79078E+004    1.69926E+004    1.69926E+004    5.63439E+003   -1.48033E+004    3.17959E+004   -2.60788E+003   -2.17104E+004    5.61917E+003   -1.27522E+003    3.47969E+003    2.79987E+003   -2.38997E+002    1.54682E+004
            8693    3.96067E+004    2.20943E+004   -2.35996E+004    9.04431E+002   -2.35996E+004    4.56939E+004    2.00282E+002   -1.98150E+004    8.83765E+002   -1.21145E+003   -2.73158E+002    2.57394E+003   -1.57897E+002    2.26968E+004
            8694    3.04797E+004    1.07155E+003   -3.17050E+004   -4.21336E+003   -3.17050E+004    3.27765E+004    1.16156E+004   -2.94222E+004   -6.52939E+003   -2.80092E+004   -3.08177E+002    7.44473E+003   -1.71004E+003    6.33109E+003
            8695    3.54350E+004    7.49838E+003   -3.22416E+004   -3.93405E+003   -3.22416E+004    3.97400E+004    9.55909E+003   -3.08571E+004   -6.04643E+003   -1.97352E+004   -2.89562E+003    6.12999E+003   -4.27861E+003    1.68082E+004
            8696    4.33088E+004    1.85743E+004   -3.10899E+004   -1.18308E+003   -3.10899E+004    4.96642E+004    4.56622E+003   -3.03776E+004   -2.51068E+003   -1.29753E+004    1.78736E+003    4.24649E+003   -5.14697E+003    2.28701E+004
            8697    6.09981E+004    7.52837E+003   -5.61952E+004    1.65218E+003   -5.61952E+004    6.37235E+004    1.56715E+004   -6.03564E+004    4.22871E+003   -5.30124E+004    1.76903E+003    1.22010E+004   -3.25864E+003    5.78844E+003
            8698    5.81086E+004    1.95452E+004   -4.41040E+004    6.11086E+003   -4.41040E+004    6.36491E+004    6.14933E+003   -5.44476E+004    8.29606E+003   -3.66028E+004    9.85872E+003    9.46073E+003   -9.81612E+003    1.56047E+004
            8699    6.14657E+004    2.51187E+004   -4.47435E+004    1.02658E+003   -4.47435E+004    6.98622E+004    6.19940E+003   -4.90149E+004    3.48187E+002   -2.73914E+004    8.44498E+003    7.60313E+003   -1.33974E+004    2.58618E+004
            8700    5.54546E+005   -8.52913E+004   -6.98582E+005   -2.32478E+005   -6.98582E+005    6.13291E+005    3.38784E+005   -5.07736E+005   -1.64420E+005   -6.38386E+005   -2.13546E+005    1.79151E+005    4.90301E+004    9.13982E+003
            8701    7.64674E+005   -4.21990E+004   -8.98677E+005   -2.84533E+005   -8.98677E+005    8.56478E+005    4.08470E+005   -6.69738E+005   -1.96637E+005   -7.41211E+005   -2.87561E+005    3.26992E+005    3.70849E+004   -3.87986E+004
            8702    6.79405E+005   -4.39176E+004   -8.09673E+005   -2.79128E+005   -8.09673E+005    7.65755E+005    3.77573E+005   -5.76505E+005   -2.73669E+005   -5.76133E+005   -2.82917E+005    3.47460E+005    1.20460E+004   -5.83058E+004
            8703    6.11462E+005   -1.32919E+005   -8.09402E+005   -2.96047E+005   -8.09402E+005    6.76483E+005    4.12789E+005   -5.59279E+005   -2.18588E+005   -7.32230E+005   -2.87550E+005    2.13527E+005    3.42753E+004    1.18090E+004
            8704    8.35154E+005   -6.88998E+004   -1.00197E+006   -3.24445E+005   -1.00197E+006    9.33071E+005    4.65105E+005   -7.39202E+005   -2.38850E+005   -8.30722E+005   -3.25744E+005    3.59264E+005    2.40699E+004   -2.64430E+004
            8705    7.34640E+005   -6.32022E+004   -8.89669E+005   -3.10872E+005   -8.89669E+005    8.26466E+005    4.21248E+005   -6.29884E+005   -3.10388E+005   -6.40914E+005   -3.12441E+005    3.76882E+005    8.08158E+003   -4.00313E+004
            8706    6.46187E+005   -1.64117E+005   -8.79365E+005   -3.37696E+005   -8.79365E+005    7.15248E+005    4.60392E+005   -5.90223E+005   -2.54062E+005   -7.90442E+005   -3.36673E+005    2.35804E+005    1.22693E+004    5.11373E+003
            8707    8.73860E+005   -8.48973E+004   -1.05997E+006   -3.47590E+005   -1.05997E+006    9.75073E+005    4.97486E+005   -7.77291E+005   -2.63448E+005   -8.81264E+005   -3.47747E+005    3.77022E+005    8.33209E+003   -9.37437E+003
            8708    7.65157E+005   -7.61629E+004   -9.36005E+005   -3.30103E+005   -9.36005E+005    8.59842E+005    4.47424E+005   -6.59844E+005   -3.32405E+005   -6.79581E+005   -3.30285E+005    3.93102E+005    2.84641E+003   -1.39425E+004
            8709    3.63965E+005    4.19127E+005    4.19127E+005    1.38095E+005    7.98938E+003    4.11138E+005   -1.88404E+005    3.04635E+005    1.37353E+005    2.86673E+005    1.41186E+005    1.77216E+005    3.62777E+003    7.41076E+004
            8710    4.06143E+005    4.66499E+005    4.66499E+005    1.59290E+005    6.02478E+003    4.60474E+005   -2.10605E+005    3.31003E+005    1.58097E+005    3.10087E+005    1.63629E+005    2.03072E+005    5.48933E+003    7.92801E+004
            8711    4.57003E+005    5.34779E+005    5.34779E+005    1.88004E+005    1.69182E+004    5.17861E+005   -2.46567E+005    3.74034E+005    1.90389E+005    3.56724E+005    1.92589E+005    2.33900E+005    7.68863E+003    7.58070E+004
            8712    5.21015E+005    6.14343E+005    6.14343E+005    2.16998E+005    2.44616E+004    5.89882E+005   -2.85268E+005    4.29264E+005    2.26445E+005    4.08495E+005    2.20863E+005    2.69561E+005    8.05498E+003    7.97548E+004
            8713    5.85222E+005    7.05286E+005    7.05286E+005    2.53246E+005    4.42614E+004    6.61025E+005   -3.34265E+005    4.90050E+005    2.71537E+005    4.75333E+005    2.55923E+005    3.06313E+005    7.87555E+003    7.27039E+004
            8714    3.86447E+005    4.07815E+005    4.07815E+005    9.94544E+004   -2.56983E+004    4.33513E+005   -1.60524E+005    3.36097E+005    5.21497E+004    3.20410E+005    1.09011E+005    1.64107E+005    2.11714E+004    4.91937E+004
            8715    4.47311E+005    4.86229E+005    4.86229E+005    1.35962E+005   -1.76472E+004    5.03877E+005   -2.01515E+005    3.80803E+005    7.79694E+004    3.80414E+005    1.46160E+005    1.95047E+005    2.81138E+004    5.19218E+004
            8716    5.18391E+005    5.67751E+005    5.67751E+005    1.68033E+005   -1.79824E+004    5.85733E+005   -2.39267E+005    4.33142E+005    1.03011E+005    4.35399E+005    1.79391E+005    2.34159E+005    3.31339E+004    5.77825E+004
            8717    6.06419E+005    6.79639E+005    6.79639E+005    2.08580E+005   -4.57932E+003    6.84218E+005   -2.94546E+005    5.11321E+005    1.44116E+005    5.21379E+005    2.18144E+005    2.79597E+005    3.41424E+004    5.72835E+004
            8718    6.96739E+005    7.95742E+005    7.95742E+005    2.50966E+005    1.06555E+004    7.85086E+005   -3.52455E+005    5.92109E+005    1.91488E+005    6.07135E+005    2.58741E+005    3.28424E+005    3.13824E+004    5.64829E+004
            8719    2.95930E+005    2.92915E+005    2.92915E+005    4.70232E+004   -3.55238E+004    3.28439E+005   -1.01472E+005    2.68136E+005    2.87593E+003    2.56579E+005    4.49601E+004    9.56264E+004    3.14354E+004    2.39271E+004
            8720    3.52405E+005    3.49362E+005    3.49362E+005    7.17945E+004   -4.71160E+004    3.96478E+005   -1.24680E+005    3.02054E+005    3.27652E+003    2.99202E+005    7.15623E+004    1.21123E+005    4.15161E+004    3.15100E+004
            8721    4.37489E+005    4.51551E+005    4.51551E+005    1.07553E+005   -4.08307E+004    4.92382E+005   -1.72758E+005    3.74246E+005    2.20400E+004    3.85990E+005    1.10244E+005    1.54366E+005    4.71146E+004    4.12843E+004
            8722    5.27198E+005    5.56692E+005    5.56692E+005    1.45001E+005   -3.75096E+004    5.94202E+005   -2.21394E+005    4.47357E+005    4.16465E+004    4.73935E+005    1.48602E+005    1.94042E+005    4.85139E+004    4.41331E+004
            8723    6.29890E+005    6.88540E+005    6.88540E+005    1.91658E+005   -1.98921E+004    7.08432E+005   -2.86769E+005    5.40838E+005    7.79349E+004    5.87285E+005    1.95085E+005    2.39243E+005    4.45075E+004    4.32607E+004
            8724    2.58945E+005    2.32452E+005    2.32452E+005    3.28511E+004   -6.01494E+004    2.92601E+005   -6.83844E+004    2.16273E+005    9.53875E+003    2.00557E+005   -4.94226E+003    8.25537E+004    4.87905E+004   -7.58664E+002
            8725    3.22951E+005    3.21460E+005    3.21460E+005    6.15895E+004   -4.00953E+004    3.61555E+005   -1.14318E+005    2.83429E+005    3.01735E+004    2.77992E+005    3.47886E+004    1.04929E+005    5.74898E+004    1.88018E+004
            8726    3.90032E+005    4.09412E+005    4.09412E+005    9.26994E+004   -2.62432E+004    4.35656E+005   -1.58623E+005    3.45552E+005    4.81432E+004    3.56628E+005    7.10971E+004    1.31177E+005    5.99073E+004    1.93875E+004
            8727    4.67351E+005    5.25882E+005    5.25882E+005    1.40201E+005    6.15429E+003    5.19727E+005   -2.24079E+005    4.20730E+005    8.29253E+004    4.62015E+005    1.27297E+005    1.60519E+005    5.83890E+004    2.60327E+004
            8728    5.48257E+005    6.44560E+005    6.44560E+005    1.90016E+005    3.56754E+004    6.08884E+005   -2.90084E+005    4.95734E+005    1.19899E+005    5.70115E+005    1.80237E+005    1.93139E+005    5.27026E+004    1.97905E+004
            8729    4.63925E+005    5.69478E+005    5.69478E+005    1.77290E+005    5.73655E+004    5.12112E+005   -2.68045E+005    4.26911E+005    1.53805E+005    5.23197E+005    1.27131E+005    1.38523E+005    5.82938E+004   -1.22622E+004
            8730    4.07319E+005    4.53417E+005    4.53417E+005    1.17592E+005    3.28977E+002    4.53088E+005   -1.90446E+005    3.66358E+005    9.76845E+004    4.18771E+005    5.48823E+004    1.09621E+005    6.10629E+004   -4.90027E+002
            8731    3.54220E+005    3.62022E+005    3.62022E+005    7.68382E+004   -3.44886E+004    3.96510E+005   -1.34790E+005    3.11046E+005    5.97604E+004    3.33795E+005    1.08155E+004    8.73361E+004    6.07541E+004    1.42895E+004
            8732    3.05536E+005    2.75611E+005    2.75611E+005    4.16908E+004   -7.00706E+004    3.45681E+005   -8.24103E+004    2.53000E+005    2.58919E+004    2.53138E+005   -3.17986E+004    6.97432E+004    5.81386E+004    1.34288E+004
            8733    2.44697E+005    2.02276E+005    2.02276E+005    2.35804E+004   -7.66174E+004    2.78894E+005   -4.97464E+004    1.89532E+005    8.32693E+003    1.83792E+005   -4.28797E+004    5.39183E+004    5.22183E+004    1.39022E+004
            8734    1.94878E+005    1.46123E+005    1.46123E+005    1.02334E+004   -7.71537E+004    2.23277E+005   -2.64010E+004    1.39350E+005    3.13883E+003    1.26800E+005   -5.07359E+004    4.32894E+004    4.59339E+004    1.97407E+004
            8735    1.36587E+005    9.04206E+004    9.04206E+004   -1.33431E+002   -6.66869E+004    1.57107E+005   -7.86677E+003    8.72731E+004   -3.06894E+003    7.24099E+004   -4.57407E+004    2.86618E+004    3.62447E+004    2.24484E+004
            8736    1.14155E+005    9.10961E+004    9.10961E+004    7.56875E+003   -3.89787E+004    1.30075E+005   -1.98954E+004    8.86874E+004    1.32800E+003    7.84648E+004   -2.01068E+004    3.21205E+004    2.49102E+004    1.98055E+003
            8737    1.18335E+005    1.09520E+005    1.09520E+005    3.77252E+002   -1.62489E+004    1.25769E+005   -3.12161E+004    1.15663E+005    6.50300E+003    9.29345E+004   -5.78930E+003    4.13168E+004    7.90301E+003   -1.88025E+003
            8738    1.64411E+005    1.24227E+005    1.24227E+005    7.68758E+003   -6.38295E+004    1.88057E+005   -2.26952E+004    1.21189E+005   -1.25563E+004    1.09495E+005   -2.88529E+004    4.48390E+004    3.33161E+004   -1.31438E+004
            8739    1.45662E+005    1.26953E+005    1.26953E+005   -4.29153E+002   -3.18585E+004    1.58811E+005   -3.15550E+004    1.37720E+005   -5.64688E+003    1.05479E+005   -5.16685E+003    5.32577E+004    9.35677E+003   -7.06824E+003
            8740    1.82834E+005    1.61880E+005    1.61880E+005    8.74878E+002   -3.68865E+004    1.98766E+005   -4.19561E+004    1.73732E+005    3.19328E+003    1.26405E+005   -3.72957E+003    7.48807E+004    9.43557E+003   -9.27223E+003
            8741    2.04297E+005    1.85461E+005    1.85461E+005    9.53311E+003   -3.86070E+004    2.24068E+005   -5.21290E+004    1.90899E+005   -4.10909E+003    1.52359E+005    8.13723E+003    7.91732E+004    8.42521E+003   -1.00831E+003
            8742    3.10916E+005    2.87951E+005    2.87951E+005    6.78242E+002   -4.21644E+004    3.30116E+005   -8.21551E+004    3.04169E+005    1.45532E+004    2.31070E+005    8.42024E+002    1.24461E+005    2.16535E+003    7.00179E+003
            8743    3.41989E+005    3.92399E+005    3.92399E+005    9.41748E+004    1.91135E+004    3.73285E+005   -1.68562E+005    3.22665E+005    1.27272E+005    3.05268E+005    7.31467E+004    1.33316E+005   -5.98306E+002    8.03949E+004
            8744    2.04640E+005    1.86810E+005    1.86810E+005    2.39662E+004   -4.28984E+004    2.29709E+005   -5.59593E+004    1.77443E+005    7.76691E+003    1.58935E+005    1.17585E+003    7.04915E+004    3.11271E+004   -7.57296E+003
            8745    2.55855E+005    2.35473E+005    2.35473E+005    1.34998E+004   -4.43548E+004    2.79828E+005   -6.82061E+004    2.40468E+005   -7.07717E+003    2.07297E+005    4.39815E+003    8.24750E+004    2.17286E+004   -1.89212E+003
            8746    3.65615E+005    3.84402E+005    3.84402E+005    6.13546E+004   -1.25030E+004    3.96905E+005   -1.44418E+005    3.48232E+005    4.95121E+004    3.15520E+005    6.82220E+004    1.40482E+005    1.05278E+004    5.16504E+004
            8747    3.42599E+005    3.80089E+005    3.80089E+005    1.17900E+005   -7.55354E+003    3.87642E+005   -1.63478E+005    2.83541E+005    1.18806E+005    2.52085E+005    1.19545E+005    1.57230E+005    1.67301E+003    9.22616E+004
            8748    3.90399E+005   -1.81591E+003   -4.42969E+005   -1.42083E+005   -4.42969E+005    4.41153E+005    1.95622E+005   -3.26008E+005   -1.26838E+005   -3.10715E+005   -1.49314E+005    1.89396E+005    8.23438E+003   -6.93107E+004
            8749    4.57581E+005    1.84269E+003   -5.16034E+005   -1.66358E+005   -5.16034E+005    5.17877E+005    2.26850E+005   -3.77994E+005   -1.51556E+005   -3.53020E+005   -1.75973E+005    2.27319E+005    1.35514E+004   -7.64698E+004
            8750    5.32099E+005   -1.13907E+004   -6.13108E+005   -2.04632E+005   -6.13108E+005    6.01718E+005    2.76377E+005   -4.42124E+005   -1.90470E+005   -4.26028E+005   -2.12633E+005    2.68263E+005    1.47377E+004   -7.26281E+004
            8751    6.09080E+005   -2.39507E+004   -7.11852E+005   -2.41123E+005   -7.11852E+005    6.87901E+005    3.25642E+005   -5.10377E+005   -2.30810E+005   -4.98711E+005   -2.47404E+005    3.09886E+005    1.43635E+004   -6.99309E+004
            8752    3.89493E+005    3.93122E+004   -3.98877E+005   -9.20458E+004   -3.98877E+005    4.38189E+005    1.50537E+005   -3.33908E+005   -3.22237E+004   -3.24831E+005   -9.45561E+004    1.54854E+005    4.14609E+004   -3.33820E+004
            8753    4.87231E+005    2.32252E+004   -5.25130E+005   -1.41984E+005   -5.25130E+005    5.48355E+005    2.14629E+005   -4.16843E+005   -6.92672E+004   -4.28128E+005   -1.46493E+005    1.97763E+005    4.99451E+004   -4.30029E+004
            8754    5.79603E+005    1.00706E+004   -6.42766E+005   -1.88704E+005   -6.42766E+005    6.52837E+005    2.73800E+005   -4.93685E+005   -1.04088E+005   -5.23974E+005   -1.93338E+005    2.41823E+005    5.07289E+004   -4.46831E+004
            8755    6.76957E+005   -1.56714E+004   -7.75871E+005   -2.38153E+005   -7.75871E+005    7.60200E+005    3.43232E+005   -5.85808E+005   -1.50710E+005   -6.36392E+005   -2.42594E+005    2.86374E+005    4.63427E+004   -4.50754E+004
            8756    4.86795E+005   -3.63162E+004   -5.75379E+005   -1.67907E+005   -5.75379E+005    5.39063E+005    2.59868E+005   -4.44061E+005   -1.09615E+005   -5.30527E+005   -1.39460E+005    1.43540E+005    5.67414E+004    1.22805E+003
            8757    4.19908E+005    2.53057E+003   -4.63558E+005   -1.14779E+005   -4.63558E+005    4.66088E+005    1.91935E+005   -3.80339E+005   -6.48684E+004   -4.29826E+005   -8.11116E+004    1.12947E+005    5.85546E+004   -8.87230E+003
            8758    3.55276E+005    3.38674E+004   -3.62266E+005   -7.18398E+004   -3.62266E+005    3.96133E+005    1.33413E+005   -3.16889E+005   -3.07622E+004   -3.36969E+005   -3.25071E+004    8.80256E+004    5.61239E+004   -9.91354E+003
            8759    2.98882E+005    5.25086E+004   -2.81492E+005   -3.92365E+004   -2.81492E+005    3.34000E+005    8.94065E+004   -2.64302E+005   -9.67448E+003   -2.61378E+005    2.83298E+003    6.94185E+004    5.07789E+004   -1.26347E+004
            8760    2.59836E+005    6.52617E+004   -2.27828E+005   -2.57087E+004   -2.27828E+005    2.93090E+005    6.27584E+004   -2.19460E+005   -1.71236E+004   -2.03713E+005    3.25618E+004    6.43358E+004    5.02392E+004   -1.79860E+004
            8761    1.94700E+005    7.68180E+004   -1.46004E+005   -8.68979E+003   -1.46004E+005    2.22822E+005    2.59585E+004   -1.42214E+005   -3.56164E+003   -1.23420E+005    4.91067E+004    4.93935E+004    4.63165E+004   -1.52799E+004
            8762    1.39656E+005    6.60583E+004   -9.45060E+004   -1.26070E+003   -9.45060E+004    1.60564E+005    9.90280E+003   -9.08470E+004    3.96589E+003   -7.74908E+004    4.38165E+004    2.80234E+004    3.69008E+004   -2.30467E+004
            8763    9.15508E+004    4.42902E+004   -6.07772E+004    1.86518E+003   -6.07772E+004    1.05067E+005    4.87392E+003   -6.30000E+004    1.87633E+003   -4.37087E+004    2.72106E+004    1.76681E+004    2.51874E+004   -2.35738E+004
            8764    8.37772E+004    2.12365E+004   -7.23498E+004   -4.34745E+003   -7.23498E+004    9.35863E+004    1.84869E+004   -7.41938E+004   -5.24978E+003   -5.97435E+004    9.53261E+003    2.33222E+004    1.75055E+004   -1.25682E+004
            8765    9.44363E+004    6.73410E+003   -9.16095E+004   -1.63792E+003   -9.16095E+004    9.83436E+004    2.88378E+004   -9.35960E+004   -9.15193E+003   -8.02549E+004    2.89350E+003    3.02070E+004    5.58385E+003   -3.16813E+003
            8766    1.22549E+005    5.35623E+004   -8.64435E+004    1.36357E+003   -8.64435E+004    1.40006E+005    1.05059E+004   -9.20354E+004    1.56559E+004   -7.78985E+004    3.07249E+004    2.93043E+004    2.59110E+004    3.58508E+003
            8767    1.21925E+005    2.23328E+004   -1.08589E+005    1.70814E+003   -1.08589E+005    1.30922E+005    2.81827E+004   -1.17904E+005    5.34033E+003   -9.56111E+004    5.72273E+003    3.84490E+004    7.88492E+003    2.17814E+003
            8768    1.74549E+005    5.06218E+004   -1.47603E+005   -1.69044E+004   -1.47603E+005    1.98225E+005    3.79619E+004   -1.40288E+005   -5.36182E+003   -1.25233E+005    1.67097E+004    5.63292E+004    3.24683E+004    9.72742E+003
            8769    1.67540E+005    3.30566E+004   -1.48349E+005    5.64853E+002   -1.48349E+005    1.81406E+005    3.82425E+004   -1.60219E+005   -5.07263E+003   -1.16372E+005    6.71762E+003    6.75465E+004    9.85126E+003    9.16289E+003
            8770    2.18673E+005    6.44879E+004   -1.83613E+005   -1.89159E+004   -1.83613E+005    2.48101E+005    4.60137E+004   -1.77181E+005    1.43989E+004   -1.63865E+005    1.14246E+004    6.22882E+004    3.67805E+004    1.69638E+004
            8771    1.79099E+005    3.61184E+004   -1.60342E+005   -6.17598E+003   -1.60342E+005    1.96461E+005    4.34666E+004   -1.67300E+005    4.61947E+003   -1.31816E+005   -3.20377E+003    6.85973E+004    1.01530E+004    3.74572E+003
            8772    2.86754E+005    4.82571E+004   -2.59400E+005    4.37698E+002   -2.59400E+005    3.07657E+005    7.02350E+004   -2.77570E+005   -6.54280E+002   -2.10846E+005    7.94886E+002    1.12082E+005    4.12208E+003    8.80772E+002
            8773    3.31438E+005   -1.59357E+004   -3.75854E+005   -8.32207E+004   -3.75854E+005    3.59918E+005    1.58337E+005   -3.15518E+005   -1.14011E+005   -2.89131E+005   -7.18680E+004    1.34395E+005    1.53277E+003   -7.26525E+004
            8774    3.41440E+005    2.54027E+004   -3.47542E+005   -5.03188E+004   -3.47542E+005    3.72944E+005    1.24153E+005   -3.21724E+005   -2.45200E+004   -2.93367E+005   -5.45709E+004    1.24711E+005    2.23302E+004   -3.32877E+004
            8775    3.50296E+005    4.62756E+003   -3.90364E+005   -1.17412E+005   -3.90364E+005    3.94992E+005    1.67716E+005   -2.96472E+005   -1.12482E+005   -2.65767E+005   -1.24899E+005    1.63525E+005    6.57507E+003   -8.28851E+004
            8776    5.17499E+005    6.86889E+005    6.86889E+005    2.45522E+005    1.17349E+005    5.69541E+005   -3.49920E+005    4.79797E+005    2.14556E+005    6.22993E+005    2.12212E+005    1.73585E+005    5.05575E+004   -2.55491E+004
            8777    6.28205E+005    7.72266E+005    7.72266E+005    2.48122E+005    7.59168E+004    6.96349E+005   -3.65435E+005    5.71378E+005    1.68118E+005    6.85090E+005    2.43096E+005    2.26666E+005    4.27045E+004    1.74863E+004
            8778    7.23808E+005    8.12744E+005    8.12744E+005    2.37512E+005    2.88628E+001    8.12715E+005   -3.50095E+005    6.26714E+005    1.16673E+005    6.93880E+005    2.39732E+005    2.81986E+005    3.68689E+004    3.64800E+004
            8779    7.84238E+005    9.15671E+005    9.15671E+005    2.95847E+005    3.40130E+004    8.81658E+005   -4.15177E+005    6.74836E+005    2.43099E+005    7.01982E+005    3.00449E+005    3.73709E+005    2.49504E+004    4.70497E+004
            8780    6.48784E+005    7.96262E+005    7.96262E+005    2.88724E+005    6.52879E+004    7.30974E+005   -3.83425E+005    5.51687E+005    3.16048E+005    5.43856E+005    2.90369E+005    3.41629E+005    6.97536E+003    6.38669E+004
            8781    5.66145E+005    8.01623E+005    8.01623E+005    3.15651E+005    1.79964E+005    6.21659E+005   -4.32413E+005    5.27667E+005    2.77626E+005    7.18055E+005    3.01557E+005    2.09066E+005    3.56012E+004   -2.29567E+004
            8782    6.92968E+005    8.79308E+005    8.79308E+005    2.98192E+005    1.12375E+005    7.66933E+005   -4.29958E+005    6.33179E+005    2.13158E+005    7.80834E+005    2.95882E+005    2.55273E+005    2.79477E+004    8.77166E+003
            8783    8.00682E+005    9.21133E+005    9.21133E+005    2.79091E+005    2.39807E+004    8.97153E+005   -4.08068E+005    7.00083E+005    1.54620E+005    7.89596E+005    2.79989E+005    3.15280E+005    2.44164E+004    2.44414E+004
            8784    8.55202E+005    1.01364E+006    1.01364E+006    3.32565E+005    5.38531E+004    9.59789E+005   -4.66687E+005    7.42199E+005    2.83844E+005    7.81637E+005    3.34580E+005    4.09117E+005    1.69690E+004    3.29657E+004
            8785    6.98431E+005    8.73308E+005    8.73308E+005    3.21182E+005    8.81541E+004    7.85154E+005   -4.27548E+005    6.01146E+005    3.54297E+005    6.06482E+005    3.21866E+005    3.69548E+005    4.91085E+003    4.16616E+004
            8786    5.95224E+005    8.71479E+005    8.71479E+005    3.61467E+005    2.17466E+005    6.54013E+005   -4.83471E+005    5.53961E+005    3.16932E+005    7.73901E+005    3.59579E+005    2.32543E+005    1.32842E+004   -1.12687E+004
            8787    7.31609E+005    9.42992E+005    9.42992E+005    3.29024E+005    1.33480E+005    8.09512E+005   -4.68499E+005    6.68923E+005    2.39923E+005    8.36801E+005    3.28773E+005    2.73129E+005    9.89804E+003    3.44032E+003
            8788    8.45126E+005    9.83977E+005    9.83977E+005    3.04149E+005    3.77526E+004    9.46225E+005   -4.41960E+005    7.41443E+005    1.78853E+005    8.42759E+005    3.04267E+005    3.36919E+005    8.59304E+003    8.86136E+003
            8789    8.94313E+005    1.07171E+006    1.07171E+006    3.55784E+005    6.92475E+004    1.00246E+006   -4.98914E+005    7.80548E+005    3.12344E+005    8.28405E+005    3.55994E+005    4.29591E+005    5.86079E+003    1.07804E+004
            8790    7.26384E+005    9.18026E+005    9.18026E+005    3.39816E+005    1.02720E+005    8.15307E+005   -4.53521E+005    6.30069E+005    3.77473E+005    6.43224E+005    3.39866E+005    3.85050E+005    1.38521E+003    1.63921E+004
            8791    9.02187E+004    6.01619E+004    6.01619E+004   -2.07976E+003   -4.33047E+004    1.03467E+005   -4.92580E+003    6.31597E+004   -3.22226E+003    4.31047E+004   -2.51050E+004    1.51262E+004   -2.41766E+004   -2.62087E+004
            8792    8.05257E+004    6.05660E+004    6.05660E+004   -4.17209E+003   -2.96055E+004    9.01715E+004   -8.92946E+003    7.06030E+004   -8.68936E+003    5.26759E+004   -1.71982E+004    1.75478E+004   -1.60847E+004   -1.18913E+004
            8793    8.52687E+004    7.89223E+004    7.89223E+004   -1.51115E+003   -1.04735E+004    8.93958E+004   -2.23126E+004    8.41992E+004   -2.39217E+003    7.23911E+004   -3.06129E+003    2.24395E+004   -4.86732E+003   -3.91782E+003
            8794    5.88708E+004    4.21772E+004    4.21772E+004   -3.01618E+002   -2.50235E+004    6.72006E+004   -5.61736E+003    4.47330E+004    1.41510E+003    2.46152E+004   -9.17820E+003    7.77449E+003   -1.27785E+004   -2.51551E+004
            8795    4.98910E+004    4.50552E+004    4.50552E+004    2.34050E+003   -9.77908E+003    5.48343E+004   -1.25389E+004    4.64023E+004    4.51205E+003    3.42226E+004   -1.11803E+003    9.91826E+003   -8.74279E+003   -1.71562E+004
            8796    5.23642E+004    5.29095E+004    5.29095E+004    3.50678E+003   -1.98354E+003    5.48930E+004   -1.81442E+004    5.17107E+004    6.73029E+003    4.84649E+004   -7.62534E+002    1.27505E+004   -3.16229E+003   -6.15478E+003
            8797    4.35503E+004    3.12205E+004    3.12205E+004   -1.77409E+002   -1.84969E+004    4.97174E+004   -4.18208E+003    3.30465E+004    7.65212E+002    1.25435E+004   -7.62430E+002    3.62507E+003   -4.66797E+003   -2.33294E+004
            8798    3.58801E+004    2.55260E+004    2.55260E+004   -6.53299E+003   -1.32312E+004    3.87571E+004   -1.92060E+003    3.44310E+004   -5.56385E+003    1.51865E+004   -3.86087E+003    4.59017E+003   -3.34040E+003   -1.62538E+004
            8799    2.79659E+004    2.41070E+004    2.41070E+004   -1.97056E+003   -5.42617E+003    2.95331E+004   -5.57008E+003    2.74794E+004   -4.40695E+003    2.14883E+004   -3.71140E+002    5.21953E+003   -1.04013E+003   -6.18523E+003
            8800    3.95646E+004    2.19849E+004   -2.36585E+004    8.57151E+002   -2.36585E+004    4.56433E+004    2.72156E+002   -1.99461E+004    8.22806E+002   -1.32729E+003   -3.11979E+002    2.58945E+003    2.17236E+002   -2.26688E+004
            8801    2.79173E+004    1.69321E+004    1.69321E+004    5.65138E+003   -1.48604E+004    3.17925E+004   -2.57435E+003   -2.18267E+004    5.63282E+003   -1.37486E+003    3.46510E+003    2.81114E+003    2.51660E+002   -1.54581E+004
            8802    1.30976E+004    7.26757E+003   -7.32204E+003    3.42291E+003   -7.32204E+003    1.45896E+004   -1.12282E+003   -1.17235E+004    5.26464E+003   -2.27370E+003    3.77512E+002    3.02596E+003   -4.76011E+001   -5.77928E+003
            8803    4.35477E+004    1.87303E+004   -3.12096E+004   -1.14923E+003   -3.12096E+004    4.99399E+004    4.54282E+003   -3.05215E+004   -2.48157E+003   -1.31078E+004    1.96088E+003    4.25115E+003    5.25304E+003   -2.29459E+004
            8804    3.56425E+004    7.58230E+003   -3.23892E+004   -3.91252E+003   -3.23892E+004    3.99715E+004    9.57313E+003   -3.10418E+004   -6.03283E+003   -1.98497E+004   -2.83686E+003    6.16018E+003    4.30370E+003   -1.68888E+004
            8805    3.10067E+004    1.08636E+003   -3.22079E+004   -4.15733E+003   -3.22079E+004    3.32942E+004    1.17596E+004   -2.99847E+004   -6.47096E+003   -2.85511E+004   -2.56742E+002    7.52634E+003    1.72762E+003   -6.30249E+003
            8806    6.17350E+004    2.51995E+004   -4.49737E+004    9.75852E+002   -4.49737E+004    7.01732E+004    6.26611E+003   -4.91973E+004    2.91403E+002   -2.76348E+004    8.54503E+003    7.71454E+003    1.35388E+004   -2.58476E+004
            8807    5.80345E+004    1.95824E+004   -4.39910E+004    6.14832E+003   -4.39910E+004    6.35734E+004    6.08678E+003   -5.43685E+004    8.38774E+003   -3.64812E+004    9.83313E+003    9.41674E+003    9.82626E+003   -1.56221E+004
            8808    6.16464E+004    7.54738E+003   -5.68514E+004    1.61342E+003   -5.68514E+004    6.43988E+004    1.58969E+004   -6.09989E+004    4.19123E+003   -5.36100E+004    1.72817E+003    1.24202E+004    3.27275E+003   -5.79296E+003
            8809    6.48346E+005    7.95627E+005    7.95627E+005    2.88707E+005    6.50647E+004    7.30562E+005   -3.83133E+005    5.50961E+005    3.15737E+005    5.43378E+005    2.90284E+005    3.41404E+005   -6.75871E+003   -6.39898E+004
            8810    7.83892E+005    9.15116E+005    9.15116E+005    2.95493E+005    3.38715E+004    8.81245E+005   -4.14827E+005    6.74629E+005    2.42407E+005    7.01959E+005    3.00115E+005    3.73252E+005   -2.52446E+004   -4.69878E+004
            8811    7.23365E+005    8.12563E+005    8.12563E+005    2.37580E+005    3.78748E+002    8.12185E+005   -3.50174E+005    6.26456E+005    1.16605E+005    6.94122E+005    2.39795E+005    2.81435E+005   -3.69027E+004   -3.65045E+004
            8812    6.27300E+005    7.72267E+005    7.72267E+005    2.48675E+005    7.70028E+004    6.95264E+005   -3.65981E+005    5.70757E+005    1.69151E+005    6.85334E+005    2.43460E+005    2.26216E+005   -4.28356E+004   -1.70361E+004
            8813    5.17369E+005    6.87312E+005    6.87312E+005    2.46205E+005    1.17846E+005    5.69465E+005   -3.50454E+005    4.79541E+005    2.15145E+005    6.23369E+005    2.12849E+005    1.73618E+005   -5.06406E+004    2.55510E+004
            8814    6.97721E+005    8.72728E+005    8.72728E+005    3.21056E+005    8.84050E+004    7.84323E+005   -4.27396E+005    6.00668E+005    3.54727E+005    6.05740E+005    3.21723E+005    3.69302E+005   -4.86382E+003   -4.16790E+004
            8815    8.54612E+005    1.01351E+006    1.01351E+006    3.32956E+005    5.43621E+004    9.59145E+005   -4.66942E+005    7.41619E+005    2.85125E+005    7.80733E+005    3.34967E+005    4.09403E+005   -1.68363E+004   -3.30038E+004
            8816    8.00514E+005    9.21478E+005    9.21478E+005    2.79373E+005    2.45795E+004    8.96899E+005   -4.08477E+005    7.00168E+005    1.55555E+005    7.89603E+005    2.80273E+005    3.15573E+005   -2.43615E+004   -2.44156E+004
            8817    6.91701E+005    8.78828E+005    8.78828E+005    2.98571E+005    1.13383E+005    7.65446E+005   -4.30261E+005    6.32220E+005    2.13976E+005    7.80596E+005    2.96211E+005    2.54749E+005   -2.78443E+004   -8.34331E+003
            8818    5.65264E+005    8.01084E+005    8.01084E+005    3.15868E+005    1.80392E+005    6.20692E+005   -4.32448E+005    5.26846E+005    2.78055E+005    7.17649E+005    3.01640E+005    2.08692E+005   -3.56374E+004    2.32649E+004
            8819    7.25901E+005    9.17561E+005    9.17561E+005    3.39944E+005    1.02729E+005    8.14832E+005   -4.53412E+005    6.29398E+005    3.77580E+005    6.42655E+005    3.39999E+005    3.84907E+005   -1.44878E+003   -1.65923E+004
            8820    8.94040E+005    1.07137E+006    1.07137E+006    3.55790E+005    6.91666E+004    1.00220E+006   -4.98775E+005    7.80156E+005    3.12488E+005    8.27837E+005    3.56001E+005    4.29651E+005   -5.75587E+003   -1.08724E+004
            8821    8.45086E+005    9.84063E+005    9.84063E+005    3.04354E+005    3.78520E+004    9.46211E+005   -4.42089E+005    7.41308E+005    1.79065E+005    8.42733E+005    3.04470E+005    3.37026E+005   -8.63842E+003   -8.83539E+003
            8822    7.31070E+005    9.42751E+005    9.42751E+005    3.29283E+005    1.33816E+005    8.08936E+005   -4.68616E+005    6.68384E+005    2.40236E+005    8.36568E+005    3.29046E+005    2.73004E+005   -9.84857E+003   -3.65784E+003
            8823    5.94068E+005    8.70127E+005    8.70127E+005    3.60942E+005    2.17458E+005    6.52669E+005   -4.82843E+005    5.53029E+005    3.16715E+005    7.72773E+005    3.59040E+005    2.32037E+005   -1.33012E+004    1.13209E+004
            8824    2.44518E+005    2.02106E+005    2.02106E+005    2.37175E+004   -7.66196E+004    2.78726E+005   -4.97347E+004    1.89102E+005    8.33080E+003    1.83728E+005   -4.28541E+004    5.38639E+004   -5.21985E+004   -1.35352E+004
            8825    3.06020E+005    2.76026E+005    2.76026E+005    4.17163E+004   -7.01976E+004    3.46224E+005   -8.25150E+004    2.53428E+005    2.61725E+004    2.53626E+005   -3.22534E+004    6.96885E+004   -5.80375E+004   -1.33671E+004
            8826    3.54559E+005    3.63457E+005    3.63457E+005    7.79298E+004   -3.34086E+004    3.96866E+005   -1.35993E+005    3.11426E+005    6.09685E+004    3.35126E+005    1.18844E+004    8.75274E+004   -6.07828E+004   -1.43453E+004
            8827    4.08012E+005    4.54779E+005    4.54779E+005    1.18274E+005    9.62834E+002    4.53817E+005   -1.91339E+005    3.67096E+005    9.84333E+004    4.20004E+005    5.55791E+004    1.09989E+005   -6.09756E+004    8.91020E+002
            8828    4.64455E+005    5.71098E+005    5.71098E+005    1.78204E+005    5.85117E+004    5.12586E+005   -2.69271E+005    4.27642E+005    1.54719E+005    5.24619E+005    1.28476E+005    1.38944E+005   -5.80906E+004    1.23387E+004
            8829    5.47442E+005    6.43669E+005    6.43669E+005    1.89698E+005    3.57305E+004    6.07939E+005   -2.89699E+005    4.95103E+005    1.19884E+005    5.69362E+005    1.79851E+005    1.92796E+005   -5.27254E+004   -1.97378E+004
            8830    6.28587E+005    6.86835E+005    6.86835E+005    1.90803E+005   -2.00764E+004    7.06911E+005   -2.85854E+005    5.39941E+005    7.70069E+004    5.86398E+005    1.94156E+005    2.38025E+005   -4.47854E+004   -4.32338E+004
            8831    6.96513E+005    7.95172E+005    7.95172E+005    2.50494E+005    1.03633E+004    7.84808E+005   -3.52010E+005    5.92018E+005    1.90194E+005    6.07536E+005    2.58298E+005    3.27702E+005   -3.17791E+004   -5.64057E+004
            8832    5.85559E+005    7.05559E+005    7.05559E+005    2.53255E+005    4.41546E+004    6.61405E+005   -3.34323E+005    4.90337E+005    2.71146E+005    4.75795E+005    2.56029E+005    3.06424E+005   -8.05005E+003   -7.25575E+004
            8833    4.66059E+005    5.23779E+005    5.23779E+005    1.38997E+005    5.55452E+003    5.18225E+005   -2.22777E+005    4.19742E+005    8.19775E+004    4.60315E+005    1.26039E+005    1.59765E+005   -5.82879E+004   -2.60327E+004
            8834    5.25523E+005    5.54535E+005    5.54535E+005    1.44167E+005   -3.77827E+004    5.92318E+005   -2.20306E+005    4.45915E+005    4.09773E+004    4.72324E+005    1.47618E+005    1.93119E+005   -4.86220E+004   -4.38315E+004
            8835    6.05977E+005    6.78824E+005    6.78824E+005    2.07948E+005   -4.84832E+003    6.83673E+005   -2.93975E+005    5.11160E+005    1.43167E+005    5.21272E+005    2.17485E+005    2.78985E+005   -3.43930E+004   -5.70795E+004
            8836    5.21337E+005    6.14679E+005    6.14679E+005    2.17016E+005    2.44527E+004    5.90227E+005   -2.85383E+005    4.29632E+005    2.26040E+005    4.09144E+005    2.20964E+005    2.69629E+005   -8.15662E+003   -7.96057E+004
            8837    3.87860E+005    4.06255E+005    4.06255E+005    9.14209E+004   -2.70154E+004    4.33270E+005   -1.56887E+005    3.43499E+005    4.72947E+004    3.53905E+005    6.94604E+004    1.30214E+005   -5.98958E+004   -1.91534E+004
            8838    4.35155E+005    4.48575E+005    4.48575E+005    1.06146E+005   -4.11004E+004    4.89675E+005   -1.71207E+005    3.72584E+005    2.12874E+004    3.83759E+005    1.08574E+005    1.53065E+005   -4.72228E+004   -4.08974E+004
            8839    5.18689E+005    5.67777E+005    5.67777E+005    1.67640E+005   -1.82397E+004    5.86017E+005   -2.39059E+005    4.33647E+005    1.02093E+005    4.36160E+005    1.78924E+005    2.33755E+005   -3.35184E+004   -5.74619E+004
            8840    4.58320E+005    5.36250E+005    5.36250E+005    1.88305E+005    1.69407E+004    5.19309E+005   -2.47165E+005    3.75357E+005    1.90210E+005    3.58306E+005    1.92980E+005    2.34493E+005   -7.81441E+003   -7.55315E+004
            8841    3.21887E+005    3.20365E+005    3.20365E+005    6.13581E+004   -4.00014E+004    3.60366E+005   -1.13907E+005    2.82486E+005    3.03211E+004    2.77001E+005    3.43989E+004    1.04513E+005   -5.74831E+004   -1.88590E+004
            8842    3.51452E+005    3.47784E+005    3.47784E+005    7.11307E+004   -4.76729E+004    3.95457E+005   -1.23747E+005    3.01032E+005    2.48242E+003    2.98050E+005    7.07096E+004    1.20471E+005   -4.16282E+004   -3.12557E+004
            8843    4.48094E+005    4.86809E+005    4.86809E+005    1.35833E+005   -1.79204E+004    5.04730E+005   -2.01574E+005    3.81592E+005    7.75137E+004    3.81158E+005    1.46050E+005    1.95098E+005   -2.83768E+004   -5.19511E+004
            8844    4.07705E+005    4.68403E+005    4.68403E+005    1.59772E+005    6.21842E+003    4.62185E+005   -2.11465E+005    3.32625E+005    1.58547E+005    3.11503E+005    1.64343E+005    2.03825E+005   -5.80769E+003   -7.94687E+004
            8845    2.58928E+005    2.32189E+005    2.32189E+005    3.25194E+004   -6.03704E+004    2.92559E+005   -6.81125E+004    2.16370E+005    9.37735E+003    2.00379E+005   -5.41843E+003    8.24138E+004   -4.87839E+004    6.93545E+002
            8846    2.97128E+005    2.94667E+005    2.94667E+005    4.77957E+004   -3.51076E+004    3.29775E+005   -1.02452E+005    2.69205E+005    3.58054E+003    2.57819E+005    4.59552E+004    9.63639E+004   -3.15252E+004   -2.43970E+004
            8847    3.87905E+005    4.09268E+005    4.09268E+005    9.99884E+004   -2.59598E+004    4.35228E+005   -1.61099E+005    3.37074E+005    5.24285E+004    3.21249E+005    1.09619E+005    1.64922E+005   -2.09947E+004   -4.96287E+004
            8848    3.64315E+005    4.20003E+005    4.20003E+005    1.38770E+005    8.44989E+003    4.11553E+005   -1.89074E+005    3.04835E+005    1.37812E+005    2.87376E+005    1.42035E+005    1.77665E+005   -3.84683E+003   -7.35552E+004
            8849    3.42940E+005    3.80334E+005    3.80334E+005    1.17662E+005   -7.63557E+003    3.87969E+005   -1.63453E+005    2.84132E+005    1.18655E+005    2.52364E+005    1.19341E+005    1.57571E+005   -1.73560E+003   -9.18806E+004
            8850    3.41434E+005    3.91600E+005    3.91600E+005    9.41112E+004    1.87966E+004    3.72803E+005   -1.68169E+005    3.21938E+005    1.26719E+005    3.04307E+005    7.34813E+004    1.33447E+005    7.38450E+002   -8.02597E+004
            8851    3.66939E+005    3.86441E+005    3.86441E+005    6.26594E+004   -1.21324E+004    3.98573E+005   -1.45656E+005    3.49166E+005    5.02919E+004    3.17077E+005    6.95987E+004    1.41145E+005   -1.05016E+004   -5.21272E+004
            8852    3.11029E+005    2.87766E+005    2.87766E+005    6.67483E+002   -4.26515E+004    3.30417E+005   -8.19272E+004    3.04130E+005    1.40036E+004    2.30938E+005    8.40590E+002    1.24485E+005   -2.37682E+003   -6.90890E+003
            8853    2.56882E+005    2.36531E+005    2.36531E+005    1.31937E+004   -4.41900E+004    2.80721E+005   -6.85114E+004    2.41822E+005   -6.98901E+003    2.08152E+005    4.37146E+003    8.29263E+004   -2.14427E+004    1.62958E+003
            8854    2.03931E+005    1.85016E+005    1.85016E+005    9.35916E+003   -3.86291E+004    2.23645E+005   -5.19155E+004    1.90596E+005   -4.30248E+003    1.52100E+005    7.94909E+003    7.88994E+004   -8.43921E+003    1.03335E+003
            8855    2.04450E+005    1.86747E+005    1.86747E+005    2.42987E+004   -4.28278E+004    2.29575E+005   -5.60726E+004    1.76983E+005    7.82365E+003    1.58870E+005    1.52351E+003    7.04668E+004   -3.12217E+004    7.57971E+003
            8856    1.82751E+005    1.61940E+005    1.61940E+005    9.95577E+002   -3.67294E+004    1.98669E+005   -4.20687E+004    1.73663E+005    3.32688E+003    1.26415E+005   -3.53550E+003    7.49149E+004   -9.34471E+003    9.25144E+003
            8857    1.45436E+005    1.26756E+005    1.26756E+005   -4.52908E+002   -3.17968E+004    1.58552E+005   -3.15020E+004    1.37525E+005   -5.59651E+003    1.05374E+005   -5.27199E+003    5.30925E+004   -9.41540E+003    7.08556E+003
            8858    1.17704E+005    1.09052E+005    1.09052E+005    3.52661E+002   -1.59546E+004    1.25007E+005   -3.11502E+004    1.15121E+005    6.60757E+003    9.26548E+004   -5.81192E+003    4.09635E+004   -7.84081E+003    1.70066E+003
            8859    1.64000E+005    1.23765E+005    1.23765E+005    7.52411E+003   -6.38238E+004    1.87589E+005   -2.24884E+004    1.20872E+005   -1.26618E+004    1.09116E+005   -2.89890E+004    4.46518E+004   -3.32362E+004    1.31150E+004
            8860    1.13436E+005    9.06191E+004    9.06191E+004    7.52116E+003   -3.86150E+004    1.29234E+005   -1.98418E+004    8.82872E+004    1.32451E+003    7.80478E+004   -1.98470E+004    3.19380E+004   -2.47370E+004   -2.05883E+003
            8861    1.37213E+005    9.08283E+004    9.08283E+004   -5.53769E+001   -6.70084E+004    1.57837E+005   -7.92151E+003    8.74589E+004   -2.95634E+003    7.27734E+004   -4.60525E+004    2.87243E+004   -3.63654E+004   -2.25757E+004
            8862    1.95532E+005    1.46666E+005    1.46666E+005    1.02705E+004   -7.73514E+004    2.24018E+005   -2.65284E+004    1.39917E+005    3.23508E+003    1.27229E+005   -5.08787E+004    4.34349E+004   -4.60725E+004   -1.99356E+004
            8863    2.29473E+005    4.34812E+004   -2.16112E+005   -4.03117E+004   -2.16112E+005    2.59593E+005    7.09809E+004   -1.90175E+005   -4.03255E+004   -2.07161E+005    3.45435E+004    3.95769E+004   -2.45046E+004   -8.70524E+003
            8864    2.70381E+005    2.75548E+004   -2.73609E+005   -5.17458E+004   -2.73609E+005    3.01164E+005    9.92667E+004   -2.42068E+005   -4.89836E+004   -2.64366E+005    1.55500E+004    4.44021E+004   -2.52749E+004   -1.65417E+004
            8865    3.05490E+005   -9.76797E+003   -3.42903E+005   -7.58863E+004   -3.42903E+005    3.33135E+005    1.42853E+005   -2.88726E+005   -7.02430E+004   -3.33005E+005   -2.53093E+004    5.03411E+004   -2.47633E+004   -1.83676E+004
            8866    3.40949E+005   -4.89284E+004   -4.13873E+005   -1.03505E+005   -4.13873E+005    3.64945E+005    1.88769E+005   -3.30907E+005   -9.22564E+004   -4.02327E+005   -7.17232E+004    5.64711E+004   -2.22313E+004   -2.74729E+004
            8867    5.42614E+005    6.01876E+004   -5.49973E+005   -1.21573E+005   -5.49973E+005    6.10161E+005    2.03786E+005   -4.66354E+005    4.08488E+004   -5.26403E+005   -1.25805E+005    1.01697E+005   -2.56626E+004    4.62401E+004
            8868    7.38273E+005   -1.15170E+005   -9.40689E+005   -3.43716E+005   -9.40689E+005    8.25520E+005    4.66525E+005   -6.51248E+005   -2.10585E+005   -8.34108E+005   -3.54883E+005    2.59644E+005   -1.20263E+004    8.70594E+004
            8869    4.53685E+005    5.87131E+004   -4.51461E+005   -9.33094E+004   -4.51461E+005    5.10174E+005    1.62019E+005   -3.89875E+005    4.45259E+004   -4.31816E+005   -9.87666E+004    7.71368E+004   -2.52642E+004    4.79125E+004
            8870    6.42566E+005   -9.89643E+004   -8.16736E+005   -2.95083E+005   -8.16736E+005    7.17772E+005    4.03595E+005   -5.69150E+005   -1.75912E+005   -7.25034E+005   -3.09837E+005    2.16753E+005   -1.25574E+004    9.22728E+004
            8871    3.79498E+005    5.10620E+004   -3.74138E+005   -6.97637E+004   -3.74138E+005    4.25200E+005    1.30947E+005   -3.31896E+005    4.14154E+004   -3.57524E+005   -7.67319E+004    5.58063E+004   -2.23985E+004    4.89674E+004
            8872    5.52361E+005   -7.95699E+004   -6.95763E+005   -2.45072E+005   -6.95763E+005    6.16193E+005    3.40135E+005   -4.91758E+005   -1.40958E+005   -6.14886E+005   -2.64561E+005    1.77622E+005   -1.22130E+004    9.78093E+004
            8873    2.98241E+005    4.86162E+004   -2.84506E+005   -4.23136E+004   -2.84506E+005    3.33122E+005    9.27344E+004   -2.64246E+005    4.27015E+004   -2.73337E+005   -4.75677E+004    3.77169E+004   -1.61917E+004    3.82675E+004
            8874    4.81447E+005   -7.30506E+004   -6.07783E+005   -2.08743E+005   -6.07783E+005    5.34732E+005    2.96526E+005   -4.35207E+005   -1.21070E+005   -5.42693E+005   -2.25814E+005    1.45737E+005   -7.84474E+003    8.81562E+004
            8875    4.37264E+005   -4.30609E+004   -5.26882E+005   -1.59920E+005   -5.26882E+005    4.83821E+005    2.43287E+005   -3.99807E+005   -8.60341E+004   -4.61677E+005   -1.82151E+005    1.21831E+005   -1.07915E+003    1.03968E+005
            8876    4.43005E+005   -4.91650E+004   -5.15490E+005   -1.00232E+005   -5.15490E+005    4.66325E+005    2.21629E+005   -4.36309E+005   -8.42460E+004   -4.71890E+005   -1.08752E+005    9.85994E+004    1.97004E+002    9.25894E+004
            8877    2.87425E+005    2.32073E+004   -2.84385E+005   -2.26375E+004   -2.84385E+005    3.07592E+005    9.46051E+004   -2.79021E+005    1.93954E+004   -2.74995E+005   -2.82157E+004    2.86756E+004   -1.08397E+004    4.03223E+004
            8878    2.41455E+005    3.49205E+004   -2.13327E+005    2.07070E+004   -2.13327E+005    2.48248E+005    5.25665E+004   -2.40511E+005    3.16235E+004   -2.10906E+005    2.15836E+004    2.41996E+004   -3.19707E+003   -2.95749E+003
            8879    1.36659E+005   -8.23655E+003   -1.50748E+005   -2.08112E+004   -1.50748E+005    1.42512E+005    5.99320E+004   -1.35348E+005   -2.00444E+004   -1.40797E+005   -1.89545E+004    3.58999E+004   -3.49948E+003   -4.41531E+003
            8880    1.19350E+005    2.64247E+004   -9.90702E+004    1.30002E+004   -9.90702E+004    1.25495E+005    1.98818E+004   -1.17634E+005    1.52536E+004   -9.24817E+004    1.75828E+004    2.03480E+004   -3.36093E+003   -1.91938E+004
            8881    7.86647E+004    1.73884E+003   -8.19388E+004   -9.49490E+003   -8.19388E+004    8.36777E+004    2.98983E+004   -7.68290E+004   -1.22820E+004   -7.64301E+004   -9.82813E+002    1.88370E+004   -2.94529E+003   -6.58649E+003
            8882    6.79558E+004    1.19025E+004   -5.77461E+004    8.37978E+003   -5.77461E+004    6.96486E+004    1.24879E+004   -6.77499E+004    8.68814E+003   -5.66602E+004    1.05082E+004    8.36429E+003   -1.51696E+003   -1.68691E+003
            8883    1.71476E+005    2.40885E+004   -1.65322E+005   -2.06481E+004   -1.65322E+005    1.89410E+005    5.39604E+004   -1.57524E+005   -1.24102E+004   -1.56561E+005    7.08996E+003    3.01156E+004   -1.63992E+004   -2.52037E+004
            8884    1.33159E+005    4.49428E+004   -1.03250E+005    6.34937E+003   -1.03250E+005    1.48193E+005    1.73193E+004   -1.19571E+005    1.17990E+004   -9.85619E+004    3.48048E+004    1.31044E+004   -1.25513E+004   -2.23296E+004
            8885    8.32325E+004    3.53972E+004   -6.05386E+004   -7.58141E+003   -6.05386E+004    9.59358E+004    1.09076E+004   -4.69050E+004   -6.27660E+003   -5.62038E+004    2.97576E+004    1.22621E+004   -9.95494E+003   -1.40119E+004
            8886    5.33482E+004    2.09391E+004   -3.84902E+004    5.26558E+003   -3.84902E+004    5.94292E+004    4.09517E+003   -4.77410E+004    6.51430E+003   -3.73228E+004    1.85230E+004    5.44560E+003   -5.76907E+003    4.65109E+003
            8887    6.24782E+004    5.31762E+004    5.31762E+004    6.74147E+003   -1.78573E+004    7.10336E+004   -1.40201E+004    4.96847E+004    7.39616E+003   -1.36258E+004    4.82901E+004    7.27125E+003   -1.44378E+004    6.96802E+003
            8888    1.06473E+005    7.81601E+004    7.81601E+004    1.17241E+003   -4.33464E+004    1.21507E+005   -1.19954E+004    8.11808E+004    1.87931E+003   -3.84271E+004    7.25339E+004    1.37897E+004   -2.06880E+004    2.41323E+003
            8889    1.50563E+005    9.97096E+004    9.97096E+004    5.60614E+003   -7.39429E+004    1.73653E+005   -1.04576E+004    7.90176E+004    8.15210E+003   -6.91507E+004    9.23715E+004    1.97653E+004   -2.39625E+004   -8.07691E+003
            8890    2.10832E+005    8.61144E+004   -1.55622E+005   -9.80086E+003   -1.55622E+005    2.41736E+005    2.64362E+004   -1.48357E+005   -9.14735E+003   -1.49603E+005    7.94418E+004    2.96726E+004   -2.36395E+004   -6.15031E+003
            8891    8.30949E+005   -1.34631E+005   -1.06401E+006   -3.92745E+005   -1.06401E+006    9.29375E+005    5.30461E+005   -7.32260E+005   -2.47504E+005   -9.44707E+005   -3.99170E+005    3.01017E+005   -1.00425E+004    7.06806E+004
            8892    6.26353E+005    5.99559E+004   -6.44505E+005   -1.50435E+005   -6.44505E+005    7.04461E+005    2.44995E+005   -5.37773E+005    3.46109E+004   -6.16716E+005   -1.52880E+005    1.28092E+005   -2.23976E+004    3.79830E+004
            8893    3.72219E+005   -9.60962E+004   -4.90376E+005   -1.45065E+005   -4.90376E+005    3.94280E+005    2.43846E+005   -3.64867E+005   -1.21748E+005   -4.77688E+005   -1.32101E+005    6.29762E+004   -1.78572E+004   -2.93103E+004
            8894    9.05546E+005   -1.50127E+005   -1.16317E+006   -4.32325E+005   -1.16317E+006    1.01304E+006    5.81874E+005   -7.97227E+005   -2.77633E+005   -1.03301E+006   -4.34980E+005    3.34907E+005   -6.74099E+003    4.79355E+004
            8895    6.98726E+005    5.71615E+004   -7.28695E+005   -1.77526E+005   -7.28695E+005    7.85857E+005    2.83020E+005   -5.99925E+005    2.65131E+004   -6.97048E+005   -1.78525E+005    1.50878E+005   -1.55869E+004    2.56471E+004
            8896    3.95570E+005   -1.33023E+005   -5.55395E+005   -1.93619E+005   -5.55395E+005    4.22372E+005    2.94012E+005   -3.84920E+005   -1.49280E+005   -5.42176E+005   -1.90580E+005    6.93466E+004   -1.17577E+004   -2.44141E+004
            8897    9.48160E+005   -1.60059E+005   -1.22084E+006   -4.55786E+005   -1.22084E+006    1.06078E+006    6.12228E+005   -8.34531E+005   -2.95791E+005   -1.08481E+006   -4.56080E+005    3.54216E+005   -2.30043E+003    1.64008E+004
            8898    7.40056E+005    5.58004E+004   -7.76624E+005   -1.93127E+005   -7.76624E+005    8.32425E+005    3.04650E+005   -6.35070E+005    2.20142E+004   -7.42716E+005   -1.93249E+005    1.64118E+005   -5.59110E+003    9.16538E+003
            8899    4.08052E+005   -1.55249E+005   -5.95433E+005   -2.29789E+005   -5.95433E+005    4.40183E+005    3.26824E+005   -3.92293E+005   -1.68358E+005   -5.82576E+005   -2.29537E+005    7.35261E+004   -4.23601E+003   -9.24496E+003
            8900    5.22329E+004    5.53914E+004    5.53914E+004    6.39829E+003    4.31158E+002    5.49602E+004   -2.07403E+004    5.14577E+004    7.61389E+003    5.36077E+004    9.99265E+002    9.14578E+003    1.92400E+003    9.69942E+002
            8901    4.74817E+004    3.41575E+004    3.41575E+004    2.74091E+003   -2.04643E+004    5.46218E+004   -5.47802E+003    3.01811E+004    2.71650E+003    3.25200E+004   -1.88024E+004    5.79795E+003    5.90210E+003    4.33988E+003
            8902    6.09507E+004    2.17498E+004   -4.76336E+004   -2.72196E+003   -4.76336E+004    6.93834E+004    9.53523E+003   -4.78605E+004   -2.38279E+003    1.60470E+004   -4.22699E+004    6.87389E+003    1.38209E+004    1.05582E+004
            8903    4.09939E+004    3.46598E+004    3.46598E+004   -5.81249E+003   -6.83667E+003    4.14964E+004   -7.33687E+003    4.09651E+004   -5.77154E+003    3.39074E+004   -6.12525E+003    3.33361E+003    7.98696E+002    4.34637E+003
            8904    3.44136E+004    2.58840E+004    2.58840E+004   -3.47768E+003   -1.19856E+004    3.78695E+004   -3.47356E+003    3.19161E+004   -3.54450E+003    1.99848E+004   -6.01966E+003    2.40295E+003    3.11096E+003    1.31649E+004
            8905    3.80801E+004    1.60197E+004   -2.78752E+004   -3.68757E+003   -2.78752E+004    4.38950E+004    5.18103E+003   -2.13271E+004   -3.39660E+003    8.10810E+003   -2.02546E+004    2.70429E+003    6.86788E+003    1.50128E+004
            8906    1.43011E+004    1.79850E+004    1.79850E+004    6.40341E+003    2.00001E+003    1.59850E+004   -8.79613E+003    1.26352E+004    6.49331E+003    1.56141E+004    4.28097E+003    9.11466E+002    5.90316E+002    5.55941E+003
            8907    2.59000E+004    1.80440E+004    1.80440E+004    2.92289E+003   -1.18621E+004    2.99061E+004   -3.03494E+003    6.96728E+003    3.01208E+003    8.31055E+003   -2.21781E+003    7.14981E+002    1.36272E+003    1.39113E+004
            8908    3.25788E+004    2.07389E+004    2.07389E+004    1.93690E+003   -1.68799E+004    3.76187E+004   -1.93197E+003   -2.86728E+003    2.06696E+003    6.64949E+003   -2.92056E+003    8.42277E+002    1.99637E+003    1.80606E+004
            8909    1.04425E+004    2.52017E+003   -8.93090E+003   -6.47643E+003   -8.93090E+003    1.14511E+004    4.29572E+003    9.76128E+003   -6.52882E+003   -1.79771E+003   -4.56063E+003    2.93722E+002   -2.24769E+002    5.52839E+003
            8910    2.40329E+004    1.38241E+004    1.38241E+004   -3.40192E+003   -1.36311E+004    2.74552E+004    1.06964E+003    1.80600E+004   -3.41646E+003   -5.82218E+002    7.89750E+002    3.63913E+002   -1.90619E+002    1.37024E+004
            8911    3.32316E+004    1.76774E+004   -2.06916E+004   -1.96461E+003   -2.06916E+004    3.83690E+004    1.65958E+003    1.14863E+004   -1.96601E+003   -1.42931E+003   -1.58343E+003    5.04369E+002   -2.17070E+001    1.91777E+004
            8912    2.60463E+004    6.86647E+003   -1.95058E+004    6.20168E+003   -1.95058E+004    2.63723E+004    2.14589E+003   -2.60272E+004    6.80951E+003   -1.84271E+004    5.17996E+003    7.15766E+002   -2.99672E+002    5.10498E+003
            8913    2.85144E+004    1.07957E+004   -2.04987E+004    4.01211E+003   -2.04987E+004    3.12945E+004    1.89696E+003   -2.66065E+004    4.03902E+003   -1.11414E+004    1.41146E+003    6.80779E+002   -1.42673E+003    1.42374E+004
            8914    3.21452E+004    1.94172E+004    1.94172E+004    2.09733E+003   -1.76739E+004    3.70911E+004   -1.28019E+003   -1.55943E+004    1.98771E+003   -5.38203E+003    7.23489E+003    9.10928E+002   -2.34610E+003    1.72607E+004
            8915    3.50163E+004   -2.73213E+003   -3.99896E+004   -7.75730E+003   -3.99896E+004    3.72574E+004    1.68263E+004   -3.41910E+004   -8.59941E+003   -3.84127E+004   -3.46686E+003    5.25896E+003   -1.37496E+003    4.80650E+003
            8916    3.33752E+004    1.27417E+004   -2.56448E+004   -3.49162E+003   -2.56448E+004    3.83865E+004    5.46488E+003   -2.13906E+004   -4.04696E+003   -2.09512E+004    8.60350E+003    3.48660E+003   -3.87162E+003    1.11480E+004
            8917    3.92653E+004    2.52053E+004    2.52053E+004   -2.91484E+002   -2.00116E+004    4.52169E+004   -1.63406E+003    2.36708E+004   -9.67350E+002   -1.12721E+004    1.71416E+004    3.06175E+003   -7.05694E+003    1.57429E+004
            8918    3.72801E+005   -9.59859E+004   -4.90939E+005   -1.45172E+005   -4.90939E+005    3.94953E+005    2.44032E+005   -3.65394E+005   -1.21685E+005   -4.78251E+005   -1.32160E+005    6.30851E+004    1.79594E+004    2.92097E+004
            8919    6.27947E+005    6.01271E+004   -6.46127E+005   -1.50799E+005   -6.46127E+005    7.06254E+005    2.45600E+005   -5.39143E+005    3.45959E+004   -6.18075E+005   -1.53320E+005    1.28769E+005    2.24088E+004   -3.83941E+004
            8920    8.32385E+005   -1.35055E+005   -1.06605E+006   -3.93684E+005   -1.06605E+006    9.30999E+005    5.31598E+005   -7.33468E+005   -2.48297E+005   -9.46451E+005   -4.00046E+005    3.01766E+005    1.00013E+004   -7.04124E+004
            8921    3.95514E+005   -1.33116E+005   -5.55504E+005   -1.93901E+005   -5.55504E+005    4.22388E+005    2.94174E+005   -3.84794E+005   -1.49428E+005   -5.42281E+005   -1.90813E+005    6.93736E+004    1.18623E+004    2.43820E+004
            8922    6.99689E+005    5.75221E+004   -7.29387E+005   -1.77358E+005   -7.29387E+005    7.86909E+005    2.83074E+005   -6.00876E+005    2.67935E+004   -6.97661E+005   -1.78355E+005    1.51190E+005    1.55198E+004   -2.56050E+004
            8923    9.06314E+005   -1.50435E+005   -1.16433E+006   -4.32854E+005   -1.16433E+006    1.01390E+006    5.82541E+005   -7.97917E+005   -2.78095E+005   -1.03405E+006   -4.35472E+005    3.35256E+005    6.67607E+003   -4.76449E+004
            8924    4.07946E+005   -1.55337E+005   -5.95413E+005   -2.29875E+005   -5.95413E+005    4.40076E+005    3.26875E+005   -3.92184E+005   -1.68412E+005   -5.82576E+005   -2.29636E+005    7.34730E+004    4.13919E+003    9.14557E+003
            8925    7.40256E+005    5.60487E+004   -7.76592E+005   -1.92909E+005   -7.76592E+005    8.32641E+005    3.04484E+005   -6.35277E+005    2.22362E+004   -7.42663E+005   -1.93025E+005    1.64199E+005    5.61004E+003   -9.03855E+003
            8926    9.48273E+005   -1.60260E+005   -1.22116E+006   -4.55993E+005   -1.22116E+006    1.06090E+006    6.12471E+005   -8.34655E+005   -2.96034E+005   -1.08509E+006   -4.56285E+005    3.54289E+005    2.33727E+003   -1.62775E+004
            8927    4.82310E+005    6.02865E+005    6.02865E+005    2.02219E+005    6.75279E+004    5.35337E+005   -2.90871E+005    4.36898E+005    1.17052E+005    5.35939E+005    2.19621E+005    1.45039E+005    4.26782E+003    9.38737E+004
            8928    5.35405E+005    6.70151E+005    6.70151E+005    2.34655E+005    7.23818E+004    5.97769E+005   -3.25729E+005    4.75166E+005    1.32677E+005    5.90399E+005    2.54112E+005    1.70121E+005    6.64143E+003    1.01703E+005
            8929    6.05804E+005    7.67910E+005    7.67910E+005    2.79861E+005    8.98882E+004    6.78022E+005   -3.79220E+005    5.32329E+005    1.63212E+005    6.78873E+005    2.95575E+005    2.02675E+005    7.43969E+003    9.73453E+004
            8930    6.94941E+005    8.82138E+005    8.82138E+005    3.23133E+005    1.04059E+005    7.78079E+005   -4.36443E+005    6.09668E+005    1.95501E+005    7.76255E+005    3.37574E+005    2.42878E+005    8.26222E+003    1.01356E+005
            8931    7.90673E+005    1.01338E+006    1.01338E+006    3.78651E+005    1.27677E+005    8.85699E+005   -5.06568E+005    6.92160E+005    2.39329E+005    8.92023E+005    3.88352E+005    2.88411E+005    7.52103E+003    9.03696E+004
            8932    3.40880E+005    3.48949E+005    3.48949E+005    6.98061E+004   -3.09517E+004    3.79901E+005   -1.29268E+005    3.04575E+005   -2.45951E+004    3.27226E+005    8.51727E+004    4.76684E+004    7.27151E+003    6.32851E+004
            8933    3.94732E+005    4.18244E+005    4.18244E+005    1.02541E+005   -2.43222E+004    4.42566E+005   -1.65488E+005    3.44172E+005   -1.49056E+004    3.93062E+005    1.18307E+005    6.26566E+004    1.13714E+004    6.78520E+004
            8934    4.54755E+005    4.82773E+005    4.82773E+005    1.25734E+005   -2.92054E+004    5.11978E+005   -1.93101E+005    3.88339E+005   -1.47905E+004    4.51391E+005    1.42702E+005    8.31903E+004    1.44576E+004    7.46206E+004
            8935    5.39381E+005    5.83340E+005    5.83340E+005    1.57856E+005   -2.32982E+004    6.06638E+005   -2.39299E+005    4.63124E+005   -2.11149E+003    5.48533E+005    1.71476E+005    1.09990E+005    1.64542E+004    7.31884E+004
            8936    6.31824E+005    6.91465E+005    6.91465E+005    1.93531E+005   -1.92895E+004    7.10754E+005   -2.88569E+005    5.41906E+005    1.15008E+004    6.50014E+005    2.04192E+005    1.43542E+005    1.61672E+004    7.02627E+004
            8937    2.36274E+005    2.63683E+005    2.63683E+005    4.70307E+004    1.17537E+004    2.51929E+005   -1.07489E+005    2.30237E+005    2.28424E+004    2.52666E+005    4.69593E+004    4.31043E+004    1.48266E+004    2.40441E+004
            8938    2.65635E+005    2.93986E+005    2.93986E+005    6.16567E+004    4.38702E+003    2.89599E+005   -1.20010E+005    2.51175E+005    1.84126E+004    2.78564E+005    6.30529E+004    5.40071E+004    1.95206E+004    2.94974E+004
            8939    3.29482E+005    3.72131E+005    3.72131E+005    8.61064E+004    1.18619E+004    3.60269E+005   -1.56700E+005    3.09811E+005    2.92709E+004    3.51399E+005    8.94294E+004    6.93664E+004    2.32928E+004    3.86804E+004
            8940    3.95070E+005    4.45920E+005    4.45920E+005    1.10019E+005    1.06528E+004    4.35268E+005   -1.88864E+005    3.65334E+005    3.24452E+004    4.20973E+005    1.13174E+005    8.87050E+004    2.45116E+004    3.90168E+004
            8941    4.80342E+005    5.48281E+005    5.48281E+005    1.42662E+005    1.78546E+004    5.30427E+005   -2.36266E+005    4.41598E+005    4.46105E+004    5.18924E+005    1.45264E+005    1.11702E+005    2.36027E+004    3.76936E+004
            8942    1.97976E+005    1.66483E+005    1.66483E+005   -5.52036E+002   -5.21970E+004    2.18680E+005   -3.79112E+004    1.81871E+005   -1.24077E+004    1.62091E+005   -3.59494E+004    2.65881E+004    2.22078E+004   -1.26766E+004
            8943    2.41262E+005    2.23317E+005    2.23317E+005    1.29510E+004   -4.00326E+004    2.63350E+005   -6.54120E+004    2.27613E+005   -6.15470E+003    2.16732E+005   -1.43410E+004    3.69008E+004    2.80948E+004    7.83864E+003
            8944    2.90447E+005    2.77259E+005    2.77259E+005    2.24400E+004   -3.89887E+004    3.16248E+005   -8.69035E+004    2.75256E+005   -8.32955E+003    2.68202E+005    8.37623E+002    4.96082E+004    3.08972E+004    5.58883E+003
            8945    3.50022E+005    3.57657E+005    3.57657E+005    5.14435E+004   -2.39024E+004    3.81559E+005   -1.28399E+005    3.31030E+005    2.09645E+003    3.45021E+005    3.80806E+004    6.46784E+004    3.19589E+004    1.07912E+004
            8946    4.13190E+005    4.36610E+005    4.36610E+005    8.06881E+004   -1.65155E+004    4.53126E+005   -1.66928E+005    3.86188E+005    8.80915E+003    4.20623E+005    7.13510E+004    8.20505E+004    3.02261E+004    3.74198E+003
            8947    3.34187E+005    3.83586E+005    3.83586E+005    8.74768E+004    2.12422E+004    3.62344E+005   -1.64102E+005    3.18913E+005    8.31192E+004    3.74739E+005    3.44477E+004    3.89334E+004    1.84376E+004   -3.87688E+004
            8948    3.10073E+005    3.04974E+005    3.04974E+005    5.39466E+004   -4.16368E+004    3.46611E+005   -1.05761E+005    2.73862E+005    5.10383E+004    2.97172E+005   -3.09267E+004    3.64148E+004    2.24374E+004   -3.25682E+004
            8949    2.76679E+005    2.42923E+005    2.42923E+005    3.65822E+004   -7.14794E+004    3.14402E+005   -6.93418E+004    2.21113E+005    3.48289E+004    2.36874E+005   -6.36778E+004    3.40167E+004    2.48990E+004   -1.62401E+004
            8950    2.50568E+005    1.81317E+005    1.81317E+005    1.68383E+004   -1.07064E+005    2.88381E+005   -3.03638E+004    1.55884E+005    1.55836E+004    1.75318E+005   -9.98101E+004    3.02902E+004    2.57974E+004   -1.60436E+004
            8951    1.95483E+005    1.27842E+005    1.27842E+005    1.29142E+004   -9.78690E+004    2.25711E+005   -1.42959E+004    6.19332E+004    1.19226E+004    1.21831E+005   -9.08657E+004    2.57603E+004    2.41987E+004   -1.32102E+004
            8952    1.55774E+005    8.14120E+004   -9.81470E+004    8.28496E+002   -9.81470E+004    1.79559E+005    5.30217E+003   -8.73433E+004   -6.91240E+002    7.67457E+004   -9.19610E+004    1.95371E+004    2.36629E+004   -3.93494E+003
            8953    1.03297E+005    3.54624E+004   -8.22405E+004   -6.66402E+003   -8.22405E+004    1.17703E+005    1.78140E+004   -8.02422E+004   -8.07541E+003    3.12340E+004   -7.66006E+004    1.27302E+004    2.03694E+004    1.24856E+003
            8954    8.04559E+004    5.72135E+004    5.72135E+004   -2.68079E+003   -3.42371E+004    9.14505E+004   -6.76521E+003    6.41325E+004   -5.08114E+003    5.52762E+004   -2.98994E+004    9.22356E+003    9.15566E+003   -8.35740E+003
            8955    8.46649E+004    7.27101E+004    7.27101E+004   -7.06337E+003   -1.61184E+004    8.88285E+004   -1.65095E+004    8.35651E+004   -6.73255E+003    6.93306E+004   -1.30696E+004    1.43244E+004    2.42797E+003   -8.70110E+003
            8956    1.22336E+005    9.43108E+004    9.43108E+004    6.99933E+003   -4.55144E+004    1.39825E+005   -1.85986E+004    9.12623E+004    3.04936E+003    8.67552E+004   -3.40089E+004    1.62595E+004    1.36069E+004   -2.66801E+004
            8957    9.53307E+004    9.57606E+004    9.57606E+004    7.94029E+003   -5.62675E+003    1.01387E+005   -3.26914E+004    9.31215E+004    8.35581E+003    8.82935E+004    1.42480E+003    2.29655E+004    3.62866E+003   -1.25707E+004
            8958    1.36484E+005    1.20560E+005    1.20560E+005   -9.25144E+003   -2.17371E+004    1.42298E+005   -2.98573E+004    1.35190E+005   -1.22135E+004    1.14337E+005   -1.25516E+004    2.45910E+004    3.33326E+003   -1.55174E+004
            8959    1.62034E+005    1.77042E+005    1.77042E+005    2.20068E+004    8.81636E+003    1.68226E+005   -6.92885E+004    1.60819E+005    1.84925E+004    1.68382E+005    2.09907E+004    3.70276E+004    3.75384E+003    5.24166E+002
            8960    2.83667E+005    2.55109E+005    2.55109E+005   -2.21050E+004   -3.45992E+004    2.89708E+005   -6.61348E+004    2.83047E+005   -3.10969E+004    2.51595E+005   -2.20934E+004    3.09231E+004    2.13353E+003    6.69107E+003
            8961    4.76823E+005    5.58481E+005    5.58481E+005    1.09432E+005    5.80460E+004    5.00435E+005   -2.41986E+005    4.70533E+005    1.00723E+005    5.10558E+005    1.14678E+005    1.06392E+005   -5.57427E+002    1.01589E+005
            8962    1.57749E+005    1.45028E+005    1.45028E+005    4.81604E+003   -2.57775E+004    1.70805E+005   -4.13554E+004    1.50856E+005   -5.75538E+003    1.40284E+005   -1.04621E+004    2.28104E+004    1.30297E+004   -1.61001E+004
            8963    2.12640E+005    2.19238E+005    2.19238E+005    1.85325E+004   -3.60310E+003    2.22841E+005   -7.80559E+004    2.10024E+005    1.09726E+004    2.12872E+005    1.03236E+004    3.62954E+004    1.00481E+004   -4.68821E+003
            8964    3.46801E+005    3.51076E+005    3.51076E+005    3.07671E+004   -1.72187E+004    3.68295E+005   -1.21541E+005    3.39211E+005   -1.29536E+004    3.33116E+005    4.44616E+004    3.81787E+004    4.79611E+003    6.49038E+004
            8965    4.50851E+005    5.44418E+005    5.44418E+005    1.61787E+005    4.73879E+004    4.97030E+005   -2.51198E+005    4.16275E+005    9.58792E+004    4.71190E+005    1.86524E+005    1.26911E+005    9.13833E+002    1.15311E+005
            8966    4.81110E+005   -7.30393E+004   -6.07458E+005   -2.08858E+005   -6.07458E+005    5.34419E+005    2.96452E+005   -4.34739E+005   -1.21009E+005   -5.42428E+005   -2.25918E+005    1.45645E+005    7.85559E+003   -8.80421E+004
            8967    5.53032E+005   -7.94675E+004   -6.96458E+005   -2.45358E+005   -6.96458E+005    6.16991E+005    3.40428E+005   -4.92205E+005   -1.40949E+005   -6.15483E+005   -2.64852E+005    1.77901E+005    1.22634E+004   -9.78227E+004
            8968    6.45262E+005   -9.94842E+004   -8.20293E+005   -2.96518E+005   -8.20293E+005    7.20808E+005    4.05432E+005   -5.71463E+005   -1.77063E+005   -7.28080E+005   -3.11152E+005    2.18104E+005    1.25499E+004   -9.21394E+004
            8969    7.40993E+005   -1.15712E+005   -9.44285E+005   -3.45145E+005   -9.44285E+005    8.28573E+005    4.68380E+005   -6.53610E+005   -2.11680E+005   -8.37275E+005   -3.56185E+005    2.60906E+005    1.20049E+004   -8.67444E+004
            8970    2.98404E+005    4.88266E+004   -2.84523E+005   -4.23257E+004   -2.84523E+005    3.33349E+005    9.26739E+004   -2.64248E+005    4.29420E+004   -2.73352E+005   -4.76122E+004    3.76430E+004    1.61658E+004   -3.83405E+004
            8971    3.80180E+005    5.11188E+004   -3.74935E+005   -7.02848E+004   -3.74935E+005    4.26054E+005    1.31367E+005   -3.32175E+005    4.14933E+004   -3.58322E+005   -7.72729E+004    5.57978E+004    2.24206E+004   -4.90416E+004
            8972    4.55133E+005    5.91688E+004   -4.52728E+005   -9.37408E+004   -4.52728E+005    5.11897E+005    1.62433E+005   -3.90738E+005    4.49853E+004   -4.33063E+005   -9.92227E+004    7.72943E+004    2.52749E+004   -4.80229E+004
            8973    5.44326E+005    5.99995E+004   -5.52103E+005   -1.22405E+005   -5.52103E+005    6.12102E+005    2.04836E+005   -4.67759E+005    4.04916E+004   -5.28331E+005   -1.26669E+005    1.02435E+005    2.55606E+004   -4.63138E+004
            8974    3.41263E+005   -4.84297E+004   -4.13826E+005   -1.03359E+005   -4.13826E+005    3.65396E+005    1.88538E+005   -3.31098E+005   -9.18356E+004   -4.02275E+005   -7.15039E+004    5.64889E+004    2.24220E+004    2.75780E+004
            8975    3.05596E+005   -1.00125E+004   -3.43259E+005   -7.61430E+004   -3.43259E+005    3.33247E+005    1.43138E+005   -2.88831E+005   -7.03122E+004   -3.33349E+005   -2.57536E+004    5.04198E+004    2.49114E+004    1.83147E+004
            8976    2.70516E+005    2.72348E+004   -2.74012E+005   -5.18573E+004   -2.74012E+005    3.01247E+005    9.95449E+004   -2.42382E+005   -4.90307E+004   -2.64741E+005    1.51367E+004    4.45093E+004    2.53205E+004    1.65588E+004
            8977    2.29816E+005    4.29571E+004   -2.16922E+005   -4.04787E+004   -2.16922E+005    2.59879E+005    7.14812E+004   -1.90984E+005   -4.04928E+004   -2.07961E+005    3.40102E+004    3.96734E+004    2.44720E+004    8.63443E+003
            8978    2.11358E+005    8.63443E+004   -1.55990E+005   -9.76713E+003   -1.55990E+005    2.42334E+005    2.64708E+004   -1.48804E+005   -9.12196E+003   -1.49942E+005    7.96513E+004    2.97876E+004    2.37306E+004    6.02166E+003
            8979    1.50419E+005    9.97010E+004    9.97010E+004    5.61992E+003   -7.37805E+004    1.73481E+005   -1.05134E+004    7.91928E+004    8.19048E+003   -6.90030E+004    9.23529E+004    1.97153E+004    2.39563E+004    8.14527E+003
            8980    1.06198E+005    7.79662E+004    7.79662E+004    1.12396E+003   -4.32164E+004    1.21183E+005   -1.19579E+004    8.10622E+004    1.77156E+003   -3.82737E+004    7.23759E+004    1.37944E+004    2.06090E+004   -2.38061E+003
            8981    6.24886E+004    5.32294E+004    5.32294E+004    6.85358E+003   -1.78311E+004    7.10605E+004   -1.40840E+004    4.95896E+004    7.51105E+003   -1.36245E+004    4.83654E+004    7.30069E+003    1.44118E+004   -6.89334E+003
            8982    5.33076E+004    2.09839E+004   -3.84582E+004    5.10776E+003   -3.84582E+004    5.94420E+004    4.12219E+003   -4.75358E+004    6.41576E+003   -3.72920E+004    1.85097E+004    5.45573E+003    5.87808E+003   -4.60150E+003
            8983    6.82141E+004    1.20086E+004   -5.79401E+004    8.39587E+003   -5.79401E+004    6.99487E+004    1.25119E+004   -6.79984E+004    8.72489E+003   -5.68290E+004    1.05684E+004    8.46313E+003    1.54907E+003    1.78339E+003
            8984    8.36846E+004    3.57847E+004   -6.06775E+004   -7.50587E+003   -6.06775E+004    9.64621E+004    1.07996E+004   -4.69232E+004   -6.24381E+003   -5.63113E+004    3.01565E+004    1.23030E+004    9.93637E+003    1.41259E+004
            8985    7.84536E+004    1.75723E+003   -8.17806E+004   -9.66301E+003   -8.17806E+004    8.35379E+004    2.98955E+004   -7.65501E+004   -1.24974E+004   -7.62468E+004   -9.42183E+002    1.88288E+004    2.96390E+003    6.60569E+003
            8986    1.33231E+005    4.51625E+004   -1.03168E+005    6.33660E+003   -1.03168E+005    1.48331E+005    1.72231E+004   -1.19473E+005    1.18035E+004   -9.85438E+004    3.50712E+004    1.31555E+004    1.26435E+004    2.21071E+004
            8987    1.19080E+005    2.65329E+004   -9.86931E+004    1.31015E+004   -9.86931E+004    1.25226E+005    1.96862E+004   -1.17357E+005    1.53453E+004   -9.21980E+004    1.77940E+004    2.01612E+004    3.40027E+003    1.90698E+004
            8988    1.71611E+005    2.40564E+004   -1.65490E+005   -2.06728E+004   -1.65490E+005    1.89546E+005    5.40354E+004   -1.57676E+005   -1.24281E+004   -1.56720E+005    7.04218E+003    3.01002E+004    1.63855E+004    2.52851E+004
            8989    1.36063E+005   -8.09694E+003   -1.50099E+005   -2.08773E+004   -1.50099E+005    1.42002E+005    5.96910E+004   -1.34702E+005   -1.99517E+004   -1.40135E+005   -1.89866E+004    3.58232E+004    3.52288E+003    4.65519E+003
            8990    2.40633E+005    3.50732E+004   -2.12214E+005    2.11608E+004   -2.12214E+005    2.47287E+005    5.19934E+004   -2.39726E+005    3.18001E+004   -2.09815E+005    2.20347E+004    2.40180E+004    3.14133E+003    3.17983E+003
            8991    4.42093E+005   -4.90770E+004   -5.14392E+005   -9.99161E+004   -5.14392E+005    4.65315E+005    2.21128E+005   -4.35444E+005   -8.38908E+004   -4.71014E+005   -1.08481E+005    9.83377E+004   -1.31346E+002   -9.21698E+004
            8992    2.87240E+005    2.32359E+004   -2.84189E+005   -2.26602E+004   -2.84189E+005    3.07425E+005    9.45378E+004   -2.78811E+005    1.94393E+004   -2.74809E+005   -2.82433E+004    2.86209E+004    1.08162E+004   -4.03035E+004
            8993    4.36610E+005   -4.30670E+004   -5.26134E+005   -1.59648E+005   -5.26134E+005    4.83067E+005    2.42950E+005   -3.99280E+005   -8.58588E+004   -4.61065E+005   -1.81926E+005    1.21561E+005    1.18555E+003   -1.03810E+005
            8994    3.51569E+005    4.54569E+005    4.54569E+005    1.25247E+005    8.43326E+004    3.70236E+005   -2.21383E+005    3.46152E+005    1.15140E+005    4.43710E+005    1.05298E+005    4.15238E+004    1.43065E+004   -4.66371E+004
            8995    4.78125E+005    5.26002E+005    5.26002E+005    1.21019E+005   -1.44314E+003    5.27445E+005   -2.15193E+005    4.40719E+005    2.34062E+004    5.06047E+005    1.16126E+005    9.97105E+004    2.55226E+004    3.36386E+003
            8996    5.59492E+005    6.41540E+005    6.41540E+005    1.73778E+005    2.17444E+004    6.19796E+005   -2.79021E+005    5.09823E+005    5.42160E+004    6.07499E+005    1.75348E+005    1.35487E+005    2.03643E+004    3.13193E+004
            8997    7.24717E+005    8.04481E+005    8.04481E+005    2.32006E+005   -1.03575E+004    8.14839E+005   -3.42043E+005    6.23239E+005    3.03936E+004    7.57741E+005    2.37996E+005    1.76908E+005    1.42178E+004    5.65266E+004
            8998    8.85492E+005    1.13997E+006    1.13997E+006    4.29855E+005    1.47806E+005    9.92160E+005   -5.72542E+005    7.74311E+005    2.80096E+005    1.00154E+006    4.35989E+005    3.33382E+005    6.12239E+003    7.79590E+004
            8999    3.60365E+005    5.21128E+005    5.21128E+005    1.83181E+005    1.41899E+005    3.79229E+005   -2.82069E+005    3.54987E+005    1.52201E+005    5.12366E+005    1.81641E+005    4.50199E+004    9.10660E+003   -3.44086E+004
            9000    5.32115E+005    5.99590E+005    5.99590E+005    1.55424E+005    9.83381E+003    5.89756E+005   -2.54949E+005    4.84174E+005    3.51411E+004    5.76238E+005    1.53469E+005    1.14776E+005    1.69561E+004   -9.88813E+002
            9001    6.25691E+005    7.24671E+005    7.24671E+005    2.03666E+005    3.06885E+004    6.93982E+005   -3.19675E+005    5.68047E+005    6.79159E+004    6.86878E+005    2.04232E+005    1.55241E+005    1.41655E+004    2.05478E+004
            9002    7.96107E+005    8.89978E+005    8.89978E+005    2.60303E+005   -4.87468E+003    8.94853E+005   -3.81802E+005    6.85630E+005    4.38035E+004    8.38705E+005    2.62898E+005    2.02638E+005    1.01255E+004    3.90694E+004
            9003    9.61416E+005    1.24264E+006    1.24264E+006    4.71884E+005    1.65326E+005    1.07731E+006   -6.26616E+005    8.40418E+005    3.13118E+005    1.09254E+006    4.74186E+005    3.69170E+005    4.18708E+003    5.00032E+004
            9004    3.62165E+005    5.56486E+005    5.56486E+005    2.28075E+005    1.68064E+005    3.88422E+005   -3.17541E+005    3.50716E+005    1.74323E+005    5.49960E+005    2.28342E+005    4.70884E+004    3.24691E+003   -1.58107E+004
            9005    5.63847E+005    6.45983E+005    6.45983E+005    1.79508E+005    1.93941E+004    6.26588E+005   -2.81628E+005    5.08806E+005    4.51807E+004    6.20410E+005    1.79294E+005    1.23937E+005    6.14116E+003    4.28550E+002
            9006    6.67824E+005    7.75839E+005    7.75839E+005    2.22029E+005    3.42193E+004    7.41619E+005   -3.44029E+005    6.03986E+005    7.47587E+004    7.35244E+005    2.22084E+005    1.68464E+005    4.85734E+003    6.78504E+003
            9007    8.42016E+005    9.46891E+005    9.46891E+005    2.81076E+005    3.81306E+002    9.46510E+005   -4.09449E+005    7.24957E+005    5.46526E+004    8.92374E+005    2.81322E+005    2.20021E+005    3.38666E+003    1.23608E+004
            9008    1.00458E+006    1.30234E+006    1.30234E+006    4.97381E+005    1.76527E+005    1.12581E+006   -6.58748E+005    8.77675E+005    3.34106E+005    1.14444E+006    4.97698E+005    3.90397E+005    1.59639E+003    1.90907E+004
            9009    6.10739E+004    2.17645E+004   -4.77549E+004   -2.73362E+003   -4.77549E+004    6.95195E+004    9.57468E+003   -4.79875E+004   -2.41155E+003    1.60146E+004   -4.23271E+004    6.85799E+003   -1.38948E+004   -1.06685E+004
            9010    4.72938E+004    3.40684E+004    3.40684E+004    2.74839E+003   -2.03343E+004    5.44027E+004   -5.49414E+003    3.01317E+004    2.73194E+003    3.24284E+004   -1.86779E+004    5.71917E+003   -5.83638E+003   -4.48454E+003
            9011    5.16629E+004    5.49658E+004    5.49658E+004    6.49745E+003    6.12261E+002    5.43535E+004   -2.06918E+004    5.09006E+004    7.68317E+003    5.32031E+004    1.18917E+003    9.02822E+003   -1.93476E+003   -1.07342E+003
            9012    3.80389E+004    1.59879E+004   -2.78595E+004   -3.69738E+003   -2.78595E+004    4.38474E+004    5.18964E+003   -2.13060E+004   -3.41175E+003    8.09850E+003   -2.02557E+004    2.68966E+003   -6.83695E+003   -1.49993E+004
            9013    3.43587E+004    2.58400E+004    2.58400E+004   -3.47571E+003   -1.19688E+004    3.78087E+004   -3.46516E+003    3.18660E+004   -3.53968E+003    1.98786E+004   -5.94351E+003    2.37819E+003   -3.09180E+003   -1.32210E+004
            9014    4.06671E+004    3.42365E+004    3.42365E+004   -5.92517E+003   -6.91795E+003    4.11544E+004   -7.13112E+003    4.06399E+004   -5.86337E+003    3.34806E+004   -6.22389E+003    3.24836E+003   -7.66382E+002   -4.40208E+003
            9015    3.26890E+004    2.08344E+004    2.08344E+004    1.97624E+003   -1.69116E+004    3.77460E+004   -1.96634E+003   -3.62418E+003    2.10285E+003    6.65836E+003   -2.86218E+003    8.28847E+002   -1.98148E+003   -1.81357E+004
            9016    2.58779E+004    1.79477E+004    1.79477E+004    2.92658E+003   -1.19334E+004    2.98811E+004   -2.98031E+003    5.45021E+003    3.01613E+003    8.18216E+003   -2.25737E+003    7.11427E+002   -1.35089E+003   -1.39156E+004
            9017    1.39725E+004    1.77077E+004    1.77077E+004    6.45313E+003    2.06879E+003    1.56389E+004   -8.74320E+003    1.22755E+004    6.54209E+003    1.53060E+004    4.38152E+003    8.89855E+002   -6.06540E+002   -5.51793E+003
            9018    3.31205E+004    1.75657E+004   -2.06750E+004   -2.00931E+003   -2.06750E+004    3.82406E+004    1.70620E+003    1.14367E+004   -2.01122E+003   -1.49888E+003   -1.60849E+003    5.11497E+002    3.02453E+001   -1.91133E+004
            9019    2.40762E+004    1.38450E+004    1.38450E+004   -3.38723E+003   -1.36642E+004    2.75093E+004    1.06881E+003    1.80486E+004   -3.40202E+003   -5.97132E+002    7.92707E+002    3.64235E+002    1.95363E+002   -1.37290E+004
            9020    1.04711E+004    2.37353E+003   -9.17842E+003   -6.49409E+003   -9.17842E+003    1.15519E+004    4.43299E+003    9.65037E+003   -6.55078E+003   -2.11206E+003   -4.63614E+003    2.99939E+002    2.56928E+002   -5.60673E+003
            9021    3.22915E+004    1.96177E+004    1.96177E+004    2.12810E+003   -1.76460E+004    3.72637E+004   -1.36661E+003   -1.52795E+004    2.01775E+003   -5.36984E+003    7.45190E+003    9.17238E+002    2.40749E+003   -1.73068E+004
            9022    2.86164E+004    1.08287E+004   -2.05673E+004    4.05317E+003   -2.05673E+004    3.13961E+004    1.89514E+003   -2.67207E+004    4.08414E+003   -1.12231E+004    1.45352E+003    6.87163E+002    1.45579E+003   -1.42613E+004
            9023    2.63316E+004    6.78892E+003   -1.98346E+004    6.19503E+003   -1.98346E+004    2.66235E+004    2.28355E+003   -2.63165E+004    6.73858E+003   -1.88196E+004    5.23040E+003    7.72076E+002    2.76516E+002   -4.97948E+003
            9024    3.93284E+004    2.52422E+004    2.52422E+004   -2.90815E+002   -2.00477E+004    4.52899E+004   -1.63459E+003    2.36958E+004   -9.62914E+002   -1.13727E+004    1.72394E+004    3.09313E+003    7.12790E+003   -1.56677E+004
            9025    3.33588E+004    1.27949E+004   -2.55794E+004   -3.49897E+003   -2.55794E+004    3.83743E+004    5.42786E+003   -2.12253E+004   -4.05853E+003   -2.08730E+004    8.64792E+003    3.47476E+003    3.85147E+003   -1.11693E+004
            9026    3.54203E+004   -2.80709E+003   -4.04606E+004   -7.80441E+003   -4.04606E+004    3.76536E+004    1.70240E+004   -3.46138E+004   -8.65925E+003   -3.88554E+004   -3.55753E+003    5.33039E+003    1.38873E+003   -4.88832E+003
            9027    8.85029E+005    1.13949E+006    1.13949E+006    4.29722E+005    1.47858E+005    9.91632E+005   -5.72357E+005    7.73940E+005    2.80088E+005    1.00109E+006    4.35894E+005    3.33232E+005   -6.26050E+003   -7.79888E+004
            9028    7.23979E+005    8.03846E+005    8.03846E+005    2.31721E+005   -1.00904E+004    8.13936E+005   -3.41825E+005    6.22893E+005    3.06271E+004    7.57129E+005    2.37719E+005    1.76732E+005   -1.43158E+004   -5.65362E+004
            9029    5.58508E+005    6.40578E+005    6.40578E+005    1.73432E+005    2.19567E+004    6.18622E+005   -2.78656E+005    5.09130E+005    5.43598E+004    6.06652E+005    1.74955E+005    1.35190E+005   -2.03468E+004   -3.10593E+004
            9030    4.77086E+005    5.25535E+005    5.25535E+005    1.21168E+005   -6.48511E+002    5.26184E+005   -2.15352E+005    4.40008E+005    2.40953E+004    5.05718E+005    1.16242E+005    9.92809E+004   -2.54365E+004   -3.05771E+003
            9031    3.51000E+005    4.54535E+005    4.54535E+005    1.25724E+005    8.49143E+004    3.69621E+005   -2.21725E+005    3.45602E+005    1.15668E+005    4.43702E+005    1.05804E+005    4.12964E+004   -1.42557E+004    4.66763E+004
            9032    9.62009E+005    1.24413E+006    1.24413E+006    4.73037E+005    1.66112E+005    1.07802E+006   -6.27761E+005    8.40779E+005    3.14413E+005    1.09352E+006    4.75347E+005    3.69840E+005   -4.19633E+003   -5.01212E+004
            9033    7.97707E+005    8.92587E+005    8.92587E+005    2.62011E+005   -4.17923E+003    8.96766E+005   -3.83473E+005    6.86558E+005    4.49641E+004    8.40827E+005    2.64627E+005    2.03777E+005   -1.00902E+004   -3.92722E+004
            9034    6.26542E+005    7.25143E+005    7.25143E+005    2.03577E+005    3.01581E+004    6.94985E+005   -3.19626E+005    5.68672E+005    6.73775E+004    6.87352E+005    2.04148E+005    1.55365E+005   -1.40731E+004   -2.05339E+004
            9035    5.30052E+005    5.98338E+005    5.98338E+005    1.55609E+005    1.09844E+004    5.87354E+005   -2.54977E+005    4.82580E+005    3.60311E+004    5.75278E+005    1.53623E+005    1.13852E+005   -1.69018E+004    1.51868E+003
            9036    3.59198E+005    5.20818E+005    5.20818E+005    1.83594E+005    1.43080E+005    3.77737E+005   -2.82497E+005    3.54003E+005    1.53297E+005    5.12081E+005    1.82113E+005    4.45210E+004   -8.97398E+003    3.47259E+004
            9037    1.00500E+006    1.30321E+006    1.30321E+006    4.97965E+005    1.76911E+005    1.12630E+006   -6.59361E+005    8.77984E+005    3.34779E+005    1.14502E+006    4.98280E+005    3.90783E+005   -1.43655E+003   -1.93360E+004
            9038    8.42450E+005    9.47915E+005    9.47915E+005    2.81730E+005    9.24414E+002    9.46990E+005   -4.10190E+005    7.25363E+005    5.54100E+004    8.93185E+005    2.81974E+005    2.20488E+005   -3.31391E+003   -1.23132E+004
            9039    6.67925E+005    7.76151E+005    7.76151E+005    2.22354E+005    3.43808E+004    7.41770E+005   -3.44295E+005    6.03978E+005    7.49595E+004    7.35516E+005    2.22410E+005    1.68553E+005   -4.96112E+003   -6.86700E+003
            9040    5.63454E+005    6.45936E+005    6.45936E+005    1.79691E+005    1.98212E+004    6.26115E+005   -2.81816E+005    5.08550E+005    4.55870E+004    6.20380E+005    1.79481E+005    1.23843E+005   -6.16981E+003   -6.86070E+002
            9041    3.61570E+005    5.55798E+005    5.55798E+005    2.27686E+005    1.68158E+005    3.87640E+005   -3.17214E+005    3.50290E+005    1.74352E+005    5.49317E+005    2.27972E+005    4.68549E+004   -3.12834E+003    1.58023E+004
            9042    1.94967E+005    1.27244E+005    1.27244E+005    1.30045E+004   -9.78759E+004    2.25120E+005   -1.41242E+004    5.76413E+004    1.19982E+004    1.21217E+005   -9.08426E+004    2.56667E+004   -2.41566E+004    1.35144E+004
            9043    2.50778E+005    1.81292E+005    1.81292E+005    1.70240E+004   -1.07365E+005    2.88656E+005   -3.03170E+004    1.55088E+005    1.58664E+004    1.75300E+005   -1.00216E+005    3.02234E+004   -2.56263E+004    1.60964E+004
            9044    2.76361E+005    2.43021E+005    2.43021E+005    3.69696E+004   -7.10322E+004    3.14053E+005   -6.96527E+004    2.20779E+005    3.53326E+004    2.36972E+005   -6.33468E+004    3.39716E+004   -2.46779E+004    1.62502E+004
            9045    3.10354E+005    3.05419E+005    3.05419E+005    5.40830E+004   -4.14776E+004    3.46896E+005   -1.06008E+005    2.74202E+005    5.13016E+004    2.97591E+005   -3.08679E+004    3.63544E+004   -2.21871E+004    3.28132E+004
            9046    3.33972E+005    3.84225E+005    3.84225E+005    8.80184E+004    2.22686E+004    3.61957E+005   -1.64837E+005    3.18919E+005    8.36691E+004    3.75400E+005    3.54437E+004    3.88290E+004   -1.83143E+004    3.87580E+004
            9047    4.12733E+005    4.35861E+005    4.35861E+005    8.03291E+004   -1.67633E+004    4.52624E+005   -1.66475E+005    3.85763E+005    8.56860E+003    4.19935E+005    7.09224E+004    8.18796E+004   -3.02231E+004   -3.44496E+003
            9048    4.78439E+005    5.46114E+005    5.46114E+005    1.41796E+005    1.79193E+004    5.28195E+005   -2.35276E+005    4.40136E+005    4.45962E+004    5.16935E+005    1.44298E+005    1.11161E+005   -2.37118E+004   -3.73949E+004
            9049    6.29658E+005    6.88463E+005    6.88463E+005    1.92170E+005   -1.98347E+004    7.08298E+005   -2.86933E+005    5.40132E+005    1.05635E+004    6.47389E+005    2.02846E+005    1.42393E+005   -1.64303E+004   -7.01500E+004
            9050    7.89913E+005    1.01180E+006    1.01180E+006    3.77805E+005    1.26913E+005    8.84888E+005   -5.05506E+005    6.91356E+005    2.38033E+005    8.90904E+005    3.87581E+005    2.87710E+005   -7.69734E+003   -9.03389E+004
            9051    3.48962E+005    3.56533E+005    3.56533E+005    5.08909E+004   -2.36902E+004    3.80224E+005   -1.27911E+005    3.30309E+005    2.34845E+003    3.43944E+005    3.74414E+004    6.44024E+004   -3.18612E+004   -1.08767E+004
            9052    3.93315E+005    4.43756E+005    4.43756E+005    1.09061E+005    1.05500E+004    4.33206E+005   -1.87789E+005    3.63973E+005    3.22911E+004    4.19021E+005    1.12056E+005    8.82206E+004   -2.45492E+004   -3.85787E+004
            9053    5.38076E+005    5.81413E+005    5.81413E+005    1.56795E+005   -2.37073E+004    6.05120E+005   -2.38167E+005    4.62205E+005   -2.71002E+003    5.46848E+005    1.70362E+005    1.09360E+005   -1.65608E+004   -7.29585E+004
            9054    6.93754E+005    8.80714E+005    8.80714E+005    3.22622E+005    1.03978E+005    7.76736E+005   -4.35771E+005    6.08676E+005    1.95100E+005    7.75095E+005    3.37119E+005    2.42347E+005   -8.48490E+003   -1.01144E+005
            9055    2.88927E+005    2.74876E+005    2.74876E+005    2.15245E+004   -3.97867E+004    3.14662E+005   -8.55378E+004    2.73711E+005   -8.75112E+003    2.65927E+005   -5.62819E+002    4.92013E+004   -3.09209E+004   -5.23891E+003
            9056    3.27271E+005    3.69283E+005    3.69283E+005    8.47210E+004    1.16531E+004    3.57630E+005   -1.55219E+005    3.08107E+005    2.90288E+004    3.48895E+005    8.77334E+004    6.87053E+004   -2.33163E+004   -3.79986E+004
            9057    4.53225E+005    4.80514E+005    4.80514E+005    1.24591E+005   -2.97157E+004    5.10229E+005   -1.91796E+005    3.87140E+005   -1.55080E+004    4.49540E+005    1.41357E+005    8.24630E+004   -1.44753E+004   -7.40645E+004
            9058    6.06002E+005    7.67543E+005    7.67543E+005    2.79283E+005    8.93160E+004    6.78227E+005   -3.78714E+005    5.32561E+005    1.62236E+005    6.78949E+005    2.94957E+005    2.02328E+005   -7.54715E+003   -9.70046E+004
            9059    2.40516E+005    2.22210E+005    2.22210E+005    1.26011E+004   -4.03784E+004    2.62589E+005   -6.48109E+004    2.26823E+005   -6.19929E+003    2.15660E+005   -1.50281E+004    3.66829E+004   -2.80793E+004   -7.89916E+003
            9060    2.64455E+005    2.92859E+005    2.92859E+005    6.14102E+004    4.62309E+003    2.88236E+005   -1.19631E+005    2.50180E+005    1.87716E+004    2.77407E+005    6.27138E+004    5.39927E+004   -1.95957E+004   -2.93309E+004
            9061    3.94386E+005    4.17277E+005    4.17277E+005    1.01610E+005   -2.48207E+004    4.42098E+005   -1.64689E+005    3.44154E+005   -1.55444E+004    3.92256E+005    1.17355E+005    6.21356E+004   -1.16956E+004   -6.77748E+004
            9062    5.36669E+005    6.71716E+005    6.71716E+005    2.35209E+005    7.25285E+004    5.99187E+005   -3.26485E+005    4.76268E+005    1.33098E+005    5.91702E+005    2.54653E+005    1.70697E+005   -6.63651E+003   -1.01851E+005
            9063    1.98222E+005    1.66392E+005    1.66392E+005   -7.64816E+002   -5.25974E+004    2.18989E+005   -3.76765E+004    1.82015E+005   -1.25058E+004    1.61992E+005   -3.64567E+004    2.65637E+004   -2.21959E+004    1.28413E+004
            9064    2.37379E+005    2.64884E+005    2.64884E+005    4.74817E+004    1.16115E+004    2.53273E+005   -1.07993E+005    2.31164E+005    2.25225E+004    2.53724E+005    4.77306E+004    4.31125E+004   -1.48422E+004   -2.48350E+004
            9065    3.42311E+005    3.50041E+005    3.50041E+005    7.00078E+004   -3.15607E+004    3.81601E+005   -1.29496E+005    3.05548E+005   -2.51752E+004    3.28108E+005    8.55551E+004    4.78543E+004   -7.08955E+003   -6.37842E+004
            9066    4.82219E+005    6.03185E+005    6.03185E+005    2.03273E+005    6.76879E+004    5.35497E+005   -2.91382E+005    4.36144E+005    1.17106E+005    5.36459E+005    2.20581E+005    1.45131E+005   -4.34140E+003   -9.33060E+004
            9067    4.50813E+005    5.44309E+005    5.44309E+005    1.61736E+005    4.73092E+004    4.97000E+005   -2.51118E+005    4.16216E+005    9.56531E+004    4.71392E+005    1.86310E+005    1.27035E+005   -1.03195E+003   -1.14718E+005
            9068    4.75416E+005    5.56837E+005    5.56837E+005    1.09306E+005    5.77393E+004    4.99098E+005   -2.41294E+005    4.69063E+005    9.99609E+004    5.08959E+005    1.14962E+005    1.06197E+005    5.09717E+002   -1.01355E+005
            9069    3.47927E+005    3.52199E+005    3.52199E+005    3.12930E+004   -1.75804E+004    3.69779E+005   -1.21971E+005    3.40075E+005   -1.33794E+004    3.34030E+005    4.52613E+004    3.79355E+004   -4.73858E+003   -6.55968E+004
            9070    2.82783E+005    2.53760E+005    2.53760E+005   -2.24523E+004   -3.51648E+004    2.88925E+005   -6.53811E+004    2.82139E+005   -3.17330E+004    2.50330E+005   -2.24534E+004    3.05070E+004   -2.17795E+003   -6.63355E+003
            9071    2.13909E+005    2.20307E+005    2.20307E+005    1.81710E+004   -3.69579E+003    2.24003E+005   -7.82606E+004    2.11373E+005    1.06961E+004    2.13970E+005    1.01160E+004    3.63460E+004   -9.94883E+003    4.41906E+003
            9072    1.61737E+005    1.76849E+005    1.76849E+005    2.20557E+004    8.96360E+003    1.67885E+005   -6.92894E+004    1.60539E+005    1.87029E+004    1.68161E+005    2.10041E+004    3.70451E+004   -3.75604E+003   -3.68070E+002
            9073    1.57449E+005    1.44972E+005    1.44972E+005    5.10424E+003   -2.55506E+004    1.70522E+005   -4.15084E+004    1.50514E+005   -5.65034E+003    1.40246E+005   -1.00703E+004    2.28052E+004   -1.30891E+004    1.59781E+004
            9074    1.36429E+005    1.20550E+005    1.20550E+005   -9.26657E+003   -2.16471E+004    1.42197E+005   -2.98789E+004    1.35157E+005   -1.22516E+004    1.14340E+005   -1.24521E+004    2.45856E+004   -3.27462E+003    1.54535E+004
            9075    9.52266E+004    9.55698E+004    9.55698E+004    7.91417E+003   -5.75120E+003    1.01321E+005   -3.25776E+004    9.29822E+004    8.28873E+003    8.81313E+004    1.31278E+003    2.28775E+004   -3.66921E+003    1.26108E+004
            9076    8.43148E+004    7.23309E+004    7.23309E+004   -7.19848E+003   -1.60681E+004    8.83990E+004   -1.63548E+004    8.32555E+004   -6.82164E+003    6.90394E+004   -1.31534E+004    1.41546E+004   -2.36608E+003    8.48143E+003
            9077    1.22119E+005    9.39555E+004    9.39555E+004    6.87823E+003   -4.56361E+004    1.39592E+005   -1.83992E+004    9.09573E+004    2.93192E+003    8.64291E+004   -3.41634E+004    1.61545E+004   -1.35913E+004    2.66505E+004
            9078    7.98535E+004    5.68768E+004    5.68768E+004   -2.66411E+003   -3.38669E+004    9.07437E+004   -6.78192E+003    6.37982E+004   -5.05368E+003    5.49799E+004   -2.95805E+004    9.16254E+003   -9.09623E+003    8.13367E+003
            9079    1.03618E+005    3.55276E+004   -8.25421E+004   -6.73510E+003   -8.25421E+004    1.18070E+005    1.79165E+004   -8.04845E+004   -8.18546E+003    3.13083E+004   -7.68725E+004    1.27331E+004   -2.04526E+004   -1.28658E+003
            9080    1.55994E+005    8.17100E+004   -9.81066E+004    9.52705E+002   -9.81066E+004    1.79817E+005    5.14797E+003   -8.72844E+004   -5.06015E+002    7.70143E+004   -9.19522E+004    1.96031E+004   -2.36545E+004    3.74272E+003


  Minimum           1.04425E+004   -2.17466E+005   -1.30321E+006   -4.97965E+005   -1.30321E+006    1.14511E+004   -6.59361E+005   -8.77984E+005   -3.82904E+005   -1.14502E+006   -4.98280E+005    2.93722E+002   -1.13341E+005   -1.15311E+005
      At Element            8909            5080            4895            4895            4895            8909            9037            4895            8488            4895            4895            8909            7301            4823

  Maximum           1.00500E+006    1.30321E+006    1.30321E+006    4.97965E+005    2.17466E+005    1.12630E+006    6.59361E+005    8.77984E+005    3.82904E+005    1.14502E+006    4.98280E+005    4.29651E+005    1.13356E+005    1.15311E+005
      At Element            9037            9037            9037            9037            8786            9037            4895            9037            5218            9037            9037            8820            7204            8965

           Total    1.45663E+009    8.23710E+008    0.00000E+000    0.00000E+000   -8.23710E+008    1.64742E+009    0.00000E+000    0.00000E+000    0.00000E+000    0.00000E+000    0.00000E+000    6.90503E+008   -4.27777E+004    0.00000E+000


