********************************************************************************
Field Output Report, written Sun Apr 16 03:18:43 2023

Source 1
---------

   ODB: C:/Temp/XX_displacement.odb
   Step: Loading_step
   Frame: Increment      1: Step Time =    1.000

Loc 1 : Centroidal values from source 1

Output sorted by column "Element Label".

Field Output reported at element centroid for region: PART-1-1.Region_1

         Element         S.Mises     S.Max. Prin  S.Max. Prin(a)     S.Mid. Prin     S.Min. Prin        S.Tresca      S.Pressure     S.Third Inv           S.S11           S.S22           S.S33           S.S12           S.S13           S.S23
           Label          @Loc 1          @Loc 1          @Loc 1          @Loc 1          @Loc 1          @Loc 1          @Loc 1          @Loc 1          @Loc 1          @Loc 1          @Loc 1          @Loc 1          @Loc 1          @Loc 1
-------------------------------------------------------------------------------------------------------------------------------------------------------------------------------------------------------------------------------------------------
               1    8.00912E+007    7.99745E+007    7.99745E+007   -9.00602E+004   -1.43263E+005    8.01178E+007   -2.65804E+007    8.00911E+007    7.99745E+007   -9.08824E+004   -1.42435E+005   -2.11672E+004    3.98789E+002   -6.58468E+003
               2    8.00678E+007    7.99400E+007    7.99400E+007   -9.16891E+004   -1.63710E+005    8.01037E+007   -2.65615E+007    8.00677E+007    7.99400E+007   -9.23567E+004   -1.63041E+005    1.03174E+004    9.13943E+002   -6.90866E+003
               3    8.00861E+007    7.99501E+007    7.99501E+007   -1.12434E+005   -1.59572E+005    8.01097E+007   -2.65594E+007    8.00861E+007    7.99501E+007   -1.13358E+005   -1.58647E+005   -6.89826E+003    4.18418E+002   -6.53594E+003
               4    8.00799E+007    7.99427E+007    7.99427E+007   -1.23016E+005   -1.51411E+005    8.00941E+007   -2.65561E+007    8.00799E+007    7.99427E+007   -1.23978E+005   -1.50448E+005    4.07082E+003   -4.70215E+002   -5.13859E+003
               5    8.00925E+007    7.99672E+007    7.99672E+007   -9.87418E+004   -1.51734E+005    8.01189E+007   -2.65722E+007    8.00924E+007    7.99672E+007   -1.03532E+005   -1.46939E+005   -1.81660E+004    9.06000E+002   -1.52017E+004
               6    8.00725E+007    7.99402E+007    7.99402E+007   -9.60780E+004   -1.68426E+005    8.01086E+007   -2.65586E+007    8.00724E+007    7.99402E+007   -1.01908E+005   -1.62595E+005    8.69490E+003   -8.40582E+002   -1.96944E+004
               7    8.00866E+007    7.99484E+007    7.99484E+007   -1.11860E+005   -1.64476E+005    8.01129E+007   -2.65574E+007    8.00865E+007    7.99484E+007   -1.19451E+005   -1.56884E+005   -5.83983E+003    4.07350E+002   -1.84875E+004
               8    8.00809E+007    7.99427E+007    7.99427E+007   -1.20927E+005   -1.55532E+005    8.00982E+007   -2.65554E+007    8.00809E+007    7.99427E+007   -1.29131E+005   -1.47327E+005    3.43411E+003    2.37622E+002   -1.47175E+004
               9    8.00902E+007    7.99516E+007    7.99516E+007   -1.13064E+005   -1.63987E+005    8.01156E+007   -2.65582E+007    8.00901E+007    7.99516E+007   -1.22077E+005   -1.54973E+005   -7.40164E+003    6.00748E+003   -1.94365E+004
              10    8.00820E+007    7.99411E+007    7.99411E+007   -1.05263E+005   -1.76389E+005    8.01175E+007   -2.65532E+007    8.00819E+007    7.99411E+007   -1.19797E+005   -1.61855E+005    3.23037E+003    3.01074E+002   -2.86795E+004
              11    8.00859E+007    7.99443E+007    7.99443E+007   -1.11628E+005   -1.71562E+005    8.01158E+007   -2.65537E+007    8.00858E+007    7.99443E+007   -1.29725E+005   -1.53465E+005   -1.38891E+003    2.11175E+003   -2.75163E+004
              12    8.00836E+007    7.99434E+007    7.99434E+007   -1.17271E+005   -1.63139E+005    8.01065E+007   -2.65543E+007    8.00835E+007    7.99434E+007   -1.38394E+005   -1.42016E+005    1.30842E+003   -1.05359E+003   -2.28627E+004
              13    8.00911E+007    7.99373E+007    7.99373E+007   -1.32448E+005   -1.75005E+005    8.01123E+007   -2.65433E+007    8.00910E+007    7.99373E+007   -1.42399E+005   -1.65053E+005    3.21751E+003    6.37732E+003   -1.80131E+004
              14    8.00921E+007    7.99419E+007    7.99419E+007   -1.15963E+005   -1.84446E+005    8.01263E+007   -2.65472E+007    8.00921E+007    7.99419E+007   -1.39301E+005   -1.61108E+005   -7.37187E+002   -1.28484E+003   -3.24595E+004
              15    8.00875E+007    7.99410E+007    7.99410E+007   -1.13527E+005   -1.79340E+005    8.01204E+007   -2.65494E+007    8.00874E+007    7.99410E+007   -1.42662E+005   -1.50206E+005    1.07961E+003    9.38720E+002   -3.26895E+004
              16    8.00852E+007    7.99431E+007    7.99431E+007   -1.12712E+005   -1.71468E+005    8.01146E+007   -2.65530E+007    8.00852E+007    7.99431E+007   -1.48713E+005   -1.35467E+005   -1.50599E+002    5.01649E+002   -2.86220E+004
              17    8.00921E+007    7.99282E+007    7.99282E+007   -1.48256E+005   -1.79600E+005    8.01078E+007   -2.65334E+007    8.00921E+007    7.99282E+007   -1.55785E+005   -1.72065E+005    1.64026E+004    1.53774E+004   -1.33893E+004
              18    8.00994E+007    7.99406E+007    7.99406E+007   -1.28954E+005   -1.88730E+005    8.01293E+007   -2.65410E+007    8.00994E+007    7.99406E+007   -1.56845E+005   -1.60839E+005   -3.61070E+003    1.69819E+003   -2.98211E+004
              19    8.00884E+007    7.99374E+007    7.99374E+007   -1.17930E+005   -1.84061E+005    8.01214E+007   -2.65451E+007    8.00883E+007    7.99374E+007   -1.54168E+005   -1.47822E+005    5.85786E+003    3.76290E+003   -3.29124E+004
              20    8.00877E+007    7.99438E+007    7.99438E+007   -1.10111E+005   -1.77721E+005    8.01215E+007   -2.65520E+007    8.00877E+007    7.99438E+007   -1.57662E+005   -1.30170E+005   -9.67391E+002   -1.70051E+003   -3.08841E+004
              21    8.01045E+007    7.99351E+007    7.99351E+007   -1.59640E+005   -1.79094E+005    8.01142E+007   -2.65321E+007    8.01045E+007    7.99351E+007   -1.64560E+005   -1.74168E+005    2.15475E+004    7.31878E+003   -8.45706E+003
              22    8.01088E+007    7.99428E+007    7.99428E+007   -1.44030E+005   -1.87952E+005    8.01307E+007   -2.65369E+007    8.01088E+007    7.99428E+007   -1.66691E+005   -1.65290E+005   -3.46972E+003   -1.44711E+003   -2.19498E+004
              23    8.00942E+007    7.99381E+007    7.99381E+007   -1.26238E+005   -1.85846E+005    8.01240E+007   -2.65420E+007    8.00941E+007    7.99381E+007   -1.62421E+005   -1.49663E+005    4.52939E+003   -6.88918E+002   -2.91131E+004
              24    8.00869E+007    7.99424E+007    7.99424E+007   -1.10631E+005   -1.78390E+005    8.01208E+007   -2.65511E+007    8.00868E+007    7.99424E+007   -1.61924E+005   -1.27098E+005   -9.91072E+002    1.84419E+003   -2.90623E+004
              25    8.01151E+007    7.99424E+007    7.99424E+007   -1.67217E+005   -1.78292E+005    8.01206E+007   -2.65323E+007    8.01151E+007    7.99423E+007   -1.69657E+005   -1.75832E+005    2.97535E+004    2.75424E+004    4.60804E+003
              26    8.01079E+007    7.99386E+007    7.99386E+007   -1.58291E+005   -1.80325E+005    8.01189E+007   -2.65333E+007    8.01079E+007    7.99386E+007   -1.70623E+005   -1.67990E+005    6.53624E+003    1.27462E+004   -1.09375E+004
              27    8.00959E+007    7.99346E+007    7.99346E+007   -1.43539E+005   -1.79014E+005    8.01136E+007   -2.65374E+007    8.00959E+007    7.99346E+007   -1.68167E+005   -1.54384E+005    1.09539E+004    6.00785E+003   -1.63430E+004
              28    8.00917E+007    7.99450E+007    7.99450E+007   -1.23943E+005   -1.69526E+005    8.01145E+007   -2.65505E+007    8.00917E+007    7.99450E+007   -1.59516E+005   -1.33953E+005    2.12808E+003   -4.89101E+003   -1.88706E+004
              29    8.00791E+007    7.99300E+007    7.99300E+007   -1.43069E+005   -1.54952E+005    8.00850E+007   -2.65440E+007    8.00791E+007    7.99300E+007   -1.53290E+005   -1.44730E+005   -8.44143E+002    4.28717E+003    4.12099E+003
              30    8.01283E+007    7.99537E+007    7.99537E+007   -1.68362E+005   -1.80974E+005    8.01346E+007   -2.65348E+007    8.01283E+007    7.99537E+007   -1.80020E+005   -1.69314E+005   -7.73846E+003   -7.78824E+003    3.33384E+003
              31    8.01782E+007    7.99955E+007    7.99955E+007   -1.70198E+005   -1.95071E+005    8.01906E+007   -2.65434E+007    8.01781E+007    7.99955E+007   -1.94852E+005   -1.70410E+005   -1.34891E+004   -1.72741E+004   -2.30564E+003
              32    8.02416E+007    8.00635E+007    8.00635E+007   -1.49395E+005   -2.06913E+005    8.02704E+007   -2.65691E+007    8.02416E+007    8.00634E+007   -1.85087E+005   -1.71170E+005   -4.60158E+004   -4.42543E+004   -2.78785E+004
              33    7.99902E+007    7.99012E+007    7.99012E+007   -8.68124E+004   -9.12651E+004    7.99924E+007   -2.65744E+007    7.99902E+007    7.99012E+007   -8.70781E+004   -9.09946E+004    1.94097E+004    1.05097E+003    1.06378E+003
              34    8.00128E+007    7.99057E+007    7.99057E+007   -1.02613E+005   -1.11543E+005    8.00173E+007   -2.65639E+007    8.00128E+007    7.99057E+007   -1.04674E+005   -1.09478E+005    1.66818E+004    1.07581E+003    3.76481E+003
              35    8.00570E+007    7.99232E+007    7.99232E+007   -1.27241E+005   -1.40423E+005    8.00636E+007   -2.65519E+007    8.00570E+007    7.99232E+007   -1.30998E+005   -1.36666E+005    6.15418E+003   -1.87966E+003    5.95034E+003
              36    8.01129E+007    7.99534E+007    7.99534E+007   -1.52506E+005   -1.66524E+005    8.01200E+007   -2.65448E+007    8.01129E+007    7.99534E+007   -1.54818E+005   -1.64211E+005   -4.88598E+003   -6.16397E+003    5.20316E+003
              37    8.01666E+007    7.99872E+007    7.99872E+007   -1.70470E+005   -1.88308E+005    8.01755E+007   -2.65428E+007    8.01666E+007    7.99872E+007   -1.71884E+005   -1.86886E+005   -1.96848E+004   -1.60115E+004    4.83070E+003
              38    8.02130E+007    8.00306E+007    8.00306E+007   -1.64055E+005   -2.00865E+005    8.02314E+007   -2.65552E+007    8.02130E+007    8.00305E+007   -1.64307E+005   -2.00598E+005   -2.99215E+004   -1.90730E+004   -3.09538E+003
              39    8.02529E+007    8.00754E+007    8.00754E+007   -1.45586E+005   -2.09440E+005    8.02848E+007   -2.65735E+007    8.02529E+007    8.00754E+007   -1.66291E+005   -1.88676E+005   -5.06493E+004   -4.58020E+004   -2.98729E+004
              40    8.00330E+007    7.99145E+007    7.99145E+007   -1.13064E+005   -1.23878E+005    8.00384E+007   -2.65592E+007    8.00330E+007    7.99145E+007   -1.21245E+005   -1.15695E+005    7.63943E+002    1.19444E+004    4.64147E+003
              41    8.00022E+007    7.99107E+007    7.99107E+007   -8.80678E+004   -9.50461E+004    8.00057E+007   -2.65759E+007    8.00022E+007    7.99107E+007   -9.32961E+004   -8.98137E+004    2.01817E+003    1.80677E+004    3.02529E+003
              42    7.99927E+007    7.99127E+007    7.99127E+007   -7.91049E+004   -8.09093E+004    7.99936E+007   -2.65842E+007    7.99927E+007    7.99127E+007   -8.08952E+004   -7.91153E+004    3.34481E+002    1.72078E+004    1.58886E+002
              43    8.00037E+007    7.99137E+007    7.99137E+007   -8.66837E+004   -9.32087E+004    8.00069E+007   -2.65779E+007    8.00037E+007    7.99137E+007   -9.11644E+004   -8.87242E+004   -1.39574E+003    1.73841E+004   -3.02684E+003
              44    8.00368E+007    7.99211E+007    7.99211E+007   -1.10345E+005   -1.21108E+005    8.00422E+007   -2.65632E+007    8.00368E+007    7.99211E+007   -1.17834E+005   -1.13618E+005    4.33431E+002    1.06669E+004   -4.95165E+003
              45    8.00870E+007    7.99407E+007    7.99407E+007   -1.39633E+005   -1.53107E+005    8.00938E+007   -2.65493E+007    8.00870E+007    7.99407E+007   -1.50410E+005   -1.42330E+005    3.25649E+003    1.06558E+003   -5.39156E+003
              46    8.01405E+007    7.99699E+007    7.99699E+007   -1.63313E+005   -1.77856E+005    8.01477E+007   -2.65429E+007    8.01405E+007    7.99699E+007   -1.77749E+005   -1.63416E+005    1.16568E+004   -1.28615E+004   -1.23411E+003
              47    8.01931E+007    8.00133E+007    8.00133E+007   -1.69574E+005   -1.90099E+005    8.02034E+007   -2.65512E+007    8.01931E+007    8.00132E+007   -1.83982E+005   -1.75677E+005    1.89138E+004   -2.67210E+004    9.37925E+003
              48    8.02494E+007    8.00687E+007    8.00687E+007   -1.62541E+005   -1.98924E+005    8.02676E+007   -2.65691E+007    8.02494E+007    8.00686E+007   -1.69438E+005   -1.91963E+005    4.64060E+004   -5.51325E+004    1.42500E+004
              49    8.00848E+007    7.99570E+007    7.99570E+007   -1.03454E+005   -1.52152E+005    8.01092E+007   -2.65671E+007    8.00848E+007    7.99570E+007   -1.45970E+005   -1.09634E+005    2.36055E+003   -1.20931E+004   -1.62124E+004
              50    8.00759E+007    7.99432E+007    7.99432E+007   -9.72117E+004   -1.67978E+005    8.01112E+007   -2.65594E+007    8.00758E+007    7.99432E+007   -1.59917E+005   -1.05273E+005    1.76262E+003    4.19874E+003   -2.24829E+004
              51    8.00829E+007    7.99462E+007    7.99462E+007   -1.04924E+005   -1.68401E+005    8.01146E+007   -2.65576E+007    8.00828E+007    7.99462E+007   -1.59187E+005   -1.14138E+005    2.05295E+003   -2.69638E+003   -2.23602E+004
              52    8.00819E+007    7.99438E+007    7.99438E+007   -1.13052E+005   -1.63110E+005    8.01070E+007   -2.65559E+007    8.00819E+007    7.99438E+007   -1.53884E+005   -1.22278E+005    3.95531E+002    2.17303E+003   -1.94094E+004
              53    8.00838E+007    7.99452E+007    7.99452E+007   -1.22434E+005   -1.54854E+005    8.01000E+007   -2.65560E+007    8.00838E+007    7.99452E+007   -1.45846E+005   -1.31443E+005   -4.12946E+002   -7.40043E+002   -1.45227E+004
              54    8.00842E+007    7.99456E+007    7.99456E+007   -1.29439E+005   -1.47801E+005    8.00934E+007   -2.65561E+007    8.00842E+007    7.99456E+007   -1.39053E+005   -1.38187E+005   -2.28891E+003    1.35850E+003   -9.17092E+003
              55    8.00846E+007    7.99461E+007    7.99461E+007   -1.33842E+005   -1.43136E+005    8.00892E+007   -2.65564E+007    8.00846E+007    7.99461E+007   -1.34954E+005   -1.42023E+005   -2.57148E+003   -8.47302E+002   -3.01681E+003
              56    8.00806E+007    7.99671E+007    7.99671E+007   -8.93248E+004   -1.37704E+005    8.01048E+007   -2.65800E+007    8.00806E+007    7.99671E+007   -1.35792E+005   -9.12330E+004   -1.07428E+003   -1.77397E+004   -9.42568E+003
              57    8.00698E+007    7.99460E+007    7.99460E+007   -8.75940E+004   -1.59984E+005    8.01060E+007   -2.65661E+007    8.00697E+007    7.99460E+007   -1.58290E+005   -8.92869E+004   -2.74921E+001    6.69522E+003   -1.09418E+004
              58    8.00823E+007    7.99499E+007    7.99499E+007   -1.01642E+005   -1.63172E+005    8.01131E+007   -2.65617E+007    8.00823E+007    7.99499E+007   -1.61375E+005   -1.03439E+005   -8.72278E+002   -5.59308E+003   -1.03621E+004
              59    8.00803E+007    7.99447E+007    7.99447E+007   -1.12807E+005   -1.58329E+005    8.01030E+007   -2.65579E+007    8.00803E+007    7.99447E+007   -1.57029E+005   -1.14108E+005    2.72501E+001    2.73160E+003   -7.58446E+003
              60    8.00829E+007    7.99453E+007    7.99453E+007   -1.24768E+005   -1.50411E+005    8.00957E+007   -2.65567E+007    8.00829E+007    7.99453E+007   -1.49298E+005   -1.25882E+005    3.42569E+002   -2.71470E+003   -5.22717E+003
              61    8.00816E+007    7.99437E+007    7.99437E+007   -1.32901E+005   -1.42941E+005    8.00866E+007   -2.65559E+007    8.00816E+007    7.99437E+007   -1.42121E+005   -1.33720E+005    1.32684E+003    1.58774E+003   -2.74949E+003
              62    8.00819E+007    7.99438E+007    7.99438E+007   -1.37037E+005   -1.39131E+005    8.00829E+007   -2.65559E+007    8.00819E+007    7.99438E+007   -1.38002E+005   -1.38166E+005    1.44761E+003   -1.67942E+003   -1.04419E+003
              63    8.00768E+007    7.99689E+007    7.99689E+007   -8.40474E+004   -1.31660E+005    8.01006E+007   -2.65844E+007    8.00767E+007    7.99689E+007   -1.31659E+005   -8.40452E+004   -2.42225E+002   -1.73739E+004    2.73790E+002
              64    8.00674E+007    7.99463E+007    7.99463E+007   -8.51296E+004   -1.57048E+005    8.01034E+007   -2.65681E+007    8.00674E+007    7.99463E+007   -1.56990E+005   -8.51871E+004    4.69686E+002    6.33223E+003    2.04055E+003
              65    8.00808E+007    7.99496E+007    7.99496E+007   -1.00692E+005   -1.61711E+005    8.01113E+007   -2.65624E+007    8.00808E+007    7.99496E+007   -1.61454E+005   -1.00948E+005    2.17560E+002   -4.66612E+003    3.95049E+003
              66    8.00799E+007    7.99446E+007    7.99446E+007   -1.12536E+005   -1.58074E+005    8.01027E+007   -2.65580E+007    8.00799E+007    7.99446E+007   -1.57520E+005   -1.13090E+005    7.43720E+001    2.97290E+003    4.99400E+003
              67    8.00834E+007    7.99457E+007    7.99457E+007   -1.24606E+005   -1.50715E+005    8.00964E+007   -2.65568E+007    8.00834E+007    7.99457E+007   -1.49655E+005   -1.25666E+005   -1.63305E+002   -1.73109E+003    5.15288E+003
              68    8.00832E+007    7.99450E+007    7.99450E+007   -1.32509E+005   -1.43903E+005    8.00889E+007   -2.65562E+007    8.00832E+007    7.99450E+007   -1.42643E+005   -1.33768E+005   -5.48125E+002    1.76951E+003    3.57256E+003
              69    8.00839E+007    7.99455E+007    7.99455E+007   -1.36963E+005   -1.39860E+005    8.00854E+007   -2.65562E+007    8.00839E+007    7.99455E+007   -1.38314E+005   -1.38508E+005   -4.46990E+002   -1.30812E+003    1.44555E+003
              70    8.00799E+007    7.99661E+007    7.99661E+007   -9.02853E+004   -1.37253E+005    8.01033E+007   -2.65795E+007    8.00798E+007    7.99661E+007   -1.35222E+005   -9.23133E+004   -4.75084E+002   -1.67498E+004    9.55478E+003
              71    8.00711E+007    7.99455E+007    7.99455E+007   -8.95072E+004   -1.61590E+005    8.01071E+007   -2.65648E+007    8.00710E+007    7.99455E+007   -1.58468E+005   -9.26287E+004   -6.94205E+002    6.34458E+003    1.46728E+004
              72    8.00831E+007    7.99488E+007    7.99488E+007   -1.02546E+005   -1.65979E+005    8.01148E+007   -2.65601E+007    8.00831E+007    7.99488E+007   -1.60949E+005   -1.07576E+005   -4.52017E+002   -5.10110E+003    1.71392E+004
              73    8.00814E+007    7.99440E+007    7.99440E+007   -1.12253E+005   -1.62390E+005    8.01064E+007   -2.65565E+007    8.00813E+007    7.99440E+007   -1.55667E+005   -1.18976E+005   -1.81363E+002    2.62765E+003    1.70836E+004
              74    8.00835E+007    7.99449E+007    7.99449E+007   -1.22257E+005   -1.54933E+005    8.00999E+007   -2.65559E+007    8.00835E+007    7.99449E+007   -1.46395E+005   -1.30795E+005   -2.29768E+002   -2.34792E+003    1.43556E+004
              75    8.00820E+007    7.99438E+007    7.99438E+007   -1.28431E+005   -1.48117E+005    8.00919E+007   -2.65557E+007    8.00820E+007    7.99438E+007   -1.37908E+005   -1.38639E+005   -1.23722E+002    1.51245E+003    9.83618E+003
              76    8.00821E+007    7.99441E+007    7.99441E+007   -1.31963E+005   -1.43984E+005    8.00881E+007   -2.65561E+007    8.00821E+007    7.99441E+007   -1.32892E+005   -1.43056E+005   -3.71295E+002   -1.43752E+003    3.20884E+003
              77    8.00847E+007    7.99556E+007    7.99556E+007   -1.06360E+005   -1.51734E+005    8.01074E+007   -2.65658E+007    8.00847E+007    7.99556E+007   -1.46086E+005   -1.12007E+005   -2.92090E+003   -1.03831E+004    1.49797E+004
              78    8.00784E+007    7.99429E+007    7.99429E+007   -1.00636E+005   -1.70159E+005    8.01131E+007   -2.65574E+007    8.00783E+007    7.99429E+007   -1.60210E+005   -1.10585E+005   -7.84528E+002    4.01534E+003    2.43454E+004
              79    8.00851E+007    7.99448E+007    7.99448E+007   -1.07157E+005   -1.73338E+005    8.01181E+007   -2.65548E+007    8.00850E+007    7.99448E+007   -1.59243E+005   -1.21252E+005   -1.39536E+003   -2.06978E+003    2.70955E+004
              80    8.00838E+007    7.99428E+007    7.99428E+007   -1.12584E+005   -1.69291E+005    8.01121E+007   -2.65536E+007    8.00837E+007    7.99428E+007   -1.51731E+005   -1.30144E+005   -2.39771E+002    2.05258E+003    2.62189E+004
              81    8.00847E+007    7.99444E+007    7.99444E+007   -1.18060E+005   -1.62532E+005    8.01069E+007   -2.65546E+007    8.00847E+007    7.99444E+007   -1.40819E+005   -1.39773E+005    5.75590E+001   -5.56349E+002    2.22299E+004
              82    8.00837E+007    7.99451E+007    7.99451E+007   -1.22180E+005   -1.55073E+005    8.01002E+007   -2.65559E+007    8.00837E+007    7.99451E+007   -1.31047E+005   -1.46207E+005    9.27727E+002    1.06625E+003    1.45958E+004
              83    8.00836E+007    7.99460E+007    7.99460E+007   -1.24227E+005   -1.51023E+005    8.00970E+007   -2.65569E+007    8.00836E+007    7.99460E+007   -1.25249E+005   -1.50001E+005    1.42988E+003   -6.08737E+002    5.13223E+003
              84    8.00914E+007    7.99440E+007    7.99440E+007   -1.26699E+005   -1.68070E+005    8.01121E+007   -2.65498E+007    8.00914E+007    7.99440E+007   -1.59683E+005   -1.35086E+005   -4.63063E+003   -1.72396E+003    1.66326E+004
              85    8.00896E+007    7.99415E+007    7.99415E+007   -1.16104E+005   -1.80102E+005    8.01216E+007   -2.65484E+007    8.00896E+007    7.99415E+007   -1.62633E+005   -1.33573E+005   -2.46501E+002    1.08909E+003    2.85097E+004
              86    8.00894E+007    7.99416E+007    7.99416E+007   -1.14259E+005   -1.81365E+005    8.01229E+007   -2.65487E+007    8.00893E+007    7.99416E+007   -1.58150E+005   -1.37474E+005   -8.92761E+002   -2.43812E+002    3.19212E+004
              87    8.00873E+007    7.99418E+007    7.99418E+007   -1.13276E+005   -1.77751E+005    8.01196E+007   -2.65503E+007    8.00873E+007    7.99418E+007   -1.47313E+005   -1.43714E+005    3.41349E+001    4.32288E+002    3.21870E+004
              88    8.00845E+007    7.99431E+007    7.99431E+007   -1.13159E+005   -1.69736E+005    8.01128E+007   -2.65534E+007    8.00845E+007    7.99431E+007   -1.32978E+005   -1.49917E+005   -9.98335E+002   -1.48352E+002    2.69910E+004
              89    8.00814E+007    7.99438E+007    7.99438E+007   -1.12510E+005   -1.62678E+005    8.01065E+007   -2.65562E+007    8.00814E+007    7.99438E+007   -1.20414E+005   -1.54774E+005   -1.66295E+003    1.71697E+002    1.82767E+004
              90    8.00797E+007    7.99445E+007    7.99445E+007   -1.12144E+005   -1.58271E+005    8.01027E+007   -2.65580E+007    8.00797E+007    7.99445E+007   -1.12950E+005   -1.57465E+005   -2.52174E+003    7.78291E+001    6.04725E+003
              91    8.00981E+007    7.99363E+007    7.99363E+007   -1.47178E+005   -1.76431E+005    8.01127E+007   -2.65376E+007    8.00981E+007    7.99363E+007   -1.67263E+005   -1.56343E+005   -1.08596E+004    9.36193E+003    1.35680E+004
              92    8.00983E+007    7.99389E+007    7.99389E+007   -1.33683E+005   -1.85028E+005    8.01239E+007   -2.65401E+007    8.00982E+007    7.99389E+007   -1.64988E+005   -1.53723E+005   -2.78065E+003   -2.79881E+002    2.50467E+004
              93    8.00922E+007    7.99367E+007    7.99367E+007   -1.23708E+005   -1.87206E+005    8.01239E+007   -2.65419E+007    8.00921E+007    7.99367E+007   -1.57915E+005   -1.52998E+005   -4.04224E+003    4.34103E+003    3.16533E+004
              94    8.00896E+007    7.99404E+007    7.99404E+007   -1.15628E+005   -1.82793E+005    8.01232E+007   -2.65473E+007    8.00895E+007    7.99404E+007   -1.42951E+005   -1.55470E+005   -6.40654E+002    7.30775E+002    3.29940E+004
              95    8.00857E+007    7.99436E+007    7.99436E+007   -1.09022E+005   -1.75143E+005    8.01188E+007   -2.65532E+007    8.00857E+007    7.99436E+007   -1.26189E+005   -1.57976E+005    1.00425E+003    2.02892E+003    2.89894E+004
              96    8.00836E+007    7.99481E+007    7.99481E+007   -1.04100E+005   -1.66864E+005    8.01149E+007   -2.65590E+007    8.00835E+007    7.99481E+007   -1.10976E+005   -1.59987E+005    4.01649E+003   -3.34030E+001    1.96041E+004
              97    8.00818E+007    7.99503E+007    7.99503E+007   -1.01383E+005   -1.61634E+005    8.01119E+007   -2.65624E+007    8.00818E+007    7.99503E+007   -1.02175E+005   -1.60842E+005    5.22354E+003    4.90988E+002    6.86372E+003
              98    8.01128E+007    7.99426E+007    7.99426E+007   -1.66552E+005   -1.74011E+005    8.01166E+007   -2.65340E+007    8.01128E+007    7.99426E+007   -1.71345E+005   -1.69214E+005   -7.81059E+003    1.57096E+004    3.57268E+003
              99    8.01114E+007    7.99416E+007    7.99416E+007   -1.51516E+005   -1.87987E+005    8.01296E+007   -2.65340E+007    8.01114E+007    7.99416E+007   -1.72103E+005   -1.67400E+005    7.53849E+002   -1.66809E+003    1.80834E+004
             100    8.01003E+007    7.99378E+007    7.99378E+007   -1.36327E+005   -1.88732E+005    8.01265E+007   -2.65376E+007    8.01003E+007    7.99378E+007   -1.61077E+005   -1.63981E+005    7.21267E+002    3.77797E+003    2.61623E+004
             101    8.00937E+007    7.99405E+007    7.99405E+007   -1.21283E+005   -1.84956E+005    8.01255E+007   -2.65448E+007    8.00936E+007    7.99405E+007   -1.43089E+005   -1.63150E+005    6.75940E+002   -9.93548E+002    3.02151E+004
             102    8.00826E+007    7.99424E+007    7.99424E+007   -1.06098E+005   -1.74272E+005    8.01167E+007   -2.65540E+007    8.00825E+007    7.99424E+007   -1.19485E+005   -1.60885E+005   -2.12485E+003    1.39730E+003    2.70821E+004
             103    8.00731E+007    7.99442E+007    7.99442E+007   -9.36495E+004   -1.64081E+005    8.01083E+007   -2.65622E+007    8.00731E+007    7.99442E+007   -9.90095E+004   -1.58721E+005   -5.51550E+003   -4.98837E+002    1.86765E+004
             104    8.00669E+007    7.99452E+007    7.99452E+007   -8.58831E+004   -1.57558E+005    8.01028E+007   -2.65673E+007    8.00669E+007    7.99452E+007   -8.64544E+004   -1.56986E+005   -7.62125E+003    1.33383E+003    6.37776E+003
             105    8.01369E+007    7.99588E+007    7.99588E+007   -1.73214E+005   -1.83000E+005    8.01418E+007   -2.65342E+007    8.01369E+007    7.99588E+007   -1.80039E+005   -1.76168E+005   -1.40560E+004    1.80576E+004   -4.49718E+003
             106    8.01168E+007    7.99413E+007    7.99413E+007   -1.70604E+005   -1.80313E+005    8.01216E+007   -2.65301E+007    8.01168E+007    7.99413E+007   -1.74578E+005   -1.76337E+005   -1.29175E+004    6.15762E+003    4.77304E+003
             107    8.01015E+007    7.99313E+007    7.99313E+007   -1.56578E+005   -1.83826E+005    8.01151E+007   -2.65303E+007    8.01015E+007    7.99313E+007   -1.67274E+005   -1.73127E+005   -9.83255E+003    1.10625E+004    1.33049E+004
             108    8.00937E+007    7.99375E+007    7.99375E+007   -1.36488E+005   -1.75751E+005    8.01133E+007   -2.65418E+007    8.00936E+007    7.99375E+007   -1.46722E+005   -1.65516E+005   -2.32385E+003    4.62630E+003    1.72360E+004
             109    8.00870E+007    7.99488E+007    7.99488E+007   -1.15914E+005   -1.60379E+005    8.01092E+007   -2.65575E+007    8.00870E+007    7.99488E+007   -1.24177E+005   -1.52115E+005    6.24463E+003    4.20211E+003    1.72965E+004
             110    8.00834E+007    7.99627E+007    7.99627E+007   -9.72808E+004   -1.43957E+005    8.01067E+007   -2.65738E+007    8.00833E+007    7.99627E+007   -1.01497E+005   -1.39738E+005    1.49673E+004    5.63850E+002    1.33844E+004
             111    8.00806E+007    7.99707E+007    7.99707E+007   -8.71327E+004   -1.32550E+005    8.01032E+007   -2.65837E+007    8.00805E+007    7.99707E+007   -8.76972E+004   -1.31980E+005    1.96791E+004    4.33446E+002    5.05311E+003
             112    7.99906E+007    7.99070E+007    7.99070E+007   -8.22948E+004   -8.48330E+004    7.99919E+007   -2.65800E+007    7.99906E+007    7.99070E+007   -8.32864E+004   -8.38364E+004   -1.99496E+004    1.07659E+003   -1.23974E+003
             113    8.00161E+007    7.99129E+007    7.99129E+007   -9.86928E+004   -1.07548E+005    8.00205E+007   -2.65689E+007    8.00161E+007    7.99129E+007   -1.01860E+005   -1.04378E+005   -1.51724E+004    1.03988E+003   -4.24543E+003
             114    8.00609E+007    7.99283E+007    7.99283E+007   -1.28274E+005   -1.36921E+005    8.00652E+007   -2.65544E+007    8.00609E+007    7.99283E+007   -1.30225E+005   -1.34969E+005   -5.41190E+003   -1.15807E+003   -3.61469E+003
             115    8.01102E+007    7.99486E+007    7.99486E+007   -1.58393E+005   -1.64755E+005    8.01134E+007   -2.65418E+007    8.01102E+007    7.99486E+007   -1.59783E+005   -1.63365E+005    3.78349E+003   -4.61092E+003   -2.62929E+003
             116    8.01525E+007    7.99701E+007    7.99701E+007   -1.79618E+005   -1.85133E+005    8.01552E+007   -2.65351E+007    8.01525E+007    7.99701E+007   -1.79809E+005   -1.84938E+005    1.39073E+004   -1.10581E+004   -1.01657E+003
             117    8.01902E+007    7.99979E+007    7.99979E+007   -1.90426E+005   -1.94187E+005    8.01920E+007   -2.65378E+007    8.01902E+007    7.99979E+007   -1.90464E+005   -1.94141E+005    1.93110E+004   -1.59138E+004   -4.02747E+002
             118    8.02412E+007    8.00526E+007    8.00526E+007   -1.79926E+005   -1.97300E+005    8.02499E+007   -2.65584E+007    8.02412E+007    8.00525E+007   -1.81175E+005   -1.95998E+005    4.22304E+004   -4.94071E+004    4.49887E+003
             119    8.02427E+007    8.00640E+007    8.00640E+007   -1.49776E+005   -2.07622E+005    8.02716E+007   -2.65689E+007    8.02427E+007    8.00640E+007   -1.86172E+005   -1.71175E+005   -4.35780E+004    4.70948E+004    2.79092E+004
             120    8.01776E+007    7.99942E+007    7.99942E+007   -1.71054E+005   -1.95800E+005    8.01900E+007   -2.65425E+007    8.01776E+007    7.99942E+007   -1.95718E+005   -1.71128E+005   -1.63102E+004    1.81487E+004    1.38681E+003
             121    8.01211E+007    7.99440E+007    7.99440E+007   -1.71383E+005   -1.82889E+005    8.01269E+007   -2.65299E+007    8.01211E+007    7.99440E+007   -1.81697E+005   -1.72574E+005   -6.70940E+003    3.87486E+003   -3.50613E+003
             122    8.00701E+007    7.99184E+007    7.99184E+007   -1.46084E+005   -1.57455E+005    8.00758E+007   -2.65383E+007    8.00701E+007    7.99184E+007   -1.55889E+005   -1.47649E+005    5.69715E+002   -7.50556E+003   -3.91888E+003
             123    8.00947E+007    7.99465E+007    7.99465E+007   -1.24811E+005   -1.71417E+005    8.01179E+007   -2.65501E+007    8.00946E+007    7.99465E+007   -1.59389E+005   -1.36838E+005    1.27838E+003    7.81146E+003    2.03942E+004
             124    8.00862E+007    7.99413E+007    7.99413E+007   -1.10787E+005   -1.78902E+005    8.01202E+007   -2.65505E+007    8.00861E+007    7.99413E+007   -1.61774E+005   -1.27914E+005   -5.40848E+002   -2.75562E+003    2.95518E+004
             125    8.00882E+007    7.99441E+007    7.99441E+007   -1.10271E+005   -1.77979E+005    8.01220E+007   -2.65519E+007    8.00881E+007    7.99441E+007   -1.57257E+005   -1.30993E+005   -9.70456E+002    2.21158E+003    3.12035E+004
             126    8.00851E+007    7.99430E+007    7.99430E+007   -1.12799E+005   -1.71273E+005    8.01143E+007   -2.65530E+007    8.00851E+007    7.99430E+007   -1.48320E+005   -1.35752E+005   -4.58837E+002   -7.11607E+002    2.85537E+004
             127    8.00841E+007    7.99438E+007    7.99438E+007   -1.17424E+005   -1.63128E+005    8.01069E+007   -2.65544E+007    8.00840E+007    7.99438E+007   -1.38031E+005   -1.42521E+005    7.03099E+002    1.02693E+003    2.27412E+004
             128    8.00814E+007    7.99432E+007    7.99432E+007   -1.20964E+005   -1.55545E+005    8.00987E+007   -2.65556E+007    8.00814E+007    7.99432E+007   -1.29034E+005   -1.47474E+005    2.18993E+003   -1.23123E+002    1.46272E+004
             129    8.00801E+007    7.99428E+007    7.99428E+007   -1.23005E+005   -1.51524E+005    8.00944E+007   -2.65561E+007    8.00801E+007    7.99428E+007   -1.23954E+005   -1.50575E+005    3.95068E+003    6.73172E+002    5.11547E+003
             130    8.00982E+007    7.99358E+007    7.99358E+007   -1.44764E+005   -1.79991E+005    8.01158E+007   -2.65370E+007    8.00981E+007    7.99358E+007   -1.67691E+005   -1.57063E+005    1.04310E+004   -2.94279E+003    1.67926E+004
             131    8.00939E+007    7.99375E+007    7.99375E+007   -1.26276E+005   -1.86586E+005    8.01241E+007   -2.65415E+007    8.00939E+007    7.99375E+007   -1.62357E+005   -1.50504E+005    4.17054E+003   -5.01669E+002    2.95669E+004
             132    8.00888E+007    7.99377E+007    7.99377E+007   -1.17752E+005   -1.84452E+005    8.01221E+007   -2.65452E+007    8.00887E+007    7.99377E+007   -1.53391E+005   -1.48813E+005    5.49434E+003   -2.58696E+003    3.32708E+004
             133    8.00871E+007    7.99408E+007    7.99408E+007   -1.13244E+005   -1.79377E+005    8.01202E+007   -2.65494E+007    8.00871E+007    7.99408E+007   -1.41846E+005   -1.50775E+005    1.50356E+003   -1.41260E+003    3.27634E+004
             134    8.00851E+007    7.99438E+007    7.99438E+007   -1.11199E+005   -1.71400E+005    8.01152E+007   -2.65537E+007    8.00851E+007    7.99438E+007   -1.28818E+005   -1.53781E+005   -3.87486E+002   -1.45493E+003    2.73909E+004
             135    8.00852E+007    7.99473E+007    7.99473E+007   -1.11371E+005   -1.64448E+005    8.01117E+007   -2.65572E+007    8.00852E+007    7.99473E+007   -1.18551E+005   -1.57267E+005   -3.83288E+003   -8.75484E+002    1.81542E+004
             136    8.00858E+007    7.99499E+007    7.99499E+007   -1.12172E+005   -1.59614E+005    8.01096E+007   -2.65594E+007    8.00858E+007    7.99499E+007   -1.12969E+005   -1.58816E+005   -6.59102E+003   -6.97168E+002    6.10083E+003
             137    8.01076E+007    7.99375E+007    7.99375E+007   -1.59788E+005   -1.80491E+005    8.01180E+007   -2.65324E+007    8.01076E+007    7.99375E+007   -1.70918E+005   -1.69357E+005    7.80135E+003   -1.34735E+004    1.03209E+004
             138    8.01085E+007    7.99422E+007    7.99422E+007   -1.43992E+005   -1.88518E+005    8.01307E+007   -2.65366E+007    8.01084E+007    7.99422E+007   -1.66324E+005   -1.66187E+005   -3.15123E+003    2.25261E+003    2.22629E+004
             139    8.00991E+007    7.99403E+007    7.99403E+007   -1.28541E+005   -1.88988E+005    8.01293E+007   -2.65409E+007    8.00990E+007    7.99403E+007   -1.56076E+005   -1.61453E+005   -3.17295E+003   -2.56137E+003    3.01033E+004
             140    8.00922E+007    7.99423E+007    7.99423E+007   -1.15270E+005   -1.84442E+005    8.01268E+007   -2.65475E+007    8.00921E+007    7.99423E+007   -1.38199E+005   -1.61512E+005   -1.42579E+003    1.91470E+003    3.25621E+004
             141    8.00834E+007    7.99425E+007    7.99425E+007   -1.05268E+005   -1.76436E+005    8.01189E+007   -2.65536E+007    8.00833E+007    7.99425E+007   -1.19548E+005   -1.62156E+005    1.65762E+003   -9.96216E+002    2.85019E+004
             142    8.00748E+007    7.99424E+007    7.99424E+007   -9.62865E+004   -1.68303E+005    8.01108E+007   -2.65593E+007    8.00747E+007    7.99424E+007   -1.02042E+005   -1.62547E+005    5.70559E+003    1.57208E+003    1.95295E+004
             143    8.00683E+007    7.99406E+007    7.99406E+007   -9.17414E+004   -1.63621E+005    8.01042E+007   -2.65618E+007    8.00682E+007    7.99406E+007   -9.23794E+004   -1.62982E+005    9.83993E+003   -4.31058E+002    6.74815E+003
             144    8.01147E+007    7.99413E+007    7.99413E+007   -1.68435E+005   -1.78519E+005    8.01198E+007   -2.65314E+007    8.01147E+007    7.99412E+007   -1.71768E+005   -1.75167E+005    2.77905E+004   -2.74761E+004   -4.75688E+003
             145    8.01058E+007    7.99358E+007    7.99358E+007   -1.59512E+005   -1.80572E+005    8.01163E+007   -2.65319E+007    8.01058E+007    7.99358E+007   -1.65405E+005   -1.74673E+005    1.97526E+004   -7.30242E+003    9.45453E+003
             146    8.00922E+007    7.99282E+007    7.99282E+007   -1.46900E+005   -1.80954E+005    8.01092E+007   -2.65335E+007    8.00921E+007    7.99282E+007   -1.55049E+005   -1.72799E+005    1.57683E+004   -1.35951E+004    1.45289E+004
             147    8.00897E+007    7.99366E+007    7.99366E+007   -1.30369E+005   -1.75656E+005    8.01123E+007   -2.65435E+007    8.00896E+007    7.99366E+007   -1.39994E+005   -1.66030E+005    4.62675E+003   -6.47109E+003    1.85266E+004
             148    8.00856E+007    7.99485E+007    7.99485E+007   -1.10548E+005   -1.63665E+005    8.01121E+007   -2.65581E+007    8.00855E+007    7.99485E+007   -1.18507E+005   -1.55705E+005   -3.74943E+003   -5.08667E+003    1.89587E+004
             149    8.00866E+007    7.99624E+007    7.99624E+007   -9.66618E+004   -1.51701E+005    8.01141E+007   -2.65713E+007    8.00865E+007    7.99624E+007   -1.00476E+005   -1.47885E+005   -1.28277E+004   -2.61032E+003    1.39817E+004
             150    8.00894E+007    7.99731E+007    7.99731E+007   -8.92706E+004   -1.43384E+005    8.01165E+007   -2.65802E+007    8.00894E+007    7.99731E+007   -8.96979E+004   -1.42952E+005   -2.00839E+004   -1.69570E+003    4.81780E+003
             151    7.99943E+007    7.99064E+007    7.99064E+007   -8.41370E+004   -9.17218E+004    7.99981E+007   -2.65769E+007    7.99943E+007    7.99064E+007   -8.57540E+004   -9.01005E+004    1.84445E+004   -3.64955E+002   -3.10954E+003
             152    8.00237E+007    7.99196E+007    7.99196E+007   -9.78488E+004   -1.10480E+005    8.00300E+007   -2.65704E+007    8.00237E+007    7.99196E+007   -1.00578E+005   -1.07748E+005    1.10971E+004    7.70693E+002   -5.19960E+003
             153    8.00680E+007    7.99372E+007    7.99372E+007   -1.23872E+005   -1.37807E+005    8.00750E+007   -2.65585E+007    8.00680E+007    7.99372E+007   -1.26243E+005   -1.35436E+005    2.32819E+003    1.22254E+003   -5.23607E+003
             154    8.01151E+007    7.99573E+007    7.99573E+007   -1.51254E+005   -1.64509E+005    8.01218E+007   -2.65472E+007    8.01151E+007    7.99573E+007   -1.52512E+005   -1.63250E+005   -5.76251E+003    6.81182E+003   -3.88583E+003
             155    8.01658E+007    7.99868E+007    7.99868E+007   -1.70067E+005   -1.88030E+005    8.01748E+007   -2.65429E+007    8.01658E+007    7.99868E+007   -1.71002E+005   -1.87088E+005   -1.89912E+004    1.36160E+004   -4.00186E+003
             156    8.02044E+007    8.00209E+007    8.00209E+007   -1.65797E+005   -2.01178E+005    8.02221E+007   -2.65513E+007    8.02044E+007    8.00209E+007   -1.66120E+005   -2.00842E+005   -2.64362E+004    1.81473E+004    3.40469E+003
             157    8.02480E+007    8.00697E+007    8.00697E+007   -1.46816E+005   -2.09927E+005    8.02796E+007   -2.65710E+007    8.02480E+007    8.00696E+007   -1.67319E+005   -1.89371E+005   -4.78856E+004    4.42271E+004    2.95411E+004
             158    8.00793E+007    7.99693E+007    7.99693E+007   -8.69490E+004   -1.32893E+005    8.01022E+007   -2.65832E+007    8.00792E+007    7.99693E+007   -8.75338E+004   -1.32304E+005    1.82234E+004   -9.70997E+002   -5.16893E+003
             159    8.00677E+007    7.99459E+007    7.99459E+007   -8.61475E+004   -1.57458E+005    8.01033E+007   -2.65674E+007    8.00676E+007    7.99459E+007   -8.68832E+004   -1.56722E+005   -6.47762E+003   -8.23817E+002   -7.20803E+003
             160    8.00815E+007    7.99500E+007    7.99500E+007   -1.01273E+005   -1.61848E+005    8.01118E+007   -2.65623E+007    8.00815E+007    7.99500E+007   -1.02193E+005   -1.60929E+005    4.58566E+003   -6.88056E+002   -7.40623E+003
             161    8.00798E+007    7.99445E+007    7.99445E+007   -1.12208E+005   -1.58375E+005    8.01029E+007   -2.65580E+007    8.00798E+007    7.99445E+007   -1.13216E+005   -1.57367E+005   -2.01681E+003    2.61126E+000   -6.74563E+003
             162    8.00835E+007    7.99458E+007    7.99458E+007   -1.24246E+005   -1.51051E+005    8.00969E+007   -2.65568E+007    8.00835E+007    7.99458E+007   -1.25463E+005   -1.49835E+005    1.04072E+003    4.70865E+002   -5.57907E+003
             163    8.00821E+007    7.99441E+007    7.99441E+007   -1.31904E+005   -1.44055E+005    8.00882E+007   -2.65561E+007    8.00821E+007    7.99441E+007   -1.32981E+005   -1.42979E+005   -1.64482E+002    1.47224E+003   -3.45249E+003
             164    8.00838E+007    7.99454E+007    7.99454E+007   -1.36906E+005   -1.39867E+005    8.00853E+007   -2.65562E+007    8.00838E+007    7.99454E+007   -1.38415E+005   -1.38359E+005   -6.41441E+002    1.20393E+003   -1.48053E+003
             165    8.00820E+007    7.99439E+007    7.99439E+007   -1.37001E+005   -1.39213E+005    8.00831E+007   -2.65559E+007    8.00820E+007    7.99439E+007   -1.37970E+005   -1.38243E+005    1.43795E+003    1.77011E+003    1.09746E+003
             166    8.00846E+007    7.99461E+007    7.99461E+007   -1.33793E+005   -1.43131E+005    8.00892E+007   -2.65564E+007    8.00846E+007    7.99461E+007   -1.34865E+005   -1.42059E+005   -2.57606E+003    7.84556E+002    2.97702E+003
             167    8.00836E+007    7.99624E+007    7.99624E+007   -9.74035E+004   -1.45096E+005    8.01075E+007   -2.65733E+007    8.00836E+007    7.99624E+007   -1.02213E+005   -1.40284E+005    1.53599E+004    7.66534E+002   -1.43656E+004
             168    8.00736E+007    7.99442E+007    7.99442E+007   -9.44297E+004   -1.64178E+005    8.01084E+007   -2.65619E+007    8.00735E+007    7.99442E+007   -1.00091E+005   -1.58517E+005   -5.46630E+003   -1.67240E+002   -1.90475E+004
             169    8.00837E+007    7.99478E+007    7.99478E+007   -1.04176E+005   -1.67512E+005    8.01153E+007   -2.65587E+007    8.00836E+007    7.99478E+007   -1.11714E+005   -1.59974E+005    4.21881E+003    3.81717E+002   -2.05081E+004
             170    8.00817E+007    7.99438E+007    7.99438E+007   -1.12811E+005   -1.62963E+005    8.01068E+007   -2.65560E+007    8.00817E+007    7.99438E+007   -1.21319E+005   -1.54454E+005   -2.03443E+003   -2.22727E+002   -1.88233E+004
             171    8.00838E+007    7.99451E+007    7.99451E+007   -1.22096E+005   -1.55334E+005    8.01004E+007   -2.65559E+007    8.00838E+007    7.99451E+007   -1.31599E+005   -1.45831E+005    1.43280E+003   -7.92803E+002   -1.50186E+004
             172    8.00822E+007    7.99439E+007    7.99439E+007   -1.28435E+005   -1.48157E+005    8.00920E+007   -2.65558E+007    8.00822E+007    7.99439E+007   -1.38402E+005   -1.38190E+005   -5.92740E+002   -1.52280E+003   -9.86047E+003
             173    8.00831E+007    7.99450E+007    7.99450E+007   -1.32500E+005   -1.43841E+005    8.00888E+007   -2.65562E+007    8.00831E+007    7.99450E+007   -1.42644E+005   -1.33696E+005    6.94199E+001   -1.65251E+003   -3.48422E+003
             174    8.00818E+007    7.99438E+007    7.99438E+007   -1.32736E+005   -1.43130E+005    8.00870E+007   -2.65560E+007    8.00818E+007    7.99438E+007   -1.42219E+005   -1.33647E+005    6.76759E+002   -1.60896E+003    2.93965E+003
             175    8.00837E+007    7.99451E+007    7.99451E+007   -1.29284E+005   -1.47835E+005    8.00930E+007   -2.65560E+007    8.00837E+007    7.99451E+007   -1.38614E+005   -1.38506E+005   -1.30397E+003   -1.62556E+003    9.27529E+003
             176    8.00902E+007    7.99506E+007    7.99506E+007   -1.17175E+005   -1.61927E+005    8.01125E+007   -2.65572E+007    8.00902E+007    7.99506E+007   -1.26766E+005   -1.52334E+005    8.97033E+003   -3.39249E+003   -1.83647E+004
             177    8.00822E+007    7.99412E+007    7.99412E+007   -1.06888E+005   -1.75064E+005    8.01162E+007   -2.65531E+007    8.00821E+007    7.99412E+007   -1.20778E+005   -1.61174E+005   -3.22205E+003   -1.62803E+003   -2.74597E+004
             178    8.00867E+007    7.99438E+007    7.99438E+007   -1.09740E+005   -1.75864E+005    8.01197E+007   -2.65527E+007    8.00866E+007    7.99438E+007   -1.28128E+005   -1.57476E+005    1.67914E+003   -1.84808E+003   -2.96272E+004
             179    8.00842E+007    7.99426E+007    7.99426E+007   -1.13276E+005   -1.69971E+005    8.01126E+007   -2.65531E+007    8.00842E+007    7.99426E+007   -1.34235E+005   -1.49011E+005   -1.22871E+003   -2.64035E+002   -2.73679E+004
             180    8.00846E+007    7.99443E+007    7.99443E+007   -1.18044E+005   -1.62483E+005    8.01068E+007   -2.65546E+007    8.00846E+007    7.99443E+007   -1.41903E+005   -1.38624E+005    6.31666E+001    2.91261E+002   -2.21588E+004
             181    8.00834E+007    7.99449E+007    7.99449E+007   -1.22112E+005   -1.54811E+005    8.00997E+007   -2.65560E+007    8.00834E+007    7.99449E+007   -1.46815E+005   -1.30108E+005   -3.54373E+002    2.22044E+003   -1.40536E+004
             182    8.00832E+007    7.99456E+007    7.99456E+007   -1.24414E+005   -1.50731E+005    8.00963E+007   -2.65568E+007    8.00832E+007    7.99456E+007   -1.49865E+005   -1.25280E+005   -9.42456E+001    1.58060E+003   -4.69637E+003
             183    8.00832E+007    7.99455E+007    7.99455E+007   -1.24857E+005   -1.50425E+005    8.00959E+007   -2.65567E+007    8.00831E+007    7.99455E+007   -1.49106E+005   -1.26175E+005   -1.76615E+001    2.76154E+003    5.65519E+003
             184    8.00838E+007    7.99451E+007    7.99451E+007   -1.22411E+005   -1.54942E+005    8.01001E+007   -2.65559E+007    8.00838E+007    7.99451E+007   -1.45411E+005   -1.31942E+005   -6.85126E+001    1.21921E+003    1.48054E+004
             185    8.00955E+007    7.99379E+007    7.99379E+007   -1.38088E+005   -1.76963E+005    8.01149E+007   -2.65410E+007    8.00954E+007    7.99379E+007   -1.49459E+005   -1.65592E+005   -4.67035E+002   -4.74492E+003   -1.76847E+004
             186    8.00939E+007    7.99398E+007    7.99398E+007   -1.22218E+005   -1.85806E+005    8.01256E+007   -2.65439E+007    8.00938E+007    7.99398E+007   -1.44975E+005   -1.63049E+005   -2.11961E+002    8.82725E+002   -3.04830E+004
             187    8.00899E+007    7.99403E+007    7.99403E+007   -1.16088E+005   -1.83173E+005    8.01235E+007   -2.65470E+007    8.00899E+007    7.99403E+007   -1.44721E+005   -1.54539E+005   -2.65678E+000   -8.81549E+002   -3.31812E+004
             188    8.00875E+007    7.99421E+007    7.99421E+007   -1.13182E+005   -1.77709E+005    8.01198E+007   -2.65504E+007    8.00875E+007    7.99421E+007   -1.48595E+005   -1.42295E+005   -6.77563E+002    1.08694E+002   -3.21090E+004
             189    8.00838E+007    7.99432E+007    7.99432E+007   -1.12163E+005   -1.69076E+005    8.01123E+007   -2.65540E+007    8.00838E+007    7.99432E+007   -1.52453E+005   -1.28786E+005    5.59679E+002   -1.53467E+003   -2.58798E+004
             190    8.00812E+007    7.99442E+007    7.99442E+007   -1.11928E+005   -1.62184E+005    8.01063E+007   -2.65567E+007    8.00812E+007    7.99442E+007   -1.56127E+005   -1.17985E+005   -6.59611E+002   -2.59657E+003   -1.63620E+004
             191    8.00801E+007    7.99449E+007    7.99449E+007   -1.12637E+005   -1.57873E+005    8.01027E+007   -2.65581E+007    8.00801E+007    7.99449E+007   -1.57459E+005   -1.13050E+005    5.45511E+002   -2.62850E+003   -4.30633E+003
             192    8.00802E+007    7.99445E+007    7.99445E+007   -1.12908E+005   -1.58392E+005    8.01029E+007   -2.65577E+007    8.00801E+007    7.99445E+007   -1.56906E+005   -1.14394E+005   -1.52602E+002   -3.04213E+003    8.08625E+003
             193    8.00817E+007    7.99435E+007    7.99435E+007   -1.13226E+005   -1.63107E+005    8.01066E+007   -2.65557E+007    8.00817E+007    7.99435E+007   -1.53554E+005   -1.22779E+005    7.34974E+002   -2.73431E+003    1.96280E+004
             194    8.01026E+007    7.99315E+007    7.99315E+007   -1.57771E+005   -1.84316E+005    8.01158E+007   -2.65298E+007    8.01026E+007    7.99315E+007   -1.69183E+005   -1.72901E+005   -9.52338E+003   -1.09358E+004   -1.31402E+004
             195    8.01005E+007    7.99376E+007    7.99376E+007   -1.36755E+005   -1.88974E+005    8.01266E+007   -2.65373E+007    8.01004E+007    7.99376E+007   -1.62174E+005   -1.63555E+005    9.18896E+002   -3.83861E+003   -2.61002E+004
             196    8.00922E+007    7.99370E+007    7.99370E+007   -1.23362E+005   -1.87147E+005    8.01241E+007   -2.65422E+007    8.00922E+007    7.99370E+007   -1.58926E+005   -1.51583E+005   -4.30853E+003   -4.21663E+003   -3.16807E+004
             197    8.00883E+007    7.99413E+007    7.99413E+007   -1.13163E+005   -1.80837E+005    8.01222E+007   -2.65491E+007    8.00883E+007    7.99413E+007   -1.58792E+005   -1.35207E+005   -2.24443E+002   -7.78113E+002   -3.17154E+004
             198    8.00841E+007    7.99447E+007    7.99447E+007   -1.06262E+005   -1.72637E+005    8.01173E+007   -2.65553E+007    8.00841E+007    7.99447E+007   -1.59722E+005   -1.19177E+005   -2.36680E+003    1.12227E+003   -2.62759E+004
             199    8.00828E+007    7.99490E+007    7.99490E+007   -1.02146E+005   -1.65496E+005    8.01145E+007   -2.65604E+007    8.00828E+007    7.99490E+007   -1.60970E+005   -1.06671E+005   -2.82412E+001    5.01989E+003   -1.63163E+004
             200    8.00804E+007    7.99493E+007    7.99493E+007   -1.00531E+005   -1.61822E+005    8.01111E+007   -2.65623E+007    8.00804E+007    7.99493E+007   -1.61655E+005   -1.00697E+005   -2.89093E+002    4.06347E+003   -3.18993E+003
             201    8.00829E+007    7.99501E+007    7.99501E+007   -1.02101E+005   -1.63404E+005    8.01136E+007   -2.65615E+007    8.00829E+007    7.99501E+007   -1.61333E+005   -1.04171E+005   -1.00639E+003    6.14505E+003    1.10762E+004
             202    8.00836E+007    7.99465E+007    7.99465E+007   -1.05445E+005   -1.68599E+005    8.01151E+007   -2.65575E+007    8.00835E+007    7.99465E+007   -1.58976E+005   -1.15069E+005    1.78593E+003    3.70515E+003    2.26973E+004
             203    8.01167E+007    7.99413E+007    7.99413E+007   -1.71035E+005   -1.79866E+005    8.01212E+007   -2.65301E+007    8.01167E+007    7.99413E+007   -1.74763E+005   -1.76135E+005   -1.21930E+004   -6.97946E+003   -4.36105E+003
             204    8.01113E+007    7.99418E+007    7.99418E+007   -1.51136E+005   -1.87857E+005    8.01297E+007   -2.65343E+007    8.01113E+007    7.99418E+007   -1.72337E+005   -1.66656E+005    2.72505E+002    1.79119E+003   -1.81394E+004
             205    8.00974E+007    7.99390E+007    7.99390E+007   -1.32477E+005   -1.84375E+005    8.01234E+007   -2.65407E+007    8.00974E+007    7.99390E+007   -1.64826E+005   -1.52026E+005   -2.34701E+003   -1.43059E+002   -2.51474E+004
             206    8.00902E+007    7.99431E+007    7.99431E+007   -1.14775E+005   -1.79447E+005    8.01226E+007   -2.65496E+007    8.00902E+007    7.99431E+007   -1.62518E+005   -1.31704E+005   -1.01852E+003    7.29474E+002   -2.84298E+004
             207    8.00788E+007    7.99442E+007    7.99442E+007   -9.93853E+004   -1.69769E+005    8.01140E+007   -2.65583E+007    8.00787E+007    7.99442E+007   -1.60154E+005   -1.09000E+005    7.61324E+002   -2.74693E+003   -2.41713E+004
             208    8.00709E+007    7.99456E+007    7.99456E+007   -8.88088E+004   -1.61803E+005    8.01074E+007   -2.65650E+007    8.00708E+007    7.99456E+007   -1.59001E+005   -9.16112E+004   -1.31506E+003   -6.55978E+003   -1.40263E+004
             209    8.00683E+007    7.99469E+007    7.99469E+007   -8.53209E+004   -1.57442E+005    8.01043E+007   -2.65680E+007    8.00682E+007    7.99469E+007   -1.57418E+005   -8.53441E+004    8.57487E+002   -5.51673E+003   -1.30372E+003
             210    8.00693E+007    7.99451E+007    7.99451E+007   -8.76998E+004   -1.60628E+005    8.01057E+007   -2.65656E+007    8.00692E+007    7.99451E+007   -1.58754E+005   -8.95728E+004    2.12661E+002   -7.61592E+003    1.15385E+004
             211    8.00753E+007    7.99423E+007    7.99423E+007   -9.72824E+004   -1.68647E+005    8.01109E+007   -2.65588E+007    8.00752E+007    7.99423E+007   -1.60142E+005   -1.05787E+005    1.72910E+003   -5.45869E+003    2.31219E+004
             212    8.01370E+007    7.99588E+007    7.99588E+007   -1.73021E+005   -1.83213E+005    8.01420E+007   -2.65342E+007    8.01370E+007    7.99588E+007   -1.79405E+005   -1.76822E+005   -1.57003E+004   -1.71749E+004    4.93280E+003
             213    8.01127E+007    7.99430E+007    7.99430E+007   -1.65139E+005   -1.74308E+005    8.01173E+007   -2.65345E+007    8.01127E+007    7.99430E+007   -1.70492E+005   -1.68951E+005   -6.41822E+003   -1.58417E+004   -4.51857E+003
             214    8.00976E+007    7.99369E+007    7.99369E+007   -1.44710E+005   -1.76649E+005    8.01136E+007   -2.65385E+007    8.00976E+007    7.99369E+007   -1.67436E+005   -1.53921E+005   -1.11000E+004   -8.95770E+003   -1.44674E+004
             215    8.00874E+007    7.99419E+007    7.99419E+007   -1.23542E+005   -1.67326E+005    8.01093E+007   -2.65504E+007    8.00874E+007    7.99419E+007   -1.59833E+005   -1.31035E+005   -3.21471E+003   -2.61845E+003   -1.64905E+004
             216    8.00814E+007    7.99539E+007    7.99539E+007   -1.03790E+005   -1.51160E+005    8.01050E+007   -2.65663E+007    8.00813E+007    7.99539E+007   -1.46564E+005   -1.08386E+005   -5.87631E+003    6.77804E+003   -1.40221E+004
             217    8.00793E+007    7.99661E+007    7.99661E+007   -8.88845E+004   -1.37420E+005    8.01036E+007   -2.65799E+007    8.00793E+007    7.99661E+007   -1.35892E+005   -9.04093E+004    9.14118E+000    1.56901E+004   -8.47461E+003
             218    8.00754E+007    7.99674E+007    7.99674E+007   -8.31936E+004   -1.32817E+005    8.01002E+007   -2.65838E+007    8.00754E+007    7.99674E+007   -1.32806E+005   -8.32011E+004   -1.44979E+003    1.50134E+004    7.14688E+002
             219    8.00827E+007    7.99684E+007    7.99684E+007   -8.91868E+004   -1.39322E+005    8.01077E+007   -2.65800E+007    8.00826E+007    7.99684E+007   -1.36850E+005   -9.16534E+004   -2.18258E+003    1.92798E+004    1.08526E+004
             220    8.00881E+007    7.99590E+007    7.99590E+007   -1.04069E+005   -1.54047E+005    8.01131E+007   -2.65670E+007    8.00881E+007    7.99590E+007   -1.46492E+005   -1.11621E+005    1.47494E+003    1.50496E+004    1.79034E+004
             221    8.00255E+007    7.99053E+007    7.99053E+007   -1.15351E+005   -1.25089E+005    8.00304E+007   -2.65549E+007    8.00255E+007    7.99053E+007   -1.22862E+005   -1.17575E+005    1.47443E+003   -1.49285E+004   -4.09057E+003
             222    7.99994E+007    7.99072E+007    7.99072E+007   -8.98100E+004   -9.44814E+004    8.00017E+007   -2.65743E+007    7.99994E+007    7.99072E+007   -9.39810E+004   -9.03054E+004    2.78972E+003   -1.96886E+004   -1.44524E+003
             223    7.99974E+007    7.99178E+007    7.99178E+007   -7.76705E+004   -8.14730E+004    7.99993E+007   -2.65862E+007    7.99974E+007    7.99178E+007   -8.12890E+004   -7.78521E+004    1.19225E+003   -1.39689E+004    8.15707E+002
             224    8.00093E+007    7.99207E+007    7.99207E+007   -8.50414E+004   -9.21353E+004    8.00129E+007   -2.65812E+007    8.00093E+007    7.99207E+007   -8.99339E+004   -8.72394E+004   -2.67901E+003   -1.65357E+004    3.28237E+003
             225    8.00454E+007    7.99323E+007    7.99323E+007   -1.06664E+005   -1.19514E+005    8.00518E+007   -2.65687E+007    8.00454E+007    7.99323E+007   -1.15451E+005   -1.10725E+005    4.39387E+003   -6.38456E+003    5.97425E+003
             226    8.00992E+007    7.99558E+007    7.99558E+007   -1.35773E+005   -1.51060E+005    8.01068E+007   -2.65563E+007    8.00992E+007    7.99558E+007   -1.49276E+005   -1.37557E+005    1.80496E+003    4.65369E+003    4.90820E+003
             227    8.01398E+007    7.99709E+007    7.99709E+007   -1.61680E+005   -1.76006E+005    8.01469E+007   -2.65444E+007    8.01398E+007    7.99709E+007   -1.75996E+005   -1.61687E+005    1.14411E+004    1.15200E+004   -3.33449E+002
             228    8.01912E+007    8.00118E+007    8.00118E+007   -1.69141E+005   -1.89749E+005    8.02015E+007   -2.65510E+007    8.01912E+007    8.00117E+007   -1.83556E+005   -1.75322E+005    1.71460E+004    2.59437E+004   -9.44131E+003
             229    8.02456E+007    8.00651E+007    8.00651E+007   -1.61938E+005   -1.99013E+005    8.02641E+007   -2.65681E+007    8.02456E+007    8.00651E+007   -1.68754E+005   -1.92136E+005    4.71414E+004    5.15720E+004   -1.43532E+004
             230    7.99932E+007    7.99098E+007    7.99098E+007   -8.14389E+004   -8.52818E+004    7.99951E+007   -2.65810E+007    7.99932E+007    7.99098E+007   -8.23405E+004   -8.43763E+004   -1.76372E+004   -1.63555E+002    1.63097E+003
             231    8.00157E+007    7.99120E+007    7.99120E+007   -1.00035E+005   -1.07357E+005    8.00194E+007   -2.65682E+007    8.00157E+007    7.99120E+007   -1.01880E+005   -1.05509E+005   -1.52513E+004   -2.52869E+003    3.18085E+003
             232    8.00539E+007    7.99194E+007    7.99194E+007   -1.31076E+005   -1.37817E+005    8.00572E+007   -2.65502E+007    8.00539E+007    7.99194E+007   -1.32732E+005   -1.36160E+005   -9.08456E+003    1.78758E+002    2.90195E+003
             233    8.01056E+007    7.99418E+007    7.99418E+007   -1.60461E+005   -1.67120E+005    8.01089E+007   -2.65381E+007    8.01056E+007    7.99418E+007   -1.62813E+005   -1.64767E+005    1.86869E+003    4.59404E+003    3.18308E+003
             234    8.01510E+007    7.99673E+007    7.99673E+007   -1.80691E+005   -1.86760E+005    8.01541E+007   -2.65333E+007    8.01510E+007    7.99673E+007   -1.81124E+005   -1.86323E+005    1.34059E+004    1.10683E+004    1.56843E+003
             235    8.01913E+007    7.99984E+007    7.99984E+007   -1.91039E+005   -1.94688E+005    8.01931E+007   -2.65376E+007    8.01913E+007    7.99984E+007   -1.91080E+005   -1.94638E+005    1.92580E+004    1.71966E+004    4.10607E+002
             236    8.02444E+007    8.00558E+007    8.00558E+007   -1.79617E+005   -1.97615E+005    8.02534E+007   -2.65595E+007    8.02444E+007    8.00557E+007   -1.80614E+005   -1.96560E+005    4.52504E+004    5.10546E+004   -4.13735E+003
             237    8.00317E+007    7.99206E+007    7.99206E+007   -6.90762E+004   -1.53090E+005    8.00737E+007   -2.65662E+007    8.00316E+007    7.99206E+007   -6.95236E+004   -1.52642E+005   -9.87338E+003   -3.03000E+002   -6.12308E+003
             238    8.00956E+007    7.99654E+007    7.99654E+007   -9.87875E+004   -1.61642E+005    8.01270E+007   -2.65683E+007    8.00956E+007    7.99654E+007   -9.96586E+004   -1.60771E+005   -3.10677E+003   -2.77519E+002   -7.34818E+003
             239    8.00703E+007    7.99364E+007    7.99364E+007   -1.05931E+005   -1.61736E+005    8.00982E+007   -2.65563E+007    8.00702E+007    7.99364E+007   -1.06757E+005   -1.60910E+005    2.12110E+003   -2.35947E+001   -6.74209E+003
             240    8.00891E+007    7.99505E+007    7.99505E+007   -1.26159E+005   -1.51107E+005    8.01016E+007   -2.65577E+007    8.00891E+007    7.99505E+007   -1.27322E+005   -1.49944E+005   -2.38631E+003    3.92699E+002   -5.26047E+003
             241    8.00438E+007    7.99232E+007    7.99232E+007   -8.15400E+004   -1.59532E+005    8.00828E+007   -2.65607E+007    8.00437E+007    7.99232E+007   -8.52225E+004   -1.55848E+005   -8.44033E+003    2.90944E+003   -1.65444E+004
             242    8.00944E+007    7.99600E+007    7.99600E+007   -1.00580E+005   -1.68058E+005    8.01281E+007   -2.65638E+007    8.00943E+007    7.99600E+007   -1.07369E+005   -1.61269E+005   -2.05782E+003    1.82603E+003   -2.02983E+004
             243    8.00740E+007    7.99373E+007    7.99373E+007   -1.07357E+005   -1.66151E+005    8.01034E+007   -2.65546E+007    8.00740E+007    7.99373E+007   -1.14567E+005   -1.58941E+005    1.51219E+003    5.77390E+002   -1.92856E+004
             244    8.00883E+007    7.99490E+007    7.99490E+007   -1.22647E+005   -1.55910E+005    8.01049E+007   -2.65568E+007    8.00883E+007    7.99490E+007   -1.31676E+005   -1.46881E+005   -1.29708E+003    3.21483E+002   -1.47919E+004
             245    8.00727E+007    7.99354E+007    7.99354E+007   -1.00757E+005   -1.73820E+005    8.01092E+007   -2.65536E+007    8.00726E+007    7.99354E+007   -1.10669E+005   -1.63908E+005   -3.32891E+003    3.58208E+003   -2.50190E+004
             246    8.00921E+007    7.99494E+007    7.99494E+007   -1.06483E+005   -1.78865E+005    8.01283E+007   -2.65547E+007    8.00921E+007    7.99494E+007   -1.22160E+005   -1.63188E+005   -1.61358E+003    1.26079E+003   -2.98152E+004
             247    8.00830E+007    7.99414E+007    7.99414E+007   -1.08998E+005   -1.74111E+005    8.01155E+007   -2.65528E+007    8.00829E+007    7.99414E+007   -1.27831E+005   -1.55278E+005    1.44887E+003    5.55952E+002   -2.95231E+004
             248    8.00860E+007    7.99451E+007    7.99451E+007   -1.17574E+005   -1.64165E+005    8.01093E+007   -2.65545E+007    8.00860E+007    7.99451E+007   -1.39765E+005   -1.41974E+005   -6.96346E+002    9.50831E+002   -2.32695E+004
             249    8.01056E+007    7.99461E+007    7.99461E+007   -1.25161E+005   -1.93658E+005    8.01398E+007   -2.65424E+007    8.01055E+007    7.99461E+007   -1.43605E+005   -1.75214E+005   -3.17297E+002    5.24616E+003   -3.03834E+004
             250    8.00895E+007    7.99375E+007    7.99375E+007   -1.15626E+005   -1.88275E+005    8.01258E+007   -2.65445E+007    8.00894E+007    7.99375E+007   -1.39529E+005   -1.64371E+005    2.43107E+003    5.31261E+003   -3.41345E+004
             251    8.00908E+007    7.99427E+007    7.99427E+007   -1.12192E+005   -1.83894E+005    8.01266E+007   -2.65489E+007    8.00907E+007    7.99427E+007   -1.44731E+005   -1.51355E+005    5.31537E+002    9.17583E+002   -3.56972E+004
             252    8.00855E+007    7.99431E+007    7.99431E+007   -1.12561E+005   -1.72295E+005    8.01154E+007   -2.65527E+007    8.00854E+007    7.99431E+007   -1.48944E+005   -1.35912E+005    1.83226E+003    8.45423E+002   -2.91474E+004
             253    8.01421E+007    7.99613E+007    7.99613E+007   -1.44797E+005   -2.16700E+005    8.01780E+007   -2.65333E+007    8.01420E+007    7.99613E+007   -1.71689E+005   -1.89808E+005    1.61707E+003    1.64466E+003   -3.47912E+004
             254    8.00967E+007    7.99330E+007    7.99330E+007   -1.28375E+005   -1.99114E+005    8.01321E+007   -2.65352E+007    8.00966E+007    7.99330E+007   -1.58163E+005   -1.69326E+005    4.39983E+003    2.68049E+003   -3.49261E+004
             255    8.01006E+007    7.99461E+007    7.99461E+007   -1.16048E+005   -1.92829E+005    8.01389E+007   -2.65457E+007    8.01005E+007    7.99461E+007   -1.59543E+005   -1.49334E+005    6.22209E+002    7.92765E+002   -3.80497E+004
             256    8.00839E+007    7.99396E+007    7.99396E+007   -1.08595E+005   -1.80004E+005    8.01196E+007   -2.65503E+007    8.00838E+007    7.99396E+007   -1.58647E+005   -1.29952E+005    2.38032E+003    9.26753E+002   -3.26948E+004
             257    8.01585E+007    7.99586E+007    7.99586E+007   -1.61874E+005   -2.37979E+005    8.01965E+007   -2.65196E+007    8.01584E+007    7.99586E+007   -2.01103E+005   -1.98749E+005   -4.16304E+003   -3.70339E+002   -3.80341E+004
             258    8.00995E+007    7.99251E+007    7.99251E+007   -1.44224E+005   -2.04616E+005    8.01297E+007   -2.65254E+007    8.00995E+007    7.99251E+007   -1.75222E+005   -1.73616E+005    9.85507E+003    7.90119E+003   -3.01840E+004
             259    8.01023E+007    7.99411E+007    7.99411E+007   -1.24745E+005   -1.97564E+005    8.01387E+007   -2.65396E+007    8.01022E+007    7.99411E+007   -1.72371E+005   -1.49938E+005    1.54233E+003    1.26646E+003   -3.46387E+004
             260    8.00881E+007    7.99425E+007    7.99425E+007   -1.09552E+005   -1.81563E+005    8.01240E+007   -2.65505E+007    8.00880E+007    7.99425E+007   -1.63845E+005   -1.27269E+005    4.87013E+003   -3.10406E+002   -3.10152E+004
             261    8.01906E+007    7.99734E+007    7.99734E+007   -1.76592E+005   -2.57669E+005    8.02311E+007   -2.65131E+007    8.01905E+007    7.99734E+007   -2.18987E+005   -2.15266E+005   -1.81712E+004   -1.70859E+004   -4.04923E+004
             262    8.01415E+007    7.99472E+007    7.99472E+007   -1.59345E+005   -2.29037E+005    8.01763E+007   -2.65196E+007    8.01414E+007    7.99472E+007   -1.97750E+005   -1.90632E+005    1.32509E+003   -4.10774E+003   -3.46638E+004
             263    8.01191E+007    7.99481E+007    7.99481E+007   -1.38856E+005   -2.03035E+005    8.01512E+007   -2.65354E+007    8.01190E+007    7.99481E+007   -1.85191E+005   -1.56701E+005    1.57549E+003    4.45369E+002   -2.87547E+004
             264    8.00824E+007    7.99359E+007    7.99359E+007   -1.14891E+005   -1.78103E+005    8.01140E+007   -2.65476E+007    8.00824E+007    7.99359E+007   -1.66980E+005   -1.26013E+005    4.02156E+003   -1.98676E+003   -2.40694E+004
             265    8.00946E+007    7.99475E+007    7.99475E+007   -1.36191E+005   -1.57859E+005    8.01054E+007   -2.65512E+007    8.00946E+007    7.99475E+007   -1.57857E+005   -1.36193E+005   -2.36444E+003    4.88385E+003    1.94367E+002
             266    8.01027E+007    7.99121E+007    7.99121E+007   -1.77691E+005   -2.03451E+005    8.01156E+007   -2.65103E+007    8.01027E+007    7.99121E+007   -2.03449E+005   -1.77692E+005   -8.16069E+003   -5.36703E+003   -2.02760E+002
             267    8.00968E+007    7.98768E+007    7.98768E+007   -1.94668E+005   -2.45244E+005    8.01221E+007   -2.64790E+007    8.00968E+007    7.98768E+007   -2.44414E+005   -1.95491E+005   -2.09081E+004   -1.35292E+004   -6.40158E+003
             268    8.00406E+007    7.98078E+007    7.98078E+007   -1.93466E+005   -2.72029E+005    8.00799E+007   -2.64474E+007    8.00405E+007    7.98078E+007   -2.53992E+005   -2.11473E+005   -4.03401E+004   -2.69657E+004   -3.30140E+004
             269    8.00618E+007    8.00072E+007    8.00072E+007   -4.59742E+004   -6.33656E+004    8.00705E+007   -2.66326E+007    8.00618E+007    8.00072E+007   -4.60178E+004   -6.33162E+004    2.15231E+004    1.25144E+003    9.26400E+002
             270    8.00736E+007    7.99922E+007    7.99922E+007   -7.13039E+004   -9.15658E+004    8.00837E+007   -2.66098E+007    8.00736E+007    7.99921E+007   -7.12998E+004   -9.15658E+004    1.81612E+004    4.90767E+002    2.17703E+001
             271    8.00855E+007    7.99601E+007    7.99601E+007   -1.15316E+005   -1.35573E+005    8.00957E+007   -2.65697E+007    8.00855E+007    7.99601E+007   -1.15315E+005   -1.35573E+005    7.88439E+003   -2.57478E+003   -2.55694E+001
             272    8.00944E+007    7.99215E+007    7.99215E+007   -1.61243E+005   -1.84566E+005    8.01061E+007   -2.65252E+007    8.00944E+007    7.99215E+007   -1.61260E+005   -1.84548E+005   -3.73427E+003   -8.14283E+003   -6.34271E+002
             273    8.00936E+007    7.98802E+007    7.98802E+007   -2.00070E+005   -2.26642E+005    8.01068E+007   -2.64845E+007    8.00935E+007    7.98802E+007   -2.00068E+005   -2.26638E+005   -1.70981E+004   -1.57344E+004   -2.09006E+002
             274    8.00815E+007    7.98480E+007    7.98480E+007   -2.07019E+005   -2.60088E+005    8.01080E+007   -2.64603E+007    8.00815E+007    7.98479E+007   -2.07631E+005   -2.59461E+005   -2.59839E+004   -2.45631E+004   -5.69354E+003
             275    8.00337E+007    7.97966E+007    7.97966E+007   -1.96198E+005   -2.77937E+005    8.00746E+007   -2.64408E+007    8.00336E+007    7.97966E+007   -2.14654E+005   -2.59447E+005   -3.51216E+004   -3.82868E+004   -3.41690E+004
             276    8.00796E+007    7.99788E+007    7.99788E+007   -9.23252E+004   -1.09300E+005    8.00881E+007   -2.65924E+007    8.00796E+007    7.99788E+007   -1.09082E+005   -9.25412E+004    7.81708E+002    1.28405E+004    1.91183E+003
             277    8.00647E+007    8.00002E+007    8.00002E+007   -5.79436E+004   -7.11304E+004    8.00713E+007   -2.66237E+007    8.00647E+007    8.00002E+007   -7.06783E+004   -5.83916E+004    1.98415E+003    1.80744E+004    2.39985E+003
             278    8.00556E+007    8.00053E+007    8.00053E+007   -4.63188E+004   -5.44258E+004    8.00597E+007   -2.66348E+007    8.00556E+007    8.00052E+007   -5.43939E+004   -4.63466E+004    2.12228E+002    1.80152E+004    5.07099E+002
             279    8.00640E+007    7.99994E+007    7.99994E+007   -5.87743E+004   -7.04870E+004    8.00698E+007   -2.66234E+007    8.00640E+007    7.99994E+007   -7.01829E+004   -5.90747E+004   -1.41046E+003    1.73080E+004   -1.86286E+003
             280    8.00781E+007    7.99763E+007    7.99763E+007   -9.41446E+004   -1.09460E+005    8.00857E+007   -2.65909E+007    8.00781E+007    7.99763E+007   -1.09306E+005   -9.42967E+004    3.83620E+002    1.13464E+004   -1.52634E+003
             281    8.00913E+007    7.99412E+007    7.99412E+007   -1.39788E+005   -1.60454E+005    8.01017E+007   -2.65470E+007    8.00913E+007    7.99412E+007   -1.60420E+005   -1.39821E+005    4.71660E+003    1.72721E+003   -8.30674E+002
             282    8.00944E+007    7.99004E+007    7.99004E+007   -1.79281E+005   -2.08729E+005    8.01091E+007   -2.65041E+007    8.00944E+007    7.99004E+007   -2.08442E+005   -1.79566E+005    1.15910E+004   -9.57636E+003    2.88645E+003
             283    8.00810E+007    7.98584E+007    7.98584E+007   -2.02435E+005   -2.42668E+005    8.01011E+007   -2.64711E+007    8.00809E+007    7.98584E+007   -2.36291E+005   -2.08800E+005    2.39174E+004   -2.08863E+004    1.46809E+004
             284    8.00258E+007    7.97937E+007    7.97937E+007   -2.16595E+005   -2.47575E+005    8.00412E+007   -2.64432E+007    8.00257E+007    7.97936E+007   -2.24930E+005   -2.39212E+005    3.26368E+004   -3.38576E+004    1.37315E+004
             285    8.00555E+007    7.99330E+007    7.99330E+007   -8.77697E+004   -1.57107E+005    8.00901E+007   -2.65627E+007    8.00554E+007    7.99330E+007   -1.52580E+005   -9.22966E+004    1.66939E+003   -3.30399E+003   -1.71290E+004
             286    8.00886E+007    7.99548E+007    7.99548E+007   -9.72808E+004   -1.70291E+005    8.01251E+007   -2.65624E+007    8.00886E+007    7.99548E+007   -1.61382E+005   -1.06190E+005    2.06357E+002   -4.04599E+003   -2.38977E+004
             287    8.00798E+007    7.99436E+007    7.99436E+007   -1.01471E+005   -1.70886E+005    8.01144E+007   -2.65571E+007    8.00797E+007    7.99436E+007   -1.61927E+005   -1.10430E+005    3.01941E+002    1.28363E+003   -2.32723E+004
             288    8.00858E+007    7.99470E+007    7.99470E+007   -1.13193E+005   -1.64428E+005    8.01114E+007   -2.65565E+007    8.00858E+007    7.99470E+007   -1.54564E+005   -1.23057E+005    8.85769E+001   -2.12656E+003   -2.02007E+004
             289    8.00810E+007    7.99428E+007    7.99428E+007   -1.21399E+005   -1.55015E+005    8.00978E+007   -2.65555E+007    8.00810E+007    7.99428E+007   -1.45594E+005   -1.30820E+005    9.63930E+002    1.04427E+003   -1.50975E+004
             290    8.00803E+007    7.99421E+007    7.99421E+007   -1.28613E+005   -1.47665E+005    8.00898E+007   -2.65553E+007    8.00803E+007    7.99421E+007   -1.37217E+005   -1.39061E+005    1.21524E+003   -1.22486E+003   -9.48125E+003
             291    8.00785E+007    7.99410E+007    7.99410E+007   -1.31633E+005   -1.43470E+005    8.00844E+007   -2.65553E+007    8.00785E+007    7.99410E+007   -1.32529E+005   -1.42574E+005    1.78847E+003    9.53550E+002   -3.13068E+003
             292    8.00343E+007    7.99290E+007    7.99290E+007   -6.88901E+004   -1.41699E+005    8.00707E+007   -2.65728E+007    8.00342E+007    7.99290E+007   -1.40612E+005   -6.99768E+004    9.61607E+002   -5.75668E+003   -8.83011E+003
             293    8.00830E+007    7.99589E+007    7.99589E+007   -8.91694E+004   -1.59042E+005    8.01179E+007   -2.65702E+007    8.00829E+007    7.99589E+007   -1.56985E+005   -9.12263E+004    1.31330E+003   -4.23142E+003   -1.18111E+004
             294    8.00716E+007    7.99408E+007    7.99408E+007   -9.76010E+004   -1.63962E+005    8.01048E+007   -2.65598E+007    8.00716E+007    7.99408E+007   -1.62320E+005   -9.92424E+004    8.18261E+002    1.33137E+003   -1.03067E+004
             295    8.00841E+007    7.99481E+007    7.99481E+007   -1.13694E+005   -1.58288E+005    8.01064E+007   -2.65587E+007    8.00841E+007    7.99481E+007   -1.56900E+005   -1.15082E+005    5.50781E+002   -1.72406E+003   -7.74513E+003
             296    8.00816E+007    7.99441E+007    7.99441E+007   -1.23813E+005   -1.51218E+005    8.00953E+007   -2.65564E+007    8.00816E+007    7.99441E+007   -1.50224E+005   -1.24807E+005   -3.70063E+002    1.56514E+003   -5.12292E+003
             297    8.00860E+007    7.99474E+007    7.99474E+007   -1.33032E+005   -1.44144E+005    8.00916E+007   -2.65568E+007    8.00860E+007    7.99474E+007   -1.43434E+005   -1.33742E+005   -5.67252E+002   -9.56224E+002   -2.71795E+003
             298    8.00858E+007    7.99470E+007    7.99470E+007   -1.37373E+005   -1.40156E+005    8.00872E+007   -2.65565E+007    8.00858E+007    7.99470E+007   -1.39740E+005   -1.37789E+005   -1.13126E+003    1.14975E+003   -9.92168E+002
             299    8.00311E+007    7.99318E+007    7.99318E+007   -6.11367E+004   -1.37424E+005    8.00692E+007   -2.65778E+007    8.00310E+007    7.99318E+007   -1.37412E+005   -6.11483E+004   -4.81055E+002   -5.06482E+003    9.51185E+002
             300    8.00839E+007    7.99619E+007    7.99619E+007   -8.72407E+004   -1.56696E+005    8.01186E+007   -2.65727E+007    8.00838E+007    7.99619E+007   -1.56629E+005   -8.73073E+004   -6.73575E+002   -5.45937E+003    2.15502E+003
             301    8.00728E+007    7.99430E+007    7.99430E+007   -9.56759E+004   -1.63854E+005    8.01069E+007   -2.65612E+007    8.00728E+007    7.99430E+007   -1.63583E+005   -9.59471E+004   -3.47353E+002    1.62504E+003    4.29172E+003
             302    8.00849E+007    7.99489E+007    7.99489E+007   -1.13761E+005   -1.58327E+005    8.01072E+007   -2.65589E+007    8.00849E+007    7.99489E+007   -1.57746E+005   -1.14342E+005   -3.72672E+002   -2.89873E+003    5.05554E+003
             303    8.00801E+007    7.99430E+007    7.99430E+007   -1.23403E+005   -1.50832E+005    8.00938E+007   -2.65562E+007    8.00801E+007    7.99430E+007   -1.49788E+005   -1.24447E+005    2.02588E+002    1.49438E+003    5.24799E+003
             304    8.00820E+007    7.99440E+007    7.99440E+007   -1.33100E+005   -1.43025E+005    8.00870E+007   -2.65559E+007    8.00820E+007    7.99440E+007   -1.41545E+005   -1.34580E+005    1.95063E+002   -1.67840E+003    3.53557E+003
             305    8.00802E+007    7.99424E+007    7.99424E+007   -1.36155E+005   -1.39471E+005    8.00819E+007   -2.65556E+007    8.00802E+007    7.99424E+007   -1.37031E+005   -1.38595E+005    5.40128E+002    1.33835E+003    1.46219E+003
             306    8.00367E+007    7.99307E+007    7.99307E+007   -7.01902E+004   -1.41871E+005    8.00726E+007   -2.65729E+007    8.00367E+007    7.99307E+007   -1.40334E+005   -7.17269E+004   -1.07753E+003   -4.99564E+003    1.03831E+004
             307    8.00841E+007    7.99579E+007    7.99579E+007   -9.08754E+004   -1.61451E+005    8.01194E+007   -2.65685E+007    8.00841E+007    7.99579E+007   -1.57736E+005   -9.45905E+004   -1.08439E+003   -3.96644E+003    1.57609E+004
             308    8.00737E+007    7.99408E+007    7.99408E+007   -9.87529E+004   -1.67103E+005    8.01079E+007   -2.65583E+007    8.00737E+007    7.99408E+007   -1.62140E+005   -1.03716E+005   -6.34750E+002    1.53297E+003    1.77368E+004
             309    8.00853E+007    7.99474E+007    7.99474E+007   -1.12830E+005   -1.62951E+005    8.01103E+007   -2.65572E+007    8.00852E+007    7.99474E+007   -1.55727E+005   -1.20054E+005   -4.54605E+002   -1.45044E+003    1.76040E+004
             310    8.00822E+007    7.99437E+007    7.99437E+007   -1.21477E+005   -1.55592E+005    8.00992E+007   -2.65555E+007    8.00822E+007    7.99437E+007   -1.47142E+005   -1.29926E+005   -1.98943E+002    1.57987E+003    1.47264E+004
             311    8.00857E+007    7.99469E+007    7.99469E+007   -1.28821E+005   -1.48927E+005    8.00958E+007   -2.65564E+007    8.00857E+007    7.99469E+007   -1.38871E+005   -1.38877E+005    1.57550E+002   -7.79142E+002    1.00530E+004
             312    8.00850E+007    7.99465E+007    7.99465E+007   -1.33028E+005   -1.43917E+005    8.00904E+007   -2.65565E+007    8.00850E+007    7.99465E+007   -1.34156E+005   -1.42790E+005    1.23113E+002    9.97988E+002    3.31710E+003
             313    8.00603E+007    7.99351E+007    7.99351E+007   -9.14829E+004   -1.58747E+005    8.00939E+007   -2.65616E+007    8.00602E+007    7.99351E+007   -1.53394E+005   -9.68351E+004   -2.37471E+003   -2.58247E+003    1.82036E+004
             314    8.00896E+007    7.99525E+007    7.99525E+007   -1.00663E+005   -1.73427E+005    8.01259E+007   -2.65595E+007    8.00895E+007    7.99525E+007   -1.62053E+005   -1.12037E+005   -1.90552E+003   -3.11398E+003    2.64244E+004
             315    8.00825E+007    7.99422E+007    7.99422E+007   -1.04194E+005   -1.76393E+005    8.01186E+007   -2.65539E+007    8.00825E+007    7.99422E+007   -1.61969E+005   -1.18619E+005   -1.01650E+003    1.45994E+003    2.88680E+004
             316    8.00874E+007    7.99456E+007    7.99456E+007   -1.12648E+005   -1.71033E+005    8.01166E+007   -2.65540E+007    8.00874E+007    7.99456E+007   -1.52255E+005   -1.31426E+005   -8.37501E+002   -1.27720E+003    2.72718E+004
             317    8.00827E+007    7.99426E+007    7.99426E+007   -1.17184E+005   -1.63014E+005    8.01056E+007   -2.65541E+007    8.00826E+007    7.99426E+007   -1.40743E+005   -1.39455E+005   -3.74930E+002    1.16984E+003    2.29058E+004
             318    8.00816E+007    7.99432E+007    7.99432E+007   -1.21117E+005   -1.55620E+005    8.00989E+007   -2.65555E+007    8.00816E+007    7.99432E+007   -1.29593E+005   -1.47145E+005   -6.82320E+002   -7.19469E+002    1.48526E+004
             319    8.00793E+007    7.99424E+007    7.99424E+007   -1.22426E+005   -1.51425E+005    8.00938E+007   -2.65562E+007    8.00793E+007    7.99424E+007   -1.23400E+005   -1.50451E+005   -5.14347E+002    8.13632E+002    5.22470E+003
             320    8.00908E+007    7.99404E+007    7.99404E+007   -1.18970E+005   -1.81727E+005    8.01222E+007   -2.65466E+007    8.00908E+007    7.99404E+007   -1.69145E+005   -1.31552E+005   -3.20115E+003   -1.14219E+003    2.51263E+004
             321    8.00920E+007    7.99414E+007    7.99414E+007   -1.15008E+005   -1.86025E+005    8.01275E+007   -2.65468E+007    8.00919E+007    7.99414E+007   -1.66463E+005   -1.34570E+005   -4.29266E+003    9.47612E+002    3.17268E+004
             322    8.00894E+007    7.99401E+007    7.99401E+007   -1.12752E+005   -1.85818E+005    8.01259E+007   -2.65472E+007    8.00894E+007    7.99401E+007   -1.59848E+005   -1.38722E+005   -1.91317E+003    1.37454E+003    3.49722E+004
             323    8.00882E+007    7.99419E+007    7.99419E+007   -1.12895E+005   -1.79694E+005    8.01216E+007   -2.65498E+007    8.00882E+007    7.99419E+007   -1.47835E+005   -1.44753E+005   -1.45914E+003    1.55508E+003    3.33639E+004
             324    8.00864E+007    7.99443E+007    7.99443E+007   -1.12772E+005   -1.71349E+005    8.01156E+007   -2.65534E+007    8.00863E+007    7.99443E+007   -1.33588E+005   -1.50533E+005    3.86376E+002    1.02778E+003    2.80365E+004
             325    8.00861E+007    7.99477E+007    7.99477E+007   -1.13325E+005   -1.63295E+005    8.01110E+007   -2.65570E+007    8.00860E+007    7.99477E+007   -1.21675E+005   -1.54945E+005    1.34206E+003    7.33020E+002    1.86418E+004
             326    8.00854E+007    7.99494E+007    7.99494E+007   -1.13724E+005   -1.58251E+005    8.01076E+007   -2.65591E+007    8.00853E+007    7.99494E+007   -1.14665E+005   -1.57309E+005    1.94100E+003    4.55589E+001    6.40741E+003
             327    8.01270E+007    7.99505E+007    7.99505E+007   -1.44437E+005   -2.08404E+005    8.01589E+007   -2.65326E+007    8.01269E+007    7.99505E+007   -1.86044E+005   -1.66797E+005   -2.70332E+002   -1.12006E+003    3.05019E+004
             328    8.01039E+007    7.99378E+007    7.99378E+007   -1.32805E+005   -1.99355E+005    8.01371E+007   -2.65352E+007    8.01038E+007    7.99378E+007   -1.74247E+005   -1.57913E+005   -3.09220E+003    2.99086E+003    3.22575E+004
             329    8.01030E+007    7.99432E+007    7.99432E+007   -1.22426E+005   -1.97108E+005    8.01403E+007   -2.65412E+007    8.01029E+007    7.99432E+007   -1.62157E+005   -1.57377E+005   -8.64629E+002    9.26992E+002    3.72644E+004
             330    8.00921E+007    7.99411E+007    7.99411E+007   -1.14450E+005   -1.87505E+005    8.01286E+007   -2.65464E+007    8.00920E+007    7.99411E+007   -1.44171E+005   -1.57785E+005   -8.62159E+002    2.04656E+003    3.58876E+004
             331    8.00846E+007    7.99424E+007    7.99424E+007   -1.06822E+005   -1.77665E+005    8.01200E+007   -2.65526E+007    8.00846E+007    7.99424E+007   -1.24447E+005   -1.60040E+005   -4.46709E+002    5.84061E+002    3.06265E+004
             332    8.00751E+007    7.99409E+007    7.99409E+007   -1.00112E+005   -1.68226E+005    8.01091E+007   -2.65575E+007    8.00750E+007    7.99409E+007   -1.06781E+005   -1.61557E+005   -1.09789E+003    1.08940E+003    2.02431E+004
             333    8.00708E+007    7.99412E+007    7.99412E+007   -9.59163E+004   -1.63307E+005    8.01045E+007   -2.65607E+007    8.00708E+007    7.99412E+007   -9.66270E+004   -1.62597E+005   -9.11097E+002   -2.48086E+001    6.88385E+003
             334    8.01479E+007    7.99483E+007    7.99483E+007   -1.69409E+005   -2.29828E+005    8.01781E+007   -2.65163E+007    8.01478E+007    7.99483E+007   -1.97722E+005   -2.01514E+005    3.16125E+003   -7.39959E+003    3.01499E+004
             335    8.01086E+007    7.99276E+007    7.99276E+007   -1.52869E+005   -2.09145E+005    8.01368E+007   -2.65219E+007    8.01086E+007    7.99276E+007   -1.82554E+005   -1.79458E+005   -6.18776E+003    7.31763E+003    2.80949E+004
             336    8.01049E+007    7.99359E+007    7.99359E+007   -1.35808E+005   -2.02031E+005    8.01380E+007   -2.65327E+007    8.01048E+007    7.99359E+007   -1.63025E+005   -1.74814E+005   -2.98006E+003    2.22670E+003    3.25823E+004
             337    8.00921E+007    7.99371E+007    7.99371E+007   -1.20444E+005   -1.89512E+005    8.01266E+007   -2.65424E+007    8.00920E+007    7.99371E+007   -1.42956E+005   -1.67000E+005   -1.42258E+003    5.17787E+003    3.23738E+004
             338    8.00893E+007    7.99479E+007    7.99479E+007   -1.05472E+005   -1.77293E+005    8.01252E+007   -2.65550E+007    8.00892E+007    7.99479E+007   -1.19821E+005   -1.62944E+005    1.95604E+003    1.34359E+003    2.87168E+004
             339    8.00865E+007    7.99567E+007    7.99567E+007   -9.53104E+004   -1.64334E+005    8.01210E+007   -2.65657E+007    8.00865E+007    7.99567E+007   -1.01474E+005   -1.58170E+005    3.81497E+003    2.00594E+003    1.96837E+004
             340    8.00858E+007    7.99630E+007    7.99630E+007   -8.90622E+004   -1.56386E+005    8.01194E+007   -2.65725E+007    8.00857E+007    7.99630E+007   -8.98488E+004   -1.55599E+005    4.83323E+003   -3.34041E+002    7.23567E+003
             341    8.01658E+007    7.99441E+007    7.99441E+007   -1.91452E+005   -2.52002E+005    8.01961E+007   -2.65002E+007    8.01658E+007    7.99441E+007   -2.18025E+005   -2.25418E+005    1.95980E+004   -2.28054E+004    3.00427E+004
             342    8.01464E+007    7.99431E+007    7.99431E+007   -1.75784E+005   -2.30902E+005    8.01740E+007   -2.65121E+007    8.01464E+007    7.99431E+007   -1.99959E+005   -2.06726E+005    5.32868E+003   -2.98111E+003    2.73502E+004
             343    8.01340E+007    7.99496E+007    7.99496E+007   -1.56819E+005   -2.12107E+005    8.01617E+007   -2.65269E+007    8.01340E+007    7.99496E+007   -1.78157E+005   -1.90768E+005    2.13369E+002   -3.26710E+002    2.69151E+004
             344    8.01036E+007    7.99428E+007    7.99428E+007   -1.31652E+005   -1.89853E+005    8.01327E+007   -2.65404E+007    8.01036E+007    7.99428E+007   -1.47960E+005   -1.73545E+005    6.43444E+002    3.66764E+003    2.61380E+004
             345    8.00738E+007    7.99379E+007    7.99379E+007   -1.04554E+005   -1.67267E+005    8.01051E+007   -2.65554E+007    8.00738E+007    7.99379E+007   -1.13476E+005   -1.58345E+005    2.18747E+003    2.11185E+003    2.19078E+004
             346    8.00442E+007    7.99303E+007    7.99303E+007   -7.89234E+004   -1.48890E+005    8.00791E+007   -2.65675E+007    8.00441E+007    7.99303E+007   -8.22178E+004   -1.45595E+005    4.93959E+003    2.61844E+003    1.48212E+004
             347    8.00283E+007    7.99272E+007    7.99272E+007   -6.34706E+004   -1.38629E+005    8.00659E+007   -2.65750E+007    8.00282E+007    7.99272E+007   -6.38154E+004   -1.38284E+005    6.71944E+003   -5.24307E+001    5.08262E+003
             348    8.00608E+007    8.00078E+007    8.00078E+007   -4.79165E+004   -5.81838E+004    8.00660E+007   -2.66339E+007    8.00608E+007    8.00078E+007   -4.80092E+004   -5.80858E+004   -2.04379E+004    1.41493E+003   -9.98380E+002
             349    8.00712E+007    7.99898E+007    7.99898E+007   -7.46331E+004   -8.81365E+004    8.00779E+007   -2.66090E+007    8.00712E+007    7.99898E+007   -7.46373E+004   -8.81293E+004   -1.56919E+004    4.67514E+001   -3.12450E+002
             350    8.00839E+007    7.99574E+007    7.99574E+007   -1.19130E+005   -1.33880E+005    8.00913E+007   -2.65681E+007    8.00839E+007    7.99574E+007   -1.19281E+005   -1.33729E+005   -6.37523E+003   -1.65571E+003    1.48699E+003
             351    8.00956E+007    7.99238E+007    7.99238E+007   -1.65527E+005   -1.78130E+005    8.01019E+007   -2.65267E+007    8.00956E+007    7.99238E+007   -1.65856E+005   -1.77801E+005    3.38209E+003   -5.70431E+003    2.00793E+003
             352    8.00998E+007    7.98940E+007    7.98940E+007   -1.99683E+005   -2.11879E+005    8.01059E+007   -2.64941E+007    8.00998E+007    7.98940E+007   -1.99704E+005   -2.11855E+005    1.13189E+004   -9.63573E+003    5.17959E+002
             353    8.00975E+007    7.98677E+007    7.98677E+007   -2.20335E+005   -2.39146E+005    8.01069E+007   -2.64694E+007    8.00975E+007    7.98677E+007   -2.20403E+005   -2.39071E+005    1.57513E+004   -2.03057E+004   -1.15280E+003
             354    8.00436E+007    7.98051E+007    7.98051E+007   -2.19249E+005   -2.57810E+005    8.00629E+007   -2.64427E+007    8.00436E+007    7.98051E+007   -2.19306E+005   -2.57730E+005    2.31646E+004   -3.67339E+004   -1.57461E+003
             355    8.00384E+007    7.98055E+007    7.98055E+007   -1.93159E+005   -2.72497E+005    8.00780E+007   -2.64466E+007    8.00383E+007    7.98055E+007   -2.52755E+005   -2.12871E+005   -3.88707E+004    2.94564E+004    3.42754E+004
             356    8.00940E+007    7.98734E+007    7.98734E+007   -1.93862E+005   -2.47250E+005    8.01207E+007   -2.64774E+007    8.00940E+007    7.98734E+007   -2.46034E+005   -1.95069E+005   -2.31179E+004    1.39190E+004    7.94066E+003
             357    8.01074E+007    7.99178E+007    7.99178E+007   -1.75159E+005   -2.03987E+005    8.01218E+007   -2.65129E+007    8.01074E+007    7.99178E+007   -2.03985E+005   -1.75160E+005   -8.37693E+003    1.65589E+003    2.01046E+002
             358    8.00989E+007    7.99544E+007    7.99544E+007   -1.33337E+005   -1.55722E+005    8.01101E+007   -2.65551E+007    8.00989E+007    7.99544E+007   -1.55695E+005   -1.33363E+005   -6.35989E+002   -8.15094E+003   -7.70830E+002
             359    8.00771E+007    7.99309E+007    7.99309E+007   -1.14085E+005   -1.78247E+005    8.01091E+007   -2.65462E+007    8.00770E+007    7.99309E+007   -1.67629E+005   -1.24702E+005    3.67651E+003    2.43379E+003    2.38433E+004
             360    8.00904E+007    7.99442E+007    7.99442E+007   -1.09842E+005   -1.82489E+005    8.01267E+007   -2.65506E+007    8.00903E+007    7.99442E+007   -1.63871E+005   -1.28460E+005    4.35739E+003    1.32982E+003    3.17158E+004
             361    8.00829E+007    7.99387E+007    7.99387E+007   -1.08533E+005   -1.79777E+005    8.01185E+007   -2.65501E+007    8.00828E+007    7.99387E+007   -1.58187E+005   -1.30122E+005    2.40106E+003   -1.25706E+003    3.27416E+004
             362    8.00858E+007    7.99433E+007    7.99433E+007   -1.12666E+005   -1.72189E+005    8.01155E+007   -2.65528E+007    8.00857E+007    7.99433E+007   -1.48536E+005   -1.36320E+005    1.72085E+003   -2.88234E+002    2.91279E+004
             363    8.00847E+007    7.99441E+007    7.99441E+007   -1.17406E+005   -1.63894E+005    8.01080E+007   -2.65543E+007    8.00847E+007    7.99441E+007   -1.38895E+005   -1.42406E+005   -1.66827E+001   -1.18861E+003    2.31777E+004
             364    8.00871E+007    7.99480E+007    7.99480E+007   -1.22362E+005   -1.55886E+005    8.01039E+007   -2.65566E+007    8.00871E+007    7.99480E+007   -1.30845E+005   -1.47404E+005   -1.07764E+003   -1.52772E+002    1.45747E+004
             365    8.00884E+007    7.99500E+007    7.99500E+007   -1.25950E+005   -1.51001E+005    8.01010E+007   -2.65577E+007    8.00884E+007    7.99500E+007   -1.27017E+005   -1.49935E+005   -1.85793E+003   -5.36806E+002    5.05794E+003
             366    8.01147E+007    7.99437E+007    7.99437E+007   -1.38288E+005   -2.03612E+005    8.01473E+007   -2.65339E+007    8.01146E+007    7.99437E+007   -1.85796E+005   -1.56104E+005    1.75196E+003    3.43179E+002    2.90934E+004
             367    8.01028E+007    7.99416E+007    7.99416E+007   -1.24786E+005   -1.97636E+005    8.01392E+007   -2.65397E+007    8.01027E+007    7.99416E+007   -1.71316E+005   -1.51106E+005    1.87547E+003   -8.10821E+002    3.49956E+004
             368    8.00994E+007    7.99451E+007    7.99451E+007   -1.15899E+005   -1.92638E+005    8.01378E+007   -2.65455E+007    8.00993E+007    7.99451E+007   -1.58936E+005   -1.49601E+005    5.72521E+002   -7.52490E+002    3.80845E+004
             369    8.00913E+007    7.99433E+007    7.99433E+007   -1.12111E+005   -1.83748E+005    8.01271E+007   -2.65492E+007    8.00912E+007    7.99433E+007   -1.43900E+005   -1.51959E+005    5.35108E+002   -8.91305E+002    3.55911E+004
             370    8.00843E+007    7.99427E+007    7.99427E+007   -1.09330E+005   -1.73685E+005    8.01164E+007   -2.65532E+007    8.00842E+007    7.99427E+007   -1.28048E+005   -1.54967E+005    7.07177E+002   -3.58702E+002    2.92273E+004
             371    8.00767E+007    7.99398E+007    7.99398E+007   -1.07739E+005   -1.66110E+005    8.01059E+007   -2.65553E+007    8.00767E+007    7.99398E+007   -1.14966E+005   -1.58882E+005    1.31628E+003   -6.24086E+002    1.92263E+004
             372    8.00710E+007    7.99370E+007    7.99370E+007   -1.06199E+005   -1.61759E+005    8.00988E+007   -2.65564E+007    8.00710E+007    7.99370E+007   -1.07030E+005   -1.60927E+005    1.52206E+003    1.16763E+002    6.74599E+003
             373    8.01416E+007    7.99474E+007    7.99474E+007   -1.58702E+005   -2.29728E+005    8.01771E+007   -2.65196E+007    8.01415E+007    7.99474E+007   -1.97577E+005   -1.90853E+005    1.57079E+003    4.16885E+003    3.53532E+004
             374    8.01000E+007    7.99255E+007    7.99255E+007   -1.44303E+005   -2.04706E+005    8.01302E+007   -2.65255E+007    8.01000E+007    7.99255E+007   -1.75104E+005   -1.73903E+005    9.30404E+003   -7.25960E+003    3.01944E+004
             375    8.00969E+007    7.99334E+007    7.99334E+007   -1.27610E+005   -1.99390E+005    8.01328E+007   -2.65355E+007    8.00968E+007    7.99334E+007   -1.57217E+005   -1.69783E+005    4.32513E+003   -2.47708E+003    3.53355E+004
             376    8.00882E+007    7.99368E+007    7.99368E+007   -1.14839E+005   -1.87920E+005    8.01247E+007   -2.65447E+007    8.00881E+007    7.99368E+007   -1.38238E+005   -1.64520E+005    2.66741E+003   -4.85165E+003    3.40953E+004
             377    8.00892E+007    7.99469E+007    7.99469E+007   -1.05498E+005   -1.79074E+005    8.01259E+007   -2.65541E+007    8.00891E+007    7.99469E+007   -1.20556E+005   -1.64016E+005   -8.07000E+002   -1.64314E+003    2.96843E+004
             378    8.00899E+007    7.99560E+007    7.99560E+007   -9.95076E+004   -1.68176E+005    8.01242E+007   -2.65628E+007    8.00898E+007    7.99560E+007   -1.05771E+005   -1.61913E+005   -1.98125E+003   -1.69657E+003    1.97701E+004
             379    8.00942E+007    7.99643E+007    7.99643E+007   -9.80571E+004   -1.61663E+005    8.01259E+007   -2.65682E+007    8.00941E+007    7.99643E+007   -9.87491E+004   -1.60971E+005   -2.50883E+003    1.27203E+002    6.59855E+003
             380    8.01897E+007    7.99728E+007    7.99728E+007   -1.76805E+005   -2.56946E+005    8.02297E+007   -2.65130E+007    8.01896E+007    7.99728E+007   -2.17373E+005   -2.16371E+005   -1.78203E+004    1.75992E+004    4.00635E+004
             381    8.01545E+007    7.99554E+007    7.99554E+007   -1.61865E+005   -2.36288E+005    8.01917E+007   -2.65191E+007    8.01544E+007    7.99554E+007   -1.99294E+005   -1.98859E+005   -3.67266E+003    2.06589E+002    3.72104E+004
             382    8.01406E+007    7.99606E+007    7.99606E+007   -1.44920E+005   -2.15111E+005    8.01757E+007   -2.65335E+007    8.01405E+007    7.99606E+007   -1.70521E+005   -1.89510E+005    2.00409E+003   -9.44805E+002    3.37868E+004
             383    8.01069E+007    7.99479E+007    7.99479E+007   -1.25209E+005   -1.92792E+005    8.01407E+007   -2.65433E+007    8.01069E+007    7.99479E+007   -1.43554E+005   -1.74446E+005    3.22174E+002   -5.21770E+003    3.00550E+004
             384    8.00785E+007    7.99417E+007    7.99417E+007   -1.00770E+005   -1.72795E+005    8.01144E+007   -2.65560E+007    8.00784E+007    7.99417E+007   -1.11081E+005   -1.62484E+005   -1.95317E+003   -2.69313E+003    2.52259E+004
             385    8.00517E+007    7.99315E+007    7.99315E+007   -8.17523E+004   -1.58521E+005    8.00900E+007   -2.65637E+007    8.00516E+007    7.99315E+007   -8.57315E+004   -1.54541E+005   -6.11949E+003   -4.00577E+003    1.70203E+004
             386    8.00341E+007    7.99231E+007    7.99231E+007   -6.95086E+004   -1.52484E+005    8.00756E+007   -2.65670E+007    8.00340E+007    7.99231E+007   -7.00387E+004   -1.51953E+005   -9.67534E+003   -8.10974E+002    6.61825E+003
             387    8.00607E+007    8.00040E+007    8.00040E+007   -4.80013E+004   -6.52114E+004    8.00693E+007   -2.66303E+007    8.00606E+007    8.00040E+007   -4.79979E+004   -6.52098E+004    2.01610E+004    4.69121E+002   -1.66616E+002
             388    8.00674E+007    7.99823E+007    7.99823E+007   -7.58522E+004   -9.44704E+004    8.00767E+007   -2.66040E+007    8.00674E+007    7.99823E+007   -7.58557E+004   -9.44649E+004    1.26775E+004    1.28072E+003    3.20397E+002
             389    8.00813E+007    7.99529E+007    7.99529E+007   -1.18868E+005   -1.37829E+005    8.00908E+007   -2.65654E+007    8.00813E+007    7.99529E+007   -1.18879E+005   -1.37818E+005    3.67917E+003    1.78692E+003   -4.55231E+002
             390    8.00937E+007    7.99204E+007    7.99204E+007   -1.61912E+005   -1.84536E+005    8.01050E+007   -2.65247E+007    8.00937E+007    7.99204E+007   -1.61934E+005   -1.84512E+005   -5.07492E+003    7.74056E+003    7.17886E+002
             391    8.00946E+007    7.98832E+007    7.98832E+007   -1.98977E+005   -2.23956E+005    8.01071E+007   -2.64868E+007    8.00946E+007    7.98832E+007   -1.98974E+005   -2.23953E+005   -1.65054E+004    1.36572E+004   -1.79103E+001
             392    8.00871E+007    7.98556E+007    7.98556E+007   -2.05425E+005   -2.57547E+005    8.01132E+007   -2.64642E+007    8.00871E+007    7.98556E+007   -2.05947E+005   -2.57012E+005   -2.30959E+004    2.30521E+004    5.21269E+003
             393    8.00369E+007    7.98015E+007    7.98015E+007   -1.95205E+005   -2.75538E+005    8.00770E+007   -2.64436E+007    8.00368E+007    7.98014E+007   -2.12205E+005   -2.58508E+005   -3.18514E+004    3.80361E+004    3.28062E+004
             394    8.00298E+007    7.99289E+007    7.99289E+007   -6.35672E+004   -1.38284E+005    8.00672E+007   -2.65757E+007    8.00298E+007    7.99289E+007   -6.39357E+004   -1.37915E+005    6.02616E+003   -2.23442E+002   -5.23727E+003
             395    8.00844E+007    7.99618E+007    7.99618E+007   -8.86137E+004   -1.56540E+005    8.01183E+007   -2.65722E+007    8.00843E+007    7.99618E+007   -8.94402E+004   -1.55713E+005    5.17798E+003    5.38377E+002   -7.44867E+003
             396    8.00716E+007    7.99418E+007    7.99418E+007   -9.61848E+004   -1.63356E+005    8.01051E+007   -2.65607E+007    8.00715E+007    7.99418E+007   -9.70569E+004   -1.62484E+005   -1.05450E+003    7.37927E+001   -7.60417E+003
             397    8.00853E+007    7.99492E+007    7.99492E+007   -1.13527E+005   -1.58586E+005    8.01078E+007   -2.65590E+007    8.00853E+007    7.99492E+007   -1.14622E+005   -1.57492E+005    2.09590E+003   -3.79767E+001   -6.93719E+003
             398    8.00798E+007    7.99428E+007    7.99428E+007   -1.22509E+005   -1.51593E+005    8.00944E+007   -2.65562E+007    8.00798E+007    7.99428E+007   -1.23690E+005   -1.50412E+005   -6.93688E+002   -7.45802E+002   -5.74057E+003
             399    8.00849E+007    7.99464E+007    7.99464E+007   -1.32925E+005   -1.44032E+005    8.00904E+007   -2.65565E+007    8.00849E+007    7.99464E+007   -1.34200E+005   -1.42758E+005    4.22817E+002   -1.01286E+003   -3.54057E+003
             400    8.00805E+007    7.99427E+007    7.99427E+007   -1.36194E+005   -1.39532E+005    8.00822E+007   -2.65556E+007    8.00805E+007    7.99427E+007   -1.37124E+005   -1.38601E+005    2.51715E+002   -1.28047E+003   -1.49685E+003
             401    8.00854E+007    7.99467E+007    7.99467E+007   -1.37332E+005   -1.40057E+005    8.00868E+007   -2.65564E+007    8.00854E+007    7.99467E+007   -1.39645E+005   -1.37744E+005   -6.95407E+002   -1.21000E+003    9.76127E+002
             402    8.00786E+007    7.99410E+007    7.99410E+007   -1.31702E+005   -1.43457E+005    8.00845E+007   -2.65553E+007    8.00786E+007    7.99410E+007   -1.32642E+005   -1.42516E+005    1.35219E+003   -8.93988E+002    3.18898E+003
             403    8.00436E+007    7.99296E+007    7.99296E+007   -7.92906E+004   -1.48770E+005    8.00783E+007   -2.65672E+007    8.00435E+007    7.99296E+007   -8.25396E+004   -1.45520E+005    5.01495E+003   -1.70222E+003   -1.46700E+004
             404    8.00863E+007    7.99562E+007    7.99562E+007   -9.52479E+004   -1.64903E+005    8.01211E+007   -2.65654E+007    8.00863E+007    7.99562E+007   -1.01888E+005   -1.58263E+005    3.87820E+003   -2.00714E+003   -2.04556E+004
             405    8.00755E+007    7.99410E+007    7.99410E+007   -1.00556E+005   -1.68549E+005    8.01095E+007   -2.65573E+007    8.00755E+007    7.99410E+007   -1.07625E+005   -1.61480E+005   -8.47325E+002   -1.11108E+003   -2.07527E+004
             406    8.00858E+007    7.99472E+007    7.99472E+007   -1.13324E+005   -1.63695E+005    8.01109E+007   -2.65567E+007    8.00857E+007    7.99472E+007   -1.22463E+005   -1.54556E+005    1.24270E+003   -7.90597E+002   -1.94118E+004
             407    8.00815E+007    7.99431E+007    7.99431E+007   -1.21318E+005   -1.55542E+005    8.00986E+007   -2.65554E+007    8.00815E+007    7.99431E+007   -1.30335E+005   -1.46525E+005   -6.26904E+002    5.43291E+002   -1.50759E+004
             408    8.00854E+007    7.99466E+007    7.99466E+007   -1.28613E+005   -1.49001E+005    8.00956E+007   -2.65563E+007    8.00854E+007    7.99466E+007   -1.39132E+005   -1.38482E+005    6.30206E+001    7.26961E+002   -1.01886E+004
             409    8.00822E+007    7.99441E+007    7.99441E+007   -1.32967E+005   -1.43157E+005    8.00873E+007   -2.65560E+007    8.00822E+007    7.99441E+007   -1.41879E+005   -1.34245E+005    1.40256E+002    1.61820E+003   -3.37555E+003
             410    8.00856E+007    7.99471E+007    7.99471E+007   -1.33097E+005   -1.43936E+005    8.00910E+007   -2.65567E+007    8.00856E+007    7.99471E+007   -1.43113E+005   -1.33920E+005   -5.34288E+002    9.98293E+002    2.87200E+003
             411    8.00815E+007    7.99432E+007    7.99432E+007   -1.28574E+005   -1.48022E+005    8.00912E+007   -2.65555E+007    8.00815E+007    7.99432E+007   -1.37279E+005   -1.39316E+005    9.97743E+002    1.31828E+003    9.67058E+003
             412    8.00697E+007    7.99331E+007    7.99331E+007   -1.05328E+005   -1.67703E+005    8.01008E+007   -2.65534E+007    8.00696E+007    7.99331E+007   -1.13812E+005   -1.59218E+005    2.67516E+003   -1.95952E+003   -2.13835E+004
             413    8.00915E+007    7.99492E+007    7.99492E+007   -1.06438E+005   -1.78243E+005    8.01274E+007   -2.65548E+007    8.00915E+007    7.99492E+007   -1.21794E+005   -1.62887E+005    2.65920E+003   -1.22741E+003   -2.94422E+004
             414    8.00840E+007    7.99412E+007    7.99412E+007   -1.07372E+005   -1.78232E+005    8.01194E+007   -2.65519E+007    8.00839E+007    7.99412E+007   -1.25755E+005   -1.59848E+005   -1.07879E+003   -7.44001E+002   -3.10599E+004
             415    8.00875E+007    7.99451E+007    7.99451E+007   -1.13065E+005   -1.71813E+005    8.01169E+007   -2.65534E+007    8.00875E+007    7.99451E+007   -1.35045E+005   -1.49832E+005    9.82878E+002   -7.79984E+002   -2.84283E+004
             416    8.00829E+007    7.99427E+007    7.99427E+007   -1.17104E+005   -1.63140E+005    8.01059E+007   -2.65542E+007    8.00828E+007    7.99427E+007   -1.41563E+005   -1.38680E+005   -9.04556E+002   -1.05605E+003   -2.29728E+004
             417    8.00824E+007    7.99439E+007    7.99439E+007   -1.21383E+005   -1.55565E+005    8.00994E+007   -2.65556E+007    8.00823E+007    7.99439E+007   -1.47689E+005   -1.29258E+005    3.99492E+002   -1.43187E+003   -1.43936E+004
             418    8.00804E+007    7.99433E+007    7.99433E+007   -1.23431E+005   -1.50769E+005    8.00941E+007   -2.65564E+007    8.00804E+007    7.99433E+007   -1.49877E+005   -1.24324E+005   -3.25299E+002   -1.49345E+003   -4.85783E+003
             419    8.00811E+007    7.99436E+007    7.99436E+007   -1.23825E+005   -1.51098E+005    8.00947E+007   -2.65562E+007    8.00811E+007    7.99436E+007   -1.49955E+005   -1.24968E+005    2.47878E+002   -1.59230E+003    5.46651E+003
             420    8.00811E+007    7.99429E+007    7.99429E+007   -1.21344E+005   -1.55193E+005    8.00981E+007   -2.65554E+007    8.00811E+007    7.99429E+007   -1.45533E+005   -1.31004E+005    3.53734E+002   -1.20956E+003    1.52863E+004
             421    8.01017E+007    7.99403E+007    7.99403E+007   -1.32234E+005   -1.90609E+005    8.01309E+007   -2.65391E+007    8.01016E+007    7.99403E+007   -1.48147E+005   -1.74696E+005    1.04322E+003   -3.81648E+003   -2.59935E+004
             422    8.00938E+007    7.99376E+007    7.99376E+007   -1.21702E+005   -1.90559E+005    8.01282E+007   -2.65418E+007    8.00937E+007    7.99376E+007   -1.45153E+005   -1.67108E+005   -1.16690E+003   -5.00859E+003   -3.26311E+004
             423    8.00920E+007    7.99406E+007    7.99406E+007   -1.14680E+005   -1.88062E+005    8.01287E+007   -2.65460E+007    8.00920E+007    7.99406E+007   -1.45637E+005   -1.57105E+005   -7.62021E+002   -2.15527E+003   -3.62401E+004
             424    8.00877E+007    7.99415E+007    7.99415E+007   -1.12656E+005   -1.79654E+005    8.01211E+007   -2.65497E+007    8.00876E+007    7.99415E+007   -1.49391E+005   -1.42919E+005   -1.54926E+003   -1.89742E+003   -3.33419E+004
             425    8.00864E+007    7.99450E+007    7.99450E+007   -1.12283E+005   -1.70463E+005    8.01155E+007   -2.65541E+007    8.00864E+007    7.99450E+007   -1.53012E+005   -1.29735E+005   -7.47350E+002    9.34754E+002   -2.66603E+004
             426    8.00850E+007    7.99474E+007    7.99474E+007   -1.12500E+005   -1.62618E+005    8.01100E+007   -2.65574E+007    8.00849E+007    7.99474E+007   -1.56018E+005   -1.19100E+005   -7.27466E+002    1.21843E+003   -1.69472E+004
             427    8.00844E+007    7.99485E+007    7.99485E+007   -1.13586E+005   -1.58323E+005    8.01068E+007   -2.65589E+007    8.00844E+007    7.99485E+007   -1.57884E+005   -1.14025E+005   -3.19149E+002    2.82676E+003   -4.40918E+003
             428    8.00845E+007    7.99484E+007    7.99484E+007   -1.13953E+005   -1.58308E+005    8.01067E+007   -2.65587E+007    8.00845E+007    7.99484E+007   -1.56655E+005   -1.15606E+005    3.08953E+002    1.84028E+003    8.40244E+003
             429    8.00866E+007    7.99476E+007    7.99476E+007   -1.13723E+005   -1.64341E+005    8.01120E+007   -2.65565E+007    8.00866E+007    7.99476E+007   -1.54145E+005   -1.23918E+005    2.45545E+001    2.43526E+003    2.03009E+004
             430    8.01332E+007    7.99481E+007    7.99481E+007   -1.57222E+005   -2.12980E+005    8.01611E+007   -2.65260E+007    8.01332E+007    7.99481E+007   -1.78764E+005   -1.91438E+005    1.36286E+002    4.38655E+002   -2.71491E+004
             431    8.01054E+007    7.99360E+007    7.99360E+007   -1.36205E+005   -2.02618E+005    8.01386E+007   -2.65324E+007    8.01054E+007    7.99360E+007   -1.64318E+005   -1.74505E+005   -2.42037E+003   -2.57799E+003   -3.28138E+004
             432    8.01027E+007    7.99431E+007    7.99431E+007   -1.22278E+005   -1.96885E+005    8.01400E+007   -2.65413E+007    8.01026E+007    7.99431E+007   -1.63197E+005   -1.55967E+005   -1.31766E+003   -8.68877E+002   -3.71281E+004
             433    8.00904E+007    7.99417E+007    7.99417E+007   -1.12281E+005   -1.85158E+005    8.01268E+007   -2.65481E+007    8.00903E+007    7.99417E+007   -1.60096E+005   -1.37342E+005   -1.45693E+003   -1.07569E+003   -3.46167E+004
             434    8.00833E+007    7.99436E+007    7.99436E+007   -1.03471E+005   -1.76011E+005    8.01196E+007   -2.65547E+007    8.00833E+007    7.99436E+007   -1.62125E+005   -1.17357E+005   -1.32633E+003   -1.16050E+003   -2.85391E+004
             435    8.00738E+007    7.99411E+007    7.99411E+007   -9.85600E+004   -1.66822E+005    8.01079E+007   -2.65586E+007    8.00738E+007    7.99411E+007   -1.62315E+005   -1.03067E+005   -2.19455E+002   -1.36480E+003   -1.69510E+004
             436    8.00735E+007    7.99437E+007    7.99437E+007   -9.60204E+004   -1.63613E+005    8.01073E+007   -2.65613E+007    8.00734E+007    7.99437E+007   -1.63410E+005   -9.62229E+004   -6.56039E+002   -1.75943E+003   -3.69483E+003
             437    8.00710E+007    7.99400E+007    7.99400E+007   -9.79067E+004   -1.64131E+005    8.01041E+007   -2.65593E+007    8.00710E+007    7.99400E+007   -1.62412E+005   -9.96256E+004    9.22336E+002   -1.39128E+003    1.05299E+004
             438    8.00786E+007    7.99423E+007    7.99423E+007   -1.01448E+005   -1.71046E+005    8.01134E+007   -2.65566E+007    8.00785E+007    7.99423E+007   -1.61984E+005   -1.10509E+005    1.75026E+002   -1.61874E+003    2.34209E+004
             439    8.01470E+007    7.99433E+007    7.99433E+007   -1.75648E+005   -2.31621E+005    8.01750E+007   -2.65120E+007    8.01469E+007    7.99433E+007   -2.00325E+005   -2.06944E+005    6.00962E+003    2.90490E+003   -2.77895E+004
             440    8.01087E+007    7.99278E+007    7.99278E+007   -1.52731E+005   -2.08959E+005    8.01368E+007   -2.65220E+007    8.01086E+007    7.99278E+007   -1.82836E+005   -1.78852E+005   -6.42333E+003   -7.15561E+003   -2.80430E+004
             441    8.01036E+007    7.99385E+007    7.99385E+007   -1.31519E+005   -1.98782E+005    8.01373E+007   -2.65361E+007    8.01036E+007    7.99385E+007   -1.74040E+005   -1.56261E+005   -2.34858E+003   -3.45146E+003   -3.24354E+004
             442    8.00888E+007    7.99395E+007    7.99395E+007   -1.13312E+005   -1.85078E+005    8.01246E+007   -2.65471E+007    8.00887E+007    7.99395E+007   -1.66666E+005   -1.31723E+005   -4.91944E+003   -1.63154E+003   -3.13421E+004
             443    8.00871E+007    7.99510E+007    7.99510E+007   -9.96768E+004   -1.72484E+005    8.01235E+007   -2.65596E+007    8.00870E+007    7.99510E+007   -1.62047E+005   -1.10114E+005   -1.35670E+003    2.23112E+003   -2.55137E+004
             444    8.00840E+007    7.99580E+007    7.99580E+007   -9.05385E+004   -1.61361E+005    8.01194E+007   -2.65687E+007    8.00839E+007    7.99580E+007   -1.57896E+005   -9.40025E+004   -1.97835E+003    3.10270E+003   -1.52753E+004
             445    8.00833E+007    7.99608E+007    7.99608E+007   -8.74432E+004   -1.57449E+005    8.01183E+007   -2.65720E+007    8.00832E+007    7.99608E+007   -1.57405E+005   -8.74863E+004   -6.69954E+002    5.45103E+003   -1.74534E+003
             446    8.00847E+007    7.99600E+007    7.99600E+007   -8.96326E+004   -1.59666E+005    8.01197E+007   -2.65702E+007    8.00847E+007    7.99600E+007   -1.57350E+005   -9.19486E+004    8.37239E+002    4.13980E+003    1.25241E+004
             447    8.00906E+007    7.99563E+007    7.99563E+007   -9.80530E+004   -1.70500E+005    8.01268E+007   -2.65626E+007    8.00905E+007    7.99563E+007   -1.61034E+005   -1.07520E+005   -2.84864E+001    4.65104E+003    2.44177E+004
             448    8.01658E+007    7.99440E+007    7.99440E+007   -1.91603E+005   -2.51929E+005    8.01960E+007   -2.65002E+007    8.01658E+007    7.99440E+007   -2.18620E+005   -2.24900E+005    1.96991E+004    2.29241E+004   -2.99937E+004
             449    8.01466E+007    7.99479E+007    7.99479E+007   -1.68754E+005   -2.28576E+005    8.01765E+007   -2.65169E+007    8.01466E+007    7.99479E+007   -1.97247E+005   -2.00082E+005    3.35344E+003    6.51675E+003   -2.98769E+004
             450    8.01266E+007    7.99511E+007    7.99511E+007   -1.44149E+005   -2.06761E+005    8.01579E+007   -2.65334E+007    8.01265E+007    7.99511E+007   -1.85045E+005   -1.65864E+005   -4.42605E+002    1.23847E+003   -2.98011E+004
             451    8.00964E+007    7.99467E+007    7.99467E+007   -1.18737E+005   -1.80803E+005    8.01275E+007   -2.65490E+007    8.00964E+007    7.99467E+007   -1.67438E+005   -1.32102E+005   -2.41115E+003   -3.09351E+000   -2.55129E+004
             452    8.00664E+007    7.99411E+007    7.99411E+007   -9.18191E+004   -1.58749E+005    8.00999E+007   -2.65635E+007    8.00664E+007    7.99411E+007   -1.52850E+005   -9.77182E+004   -3.78584E+003    1.98979E+003   -1.89745E+004
             453    8.00397E+007    7.99327E+007    7.99327E+007   -7.13014E+004   -1.42667E+005    8.00754E+007   -2.65729E+007    8.00397E+007    7.99327E+007   -1.40949E+005   -7.30194E+004   -8.09998E+002    5.09459E+003   -1.09397E+004
             454    8.00349E+007    7.99347E+007    7.99347E+007   -6.18782E+004   -1.38392E+005    8.00731E+007   -2.65782E+007    8.00348E+007    7.99347E+007   -1.38374E+005   -6.18957E+004   -1.21781E+003    4.33383E+003   -1.16650E+003
             455    8.00323E+007    7.99264E+007    7.99264E+007   -6.90626E+004   -1.42655E+005    8.00690E+007   -2.65716E+007    8.00322E+007    7.99264E+007   -1.41644E+005   -7.00727E+004   -6.85756E+001    6.53450E+003    8.56456E+003
             456    8.00505E+007    7.99279E+007    7.99279E+007   -8.72554E+004   -1.58001E+005    8.00859E+007   -2.65609E+007    8.00504E+007    7.99279E+007   -1.53746E+005   -9.15092E+004    1.46052E+003    4.20089E+003    1.68185E+004
             457    8.00823E+007    7.99846E+007    7.99846E+007   -8.88436E+004   -1.06701E+005    8.00913E+007   -2.65963E+007    8.00823E+007    7.99846E+007   -1.06467E+005   -8.90740E+004    1.51612E+003   -1.58881E+004   -2.02915E+003
             458    8.00662E+007    8.00027E+007    8.00027E+007   -5.63213E+004   -7.06649E+004    8.00734E+007   -2.66252E+007    8.00662E+007    8.00027E+007   -6.99006E+004   -5.70808E+004    3.71754E+003   -1.93175E+004   -3.22224E+003
             459    8.00520E+007    8.00004E+007    8.00004E+007   -4.79790E+004   -5.52652E+004    8.00557E+007   -2.66324E+007    8.00520E+007    8.00004E+007   -5.52384E+004   -4.80028E+004    6.50102E+002   -1.55307E+004   -4.40983E+002
             460    8.00640E+007    7.99969E+007    7.99969E+007   -6.04243E+004   -7.38375E+004    8.00707E+007   -2.66209E+007    8.00640E+007    7.99969E+007   -7.35358E+004   -6.07229E+004   -1.63783E+003   -1.59536E+004    1.98930E+003
             461    8.00728E+007    7.99676E+007    7.99676E+007   -9.75230E+004   -1.12730E+005    8.00804E+007   -2.65858E+007    8.00727E+007    7.99676E+007   -1.12729E+005   -9.75229E+004    3.73046E+003   -7.42457E+003    9.12322E+001
             462    8.00849E+007    7.99327E+007    7.99327E+007   -1.43104E+005   -1.61278E+005    8.00940E+007   -2.65428E+007    8.00849E+007    7.99327E+007   -1.61225E+005   -1.43157E+005    3.66854E+003    3.59140E+003    9.80598E+002
             463    8.00960E+007    7.99028E+007    7.99028E+007   -1.78887E+005   -2.07374E+005    8.01102E+007   -2.65055E+007    8.00960E+007    7.99028E+007   -2.07179E+005   -1.79079E+005    1.02005E+004    9.25516E+003   -2.33698E+003
             464    8.00828E+007    7.98620E+007    7.98620E+007   -2.00924E+005   -2.40590E+005    8.01026E+007   -2.64735E+007    8.00828E+007    7.98620E+007   -2.34223E+005   -2.07279E+005    2.31850E+004    1.99395E+004   -1.45488E+004
             465    8.00308E+007    7.97993E+007    7.97993E+007   -2.16205E+005   -2.46821E+005    8.00461E+007   -2.64454E+007    8.00308E+007    7.97993E+007   -2.24508E+005   -2.38492E+005    3.31879E+004    3.14946E+004   -1.36048E+004
             466    8.00575E+007    8.00042E+007    8.00042E+007   -4.89426E+004   -5.77852E+004    8.00620E+007   -2.66325E+007    8.00575E+007    8.00042E+007   -4.89461E+004   -5.77774E+004   -1.85657E+004   -2.44274E+002    2.62277E+002
             467    8.00712E+007    7.99902E+007    7.99902E+007   -7.47453E+004   -8.72721E+004    8.00774E+007   -2.66094E+007    8.00712E+007    7.99902E+007   -7.48952E+004   -8.71191E+004   -1.56669E+004   -2.24215E+003    1.37601E+003
             468    8.00888E+007    7.99639E+007    7.99639E+007   -1.17173E+005   -1.32477E+005    8.00964E+007   -2.65714E+007    8.00888E+007    7.99639E+007   -1.17228E+005   -1.32421E+005   -9.48979E+003    4.70397E+002   -9.22455E+002
             469    8.00980E+007    7.99268E+007    7.99268E+007   -1.64746E+005   -1.77650E+005    8.01045E+007   -2.65281E+007    8.00980E+007    7.99268E+007   -1.65053E+005   -1.77342E+005    1.15237E+003    5.85107E+003   -1.96524E+003
             470    8.01009E+007    7.98945E+007    7.98945E+007   -1.99869E+005   -2.12921E+005    8.01074E+007   -2.64939E+007    8.01009E+007    7.98945E+007   -1.99870E+005   -2.12918E+005    1.08199E+004    9.76637E+003   -1.67173E+002
             471    8.00964E+007    7.98658E+007    7.98658E+007   -2.20439E+005   -2.40738E+005    8.01066E+007   -2.64682E+007    8.00964E+007    7.98658E+007   -2.20487E+005   -2.40681E+005    1.54617E+004    2.15159E+004    1.02333E+003
             472    8.00384E+007    7.97992E+007    7.97992E+007   -2.19917E+005   -2.58373E+005    8.00576E+007   -2.64403E+007    8.00384E+007    7.97992E+007   -2.20000E+005   -2.58265E+005    2.54444E+004    3.70357E+004    1.88273E+003
             473    8.00639E+007    7.99602E+007    7.99602E+007   -6.06279E+004   -1.46693E+005    8.01069E+007   -2.65843E+007    8.00638E+007    7.99602E+007   -6.11509E+004   -1.46169E+005    1.19760E+004    1.04031E+003   -6.69967E+003
             474    8.00647E+007    7.99364E+007    7.99364E+007   -8.93037E+004   -1.67096E+005    8.01035E+007   -2.65600E+007    8.00646E+007    7.99364E+007   -8.99772E+004   -1.66422E+005   -7.32998E+003    4.94814E+002   -7.21048E+003
             475    8.00901E+007    7.99544E+007    7.99544E+007   -1.11016E+005   -1.60313E+005    8.01147E+007   -2.65610E+007    8.00901E+007    7.99544E+007   -1.12001E+005   -1.59327E+005    1.79440E+003    3.14117E+002   -6.89871E+003
             476    8.00759E+007    7.99389E+007    7.99389E+007   -1.21417E+005   -1.52643E+005    8.00915E+007   -2.65549E+007    8.00759E+007    7.99389E+007   -1.22367E+005   -1.51693E+005   -6.03475E+002   -1.51901E+002   -5.36392E+003
             477    8.00723E+007    7.99570E+007    7.99570E+007   -7.33551E+004   -1.57148E+005    8.01142E+007   -2.65755E+007    8.00722E+007    7.99570E+007   -7.81260E+004   -1.52376E+005    9.83832E+003    2.83432E+002   -1.94188E+004
             478    8.00706E+007    7.99376E+007    7.99376E+007   -9.29849E+004   -1.72976E+005    8.01105E+007   -2.65572E+007    8.00705E+007    7.99376E+007   -9.91389E+004   -1.66822E+005   -5.76053E+003    3.94060E+002   -2.13172E+004
             479    8.00905E+007    7.99521E+007    7.99521E+007   -1.10183E+005   -1.66573E+005    8.01187E+007   -2.65585E+007    8.00904E+007    7.99521E+007   -1.18587E+005   -1.58169E+005    1.31015E+003    2.64420E+002   -2.00816E+004
             480    8.00782E+007    7.99400E+007    7.99400E+007   -1.19590E+005   -1.56824E+005    8.00968E+007   -2.65545E+007    8.00781E+007    7.99400E+007   -1.28052E+005   -1.48363E+005   -3.67330E+002    3.79376E+002   -1.56031E+004
             481    8.00821E+007    7.99466E+007    7.99466E+007   -9.53127E+004   -1.75610E+005    8.01222E+007   -2.65586E+007    8.00820E+007    7.99466E+007   -1.07111E+005   -1.63811E+005    3.87316E+003   -4.51374E+002   -2.84288E+004
             482    8.00816E+007    7.99391E+007    7.99391E+007   -1.01558E+005   -1.83421E+005    8.01226E+007   -2.65514E+007    8.00816E+007    7.99391E+007   -1.17820E+005   -1.67160E+005   -2.18754E+003    1.95270E+003   -3.26616E+004
             483    8.00885E+007    7.99459E+007    7.99459E+007   -1.09861E+005   -1.75279E+005    8.01212E+007   -2.65536E+007    8.00885E+007    7.99459E+007   -1.29934E+005   -1.55206E+005    5.36258E+002    7.38601E+002   -3.01695E+004
             484    8.00833E+007    7.99425E+007    7.99425E+007   -1.16099E+005   -1.65341E+005    8.01079E+007   -2.65537E+007    8.00832E+007    7.99425E+007   -1.38474E+005   -1.42965E+005    3.38750E+002    2.90973E+001   -2.45184E+004
             485    8.00965E+007    7.99352E+007    7.99352E+007   -1.23431E+005   -1.99163E+005    8.01344E+007   -2.65375E+007    8.00964E+007    7.99352E+007   -1.41661E+005   -1.80933E+005   -3.49659E+003   -4.88291E+003   -3.23767E+004
             486    8.00995E+007    7.99449E+007    7.99449E+007   -1.11606E+005   -1.97624E+005    8.01425E+007   -2.65452E+007    8.00994E+007    7.99449E+007   -1.40594E+005   -1.68636E+005    6.75802E+000    2.08599E+002   -4.06595E+004
             487    8.00900E+007    7.99411E+007    7.99411E+007   -1.11465E+005   -1.86411E+005    8.01275E+007   -2.65477E+007    8.00899E+007    7.99411E+007   -1.44602E+005   -1.53274E+005    1.90341E+002    6.66518E+002   -3.72211E+004
             488    8.00872E+007    7.99441E+007    7.99441E+007   -1.10676E+005   -1.75550E+005    8.01196E+007   -2.65526E+007    8.00871E+007    7.99441E+007   -1.50838E+005   -1.35389E+005    3.68366E+002    1.50091E+002   -3.15037E+004
             489    8.00960E+007    7.99136E+007    7.99136E+007   -1.48125E+005   -2.16564E+005    8.01302E+007   -2.65163E+007    8.00959E+007    7.99136E+007   -1.71230E+005   -1.93456E+005   -1.18997E+004   -9.02208E+003   -3.23634E+004
             490    8.01103E+007    7.99424E+007    7.99424E+007   -1.25273E+005   -2.10502E+005    8.01529E+007   -2.65355E+007    8.01102E+007    7.99424E+007   -1.65863E+005   -1.69912E+005    6.55323E+002    1.39516E+002   -4.25663E+004
             491    8.00892E+007    7.99341E+007    7.99341E+007   -1.15434E+005   -1.94704E+005    8.01288E+007   -2.65413E+007    8.00892E+007    7.99341E+007   -1.59389E+005   -1.50749E+005    3.97695E+002    3.50867E+002   -3.93989E+004
             492    8.00926E+007    7.99467E+007    7.99467E+007   -1.07247E+005   -1.84488E+005    8.01312E+007   -2.65516E+007    8.00925E+007    7.99467E+007   -1.62290E+005   -1.29444E+005    6.19927E+002   -2.60088E+002   -3.49548E+004
             493    8.00986E+007    7.99019E+007    7.99019E+007   -1.66948E+005   -2.26492E+005    8.01283E+007   -2.65028E+007    8.00985E+007    7.99018E+007   -1.91258E+005   -2.02175E+005   -1.82863E+004   -1.48152E+004   -2.92638E+004
             494    8.01295E+007    7.99478E+007    7.99478E+007   -1.40046E+005   -2.23203E+005    8.01710E+007   -2.65282E+007    8.01294E+007    7.99478E+007   -1.85872E+005   -1.77375E+005   -4.78722E+003   -5.17367E+003   -4.13605E+004
             495    8.00983E+007    7.99352E+007    7.99352E+007   -1.22430E+005   -2.03762E+005    8.01390E+007   -2.65363E+007    8.00982E+007    7.99352E+007   -1.73464E+005   -1.52727E+005    3.79997E+001   -1.79001E+002   -3.93219E+004
             496    8.00905E+007    7.99438E+007    7.99438E+007   -1.04815E+005   -1.88560E+005    8.01323E+007   -2.65501E+007    8.00904E+007    7.99438E+007   -1.70292E+005   -1.23083E+005   -1.47277E+002   -1.08884E+003   -3.45854E+004
             497    8.00566E+007    7.98553E+007    7.98553E+007   -1.90963E+005   -2.11552E+005    8.00669E+007   -2.64843E+007    8.00566E+007    7.98553E+007   -2.01894E+005   -2.00612E+005   -2.04301E+004   -1.62662E+004   -1.02706E+004
             498    8.01044E+007    7.99128E+007    7.99128E+007   -1.60450E+005   -2.22713E+005    8.01355E+007   -2.65099E+007    8.01043E+007    7.99128E+007   -2.02314E+005   -1.80846E+005   -1.43437E+004   -1.14481E+004   -2.92203E+004
             499    8.00959E+007    7.99240E+007    7.99240E+007   -1.38827E+005   -2.05014E+005    8.01290E+007   -2.65267E+007    8.00959E+007    7.99240E+007   -1.87650E+005   -1.56191E+005   -5.89887E+003   -4.32806E+003   -2.91163E+004
             500    8.00924E+007    7.99455E+007    7.99455E+007   -1.11435E+005   -1.82414E+005    8.01279E+007   -2.65505E+007    8.00923E+007    7.99455E+007   -1.70792E+005   -1.23057E+005   -2.02954E+003    2.50697E+003   -2.62649E+004
             501    8.00918E+007    7.99418E+007    7.99418E+007   -1.39280E+005   -1.60774E+005    8.01025E+007   -2.65472E+007    8.00918E+007    7.99418E+007   -1.60773E+005   -1.39280E+005   -5.00263E+003    2.01122E+003   -6.39484E+001
             502    8.01064E+007    7.99211E+007    7.99211E+007   -1.69834E+005   -2.00791E+005    8.01219E+007   -2.65168E+007    8.01064E+007    7.99211E+007   -2.00777E+005   -1.69847E+005   -6.54818E+003    2.91429E+003    6.42711E+002
             503    8.01013E+007    7.99028E+007    7.99028E+007   -1.74261E+005   -2.22646E+005    8.01255E+007   -2.65020E+007    8.01013E+007    7.99028E+007   -2.22531E+005   -1.74375E+005   -7.37497E+003    4.03156E+003   -2.34725E+003
             504    8.01028E+007    7.99117E+007    7.99117E+007   -1.59695E+005   -2.22384E+005    8.01341E+007   -2.65099E+007    8.01027E+007    7.99117E+007   -2.06134E+005   -1.75943E+005    5.10764E+003    1.01076E+004   -2.74696E+004
             505    8.00583E+007    7.99873E+007    7.99873E+007   -6.56487E+004   -7.63464E+004    8.00637E+007   -2.66151E+007    8.00583E+007    7.99873E+007   -6.56535E+004   -7.63415E+004    3.96038E+003   -5.67943E+002    2.29326E+002
             506    8.00685E+007    7.99739E+007    7.99739E+007   -8.70931E+004   -1.02054E+005    8.00760E+007   -2.65949E+007    8.00685E+007    7.99739E+007   -8.71744E+004   -1.01973E+005    3.15920E+003   -3.36350E+003   -1.10114E+003
             507    8.00838E+007    7.99522E+007    7.99522E+007   -1.21691E+005   -1.41429E+005    8.00937E+007   -2.65630E+007    8.00838E+007    7.99522E+007   -1.21759E+005   -1.41361E+005    2.78180E+003   -5.95788E+003   -1.15595E+003
             508    8.00950E+007    7.99271E+007    7.99271E+007   -1.54879E+005   -1.80961E+005    8.01081E+007   -2.65304E+007    8.00950E+007    7.99271E+007   -1.54882E+005   -1.80957E+005    1.99450E+003   -7.18422E+003   -3.08057E+002
             509    8.01054E+007    7.99078E+007    7.99078E+007   -1.80045E+005   -2.15174E+005    8.01230E+007   -2.65042E+007    8.01054E+007    7.99078E+007   -1.80141E+005   -2.15078E+005    2.76650E+003   -6.53305E+003    1.83210E+003
             510    8.00987E+007    7.98962E+007    7.98962E+007   -1.74831E+005   -2.30214E+005    8.01264E+007   -2.64971E+007    8.00987E+007    7.98962E+007   -1.74879E+005   -2.30165E+005    3.74020E+003   -4.73597E+003   -1.63744E+003
             511    8.01016E+007    7.99099E+007    7.99099E+007   -1.57502E+005   -2.25751E+005    8.01357E+007   -2.65089E+007    8.01015E+007    7.99099E+007   -1.73672E+005   -2.09580E+005    8.09735E+003    8.57530E+003   -2.90191E+004
             512    8.00756E+007    7.99643E+007    7.99643E+007   -1.04580E+005   -1.18028E+005    8.00823E+007   -2.65806E+007    8.00756E+007    7.99643E+007   -1.18007E+005   -1.04601E+005   -3.14523E+003    2.13746E+003    5.37729E+002
             513    8.00585E+007    7.99803E+007    7.99803E+007   -7.51340E+004   -8.13253E+004    8.00616E+007   -2.66079E+007    8.00585E+007    7.99803E+007   -8.10812E+004   -7.53781E+004   -1.26414E+003    2.09069E+003    1.20494E+003
             514    8.00522E+007    7.99874E+007    7.99874E+007   -6.38184E+004   -6.57809E+004    8.00532E+007   -2.66193E+007    8.00522E+007    7.99874E+007   -6.56263E+004   -6.39730E+004    2.49327E+002    2.50337E+003    5.28805E+002
             515    8.00577E+007    7.99798E+007    7.99798E+007   -7.54099E+004   -8.04439E+004    8.00602E+007   -2.66080E+007    8.00577E+007    7.99798E+007   -8.04051E+004   -7.54486E+004    1.92510E+003    1.89815E+003   -4.39875E+002
             516    8.00736E+007    7.99627E+007    7.99627E+007   -1.04661E+005   -1.17137E+005    8.00798E+007   -2.65803E+007    8.00736E+007    7.99627E+007   -1.17132E+005   -1.04666E+005    4.03171E+003    1.65705E+003   -2.63053E+002
             517    8.00893E+007    7.99387E+007    7.99387E+007   -1.39771E+005   -1.61347E+005    8.01000E+007   -2.65459E+007    8.00893E+007    7.99387E+007   -1.61318E+005   -1.39800E+005    5.92980E+003    1.81150E+003   -7.89193E+002
             518    8.01014E+007    7.99180E+007    7.99180E+007   -1.66601E+005   -2.00191E+005    8.01182E+007   -2.65171E+007    8.01014E+007    7.99180E+007   -2.00138E+005   -1.66652E+005    6.55527E+003    2.81640E+003    1.32139E+003
             519    8.00993E+007    7.99039E+007    7.99039E+007   -1.78427E+005   -2.12394E+005    8.01163E+007   -2.65044E+007    8.00993E+007    7.99039E+007   -2.09358E+005   -1.81462E+005    3.55022E+003    5.09289E+003    9.68979E+003
             520    8.01101E+007    7.99194E+007    7.99194E+007   -1.76604E+005   -2.04813E+005    8.01242E+007   -2.65127E+007    8.01101E+007    7.99194E+007   -1.83123E+005   -1.98292E+005   -8.13903E+003    1.16054E+004    1.18901E+004
             521    8.00745E+007    7.99550E+007    7.99550E+007   -8.36826E+004   -1.55421E+005    8.01104E+007   -2.65720E+007    8.00745E+007    7.99550E+007   -1.49536E+005   -8.95673E+004    9.96582E+002    7.50671E+003   -1.96869E+004
             522    8.00696E+007    7.99380E+007    7.99380E+007   -9.08394E+004   -1.72288E+005    8.01103E+007   -2.65583E+007    8.00695E+007    7.99380E+007   -1.63927E+005   -9.92012E+004    1.24157E+003   -2.07702E+003   -2.47213E+004
             523    8.00837E+007    7.99471E+007    7.99471E+007   -1.02216E+005   -1.70942E+005    8.01181E+007   -2.65580E+007    8.00837E+007    7.99471E+007   -1.60986E+005   -1.12173E+005    9.64427E+002   -2.01517E+002   -2.41891E+004
             524    8.00800E+007    7.99418E+007    7.99418E+007   -1.11419E+005   -1.64965E+005    8.01068E+007   -2.65551E+007    8.00800E+007    7.99418E+007   -1.55352E+005   -1.21033E+005    4.96936E+002    6.19168E+002   -2.05514E+004
             525    8.00862E+007    7.99471E+007    7.99471E+007   -1.22022E+005   -1.56076E+005    8.01032E+007   -2.65563E+007    8.00862E+007    7.99471E+007   -1.46757E+005   -1.31341E+005    1.27598E+002   -3.54142E+002   -1.51824E+004
             526    8.00866E+007    7.99475E+007    7.99475E+007   -1.29412E+005   -1.48675E+005    8.00962E+007   -2.65565E+007    8.00866E+007    7.99475E+007   -1.40136E+005   -1.37950E+005   -4.37866E+001    7.50887E+002   -9.56919E+003
             527    8.00883E+007    7.99493E+007    7.99493E+007   -1.34704E+005   -1.43220E+005    8.00926E+007   -2.65571E+007    8.00883E+007    7.99493E+007   -1.36041E+005   -1.41883E+005   -6.34723E+001   -5.02054E+002   -3.09841E+003
             528    8.00668E+007    7.99656E+007    7.99656E+007   -6.42319E+004   -1.38136E+005    8.01038E+007   -2.65878E+007    8.00668E+007    7.99656E+007   -1.36713E+005   -6.56540E+004    7.74260E+002    1.08249E+004   -1.01577E+004
             529    8.00639E+007    7.99421E+007    7.99421E+007   -7.97259E+004   -1.63760E+005    8.01059E+007   -2.65662E+007    8.00638E+007    7.99421E+007   -1.62128E+005   -8.13580E+004   -2.56447E+002   -3.63988E+003   -1.15975E+004
             530    8.00858E+007    7.99537E+007    7.99537E+007   -9.88864E+004   -1.65157E+005    8.01189E+007   -2.65632E+007    8.00857E+007    7.99537E+007   -1.63260E+005   -1.00783E+005    1.14025E+002   -5.00578E+002   -1.10507E+004
             531    8.00783E+007    7.99430E+007    7.99430E+007   -1.10517E+005   -1.60021E+005    8.01030E+007   -2.65575E+007    8.00783E+007    7.99430E+007   -1.58713E+005   -1.11825E+005    5.82300E+001   -2.93957E+001   -7.93825E+003
             532    8.00836E+007    7.99459E+007    7.99459E+007   -1.24764E+005   -1.50699E+005    8.00966E+007   -2.65568E+007    8.00836E+007    7.99459E+007   -1.49440E+005   -1.26022E+005    2.41209E+002   -9.68706E+002   -5.57257E+003
             533    8.00789E+007    7.99413E+007    7.99413E+007   -1.32620E+005   -1.42612E+005    8.00839E+007   -2.65554E+007    8.00789E+007    7.99413E+007   -1.41706E+005   -1.33526E+005    2.33932E+002    6.29709E+002   -2.86770E+003
             534    8.00794E+007    7.99416E+007    7.99416E+007   -1.36408E+005   -1.39253E+005    8.00808E+007   -2.65553E+007    8.00794E+007    7.99416E+007   -1.37007E+005   -1.38655E+005    2.79773E+002   -7.80822E+002   -1.15936E+003
             535    8.00602E+007    7.99659E+007    7.99659E+007   -5.74204E+004   -1.31107E+005    8.00970E+007   -2.65925E+007    8.00601E+007    7.99659E+007   -1.31090E+005   -5.74355E+004    2.95981E+002    1.12300E+004    1.10734E+003
             536    8.00584E+007    7.99398E+007    7.99398E+007   -7.72917E+004   -1.59663E+005    8.00995E+007   -2.65676E+007    8.00583E+007    7.99398E+007   -1.59583E+005   -7.73708E+004    6.26347E+001   -3.49902E+003    2.55342E+003
             537    8.00822E+007    7.99519E+007    7.99519E+007   -9.80282E+004   -1.62667E+005    8.01145E+007   -2.65637E+007    8.00822E+007    7.99519E+007   -1.62363E+005   -9.83314E+004    6.84813E+001   -2.98697E+002    4.41662E+003
             538    8.00768E+007    7.99418E+007    7.99418E+007   -1.10458E+005   -1.59405E+005    8.01012E+007   -2.65573E+007    8.00767E+007    7.99418E+007   -1.58798E+005   -1.11065E+005   -2.83211E+001    4.82152E+002    5.41714E+003
             539    8.00857E+007    7.99478E+007    7.99478E+007   -1.24387E+005   -1.51544E+005    8.00993E+007   -2.65573E+007    8.00857E+007    7.99478E+007   -1.50391E+005   -1.25541E+005   -1.02437E+002   -6.45749E+002    5.47667E+003
             540    8.00842E+007    7.99458E+007    7.99458E+007   -1.32077E+005   -1.44852E+005    8.00906E+007   -2.65563E+007    8.00842E+007    7.99458E+007   -1.43604E+005   -1.33325E+005   -1.05250E+002    9.15509E+002    3.79316E+003
             541    8.00868E+007    7.99479E+007    7.99479E+007   -1.37282E+005   -1.40431E+005    8.00883E+007   -2.65567E+007    8.00868E+007    7.99479E+007   -1.39250E+005   -1.38463E+005   -9.04758E+001   -7.25548E+002    1.52451E+003
             542    8.00677E+007    7.99652E+007    7.99652E+007   -6.61440E+004   -1.38847E+005    8.01040E+007   -2.65867E+007    8.00676E+007    7.99652E+007   -1.36746E+005   -6.82438E+004   -6.48834E+002    1.02878E+004    1.21797E+004
             543    8.00657E+007    7.99416E+007    7.99416E+007   -8.17717E+004   -1.66197E+005    8.01078E+007   -2.65646E+007    8.00656E+007    7.99416E+007   -1.62731E+005   -8.52383E+004   -3.65874E+002   -3.30536E+003    1.67529E+004
             544    8.00868E+007    7.99525E+007    7.99525E+007   -9.99503E+004   -1.68613E+005    8.01211E+007   -2.65613E+007    8.00867E+007    7.99525E+007   -1.62994E+005   -1.05570E+005   -6.35112E+002   -4.26807E+002    1.88221E+004
             545    8.00798E+007    7.99424E+007    7.99424E+007   -1.10077E+005   -1.64525E+005    8.01070E+007   -2.65559E+007    8.00797E+007    7.99424E+007   -1.57419E+005   -1.17184E+005   -2.53509E+002    1.14736E+002    1.83419E+004
             546    8.00846E+007    7.99457E+007    7.99457E+007   -1.21948E+005   -1.55810E+005    8.01015E+007   -2.65560E+007    8.00846E+007    7.99457E+007   -1.46451E+005   -1.31308E+005   -1.98533E+002   -7.87222E+002    1.51436E+004
             547    8.00797E+007    7.99417E+007    7.99417E+007   -1.27738E+005   -1.48300E+005    8.00900E+007   -2.65552E+007    8.00797E+007    7.99417E+007   -1.37384E+005   -1.38653E+005   -8.74699E-001    6.38238E+002    1.02615E+004
             548    8.00801E+007    7.99424E+007    7.99424E+007   -1.30879E+005   -1.44591E+005    8.00870E+007   -2.65556E+007    8.00801E+007    7.99424E+007   -1.31728E+005   -1.43743E+005    4.85754E+001   -6.63291E+002    3.30431E+003
             549    8.00772E+007    7.99540E+007    7.99540E+007   -8.82019E+004   -1.58232E+005    8.01122E+007   -2.65692E+007    8.00772E+007    7.99540E+007   -1.51398E+005   -9.50350E+004    3.42853E+002    6.33934E+003    2.07813E+004
             550    8.00745E+007    7.99389E+007    7.99389E+007   -9.45080E+004   -1.76661E+005    8.01155E+007   -2.65559E+007    8.00744E+007    7.99389E+007   -1.65238E+005   -1.05931E+005   -7.13415E+002   -1.68133E+003    2.84248E+004
             551    8.00873E+007    7.99461E+007    7.99461E+007   -1.04476E+005   -1.77784E+005    8.01239E+007   -2.65546E+007    8.00872E+007    7.99461E+007   -1.61781E+005   -1.20478E+005   -7.34895E+002    5.28936E+000    3.02822E+004
             552    8.00830E+007    7.99414E+007    7.99414E+007   -1.10837E+005   -1.72323E+005    8.01137E+007   -2.65527E+007    8.00829E+007    7.99414E+007   -1.53156E+005   -1.30004E+005   -3.97403E+002    7.22859E+002    2.84807E+004
             553    8.00870E+007    7.99460E+007    7.99460E+007   -1.17329E+005   -1.64504E+005    8.01106E+007   -2.65547E+007    8.00869E+007    7.99460E+007   -1.41371E+005   -1.40462E+005   -1.48006E+002    3.66061E+001    2.35830E+004
             554    8.00854E+007    7.99464E+007    7.99464E+007   -1.21803E+005   -1.56191E+005    8.01026E+007   -2.65561E+007    8.00854E+007    7.99464E+007   -1.31464E+005   -1.46530E+005    2.16274E+002    7.32188E+002    1.54561E+004
             555    8.00866E+007    7.99486E+007    7.99486E+007   -1.24446E+005   -1.51568E+005    8.01001E+007   -2.65575E+007    8.00866E+007    7.99486E+007   -1.25554E+005   -1.50459E+005    3.32188E+002   -2.63953E+002    5.37001E+003
             556    8.00923E+007    7.99412E+007    7.99412E+007   -1.16495E+005   -1.85521E+005    8.01268E+007   -2.65464E+007    8.00922E+007    7.99412E+007   -1.72594E+005   -1.29422E+005    3.55418E+003    3.67211E+001    2.69297E+004
             557    8.00948E+007    7.99424E+007    7.99424E+007   -1.10977E+005   -1.93892E+005    8.01362E+007   -2.65458E+007    8.00947E+007    7.99424E+007   -1.71804E+005   -1.33065E+005    5.36665E+002   -1.19712E+003    3.66540E+004
             558    8.00944E+007    7.99434E+007    7.99434E+007   -1.11759E+005   -1.90291E+005    8.01336E+007   -2.65471E+007    8.00943E+007    7.99434E+007   -1.62658E+005   -1.39391E+005   -5.79568E+002   -1.71702E+002    3.75033E+004
             559    8.00901E+007    7.99428E+007    7.99428E+007   -1.11243E+005   -1.83263E+005    8.01260E+007   -2.65494E+007    8.00900E+007    7.99428E+007   -1.49063E+005   -1.45443E+005   -1.29492E+002    1.85920E+002    3.59646E+004
             560    8.00847E+007    7.99426E+007    7.99426E+007   -1.11390E+005   -1.72829E+005    8.01154E+007   -2.65528E+007    8.00847E+007    7.99426E+007   -1.32344E+005   -1.51875E+005   -2.65975E+002    3.24073E+002    2.91256E+004
             561    8.00788E+007    7.99414E+007    7.99414E+007   -1.10232E+005   -1.64429E+005    8.01058E+007   -2.65556E+007    8.00787E+007    7.99414E+007   -1.18391E+005   -1.56270E+005    2.69213E+002    2.92099E+002    1.93807E+004
             562    8.00759E+007    7.99413E+007    7.99413E+007   -1.09324E+005   -1.59834E+005    8.01012E+007   -2.65574E+007    8.00759E+007    7.99413E+007   -1.10131E+005   -1.59027E+005    3.59148E+002    8.98510E+001    6.33533E+003
             563    8.00943E+007    7.99184E+007    7.99184E+007   -1.45168E+005   -2.06704E+005    8.01251E+007   -2.65222E+007    8.00943E+007    7.99184E+007   -1.87637E+005   -1.64233E+005    8.20180E+003   -7.47611E+003    2.84550E+004
             564    8.01057E+007    7.99367E+007    7.99367E+007   -1.30549E+005   -2.07387E+005    8.01441E+007   -2.65329E+007    8.01056E+007    7.99367E+007   -1.75809E+005   -1.62127E+005    1.64263E+003   -1.78587E+003    3.78049E+004
             565    8.00945E+007    7.99336E+007    7.99336E+007   -1.21571E+005   -2.00134E+005    8.01337E+007   -2.65373E+007    8.00944E+007    7.99336E+007   -1.62700E+005   -1.59005E+005   -4.89456E+001    2.76151E+002    3.92379E+004
             566    8.00931E+007    7.99409E+007    7.99409E+007   -1.13140E+005   -1.91240E+005    8.01321E+007   -2.65455E+007    8.00930E+007    7.99409E+007   -1.43734E+005   -1.60646E+005    1.54965E+002    4.23309E+002    3.81231E+004
             567    8.00875E+007    7.99446E+007    7.99446E+007   -1.06613E+005   -1.79297E+005    8.01238E+007   -2.65529E+007    8.00875E+007    7.99446E+007   -1.25253E+005   -1.60657E+005    8.01525E+001    1.20386E+003    3.17397E+004
             568    8.00866E+007    7.99512E+007    7.99512E+007   -1.01394E+005   -1.69345E+005    8.01206E+007   -2.65602E+007    8.00866E+007    7.99512E+007   -1.08970E+005   -1.61768E+005    1.51200E+002    3.12714E+002    2.13880E+004
             569    8.00846E+007    7.99538E+007    7.99538E+007   -9.87626E+004   -1.62751E+005    8.01166E+007   -2.65641E+007    8.00845E+007    7.99538E+007   -9.96321E+004   -1.61882E+005    5.49405E+001    6.03143E+002    7.40835E+003
             570    8.00943E+007    7.99012E+007    7.99012E+007   -1.71660E+005   -2.14368E+005    8.01156E+007   -2.65051E+007    8.00942E+007    7.99012E+007   -1.97132E+005   -1.88891E+005    1.34316E+004   -1.41948E+004    2.09502E+004
             571    8.01262E+007    7.99396E+007    7.99396E+007   -1.50419E+005   -2.22574E+005    8.01622E+007   -2.65222E+007    8.01261E+007    7.99396E+007   -1.87132E+005   -1.85859E+005    6.38559E+003   -7.55579E+003    3.60715E+004
             572    8.01083E+007    7.99362E+007    7.99362E+007   -1.34255E+005   -2.09864E+005    8.01460E+007   -2.65307E+007    8.01082E+007    7.99362E+007   -1.67798E+005   -1.76321E+005    9.72797E+002   -1.32330E+003    3.75638E+004
             573    8.01004E+007    7.99430E+007    7.99430E+007   -1.17276E+005   -1.97445E+005    8.01404E+007   -2.65428E+007    8.01003E+007    7.99430E+007   -1.42906E+005   -1.71815E+005    4.62690E+002   -7.87546E+002    3.73874E+004
             574    8.00804E+007    7.99398E+007    7.99398E+007   -1.00648E+005   -1.80567E+005    8.01203E+007   -2.65529E+007    8.00803E+007    7.99398E+007   -1.15353E+005   -1.65862E+005    1.26890E+003    1.46688E+003    3.09681E+004
             575    8.00674E+007    7.99400E+007    7.99400E+007   -8.66606E+004   -1.68021E+005    8.01081E+007   -2.65618E+007    8.00673E+007    7.99400E+007   -9.22863E+004   -1.62395E+005    3.55717E+003    2.11044E+001    2.06416E+004
             576    8.00581E+007    7.99389E+007    7.99389E+007   -7.77471E+004   -1.60457E+005    8.00994E+007   -2.65669E+007    8.00580E+007    7.99389E+007   -7.83761E+004   -1.59828E+005    4.67750E+003    5.12313E+002    7.18713E+003
             577    8.00645E+007    7.98631E+007    7.98631E+007   -1.96842E+005   -2.05817E+005    8.00690E+007   -2.64868E+007    8.00645E+007    7.98631E+007   -2.00962E+005   -2.01693E+005    1.05785E+004   -1.31041E+004    4.47114E+003
             578    8.01014E+007    7.99039E+007    7.99039E+007   -1.77317E+005   -2.17779E+005    8.01216E+007   -2.65029E+007    8.01014E+007    7.99039E+007   -1.89793E+005   -2.05299E+005    1.18173E+004   -1.37905E+004    1.86845E+004
             579    8.00995E+007    7.99148E+007    7.99148E+007   -1.58653E+005   -2.10682E+005    8.01255E+007   -2.65151E+007    8.00994E+007    7.99148E+007   -1.76506E+005   -1.92828E+005    7.81244E+003   -7.13726E+003    2.47007E+004
             580    8.00963E+007    7.99344E+007    7.99344E+007   -1.30590E+005   -1.93073E+005    8.01275E+007   -2.65369E+007    8.00962E+007    7.99344E+007   -1.45829E+005   -1.77834E+005    2.53125E+003   -4.05314E+003    2.68317E+004
             581    8.00821E+007    7.99472E+007    7.99472E+007   -1.01186E+005   -1.68577E+005    8.01158E+007   -2.65591E+007    8.00820E+007    7.99472E+007   -1.11754E+005   -1.58010E+005   -3.41650E+003   -4.11749E+002    2.45047E+004
             582    8.00711E+007    7.99606E+007    7.99606E+007   -7.43663E+004   -1.46719E+005    8.01073E+007   -2.65798E+007    8.00710E+007    7.99606E+007   -7.87939E+004   -1.42291E+005   -9.25186E+003    1.10158E+002    1.73440E+004
             583    8.00627E+007    7.99666E+007    7.99666E+007   -5.93298E+004   -1.32674E+005    8.00993E+007   -2.65915E+007    8.00626E+007    7.99666E+007   -5.98301E+004   -1.32172E+005   -1.22521E+004    9.69005E+002    6.04739E+003
             584    8.00538E+007    7.99858E+007    7.99858E+007   -6.66146E+004   -6.95073E+004    8.00553E+007   -2.66166E+007    8.00538E+007    7.99858E+007   -6.66164E+004   -6.95053E+004   -2.22345E+003   -9.42623E+002    7.41928E+001
             585    8.00655E+007    7.99726E+007    7.99726E+007   -8.86879E+004   -9.71909E+004    8.00698E+007   -2.65956E+007    8.00655E+007    7.99726E+007   -8.87189E+004   -9.71596E+004   -2.09251E+003   -3.01736E+003    5.13581E+002
             586    8.00820E+007    7.99512E+007    7.99512E+007   -1.23390E+005   -1.38084E+005    8.00893E+007   -2.65633E+007    8.00820E+007    7.99512E+007   -1.23790E+005   -1.37685E+005   -1.90675E+003   -4.70452E+003    2.38954E+003
             587    8.00967E+007    7.99290E+007    7.99290E+007   -1.60476E+005   -1.74949E+005    8.01040E+007   -2.65312E+007    8.00967E+007    7.99290E+007   -1.60595E+005   -1.74830E+005   -1.61821E+003   -4.55351E+003    1.30221E+003
             588    8.01088E+007    7.99138E+007    7.99138E+007   -1.85322E+005   -2.04627E+005    8.01185E+007   -2.65080E+007    8.01088E+007    7.99138E+007   -1.85360E+005   -2.04589E+005   -2.68470E+003   -4.63744E+003   -8.55101E+002
             589    8.01067E+007    7.98989E+007    7.98989E+007   -1.97267E+005   -2.18211E+005    8.01171E+007   -2.64945E+007    8.01067E+007    7.98989E+007   -1.98325E+005   -2.17153E+005   -4.05189E+003   -4.15281E+003   -4.58668E+003
             590    8.01125E+007    7.99122E+007    7.99122E+007   -1.86261E+005   -2.14243E+005    8.01265E+007   -2.65039E+007    8.01125E+007    7.99122E+007   -1.86376E+005   -2.14125E+005   -9.20283E+003    7.78652E+003   -1.80311E+003
             591    8.01031E+007    7.99125E+007    7.99125E+007   -1.58073E+005   -2.23215E+005    8.01357E+007   -2.65104E+007    8.01031E+007    7.99125E+007   -2.05690E+005   -1.75596E+005    4.87371E+003   -1.05754E+004    2.88864E+004
             592    8.01022E+007    7.99041E+007    7.99041E+007   -1.73224E+005   -2.23134E+005    8.01272E+007   -2.65026E+007    8.01022E+007    7.99041E+007   -2.22940E+005   -1.73417E+005   -7.14455E+003   -4.80992E+003    3.10471E+003
             593    8.01075E+007    7.99212E+007    7.99212E+007   -1.70444E+005   -2.02120E+005    8.01233E+007   -2.65162E+007    8.01075E+007    7.99212E+007   -2.02116E+005   -1.70447E+005   -7.39146E+003   -2.93684E+003   -3.07827E+002
             594    8.00946E+007    7.99440E+007    7.99440E+007   -1.39700E+005   -1.61458E+005    8.01055E+007   -2.65476E+007    8.00946E+007    7.99440E+007   -1.61457E+005   -1.39701E+005   -5.31194E+003   -2.46575E+003    9.64848E+001
             595    8.00931E+007    7.99471E+007    7.99471E+007   -1.09880E+005   -1.82151E+005    8.01292E+007   -2.65517E+007    8.00930E+007    7.99471E+007   -1.70588E+005   -1.21443E+005   -1.32227E+003   -4.55063E+003    2.64948E+004
             596    8.00879E+007    7.99413E+007    7.99413E+007   -1.04618E+005   -1.88497E+005    8.01298E+007   -2.65494E+007    8.00878E+007    7.99413E+007   -1.70399E+005   -1.22717E+005   -2.10674E+002    1.55026E+003    3.45040E+004
             597    8.00933E+007    7.99474E+007    7.99474E+007   -1.07462E+005   -1.84226E+005    8.01317E+007   -2.65519E+007    8.00932E+007    7.99474E+007   -1.61631E+005   -1.30057E+005    6.21403E+002    3.84540E+002    3.49850E+004
             598    8.00866E+007    7.99436E+007    7.99436E+007   -1.10787E+005   -1.75064E+005    8.01187E+007   -2.65526E+007    8.00865E+007    7.99436E+007   -1.50683E+005   -1.35168E+005    3.13189E+002   -2.34615E+002    3.11885E+004
             599    8.00846E+007    7.99438E+007    7.99438E+007   -1.16308E+005   -1.65321E+005    8.01091E+007   -2.65541E+007    8.00846E+007    7.99438E+007   -1.38252E+005   -1.43377E+005    2.95282E+002    1.78633E+002    2.43724E+004
             600    8.00791E+007    7.99409E+007    7.99409E+007   -1.19775E+005   -1.56703E+005    8.00976E+007   -2.65548E+007    8.00791E+007    7.99409E+007   -1.28215E+005   -1.48263E+005   -2.57659E+002   -4.60055E+002    1.55063E+004
             601    8.00768E+007    7.99396E+007    7.99396E+007   -1.21485E+005   -1.52748E+005    8.00924E+007   -2.65551E+007    8.00768E+007    7.99396E+007   -1.22453E+005   -1.51780E+005   -5.94251E+002    1.47700E+002    5.41598E+003
             602    8.00973E+007    7.99259E+007    7.99259E+007   -1.37402E+005   -2.05430E+005    8.01313E+007   -2.65277E+007    8.00972E+007    7.99259E+007   -1.87662E+005   -1.55169E+005   -5.91758E+003    2.67360E+003    2.98826E+004
             603    8.00972E+007    7.99343E+007    7.99343E+007   -1.21893E+005   -2.03799E+005    8.01381E+007   -2.65362E+007    8.00971E+007    7.99343E+007   -1.73382E+005   -1.52309E+005    9.46641E+001    5.77718E+002    3.95746E+004
             604    8.00900E+007    7.99350E+007    7.99350E+007   -1.15248E+005   -1.94678E+005    8.01297E+007   -2.65417E+007    8.00899E+007    7.99350E+007   -1.58662E+005   -1.51263E+005    4.24926E+002   -3.55804E+002    3.95424E+004
             605    8.00890E+007    7.99403E+007    7.99403E+007   -1.11190E+005   -1.86047E+005    8.01264E+007   -2.65477E+007    8.00889E+007    7.99403E+007   -1.43767E+005   -1.53470E+005    1.83749E+002   -5.52228E+002    3.71130E+004
             606    8.00872E+007    7.99448E+007    7.99448E+007   -1.09665E+005   -1.74921E+005    8.01198E+007   -2.65534E+007    8.00871E+007    7.99448E+007   -1.29151E+005   -1.55436E+005    3.71348E+002   -8.26140E+002    2.98643E+004
             607    8.00881E+007    7.99500E+007    7.99500E+007   -1.09788E+005   -1.66501E+005    8.01165E+007   -2.65579E+007    8.00881E+007    7.99500E+007   -1.17843E+005   -1.58446E+005    8.17898E+002   -1.89823E+002    1.97980E+004
             608    8.00895E+007    7.99538E+007    7.99538E+007   -1.10753E+005   -1.60497E+005    8.01143E+007   -2.65609E+007    8.00894E+007    7.99538E+007   -1.11648E+005   -1.59601E+005    1.64374E+003   -1.93171E+002    6.61426E+003
             609    8.01031E+007    7.99116E+007    7.99116E+007   -1.59984E+005   -2.22900E+005    8.01345E+007   -2.65096E+007    8.01030E+007    7.99116E+007   -2.01886E+005   -1.80993E+005   -1.46068E+004    1.14949E+004    2.96707E+004
             610    8.01280E+007    7.99468E+007    7.99468E+007   -1.39871E+005   -2.22609E+005    8.01694E+007   -2.65281E+007    8.01279E+007    7.99468E+007   -1.84872E+005   -1.77608E+005   -4.55715E+003    4.93023E+003    4.12093E+004
             611    8.01092E+007    7.99418E+007    7.99418E+007   -1.25118E+005   -2.09647E+005    8.01514E+007   -2.65357E+007    8.01091E+007    7.99418E+007   -1.64928E+005   -1.69837E+005    7.58548E+002    1.61381E+002    4.21935E+004
             612    8.01000E+007    7.99458E+007    7.99458E+007   -1.11275E+005   -1.96989E+005    8.01428E+007   -2.65459E+007    8.00999E+007    7.99458E+007   -1.40019E+005   -1.68244E+005    4.31333E+002   -2.15051E+002    4.04667E+004
             613    8.00835E+007    7.99411E+007    7.99411E+007   -1.01517E+005   -1.83210E+005    8.01244E+007   -2.65521E+007    8.00834E+007    7.99411E+007   -1.17947E+005   -1.66780E+005   -1.16332E+003   -1.72949E+003    3.27460E+004
             614    8.00732E+007    7.99404E+007    7.99404E+007   -9.28798E+004   -1.72711E+005    8.01131E+007   -2.65583E+007    8.00731E+007    7.99404E+007   -9.91522E+004   -1.66439E+005   -4.27325E+003   -7.10842E+002    2.14804E+004
             615    8.00654E+007    7.99374E+007    7.99374E+007   -8.91510E+004   -1.66909E+005    8.01043E+007   -2.65604E+007    8.00653E+007    7.99374E+007   -8.98187E+004   -1.66241E+005   -6.78842E+003   -9.85696E+002    7.17733E+003
             616    8.00568E+007    7.98557E+007    7.98557E+007   -1.90491E+005   -2.11556E+005    8.00673E+007   -2.64846E+007    8.00568E+007    7.98557E+007   -2.01805E+005   -2.00234E+005   -1.93310E+004    1.64629E+004    1.04996E+004
             617    8.01003E+007    7.99043E+007    7.99043E+007   -1.66340E+005   -2.25678E+005    8.01300E+007   -2.65041E+007    8.01003E+007    7.99043E+007   -1.90027E+005   -2.01985E+005   -1.68845E+004    1.44588E+004    2.90570E+004
             618    8.00965E+007    7.99146E+007    7.99146E+007   -1.48380E+005   -2.15354E+005    8.01299E+007   -2.65170E+007    8.00964E+007    7.99146E+007   -1.70703E+005   -1.93029E+005   -1.12971E+004    8.04165E+003    3.15710E+004
             619    8.00966E+007    7.99352E+007    7.99352E+007   -1.24489E+005   -1.98163E+005    8.01334E+007   -2.65375E+007    8.00965E+007    7.99352E+007   -1.42330E+005   -1.80321E+005   -4.21539E+003    4.73145E+003    3.15611E+004
             620    8.00816E+007    7.99456E+007    7.99456E+007   -9.69458E+004   -1.75103E+005    8.01207E+007   -2.65578E+007    8.00816E+007    7.99456E+007   -1.08894E+005   -1.63155E+005    1.68515E+003    2.86521E+002    2.81261E+004
             621    8.00716E+007    7.99553E+007    7.99553E+007   -7.49131E+004   -1.57526E+005    8.01128E+007   -2.65743E+007    8.00715E+007    7.99553E+007   -8.01616E+004   -1.52277E+005    7.10620E+003    3.83972E+002    2.01517E+004
             622    8.00641E+007    7.99600E+007    7.99600E+007   -6.13271E+004   -1.46953E+005    8.01069E+007   -2.65839E+007    8.00640E+007    7.99600E+007   -6.20952E+004   -1.46184E+005    1.10344E+004   -5.79933E+002    8.08115E+003
             623    8.00565E+007    7.99853E+007    7.99853E+007   -6.59585E+004   -7.64648E+004    8.00617E+007   -2.66143E+007    8.00565E+007    7.99853E+007   -6.59770E+004   -7.64460E+004    3.49735E+003    2.38542E+003    4.42253E+002
             624    8.00655E+007    7.99711E+007    7.99711E+007   -8.69706E+004   -1.01971E+005    8.00730E+007   -2.65940E+007    8.00655E+007    7.99711E+007   -8.70457E+004   -1.01895E+005    2.86405E+003    3.70658E+003    1.05970E+003
             625    8.00807E+007    7.99495E+007    7.99495E+007   -1.21115E+005   -1.41167E+005    8.00907E+007   -2.65624E+007    8.00807E+007    7.99495E+007   -1.21172E+005   -1.41109E+005    2.07596E+003    5.51039E+003    1.06900E+003
             626    8.00940E+007    7.99265E+007    7.99265E+007   -1.54726E+005   -1.80334E+005    8.01068E+007   -2.65305E+007    8.00940E+007    7.99265E+007   -1.54729E+005   -1.80331E+005    1.18415E+003    5.78329E+003    2.58374E+002
             627    8.01062E+007    7.99092E+007    7.99092E+007   -1.79870E+005   -2.13992E+005    8.01232E+007   -2.65051E+007    8.01061E+007    7.99092E+007   -1.79976E+005   -2.13884E+005    2.49219E+003    6.05908E+003   -1.90462E+003
             628    8.00997E+007    7.98966E+007    7.98966E+007   -1.76301E+005   -2.29741E+005    8.01264E+007   -2.64969E+007    8.00996E+007    7.98966E+007   -1.76334E+005   -2.29709E+005    3.17729E+003    4.76068E+003    1.32105E+003
             629    8.01022E+007    7.99102E+007    7.99102E+007   -1.58152E+005   -2.25647E+005    8.01359E+007   -2.65088E+007    8.01021E+007    7.99102E+007   -1.73727E+005   -2.10069E+005    8.08916E+003   -7.81467E+003    2.84372E+004
             630    8.00620E+007    7.99660E+007    7.99660E+007   -5.94617E+004   -1.32468E+005    8.00985E+007   -2.65914E+007    8.00619E+007    7.99660E+007   -5.99744E+004   -1.31953E+005   -1.18143E+004   -7.27709E+002   -6.10700E+003
             631    8.00587E+007    7.99397E+007    7.99397E+007   -7.76430E+004   -1.60385E+005    8.01001E+007   -2.65672E+007    8.00586E+007    7.99397E+007   -7.83179E+004   -1.59710E+005    4.25708E+003   -7.00788E+002   -7.44311E+003
             632    8.00840E+007    7.99532E+007    7.99532E+007   -9.85762E+004   -1.62932E+005    8.01162E+007   -2.65639E+007    8.00839E+007    7.99532E+007   -9.95392E+004   -1.61969E+005    2.68646E+002   -4.85635E+002   -7.81359E+003
             633    8.00760E+007    7.99413E+007    7.99413E+007   -1.09504E+005   -1.59814E+005    8.01012E+007   -2.65573E+007    8.00760E+007    7.99413E+007   -1.10487E+005   -1.58831E+005    2.93551E+002   -1.29642E+002   -6.96223E+003
             634    8.00859E+007    7.99480E+007    7.99480E+007   -1.24371E+005   -1.51549E+005    8.00995E+007   -2.65574E+007    8.00859E+007    7.99480E+007   -1.25669E+005   -1.50252E+005    3.78006E+002    2.34615E+002   -5.79554E+003
             635    8.00802E+007    7.99424E+007    7.99424E+007   -1.30939E+005   -1.44540E+005    8.00870E+007   -2.65556E+007    8.00802E+007    7.99424E+007   -1.31935E+005   -1.43544E+005   -3.66318E+001    6.49846E+002   -3.54359E+003
             636    8.00863E+007    7.99475E+007    7.99475E+007   -1.37148E+005   -1.40446E+005    8.00880E+007   -2.65566E+007    8.00863E+007    7.99475E+007   -1.39240E+005   -1.38354E+005   -6.05403E+001    6.97187E+002   -1.58850E+003
             637    8.00799E+007    7.99420E+007    7.99420E+007   -1.36430E+005   -1.39337E+005    8.00814E+007   -2.65554E+007    8.00799E+007    7.99420E+007   -1.37100E+005   -1.38667E+005    1.86974E+002    8.00057E+002    1.22380E+003
             638    8.00882E+007    7.99492E+007    7.99492E+007   -1.34599E+005   -1.43311E+005    8.00925E+007   -2.65571E+007    8.00882E+007    7.99492E+007   -1.35802E+005   -1.42108E+005   -4.13316E+001    5.11232E+002    3.00579E+003
             639    8.00711E+007    7.99606E+007    7.99606E+007   -7.48629E+004   -1.46202E+005    8.01068E+007   -2.65798E+007    8.00711E+007    7.99606E+007   -7.91469E+004   -1.41917E+005   -9.50588E+003   -7.18628E+002   -1.69508E+004
             640    8.00673E+007    7.99398E+007    7.99398E+007   -8.68251E+004   -1.68104E+005    8.01079E+007   -2.65616E+007    8.00672E+007    7.99398E+007   -9.26182E+004   -1.62311E+005    3.36838E+003    2.81636E+002   -2.09119E+004
             641    8.00866E+007    7.99509E+007    7.99509E+007   -1.01471E+005   -1.69964E+005    8.01209E+007   -2.65598E+007    8.00866E+007    7.99509E+007   -1.09561E+005   -1.61874E+005    2.62727E+002   -4.18224E+002   -2.21060E+004
             642    8.00795E+007    7.99418E+007    7.99418E+007   -1.10515E+005   -1.64812E+005    8.01066E+007   -2.65555E+007    8.00795E+007    7.99418E+007   -1.19178E+005   -1.56150E+005    1.99327E+002   -2.32425E+002   -1.98825E+004
             643    8.00857E+007    7.99466E+007    7.99466E+007   -1.21678E+005   -1.56597E+005    8.01032E+007   -2.65561E+007    8.00857E+007    7.99466E+007   -1.31944E+005   -1.46331E+005    3.06068E+002   -6.97361E+002   -1.59088E+004
             644    8.00802E+007    7.99421E+007    7.99421E+007   -1.27803E+005   -1.48404E+005    8.00905E+007   -2.65553E+007    8.00802E+007    7.99421E+007   -1.37875E+005   -1.38332E+005   -6.94707E+001   -6.19098E+002   -1.02982E+004
             645    8.00840E+007    7.99456E+007    7.99456E+007   -1.32066E+005   -1.44742E+005    8.00904E+007   -2.65563E+007    8.00840E+007    7.99456E+007   -1.43508E+005   -1.33300E+005    2.48275E+001   -9.14858E+002   -3.75774E+003
             646    8.00795E+007    7.99418E+007    7.99418E+007   -1.32448E+005   -1.42913E+005    8.00847E+007   -2.65555E+007    8.00795E+007    7.99418E+007   -1.41946E+005   -1.33415E+005    1.34133E+002   -6.40432E+002    3.03002E+003
             647    8.00851E+007    7.99463E+007    7.99463E+007   -1.29218E+005   -1.48498E+005    8.00948E+007   -2.65562E+007    8.00851E+007    7.99463E+007   -1.39553E+005   -1.38163E+005    2.89579E+001   -7.62185E+002    9.61521E+003
             648    8.00837E+007    7.99487E+007    7.99487E+007   -1.01636E+005   -1.68396E+005    8.01171E+007   -2.65595E+007    8.00836E+007    7.99487E+007   -1.11842E+005   -1.58189E+005   -4.93347E+003   -1.21424E+002   -2.40255E+004
             649    8.00795E+007    7.99381E+007    7.99381E+007   -1.01386E+005   -1.81295E+005    8.01194E+007   -2.65518E+007    8.00794E+007    7.99381E+007   -1.16296E+005   -1.66385E+005    1.66806E+003   -1.25459E+003   -3.11308E+004
             650    8.00889E+007    7.99452E+007    7.99452E+007   -1.07189E+005   -1.80138E+005    8.01253E+007   -2.65526E+007    8.00888E+007    7.99452E+007   -1.26963E+005   -1.60364E+005    1.27247E+002   -1.22479E+003   -3.24268E+004
             651    8.00838E+007    7.99415E+007    7.99415E+007   -1.11587E+005   -1.72973E+005    8.01145E+007   -2.65523E+007    8.00838E+007    7.99415E+007   -1.33590E+005   -1.50970E+005   -3.77144E+002   -4.22713E+002   -2.94367E+004
             652    8.00866E+007    7.99458E+007    7.99458E+007   -1.17238E+005   -1.64447E+005    8.01102E+007   -2.65547E+007    8.00866E+007    7.99458E+007   -1.42433E+005   -1.39252E+005    2.94813E+001   -1.07752E+002   -2.35508E+004
             653    8.00842E+007    7.99455E+007    7.99455E+007   -1.21805E+005   -1.55650E+005    8.01011E+007   -2.65560E+007    8.00842E+007    7.99455E+007   -1.46915E+005   -1.30540E+005   -4.46780E+002    6.86352E+002   -1.48099E+004
             654    8.00853E+007    7.99474E+007    7.99474E+007   -1.24241E+005   -1.51469E+005    8.00989E+007   -2.65572E+007    8.00853E+007    7.99474E+007   -1.50490E+005   -1.25221E+005    3.39491E+001    6.63593E+002   -5.07080E+003
             655    8.00842E+007    7.99464E+007    7.99464E+007   -1.24832E+005   -1.50788E+005    8.00972E+007   -2.65569E+007    8.00842E+007    7.99464E+007   -1.49348E+005   -1.26272E+005    3.01756E+001    9.70893E+002    5.94106E+003
             656    8.00861E+007    7.99470E+007    7.99470E+007   -1.22109E+005   -1.56066E+005    8.01031E+007   -2.65563E+007    8.00861E+007    7.99470E+007   -1.46186E+005   -1.31990E+005    2.08069E+002    3.98658E+002    1.54235E+004
             657    8.00971E+007    7.99349E+007    7.99349E+007   -1.30765E+005   -1.93781E+005    8.01286E+007   -2.65368E+007    8.00971E+007    7.99349E+007   -1.45967E+005   -1.78578E+005    1.38842E+003    3.97595E+003   -2.69604E+004
             658    8.00997E+007    7.99415E+007    7.99415E+007   -1.18249E+005   -1.98202E+005    8.01397E+007   -2.65417E+007    8.00996E+007    7.99415E+007   -1.44222E+005   -1.72229E+005    7.62815E+002    7.42771E+002   -3.74432E+004
             659    8.00939E+007    7.99411E+007    7.99411E+007   -1.13685E+005   -1.91820E+005    8.01329E+007   -2.65452E+007    8.00938E+007    7.99411E+007   -1.45574E+005   -1.59931E+005    1.62199E+002   -3.66817E+002   -3.84019E+004
             660    8.00906E+007    7.99433E+007    7.99433E+007   -1.11200E+005   -1.83257E+005    8.01266E+007   -2.65496E+007    8.00905E+007    7.99433E+007   -1.50087E+005   -1.44371E+005   -1.26635E+002   -2.14141E+002   -3.59148E+004
             661    8.00838E+007    7.99424E+007    7.99424E+007   -1.10622E+005   -1.72152E+005    8.01146E+007   -2.65532E+007    8.00838E+007    7.99424E+007   -1.53833E+005   -1.28942E+005   -4.13030E+002   -7.08452E+002   -2.81351E+004
             662    8.00799E+007    7.99428E+007    7.99428E+007   -1.09921E+005   -1.64262E+005    8.01070E+007   -2.65562E+007    8.00798E+007    7.99428E+007   -1.57644E+005   -1.16539E+005   -2.54145E+002   -9.13399E+001   -1.77712E+004
             663    8.00771E+007    7.99422E+007    7.99422E+007   -1.10596E+005   -1.59237E+005    8.01014E+007   -2.65575E+007    8.00771E+007    7.99422E+007   -1.58743E+005   -1.11090E+005   -2.11399E-001   -5.58853E+002   -4.87832E+003
             664    8.00780E+007    7.99427E+007    7.99427E+007   -1.10683E+005   -1.60022E+005    8.01027E+007   -2.65573E+007    8.00780E+007    7.99427E+007   -1.58589E+005   -1.12116E+005   -6.42355E+001    3.46402E+001    8.28573E+003
             665    8.00790E+007    7.99409E+007    7.99409E+007   -1.11564E+005   -1.64707E+005    8.01056E+007   -2.65549E+007    8.00790E+007    7.99409E+007   -1.55002E+005   -1.21269E+005    5.52611E+002   -5.86383E+002    2.05322E+004
             666    8.01001E+007    7.99150E+007    7.99150E+007   -1.58822E+005   -2.11364E+005    8.01264E+007   -2.65149E+007    8.01001E+007    7.99150E+007   -1.76859E+005   -1.93325E+005    7.47927E+003    7.33523E+003   -2.49468E+004
             667    8.01084E+007    7.99358E+007    7.99358E+007   -1.34545E+005   -2.10554E+005    8.01464E+007   -2.65302E+007    8.01083E+007    7.99358E+007   -1.68571E+005   -1.76527E+005    1.06977E+003    1.42522E+003   -3.77956E+004
             668    8.00946E+007    7.99339E+007    7.99339E+007   -1.21364E+005   -2.00038E+005    8.01339E+007   -2.65375E+007    8.00945E+007    7.99339E+007   -1.63753E+005   -1.57649E+005    1.43889E+002   -4.24096E+002   -3.92184E+004
             669    8.00927E+007    7.99424E+007    7.99424E+007   -1.10933E+005   -1.89563E+005    8.01320E+007   -2.65473E+007    8.00926E+007    7.99424E+007   -1.63227E+005   -1.37268E+005   -7.39645E+002    1.83096E+002   -3.71106E+004
             670    8.00857E+007    7.99453E+007    7.99453E+007   -1.03727E+005   -1.76964E+005    8.01223E+007   -2.65549E+007    8.00856E+007    7.99453E+007   -1.62059E+005   -1.18632E+005   -5.50441E+002   -4.40967E+001   -2.94863E+004
             671    8.00863E+007    7.99523E+007    7.99523E+007   -9.97139E+004   -1.68144E+005    8.01205E+007   -2.65615E+007    8.00862E+007    7.99523E+007   -1.62974E+005   -1.04884E+005   -8.32439E+002    2.71272E+002   -1.80848E+004
             672    8.00819E+007    7.99515E+007    7.99515E+007   -9.82036E+004   -1.62621E+005    8.01141E+007   -2.65636E+007    8.00819E+007    7.99515E+007   -1.62383E+005   -9.84415E+004    4.61420E+000    3.85198E+002   -3.90752E+003
             673    8.00865E+007    7.99542E+007    7.99542E+007   -9.95244E+004   -1.65172E+005    8.01193E+007   -2.65632E+007    8.00865E+007    7.99542E+007   -1.63161E+005   -1.01536E+005    8.01044E+001    3.75356E+002    1.13131E+004
             674    8.00851E+007    7.99482E+007    7.99482E+007   -1.02768E+005   -1.71024E+005    8.01192E+007   -2.65581E+007    8.00850E+007    7.99482E+007   -1.60819E+005   -1.12973E+005    8.41849E+002    1.39633E+002    2.43400E+004
             675    8.01008E+007    7.99032E+007    7.99032E+007   -1.77319E+005   -2.18013E+005    8.01212E+007   -2.65026E+007    8.01008E+007    7.99032E+007   -1.90136E+005   -2.05192E+005    1.18400E+004    1.40731E+004   -1.89012E+004
             676    8.01258E+007    7.99395E+007    7.99395E+007   -1.50282E+005   -2.22274E+005    8.01618E+007   -2.65223E+007    8.01258E+007    7.99395E+007   -1.87449E+005   -1.85105E+005    6.61421E+003    7.46456E+003   -3.59763E+004
             677    8.01053E+007    7.99371E+007    7.99371E+007   -1.29988E+005   -2.06350E+005    8.01435E+007   -2.65336E+007    8.01052E+007    7.99371E+007   -1.75345E+005   -1.60992E+005    1.50608E+003    1.66913E+003   -3.75007E+004
             678    8.00967E+007    7.99451E+007    7.99451E+007   -1.10295E+005   -1.92902E+005    8.01380E+007   -2.65473E+007    8.00966E+007    7.99451E+007   -1.71066E+005   -1.32132E+005    7.40052E+002    5.13379E+002   -3.64286E+004
             679    8.00766E+007    7.99413E+007    7.99413E+007   -9.44473E+004   -1.76036E+005    8.01173E+007   -2.65569E+007    8.00765E+007    7.99413E+007   -1.64603E+005   -1.05880E+005   -1.33751E+003    1.13257E+003   -2.83209E+004
             680    8.00668E+007    7.99425E+007    7.99425E+007   -8.22768E+004   -1.66271E+005    8.01087E+007   -2.65646E+007    8.00667E+007    7.99425E+007   -1.62764E+005   -8.57836E+004   -3.23464E+002    3.31207E+003   -1.68006E+004
             681    8.00597E+007    7.99406E+007    7.99406E+007   -7.80877E+004   -1.60145E+005    8.01007E+007   -2.65674E+007    8.00596E+007    7.99406E+007   -1.60056E+005   -7.81758E+004   -2.29646E+002    3.30425E+003   -2.68804E+003
             682    8.00633E+007    7.99410E+007    7.99410E+007   -8.01576E+004   -1.64243E+005    8.01053E+007   -2.65656E+007    8.00632E+007    7.99410E+007   -1.62620E+005   -8.17804E+004   -4.99267E+002    4.08617E+003    1.15686E+004
             683    8.00680E+007    7.99363E+007    7.99363E+007   -9.08786E+004   -1.72414E+005    8.01088E+007   -2.65577E+007    8.00679E+007    7.99363E+007   -1.64228E+005   -9.90646E+004    9.77488E+002    2.72209E+003    2.45039E+004
             684    8.00646E+007    7.98632E+007    7.98632E+007   -1.97259E+005   -2.05420E+005    8.00687E+007   -2.64869E+007    8.00646E+007    7.98632E+007   -2.00619E+005   -2.02056E+005    1.11602E+004    1.26229E+004   -4.01506E+003
             685    8.00950E+007    7.99026E+007    7.99026E+007   -1.71008E+005   -2.13831E+005    8.01164E+007   -2.65059E+007    8.00950E+007    7.99026E+007   -1.96737E+005   -1.88097E+005    1.31137E+004    1.38242E+004   -2.09688E+004
             686    8.00946E+007    7.99192E+007    7.99192E+007   -1.45281E+005   -2.05433E+005    8.01246E+007   -2.65228E+007    8.00945E+007    7.99192E+007   -1.86899E+005   -1.63814E+005    7.78388E+003    7.58195E+003   -2.77725E+004
             687    8.00904E+007    7.99394E+007    7.99394E+007   -1.17150E+005   -1.84906E+005    8.01243E+007   -2.65458E+007    8.00904E+007    7.99394E+007   -1.71864E+005   -1.30192E+005    3.19163E+003    2.31547E+003   -2.67132E+004
             688    8.00757E+007    7.99517E+007    7.99517E+007   -8.88533E+004   -1.59068E+005    8.01108E+007   -2.65679E+007    8.00756E+007    7.99517E+007   -1.51758E+005   -9.61626E+004    1.36506E+003   -3.91677E+003   -2.14432E+004
             689    8.00681E+007    7.99643E+007    7.99643E+007   -6.71472E+004   -1.40328E+005    8.01046E+007   -2.65856E+007    8.00680E+007    7.99643E+007   -1.37974E+005   -6.94995E+004   -4.83921E+002   -8.97977E+003   -1.29103E+004
             690    8.00596E+007    7.99642E+007    7.99642E+007   -5.82441E+004   -1.32473E+005    8.00967E+007   -2.65912E+007    8.00595E+007    7.99642E+007   -1.32423E+005   -5.82924E+004    6.00383E+002   -1.00913E+004   -1.91771E+003
             691    8.00672E+007    7.99658E+007    7.99658E+007   -6.40574E+004   -1.38529E+005    8.01044E+007   -2.65878E+007    8.00671E+007    7.99658E+007   -1.37345E+005   -6.52400E+004    1.33084E+003   -1.14882E+004    9.31598E+003
             692    8.00752E+007    7.99562E+007    7.99562E+007   -8.27449E+004   -1.55263E+005    8.01115E+007   -2.65727E+007    8.00752E+007    7.99562E+007   -1.49737E+005   -8.82700E+004    1.51403E+003   -9.37437E+003    1.92407E+004
             693    8.00776E+007    7.99668E+007    7.99668E+007   -1.04127E+005   -1.17487E+005    8.00843E+007   -2.65817E+007    8.00776E+007    7.99668E+007   -1.17431E+005   -1.04183E+005   -2.26869E+003   -2.28796E+003   -8.64100E+002
             694    8.00585E+007    7.99806E+007    7.99806E+007   -7.48195E+004   -8.09132E+004    8.00616E+007   -2.66083E+007    8.00585E+007    7.99806E+007   -8.05678E+004   -7.51648E+004   -2.90649E+002   -1.93681E+003   -1.40900E+003
             695    8.00523E+007    7.99874E+007    7.99874E+007   -6.33979E+004   -6.63102E+004    8.00537E+007   -2.66192E+007    8.00523E+007    7.99874E+007   -6.61317E+004   -6.35762E+004    9.12860E+002   -2.96111E+003   -6.98553E+002
             696    8.00557E+007    7.99769E+007    7.99769E+007   -7.55993E+004   -8.19330E+004    8.00589E+007   -2.66065E+007    8.00557E+007    7.99769E+007   -8.19285E+004   -7.56037E+004    3.02778E+003   -1.29256E+003    1.66061E+002
             697    8.00712E+007    7.99604E+007    7.99604E+007   -1.04003E+005   -1.17523E+005    8.00780E+007   -2.65796E+007    8.00712E+007    7.99604E+007   -1.17520E+005   -1.04006E+005    3.66676E+003   -1.54598E+003    2.04384E+002
             698    8.00871E+007    7.99377E+007    7.99377E+007   -1.38469E+005   -1.60413E+005    8.00981E+007   -2.65463E+007    8.00871E+007    7.99377E+007   -1.60391E+005   -1.38490E+005    5.65825E+003   -1.92553E+003    6.81171E+002
             699    8.00999E+007    7.99174E+007    7.99174E+007   -1.66340E+005   -1.98797E+005    8.01162E+007   -2.65174E+007    8.00999E+007    7.99174E+007   -1.98751E+005   -1.66385E+005    5.42904E+003   -1.67996E+003   -1.21592E+003
             700    8.01002E+007    7.99050E+007    7.99050E+007   -1.78679E+005   -2.11659E+005    8.01167E+007   -2.65049E+007    8.01002E+007    7.99050E+007   -2.08884E+005   -1.81454E+005    3.71297E+003   -4.96782E+003   -9.15570E+003
             701    8.01080E+007    7.99172E+007    7.99172E+007   -1.76549E+005   -2.05055E+005    8.01222E+007   -2.65119E+007    8.01080E+007    7.99172E+007   -1.82484E+005   -1.99118E+005   -7.82932E+003   -1.06075E+004   -1.15732E+004
             702    8.00537E+007    7.99863E+007    7.99863E+007   -6.62207E+004   -6.87437E+004    8.00550E+007   -2.66171E+007    8.00537E+007    7.99863E+007   -6.62316E+004   -6.87326E+004   -2.60612E+003    8.89819E+002   -1.66474E+002
             703    8.00657E+007    7.99729E+007    7.99729E+007   -8.90294E+004   -9.65409E+004    8.00695E+007   -2.65958E+007    8.00657E+007    7.99729E+007   -8.90448E+004   -9.65255E+004   -2.05923E+003    2.39907E+003   -3.39600E+002
             704    8.00837E+007    7.99522E+007    7.99522E+007   -1.24570E+005   -1.38525E+005    8.00907E+007   -2.65630E+007    8.00837E+007    7.99522E+007   -1.24910E+005   -1.38185E+005   -1.58800E+003    4.29661E+003   -2.15283E+003
             705    8.00989E+007    7.99301E+007    7.99301E+007   -1.61723E+005   -1.75830E+005    8.01059E+007   -2.65308E+007    8.00989E+007    7.99301E+007   -1.61810E+005   -1.75743E+005   -2.02884E+003    4.85456E+003   -1.10351E+003
             706    8.01096E+007    7.99137E+007    7.99137E+007   -1.85817E+005   -2.05997E+005    8.01197E+007   -2.65073E+007    8.01096E+007    7.99137E+007   -1.85871E+005   -2.05943E+005   -3.05960E+003    5.25654E+003    1.03904E+003
             707    8.01065E+007    7.98985E+007    7.98985E+007   -1.97372E+005   -2.18772E+005    8.01172E+007   -2.64941E+007    8.01065E+007    7.98985E+007   -1.98304E+005   -2.17840E+005   -4.16923E+003    4.00403E+003    4.36569E+003
             708    8.01145E+007    7.99145E+007    7.99145E+007   -1.85064E+005   -2.14800E+005    8.01293E+007   -2.65049E+007    8.01145E+007    7.99145E+007   -1.85227E+005   -2.14634E+005   -1.01471E+004   -8.24202E+003    2.21052E+003
             709    8.00718E+007    7.99597E+007    7.99597E+007   -7.25754E+004   -1.51520E+005    8.01112E+007   -2.65785E+007    8.00717E+007    7.99597E+007   -7.32203E+004   -1.50875E+005    2.27900E+003   -6.16172E+002   -7.10617E+003
             710    8.00758E+007    7.99505E+007    7.99505E+007   -8.53294E+004   -1.65194E+005    8.01157E+007   -2.65667E+007    8.00757E+007    7.99505E+007   -8.60687E+004   -1.64455E+005    5.20001E+003   -7.49678E+001   -7.65036E+003
             711    8.00770E+007    7.99414E+007    7.99414E+007   -1.08009E+005   -1.63194E+005    8.01046E+007   -2.65567E+007    8.00769E+007    7.99414E+007   -1.08939E+005   -1.62264E+005   -3.72217E+003   -7.59498E+001   -7.10277E+003
             712    8.00873E+007    7.99494E+007    7.99494E+007   -1.23959E+005   -1.51837E+005    8.01012E+007   -2.65579E+007    8.00873E+007    7.99494E+007   -1.25126E+005   -1.50669E+005    1.87479E+003    1.43502E+002   -5.58409E+003
             713    8.00758E+007    7.99540E+007    7.99540E+007   -8.27920E+004   -1.60832E+005    8.01148E+007   -2.65701E+007    8.00757E+007    7.99540E+007   -8.80518E+004   -1.55572E+005    1.66771E+003   -1.90331E+003   -1.95658E+004
             714    8.00789E+007    7.99482E+007    7.99482E+007   -8.97359E+004   -1.71642E+005    8.01198E+007   -2.65623E+007    8.00788E+007    7.99482E+007   -9.63095E+004   -1.65068E+005    4.17428E+003    1.98857E+002   -2.22536E+004
             715    8.00791E+007    7.99408E+007    7.99408E+007   -1.08120E+005   -1.68333E+005    8.01092E+007   -2.65548E+007    8.00790E+007    7.99408E+007   -1.16051E+005   -1.60402E+005   -2.86000E+003    4.03086E+001   -2.03638E+004
             716    8.00870E+007    7.99481E+007    7.99481E+007   -1.20918E+005   -1.56880E+005    8.01050E+007   -2.65568E+007    8.00870E+007    7.99481E+007   -1.30245E+005   -1.47553E+005    1.38627E+003   -4.74940E+001   -1.57613E+004
             717    8.00845E+007    7.99466E+007    7.99466E+007   -9.92215E+004   -1.76576E+005    8.01232E+007   -2.65569E+007    8.00844E+007    7.99466E+007   -1.10946E+005   -1.64851E+005    1.05170E+003   -3.86819E+003   -2.77397E+004
             718    8.00866E+007    7.99448E+007    7.99448E+007   -9.91171E+004   -1.84515E+005    8.01293E+007   -2.65537E+007    8.00865E+007    7.99448E+007   -1.16179E+005   -1.67453E+005    1.36610E+003   -1.15319E+003   -3.41462E+004
             719    8.00849E+007    7.99423E+007    7.99423E+007   -1.08008E+005   -1.77165E+005    8.01194E+007   -2.65524E+007    8.00848E+007    7.99423E+007   -1.28374E+005   -1.56800E+005   -1.35857E+003   -5.89227E+001   -3.15225E+004
             720    8.00861E+007    7.99450E+007    7.99450E+007   -1.16044E+005   -1.66140E+005    8.01112E+007   -2.65543E+007    8.00861E+007    7.99450E+007   -1.39729E+005   -1.42454E+005    4.10899E+002    4.76765E+001   -2.50108E+004
             721    8.00901E+007    7.99326E+007    7.99326E+007   -1.22385E+005   -1.92667E+005    8.01252E+007   -2.65392E+007    8.00901E+007    7.99326E+007   -1.39372E+005   -1.75679E+005    5.84128E+002   -4.48847E+003   -3.00892E+004
             722    8.00891E+007    7.99353E+007    7.99353E+007   -1.11243E+005   -1.96160E+005    8.01315E+007   -2.65426E+007    8.00890E+007    7.99353E+007   -1.39701E+005   -1.67702E+005   -2.38135E+003   -2.43426E+003   -4.00834E+004
             723    8.00905E+007    7.99415E+007    7.99415E+007   -1.10045E+005   -1.87937E+005    8.01295E+007   -2.65478E+007    8.00905E+007    7.99415E+007   -1.45193E+005   -1.52789E+005   -1.30545E+002   -5.40313E+002   -3.87604E+004
             724    8.00857E+007    7.99426E+007    7.99426E+007   -1.10687E+005   -1.75518E+005    8.01181E+007   -2.65521E+007    8.00857E+007    7.99426E+007   -1.50410E+005   -1.35795E+005   -4.11835E+002   -6.44740E+001   -3.15807E+004
             725    8.01003E+007    7.99275E+007    7.99275E+007   -1.41230E+005   -2.04407E+005    8.01319E+007   -2.65273E+007    8.01003E+007    7.99275E+007   -1.60558E+005   -1.85079E+005    1.24162E+003   -3.73085E+003   -2.91125E+004
             726    8.00963E+007    7.99299E+007    7.99299E+007   -1.25415E+005   -2.07223E+005    8.01372E+007   -2.65324E+007    8.00962E+007    7.99299E+007   -1.61821E+005   -1.70816E+005   -6.36579E+003   -4.26534E+003   -4.06555E+004
             727    8.00986E+007    7.99432E+007    7.99432E+007   -1.12783E+005   -1.97909E+005    8.01411E+007   -2.65442E+007    8.00985E+007    7.99432E+007   -1.61138E+005   -1.49554E+005   -3.82836E+002   -8.04035E+002   -4.21671E+004
             728    8.00841E+007    7.99388E+007    7.99388E+007   -1.06279E+005   -1.84283E+005    8.01231E+007   -2.65494E+007    8.00840E+007    7.99388E+007   -1.61473E+005   -1.29089E+005   -1.13225E+003   -4.42832E+002   -3.54819E+004
             729    8.00977E+007    7.99142E+007    7.99142E+007   -1.59055E+005   -2.08062E+005    8.01222E+007   -2.65157E+007    8.00977E+007    7.99142E+007   -1.80961E+005   -1.86157E+005    3.25968E+003   -1.23383E+003   -2.43655E+004
             730    8.00858E+007    7.99113E+007    7.99113E+007   -1.42231E+005   -2.06651E+005    8.01180E+007   -2.65208E+007    8.00857E+007    7.99113E+007   -1.77112E+005   -1.71769E+005   -8.84624E+003   -5.94415E+003   -3.20985E+004
             731    8.00992E+007    7.99369E+007    7.99369E+007   -1.21139E+005   -2.03269E+005    8.01402E+007   -2.65375E+007    8.00991E+007    7.99369E+007   -1.75305E+005   -1.49103E+005   -3.27872E+003   -2.74390E+003   -3.89188E+004
             732    8.00846E+007    7.99390E+007    7.99390E+007   -1.04528E+005   -1.86595E+005    8.01256E+007   -2.65493E+007    8.00845E+007    7.99390E+007   -1.67602E+005   -1.23520E+005   -1.95686E+003    9.10447E+002   -3.46113E+004
             733    8.01264E+007    7.99366E+007    7.99366E+007   -1.71019E+005   -2.08730E+005    8.01453E+007   -2.65189E+007    8.01264E+007    7.99366E+007   -1.89384E+005   -1.90364E+005    8.29838E+003    9.07680E+003   -1.88480E+004
             734    8.00959E+007    7.99145E+007    7.99145E+007   -1.56888E+005   -2.05906E+005    8.01204E+007   -2.65172E+007    8.00959E+007    7.99145E+007   -1.86410E+005   -1.76383E+005   -3.40707E+003    2.91169E+003   -2.39910E+004
             735    8.01002E+007    7.99330E+007    7.99330E+007   -1.35945E+005   -1.98410E+005    8.01314E+007   -2.65329E+007    8.01001E+007    7.99330E+007   -1.83130E+005   -1.51226E+005   -4.28814E+003    1.07549E+003   -2.68514E+004
             736    8.00863E+007    7.99388E+007    7.99388E+007   -1.14298E+005   -1.80571E+005    8.01194E+007   -2.65480E+007    8.00862E+007    7.99388E+007   -1.68557E+005   -1.26312E+005   -3.72916E+003    9.11619E+002   -2.55322E+004
             737    8.00910E+007    7.99414E+007    7.99414E+007   -1.39717E+005   -1.59533E+005    8.01009E+007   -2.65474E+007    8.00910E+007    7.99414E+007   -1.59405E+005   -1.39845E+005   -3.15875E+003    1.73146E+003    1.58744E+003
             738    8.01052E+007    7.99210E+007    7.99210E+007   -1.72438E+005   -1.95964E+005    8.01170E+007   -2.65175E+007    8.01052E+007    7.99210E+007   -1.95911E+005   -1.72490E+005   -4.18250E+003    8.15014E+002    1.11429E+003
             739    8.01139E+007    7.99125E+007    7.99125E+007   -1.81219E+005   -2.21433E+005    8.01340E+007   -2.65033E+007    8.01138E+007    7.99125E+007   -2.20723E+005   -1.81929E+005   -1.80291E+003   -2.65921E+002   -5.29488E+003
             740    8.01106E+007    7.99042E+007    7.99042E+007   -1.67915E+005   -2.44679E+005    8.01489E+007   -2.64972E+007    8.01105E+007    7.99042E+007   -2.21841E+005   -1.90752E+005   -6.17646E+003   -4.92564E+003   -3.50927E+004
             741    8.00518E+007    7.99799E+007    7.99799E+007   -6.52004E+004   -7.86772E+004    8.00586E+007   -2.66120E+007    8.00518E+007    7.99799E+007   -6.52431E+004   -7.86344E+004    2.30258E+003   -4.70249E+002    7.58208E+002
             742    8.00638E+007    7.99688E+007    7.99688E+007   -8.68415E+004   -1.03065E+005    8.00719E+007   -2.65930E+007    8.00638E+007    7.99688E+007   -8.68753E+004   -1.03032E+005    2.33253E+003   -2.53494E+003    7.40125E+002
             743    8.00804E+007    7.99494E+007    7.99494E+007   -1.22331E+005   -1.39551E+005    8.00890E+007   -2.65625E+007    8.00804E+007    7.99494E+007   -1.22456E+005   -1.39424E+005    1.82915E+003   -3.72167E+003    1.46730E+003
             744    8.00978E+007    7.99303E+007    7.99303E+007   -1.57159E+005   -1.77977E+005    8.01082E+007   -2.65317E+007    8.00978E+007    7.99303E+007   -1.57242E+005   -1.77893E+005    1.29193E+003   -3.97080E+003    1.31165E+003
             745    8.01094E+007    7.99119E+007    7.99119E+007   -1.84895E+005   -2.10121E+005    8.01221E+007   -2.65056E+007    8.01094E+007    7.99119E+007   -1.84996E+005   -2.10020E+005   -4.60788E+002   -3.80850E+003    1.59127E+003
             746    8.01151E+007    7.99074E+007    7.99074E+007   -1.83944E+005   -2.31281E+005    8.01387E+007   -2.64974E+007    8.01150E+007    7.99074E+007   -1.84554E+005   -2.30671E+005   -2.22376E+003   -9.83594E+002   -5.34003E+003
             747    8.01107E+007    7.99028E+007    7.99028E+007   -1.66315E+005   -2.49365E+005    8.01522E+007   -2.64957E+007    8.01106E+007    7.99028E+007   -1.88795E+005   -2.26884E+005   -6.55040E+003   -5.32884E+003   -3.69001E+004
             748    8.00703E+007    7.99599E+007    7.99599E+007   -1.02995E+005   -1.17838E+005    8.00777E+007   -2.65797E+007    8.00703E+007    7.99599E+007   -1.17391E+005   -1.03442E+005   -2.27741E+003    1.78170E+003    2.53748E+003
             749    8.00539E+007    7.99760E+007    7.99760E+007   -7.26144E+004   -8.32629E+004    8.00592E+007   -2.66067E+007    8.00539E+007    7.99760E+007   -8.27640E+004   -7.31133E+004   -1.11843E+003    1.97591E+003    2.25032E+003
             750    8.00461E+007    7.99814E+007    7.99814E+007   -6.16995E+004   -6.77695E+004    8.00491E+007   -2.66173E+007    8.00461E+007    7.99814E+007   -6.77371E+004   -6.17319E+004    2.54905E+002    1.85115E+003    4.42742E+002
             751    8.00530E+007    7.99756E+007    7.99756E+007   -7.27521E+004   -8.20006E+004    8.00576E+007   -2.66070E+007    8.00530E+007    7.99756E+007   -8.16539E+004   -7.30987E+004    1.60287E+003    1.88892E+003   -1.75672E+003
             752    8.00688E+007    7.99590E+007    7.99590E+007   -1.03106E+005   -1.16370E+005    8.00754E+007   -2.65799E+007    8.00688E+007    7.99590E+007   -1.15901E+005   -1.03575E+005    2.69469E+003    1.67491E+003   -2.44875E+003
             753    8.00894E+007    7.99396E+007    7.99396E+007   -1.40488E+005   -1.59141E+005    8.00987E+007   -2.65466E+007    8.00894E+007    7.99396E+007   -1.58788E+005   -1.40840E+005    3.26481E+003    1.31459E+003   -2.54021E+003
             754    8.01039E+007    7.99203E+007    7.99203E+007   -1.71108E+005   -1.96147E+005    8.01164E+007   -2.65177E+007    8.01039E+007    7.99203E+007   -1.96091E+005   -1.71163E+005    3.23532E+003    1.88790E+002    1.17704E+003
             755    8.01143E+007    7.99126E+007    7.99126E+007   -1.85007E+005   -2.18388E+005    8.01310E+007   -2.65031E+007    8.01143E+007    7.99126E+007   -2.11508E+005   -1.91887E+005    1.66766E+003   -1.69996E+003    1.35029E+004
             756    8.01097E+007    7.99021E+007    7.99021E+007   -1.87152E+005   -2.27997E+005    8.01301E+007   -2.64956E+007    8.01096E+007    7.99021E+007   -1.98026E+005   -2.17122E+005    5.98878E+003   -6.64910E+003    1.80525E+004
             757    8.00794E+007    7.99544E+007    7.99544E+007   -9.03465E+004   -1.59802E+005    8.01142E+007   -2.65681E+007    8.00794E+007    7.99544E+007   -1.53645E+005   -9.65035E+004   -2.38748E+003    1.07091E+003   -1.97417E+004
             758    8.00834E+007    7.99518E+007    7.99518E+007   -8.94067E+004   -1.73850E+005    8.01256E+007   -2.65628E+007    8.00833E+007    7.99518E+007   -1.65046E+005   -9.82109E+004   -3.71035E+002    3.52871E+003   -2.58060E+004
             759    8.00814E+007    7.99447E+007    7.99447E+007   -9.95334E+004   -1.73806E+005    8.01185E+007   -2.65571E+007    8.00813E+007    7.99447E+007   -1.64211E+005   -1.09128E+005   -7.37992E+001   -1.17595E+003   -2.49111E+004
             760    8.00860E+007    7.99473E+007    7.99473E+007   -1.11334E+005   -1.66200E+005    8.01135E+007   -2.65566E+007    8.00860E+007    7.99473E+007   -1.55867E+005   -1.21667E+005    1.84741E+002    2.01593E+002   -2.14512E+004
             761    8.00809E+007    7.99424E+007    7.99424E+007   -1.20848E+005   -1.56156E+005    8.00985E+007   -2.65551E+007    8.00808E+007    7.99424E+007   -1.46312E+005   -1.30693E+005   -2.27484E+002   -6.39266E+001   -1.58328E+004
             762    8.00806E+007    7.99422E+007    7.99422E+007   -1.28505E+005   -1.48381E+005    8.00906E+007   -2.65551E+007    8.00806E+007    7.99422E+007   -1.37630E+005   -1.39256E+005   -6.69621E+002   -1.63498E+002   -9.90476E+003
             763    8.00787E+007    7.99407E+007    7.99407E+007   -1.31928E+005   -1.43983E+005    8.00847E+007   -2.65549E+007    8.00787E+007    7.99407E+007   -1.32883E+005   -1.43028E+005   -1.02983E+003    2.04025E+002   -3.25629E+003
             764    8.00678E+007    7.99593E+007    7.99593E+007   -7.47532E+004   -1.42053E+005    8.01014E+007   -2.65808E+007    8.00677E+007    7.99593E+007   -1.40302E+005   -7.65046E+004   -9.12718E+002    1.29664E+003   -1.07146E+004
             765    8.00726E+007    7.99523E+007    7.99523E+007   -7.93608E+004   -1.61120E+005    8.01134E+007   -2.65706E+007    8.00725E+007    7.99523E+007   -1.59274E+005   -8.12071E+004    3.04070E+002    5.25482E+003   -1.21477E+004
             766    8.00730E+007    7.99419E+007    7.99419E+007   -9.62305E+004   -1.65953E+005    8.01078E+007   -2.65599E+007    8.00729E+007    7.99419E+007   -1.64195E+005   -9.79890E+004   -1.43829E+002   -1.46286E+003   -1.09324E+004
             767    8.00833E+007    7.99477E+007    7.99477E+007   -1.11774E+005   -1.59423E+005    8.01071E+007   -2.65588E+007    8.00833E+007    7.99477E+007   -1.58005E+005   -1.13191E+005    7.73706E+001    7.11278E+002   -8.09500E+003
             768    8.00819E+007    7.99442E+007    7.99442E+007   -1.23264E+005   -1.52073E+005    8.00963E+007   -2.65563E+007    8.00819E+007    7.99442E+007   -1.51037E+005   -1.24300E+005    1.02639E+002    1.10123E+001   -5.36457E+003
             769    8.00868E+007    7.99482E+007    7.99482E+007   -1.32811E+005   -1.44451E+005    8.00926E+007   -2.65570E+007    8.00868E+007    7.99482E+007   -1.43702E+005   -1.33560E+005    3.31674E+002   -1.07499E+002   -2.85707E+003
             770    8.00866E+007    7.99478E+007    7.99478E+007   -1.37316E+005   -1.40286E+005    8.00881E+007   -2.65567E+007    8.00866E+007    7.99478E+007   -1.39875E+005   -1.37727E+005    4.47700E+002    2.77987E+002   -1.02578E+003
             771    8.00672E+007    7.99646E+007    7.99646E+007   -6.82259E+004   -1.36886E+005    8.01015E+007   -2.65865E+007    8.00671E+007    7.99646E+007   -1.36866E+005   -6.82458E+004    1.99041E+002    1.50745E+003    1.16858E+003
             772    8.00746E+007    7.99567E+007    7.99567E+007   -7.65320E+004   -1.59350E+005    8.01160E+007   -2.65736E+007    8.00745E+007    7.99567E+007   -1.59260E+005   -7.66221E+004    1.25550E+002    5.41956E+003    2.73523E+003
             773    8.00751E+007    7.99450E+007    7.99450E+007   -9.43257E+004   -1.65955E+005    8.01109E+007   -2.65616E+007    8.00751E+007    7.99450E+007   -1.65645E+005   -9.46361E+004   -9.34340E+000   -1.81948E+003    4.70534E+003
             774    8.00847E+007    7.99491E+007    7.99491E+007   -1.11695E+005   -1.59545E+005    8.01086E+007   -2.65593E+007    8.00847E+007    7.99491E+007   -1.58916E+005   -1.12324E+005    5.16410E+001    4.77304E+002    5.45161E+003
             775    8.00796E+007    7.99423E+007    7.99423E+007   -1.22975E+005   -1.51519E+005    8.00938E+007   -2.65559E+007    8.00796E+007    7.99423E+007   -1.50397E+005   -1.24097E+005   -5.62789E+000   -2.62214E+002    5.54646E+003
             776    8.00817E+007    7.99436E+007    7.99436E+007   -1.32977E+005   -1.43145E+005    8.00867E+007   -2.65558E+007    8.00817E+007    7.99436E+007   -1.41540E+005   -1.34582E+005   -2.60480E+001   -2.28581E+002    3.70722E+003
             777    8.00792E+007    7.99414E+007    7.99414E+007   -1.36011E+005   -1.39667E+005    8.00811E+007   -2.65552E+007    8.00792E+007    7.99414E+007   -1.36805E+005   -1.38873E+005   -8.68120E+001    2.14369E+002    1.50714E+003
             778    8.00681E+007    7.99588E+007    7.99588E+007   -7.59269E+004   -1.42501E+005    8.01013E+007   -2.65801E+007    8.00680E+007    7.99588E+007   -1.40093E+005   -7.83357E+004    1.67556E+003    9.86751E+002    1.24324E+004
             779    8.00746E+007    7.99519E+007    7.99519E+007   -8.15267E+004   -1.63864E+005    8.01157E+007   -2.65688E+007    8.00745E+007    7.99519E+007   -1.60083E+005   -8.53075E+004    2.62275E+002    4.90119E+003    1.72346E+004
             780    8.00750E+007    7.99415E+007    7.99415E+007   -9.72078E+004   -1.69551E+005    8.01111E+007   -2.65583E+007    8.00749E+007    7.99415E+007   -1.64042E+005   -1.02717E+005    3.25344E+002   -1.41887E+003    1.91886E+004
             781    8.00847E+007    7.99470E+007    7.99470E+007   -1.10944E+005   -1.64422E+005    8.01115E+007   -2.65572E+007    8.00847E+007    7.99470E+007   -1.56727E+005   -1.18639E+005   -1.09019E+001    6.49941E+002    1.87699E+004
             782    8.00825E+007    7.99437E+007    7.99437E+007   -1.20769E+005   -1.56796E+005    8.01005E+007   -2.65554E+007    8.00825E+007    7.99437E+007   -1.47824E+005   -1.29742E+005    4.66497E+001    4.75011E+001    1.55807E+004
             783    8.00868E+007    7.99478E+007    7.99478E+007   -1.28459E+005   -1.49550E+005    8.00973E+007   -2.65566E+007    8.00868E+007    7.99478E+007   -1.39014E+005   -1.38995E+005   -4.94754E+001   -4.25592E+001    1.05456E+004
             784    8.00859E+007    7.99473E+007    7.99473E+007   -1.32949E+005   -1.44197E+005    8.00915E+007   -2.65567E+007    8.00859E+007    7.99473E+007   -1.34181E+005   -1.42965E+005   -2.17217E+001    2.72459E+002    3.51272E+003
             785    8.00793E+007    7.99518E+007    7.99518E+007   -9.37190E+004   -1.61144E+005    8.01130E+007   -2.65657E+007    8.00792E+007    7.99518E+007   -1.54153E+005   -1.00710E+005    3.02949E+003    5.38546E+002    2.05547E+004
             786    8.00849E+007    7.99493E+007    7.99493E+007   -9.35734E+004   -1.77624E+005    8.01269E+007   -2.65594E+007    8.00848E+007    7.99493E+007   -1.65614E+005   -1.05583E+005    1.11825E+003    2.62534E+003    2.94144E+004
             787    8.00839E+007    7.99428E+007    7.99428E+007   -1.02159E+005   -1.80085E+005    8.01229E+007   -2.65535E+007    8.00839E+007    7.99428E+007   -1.64209E+005   -1.18036E+005    4.74035E+002   -1.26349E+003    3.13872E+004
             788    8.00879E+007    7.99457E+007    7.99457E+007   -1.10770E+005   -1.73523E+005    8.01192E+007   -2.65538E+007    8.00878E+007    7.99457E+007   -1.53381E+005   -1.30912E+005    8.90578E+001    1.80720E+001    2.92966E+004
             789    8.00824E+007    7.99420E+007    7.99420E+007   -1.16135E+005   -1.64710E+005    8.01067E+007   -2.65537E+007    8.00824E+007    7.99420E+007   -1.40877E+005   -1.39969E+005    1.91889E+002   -1.93428E+002    2.42831E+004
             790    8.00813E+007    7.99428E+007    7.99428E+007   -1.20224E+005   -1.56706E+005    8.00995E+007   -2.65553E+007    8.00813E+007    7.99428E+007   -1.29034E+005   -1.47896E+005    3.37145E+002   -1.30443E+002    1.56139E+004
             791    8.00784E+007    7.99414E+007    7.99414E+007   -1.21550E+005   -1.52291E+005    8.00937E+007   -2.65559E+007    8.00783E+007    7.99414E+007   -1.22562E+005   -1.51279E+005    5.00629E+002    8.26431E+001    5.48513E+003
             792    8.00866E+007    7.99370E+007    7.99370E+007   -1.17781E+005   -1.81392E+005    8.01184E+007   -2.65459E+007    8.00865E+007    7.99370E+007   -1.68969E+005   -1.30204E+005    4.21403E+003    5.88289E+002    2.52175E+004
             793    8.00875E+007    7.99367E+007    7.99367E+007   -1.10620E+005   -1.90883E+005    8.01276E+007   -2.65451E+007    8.00874E+007    7.99367E+007   -1.69130E+005   -1.32373E+005    2.69016E+003   -5.86846E+002    3.56758E+004
             794    8.00885E+007    7.99382E+007    7.99382E+007   -1.10353E+005   -1.90302E+005    8.01285E+007   -2.65458E+007    8.00885E+007    7.99382E+007   -1.61785E+005   -1.38869E+005    1.38734E+003   -8.63615E+002    3.82973E+004
             795    8.00882E+007    7.99410E+007    7.99410E+007   -1.10901E+005   -1.83351E+005    8.01244E+007   -2.65489E+007    8.00881E+007    7.99410E+007   -1.48465E+005   -1.45786E+005    4.83837E+002   -2.95518E+002    3.62002E+004
             796    8.00867E+007    7.99443E+007    7.99443E+007   -1.11001E+005   -1.73843E+005    8.01181E+007   -2.65531E+007    8.00867E+007    7.99443E+007   -1.33095E+005   -1.51749E+005    5.23639E+001    7.42060E-001    3.00049E+004
             797    8.00861E+007    7.99480E+007    7.99480E+007   -1.11394E+005   -1.64855E+005    8.01128E+007   -2.65572E+007    8.00861E+007    7.99480E+007   -1.20146E+005   -1.56102E+005   -6.40201E+002    1.08972E+002    1.97817E+004
             798    8.00850E+007    7.99496E+007    7.99496E+007   -1.11585E+005   -1.59358E+005    8.01089E+007   -2.65595E+007    8.00850E+007    7.99496E+007   -1.12576E+005   -1.58366E+005   -8.52045E+002    1.27666E+002    6.81047E+003
             799    8.00989E+007    7.99296E+007    7.99296E+007   -1.41132E+005   -1.97329E+005    8.01270E+007   -2.65304E+007    8.00988E+007    7.99296E+007   -1.80642E+005   -1.57818E+005    3.42064E+003    1.45202E+003    2.56767E+004
             800    8.00967E+007    7.99303E+007    7.99303E+007   -1.29860E+005   -2.02966E+005    8.01333E+007   -2.65325E+007    8.00967E+007    7.99303E+007   -1.75468E+005   -1.57357E+005    4.17795E+003   -4.26452E+003    3.54130E+004
             801    8.01006E+007    7.99398E+007    7.99398E+007   -1.19531E+005   -2.01968E+005    8.01418E+007   -2.65394E+007    8.01005E+007    7.99398E+007   -1.62932E+005   -1.58567E+005    1.46176E+003   -1.89320E+003    4.11610E+004
             802    8.00913E+007    7.99393E+007    7.99393E+007   -1.12096E+005   -1.91764E+005    8.01311E+007   -2.65452E+007    8.00912E+007    7.99393E+007   -1.43918E+005   -1.59942E+005    4.60934E+002   -1.14473E+003    3.90198E+004
             803    8.00851E+007    7.99423E+007    7.99423E+007   -1.04471E+005   -1.81042E+005    8.01234E+007   -2.65523E+007    8.00850E+007    7.99423E+007   -1.23262E+005   -1.62251E+005    8.17540E+002   -5.54819E+002    3.29509E+004
             804    8.00763E+007    7.99417E+007    7.99417E+007   -9.83789E+004   -1.70611E+005    8.01123E+007   -2.65576E+007    8.00762E+007    7.99417E+007   -1.05506E+005   -1.63484E+005    1.65122E+003   -7.67357E+001    2.15417E+004
             805    8.00725E+007    7.99427E+007    7.99427E+007   -9.43862E+004   -1.65121E+005    8.01078E+007   -2.65611E+007    8.00724E+007    7.99427E+007   -9.51981E+004   -1.64309E+005    2.17635E+003   -3.13716E+002    7.53503E+003
             806    8.01010E+007    7.99180E+007    7.99180E+007   -1.65428E+005   -2.00586E+005    8.01186E+007   -2.65173E+007    8.01010E+007    7.99180E+007   -1.83903E+005   -1.82110E+005    3.81403E+002    4.31719E+003    1.75565E+004
             807    8.00876E+007    7.99098E+007    7.99098E+007   -1.50930E+005   -2.04830E+005    8.01146E+007   -2.65180E+007    8.00876E+007    7.99098E+007   -1.79599E+005   -1.76160E+005    5.48784E+003   -5.80992E+003    2.68945E+004
             808    8.00986E+007    7.99291E+007    7.99291E+007   -1.33445E+005   -2.05573E+005    8.01346E+007   -2.65300E+007    8.00985E+007    7.99291E+007   -1.63211E+005   -1.75806E+005    4.38648E+003   -4.23386E+003    3.55097E+004
             809    8.00897E+007    7.99337E+007    7.99337E+007   -1.17062E+005   -1.94909E+005    8.01286E+007   -2.65406E+007    8.00896E+007    7.99337E+007   -1.42035E+005   -1.69936E+005    1.58897E+003   -2.51300E+003    3.63373E+004
             810    8.00864E+007    7.99458E+007    7.99458E+007   -9.95097E+004   -1.81608E+005    8.01274E+007   -2.65549E+007    8.00863E+007    7.99458E+007   -1.14839E+005   -1.66279E+005   -1.50183E+003   -1.35072E+003    3.19924E+004
             811    8.00776E+007    7.99510E+007    7.99510E+007   -8.61915E+004   -1.66942E+005    8.01180E+007   -2.65660E+007    8.00776E+007    7.99510E+007   -9.23569E+004   -1.60776E+005   -4.51155E+003    1.19047E+002    2.14444E+004
             812    8.00739E+007    7.99558E+007    7.99558E+007   -7.75101E+004   -1.58755E+005    8.01145E+007   -2.65732E+007    8.00738E+007    7.99558E+007   -7.82438E+004   -1.58021E+005   -6.09727E+003   -1.17794E+002    7.68855E+003
             813    8.01292E+007    7.99333E+007    7.99333E+007   -1.81988E+005   -2.09828E+005    8.01432E+007   -2.65138E+007    8.01292E+007    7.99333E+007   -1.95416E+005   -1.96400E+005   -5.58974E+003    7.27377E+003    1.39109E+004
             814    8.01025E+007    7.99142E+007    7.99142E+007   -1.71508E+005   -2.04947E+005    8.01192E+007   -2.65126E+007    8.01024E+007    7.99142E+007   -1.85003E+005   -1.91452E+005   -3.24421E+003   -6.13772E+002    1.64054E+004
             815    8.01042E+007    7.99266E+007    7.99266E+007   -1.53372E+005   -2.01921E+005    8.01285E+007   -2.65238E+007    8.01042E+007    7.99266E+007   -1.69358E+005   -1.85935E+005   -1.50673E+003   -3.24460E+003    2.28153E+004
             816    8.00921E+007    7.99330E+007    7.99330E+007   -1.29558E+005   -1.88425E+005    8.01215E+007   -2.65384E+007    8.00920E+007    7.99330E+007   -1.44205E+005   -1.73777E+005   -1.06277E+003   -3.38893E+003    2.54504E+004
             817    8.00836E+007    7.99467E+007    7.99467E+007   -1.04463E+005   -1.69145E+005    8.01159E+007   -2.65577E+007    8.00835E+007    7.99467E+007   -1.14649E+005   -1.58959E+005   -9.24025E+002   -3.19184E+003    2.35597E+004
             818    8.00722E+007    7.99559E+007    7.99559E+007   -8.26194E+004   -1.50003E+005    8.01059E+007   -2.65744E+007    8.00721E+007    7.99559E+007   -8.74089E+004   -1.45213E+005   -9.32274E+002   -1.88444E+003    1.73145E+004
             819    8.00667E+007    7.99626E+007    7.99626E+007   -7.04023E+004   -1.37636E+005    8.01003E+007   -2.65849E+007    8.00666E+007    7.99626E+007   -7.10035E+004   -1.37035E+005   -1.20484E+003   -9.56882E+002    6.32925E+003
             820    8.00483E+007    7.99803E+007    7.99803E+007   -6.48345E+004   -7.12248E+004    8.00515E+007   -2.66147E+007    8.00483E+007    7.99803E+007   -6.49030E+004   -7.11562E+004   -2.05499E+003   -8.22789E+002   -6.58542E+002
             821    8.00610E+007    7.99684E+007    7.99684E+007   -8.75673E+004   -9.77235E+004    8.00661E+007   -2.65944E+007    8.00610E+007    7.99684E+007   -8.77138E+004   -9.75768E+004   -1.91249E+003   -1.90844E+003   -1.21133E+003
             822    8.00801E+007    7.99496E+007    7.99496E+007   -1.24388E+005   -1.36537E+005    8.00861E+007   -2.65629E+007    8.00801E+007    7.99496E+007   -1.24390E+005   -1.36534E+005   -1.53904E+003   -2.61780E+003    1.79366E+002
             823    8.00993E+007    7.99313E+007    7.99313E+007   -1.62507E+005   -1.73318E+005    8.01047E+007   -2.65318E+007    8.00993E+007    7.99313E+007   -1.62533E+005   -1.73293E+005   -1.12386E+003   -2.96797E+003    5.23248E+002
             824    8.01101E+007    7.99150E+007    7.99150E+007   -1.89233E+005   -2.00964E+005    8.01159E+007   -2.65083E+007    8.01101E+007    7.99150E+007   -1.89233E+005   -2.00964E+005   -2.82601E+001   -3.29304E+003   -5.33153E+001
             825    8.01192E+007    7.99086E+007    7.99086E+007   -2.04951E+005   -2.16413E+005    8.01250E+007   -2.64957E+007    8.01193E+007    7.99086E+007   -2.04956E+005   -2.16408E+005    1.24015E+003   -1.07221E+003   -2.43713E+002
             826    8.01153E+007    7.99009E+007    7.99009E+007   -1.98827E+005   -2.29991E+005    8.01309E+007   -2.64907E+007    8.01153E+007    7.99009E+007   -1.99297E+005   -2.29520E+005    5.48565E+003   -5.40467E+003    3.80054E+003
             827    8.01113E+007    7.99049E+007    7.99049E+007   -1.67305E+005   -2.45416E+005    8.01503E+007   -2.64974E+007    8.01112E+007    7.99049E+007   -2.21554E+005   -1.91166E+005   -6.13886E+003    4.89746E+003    3.59781E+004
             828    8.01147E+007    7.99127E+007    7.99127E+007   -1.80991E+005   -2.22918E+005    8.01356E+007   -2.65029E+007    8.01146E+007    7.99127E+007   -2.22098E+005   -1.81810E+005   -2.06162E+003    2.88687E+002    5.80450E+003
             829    8.01065E+007    7.99218E+007    7.99218E+007   -1.72645E+005   -1.96776E+005    8.01185E+007   -2.65174E+007    8.01065E+007    7.99218E+007   -1.96718E+005   -1.72703E+005   -4.03950E+003   -1.23450E+003   -1.18263E+003
             830    8.00921E+007    7.99423E+007    7.99423E+007   -1.39634E+005   -1.60021E+005    8.01023E+007   -2.65475E+007    8.00921E+007    7.99423E+007   -1.59849E+005   -1.39806E+005   -3.18788E+003   -2.00710E+003   -1.86482E+003
             831    8.00874E+007    7.99394E+007    7.99394E+007   -1.14272E+005   -1.81526E+005    8.01210E+007   -2.65479E+007    8.00873E+007    7.99394E+007   -1.69195E+005   -1.26603E+005   -3.85172E+003   -9.29344E+002    2.60245E+004
             832    8.00855E+007    7.99400E+007    7.99400E+007   -1.04194E+005   -1.86701E+005    8.01267E+007   -2.65497E+007    8.00854E+007    7.99400E+007   -1.67649E+005   -1.23246E+005   -1.63663E+003   -1.84532E+003    3.47700E+004
             833    8.00833E+007    7.99382E+007    7.99382E+007   -1.06279E+005   -1.83983E+005    8.01221E+007   -2.65493E+007    8.00832E+007    7.99382E+007   -1.61261E+005   -1.29001E+005   -1.14352E+003    6.69414E+002    3.53459E+004
             834    8.00861E+007    7.99430E+007    7.99430E+007   -1.10904E+005   -1.75161E+005    8.01182E+007   -2.65523E+007    8.00860E+007    7.99430E+007   -1.50025E+005   -1.36039E+005   -4.12867E+002   -3.19632E+001    3.13581E+004
             835    8.00849E+007    7.99440E+007    7.99440E+007   -1.16130E+005   -1.65769E+005    8.01097E+007   -2.65540E+007    8.00849E+007    7.99440E+007   -1.39236E+005   -1.42663E+005    1.41613E+002   -7.41660E+001    2.47606E+004
             836    8.00865E+007    7.99476E+007    7.99476E+007   -1.20870E+005   -1.56977E+005    8.01046E+007   -2.65566E+007    8.00865E+007    7.99476E+007   -1.29830E+005   -1.48016E+005    1.02128E+003    9.69951E+001    1.55961E+004
             837    8.00865E+007    7.99487E+007    7.99487E+007   -1.23873E+005   -1.51751E+005    8.01005E+007   -2.65577E+007    8.00865E+007    7.99487E+007   -1.25010E+005   -1.50614E+005    1.69035E+003   -6.87862E+001    5.51311E+003
             838    8.01003E+007    7.99327E+007    7.99327E+007   -1.35998E+005   -1.99190E+005    8.01318E+007   -2.65325E+007    8.01002E+007    7.99327E+007   -1.83324E+005   -1.51864E+005   -4.50305E+003   -9.75064E+002    2.74023E+004
             839    8.00992E+007    7.99372E+007    7.99372E+007   -1.20674E+005   -2.03232E+005    8.01405E+007   -2.65378E+007    8.00991E+007    7.99372E+007   -1.74784E+005   -1.49122E+005   -3.28628E+003    1.98475E+003    3.92341E+004
             840    8.00975E+007    7.99424E+007    7.99424E+007   -1.12708E+005   -1.97531E+005    8.01399E+007   -2.65440E+007    8.00974E+007    7.99424E+007   -1.60585E+005   -1.49654E+005   -3.69835E+002    9.81331E+002    4.20574E+004
             841    8.00909E+007    7.99422E+007    7.99422E+007   -1.09896E+005   -1.87555E+005    8.01297E+007   -2.65482E+007    8.00908E+007    7.99422E+007   -1.44500E+005   -1.52951E+005    4.74161E+001    4.53793E+002    3.85988E+004
             842    8.00852E+007    7.99429E+007    7.99429E+007   -1.07904E+005   -1.76619E+005    8.01195E+007   -2.65528E+007    8.00851E+007    7.99429E+007   -1.28152E+005   -1.56371E+005   -7.84530E+002    1.29840E+002    3.13264E+004
             843    8.00801E+007    7.99421E+007    7.99421E+007   -1.07876E+005   -1.68104E+005    8.01102E+007   -2.65554E+007    8.00801E+007    7.99421E+007   -1.15694E+005   -1.60286E+005   -2.09167E+003   -1.41448E+002    2.02428E+004
             844    8.00771E+007    7.99416E+007    7.99416E+007   -1.07958E+005   -1.63111E+005    8.01047E+007   -2.65568E+007    8.00771E+007    7.99416E+007   -1.08853E+005   -1.62216E+005   -3.39553E+003   -6.53385E+001    6.96947E+003
             845    8.00970E+007    7.99156E+007    7.99156E+007   -1.56826E+005   -2.06082E+005    8.01217E+007   -2.65176E+007    8.00970E+007    7.99156E+007   -1.86285E+005   -1.76623E+005   -3.16847E+003   -3.48309E+003    2.41497E+004
             846    8.00864E+007    7.99121E+007    7.99121E+007   -1.42010E+005   -2.06602E+005    8.01187E+007   -2.65212E+007    8.00864E+007    7.99121E+007   -1.76781E+005   -1.71829E+005   -8.50923E+003    5.75148E+003    3.22006E+004
             847    8.00966E+007    7.99306E+007    7.99306E+007   -1.25083E+005   -2.06845E+005    8.01375E+007   -2.65329E+007    8.00965E+007    7.99306E+007   -1.61190E+005   -1.70737E+005   -6.07138E+003    3.83323E+003    4.06012E+004
             848    8.00888E+007    7.99353E+007    7.99353E+007   -1.11293E+005   -1.95557E+005    8.01309E+007   -2.65428E+007    8.00887E+007    7.99353E+007   -1.39467E+005   -1.67384E+005   -2.67319E+003    2.36634E+003    3.97522E+004
             849    8.00866E+007    7.99444E+007    7.99444E+007   -9.96676E+004   -1.84578E+005    8.01290E+007   -2.65534E+007    8.00865E+007    7.99444E+007   -1.16794E+005   -1.67452E+005    4.46914E+002    1.10311E+003    3.40722E+004
             850    8.00787E+007    7.99475E+007    7.99475E+007   -9.03371E+004   -1.71916E+005    8.01194E+007   -2.65618E+007    8.00786E+007    7.99475E+007   -9.70825E+004   -1.65171E+005    3.07217E+003   -9.79945E+000    2.24677E+004
             851    8.00758E+007    7.99505E+007    7.99505E+007   -8.53683E+004   -1.65258E+005    8.01157E+007   -2.65666E+007    8.00757E+007    7.99505E+007   -8.61783E+004   -1.64448E+005    4.78707E+003    2.10202E+002    8.00478E+003
             852    8.01270E+007    7.99370E+007    7.99370E+007   -1.71292E+005   -2.08616E+005    8.01456E+007   -2.65190E+007    8.01269E+007    7.99370E+007   -1.89987E+005   -1.89920E+005    7.73656E+003   -9.45905E+003    1.86611E+004
             853    8.00977E+007    7.99140E+007    7.99140E+007   -1.59046E+005   -2.08241E+005    8.01222E+007   -2.65156E+007    8.00976E+007    7.99140E+007   -1.80881E+005   -1.86406E+005    2.68914E+003    1.08620E+003    2.44419E+004
             854    8.01006E+007    7.99279E+007    7.99279E+007   -1.41409E+005   -2.04012E+005    8.01319E+007   -2.65275E+007    8.01006E+007    7.99279E+007   -1.60276E+005   -1.85145E+005    9.03407E+002    3.59630E+003    2.87260E+004
             855    8.00897E+007    7.99325E+007    7.99325E+007   -1.22386E+005   -1.91839E+005    8.01244E+007   -2.65394E+007    8.00896E+007    7.99325E+007   -1.39116E+005   -1.75109E+005    2.75561E+002    3.94152E+003    2.96989E+004
             856    8.00833E+007    7.99462E+007    7.99462E+007   -9.86726E+004   -1.75315E+005    8.01215E+007   -2.65574E+007    8.00832E+007    7.99462E+007   -1.10336E+005   -1.63652E+005    8.18180E+002    3.69240E+003    2.75295E+004
             857    8.00745E+007    7.99536E+007    7.99536E+007   -8.19044E+004   -1.59995E+005    8.01136E+007   -2.65706E+007    8.00745E+007    7.99536E+007   -8.73910E+004   -1.54508E+005    1.60354E+003    2.08012E+003    1.99589E+004
             858    8.00711E+007    7.99592E+007    7.99592E+007   -7.23425E+004   -1.51352E+005    8.01106E+007   -2.65785E+007    8.00710E+007    7.99592E+007   -7.31390E+004   -1.50556E+005    2.17263E+003    1.32386E+003    7.89331E+003
             859    8.00515E+007    7.99794E+007    7.99794E+007   -6.55645E+004   -7.87732E+004    8.00581E+007   -2.66117E+007    8.00515E+007    7.99794E+007   -6.56122E+004   -7.87254E+004    2.27381E+003    1.24447E+003   -7.92604E+002
             860    8.00624E+007    7.99672E+007    7.99672E+007   -8.71820E+004   -1.03040E+005    8.00703E+007   -2.65923E+007    8.00623E+007    7.99672E+007   -8.72342E+004   -1.02987E+005    1.98158E+003    2.91981E+003   -9.09327E+002
             861    8.00791E+007    7.99484E+007    7.99484E+007   -1.22038E+005   -1.39476E+005    8.00879E+007   -2.65623E+007    8.00791E+007    7.99484E+007   -1.22122E+005   -1.39392E+005    1.45731E+003    3.47246E+003   -1.20478E+003
             862    8.00969E+007    7.99298E+007    7.99298E+007   -1.56720E+005   -1.77372E+005    8.01072E+007   -2.65319E+007    8.00969E+007    7.99298E+007   -1.56748E+005   -1.77344E+005    9.32269E+002    3.67916E+003   -7.68781E+002
             863    8.01089E+007    7.99123E+007    7.99123E+007   -1.84290E+005   -2.08970E+005    8.01212E+007   -2.65063E+007    8.01089E+007    7.99123E+007   -1.84386E+005   -2.08875E+005   -6.95839E+002    3.35434E+003   -1.52997E+003
             864    8.01152E+007    7.99080E+007    7.99080E+007   -1.84250E+005   -2.30050E+005    8.01381E+007   -2.64979E+007    8.01151E+007    7.99080E+007   -1.84833E+005   -2.29466E+005   -2.04998E+003    8.79575E+002    5.13809E+003
             865    8.01108E+007    7.99034E+007    7.99034E+007   -1.66697E+005   -2.48031E+005    8.01514E+007   -2.64962E+007    8.01107E+007    7.99034E+007   -1.88271E+005   -2.26456E+005   -6.63310E+003    4.66518E+003    3.59065E+004
             866    8.00667E+007    7.99629E+007    7.99629E+007   -7.02868E+004   -1.37384E+005    8.01003E+007   -2.65851E+007    8.00667E+007    7.99629E+007   -7.08551E+004   -1.36816E+005   -1.46710E+003    7.38158E+002   -6.14928E+003
             867    8.00736E+007    7.99554E+007    7.99554E+007   -7.75456E+004   -1.58700E+005    8.01141E+007   -2.65731E+007    8.00735E+007    7.99554E+007   -7.83365E+004   -1.57909E+005   -5.90357E+003    1.51685E+002   -7.97467E+003
             868    8.00729E+007    7.99430E+007    7.99430E+007   -9.43530E+004   -1.65252E+005    8.01083E+007   -2.65611E+007    8.00728E+007    7.99430E+007   -9.52504E+004   -1.64355E+005    1.97207E+003    2.04578E+002   -7.92580E+003
             869    8.00852E+007    7.99496E+007    7.99496E+007   -1.11468E+005   -1.59716E+005    8.01093E+007   -2.65595E+007    8.00851E+007    7.99496E+007   -1.12615E+005   -1.58570E+005   -7.57328E+002   -9.25692E+001   -7.34956E+003
             870    8.00791E+007    7.99420E+007    7.99420E+007   -1.21599E+005   -1.52500E+005    8.00945E+007   -2.65560E+007    8.00790E+007    7.99420E+007   -1.22787E+005   -1.51313E+005    4.45958E+002   -1.10259E+002   -5.94052E+003
             871    8.00859E+007    7.99473E+007    7.99473E+007   -1.32791E+005   -1.44414E+005    8.00917E+007   -2.65567E+007    8.00859E+007    7.99473E+007   -1.34178E+005   -1.43028E+005    1.65510E+001   -2.70142E+002   -3.76790E+003
             872    8.00797E+007    7.99418E+007    7.99418E+007   -1.36064E+005   -1.39705E+005    8.00815E+007   -2.65553E+007    8.00797E+007    7.99418E+007   -1.36941E+005   -1.38828E+005   -6.80084E+001   -2.28525E+002   -1.55701E+003
             873    8.00861E+007    7.99474E+007    7.99474E+007   -1.37331E+005   -1.40154E+005    8.00875E+007   -2.65566E+007    8.00861E+007    7.99474E+007   -1.39746E+005   -1.37740E+005    4.10741E+002   -2.62516E+002    9.93087E+002
             874    8.00787E+007    7.99408E+007    7.99408E+007   -1.32016E+005   -1.43846E+005    8.00846E+007   -2.65550E+007    8.00787E+007    7.99408E+007   -1.32996E+005   -1.42866E+005   -9.18244E+002   -2.31124E+002    3.26165E+003
             875    8.00727E+007    7.99561E+007    7.99561E+007   -8.31035E+004   -1.50187E+005    8.01062E+007   -2.65743E+007    8.00727E+007    7.99561E+007   -8.79692E+004   -1.45322E+005   -1.06184E+003    1.72589E+003   -1.73992E+004
             876    8.00779E+007    7.99511E+007    7.99511E+007   -8.65000E+004   -1.67024E+005    8.01181E+007   -2.65659E+007    8.00778E+007    7.99511E+007   -9.27703E+004   -1.60753E+005   -4.59768E+003   -3.48758E+002   -2.15780E+004
             877    8.00765E+007    7.99417E+007    7.99417E+007   -9.85778E+004   -1.71101E+005    8.01128E+007   -2.65573E+007    8.00764E+007    7.99417E+007   -1.06124E+005   -1.63555E+005    1.55486E+003    1.94933E+002   -2.21430E+004
             878    8.00857E+007    7.99473E+007    7.99473E+007   -1.11478E+005   -1.65150E+005    8.01125E+007   -2.65569E+007    8.00856E+007    7.99473E+007   -1.20876E+005   -1.55753E+005   -5.67922E+002   -1.62860E+002   -2.03976E+004
             879    8.00811E+007    7.99425E+007    7.99425E+007   -1.20374E+005   -1.56692E+005    8.00992E+007   -2.65552E+007    8.00811E+007    7.99425E+007   -1.29762E+005   -1.47305E+005    2.98223E+002    1.62199E+002   -1.58998E+004
             880    8.00862E+007    7.99473E+007    7.99473E+007   -1.28257E+005   -1.49588E+005    8.00969E+007   -2.65565E+007    8.00862E+007    7.99473E+007   -1.39280E+005   -1.38565E+005   -3.21087E+001    2.09544E+001   -1.06597E+004
             881    8.00819E+007    7.99438E+007    7.99438E+007   -1.32870E+005   -1.43265E+005    8.00871E+007   -2.65559E+007    8.00819E+007    7.99438E+007   -1.41822E+005   -1.34313E+005   -6.67084E+001    2.47420E+002   -3.59458E+003
             882    8.00863E+007    7.99478E+007    7.99478E+007   -1.32874E+005   -1.44280E+005    8.00920E+007   -2.65569E+007    8.00863E+007    7.99478E+007   -1.43447E+005   -1.33707E+005    2.72392E+002    1.01989E+002    2.96710E+003
             883    8.00818E+007    7.99433E+007    7.99433E+007   -1.28426E+005   -1.48626E+005    8.00919E+007   -2.65554E+007    8.00818E+007    7.99433E+007   -1.37529E+005   -1.39523E+005   -5.10961E+002    1.27448E+002    1.00510E+004
             884    8.00844E+007    7.99464E+007    7.99464E+007   -1.05875E+005   -1.70035E+005    8.01165E+007   -2.65568E+007    8.00843E+007    7.99464E+007   -1.16163E+005   -1.59747E+005   -6.55975E+002    3.15785E+003   -2.35424E+004
             885    8.00872E+007    7.99460E+007    7.99460E+007   -1.00181E+005   -1.82082E+005    8.01281E+007   -2.65546E+007    8.00871E+007    7.99460E+007   -1.15818E+005   -1.66446E+005   -2.16120E+003    1.17663E+003   -3.21889E+004
             886    8.00850E+007    7.99415E+007    7.99415E+007   -1.05159E+005   -1.81742E+005    8.01232E+007   -2.65515E+007    8.00849E+007    7.99415E+007   -1.24714E+005   -1.62187E+005    1.06560E+003    6.51877E+002   -3.33945E+004
             887    8.00878E+007    7.99450E+007    7.99450E+007   -1.11204E+005   -1.74310E+005    8.01194E+007   -2.65532E+007    8.00878E+007    7.99450E+007   -1.34340E+005   -1.51174E+005   -3.16522E+001   -8.93816E+001   -3.04093E+004
             888    8.00829E+007    7.99424E+007    7.99424E+007   -1.16165E+005   -1.64802E+005    8.01072E+007   -2.65538E+007    8.00828E+007    7.99424E+007   -1.41683E+005   -1.39284E+005    1.67430E+002    1.36405E+002   -2.42888E+004
             889    8.00828E+007    7.99440E+007    7.99440E+007   -1.20684E+005   -1.56784E+005    8.01008E+007   -2.65555E+007    8.00828E+007    7.99440E+007   -1.48231E+005   -1.29236E+005    7.67118E+001   -7.71630E+001   -1.53495E+004
             890    8.00799E+007    7.99427E+007    7.99427E+007   -1.22941E+005   -1.51505E+005    8.00942E+007   -2.65561E+007    8.00799E+007    7.99427E+007   -1.50525E+005   -1.23921E+005   -2.23424E+001    2.08256E+002   -5.19968E+003
             891    8.00814E+007    7.99437E+007    7.99437E+007   -1.23362E+005   -1.51907E+005    8.00956E+007   -2.65562E+007    8.00814E+007    7.99437E+007   -1.50746E+005   -1.24522E+005    4.61896E+001    7.18809E+000    5.63708E+003
             892    8.00808E+007    7.99423E+007    7.99423E+007   -1.20783E+005   -1.56233E+005    8.00986E+007   -2.65551E+007    8.00808E+007    7.99423E+007   -1.46207E+005   -1.30810E+005   -1.12059E+002    1.68783E+002    1.59656E+004
             893    8.00931E+007    7.99330E+007    7.99330E+007   -1.30682E+005   -1.89504E+005    8.01225E+007   -2.65376E+007    8.00931E+007    7.99330E+007   -1.45436E+005   -1.74749E+005   -1.07304E+003    3.50463E+003   -2.54988E+004
             894    8.00907E+007    7.99339E+007    7.99339E+007   -1.17923E+005   -1.95725E+005    8.01296E+007   -2.65401E+007    8.00907E+007    7.99339E+007   -1.43369E+005   -1.70279E+005    1.16528E+003    2.50241E+003   -3.64995E+004
             895    8.00912E+007    7.99388E+007    7.99388E+007   -1.12522E+005   -1.92266E+005    8.01311E+007   -2.65447E+007    8.00911E+007    7.99388E+007   -1.45402E+005   -1.59386E+005    6.17888E+002    1.13323E+003   -3.92538E+004
             896    8.00877E+007    7.99406E+007    7.99406E+007   -1.10803E+005   -1.83291E+005    8.01239E+007   -2.65489E+007    8.00876E+007    7.99406E+007   -1.49874E+005   -1.44220E+005    4.42199E+002    4.42546E+002   -3.61340E+004
             897    8.00868E+007    7.99450E+007    7.99450E+007   -1.10416E+005   -1.73100E+005    8.01181E+007   -2.65538E+007    8.00868E+007    7.99450E+007   -1.54060E+005   -1.29455E+005    1.40747E+002    9.68625E+001   -2.88265E+004
             898    8.00844E+007    7.99470E+007    7.99470E+007   -1.10675E+005   -1.64118E+005    8.01111E+007   -2.65574E+007    8.00843E+007    7.99470E+007   -1.57029E+005   -1.17763E+005   -1.95716E+001   -6.13005E+002   -1.81273E+004
             899    8.00845E+007    7.99489E+007    7.99489E+007   -1.11727E+005   -1.59421E+005    8.01083E+007   -2.65592E+007    8.00844E+007    7.99489E+007   -1.58902E+005   -1.12247E+005   -1.04313E+001   -3.93317E+002   -4.95141E+003
             900    8.00836E+007    7.99479E+007    7.99479E+007   -1.12063E+005   -1.59345E+005    8.01072E+007   -2.65588E+007    8.00836E+007    7.99479E+007   -1.57767E+005   -1.13641E+005    1.34790E+002   -7.90397E+002    8.49298E+003
             901    8.00869E+007    7.99480E+007    7.99480E+007   -1.11765E+005   -1.65995E+005    8.01140E+007   -2.65567E+007    8.00868E+007    7.99480E+007   -1.55497E+005   -1.22263E+005    1.67594E+002   -3.68198E+002    2.14263E+004
             902    8.01045E+007    7.99261E+007    7.99261E+007   -1.54048E+005   -2.02595E+005    8.01287E+007   -2.65232E+007    8.01044E+007    7.99261E+007   -1.70299E+005   -1.86345E+005   -1.64130E+003    3.41732E+003   -2.29095E+004
             903    8.00987E+007    7.99288E+007    7.99288E+007   -1.33861E+005   -2.05924E+005    8.01347E+007   -2.65297E+007    8.00986E+007    7.99288E+007   -1.64132E+005   -1.75653E+005    4.23628E+003    4.33088E+003   -3.55680E+004
             904    8.01004E+007    7.99397E+007    7.99397E+007   -1.19443E+005   -2.01775E+005    8.01415E+007   -2.65395E+007    8.01003E+007    7.99397E+007   -1.63729E+005   -1.57489E+005    1.48583E+003    1.90979E+003   -4.10480E+004
             905    8.00892E+007    7.99395E+007    7.99395E+007   -1.09802E+005   -1.89622E+005    8.01291E+007   -2.65467E+007    8.00891E+007    7.99395E+007   -1.62014E+005   -1.37411E+005    1.40919E+003    4.77994E+002   -3.79669E+004
             906    8.00845E+007    7.99440E+007    7.99440E+007   -1.01662E+005   -1.79374E+005    8.01234E+007   -2.65543E+007    8.00844E+007    7.99440E+007   -1.64114E+005   -1.16922E+005    2.46395E+002    9.24450E+002   -3.08705E+004
             907    8.00753E+007    7.99421E+007    7.99421E+007   -9.72344E+004   -1.69122E+005    8.01112E+007   -2.65586E+007    8.00752E+007    7.99421E+007   -1.63904E+005   -1.02453E+005    3.05787E+002    1.33589E+003   -1.86522E+004
             908    8.00755E+007    7.99452E+007    7.99452E+007   -9.46523E+004   -1.65782E+005    8.01110E+007   -2.65616E+007    8.00754E+007    7.99452E+007   -1.65507E+005   -9.49271E+004   -5.06043E+001    1.71188E+003   -4.41261E+003
             909    8.00729E+007    7.99415E+007    7.99415E+007   -9.67561E+004   -1.66084E+005    8.01076E+007   -2.65595E+007    8.00729E+007    7.99415E+007   -1.64281E+005   -9.85596E+004   -2.51870E+002    1.68842E+003    1.10354E+004
             910    8.00805E+007    7.99437E+007    7.99437E+007   -9.99103E+004   -1.73731E+005    8.01174E+007   -2.65567E+007    8.00804E+007    7.99437E+007   -1.64239E+005   -1.09402E+005   -9.91350E+001    1.57924E+003    2.47102E+004
             911    8.01028E+007    7.99145E+007    7.99145E+007   -1.71636E+005   -2.04992E+005    8.01195E+007   -2.65126E+007    8.01028E+007    7.99145E+007   -1.85090E+005   -1.91538E+005   -3.39148E+003    5.13420E+002   -1.63631E+004
             912    8.00878E+007    7.99100E+007    7.99100E+007   -1.50877E+005   -2.04566E+005    8.01146E+007   -2.65182E+007    8.00877E+007    7.99100E+007   -1.79716E+005   -1.75726E+005    5.38294E+003    5.76361E+003   -2.67699E+004
             913    8.00966E+007    7.99308E+007    7.99308E+007   -1.29210E+005   -2.02170E+005    8.01330E+007   -2.65332E+007    8.00965E+007    7.99308E+007   -1.75112E+005   -1.56268E+005    4.05085E+003    4.37479E+003   -3.52421E+004
             914    8.00862E+007    7.99361E+007    7.99361E+007   -1.10056E+005   -1.90070E+005    8.01261E+007   -2.65453E+007    8.00861E+007    7.99361E+007   -1.68817E+005   -1.31309E+005    2.52876E+003    1.55698E+003   -3.53388E+004
             915    8.00839E+007    7.99486E+007    7.99486E+007   -9.33292E+004   -1.77269E+005    8.01259E+007   -2.65593E+007    8.00838E+007    7.99486E+007   -1.65398E+005   -1.05199E+005    1.44704E+003   -1.56333E+003   -2.92487E+004
             916    8.00745E+007    7.99516E+007    7.99516E+007   -8.16907E+004   -1.64065E+005    8.01156E+007   -2.65686E+007    8.00744E+007    7.99516E+007   -1.60257E+005   -8.54990E+004    3.24112E+002   -4.32947E+003   -1.72979E+004
             917    8.00745E+007    7.99559E+007    7.99559E+007   -7.71862E+004   -1.59880E+005    8.01158E+007   -2.65730E+007    8.00744E+007    7.99559E+007   -1.59775E+005   -7.72913E+004    3.32925E+002   -4.96998E+003   -2.95140E+003
             918    8.00730E+007    7.99524E+007    7.99524E+007   -7.96378E+004   -1.61403E+005    8.01138E+007   -2.65705E+007    8.00729E+007    7.99524E+007   -1.59635E+005   -8.14056E+004    5.39026E+002   -5.56137E+003    1.18930E+004
             919    8.00836E+007    7.99521E+007    7.99521E+007   -8.94372E+004   -1.73609E+005    8.01257E+007   -2.65630E+007    8.00835E+007    7.99521E+007   -1.64905E+005   -9.81410E+004   -9.74067E+001   -4.37976E+003    2.56295E+004
             920    8.01294E+007    7.99334E+007    7.99334E+007   -1.82615E+005   -2.09472E+005    8.01428E+007   -2.65138E+007    8.01294E+007    7.99334E+007   -1.95262E+005   -1.96823E+005   -6.15745E+003   -6.91058E+003   -1.34053E+004
             921    8.01005E+007    7.99179E+007    7.99179E+007   -1.64904E+005   -2.00140E+005    8.01181E+007   -2.65176E+007    8.01004E+007    7.99179E+007   -1.83227E+005   -1.81817E+005    4.30700E+002   -3.93564E+003   -1.76042E+004
             922    8.00982E+007    7.99297E+007    7.99297E+007   -1.40416E+005   -1.96507E+005    8.01262E+007   -2.65309E+007    8.00982E+007    7.99297E+007   -1.80128E+005   -1.56795E+005    3.11371E+003   -9.74275E+002   -2.55039E+004
             923    8.00856E+007    7.99372E+007    7.99372E+007   -1.16545E+005   -1.80124E+005    8.01174E+007   -2.65469E+007    8.00855E+007    7.99372E+007   -1.67730E+005   -1.28940E+005    4.04072E+003   -8.50391E+002   -2.51874E+004
             924    8.00783E+007    7.99516E+007    7.99516E+007   -9.26818E+004   -1.60621E+005    8.01123E+007   -2.65661E+007    8.00782E+007    7.99516E+007   -1.53597E+005   -9.97052E+004    2.76685E+003   -6.12942E+002   -2.06842E+004
             925    8.00673E+007    7.99578E+007    7.99578E+007   -7.58359E+004   -1.43164E+005    8.01010E+007   -2.65796E+007    8.00673E+007    7.99578E+007   -1.40601E+005   -7.83983E+004    2.10337E+003   -6.96373E+002   -1.28826E+004
             926    8.00674E+007    7.99644E+007    7.99644E+007   -6.81856E+004   -1.37804E+005    8.01022E+007   -2.65861E+007    8.00673E+007    7.99644E+007   -1.37759E+005   -6.82303E+004    6.75991E+002   -1.69006E+003   -1.76532E+003
             927    8.00683E+007    7.99593E+007    7.99593E+007   -7.50357E+004   -1.42980E+005    8.01022E+007   -2.65804E+007    8.00682E+007    7.99593E+007   -1.41369E+005   -7.66471E+004   -3.85630E+002   -1.30725E+003    1.03390E+004
             928    8.00804E+007    7.99546E+007    7.99546E+007   -9.07955E+004   -1.60768E+005    8.01154E+007   -2.65677E+007    8.00804E+007    7.99546E+007   -1.54647E+005   -9.69161E+004   -2.06006E+003   -1.06408E+003    1.97690E+004
             929    8.00708E+007    7.99610E+007    7.99610E+007   -1.02155E+005   -1.17472E+005    8.00785E+007   -2.65805E+007    8.00708E+007    7.99610E+007   -1.16996E+005   -1.02630E+005   -1.91690E+003   -1.92637E+003   -2.65655E+003
             930    8.00544E+007    7.99767E+007    7.99767E+007   -7.22310E+004   -8.30114E+004    8.00598E+007   -2.66072E+007    8.00544E+007    7.99767E+007   -8.25757E+004   -7.26666E+004   -6.93776E+002   -2.11330E+003   -2.12284E+003
             931    8.00458E+007    7.99807E+007    7.99807E+007   -6.18366E+004   -6.84793E+004    8.00491E+007   -2.66168E+007    8.00458E+007    7.99807E+007   -6.84627E+004   -6.18531E+004    1.01891E+003   -1.62477E+003   -3.31147E+002
             932    8.00524E+007    7.99745E+007    7.99745E+007   -7.30289E+004   -8.27643E+004    8.00572E+007   -2.66062E+007    8.00524E+007    7.99745E+007   -8.24681E+004   -7.33250E+004    1.81927E+003   -1.80984E+003    1.67180E+003
             933    8.00677E+007    7.99576E+007    7.99576E+007   -1.03366E+005   -1.16798E+005    8.00744E+007   -2.65792E+007    8.00677E+007    7.99576E+007   -1.16424E+005   -1.03740E+005    2.85468E+003   -1.27772E+003    2.20924E+003
             934    8.00883E+007    7.99388E+007    7.99388E+007   -1.40019E+005   -1.58842E+005    8.00977E+007   -2.65467E+007    8.00883E+007    7.99388E+007   -1.58576E+005   -1.40285E+005    2.96830E+003   -8.42704E+002    2.22180E+003
             935    8.01028E+007    7.99204E+007    7.99204E+007   -1.70021E+005   -1.94753E+005    8.01152E+007   -2.65186E+007    8.01028E+007    7.99204E+007   -1.94650E+005   -1.70124E+005    3.34831E+003   -1.95434E+002   -1.58984E+003
             936    8.01130E+007    7.99123E+007    7.99123E+007   -1.84509E+005   -2.16960E+005    8.01293E+007   -2.65036E+007    8.01130E+007    7.99123E+007   -2.10124E+005   -1.91346E+005    1.16054E+003    1.99415E+003   -1.32332E+004
             937    8.01109E+007    7.99038E+007    7.99038E+007   -1.86878E+005   -2.27301E+005    8.01311E+007   -2.64965E+007    8.01108E+007    7.99038E+007   -1.97298E+005   -2.16881E+005    5.65612E+003    6.20009E+003   -1.76814E+004
             938    8.00484E+007    7.99804E+007    7.99804E+007   -6.47472E+004   -7.12213E+004    8.00517E+007   -2.66148E+007    8.00484E+007    7.99804E+007   -6.48088E+004   -7.11596E+004   -1.99671E+003    5.13101E+002    6.28647E+002
             939    8.00614E+007    7.99688E+007    7.99688E+007   -8.76235E+004   -9.75822E+004    8.00664E+007   -2.65946E+007    8.00614E+007    7.99688E+007   -8.77793E+004   -9.74264E+004   -1.96084E+003    1.86765E+003    1.23583E+003
             940    8.00805E+007    7.99499E+007    7.99499E+007   -1.24674E+005   -1.36475E+005    8.00864E+007   -2.65629E+007    8.00805E+007    7.99499E+007   -1.24674E+005   -1.36475E+005   -1.72818E+003    2.44160E+003   -5.19115E+001
             941    8.01004E+007    7.99315E+007    7.99315E+007   -1.63657E+005   -1.74010E+005    8.01055E+007   -2.65313E+007    8.01004E+007    7.99315E+007   -1.63658E+005   -1.74010E+005   -1.21271E+003    2.92657E+003   -3.08024E+001
             942    8.01110E+007    7.99149E+007    7.99149E+007   -1.89932E+005   -2.02150E+005    8.01171E+007   -2.65076E+007    8.01110E+007    7.99149E+007   -1.89951E+005   -2.02130E+005   -2.38919E+002    3.31352E+003    4.83431E+002
             943    8.01201E+007    7.99088E+007    7.99088E+007   -2.05214E+005   -2.17464E+005    8.01262E+007   -2.64954E+007    8.01201E+007    7.99088E+007   -2.05217E+005   -2.17461E+005    1.18409E+003    1.20716E+003    2.13341E+002
             944    8.01146E+007    7.98996E+007    7.98996E+007   -1.99142E+005   -2.30840E+005    8.01305E+007   -2.64899E+007    8.01146E+007    7.98996E+007   -1.99501E+005   -2.30479E+005    5.82005E+003    5.83828E+003   -3.35971E+003
             945    8.00694E+007    7.99586E+007    7.99586E+007   -7.06512E+004   -1.50931E+005    8.01096E+007   -2.65790E+007    8.00694E+007    7.99586E+007   -7.12274E+004   -1.50355E+005    2.51288E+003   -3.87505E+002   -6.77698E+003
             946    8.00781E+007    7.99491E+007    7.99491E+007   -9.08620E+004   -1.66989E+005    8.01161E+007   -2.65638E+007    8.00780E+007    7.99491E+007   -9.16268E+004   -1.66225E+005    1.79935E+002   -3.21999E+002   -7.59145E+003
             947    8.00812E+007    7.99471E+007    7.99471E+007   -1.06225E+005   -1.61862E+005    8.01090E+007   -2.65597E+007    8.00811E+007    7.99471E+007   -1.07129E+005   -1.60958E+005    2.50837E+003   -7.68576E+001   -7.03502E+003
             948    8.00805E+007    7.99424E+007    7.99424E+007   -1.23147E+005   -1.53010E+005    8.00954E+007   -2.65554E+007    8.00805E+007    7.99424E+007   -1.24212E+005   -1.51946E+005   -1.90148E+003   -5.83324E+001   -5.53667E+003
             949    8.00750E+007    7.99545E+007    7.99545E+007   -8.15962E+004   -1.59337E+005    8.01138E+007   -2.65712E+007    8.00749E+007    7.99545E+007   -8.62044E+004   -1.54728E+005    2.16182E+003   -1.39845E+003   -1.83581E+004
             950    8.00810E+007    7.99474E+007    7.99474E+007   -9.36370E+004   -1.73535E+005    8.01210E+007   -2.65601E+007    8.00810E+007    7.99474E+007   -1.00522E+005   -1.66650E+005    1.28737E+001   -1.16624E+003   -2.24211E+004
             951    8.00833E+007    7.99462E+007    7.99462E+007   -1.06480E+005   -1.67691E+005    8.01139E+007   -2.65574E+007    8.00833E+007    7.99462E+007   -1.14643E+005   -1.59529E+005    1.88571E+003   -1.48741E+002   -2.08094E+004
             952    8.00816E+007    7.99426E+007    7.99426E+007   -1.20352E+005   -1.57653E+005    8.01002E+007   -2.65549E+007    8.00816E+007    7.99426E+007   -1.29433E+005   -1.48572E+005   -1.52174E+003   -1.74873E+002   -1.60084E+004
             953    8.00816E+007    7.99447E+007    7.99447E+007   -1.00065E+005   -1.73782E+005    8.01185E+007   -2.65569E+007    8.00815E+007    7.99447E+007   -1.10965E+005   -1.62883E+005    1.27598E+003   -2.28198E+003   -2.61668E+004
             954    8.00841E+007    7.99417E+007    7.99417E+007   -1.01080E+005   -1.83487E+005    8.01252E+007   -2.65524E+007    8.00840E+007    7.99417E+007   -1.17998E+005   -1.66569E+005   -1.17586E+002   -2.04928E+003   -3.32855E+004
             955    8.00850E+007    7.99430E+007    7.99430E+007   -1.07440E+005   -1.76433E+005    8.01195E+007   -2.65531E+007    8.00849E+007    7.99430E+007   -1.27839E+005   -1.56034E+005    4.58822E+002   -7.42088E+002   -3.14846E+004
             956    8.00840E+007    7.99430E+007    7.99430E+007   -1.15738E+005   -1.66234E+005    8.01092E+007   -2.65537E+007    8.00839E+007    7.99430E+007   -1.39105E+005   -1.42866E+005   -8.06988E+002   -1.88841E+002   -2.51778E+004
             957    8.00942E+007    7.99363E+007    7.99363E+007   -1.23962E+005   -1.91919E+005    8.01282E+007   -2.65401E+007    8.00942E+007    7.99363E+007   -1.40658E+005   -1.75223E+005    3.07171E+001   -2.16180E+003   -2.92549E+004
             958    8.00912E+007    7.99390E+007    7.99390E+007   -1.10281E+005   -1.94034E+005    8.01330E+007   -2.65449E+007    8.00911E+007    7.99390E+007   -1.37863E+005   -1.66452E+005    1.40890E+002   -1.83704E+003   -3.93614E+004
             959    8.00884E+007    7.99398E+007    7.99398E+007   -1.09707E+005   -1.87437E+005    8.01273E+007   -2.65476E+007    8.00883E+007    7.99398E+007   -1.44358E+005   -1.52786E+005   -1.51070E+003   -9.05827E+002   -3.86355E+004
             960    8.00861E+007    7.99432E+007    7.99432E+007   -1.09852E+005   -1.75985E+005    8.01191E+007   -2.65524E+007    8.00860E+007    7.99432E+007   -1.50665E+005   -1.35172E+005   -2.73868E+002   -4.30886E+002   -3.21461E+004
             961    8.00990E+007    7.99232E+007    7.99232E+007   -1.45179E+005   -2.06355E+005    8.01295E+007   -2.65239E+007    8.00989E+007    7.99232E+007   -1.66352E+005   -1.85181E+005   -1.68478E+003   -2.67691E+003   -2.91029E+004
             962    8.00931E+007    7.99304E+007    7.99304E+007   -1.23831E+005   -2.01346E+005    8.01318E+007   -2.65351E+007    8.00930E+007    7.99304E+007   -1.58896E+005   -1.66281E+005    4.88373E+002   -2.14052E+003   -3.85810E+004
             963    8.00881E+007    7.99336E+007    7.99336E+007   -1.13914E+005   -1.94909E+005    8.01286E+007   -2.65416E+007    8.00880E+007    7.99336E+007   -1.59438E+005   -1.49386E+005   -3.48326E+003   -1.85758E+003   -4.01845E+004
             964    8.00888E+007    7.99438E+007    7.99438E+007   -1.05483E+005   -1.84465E+005    8.01283E+007   -2.65513E+007    8.00888E+007    7.99438E+007   -1.61804E+005   -1.28144E+005   -3.87463E+002    1.59966E+002   -3.57252E+004
             965    8.01124E+007    7.99227E+007    7.99227E+007   -1.61374E+005   -2.17981E+005    8.01407E+007   -2.65145E+007    8.01124E+007    7.99227E+007   -1.86618E+005   -1.92737E+005   -3.57796E+003   -6.13001E+002   -2.81375E+004
             966    8.01052E+007    7.99332E+007    7.99332E+007   -1.38074E+005   -2.05737E+005    8.01390E+007   -2.65298E+007    8.01051E+007    7.99332E+007   -1.74217E+005   -1.69594E+005    2.27420E+003    2.10881E+003   -3.37527E+004
             967    8.00902E+007    7.99302E+007    7.99302E+007   -1.21548E+005   -1.98302E+005    8.01285E+007   -2.65368E+007    8.00901E+007    7.99302E+007   -1.70634E+005   -1.49216E+005   -3.71195E+003    2.32473E+002   -3.68527E+004
             968    8.00898E+007    7.99437E+007    7.99437E+007   -1.04994E+005   -1.87068E+005    8.01308E+007   -2.65506E+007    8.00897E+007    7.99437E+007   -1.68515E+005   -1.23548E+005   -1.43499E+003    1.37047E+002   -3.43299E+004
             969    8.01027E+007    7.99021E+007    7.99021E+007   -1.82542E+005   -2.18566E+005    8.01207E+007   -2.65003E+007    8.01026E+007    7.99021E+007   -2.00258E+005   -2.00849E+005   -8.96492E+003   -8.02226E+003   -1.80087E+004
             970    8.01114E+007    7.99259E+007    7.99259E+007   -1.57352E+005   -2.13668E+005    8.01395E+007   -2.65183E+007    8.01114E+007    7.99259E+007   -1.91319E+005   -1.79701E+005   -6.79017E+002   -1.87645E+003   -2.75519E+004
             971    8.00951E+007    7.99270E+007    7.99270E+007   -1.38706E+005   -1.97375E+005    8.01244E+007   -2.65303E+007    8.00950E+007    7.99270E+007   -1.80990E+005   -1.55092E+005   -3.04421E+003   -1.64979E+002   -2.63216E+004
             972    8.00898E+007    7.99430E+007    7.99430E+007   -1.14200E+005   -1.79284E+005    8.01223E+007   -2.65499E+007    8.00897E+007    7.99430E+007   -1.68097E+005   -1.25386E+005   -1.80273E+003    9.45044E+002   -2.45547E+004
             973    8.00892E+007    7.99396E+007    7.99396E+007   -1.39877E+005   -1.59251E+005    8.00989E+007   -2.65468E+007    8.00892E+007    7.99396E+007   -1.59209E+005   -1.39920E+005   -2.69170E+003    8.81231E+002    9.01893E+002
             974    8.01084E+007    7.99246E+007    7.99246E+007   -1.71542E+005   -1.96209E+005    8.01208E+007   -2.65189E+007    8.01084E+007    7.99246E+007   -1.96199E+005   -1.71552E+005   -1.82425E+003    1.20145E+003    5.05353E+002
             975    8.01149E+007    7.99152E+007    7.99152E+007   -1.77349E+005   -2.22012E+005    8.01372E+007   -2.65053E+007    8.01149E+007    7.99152E+007   -2.21491E+005   -1.77870E+005   -2.48214E+003    1.23790E+003   -4.79542E+003
             976    8.01138E+007    7.99167E+007    7.99167E+007   -1.61890E+005   -2.32113E+005    8.01488E+007   -2.65076E+007    8.01137E+007    7.99167E+007   -2.12704E+005   -1.81299E+005    1.19949E+003    3.41787E+003   -3.14047E+004
             977    8.00481E+007    7.99761E+007    7.99761E+007   -6.50880E+004   -7.88774E+004    8.00550E+007   -2.66107E+007    8.00481E+007    7.99761E+007   -6.51211E+004   -7.88443E+004    8.88175E+002   -5.59943E+002    6.74412E+002
             978    8.00603E+007    7.99653E+007    7.99653E+007   -8.69396E+004   -1.03105E+005    8.00684E+007   -2.65918E+007    8.00603E+007    7.99653E+007   -8.69579E+004   -1.03087E+005    9.16855E+002   -1.83956E+003    5.43068E+002
             979    8.00800E+007    7.99488E+007    7.99488E+007   -1.22392E+005   -1.39995E+005    8.00888E+007   -2.65621E+007    8.00800E+007    7.99488E+007   -1.22429E+005   -1.39957E+005    1.10539E+003   -2.67107E+003    8.14573E+002
             980    8.00983E+007    7.99308E+007    7.99308E+007   -1.56751E+005   -1.78148E+005    8.01090E+007   -2.65320E+007    8.00983E+007    7.99308E+007   -1.56767E+005   -1.78132E+005    9.81188E+002   -2.89018E+003    5.73346E+002
             981    8.01149E+007    7.99177E+007    7.99177E+007   -1.83209E+005   -2.11137E+005    8.01289E+007   -2.65078E+007    8.01149E+007    7.99177E+007   -1.83246E+005   -2.11100E+005    1.15875E+003   -1.64924E+003    1.01437E+003
             982    8.01175E+007    7.99122E+007    7.99122E+007   -1.79258E+005   -2.31407E+005    8.01436E+007   -2.65005E+007    8.01175E+007    7.99122E+007   -1.79647E+005   -2.31018E+005    1.14569E+003   -1.90024E+003   -4.48725E+003
             983    8.01142E+007    7.99159E+007    7.99159E+007   -1.60210E+005   -2.36397E+005    8.01523E+007   -2.65064E+007    8.01142E+007    7.99159E+007   -1.79255E+005   -2.17352E+005    3.03450E+003    1.95704E+003   -3.29890E+004
             984    8.00694E+007    7.99583E+007    7.99583E+007   -1.03854E+005   -1.18448E+005    8.00767E+007   -2.65787E+007    8.00694E+007    7.99583E+007   -1.18158E+005   -1.04143E+005   -1.89579E+003    8.52563E+002    2.03646E+003
             985    8.00510E+007    7.99722E+007    7.99722E+007   -7.37986E+004   -8.37628E+004    8.00560E+007   -2.66049E+007    8.00510E+007    7.99722E+007   -8.32834E+004   -7.42779E+004   -9.84701E+002    5.73809E+002    2.13218E+003
             986    8.00440E+007    7.99784E+007    7.99784E+007   -6.27152E+004   -6.85179E+004    8.00469E+007   -2.66157E+007    8.00440E+007    7.99784E+007   -6.84774E+004   -6.27557E+004    1.93080E+002    5.75769E+002    4.83094E+002
             987    8.00503E+007    7.99721E+007    7.99721E+007   -7.39641E+004   -8.24164E+004    8.00545E+007   -2.66052E+007    8.00503E+007    7.99721E+007   -8.21299E+004   -7.42506E+004    1.33005E+003    5.44712E+002   -1.52938E+003
             988    8.00682E+007    7.99578E+007    7.99578E+007   -1.03917E+005   -1.16793E+005    8.00746E+007   -2.65790E+007    8.00682E+007    7.99578E+007   -1.16547E+005   -1.04164E+005    2.14429E+003    7.39236E+002   -1.76359E+003
             989    8.00887E+007    7.99389E+007    7.99389E+007   -1.40508E+005   -1.59109E+005    8.00980E+007   -2.65464E+007    8.00887E+007    7.99389E+007   -1.58951E+005   -1.40665E+005    2.51452E+003    7.89260E+002   -1.70458E+003
             990    8.01077E+007    7.99246E+007    7.99246E+007   -1.69016E+005   -1.97078E+005    8.01217E+007   -2.65195E+007    8.01077E+007    7.99246E+007   -1.96971E+005   -1.69123E+005    1.70816E+003    1.12765E+003    1.73466E+003
             991    8.01141E+007    7.99155E+007    7.99155E+007   -1.81107E+005   -2.16044E+005    8.01316E+007   -2.65061E+007    8.01141E+007    7.99155E+007   -2.10894E+005   -1.86257E+005    1.86328E+003    1.47385E+003    1.23858E+004
             992    8.01160E+007    7.99188E+007    7.99188E+007   -1.80376E+005   -2.13989E+005    8.01328E+007   -2.65082E+007    8.01160E+007    7.99188E+007   -1.89180E+005   -2.05185E+005   -2.07083E+003    4.16088E+003    1.47792E+004
             993    8.00739E+007    7.99508E+007    7.99508E+007   -8.93387E+004   -1.56893E+005    8.01077E+007   -2.65682E+007    8.00739E+007    7.99508E+007   -1.51242E+005   -9.49897E+004   -1.66334E+003    1.87778E+003   -1.87034E+004
             994    8.00782E+007    7.99450E+007    7.99450E+007   -9.29660E+004   -1.73311E+005    8.01183E+007   -2.65596E+007    8.00781E+007    7.99450E+007   -1.64174E+005   -1.02103E+005   -1.92110E+003    5.59454E+001   -2.55075E+004
             995    8.00809E+007    7.99449E+007    7.99449E+007   -9.97121E+004   -1.72218E+005    8.01172E+007   -2.65577E+007    8.00809E+007    7.99449E+007   -1.62357E+005   -1.09573E+005   -9.53393E+002    1.76550E+003   -2.48544E+004
             996    8.00814E+007    7.99427E+007    7.99427E+007   -1.11080E+005   -1.66182E+005    8.01089E+007   -2.65552E+007    8.00814E+007    7.99427E+007   -1.56072E+005   -1.21190E+005   -5.99263E+002   -6.19804E+002   -2.13277E+004
             997    8.00850E+007    7.99462E+007    7.99462E+007   -1.21021E+005   -1.56472E+005    8.01027E+007   -2.65563E+007    8.00850E+007    7.99462E+007   -1.46706E+005   -1.30787E+005    2.85885E+002    3.76566E+002   -1.58382E+004
             998    8.00850E+007    7.99463E+007    7.99463E+007   -1.28738E+005   -1.48679E+005    8.00950E+007   -2.65563E+007    8.00850E+007    7.99463E+007   -1.39167E+005   -1.38250E+005    9.16149E+002   -1.89579E+002   -9.96041E+003
             999    8.00858E+007    7.99475E+007    7.99475E+007   -1.33359E+005   -1.43333E+005    8.00908E+007   -2.65569E+007    8.00858E+007    7.99475E+007   -1.34556E+005   -1.42137E+005    1.31675E+003    1.14222E+002   -3.24121E+003
            1000    8.00683E+007    7.99615E+007    7.99615E+007   -7.16047E+004   -1.41949E+005    8.01034E+007   -2.65826E+007    8.00682E+007    7.99615E+007   -1.40530E+005   -7.30240E+004   -5.76970E+002    2.29442E+003   -9.89090E+003
            1001    8.00774E+007    7.99534E+007    7.99534E+007   -8.35672E+004   -1.64474E+005    8.01179E+007   -2.65685E+007    8.00774E+007    7.99534E+007   -1.62577E+005   -8.54639E+004   -5.11192E+002    8.26222E+001   -1.22418E+004
            1002    8.00814E+007    7.99505E+007    7.99505E+007   -9.55791E+004   -1.66253E+005    8.01167E+007   -2.65629E+007    8.00814E+007    7.99505E+007   -1.64443E+005   -9.73892E+004    1.86902E+002    2.47457E+003   -1.11651E+004
            1003    8.00804E+007    7.99447E+007    7.99447E+007   -1.10786E+005   -1.60728E+005    8.01054E+007   -2.65577E+007    8.00804E+007    7.99447E+007   -1.59349E+005   -1.12165E+005   -3.84911E+001   -9.69549E+002   -8.18354E+003
            1004    8.00830E+007    7.99454E+007    7.99454E+007   -1.23894E+005   -1.51268E+005    8.00966E+007   -2.65567E+007    8.00829E+007    7.99454E+007   -1.50048E+005   -1.25114E+005   -1.63093E+002    5.67804E+002   -5.64834E+003
            1005    8.00800E+007    7.99420E+007    7.99420E+007   -1.32776E+005   -1.43237E+005    8.00852E+007   -2.65553E+007    8.00800E+007    7.99420E+007   -1.42349E+005   -1.33665E+005   -5.33733E+002   -3.52609E+002   -2.91686E+003
            1006    8.00804E+007    7.99422E+007    7.99422E+007   -1.36919E+005   -1.39457E+005    8.00816E+007   -2.65553E+007    8.00804E+007    7.99422E+007   -1.37703E+005   -1.38672E+005   -7.03563E+002    1.76773E+002   -1.17297E+003
            1007    8.00622E+007    7.99618E+007    7.99618E+007   -6.52641E+004   -1.35510E+005    8.00974E+007   -2.65870E+007    8.00622E+007    7.99618E+007   -1.35497E+005   -6.52777E+004    2.29613E+002    2.34120E+003    9.78924E+002
            1008    8.00723E+007    7.99514E+007    7.99514E+007   -8.18559E+004   -1.59976E+005    8.01113E+007   -2.65698E+007    8.00722E+007    7.99514E+007   -1.59890E+005   -8.19426E+004    1.76523E+002    1.52281E+002    2.60187E+003
            1009    8.00777E+007    7.99485E+007    7.99485E+007   -9.44500E+004   -1.64034E+005    8.01125E+007   -2.65633E+007    8.00776E+007    7.99485E+007   -1.63720E+005   -9.47639E+004    1.20028E+002    2.79369E+003    4.66381E+003
            1010    8.00790E+007    7.99435E+007    7.99435E+007   -1.10875E+005   -1.60166E+005    8.01037E+007   -2.65575E+007    8.00790E+007    7.99435E+007   -1.59522E+005   -1.11520E+005    5.38458E+001   -8.90007E+002    5.59882E+003
            1011    8.00847E+007    7.99471E+007    7.99471E+007   -1.23399E+005   -1.51883E+005    8.00990E+007   -2.65573E+007    8.00847E+007    7.99471E+007   -1.50711E+005   -1.24571E+005    1.53041E+002    7.60626E+002    5.65674E+003
            1012    8.00843E+007    7.99458E+007    7.99458E+007   -1.32156E+005   -1.44823E+005    8.00907E+007   -2.65563E+007    8.00843E+007    7.99458E+007   -1.43483E+005   -1.33497E+005    2.19187E+002   -3.00911E+002    3.89675E+003
            1013    8.00863E+007    7.99476E+007    7.99476E+007   -1.37084E+005   -1.40216E+005    8.00878E+007   -2.65568E+007    8.00863E+007    7.99476E+007   -1.38852E+005   -1.38448E+005    2.94744E+002    2.30477E+002    1.55284E+003
            1014    8.00681E+007    7.99606E+007    7.99606E+007   -7.29887E+004   -1.41998E+005    8.01026E+007   -2.65819E+007    8.00681E+007    7.99606E+007   -1.39998E+005   -7.49892E+004    1.07242E+003    2.17425E+003    1.15783E+004
            1015    8.00780E+007    7.99519E+007    7.99519E+007   -8.53623E+004   -1.66804E+005    8.01187E+007   -2.65666E+007    8.00779E+007    7.99519E+007   -1.62929E+005   -8.92366E+004    1.18370E+003   -1.55223E+002    1.73354E+004
            1016    8.00826E+007    7.99493E+007    7.99493E+007   -9.67988E+004   -1.69633E+005    8.01190E+007   -2.65610E+007    8.00825E+007    7.99493E+007   -1.64046E+005   -1.02386E+005    4.23832E+002    2.18297E+003    1.93830E+004
            1017    8.00815E+007    7.99438E+007    7.99438E+007   -1.10071E+005   -1.65426E+005    8.01092E+007   -2.65561E+007    8.00815E+007    7.99438E+007   -1.57914E+005   -1.17583E+005    3.71962E+002   -1.05653E+003    1.89575E+004
            1018    8.00837E+007    7.99450E+007    7.99450E+007   -1.21078E+005   -1.56300E+005    8.01013E+007   -2.65559E+007    8.00837E+007    7.99450E+007   -1.46768E+005   -1.30610E+005    1.53095E+002    4.09274E+002    1.56486E+004
            1019    8.00802E+007    7.99419E+007    7.99419E+007   -1.27658E+005   -1.48892E+005    8.00908E+007   -2.65551E+007    8.00802E+007    7.99419E+007   -1.37577E+005   -1.38973E+005    2.07269E+002   -4.01814E+002    1.05941E+004
            1020    8.00804E+007    7.99425E+007    7.99425E+007   -1.30954E+005   -1.44870E+005    8.00874E+007   -2.65556E+007    8.00804E+007    7.99425E+007   -1.31854E+005   -1.43970E+005    1.90265E+002    1.17110E+002    3.42347E+003
            1021    8.00751E+007    7.99496E+007    7.99496E+007   -9.30068E+004   -1.57992E+005    8.01076E+007   -2.65662E+007    8.00750E+007    7.99496E+007   -1.51709E+005   -9.92904E+004    1.85175E+003    1.60393E+003    1.92057E+004
            1022    8.00799E+007    7.99435E+007    7.99435E+007   -9.62017E+004   -1.76509E+005    8.01200E+007   -2.65569E+007    8.00798E+007    7.99435E+007   -1.64476E+005   -1.08234E+005    2.06149E+003   -2.63991E+002    2.86623E+004
            1023    8.00835E+007    7.99433E+007    7.99433E+007   -1.02187E+005   -1.78340E+005    8.01216E+007   -2.65542E+007    8.00835E+007    7.99433E+007   -1.62299E+005   -1.18228E+005    1.08724E+003    1.14582E+003    3.10524E+004
            1024    8.00833E+007    7.99415E+007    7.99415E+007   -1.10232E+005   -1.73324E+005    8.01149E+007   -2.65527E+007    8.00833E+007    7.99415E+007   -1.53342E+005   -1.30215E+005    6.88834E+002   -7.70639E+002    2.93502E+004
            1025    8.00860E+007    7.99453E+007    7.99453E+007   -1.16289E+005   -1.65082E+005    8.01104E+007   -2.65547E+007    8.00860E+007    7.99453E+007   -1.41159E+005   -1.40211E+005    5.68466E+001    1.98750E+002    2.43919E+004
            1026    8.00848E+007    7.99460E+007    7.99460E+007   -1.20913E+005   -1.56762E+005    8.01028E+007   -2.65561E+007    8.00848E+007    7.99460E+007   -1.30670E+005   -1.47004E+005   -3.54872E+002   -2.09773E+002    1.59557E+004
            1027    8.00857E+007    7.99480E+007    7.99480E+007   -1.23292E+005   -1.52016E+005    8.01000E+007   -2.65576E+007    8.00856E+007    7.99480E+007   -1.24400E+005   -1.50908E+005   -6.37168E+002    1.12776E+002    5.53073E+003
            1028    8.00901E+007    7.99406E+007    7.99406E+007   -1.18422E+005   -1.80447E+005    8.01211E+007   -2.65472E+007    8.00900E+007    7.99406E+007   -1.68527E+005   -1.30342E+005    1.84740E+003    5.52306E+002    2.44382E+004
            1029    8.00908E+007    7.99402E+007    7.99402E+007   -1.10719E+005   -1.90329E+005    8.01306E+007   -2.65464E+007    8.00907E+007    7.99402E+007   -1.69168E+005   -1.31880E+005    1.92668E+003    1.71595E+001    3.51686E+004
            1030    8.00904E+007    7.99406E+007    7.99406E+007   -1.10050E+005   -1.89616E+005    8.01302E+007   -2.65470E+007    8.00903E+007    7.99406E+007   -1.61778E+005   -1.37888E+005    1.09679E+003   -7.07466E+002    3.79478E+004
            1031    8.00883E+007    7.99414E+007    7.99414E+007   -1.10140E+005   -1.83471E+005    8.01249E+007   -2.65493E+007    8.00882E+007    7.99414E+007   -1.48510E+005   -1.45100E+005    5.85891E+002   -8.26116E+002    3.66258E+004
            1032    8.00844E+007    7.99423E+007    7.99423E+007   -1.10536E+005   -1.73686E+005    8.01160E+007   -2.65527E+007    8.00844E+007    7.99423E+007   -1.32151E+005   -1.52071E+005    5.18753E+002   -6.05642E+002    2.99627E+004
            1033    8.00803E+007    7.99425E+007    7.99425E+007   -1.10039E+005   -1.65381E+005    8.01079E+007   -2.65557E+007    8.00802E+007    7.99425E+007   -1.18560E+005   -1.56859E+005    9.09943E+002   -3.75140E+002    1.99746E+004
            1034    8.00783E+007    7.99432E+007    7.99432E+007   -1.09618E+005   -1.60615E+005    8.01038E+007   -2.65576E+007    8.00782E+007    7.99432E+007   -1.10495E+005   -1.59738E+005    1.09448E+003   -2.03976E+002    6.63037E+003
            1035    8.00977E+007    7.99262E+007    7.99262E+007   -1.44136E+005   -1.98800E+005    8.01250E+007   -2.65278E+007    8.00977E+007    7.99262E+007   -1.80583E+005   -1.62353E+005    2.28718E+003   -8.76536E+002    2.57668E+004
            1036    8.00935E+007    7.99296E+007    7.99296E+007   -1.29179E+005   -1.98432E+005    8.01281E+007   -2.65340E+007    8.00934E+007    7.99296E+007   -1.71195E+005   -1.56416E+005    2.07068E+003    6.84852E+002    3.38285E+004
            1037    8.00898E+007    7.99308E+007    7.99308E+007   -1.20152E+005   -1.97890E+005    8.01287E+007   -2.65376E+007    8.00897E+007    7.99308E+007   -1.61151E+005   -1.56891E+005    2.48174E+003   -2.31429E+003    3.88106E+004
            1038    8.00901E+007    7.99388E+007    7.99388E+007   -1.11610E+005   -1.90919E+005    8.01297E+007   -2.65454E+007    8.00900E+007    7.99388E+007   -1.42857E+005   -1.59672E+005    1.07824E+003   -1.17930E+003    3.87532E+004
            1039    8.00852E+007    7.99428E+007    7.99428E+007   -1.04662E+005   -1.80101E+005    8.01229E+007   -2.65527E+007    8.00851E+007    7.99428E+007   -1.23551E+005   -1.61212E+005   -5.80523E+002   -1.02272E+003    3.26831E+004
            1040    8.00827E+007    7.99483E+007    7.99483E+007   -9.83545E+004   -1.70325E+005    8.01186E+007   -2.65599E+007    8.00826E+007    7.99483E+007   -1.05866E+005   -1.62814E+005   -2.11684E+003   -3.06716E+002    2.20044E+004
            1041    8.00798E+007    7.99502E+007    7.99502E+007   -9.49675E+004   -1.64048E+005    8.01143E+007   -2.65637E+007    8.00797E+007    7.99502E+007   -9.57896E+004   -1.63226E+005   -2.92857E+003   -6.47997E+001    7.49125E+003
            1042    8.01117E+007    7.99228E+007    7.99228E+007   -1.67848E+005   -2.09776E+005    8.01326E+007   -2.65151E+007    8.01116E+007    7.99228E+007   -1.90134E+005   -1.87491E+005    1.62455E+003   -3.18531E+003    2.09223E+004
            1043    8.01094E+007    7.99319E+007    7.99319E+007   -1.47642E+005   -2.07317E+005    8.01392E+007   -2.65256E+007    8.01093E+007    7.99319E+007   -1.79101E+005   -1.75859E+005   -1.67686E+003    2.28590E+003    2.97937E+004
            1044    8.00955E+007    7.99285E+007    7.99285E+007   -1.32562E+005   -2.01417E+005    8.01299E+007   -2.65315E+007    8.00954E+007    7.99285E+007   -1.62482E+005   -1.71497E+005   -6.33778E+002   -2.16896E+003    3.41315E+004
            1045    8.00934E+007    7.99384E+007    7.99384E+007   -1.16291E+005   -1.93605E+005    8.01320E+007   -2.65428E+007    8.00933E+007    7.99384E+007   -1.40820E+005   -1.69076E+005   -4.59353E+002   -1.65233E+003    3.59829E+004
            1046    8.00830E+007    7.99421E+007    7.99421E+007   -1.01217E+005   -1.80423E+005    8.01226E+007   -2.65535E+007    8.00829E+007    7.99421E+007   -1.16344E+005   -1.65296E+005   -1.36327E+002   -2.03650E+003    3.11339E+004
            1047    8.00784E+007    7.99493E+007    7.99493E+007   -8.93467E+004   -1.68704E+005    8.01180E+007   -2.65638E+007    8.00783E+007    7.99493E+007   -9.56008E+004   -1.62449E+005    9.44906E+001   -1.30210E+003    2.13820E+004
            1048    8.00735E+007    7.99520E+007    7.99520E+007   -8.23194E+004   -1.60701E+005    8.01127E+007   -2.65696E+007    8.00734E+007    7.99520E+007   -8.30561E+004   -1.59964E+005    1.01413E+002   -5.61699E+002    7.56320E+003
            1049    8.01050E+007    7.99023E+007    7.99023E+007   -1.90934E+005   -2.14582E+005    8.01169E+007   -2.64989E+007    8.01050E+007    7.99023E+007   -2.01735E+005   -2.03780E+005    6.22618E+003   -7.09321E+003    1.17794E+004
            1050    8.01143E+007    7.99217E+007    7.99217E+007   -1.72688E+005   -2.12498E+005    8.01342E+007   -2.65122E+007    8.01142E+007    7.99217E+007   -1.88026E+005   -1.97160E+005    2.76182E+003   -9.53361E+002    1.93744E+004
            1051    8.01021E+007    7.99223E+007    7.99223E+007   -1.55795E+005   -2.03670E+005    8.01260E+007   -2.65210E+007    8.01020E+007    7.99223E+007   -1.73836E+005   -1.85629E+005    1.02527E+003   -2.33146E+003    2.32001E+004
            1052    8.00954E+007    7.99359E+007    7.99359E+007   -1.30676E+005   -1.88197E+005    8.01241E+007   -2.65390E+007    8.00953E+007    7.99359E+007   -1.45346E+005   -1.73527E+005   -1.30370E+002   -1.91459E+003    2.50722E+004
            1053    8.00815E+007    7.99454E+007    7.99454E+007   -1.04947E+005   -1.67271E+005    8.01127E+007   -2.65577E+007    8.00815E+007    7.99454E+007   -1.14703E+005   -1.57515E+005   -1.26597E+003   -1.80858E+003    2.26468E+004
            1054    8.00716E+007    7.99567E+007    7.99567E+007   -8.11306E+004   -1.48681E+005    8.01054E+007   -2.65756E+007    8.00716E+007    7.99567E+007   -8.52785E+004   -1.44533E+005   -2.08137E+003   -1.10957E+003    1.62171E+004
            1055    8.00645E+007    7.99622E+007    7.99622E+007   -6.77226E+004   -1.36825E+005    8.00990E+007   -2.65859E+007    8.00644E+007    7.99622E+007   -6.82243E+004   -1.36323E+005   -2.50280E+003   -4.90652E+002    5.86724E+003
            1056    8.00454E+007    7.99770E+007    7.99770E+007   -6.50800E+004   -7.18025E+004    8.00488E+007   -2.66134E+007    8.00454E+007    7.99770E+007   -6.51267E+004   -7.17557E+004   -5.98029E+002   -6.34312E+002   -5.58796E+002
            1057    8.00588E+007    7.99658E+007    7.99658E+007   -8.78310E+004   -9.80722E+004    8.00639E+007   -2.65933E+007    8.00588E+007    7.99658E+007   -8.79182E+004   -9.79850E+004   -6.76026E+002   -1.69673E+003   -9.40856E+002
            1058    8.00797E+007    7.99489E+007    7.99489E+007   -1.24222E+005   -1.37208E+005    8.00862E+007   -2.65625E+007    8.00797E+007    7.99489E+007   -1.24272E+005   -1.37158E+005   -8.62180E+002   -2.15794E+003    8.02236E+002
            1059    8.00989E+007    7.99312E+007    7.99312E+007   -1.61914E+005   -1.73412E+005    8.01046E+007   -2.65320E+007    8.00989E+007    7.99312E+007   -1.62001E+005   -1.73326E+005   -9.03763E+002   -2.47160E+003    9.95191E+002
            1060    8.01139E+007    7.99196E+007    7.99196E+007   -1.87491E+005   -2.01139E+005    8.01207E+007   -2.65103E+007    8.01139E+007    7.99196E+007   -1.87509E+005   -2.01121E+005   -1.05144E+003   -1.28547E+003    5.01334E+002
            1061    8.01206E+007    7.99113E+007    7.99113E+007   -2.01294E+005   -2.17222E+005    8.01285E+007   -2.64976E+007    8.01206E+007    7.99113E+007   -2.01409E+005   -2.17107E+005   -9.87609E+002   -1.65097E+003   -1.35041E+003
            1062    8.01203E+007    7.99145E+007    7.99145E+007   -1.90987E+005   -2.20624E+005    8.01351E+007   -2.65010E+007    8.01203E+007    7.99145E+007   -1.91028E+005   -2.20583E+005   -3.13538E+003    2.01828E+003    1.09902E+003
            1063    8.01141E+007    7.99170E+007    7.99170E+007   -1.61263E+005   -2.32994E+005    8.01500E+007   -2.65076E+007    8.01141E+007    7.99170E+007   -2.12604E+005   -1.81653E+005    9.21136E+002   -3.65357E+003    3.23549E+004
            1064    8.01156E+007    7.99156E+007    7.99156E+007   -1.76870E+005   -2.23248E+005    8.01388E+007   -2.65052E+007    8.01156E+007    7.99156E+007   -2.22635E+005   -1.77483E+005   -2.49534E+003   -1.43996E+003    5.29698E+003
            1065    8.01095E+007    7.99247E+007    7.99247E+007   -1.71965E+005   -1.97651E+005    8.01223E+007   -2.65184E+007    8.01095E+007    7.99247E+007   -1.97638E+005   -1.71978E+005   -2.02004E+003   -1.25146E+003   -5.68879E+002
            1066    8.00900E+007    7.99401E+007    7.99401E+007   -1.40050E+005   -1.59673E+005    8.00998E+007   -2.65468E+007    8.00900E+007    7.99401E+007   -1.59606E+005   -1.40116E+005   -2.50211E+003   -8.76982E+002   -1.14013E+003
            1067    8.00901E+007    7.99434E+007    7.99434E+007   -1.13790E+005   -1.79611E+005    8.01230E+007   -2.65500E+007    8.00900E+007    7.99434E+007   -1.68308E+005   -1.25093E+005   -1.68501E+003   -1.30536E+003    2.48231E+004
            1068    8.00898E+007    7.99434E+007    7.99434E+007   -1.05304E+005   -1.87565E+005    8.01309E+007   -2.65502E+007    8.00898E+007    7.99434E+007   -1.68792E+005   -1.24077E+005   -1.54828E+003   -3.71159E+000    3.45232E+004
            1069    8.00891E+007    7.99442E+007    7.99442E+007   -1.05537E+005   -1.84078E+005    8.01283E+007   -2.65515E+007    8.00890E+007    7.99442E+007   -1.61344E+005   -1.28270E+005   -2.77547E+002   -6.05565E+002    3.56190E+004
            1070    8.00856E+007    7.99428E+007    7.99428E+007   -1.10014E+005   -1.75522E+005    8.01184E+007   -2.65524E+007    8.00856E+007    7.99428E+007   -1.50510E+005   -1.35025E+005   -2.10565E+002    5.66126E+002    3.18260E+004
            1071    8.00846E+007    7.99437E+007    7.99437E+007   -1.15764E+005   -1.66014E+005    8.01097E+007   -2.65540E+007    8.00846E+007    7.99437E+007   -1.38590E+005   -1.43188E+005   -4.66901E+002    9.92954E+001    2.50199E+004
            1072    8.00815E+007    7.99427E+007    7.99427E+007   -1.20259E+005   -1.57412E+005    8.01001E+007   -2.65550E+007    8.00815E+007    7.99427E+007   -1.29164E+005   -1.48506E+005   -1.15418E+003    1.78168E+002    1.58603E+004
            1073    8.00810E+007    7.99430E+007    7.99430E+007   -1.23043E+005   -1.53077E+005    8.00960E+007   -2.65556E+007    8.00810E+007    7.99430E+007   -1.24081E+005   -1.52039E+005   -1.71649E+003   -4.10161E-001    5.48671E+003
            1074    8.00960E+007    7.99278E+007    7.99278E+007   -1.38404E+005   -1.97900E+005    8.01257E+007   -2.65305E+007    8.00959E+007    7.99278E+007   -1.81177E+005   -1.55127E+005   -2.84842E+003   -2.59699E+002    2.67445E+004
            1075    8.00905E+007    7.99305E+007    7.99305E+007   -1.21444E+005   -1.98569E+005    8.01291E+007   -2.65368E+007    8.00905E+007    7.99305E+007   -1.70445E+005   -1.49569E+005   -3.58313E+003   -1.61206E+002    3.71231E+004
            1076    8.00886E+007    7.99343E+007    7.99343E+007   -1.13755E+005   -1.94752E+005    8.01291E+007   -2.65419E+007    8.00885E+007    7.99343E+007   -1.58931E+005   -1.49577E+005   -3.34780E+003    1.42470E+003    4.02273E+004
            1077    8.00880E+007    7.99396E+007    7.99396E+007   -1.09693E+005   -1.87112E+005    8.01267E+007   -2.65476E+007    8.00880E+007    7.99396E+007   -1.43916E+005   -1.52888E+005   -1.61160E+003    9.24979E+002    3.84487E+004
            1078    8.00850E+007    7.99431E+007    7.99431E+007   -1.07693E+005   -1.76132E+005    8.01192E+007   -2.65531E+007    8.00850E+007    7.99431E+007   -1.27876E+005   -1.55948E+005    1.78527E+001    6.58633E+002    3.12085E+004
            1079    8.00830E+007    7.99458E+007    7.99458E+007   -1.06677E+005   -1.67689E+005    8.01135E+007   -2.65571E+007    8.00829E+007    7.99458E+007   -1.14785E+005   -1.59581E+005    1.35430E+003    2.16429E+002    2.07111E+004
            1080    8.00813E+007    7.99472E+007    7.99472E+007   -1.06262E+005   -1.62048E+005    8.01092E+007   -2.65596E+007    8.00813E+007    7.99472E+007   -1.07162E+005   -1.61147E+005    2.28856E+003    1.17416E+002    7.02938E+003
            1081    8.01117E+007    7.99258E+007    7.99258E+007   -1.57657E+005   -2.14124E+005    8.01399E+007   -2.65180E+007    8.01117E+007    7.99258E+007   -1.91495E+005   -1.80286E+005   -9.52536E+002    1.85181E+003    2.76719E+004
            1082    8.01052E+007    7.99332E+007    7.99332E+007   -1.38239E+005   -2.05752E+005    8.01390E+007   -2.65297E+007    8.01052E+007    7.99332E+007   -1.74061E+005   -1.69930E+005    1.95638E+003   -2.35471E+003    3.36930E+004
            1083    8.00928E+007    7.99304E+007    7.99304E+007   -1.23555E+005   -2.01188E+005    8.01316E+007   -2.65352E+007    8.00928E+007    7.99304E+007   -1.58386E+005   -1.66357E+005    2.26776E+002    2.10491E+003    3.86117E+004
            1084    8.00910E+007    7.99393E+007    7.99393E+007   -1.09855E+005   -1.93461E+005    8.01327E+007   -2.65453E+007    8.00909E+007    7.99393E+007   -1.37187E+005   -1.66128E+005    8.08419E+001    1.60767E+003    3.92185E+004
            1085    8.00837E+007    7.99417E+007    7.99417E+007   -1.00732E+005   -1.83214E+005    8.01249E+007   -2.65526E+007    8.00836E+007    7.99417E+007   -1.17603E+005   -1.66342E+005   -3.91038E+001    1.98985E+003    3.32707E+004
            1086    8.00807E+007    7.99475E+007    7.99475E+007   -9.31278E+004   -1.73270E+005    8.01208E+007   -2.65604E+007    8.00806E+007    7.99475E+007   -1.00050E+005   -1.66348E+005    1.84293E+002    1.21187E+003    2.25137E+004
            1087    8.00778E+007    7.99491E+007    7.99491E+007   -9.05117E+004   -1.66866E+005    8.01159E+007   -2.65639E+007    8.00777E+007    7.99491E+007   -9.12967E+004   -1.66081E+005    2.34393E+002    5.33272E+002    7.70224E+003
            1088    8.01030E+007    7.99024E+007    7.99024E+007   -1.82799E+005   -2.18511E+005    8.01209E+007   -2.65004E+007    8.01030E+007    7.99024E+007   -2.00504E+005   -2.00804E+005   -8.80421E+003    7.85635E+003    1.78548E+004
            1089    8.01124E+007    7.99232E+007    7.99232E+007   -1.60964E+005   -2.17375E+005    8.01406E+007   -2.65150E+007    8.01123E+007    7.99232E+007   -1.85808E+005   -1.92530E+005   -3.47753E+003    3.29350E+002    2.80043E+004
            1090    8.00986E+007    7.99232E+007    7.99232E+007   -1.45044E+005   -2.05680E+005    8.01289E+007   -2.65242E+007    8.00985E+007    7.99232E+007   -1.65764E+005   -1.84960E+005   -1.76842E+003    2.44154E+003    2.87585E+004
            1091    8.00938E+007    7.99362E+007    7.99362E+007   -1.23865E+005   -1.91329E+005    8.01275E+007   -2.65403E+007    8.00938E+007    7.99362E+007   -1.40436E+005   -1.74758E+005   -2.39221E+002    2.06914E+003    2.90407E+004
            1092    8.00810E+007    7.99445E+007    7.99445E+007   -9.99130E+004   -1.73024E+005    8.01175E+007   -2.65572E+007    8.00809E+007    7.99445E+007   -1.10938E+005   -1.61999E+005    9.02459E+002    2.26630E+003    2.61626E+004
            1093    8.00744E+007    7.99542E+007    7.99542E+007   -8.15050E+004   -1.58956E+005    8.01132E+007   -2.65712E+007    8.00744E+007    7.99542E+007   -8.63178E+004   -1.54143E+005    1.79694E+003    1.58519E+003    1.86975E+004
            1094    8.00693E+007    7.99585E+007    7.99585E+007   -7.07198E+004   -1.50713E+005    8.01092E+007   -2.65790E+007    8.00692E+007    7.99585E+007   -7.13854E+004   -1.50047E+005    2.39710E+003    6.86891E+002    7.26679E+003
            1095    8.00479E+007    7.99756E+007    7.99756E+007   -6.55061E+004   -7.91582E+004    8.00548E+007   -2.66103E+007    8.00479E+007    7.99756E+007   -6.55360E+004   -7.91283E+004    8.58372E+002    9.89986E+002   -6.38780E+002
            1096    8.00599E+007    7.99647E+007    7.99647E+007   -8.71656E+004   -1.03215E+005    8.00680E+007   -2.65915E+007    8.00599E+007    7.99647E+007   -8.71940E+004   -1.03186E+005    8.87843E+002    2.05728E+003   -6.75020E+002
            1097    8.00792E+007    7.99482E+007    7.99482E+007   -1.21971E+005   -1.39895E+005    8.00881E+007   -2.65621E+007    8.00792E+007    7.99482E+007   -1.21997E+005   -1.39869E+005    9.91625E+002    2.64205E+003   -6.76549E+002
            1098    8.00976E+007    7.99307E+007    7.99307E+007   -1.56177E+005   -1.77501E+005    8.01082E+007   -2.65324E+007    8.00976E+007    7.99307E+007   -1.56178E+005   -1.77500E+005    8.32601E+002    2.66117E+003   -1.21610E+002
            1099    8.01140E+007    7.99179E+007    7.99179E+007   -1.82629E+005   -2.09527E+005    8.01275E+007   -2.65086E+007    8.01140E+007    7.99179E+007   -1.82653E+005   -2.09503E+005    9.60608E+002    1.47528E+003   -8.05863E+002
            1100    8.01176E+007    7.99123E+007    7.99123E+007   -1.80091E+005   -2.30394E+005    8.01427E+007   -2.65006E+007    8.01175E+007    7.99123E+007   -1.80452E+005   -2.30032E+005    7.87580E+002    1.52629E+003    4.24973E+003
            1101    8.01145E+007    7.99162E+007    7.99162E+007   -1.60786E+005   -2.35729E+005    8.01519E+007   -2.65066E+007    8.01144E+007    7.99162E+007   -1.79029E+005   -2.17485E+005    2.87009E+003   -1.86895E+003    3.21619E+004
            1102    8.00646E+007    7.99623E+007    7.99623E+007   -6.77675E+004   -1.36818E+005    8.00991E+007   -2.65859E+007    8.00645E+007    7.99623E+007   -6.82598E+004   -1.36325E+005   -2.44170E+003    3.31474E+002   -5.81022E+003
            1103    8.00737E+007    7.99522E+007    7.99522E+007   -8.21903E+004   -1.60667E+005    8.01129E+007   -2.65698E+007    8.00736E+007    7.99522E+007   -8.29673E+004   -1.59890E+005   -6.17542E+001    4.15505E+002   -7.76975E+003
            1104    8.00796E+007    7.99500E+007    7.99500E+007   -9.49570E+004   -1.64202E+005    8.01142E+007   -2.65636E+007    8.00796E+007    7.99500E+007   -9.58775E+004   -1.63282E+005   -2.83122E+003    6.87013E+001   -7.93082E+003
            1105    8.00782E+007    7.99430E+007    7.99430E+007   -1.09680E+005   -1.60641E+005    8.01036E+007   -2.65576E+007    8.00781E+007    7.99430E+007   -1.10705E+005   -1.59617E+005    1.00920E+003    1.66123E+002   -7.15261E+003
            1106    8.00851E+007    7.99474E+007    7.99474E+007   -1.23274E+005   -1.52012E+005    8.00995E+007   -2.65574E+007    8.00851E+007    7.99474E+007   -1.24579E+005   -1.50708E+005   -5.81373E+002   -7.88796E+001   -5.98158E+003
            1107    8.00804E+007    7.99425E+007    7.99425E+007   -1.30980E+005   -1.44822E+005    8.00873E+007   -2.65556E+007    8.00804E+007    7.99425E+007   -1.32027E+005   -1.43775E+005    1.78126E+002   -1.30087E+002   -3.65940E+003
            1108    8.00859E+007    7.99473E+007    7.99473E+007   -1.36970E+005   -1.40272E+005    8.00876E+007   -2.65567E+007    8.00859E+007    7.99473E+007   -1.38866E+005   -1.38376E+005    2.54811E+002   -2.06850E+002   -1.63254E+003
            1109    8.00807E+007    7.99425E+007    7.99425E+007   -1.36930E+005   -1.39466E+005    8.00820E+007   -2.65554E+007    8.00807E+007    7.99425E+007   -1.37729E+005   -1.38668E+005   -6.19389E+002   -2.07444E+002    1.17781E+003
            1110    8.00860E+007    7.99476E+007    7.99476E+007   -1.33316E+005   -1.43466E+005    8.00910E+007   -2.65569E+007    8.00860E+007    7.99476E+007   -1.34457E+005   -1.42326E+005    1.17938E+003   -9.31889E+001    3.20533E+003
            1111    8.00719E+007    7.99567E+007    7.99567E+007   -8.15189E+004   -1.48797E+005    8.01055E+007   -2.65755E+007    8.00718E+007    7.99567E+007   -8.56932E+004   -1.44622E+005   -2.16011E+003    1.03950E+003   -1.62301E+004
            1112    8.00786E+007    7.99492E+007    7.99492E+007   -8.96964E+004   -1.68935E+005    8.01182E+007   -2.65635E+007    8.00785E+007    7.99492E+007   -9.61822E+004   -1.62450E+005    5.65620E-001    1.28332E+003   -2.17223E+004
            1113    8.00828E+007    7.99481E+007    7.99481E+007   -9.85573E+004   -1.70820E+005    8.01189E+007   -2.65596E+007    8.00827E+007    7.99481E+007   -1.06457E+005   -1.62920E+005   -2.15033E+003    2.08031E+002   -2.25487E+004
            1114    8.00810E+007    7.99429E+007    7.99429E+007   -1.10224E+005   -1.65833E+005    8.01087E+007   -2.65556E+007    8.00809E+007    7.99429E+007   -1.19288E+005   -1.56769E+005    8.87764E+002    3.77886E+002   -2.05402E+004
            1115    8.00852E+007    7.99462E+007    7.99462E+007   -1.20847E+005   -1.57079E+005    8.01033E+007   -2.65561E+007    8.00851E+007    7.99462E+007   -1.31130E+005   -1.46796E+005   -3.89485E+002    1.12556E+002   -1.63354E+004
            1116    8.00807E+007    7.99423E+007    7.99423E+007   -1.27658E+005   -1.49025E+005    8.00914E+007   -2.65552E+007    8.00807E+007    7.99423E+007   -1.37990E+005   -1.38693E+005    2.42478E+002    3.89903E+002   -1.06779E+004
            1117    8.00841E+007    7.99457E+007    7.99457E+007   -1.32110E+005   -1.44790E+005    8.00905E+007   -2.65563E+007    8.00841E+007    7.99457E+007   -1.43468E+005   -1.33432E+005    1.47080E+002    2.57909E+002   -3.87443E+003
            1118    8.00803E+007    7.99423E+007    7.99423E+007   -1.32643E+005   -1.43367E+005    8.00857E+007   -2.65554E+007    8.00803E+007    7.99423E+007   -1.42417E+005   -1.33593E+005   -3.87487E+002    3.65557E+002    3.04796E+003
            1119    8.00842E+007    7.99455E+007    7.99455E+007   -1.28668E+005   -1.48690E+005    8.00942E+007   -2.65560E+007    8.00842E+007    7.99455E+007   -1.38921E+005   -1.38437E+005    6.42383E+002    2.62668E+002    1.00079E+004
            1120    8.00821E+007    7.99454E+007    7.99454E+007   -1.05770E+005   -1.67694E+005    8.01131E+007   -2.65573E+007    8.00821E+007    7.99454E+007   -1.15461E+005   -1.58003E+005   -1.55141E+003    1.71212E+003   -2.24988E+004
            1121    8.00837E+007    7.99419E+007    7.99419E+007   -1.02258E+005   -1.81367E+005    8.01232E+007   -2.65528E+007    8.00836E+007    7.99419E+007   -1.17834E+005   -1.65791E+005    8.70866E+001    2.04986E+003   -3.14580E+004
            1122    8.00858E+007    7.99428E+007    7.99428E+007   -1.05182E+005   -1.80695E+005    8.01235E+007   -2.65523E+007    8.00857E+007    7.99428E+007   -1.24901E+005   -1.60976E+005   -8.97592E+002    9.47284E+002   -3.31695E+004
            1123    8.00840E+007    7.99416E+007    7.99416E+007   -1.10831E+005   -1.73971E+005    8.01155E+007   -2.65523E+007    8.00839E+007    7.99416E+007   -1.33497E+005   -1.51306E+005    6.92042E+002    7.65969E+002   -3.02885E+004
            1124    8.00857E+007    7.99450E+007    7.99450E+007   -1.16186E+005   -1.65074E+005    8.01101E+007   -2.65546E+007    8.00856E+007    7.99450E+007   -1.42088E+005   -1.39173E+005   -1.70580E+001   -1.04317E+002   -2.44007E+004
            1125    8.00834E+007    7.99448E+007    7.99448E+007   -1.20949E+005   -1.56211E+005    8.01010E+007   -2.65559E+007    8.00834E+007    7.99448E+007   -1.47251E+005   -1.29909E+005    2.32418E+002   -3.34220E+002   -1.53512E+004
            1126    8.00844E+007    7.99468E+007    7.99468E+007   -1.23327E+005   -1.51817E+005    8.00987E+007   -2.65572E+007    8.00844E+007    7.99468E+007   -1.50784E+005   -1.24359E+005    5.41980E+001   -7.16597E+002   -5.32496E+003
            1127    8.00833E+007    7.99457E+007    7.99457E+007   -1.23957E+005   -1.51234E+005    8.00970E+007   -2.65568E+007    8.00833E+007    7.99457E+007   -1.49873E+005   -1.25318E+005   -1.79041E+000   -5.97738E+002    5.93872E+003
            1128    8.00851E+007    7.99463E+007    7.99463E+007   -1.21154E+005   -1.56489E+005    8.01028E+007   -2.65562E+007    8.00851E+007    7.99463E+007   -1.46361E+005   -1.31283E+005    7.32694E+001   -5.35678E+002    1.59784E+004
            1129    8.00959E+007    7.99357E+007    7.99357E+007   -1.31517E+005   -1.88983E+005    8.01246E+007   -2.65384E+007    8.00959E+007    7.99357E+007   -1.46236E+005   -1.74264E+005   -3.13942E+002    1.86677E+003   -2.50836E+004
            1130    8.00939E+007    7.99378E+007    7.99378E+007   -1.17521E+005   -1.94505E+005    8.01323E+007   -2.65419E+007    8.00938E+007    7.99378E+007   -1.42608E+005   -1.69418E+005   -3.84087E+002    1.75576E+003   -3.60823E+004
            1131    8.00905E+007    7.99387E+007    7.99387E+007   -1.12041E+005   -1.91374E+005    8.01301E+007   -2.65451E+007    8.00904E+007    7.99387E+007   -1.44358E+005   -1.59058E+005    9.01977E+002    1.19149E+003   -3.89792E+004
            1132    8.00885E+007    7.99418E+007    7.99418E+007   -1.10067E+005   -1.83436E+005    8.01252E+007   -2.65494E+007    8.00885E+007    7.99418E+007   -1.49600E+005   -1.43904E+005    6.61406E+002    6.26986E+002   -3.65736E+004
            1133    8.00838E+007    7.99423E+007    7.99423E+007   -1.09977E+005   -1.72994E+005    8.01153E+007   -2.65531E+007    8.00837E+007    7.99423E+007   -1.53919E+005   -1.29051E+005    5.66803E+002    5.60654E+002   -2.89517E+004
            1134    8.00816E+007    7.99441E+007    7.99441E+007   -1.09903E+005   -1.65112E+005    8.01092E+007   -2.65563E+007    8.00815E+007    7.99441E+007   -1.58065E+005   -1.16950E+005    3.69111E+002    9.75881E+002   -1.84233E+004
            1135    8.00792E+007    7.99437E+007    7.99437E+007   -1.10951E+005   -1.60008E+005    8.01037E+007   -2.65576E+007    8.00792E+007    7.99437E+007   -1.59464E+005   -1.11495E+005    4.62920E+001    8.13706E+002   -5.13974E+003
            1136    8.00804E+007    7.99445E+007    7.99445E+007   -1.11045E+005   -1.60700E+005    8.01052E+007   -2.65576E+007    8.00803E+007    7.99445E+007   -1.59196E+005   -1.12549E+005   -5.70168E+001    1.07504E+003    8.50842E+003
            1137    8.00809E+007    7.99422E+007    7.99422E+007   -1.11446E+005   -1.65965E+005    8.01081E+007   -2.65549E+007    8.00808E+007    7.99422E+007   -1.55817E+005   -1.21595E+005   -6.42094E+002    8.24846E+002    2.12204E+004
            1138    8.01028E+007    7.99224E+007    7.99224E+007   -1.56491E+005   -2.04240E+005    8.01267E+007   -2.65206E+007    8.01028E+007    7.99224E+007   -1.74644E+005   -1.86087E+005    8.82310E+002    2.27773E+003   -2.31786E+004
            1139    8.00959E+007    7.99284E+007    7.99284E+007   -1.33027E+005   -2.01922E+005    8.01303E+007   -2.65312E+007    8.00958E+007    7.99284E+007   -1.63415E+005   -1.71535E+005   -6.70252E+002    2.13087E+003   -3.42075E+004
            1140    8.00899E+007    7.99310E+007    7.99310E+007   -1.20053E+005   -1.97698E+005    8.01287E+007   -2.65377E+007    8.00898E+007    7.99310E+007   -1.62031E+005   -1.55719E+005    2.38085E+003    2.36153E+003   -3.86940E+004
            1141    8.00896E+007    7.99403E+007    7.99403E+007   -1.09517E+005   -1.89018E+005    8.01293E+007   -2.65472E+007    8.00895E+007    7.99403E+007   -1.62166E+005   -1.36368E+005    1.06482E+003    1.15435E+003   -3.75998E+004
            1142    8.00828E+007    7.99431E+007    7.99431E+007   -1.01631E+005   -1.77792E+005    8.01209E+007   -2.65545E+007    8.00827E+007    7.99431E+007   -1.62485E+005   -1.16938E+005    1.20467E+003   -6.75484E+002   -3.05204E+004
            1143    8.00822E+007    7.99492E+007    7.99492E+007   -9.66887E+004   -1.69257E+005    8.01185E+007   -2.65611E+007    8.00822E+007    7.99492E+007   -1.63986E+005   -1.01959E+005    4.62348E+002   -1.92612E+003   -1.88331E+004
            1144    8.00776E+007    7.99483E+007    7.99483E+007   -9.47322E+004   -1.63938E+005    8.01122E+007   -2.65632E+007    8.00776E+007    7.99483E+007   -1.63664E+005   -9.50066E+004    1.95495E+002   -2.61241E+003   -4.34979E+003
            1145    8.00816E+007    7.99504E+007    7.99504E+007   -9.60753E+004   -1.66192E+005    8.01166E+007   -2.65627E+007    8.00815E+007    7.99504E+007   -1.64364E+005   -9.79032E+004    3.10994E+002   -2.63027E+003    1.11729E+004
            1146    8.00814E+007    7.99453E+007    7.99453E+007   -9.99947E+004   -1.72112E+005    8.01174E+007   -2.65577E+007    8.00813E+007    7.99453E+007   -1.62274E+005   -1.09833E+005   -8.14144E+002   -2.22022E+003    2.47535E+004
            1147    8.01145E+007    7.99216E+007    7.99216E+007   -1.72965E+005   -2.12833E+005    8.01344E+007   -2.65119E+007    8.01145E+007    7.99216E+007   -1.88416E+005   -1.97382E+005    2.60314E+003    1.15142E+003   -1.94236E+004
            1148    8.01092E+007    7.99319E+007    7.99319E+007   -1.47601E+005   -2.07040E+005    8.01389E+007   -2.65257E+007    8.01092E+007    7.99319E+007   -1.79242E+005   -1.75399E+005   -1.83146E+003   -2.07198E+003   -2.96575E+004
            1149    8.00928E+007    7.99298E+007    7.99298E+007   -1.28339E+005   -1.97660E+005    8.01275E+007   -2.65346E+007    8.00927E+007    7.99298E+007   -1.70795E+005   -1.55204E+005    2.02067E+003   -5.02783E+002   -3.37729E+004
            1150    8.00903E+007    7.99409E+007    7.99409E+007   -1.09424E+005   -1.89256E+005    8.01302E+007   -2.65474E+007    8.00902E+007    7.99409E+007   -1.68608E+005   -1.30072E+005    1.83081E+003   -2.67086E+002   -3.49574E+004
            1151    8.00794E+007    7.99438E+007    7.99438E+007   -9.54002E+004   -1.75654E+005    8.01195E+007   -2.65576E+007    8.00793E+007    7.99438E+007   -1.63911E+005   -1.07143E+005    1.93045E+003    7.79775E+001   -2.83637E+004
            1152    8.00777E+007    7.99517E+007    7.99517E+007   -8.52050E+004   -1.66738E+005    8.01184E+007   -2.65666E+007    8.00776E+007    7.99517E+007   -1.62900E+005   -8.90435E+004    1.31600E+003    2.31136E+002   -1.72694E+004
            1153    8.00726E+007    7.99512E+007    7.99512E+007   -8.22421E+004   -1.60422E+005    8.01116E+007   -2.65695E+007    8.00725E+007    7.99512E+007   -1.60328E+005   -8.23361E+004    3.86999E+002   -2.18067E+002   -2.70916E+003
            1154    8.00776E+007    7.99531E+007    7.99531E+007   -8.40973E+004   -1.64930E+005    8.01180E+007   -2.65680E+007    8.00776E+007    7.99531E+007   -1.63026E+005   -8.60018E+004   -3.09547E+002   -2.82012E+001    1.22604E+004
            1155    8.00787E+007    7.99451E+007    7.99451E+007   -9.34958E+004   -1.73597E+005    8.01187E+007   -2.65593E+007    8.00786E+007    7.99451E+007   -1.64440E+005   -1.02652E+005   -1.74940E+003    7.91714E+001    2.54874E+004
            1156    8.01051E+007    7.99023E+007    7.99023E+007   -1.91434E+005   -2.14225E+005    8.01165E+007   -2.64989E+007    8.01051E+007    7.99023E+007   -2.01523E+005   -2.04135E+005    6.33145E+003    7.12284E+003   -1.13198E+004
            1157    8.01112E+007    7.99231E+007    7.99231E+007   -1.66933E+005   -2.09139E+005    8.01323E+007   -2.65157E+007    8.01111E+007    7.99231E+007   -1.89389E+005   -1.86683E+005    1.30177E+003    3.24979E+003   -2.10596E+004
            1158    8.00968E+007    7.99263E+007    7.99263E+007   -1.43356E+005   -1.97741E+005    8.01240E+007   -2.65284E+007    8.00968E+007    7.99263E+007   -1.79807E+005   -1.61289E+005    2.31143E+003    9.48709E+002   -2.55676E+004
            1159    8.00893E+007    7.99405E+007    7.99405E+007   -1.17774E+005   -1.79765E+005    8.01203E+007   -2.65477E+007    8.00893E+007    7.99405E+007   -1.67695E+005   -1.29844E+005    1.80394E+003   -3.41437E+001   -2.45468E+004
            1160    8.00744E+007    7.99491E+007    7.99491E+007   -9.25838E+004   -1.58064E+005    8.01071E+007   -2.65661E+007    8.00744E+007    7.99491E+007   -1.51562E+005   -9.90862E+004    2.00225E+003   -1.15554E+003   -1.95831E+004
            1161    8.00680E+007    7.99601E+007    7.99601E+007   -7.32160E+004   -1.42675E+005    8.01028E+007   -2.65814E+007    8.00680E+007    7.99601E+007   -1.40558E+005   -7.53329E+004    1.20872E+003   -1.97819E+003   -1.19400E+004
            1162    8.00625E+007    7.99613E+007    7.99613E+007   -6.56320E+004   -1.36625E+005    8.00979E+007   -2.65864E+007    8.00624E+007    7.99613E+007   -1.36599E+005   -6.56581E+004    5.80724E+002   -2.13321E+003   -1.36455E+003
            1163    8.00687E+007    7.99614E+007    7.99614E+007   -7.16867E+004   -1.42845E+005    8.01043E+007   -2.65823E+007    8.00686E+007    7.99614E+007   -1.41512E+005   -7.30191E+004   -3.22549E+002   -2.39998E+003    9.64601E+003
            1164    8.00746E+007    7.99511E+007    7.99511E+007   -8.92307E+004   -1.57672E+005    8.01088E+007   -2.65681E+007    8.00745E+007    7.99511E+007   -1.52098E+005   -9.48050E+004   -1.42925E+003   -2.15187E+003    1.87203E+004
            1165    8.00696E+007    7.99590E+007    7.99590E+007   -1.03053E+005   -1.18014E+005    8.00771E+007   -2.65793E+007    8.00696E+007    7.99590E+007   -1.17707E+005   -1.03360E+005   -1.80520E+003   -8.80108E+002   -2.11980E+003
            1166    8.00511E+007    7.99725E+007    7.99725E+007   -7.34252E+004   -8.36722E+004    8.00562E+007   -2.66051E+007    8.00511E+007    7.99725E+007   -8.31890E+004   -7.39084E+004   -4.94990E+002   -5.34224E+002   -2.17213E+003
            1167    8.00440E+007    7.99781E+007    7.99781E+007   -6.27342E+004   -6.88995E+004    8.00470E+007   -2.66155E+007    8.00440E+007    7.99781E+007   -6.88798E+004   -6.27539E+004    4.54023E+002   -6.06147E+002   -3.47480E+002
            1168    8.00502E+007    7.99713E+007    7.99713E+007   -7.41970E+004   -8.35012E+004    8.00548E+007   -2.66045E+007    8.00502E+007    7.99713E+007   -8.32524E+004   -7.44457E+004    1.63061E+003   -5.01639E+002    1.50067E+003
            1169    8.00677E+007    7.99572E+007    7.99572E+007   -1.03835E+005   -1.17148E+005    8.00743E+007   -2.65787E+007    8.00677E+007    7.99572E+007   -1.16996E+005   -1.03987E+005    2.15620E+003   -7.39134E+002    1.41601E+003
            1170    8.00878E+007    7.99387E+007    7.99387E+007   -1.39789E+005   -1.58418E+005    8.00971E+007   -2.65468E+007    8.00878E+007    7.99387E+007   -1.58301E+005   -1.39907E+005    2.49171E+003   -7.43510E+002    1.47334E+003
            1171    8.01066E+007    7.99247E+007    7.99247E+007   -1.68165E+005   -1.95504E+005    8.01202E+007   -2.65204E+007    8.01066E+007    7.99247E+007   -1.95365E+005   -1.68305E+005    1.38116E+003   -9.18017E+002   -1.94646E+003
            1172    8.01136E+007    7.99159E+007    7.99159E+007   -1.80584E+005   -2.14770E+005    8.01307E+007   -2.65069E+007    8.01136E+007    7.99159E+007   -2.09622E+005   -1.85733E+005    1.86946E+003   -1.36957E+003   -1.22272E+004
            1173    8.01150E+007    7.99179E+007    7.99179E+007   -1.80320E+005   -2.13964E+005    8.01318E+007   -2.65079E+007    8.01150E+007    7.99179E+007   -1.88566E+005   -2.05717E+005   -2.21216E+003   -3.56864E+003   -1.44718E+004
            1174    8.00454E+007    7.99771E+007    7.99771E+007   -6.50070E+004   -7.15956E+004    8.00487E+007   -2.66135E+007    8.00454E+007    7.99771E+007   -6.50351E+004   -7.15675E+004   -6.05114E+002    4.93899E+002    4.29087E+002
            1175    8.00590E+007    7.99660E+007    7.99660E+007   -8.80961E+004   -9.79783E+004    8.00640E+007   -2.65933E+007    8.00590E+007    7.99660E+007   -8.82246E+004   -9.78497E+004   -6.79844E+002    1.48915E+003    1.11950E+003
            1176    8.00803E+007    7.99492E+007    7.99492E+007   -1.24786E+005   -1.37419E+005    8.00866E+007   -2.65623E+007    8.00803E+007    7.99492E+007   -1.24822E+005   -1.37382E+005   -8.55245E+002    2.16724E+003   -6.78629E+002
            1177    8.00996E+007    7.99310E+007    7.99310E+007   -1.63106E+005   -1.74051E+005    8.01051E+007   -2.65313E+007    8.00996E+007    7.99310E+007   -1.63155E+005   -1.74003E+005   -9.61961E+002    2.48398E+003   -7.25808E+002
            1178    8.01149E+007    7.99195E+007    7.99195E+007   -1.88257E+005   -2.02582E+005    8.01221E+007   -2.65096E+007    8.01149E+007    7.99195E+007   -1.88257E+005   -2.02582E+005   -1.08479E+003    1.33989E+003   -3.41254E+001
            1179    8.01209E+007    7.99110E+007    7.99110E+007   -2.01459E+005   -2.18351E+005    8.01293E+007   -2.64971E+007    8.01209E+007    7.99110E+007   -2.01564E+005   -2.18246E+005   -1.20229E+003    1.81836E+003    1.32676E+003
            1180    8.01211E+007    7.99153E+007    7.99153E+007   -1.90415E+005   -2.21156E+005    8.01364E+007   -2.65012E+007    8.01210E+007    7.99153E+007   -1.90426E+005   -2.21145E+005   -3.56006E+003   -2.13363E+003   -5.98700E+002
            1181    8.00692E+007    7.99576E+007    7.99576E+007   -7.22048E+004   -1.50945E+005    8.01085E+007   -2.65781E+007    8.00691E+007    7.99576E+007   -7.28037E+004   -1.50346E+005    8.79772E+002   -1.62425E+002   -6.84060E+003
            1182    8.00777E+007    7.99500E+007    7.99500E+007   -8.91973E+004   -1.66213E+005    8.01162E+007   -2.65649E+007    8.00776E+007    7.99500E+007   -8.99482E+004   -1.65462E+005    1.51398E+003   -7.35967E+000   -7.56760E+003
            1183    8.00814E+007    7.99456E+007    7.99456E+007   -1.08585E+005   -1.62847E+005    8.01085E+007   -2.65581E+007    8.00813E+007    7.99456E+007   -1.09555E+005   -1.61877E+005   -4.75836E+002   -7.23885E+001   -7.18985E+003
            1184    8.00834E+007    7.99460E+007    7.99460E+007   -1.22353E+005   -1.52277E+005    8.00983E+007   -2.65571E+007    8.00834E+007    7.99460E+007   -1.23440E+005   -1.51190E+005    1.26224E+003   -1.21777E+002   -5.59824E+003
            1185    8.00738E+007    7.99525E+007    7.99525E+007   -8.30280E+004   -1.59358E+005    8.01119E+007   -2.65701E+007    8.00737E+007    7.99525E+007   -8.78248E+004   -1.54561E+005    7.43744E+002   -1.40521E+003   -1.85238E+004
            1186    8.00796E+007    7.99472E+007    7.99472E+007   -9.28682E+004   -1.71849E+005    8.01191E+007   -2.65608E+007    8.00795E+007    7.99472E+007   -9.92958E+004   -1.65422E+005    1.19839E+003   -9.50486E+002   -2.15951E+004
            1187    8.00824E+007    7.99442E+007    7.99442E+007   -1.08353E+005   -1.68172E+005    8.01123E+007   -2.65559E+007    8.00824E+007    7.99442E+007   -1.16554E+005   -1.59971E+005   -4.96639E+002   -7.43890E+002   -2.05747E+004
            1188    8.00837E+007    7.99453E+007    7.99453E+007   -1.19827E+005   -1.56908E+005    8.01022E+007   -2.65562E+007    8.00837E+007    7.99453E+007   -1.28877E+005   -1.47858E+005    9.07271E+002   -1.96114E+001   -1.59274E+004
            1189    8.00833E+007    7.99460E+007    7.99460E+007   -1.00317E+005   -1.74211E+005    8.01202E+007   -2.65571E+007    8.00832E+007    7.99460E+007   -1.11413E+005   -1.63115E+005    5.54766E+002   -1.39111E+003   -2.63966E+004
            1190    8.00856E+007    7.99438E+007    7.99438E+007   -1.00975E+005   -1.82718E+005    8.01265E+007   -2.65534E+007    8.00856E+007    7.99438E+007   -1.17437E+005   -1.66257E+005    6.22160E+002   -6.55063E+002   -3.27814E+004
            1191    8.00850E+007    7.99428E+007    7.99428E+007   -1.07910E+005   -1.76446E+005    8.01193E+007   -2.65528E+007    8.00850E+007    7.99428E+007   -1.28324E+005   -1.56033E+005   -3.89264E+002   -6.71020E+002   -3.13425E+004
            1192    8.00845E+007    7.99438E+007    7.99438E+007   -1.15493E+005   -1.65961E+005    8.01098E+007   -2.65541E+007    8.00845E+007    7.99438E+007   -1.38915E+005   -1.42540E+005    1.10540E+002   -3.24484E+002   -2.51687E+004
            1193    8.00922E+007    7.99346E+007    7.99346E+007   -1.23994E+005   -1.91288E+005    8.01258E+007   -2.65398E+007    8.00922E+007    7.99346E+007   -1.40627E+005   -1.74654E+005    3.78990E+002   -2.22869E+003   -2.90285E+004
            1194    8.00892E+007    7.99367E+007    7.99367E+007   -1.11826E+005   -1.93242E+005    8.01299E+007   -2.65439E+007    8.00891E+007    7.99367E+007   -1.39215E+005   -1.65854E+005   -5.69460E+002   -1.69794E+003   -3.84673E+004
            1195    8.00877E+007    7.99397E+007    7.99397E+007   -1.09791E+005   -1.86032E+005    8.01258E+007   -2.65480E+007    8.00876E+007    7.99397E+007   -1.43825E+005   -1.51998E+005   -1.58017E+002   -1.10380E+003   -3.79006E+004
            1196    8.00849E+007    7.99422E+007    7.99422E+007   -1.10137E+005   -1.75357E+005    8.01175E+007   -2.65522E+007    8.00849E+007    7.99422E+007   -1.50231E+005   -1.35262E+005   -9.23067E+002   -6.76288E+001   -3.17393E+004
            1197    8.01039E+007    7.99300E+007    7.99300E+007   -1.43088E+005   -2.04750E+005    8.01347E+007   -2.65274E+007    8.01039E+007    7.99300E+007   -1.62992E+005   -1.84846E+005    5.91850E+002   -5.23976E+002   -2.88297E+004
            1198    8.00978E+007    7.99335E+007    7.99335E+007   -1.25093E+005   -2.03533E+005    8.01370E+007   -2.65349E+007    8.00977E+007    7.99335E+007   -1.60766E+005   -1.67860E+005   -1.41092E+003   -5.90226E+001   -3.90595E+004
            1199    8.00918E+007    7.99386E+007    7.99386E+007   -1.12857E+005   -1.93416E+005    8.01320E+007   -2.65441E+007    8.00917E+007    7.99386E+007   -1.58013E+005   -1.48260E+005    3.13316E+002    1.38515E+002   -3.99832E+004
            1200    8.00852E+007    7.99401E+007    7.99401E+007   -1.06541E+005   -1.83618E+005    8.01237E+007   -2.65500E+007    8.00851E+007    7.99401E+007   -1.61033E+005   -1.29125E+005   -1.93760E+003   -2.35794E+002   -3.50813E+004
            1201    8.01060E+007    7.99196E+007    7.99196E+007   -1.60840E+005   -2.11812E+005    8.01314E+007   -2.65157E+007    8.01059E+007    7.99196E+007   -1.82973E+005   -1.89679E+005    7.98733E+002   -2.23775E+003   -2.52645E+004
            1202    8.00997E+007    7.99247E+007    7.99247E+007   -1.41594E+005   -2.08423E+005    8.01331E+007   -2.65249E+007    8.00996E+007    7.99247E+007   -1.77385E+005   -1.72632E+005   -3.76926E+003   -2.85885E+003   -3.33293E+004
            1203    8.00969E+007    7.99365E+007    7.99365E+007   -1.21631E+005   -1.99122E+005    8.01356E+007   -2.65386E+007    8.00968E+007    7.99365E+007   -1.71244E+005   -1.49509E+005    2.85929E+002   -3.25613E+002   -3.71898E+004
            1204    8.00847E+007    7.99392E+007    7.99392E+007   -1.05786E+005   -1.85056E+005    8.01243E+007   -2.65495E+007    8.00846E+007    7.99392E+007   -1.66651E+005   -1.24191E+005   -2.14349E+003    3.44702E+002   -3.34693E+004
            1205    8.01184E+007    7.99272E+007    7.99272E+007   -1.74944E+005   -2.07582E+005    8.01348E+007   -2.65149E+007    8.01184E+007    7.99272E+007   -1.90783E+005   -1.91742E+005    4.88910E+003    5.13747E+003   -1.63112E+004
            1206    8.01040E+007    7.99207E+007    7.99207E+007   -1.57562E+005   -2.09020E+005    8.01298E+007   -2.65181E+007    8.01040E+007    7.99207E+007   -1.88970E+005   -1.77612E+005   -2.72306E+003    6.84612E+002   -2.50945E+004
            1207    8.01010E+007    7.99338E+007    7.99338E+007   -1.37039E+005   -1.97246E+005    8.01311E+007   -2.65332E+007    8.01009E+007    7.99338E+007   -1.81346E+005   -1.52939E+005   -5.70011E+002    5.76473E+002   -2.65418E+004
            1208    8.00862E+007    7.99392E+007    7.99392E+007   -1.15039E+005   -1.78834E+005    8.01180E+007   -2.65484E+007    8.00861E+007    7.99392E+007   -1.67185E+005   -1.26687E+005   -2.19762E+003    4.80919E+002   -2.46462E+004
            1209    8.00897E+007    7.99404E+007    7.99404E+007   -1.39994E+005   -1.58620E+005    8.00990E+007   -2.65473E+007    8.00897E+007    7.99404E+007   -1.58494E+005   -1.40119E+005   -1.17135E+003    6.85352E+002    1.52274E+003
            1210    8.01085E+007    7.99245E+007    7.99245E+007   -1.72158E+005   -1.95809E+005    8.01204E+007   -2.65189E+007    8.01085E+007    7.99245E+007   -1.95772E+005   -1.72196E+005   -1.56738E+003    3.57425E+002    9.38346E+002
            1211    8.01177E+007    7.99176E+007    7.99176E+007   -1.79543E+005   -2.20684E+005    8.01383E+007   -2.65058E+007    8.01177E+007    7.99176E+007   -2.20095E+005   -1.80133E+005   -4.43402E+002    3.87325E+001   -4.88896E+003
            1212    8.01181E+007    7.99158E+007    7.99158E+007   -1.65344E+005   -2.39231E+005    8.01550E+007   -2.65037E+007    8.01180E+007    7.99158E+007   -2.17385E+005   -1.87190E+005   -1.55854E+003   -1.85695E+003   -3.37177E+004
            1213    8.00464E+007    7.99739E+007    7.99739E+007   -6.60919E+004   -7.89573E+004    8.00529E+007   -2.66096E+007    8.00464E+007    7.99739E+007   -6.61386E+004   -7.89106E+004    5.52644E+002   -3.33176E+002    7.73687E+002
            1214    8.00594E+007    7.99641E+007    7.99641E+007   -8.77004E+004   -1.02976E+005    8.00670E+007   -2.65911E+007    8.00594E+007    7.99641E+007   -8.77521E+004   -1.02924E+005    6.43301E+002   -1.10487E+003    8.87706E+002
            1215    8.00791E+007    7.99479E+007    7.99479E+007   -1.22879E+005   -1.39415E+005    8.00874E+007   -2.65619E+007    8.00791E+007    7.99479E+007   -1.23019E+005   -1.39275E+005    6.26663E+002   -1.55023E+003    1.51602E+003
            1216    8.00995E+007    7.99322E+007    7.99322E+007   -1.57076E+005   -1.77371E+005    8.01096E+007   -2.65326E+007    8.00995E+007    7.99322E+007   -1.57173E+005   -1.77275E+005    5.92203E+002   -1.29887E+003    1.39536E+003
            1217    8.01156E+007    7.99184E+007    7.99184E+007   -1.83897E+005   -2.10389E+005    8.01288E+007   -2.65080E+007    8.01155E+007    7.99184E+007   -1.84011E+005   -2.10275E+005    7.85558E+001   -1.37785E+003    1.73267E+003
            1218    8.01206E+007    7.99147E+007    7.99147E+007   -1.81553E+005   -2.30317E+005    8.01450E+007   -2.65009E+007    8.01206E+007    7.99147E+007   -1.81993E+005   -2.29877E+005   -4.04283E+002   -1.70592E+002   -4.61203E+003
            1219    8.01187E+007    7.99151E+007    7.99151E+007   -1.63563E+005   -2.43632E+005    8.01587E+007   -2.65026E+007    8.01186E+007    7.99151E+007   -1.84902E+005   -2.22293E+005   -2.24486E+003   -1.33226E+003   -3.54014E+004
            1220    8.00675E+007    7.99567E+007    7.99567E+007   -1.03699E+005   -1.18017E+005    8.00747E+007   -2.65783E+007    8.00675E+007    7.99567E+007   -1.17572E+005   -1.04145E+005   -1.25242E+003    5.60854E+002    2.48642E+003
            1221    8.00496E+007    7.99710E+007    7.99710E+007   -7.34499E+004   -8.37563E+004    8.00548E+007   -2.66046E+007    8.00496E+007    7.99710E+007   -8.32004E+004   -7.40058E+004   -5.83971E+002    5.66484E+002    2.32819E+003
            1222    8.00417E+007    7.99762E+007    7.99762E+007   -6.25698E+004   -6.83792E+004    8.00446E+007   -2.66151E+007    8.00417E+007    7.99762E+007   -6.83491E+004   -6.25999E+004    1.08310E+002    4.43811E+002    4.17334E+002
            1223    8.00490E+007    7.99710E+007    7.99710E+007   -7.36087E+004   -8.24064E+004    8.00534E+007   -2.66050E+007    8.00490E+007    7.99710E+007   -8.20065E+004   -7.40087E+004    7.88349E+002    5.42381E+002   -1.83262E+003
            1224    8.00668E+007    7.99566E+007    7.99566E+007   -1.03786E+005   -1.16416E+005    8.00731E+007   -2.65788E+007    8.00668E+007    7.99566E+007   -1.15941E+005   -1.04261E+005    1.27020E+003    5.21620E+002   -2.40286E+003
            1225    8.00896E+007    7.99400E+007    7.99400E+007   -1.40637E+005   -1.58664E+005    8.00987E+007   -2.65469E+007    8.00896E+007    7.99400E+007   -1.58321E+005   -1.40980E+005    1.14457E+003    5.73677E+002   -2.46052E+003
            1226    8.01079E+007    7.99246E+007    7.99246E+007   -1.70334E+005   -1.96285E+005    8.01209E+007   -2.65193E+007    8.01079E+007    7.99246E+007   -1.96231E+005   -1.70389E+005    1.32015E+003    1.57274E+002    1.18774E+003
            1227    8.01180E+007    7.99182E+007    7.99182E+007   -1.83363E+005   -2.16366E+005    8.01345E+007   -2.65061E+007    8.01180E+007    7.99182E+007   -2.10327E+005   -1.89402E+005    3.01170E+002   -2.70195E+002    1.27605E+004
            1228    8.01180E+007    7.99146E+007    7.99146E+007   -1.83950E+005   -2.22762E+005    8.01374E+007   -2.65026E+007    8.01179E+007    7.99146E+007   -1.94085E+005   -2.12626E+005    1.94414E+003   -2.53768E+003    1.70486E+004
            1229    8.00770E+007    7.99527E+007    7.99527E+007   -9.04583E+004   -1.58097E+005    8.01108E+007   -2.65681E+007    8.00770E+007    7.99527E+007   -1.52281E+005   -9.62745E+004   -1.00338E+003    4.57594E+002   -1.89624E+004
            1230    8.00817E+007    7.99494E+007    7.99494E+007   -9.15946E+004   -1.73027E+005    8.01224E+007   -2.65616E+007    8.00816E+007    7.99494E+007   -1.64417E+005   -1.00205E+005   -2.28855E+002    1.29301E+003   -2.50400E+004
            1231    8.00833E+007    7.99464E+007    7.99464E+007   -1.00712E+005   -1.73114E+005    8.01195E+007   -2.65575E+007    8.00832E+007    7.99464E+007   -1.63256E+005   -1.10570E+005   -3.08177E+002   -3.82326E+002   -2.48307E+004
            1232    8.00839E+007    7.99456E+007    7.99456E+007   -1.10699E+005   -1.65882E+005    8.01114E+007   -2.65563E+007    8.00838E+007    7.99456E+007   -1.55730E+005   -1.20851E+005   -6.35323E+001    8.45883E+002   -2.13807E+004
            1233    8.00822E+007    7.99434E+007    7.99434E+007   -1.21084E+005   -1.56484E+005    8.00999E+007   -2.65553E+007    8.00822E+007    7.99434E+007   -1.46633E+005   -1.30936E+005   -5.49465E+002   -6.12877E+002   -1.58646E+004
            1234    8.00822E+007    7.99435E+007    7.99435E+007   -1.28751E+005   -1.48716E+005    8.00922E+007   -2.65553E+007    8.00822E+007    7.99435E+007   -1.38554E+005   -1.38913E+005   -8.53701E+002    3.11306E+002   -9.98051E+003
            1235    8.00815E+007    7.99430E+007    7.99430E+007   -1.32977E+005   -1.44043E+005    8.00870E+007   -2.65553E+007    8.00815E+007    7.99430E+007   -1.34052E+005   -1.42969E+005   -1.07535E+003   -3.85253E+002   -3.27673E+003
            1236    8.00656E+007    7.99577E+007    7.99577E+007   -7.42022E+004   -1.41591E+005    8.00993E+007   -2.65806E+007    8.00655E+007    7.99577E+007   -1.40019E+005   -7.57742E+004   -8.39624E+002    5.26764E+002   -1.01719E+004
            1237    8.00728E+007    7.99506E+007    7.99506E+007   -8.20856E+004   -1.62141E+005    8.01128E+007   -2.65688E+007    8.00727E+007    7.99506E+007   -1.60335E+005   -8.38915E+004   -6.76269E+002    1.67009E+003   -1.18876E+004
            1238    8.00783E+007    7.99462E+007    7.99462E+007   -9.80361E+004   -1.66149E+005    8.01124E+007   -2.65607E+007    8.00782E+007    7.99462E+007   -1.64288E+005   -9.98969E+004   -7.13903E+002   -3.58374E+002   -1.11030E+004
            1239    8.00814E+007    7.99461E+007    7.99461E+007   -1.10709E+005   -1.59852E+005    8.01060E+007   -2.65585E+007    8.00814E+007    7.99461E+007   -1.58466E+005   -1.12095E+005   -1.85435E+002    1.42963E+003   -8.13698E+003
            1240    8.00826E+007    7.99448E+007    7.99448E+007   -1.23698E+005   -1.51942E+005    8.00968E+007   -2.65564E+007    8.00826E+007    7.99448E+007   -1.50818E+005   -1.24822E+005    1.09017E+002   -6.85038E+002   -5.52146E+003
            1241    8.00849E+007    7.99467E+007    7.99467E+007   -1.32491E+005   -1.43886E+005    8.00906E+007   -2.65568E+007    8.00848E+007    7.99467E+007   -1.43077E+005   -1.33300E+005    5.34026E+002    6.54045E+002   -2.92689E+003
            1242    8.00849E+007    7.99464E+007    7.99464E+007   -1.37244E+005   -1.39613E+005    8.00861E+007   -2.65565E+007    8.00849E+007    7.99464E+007   -1.38915E+005   -1.37942E+005    6.90227E+002   -5.04778E+002   -1.07959E+003
            1243    8.00645E+007    7.99625E+007    7.99625E+007   -6.74315E+004   -1.36620E+005    8.00991E+007   -2.65861E+007    8.00644E+007    7.99625E+007   -1.36604E+005   -6.74473E+004    2.49233E+002    5.13350E+002    1.04662E+003
            1244    8.00746E+007    7.99547E+007    7.99547E+007   -7.93849E+004   -1.60303E+005    8.01150E+007   -2.65717E+007    8.00745E+007    7.99547E+007   -1.60220E+005   -7.94680E+004    3.58183E+002    1.74998E+003    2.59257E+003
            1245    8.00800E+007    7.99489E+007    7.99489E+007   -9.64228E+004   -1.65624E+005    8.01146E+007   -2.65623E+007    8.00799E+007    7.99489E+007   -1.65310E+005   -9.67365E+004    3.32751E+002   -4.84499E+002    4.64871E+003
            1246    8.00823E+007    7.99472E+007    7.99472E+007   -1.10524E+005   -1.59794E+005    8.01069E+007   -2.65589E+007    8.00823E+007    7.99472E+007   -1.59167E+005   -1.11151E+005    2.13503E+002    1.39577E+003    5.52207E+003
            1247    8.00812E+007    7.99436E+007    7.99436E+007   -1.23463E+005   -1.51787E+005    8.00954E+007   -2.65561E+007    8.00812E+007    7.99436E+007   -1.50625E+005   -1.24625E+005   -6.10406E+000   -8.54312E+002    5.61845E+003
            1248    8.00818E+007    7.99437E+007    7.99437E+007   -1.32643E+005   -1.43598E+005    8.00873E+007   -2.65558E+007    8.00818E+007    7.99437E+007   -1.42075E+005   -1.34166E+005   -1.56051E+002    5.95050E+002    3.79008E+003
            1249    8.00807E+007    7.99424E+007    7.99424E+007   -1.36487E+005   -1.39924E+005    8.00824E+007   -2.65553E+007    8.00807E+007    7.99424E+007   -1.37438E+005   -1.38973E+005   -2.50016E+002   -5.64592E+002    1.53758E+003
            1250    8.00659E+007    7.99573E+007    7.99573E+007   -7.54445E+004   -1.41672E+005    8.00990E+007   -2.65801E+007    8.00658E+007    7.99573E+007   -1.39533E+005   -7.75830E+004    9.51728E+002    4.29283E+002    1.17068E+004
            1251    8.00740E+007    7.99498E+007    7.99498E+007   -8.40044E+004   -1.64310E+005    8.01141E+007   -2.65672E+007    8.00739E+007    7.99498E+007   -1.60689E+005   -8.76260E+004    6.56266E+002    1.55245E+003    1.66650E+004
            1252    8.00793E+007    7.99452E+007    7.99452E+007   -9.88300E+004   -1.69409E+005    8.01146E+007   -2.65590E+007    8.00792E+007    7.99452E+007   -1.63764E+005   -1.04475E+005    7.24999E+002   -4.95272E+002    1.91457E+004
            1253    8.00826E+007    7.99453E+007    7.99453E+007   -1.09989E+005   -1.64493E+005    8.01098E+007   -2.65569E+007    8.00825E+007    7.99453E+007   -1.56951E+005   -1.17531E+005    3.19063E+002    1.21920E+003    1.88190E+004
            1254    8.00832E+007    7.99443E+007    7.99443E+007   -1.20948E+005   -1.56826E+005    8.01011E+007   -2.65555E+007    8.00831E+007    7.99443E+007   -1.47563E+005   -1.30212E+005    2.11074E+002   -7.18255E+002    1.57018E+004
            1255    8.00852E+007    7.99466E+007    7.99466E+007   -1.27971E+005   -1.49261E+005    8.00959E+007   -2.65565E+007    8.00852E+007    7.99466E+007   -1.38487E+005   -1.38745E+005   -4.63155E+001    5.48233E+002    1.06444E+004
            1256    8.00848E+007    7.99465E+007    7.99465E+007   -1.32254E+005   -1.44341E+005    8.00908E+007   -2.65566E+007    8.00848E+007    7.99465E+007   -1.33388E+005   -1.43208E+005   -1.26693E+002   -4.44861E+002    3.52380E+003
            1257    8.00777E+007    7.99510E+007    7.99510E+007   -9.39517E+004   -1.59253E+005    8.01103E+007   -2.65659E+007    8.00776E+007    7.99510E+007   -1.52716E+005   -1.00489E+005    1.38769E+003    3.43856E+002    1.95993E+004
            1258    8.00831E+007    7.99473E+007    7.99473E+007   -9.53695E+004   -1.76216E+005    8.01235E+007   -2.65586E+007    8.00830E+007    7.99473E+007   -1.64722E+005   -1.06863E+005    8.26468E+002    1.05685E+003    2.82332E+004
            1259    8.00851E+007    7.99441E+007    7.99441E+007   -1.02976E+005   -1.79030E+005    8.01231E+007   -2.65540E+007    8.00850E+007    7.99441E+007   -1.63129E+005   -1.18876E+005    8.90924E+002   -5.43965E+002    3.09271E+004
            1260    8.00856E+007    7.99441E+007    7.99441E+007   -1.10120E+005   -1.72894E+005    8.01170E+007   -2.65537E+007    8.00855E+007    7.99441E+007   -1.53041E+005   -1.29974E+005    3.84834E+002    4.01888E+002    2.91910E+004
            1261    8.00830E+007    7.99425E+007    7.99425E+007   -1.16139E+005   -1.64838E+005    8.01074E+007   -2.65539E+007    8.00830E+007    7.99425E+007   -1.40866E+005   -1.40111E+005    4.23626E+002   -7.64799E+002    2.43463E+004
            1262    8.00820E+007    7.99434E+007    7.99434E+007   -1.20379E+005   -1.56812E+005    8.01002E+007   -2.65554E+007    8.00820E+007    7.99434E+007   -1.29499E+005   -1.47691E+005    4.17108E+002    4.54945E+001    1.57831E+004
            1263    8.00802E+007    7.99428E+007    7.99428E+007   -1.22172E+005   -1.52504E+005    8.00954E+007   -2.65561E+007    8.00802E+007    7.99428E+007   -1.23226E+005   -1.51449E+005    5.12977E+002   -3.67639E+002    5.55750E+003
            1264    8.00876E+007    7.99382E+007    7.99382E+007   -1.18656E+005   -1.80023E+005    8.01182E+007   -2.65465E+007    8.00875E+007    7.99382E+007   -1.67862E+005   -1.30817E+005    1.86473E+003    3.75724E+002    2.44619E+004
            1265    8.00876E+007    7.99374E+007    7.99374E+007   -1.11591E+005   -1.88664E+005    8.01261E+007   -2.65457E+007    8.00875E+007    7.99374E+007   -1.67623E+005   -1.32633E+005    1.48592E+003   -8.30748E+000    3.43365E+004
            1266    8.00875E+007    7.99380E+007    7.99380E+007   -1.10459E+005   -1.88361E+005    8.01264E+007   -2.65464E+007    8.00874E+007    7.99380E+007   -1.60698E+005   -1.38123E+005    1.39767E+003   -2.43577E+002    3.72798E+004
            1267    8.00868E+007    7.99403E+007    7.99403E+007   -1.10435E+005   -1.82522E+005    8.01228E+007   -2.65491E+007    8.00867E+007    7.99403E+007   -1.48002E+005   -1.44955E+005    7.34054E+002   -5.39511E+002    3.60111E+004
            1268    8.00853E+007    7.99433E+007    7.99433E+007   -1.10509E+005   -1.73424E+005    8.01168E+007   -2.65531E+007    8.00853E+007    7.99433E+007   -1.32397E+005   -1.51536E+005   -9.48107E+001   -4.43332E+002    2.99668E+004
            1269    8.00839E+007    7.99463E+007    7.99463E+007   -1.10443E+005   -1.64873E+005    8.01111E+007   -2.65570E+007    8.00839E+007    7.99463E+007   -1.19053E+005   -1.56263E+005   -9.39899E+002   -2.69369E+002    1.98620E+004
            1270    8.00826E+007    7.99476E+007    7.99476E+007   -1.10228E+005   -1.59765E+005    8.01073E+007   -2.65592E+007    8.00825E+007    7.99476E+007   -1.11173E+005   -1.58819E+005   -1.36367E+003   -1.71710E+001    6.77665E+003
            1271    8.01020E+007    7.99319E+007    7.99319E+007   -1.42334E+005   -1.97811E+005    8.01297E+007   -2.65306E+007    8.01019E+007    7.99319E+007   -1.80596E+005   -1.59549E+005    8.72556E+002    6.96097E+002    2.56650E+004
            1272    8.00992E+007    7.99338E+007    7.99338E+007   -1.30059E+005   -2.00595E+005    8.01344E+007   -2.65344E+007    8.00991E+007    7.99338E+007   -1.73077E+005   -1.57577E+005    4.04511E+002   -9.63101E+002    3.44058E+004
            1273    8.00954E+007    7.99369E+007    7.99369E+007   -1.19336E+005   -1.97594E+005    8.01345E+007   -2.65400E+007    8.00953E+007    7.99369E+007   -1.60729E+005   -1.56201E+005   -2.08312E+002    2.93234E+002    3.90639E+004
            1274    8.00891E+007    7.99383E+007    7.99383E+007   -1.11971E+005   -1.89686E+005    8.01280E+007   -2.65455E+007    8.00890E+007    7.99383E+007   -1.42932E+005   -1.58725E+005    3.83829E+001   -1.40944E+003    3.80463E+004
            1275    8.00853E+007    7.99428E+007    7.99428E+007   -1.04933E+005   -1.80056E+005    8.01229E+007   -2.65526E+007    8.00852E+007    7.99428E+007   -1.23735E+005   -1.61254E+005    1.33803E+002   -7.54462E+002    3.25417E+004
            1276    8.00803E+007    7.99451E+007    7.99451E+007   -9.97533E+004   -1.70552E+005    8.01157E+007   -2.65583E+007    8.00802E+007    7.99451E+007   -1.07106E+005   -1.63199E+005    3.43201E+002   -1.01257E+003    2.15987E+004
            1277    8.00782E+007    7.99474E+007    7.99474E+007   -9.65623E+004   -1.65019E+005    8.01124E+007   -2.65619E+007    8.00782E+007    7.99474E+007   -9.74214E+004   -1.64160E+005    3.49640E+002   -1.62109E+002    7.62062E+003
            1278    8.01060E+007    7.99209E+007    7.99209E+007   -1.66644E+005   -2.03390E+005    8.01243E+007   -2.65170E+007    8.01059E+007    7.99209E+007   -1.86446E+005   -1.83588E+005    1.44498E+003    1.39861E+003    1.83171E+004
            1279    8.01016E+007    7.99223E+007    7.99223E+007   -1.50540E+005   -2.07972E+005    8.01303E+007   -2.65213E+007    8.01016E+007    7.99223E+007   -1.80635E+005   -1.77877E+005    2.88812E+003   -3.27338E+003    2.86827E+004
            1280    8.01004E+007    7.99323E+007    7.99323E+007   -1.33086E+005   -2.03147E+005    8.01354E+007   -2.65320E+007    8.01003E+007    7.99323E+007   -1.63283E+005   -1.72949E+005    9.93998E+002    3.98709E+001    3.46957E+004
            1281    8.00906E+007    7.99354E+007    7.99354E+007   -1.17521E+005   -1.92887E+005    8.01283E+007   -2.65417E+007    8.00906E+007    7.99354E+007   -1.42115E+005   -1.68293E+005    3.34595E+002   -1.81389E+003    3.53366E+004
            1282    8.00853E+007    7.99448E+007    7.99448E+007   -1.01048E+005   -1.80033E+005    8.01248E+007   -2.65546E+007    8.00852E+007    7.99448E+007   -1.15938E+005   -1.65143E+005   -7.25758E+002   -5.45503E+002    3.08926E+004
            1283    8.00773E+007    7.99494E+007    7.99494E+007   -8.86747E+004   -1.67114E+005    8.01165E+007   -2.65645E+007    8.00772E+007    7.99494E+007   -9.45989E+004   -1.61190E+005   -1.40962E+003   -9.51837E+002    2.07267E+004
            1284    8.00739E+007    7.99537E+007    7.99537E+007   -8.05566E+004   -1.59851E+005    8.01135E+007   -2.65711E+007    8.00738E+007    7.99537E+007   -8.12626E+004   -1.59145E+005   -1.80670E+003    7.10792E+000    7.44877E+003
            1285    8.01218E+007    7.99257E+007    7.99257E+007   -1.84551E+005   -2.07584E+005    8.01333E+007   -2.65112E+007    8.01218E+007    7.99257E+007   -1.95670E+005   -1.96464E+005   -3.74378E+003    4.69406E+003    1.15095E+004
            1286    8.01089E+007    7.99188E+007    7.99188E+007   -1.72541E+005   -2.07669E+005    8.01265E+007   -2.65129E+007    8.01089E+007    7.99188E+007   -1.86014E+005   -1.94197E+005   -9.00713E+002   -1.79317E+003    1.70808E+004
            1287    8.01068E+007    7.99285E+007    7.99285E+007   -1.54253E+005   -2.02327E+005    8.01308E+007   -2.65240E+007    8.01068E+007    7.99285E+007   -1.71132E+005   -1.85448E+005   -5.75591E+002   -4.37369E+002    2.29463E+004
            1288    8.00934E+007    7.99343E+007    7.99343E+007   -1.30574E+005   -1.87524E+005    8.01218E+007   -2.65387E+007    8.00933E+007    7.99343E+007   -1.45253E+005   -1.72845E+005   -5.24022E+002   -1.93472E+003    2.49095E+004
            1289    8.00827E+007    7.99463E+007    7.99463E+007   -1.05139E+005   -1.67678E+005    8.01140E+007   -2.65578E+007    8.00827E+007    7.99463E+007   -1.14997E+005   -1.57821E+005   -4.83843E+002   -1.28798E+003    2.27886E+004
            1290    8.00706E+007    7.99548E+007    7.99548E+007   -8.25034E+004   -1.49000E+005    8.01038E+007   -2.65744E+007    8.00705E+007    7.99548E+007   -8.68729E+004   -1.44631E+005   -5.64742E+002   -1.36969E+003    1.64763E+004
            1291    8.00643E+007    7.99609E+007    7.99609E+007   -6.95500E+004   -1.37269E+005    8.00982E+007   -2.65847E+007    8.00643E+007    7.99609E+007   -7.00704E+004   -1.36748E+005   -5.98418E+002   -2.63544E+002    5.91359E+003
            1292    8.00441E+007    7.99752E+007    7.99752E+007   -6.58064E+004   -7.19646E+004    8.00472E+007   -2.66125E+007    8.00441E+007    7.99752E+007   -6.58895E+004   -7.18814E+004   -4.63467E+002   -4.49432E+002   -7.10662E+002
            1293    8.00580E+007    7.99647E+007    7.99647E+007   -8.83695E+004   -9.81605E+004    8.00629E+007   -2.65927E+007    8.00580E+007    7.99647E+007   -8.85437E+004   -9.79863E+004   -5.61284E+002   -8.93275E+002   -1.29430E+003
            1294    8.00789E+007    7.99482E+007    7.99482E+007   -1.24768E+005   -1.36623E+005    8.00848E+007   -2.65623E+007    8.00789E+007    7.99482E+007   -1.24772E+005   -1.36619E+005   -5.84559E+002   -1.37040E+003    2.14151E+002
            1295    8.00999E+007    7.99324E+007    7.99324E+007   -1.62314E+005   -1.72596E+005    8.01050E+007   -2.65325E+007    8.00999E+007    7.99324E+007   -1.62341E+005   -1.72570E+005   -5.50772E+002   -9.79843E+002    5.25147E+002
            1296    8.01145E+007    7.99200E+007    7.99200E+007   -1.88278E+005   -2.00814E+005    8.01208E+007   -2.65103E+007    8.01145E+007    7.99200E+007   -1.88278E+005   -2.00814E+005   -2.00288E+002   -1.26027E+003   -4.27258E+001
            1297    8.01232E+007    7.99138E+007    7.99138E+007   -2.02890E+005   -2.15810E+005    8.01297E+007   -2.64984E+007    8.01232E+007    7.99138E+007   -2.02958E+005   -2.15742E+005    1.33083E+002   -1.41474E+002   -9.33971E+002
            1298    8.01226E+007    7.99120E+007    7.99120E+007   -1.95572E+005   -2.25657E+005    8.01377E+007   -2.64969E+007    8.01226E+007    7.99120E+007   -1.95861E+005   -2.25367E+005    2.14901E+003   -1.49100E+003    2.93706E+003
            1299    8.01184E+007    7.99160E+007    7.99160E+007   -1.64666E+005   -2.40021E+005    8.01560E+007   -2.65038E+007    8.01183E+007    7.99160E+007   -2.17162E+005   -1.87525E+005   -1.55271E+003    1.81224E+003    3.46412E+004
            1300    8.01184E+007    7.99177E+007    7.99177E+007   -1.79285E+005   -2.22097E+005    8.01398E+007   -2.65054E+007    8.01184E+007    7.99177E+007   -2.21432E+005   -1.79949E+005   -5.78408E+002   -1.22602E+002    5.29253E+003
            1301    8.01093E+007    7.99246E+007    7.99246E+007   -1.72600E+005   -1.96910E+005    8.01215E+007   -2.65183E+007    8.01093E+007    7.99246E+007   -1.96866E+005   -1.72645E+005   -1.46364E+003   -4.11252E+002   -1.04268E+003
            1302    8.00903E+007    7.99406E+007    7.99406E+007   -1.40116E+005   -1.59187E+005    8.00998E+007   -2.65471E+007    8.00903E+007    7.99406E+007   -1.59027E+005   -1.40275E+005   -1.23334E+003   -7.67435E+002   -1.73460E+003
            1303    8.00867E+007    7.99395E+007    7.99395E+007   -1.14851E+005   -1.79530E+005    8.01190E+007   -2.65484E+007    8.00867E+007    7.99395E+007   -1.67624E+005   -1.26757E+005   -2.08151E+003   -4.85058E+002    2.50659E+004
            1304    8.00852E+007    7.99396E+007    7.99396E+007   -1.05775E+005   -1.85279E+005    8.01249E+007   -2.65495E+007    8.00851E+007    7.99396E+007   -1.66762E+005   -1.24292E+005   -1.92268E+003   -6.38108E+002    3.36050E+004
            1305    8.00853E+007    7.99401E+007    7.99401E+007   -1.06741E+005   -1.83502E+005    8.01236E+007   -2.65500E+007    8.00852E+007    7.99401E+007   -1.60807E+005   -1.29436E+005   -1.90981E+003    3.29088E+002    3.50288E+004
            1306    8.00852E+007    7.99425E+007    7.99425E+007   -1.10355E+005   -1.74978E+005    8.01175E+007   -2.65524E+007    8.00851E+007    7.99425E+007   -1.50031E+005   -1.35301E+005   -9.28182E+002   -1.86290E+002    3.14608E+004
            1307    8.00842E+007    7.99434E+007    7.99434E+007   -1.15721E+005   -1.65761E+005    8.01092E+007   -2.65540E+007    8.00841E+007    7.99434E+007   -1.38698E+005   -1.42784E+005   -1.58490E+002    4.03684E+002    2.49363E+004
            1308    8.00839E+007    7.99454E+007    7.99454E+007   -1.19937E+005   -1.57007E+005    8.01024E+007   -2.65562E+007    8.00839E+007    7.99454E+007   -1.28771E+005   -1.48174E+005    6.45218E+002   -3.52457E+001    1.57931E+004
            1309    8.00830E+007    7.99457E+007    7.99457E+007   -1.22380E+005   -1.52222E+005    8.00979E+007   -2.65570E+007    8.00830E+007    7.99457E+007   -1.23463E+005   -1.51139E+005    1.12772E+003    1.54610E+002    5.58111E+003
            1310    8.01013E+007    7.99337E+007    7.99337E+007   -1.37074E+005   -1.98039E+005    8.01318E+007   -2.65329E+007    8.01013E+007    7.99337E+007   -1.81677E+005   -1.53436E+005   -7.45684E+002   -5.63818E+002    2.70147E+004
            1311    8.00970E+007    7.99366E+007    7.99366E+007   -1.21444E+005   -1.99280E+005    8.01359E+007   -2.65386E+007    8.00969E+007    7.99366E+007   -1.71001E+005   -1.49724E+005    1.63699E+002    3.91415E+001    3.74356E+004
            1312    8.00916E+007    7.99384E+007    7.99384E+007   -1.12888E+005   -1.93370E+005    8.01318E+007   -2.65441E+007    8.00915E+007    7.99384E+007   -1.57585E+005   -1.48673E+005    1.78506E+002   -6.71700E+001    3.99936E+004
            1313    8.00877E+007    7.99400E+007    7.99400E+007   -1.09601E+005   -1.85698E+005    8.01257E+007   -2.65482E+007    8.00876E+007    7.99400E+007   -1.43141E+005   -1.52158E+005   -1.52330E+002    8.98642E+002    3.77803E+004
            1314    8.00847E+007    7.99428E+007    7.99428E+007   -1.07765E+005   -1.75915E+005    8.01187E+007   -2.65530E+007    8.00846E+007    7.99428E+007   -1.27929E+005   -1.55751E+005   -2.29467E+002    6.73521E+002    3.11058E+004
            1315    8.00824E+007    7.99444E+007    7.99444E+007   -1.08014E+005   -1.67966E+005    8.01124E+007   -2.65562E+007    8.00824E+007    7.99444E+007   -1.16057E+005   -1.59923E+005   -2.94670E+002    7.12188E+002    2.04325E+004
            1316    8.00812E+007    7.99455E+007    7.99455E+007   -1.08461E+005   -1.62818E+005    8.01084E+007   -2.65581E+007    8.00812E+007    7.99455E+007   -1.09402E+005   -1.61877E+005   -3.97075E+002    1.30853E+002    7.09084E+003
            1317    8.01045E+007    7.99210E+007    7.99210E+007   -1.57691E+005   -2.09257E+005    8.01303E+007   -2.65180E+007    8.01045E+007    7.99210E+007   -1.88922E+005   -1.78026E+005   -2.67247E+003   -9.33822E+002    2.52007E+004
            1318    8.00999E+007    7.99250E+007    7.99250E+007   -1.41540E+005   -2.08327E+005    8.01333E+007   -2.65250E+007    8.00998E+007    7.99250E+007   -1.76982E+005   -1.72885E+005   -3.65429E+003    2.72473E+003    3.33304E+004
            1319    8.00977E+007    7.99337E+007    7.99337E+007   -1.24712E+005   -2.03188E+005    8.01369E+007   -2.65353E+007    8.00976E+007    7.99337E+007   -1.60045E+005   -1.67855E+005   -1.40362E+003   -1.58052E+002    3.90434E+004
            1320    8.00889E+007    7.99367E+007    7.99367E+007   -1.11496E+005   -1.92801E+005    8.01295E+007   -2.65441E+007    8.00888E+007    7.99367E+007   -1.38677E+005   -1.65620E+005   -7.32702E+002    1.67665E+003    3.83558E+004
            1321    8.00856E+007    7.99437E+007    7.99437E+007   -1.00973E+005   -1.82699E+005    8.01264E+007   -2.65534E+007    8.00855E+007    7.99437E+007   -1.17471E+005   -1.66202E+005    3.64563E+002    6.35641E+002    3.28040E+004
            1322    8.00795E+007    7.99471E+007    7.99471E+007   -9.29271E+004   -1.71876E+005    8.01190E+007   -2.65608E+007    8.00794E+007    7.99471E+007   -9.94151E+004   -1.65388E+005    9.51238E+002    1.02212E+003    2.16824E+004
            1323    8.00776E+007    7.99500E+007    7.99500E+007   -8.90395E+004   -1.66141E+005    8.01162E+007   -2.65650E+007    8.00776E+007    7.99500E+007   -8.97954E+004   -1.65385E+005    1.43130E+003    8.90225E+001    7.59666E+003
            1324    8.01186E+007    7.99273E+007    7.99273E+007   -1.75216E+005   -2.07533E+005    8.01348E+007   -2.65148E+007    8.01186E+007    7.99273E+007   -1.91315E+005   -1.91434E+005    4.60734E+003   -5.29050E+003    1.61580E+004
            1325    8.01060E+007    7.99198E+007    7.99198E+007   -1.60661E+005   -2.11779E+005    8.01316E+007   -2.65158E+007    8.01060E+007    7.99198E+007   -1.82598E+005   -1.89841E+005    5.61830E+002    2.07540E+003    2.53012E+004
            1326    8.01038E+007    7.99302E+007    7.99302E+007   -1.42969E+005   -2.04206E+005    8.01344E+007   -2.65277E+007    8.01037E+007    7.99302E+007   -1.62469E+005   -1.84705E+005    4.28620E+002    3.49513E+002    2.85285E+004
            1327    8.00917E+007    7.99345E+007    7.99345E+007   -1.23777E+005   -1.90588E+005    8.01251E+007   -2.65401E+007    8.00917E+007    7.99345E+007   -1.40229E+005   -1.74136E+005    2.83431E+002    2.12107E+003    2.87840E+004
            1328    8.00826E+007    7.99460E+007    7.99460E+007   -9.98877E+004   -1.73293E+005    8.01193E+007   -2.65576E+007    8.00825E+007    7.99460E+007   -1.10953E+005   -1.62227E+005    4.86152E+002    1.35802E+003    2.62647E+004
            1329    8.00732E+007    7.99525E+007    7.99525E+007   -8.25271E+004   -1.58817E+005    8.01113E+007   -2.65704E+007    8.00731E+007    7.99525E+007   -8.74766E+004   -1.53868E+005    7.11961E+002    1.52950E+003    1.87910E+004
            1330    8.00690E+007    7.99575E+007    7.99575E+007   -7.21565E+004   -1.50856E+005    8.01084E+007   -2.65782E+007    8.00690E+007    7.99575E+007   -7.28406E+004   -1.50172E+005    8.59453E+002    3.68337E+002    7.30584E+003
            1331    8.00465E+007    7.99737E+007    7.99737E+007   -6.64069E+004   -7.91725E+004    8.00529E+007   -2.66094E+007    8.00465E+007    7.99737E+007   -6.64686E+004   -7.91107E+004    5.40199E+002    5.40469E+002   -8.85431E+002
            1332    8.00592E+007    7.99637E+007    7.99637E+007   -8.78406E+004   -1.03168E+005    8.00668E+007   -2.65909E+007    8.00592E+007    7.99637E+007   -8.79265E+004   -1.03082E+005    6.06388E+002    1.20668E+003   -1.14433E+003
            1333    8.00787E+007    7.99478E+007    7.99478E+007   -1.22410E+005   -1.39405E+005    8.00872E+007   -2.65620E+007    8.00787E+007    7.99478E+007   -1.22510E+005   -1.39305E+005    5.66248E+002    1.55934E+003   -1.30056E+003
            1334    8.00988E+007    7.99322E+007    7.99322E+007   -1.56561E+005   -1.76686E+005    8.01089E+007   -2.65330E+007    8.00988E+007    7.99322E+007   -1.56597E+005   -1.76650E+005    4.86253E+002    1.22590E+003   -8.47007E+002
            1335    8.01150E+007    7.99188E+007    7.99188E+007   -1.83266E+005   -2.09053E+005    8.01279E+007   -2.65088E+007    8.01149E+007    7.99188E+007   -1.83356E+005   -2.08963E+005   -7.15672E+000    1.20752E+003   -1.52073E+003
            1336    8.01204E+007    7.99148E+007    7.99148E+007   -1.82070E+005   -2.29184E+005    8.01440E+007   -2.65012E+007    8.01204E+007    7.99148E+007   -1.82496E+005   -2.28759E+005   -4.24165E+002    1.47073E+002    4.45552E+003
            1337    8.01187E+007    7.99153E+007    7.99153E+007   -1.64114E+005   -2.42598E+005    8.01579E+007   -2.65029E+007    8.01186E+007    7.99153E+007   -1.84561E+005   -2.22151E+005   -2.35475E+003    1.00615E+003    3.44479E+004
            1338    8.00643E+007    7.99609E+007    7.99609E+007   -6.95239E+004   -1.37135E+005    8.00981E+007   -2.65848E+007    8.00642E+007    7.99609E+007   -7.00362E+004   -1.36623E+005   -6.39225E+002    1.74678E+002   -5.86311E+003
            1339    8.00738E+007    7.99536E+007    7.99536E+007   -8.05712E+004   -1.59850E+005    8.01135E+007   -2.65711E+007    8.00738E+007    7.99536E+007   -8.13385E+004   -1.59083E+005   -1.76919E+003   -6.25045E+001   -7.76164E+003
            1340    8.00784E+007    7.99475E+007    7.99475E+007   -9.65099E+004   -1.65164E+005    8.01127E+007   -2.65620E+007    8.00783E+007    7.99475E+007   -9.74601E+004   -1.64214E+005    2.67940E+002    9.75603E+001   -8.02092E+003
            1341    8.00828E+007    7.99477E+007    7.99477E+007   -1.10186E+005   -1.60057E+005    8.01077E+007   -2.65591E+007    8.00828E+007    7.99477E+007   -1.11291E+005   -1.58952E+005   -1.32504E+003    7.15354E+000   -7.34020E+003
            1342    8.00807E+007    7.99433E+007    7.99433E+007   -1.22161E+005   -1.52677E+005    8.00959E+007   -2.65561E+007    8.00807E+007    7.99433E+007   -1.23386E+005   -1.51452E+005    4.67612E+002    3.17526E+002   -5.99188E+003
            1343    8.00849E+007    7.99465E+007    7.99465E+007   -1.32136E+005   -1.44531E+005    8.00910E+007   -2.65566E+007    8.00849E+007    7.99465E+007   -1.33429E+005   -1.43237E+005   -1.40069E+002    4.45865E+002   -3.78913E+003
            1344    8.00809E+007    7.99427E+007    7.99427E+007   -1.36456E+005   -1.39968E+005    8.00827E+007   -2.65554E+007    8.00809E+007    7.99427E+007   -1.37515E+005   -1.38909E+005   -2.05815E+002    5.31696E+002   -1.61206E+003
            1345    8.00846E+007    7.99462E+007    7.99462E+007   -1.37259E+005   -1.39578E+005    8.00858E+007   -2.65565E+007    8.00846E+007    7.99462E+007   -1.38880E+005   -1.37957E+005    5.97164E+002    5.27152E+002    1.06344E+003
            1346    8.00814E+007    7.99429E+007    7.99429E+007   -1.32989E+005   -1.43930E+005    8.00868E+007   -2.65553E+007    8.00813E+007    7.99429E+007   -1.34041E+005   -1.42878E+005   -9.67979E+002    3.79394E+002    3.22617E+003
            1347    8.00709E+007    7.99548E+007    7.99548E+007   -8.30285E+004   -1.49188E+005    8.01040E+007   -2.65742E+007    8.00709E+007    7.99548E+007   -8.74466E+004   -1.44770E+005   -5.71829E+002    1.26341E+003   -1.65160E+004
            1348    8.00775E+007    7.99494E+007    7.99494E+007   -8.89490E+004   -1.67327E+005    8.01167E+007   -2.65644E+007    8.00775E+007    7.99494E+007   -9.50521E+004   -1.61224E+005   -1.45679E+003    8.86610E+002   -2.10026E+004
            1349    8.00807E+007    7.99451E+007    7.99451E+007   -9.99929E+004   -1.71091E+005    8.01162E+007   -2.65580E+007    8.00806E+007    7.99451E+007   -1.07804E+005   -1.63279E+005    3.25842E+002    1.01944E+003   -2.22344E+004
            1350    8.00836E+007    7.99458E+007    7.99458E+007   -1.10589E+005   -1.65165E+005    8.01109E+007   -2.65567E+007    8.00836E+007    7.99458E+007   -1.19775E+005   -1.55980E+005   -9.90032E+002    2.87472E+002   -2.04188E+004
            1351    8.00819E+007    7.99432E+007    7.99432E+007   -1.20452E+005   -1.56929E+005    8.01001E+007   -2.65553E+007    8.00818E+007    7.99432E+007   -1.30174E+005   -1.47207E+005    5.00148E+002    6.06550E+001   -1.61277E+004
            1352    8.00848E+007    7.99463E+007    7.99463E+007   -1.27825E+005   -1.49337E+005    8.00956E+007   -2.65564E+007    8.00848E+007    7.99463E+007   -1.38805E+005   -1.38357E+005   -1.28972E+002   -5.28537E+002   -1.07539E+004
            1353    8.00820E+007    7.99438E+007    7.99438E+007   -1.32535E+005   -1.43665E+005    8.00875E+007   -2.65559E+007    8.00819E+007    7.99438E+007   -1.42235E+005   -1.33965E+005   -2.74447E+001   -5.54217E+002   -3.72446E+003
            1354    8.00847E+007    7.99465E+007    7.99465E+007   -1.32525E+005   -1.43879E+005    8.00904E+007   -2.65567E+007    8.00847E+007    7.99465E+007   -1.43010E+005   -1.33393E+005    3.56713E+002   -6.76917E+002    3.01732E+003
            1355    8.00827E+007    7.99440E+007    7.99440E+007   -1.28594E+005   -1.48759E+005    8.00928E+007   -2.65556E+007    8.00827E+007    7.99440E+007   -1.38211E+005   -1.39143E+005   -5.93010E+002   -3.95432E+002    1.00718E+004
            1356    8.00834E+007    7.99461E+007    7.99461E+007   -1.06314E+005   -1.68383E+005    8.01144E+007   -2.65571E+007    8.00834E+007    7.99461E+007   -1.16234E+005   -1.58463E+005   -4.49772E+002    1.29825E+003   -2.27449E+004
            1357    8.00857E+007    7.99444E+007    7.99444E+007   -1.01799E+005   -1.80657E+005    8.01251E+007   -2.65540E+007    8.00856E+007    7.99444E+007   -1.17062E+005   -1.65394E+005   -9.69421E+002    5.34683E+002   -3.11554E+004
            1358    8.00858E+007    7.99425E+007    7.99425E+007   -1.05672E+005   -1.80852E+005    8.01233E+007   -2.65520E+007    8.00857E+007    7.99425E+007   -1.25373E+005   -1.61152E+005    3.11640E+002    8.04235E+002   -3.30601E+004
            1359    8.00858E+007    7.99436E+007    7.99436E+007   -1.10657E+005   -1.73732E+005    8.01173E+007   -2.65531E+007    8.00858E+007    7.99436E+007   -1.33518E+005   -1.50871E+005   -3.01462E+002    2.90235E+002   -3.03205E+004
            1360    8.00833E+007    7.99428E+007    7.99428E+007   -1.16140E+005   -1.64898E+005    8.01077E+007   -2.65539E+007    8.00833E+007    7.99428E+007   -1.41733E+005   -1.39305E+005    5.37119E+002    6.70744E+002   -2.43491E+004
            1361    8.00833E+007    7.99445E+007    7.99445E+007   -1.20836E+005   -1.56758E+005    8.01012E+007   -2.65556E+007    8.00832E+007    7.99445E+007   -1.47932E+005   -1.29661E+005    5.93222E+001    6.35709E+002   -1.54642E+004
            1362    8.00814E+007    7.99438E+007    7.99438E+007   -1.23385E+005   -1.51737E+005    8.00955E+007   -2.65562E+007    8.00814E+007    7.99438E+007   -1.50716E+005   -1.24406E+005    1.47994E+002    8.27631E+002   -5.28365E+003
            1363    8.00824E+007    7.99446E+007    7.99446E+007   -1.23825E+005   -1.51881E+005    8.00964E+007   -2.65563E+007    8.00824E+007    7.99446E+007   -1.50635E+005   -1.25071E+005   -8.60591E+001    7.09751E+002    5.78059E+003
            1364    8.00821E+007    7.99433E+007    7.99433E+007   -1.21061E+005   -1.56486E+005    8.00998E+007   -2.65553E+007    8.00821E+007    7.99433E+007   -1.46353E+005   -1.31194E+005   -3.29006E+002    7.44193E+002    1.60091E+004
            1365    8.00942E+007    7.99341E+007    7.99341E+007   -1.31534E+005   -1.88519E+005    8.01226E+007   -2.65380E+007    8.00941E+007    7.99341E+007   -1.46344E+005   -1.73709E+005   -5.35692E+002    1.95084E+003   -2.49926E+004
            1366    8.00914E+007    7.99352E+007    7.99352E+007   -1.18514E+005   -1.93678E+005    8.01289E+007   -2.65410E+007    8.00913E+007    7.99352E+007   -1.43601E+005   -1.68591E+005    1.89346E+002    1.72600E+003   -3.54439E+004
            1367    8.00894E+007    7.99380E+007    7.99380E+007   -1.12479E+005   -1.90224E+005    8.01282E+007   -2.65451E+007    8.00893E+007    7.99380E+007   -1.44564E+005   -1.58140E+005    1.04430E+002    1.44304E+003   -3.82753E+004
            1368    8.00865E+007    7.99401E+007    7.99401E+007   -1.10371E+005   -1.82482E+005    8.01225E+007   -2.65491E+007    8.00864E+007    7.99401E+007   -1.49236E+005   -1.43617E+005    6.30869E+002    7.50362E+002   -3.59461E+004
            1369    8.00850E+007    7.99438E+007    7.99438E+007   -1.09838E+005   -1.72626E+005    8.01164E+007   -2.65538E+007    8.00850E+007    7.99438E+007   -1.53726E+005   -1.28738E+005    5.04086E+002   -1.54862E+002   -2.88009E+004
            1370    8.00823E+007    7.99453E+007    7.99453E+007   -1.09752E+005   -1.64235E+005    8.01095E+007   -2.65571E+007    8.00823E+007    7.99453E+007   -1.57213E+005   -1.16774E+005    2.94864E+002   -1.09967E+003   -1.82557E+004
            1371    8.00822E+007    7.99470E+007    7.99470E+007   -1.10600E+005   -1.59659E+005    8.01067E+007   -2.65589E+007    8.00822E+007    7.99470E+007   -1.59130E+005   -1.11129E+005    2.83581E+002   -1.30258E+003   -5.06642E+003
            1372    8.00815E+007    7.99462E+007    7.99462E+007   -1.10952E+005   -1.59778E+005    8.01059E+007   -2.65585E+007    8.00815E+007    7.99462E+007   -1.58269E+005   -1.12461E+005   -1.71251E+002   -1.51807E+003    8.44911E+003
            1373    8.00842E+007    7.99459E+007    7.99459E+007   -1.11016E+005   -1.65591E+005    8.01114E+007   -2.65564E+007    8.00841E+007    7.99459E+007   -1.55349E+005   -1.21257E+005    6.13329E+001   -1.07802E+003    2.13081E+004
            1374    8.01072E+007    7.99282E+007    7.99282E+007   -1.54970E+005   -2.03043E+005    8.01312E+007   -2.65234E+007    8.01072E+007    7.99282E+007   -1.72069E+005   -1.85945E+005   -6.38023E+002    5.57219E+002   -2.30135E+004
            1375    8.01007E+007    7.99321E+007    7.99321E+007   -1.33560E+005   -2.03630E+005    8.01357E+007   -2.65316E+007    8.01006E+007    7.99321E+007   -1.64265E+005   -1.72925E+005    8.80858E+002    7.61184E+001   -3.47666E+004
            1376    8.00952E+007    7.99368E+007    7.99368E+007   -1.19182E+005   -1.97449E+005    8.01343E+007   -2.65401E+007    8.00951E+007    7.99368E+007   -1.61592E+005   -1.55039E+005   -2.24803E+002   -2.19752E+002   -3.89959E+004
            1377    8.00872E+007    7.99386E+007    7.99386E+007   -1.09695E+005   -1.87631E+005    8.01262E+007   -2.65471E+007    8.00872E+007    7.99386E+007   -1.60978E+005   -1.36348E+005    1.35401E+003    6.37217E+001   -3.69708E+004
            1378    8.00848E+007    7.99445E+007    7.99445E+007   -1.02230E+005   -1.78237E+005    8.01227E+007   -2.65547E+007    8.00847E+007    7.99445E+007   -1.63106E+005   -1.17361E+005    8.17644E+002    3.87071E+002   -3.03506E+004
            1379    8.00791E+007    7.99453E+007    7.99453E+007   -9.86363E+004   -1.68946E+005    8.01143E+007   -2.65593E+007    8.00791E+007    7.99453E+007   -1.63651E+005   -1.03931E+005    7.63738E+002    4.79999E+002   -1.85530E+004
            1380    8.00800E+007    7.99489E+007    7.99489E+007   -9.66134E+004   -1.65456E+005    8.01144E+007   -2.65623E+007    8.00799E+007    7.99489E+007   -1.65186E+005   -9.68828E+004    4.03189E+002    4.57049E+002   -4.29788E+003
            1381    8.00785E+007    7.99461E+007    7.99461E+007   -9.86136E+004   -1.66263E+005    8.01124E+007   -2.65604E+007    8.00785E+007    7.99461E+007   -1.64338E+005   -1.00539E+005   -6.25222E+002    4.20833E+002    1.12480E+004
            1382    8.00834E+007    7.99461E+007    7.99461E+007   -1.01261E+005   -1.73181E+005    8.01193E+007   -2.65572E+007    8.00833E+007    7.99461E+007   -1.63301E+005   -1.11142E+005   -2.70188E+002    5.39409E+002    2.47589E+004
            1383    8.01090E+007    7.99188E+007    7.99188E+007   -1.72709E+005   -2.07775E+005    8.01266E+007   -2.65128E+007    8.01090E+007    7.99188E+007   -1.86216E+005   -1.94268E+005   -9.61946E+002    1.83702E+003   -1.70646E+004
            1384    8.01015E+007    7.99224E+007    7.99224E+007   -1.50407E+005   -2.07720E+005    8.01301E+007   -2.65214E+007    8.01015E+007    7.99224E+007   -1.80815E+005   -1.77312E+005    2.84889E+003    3.28494E+003   -2.86025E+004
            1385    8.00986E+007    7.99341E+007    7.99341E+007   -1.29186E+005   -1.99729E+005    8.01339E+007   -2.65351E+007    8.00985E+007    7.99341E+007   -1.72632E+005   -1.56283E+005    3.09401E+002    1.02727E+003   -3.43108E+004
            1386    8.00868E+007    7.99375E+007    7.99375E+007   -1.10678E+005   -1.87860E+005    8.01253E+007   -2.65463E+007    8.00867E+007    7.99375E+007   -1.67270E+005   -1.31268E+005    1.53531E+003    3.62168E+002   -3.41350E+004
            1387    8.00826E+007    7.99473E+007    7.99473E+007   -9.48357E+004   -1.75715E+005    8.01230E+007   -2.65589E+007    8.00825E+007    7.99473E+007   -1.64413E+005   -1.06137E+005    8.80430E+002   -7.35364E+002   -2.80419E+004
            1388    8.00738E+007    7.99497E+007    7.99497E+007   -8.39515E+004   -1.64359E+005    8.01140E+007   -2.65671E+007    8.00738E+007    7.99497E+007   -1.60778E+005   -8.75324E+004    7.49592E+002   -1.41297E+003   -1.65866E+004
            1389    8.00747E+007    7.99543E+007    7.99543E+007   -7.99277E+004   -1.60795E+005    8.01151E+007   -2.65712E+007    8.00746E+007    7.99543E+007   -1.60712E+005   -8.00107E+004    4.67190E+002   -1.63271E+003   -2.59062E+003
            1390    8.00732E+007    7.99506E+007    7.99506E+007   -8.24387E+004   -1.62586E+005    8.01132E+007   -2.65685E+007    8.00731E+007    7.99506E+007   -1.60774E+005   -8.42509E+004   -5.05541E+002   -1.73167E+003    1.19149E+004
            1391    8.00818E+007    7.99493E+007    7.99493E+007   -9.18486E+004   -1.73096E+005    8.01224E+007   -2.65615E+007    8.00817E+007    7.99493E+007   -1.64478E+005   -1.00467E+005   -1.65210E+002   -1.50396E+003    2.50184E+004
            1392    8.01217E+007    7.99256E+007    7.99256E+007   -1.85059E+005   -2.07218E+005    8.01328E+007   -2.65111E+007    8.01217E+007    7.99256E+007   -1.95434E+005   -1.96844E+005   -4.04118E+003   -4.52532E+003   -1.10569E+004
            1393    8.01055E+007    7.99210E+007    7.99210E+007   -1.65866E+005   -2.02933E+005    8.01240E+007   -2.65174E+007    8.01054E+007    7.99210E+007   -1.85775E+005   -1.83023E+005    1.47834E+003   -1.27366E+003   -1.84823E+004
            1394    8.01014E+007    7.99322E+007    7.99322E+007   -1.41525E+005   -1.96845E+005    8.01290E+007   -2.65313E+007    8.01013E+007    7.99322E+007   -1.79922E+005   -1.58448E+005    6.74477E+002   -5.49355E+002   -2.54910E+004
            1395    8.00866E+007    7.99383E+007    7.99383E+007   -1.17615E+005   -1.78949E+005    8.01173E+007   -2.65473E+007    8.00866E+007    7.99383E+007   -1.66752E+005   -1.29812E+005    1.83482E+003   -4.13610E+002   -2.44809E+004
            1396    8.00771E+007    7.99510E+007    7.99510E+007   -9.31058E+004   -1.59045E+005    8.01100E+007   -2.65663E+007    8.00770E+007    7.99510E+007   -1.52399E+005   -9.97519E+004    1.39024E+003   -3.50864E+002   -1.98511E+004
            1397    8.00659E+007    7.99569E+007    7.99569E+007   -7.55019E+004   -1.42408E+005    8.00993E+007   -2.65797E+007    8.00658E+007    7.99569E+007   -1.40169E+005   -7.77409E+004    1.12846E+003   -3.81880E+002   -1.20329E+004
            1398    8.00647E+007    7.99621E+007    7.99621E+007   -6.75686E+004   -1.37597E+005    8.00997E+007   -2.65857E+007    8.00647E+007    7.99621E+007   -1.37569E+005   -6.75966E+004    4.08389E+002   -5.46316E+002   -1.40071E+003
            1399    8.00661E+007    7.99576E+007    7.99576E+007   -7.43649E+004   -1.42547E+005    8.01001E+007   -2.65802E+007    8.00660E+007    7.99576E+007   -1.41062E+005   -7.58500E+004   -5.67100E+002   -5.20800E+002    9.95257E+003
            1400    8.00775E+007    7.99527E+007    7.99527E+007   -9.06311E+004   -1.58936E+005    8.01116E+007   -2.65677E+007    8.00774E+007    7.99527E+007   -1.53131E+005   -9.64365E+004   -9.07978E+002   -4.63720E+002    1.90482E+004
            1401    8.00675E+007    7.99572E+007    7.99572E+007   -1.02986E+005   -1.17638E+005    8.00748E+007   -2.65789E+007    8.00675E+007    7.99572E+007   -1.17164E+005   -1.03460E+005   -9.96101E+002   -5.54959E+002   -2.59217E+003
            1402    8.00495E+007    7.99712E+007    7.99712E+007   -7.31552E+004   -8.34501E+004    8.00547E+007   -2.66049E+007    8.00495E+007    7.99712E+007   -8.29735E+004   -7.36318E+004   -4.88563E+002   -5.66546E+002   -2.16317E+003
            1403    8.00418E+007    7.99760E+007    7.99760E+007   -6.25796E+004   -6.89970E+004    8.00450E+007   -2.66148E+007    8.00418E+007    7.99760E+007   -6.89886E+004   -6.25880E+004    3.83194E+002   -4.29395E+002   -2.31995E+002
            1404    8.00491E+007    7.99705E+007    7.99705E+007   -7.38426E+004   -8.33104E+004    8.00538E+007   -2.66044E+007    8.00491E+007    7.99705E+007   -8.29577E+004   -7.41953E+004    8.91966E+002   -5.08421E+002    1.79302E+003
            1405    8.00665E+007    7.99562E+007    7.99562E+007   -1.03758E+005   -1.16804E+005    8.00730E+007   -2.65786E+007    8.00665E+007    7.99562E+007   -1.16420E+005   -1.04142E+005    1.34662E+003   -4.53934E+002    2.20313E+003
            1406    8.00889E+007    7.99399E+007    7.99399E+007   -1.39893E+005   -1.58100E+005    8.00980E+007   -2.65473E+007    8.00889E+007    7.99399E+007   -1.57853E+005   -1.40140E+005    1.08361E+003   -4.95832E+002    2.10766E+003
            1407    8.01070E+007    7.99249E+007    7.99249E+007   -1.69337E+005   -1.94782E+005    8.01197E+007   -2.65203E+007    8.01070E+007    7.99249E+007   -1.94684E+005   -1.69435E+005    1.34036E+003   -9.59556E+001   -1.57724E+003
            1408    8.01172E+007    7.99182E+007    7.99182E+007   -1.82874E+005   -2.15092E+005    8.01333E+007   -2.65068E+007    8.01172E+007    7.99182E+007   -2.09083E+005   -1.88883E+005    1.17522E+002    3.52409E+002   -1.25496E+004
            1409    8.01181E+007    7.99152E+007    7.99152E+007   -1.83527E+005   -2.22236E+005    8.01375E+007   -2.65032E+007    8.01181E+007    7.99152E+007   -1.93244E+005   -2.12520E+005    1.86378E+003    2.34401E+003   -1.67840E+004
            1410    8.00440E+007    7.99753E+007    7.99753E+007   -6.56485E+004   -7.18101E+004    8.00471E+007   -2.66126E+007    8.00440E+007    7.99753E+007   -6.57140E+004   -7.17446E+004   -4.78515E+002    3.27284E+002    6.31879E+002
            1411    8.00582E+007    7.99649E+007    7.99649E+007   -8.84467E+004   -9.80601E+004    8.00630E+007   -2.65928E+007    8.00581E+007    7.99649E+007   -8.86414E+004   -9.78653E+004   -5.65021E+002    8.52704E+002    1.35432E+003
            1412    8.00792E+007    7.99482E+007    7.99482E+007   -1.25239E+005   -1.36735E+005    8.00849E+007   -2.65621E+007    8.00792E+007    7.99482E+007   -1.25240E+005   -1.36734E+005   -6.17538E+002    1.30967E+003   -8.65861E+001
            1413    8.01007E+007    7.99323E+007    7.99323E+007   -1.63498E+005   -1.73295E+005    8.01056E+007   -2.65318E+007    8.01007E+007    7.99323E+007   -1.63500E+005   -1.73294E+005   -5.89886E+002    9.88260E+002   -1.19361E+002
            1414    8.01151E+007    7.99196E+007    7.99196E+007   -1.89016E+005   -2.02098E+005    8.01217E+007   -2.65095E+007    8.01151E+007    7.99196E+007   -1.89033E+005   -2.02081E+005   -2.88631E+002    1.32429E+003    4.71381E+002
            1415    8.01238E+007    7.99138E+007    7.99138E+007   -2.03166E+005   -2.16827E+005    8.01306E+007   -2.64979E+007    8.01238E+007    7.99138E+007   -2.03231E+005   -2.16762E+005    1.37475E+002    1.31417E+002    9.41208E+002
            1416    8.01224E+007    7.99114E+007    7.99114E+007   -1.95555E+005   -2.26492E+005    8.01379E+007   -2.64965E+007    8.01224E+007    7.99114E+007   -1.95758E+005   -2.26289E+005    2.18712E+003    1.79126E+003   -2.49647E+003
            1417    8.00680E+007    7.99566E+007    7.99566E+007   -7.21807E+004   -1.50519E+005    8.01071E+007   -2.65780E+007    8.00679E+007    7.99566E+007   -7.27614E+004   -1.49939E+005    6.14235E+002   -5.35548E+002   -6.71962E+003
            1418    8.00777E+007    7.99492E+007    7.99492E+007   -9.07352E+004   -1.66174E+005    8.01154E+007   -2.65641E+007    8.00776E+007    7.99492E+007   -9.14794E+004   -1.65430E+005    3.30355E+002   -5.66048E+002   -7.45603E+003
            1419    8.00812E+007    7.99463E+007    7.99463E+007   -1.07564E+005   -1.62058E+005    8.01084E+007   -2.65589E+007    8.00811E+007    7.99463E+007   -1.08471E+005   -1.61152E+005    7.62659E+002   -2.54885E+002   -6.96933E+003
            1420    8.00823E+007    7.99442E+007    7.99442E+007   -1.23423E+005   -1.52694E+005    8.00969E+007   -2.65560E+007    8.00823E+007    7.99442E+007   -1.24516E+005   -1.51601E+005   -4.72412E+002    5.65981E+001   -5.54902E+003
            1421    8.00736E+007    7.99527E+007    7.99527E+007   -8.29979E+004   -1.58762E+005    8.01115E+007   -2.65703E+007    8.00735E+007    7.99527E+007   -8.76029E+004   -1.54157E+005    5.65228E+002   -2.61232E+002   -1.81021E+004
            1422    8.00805E+007    7.99474E+007    7.99474E+007   -9.38461E+004   -1.72268E+005    8.01197E+007   -2.65604E+007    8.00804E+007    7.99474E+007   -1.00480E+005   -1.65634E+005    2.73788E+002   -1.90840E+002   -2.18231E+004
            1423    8.00828E+007    7.99453E+007    7.99453E+007   -1.07617E+005   -1.67437E+005    8.01127E+007   -2.65567E+007    8.00828E+007    7.99453E+007   -1.15632E+005   -1.59422E+005    5.95947E+002   -7.89039E+001   -2.03771E+004
            1424    8.00830E+007    7.99440E+007    7.99440E+007   -1.20517E+005   -1.57385E+005    8.01014E+007   -2.65554E+007    8.00829E+007    7.99440E+007   -1.29643E+005   -1.48260E+005   -4.59302E+002   -3.82026E+002   -1.59109E+004
            1425    8.00818E+007    7.99447E+007    7.99447E+007   -1.01019E+005   -1.73253E+005    8.01179E+007   -2.65568E+007    8.00817E+007    7.99447E+007   -1.11774E+005   -1.62498E+005    3.97625E+002   -1.31718E+003   -2.57137E+004
            1426    8.00846E+007    7.99424E+007    7.99424E+007   -1.01702E+005   -1.82456E+005    8.01249E+007   -2.65528E+007    8.00845E+007    7.99424E+007   -1.18205E+005   -1.65954E+005    2.50781E+001   -1.39735E+003   -3.25623E+004
            1427    8.00848E+007    7.99429E+007    7.99429E+007   -1.08156E+005   -1.75698E+005    8.01186E+007   -2.65530E+007    8.00848E+007    7.99429E+007   -1.28144E+005   -1.55711E+005    1.55348E+002   -5.94608E+002   -3.08303E+004
            1428    8.00841E+007    7.99433E+007    7.99433E+007   -1.15796E+005   -1.65816E+005    8.01091E+007   -2.65539E+007    8.00840E+007    7.99433E+007   -1.39067E+005   -1.42546E+005   -3.36579E+002   -1.50149E+002   -2.49491E+004
            1429    8.00948E+007    7.99371E+007    7.99371E+007   -1.24483E+005   -1.90931E+005    8.01280E+007   -2.65405E+007    8.00947E+007    7.99371E+007   -1.40839E+005   -1.74574E+005    1.76002E+002   -1.95123E+002   -2.86239E+004
            1430    8.00913E+007    7.99391E+007    7.99391E+007   -1.11318E+005   -1.92991E+005    8.01321E+007   -2.65449E+007    8.00912E+007    7.99391E+007   -1.38484E+005   -1.65825E+005    2.19900E+002   -1.51567E+002   -3.84801E+004
            1431    8.00884E+007    7.99402E+007    7.99402E+007   -1.10233E+005   -1.86050E+005    8.01263E+007   -2.65480E+007    8.00883E+007    7.99402E+007   -1.44159E+005   -1.52124E+005   -4.76301E+002   -7.74131E+001   -3.76988E+004
            1432    8.00854E+007    7.99428E+007    7.99428E+007   -1.10233E+005   -1.74985E+005    8.01178E+007   -2.65525E+007    8.00854E+007    7.99428E+007   -1.49966E+005   -1.35252E+005   -1.69273E+002   -3.28858E+002   -3.15287E+004
            1433    8.01025E+007    7.99273E+007    7.99273E+007   -1.45100E+005   -2.05222E+005    8.01325E+007   -2.65257E+007    8.01024E+007    7.99273E+007   -1.65265E+005   -1.85057E+005   -4.58052E+002   -1.59438E+003   -2.83854E+004
            1434    8.00961E+007    7.99326E+007    7.99326E+007   -1.25018E+005   -2.01825E+005    8.01345E+007   -2.65353E+007    8.00960E+007    7.99326E+007   -1.59525E+005   -1.67318E+005   -2.21832E+001   -1.59915E+003   -3.82053E+004
            1435    8.00912E+007    7.99369E+007    7.99369E+007   -1.14295E+005   -1.94288E+005    8.01312E+007   -2.65428E+007    8.00912E+007    7.99369E+007   -1.59194E+005   -1.49390E+005   -1.32404E+003   -7.21700E+002   -3.96949E+004
            1436    8.00871E+007    7.99424E+007    7.99424E+007   -1.06264E+005   -1.82907E+005    8.01253E+007   -2.65511E+007    8.00870E+007    7.99424E+007   -1.60583E+005   -1.28588E+005    1.40156E+002    1.71098E+002   -3.48224E+004
            1437    8.01132E+007    7.99251E+007    7.99251E+007   -1.61324E+005   -2.14876E+005    8.01400E+007   -2.65163E+007    8.01132E+007    7.99251E+007   -1.85299E+005   -1.90900E+005   -6.95118E+002    1.18346E+003   -2.66290E+004
            1438    8.01032E+007    7.99310E+007    7.99310E+007   -1.39634E+005   -2.04742E+005    8.01357E+007   -2.65289E+007    8.01031E+007    7.99310E+007   -1.74378E+005   -1.69999E+005    1.35478E+003    1.33750E+003   -3.24803E+004
            1439    8.00939E+007    7.99335E+007    7.99335E+007   -1.22162E+005   -1.98589E+005    8.01321E+007   -2.65376E+007    8.00938E+007    7.99335E+007   -1.71178E+005   -1.49573E+005   -2.07906E+003   -7.10802E+001   -3.66547E+004
            1440    8.00884E+007    7.99428E+007    7.99428E+007   -1.05686E+005   -1.85445E+005    8.01282E+007   -2.65506E+007    8.00883E+007    7.99428E+007   -1.67032E+005   -1.24098E+005    3.05668E+001    2.11748E+002   -3.36085E+004
            1441    8.01137E+007    7.99151E+007    7.99151E+007   -1.80323E+005   -2.16920E+005    8.01320E+007   -2.65059E+007    8.01137E+007    7.99151E+007   -1.98144E+005   -1.99098E+005   -4.19168E+003   -4.08636E+003   -1.82923E+004
            1442    8.01114E+007    7.99270E+007    7.99270E+007   -1.57732E+005   -2.11061E+005    8.01381E+007   -2.65194E+007    8.01114E+007    7.99270E+007   -1.89563E+005   -1.79230E+005    9.97884E+002   -3.42560E+002   -2.61589E+004
            1443    8.00981E+007    7.99302E+007    7.99302E+007   -1.38734E+005   -1.96929E+005    8.01272E+007   -2.65315E+007    8.00980E+007    7.99302E+007   -1.80986E+005   -1.54676E+005   -1.74563E+003   -1.25643E+002   -2.59539E+004
            1444    8.00890E+007    7.99423E+007    7.99423E+007   -1.14891E+005   -1.78468E+005    8.01208E+007   -2.65497E+007    8.00890E+007    7.99423E+007   -1.67223E+005   -1.26136E+005   -1.81704E+002    3.84362E+002   -2.42582E+004
            1445    8.00894E+007    7.99399E+007    7.99399E+007   -1.40059E+005   -1.58951E+005    8.00989E+007   -2.65470E+007    8.00894E+007    7.99399E+007   -1.58880E+005   -1.40131E+005   -9.99715E+002    2.93265E+002    1.15729E+003
            1446    8.01096E+007    7.99257E+007    7.99257E+007   -1.71909E+005   -1.95778E+005    8.01215E+007   -2.65193E+007    8.01096E+007    7.99257E+007   -1.95754E+005   -1.71934E+005   -5.87389E+002    4.33715E+002    7.68827E+002
            1447    8.01186E+007    7.99185E+007    7.99185E+007   -1.78485E+005   -2.21754E+005    8.01402E+007   -2.65061E+007    8.01186E+007    7.99185E+007   -2.21208E+005   -1.79032E+005   -7.65108E+002    3.65570E+002   -4.83084E+003
            1448    8.01180E+007    7.99186E+007    7.99186E+007   -1.63576E+005   -2.35162E+005    8.01538E+007   -2.65066E+007    8.01180E+007    7.99186E+007   -2.15068E+005   -1.83670E+005    1.98527E+002    1.35127E+003   -3.21667E+004
            1449    8.00445E+007    7.99727E+007    7.99727E+007   -6.52362E+004   -7.84495E+004    8.00511E+007   -2.66097E+007    8.00445E+007    7.99727E+007   -6.52771E+004   -7.84086E+004    2.96593E+002   -1.99522E+002    7.34108E+002
            1450    8.00578E+007    7.99629E+007    7.99629E+007   -8.70962E+004   -1.02674E+005    8.00656E+007   -2.65911E+007    8.00578E+007    7.99629E+007   -8.71333E+004   -1.02637E+005    3.21691E+002   -7.02217E+002    7.58696E+002
            1451    8.00790E+007    7.99479E+007    7.99479E+007   -1.22618E+005   -1.39433E+005    8.00874E+007   -2.65620E+007    8.00790E+007    7.99479E+007   -1.22707E+005   -1.39343E+005    3.92104E+002   -8.77166E+002    1.22204E+003
            1452    8.00999E+007    7.99323E+007    7.99323E+007   -1.57155E+005   -1.77940E+005    8.01103E+007   -2.65324E+007    8.00999E+007    7.99323E+007   -1.57204E+005   -1.77891E+005    3.48586E+002   -1.02551E+003    1.01334E+003
            1453    8.01174E+007    7.99201E+007    7.99201E+007   -1.83878E+005   -2.10822E+005    8.01309E+007   -2.65085E+007    8.01174E+007    7.99201E+007   -1.83953E+005   -2.10747E+005    4.24469E+002   -5.51211E+002    1.41587E+003
            1454    8.01221E+007    7.99160E+007    7.99160E+007   -1.80705E+005   -2.31467E+005    8.01475E+007   -2.65013E+007    8.01221E+007    7.99160E+007   -1.81111E+005   -2.31061E+005    3.47786E+002   -6.57793E+002   -4.52230E+003
            1455    8.01188E+007    7.99180E+007    7.99180E+007   -1.61988E+005   -2.39607E+005    8.01576E+007   -2.65055E+007    8.01187E+007    7.99180E+007   -1.81681E+005   -2.19914E+005    1.26173E+003    3.16534E+002   -3.37749E+004
            1456    8.00673E+007    7.99564E+007    7.99564E+007   -1.03790E+005   -1.17906E+005    8.00744E+007   -2.65783E+007    8.00673E+007    7.99564E+007   -1.17528E+005   -1.04167E+005   -6.67868E+002    3.10953E+002    2.27652E+003
            1457    8.00482E+007    7.99696E+007    7.99696E+007   -7.36334E+004   -8.35065E+004    8.00531E+007   -2.66042E+007    8.00482E+007    7.99696E+007   -8.29822E+004   -7.41577E+004   -4.37909E+002    1.56689E+002    2.21405E+003
            1458    8.00407E+007    7.99753E+007    7.99753E+007   -6.25974E+004   -6.81888E+004    8.00435E+007   -2.66149E+007    8.00407E+007    7.99753E+007   -6.81518E+004   -6.26344E+004    7.01205E+001    1.97953E+002    4.53258E+002
            1459    8.00477E+007    7.99698E+007    7.99698E+007   -7.37663E+004   -8.21712E+004    8.00519E+007   -2.66046E+007    8.00477E+007    7.99698E+007   -8.18169E+004   -7.41205E+004    5.30461E+002    1.50718E+002   -1.68881E+003
            1460    8.00667E+007    7.99566E+007    7.99566E+007   -1.03836E+005   -1.16414E+005    8.00730E+007   -2.65788E+007    8.00667E+007    7.99566E+007   -1.16059E+005   -1.04191E+005    7.40819E+002    2.92390E+002   -2.08171E+003
            1461    8.00894E+007    7.99396E+007    7.99396E+007   -1.40667E+005   -1.58951E+005    8.00986E+007   -2.65467E+007    8.00894E+007    7.99396E+007   -1.58719E+005   -1.40899E+005    9.70090E+002    2.67339E+002   -2.04667E+003
            1462    8.01093E+007    7.99261E+007    7.99261E+007   -1.69662E+005   -1.96673E+005    8.01228E+007   -2.65199E+007    8.01093E+007    7.99261E+007   -1.96594E+005   -1.69741E+005    5.28590E+002    4.73569E+002    1.46136E+003
            1463    8.01181E+007    7.99186E+007    7.99186E+007   -1.82259E+005   -2.16574E+005    8.01352E+007   -2.65066E+007    8.01180E+007    7.99186E+007   -2.11077E+005   -1.87756E+005    7.49515E+002    4.42749E+002    1.25863E+004
            1464    8.01191E+007    7.99194E+007    7.99194E+007   -1.82115E+005   -2.17235E+005    8.01366E+007   -2.65067E+007    8.01191E+007    7.99194E+007   -1.91325E+005   -2.08025E+005   -7.43921E+002    1.87682E+003    1.54477E+004
            1465    8.00735E+007    7.99499E+007    7.99499E+007   -9.03874E+004   -1.56699E+005    8.01066E+007   -2.65676E+007    8.00734E+007    7.99499E+007   -1.51063E+005   -9.60234E+004   -1.08159E+003    6.04806E+002   -1.84923E+004
            1466    8.00788E+007    7.99459E+007    7.99459E+007   -9.31952E+004   -1.72585E+005    8.01184E+007   -2.65600E+007    8.00787E+007    7.99459E+007   -1.63680E+005   -1.02100E+005   -1.41362E+003   -4.38209E+001   -2.50533E+004
            1467    8.00810E+007    7.99448E+007    7.99448E+007   -1.00491E+005   -1.72021E+005    8.01168E+007   -2.65574E+007    8.00810E+007    7.99448E+007   -1.62361E+005   -1.10151E+005   -8.82482E+002    7.97785E+002   -2.44466E+004
            1468    8.00828E+007    7.99440E+007    7.99440E+007   -1.11569E+005   -1.65961E+005    8.01100E+007   -2.65555E+007    8.00827E+007    7.99440E+007   -1.55777E+005   -1.21753E+005   -6.01298E+002   -4.67800E+002   -2.12181E+004
            1469    8.00835E+007    7.99450E+007    7.99450E+007   -1.20845E+005   -1.56102E+005    8.01011E+007   -2.65560E+007    8.00835E+007    7.99450E+007   -1.46354E+005   -1.30593E+005    1.16332E+002    6.31936E+002   -1.57687E+004
            1470    8.00836E+007    7.99451E+007    7.99451E+007   -1.28598E+005   -1.48447E+005    8.00936E+007   -2.65560E+007    8.00836E+007    7.99451E+007   -1.38488E+005   -1.38557E+005    4.53992E+002   -4.99386E+002   -9.92455E+003
            1471    8.00836E+007    7.99456E+007    7.99456E+007   -1.32699E+005   -1.43404E+005    8.00890E+007   -2.65565E+007    8.00836E+007    7.99456E+007   -1.33797E+005   -1.42306E+005    6.66532E+002    4.85022E+002   -3.24755E+003
            1472    8.00662E+007    7.99590E+007    7.99590E+007   -7.29966E+004   -1.41557E+005    8.01005E+007   -2.65815E+007    8.00662E+007    7.99590E+007   -1.40101E+005   -7.44522E+004   -8.99596E+001    6.84047E+002   -9.88326E+003
            1473    8.00762E+007    7.99527E+007    7.99527E+007   -8.36114E+004   -1.63282E+005    8.01160E+007   -2.65686E+007    8.00761E+007    7.99527E+007   -1.61433E+005   -8.54605E+004    4.92033E+001    7.77996E+001   -1.19958E+004
            1474    8.00800E+007    7.99487E+007    7.99487E+007   -9.66416E+004   -1.65881E+005    8.01146E+007   -2.65621E+007    8.00799E+007    7.99487E+007   -1.64101E+005   -9.84215E+004    2.09574E+002    1.10215E+003   -1.09579E+004
            1475    8.00819E+007    7.99459E+007    7.99459E+007   -1.11632E+005   -1.60258E+005    8.01062E+007   -2.65580E+007    8.00818E+007    7.99459E+007   -1.58857E+005   -1.13034E+005   -4.49481E+001   -6.44909E+002   -8.13481E+003
            1476    8.00824E+007    7.99449E+007    7.99449E+007   -1.23578E+005   -1.51420E+005    8.00963E+007   -2.65566E+007    8.00824E+007    7.99449E+007   -1.50263E+005   -1.24735E+005   -1.61976E+002    8.60769E+002   -5.55553E+003
            1477    8.00818E+007    7.99435E+007    7.99435E+007   -1.32956E+005   -1.43664E+005    8.00872E+007   -2.65556E+007    8.00818E+007    7.99435E+007   -1.42805E+005   -1.33814E+005   -4.24479E+002   -7.84099E+002   -2.90781E+003
            1478    8.00819E+007    7.99435E+007    7.99435E+007   -1.37289E+005   -1.39580E+005    8.00830E+007   -2.65555E+007    8.00819E+007    7.99435E+007   -1.38406E+005   -1.38463E+005   -4.87889E+002    6.72919E+002   -1.14502E+003
            1479    8.00609E+007    7.99598E+007    7.99598E+007   -6.66332E+004   -1.35464E+005    8.00953E+007   -2.65859E+007    8.00608E+007    7.99598E+007   -1.35452E+005   -6.66459E+004   -3.58177E+001    7.00827E+002    9.34886E+002
            1480    8.00721E+007    7.99515E+007    7.99515E+007   -8.17150E+004   -1.59456E+005    8.01110E+007   -2.65701E+007    8.00721E+007    7.99515E+007   -1.59375E+005   -8.17955E+004   -9.48837E+001    1.03838E+001    2.50062E+003
            1481    8.00775E+007    7.99476E+007    7.99476E+007   -9.54179E+004   -1.64289E+005    8.01119E+007   -2.65626E+007    8.00774E+007    7.99476E+007   -1.63987E+005   -9.57196E+004   -4.98749E+001    1.19885E+003    4.54806E+003
            1482    8.00811E+007    7.99453E+007    7.99453E+007   -1.11754E+005   -1.59902E+005    8.01052E+007   -2.65579E+007    8.00811E+007    7.99453E+007   -1.59267E+005   -1.12389E+005    3.76435E+001   -5.97172E+002    5.49414E+003
            1483    8.00831E+007    7.99458E+007    7.99458E+007   -1.23077E+005   -1.51652E+005    8.00974E+007   -2.65570E+007    8.00831E+007    7.99458E+007   -1.50509E+005   -1.24221E+005    1.52344E+002    1.00103E+003    5.60133E+003
            1484    8.00838E+007    7.99454E+007    7.99454E+007   -1.32443E+005   -1.44283E+005    8.00897E+007   -2.65562E+007    8.00838E+007    7.99454E+007   -1.42865E+005   -1.33861E+005    2.07742E+002   -7.21101E+002    3.84399E+003
            1485    8.00845E+007    7.99462E+007    7.99462E+007   -1.36751E+005   -1.39836E+005    8.00860E+007   -2.65565E+007    8.00845E+007    7.99462E+007   -1.38130E+005   -1.38457E+005    2.29614E+002    7.29172E+002    1.53399E+003
            1486    8.00665E+007    7.99584E+007    7.99584E+007   -7.43582E+004   -1.41628E+005    8.01001E+007   -2.65808E+007    8.00664E+007    7.99584E+007   -1.39630E+005   -7.63560E+004    5.07939E+002    6.54872E+002    1.14193E+004
            1487    8.00771E+007    7.99516E+007    7.99516E+007   -8.54619E+004   -1.65573E+005    8.01172E+007   -2.65668E+007    8.00770E+007    7.99516E+007   -1.61853E+005   -8.91824E+004    6.13393E+002    1.66441E+001    1.68586E+004
            1488    8.00812E+007    7.99477E+007    7.99477E+007   -9.77274E+004   -1.69133E+005    8.01169E+007   -2.65603E+007    8.00811E+007    7.99477E+007   -1.63696E+005   -1.03164E+005    3.67561E+002    9.96092E+002    1.89379E+004
            1489    8.00828E+007    7.99450E+007    7.99450E+007   -1.10769E+005   -1.64924E+005    8.01099E+007   -2.65564E+007    8.00828E+007    7.99450E+007   -1.57391E+005   -1.18302E+005    3.57720E+002   -7.05839E+002    1.87398E+004
            1490    8.00830E+007    7.99444E+007    7.99444E+007   -1.20885E+005   -1.56202E+005    8.01006E+007   -2.65558E+007    8.00829E+007    7.99444E+007   -1.46918E+005   -1.30168E+005    1.24290E+002    6.83201E+002    1.55463E+004
            1491    8.00817E+007    7.99432E+007    7.99432E+007   -1.27960E+005   -1.49130E+005    8.00923E+007   -2.65554E+007    8.00817E+007    7.99432E+007   -1.37974E+005   -1.39115E+005    1.26239E+002   -7.84666E+002    1.05696E+004
            1492    8.00816E+007    7.99435E+007    7.99435E+007   -1.31545E+005   -1.44735E+005    8.00882E+007   -2.65557E+007    8.00816E+007    7.99435E+007   -1.32515E+005   -1.43765E+005    7.12546E+001    5.48174E+002    3.44413E+003
            1493    8.00749E+007    7.99490E+007    7.99490E+007   -9.39817E+004   -1.57813E+005    8.01068E+007   -2.65657E+007    8.00749E+007    7.99490E+007   -1.51574E+005   -1.00221E+005    8.16765E+002    5.14412E+002    1.89558E+004
            1494    8.00805E+007    7.99444E+007    7.99444E+007   -9.65648E+004   -1.75663E+005    8.01200E+007   -2.65574E+007    8.00804E+007    7.99444E+007   -1.63924E+005   -1.08303E+005    1.03015E+003   -1.22833E+002    2.81195E+004
            1495    8.00833E+007    7.99430E+007    7.99430E+007   -1.02904E+005   -1.77749E+005    8.01207E+007   -2.65541E+007    8.00832E+007    7.99430E+007   -1.62102E+005   -1.18552E+005    5.88234E+002    5.71009E+002    3.04353E+004
            1496    8.00842E+007    7.99425E+007    7.99425E+007   -1.10656E+005   -1.72824E+005    8.01153E+007   -2.65530E+007    8.00842E+007    7.99425E+007   -1.52990E+005   -1.30490E+005    5.41443E+002   -5.18158E+002    2.89768E+004
            1497    8.00847E+007    7.99443E+007    7.99443E+007   -1.16167E+005   -1.64543E+005    8.01089E+007   -2.65545E+007    8.00847E+007    7.99443E+007   -1.40862E+005   -1.39847E+005    1.96543E+001    3.39146E+002    2.41828E+004
            1498    8.00838E+007    7.99452E+007    7.99452E+007   -1.20664E+005   -1.56589E+005    8.01018E+007   -2.65560E+007    8.00838E+007    7.99452E+007   -1.30092E+005   -1.47161E+005   -2.58792E+002   -4.56357E+002    1.58058E+004
            1499    8.00838E+007    7.99465E+007    7.99465E+007   -1.22668E+005   -1.51992E+005    8.00985E+007   -2.65573E+007    8.00838E+007    7.99465E+007   -1.23737E+005   -1.50924E+005   -5.16578E+002    3.09559E+002    5.49468E+003
            1500    8.00903E+007    7.99409E+007    7.99409E+007   -1.18937E+005   -1.79859E+005    8.01207E+007   -2.65474E+007    8.00902E+007    7.99409E+007   -1.68068E+005   -1.30727E+005    4.84125E+002    2.73295E+002    2.40684E+004
            1501    8.00909E+007    7.99405E+007    7.99405E+007   -1.11400E+005   -1.89309E+005    8.01298E+007   -2.65466E+007    8.00908E+007    7.99405E+007   -1.68398E+005   -1.32312E+005    5.17197E+002    2.01259E+002    3.45238E+004
            1502    8.00900E+007    7.99404E+007    7.99404E+007   -1.10648E+005   -1.88339E+005    8.01288E+007   -2.65472E+007    8.00899E+007    7.99404E+007   -1.60963E+005   -1.38024E+005    1.81847E+002   -1.48808E+002    3.71133E+004
            1503    8.00876E+007    7.99412E+007    7.99412E+007   -1.10495E+005   -1.82292E+005    8.01235E+007   -2.65495E+007    8.00875E+007    7.99412E+007   -1.48022E+005   -1.44765E+005    1.94626E+002   -3.04555E+002    3.58616E+004
            1504    8.00847E+007    7.99427E+007    7.99427E+007   -1.10858E+005   -1.73123E+005    8.01158E+007   -2.65529E+007    8.00846E+007    7.99427E+007   -1.32396E+005   -1.51585E+005    1.83301E+002   -5.17060E+002    2.96171E+004
            1505    8.00820E+007    7.99440E+007    7.99440E+007   -1.10773E+005   -1.65071E+005    8.01091E+007   -2.65561E+007    8.00819E+007    7.99440E+007   -1.19340E+005   -1.56504E+005    2.77443E+002   -3.78900E+002    1.97939E+004
            1506    8.00807E+007    7.99452E+007    7.99452E+007   -1.10704E+005   -1.60287E+005    8.01055E+007   -2.65581E+007    8.00806E+007    7.99452E+007   -1.11609E+005   -1.59382E+005    2.76028E+002   -2.25584E+002    6.63565E+003
            1507    8.01002E+007    7.99292E+007    7.99292E+007   -1.44053E+005   -1.97882E+005    8.01271E+007   -2.65291E+007    8.01002E+007    7.99292E+007   -1.80287E+005   -1.61648E+005    1.14384E+003   -3.27078E+002    2.52495E+004
            1508    8.00962E+007    7.99318E+007    7.99318E+007   -1.29904E+005   -1.98809E+005    8.01306E+007   -2.65344E+007    8.00961E+007    7.99318E+007   -1.71949E+005   -1.56764E+005    1.32366E+003    1.75353E+002    3.36054E+004
            1509    8.00937E+007    7.99344E+007    7.99344E+007   -1.20557E+005   -1.97945E+005    8.01324E+007   -2.65386E+007    8.00936E+007    7.99344E+007   -1.61367E+005   -1.57135E+005    1.02636E+003   -1.14035E+003    3.86363E+004
            1510    8.00902E+007    7.99392E+007    7.99392E+007   -1.12131E+005   -1.89729E+005    8.01290E+007   -2.65458E+007    8.00901E+007    7.99392E+007   -1.43053E+005   -1.58807E+005    2.84899E+002    9.79969E+000    3.79905E+004
            1511    8.00851E+007    7.99427E+007    7.99427E+007   -1.05312E+005   -1.79408E+005    8.01222E+007   -2.65527E+007    8.00851E+007    7.99427E+007   -1.23880E+005   -1.60841E+005   -2.37201E+002   -8.45388E+002    3.21097E+004
            1512    8.00816E+007    7.99470E+007    7.99470E+007   -9.92549E+004   -1.69909E+005    8.01169E+007   -2.65593E+007    8.00815E+007    7.99470E+007   -1.06565E+005   -1.62599E+005   -7.68119E+002    8.98575E+000    2.15188E+004
            1513    8.00789E+007    7.99489E+007    7.99489E+007   -9.59150E+004   -1.64182E+005    8.01130E+007   -2.65629E+007    8.00789E+007    7.99489E+007   -9.67145E+004   -1.63383E+005   -9.82810E+002   -3.99227E+002    7.34409E+003
            1514    8.01131E+007    7.99257E+007    7.99257E+007   -1.67645E+005   -2.07152E+005    8.01328E+007   -2.65170E+007    8.01130E+007    7.99257E+007   -1.88401E+005   -1.86396E+005   -3.99929E+002   -8.51591E+002    1.97282E+004
            1515    8.01069E+007    7.99296E+007    7.99296E+007   -1.48780E+005   -2.05731E+005    8.01353E+007   -2.65250E+007    8.01068E+007    7.99296E+007   -1.78977E+005   -1.75534E+005   -1.16973E+003    1.71347E+003    2.84230E+004
            1516    8.00986E+007    7.99309E+007    7.99309E+007   -1.33367E+005   -2.01816E+005    8.01328E+007   -2.65319E+007    8.00985E+007    7.99309E+007   -1.62808E+005   -1.72375E+005   -2.56428E+001   -1.75207E+003    3.38888E+004
            1517    8.00933E+007    7.99384E+007    7.99384E+007   -1.17039E+005   -1.92710E+005    8.01311E+007   -2.65429E+007    8.00932E+007    7.99384E+007   -1.41421E+005   -1.68328E+005   -3.09267E+002   -5.18550E+000    3.53628E+004
            1518    8.00837E+007    7.99429E+007    7.99429E+007   -1.01728E+005   -1.79722E+005    8.01226E+007   -2.65538E+007    8.00836E+007    7.99429E+007   -1.16627E+005   -1.64822E+005   -1.11027E+002   -1.53876E+003    3.06604E+004
            1519    8.00780E+007    7.99493E+007    7.99493E+007   -8.95778E+004   -1.67677E+005    8.01170E+007   -2.65640E+007    8.00779E+007    7.99493E+007   -9.56622E+004   -1.61593E+005   -2.28521E+002   -2.00582E+002    2.09326E+004
            1520    8.00733E+007    7.99522E+007    7.99522E+007   -8.22108E+004   -1.60013E+005    8.01122E+007   -2.65700E+007    8.00732E+007    7.99522E+007   -8.29165E+004   -1.59307E+005   -2.49135E+002   -7.18874E+002    7.37624E+003
            1521    8.01154E+007    7.99137E+007    7.99137E+007   -1.89224E+005   -2.14053E+005    8.01278E+007   -2.65035E+007    8.01153E+007    7.99137E+007   -2.00666E+005   -2.02611E+005    3.32389E+003   -3.87587E+003    1.23762E+004
            1522    8.01152E+007    7.99238E+007    7.99238E+007   -1.72641E+005   -2.10132E+005    8.01339E+007   -2.65137E+007    8.01152E+007    7.99238E+007   -1.87356E+005   -1.95417E+005    5.81865E+002    9.74461E+002    1.83071E+004
            1523    8.01051E+007    7.99259E+007    7.99259E+007   -1.55752E+005   -2.02779E+005    8.01286E+007   -2.65224E+007    8.01051E+007    7.99259E+007   -1.73045E+005   -1.85486E+005    2.32291E+002   -1.46113E+003    2.26753E+004
            1524    8.00958E+007    7.99366E+007    7.99366E+007   -1.30947E+005   -1.87422E+005    8.01240E+007   -2.65394E+007    8.00958E+007    7.99366E+007   -1.45457E+005   -1.72911E+005   -1.77387E+002   -1.48631E+002    2.46765E+004
            1525    8.00815E+007    7.99452E+007    7.99452E+007   -1.05655E+005   -1.66904E+005    8.01121E+007   -2.65576E+007    8.00815E+007    7.99452E+007   -1.15313E+005   -1.57246E+005   -4.40730E+002   -1.14996E+003    2.23218E+004
            1526    8.00705E+007    7.99550E+007    7.99550E+007   -8.23407E+004   -1.48488E+005    8.01035E+007   -2.65747E+007    8.00704E+007    7.99550E+007   -8.65040E+004   -1.44324E+005   -5.38342E+002   -2.22066E+002    1.60642E+004
            1527    8.00631E+007    7.99601E+007    7.99601E+007   -6.91853E+004   -1.36817E+005    8.00969E+007   -2.65847E+007    8.00630E+007    7.99601E+007   -6.96854E+004   -1.36317E+005   -6.03886E+002   -5.55359E+002    5.79451E+003
            1528    8.00424E+007    7.99741E+007    7.99741E+007   -6.49954E+004   -7.16127E+004    8.00458E+007   -2.66125E+007    8.00424E+007    7.99741E+007   -6.50613E+004   -7.15468E+004   -2.60897E+002   -2.00088E+002   -6.56886E+002
            1529    8.00567E+007    7.99638E+007    7.99638E+007   -8.77859E+004   -9.79197E+004    8.00617E+007   -2.65927E+007    8.00567E+007    7.99638E+007   -8.79238E+004   -9.77817E+004   -2.77965E+002   -7.53945E+002   -1.17428E+003
            1530    8.00788E+007    7.99482E+007    7.99482E+007   -1.24422E+005   -1.36733E+005    8.00849E+007   -2.65624E+007    8.00788E+007    7.99482E+007   -1.24442E+005   -1.36714E+005   -3.40616E+002   -7.50117E+002    4.88075E+002
            1531    8.01002E+007    7.99324E+007    7.99324E+007   -1.62296E+005   -1.73208E+005    8.01056E+007   -2.65323E+007    8.01002E+007    7.99324E+007   -1.62349E+005   -1.73154E+005   -3.19064E+002   -1.03009E+003    7.62577E+002
            1532    8.01159E+007    7.99214E+007    7.99214E+007   -1.88132E+005   -2.00938E+005    8.01223E+007   -2.65108E+007    8.01159E+007    7.99214E+007   -1.88138E+005   -2.00931E+005   -3.68328E+002   -4.37044E+002    2.83531E+002
            1533    8.01245E+007    7.99148E+007    7.99148E+007   -2.02425E+005   -2.17061E+005    8.01318E+007   -2.64984E+007    8.01245E+007    7.99148E+007   -2.02508E+005   -2.16978E+005   -2.43785E+002   -6.41702E+002   -1.10241E+003
            1534    8.01238E+007    7.99159E+007    7.99159E+007   -1.92989E+005   -2.22894E+005    8.01388E+007   -2.65000E+007    8.01238E+007    7.99159E+007   -1.93085E+005   -2.22797E+005   -1.41660E+003    5.76541E+002    1.69249E+003
            1535    8.01182E+007    7.99187E+007    7.99187E+007   -1.63003E+005   -2.35994E+005    8.01547E+007   -2.65066E+007    8.01182E+007    7.99187E+007   -2.14938E+005   -1.84059E+005    4.02676E+001   -1.48196E+003    3.30689E+004
            1536    8.01190E+007    7.99184E+007    7.99184E+007   -1.78105E+005   -2.23066E+005    8.01415E+007   -2.65058E+007    8.01190E+007    7.99184E+007   -2.22430E+005   -1.78741E+005   -7.40674E+002   -3.92793E+002    5.31067E+003
            1537    8.01103E+007    7.99256E+007    7.99256E+007   -1.72295E+005   -1.97081E+005    8.01227E+007   -2.65187E+007    8.01103E+007    7.99256E+007   -1.97052E+005   -1.72324E+005   -6.87898E+002   -4.92539E+002   -8.47902E+002
            1538    8.00898E+007    7.99400E+007    7.99400E+007   -1.40163E+005   -1.59389E+005    8.00994E+007   -2.65468E+007    8.00898E+007    7.99400E+007   -1.59286E+005   -1.40267E+005   -8.69326E+002   -2.69032E+002   -1.40629E+003
            1539    8.00892E+007    7.99424E+007    7.99424E+007   -1.14622E+005   -1.78980E+005    8.01213E+007   -2.65496E+007    8.00891E+007    7.99424E+007   -1.67537E+005   -1.26065E+005   -2.14013E+002   -4.73431E+002    2.46073E+004
            1540    8.00886E+007    7.99427E+007    7.99427E+007   -1.05899E+005   -1.85924E+005    8.01286E+007   -2.65503E+007    8.00885E+007    7.99427E+007   -1.67273E+005   -1.24550E+005   -6.35381E+001   -1.75613E+002    3.38333E+004
            1541    8.00871E+007    7.99426E+007    7.99426E+007   -1.06365E+005   -1.82633E+005    8.01252E+007   -2.65512E+007    8.00870E+007    7.99426E+007   -1.60206E+005   -1.28791E+005    1.54775E+002   -3.52941E+002    3.47487E+004
            1542    8.00853E+007    7.99427E+007    7.99427E+007   -1.10446E+005   -1.74635E+005    8.01173E+007   -2.65525E+007    8.00852E+007    7.99427E+007   -1.49761E+005   -1.35319E+005   -1.50872E+002    4.04366E+002    3.12715E+004
            1543    8.00842E+007    7.99435E+007    7.99435E+007   -1.15817E+005   -1.65532E+005    8.01091E+007   -2.65541E+007    8.00842E+007    7.99435E+007   -1.38514E+005   -1.42834E+005   -1.51906E+002    1.95622E+001    2.47637E+004
            1544    8.00827E+007    7.99439E+007    7.99439E+007   -1.20417E+005   -1.57224E+005    8.01011E+007   -2.65554E+007    8.00827E+007    7.99439E+007   -1.29312E+005   -1.48330E+005   -3.19278E+002    4.32494E+002    1.57564E+004
            1545    8.00825E+007    7.99445E+007    7.99445E+007   -1.23298E+005   -1.52727E+005    8.00972E+007   -2.65562E+007    8.00825E+007    7.99445E+007   -1.24364E+005   -1.51662E+005   -3.96221E+002   -7.06810E+001    5.49785E+003
            1546    8.00985E+007    7.99304E+007    7.99304E+007   -1.38575E+005   -1.97514E+005    8.01280E+007   -2.65315E+007    8.00984E+007    7.99304E+007   -1.81154E+005   -1.54935E+005   -1.62000E+003   -3.48896E+000    2.63928E+004
            1547    8.00941E+007    7.99336E+007    7.99336E+007   -1.22023E+005   -1.98816E+005    8.01324E+007   -2.65376E+007    8.00940E+007    7.99336E+007   -1.70880E+005   -1.49958E+005   -1.99430E+003    8.18224E+001    3.69437E+004
            1548    8.00914E+007    7.99372E+007    7.99372E+007   -1.14168E+005   -1.94119E+005    8.01313E+007   -2.65430E+007    8.00913E+007    7.99372E+007   -1.58627E+005   -1.49661E+005   -1.26389E+003    5.26919E+002    3.97233E+004
            1549    8.00882E+007    7.99402E+007    7.99402E+007   -1.10151E+005   -1.85797E+005    8.01260E+007   -2.65481E+007    8.00882E+007    7.99402E+007   -1.43592E+005   -1.52355E+005   -5.55488E+002    1.14390E+002    3.75684E+004
            1550    8.00849E+007    7.99430E+007    7.99430E+007   -1.08238E+005   -1.75355E+005    8.01184E+007   -2.65532E+007    8.00848E+007    7.99430E+007   -1.28008E+005   -1.55584E+005   -1.66358E+001    5.25420E+002    3.05951E+004
            1551    8.00827E+007    7.99452E+007    7.99452E+007   -1.07646E+005   -1.67357E+005    8.01126E+007   -2.65567E+007    8.00827E+007    7.99452E+007   -1.15548E+005   -1.59455E+005    4.26012E+002    1.14418E+002    2.02337E+004
            1552    8.00813E+007    7.99464E+007    7.99464E+007   -1.07552E+005   -1.62166E+005    8.01086E+007   -2.65589E+007    8.00813E+007    7.99464E+007   -1.08426E+005   -1.61291E+005    7.05226E+002    2.59351E+002    6.85647E+003
            1553    8.01117E+007    7.99270E+007    7.99270E+007   -1.58001E+005   -2.11458E+005    8.01384E+007   -2.65192E+007    8.01117E+007    7.99270E+007   -1.89667E+005   -1.79792E+005    8.74049E+002    3.35787E+002    2.62684E+004
            1554    8.01033E+007    7.99310E+007    7.99310E+007   -1.39716E+005   -2.04790E+005    8.01358E+007   -2.65288E+007    8.01032E+007    7.99310E+007   -1.74163E+005   -1.70343E+005    1.17761E+003   -1.42110E+003    3.24807E+004
            1555    8.00959E+007    7.99327E+007    7.99327E+007   -1.24676E+005   -2.01673E+005    8.01344E+007   -2.65355E+007    8.00959E+007    7.99327E+007   -1.58902E+005   -1.67447E+005   -1.14361E+002    1.57053E+003    3.82608E+004
            1556    8.00910E+007    7.99393E+007    7.99393E+007   -1.10890E+005   -1.92452E+005    8.01318E+007   -2.65453E+007    8.00909E+007    7.99393E+007   -1.37763E+005   -1.65579E+005    1.99911E+002    4.01742E+001    3.83362E+004
            1557    8.00843E+007    7.99424E+007    7.99424E+007   -1.01458E+005   -1.82320E+005    8.01247E+007   -2.65529E+007    8.00842E+007    7.99424E+007   -1.17889E+005   -1.65890E+005    4.24335E+001    1.38713E+003    3.25373E+004
            1558    8.00803E+007    7.99474E+007    7.99474E+007   -9.35461E+004   -1.72149E+005    8.01196E+007   -2.65606E+007    8.00802E+007    7.99474E+007   -1.00181E+005   -1.65515E+005    3.01891E+002    2.18528E+002    2.18519E+004
            1559    8.00775E+007    7.99492E+007    7.99492E+007   -9.04658E+004   -1.66098E+005    8.01153E+007   -2.65642E+007    8.00774E+007    7.99492E+007   -9.12089E+004   -1.65355E+005    3.34191E+002    6.46833E+002    7.45968E+003
            1560    8.01139E+007    7.99152E+007    7.99152E+007   -1.80591E+005   -2.16843E+005    8.01320E+007   -2.65059E+007    8.01139E+007    7.99152E+007   -1.98464E+005   -1.98970E+005   -4.14221E+003    3.99095E+003    1.81241E+004
            1561    8.01130E+007    7.99253E+007    7.99253E+007   -1.60964E+005   -2.14485E+005    8.01398E+007   -2.65166E+007    8.01130E+007    7.99253E+007   -1.84611E+005   -1.90838E+005   -6.97373E+002   -1.24245E+003    2.65787E+004
            1562    8.01022E+007    7.99274E+007    7.99274E+007   -1.44944E+005   -2.04681E+005    8.01321E+007   -2.65259E+007    8.01022E+007    7.99274E+007   -1.64663E+005   -1.84962E+005   -5.00260E+002    1.56005E+003    2.80912E+004
            1563    8.00945E+007    7.99372E+007    7.99372E+007   -1.24290E+005   -1.90355E+005    8.01275E+007   -2.65408E+007    8.00945E+007    7.99372E+007   -1.40488E+005   -1.74157E+005    8.18483E+001    1.32916E+002    2.84208E+004
            1564    8.00814E+007    7.99448E+007    7.99448E+007   -1.00693E+005   -1.72470E+005    8.01172E+007   -2.65572E+007    8.00813E+007    7.99448E+007   -1.11476E+005   -1.61687E+005    3.06126E+002    1.34030E+003    2.56458E+004
            1565    8.00734E+007    7.99528E+007    7.99528E+007   -8.26912E+004   -1.58360E+005    8.01112E+007   -2.65706E+007    8.00733E+007    7.99528E+007   -8.74290E+004   -1.53622E+005    4.99352E+002    2.93637E+002    1.83318E+004
            1566    8.00678E+007    7.99566E+007    7.99566E+007   -7.21784E+004   -1.50338E+005    8.01069E+007   -2.65780E+007    8.00678E+007    7.99566E+007   -7.28251E+004   -1.49691E+005    5.93815E+002    6.28904E+002    7.08012E+003
            1567    8.00447E+007    7.99725E+007    7.99725E+007   -6.56359E+004   -7.87623E+004    8.00512E+007   -2.66094E+007    8.00447E+007    7.99725E+007   -6.56855E+004   -7.87127E+004    3.00900E+002    3.06446E+002   -8.04804E+002
            1568    8.00579E+007    7.99628E+007    7.99628E+007   -8.73281E+004   -1.02910E+005    8.00657E+007   -2.65908E+007    8.00579E+007    7.99628E+007   -8.73886E+004   -1.02850E+005    3.08274E+002    7.79530E+002   -9.68307E+002
            1569    8.00787E+007    7.99478E+007    7.99478E+007   -1.22198E+005   -1.39455E+005    8.00873E+007   -2.65621E+007    8.00787E+007    7.99478E+007   -1.22266E+005   -1.39387E+005    3.69901E+002    8.71800E+002   -1.08054E+003
            1570    8.00995E+007    7.99325E+007    7.99325E+007   -1.56577E+005   -1.77325E+005    8.01098E+007   -2.65329E+007    8.00995E+007    7.99325E+007   -1.56590E+005   -1.77312E+005    3.13292E+002    9.76693E+002   -5.22107E+002
            1571    8.01167E+007    7.99204E+007    7.99204E+007   -1.83249E+005   -2.09309E+005    8.01297E+007   -2.65093E+007    8.01166E+007    7.99204E+007   -1.83306E+005   -2.09252E+005    3.50905E+002    5.02031E+002   -1.21394E+003
            1572    8.01221E+007    7.99162E+007    7.99162E+007   -1.81364E+005   -2.30400E+005    8.01466E+007   -2.65015E+007    8.01220E+007    7.99162E+007   -1.81748E+005   -2.30017E+005    2.25668E+002    4.99999E+002    4.31927E+003
            1573    8.01188E+007    7.99181E+007    7.99181E+007   -1.62482E+005   -2.38776E+005    8.01569E+007   -2.65056E+007    8.01187E+007    7.99181E+007   -1.81370E+005   -2.19889E+005    1.19443E+003   -2.71309E+002    3.29285E+004
            1574    8.00631E+007    7.99601E+007    7.99601E+007   -6.91667E+004   -1.36763E+005    8.00969E+007   -2.65847E+007    8.00631E+007    7.99601E+007   -6.96611E+004   -1.36268E+005   -6.03189E+002    4.84002E+002   -5.75960E+003
            1575    8.00734E+007    7.99523E+007    7.99523E+007   -8.21285E+004   -1.59990E+005    8.01123E+007   -2.65701E+007    8.00733E+007    7.99523E+007   -8.28906E+004   -1.59227E+005   -2.65933E+002    6.64873E+002   -7.66500E+003
            1576    8.00789E+007    7.99488E+007    7.99488E+007   -9.59089E+004   -1.64344E+005    8.01131E+007   -2.65628E+007    8.00789E+007    7.99488E+007   -9.68125E+004   -1.63440E+005   -9.67550E+002    3.80018E+002   -7.81157E+003
            1577    8.00806E+007    7.99450E+007    7.99450E+007   -1.10728E+005   -1.60392E+005    8.01054E+007   -2.65580E+007    8.00806E+007    7.99450E+007   -1.11787E+005   -1.59333E+005    2.53895E+002    2.17394E+002   -7.17462E+003
            1578    8.00835E+007    7.99461E+007    7.99461E+007   -1.22682E+005   -1.52044E+005    8.00982E+007   -2.65571E+007    8.00835E+007    7.99461E+007   -1.23946E+005   -1.50780E+005   -4.94520E+002   -2.72062E+002   -5.95964E+003
            1579    8.00816E+007    7.99434E+007    7.99434E+007   -1.31512E+005   -1.44754E+005    8.00882E+007   -2.65557E+007    8.00816E+007    7.99434E+007   -1.32638E+005   -1.43627E+005    1.01442E+002   -5.47243E+002   -3.69414E+003
            1580    8.00843E+007    7.99460E+007    7.99460E+007   -1.36676E+005   -1.39917E+005    8.00859E+007   -2.65565E+007    8.00843E+007    7.99460E+007   -1.38193E+005   -1.38400E+005    1.87549E+002   -7.04398E+002   -1.61706E+003
            1581    8.00820E+007    7.99436E+007    7.99436E+007   -1.37289E+005   -1.39532E+005    8.00832E+007   -2.65556E+007    8.00820E+007    7.99436E+007   -1.38363E+005   -1.38458E+005   -4.06019E+002   -6.91647E+002    1.12090E+003
            1582    8.00838E+007    7.99457E+007    7.99457E+007   -1.32709E+005   -1.43475E+005    8.00892E+007   -2.65565E+007    8.00838E+007    7.99457E+007   -1.33774E+005   -1.42410E+005    5.97416E+002   -4.99969E+002    3.21457E+003
            1583    8.00706E+007    7.99549E+007    7.99549E+007   -8.27247E+004   -1.48639E+005    8.01036E+007   -2.65745E+007    8.00706E+007    7.99549E+007   -8.69478E+004   -1.44415E+005   -5.92528E+002    2.07138E+002   -1.61409E+004
            1584    8.00782E+007    7.99492E+007    7.99492E+007   -8.99478E+004   -1.67898E+005    8.01171E+007   -2.65638E+007    8.00781E+007    7.99492E+007   -9.62575E+004   -1.61588E+005   -2.29680E+002    1.86433E+002   -2.12609E+004
            1585    8.00818E+007    7.99468E+007    7.99468E+007   -9.94516E+004   -1.70430E+005    8.01172E+007   -2.65590E+007    8.00817E+007    7.99468E+007   -1.07188E+005   -1.62694E+005   -8.30742E+002   -2.34566E+001   -2.21193E+004
            1586    8.00825E+007    7.99442E+007    7.99442E+007   -1.10932E+005   -1.65489E+005    8.01097E+007   -2.65559E+007    8.00824E+007    7.99442E+007   -1.20089E+005   -1.56331E+005    3.25605E+002    3.40301E+002   -2.03899E+004
            1587    8.00840E+007    7.99453E+007    7.99453E+007   -1.20638E+005   -1.56812E+005    8.01021E+007   -2.65560E+007    8.00840E+007    7.99453E+007   -1.30599E+005   -1.46851E+005   -3.80232E+002    3.67526E+002   -1.61586E+004
            1588    8.00820E+007    7.99434E+007    7.99434E+007   -1.27887E+005   -1.49237E+005    8.00927E+007   -2.65554E+007    8.00820E+007    7.99434E+007   -1.38330E+005   -1.38793E+005    2.31756E+002    7.69149E+002   -1.06725E+004
            1589    8.00837E+007    7.99454E+007    7.99454E+007   -1.32373E+005   -1.44319E+005    8.00897E+007   -2.65562E+007    8.00837E+007    7.99454E+007   -1.42948E+005   -1.33744E+005    6.47952E+001    6.86926E+002   -3.80733E+003
            1590    8.00819E+007    7.99436E+007    7.99436E+007   -1.32871E+005   -1.43670E+005    8.00873E+007   -2.65557E+007    8.00819E+007    7.99436E+007   -1.42745E+005   -1.33796E+005   -2.53977E+002    7.99854E+002    3.02203E+003
            1591    8.00834E+007    7.99448E+007    7.99448E+007   -1.28573E+005   -1.48567E+005    8.00934E+007   -2.65559E+007    8.00834E+007    7.99448E+007   -1.38359E+005   -1.38781E+005    2.51691E+002    5.53477E+002    9.99461E+003
            1592    8.00820E+007    7.99450E+007    7.99450E+007   -1.06617E+005   -1.67456E+005    8.01124E+007   -2.65570E+007    8.00820E+007    7.99450E+007   -1.16273E+005   -1.57800E+005   -5.12108E+002    1.10111E+003   -2.22313E+004
            1593    8.00844E+007    7.99427E+007    7.99427E+007   -1.02683E+005   -1.80566E+005    8.01233E+007   -2.65532E+007    8.00843E+007    7.99427E+007   -1.18040E+005   -1.65209E+005   -1.75966E+001    1.51358E+003   -3.09878E+004
            1594    8.00855E+007    7.99425E+007    7.99425E+007   -1.05857E+005   -1.80029E+005    8.01225E+007   -2.65522E+007    8.00854E+007    7.99425E+007   -1.25270E+005   -1.60617E+005   -4.21845E+002    8.11758E+002   -3.26041E+004
            1595    8.00847E+007    7.99423E+007    7.99423E+007   -1.11155E+005   -1.73503E+005    8.01158E+007   -2.65526E+007    8.00846E+007    7.99423E+007   -1.33774E+005   -1.50884E+005    3.47654E+002    6.58341E+002   -2.99774E+004
            1596    8.00844E+007    7.99441E+007    7.99441E+007   -1.16084E+005   -1.64570E+005    8.01087E+007   -2.65545E+007    8.00844E+007    7.99441E+007   -1.41735E+005   -1.38919E+005   -1.18189E+002   -2.41795E+002   -2.42022E+004
            1597    8.00828E+007    7.99444E+007    7.99444E+007   -1.20757E+005   -1.56164E+005    8.01005E+007   -2.65558E+007    8.00828E+007    7.99444E+007   -1.47393E+005   -1.29528E+005    3.06348E+002   -5.93043E+002   -1.52843E+004
            1598    8.00830E+007    7.99457E+007    7.99457E+007   -1.23018E+005   -1.51624E+005    8.00973E+007   -2.65570E+007    8.00830E+007    7.99457E+007   -1.50612E+005   -1.24030E+005   -7.24232E+000   -9.78368E+002   -5.28406E+003
            1599    8.00825E+007    7.99450E+007    7.99450E+007   -1.23641E+005   -1.51309E+005    8.00963E+007   -2.65567E+007    8.00825E+007    7.99450E+007   -1.50020E+005   -1.24929E+005    4.89207E+001   -8.85320E+002    5.82925E+003
            1600    8.00837E+007    7.99451E+007    7.99451E+007   -1.20942E+005   -1.56157E+005    8.01013E+007   -2.65560E+007    8.00837E+007    7.99451E+007   -1.46126E+005   -1.30974E+005   -5.17992E+001   -7.61313E+002    1.58942E+004
            1601    8.00963E+007    7.99362E+007    7.99362E+007   -1.31853E+005   -1.88292E+005    8.01245E+007   -2.65387E+007    8.00963E+007    7.99362E+007   -1.46454E+005   -1.73691E+005   -2.61815E+002    1.69445E+002   -2.47158E+004
            1602    8.00938E+007    7.99379E+007    7.99379E+007   -1.18171E+005   -1.93639E+005    8.01315E+007   -2.65420E+007    8.00937E+007    7.99379E+007   -1.43148E+005   -1.68662E+005   -2.94523E+002    1.07634E+002   -3.55124E+004
            1603    8.00905E+007    7.99391E+007    7.99391E+007   -1.12541E+005   -1.90208E+005    8.01293E+007   -2.65454E+007    8.00904E+007    7.99391E+007   -1.44575E+005   -1.58174E+005    1.82450E+002   -1.83804E+000   -3.82335E+004
            1604    8.00877E+007    7.99413E+007    7.99413E+007   -1.10371E+005   -1.82250E+005    8.01236E+007   -2.65496E+007    8.00876E+007    7.99413E+007   -1.49217E+005   -1.43404E+005    2.54756E+002    2.08707E+002   -3.58220E+004
            1605    8.00842E+007    7.99428E+007    7.99428E+007   -1.10312E+005   -1.72423E+005    8.01152E+007   -2.65534E+007    8.00842E+007    7.99428E+007   -1.53569E+005   -1.29166E+005    4.26593E+002    3.93124E+002   -2.85586E+004
            1606    8.00827E+007    7.99451E+007    7.99451E+007   -1.10530E+005   -1.64605E+005    8.01097E+007   -2.65567E+007    8.00826E+007    7.99451E+007   -1.57590E+005   -1.17546E+005    4.27598E+002    6.86952E+002   -1.81699E+004
            1607    8.00811E+007    7.99453E+007    7.99453E+007   -1.11782E+005   -1.59756E+005    8.01051E+007   -2.65579E+007    8.00811E+007    7.99453E+007   -1.59225E+005   -1.12312E+005    2.62546E+000    5.66163E+002   -5.01606E+003
            1608    8.00819E+007    7.99458E+007    7.99458E+007   -1.11904E+005   -1.60224E+005    8.01060E+007   -2.65579E+007    8.00819E+007    7.99458E+007   -1.58679E+005   -1.13449E+005    3.89096E+001    6.96390E+002    8.50160E+003
            1609    8.00828E+007    7.99438E+007    7.99438E+007   -1.11998E+005   -1.65826E+005    8.01097E+007   -2.65553E+007    8.00827E+007    7.99438E+007   -1.55544E+005   -1.22279E+005   -6.56070E+002    5.68537E+002    2.11597E+004
            1610    8.01056E+007    7.99257E+007    7.99257E+007   -1.56421E+005   -2.03373E+005    8.01291E+007   -2.65220E+007    8.01056E+007    7.99257E+007   -1.73910E+005   -1.85884E+005    1.90351E+002    1.44564E+003   -2.26993E+004
            1611    8.00988E+007    7.99307E+007    7.99307E+007   -1.33785E+005   -2.02293E+005    8.01330E+007   -2.65316E+007    8.00987E+007    7.99307E+007   -1.63771E+005   -1.72307E+005   -2.69940E+001    1.74006E+003   -3.39875E+004
            1612    8.00936E+007    7.99345E+007    7.99345E+007   -1.20397E+005   -1.97759E+005    8.01323E+007   -2.65388E+007    8.00936E+007    7.99345E+007   -1.62253E+005   -1.55903E+005    9.86206E+002    1.16319E+003   -3.85503E+004
            1613    8.00894E+007    7.99405E+007    7.99405E+007   -1.10036E+005   -1.87736E+005    8.01282E+007   -2.65476E+007    8.00893E+007    7.99405E+007   -1.61342E+005   -1.36429E+005    1.92751E+002    3.53007E+002   -3.67990E+004
            1614    8.00828E+007    7.99431E+007    7.99431E+007   -1.02275E+005   -1.77169E+005    8.01202E+007   -2.65545E+007    8.00827E+007    7.99431E+007   -1.62255E+005   -1.17188E+005    6.38091E+002   -3.83341E+002   -2.99085E+004
            1615    8.00809E+007    7.99477E+007    7.99477E+007   -9.75617E+004   -1.68731E+005    8.01165E+007   -2.65605E+007    8.00808E+007    7.99477E+007   -1.63637E+005   -1.02655E+005    3.91307E+002   -9.08860E+002   -1.83450E+004
            1616    8.00775E+007    7.99476E+007    7.99476E+007   -9.56593E+004   -1.64182E+005    8.01117E+007   -2.65626E+007    8.00774E+007    7.99476E+007   -1.63929E+005   -9.59126E+004    8.30063E+000   -1.14605E+003   -4.15860E+003
            1617    8.00801E+007    7.99486E+007    7.99486E+007   -9.71384E+004   -1.65913E+005    8.01145E+007   -2.65618E+007    8.00801E+007    7.99486E+007   -1.64077E+005   -9.89738E+004    2.52962E+002   -1.14690E+003    1.10841E+004
            1618    8.00813E+007    7.99448E+007    7.99448E+007   -1.00834E+005   -1.71994E+005    8.01168E+007   -2.65573E+007    8.00812E+007    7.99448E+007   -1.62320E+005   -1.10508E+005   -7.98222E+002   -9.61608E+002    2.43895E+004
            1619    8.01153E+007    7.99237E+007    7.99237E+007   -1.72856E+005   -2.10402E+005    8.01341E+007   -2.65135E+007    8.01153E+007    7.99237E+007   -1.87692E+005   -1.95566E+005    4.96469E+002   -9.25919E+002   -1.83554E+004
            1620    8.01067E+007    7.99296E+007    7.99296E+007   -1.48667E+005   -2.05468E+005    8.01351E+007   -2.65252E+007    8.01066E+007    7.99296E+007   -1.79120E+005   -1.75015E+005   -1.25511E+003   -1.62679E+003   -2.83263E+004
            1621    8.00957E+007    7.99321E+007    7.99321E+007   -1.29028E+005   -1.98050E+005    8.01302E+007   -2.65350E+007    8.00956E+007    7.99321E+007   -1.71592E+005   -1.55486E+005    1.32353E+003   -1.15171E+002   -3.35583E+004
            1622    8.00902E+007    7.99409E+007    7.99409E+007   -1.10184E+005   -1.88277E+005    8.01292E+007   -2.65475E+007    8.00901E+007    7.99409E+007   -1.67902E+005   -1.30560E+005    4.19740E+002   -2.76354E+002   -3.42930E+004
            1623    8.00800E+007    7.99446E+007    7.99446E+007   -9.58040E+004   -1.74951E+005    8.01196E+007   -2.65580E+007    8.00799E+007    7.99446E+007   -1.63500E+005   -1.07255E+005    1.06978E+003    7.79929E+001   -2.78418E+004
            1624    8.00770E+007    7.99515E+007    7.99515E+007   -8.53250E+004   -1.65579E+005    8.01171E+007   -2.65669E+007    8.00769E+007    7.99515E+007   -1.61922E+005   -8.89814E+004    6.42189E+002    7.49290E+000   -1.67353E+004
            1625    8.00724E+007    7.99514E+007    7.99514E+007   -8.21325E+004   -1.59935E+005    8.01113E+007   -2.65698E+007    8.00723E+007    7.99514E+007   -1.59855E+005   -8.22124E+004    3.48801E+001   -2.02409E+001   -2.49305E+003
            1626    8.00764E+007    7.99525E+007    7.99525E+007   -8.40675E+004   -1.63748E+005    8.01162E+007   -2.65682E+007    8.00763E+007    7.99525E+007   -1.61871E+005   -8.59442E+004    1.12393E+002   -6.95672E+001    1.20838E+004
            1627    8.00792E+007    7.99459E+007    7.99459E+007   -9.36047E+004   -1.72794E+005    8.01187E+007   -2.65598E+007    8.00791E+007    7.99459E+007   -1.63828E+005   -1.02570E+005   -1.26716E+003    6.63709E+001    2.50916E+004
            1628    8.01154E+007    7.99137E+007    7.99137E+007   -1.89701E+005   -2.13701E+005    8.01274E+007   -2.65034E+007    8.01154E+007    7.99137E+007   -2.00474E+005   -2.02929E+005    3.40224E+003    3.89605E+003   -1.19370E+004
            1629    8.01126E+007    7.99259E+007    7.99259E+007   -1.66760E+005   -2.06558E+005    8.01325E+007   -2.65175E+007    8.01125E+007    7.99259E+007   -1.87660E+005   -1.85658E+005   -5.36906E+002    9.04625E+002   -1.98739E+004
            1630    8.00995E+007    7.99294E+007    7.99294E+007   -1.43202E+005   -1.96916E+005    8.01263E+007   -2.65298E+007    8.00995E+007    7.99294E+007   -1.79597E+005   -1.60521E+005    1.20503E+003    3.71203E+002   -2.51064E+004
            1631    8.00897E+007    7.99411E+007    7.99411E+007   -1.18043E+005   -1.79049E+005    8.01202E+007   -2.65480E+007    8.00896E+007    7.99411E+007   -1.67155E+005   -1.29938E+005    4.57393E+002   -1.44615E+002   -2.41695E+004
            1632    8.00745E+007    7.99489E+007    7.99489E+007   -9.33555E+004   -1.57765E+005    8.01067E+007   -2.65659E+007    8.00745E+007    7.99489E+007   -1.51388E+005   -9.97326E+004    8.81132E+002   -4.16386E+002   -1.92373E+004
            1633    8.00666E+007    7.99581E+007    7.99581E+007   -7.44932E+004   -1.42329E+005    8.01004E+007   -2.65804E+007    8.00665E+007    7.99581E+007   -1.40243E+005   -7.65787E+004    5.57343E+002   -6.00206E+002   -1.17101E+004
            1634    8.00612E+007    7.99595E+007    7.99595E+007   -6.68841E+004   -1.36557E+005    8.00961E+007   -2.65854E+007    8.00612E+007    7.99595E+007   -1.36535E+005   -6.69060E+004    1.22582E+002   -6.61725E+002   -1.23443E+003
            1635    8.00666E+007    7.99588E+007    7.99588E+007   -7.31056E+004   -1.42477E+005    8.01012E+007   -2.65811E+007    8.00665E+007    7.99588E+007   -1.41081E+005   -7.45023E+004   -3.48828E+001   -6.98167E+002    9.74380E+003
            1636    8.00739E+007    7.99499E+007    7.99499E+007   -9.04164E+004   -1.57536E+005    8.01075E+007   -2.65673E+007    8.00739E+007    7.99499E+007   -1.51915E+005   -9.60373E+004   -9.30317E+002   -6.51735E+002    1.85926E+004
            1637    8.00670E+007    7.99568E+007    7.99568E+007   -1.02982E+005   -1.17437E+005    8.00743E+007   -2.65788E+007    8.00670E+007    7.99568E+007   -1.17049E+005   -1.03370E+005   -6.68111E+002   -3.19143E+002   -2.33576E+003
            1638    8.00481E+007    7.99698E+007    7.99698E+007   -7.32730E+004   -8.33138E+004    8.00531E+007   -2.66044E+007    8.00481E+007    7.99698E+007   -8.28258E+004   -7.37610E+004   -2.35238E+002   -1.51737E+002   -2.15914E+003
            1639    8.00408E+007    7.99751E+007    7.99751E+007   -6.26568E+004   -6.86709E+004    8.00438E+007   -2.66146E+007    8.00408E+007    7.99751E+007   -6.86587E+004   -6.26690E+004    1.41748E+002   -1.87615E+002   -2.70929E+002
            1640    8.00480E+007    7.99694E+007    7.99694E+007   -7.40107E+004   -8.32383E+004    8.00526E+007   -2.66041E+007    8.00480E+007    7.99694E+007   -8.29195E+004   -7.43294E+004    6.49806E+002   -1.59655E+002    1.68508E+003
            1641    8.00666E+007    7.99563E+007    7.99563E+007   -1.03859E+005   -1.16810E+005    8.00731E+007   -2.65785E+007    8.00666E+007    7.99563E+007   -1.16562E+005   -1.04107E+005    7.61500E+002   -2.88730E+002    1.77525E+003
            1642    8.00889E+007    7.99397E+007    7.99397E+007   -1.40004E+005   -1.58359E+005    8.00981E+007   -2.65471E+007    8.00889E+007    7.99397E+007   -1.58184E+005   -1.40178E+005    9.79467E+002   -2.37922E+002    1.78339E+003
            1643    8.01083E+007    7.99264E+007    7.99264E+007   -1.68715E+005   -1.95121E+005    8.01215E+007   -2.65209E+007    8.01083E+007    7.99264E+007   -1.95003E+005   -1.68832E+005    4.35836E+002   -4.37668E+002   -1.75537E+003
            1644    8.01174E+007    7.99190E+007    7.99190E+007   -1.81685E+005   -2.15237E+005    8.01342E+007   -2.65074E+007    8.01174E+007    7.99190E+007   -2.09732E+005   -1.87190E+005    7.40547E+002   -3.76786E+002   -1.24256E+004
            1645    8.01186E+007    7.99191E+007    7.99191E+007   -1.81995E+005   -2.17060E+005    8.01362E+007   -2.65067E+007    8.01186E+007    7.99191E+007   -1.90694E+005   -2.08361E+005   -8.43231E+002   -1.62438E+003   -1.51447E+004
            1646    8.00424E+007    7.99742E+007    7.99742E+007   -6.49365E+004   -7.14623E+004    8.00457E+007   -2.66126E+007    8.00424E+007    7.99742E+007   -6.49804E+004   -7.14184E+004   -2.44701E+002    1.39245E+002    5.33590E+002
            1647    8.00568E+007    7.99639E+007    7.99639E+007   -8.80145E+004   -9.78113E+004    8.00617E+007   -2.65927E+007    8.00568E+007    7.99639E+007   -8.81885E+004   -9.76374E+004   -2.77364E+002    6.92947E+002    1.29373E+003
            1648    8.00791E+007    7.99482E+007    7.99482E+007   -1.24924E+005   -1.36888E+005    8.00851E+007   -2.65621E+007    8.00791E+007    7.99482E+007   -1.24936E+005   -1.36877E+005   -3.39234E+002    7.41253E+002   -3.71868E+002
            1649    8.01008E+007    7.99321E+007    7.99321E+007   -1.63486E+005   -1.73867E+005    8.01059E+007   -2.65316E+007    8.01007E+007    7.99321E+007   -1.63505E+005   -1.73848E+005   -3.43082E+002    1.05564E+003   -4.46134E+002
            1650    8.01167E+007    7.99211E+007    7.99211E+007   -1.88870E+005   -2.02300E+005    8.01234E+007   -2.65100E+007    8.01167E+007    7.99211E+007   -1.88872E+005   -2.02298E+005   -3.85518E+002    4.45655E+002    1.59834E+002
            1651    8.01248E+007    7.99144E+007    7.99144E+007   -2.02612E+005   -2.18163E+005    8.01325E+007   -2.64979E+007    8.01248E+007    7.99144E+007   -2.02685E+005   -2.18090E+005   -3.56721E+002    7.67644E+002    1.06062E+003
            1652    8.01242E+007    7.99161E+007    7.99161E+007   -1.92616E+005   -2.23448E+005    8.01396E+007   -2.65000E+007    8.01241E+007    7.99161E+007   -1.92665E+005   -2.23399E+005   -1.55193E+003   -6.90352E+002   -1.22811E+003
            1653    8.00675E+007    7.99562E+007    7.99562E+007   -7.22379E+004   -1.50244E+005    8.01065E+007   -2.65779E+007    8.00674E+007    7.99562E+007   -7.28284E+004   -1.49654E+005    3.75114E+002    3.05041E+002   -6.76105E+003
            1654    8.00773E+007    7.99492E+007    7.99492E+007   -9.03140E+004   -1.65826E+005    8.01150E+007   -2.65644E+007    8.00772E+007    7.99492E+007   -9.10613E+004   -1.65078E+005    3.30738E+002    3.96032E+002   -7.47464E+003
            1655    8.00814E+007    7.99460E+007    7.99460E+007   -1.08499E+005   -1.62249E+005    8.01082E+007   -2.65584E+007    8.00813E+007    7.99460E+007   -1.09444E+005   -1.61303E+005    5.23891E+001    1.00817E+002   -7.06489E+003
            1656    8.00828E+007    7.99453E+007    7.99453E+007   -1.22791E+005   -1.52303E+005    8.00976E+007   -2.65567E+007    8.00828E+007    7.99453E+007   -1.23863E+005   -1.51230E+005    3.46852E+002   -1.92675E+002   -5.52187E+003
            1657    8.00728E+007    7.99519E+007    7.99519E+007   -8.31801E+004   -1.58640E+005    8.01105E+007   -2.65700E+007    8.00727E+007    7.99519E+007   -8.78544E+004   -1.53965E+005    3.10484E+002   -8.79518E+002   -1.81897E+004
            1658    8.00796E+007    7.99469E+007    7.99469E+007   -9.38048E+004   -1.71588E+005    8.01185E+007   -2.65605E+007    8.00796E+007    7.99469E+007   -1.00221E+005   -1.65171E+005    2.32594E+002   -8.08447E+002   -2.13992E+004
            1659    8.00827E+007    7.99447E+007    7.99447E+007   -1.08414E+005   -1.67572E+005    8.01122E+007   -2.65562E+007    8.00826E+007    7.99447E+007   -1.16478E+005   -1.59509E+005   -2.35767E+001   -4.84753E+002   -2.02974E+004
            1660    8.00832E+007    7.99447E+007    7.99447E+007   -1.20207E+005   -1.56813E+005    8.01015E+007   -2.65559E+007    8.00832E+007    7.99447E+007   -1.29153E+005   -1.47867E+005    2.64929E+002    1.13682E+002   -1.57303E+004
            1661    8.00827E+007    7.99456E+007    7.99456E+007   -1.00823E+005   -1.73430E+005    8.01190E+007   -2.65571E+007    8.00826E+007    7.99456E+007   -1.11699E+005   -1.62554E+005    2.44657E+002   -3.00797E+000   -2.59114E+004
            1662    8.00854E+007    7.99435E+007    7.99435E+007   -1.01728E+005   -1.82113E+005    8.01256E+007   -2.65532E+007    8.00853E+007    7.99435E+007   -1.18018E+005   -1.65824E+005    2.39880E+002    2.65745E+002   -3.23124E+004
            1663    8.00851E+007    7.99430E+007    7.99430E+007   -1.08325E+005   -1.75783E+005    8.01188E+007   -2.65530E+007    8.00851E+007    7.99430E+007   -1.28408E+005   -1.55699E+005   -6.97085E+001   -1.33169E+002   -3.08450E+004
            1664    8.00844E+007    7.99437E+007    7.99437E+007   -1.15874E+005   -1.65587E+005    8.01093E+007   -2.65541E+007    8.00844E+007    7.99437E+007   -1.38909E+005   -1.42552E+005    6.64896E+000   -1.96752E+002   -2.47895E+004
            1665    8.00937E+007    7.99359E+007    7.99359E+007   -1.24666E+005   -1.90983E+005    8.01269E+007   -2.65401E+007    8.00937E+007    7.99359E+007   -1.41019E+005   -1.74630E+005    7.42202E+001   -1.30385E+003   -2.85845E+004
            1666    8.00906E+007    7.99381E+007    7.99381E+007   -1.12220E+005   -1.92802E+005    8.01309E+007   -2.65444E+007    8.00906E+007    7.99381E+007   -1.39167E+005   -1.65855E+005   -2.33958E+002   -1.09600E+003   -3.80173E+004
            1667    8.00884E+007    7.99403E+007    7.99403E+007   -1.10381E+005   -1.85723E+005    8.01261E+007   -2.65481E+007    8.00883E+007    7.99403E+007   -1.43966E+005   -1.52138E+005   -4.46998E+001   -6.06982E+002   -3.74485E+004
            1668    8.00853E+007    7.99426E+007    7.99426E+007   -1.10539E+005   -1.74885E+005    8.01175E+007   -2.65524E+007    8.00852E+007    7.99426E+007   -1.50101E+005   -1.35323E+005   -3.29463E+002    9.99173E+001   -3.13133E+004
            1669    8.01048E+007    7.99303E+007    7.99303E+007   -1.44237E+005   -2.04728E+005    8.01350E+007   -2.65271E+007    8.01047E+007    7.99303E+007   -1.64097E+005   -1.84867E+005    2.86767E+002    5.06521E+002   -2.84067E+004
            1670    8.00981E+007    7.99342E+007    7.99342E+007   -1.25478E+005   -2.02309E+005    8.01365E+007   -2.65355E+007    8.00980E+007    7.99342E+007   -1.60392E+005   -1.67395E+005   -2.37972E+002    6.47070E+002   -3.82555E+004
            1671    8.00917E+007    7.99383E+007    7.99383E+007   -1.13747E+005   -1.93073E+005    8.01313E+007   -2.65438E+007    8.00916E+007    7.99383E+007   -1.58168E+005   -1.48652E+005    1.41038E+002    8.54159E+001   -3.93765E+004
            1672    8.00864E+007    7.99414E+007    7.99414E+007   -1.06883E+005   -1.83204E+005    8.01246E+007   -2.65504E+007    8.00864E+007    7.99414E+007   -1.60879E+005   -1.29208E+005   -8.94072E+002   -1.29124E+002   -3.47202E+004
            1673    8.01103E+007    7.99228E+007    7.99228E+007   -1.61643E+005   -2.13276E+005    8.01361E+007   -2.65160E+007    8.01103E+007    7.99228E+007   -1.84126E+005   -1.90792E+005    1.79886E+001   -1.80783E+003   -2.56004E+004
            1674    8.01033E+007    7.99288E+007    7.99288E+007   -1.41449E+005   -2.07512E+005    8.01363E+007   -2.65266E+007    8.01033E+007    7.99288E+007   -1.76724E+005   -1.72237E+005   -1.50616E+003   -1.36705E+003   -3.29553E+004
            1675    8.00963E+007    7.99361E+007    7.99361E+007   -1.22257E+005   -1.98211E+005    8.01343E+007   -2.65385E+007    8.00963E+007    7.99361E+007   -1.70739E+005   -1.49728E+005    6.42042E+002    5.73524E+000   -3.64950E+004
            1676    8.00862E+007    7.99406E+007    7.99406E+007   -1.06232E+005   -1.84945E+005    8.01256E+007   -2.65498E+007    8.00862E+007    7.99406E+007   -1.66716E+005   -1.24461E+005   -1.20072E+003    3.99231E+001   -3.32049E+004
            1677    8.01172E+007    7.99237E+007    7.99237E+007   -1.77277E+005   -2.09766E+005    8.01335E+007   -2.65122E+007    8.01172E+007    7.99237E+007   -1.93061E+005   -1.93982E+005    2.66031E+003    2.85042E+003   -1.62381E+004
            1678    8.01082E+007    7.99241E+007    7.99241E+007   -1.58050E+005   -2.10078E+005    8.01342E+007   -2.65187E+007    8.01081E+007    7.99241E+007   -1.89713E+005   -1.78415E+005   -1.70704E+003    7.93761E+001   -2.53933E+004
            1679    8.01009E+007    7.99335E+007    7.99335E+007   -1.37927E+005   -1.96812E+005    8.01303E+007   -2.65329E+007    8.01008E+007    7.99335E+007   -1.80976E+005   -1.53763E+005    4.31798E+002    3.20402E+002   -2.61100E+004
            1680    8.00871E+007    7.99402E+007    7.99402E+007   -1.15310E+005   -1.78469E+005    8.01187E+007   -2.65488E+007    8.00871E+007    7.99402E+007   -1.67043E+005   -1.26736E+005   -1.18764E+003    9.15140E+001   -2.43128E+004
            1681    8.00895E+007    7.99402E+007    7.99402E+007   -1.40073E+005   -1.58534E+005    8.00988E+007   -2.65472E+007    8.00895E+007    7.99402E+007   -1.58416E+005   -1.40191E+005   -3.55015E+002    2.33835E+002    1.47120E+003
            1682    8.01098E+007    7.99258E+007    7.99258E+007   -1.72184E+005   -1.95877E+005    8.01217E+007   -2.65192E+007    8.01098E+007    7.99258E+007   -1.95838E+005   -1.72224E+005   -4.52970E+002    7.72758E+001    9.69964E+002
            1683    8.01193E+007    7.99192E+007    7.99192E+007   -1.79222E+005   -2.21054E+005    8.01402E+007   -2.65063E+007    8.01193E+007    7.99192E+007   -2.20525E+005   -1.79752E+005   -1.60785E+002    1.93271E+001   -4.67719E+003
            1684    8.01198E+007    7.99186E+007    7.99186E+007   -1.64879E+005   -2.37447E+005    8.01561E+007   -2.65054E+007    8.01198E+007    7.99186E+007   -2.16357E+005   -1.85969E+005   -2.81212E+002   -8.79128E+002   -3.29495E+004
            1685    8.00442E+007    7.99720E+007    7.99720E+007   -6.60088E+004   -7.84265E+004    8.00504E+007   -2.66092E+007    8.00442E+007    7.99720E+007   -6.60548E+004   -7.83805E+004    1.40119E+002   -1.38222E+002    7.54256E+002
            1686    8.00577E+007    7.99626E+007    7.99626E+007   -8.76813E+004   -1.02560E+005    8.00652E+007   -2.65908E+007    8.00577E+007    7.99626E+007   -8.77328E+004   -1.02508E+005    1.71854E+002   -3.30517E+002    8.74049E+002
            1687    8.00788E+007    7.99477E+007    7.99477E+007   -1.22929E+005   -1.39331E+005    8.00870E+007   -2.65618E+007    8.00788E+007    7.99477E+007   -1.23063E+005   -1.39197E+005    1.82562E+002   -5.08327E+002    1.47510E+003
            1688    8.01001E+007    7.99328E+007    7.99328E+007   -1.57169E+005   -1.77482E+005    8.01102E+007   -2.65327E+007    8.01001E+007    7.99328E+007   -1.57266E+005   -1.77385E+005    1.99358E+002   -3.81951E+002    1.40065E+003
            1689    8.01176E+007    7.99203E+007    7.99203E+007   -1.83904E+005   -2.10718E+005    8.01310E+007   -2.65086E+007    8.01176E+007    7.99203E+007   -1.84025E+005   -2.10596E+005    4.32837E+001   -3.93804E+002    1.80336E+003
            1690    8.01226E+007    7.99167E+007    7.99167E+007   -1.81191E+005   -2.30717E+005    8.01474E+007   -2.65016E+007    8.01226E+007    7.99167E+007   -1.81569E+005   -2.30338E+005   -4.49357E+001   -8.97123E+001   -4.31406E+003
            1691    8.01206E+007    7.99181E+007    7.99181E+007   -1.63124E+005   -2.41808E+005    8.01599E+007   -2.65044E+007    8.01205E+007    7.99181E+007   -1.83700E+005   -2.21232E+005   -9.03365E+002   -1.93370E+002   -3.45777E+004
            1692    8.00667E+007    7.99559E+007    7.99559E+007   -1.03802E+005   -1.17821E+005    8.00737E+007   -2.65781E+007    8.00667E+007    7.99559E+007   -1.17390E+005   -1.04232E+005   -4.25762E+002    1.72447E+002    2.41770E+003
            1693    8.00478E+007    7.99693E+007    7.99693E+007   -7.35544E+004   -8.33542E+004    8.00527E+007   -2.66041E+007    8.00478E+007    7.99693E+007   -8.27829E+004   -7.41256E+004   -1.85395E+002    2.20396E+002    2.29598E+003
            1694    8.00398E+007    7.99745E+007    7.99745E+007   -6.26565E+004   -6.80118E+004    8.00425E+007   -2.66146E+007    8.00398E+007    7.99745E+007   -6.79797E+004   -6.26885E+004    2.78671E+001    1.36638E+002    4.12811E+002
            1695    8.00474E+007    7.99695E+007    7.99695E+007   -7.37165E+004   -8.20727E+004    8.00516E+007   -2.66046E+007    8.00474E+007    7.99695E+007   -8.16608E+004   -7.41284E+004    2.35167E+002    2.10916E+002   -1.80899E+003
            1696    8.00662E+007    7.99561E+007    7.99561E+007   -1.03884E+005   -1.16315E+005    8.00724E+007   -2.65786E+007    8.00662E+007    7.99561E+007   -1.15862E+005   -1.04336E+005    4.42600E+002    1.45524E+002   -2.32917E+003
            1697    8.00898E+007    7.99401E+007    7.99401E+007   -1.40704E+005   -1.58675E+005    8.00988E+007   -2.65469E+007    8.00898E+007    7.99401E+007   -1.58347E+005   -1.41031E+005    3.21310E+002    2.09837E+002   -2.40285E+003
            1698    8.01094E+007    7.99260E+007    7.99260E+007   -1.70197E+005   -1.96515E+005    8.01225E+007   -2.65198E+007    8.01094E+007    7.99260E+007   -1.96463E+005   -1.70249E+005    4.51296E+002   -1.15665E+001    1.17194E+003
            1699    8.01193E+007    7.99196E+007    7.99196E+007   -1.83102E+005   -2.16256E+005    8.01359E+007   -2.65067E+007    8.01193E+007    7.99196E+007   -2.10577E+005   -1.88780E+005    2.40290E+001   -4.72907E+001    1.24904E+004
            1700    8.01200E+007    7.99180E+007    7.99180E+007   -1.83388E+005   -2.20700E+005    8.01387E+007   -2.65046E+007    8.01200E+007    7.99180E+007   -1.93070E+005   -2.11018E+005    7.23623E+002   -1.32440E+003    1.63553E+004
            1701    8.00754E+007    7.99515E+007    7.99515E+007   -9.05611E+004   -1.57196E+005    8.01087E+007   -2.65679E+007    8.00754E+007    7.99515E+007   -1.51467E+005   -9.62900E+004   -2.25978E+001    1.33642E+002   -1.86794E+004
            1702    8.00804E+007    7.99480E+007    7.99480E+007   -9.24980E+004   -1.72335E+005    8.01203E+007   -2.65610E+007    8.00803E+007    7.99480E+007   -1.63707E+005   -1.01127E+005    3.26610E+002    5.63913E+002   -2.47882E+004
            1703    8.00826E+007    7.99459E+007    7.99459E+007   -1.01043E+005   -1.72205E+005    8.01181E+007   -2.65576E+007    8.00825E+007    7.99459E+007   -1.62458E+005   -1.10790E+005    4.51349E+001   -2.67453E+002   -2.44662E+004
            1704    8.00831E+007    7.99448E+007    7.99448E+007   -1.11147E+005   -1.65450E+005    8.01102E+007   -2.65561E+007    8.00831E+007    7.99448E+007   -1.55434E+005   -1.21163E+005    4.47327E+001    5.21622E+002   -2.10614E+004
            1705    8.00830E+007    7.99442E+007    7.99442E+007   -1.21291E+005   -1.56276E+005    8.01005E+007   -2.65555E+007    8.00830E+007    7.99442E+007   -1.46496E+005   -1.31071E+005   -2.59918E+002   -6.16790E+002   -1.57003E+004
            1706    8.00828E+007    7.99441E+007    7.99441E+007   -1.28790E+005   -1.48588E+005    8.00927E+007   -2.65556E+007    8.00828E+007    7.99441E+007   -1.38693E+005   -1.38686E+005   -2.69821E+002    4.63814E+002   -9.89896E+003
            1707    8.00826E+007    7.99441E+007    7.99441E+007   -1.33131E+005   -1.43844E+005    8.00880E+007   -2.65557E+007    8.00826E+007    7.99441E+007   -1.34227E+005   -1.42748E+005   -3.14351E+002   -5.86954E+002   -3.24568E+003
            1708    8.00645E+007    7.99570E+007    7.99570E+007   -7.39294E+004   -1.41081E+005    8.00981E+007   -2.65807E+007    8.00644E+007    7.99570E+007   -1.39557E+005   -7.54536E+004   -5.29242E+002    1.21311E+002   -1.00015E+004
            1709    8.00730E+007    7.99504E+007    7.99504E+007   -8.30097E+004   -1.62126E+005    8.01125E+007   -2.65684E+007    8.00729E+007    7.99504E+007   -1.60315E+005   -8.48201E+004   -5.74538E+002    5.58734E+002   -1.18303E+004
            1710    8.00789E+007    7.99470E+007    7.99470E+007   -9.80454E+004   -1.65740E+005    8.01127E+007   -2.65611E+007    8.00788E+007    7.99470E+007   -1.63904E+005   -9.98810E+004   -4.86378E+002   -3.03014E+002   -1.09950E+004
            1711    8.00811E+007    7.99457E+007    7.99457E+007   -1.11095E+005   -1.59774E+005    8.01055E+007   -2.65583E+007    8.00811E+007    7.99457E+007   -1.58401E+005   -1.12467E+005   -1.39711E+002    8.63947E+002   -8.05704E+003
            1712    8.00828E+007    7.99450E+007    7.99450E+007   -1.24018E+005   -1.51568E+005    8.00966E+007   -2.65565E+007    8.00828E+007    7.99450E+007   -1.50415E+005   -1.25171E+005    3.36120E+001   -6.44767E+002   -5.51512E+003
            1713    8.00834E+007    7.99454E+007    7.99454E+007   -1.32508E+005   -1.43528E+005    8.00889E+007   -2.65564E+007    8.00834E+007    7.99454E+007   -1.42704E+005   -1.33331E+005    2.54661E+002    8.41476E+002   -2.89837E+003
            1714    8.00836E+007    7.99453E+007    7.99453E+007   -1.37170E+005   -1.39391E+005    8.00847E+007   -2.65563E+007    8.00836E+007    7.99453E+007   -1.38434E+005   -1.38126E+005    2.88827E+002   -7.53443E+002   -1.09972E+003
            1715    8.00623E+007    7.99608E+007    7.99608E+007   -6.72016E+004   -1.35824E+005    8.00966E+007   -2.65859E+007    8.00622E+007    7.99608E+007   -1.35810E+005   -6.72156E+004    2.07654E+002    1.24714E+002    9.79883E+002
            1716    8.00733E+007    7.99531E+007    7.99531E+007   -8.04902E+004   -1.59696E+005    8.01128E+007   -2.65710E+007    8.00732E+007    7.99531E+007   -1.59616E+005   -8.05699E+004    3.08582E+002    6.87923E+002    2.51131E+003
            1717    8.00793E+007    7.99486E+007    7.99486E+007   -9.65199E+004   -1.64780E+005    8.01134E+007   -2.65625E+007    8.00792E+007    7.99486E+007   -1.64475E+005   -9.68246E+004    2.56258E+002   -3.26723E+002    4.55084E+003
            1718    8.00815E+007    7.99462E+007    7.99462E+007   -1.10958E+005   -1.59574E+005    8.01058E+007   -2.65586E+007    8.00815E+007    7.99462E+007   -1.58957E+005   -1.11576E+005    1.29567E+002    8.14903E+002    5.44601E+003
            1719    8.00823E+007    7.99446E+007    7.99446E+007   -1.23741E+005   -1.51677E+005    8.00962E+007   -2.65564E+007    8.00823E+007    7.99446E+007   -1.50521E+005   -1.24897E+005   -1.90019E+001   -7.84802E+002    5.56261E+003
            1720    8.00823E+007    7.99441E+007    7.99441E+007   -1.32522E+005   -1.43870E+005    8.00880E+007   -2.65559E+007    8.00823E+007    7.99441E+007   -1.42429E+005   -1.33963E+005   -1.10501E+002    7.48555E+002    3.77850E+003
            1721    8.00821E+007    7.99437E+007    7.99437E+007   -1.36775E+005   -1.39996E+005    8.00837E+007   -2.65556E+007    8.00821E+007    7.99437E+007   -1.37879E+005   -1.38893E+005   -1.44430E+002   -8.12629E+002    1.52869E+003
            1722    8.00649E+007    7.99567E+007    7.99567E+007   -7.52095E+004   -1.41177E+005    8.00979E+007   -2.65801E+007    8.00648E+007    7.99567E+007   -1.39113E+005   -7.72734E+004    2.94292E+002    1.04995E+002    1.14842E+004
            1723    8.00742E+007    7.99495E+007    7.99495E+007   -8.49134E+004   -1.64293E+005    8.01138E+007   -2.65668E+007    8.00741E+007    7.99495E+007   -1.60690E+005   -8.85163E+004    1.86316E+002    5.12276E+002    1.65232E+004
            1724    8.00800E+007    7.99460E+007    7.99460E+007   -9.89432E+004   -1.68944E+005    8.01149E+007   -2.65594E+007    8.00799E+007    7.99460E+007   -1.63411E+005   -1.04476E+005    2.54088E+002   -3.32326E+002    1.88859E+004
            1725    8.00822E+007    7.99449E+007    7.99449E+007   -1.10382E+005   -1.64324E+005    8.01092E+007   -2.65567E+007    8.00822E+007    7.99449E+007   -1.56915E+005   -1.17791E+005    1.19601E+002    7.55686E+002    1.85682E+004
            1726    8.00834E+007    7.99446E+007    7.99446E+007   -1.21219E+005   -1.56461E+005    8.01010E+007   -2.65556E+007    8.00834E+007    7.99446E+007   -1.47197E+005   -1.30482E+005    1.42300E+002   -6.31869E+002    1.55131E+004
            1727    8.00838E+007    7.99454E+007    7.99454E+007   -1.27877E+005   -1.48936E+005    8.00943E+007   -2.65562E+007    8.00838E+007    7.99454E+007   -1.38130E+005   -1.38682E+005   -1.25649E+001    7.16871E+002    1.05255E+004
            1728    8.00836E+007    7.99455E+007    7.99455E+007   -1.31856E+005   -1.44387E+005    8.00899E+007   -2.65564E+007    8.00836E+007    7.99455E+007   -1.32899E+005   -1.43344E+005   -4.30678E+001   -6.60058E+002    3.46195E+003
            1729    8.00766E+007    7.99503E+007    7.99503E+007   -9.41024E+004   -1.58471E+005    8.01088E+007   -2.65659E+007    8.00766E+007    7.99503E+007   -1.52097E+005   -1.00476E+005    4.28736E+002    1.28616E+002    1.92262E+004
            1730    8.00824E+007    7.99465E+007    7.99465E+007   -9.61461E+004   -1.75658E+005    8.01221E+007   -2.65582E+007    8.00823E+007    7.99465E+007   -1.64234E+005   -1.07570E+005    2.06292E+002    4.78548E+002    2.78897E+004
            1731    8.00849E+007    7.99441E+007    7.99441E+007   -1.03340E+005   -1.78224E+005    8.01223E+007   -2.65542E+007    8.00848E+007    7.99441E+007   -1.62530E+005   -1.19034E+005    3.62658E+002   -2.68028E+002    3.04791E+004
            1732    8.00850E+007    7.99436E+007    7.99436E+007   -1.10530E+005   -1.72417E+005    8.01160E+007   -2.65535E+007    8.00850E+007    7.99436E+007   -1.52850E+005   -1.30098E+005    8.80045E+001    3.13155E+002    2.87764E+004
            1733    8.00838E+007    7.99433E+007    7.99433E+007   -1.16451E+005   -1.64583E+005    8.01079E+007   -2.65541E+007    8.00838E+007    7.99433E+007   -1.40909E+005   -1.40125E+005    1.85714E+002   -5.83230E+002    2.40626E+004
            1734    8.00827E+007    7.99441E+007    7.99441E+007   -1.20747E+005   -1.56580E+005    8.01006E+007   -2.65556E+007    8.00827E+007    7.99441E+007   -1.29958E+005   -1.47368E+005    7.74022E+001    2.03742E+002    1.56596E+004
            1735    8.00817E+007    7.99442E+007    7.99442E+007   -1.22753E+005   -1.52285E+005    8.00965E+007   -2.65564E+007    8.00817E+007    7.99442E+007   -1.23815E+005   -1.51223E+005    1.21700E+002   -4.43181E+002    5.49689E+003
            1736    8.00886E+007    7.99392E+007    7.99392E+007   -1.19057E+005   -1.79730E+005    8.01190E+007   -2.65468E+007    8.00886E+007    7.99392E+007   -1.67791E+005   -1.30996E+005    8.25479E+002    9.73403E+001    2.41213E+004
            1737    8.00890E+007    7.99387E+007    7.99387E+007   -1.11994E+005   -1.88527E+005    8.01272E+007   -2.65461E+007    8.00889E+007    7.99387E+007   -1.67751E+005   -1.32770E+005    6.78010E+002   -1.07591E+002    3.40353E+004
            1738    8.00888E+007    7.99393E+007    7.99393E+007   -1.10918E+005   -1.88135E+005    8.01274E+007   -2.65467E+007    8.00887E+007    7.99393E+007   -1.60816E+005   -1.38237E+005    6.16437E+002   -7.93361E+001    3.69212E+004
            1739    8.00875E+007    7.99410E+007    7.99410E+007   -1.10855E+005   -1.82177E+005    8.01231E+007   -2.65493E+007    8.00874E+007    7.99410E+007   -1.48095E+005   -1.44937E+005    2.36874E+002   -1.93157E+002    3.56259E+004
            1740    8.00852E+007    7.99432E+007    7.99432E+007   -1.10917E+005   -1.72954E+005    8.01162E+007   -2.65531E+007    8.00851E+007    7.99432E+007   -1.32458E+005   -1.51413E+005   -1.49929E+001   -8.87151E+001    2.95352E+004
            1741    8.00831E+007    7.99454E+007    7.99454E+007   -1.10745E+005   -1.64609E+005    8.01100E+007   -2.65567E+007    8.00831E+007    7.99454E+007   -1.19218E+005   -1.56135E+005   -3.03490E+002   -1.47739E+002    1.96119E+004
            1742    8.00817E+007    7.99466E+007    7.99466E+007   -1.10483E+005   -1.59718E+005    8.01063E+007   -2.65588E+007    8.00816E+007    7.99466E+007   -1.11395E+005   -1.58806E+005   -4.16355E+002    2.58072E+001    6.63947E+003
            1743    8.01026E+007    7.99321E+007    7.99321E+007   -1.43208E+005   -1.97765E+005    8.01299E+007   -2.65304E+007    8.01026E+007    7.99321E+007   -1.80534E+005   -1.60439E+005   -4.08179E+001    3.98909E+002    2.53601E+004
            1744    8.00993E+007    7.99343E+007    7.99343E+007   -1.30434E+005   -1.99549E+005    8.01338E+007   -2.65348E+007    8.00992E+007    7.99343E+007   -1.72503E+005   -1.57479E+005   -2.51412E+002   -2.37880E+002    3.37312E+004
            1745    8.00950E+007    7.99364E+007    7.99364E+007   -1.20076E+005   -1.97053E+005    8.01335E+007   -2.65398E+007    8.00950E+007    7.99364E+007   -1.60819E+005   -1.56310E+005   -9.69829E+001    3.25766E+002    3.84223E+004
            1746    8.00901E+007    7.99391E+007    7.99391E+007   -1.12456E+005   -1.89462E+005    8.01286E+007   -2.65457E+007    8.00900E+007    7.99391E+007   -1.43082E+005   -1.58836E+005    3.53759E+001   -8.96886E+002    3.76890E+004
            1747    8.00854E+007    7.99430E+007    7.99430E+007   -1.05399E+005   -1.79438E+005    8.01224E+007   -2.65527E+007    8.00854E+007    7.99430E+007   -1.24004E+005   -1.60833E+005   -3.38251E+001   -2.88144E+001    3.21145E+004
            1748    8.00809E+007    7.99458E+007    7.99458E+007   -9.99966E+004   -1.70031E+005    8.01158E+007   -2.65586E+007    8.00808E+007    7.99458E+007   -1.07281E+005   -1.62747E+005   -2.23896E+001   -7.62025E+002    2.13805E+004
            1749    8.00785E+007    7.99479E+007    7.99479E+007   -9.67527E+004   -1.64412E+005    8.01123E+007   -2.65622E+007    8.00784E+007    7.99479E+007   -9.75885E+004   -1.63577E+005   -9.23553E+001    2.18272E+002    7.47370E+003
            1750    8.01095E+007    7.99234E+007    7.99234E+007   -1.67397E+005   -2.04886E+005    8.01283E+007   -2.65170E+007    8.01095E+007    7.99234E+007   -1.87539E+005   -1.84744E+005    1.14540E+003    4.08469E+002    1.86923E+004
            1751    8.01057E+007    7.99267E+007    7.99267E+007   -1.50424E+005   -2.07704E+005    8.01344E+007   -2.65228E+007    8.01057E+007    7.99267E+007   -1.80464E+005   -1.77664E+005    1.24759E+003   -1.70416E+003    2.86056E+004
            1752    8.01006E+007    7.99327E+007    7.99327E+007   -1.33484E+005   -2.02182E+005    8.01349E+007   -2.65324E+007    8.01005E+007    7.99327E+007   -1.63255E+005   -1.72411E+005    8.05131E+001    8.28195E+002    3.40426E+004
            1753    8.00922E+007    7.99370E+007    7.99370E+007   -1.17842E+005   -1.92601E+005    8.01296E+007   -2.65422E+007    8.00921E+007    7.99370E+007   -1.42116E+005   -1.68327E+005    1.45834E+002   -1.24308E+003    3.50072E+004
            1754    8.00849E+007    7.99443E+007    7.99443E+007   -1.01680E+005   -1.79492E+005    8.01237E+007   -2.65544E+007    8.00848E+007    7.99443E+007   -1.16449E+005   -1.64723E+005   -2.75362E+002    4.02585E+002    3.05132E+004
            1755    8.00771E+007    7.99489E+007    7.99489E+007   -8.94825E+004   -1.66976E+005    8.01159E+007   -2.65641E+007    8.00771E+007    7.99489E+007   -9.53887E+004   -1.61070E+005   -2.97851E+002   -8.91620E+002    2.05624E+004
            1756    8.00732E+007    7.99525E+007    7.99525E+007   -8.15954E+004   -1.59612E+005    8.01121E+007   -2.65704E+007    8.00731E+007    7.99525E+007   -8.22956E+004   -1.58912E+005   -3.89622E+002    4.66671E+002    7.35771E+003
            1757    8.01202E+007    7.99225E+007    7.99225E+007   -1.86450E+005   -2.08909E+005    8.01314E+007   -2.65091E+007    8.01202E+007    7.99225E+007   -1.97170E+005   -1.98189E+005   -2.27616E+003    2.86047E+003    1.12179E+004
            1758    8.01127E+007    7.99217E+007    7.99217E+007   -1.73097E+005   -2.08861E+005    8.01306E+007   -2.65132E+007    8.01127E+007    7.99217E+007   -1.86778E+005   -1.95180E+005   -5.68634E+001   -1.61578E+003    1.73810E+004
            1759    8.01075E+007    7.99288E+007    7.99288E+007   -1.55077E+005   -2.02371E+005    8.01311E+007   -2.65238E+007    8.01075E+007    7.99288E+007   -1.72054E+005   -1.85394E+005   -2.01815E+002    4.84878E+002    2.26868E+004
            1760    8.00947E+007    7.99355E+007    7.99355E+007   -1.31091E+005   -1.87374E+005    8.01228E+007   -2.65390E+007    8.00947E+007    7.99355E+007   -1.45594E+005   -1.72871E+005   -1.27466E+002   -1.24768E+003    2.46161E+004
            1761    8.00823E+007    7.99460E+007    7.99460E+007   -1.05489E+005   -1.67116E+005    8.01131E+007   -2.65578E+007    8.00822E+007    7.99460E+007   -1.15211E+005   -1.57394E+005   -2.09131E+002   -5.68549E+001    2.24637E+004
            1762    8.00696E+007    7.99542E+007    7.99542E+007   -8.25170E+004   -1.48440E+005    8.01026E+007   -2.65744E+007    8.00696E+007    7.99542E+007   -8.67658E+004   -1.44191E+005   -3.08984E+002   -8.65540E+002    1.61878E+004
            1763    8.00627E+007    7.99597E+007    7.99597E+007   -6.93658E+004   -1.36715E+005    8.00964E+007   -2.65845E+007    8.00627E+007    7.99597E+007   -6.98715E+004   -1.36209E+005   -3.44226E+002    2.42245E+002    5.81395E+003
            1764    8.00422E+007    7.99735E+007    7.99735E+007   -6.57593E+004   -7.16602E+004    8.00452E+007   -2.66120E+007    8.00422E+007    7.99735E+007   -6.58426E+004   -7.15770E+004   -9.55504E+001   -2.19964E+002   -6.96054E+002
            1765    8.00566E+007    7.99635E+007    7.99635E+007   -8.83617E+004   -9.78942E+004    8.00614E+007   -2.65924E+007    8.00566E+007    7.99635E+007   -8.85326E+004   -9.77234E+004   -1.52334E+002   -2.44461E+002   -1.26461E+003
            1766    8.00787E+007    7.99480E+007    7.99480E+007   -1.24783E+005   -1.36621E+005    8.00846E+007   -2.65622E+007    8.00787E+007    7.99480E+007   -1.24789E+005   -1.36616E+005   -1.83784E+002   -5.16788E+002    2.58318E+002
            1767    8.01004E+007    7.99328E+007    7.99328E+007   -1.62354E+005   -1.72699E+005    8.01055E+007   -2.65326E+007    8.01004E+007    7.99328E+007   -1.62379E+005   -1.72675E+005   -2.15766E+002   -2.42651E+002    4.98800E+002
            1768    8.01161E+007    7.99215E+007    7.99215E+007   -1.88216E+005   -2.00956E+005    8.01225E+007   -2.65108E+007    8.01161E+007    7.99215E+007   -1.88216E+005   -2.00955E+005   -8.38774E+001   -4.06203E+002   -7.91737E+001
            1769    8.01249E+007    7.99154E+007    7.99154E+007   -2.02566E+005   -2.16293E+005    8.01317E+007   -2.64989E+007    8.01249E+007    7.99154E+007   -2.02678E+005   -2.16181E+005   -4.00667E+001    9.01189E+000   -1.23544E+003
            1770    8.01246E+007    7.99150E+007    7.99150E+007   -1.94668E+005   -2.24520E+005    8.01396E+007   -2.64986E+007    8.01246E+007    7.99150E+007   -1.94849E+005   -2.24339E+005    1.06385E+003   -4.32113E+002    2.31537E+003
            1771    8.01199E+007    7.99187E+007    7.99187E+007   -1.64197E+005   -2.38261E+005    8.01570E+007   -2.65054E+007    8.01199E+007    7.99187E+007   -2.16151E+005   -1.86307E+005   -2.33392E+002    9.05505E+002    3.38926E+004
            1772    8.01197E+007    7.99191E+007    7.99191E+007   -1.78911E+005   -2.22406E+005    8.01415E+007   -2.65059E+007    8.01197E+007    7.99191E+007   -2.21797E+005   -1.79520E+005   -2.41986E+002   -8.07276E+001    5.11101E+003
            1773    8.01104E+007    7.99256E+007    7.99256E+007   -1.72628E+005   -1.97044E+005    8.01226E+007   -2.65186E+007    8.01104E+007    7.99256E+007   -1.96999E+005   -1.72674E+005   -3.85636E+002   -6.19487E+001   -1.05509E+003
            1774    8.00898E+007    7.99402E+007    7.99402E+007   -1.40217E+005   -1.59033E+005    8.00992E+007   -2.65470E+007    8.00898E+007    7.99402E+007   -1.58883E+005   -1.40366E+005   -4.07230E+002   -2.63753E+002   -1.66898E+003
            1775    8.00874E+007    7.99403E+007    7.99403E+007   -1.15050E+005   -1.79060E+005    8.01194E+007   -2.65487E+007    8.00873E+007    7.99403E+007   -1.67378E+005   -1.26732E+005   -1.08627E+003   -1.05146E+002    2.47246E+004
            1776    8.00865E+007    7.99407E+007    7.99407E+007   -1.06292E+005   -1.85244E+005    8.01259E+007   -2.65497E+007    8.00864E+007    7.99407E+007   -1.66820E+005   -1.24716E+005   -1.07927E+003   -1.25888E+002    3.33940E+004
            1777    8.00865E+007    7.99414E+007    7.99414E+007   -1.07040E+005   -1.83051E+005    8.01245E+007   -2.65504E+007    8.00864E+007    7.99414E+007   -1.60555E+005   -1.29536E+005   -8.71952E+002    1.60654E+002    3.46962E+004
            1778    8.00854E+007    7.99427E+007    7.99427E+007   -1.10734E+005   -1.74511E+005    8.01172E+007   -2.65525E+007    8.00853E+007    7.99427E+007   -1.49877E+005   -1.35368E+005   -3.45956E+002   -2.11958E+002    3.10522E+004
            1779    8.00843E+007    7.99436E+007    7.99436E+007   -1.16050E+005   -1.65416E+005    8.01090E+007   -2.65540E+007    8.00843E+007    7.99436E+007   -1.38596E+005   -1.42870E+005   -1.45444E+002    2.57480E+002    2.45905E+004
            1780    8.00834E+007    7.99448E+007    7.99448E+007   -1.20264E+005   -1.56819E+005    8.01016E+007   -2.65559E+007    8.00834E+007    7.99448E+007   -1.28983E+005   -1.48100E+005    1.66501E+002   -1.72576E+002    1.55787E+004
            1781    8.00827E+007    7.99451E+007    7.99451E+007   -1.22792E+005   -1.52277E+005    8.00974E+007   -2.65567E+007    8.00826E+007    7.99451E+007   -1.23844E+005   -1.51225E+005    2.90314E+002    2.05804E+002    5.46994E+003
            1782    8.01012E+007    7.99334E+007    7.99334E+007   -1.37869E+005   -1.97542E+005    8.01310E+007   -2.65327E+007    8.01011E+007    7.99334E+007   -1.81243E+005   -1.54168E+005    3.24568E+002   -3.22916E+002    2.65889E+004
            1783    8.00964E+007    7.99361E+007    7.99361E+007   -1.22085E+005   -1.98413E+005    8.01346E+007   -2.65385E+007    8.00963E+007    7.99361E+007   -1.70472E+005   -1.50026E+005    5.59083E+002   -9.53970E+001    3.67691E+004
            1784    8.00917E+007    7.99382E+007    7.99382E+007   -1.13719E+005   -1.93035E+005    8.01313E+007   -2.65438E+007    8.00916E+007    7.99382E+007   -1.57675E+005   -1.49080E+005    7.78505E+001   -4.99245E+001    3.94246E+004
            1785    8.00884E+007    7.99405E+007    7.99405E+007   -1.10210E+005   -1.85410E+005    8.01259E+007   -2.65483E+007    8.00883E+007    7.99405E+007   -1.43272E+005   -1.52349E+005   -1.65654E+001    5.04309E+002    3.73251E+004
            1786    8.00849E+007    7.99431E+007    7.99431E+007   -1.08258E+005   -1.75334E+005    8.01184E+007   -2.65532E+007    8.00848E+007    7.99431E+007   -1.28052E+005   -1.55539E+005   -2.92156E+000    1.48393E+002    3.05930E+004
            1787    8.00826E+007    7.99448E+007    7.99448E+007   -1.08193E+005   -1.67424E+005    8.01122E+007   -2.65564E+007    8.00826E+007    7.99448E+007   -1.16089E+005   -1.59528E+005    4.23140E+001    4.62706E+002    2.01327E+004
            1788    8.00813E+007    7.99459E+007    7.99459E+007   -1.08414E+005   -1.62273E+005    8.01082E+007   -2.65584E+007    8.00812E+007    7.99459E+007   -1.09322E+005   -1.61365E+005    6.54865E+001   -7.02893E+001    6.93346E+003
            1789    8.01084E+007    7.99241E+007    7.99241E+007   -1.58206E+005   -2.10370E+005    8.01345E+007   -2.65185E+007    8.01084E+007    7.99241E+007   -1.89684E+005   -1.78892E+005   -1.67552E+003   -1.72490E+002    2.55176E+004
            1790    8.01034E+007    7.99289E+007    7.99289E+007   -1.41430E+005   -2.07450E+005    8.01364E+007   -2.65267E+007    8.01033E+007    7.99289E+007   -1.76332E+005   -1.72548E+005   -1.43359E+003    1.30856E+003    3.29558E+004
            1791    8.00979E+007    7.99344E+007    7.99344E+007   -1.25097E+005   -2.02035E+005    8.01364E+007   -2.65357E+007    8.00979E+007    7.99344E+007   -1.59664E+005   -1.67468E+005   -2.52506E+002   -7.14353E+002    3.82709E+004
            1792    8.00904E+007    7.99382E+007    7.99382E+007   -1.11841E+005   -1.92375E+005    8.01306E+007   -2.65447E+007    8.00903E+007    7.99382E+007   -1.38527E+005   -1.65689E+005   -2.96664E+002    1.10607E+003    3.79077E+004
            1793    8.00854E+007    7.99435E+007    7.99435E+007   -1.01619E+005   -1.82066E+005    8.01256E+007   -2.65533E+007    8.00853E+007    7.99435E+007   -1.17871E+005   -1.65814E+005    1.53155E+002   -2.86812E+002    3.23000E+004
            1794    8.00796E+007    7.99469E+007    7.99469E+007   -9.37106E+004   -1.71569E+005    8.01185E+007   -2.65606E+007    8.00795E+007    7.99469E+007   -1.00136E+005   -1.65144E+005    1.74143E+002    8.25185E+002    2.14235E+004
            1795    8.00772E+007    7.99493E+007    7.99493E+007   -9.01048E+004   -1.65748E+005    8.01150E+007   -2.65645E+007    8.00771E+007    7.99493E+007   -9.08415E+004   -1.65011E+005    3.15445E+002   -3.77901E+002    7.42862E+003
            1796    8.01173E+007    7.99237E+007    7.99237E+007   -1.77529E+005   -2.09727E+005    8.01334E+007   -2.65122E+007    8.01173E+007    7.99237E+007   -1.93500E+005   -1.93757E+005    2.54993E+003   -2.88593E+003    1.60984E+004
            1797    8.01103E+007    7.99230E+007    7.99230E+007   -1.61382E+005   -2.13111E+005    8.01361E+007   -2.65162E+007    8.01102E+007    7.99230E+007   -1.83606E+005   -1.90887E+005   -5.75364E+001    1.71367E+003    2.56073E+004
            1798    8.01046E+007    7.99304E+007    7.99304E+007   -1.44087E+005   -2.04176E+005    8.01346E+007   -2.65274E+007    8.01045E+007    7.99304E+007   -1.63512E+005   -1.84751E+005    2.35021E+002   -5.88092E+002    2.81046E+004
            1799    8.00934E+007    7.99360E+007    7.99360E+007   -1.24459E+005   -1.90359E+005    8.01264E+007   -2.65404E+007    8.00934E+007    7.99360E+007   -1.40609E+005   -1.74209E+005    5.49430E+001    1.29385E+003    2.83452E+004
            1800    8.00823E+007    7.99457E+007    7.99457E+007   -1.00457E+005   -1.72610E+005    8.01183E+007   -2.65576E+007    8.00822E+007    7.99457E+007   -1.11295E+005   -1.61771E+005    2.28739E+002   -2.13816E+001    2.57792E+004
            1801    8.00725E+007    7.99519E+007    7.99519E+007   -8.27923E+004   -1.58188E+005    8.01101E+007   -2.65703E+007    8.00724E+007    7.99519E+007   -8.75896E+004   -1.53391E+005    2.92450E+002    9.35265E+002    1.84033E+004
            1802    8.00674E+007    7.99562E+007    7.99562E+007   -7.22259E+004   -1.50146E+005    8.01064E+007   -2.65780E+007    8.00674E+007    7.99562E+007   -7.28848E+004   -1.49487E+005    3.66414E+002   -2.55025E+002    7.13493E+003
            1803    8.00444E+007    7.99719E+007    7.99719E+007   -6.63413E+004   -7.86995E+004    8.00506E+007   -2.66089E+007    8.00444E+007    7.99719E+007   -6.64036E+004   -7.86373E+004    1.31844E+002    1.90680E+002   -8.74841E+002
            1804    8.00578E+007    7.99625E+007    7.99625E+007   -8.78318E+004   -1.02818E+005    8.00653E+007   -2.65906E+007    8.00578E+007    7.99625E+007   -8.79185E+004   -1.02732E+005    1.71213E+002    3.48994E+002   -1.13640E+003
            1805    8.00786E+007    7.99477E+007    7.99477E+007   -1.22467E+005   -1.39381E+005    8.00871E+007   -2.65620E+007    8.00786E+007    7.99477E+007   -1.22568E+005   -1.39279E+005    1.62090E+002    5.15517E+002   -1.30679E+003
            1806    8.00997E+007    7.99329E+007    7.99329E+007   -1.56641E+005   -1.76859E+005    8.01098E+007   -2.65331E+007    8.00997E+007    7.99329E+007   -1.56680E+005   -1.76820E+005    1.68613E+002    3.60430E+002   -8.90775E+002
            1807    8.01170E+007    7.99207E+007    7.99207E+007   -1.83276E+005   -2.09339E+005    8.01301E+007   -2.65094E+007    8.01170E+007    7.99207E+007   -1.83373E+005   -2.09241E+005    1.83335E+001    3.43995E+002   -1.58952E+003
            1808    8.01225E+007    7.99168E+007    7.99168E+007   -1.81773E+005   -2.29619E+005    8.01464E+007   -2.65018E+007    8.01224E+007    7.99168E+007   -1.82134E+005   -2.29258E+005   -5.16255E+001    9.90479E+001    4.14174E+003
            1809    8.01206E+007    7.99182E+007    7.99182E+007   -1.63675E+005   -2.40871E+005    8.01591E+007   -2.65046E+007    8.01205E+007    7.99182E+007   -1.83379E+005   -2.21168E+005   -9.46302E+002    6.22749E+001    3.36571E+004
            1810    8.00627E+007    7.99597E+007    7.99597E+007   -6.93589E+004   -1.36613E+005    8.00963E+007   -2.65846E+007    8.00626E+007    7.99597E+007   -6.98621E+004   -1.36110E+005   -3.45190E+002   -2.70472E+002   -5.79552E+003
            1811    8.00731E+007    7.99525E+007    7.99525E+007   -8.15663E+004   -1.59604E+005    8.01121E+007   -2.65704E+007    8.00730E+007    7.99525E+007   -8.23304E+004   -1.58840E+005   -4.13952E+002   -4.87294E+002   -7.68391E+003
            1812    8.00786E+007    7.99479E+007    7.99479E+007   -9.67112E+004   -1.64560E+005    8.01125E+007   -2.65622E+007    8.00785E+007    7.99479E+007   -9.76485E+004   -1.63623E+005   -9.59429E+001   -2.31263E+002   -7.91939E+003
            1813    8.00818E+007    7.99466E+007    7.99466E+007   -1.10467E+005   -1.59944E+005    8.01066E+007   -2.65587E+007    8.00818E+007    7.99466E+007   -1.11543E+005   -1.58867E+005   -4.27009E+002   -3.76237E+001   -7.21700E+003
            1814    8.00820E+007    7.99444E+007    7.99444E+007   -1.22729E+005   -1.52408E+005    8.00968E+007   -2.65564E+007    8.00820E+007    7.99444E+007   -1.23972E+005   -1.51165E+005    1.10785E+002    4.10256E+002   -5.94663E+003
            1815    8.00837E+007    7.99455E+007    7.99455E+007   -1.31775E+005   -1.44518E+005    8.00900E+007   -2.65564E+007    8.00837E+007    7.99455E+007   -1.32979E+005   -1.43314E+005   -8.29429E+001    6.57042E+002   -3.72709E+003
            1816    8.00822E+007    7.99438E+007    7.99438E+007   -1.36701E+005   -1.40046E+005    8.00839E+007   -2.65557E+007    8.00822E+007    7.99438E+007   -1.37928E+005   -1.38820E+005   -1.04832E+002    7.93951E+002   -1.61169E+003
            1817    8.00835E+007    7.99452E+007    7.99452E+007   -1.37192E+005   -1.39379E+005    8.00846E+007   -2.65562E+007    8.00835E+007    7.99452E+007   -1.38430E+005   -1.38140E+005    2.26519E+002    7.58443E+002    1.08410E+003
            1818    8.00825E+007    7.99440E+007    7.99440E+007   -1.33125E+005   -1.43798E+005    8.00878E+007   -2.65557E+007    8.00825E+007    7.99440E+007   -1.34188E+005   -1.42735E+005   -2.73755E+002    5.97948E+002    3.19560E+003
            1819    8.00699E+007    7.99541E+007    7.99541E+007   -8.30030E+004   -1.48611E+005    8.01027E+007   -2.65742E+007    8.00699E+007    7.99541E+007   -8.73108E+004   -1.44304E+005   -2.77705E+002    8.22921E+002   -1.62503E+004
            1820    8.00773E+007    7.99488E+007    7.99488E+007   -8.97552E+004   -1.67195E+005    8.01160E+007   -2.65640E+007    8.00772E+007    7.99488E+007   -9.58753E+004   -1.61075E+005   -3.48027E+002    8.63041E+002   -2.08922E+004
            1821    8.00811E+007    7.99457E+007    7.99457E+007   -1.00232E+005   -1.70559E+005    8.01163E+007   -2.65583E+007    8.00811E+007    7.99457E+007   -1.07978E+005   -1.62813E+005    2.56738E+001    7.48206E+002   -2.20170E+004
            1822    8.00831E+007    7.99451E+007    7.99451E+007   -1.10899E+005   -1.64955E+005    8.01101E+007   -2.65564E+007    8.00830E+007    7.99451E+007   -1.19958E+005   -1.55896E+005   -3.87248E+002    1.84517E+002   -2.01893E+004
            1823    8.00827E+007    7.99439E+007    7.99439E+007   -1.20777E+005   -1.56765E+005    8.01007E+007   -2.65555E+007    8.00827E+007    7.99439E+007   -1.30591E+005   -1.46951E+005    2.03653E+002   -1.30268E+002   -1.60279E+004
            1824    8.00836E+007    7.99452E+007    7.99452E+007   -1.27770E+005   -1.49038E+005    8.00943E+007   -2.65561E+007    8.00836E+007    7.99452E+007   -1.38486E+005   -1.38321E+005   -1.24171E+002   -6.99127E+002   -1.06338E+004
            1825    8.00823E+007    7.99442E+007    7.99442E+007   -1.32419E+005   -1.43907E+005    8.00881E+007   -2.65560E+007    8.00823E+007    7.99442E+007   -1.42530E+005   -1.33795E+005    3.63894E+001   -7.20294E+002   -3.73105E+003
            1826    8.00834E+007    7.99453E+007    7.99453E+007   -1.32503E+005   -1.43578E+005    8.00889E+007   -2.65564E+007    8.00834E+007    7.99453E+007   -1.42697E+005   -1.33384E+005    1.17449E+002   -8.60420E+002    2.99636E+003
            1827    8.00829E+007    7.99443E+007    7.99443E+007   -1.28646E+005   -1.48601E+005    8.00929E+007   -2.65557E+007    8.00829E+007    7.99443E+007   -1.38347E+005   -1.38900E+005   -1.15857E+002   -5.11302E+002    9.97353E+003
            1828    8.00828E+007    7.99457E+007    7.99457E+007   -1.06564E+005   -1.67754E+005    8.01134E+007   -2.65571E+007    8.00828E+007    7.99457E+007   -1.16341E+005   -1.57977E+005   -2.05167E+002    7.82217E+001   -2.24199E+004
            1829    8.00853E+007    7.99439E+007    7.99439E+007   -1.02491E+005   -1.80206E+005    8.01241E+007   -2.65537E+007    8.00852E+007    7.99439E+007   -1.17681E+005   -1.65016E+005   -3.93357E+002   -3.78955E+002   -3.08182E+004
            1830    8.00859E+007    7.99427E+007    7.99427E+007   -1.06078E+005   -1.80198E+005    8.01229E+007   -2.65522E+007    8.00858E+007    7.99427E+007   -1.25603E+005   -1.60673E+005    7.99149E+001    6.56195E+001   -3.26493E+004
            1831    8.00854E+007    7.99432E+007    7.99432E+007   -1.11071E+005   -1.73244E+005    8.01165E+007   -2.65530E+007    8.00854E+007    7.99432E+007   -1.33635E+005   -1.50680E+005   -1.82014E+002    4.22930E-001   -2.98951E+004
            1832    8.00840E+007    7.99434E+007    7.99434E+007   -1.16409E+005   -1.64622E+005    8.01081E+007   -2.65541E+007    8.00839E+007    7.99434E+007   -1.41810E+005   -1.39221E+005    3.20987E+002    5.36207E+002   -2.40716E+004
            1833    8.00834E+007    7.99446E+007    7.99446E+007   -1.21086E+005   -1.56376E+005    8.01010E+007   -2.65557E+007    8.00834E+007    7.99446E+007   -1.47596E+005   -1.29866E+005   -3.26743E+001    5.85177E+002   -1.52566E+004
            1834    8.00823E+007    7.99446E+007    7.99446E+007   -1.23650E+005   -1.51613E+005    8.00963E+007   -2.65565E+007    8.00823E+007    7.99446E+007   -1.50602E+005   -1.24662E+005    1.59763E+002    7.86070E+002   -5.22149E+003
            1835    8.00828E+007    7.99450E+007    7.99450E+007   -1.24132E+005   -1.51543E+005    8.00965E+007   -2.65564E+007    8.00828E+007    7.99450E+007   -1.50259E+005   -1.25416E+005   -1.31699E+002    6.54510E+002    5.79266E+003
            1836    8.00829E+007    7.99441E+007    7.99441E+007   -1.21313E+005   -1.56292E+005    8.01004E+007   -2.65555E+007    8.00829E+007    7.99441E+007   -1.46185E+005   -1.31421E+005   -1.08301E+002    6.85435E+002    1.58554E+004
            1837    8.00953E+007    7.99352E+007    7.99352E+007   -1.32003E+005   -1.88317E+005    8.01235E+007   -2.65383E+007    8.00953E+007    7.99352E+007   -1.46647E+005   -1.73673E+005   -1.11212E+002    1.24617E+003   -2.47026E+004
            1838    8.00928E+007    7.99366E+007    7.99366E+007   -1.18867E+005   -1.93414E+005    8.01300E+007   -2.65414E+007    8.00927E+007    7.99366E+007   -1.43692E+005   -1.68589E+005    8.89835E+001    1.18776E+003   -3.51334E+004
            1839    8.00904E+007    7.99389E+007    7.99389E+007   -1.12916E+005   -1.89989E+005    8.01289E+007   -2.65453E+007    8.00903E+007    7.99389E+007   -1.44707E+005   -1.58199E+005    8.71183E+001    9.24045E+002   -3.79414E+004
            1840    8.00874E+007    7.99409E+007    7.99409E+007   -1.10763E+005   -1.82144E+005    8.01230E+007   -2.65493E+007    8.00873E+007    7.99409E+007   -1.49310E+005   -1.43597E+005    1.70310E+002    2.84316E+002   -3.55761E+004
            1841    8.00847E+007    7.99435E+007    7.99435E+007   -1.10233E+005   -1.72148E+005    8.01157E+007   -2.65537E+007    8.00847E+007    7.99435E+007   -1.53540E+005   -1.28841E+005    1.91842E+002   -1.89689E+002   -2.83875E+004
            1842    8.00820E+007    7.99449E+007    7.99449E+007   -1.10135E+005   -1.64051E+005    8.01090E+007   -2.65569E+007    8.00820E+007    7.99449E+007   -1.57163E+005   -1.17023E+005    6.28325E+001   -7.22508E+002   -1.79989E+004
            1843    8.00814E+007    7.99462E+007    7.99462E+007   -1.11018E+005   -1.59439E+005    8.01056E+007   -2.65586E+007    8.00814E+007    7.99462E+007   -1.58926E+005   -1.11531E+005    2.18142E+002   -7.79375E+002   -4.95716E+003
            1844    8.00812E+007    7.99457E+007    7.99457E+007   -1.11332E+005   -1.59735E+005    8.01054E+007   -2.65582E+007    8.00812E+007    7.99457E+007   -1.58228E+005   -1.12839E+005   -1.80823E+002   -9.02581E+002    8.40705E+003
            1845    8.00832E+007    7.99449E+007    7.99449E+007   -1.11472E+005   -1.65197E+005    8.01101E+007   -2.65561E+007    8.00832E+007    7.99449E+007   -1.55069E+005   -1.21600E+005    1.35555E+002   -6.19840E+002    2.10133E+004
            1846    8.01079E+007    7.99285E+007    7.99285E+007   -1.55758E+005   -2.03055E+005    8.01315E+007   -2.65232E+007    8.01078E+007    7.99285E+007   -1.72963E+005   -1.85850E+005   -2.48739E+002   -4.31560E+002   -2.27537E+004
            1847    8.01009E+007    7.99325E+007    7.99325E+007   -1.33923E+005   -2.02680E+005    8.01352E+007   -2.65320E+007    8.01008E+007    7.99325E+007   -1.64242E+005   -1.72361E+005    2.72702E+001   -7.81297E+002   -3.41384E+004
            1848    8.00949E+007    7.99364E+007    7.99364E+007   -1.19900E+005   -1.96906E+005    8.01334E+007   -2.65399E+007    8.00948E+007    7.99364E+007   -1.61710E+005   -1.55096E+005   -1.06366E+002   -2.95200E+002   -3.83609E+004
            1849    8.00884E+007    7.99396E+007    7.99396E+007   -1.10171E+005   -1.87436E+005    8.01270E+007   -2.65473E+007    8.00884E+007    7.99396E+007   -1.61148E+005   -1.36459E+005    5.89633E+002    5.22427E+000   -3.66069E+004
            1850    8.00844E+007    7.99444E+007    7.99444E+007   -1.02602E+005   -1.77493E+005    8.01219E+007   -2.65548E+007    8.00844E+007    7.99444E+007   -1.62588E+005   -1.17507E+005    3.41878E+002    2.19571E+002   -2.99016E+004
            1851    8.00798E+007    7.99461E+007    7.99461E+007   -9.87433E+004   -1.68511E+005    8.01146E+007   -2.65596E+007    8.00797E+007    7.99461E+007   -1.63345E+005   -1.03909E+005    2.83135E+002    3.34418E+002   -1.82683E+004
            1852    8.00793E+007    7.99486E+007    7.99486E+007   -9.67127E+004   -1.64643E+005    8.01133E+007   -2.65624E+007    8.00793E+007    7.99486E+007   -1.64389E+005   -9.69672E+004    2.82455E+002    3.29267E+002   -4.14995E+003
            1853    8.00791E+007    7.99469E+007    7.99469E+007   -9.85886E+004   -1.65833E+005    8.01127E+007   -2.65608E+007    8.00790E+007    7.99469E+007   -1.63925E+005   -1.00497E+005   -4.23965E+002    3.18287E+002    1.11670E+004
            1854    8.00827E+007    7.99458E+007    7.99458E+007   -1.01518E+005   -1.72270E+005    8.01180E+007   -2.65573E+007    8.00826E+007    7.99458E+007   -1.62465E+005   -1.11323E+005    5.18887E+001    3.13289E+002    2.44454E+004
            1855    8.01127E+007    7.99216E+007    7.99216E+007   -1.73256E+005   -2.09022E+005    8.01306E+007   -2.65131E+007    8.01127E+007    7.99216E+007   -1.87026E+005   -1.95252E+005   -5.76039E+001    1.66296E+003   -1.74036E+004
            1856    8.01056E+007    7.99267E+007    7.99267E+007   -1.50281E+005   -2.07454E+005    8.01342E+007   -2.65230E+007    8.01056E+007    7.99267E+007   -1.80655E+005   -1.77081E+005    1.25935E+003    1.71492E+003   -2.85306E+004
            1857    8.00987E+007    7.99345E+007    7.99345E+007   -1.29528E+005   -1.98714E+005    8.01333E+007   -2.65354E+007    8.00986E+007    7.99345E+007   -1.72088E+005   -1.56153E+005   -3.00835E+002    2.75998E+002   -3.36631E+004
            1858    8.00883E+007    7.99390E+007    7.99390E+007   -1.10948E+005   -1.87682E+005    8.01267E+007   -2.65468E+007    8.00882E+007    7.99390E+007   -1.67396E+005   -1.31234E+005    7.52947E+002    2.14229E+002   -3.38392E+004
            1859    8.00819E+007    7.99466E+007    7.99466E+007   -9.55175E+004   -1.75078E+005    8.01217E+007   -2.65587E+007    8.00818E+007    7.99466E+007   -1.63904E+005   -1.06692E+005    1.74861E+002   -3.96288E+002   -2.76435E+004
            1860    8.00741E+007    7.99495E+007    7.99495E+007   -8.48144E+004   -1.64333E+005    8.01138E+007   -2.65668E+007    8.00740E+007    7.99495E+007   -1.60796E+005   -8.83512E+004    2.65182E+002   -4.75079E+002   -1.63932E+004
            1861    8.00735E+007    7.99529E+007    7.99529E+007   -8.09778E+004   -1.60201E+005    8.01131E+007   -2.65706E+007    8.00734E+007    7.99529E+007   -1.60124E+005   -8.10542E+004    3.15990E+002   -6.64820E+002   -2.45873E+003
            1862    8.00733E+007    7.99503E+007    7.99503E+007   -8.33883E+004   -1.62592E+005    8.01128E+007   -2.65681E+007    8.00732E+007    7.99503E+007   -1.60750E+005   -8.52304E+004   -4.74590E+002   -5.67842E+002    1.19379E+004
            1863    8.00805E+007    7.99479E+007    7.99479E+007   -9.28124E+004   -1.72490E+005    8.01204E+007   -2.65609E+007    8.00805E+007    7.99479E+007   -1.63805E+005   -1.01497E+005    2.99397E+002   -6.08059E+002    2.48306E+004
            1864    8.01202E+007    7.99224E+007    7.99224E+007   -1.86932E+005   -2.08545E+005    8.01310E+007   -2.65090E+007    8.01202E+007    7.99224E+007   -1.96935E+005   -1.98541E+005   -2.41793E+003   -2.80895E+003   -1.07762E+004
            1865    8.01090E+007    7.99236E+007    7.99236E+007   -1.66553E+005   -2.04395E+005    8.01280E+007   -2.65175E+007    8.01090E+007    7.99236E+007   -1.86864E+005   -1.84085E+005    1.17057E+003   -3.82798E+002   -1.88697E+004
            1866    8.01021E+007    7.99325E+007    7.99325E+007   -1.42375E+005   -1.96780E+005    8.01292E+007   -2.65311E+007    8.01020E+007    7.99325E+007   -1.79848E+005   -1.59307E+005   -1.41560E+002   -3.61376E+002   -2.51895E+004
            1867    8.00879E+007    7.99395E+007    7.99395E+007   -1.18102E+005   -1.78781E+005    8.01183E+007   -2.65475E+007    8.00879E+007    7.99395E+007   -1.66796E+005   -1.30087E+005    8.48970E+002   -9.18420E+001   -2.41578E+004
            1868    8.00763E+007    7.99504E+007    7.99504E+007   -9.33611E+004   -1.58361E+005    8.01088E+007   -2.65662E+007    8.00762E+007    7.99504E+007   -1.51873E+005   -9.98482E+004    4.22151E+002   -1.12915E+002   -1.94827E+004
            1869    8.00651E+007    7.99564E+007    7.99564E+007   -7.53137E+004   -1.41927E+005    8.00984E+007   -2.65797E+007    8.00650E+007    7.99564E+007   -1.39780E+005   -7.74608E+004    3.80359E+002   -9.73290E+001   -1.17651E+004
            1870    8.00626E+007    7.99605E+007    7.99605E+007   -6.73959E+004   -1.36856E+005    8.00973E+007   -2.65854E+007    8.00625E+007    7.99605E+007   -1.36832E+005   -6.74193E+004    2.37424E+002   -1.23359E+002   -1.27368E+003
            1871    8.00649E+007    7.99568E+007    7.99568E+007   -7.40534E+004   -1.42028E+005    8.00989E+007   -2.65802E+007    8.00648E+007    7.99568E+007   -1.40572E+005   -7.55098E+004   -3.94574E+002   -1.27259E+002    9.84263E+003
            1872    8.00757E+007    7.99514E+007    7.99514E+007   -9.06404E+004   -1.58020E+005    8.01094E+007   -2.65676E+007    8.00757E+007    7.99514E+007   -1.52286E+005   -9.63745E+004   -3.11491E+001   -1.48107E+002    1.88011E+004
            1873    8.00665E+007    7.99562E+007    7.99562E+007   -1.03077E+005   -1.17388E+005    8.00736E+007   -2.65786E+007    8.00665E+007    7.99562E+007   -1.16940E+005   -1.03525E+005   -3.12316E+002   -1.59410E+002   -2.49145E+003
            1874    8.00476E+007    7.99695E+007    7.99695E+007   -7.32548E+004   -8.30741E+004    8.00525E+007   -2.66044E+007    8.00476E+007    7.99695E+007   -8.25757E+004   -7.37531E+004   -1.75937E+002   -2.13172E+002   -2.15524E+003
            1875    8.00400E+007    7.99744E+007    7.99744E+007   -6.26691E+004   -6.85804E+004    8.00430E+007   -2.66144E+007    8.00400E+007    7.99744E+007   -6.85728E+004   -6.26767E+004    1.36024E+002   -1.41505E+002   -2.11871E+002
            1876    8.00477E+007    7.99692E+007    7.99692E+007   -7.39449E+004   -8.30636E+004    8.00522E+007   -2.66041E+007    8.00477E+007    7.99692E+007   -8.26946E+004   -7.43139E+004    2.61100E+002   -1.95442E+002    1.79692E+003
            1877    8.00662E+007    7.99559E+007    7.99559E+007   -1.03836E+005   -1.16732E+005    8.00727E+007   -2.65785E+007    8.00662E+007    7.99559E+007   -1.16377E+005   -1.04191E+005    4.80212E+002   -1.36509E+002    2.10971E+003
            1878    8.00892E+007    7.99402E+007    7.99402E+007   -1.39955E+005   -1.58104E+005    8.00983E+007   -2.65474E+007    8.00892E+007    7.99402E+007   -1.57861E+005   -1.40198E+005    3.03796E+002   -2.04049E+002    2.08608E+003
            1879    8.01086E+007    7.99264E+007    7.99264E+007   -1.69226E+005   -1.95003E+005    8.01214E+007   -2.65207E+007    8.01086E+007    7.99264E+007   -1.94913E+005   -1.69316E+005    4.63723E+002    4.41947E+001   -1.52193E+003
            1880    8.01186E+007    7.99198E+007    7.99198E+007   -1.82586E+005   -2.14995E+005    8.01348E+007   -2.65074E+007    8.01186E+007    7.99198E+007   -2.09332E+005   -1.88249E+005   -3.00135E+001    5.72505E+001   -1.23073E+004
            1881    8.01199E+007    7.99182E+007    7.99182E+007   -1.83023E+005   -2.20286E+005    8.01385E+007   -2.65050E+007    8.01199E+007    7.99182E+007   -1.92262E+005   -2.11047E+005    7.28603E+002    1.22446E+003   -1.60911E+004
            1882    8.00421E+007    7.99736E+007    7.99736E+007   -6.56210E+004   -7.14761E+004    8.00451E+007   -2.66122E+007    8.00421E+007    7.99736E+007   -6.56813E+004   -7.14158E+004   -1.13027E+002    1.85111E+002    5.91334E+002
            1883    8.00567E+007    7.99636E+007    7.99636E+007   -8.84699E+004   -9.77839E+004    8.00614E+007   -2.65924E+007    8.00567E+007    7.99636E+007   -8.86675E+004   -9.75862E+004   -1.57695E+002    2.20910E+002    1.34234E+003
            1884    8.00788E+007    7.99478E+007    7.99478E+007   -1.25266E+005   -1.36738E+005    8.00846E+007   -2.65620E+007    8.00788E+007    7.99478E+007   -1.25268E+005   -1.36736E+005   -2.03067E+002    5.13584E+002   -1.46754E+002
            1885    8.01010E+007    7.99325E+007    7.99325E+007   -1.63529E+005   -1.73365E+005    8.01059E+007   -2.65319E+007    8.01010E+007    7.99325E+007   -1.63531E+005   -1.73363E+005   -2.28731E+002    2.31900E+002   -1.39323E+002
            1886    8.01167E+007    7.99211E+007    7.99211E+007   -1.88951E+005   -2.02271E+005    8.01234E+007   -2.65100E+007    8.01167E+007    7.99211E+007   -1.88970E+005   -2.02251E+005   -1.23422E+002    4.55267E+002    5.04866E+002
            1887    8.01253E+007    7.99153E+007    7.99153E+007   -2.02811E+005   -2.17302E+005    8.01326E+007   -2.64984E+007    8.01253E+007    7.99153E+007   -2.02914E+005   -2.17199E+005   -1.86100E+001   -5.12308E+001    1.21759E+003
            1888    8.01246E+007    7.99147E+007    7.99147E+007   -1.94501E+005   -2.25284E+005    8.01400E+007   -2.64983E+007    8.01246E+007    7.99147E+007   -1.94616E+005   -2.25169E+005    1.07227E+003    5.97323E+002   -1.87405E+003
            1889    8.00672E+007    7.99559E+007    7.99559E+007   -7.24330E+004   -1.50107E+005    8.01060E+007   -2.65778E+007    8.00671E+007    7.99559E+007   -7.30172E+004   -1.49523E+005    6.04117E+001   -5.57627E+002   -6.71058E+003
            1890    8.00771E+007    7.99489E+007    7.99489E+007   -9.06874E+004   -1.65724E+005    8.01146E+007   -2.65642E+007    8.00771E+007    7.99489E+007   -9.14285E+004   -1.64983E+005    2.16930E+002   -6.24616E+002   -7.42014E+003
            1891    8.00811E+007    7.99461E+007    7.99461E+007   -1.08165E+005   -1.61950E+005    8.01080E+007   -2.65587E+007    8.00811E+007    7.99461E+007   -1.09080E+005   -1.61035E+005    8.48904E+001   -2.34479E+002   -6.95794E+003
            1892    8.00826E+007    7.99447E+007    7.99447E+007   -1.23307E+005   -1.52420E+005    8.00971E+007   -2.65563E+007    8.00826E+007    7.99447E+007   -1.24389E+005   -1.51338E+005   -2.97540E+001    1.45036E+002   -5.50867E+003
            1893    8.00729E+007    7.99520E+007    7.99520E+007   -8.32868E+004   -1.58439E+005    8.01105E+007   -2.65701E+007    8.00728E+007    7.99520E+007   -8.79081E+004   -1.53818E+005    8.41991E+001    3.62340E+002   -1.80540E+004
            1894    8.00800E+007    7.99471E+007    7.99471E+007   -9.39820E+004   -1.71684E+005    8.01188E+007   -2.65605E+007    8.00799E+007    7.99471E+007   -1.00493E+005   -1.65173E+005    2.12696E+002    4.11120E+002   -2.15293E+004
            1895    8.00827E+007    7.99450E+007    7.99450E+007   -1.08171E+005   -1.67273E+005    8.01123E+007   -2.65565E+007    8.00827E+007    7.99450E+007   -1.16147E+005   -1.59298E+005    8.69147E+001    1.55157E+002   -2.01928E+004
            1896    8.00832E+007    7.99444E+007    7.99444E+007   -1.20540E+005   -1.57047E+005    8.01014E+007   -2.65556E+007    8.00832E+007    7.99444E+007   -1.29544E+005   -1.48043E+005   -7.84336E+001   -2.76449E+002   -1.57365E+004
            1897    8.00821E+007    7.99449E+007    7.99449E+007   -1.01188E+005   -1.73136E+005    8.01181E+007   -2.65569E+007    8.00820E+007    7.99449E+007   -1.11928E+005   -1.62395E+005    5.11165E+001   -8.50920E+002   -2.56398E+004
            1898    8.00850E+007    7.99429E+007    7.99429E+007   -1.01969E+005   -1.82106E+005    8.01250E+007   -2.65530E+007    8.00849E+007    7.99429E+007   -1.18279E+005   -1.65796E+005   -1.36946E+001   -9.41356E+002   -3.22650E+004
            1899    8.00851E+007    7.99430E+007    7.99430E+007   -1.08506E+005   -1.75520E+005    8.01186E+007   -2.65530E+007    8.00850E+007    7.99430E+007   -1.28370E+005   -1.55656E+005    2.17492E+001   -3.10763E+002   -3.06036E+004
            1900    8.00843E+007    7.99435E+007    7.99435E+007   -1.16000E+005   -1.65564E+005    8.01091E+007   -2.65540E+007    8.00843E+007    7.99435E+007   -1.39037E+005   -1.42527E+005   -6.71395E+001    1.60126E+001   -2.47208E+004
            1901    8.00947E+007    7.99370E+007    7.99370E+007   -1.24766E+005   -1.90747E+005    8.01277E+007   -2.65405E+007    8.00947E+007    7.99370E+007   -1.41016E+005   -1.74497E+005    1.25057E+002    5.53259E+002   -2.84280E+004
            1902    8.00914E+007    7.99390E+007    7.99390E+007   -1.11953E+005   -1.92663E+005    8.01317E+007   -2.65448E+007    8.00913E+007    7.99390E+007   -1.38882E+005   -1.65734E+005    1.55023E+002    4.68317E+002   -3.80559E+004
            1903    8.00886E+007    7.99405E+007    7.99405E+007   -1.10580E+005   -1.85643E+005    8.01262E+007   -2.65481E+007    8.00886E+007    7.99405E+007   -1.44137E+005   -1.52086E+005   -1.45499E+002    1.62465E+002   -3.73202E+004
            1904    8.00855E+007    7.99428E+007    7.99428E+007   -1.10577E+005   -1.74729E+005    8.01176E+007   -2.65525E+007    8.00855E+007    7.99428E+007   -1.49939E+005   -1.35368E+005   -5.07714E+001   -2.33001E+002   -3.12376E+004
            1905    8.01041E+007    7.99291E+007    7.99291E+007   -1.45041E+005   -2.04965E+005    8.01341E+007   -2.65264E+007    8.01041E+007    7.99291E+007   -1.64886E+005   -1.85120E+005   -2.02796E+002   -1.10614E+003   -2.82023E+004
            1906    8.00976E+007    7.99338E+007    7.99338E+007   -1.25574E+005   -2.02014E+005    8.01358E+007   -2.65354E+007    8.00976E+007    7.99338E+007   -1.60009E+005   -1.67578E+005   -1.14420E+002   -1.06061E+003   -3.80321E+004
            1907    8.00920E+007    7.99380E+007    7.99380E+007   -1.14418E+005   -1.93675E+005    8.01316E+007   -2.65433E+007    8.00920E+007    7.99380E+007   -1.58856E+005   -1.49237E+005   -4.01131E+002   -2.57779E+002   -3.93357E+004
            1908    8.00868E+007    7.99421E+007    7.99421E+007   -1.06767E+005   -1.82680E+005    8.01248E+007   -2.65509E+007    8.00867E+007    7.99421E+007   -1.60500E+005   -1.28947E+005    2.14810E+002    9.90227E+001   -3.45220E+004
            1909    8.01128E+007    7.99250E+007    7.99250E+007   -1.61651E+005   -2.13948E+005    8.01390E+007   -2.65165E+007    8.01128E+007    7.99250E+007   -1.84867E+005   -1.90732E+005    3.15931E+001    1.36460E+003   -2.59836E+004
            1910    8.01036E+007    7.99305E+007    7.99305E+007   -1.40644E+005   -2.05517E+005    8.01360E+007   -2.65281E+007    8.01035E+007    7.99305E+007   -1.75277E+005   -1.70884E+005    7.33649E+002    8.47160E+002   -3.23621E+004
            1911    8.00955E+007    7.99350E+007    7.99350E+007   -1.22490E+005   -1.98452E+005    8.01335E+007   -2.65380E+007    8.00954E+007    7.99350E+007   -1.71150E+005   -1.49792E+005   -1.04103E+003   -8.13691E+001   -3.64485E+004
            1912    8.00876E+007    7.99421E+007    7.99421E+007   -1.06119E+005   -1.84933E+005    8.01270E+007   -2.65503E+007    8.00876E+007    7.99421E+007   -1.66671E+005   -1.24381E+005    4.23016E+002    1.12433E+002   -3.32537E+004
            1913    8.01166E+007    7.99197E+007    7.99197E+007   -1.79322E+005   -2.14482E+005    8.01341E+007   -2.65086E+007    8.01166E+007    7.99197E+007   -1.96404E+005   -1.97400E+005   -2.24365E+003   -2.39707E+003   -1.75733E+004
            1914    8.01108E+007    7.99266E+007    7.99266E+007   -1.58104E+005   -2.10401E+005    8.01370E+007   -2.65194E+007    8.01108E+007    7.99266E+007   -1.89487E+005   -1.79017E+005    1.09029E+003   -2.04864E+001   -2.56192E+004
            1915    8.00997E+007    7.99319E+007    7.99319E+007   -1.38659E+005   -1.96852E+005    8.01288E+007   -2.65321E+007    8.00997E+007    7.99319E+007   -1.81064E+005   -1.54446E+005   -1.03281E+003   -1.82852E+002   -2.58742E+004
            1916    8.00884E+007    7.99416E+007    7.99416E+007   -1.15215E+005   -1.78253E+005    8.01199E+007   -2.65494E+007    8.00884E+007    7.99416E+007   -1.66982E+005   -1.26486E+005    4.07226E+002    1.76971E+002   -2.41552E+004
            1917    8.00895E+007    7.99401E+007    7.99401E+007   -1.40124E+005   -1.58769E+005    8.00989E+007   -2.65471E+007    8.00895E+007    7.99401E+007   -1.58677E+005   -1.40216E+005   -2.68129E+002    5.66927E+001    1.30725E+003
            1918    8.01101E+007    7.99261E+007    7.99261E+007   -1.72080E+005   -1.95820E+005    8.01220E+007   -2.65194E+007    8.01101E+007    7.99261E+007   -1.95785E+005   -1.72116E+005   -1.82256E+002    1.49705E+002    9.17580E+002
            1919    8.01197E+007    7.99194E+007    7.99194E+007   -1.78944E+005   -2.21556E+005    8.01410E+007   -2.65063E+007    8.01197E+007    7.99194E+007   -2.21030E+005   -1.79470E+005   -1.46838E+002    8.89577E+001   -4.70415E+003
            1920    8.01197E+007    7.99193E+007    7.99193E+007   -1.64355E+005   -2.36254E+005    8.01556E+007   -2.65062E+007    8.01196E+007    7.99193E+007   -2.15851E+005   -1.84758E+005   -7.73368E+001    7.00451E+002   -3.24136E+004
            1921    8.00435E+007    7.99716E+007    7.99716E+007   -6.55204E+004   -7.81683E+004    8.00498E+007   -2.66093E+007    8.00435E+007    7.99716E+007   -6.55644E+004   -7.81243E+004    1.17642E+002   -3.62076E+001    7.45115E+002
            1922    8.00572E+007    7.99623E+007    7.99623E+007   -8.73238E+004   -1.02437E+005    8.00647E+007   -2.65908E+007    8.00572E+007    7.99623E+007   -8.73684E+004   -1.02393E+005    1.20679E+002   -2.03063E+002    8.19427E+002
            1923    8.00787E+007    7.99477E+007    7.99477E+007   -1.22768E+005   -1.39269E+005    8.00869E+007   -2.65619E+007    8.00787E+007    7.99477E+007   -1.22882E+005   -1.39155E+005    1.24832E+002   -2.25173E+002    1.36779E+003
            1924    8.01003E+007    7.99328E+007    7.99328E+007   -1.57250E+005   -1.77806E+005    8.01106E+007   -2.65326E+007    8.01003E+007    7.99328E+007   -1.57324E+005   -1.77732E+005    8.83277E+001   -2.85535E+002    1.23035E+003
            1925    8.01181E+007    7.99207E+007    7.99207E+007   -1.84024E+005   -2.10841E+005    8.01315E+007   -2.65086E+007    8.01181E+007    7.99207E+007   -1.84127E+005   -2.10738E+005    1.19130E+002   -1.96347E+002    1.65944E+003
            1926    8.01233E+007    7.99171E+007    7.99171E+007   -1.81146E+005   -2.31299E+005    8.01484E+007   -2.65016E+007    8.01233E+007    7.99171E+007   -1.81530E+005   -2.30915E+005    5.46262E+001   -1.41842E+002   -4.36996E+003
            1927    8.01205E+007    7.99188E+007    7.99188E+007   -1.62738E+005   -2.40698E+005    8.01595E+007   -2.65051E+007    8.01204E+007    7.99188E+007   -1.82709E+005   -2.20727E+005    6.20796E+002   -1.16267E+002   -3.40309E+004
            1928    8.00666E+007    7.99559E+007    7.99559E+007   -1.03816E+005   -1.17703E+005    8.00736E+007   -2.65781E+007    8.00666E+007    7.99559E+007   -1.17294E+005   -1.04224E+005   -1.80839E+002    9.02623E+001    2.34738E+003
            1929    8.00473E+007    7.99689E+007    7.99689E+007   -7.36213E+004   -8.32623E+004    8.00522E+007   -2.66040E+007    8.00473E+007    7.99689E+007   -8.27109E+004   -7.41727E+004   -1.24362E+002    4.18592E+000    2.23873E+003
            1930    8.00396E+007    7.99743E+007    7.99743E+007   -6.26396E+004   -6.78756E+004    8.00422E+007   -2.66146E+007    8.00396E+007    7.99743E+007   -6.78394E+004   -6.26757E+004    1.20196E+001    5.81235E+001    4.33486E+002
            1931    8.00470E+007    7.99691E+007    7.99691E+007   -7.37545E+004   -8.19685E+004    8.00511E+007   -2.66045E+007    8.00470E+007    7.99691E+007   -8.15797E+004   -7.41433E+004    1.61884E+002    4.87859E+000   -1.74427E+003
            1932    8.00662E+007    7.99562E+007    7.99562E+007   -1.03863E+005   -1.16255E+005    8.00724E+007   -2.65787E+007    8.00662E+007    7.99562E+007   -1.15850E+005   -1.04268E+005    1.83715E+002    1.04348E+002   -2.20320E+003
            1933    8.00897E+007    7.99399E+007    7.99399E+007   -1.40721E+005   -1.58860E+005    8.00988E+007   -2.65468E+007    8.00897E+007    7.99399E+007   -1.58583E+005   -1.40998E+005    3.06653E+002    5.19185E+001   -2.22437E+003
            1934    8.01098E+007    7.99265E+007    7.99265E+007   -1.69948E+005   -1.96631E+005    8.01231E+007   -2.65200E+007    8.01098E+007    7.99265E+007   -1.96569E+005   -1.70010E+005    1.21929E+002    2.03329E+002    1.28241E+003
            1935    8.01193E+007    7.99197E+007    7.99197E+007   -1.82781E+005   -2.16547E+005    8.01362E+007   -2.65068E+007    8.01193E+007    7.99197E+007   -2.11011E+005   -1.88317E+005    2.68175E+002    1.10533E+002    1.25017E+004
            1936    8.01203E+007    7.99195E+007    7.99195E+007   -1.82867E+005   -2.18694E+005    8.01382E+007   -2.65060E+007    8.01203E+007    7.99195E+007   -1.92198E+005   -2.09364E+005   -3.55037E+002    1.10497E+003    1.57233E+004
            1937    8.00738E+007    7.99502E+007    7.99502E+007   -9.06231E+004   -1.56683E+005    8.01068E+007   -2.65676E+007    8.00738E+007    7.99502E+007   -1.51028E+005   -9.62781E+004   -6.23243E+002    1.87129E+002   -1.84821E+004
            1938    8.00793E+007    7.99465E+007    7.99465E+007   -9.31258E+004   -1.72278E+005    8.01188E+007   -2.65604E+007    8.00792E+007    7.99465E+007   -1.63511E+005   -1.01893E+005   -8.19033E+002   -1.96617E+002   -2.48415E+004
            1939    8.00816E+007    7.99451E+007    7.99451E+007   -1.00921E+005   -1.71912E+005    8.01170E+007   -2.65574E+007    8.00815E+007    7.99451E+007   -1.62284E+005   -1.10549E+005   -4.09584E+002    4.12600E+002   -2.43056E+004
            1940    8.00831E+007    7.99444E+007    7.99444E+007   -1.11644E+005   -1.65622E+005    8.01101E+007   -2.65557E+007    8.00830E+007    7.99444E+007   -1.55544E+005   -1.21723E+005   -2.65345E+002   -3.73520E+002   -2.10345E+004
            1941    8.00832E+007    7.99446E+007    7.99446E+007   -1.21097E+005   -1.55984E+005    8.01006E+007   -2.65558E+007    8.00831E+007    7.99446E+007   -1.46314E+005   -1.30766E+005    7.08100E+001    5.78616E+002   -1.56155E+004
            1942    8.00833E+007    7.99447E+007    7.99447E+007   -1.28737E+005   -1.48411E+005    8.00931E+007   -2.65559E+007    8.00833E+007    7.99447E+007   -1.38489E+005   -1.38660E+005    1.03676E+002   -5.10731E+002   -9.83668E+003
            1943    8.00831E+007    7.99449E+007    7.99449E+007   -1.32818E+005   -1.43508E+005    8.00884E+007   -2.65562E+007    8.00831E+007    7.99449E+007   -1.33900E+005   -1.42426E+005    1.59302E+002    5.84356E+002   -3.22401E+003
            1944    8.00650E+007    7.99577E+007    7.99577E+007   -7.34773E+004   -1.41107E+005    8.00988E+007   -2.65811E+007    8.00650E+007    7.99577E+007   -1.39623E+005   -7.49606E+004    2.06320E+002    2.58650E+002   -9.90543E+003
            1945    8.00746E+007    7.99516E+007    7.99516E+007   -8.35110E+004   -1.62502E+005    8.01141E+007   -2.65685E+007    8.00746E+007    7.99516E+007   -1.60674E+005   -8.53394E+004    2.99644E+002   -5.33881E+001   -1.18778E+004
            1946    8.00792E+007    7.99478E+007    7.99478E+007   -9.73401E+004   -1.65533E+005    8.01133E+007   -2.65616E+007    8.00792E+007    7.99478E+007   -1.63744E+005   -9.91295E+004    2.38051E+002    5.52127E+002   -1.09008E+004
            1947    8.00816E+007    7.99459E+007    7.99459E+007   -1.11656E+005   -1.59854E+005    8.01057E+007   -2.65581E+007    8.00816E+007    7.99459E+007   -1.58466E+005   -1.13044E+005    1.65837E+001   -5.68892E+002   -8.06007E+003
            1948    8.00824E+007    7.99448E+007    7.99448E+007   -1.23757E+005   -1.51395E+005    8.00962E+007   -2.65566E+007    8.00824E+007    7.99448E+007   -1.50254E+005   -1.24898E+005   -5.00891E+001    6.73612E+002   -5.49790E+003
            1949    8.00826E+007    7.99444E+007    7.99444E+007   -1.32903E+005   -1.43662E+005    8.00880E+007   -2.65559E+007    8.00826E+007    7.99444E+007   -1.42818E+005   -1.33746E+005   -1.57463E+002   -8.15123E+002   -2.89243E+003
            1950    8.00827E+007    7.99442E+007    7.99442E+007   -1.37298E+005   -1.39549E+005    8.00838E+007   -2.65558E+007    8.00826E+007    7.99442E+007   -1.38532E+005   -1.38315E+005   -1.39959E+002    7.68116E+002   -1.12060E+003
            1951    8.00606E+007    7.99595E+007    7.99595E+007   -6.70024E+004   -1.35305E+005    8.00948E+007   -2.65857E+007    8.00606E+007    7.99595E+007   -1.35292E+005   -6.70152E+004   -1.49221E+002    2.41569E+002    9.35185E+002
            1952    8.00721E+007    7.99517E+007    7.99517E+007   -8.13996E+004   -1.59228E+005    8.01109E+007   -2.65704E+007    8.00720E+007    7.99517E+007   -1.59149E+005   -8.14784E+004   -2.16090E+002   -1.86911E+002    2.47410E+003
            1953    8.00778E+007    7.99477E+007    7.99477E+007   -9.60151E+004   -1.64266E+005    8.01119E+007   -2.65625E+007    8.00778E+007    7.99477E+007   -1.63967E+005   -9.63138E+004   -1.37519E+002    5.71420E+002    4.50554E+003
            1954    8.00813E+007    7.99457E+007    7.99457E+007   -1.11702E+005   -1.59602E+005    8.01053E+007   -2.65581E+007    8.00813E+007    7.99457E+007   -1.58979E+005   -1.12325E+005   -2.37092E+001   -5.00467E+002    5.42724E+003
            1955    8.00826E+007    7.99452E+007    7.99452E+007   -1.23329E+005   -1.51508E+005    8.00967E+007   -2.65568E+007    8.00826E+007    7.99452E+007   -1.50373E+005   -1.24464E+005    6.82885E+001    8.09769E+002    5.54123E+003
            1956    8.00833E+007    7.99450E+007    7.99450E+007   -1.32565E+005   -1.43989E+005    8.00890E+007   -2.65561E+007    8.00832E+007    7.99450E+007   -1.42553E+005   -1.34002E+005    9.88367E+001   -7.14939E+002    3.78777E+003
            1957    8.00834E+007    7.99451E+007    7.99451E+007   -1.36665E+005   -1.39780E+005    8.00849E+007   -2.65562E+007    8.00834E+007    7.99451E+007   -1.37877E+005   -1.38568E+005    9.13952E+001    8.22692E+002    1.51877E+003
            1958    8.00654E+007    7.99574E+007    7.99574E+007   -7.48178E+004   -1.41231E+005    8.00986E+007   -2.65805E+007    8.00654E+007    7.99574E+007   -1.39217E+005   -7.68315E+004    1.77154E+002    2.40171E+002    1.13877E+004
            1959    8.00758E+007    7.99507E+007    7.99507E+007   -8.53873E+004   -1.64808E+005    8.01155E+007   -2.65668E+007    8.00757E+007    7.99507E+007   -1.61157E+005   -8.90388E+004    2.60899E+002   -4.74086E+001    1.66334E+004
            1960    8.00805E+007    7.99469E+007    7.99469E+007   -9.83659E+004   -1.68807E+005    8.01157E+007   -2.65599E+007    8.00805E+007    7.99469E+007   -1.63382E+005   -1.03790E+005    1.53827E+002    5.05352E+002    1.87798E+004
            1961    8.00827E+007    7.99450E+007    7.99450E+007   -1.10853E+005   -1.64504E+005    8.01096E+007   -2.65566E+007    8.00827E+007    7.99450E+007   -1.57053E+005   -1.18304E+005    1.47029E+002   -5.48552E+002    1.85534E+004
            1962    8.00830E+007    7.99444E+007    7.99444E+007   -1.21087E+005   -1.56173E+005    8.01006E+007   -2.65557E+007    8.00830E+007    7.99444E+007   -1.47000E+005   -1.30260E+005   -6.68467E+000    5.68992E+002    1.54177E+004
            1963    8.00827E+007    7.99441E+007    7.99441E+007   -1.28086E+005   -1.49078E+005    8.00932E+007   -2.65557E+007    8.00827E+007    7.99441E+007   -1.38136E+005   -1.39028E+005    1.05196E+001   -7.55115E+002    1.04868E+004
            1964    8.00825E+007    7.99443E+007    7.99443E+007   -1.31834E+005   -1.44558E+005    8.00889E+007   -2.65560E+007    8.00825E+007    7.99443E+007   -1.32837E+005   -1.43555E+005   -3.72502E+001    6.49259E+002    3.42873E+003
            1965    8.00753E+007    7.99492E+007    7.99492E+007   -9.42045E+004   -1.57870E+005    8.01071E+007   -2.65657E+007    8.00752E+007    7.99492E+007   -1.51612E+005   -1.00463E+005    2.65215E+002    1.42248E+002    1.89547E+004
            1966    8.00812E+007    7.99451E+007    7.99451E+007   -9.66110E+004   -1.75437E+005    8.01205E+007   -2.65577E+007    8.00811E+007    7.99451E+007   -1.63876E+005   -1.08171E+005    3.84595E+002   -1.86531E+002    2.78855E+004
            1967    8.00839E+007    7.99434E+007    7.99434E+007   -1.03315E+005   -1.77726E+005    8.01211E+007   -2.65541E+007    8.00838E+007    7.99434E+007   -1.62179E+005   -1.18862E+005    1.26700E+002    2.90771E+002    3.02511E+004
            1968    8.00848E+007    7.99431E+007    7.99431E+007   -1.10854E+005   -1.72532E+005    8.01156E+007   -2.65532E+007    8.00847E+007    7.99431E+007   -1.52906E+005   -1.30479E+005    2.13972E+002   -3.18915E+002    2.87281E+004
            1969    8.00844E+007    7.99440E+007    7.99440E+007   -1.16414E+005   -1.64353E+005    8.01083E+007   -2.65544E+007    8.00843E+007    7.99440E+007   -1.40862E+005   -1.39905E+005   -1.66326E+001    3.85857E+002    2.39646E+004
            1970    8.00834E+007    7.99448E+007    7.99448E+007   -1.20779E+005   -1.56456E+005    8.01012E+007   -2.65558E+007    8.00834E+007    7.99448E+007   -1.30022E+005   -1.47212E+005   -9.80745E+000   -3.60579E+002    1.56314E+004
            1971    8.00829E+007    7.99455E+007    7.99455E+007   -1.22691E+005   -1.51969E+005    8.00975E+007   -2.65570E+007    8.00829E+007    7.99455E+007   -1.23743E+005   -1.50917E+005   -1.18183E+002    3.76553E+002    5.44911E+003
            1972    8.00900E+007    7.99405E+007    7.99405E+007   -1.19151E+005   -1.79684E+005    8.01202E+007   -2.65472E+007    8.00899E+007    7.99405E+007   -1.67909E+005   -1.30926E+005   -7.10859E+001    1.18335E+002    2.39613E+004
            1973    8.00905E+007    7.99401E+007    7.99401E+007   -1.11848E+005   -1.88823E+005    8.01290E+007   -2.65465E+007    8.00904E+007    7.99401E+007   -1.68076E+005   -1.32595E+005    2.12866E+001    1.84208E+002    3.41548E+004
            1974    8.00898E+007    7.99403E+007    7.99403E+007   -1.11029E+005   -1.87986E+005    8.01282E+007   -2.65471E+007    8.00897E+007    7.99403E+007   -1.60825E+005   -1.38190E+005   -2.03412E+001   -5.58159E+001    3.67768E+004
            1975    8.00878E+007    7.99413E+007    7.99413E+007   -1.10866E+005   -1.82019E+005    8.01233E+007   -2.65495E+007    8.00877E+007    7.99413E+007   -1.48045E+005   -1.44840E+005    9.03108E+001   -1.05445E+002    3.55406E+004
            1976    8.00851E+007    7.99430E+007    7.99430E+007   -1.11109E+005   -1.72895E+005    8.01159E+007   -2.65530E+007    8.00850E+007    7.99430E+007   -1.32529E+005   -1.51475E+005    4.80403E+000   -2.63174E+002    2.94044E+004
            1977    8.00825E+007    7.99446E+007    7.99446E+007   -1.10990E+005   -1.64741E+005    8.01094E+007   -2.65563E+007    8.00825E+007    7.99446E+007   -1.19485E+005   -1.56245E+005    9.13702E+000   -1.17752E+002    1.96076E+004
            1978    8.00811E+007    7.99457E+007    7.99457E+007   -1.10867E+005   -1.59902E+005    8.01056E+007   -2.65583E+007    8.00811E+007    7.99457E+007   -1.11771E+005   -1.58998E+005   -4.31442E+001   -1.36761E+002    6.59548E+003
            1979    8.01017E+007    7.99308E+007    7.99308E+007   -1.43954E+005   -1.97756E+005    8.01285E+007   -2.65297E+007    8.01016E+007    7.99308E+007   -1.80424E+005   -1.61286E+005    6.18587E+002   -2.75288E+002    2.51412E+004
            1980    8.00980E+007    7.99332E+007    7.99332E+007   -1.30373E+005   -1.99088E+005    8.01323E+007   -2.65346E+007    8.00979E+007    7.99332E+007   -1.72303E+005   -1.57158E+005    6.63013E+002    5.69508E+001    3.35129E+004
            1981    8.00950E+007    7.99358E+007    7.99358E+007   -1.20695E+005   -1.97566E+005    8.01334E+007   -2.65392E+007    8.00949E+007    7.99358E+007   -1.61281E+005   -1.56980E+005    2.72138E+002   -5.33032E+002    3.83749E+004
            1982    8.00904E+007    7.99394E+007    7.99394E+007   -1.12520E+005   -1.89369E+005    8.01288E+007   -2.65459E+007    8.00903E+007    7.99394E+007   -1.43171E+005   -1.58718E+005    4.75727E+001    3.68476E+002    3.76299E+004
            1983    8.00854E+007    7.99430E+007    7.99430E+007   -1.05620E+005   -1.79239E+005    8.01222E+007   -2.65527E+007    8.00853E+007    7.99430E+007   -1.24077E+005   -1.60783E+005   -2.91448E+001   -5.39491E+002    3.19075E+004
            1984    8.00812E+007    7.99464E+007    7.99464E+007   -9.97615E+004   -1.69715E+005    8.01161E+007   -2.65590E+007    8.00811E+007    7.99464E+007   -1.07011E+005   -1.62465E+005   -1.30103E+002    3.56186E+002    2.13212E+004
            1985    8.00785E+007    7.99483E+007    7.99483E+007   -9.64437E+004   -1.64066E+005    8.01123E+007   -2.65626E+007    8.00785E+007    7.99483E+007   -9.72481E+004   -1.63262E+005   -1.33716E+002   -4.42701E+002    7.33142E+003
            1986    8.01125E+007    7.99256E+007    7.99256E+007   -1.67749E+005   -2.06088E+005    8.01317E+007   -2.65173E+007    8.01125E+007    7.99256E+007   -1.88011E+005   -1.85825E+005   -7.26121E+002   -2.57455E+002    1.91382E+004
            1987    8.01068E+007    7.99288E+007    7.99288E+007   -1.49664E+005   -2.06186E+005    8.01350E+007   -2.65243E+007    8.01067E+007    7.99288E+007   -1.79564E+005   -1.76286E+005   -6.32152E+002    1.14180E+003    2.82136E+004
            1988    8.01001E+007    7.99322E+007    7.99322E+007   -1.33744E+005   -2.01993E+005    8.01342E+007   -2.65322E+007    8.01001E+007    7.99322E+007   -1.63126E+005   -1.72611E+005    1.75338E+002   -1.26152E+003    3.37938E+004
            1989    8.00932E+007    7.99381E+007    7.99381E+007   -1.17577E+005   -1.92451E+005    8.01306E+007   -2.65427E+007    8.00931E+007    7.99381E+007   -1.41819E+005   -1.68210E+005   -1.58577E+002    6.00364E+002    3.50345E+004
            1990    8.00842E+007    7.99435E+007    7.99435E+007   -1.01931E+005   -1.79476E+005    8.01230E+007   -2.65540E+007    8.00841E+007    7.99435E+007   -1.16698E+005   -1.64708E+005   -2.01794E+001   -1.11212E+003    3.04478E+004
            1991    8.00774E+007    7.99490E+007    7.99490E+007   -8.96665E+004   -1.67137E+005    8.01161E+007   -2.65641E+007    8.00774E+007    7.99490E+007   -9.56537E+004   -1.61150E+005   -2.26929E+002    4.74046E+002    2.06878E+004
            1992    8.00728E+007    7.99520E+007    7.99520E+007   -8.20696E+004   -1.59582E+005    8.01116E+007   -2.65701E+007    8.00728E+007    7.99520E+007   -8.27665E+004   -1.58885E+005   -2.51324E+002   -7.50016E+002    7.31660E+003
            1993    8.01185E+007    7.99181E+007    7.99181E+007   -1.88350E+005   -2.12382E+005    8.01305E+007   -2.65058E+007    8.01185E+007    7.99181E+007   -1.99538E+005   -2.01193E+005    2.00928E+003   -2.47773E+003    1.19874E+004
            1994    8.01149E+007    7.99237E+007    7.99237E+007   -1.72979E+005   -2.09400E+005    8.01331E+007   -2.65138E+007    8.01149E+007    7.99237E+007   -1.87165E+005   -1.95213E+005   -5.35686E+001    1.27230E+003    1.77603E+004
            1995    8.01067E+007    7.99275E+007    7.99275E+007   -1.55732E+005   -2.02565E+005    8.01301E+007   -2.65231E+007    8.01067E+007    7.99275E+007   -1.72730E+005   -1.85568E+005    7.30186E+001   -1.04212E+003    2.25194E+004
            1996    8.00957E+007    7.99365E+007    7.99365E+007   -1.31163E+005   -1.87249E+005    8.01238E+007   -2.65394E+007    8.00957E+007    7.99365E+007   -1.45593E+005   -1.72819E+005   -1.18430E+002    5.63756E+002    2.45171E+004
            1997    8.00817E+007    7.99454E+007    7.99454E+007   -1.05788E+005   -1.66847E+005    8.01123E+007   -2.65576E+007    8.00817E+007    7.99454E+007   -1.15424E+005   -1.57211E+005   -8.93219E+001   -7.62058E+002    2.22602E+004
            1998    8.00698E+007    7.99544E+007    7.99544E+007   -8.25954E+004   -1.48279E+005    8.01026E+007   -2.65745E+007    8.00697E+007    7.99544E+007   -8.67844E+004   -1.44090E+005   -4.73782E+001    3.38276E+002    1.60500E+004
            1999    8.00624E+007    7.99593E+007    7.99593E+007   -6.94638E+004   -1.36556E+005    8.00959E+007   -2.65844E+007    8.00623E+007    7.99593E+007   -6.99643E+004   -1.36056E+005   -3.14678E+001   -5.40772E+002    5.77303E+003
            2000    8.00415E+007    7.99732E+007    7.99732E+007   -6.52293E+004   -7.14236E+004    8.00446E+007   -2.66122E+007    8.00415E+007    7.99732E+007   -6.53050E+004   -7.13479E+004   -1.33054E+002    3.71444E+000   -6.80473E+002
            2001    8.00561E+007    7.99632E+007    7.99632E+007   -8.79676E+004   -9.77849E+004    8.00610E+007   -2.65925E+007    8.00561E+007    7.99632E+007   -8.81244E+004   -9.76281E+004   -1.16582E+002   -2.80530E+002   -1.23093E+003
            2002    8.00785E+007    7.99480E+007    7.99480E+007   -1.24580E+005   -1.36594E+005    8.00846E+007   -2.65623E+007    8.00785E+007    7.99480E+007   -1.24591E+005   -1.36583E+005   -1.12873E+002   -1.76199E+002    3.62971E+002
            2003    8.01006E+007    7.99328E+007    7.99328E+007   -1.62409E+005   -1.73054E+005    8.01059E+007   -2.65325E+007    8.01006E+007    7.99328E+007   -1.62445E+005   -1.73019E+005   -6.45680E+001   -3.72760E+002    6.10843E+002
            2004    8.01166E+007    7.99219E+007    7.99219E+007   -1.88303E+005   -2.01001E+005    8.01229E+007   -2.65109E+007    8.01166E+007    7.99219E+007   -1.88303E+005   -2.01001E+005   -9.92898E+001   -1.35827E+002    7.46502E+001
            2005    8.01256E+007    7.99158E+007    7.99158E+007   -2.02684E+005   -2.16896E+005    8.01327E+007   -2.64987E+007    8.01256E+007    7.99158E+007   -2.02785E+005   -2.16795E+005   -4.21608E+000   -2.37239E+002   -1.19617E+003
            2006    8.01250E+007    7.99162E+007    7.99162E+007   -1.93851E+005   -2.23741E+005    8.01400E+007   -2.64996E+007    8.01250E+007    7.99162E+007   -1.93970E+005   -2.23622E+005   -8.19976E+002    1.49261E+002    1.87766E+003
            2007    8.01198E+007    7.99194E+007    7.99194E+007   -1.63742E+005   -2.37067E+005    8.01564E+007   -2.65062E+007    8.01197E+007    7.99194E+007   -2.15681E+005   -1.85128E+005   -1.67771E+002   -7.77686E+002    3.33280E+004
            2008    8.01201E+007    7.99193E+007    7.99193E+007   -1.78590E+005   -2.22878E+005    8.01422E+007   -2.65060E+007    8.01200E+007    7.99193E+007   -2.22265E+005   -1.79203E+005   -1.02629E+002   -6.77027E+001    5.17422E+003
            2009    8.01106E+007    7.99259E+007    7.99259E+007   -1.72476E+005   -1.97043E+005    8.01229E+007   -2.65188E+007    8.01106E+007    7.99259E+007   -1.97003E+005   -1.72516E+005   -2.40425E+002   -1.92037E+002   -9.89642E+002
            2010    8.00898E+007    7.99401E+007    7.99401E+007   -1.40226E+005   -1.59212E+005    8.00993E+007   -2.65469E+007    8.00898E+007    7.99401E+007   -1.59088E+005   -1.40350E+005   -1.97712E+002   -4.57433E+001   -1.53029E+003
            2011    8.00885E+007    7.99416E+007    7.99416E+007   -1.14946E+005   -1.78806E+005    8.01204E+007   -2.65493E+007    8.00885E+007    7.99416E+007   -1.67295E+005   -1.26458E+005    3.45652E+002   -1.86268E+002    2.45480E+004
            2012    8.00878E+007    7.99420E+007    7.99420E+007   -1.06255E+005   -1.85349E+005    8.01274E+007   -2.65501E+007    8.00878E+007    7.99420E+007   -1.66844E+005   -1.24760E+005    3.50153E+002   -1.05826E+002    3.34845E+004
            2013    8.00868E+007    7.99421E+007    7.99421E+007   -1.06881E+005   -1.82461E+005    8.01246E+007   -2.65509E+007    8.00868E+007    7.99421E+007   -1.60130E+005   -1.29212E+005    2.11547E+002   -1.55001E+002    3.44831E+004
            2014    8.00854E+007    7.99428E+007    7.99428E+007   -1.10780E+005   -1.74387E+005    8.01172E+007   -2.65526E+007    8.00854E+007    7.99428E+007   -1.49703E+005   -1.35464E+005   -2.55365E+001    2.69007E+002    3.09962E+004
            2015    8.00843E+007    7.99436E+007    7.99436E+007   -1.16070E+005   -1.65311E+005    8.01089E+007   -2.65541E+007    8.00843E+007    7.99436E+007   -1.38547E+005   -1.42833E+005    5.21634E+001   -8.25876E+001    2.45272E+004
            2016    8.00831E+007    7.99443E+007    7.99443E+007   -1.20498E+005   -1.56963E+005    8.01013E+007   -2.65556E+007    8.00830E+007    7.99443E+007   -1.29257E+005   -1.48204E+005   -2.11138E+001    3.17280E+002    1.55786E+004
            2017    8.00826E+007    7.99448E+007    7.99448E+007   -1.23222E+005   -1.52428E+005    8.00972E+007   -2.65564E+007    8.00826E+007    7.99448E+007   -1.24277E+005   -1.51373E+005    6.92475E+000   -1.53350E+002    5.44839E+003
            2018    8.01000E+007    7.99319E+007    7.99319E+007   -1.38532E+005   -1.97485E+005    8.01294E+007   -2.65320E+007    8.00999E+007    7.99319E+007   -1.81240E+005   -1.54776E+005   -9.47596E+002    1.49789E+002    2.63394E+004
            2019    8.00956E+007    7.99351E+007    7.99351E+007   -1.22321E+005   -1.98663E+005    8.01338E+007   -2.65380E+007    8.00955E+007    7.99351E+007   -1.70828E+005   -1.50156E+005   -9.77400E+002    8.39822E+001    3.67449E+004
            2020    8.00921E+007    7.99381E+007    7.99381E+007   -1.14319E+005   -1.93550E+005    8.01316E+007   -2.65434E+007    8.00920E+007    7.99381E+007   -1.58285E+005   -1.49584E+005   -3.70075E+002    1.87646E+002    3.93759E+004
            2021    8.00885E+007    7.99406E+007    7.99406E+007   -1.10460E+005   -1.85386E+005    8.01260E+007   -2.65482E+007    8.00884E+007    7.99406E+007   -1.43498E+005   -1.52348E+005   -1.98026E+002   -1.27351E+002    3.72008E+004
            2022    8.00850E+007    7.99432E+007    7.99432E+007   -1.08521E+005   -1.75141E+005    8.01183E+007   -2.65532E+007    8.00850E+007    7.99432E+007   -1.28126E+005   -1.55536E+005   -5.15205E+001    2.73308E+002    3.03599E+004
            2023    8.00826E+007    7.99450E+007    7.99450E+007   -1.08100E+005   -1.67170E+005    8.01122E+007   -2.65566E+007    8.00826E+007    7.99450E+007   -1.15925E+005   -1.59345E+005    2.65278E+001   -1.40555E+002    2.00250E+004
            2024    8.00812E+007    7.99461E+007    7.99461E+007   -1.08122E+005   -1.62023E+005    8.01081E+007   -2.65587E+007    8.00812E+007    7.99461E+007   -1.08997E+005   -1.61148E+005    7.73130E+001    2.24727E+002    6.81220E+003
            2025    8.01111E+007    7.99265E+007    7.99265E+007   -1.58316E+005   -2.10754E+005    8.01373E+007   -2.65192E+007    8.01110E+007    7.99265E+007   -1.89521E+005   -1.79550E+005    1.03390E+003    3.45813E+001    2.57405E+004
            2026    8.01036E+007    7.99305E+007    7.99305E+007   -1.40675E+005   -2.05533E+005    8.01360E+007   -2.65281E+007    8.01036E+007    7.99305E+007   -1.74979E+005   -1.71229E+005    6.43631E+002   -8.56642E+002    3.23750E+004
            2027    8.00975E+007    7.99340E+007    7.99340E+007   -1.25212E+005   -2.01823E+005    8.01358E+007   -2.65356E+007    8.00974E+007    7.99340E+007   -1.59322E+005   -1.67713E+005   -1.29717E+002    1.05059E+003    3.80746E+004
            2028    8.00911E+007    7.99392E+007    7.99392E+007   -1.11545E+005   -1.92169E+005    8.01314E+007   -2.65452E+007    8.00910E+007    7.99392E+007   -1.38169E+005   -1.65545E+005    1.61600E+002   -5.17623E+002    3.79172E+004
            2029    8.00849E+007    7.99429E+007    7.99429E+007   -1.01788E+005   -1.82027E+005    8.01250E+007   -2.65530E+007    8.00848E+007    7.99429E+007   -1.18018E+005   -1.65797E+005    1.08080E+001    9.49190E+002    3.22316E+004
            2030    8.00798E+007    7.99471E+007    7.99471E+007   -9.37791E+004   -1.71622E+005    8.01187E+007   -2.65606E+007    8.00798E+007    7.99471E+007   -1.00278E+005   -1.65124E+005    2.16461E+002   -4.05101E+002    2.15327E+004
            2031    8.00770E+007    7.99490E+007    7.99490E+007   -9.04484E+004   -1.65656E+005    8.01146E+007   -2.65643E+007    8.00770E+007    7.99490E+007   -9.11791E+004   -1.64925E+005    2.14060E+002    6.49345E+002    7.37702E+003
            2032    8.01167E+007    7.99197E+007    7.99197E+007   -1.79576E+005   -2.14413E+005    8.01341E+007   -2.65086E+007    8.01167E+007    7.99197E+007   -1.96758E+005   -1.97231E+005   -2.20779E+003    2.36292E+003    1.74167E+004
            2033    8.01127E+007    7.99252E+007    7.99252E+007   -1.61330E+005   -2.13659E+005    8.01388E+007   -2.65167E+007    8.01126E+007    7.99252E+007   -1.84237E+005   -1.90752E+005    3.55761E+001   -1.34017E+003    2.59612E+004
            2034    8.01039E+007    7.99292E+007    7.99292E+007   -1.44890E+005   -2.04440E+005    8.01337E+007   -2.65266E+007    8.01039E+007    7.99292E+007   -1.64280E+005   -1.85050E+005   -2.14920E+002    1.11843E+003    2.79051E+004
            2035    8.00945E+007    7.99371E+007    7.99371E+007   -1.24573E+005   -1.90166E+005    8.01273E+007   -2.65408E+007    8.00945E+007    7.99371E+007   -1.40631E+005   -1.74108E+005    9.13908E+001   -5.83639E+002    2.82032E+004
            2036    8.00818E+007    7.99451E+007    7.99451E+007   -1.00847E+005   -1.72353E+005    8.01175E+007   -2.65573E+007    8.00817E+007    7.99451E+007   -1.11570E+005   -1.61630E+005    2.34137E+001    8.67172E+002    2.55296E+004
            2037    8.00727E+007    7.99522E+007    7.99522E+007   -8.29421E+004   -1.58031E+005    8.01102E+007   -2.65704E+007    8.00726E+007    7.99522E+007   -8.76776E+004   -1.53295E+005    7.61189E+001   -3.76418E+002    1.82525E+004
            2038    8.00671E+007    7.99559E+007    7.99559E+007   -7.24246E+004   -1.49962E+005    8.01058E+007   -2.65778E+007    8.00670E+007    7.99559E+007   -7.30705E+004   -1.49316E+005    5.98728E+001    5.82144E+002    7.04723E+003
            2039    8.00437E+007    7.99715E+007    7.99715E+007   -6.58957E+004   -7.84769E+004    8.00500E+007   -2.66090E+007    8.00437E+007    7.99715E+007   -6.59531E+004   -7.84195E+004    1.22166E+002    5.89648E+001   -8.48372E+002
            2040    8.00573E+007    7.99622E+007    7.99622E+007   -8.75266E+004   -1.02711E+005    8.00649E+007   -2.65906E+007    8.00573E+007    7.99622E+007   -8.76014E+004   -1.02636E+005    1.08927E+002    2.24669E+002   -1.06320E+003
            2041    8.00785E+007    7.99477E+007    7.99477E+007   -1.22333E+005   -1.39336E+005    8.00870E+007   -2.65620E+007    8.00785E+007    7.99477E+007   -1.22422E+005   -1.39247E+005    1.23075E+002    2.20937E+002   -1.22692E+003
            2042    8.01000E+007    7.99330E+007    7.99330E+007   -1.56691E+005   -1.77208E+005    8.01102E+007   -2.65330E+007    8.01000E+007    7.99330E+007   -1.56718E+005   -1.77181E+005    7.88257E+001    2.74336E+002   -7.40236E+002
            2043    8.01175E+007    7.99211E+007    7.99211E+007   -1.83391E+005   -2.09399E+005    8.01305E+007   -2.65094E+007    8.01175E+007    7.99211E+007   -1.83473E+005   -2.09316E+005    1.01252E+002    1.85099E+002   -1.46356E+003
            2044    8.01232E+007    7.99172E+007    7.99172E+007   -1.81760E+005   -2.30226E+005    8.01475E+007   -2.65018E+007    8.01232E+007    7.99172E+007   -1.82123E+005   -2.29863E+005    1.57784E+001    8.53013E+001    4.17703E+003
            2045    8.01204E+007    7.99189E+007    7.99189E+007   -1.63237E+005   -2.39816E+005    8.01587E+007   -2.65053E+007    8.01203E+007    7.99189E+007   -1.82382E+005   -2.20671E+005    6.12351E+002    1.61242E+002    3.31602E+004
            2046    8.00623E+007    7.99594E+007    7.99594E+007   -6.94376E+004   -1.36478E+005    8.00958E+007   -2.65845E+007    8.00623E+007    7.99594E+007   -6.99354E+004   -1.35980E+005   -3.97468E+001    5.18822E+002   -5.75591E+003
            2047    8.00728E+007    7.99520E+007    7.99520E+007   -8.20105E+004   -1.59563E+005    8.01116E+007   -2.65702E+007    8.00728E+007    7.99520E+007   -8.27703E+004   -1.58804E+005   -2.21111E+002    7.32502E+002   -7.63857E+003
            2048    8.00786E+007    7.99482E+007    7.99482E+007   -9.64227E+004   -1.64223E+005    8.01124E+007   -2.65625E+007    8.00785E+007    7.99482E+007   -9.73334E+004   -1.63312E+005   -1.53451E+002    4.29597E+002   -7.80506E+003
            2049    8.00811E+007    7.99457E+007    7.99457E+007   -1.10873E+005   -1.60060E+005    8.01057E+007   -2.65582E+007    8.00811E+007    7.99457E+007   -1.11938E+005   -1.58995E+005   -2.26516E+001    1.41716E+002   -7.15933E+003
            2050    8.00828E+007    7.99454E+007    7.99454E+007   -1.22700E+005   -1.52058E+005    8.00974E+007   -2.65569E+007    8.00828E+007    7.99454E+007   -1.23945E+005   -1.50812E+005   -1.20024E+002   -3.51835E+002   -5.91722E+003
            2051    8.00825E+007    7.99443E+007    7.99443E+007   -1.31774E+005   -1.44626E+005    8.00889E+007   -2.65560E+007    8.00825E+007    7.99443E+007   -1.32939E+005   -1.43461E+005    6.61980E+000   -6.43631E+002   -3.68918E+003
            2052    8.00833E+007    7.99451E+007    7.99451E+007   -1.36603E+005   -1.39857E+005    8.00849E+007   -2.65562E+007    8.00833E+007    7.99451E+007   -1.37949E+005   -1.38510E+005    5.72697E+001   -8.10089E+002   -1.60268E+003
            2053    8.00827E+007    7.99443E+007    7.99443E+007   -1.37301E+005   -1.39502E+005    8.00838E+007   -2.65558E+007    8.00827E+007    7.99443E+007   -1.38487E+005   -1.38315E+005   -8.95111E+001   -7.71167E+002    1.09719E+003
            2054    8.00831E+007    7.99450E+007    7.99450E+007   -1.32829E+005   -1.43525E+005    8.00885E+007   -2.65562E+007    8.00832E+007    7.99450E+007   -1.33876E+005   -1.42478E+005    1.34973E+002   -5.99193E+002    3.17851E+003
            2055    8.00700E+007    7.99542E+007    7.99542E+007   -8.30038E+004   -1.48435E+005    8.01027E+007   -2.65743E+007    8.00699E+007    7.99542E+007   -8.72605E+004   -1.44178E+005   -9.99731E+001   -3.35145E+002   -1.61369E+004
            2056    8.00776E+007    7.99489E+007    7.99489E+007   -9.00041E+004   -1.67355E+005    8.01163E+007   -2.65638E+007    8.00775E+007    7.99489E+007   -9.62191E+004   -1.61141E+005   -1.91449E+002   -4.66733E+002   -2.10263E+004
            2057    8.00814E+007    7.99462E+007    7.99462E+007   -9.99622E+004   -1.70241E+005    8.01165E+007   -2.65587E+007    8.00813E+007    7.99462E+007   -1.07663E+005   -1.62540E+005   -2.09540E+002   -3.44096E+002   -2.19528E+004
            2058    8.00828E+007    7.99447E+007    7.99447E+007   -1.11140E+005   -1.65121E+005    8.01098E+007   -2.65561E+007    8.00828E+007    7.99447E+007   -1.20237E+005   -1.56024E+005    8.99746E+001    8.88617E+001   -2.02068E+004
            2059    8.00835E+007    7.99448E+007    7.99448E+007   -1.20774E+005   -1.56648E+005    8.01014E+007   -2.65558E+007    8.00835E+007    7.99448E+007   -1.30583E+005   -1.46839E+005   -1.43057E+002    3.12583E+002   -1.59895E+004
            2060    8.00828E+007    7.99442E+007    7.99442E+007   -1.27985E+005   -1.49174E+005    8.00934E+007   -2.65557E+007    8.00828E+007    7.99442E+007   -1.38483E+005   -1.38676E+005    1.24091E+002    7.49643E+002   -1.05942E+004
            2061    8.00832E+007    7.99450E+007    7.99450E+007   -1.32481E+005   -1.44039E+005    8.00890E+007   -2.65561E+007    8.00832E+007    7.99450E+007   -1.42664E+005   -1.33856E+005   -3.23655E+001    6.96074E+002   -3.74121E+003
            2062    8.00826E+007    7.99444E+007    7.99444E+007   -1.32849E+005   -1.43662E+005    8.00880E+007   -2.65560E+007    8.00826E+007    7.99444E+007   -1.42752E+005   -1.33760E+005   -3.41928E+001    8.26969E+002    3.00249E+003
            2063    8.00832E+007    7.99446E+007    7.99446E+007   -1.28681E+005   -1.48514E+005    8.00932E+007   -2.65558E+007    8.00832E+007    7.99446E+007   -1.38297E+005   -1.38899E+005   -1.51427E+001    5.33641E+002    9.91214E+003
            2064    8.00822E+007    7.99451E+007    7.99451E+007   -1.06788E+005   -1.67432E+005    8.01125E+007   -2.65570E+007    8.00822E+007    7.99451E+007   -1.16456E+005   -1.57764E+005   -1.14279E+002    7.36598E+002   -2.22003E+004
            2065    8.00848E+007    7.99432E+007    7.99432E+007   -1.02818E+005   -1.80259E+005    8.01235E+007   -2.65534E+007    8.00847E+007    7.99432E+007   -1.18045E+005   -1.65032E+005    5.37229E+001    1.08938E+003   -3.07786E+004
            2066    8.00858E+007    7.99427E+007    7.99427E+007   -1.06205E+005   -1.79907E+005    8.01226E+007   -2.65522E+007    8.00857E+007    7.99427E+007   -1.25546E+005   -1.60566E+005   -1.46523E+002    5.15862E+002   -3.24251E+004
            2067    8.00852E+007    7.99428E+007    7.99428E+007   -1.11357E+005   -1.73258E+005    8.01161E+007   -2.65527E+007    8.00851E+007    7.99428E+007   -1.33854E+005   -1.50761E+005    1.48820E+002    3.40415E+002   -2.97739E+004
            2068    8.00842E+007    7.99439E+007    7.99439E+007   -1.16344E+005   -1.64391E+005    8.01083E+007   -2.65544E+007    8.00842E+007    7.99439E+007   -1.41745E+005   -1.38989E+005   -1.49708E+002   -3.43823E+002   -2.39838E+004
            2069    8.00829E+007    7.99444E+007    7.99444E+007   -1.20954E+005   -1.56128E+005    8.01005E+007   -2.65558E+007    8.00829E+007    7.99444E+007   -1.47457E+005   -1.29625E+005    1.69259E+002   -5.25295E+002   -1.51590E+004
            2070    8.00825E+007    7.99452E+007    7.99452E+007   -1.23260E+005   -1.51479E+005    8.00966E+007   -2.65568E+007    8.00825E+007    7.99452E+007   -1.50482E+005   -1.24256E+005   -8.78643E+001   -8.11901E+002   -5.20862E+003
            2071    8.00824E+007    7.99449E+007    7.99449E+007   -1.23833E+005   -1.51301E+005    8.00962E+007   -2.65566E+007    8.00824E+007    7.99449E+007   -1.50025E+005   -1.25108E+005    1.12945E+002   -6.81171E+002    5.78027E+003
            2072    8.00833E+007    7.99447E+007    7.99447E+007   -1.21158E+005   -1.56032E+005    8.01007E+007   -2.65558E+007    8.00832E+007    7.99447E+007   -1.46061E+005   -1.31128E+005   -5.07496E+001   -6.39103E+002    1.57571E+004
            2073    8.00962E+007    7.99361E+007    7.99361E+007   -1.32063E+005   -1.88148E+005    8.01243E+007   -2.65386E+007    8.00962E+007    7.99361E+007   -1.46616E+005   -1.73595E+005   -1.70268E+002   -5.48683E+002   -2.45846E+004
            2074    8.00937E+007    7.99377E+007    7.99377E+007   -1.18655E+005   -1.93347E+005    8.01310E+007   -2.65419E+007    8.00936E+007    7.99377E+007   -1.43494E+005   -1.68508E+005   -1.44618E+002   -5.41147E+002   -3.51898E+004
            2075    8.00907E+007    7.99392E+007    7.99392E+007   -1.12939E+005   -1.89866E+005    8.01291E+007   -2.65455E+007    8.00906E+007    7.99392E+007   -1.44737E+005   -1.58068E+005   -1.82226E+001   -3.73932E+002   -3.78814E+004
            2076    8.00877E+007    7.99414E+007    7.99414E+007   -1.10740E+005   -1.81980E+005    8.01233E+007   -2.65495E+007    8.00877E+007    7.99414E+007   -1.49268E+005   -1.43453E+005    1.41462E+002    7.02450E+001   -3.55011E+004
            2077    8.00846E+007    7.99432E+007    7.99432E+007   -1.10510E+005   -1.72166E+005    8.01154E+007   -2.65535E+007    8.00845E+007    7.99432E+007   -1.53529E+005   -1.29147E+005    1.22919E+002    2.56265E+002   -2.83148E+004
            2078    8.00826E+007    7.99452E+007    7.99452E+007   -1.10604E+005   -1.64205E+005    8.01094E+007   -2.65568E+007    8.00825E+007    7.99452E+007   -1.57286E+005   -1.17523E+005    2.23046E+002    5.57341E+002   -1.79718E+004
            2079    8.00813E+007    7.99457E+007    7.99457E+007   -1.11733E+005   -1.59465E+005    8.01052E+007   -2.65582E+007    8.00813E+007    7.99457E+007   -1.58950E+005   -1.12248E+005   -8.50609E+001    4.90330E+002   -4.93239E+003
            2080    8.00817E+007    7.99458E+007    7.99458E+007   -1.11912E+005   -1.59819E+005    8.01056E+007   -2.65580E+007    8.00817E+007    7.99458E+007   -1.58284E+005   -1.13448E+005    9.62197E+001    5.91736E+002    8.43882E+003
            2081    8.00831E+007    7.99444E+007    7.99444E+007   -1.12034E+005   -1.65460E+005    8.01098E+007   -2.65556E+007    8.00831E+007    7.99444E+007   -1.55258E+005   -1.22237E+005   -3.23941E+002    4.13651E+002    2.09997E+004
            2082    8.01071E+007    7.99273E+007    7.99273E+007   -1.56394E+005   -2.03190E+005    8.01305E+007   -2.65226E+007    8.01070E+007    7.99273E+007   -1.73618E+005   -1.85966E+005    8.49475E+001    1.03332E+003   -2.25689E+004
            2083    8.01004E+007    7.99320E+007    7.99320E+007   -1.34156E+005   -2.02475E+005    8.01345E+007   -2.65318E+007    8.01003E+007    7.99320E+007   -1.64105E+005   -1.72526E+005    1.85573E+002    1.26016E+003   -3.38992E+004
            2084    8.00949E+007    7.99359E+007    7.99359E+007   -1.20516E+005   -1.97395E+005    8.01333E+007   -2.65393E+007    8.00948E+007    7.99359E+007   -1.62178E+005   -1.55733E+005    2.64719E+002    5.41475E+002   -3.83045E+004
            2085    8.00893E+007    7.99404E+007    7.99404E+007   -1.10357E+005   -1.87357E+005    8.01278E+007   -2.65476E+007    8.00892E+007    7.99404E+007   -1.61201E+005   -1.36512E+005   -4.14187E+000    1.33058E+002   -3.64672E+004
            2086    8.00835E+007    7.99436E+007    7.99436E+007   -1.02640E+005   -1.77096E+005    8.01207E+007   -2.65546E+007    8.00834E+007    7.99436E+007   -1.62314E+005   -1.17422E+005    1.48187E+002   -2.38461E+002   -2.97002E+004
            2087    8.00803E+007    7.99470E+007    7.99470E+007   -9.81803E+004   -1.68397E+005    8.01154E+007   -2.65601E+007    8.00802E+007    7.99470E+007   -1.63334E+005   -1.03243E+005    1.56432E+002   -4.85679E+002   -1.81615E+004
            2088    8.00779E+007    7.99476E+007    7.99476E+007   -9.62314E+004   -1.64155E+005    8.01118E+007   -2.65624E+007    8.00778E+007    7.99476E+007   -1.63907E+005   -9.64786E+004   -1.08749E+002   -5.66368E+002   -4.09004E+003
            2089    8.00794E+007    7.99477E+007    7.99477E+007   -9.78473E+004   -1.65602E+005    8.01133E+007   -2.65614E+007    8.00793E+007    7.99477E+007   -1.63741E+005   -9.97084E+004    2.35240E+002   -5.63313E+002    1.10740E+004
            2090    8.00817E+007    7.99451E+007    7.99451E+007   -1.01307E+005   -1.71923E+005    8.01170E+007   -2.65573E+007    8.00817E+007    7.99451E+007   -1.62247E+005   -1.10983E+005   -3.72504E+002   -4.58512E+002    2.42832E+004
            2091    8.01150E+007    7.99236E+007    7.99236E+007   -1.73164E+005   -2.09625E+005    8.01332E+007   -2.65136E+007    8.01150E+007    7.99236E+007   -1.87469E+005   -1.95321E+005   -1.00939E+002   -1.28206E+003   -1.78030E+004
            2092    8.01066E+007    7.99289E+007    7.99289E+007   -1.49523E+005   -2.05932E+005    8.01348E+007   -2.65245E+007    8.01066E+007    7.99289E+007   -1.79728E+005   -1.75728E+005   -6.84294E+002   -1.11852E+003   -2.81332E+004
            2093    8.00975E+007    7.99335E+007    7.99335E+007   -1.29481E+005   -1.98309E+005    8.01318E+007   -2.65352E+007    8.00974E+007    7.99335E+007   -1.71944E+005   -1.55846E+005    6.86254E+002   -5.28717E+001   -3.34594E+004
            2094    8.00898E+007    7.99405E+007    7.99405E+007   -1.10702E+005   -1.87860E+005    8.01284E+007   -2.65473E+007    8.00898E+007    7.99405E+007   -1.67646E+005   -1.30916E+005   -5.44295E+001   -2.02803E+002   -3.39273E+004
            2095    8.00807E+007    7.99453E+007    7.99453E+007   -9.59048E+004   -1.74797E+005    8.01201E+007   -2.65582E+007    8.00806E+007    7.99453E+007   -1.63519E+005   -1.07182E+005    4.47708E+002    1.86398E+002   -2.76133E+004
            2096    8.00758E+007    7.99507E+007    7.99507E+007   -8.52693E+004   -1.64840E+005    8.01155E+007   -2.65669E+007    8.00757E+007    7.99507E+007   -1.61263E+005   -8.88464E+004    2.31832E+002    5.72646E+001   -1.64876E+004
            2097    8.00723E+007    7.99515E+007    7.99515E+007   -8.18445E+004   -1.59725E+005    8.01112E+007   -2.65700E+007    8.00722E+007    7.99515E+007   -1.59650E+005   -8.19200E+004   -1.36290E+002    1.93531E+002   -2.42311E+003
            2098    8.00749E+007    7.99514E+007    7.99514E+007   -8.39274E+004   -1.62976E+005    8.01144E+007   -2.65682E+007    8.00748E+007    7.99514E+007   -1.61112E+005   -8.57919E+004    2.84056E+002    4.85727E+001    1.19964E+004
            2099    8.00795E+007    7.99465E+007    7.99465E+007   -9.34752E+004   -1.72455E+005    8.01190E+007   -2.65602E+007    8.00794E+007    7.99465E+007   -1.63612E+005   -1.02319E+005   -7.24957E+002    1.87293E+002    2.49050E+004
            2100    8.01185E+007    7.99181E+007    7.99181E+007   -1.88818E+005   -2.12030E+005    8.01301E+007   -2.65057E+007    8.01185E+007    7.99181E+007   -1.99337E+005   -2.01511E+005    2.07705E+003    2.49270E+003   -1.15553E+004
            2101    8.01121E+007    7.99259E+007    7.99259E+007   -1.66880E+005   -2.05533E+005    8.01314E+007   -2.65178E+007    8.01120E+007    7.99259E+007   -1.87298E+005   -1.85115E+005   -7.77318E+002    2.87652E+002   -1.92959E+004
            2102    8.01010E+007    7.99311E+007    7.99311E+007   -1.43109E+005   -1.96801E+005    8.01279E+007   -2.65304E+007    8.01010E+007    7.99311E+007   -1.79761E+005   -1.60149E+005    6.78699E+002    2.91211E+002   -2.49914E+004
            2103    8.00894E+007    7.99408E+007    7.99408E+007   -1.18218E+005   -1.78821E+005    8.01197E+007   -2.65479E+007    8.00893E+007    7.99408E+007   -1.66974E+005   -1.30065E+005   -1.03505E+002   -9.69327E+001   -2.40331E+004
            2104    8.00750E+007    7.99493E+007    7.99493E+007   -9.35251E+004   -1.57804E+005    8.01071E+007   -2.65660E+007    8.00749E+007    7.99493E+007   -1.51431E+005   -9.98974E+004    3.08006E+002   -1.34564E+002   -1.92093E+004
            2105    8.00656E+007    7.99572E+007    7.99572E+007   -7.49378E+004   -1.41963E+005    8.00991E+007   -2.65801E+007    8.00656E+007    7.99572E+007   -1.39871E+005   -7.70305E+004    1.66713E+002   -2.25095E+002   -1.16570E+004
            2106    8.00610E+007    7.99592E+007    7.99592E+007   -6.72219E+004   -1.36380E+005    8.00956E+007   -2.65852E+007    8.00610E+007    7.99592E+007   -1.36359E+005   -6.72431E+004   -7.26812E+001   -2.39160E+002   -1.21152E+003
            2107    8.00654E+007    7.99575E+007    7.99575E+007   -7.35897E+004   -1.42041E+005    8.00996E+007   -2.65806E+007    8.00653E+007    7.99575E+007   -1.40613E+005   -7.50174E+004    1.82675E+002   -2.53193E+002    9.78199E+003
            2108    8.00742E+007    7.99501E+007    7.99501E+007   -9.06715E+004   -1.57512E+005    8.01076E+007   -2.65673E+007    8.00741E+007    7.99501E+007   -1.51851E+005   -9.63329E+004   -5.39258E+002   -1.86088E+002    1.86109E+004
            2109    8.00663E+007    7.99562E+007    7.99562E+007   -1.03033E+005   -1.17227E+005    8.00734E+007   -2.65786E+007    8.00663E+007    7.99562E+007   -1.16808E+005   -1.03453E+005   -2.04904E+002   -1.03266E+002   -2.40451E+003
            2110    8.00472E+007    7.99690E+007    7.99690E+007   -7.32841E+004   -8.30197E+004    8.00521E+007   -2.66042E+007    8.00472E+007    7.99690E+007   -8.25240E+004   -7.37798E+004   -4.35048E+001   -6.15581E+000   -2.14009E+003
            2111    8.00397E+007    7.99742E+007    7.99742E+007   -6.26881E+004   -6.84024E+004    8.00426E+007   -2.66144E+007    8.00397E+007    7.99742E+007   -6.83925E+004   -6.26979E+004    1.60517E+001   -5.02128E+001   -2.36790E+002
            2112    8.00473E+007    7.99688E+007    7.99688E+007   -7.39976E+004   -8.30208E+004    8.00518E+007   -2.66039E+007    8.00473E+007    7.99688E+007   -8.26701E+004   -7.43484E+004    2.10355E+002   -1.03953E+001    1.74413E+003
            2113    8.00663E+007    7.99560E+007    7.99560E+007   -1.03878E+005   -1.16680E+005    8.00727E+007   -2.65785E+007    8.00663E+007    7.99560E+007   -1.16380E+005   -1.04178E+005    1.85113E+002   -9.61254E+001    1.93747E+003
            2114    8.00893E+007    7.99401E+007    7.99401E+007   -1.40038E+005   -1.58299E+005    8.00984E+007   -2.65473E+007    8.00893E+007    7.99401E+007   -1.58090E+005   -1.40247E+005    3.20893E+002   -3.05333E+001    1.94471E+003
            2115    8.01089E+007    7.99269E+007    7.99269E+007   -1.68990E+005   -1.95102E+005    8.01220E+007   -2.65209E+007    8.01089E+007    7.99269E+007   -1.95004E+005   -1.69088E+005    9.13638E+001   -2.03492E+002   -1.59845E+003
            2116    8.01187E+007    7.99200E+007    7.99200E+007   -1.82224E+005   -2.15229E+005    8.01352E+007   -2.65075E+007    8.01187E+007    7.99200E+007   -2.09696E+005   -1.87757E+005    2.69626E+002   -8.28914E+001   -1.23283E+004
            2117    8.01200E+007    7.99194E+007    7.99194E+007   -1.82657E+005   -2.18429E+005    8.01379E+007   -2.65061E+007    8.01200E+007    7.99194E+007   -1.91511E+005   -2.09575E+005   -4.09565E+002   -9.91044E+002   -1.54377E+004
            2118    8.00415E+007    7.99733E+007    7.99733E+007   -6.51479E+004   -7.12637E+004    8.00445E+007   -2.66123E+007    8.00415E+007    7.99733E+007   -6.51998E+004   -7.12119E+004   -1.16735E+002   -2.45452E+001    5.60620E+002
            2119    8.00561E+007    7.99632E+007    7.99632E+007   -8.81574E+004   -9.76626E+004    8.00609E+007   -2.65925E+007    8.00561E+007    7.99632E+007   -8.83457E+004   -9.74743E+004   -1.12306E+002    2.72840E+002    1.32469E+003
            2120    8.00788E+007    7.99479E+007    7.99479E+007   -1.25071E+005   -1.36720E+005    8.00846E+007   -2.65620E+007    8.00788E+007    7.99479E+007   -1.25076E+005   -1.36715E+005   -1.03551E+002    1.63053E+002   -2.55132E+002
            2121    8.01011E+007    7.99325E+007    7.99325E+007   -1.63589E+005   -1.73708E+005    8.01062E+007   -2.65317E+007    8.01011E+007    7.99325E+007   -1.63597E+005   -1.73701E+005   -7.60419E+001    4.01382E+002   -2.83882E+002
            2122    8.01172E+007    7.99216E+007    7.99216E+007   -1.89027E+005   -2.02331E+005    8.01239E+007   -2.65101E+007    8.01172E+007    7.99216E+007   -1.89036E+005   -2.02321E+005   -9.61802E+001    1.17109E+002    3.51991E+002
            2123    8.01259E+007    7.99154E+007    7.99154E+007   -2.02894E+005   -2.17960E+005    8.01334E+007   -2.64982E+007    8.01259E+007    7.99154E+007   -2.02984E+005   -2.17871E+005   -6.15328E+001    3.15405E+002    1.15786E+003
            2124    8.01252E+007    7.99162E+007    7.99162E+007   -1.93562E+005   -2.24363E+005    8.01406E+007   -2.64994E+007    8.01252E+007    7.99162E+007   -1.93628E+005   -2.24296E+005   -8.66828E+002   -2.41573E+002   -1.42913E+003
            2125    8.00670E+007    7.99558E+007    7.99558E+007   -7.23745E+004   -1.50011E+005    8.01058E+007   -2.65778E+007    8.00669E+007    7.99558E+007   -7.29618E+004   -1.49424E+005    1.64592E+002    5.07918E+002   -6.72639E+003
            2126    8.00771E+007    7.99489E+007    7.99489E+007   -9.06214E+004   -1.65637E+005    8.01146E+007   -2.65642E+007    8.00770E+007    7.99489E+007   -9.13648E+004   -1.64893E+005   -6.09478E+001    5.86686E+002   -7.43051E+003
            2127    8.00812E+007    7.99460E+007    7.99460E+007   -1.08388E+005   -1.61985E+005    8.01080E+007   -2.65585E+007    8.00811E+007    7.99460E+007   -1.09315E+005   -1.61057E+005    1.11590E+002    1.92410E+002   -6.99040E+003
            2128    8.00827E+007    7.99450E+007    7.99450E+007   -1.23110E+005   -1.52313E+005    8.00973E+007   -2.65565E+007    8.00827E+007    7.99450E+007   -1.24184E+005   -1.51240E+005    5.85762E+000   -1.78487E+002   -5.49579E+003
            2129    8.00727E+007    7.99518E+007    7.99518E+007   -8.32892E+004   -1.58400E+005    8.01102E+007   -2.65700E+007    8.00726E+007    7.99518E+007   -8.79259E+004   -1.53764E+005    1.15391E+002   -6.35495E+002   -1.80769E+004
            2130    8.00797E+007    7.99469E+007    7.99469E+007   -9.40188E+004   -1.71521E+005    8.01184E+007   -2.65605E+007    8.00796E+007    7.99469E+007   -1.00467E+005   -1.65073E+005   -9.06490E+001   -6.56816E+002   -2.14057E+004
            2131    8.00827E+007    7.99448E+007    7.99448E+007   -1.08371E+005   -1.67315E+005    8.01122E+007   -2.65564E+007    8.00826E+007    7.99448E+007   -1.16363E+005   -1.59323E+005    5.44925E+001   -2.96473E+002   -2.01791E+004
            2132    8.00832E+007    7.99445E+007    7.99445E+007   -1.20448E+005   -1.56867E+005    8.01014E+007   -2.65557E+007    8.00832E+007    7.99445E+007   -1.29390E+005   -1.47925E+005    3.41602E+001    2.00707E+002   -1.56747E+004
            2133    8.00824E+007    7.99452E+007    7.99452E+007   -1.01090E+005   -1.73169E+005    8.01184E+007   -2.65570E+007    8.00823E+007    7.99452E+007   -1.11872E+005   -1.62388E+005    1.00943E+002    5.47365E+002   -2.57075E+004
            2134    8.00852E+007    7.99432E+007    7.99432E+007   -1.01978E+005   -1.81987E+005    8.01252E+007   -2.65531E+007    8.00851E+007    7.99432E+007   -1.18234E+005   -1.65731E+005    7.80247E+001    6.64007E+002   -3.21922E+004
            2135    8.00852E+007    7.99431E+007    7.99431E+007   -1.08529E+005   -1.75537E+005    8.01186E+007   -2.65530E+007    8.00851E+007    7.99431E+007   -1.28436E+005   -1.55631E+005    2.76746E+000    1.21979E+002   -3.06208E+004
            2136    8.00844E+007    7.99436E+007    7.99436E+007   -1.16035E+005   -1.65492E+005    8.01091E+007   -2.65540E+007    8.00844E+007    7.99436E+007   -1.38983E+005   -1.42544E+005   -1.27081E+001   -1.09519E+002   -2.46642E+004
            2137    8.00944E+007    7.99366E+007    7.99366E+007   -1.24841E+005   -1.90818E+005    8.01274E+007   -2.65403E+007    8.00944E+007    7.99366E+007   -1.41091E+005   -1.74568E+005   -6.07096E+001   -8.91456E+002   -2.84262E+004
            2138    8.00912E+007    7.99387E+007    7.99387E+007   -1.12229E+005   -1.92660E+005    8.01314E+007   -2.65446E+007    8.00911E+007    7.99387E+007   -1.39081E+005   -1.65809E+005   -1.42541E+002   -7.48754E+002   -3.79299E+004
            2139    8.00887E+007    7.99406E+007    7.99406E+007   -1.10627E+005   -1.85601E+005    8.01262E+007   -2.65481E+007    8.00886E+007    7.99406E+007   -1.44089E+005   -1.52139E+005    3.16579E+001   -3.16600E+002   -3.72703E+004
            2140    8.00855E+007    7.99428E+007    7.99428E+007   -1.10679E+005   -1.74706E+005    8.01175E+007   -2.65525E+007    8.00854E+007    7.99428E+007   -1.50005E+005   -1.35380E+005   -6.73106E+001    1.69657E+002   -3.11673E+004
            2141    8.01047E+007    7.99299E+007    7.99299E+007   -1.44792E+005   -2.04806E+005    8.01347E+007   -2.65268E+007    8.01047E+007    7.99299E+007   -1.64591E+005   -1.85007E+005    1.70584E+002    8.42566E+002   -2.82175E+004
            2142    8.00981E+007    7.99342E+007    7.99342E+007   -1.25667E+005   -2.02043E+005    8.01362E+007   -2.65355E+007    8.00980E+007    7.99342E+007   -1.60227E+005   -1.67483E+005    5.67961E+001    8.09737E+002   -3.80150E+004
            2143    8.00920E+007    7.99382E+007    7.99382E+007   -1.14243E+005   -1.93292E+005    8.01315E+007   -2.65436E+007    8.00920E+007    7.99382E+007   -1.58532E+005   -1.49002E+005    1.22921E+002    1.05925E+002   -3.92364E+004
            2144    8.00868E+007    7.99418E+007    7.99418E+007   -1.06948E+005   -1.82856E+005    8.01247E+007   -2.65507E+007    8.00867E+007    7.99418E+007   -1.60664E+005   -1.29140E+005   -3.68602E+002   -9.03529E+001   -3.45263E+004
            2145    8.01121E+007    7.99243E+007    7.99243E+007   -1.61806E+005   -2.13684E+005    8.01380E+007   -2.65163E+007    8.01120E+007    7.99243E+007   -1.84605E+005   -1.90885E+005   -1.67355E+002   -1.46665E+003   -2.57484E+004
            2146    8.01039E+007    7.99301E+007    7.99301E+007   -1.41174E+005   -2.06469E+005    8.01365E+007   -2.65275E+007    8.01038E+007    7.99301E+007   -1.76027E+005   -1.71616E+005   -7.25686E+002   -8.36196E+002   -3.25731E+004
            2147    8.00961E+007    7.99357E+007    7.99357E+007   -1.22518E+005   -1.98221E+005    8.01339E+007   -2.65383E+007    8.00960E+007    7.99357E+007   -1.70915E+005   -1.49824E+005    6.74164E+002    5.23756E+001   -3.63533E+004
            2148    8.00871E+007    7.99415E+007    7.99415E+007   -1.06293E+005   -1.84875E+005    8.01263E+007   -2.65501E+007    8.00870E+007    7.99415E+007   -1.66672E+005   -1.24495E+005   -6.60697E+002   -4.87084E+001   -3.31518E+004
            2149    8.01171E+007    7.99218E+007    7.99218E+007   -1.78496E+005   -2.12138E+005    8.01339E+007   -2.65104E+007    8.01171E+007    7.99218E+007   -1.94840E+005   -1.95794E+005    1.84660E+003    2.05826E+003   -1.68145E+004
            2150    8.01100E+007    7.99257E+007    7.99257E+007   -1.58204E+005   -2.10291E+005    8.01360E+007   -2.65191E+007    8.01099E+007    7.99257E+007   -1.89692E+005   -1.78803E+005   -1.19107E+003   -3.08252E+001   -2.54681E+004
            2151    8.01005E+007    7.99329E+007    7.99329E+007   -1.38414E+005   -1.96769E+005    8.01296E+007   -2.65326E+007    8.01004E+007    7.99329E+007   -1.80998E+005   -1.54185E+005    7.12445E+002    2.21946E+002   -2.59150E+004
            2152    8.00878E+007    7.99410E+007    7.99410E+007   -1.15344E+005   -1.78302E+005    8.01193E+007   -2.65491E+007    8.00878E+007    7.99410E+007   -1.66981E+005   -1.26665E+005   -7.01230E+002   -7.17589E+001   -2.41780E+004
            2153    8.00895E+007    7.99402E+007    7.99402E+007   -1.40119E+005   -1.58627E+005    8.00988E+007   -2.65471E+007    8.00895E+007    7.99402E+007   -1.58520E+005   -1.40226E+005   -3.81005E+001    5.99570E+001    1.40450E+003
            2154    8.01102E+007    7.99262E+007    7.99262E+007   -1.72164E+005   -1.95873E+005    8.01220E+007   -2.65194E+007    8.01102E+007    7.99262E+007   -1.95833E+005   -1.72204E+005   -3.59182E+001   -4.02095E+001    9.73544E+002
            2155    8.01198E+007    7.99196E+007    7.99196E+007   -1.79114E+005   -2.21349E+005    8.01409E+007   -2.65064E+007    8.01198E+007    7.99196E+007   -2.20833E+005   -1.79630E+005   -5.53482E+001   -1.07880E+001   -4.64192E+003
            2156    8.01201E+007    7.99194E+007    7.99194E+007   -1.64681E+005   -2.36773E+005    8.01562E+007   -2.65060E+007    8.01201E+007    7.99194E+007   -2.16095E+005   -1.85359E+005    6.89783E+001   -5.95761E+002   -3.26056E+004
            2157    8.00435E+007    7.99715E+007    7.99715E+007   -6.57873E+004   -7.81737E+004    8.00497E+007   -2.66092E+007    8.00435E+007    7.99715E+007   -6.58326E+004   -7.81284E+004   -1.92645E+001   -3.83284E+001    7.47695E+002
            2158    8.00572E+007    7.99622E+007    7.99622E+007   -8.75270E+004   -1.02402E+005    8.00646E+007   -2.65908E+007    8.00572E+007    7.99622E+007   -8.75758E+004   -1.02353E+005   -9.72715E+000   -3.17174E+001    8.50960E+002
            2159    8.00787E+007    7.99476E+007    7.99476E+007   -1.22874E+005   -1.39266E+005    8.00869E+007   -2.65618E+007    8.00787E+007    7.99476E+007   -1.23000E+005   -1.39140E+005    5.26927E+000   -7.79397E+001    1.43364E+003
            2160    8.01003E+007    7.99329E+007    7.99329E+007   -1.57236E+005   -1.77649E+005    8.01105E+007   -2.65327E+007    8.01003E+007    7.99329E+007   -1.57325E+005   -1.77560E+005    3.63913E+001   -3.49619E+001    1.34506E+003
            2161    8.01182E+007    7.99208E+007    7.99208E+007   -1.83990E+005   -2.10832E+005    8.01316E+007   -2.65086E+007    8.01182E+007    7.99208E+007   -1.84108E+005   -2.10714E+005   -9.16022E+000   -1.00710E+001    1.77456E+003
            2162    8.01233E+007    7.99172E+007    7.99172E+007   -1.81191E+005   -2.31059E+005    8.01482E+007   -2.65016E+007    8.01233E+007    7.99172E+007   -1.81561E+005   -2.30688E+005    1.96084E+001   -3.60302E+001   -4.28142E+003
            2163    8.01209E+007    7.99188E+007    7.99188E+007   -1.62993E+005   -2.41170E+005    8.01600E+007   -2.65049E+007    8.01208E+007    7.99188E+007   -1.83194E+005   -2.20969E+005   -5.21143E+002    1.39903E+002   -3.42226E+004
            2164    8.00665E+007    7.99557E+007    7.99557E+007   -1.03824E+005   -1.17703E+005    8.00734E+007   -2.65781E+007    8.00665E+007    7.99557E+007   -1.17281E+005   -1.04246E+005   -5.76812E+001    2.04707E+001    2.38339E+003
            2165    8.00472E+007    7.99688E+007    7.99688E+007   -7.35961E+004   -8.32040E+004    8.00520E+007   -2.66040E+007    8.00472E+007    7.99688E+007   -8.26365E+004   -7.41636E+004   -2.30867E+001    8.25728E+001    2.26503E+003
            2166    8.00394E+007    7.99741E+007    7.99741E+007   -6.26611E+004   -6.78348E+004    8.00419E+007   -2.66145E+007    8.00394E+007    7.99741E+007   -6.78005E+004   -6.26955E+004    9.42927E+000    2.19313E+001    4.20132E+002
            2167    8.00469E+007    7.99691E+007    7.99691E+007   -7.37442E+004   -8.19284E+004    8.00510E+007   -2.66045E+007    8.00469E+007    7.99691E+007   -8.15214E+004   -7.41512E+004    1.07498E+001    7.85156E+001   -1.77899E+003
            2168    8.00661E+007    7.99560E+007    7.99560E+007   -1.03888E+005   -1.16245E+005    8.00723E+007   -2.65786E+007    8.00661E+007    7.99560E+007   -1.15812E+005   -1.04321E+005    8.00087E+001   -2.74448E+000   -2.27181E+003
            2169    8.00898E+007    7.99401E+007    7.99401E+007   -1.40730E+005   -1.58761E+005    8.00988E+007   -2.65469E+007    8.00898E+007    7.99401E+007   -1.58455E+005   -1.41037E+005   -9.04535E+000    5.58888E+001   -2.33114E+003
            2170    8.01098E+007    7.99265E+007    7.99265E+007   -1.70100E+005   -1.96604E+005    8.01231E+007   -2.65199E+007    8.01098E+007    7.99265E+007   -1.96550E+005   -1.70154E+005    9.43881E+001   -9.83679E+001    1.19722E+003
            2171    8.01196E+007    7.99199E+007    7.99199E+007   -1.82991E+005   -2.16401E+005    8.01363E+007   -2.65068E+007    8.01196E+007    7.99199E+007   -2.10839E+005   -1.88553E+005   -8.72083E+001   -2.50580E+001    1.24456E+004
            2172    8.01205E+007    7.99191E+007    7.99191E+007   -1.83180E+005   -2.19625E+005    8.01387E+007   -2.65054E+007    8.01205E+007    7.99191E+007   -1.92636E+005   -2.10169E+005    3.41190E+002   -9.71339E+002    1.59753E+004
            2173    8.00745E+007    7.99507E+007    7.99507E+007   -9.06410E+004   -1.56811E+005    8.01075E+007   -2.65678E+007    8.00744E+007    7.99507E+007   -1.51127E+005   -9.63252E+004    3.53202E+002   -1.99400E+001   -1.85422E+004
            2174    8.00797E+007    7.99471E+007    7.99471E+007   -9.29175E+004   -1.72163E+005    8.01193E+007   -2.65607E+007    8.00796E+007    7.99471E+007   -1.63480E+005   -1.01601E+005    5.30640E+002    3.17372E+002   -2.47532E+004
            2175    8.00820E+007    7.99455E+007    7.99455E+007   -1.01080E+005   -1.71914E+005    8.01174E+007   -2.65575E+007    8.00819E+007    7.99455E+007   -1.62252E+005   -1.10743E+005    1.79525E+002   -2.93664E+002   -2.43121E+004
            2176    8.00831E+007    7.99446E+007    7.99446E+007   -1.11483E+005   -1.65433E+005    8.01100E+007   -2.65559E+007    8.00830E+007    7.99446E+007   -1.55420E+005   -1.21496E+005    1.14796E+002    3.80333E+002   -2.09750E+004
            2177    8.00831E+007    7.99445E+007    7.99445E+007   -1.21263E+005   -1.56076E+005    8.01005E+007   -2.65557E+007    8.00831E+007    7.99445E+007   -1.46379E+005   -1.30960E+005   -9.81752E+001   -5.64163E+002   -1.56061E+004
            2178    8.00831E+007    7.99444E+007    7.99444E+007   -1.28796E+005   -1.48463E+005    8.00929E+007   -2.65557E+007    8.00831E+007    7.99444E+007   -1.38603E+005   -1.38657E+005   -4.31943E+001    4.89439E+002   -9.83339E+003
            2179    8.00829E+007    7.99446E+007    7.99446E+007   -1.33005E+005   -1.43654E+005    8.00882E+007   -2.65560E+007    8.00829E+007    7.99446E+007   -1.34092E+005   -1.42567E+005   -5.16167E+001   -5.97278E+002   -3.22331E+003
            2180    8.00645E+007    7.99571E+007    7.99571E+007   -7.37349E+004   -1.40956E+005    8.00981E+007   -2.65808E+007    8.00644E+007    7.99571E+007   -1.39454E+005   -7.52370E+004   -3.50571E+002   -8.14698E+001   -9.93591E+003
            2181    8.00736E+007    7.99508E+007    7.99508E+007   -8.33581E+004   -1.62197E+005    8.01130E+007   -2.65684E+007    8.00736E+007    7.99508E+007   -1.60379E+005   -8.51761E+004   -4.13390E+002    2.04647E+002   -1.18332E+004
            2182    8.00790E+007    7.99473E+007    7.99473E+007   -9.77689E+004   -1.65523E+005    8.01129E+007   -2.65614E+007    8.00789E+007    7.99473E+007   -1.63713E+005   -9.95782E+004   -2.91781E+002   -3.66684E+002   -1.09230E+004
            2183    8.00813E+007    7.99457E+007    7.99457E+007   -1.11445E+005   -1.59736E+005    8.01055E+007   -2.65582E+007    8.00813E+007    7.99457E+007   -1.58360E+005   -1.12821E+005   -5.80775E+001    6.18509E+002   -8.03331E+003
            2184    8.00826E+007    7.99450E+007    7.99450E+007   -1.23953E+005   -1.51413E+005    8.00964E+007   -2.65565E+007    8.00826E+007    7.99450E+007   -1.50267E+005   -1.25098E+005    1.39219E+001   -6.03985E+002   -5.49006E+003
            2185    8.00829E+007    7.99448E+007    7.99448E+007   -1.32711E+005   -1.43544E+005    8.00883E+007   -2.65562E+007    8.00829E+007    7.99448E+007   -1.42713E+005   -1.33541E+005    1.02137E+002    8.10900E+002   -2.88212E+003
            2186    8.00831E+007    7.99447E+007    7.99447E+007   -1.37222E+005   -1.39449E+005    8.00842E+007   -2.65560E+007    8.00831E+007    7.99447E+007   -1.38441E+005   -1.38230E+005    7.81161E+001   -7.67138E+002   -1.10828E+003
            2187    8.00612E+007    7.99599E+007    7.99599E+007   -6.71268E+004   -1.35410E+005    8.00953E+007   -2.65858E+007    8.00611E+007    7.99599E+007   -1.35397E+005   -6.71400E+004    1.85430E+002   -5.37794E+001    9.49410E+002
            2188    8.00724E+007    7.99522E+007    7.99522E+007   -8.10390E+004   -1.59311E+005    8.01116E+007   -2.65706E+007    8.00724E+007    7.99522E+007   -1.59233E+005   -8.11176E+004    2.59641E+002    3.55683E+002    2.48016E+003
            2189    8.00785E+007    7.99481E+007    7.99481E+007   -9.63396E+004   -1.64373E+005    8.01125E+007   -2.65625E+007    8.00784E+007    7.99481E+007   -1.64073E+005   -9.66399E+004    1.79288E+002   -3.68991E+002    4.51032E+003
            2190    8.00813E+007    7.99459E+007    7.99459E+007   -1.11396E+005   -1.59495E+005    8.01054E+007   -2.65583E+007    8.00813E+007    7.99459E+007   -1.58877E+005   -1.12014E+005    6.21126E+001    5.47976E+002    5.41552E+003
            2191    8.00825E+007    7.99449E+007    7.99449E+007   -1.23601E+005   -1.51547E+005    8.00965E+007   -2.65566E+007    8.00825E+007    7.99449E+007   -1.50405E+005   -1.24743E+005   -3.18350E+001   -7.39210E+002    5.53138E+003
            2192    8.00828E+007    7.99446E+007    7.99446E+007   -1.32552E+005   -1.43935E+005    8.00885E+007   -2.65560E+007    8.00828E+007    7.99446E+007   -1.42508E+005   -1.33978E+005   -6.83992E+001    7.03377E+002    3.76859E+003
            2193    8.00828E+007    7.99445E+007    7.99445E+007   -1.36757E+005   -1.39901E+005    8.00844E+007   -2.65560E+007    8.00828E+007    7.99445E+007   -1.37923E+005   -1.38735E+005   -6.51772E+001   -8.20532E+002    1.51828E+003
            2194    8.00649E+007    7.99568E+007    7.99568E+007   -7.50464E+004   -1.41074E+005    8.00979E+007   -2.65802E+007    8.00649E+007    7.99568E+007   -1.39041E+005   -7.70796E+004    8.51715E+000   -7.03917E+001    1.14067E+004
            2195    8.00749E+007    7.99500E+007    7.99500E+007   -8.52520E+004   -1.64438E+005    8.01144E+007   -2.65668E+007    8.00748E+007    7.99500E+007   -1.60820E+005   -8.88699E+004   -7.25345E+001    1.74890E+002    1.65347E+004
            2196    8.00802E+007    7.99464E+007    7.99464E+007   -9.87414E+004   -1.68764E+005    8.01152E+007   -2.65596E+007    8.00802E+007    7.99464E+007   -1.63304E+005   -1.04202E+005   -2.77429E+000   -3.47716E+002    1.87757E+004
            2197    8.00825E+007    7.99449E+007    7.99449E+007   -1.10701E+005   -1.64333E+005    8.01093E+007   -2.65566E+007    8.00824E+007    7.99449E+007   -1.56933E+005   -1.18101E+005   -2.76558E+001    5.56522E+002    1.84963E+004
            2198    8.00833E+007    7.99445E+007    7.99445E+007   -1.21226E+005   -1.56249E+005    8.01008E+007   -2.65557E+007    8.00832E+007    7.99445E+007   -1.47055E+005   -1.30420E+005    7.06486E+001   -5.40279E+002    1.54101E+004
            2199    8.00832E+007    7.99447E+007    7.99447E+007   -1.28000E+005   -1.48942E+005    8.00937E+007   -2.65559E+007    8.00832E+007    7.99447E+007   -1.38102E+005   -1.38839E+005    1.59729E+001    7.18086E+002    1.04647E+004
            2200    8.00830E+007    7.99449E+007    7.99449E+007   -1.31828E+005   -1.44451E+005    8.00893E+007   -2.65562E+007    8.00830E+007    7.99449E+007   -1.32840E+005   -1.43438E+005    3.86813E+001   -6.60716E+002    3.42902E+003
            2201    8.00759E+007    7.99497E+007    7.99497E+007   -9.42047E+004   -1.58071E+005    8.01078E+007   -2.65658E+007    8.00758E+007    7.99497E+007   -1.51771E+005   -1.00504E+005    3.08250E+001    8.05620E+000    1.90427E+004
            2202    8.00818E+007    7.99458E+007    7.99458E+007   -9.64852E+004   -1.75438E+005    8.01212E+007   -2.65579E+007    8.00817E+007    7.99458E+007   -1.63976E+005   -1.07947E+005   -7.47175E+001    2.72582E+002    2.78134E+004
            2203    8.00845E+007    7.99438E+007    7.99438E+007   -1.03434E+005   -1.77856E+005    8.01216E+007   -2.65542E+007    8.00844E+007    7.99438E+007   -1.62282E+005   -1.19008E+005    1.18313E+002   -2.19307E+002    3.02738E+004
            2204    8.00849E+007    7.99433E+007    7.99433E+007   -1.10797E+005   -1.72373E+005    8.01157E+007   -2.65534E+007    8.00849E+007    7.99433E+007   -1.52847E+005   -1.30322E+005   -4.72128E+001    2.58216E+002    2.86540E+004
            2205    8.00842E+007    7.99437E+007    7.99437E+007   -1.16527E+005   -1.64406E+005    8.01081E+007   -2.65543E+007    8.00842E+007    7.99437E+007   -1.40902E+005   -1.40031E+005    5.95084E+001   -4.41349E+002    2.39358E+004
            2206    8.00831E+007    7.99445E+007    7.99445E+007   -1.20844E+005   -1.56459E+005    8.01009E+007   -2.65557E+007    8.00831E+007    7.99445E+007   -1.30052E+005   -1.47251E+005   -5.35936E+001    2.83220E+002    1.55936E+004
            2207    8.00824E+007    7.99449E+007    7.99449E+007   -1.22811E+005   -1.52077E+005    8.00970E+007   -2.65567E+007    8.00824E+007    7.99449E+007   -1.23865E+005   -1.51023E+005   -6.36394E+000   -4.01835E+002    5.45312E+003
            2208    8.00894E+007    7.99400E+007    7.99400E+007   -1.19189E+005   -1.79657E+005    8.01196E+007   -2.65470E+007    8.00894E+007    7.99400E+007   -1.67834E+005   -1.31012E+005    3.65838E+002   -3.06573E+001    2.39825E+004
            2209    8.00899E+007    7.99396E+007    7.99396E+007   -1.12041E+005   -1.88617E+005    8.01282E+007   -2.65463E+007    8.00898E+007    7.99396E+007   -1.67912E+005   -1.32746E+005    2.38569E+002   -1.56064E+002    3.40123E+004
            2210    8.00895E+007    7.99399E+007    7.99399E+007   -1.11104E+005   -1.87999E+005    8.01279E+007   -2.65469E+007    8.00894E+007    7.99399E+007   -1.60836E+005   -1.38267E+005    1.84920E+002    1.11005E+001    3.67543E+004
            2211    8.00878E+007    7.99412E+007    7.99412E+007   -1.10993E+005   -1.82015E+005    8.01233E+007   -2.65494E+007    8.00877E+007    7.99412E+007   -1.48097E+005   -1.44911E+005    5.17433E+000   -1.77548E+001    3.54756E+004
            2212    8.00852E+007    7.99432E+007    7.99432E+007   -1.11124E+005   -1.72830E+005    8.01160E+007   -2.65531E+007    8.00851E+007    7.99432E+007   -1.32532E+005   -1.51422E+005    3.51298E+001    1.00250E+002    2.93717E+004
            2213    8.00828E+007    7.99450E+007    7.99450E+007   -1.10954E+005   -1.64589E+005    8.01096E+007   -2.65565E+007    8.00828E+007    7.99450E+007   -1.19407E+005   -1.56136E+005   -1.65426E+001   -2.57744E+001    1.95428E+004
            2214    8.00813E+007    7.99461E+007    7.99461E+007   -1.10743E+005   -1.59732E+005    8.01058E+007   -2.65585E+007    8.00813E+007    7.99461E+007   -1.11647E+005   -1.58828E+005    7.63777E+000    8.28804E+001    6.58996E+003
            2215    8.01024E+007    7.99317E+007    7.99317E+007   -1.43698E+005   -1.97731E+005    8.01294E+007   -2.65301E+007    8.01024E+007    7.99317E+007   -1.80493E+005   -1.60935E+005   -3.49537E+002    2.93660E+002    2.51849E+004
            2216    8.00989E+007    7.99340E+007    7.99340E+007   -1.30534E+005   -1.99224E+005    8.01332E+007   -2.65347E+007    8.00988E+007    7.99340E+007   -1.72395E+005   -1.57363E+005   -3.75818E+002   -8.18820E+001    3.35124E+004
            2217    8.00952E+007    7.99363E+007    7.99363E+007   -1.20533E+005   -1.97227E+005    8.01335E+007   -2.65395E+007    8.00951E+007    7.99363E+007   -1.61085E+005   -1.56675E+005   -3.86814E+001    3.28246E+002    3.82836E+004
            2218    8.00905E+007    7.99394E+007    7.99394E+007   -1.12627E+005   -1.89355E+005    8.01288E+007   -2.65458E+007    8.00904E+007    7.99394E+007   -1.43180E+005   -1.58802E+005    2.00044E+001   -5.69834E+002    3.75601E+004
            2219    8.00855E+007    7.99430E+007    7.99430E+007   -1.05623E+005   -1.79230E+005    8.01222E+007   -2.65527E+007    8.00854E+007    7.99430E+007   -1.24105E+005   -1.60748E+005   -4.34317E+001    3.09312E+002    3.19187E+004
            2220    8.00810E+007    7.99461E+007    7.99461E+007   -9.99701E+004   -1.69769E+005    8.01159E+007   -2.65588E+007    8.00809E+007    7.99461E+007   -1.07217E+005   -1.62522E+005   -7.40218E+001   -5.47761E+002    2.12910E+004
            2221    8.00784E+007    7.99480E+007    7.99480E+007   -9.66740E+004   -1.64114E+005    8.01121E+007   -2.65624E+007    8.00784E+007    7.99480E+007   -9.74910E+004   -1.63297E+005   -1.35716E+002    3.94684E+002    7.37754E+003
            2222    8.01114E+007    7.99248E+007    7.99248E+007   -1.67702E+005   -2.05548E+005    8.01303E+007   -2.65172E+007    8.01114E+007    7.99248E+007   -1.87873E+005   -1.85376E+005    8.57825E+002    1.63443E+002    1.88817E+004
            2223    8.01067E+007    7.99282E+007    7.99282E+007   -1.50162E+005   -2.06938E+005    8.01351E+007   -2.65237E+007    8.01067E+007    7.99282E+007   -1.80062E+005   -1.77038E+005    6.10487E+002   -1.10830E+003    2.83474E+004
            2224    8.01006E+007    7.99327E+007    7.99327E+007   -1.33740E+005   -2.01990E+005    8.01347E+007   -2.65323E+007    8.01005E+007    7.99327E+007   -1.63234E+005   -1.72497E+005   -1.65336E+002    1.01188E+003    3.38093E+004
            2225    8.00929E+007    7.99377E+007    7.99377E+007   -1.17836E+005   -1.92476E+005    8.01302E+007   -2.65425E+007    8.00928E+007    7.99377E+007   -1.42025E+005   -1.68287E+005    1.06595E+002   -8.87366E+002    3.49338E+004
            2226    8.00845E+007    7.99439E+007    7.99439E+007   -1.01917E+005   -1.79378E+005    8.01232E+007   -2.65542E+007    8.00845E+007    7.99439E+007   -1.16652E+005   -1.64643E+005   -7.50442E+001    8.22014E+002    3.04014E+004
            2227    8.00772E+007    7.99488E+007    7.99488E+007   -8.96848E+004   -1.66961E+005    8.01158E+007   -2.65641E+007    8.00771E+007    7.99488E+007   -9.56183E+004   -1.61027E+005    9.65921E+001   -7.51238E+002    2.05745E+004
            2228    8.00728E+007    7.99521E+007    7.99521E+007   -8.19406E+004   -1.59474E+005    8.01115E+007   -2.65702E+007    8.00727E+007    7.99521E+007   -8.26375E+004   -1.58777E+005    9.52873E+001    6.92183E+002    7.31788E+003
            2229    8.01196E+007    7.99205E+007    7.99205E+007   -1.87561E+005   -2.10634E+005    8.01311E+007   -2.65074E+007    8.01196E+007    7.99205E+007   -1.98433E+005   -1.99763E+005   -1.72288E+003    2.19517E+003    1.15173E+004
            2230    8.01142E+007    7.99231E+007    7.99231E+007   -1.73173E+005   -2.09193E+005    8.01322E+007   -2.65136E+007    8.01142E+007    7.99231E+007   -1.87061E+005   -1.95306E+005    1.72388E+002   -1.39074E+003    1.75320E+004
            2231    8.01074E+007    7.99284E+007    7.99284E+007   -1.55530E+005   -2.02442E+005    8.01308E+007   -2.65235E+007    8.01073E+007    7.99284E+007   -1.72479E+005   -1.85493E+005   -6.87833E+001    7.98403E+002    2.25353E+004
            2232    8.00954E+007    7.99361E+007    7.99361E+007   -1.31233E+005   -1.87282E+005    8.01234E+007   -2.65392E+007    8.00954E+007    7.99361E+007   -1.45658E+005   -1.72858E+005    4.28944E+001   -8.91893E+002    2.45034E+004
            2233    8.00820E+007    7.99457E+007    7.99457E+007   -1.05704E+005   -1.66898E+005    8.01126E+007   -2.65577E+007    8.00819E+007    7.99457E+007   -1.15362E+005   -1.57240E+005   -7.05049E+001    4.71027E+002    2.23104E+004
            2234    8.00695E+007    7.99541E+007    7.99541E+007   -8.25919E+004   -1.48250E+005    8.01023E+007   -2.65744E+007    8.00695E+007    7.99541E+007   -8.68000E+004   -1.44042E+005   -1.53590E+002   -6.10306E+002    1.60806E+004
            2235    8.00622E+007    7.99592E+007    7.99592E+007   -6.94299E+004   -1.36501E+005    8.00957E+007   -2.65844E+007    8.00622E+007    7.99592E+007   -6.99318E+004   -1.36000E+005   -1.92802E+002    4.70297E+002    5.78006E+003
            2236    8.00416E+007    7.99731E+007    7.99731E+007   -6.55172E+004   -7.14522E+004    8.00445E+007   -2.66120E+007    8.00415E+007    7.99731E+007   -6.55981E+004   -7.13713E+004    4.57786E+001   -9.96697E+001   -6.88298E+002
            2237    8.00561E+007    7.99632E+007    7.99632E+007   -8.81866E+004   -9.77707E+004    8.00609E+007   -2.65924E+007    8.00562E+007    7.99632E+007   -8.83525E+004   -9.76049E+004    1.31006E+001    4.11997E+001   -1.24996E+003
            2238    8.00786E+007    7.99479E+007    7.99479E+007   -1.24705E+005   -1.36588E+005    8.00845E+007   -2.65622E+007    8.00786E+007    7.99479E+007   -1.24713E+005   -1.36581E+005   -1.23510E+001   -1.17108E+002    2.99632E+002
            2239    8.01006E+007    7.99329E+007    7.99329E+007   -1.62407E+005   -1.72882E+005    8.01058E+007   -2.65326E+007    8.01006E+007    7.99329E+007   -1.62434E+005   -1.72855E+005   -6.16855E+001    6.88298E+001    5.27442E+002
            2240    8.01166E+007    7.99220E+007    7.99220E+007   -1.88282E+005   -2.01016E+005    8.01230E+007   -2.65109E+007    8.01166E+007    7.99220E+007   -1.88282E+005   -2.01015E+005   -8.60174E+000   -5.66197E+001   -4.14137E+001
            2241    8.01255E+007    7.99159E+007    7.99159E+007   -2.02627E+005   -2.16658E+005    8.01326E+007   -2.64989E+007    8.01255E+007    7.99159E+007   -2.02744E+005   -2.16542E+005   -6.36297E+001    8.38582E+001   -1.27461E+003
            2242    8.01252E+007    7.99160E+007    7.99160E+007   -1.94268E+005   -2.24112E+005    8.01401E+007   -2.64992E+007    8.01252E+007    7.99160E+007   -1.94407E+005   -2.23974E+005    7.24156E+002   -1.14656E+002    2.02828E+003
            2243    8.01202E+007    7.99194E+007    7.99194E+007   -1.64029E+005   -2.37588E+005    8.01570E+007   -2.65059E+007    8.01201E+007    7.99194E+007   -2.15905E+005   -1.85712E+005    1.33726E+002    6.49008E+002    3.35381E+004
            2244    8.01202E+007    7.99194E+007    7.99194E+007   -1.78778E+005   -2.22678E+005    8.01421E+007   -2.65060E+007    8.01202E+007    7.99194E+007   -2.22077E+005   -1.79378E+005   -1.09652E+002   -2.77989E+001    5.09832E+003
            2245    8.01107E+007    7.99259E+007    7.99259E+007   -1.72584E+005   -1.97063E+005    8.01230E+007   -2.65187E+007    8.01107E+007    7.99259E+007   -1.97018E+005   -1.72629E+005    1.36641E+001    7.10509E+001   -1.04713E+003
            2246    8.00898E+007    7.99401E+007    7.99401E+007   -1.40244E+005   -1.59087E+005    8.00992E+007   -2.65469E+007    8.00898E+007    7.99401E+007   -1.58948E+005   -1.40382E+005   -8.68739E+001   -7.09169E+001   -1.60946E+003
            2247    8.00880E+007    7.99410E+007    7.99410E+007   -1.15069E+005   -1.78865E+005    8.01199E+007   -2.65490E+007    8.00879E+007    7.99410E+007   -1.67290E+005   -1.26644E+005   -6.25607E+002    5.70298E+001    2.45861E+004
            2248    8.00873E+007    7.99414E+007    7.99414E+007   -1.06388E+005   -1.85233E+005    8.01267E+007   -2.65499E+007    8.00872E+007    7.99414E+007   -1.66799E+005   -1.24822E+005   -5.82510E+002    3.20527E+001    3.33712E+004
            2249    8.00868E+007    7.99419E+007    7.99419E+007   -1.07076E+005   -1.82668E+005    8.01246E+007   -2.65507E+007    8.00867E+007    7.99419E+007   -1.60302E+005   -1.29442E+005   -3.57048E+002    1.08475E+002    3.45030E+004
            2250    8.00855E+007    7.99428E+007    7.99428E+007   -1.10873E+005   -1.74349E+005    8.01172E+007   -2.65525E+007    8.00854E+007    7.99428E+007   -1.49765E+005   -1.35456E+005   -9.22108E+001   -2.11710E+002    3.09210E+004
            2251    8.00844E+007    7.99436E+007    7.99436E+007   -1.16155E+005   -1.65286E+005    8.01089E+007   -2.65541E+007    8.00843E+007    7.99436E+007   -1.38572E+005   -1.42869E+005   -1.21544E+002    1.51877E+002    2.44714E+004
            2252    8.00832E+007    7.99446E+007    7.99446E+007   -1.20453E+005   -1.56824E+005    8.01014E+007   -2.65558E+007    8.00832E+007    7.99446E+007   -1.29155E+005   -1.48122E+005   -1.25779E+001   -2.41226E+002    1.55164E+004
            2253    8.00826E+007    7.99449E+007    7.99449E+007   -1.23068E+005   -1.52308E+005    8.00972E+007   -2.65565E+007    8.00826E+007    7.99449E+007   -1.24115E+005   -1.51261E+005   -2.57521E+001    1.84222E+002    5.43343E+003
            2254    8.01007E+007    7.99328E+007    7.99328E+007   -1.38311E+005   -1.97446E+005    8.01303E+007   -2.65324E+007    8.01007E+007    7.99328E+007   -1.81208E+005   -1.54550E+005    6.34598E+002   -2.18494E+002    2.63928E+004
            2255    8.00961E+007    7.99357E+007    7.99357E+007   -1.22343E+005   -1.98430E+005    8.01342E+007   -2.65383E+007    8.00961E+007    7.99357E+007   -1.70609E+005   -1.50163E+005    6.13255E+002   -7.22577E+001    3.66445E+004
            2256    8.00920E+007    7.99383E+007    7.99383E+007   -1.14173E+005   -1.93214E+005    8.01315E+007   -2.65436E+007    8.00919E+007    7.99383E+007   -1.57988E+005   -1.49399E+005    9.32921E+001   -7.55510E+001    3.92861E+004
            2257    8.00886E+007    7.99407E+007    7.99407E+007   -1.10480E+005   -1.85318E+005    8.01260E+007   -2.65483E+007    8.00885E+007    7.99407E+007   -1.43411E+005   -1.52387E+005    7.24385E+001    2.68160E+002    3.71489E+004
            2258    8.00850E+007    7.99432E+007    7.99432E+007   -1.08506E+005   -1.75131E+005    8.01183E+007   -2.65532E+007    8.00849E+007    7.99432E+007   -1.28129E+005   -1.55508E+005    5.29654E+001   -1.01021E+002    3.03698E+004
            2259    8.00826E+007    7.99449E+007    7.99449E+007   -1.08231E+005   -1.67194E+005    8.01121E+007   -2.65565E+007    8.00826E+007    7.99449E+007   -1.16058E+005   -1.59367E+005    9.28033E+001    2.84255E+002    2.00062E+004
            2260    8.00812E+007    7.99460E+007    7.99460E+007   -1.08327E+005   -1.62037E+005    8.01080E+007   -2.65585E+007    8.00811E+007    7.99460E+007   -1.09213E+005   -1.61151E+005    1.09519E+002   -1.77818E+002    6.84284E+003
            2261    8.01102E+007    7.99256E+007    7.99256E+007   -1.58384E+005   -2.10615E+005    8.01363E+007   -2.65189E+007    8.01101E+007    7.99256E+007   -1.89687E+005   -1.79312E+005   -1.15547E+003   -5.21690E+000    2.55953E+004
            2262    8.01039E+007    7.99301E+007    7.99301E+007   -1.41178E+005   -2.06447E+005    8.01365E+007   -2.65275E+007    8.01039E+007    7.99301E+007   -1.75673E+005   -1.71952E+005   -6.61685E+002    8.13549E+002    3.25816E+004
            2263    8.00979E+007    7.99344E+007    7.99344E+007   -1.25295E+005   -2.01815E+005    8.01362E+007   -2.65357E+007    8.00979E+007    7.99344E+007   -1.59511E+005   -1.67599E+005    4.79266E+001   -8.21599E+002    3.80458E+004
            2264    8.00910E+007    7.99389E+007    7.99389E+007   -1.11836E+005   -1.92205E+005    8.01311E+007   -2.65450E+007    8.00909E+007    7.99389E+007   -1.38393E+005   -1.65648E+005   -1.67281E+002    7.73195E+002    3.78037E+004
            2265    8.00852E+007    7.99432E+007    7.99432E+007   -1.01832E+005   -1.81927E+005    8.01252E+007   -2.65532E+007    8.00851E+007    7.99432E+007   -1.18017E+005   -1.65742E+005    3.74725E+001   -6.80226E+002    3.21618E+004
            2266    8.00797E+007    7.99470E+007    7.99470E+007   -9.38659E+004   -1.71484E+005    8.01185E+007   -2.65605E+007    8.00796E+007    7.99470E+007   -1.00305E+005   -1.65045E+005   -1.01258E+002    6.58624E+002    2.14084E+004
            2267    8.00770E+007    7.99490E+007    7.99490E+007   -9.03958E+004   -1.65565E+005    8.01146E+007   -2.65643E+007    8.00769E+007    7.99490E+007   -9.11259E+004   -1.64835E+005   -6.10552E+001   -5.92133E+002    7.37229E+003
            2268    8.01172E+007    7.99218E+007    7.99218E+007   -1.78745E+005   -2.12086E+005    8.01339E+007   -2.65103E+007    8.01172E+007    7.99218E+007   -1.95228E+005   -1.95603E+005    1.79810E+003   -2.05503E+003    1.66690E+004
            2269    8.01120E+007    7.99245E+007    7.99245E+007   -1.61510E+005   -2.13453E+005    8.01379E+007   -2.65165E+007    8.01119E+007    7.99245E+007   -1.84018E+005   -1.90945E+005   -1.89618E+002    1.40967E+003    2.57395E+004
            2270    8.01045E+007    7.99301E+007    7.99301E+007   -1.44643E+005   -2.04270E+005    8.01343E+007   -2.65271E+007    8.01045E+007    7.99301E+007   -1.63988E+005   -1.84924E+005    1.62361E+002   -8.77796E+002    2.79155E+004
            2271    8.00942E+007    7.99367E+007    7.99367E+007   -1.24646E+005   -1.90223E+005    8.01270E+007   -2.65406E+007    8.00941E+007    7.99367E+007   -1.40689E+005   -1.74181E+005   -5.18847E+001    9.02838E+002    2.81899E+004
            2272    8.00820E+007    7.99454E+007    7.99454E+007   -1.00744E+005   -1.72378E+005    8.01178E+007   -2.65574E+007    8.00819E+007    7.99454E+007   -1.11490E+005   -1.61632E+005    1.06407E+002   -5.63558E+002    2.55798E+004
            2273    8.00724E+007    7.99519E+007    7.99519E+007   -8.29317E+004   -1.57980E+005    8.01099E+007   -2.65703E+007    8.00723E+007    7.99519E+007   -8.76810E+004   -1.53231E+005    1.06771E+002    6.65167E+002    1.82722E+004
            2274    8.00670E+007    7.99558E+007    7.99558E+007   -7.23672E+004   -1.49892E+005    8.01057E+007   -2.65779E+007    8.00669E+007    7.99558E+007   -7.30172E+004   -1.49242E+005    1.59054E+002   -5.04513E+002    7.06874E+003
            2275    8.00437E+007    7.99714E+007    7.99714E+007   -6.61409E+004   -7.84713E+004    8.00498E+007   -2.66089E+007    8.00437E+007    7.99714E+007   -6.62018E+004   -7.84104E+004   -2.42134E+001    4.46888E+001   -8.64325E+002
            2276    8.00573E+007    7.99621E+007    7.99621E+007   -8.77028E+004   -1.02680E+005    8.00648E+007   -2.65906E+007    8.00573E+007    7.99621E+007   -8.77853E+004   -1.02598E+005   -1.54730E+000    2.80050E+001   -1.10855E+003
            2277    8.00786E+007    7.99477E+007    7.99477E+007   -1.22426E+005   -1.39337E+005    8.00870E+007   -2.65620E+007    8.00785E+007    7.99477E+007   -1.22524E+005   -1.39239E+005   -2.44234E+000    8.08129E+001   -1.28582E+003
            2278    8.01000E+007    7.99331E+007    7.99331E+007   -1.56694E+005   -1.77051E+005    8.01102E+007   -2.65331E+007    8.01000E+007    7.99331E+007   -1.56729E+005   -1.77015E+005    3.17361E+001    3.15489E+001   -8.50924E+002
            2279    8.01176E+007    7.99212E+007    7.99212E+007   -1.83361E+005   -2.09426E+005    8.01306E+007   -2.65095E+007    8.01176E+007    7.99212E+007   -1.83456E+005   -2.09331E+005   -1.38949E+001    7.79876E-001   -1.57198E+003
            2280    8.01232E+007    7.99173E+007    7.99173E+007   -1.81791E+005   -2.29978E+005    8.01473E+007   -2.65018E+007    8.01232E+007    7.99173E+007   -1.82142E+005   -2.29627E+005    3.14109E+001    5.94956E+001    4.09672E+003
            2281    8.01209E+007    7.99189E+007    7.99189E+007   -1.63517E+005   -2.40266E+005    8.01592E+007   -2.65051E+007    8.01208E+007    7.99189E+007   -1.82869E+005   -2.20914E+005   -5.37600E+002   -2.01430E+002    3.33281E+004
            2282    8.00622E+007    7.99593E+007    7.99593E+007   -6.94145E+004   -1.36412E+005    8.00957E+007   -2.65845E+007    8.00621E+007    7.99593E+007   -6.99150E+004   -1.35912E+005   -1.85603E+002   -4.71893E+002   -5.76887E+003
            2283    8.00728E+007    7.99521E+007    7.99521E+007   -8.18928E+004   -1.59460E+005    8.01115E+007   -2.65702E+007    8.00727E+007    7.99521E+007   -8.26545E+004   -1.58698E+005    5.53888E+001   -6.91513E+002   -7.64896E+003
            2284    8.00785E+007    7.99480E+007    7.99480E+007   -9.66427E+004   -1.64265E+005    8.01123E+007   -2.65624E+007    8.00784E+007    7.99480E+007   -9.75655E+004   -1.63342E+005   -1.13190E+002   -3.88671E+002   -7.84554E+003
            2285    8.00814E+007    7.99461E+007    7.99461E+007   -1.10739E+005   -1.59918E+005    8.01060E+007   -2.65585E+007    8.00814E+007    7.99461E+007   -1.11806E+005   -1.58851E+005   -2.24722E+001   -9.03274E+001   -7.16615E+003
            2286    8.00824E+007    7.99449E+007    7.99449E+007   -1.22800E+005   -1.52178E+005    8.00971E+007   -2.65567E+007    8.00824E+007    7.99449E+007   -1.24044E+005   -1.50934E+005   -4.14272E-001    3.82109E+002   -5.91558E+003
            2287    8.00830E+007    7.99449E+007    7.99449E+007   -1.31760E+005   -1.44546E+005    8.00894E+007   -2.65562E+007    8.00830E+007    7.99449E+007   -1.32935E+005   -1.43371E+005   -6.17332E+000    6.56004E+002   -3.69292E+003
            2288    8.00828E+007    7.99445E+007    7.99445E+007   -1.36685E+005   -1.39962E+005    8.00845E+007   -2.65560E+007    8.00828E+007    7.99445E+007   -1.37980E+005   -1.38667E+005   -3.24013E+001    8.11240E+002   -1.60209E+003
            2289    8.00831E+007    7.99447E+007    7.99447E+007   -1.37237E+005   -1.39422E+005    8.00842E+007   -2.65560E+007    8.00831E+007    7.99447E+007   -1.38421E+005   -1.38238E+005    3.57354E+001    7.66093E+002    1.08862E+003
            2290    8.00829E+007    7.99446E+007    7.99446E+007   -1.33007E+005   -1.43645E+005    8.00882E+007   -2.65560E+007    8.00829E+007    7.99446E+007   -1.34058E+005   -1.42593E+005   -3.43825E+001    6.08204E+002    3.17470E+003
            2291    8.00697E+007    7.99540E+007    7.99540E+007   -8.30358E+004   -1.48410E+005    8.01024E+007   -2.65742E+007    8.00697E+007    7.99540E+007   -8.73107E+004   -1.44136E+005   -1.06366E+002    5.95597E+002   -1.61615E+004
            2292    8.00774E+007    7.99488E+007    7.99488E+007   -8.99849E+004   -1.67177E+005    8.01159E+007   -2.65639E+007    8.00773E+007    7.99488E+007   -9.61446E+004   -1.61017E+005    4.78180E+001    7.35076E+002   -2.09176E+004
            2293    8.00812E+007    7.99460E+007    7.99460E+007   -1.00187E+005   -1.70294E+005    8.01163E+007   -2.65585E+007    8.00812E+007    7.99460E+007   -1.07894E+005   -1.62586E+005    2.40765E+000    5.31795E+002   -2.19299E+004
            2294    8.00829E+007    7.99449E+007    7.99449E+007   -1.11105E+005   -1.64955E+005    8.01098E+007   -2.65563E+007    8.00829E+007    7.99449E+007   -1.20156E+005   -1.55904E+005   -1.06034E+002    5.27823E+001   -2.01360E+004
            2295    8.00832E+007    7.99444E+007    7.99444E+007   -1.20853E+005   -1.56652E+005    8.01011E+007   -2.65556E+007    8.00831E+007    7.99444E+007   -1.30650E+005   -1.46855E+005    7.84415E+001   -2.41552E+002   -1.59603E+004
            2296    8.00831E+007    7.99447E+007    7.99447E+007   -1.27899E+005   -1.49043E+005    8.00937E+007   -2.65559E+007    8.00831E+007    7.99447E+007   -1.38461E+005   -1.38482E+005   -9.45700E+001   -7.12493E+002   -1.05723E+004
            2297    8.00828E+007    7.99446E+007    7.99446E+007   -1.32458E+005   -1.43974E+005    8.00886E+007   -2.65561E+007    8.00828E+007    7.99446E+007   -1.42610E+005   -1.33822E+005    5.97206E+001   -6.86927E+002   -3.72148E+003
            2298    8.00829E+007    7.99448E+007    7.99448E+007   -1.32680E+005   -1.43574E+005    8.00884E+007   -2.65562E+007    8.00829E+007    7.99448E+007   -1.42682E+005   -1.33573E+005   -6.57623E+000   -8.22709E+002    2.98821E+003
            2299    8.00831E+007    7.99445E+007    7.99445E+007   -1.28695E+005   -1.48517E+005    8.00930E+007   -2.65558E+007    8.00831E+007    7.99445E+007   -1.38329E+005   -1.38883E+005    6.09862E+001   -5.08517E+002    9.90749E+003
            2300    8.00825E+007    7.99453E+007    7.99453E+007   -1.06733E+005   -1.67505E+005    8.01128E+007   -2.65570E+007    8.00824E+007    7.99453E+007   -1.16440E+005   -1.57798E+005   -6.04602E+001   -4.51057E+002   -2.22637E+004
            2301    8.00850E+007    7.99435E+007    7.99435E+007   -1.02764E+005   -1.80130E+005    8.01237E+007   -2.65536E+007    8.00849E+007    7.99435E+007   -1.17946E+005   -1.64948E+005   -1.57812E+002   -7.99491E+002   -3.07262E+004
            2302    8.00859E+007    7.99428E+007    7.99428E+007   -1.06250E+005   -1.79943E+005    8.01227E+007   -2.65522E+007    8.00858E+007    7.99428E+007   -1.25642E+005   -1.60551E+005    5.59806E+001   -2.83017E+002   -3.24499E+004
            2303    8.00853E+007    7.99431E+007    7.99431E+007   -1.11321E+005   -1.73153E+005    8.01162E+007   -2.65529E+007    8.00853E+007    7.99431E+007   -1.33788E+005   -1.50687E+005   -1.07251E+002   -1.57540E+002   -2.97388E+004
            2304    8.00842E+007    7.99437E+007    7.99437E+007   -1.16466E+005   -1.64442E+005    8.01082E+007   -2.65543E+007    8.00842E+007    7.99437E+007   -1.41800E+005   -1.39109E+005    1.89679E+002    4.17963E+002   -2.39505E+004
            2305    8.00832E+007    7.99446E+007    7.99446E+007   -1.21091E+005   -1.56182E+005    8.01007E+007   -2.65558E+007    8.00832E+007    7.99446E+007   -1.47487E+005   -1.29786E+005   -9.58285E+001    5.12180E+002   -1.51496E+004
            2306    8.00825E+007    7.99449E+007    7.99449E+007   -1.23519E+005   -1.51499E+005    8.00964E+007   -2.65566E+007    8.00824E+007    7.99449E+007   -1.50500E+005   -1.24517E+005    1.25816E+002    7.48422E+002   -5.19091E+003
            2307    8.00826E+007    7.99449E+007    7.99449E+007   -1.24046E+005   -1.51359E+005    8.00963E+007   -2.65565E+007    8.00826E+007    7.99449E+007   -1.50078E+005   -1.25327E+005   -1.30421E+002    6.06564E+002    5.77507E+003
            2308    8.00831E+007    7.99444E+007    7.99444E+007   -1.21306E+005   -1.56110E+005    8.01005E+007   -2.65557E+007    8.00831E+007    7.99444E+007   -1.46090E+005   -1.31326E+005    1.85264E+001    6.04940E+002    1.57583E+004
            2309    8.00960E+007    7.99358E+007    7.99358E+007   -1.32132E+005   -1.88199E+005    8.01240E+007   -2.65385E+007    8.00959E+007    7.99358E+007   -1.46695E+005   -1.73636E+005    7.77226E+001    8.85913E+002   -2.45850E+004
            2310    8.00935E+007    7.99373E+007    7.99373E+007   -1.18884E+005   -1.93329E+005    8.01307E+007   -2.65417E+007    8.00934E+007    7.99373E+007   -1.43656E+005   -1.68556E+005    8.11481E+001    8.44633E+002   -3.50789E+004
            2311    8.00907E+007    7.99392E+007    7.99392E+007   -1.13062E+005   -1.89867E+005    8.01291E+007   -2.65454E+007    8.00906E+007    7.99392E+007   -1.44780E+005   -1.58149E+005    7.31207E+001    5.85905E+002   -3.78164E+004
            2312    8.00877E+007    7.99412E+007    7.99412E+007   -1.10880E+005   -1.81981E+005    8.01232E+007   -2.65495E+007    8.00876E+007    7.99412E+007   -1.49320E+005   -1.43541E+005   -4.64233E+001    5.04521E+001   -3.54327E+004
            2313    8.00847E+007    7.99434E+007    7.99434E+007   -1.10475E+005   -1.72058E+005    8.01155E+007   -2.65536E+007    8.00847E+007    7.99434E+007   -1.53512E+005   -1.29022E+005    4.08990E+001   -1.99178E+002   -2.82523E+004
            2314    8.00823E+007    7.99450E+007    7.99450E+007   -1.10450E+005   -1.64048E+005    8.01091E+007   -2.65568E+007    8.00822E+007    7.99450E+007   -1.57178E+005   -1.17320E+005   -9.55515E+001   -5.62033E+002   -1.79172E+004
            2315    8.00813E+007    7.99459E+007    7.99459E+007   -1.11439E+005   -1.59361E+005    8.01052E+007   -2.65584E+007    8.00812E+007    7.99459E+007   -1.58851E+005   -1.11949E+005    1.38350E+002   -5.37208E+002   -4.91590E+003
            2316    8.00814E+007    7.99457E+007    7.99457E+007   -1.11689E+005   -1.59703E+005    8.01054E+007   -2.65581E+007    8.00814E+007    7.99457E+007   -1.58183E+005   -1.13209E+005   -1.22316E+002   -6.37926E+002    8.40645E+003
            2317    8.00831E+007    7.99446E+007    7.99446E+007   -1.11837E+005   -1.65228E+005    8.01098E+007   -2.65558E+007    8.00831E+007    7.99446E+007   -1.55089E+005   -1.21976E+005    1.83356E+002   -4.17485E+002    2.09411E+004
            2318    8.01077E+007    7.99281E+007    7.99281E+007   -1.56195E+005   -2.03096E+005    8.01312E+007   -2.65229E+007    8.01077E+007    7.99281E+007   -1.73377E+005   -1.85913E+005   -1.03225E+002   -7.79595E+002   -2.25972E+004
            2319    8.01008E+007    7.99325E+007    7.99325E+007   -1.34160E+005   -2.02482E+005    8.01350E+007   -2.65319E+007    8.01008E+007    7.99325E+007   -1.64220E+005   -1.72422E+005   -1.87744E+002   -1.00131E+003   -3.39139E+004
            2320    8.00950E+007    7.99363E+007    7.99363E+007   -1.20351E+005   -1.97070E+005    8.01334E+007   -2.65396E+007    8.00950E+007    7.99363E+007   -1.61985E+005   -1.55436E+005   -4.30490E+001   -3.22612E+002   -3.82194E+004
            2321    8.00891E+007    7.99402E+007    7.99402E+007   -1.10393E+005   -1.87336E+005    8.01275E+007   -2.65475E+007    8.00890E+007    7.99402E+007   -1.61198E+005   -1.36531E+005    1.68042E+002   -5.34022E+001   -3.64411E+004
            2322    8.00840E+007    7.99440E+007    7.99440E+007   -1.02726E+005   -1.77180E+005    8.01212E+007   -2.65547E+007    8.00839E+007    7.99440E+007   -1.62389E+005   -1.17518E+005    1.06188E+002    2.03047E+002   -2.97064E+004
            2323    8.00800E+007    7.99466E+007    7.99466E+007   -9.85478E+004   -1.68347E+005    8.01149E+007   -2.65599E+007    8.00800E+007    7.99466E+007   -1.63256E+005   -1.03639E+005    1.02610E+001    3.49982E+002   -1.81509E+004
            2324    8.00785E+007    7.99481E+007    7.99481E+007   -9.65429E+004   -1.64253E+005    8.01123E+007   -2.65624E+007    8.00784E+007    7.99481E+007   -1.64005E+005   -9.67910E+004    1.74806E+002    3.77065E+002   -4.09150E+003
            2325    8.00792E+007    7.99472E+007    7.99472E+007   -9.82897E+004   -1.65605E+005    8.01128E+007   -2.65611E+007    8.00791E+007    7.99472E+007   -1.63720E+005   -1.00175E+005   -2.61822E+002    3.70895E+002    1.11056E+004
            2326    8.00822E+007    7.99454E+007    7.99454E+007   -1.01502E+005   -1.71954E+005    8.01174E+007   -2.65573E+007    8.00821E+007    7.99454E+007   -1.62229E+005   -1.11228E+005    1.67458E+002    3.10192E+002    2.43020E+004
            2327    8.01143E+007    7.99229E+007    7.99229E+007   -1.73341E+005   -2.09389E+005    8.01323E+007   -2.65134E+007    8.01143E+007    7.99229E+007   -1.87340E+005   -1.95390E+005    1.98495E+002    1.42428E+003   -1.75690E+004
            2328    8.01066E+007    7.99282E+007    7.99282E+007   -1.50018E+005   -2.06687E+005    8.01349E+007   -2.65238E+007    8.01065E+007    7.99282E+007   -1.80244E+005   -1.76460E+005    6.46048E+002    1.11028E+003   -2.82712E+004
            2329    8.00983E+007    7.99342E+007    7.99342E+007   -1.29632E+005   -1.98419E+005    8.01327E+007   -2.65354E+007    8.00982E+007    7.99342E+007   -1.72014E+005   -1.56037E+005   -4.09407E+002    1.00983E+002   -3.34530E+004
            2330    8.00893E+007    7.99399E+007    7.99399E+007   -1.10938E+005   -1.87716E+005    8.01276E+007   -2.65471E+007    8.00892E+007    7.99399E+007   -1.67529E+005   -1.31125E+005    3.09242E+002    1.81008E+002   -3.37997E+004
            2331    8.00813E+007    7.99460E+007    7.99460E+007   -9.58144E+004   -1.74828E+005    8.01208E+007   -2.65584E+007    8.00812E+007    7.99460E+007   -1.63640E+005   -1.07002E+005   -1.30298E+002   -2.64931E+002   -2.75466E+004
            2332    8.00748E+007    7.99500E+007    7.99500E+007   -8.51418E+004   -1.64479E+005    8.01144E+007   -2.65668E+007    8.00747E+007    7.99500E+007   -1.60936E+005   -8.86850E+004   -1.50387E+001   -1.72105E+002   -1.63875E+004
            2333    8.00727E+007    7.99520E+007    7.99520E+007   -8.15016E+004   -1.59816E+005    8.01118E+007   -2.65702E+007    8.00726E+007    7.99520E+007   -1.59742E+005   -8.15763E+004    2.15983E+002   -3.59290E+002   -2.41722E+003
            2334    8.00739E+007    7.99507E+007    7.99507E+007   -8.37532E+004   -1.62669E+005    8.01133E+007   -2.65681E+007    8.00738E+007    7.99507E+007   -1.60813E+005   -8.56093E+004   -3.56813E+002   -2.00073E+002    1.19596E+004
            2335    8.00799E+007    7.99471E+007    7.99471E+007   -9.32475E+004   -1.72334E+005    8.01194E+007   -2.65605E+007    8.00798E+007    7.99471E+007   -1.63576E+005   -1.02005E+005    4.68737E+002   -3.12601E+002    2.48178E+004
            2336    8.01196E+007    7.99204E+007    7.99204E+007   -1.88035E+005   -2.10276E+005    8.01307E+007   -2.65074E+007    8.01196E+007    7.99204E+007   -1.98216E+005   -2.00095E+005   -1.80329E+003   -2.19428E+003   -1.10810E+004
            2337    8.01110E+007    7.99250E+007    7.99250E+007   -1.66843E+005   -2.05025E+005    8.01300E+007   -2.65177E+007    8.01110E+007    7.99250E+007   -1.87183E+005   -1.84685E+005    8.83001E+002   -1.74954E+002   -1.90503E+004
            2338    8.01018E+007    7.99320E+007    7.99320E+007   -1.42857E+005   -1.96762E+005    8.01287E+007   -2.65308E+007    8.01018E+007    7.99320E+007   -1.79822E+005   -1.59797E+005   -4.15245E+002   -2.89394E+002   -2.50235E+004
            2339    8.00888E+007    7.99403E+007    7.99403E+007   -1.18252E+005   -1.78761E+005    8.01190E+007   -2.65478E+007    8.00887E+007    7.99403E+007   -1.66883E+005   -1.30130E+005    4.00847E+002    3.89746E+001   -2.40341E+004
            2340    8.00756E+007    7.99498E+007    7.99498E+007   -9.35025E+004   -1.57992E+005    8.01078E+007   -2.65661E+007    8.00755E+007    7.99498E+007   -1.51583E+005   -9.99117E+004    3.86963E+000    9.29883E+000   -1.92937E+004
            2341    8.00651E+007    7.99566E+007    7.99566E+007   -7.51625E+004   -1.41822E+005    8.00985E+007   -2.65799E+007    8.00651E+007    7.99566E+007   -1.39710E+005   -7.72736E+004    5.46954E+001    6.98444E+001   -1.16735E+004
            2342    8.00615E+007    7.99596E+007    7.99596E+007   -6.73365E+004   -1.36469E+005    8.00961E+007   -2.65853E+007    8.00615E+007    7.99596E+007   -1.36448E+005   -6.73582E+004    1.55499E+002    5.92946E+001   -1.22496E+003
            2343    8.00648E+007    7.99569E+007    7.99569E+007   -7.38483E+004   -1.41895E+005    8.00988E+007   -2.65804E+007    8.00648E+007    7.99569E+007   -1.40452E+005   -7.52917E+004   -2.81537E+002    7.18049E+001    9.80459E+003
            2344    8.00748E+007    7.99506E+007    7.99506E+007   -9.06950E+004   -1.57635E+005    8.01082E+007   -2.65674E+007    8.00747E+007    7.99506E+007   -1.51939E+005   -9.63903E+004    3.06461E+002    5.58587E+000    1.86763E+004
            2345    8.00662E+007    7.99560E+007    7.99560E+007   -1.03071E+005   -1.17239E+005    8.00733E+007   -2.65786E+007    8.00662E+007    7.99560E+007   -1.16804E+005   -1.03506E+005   -8.26921E+000   -5.73951E+000   -2.44307E+003
            2346    8.00471E+007    7.99690E+007    7.99690E+007   -7.32795E+004   -8.29395E+004    8.00519E+007   -2.66042E+007    8.00471E+007    7.99690E+007   -8.24379E+004   -7.37811E+004   -5.23880E+001   -7.84825E+001   -2.14335E+003
            2347    8.00395E+007    7.99740E+007    7.99740E+007   -6.26917E+004   -6.83819E+004    8.00424E+007   -2.66143E+007    8.00395E+007    7.99740E+007   -6.83735E+004   -6.27000E+004    4.77132E+001   -2.75260E+001   -2.17689E+002
            2348    8.00472E+007    7.99688E+007    7.99688E+007   -7.39788E+004   -8.29602E+004    8.00517E+007   -2.66039E+007    8.00472E+007    7.99688E+007   -8.25935E+004   -7.43454E+004   -1.03048E+000   -7.33835E+001    1.77725E+003
            2349    8.00662E+007    7.99559E+007    7.99559E+007   -1.03869E+005   -1.16674E+005    8.00726E+007   -2.65784E+007    8.00662E+007    7.99559E+007   -1.16343E+005   -1.04200E+005    9.54341E+001   -3.14872E+000    2.03159E+003
            2350    8.00894E+007    7.99402E+007    7.99402E+007   -1.40012E+005   -1.58202E+005    8.00984E+007   -2.65473E+007    8.00893E+007    7.99402E+007   -1.57971E+005   -1.40244E+005   -2.21546E+001   -6.99270E+001    2.03734E+003
            2351    8.01090E+007    7.99269E+007    7.99269E+007   -1.69136E+005   -1.95088E+005    8.01220E+007   -2.65209E+007    8.01090E+007    7.99269E+007   -1.94997E+005   -1.69226E+005    1.10266E+002    1.11768E+002   -1.52700E+003
            2352    8.01190E+007    7.99202E+007    7.99202E+007   -1.82455E+005   -2.15115E+005    8.01353E+007   -2.65076E+007    8.01190E+007    7.99202E+007   -2.09563E+005   -1.88007E+005   -1.02285E+002    1.67016E+001   -1.22687E+004
            2353    8.01203E+007    7.99192E+007    7.99192E+007   -1.82893E+005   -2.19289E+005    8.01385E+007   -2.65057E+007    8.01203E+007    7.99192E+007   -1.91888E+005   -2.10293E+005    3.73067E+002    8.94154E+002   -1.56999E+004
            2354    8.00415E+007    7.99731E+007    7.99731E+007   -6.54078E+004   -7.12752E+004    8.00444E+007   -2.66121E+007    8.00415E+007    7.99731E+007   -6.54643E+004   -7.12188E+004    2.92378E+001    9.87523E+001    5.72678E+002
            2355    8.00562E+007    7.99632E+007    7.99632E+007   -8.83345E+004   -9.76491E+004    8.00608E+007   -2.65924E+007    8.00562E+007    7.99632E+007   -8.85296E+004   -9.74540E+004    6.66885E+000   -5.13878E+001    1.33395E+003
            2356    8.00787E+007    7.99478E+007    7.99478E+007   -1.25191E+005   -1.36703E+005    8.00845E+007   -2.65620E+007    8.00787E+007    7.99478E+007   -1.25194E+005   -1.36699E+005   -2.77205E+001    1.28759E+002   -1.94169E+002
            2357    8.01011E+007    7.99326E+007    7.99326E+007   -1.63581E+005   -1.73535E+005    8.01061E+007   -2.65318E+007    8.01011E+007    7.99326E+007   -1.63584E+005   -1.73532E+005   -6.02155E+001   -9.17468E+001   -1.89511E+002
            2358    8.01172E+007    7.99215E+007    7.99215E+007   -1.89009E+005   -2.02337E+005    8.01239E+007   -2.65101E+007    8.01172E+007    7.99215E+007   -1.89026E+005   -2.02321E+005   -2.65940E+001    9.02998E+001    4.64654E+002
            2359    8.01259E+007    7.99156E+007    7.99156E+007   -2.02854E+005   -2.17688E+005    8.01333E+007   -2.64984E+007    8.01259E+007    7.99156E+007   -2.02958E+005   -2.17583E+005   -2.93002E+001   -1.39274E+002    1.24266E+003
            2360    8.01253E+007    7.99159E+007    7.99159E+007   -1.94032E+005   -2.24804E+005    8.01407E+007   -2.64990E+007    8.01253E+007    7.99159E+007   -1.94114E+005   -2.24723E+005    7.42766E+002    2.15665E+002   -1.58435E+003
            2361    8.00670E+007    7.99558E+007    7.99558E+007   -7.23745E+004   -1.50011E+005    8.01058E+007   -2.65778E+007    8.00669E+007    7.99558E+007   -7.29618E+004   -1.49424E+005   -1.64592E+002   -5.07918E+002   -6.72639E+003
            2362    8.00771E+007    7.99489E+007    7.99489E+007   -9.06214E+004   -1.65637E+005    8.01146E+007   -2.65642E+007    8.00770E+007    7.99489E+007   -9.13648E+004   -1.64893E+005    6.09478E+001   -5.86686E+002   -7.43051E+003
            2363    8.00812E+007    7.99460E+007    7.99460E+007   -1.08388E+005   -1.61985E+005    8.01080E+007   -2.65585E+007    8.00811E+007    7.99460E+007   -1.09315E+005   -1.61057E+005   -1.11590E+002   -1.92410E+002   -6.99040E+003
            2364    8.00827E+007    7.99450E+007    7.99450E+007   -1.23110E+005   -1.52313E+005    8.00973E+007   -2.65565E+007    8.00827E+007    7.99450E+007   -1.24184E+005   -1.51240E+005   -5.85762E+000    1.78487E+002   -5.49579E+003
            2365    8.00727E+007    7.99518E+007    7.99518E+007   -8.32892E+004   -1.58400E+005    8.01102E+007   -2.65700E+007    8.00726E+007    7.99518E+007   -8.79259E+004   -1.53764E+005   -1.15391E+002    6.35495E+002   -1.80769E+004
            2366    8.00797E+007    7.99469E+007    7.99469E+007   -9.40188E+004   -1.71521E+005    8.01184E+007   -2.65605E+007    8.00796E+007    7.99469E+007   -1.00467E+005   -1.65073E+005    9.06490E+001    6.56816E+002   -2.14057E+004
            2367    8.00827E+007    7.99448E+007    7.99448E+007   -1.08371E+005   -1.67315E+005    8.01122E+007   -2.65564E+007    8.00826E+007    7.99448E+007   -1.16363E+005   -1.59323E+005   -5.44925E+001    2.96473E+002   -2.01791E+004
            2368    8.00832E+007    7.99445E+007    7.99445E+007   -1.20448E+005   -1.56867E+005    8.01014E+007   -2.65557E+007    8.00832E+007    7.99445E+007   -1.29390E+005   -1.47925E+005   -3.41602E+001   -2.00707E+002   -1.56747E+004
            2369    8.00824E+007    7.99452E+007    7.99452E+007   -1.01090E+005   -1.73169E+005    8.01184E+007   -2.65570E+007    8.00823E+007    7.99452E+007   -1.11872E+005   -1.62388E+005   -1.00943E+002   -5.47365E+002   -2.57075E+004
            2370    8.00852E+007    7.99432E+007    7.99432E+007   -1.01978E+005   -1.81987E+005    8.01252E+007   -2.65531E+007    8.00851E+007    7.99432E+007   -1.18234E+005   -1.65731E+005   -7.80247E+001   -6.64007E+002   -3.21922E+004
            2371    8.00852E+007    7.99431E+007    7.99431E+007   -1.08529E+005   -1.75537E+005    8.01186E+007   -2.65530E+007    8.00851E+007    7.99431E+007   -1.28436E+005   -1.55631E+005   -2.76746E+000   -1.21979E+002   -3.06208E+004
            2372    8.00844E+007    7.99436E+007    7.99436E+007   -1.16035E+005   -1.65492E+005    8.01091E+007   -2.65540E+007    8.00844E+007    7.99436E+007   -1.38983E+005   -1.42544E+005    1.27081E+001    1.09519E+002   -2.46642E+004
            2373    8.00944E+007    7.99366E+007    7.99366E+007   -1.24841E+005   -1.90818E+005    8.01274E+007   -2.65403E+007    8.00944E+007    7.99366E+007   -1.41091E+005   -1.74568E+005    6.07096E+001    8.91456E+002   -2.84262E+004
            2374    8.00912E+007    7.99387E+007    7.99387E+007   -1.12229E+005   -1.92660E+005    8.01314E+007   -2.65446E+007    8.00911E+007    7.99387E+007   -1.39081E+005   -1.65809E+005    1.42541E+002    7.48754E+002   -3.79299E+004
            2375    8.00887E+007    7.99406E+007    7.99406E+007   -1.10627E+005   -1.85601E+005    8.01262E+007   -2.65481E+007    8.00886E+007    7.99406E+007   -1.44089E+005   -1.52139E+005   -3.16579E+001    3.16600E+002   -3.72703E+004
            2376    8.00855E+007    7.99428E+007    7.99428E+007   -1.10679E+005   -1.74706E+005    8.01175E+007   -2.65525E+007    8.00854E+007    7.99428E+007   -1.50005E+005   -1.35380E+005    6.73106E+001   -1.69657E+002   -3.11673E+004
            2377    8.01047E+007    7.99299E+007    7.99299E+007   -1.44792E+005   -2.04806E+005    8.01347E+007   -2.65268E+007    8.01047E+007    7.99299E+007   -1.64591E+005   -1.85007E+005   -1.70584E+002   -8.42566E+002   -2.82175E+004
            2378    8.00981E+007    7.99342E+007    7.99342E+007   -1.25667E+005   -2.02043E+005    8.01362E+007   -2.65355E+007    8.00980E+007    7.99342E+007   -1.60227E+005   -1.67483E+005   -5.67961E+001   -8.09737E+002   -3.80150E+004
            2379    8.00920E+007    7.99382E+007    7.99382E+007   -1.14243E+005   -1.93292E+005    8.01315E+007   -2.65436E+007    8.00920E+007    7.99382E+007   -1.58532E+005   -1.49002E+005   -1.22921E+002   -1.05925E+002   -3.92364E+004
            2380    8.00868E+007    7.99418E+007    7.99418E+007   -1.06948E+005   -1.82856E+005    8.01247E+007   -2.65507E+007    8.00867E+007    7.99418E+007   -1.60664E+005   -1.29140E+005    3.68602E+002    9.03529E+001   -3.45263E+004
            2381    8.01121E+007    7.99243E+007    7.99243E+007   -1.61806E+005   -2.13684E+005    8.01380E+007   -2.65163E+007    8.01120E+007    7.99243E+007   -1.84605E+005   -1.90885E+005    1.67355E+002    1.46665E+003   -2.57484E+004
            2382    8.01039E+007    7.99301E+007    7.99301E+007   -1.41174E+005   -2.06469E+005    8.01365E+007   -2.65275E+007    8.01038E+007    7.99301E+007   -1.76027E+005   -1.71616E+005    7.25686E+002    8.36196E+002   -3.25731E+004
            2383    8.00961E+007    7.99357E+007    7.99357E+007   -1.22518E+005   -1.98221E+005    8.01339E+007   -2.65383E+007    8.00960E+007    7.99357E+007   -1.70915E+005   -1.49824E+005   -6.74164E+002   -5.23756E+001   -3.63533E+004
            2384    8.00871E+007    7.99415E+007    7.99415E+007   -1.06293E+005   -1.84875E+005    8.01263E+007   -2.65501E+007    8.00870E+007    7.99415E+007   -1.66672E+005   -1.24495E+005    6.60697E+002    4.87084E+001   -3.31518E+004
            2385    8.01171E+007    7.99218E+007    7.99218E+007   -1.78496E+005   -2.12138E+005    8.01339E+007   -2.65104E+007    8.01171E+007    7.99218E+007   -1.94840E+005   -1.95794E+005   -1.84660E+003   -2.05826E+003   -1.68145E+004
            2386    8.01100E+007    7.99257E+007    7.99257E+007   -1.58204E+005   -2.10291E+005    8.01360E+007   -2.65191E+007    8.01099E+007    7.99257E+007   -1.89692E+005   -1.78803E+005    1.19107E+003    3.08252E+001   -2.54681E+004
            2387    8.01005E+007    7.99329E+007    7.99329E+007   -1.38414E+005   -1.96769E+005    8.01296E+007   -2.65326E+007    8.01004E+007    7.99329E+007   -1.80998E+005   -1.54185E+005   -7.12445E+002   -2.21946E+002   -2.59150E+004
            2388    8.00878E+007    7.99410E+007    7.99410E+007   -1.15344E+005   -1.78302E+005    8.01193E+007   -2.65491E+007    8.00878E+007    7.99410E+007   -1.66981E+005   -1.26665E+005    7.01230E+002    7.17589E+001   -2.41780E+004
            2389    8.00895E+007    7.99402E+007    7.99402E+007   -1.40119E+005   -1.58627E+005    8.00988E+007   -2.65471E+007    8.00895E+007    7.99402E+007   -1.58520E+005   -1.40226E+005    3.81005E+001   -5.99570E+001    1.40450E+003
            2390    8.01102E+007    7.99262E+007    7.99262E+007   -1.72164E+005   -1.95873E+005    8.01220E+007   -2.65194E+007    8.01102E+007    7.99262E+007   -1.95833E+005   -1.72204E+005    3.59182E+001    4.02095E+001    9.73544E+002
            2391    8.01198E+007    7.99196E+007    7.99196E+007   -1.79114E+005   -2.21349E+005    8.01409E+007   -2.65064E+007    8.01198E+007    7.99196E+007   -2.20833E+005   -1.79630E+005    5.53482E+001    1.07880E+001   -4.64192E+003
            2392    8.01201E+007    7.99194E+007    7.99194E+007   -1.64681E+005   -2.36773E+005    8.01562E+007   -2.65060E+007    8.01201E+007    7.99194E+007   -2.16095E+005   -1.85359E+005   -6.89783E+001    5.95761E+002   -3.26056E+004
            2393    8.00435E+007    7.99715E+007    7.99715E+007   -6.57873E+004   -7.81737E+004    8.00497E+007   -2.66092E+007    8.00435E+007    7.99715E+007   -6.58326E+004   -7.81284E+004    1.92645E+001    3.83284E+001    7.47695E+002
            2394    8.00572E+007    7.99622E+007    7.99622E+007   -8.75270E+004   -1.02402E+005    8.00646E+007   -2.65908E+007    8.00572E+007    7.99622E+007   -8.75758E+004   -1.02353E+005    9.72715E+000    3.17174E+001    8.50960E+002
            2395    8.00787E+007    7.99476E+007    7.99476E+007   -1.22874E+005   -1.39266E+005    8.00869E+007   -2.65618E+007    8.00787E+007    7.99476E+007   -1.23000E+005   -1.39140E+005   -5.26927E+000    7.79397E+001    1.43364E+003
            2396    8.01003E+007    7.99329E+007    7.99329E+007   -1.57236E+005   -1.77649E+005    8.01105E+007   -2.65327E+007    8.01003E+007    7.99329E+007   -1.57325E+005   -1.77560E+005   -3.63913E+001    3.49619E+001    1.34506E+003
            2397    8.01182E+007    7.99208E+007    7.99208E+007   -1.83990E+005   -2.10832E+005    8.01316E+007   -2.65086E+007    8.01182E+007    7.99208E+007   -1.84108E+005   -2.10714E+005    9.16022E+000    1.00710E+001    1.77456E+003
            2398    8.01233E+007    7.99172E+007    7.99172E+007   -1.81191E+005   -2.31059E+005    8.01482E+007   -2.65016E+007    8.01233E+007    7.99172E+007   -1.81561E+005   -2.30688E+005   -1.96084E+001    3.60302E+001   -4.28142E+003
            2399    8.01209E+007    7.99188E+007    7.99188E+007   -1.62993E+005   -2.41170E+005    8.01600E+007   -2.65049E+007    8.01208E+007    7.99188E+007   -1.83194E+005   -2.20969E+005    5.21143E+002   -1.39903E+002   -3.42226E+004
            2400    8.00665E+007    7.99557E+007    7.99557E+007   -1.03824E+005   -1.17703E+005    8.00734E+007   -2.65781E+007    8.00665E+007    7.99557E+007   -1.17281E+005   -1.04246E+005    5.76812E+001   -2.04707E+001    2.38339E+003
            2401    8.00472E+007    7.99688E+007    7.99688E+007   -7.35961E+004   -8.32040E+004    8.00520E+007   -2.66040E+007    8.00472E+007    7.99688E+007   -8.26365E+004   -7.41636E+004    2.30867E+001   -8.25728E+001    2.26503E+003
            2402    8.00394E+007    7.99741E+007    7.99741E+007   -6.26611E+004   -6.78348E+004    8.00419E+007   -2.66145E+007    8.00394E+007    7.99741E+007   -6.78005E+004   -6.26955E+004   -9.42927E+000   -2.19313E+001    4.20132E+002
            2403    8.00469E+007    7.99691E+007    7.99691E+007   -7.37442E+004   -8.19284E+004    8.00510E+007   -2.66045E+007    8.00469E+007    7.99691E+007   -8.15214E+004   -7.41512E+004   -1.07498E+001   -7.85156E+001   -1.77899E+003
            2404    8.00661E+007    7.99560E+007    7.99560E+007   -1.03888E+005   -1.16245E+005    8.00723E+007   -2.65786E+007    8.00661E+007    7.99560E+007   -1.15812E+005   -1.04321E+005   -8.00087E+001    2.74448E+000   -2.27181E+003
            2405    8.00898E+007    7.99401E+007    7.99401E+007   -1.40730E+005   -1.58761E+005    8.00988E+007   -2.65469E+007    8.00898E+007    7.99401E+007   -1.58455E+005   -1.41037E+005    9.04535E+000   -5.58888E+001   -2.33114E+003
            2406    8.01098E+007    7.99265E+007    7.99265E+007   -1.70100E+005   -1.96604E+005    8.01231E+007   -2.65199E+007    8.01098E+007    7.99265E+007   -1.96550E+005   -1.70154E+005   -9.43881E+001    9.83679E+001    1.19722E+003
            2407    8.01196E+007    7.99199E+007    7.99199E+007   -1.82991E+005   -2.16401E+005    8.01363E+007   -2.65068E+007    8.01196E+007    7.99199E+007   -2.10839E+005   -1.88553E+005    8.72083E+001    2.50580E+001    1.24456E+004
            2408    8.01205E+007    7.99191E+007    7.99191E+007   -1.83180E+005   -2.19625E+005    8.01387E+007   -2.65054E+007    8.01205E+007    7.99191E+007   -1.92636E+005   -2.10169E+005   -3.41190E+002    9.71339E+002    1.59753E+004
            2409    8.00745E+007    7.99507E+007    7.99507E+007   -9.06410E+004   -1.56811E+005    8.01075E+007   -2.65678E+007    8.00744E+007    7.99507E+007   -1.51127E+005   -9.63252E+004   -3.53202E+002    1.99400E+001   -1.85422E+004
            2410    8.00797E+007    7.99471E+007    7.99471E+007   -9.29175E+004   -1.72163E+005    8.01193E+007   -2.65607E+007    8.00796E+007    7.99471E+007   -1.63480E+005   -1.01601E+005   -5.30640E+002   -3.17372E+002   -2.47532E+004
            2411    8.00820E+007    7.99455E+007    7.99455E+007   -1.01080E+005   -1.71914E+005    8.01174E+007   -2.65575E+007    8.00819E+007    7.99455E+007   -1.62252E+005   -1.10743E+005   -1.79525E+002    2.93664E+002   -2.43121E+004
            2412    8.00831E+007    7.99446E+007    7.99446E+007   -1.11483E+005   -1.65433E+005    8.01100E+007   -2.65559E+007    8.00830E+007    7.99446E+007   -1.55420E+005   -1.21496E+005   -1.14796E+002   -3.80333E+002   -2.09750E+004
            2413    8.00831E+007    7.99445E+007    7.99445E+007   -1.21263E+005   -1.56076E+005    8.01005E+007   -2.65557E+007    8.00831E+007    7.99445E+007   -1.46379E+005   -1.30960E+005    9.81752E+001    5.64163E+002   -1.56061E+004
            2414    8.00831E+007    7.99444E+007    7.99444E+007   -1.28796E+005   -1.48463E+005    8.00929E+007   -2.65557E+007    8.00831E+007    7.99444E+007   -1.38603E+005   -1.38657E+005    4.31943E+001   -4.89439E+002   -9.83339E+003
            2415    8.00829E+007    7.99446E+007    7.99446E+007   -1.33005E+005   -1.43654E+005    8.00882E+007   -2.65560E+007    8.00829E+007    7.99446E+007   -1.34092E+005   -1.42567E+005    5.16167E+001    5.97278E+002   -3.22331E+003
            2416    8.00645E+007    7.99571E+007    7.99571E+007   -7.37349E+004   -1.40956E+005    8.00981E+007   -2.65808E+007    8.00644E+007    7.99571E+007   -1.39454E+005   -7.52370E+004    3.50571E+002    8.14698E+001   -9.93591E+003
            2417    8.00736E+007    7.99508E+007    7.99508E+007   -8.33581E+004   -1.62197E+005    8.01130E+007   -2.65684E+007    8.00736E+007    7.99508E+007   -1.60379E+005   -8.51761E+004    4.13390E+002   -2.04647E+002   -1.18332E+004
            2418    8.00790E+007    7.99473E+007    7.99473E+007   -9.77689E+004   -1.65523E+005    8.01129E+007   -2.65614E+007    8.00789E+007    7.99473E+007   -1.63713E+005   -9.95782E+004    2.91781E+002    3.66684E+002   -1.09230E+004
            2419    8.00813E+007    7.99457E+007    7.99457E+007   -1.11445E+005   -1.59736E+005    8.01055E+007   -2.65582E+007    8.00813E+007    7.99457E+007   -1.58360E+005   -1.12821E+005    5.80775E+001   -6.18509E+002   -8.03331E+003
            2420    8.00826E+007    7.99450E+007    7.99450E+007   -1.23953E+005   -1.51413E+005    8.00964E+007   -2.65565E+007    8.00826E+007    7.99450E+007   -1.50267E+005   -1.25098E+005   -1.39219E+001    6.03985E+002   -5.49006E+003
            2421    8.00829E+007    7.99448E+007    7.99448E+007   -1.32711E+005   -1.43544E+005    8.00883E+007   -2.65562E+007    8.00829E+007    7.99448E+007   -1.42713E+005   -1.33541E+005   -1.02137E+002   -8.10900E+002   -2.88212E+003
            2422    8.00831E+007    7.99447E+007    7.99447E+007   -1.37222E+005   -1.39449E+005    8.00842E+007   -2.65560E+007    8.00831E+007    7.99447E+007   -1.38441E+005   -1.38230E+005   -7.81161E+001    7.67138E+002   -1.10828E+003
            2423    8.00612E+007    7.99599E+007    7.99599E+007   -6.71268E+004   -1.35410E+005    8.00953E+007   -2.65858E+007    8.00611E+007    7.99599E+007   -1.35397E+005   -6.71400E+004   -1.85430E+002    5.37794E+001    9.49410E+002
            2424    8.00724E+007    7.99522E+007    7.99522E+007   -8.10390E+004   -1.59311E+005    8.01116E+007   -2.65706E+007    8.00724E+007    7.99522E+007   -1.59233E+005   -8.11176E+004   -2.59641E+002   -3.55683E+002    2.48016E+003
            2425    8.00785E+007    7.99481E+007    7.99481E+007   -9.63396E+004   -1.64373E+005    8.01125E+007   -2.65625E+007    8.00784E+007    7.99481E+007   -1.64073E+005   -9.66399E+004   -1.79288E+002    3.68991E+002    4.51032E+003
            2426    8.00813E+007    7.99459E+007    7.99459E+007   -1.11396E+005   -1.59495E+005    8.01054E+007   -2.65583E+007    8.00813E+007    7.99459E+007   -1.58877E+005   -1.12014E+005   -6.21126E+001   -5.47976E+002    5.41552E+003
            2427    8.00825E+007    7.99449E+007    7.99449E+007   -1.23601E+005   -1.51547E+005    8.00965E+007   -2.65566E+007    8.00825E+007    7.99449E+007   -1.50405E+005   -1.24743E+005    3.18350E+001    7.39210E+002    5.53138E+003
            2428    8.00828E+007    7.99446E+007    7.99446E+007   -1.32552E+005   -1.43935E+005    8.00885E+007   -2.65560E+007    8.00828E+007    7.99446E+007   -1.42508E+005   -1.33978E+005    6.83992E+001   -7.03377E+002    3.76859E+003
            2429    8.00828E+007    7.99445E+007    7.99445E+007   -1.36757E+005   -1.39901E+005    8.00844E+007   -2.65560E+007    8.00828E+007    7.99445E+007   -1.37923E+005   -1.38735E+005    6.51772E+001    8.20532E+002    1.51828E+003
            2430    8.00649E+007    7.99568E+007    7.99568E+007   -7.50464E+004   -1.41074E+005    8.00979E+007   -2.65802E+007    8.00649E+007    7.99568E+007   -1.39041E+005   -7.70796E+004   -8.51715E+000    7.03917E+001    1.14067E+004
            2431    8.00749E+007    7.99500E+007    7.99500E+007   -8.52520E+004   -1.64438E+005    8.01144E+007   -2.65668E+007    8.00748E+007    7.99500E+007   -1.60820E+005   -8.88699E+004    7.25345E+001   -1.74890E+002    1.65347E+004
            2432    8.00802E+007    7.99464E+007    7.99464E+007   -9.87414E+004   -1.68764E+005    8.01152E+007   -2.65596E+007    8.00802E+007    7.99464E+007   -1.63304E+005   -1.04202E+005    2.77429E+000    3.47716E+002    1.87757E+004
            2433    8.00825E+007    7.99449E+007    7.99449E+007   -1.10701E+005   -1.64333E+005    8.01093E+007   -2.65566E+007    8.00824E+007    7.99449E+007   -1.56933E+005   -1.18101E+005    2.76558E+001   -5.56522E+002    1.84963E+004
            2434    8.00833E+007    7.99445E+007    7.99445E+007   -1.21226E+005   -1.56249E+005    8.01008E+007   -2.65557E+007    8.00832E+007    7.99445E+007   -1.47055E+005   -1.30420E+005   -7.06486E+001    5.40279E+002    1.54101E+004
            2435    8.00832E+007    7.99447E+007    7.99447E+007   -1.28000E+005   -1.48942E+005    8.00937E+007   -2.65559E+007    8.00832E+007    7.99447E+007   -1.38102E+005   -1.38839E+005   -1.59729E+001   -7.18086E+002    1.04647E+004
            2436    8.00830E+007    7.99449E+007    7.99449E+007   -1.31828E+005   -1.44451E+005    8.00893E+007   -2.65562E+007    8.00830E+007    7.99449E+007   -1.32840E+005   -1.43438E+005   -3.86813E+001    6.60716E+002    3.42902E+003
            2437    8.00759E+007    7.99497E+007    7.99497E+007   -9.42047E+004   -1.58071E+005    8.01078E+007   -2.65658E+007    8.00758E+007    7.99497E+007   -1.51771E+005   -1.00504E+005   -3.08250E+001   -8.05620E+000    1.90427E+004
            2438    8.00818E+007    7.99458E+007    7.99458E+007   -9.64852E+004   -1.75438E+005    8.01212E+007   -2.65579E+007    8.00817E+007    7.99458E+007   -1.63976E+005   -1.07947E+005    7.47175E+001   -2.72582E+002    2.78134E+004
            2439    8.00845E+007    7.99438E+007    7.99438E+007   -1.03434E+005   -1.77856E+005    8.01216E+007   -2.65542E+007    8.00844E+007    7.99438E+007   -1.62282E+005   -1.19008E+005   -1.18313E+002    2.19307E+002    3.02738E+004
            2440    8.00849E+007    7.99433E+007    7.99433E+007   -1.10797E+005   -1.72373E+005    8.01157E+007   -2.65534E+007    8.00849E+007    7.99433E+007   -1.52847E+005   -1.30322E+005    4.72128E+001   -2.58216E+002    2.86540E+004
            2441    8.00842E+007    7.99437E+007    7.99437E+007   -1.16527E+005   -1.64406E+005    8.01081E+007   -2.65543E+007    8.00842E+007    7.99437E+007   -1.40902E+005   -1.40031E+005   -5.95084E+001    4.41349E+002    2.39358E+004
            2442    8.00831E+007    7.99445E+007    7.99445E+007   -1.20844E+005   -1.56459E+005    8.01009E+007   -2.65557E+007    8.00831E+007    7.99445E+007   -1.30052E+005   -1.47251E+005    5.35936E+001   -2.83220E+002    1.55936E+004
            2443    8.00824E+007    7.99449E+007    7.99449E+007   -1.22811E+005   -1.52077E+005    8.00970E+007   -2.65567E+007    8.00824E+007    7.99449E+007   -1.23865E+005   -1.51023E+005    6.36394E+000    4.01835E+002    5.45312E+003
            2444    8.00894E+007    7.99400E+007    7.99400E+007   -1.19189E+005   -1.79657E+005    8.01196E+007   -2.65470E+007    8.00894E+007    7.99400E+007   -1.67834E+005   -1.31012E+005   -3.65838E+002    3.06573E+001    2.39825E+004
            2445    8.00899E+007    7.99396E+007    7.99396E+007   -1.12041E+005   -1.88617E+005    8.01282E+007   -2.65463E+007    8.00898E+007    7.99396E+007   -1.67912E+005   -1.32746E+005   -2.38569E+002    1.56064E+002    3.40123E+004
            2446    8.00895E+007    7.99399E+007    7.99399E+007   -1.11104E+005   -1.87999E+005    8.01279E+007   -2.65469E+007    8.00894E+007    7.99399E+007   -1.60836E+005   -1.38267E+005   -1.84920E+002   -1.11005E+001    3.67543E+004
            2447    8.00878E+007    7.99412E+007    7.99412E+007   -1.10993E+005   -1.82015E+005    8.01233E+007   -2.65494E+007    8.00877E+007    7.99412E+007   -1.48097E+005   -1.44911E+005   -5.17433E+000    1.77548E+001    3.54756E+004
            2448    8.00852E+007    7.99432E+007    7.99432E+007   -1.11124E+005   -1.72830E+005    8.01160E+007   -2.65531E+007    8.00851E+007    7.99432E+007   -1.32532E+005   -1.51422E+005   -3.51298E+001   -1.00250E+002    2.93717E+004
            2449    8.00828E+007    7.99450E+007    7.99450E+007   -1.10954E+005   -1.64589E+005    8.01096E+007   -2.65565E+007    8.00828E+007    7.99450E+007   -1.19407E+005   -1.56136E+005    1.65426E+001    2.57744E+001    1.95428E+004
            2450    8.00813E+007    7.99461E+007    7.99461E+007   -1.10743E+005   -1.59732E+005    8.01058E+007   -2.65585E+007    8.00813E+007    7.99461E+007   -1.11647E+005   -1.58828E+005   -7.63777E+000   -8.28804E+001    6.58996E+003
            2451    8.01024E+007    7.99317E+007    7.99317E+007   -1.43698E+005   -1.97731E+005    8.01294E+007   -2.65301E+007    8.01024E+007    7.99317E+007   -1.80493E+005   -1.60935E+005    3.49537E+002   -2.93660E+002    2.51849E+004
            2452    8.00989E+007    7.99340E+007    7.99340E+007   -1.30534E+005   -1.99224E+005    8.01332E+007   -2.65347E+007    8.00988E+007    7.99340E+007   -1.72395E+005   -1.57363E+005    3.75818E+002    8.18820E+001    3.35124E+004
            2453    8.00952E+007    7.99363E+007    7.99363E+007   -1.20533E+005   -1.97227E+005    8.01335E+007   -2.65395E+007    8.00951E+007    7.99363E+007   -1.61085E+005   -1.56675E+005    3.86814E+001   -3.28246E+002    3.82836E+004
            2454    8.00905E+007    7.99394E+007    7.99394E+007   -1.12627E+005   -1.89355E+005    8.01288E+007   -2.65458E+007    8.00904E+007    7.99394E+007   -1.43180E+005   -1.58802E+005   -2.00044E+001    5.69834E+002    3.75601E+004
            2455    8.00855E+007    7.99430E+007    7.99430E+007   -1.05623E+005   -1.79230E+005    8.01222E+007   -2.65527E+007    8.00854E+007    7.99430E+007   -1.24105E+005   -1.60748E+005    4.34317E+001   -3.09312E+002    3.19187E+004
            2456    8.00810E+007    7.99461E+007    7.99461E+007   -9.99701E+004   -1.69769E+005    8.01159E+007   -2.65588E+007    8.00809E+007    7.99461E+007   -1.07217E+005   -1.62522E+005    7.40218E+001    5.47761E+002    2.12910E+004
            2457    8.00784E+007    7.99480E+007    7.99480E+007   -9.66740E+004   -1.64114E+005    8.01121E+007   -2.65624E+007    8.00784E+007    7.99480E+007   -9.74910E+004   -1.63297E+005    1.35716E+002   -3.94684E+002    7.37754E+003
            2458    8.01114E+007    7.99248E+007    7.99248E+007   -1.67702E+005   -2.05548E+005    8.01303E+007   -2.65172E+007    8.01114E+007    7.99248E+007   -1.87873E+005   -1.85376E+005   -8.57825E+002   -1.63443E+002    1.88817E+004
            2459    8.01067E+007    7.99282E+007    7.99282E+007   -1.50162E+005   -2.06938E+005    8.01351E+007   -2.65237E+007    8.01067E+007    7.99282E+007   -1.80062E+005   -1.77038E+005   -6.10487E+002    1.10830E+003    2.83474E+004
            2460    8.01006E+007    7.99327E+007    7.99327E+007   -1.33740E+005   -2.01990E+005    8.01347E+007   -2.65323E+007    8.01005E+007    7.99327E+007   -1.63234E+005   -1.72497E+005    1.65336E+002   -1.01188E+003    3.38093E+004
            2461    8.00929E+007    7.99377E+007    7.99377E+007   -1.17836E+005   -1.92476E+005    8.01302E+007   -2.65425E+007    8.00928E+007    7.99377E+007   -1.42025E+005   -1.68287E+005   -1.06595E+002    8.87366E+002    3.49338E+004
            2462    8.00845E+007    7.99439E+007    7.99439E+007   -1.01917E+005   -1.79378E+005    8.01232E+007   -2.65542E+007    8.00845E+007    7.99439E+007   -1.16652E+005   -1.64643E+005    7.50442E+001   -8.22014E+002    3.04014E+004
            2463    8.00772E+007    7.99488E+007    7.99488E+007   -8.96848E+004   -1.66961E+005    8.01158E+007   -2.65641E+007    8.00771E+007    7.99488E+007   -9.56183E+004   -1.61027E+005   -9.65921E+001    7.51238E+002    2.05745E+004
            2464    8.00728E+007    7.99521E+007    7.99521E+007   -8.19406E+004   -1.59474E+005    8.01115E+007   -2.65702E+007    8.00727E+007    7.99521E+007   -8.26375E+004   -1.58777E+005   -9.52873E+001   -6.92183E+002    7.31788E+003
            2465    8.01196E+007    7.99205E+007    7.99205E+007   -1.87561E+005   -2.10634E+005    8.01311E+007   -2.65074E+007    8.01196E+007    7.99205E+007   -1.98433E+005   -1.99763E+005    1.72288E+003   -2.19517E+003    1.15173E+004
            2466    8.01142E+007    7.99231E+007    7.99231E+007   -1.73173E+005   -2.09193E+005    8.01322E+007   -2.65136E+007    8.01142E+007    7.99231E+007   -1.87061E+005   -1.95306E+005   -1.72388E+002    1.39074E+003    1.75320E+004
            2467    8.01074E+007    7.99284E+007    7.99284E+007   -1.55530E+005   -2.02442E+005    8.01308E+007   -2.65235E+007    8.01073E+007    7.99284E+007   -1.72479E+005   -1.85493E+005    6.87833E+001   -7.98403E+002    2.25353E+004
            2468    8.00954E+007    7.99361E+007    7.99361E+007   -1.31233E+005   -1.87282E+005    8.01234E+007   -2.65392E+007    8.00954E+007    7.99361E+007   -1.45658E+005   -1.72858E+005   -4.28944E+001    8.91893E+002    2.45034E+004
            2469    8.00820E+007    7.99457E+007    7.99457E+007   -1.05704E+005   -1.66898E+005    8.01126E+007   -2.65577E+007    8.00819E+007    7.99457E+007   -1.15362E+005   -1.57240E+005    7.05049E+001   -4.71027E+002    2.23104E+004
            2470    8.00695E+007    7.99541E+007    7.99541E+007   -8.25919E+004   -1.48250E+005    8.01023E+007   -2.65744E+007    8.00695E+007    7.99541E+007   -8.68000E+004   -1.44042E+005    1.53590E+002    6.10306E+002    1.60806E+004
            2471    8.00622E+007    7.99592E+007    7.99592E+007   -6.94299E+004   -1.36501E+005    8.00957E+007   -2.65844E+007    8.00622E+007    7.99592E+007   -6.99318E+004   -1.36000E+005    1.92802E+002   -4.70297E+002    5.78006E+003
            2472    8.00416E+007    7.99731E+007    7.99731E+007   -6.55172E+004   -7.14522E+004    8.00445E+007   -2.66120E+007    8.00415E+007    7.99731E+007   -6.55981E+004   -7.13713E+004   -4.57786E+001    9.96697E+001   -6.88298E+002
            2473    8.00561E+007    7.99632E+007    7.99632E+007   -8.81866E+004   -9.77707E+004    8.00609E+007   -2.65924E+007    8.00562E+007    7.99632E+007   -8.83525E+004   -9.76049E+004   -1.31006E+001   -4.11997E+001   -1.24996E+003
            2474    8.00786E+007    7.99479E+007    7.99479E+007   -1.24705E+005   -1.36588E+005    8.00845E+007   -2.65622E+007    8.00786E+007    7.99479E+007   -1.24713E+005   -1.36581E+005    1.23510E+001    1.17108E+002    2.99632E+002
            2475    8.01006E+007    7.99329E+007    7.99329E+007   -1.62407E+005   -1.72882E+005    8.01058E+007   -2.65326E+007    8.01006E+007    7.99329E+007   -1.62434E+005   -1.72855E+005    6.16855E+001   -6.88298E+001    5.27442E+002
            2476    8.01166E+007    7.99220E+007    7.99220E+007   -1.88282E+005   -2.01016E+005    8.01230E+007   -2.65109E+007    8.01166E+007    7.99220E+007   -1.88282E+005   -2.01015E+005    8.60174E+000    5.66197E+001   -4.14137E+001
            2477    8.01255E+007    7.99159E+007    7.99159E+007   -2.02627E+005   -2.16658E+005    8.01326E+007   -2.64989E+007    8.01255E+007    7.99159E+007   -2.02744E+005   -2.16542E+005    6.36297E+001   -8.38582E+001   -1.27461E+003
            2478    8.01252E+007    7.99160E+007    7.99160E+007   -1.94268E+005   -2.24112E+005    8.01401E+007   -2.64992E+007    8.01252E+007    7.99160E+007   -1.94407E+005   -2.23974E+005   -7.24156E+002    1.14656E+002    2.02828E+003
            2479    8.01202E+007    7.99194E+007    7.99194E+007   -1.64029E+005   -2.37588E+005    8.01570E+007   -2.65059E+007    8.01201E+007    7.99194E+007   -2.15905E+005   -1.85712E+005   -1.33726E+002   -6.49008E+002    3.35381E+004
            2480    8.01202E+007    7.99194E+007    7.99194E+007   -1.78778E+005   -2.22678E+005    8.01421E+007   -2.65060E+007    8.01202E+007    7.99194E+007   -2.22077E+005   -1.79378E+005    1.09652E+002    2.77989E+001    5.09832E+003
            2481    8.01107E+007    7.99259E+007    7.99259E+007   -1.72584E+005   -1.97063E+005    8.01230E+007   -2.65187E+007    8.01107E+007    7.99259E+007   -1.97018E+005   -1.72629E+005   -1.36641E+001   -7.10509E+001   -1.04713E+003
            2482    8.00898E+007    7.99401E+007    7.99401E+007   -1.40244E+005   -1.59087E+005    8.00992E+007   -2.65469E+007    8.00898E+007    7.99401E+007   -1.58948E+005   -1.40382E+005    8.68739E+001    7.09169E+001   -1.60946E+003
            2483    8.00880E+007    7.99410E+007    7.99410E+007   -1.15069E+005   -1.78865E+005    8.01199E+007   -2.65490E+007    8.00879E+007    7.99410E+007   -1.67290E+005   -1.26644E+005    6.25607E+002   -5.70298E+001    2.45861E+004
            2484    8.00873E+007    7.99414E+007    7.99414E+007   -1.06388E+005   -1.85233E+005    8.01267E+007   -2.65499E+007    8.00872E+007    7.99414E+007   -1.66799E+005   -1.24822E+005    5.82510E+002   -3.20527E+001    3.33712E+004
            2485    8.00868E+007    7.99419E+007    7.99419E+007   -1.07076E+005   -1.82668E+005    8.01246E+007   -2.65507E+007    8.00867E+007    7.99419E+007   -1.60302E+005   -1.29442E+005    3.57048E+002   -1.08475E+002    3.45030E+004
            2486    8.00855E+007    7.99428E+007    7.99428E+007   -1.10873E+005   -1.74349E+005    8.01172E+007   -2.65525E+007    8.00854E+007    7.99428E+007   -1.49765E+005   -1.35456E+005    9.22108E+001    2.11710E+002    3.09210E+004
            2487    8.00844E+007    7.99436E+007    7.99436E+007   -1.16155E+005   -1.65286E+005    8.01089E+007   -2.65541E+007    8.00843E+007    7.99436E+007   -1.38572E+005   -1.42869E+005    1.21544E+002   -1.51877E+002    2.44714E+004
            2488    8.00832E+007    7.99446E+007    7.99446E+007   -1.20453E+005   -1.56824E+005    8.01014E+007   -2.65558E+007    8.00832E+007    7.99446E+007   -1.29155E+005   -1.48122E+005    1.25779E+001    2.41226E+002    1.55164E+004
            2489    8.00826E+007    7.99449E+007    7.99449E+007   -1.23068E+005   -1.52308E+005    8.00972E+007   -2.65565E+007    8.00826E+007    7.99449E+007   -1.24115E+005   -1.51261E+005    2.57521E+001   -1.84222E+002    5.43343E+003
            2490    8.01007E+007    7.99328E+007    7.99328E+007   -1.38311E+005   -1.97446E+005    8.01303E+007   -2.65324E+007    8.01007E+007    7.99328E+007   -1.81208E+005   -1.54550E+005   -6.34598E+002    2.18494E+002    2.63928E+004
            2491    8.00961E+007    7.99357E+007    7.99357E+007   -1.22343E+005   -1.98430E+005    8.01342E+007   -2.65383E+007    8.00961E+007    7.99357E+007   -1.70609E+005   -1.50163E+005   -6.13255E+002    7.22577E+001    3.66445E+004
            2492    8.00920E+007    7.99383E+007    7.99383E+007   -1.14173E+005   -1.93214E+005    8.01315E+007   -2.65436E+007    8.00919E+007    7.99383E+007   -1.57988E+005   -1.49399E+005   -9.32921E+001    7.55510E+001    3.92861E+004
            2493    8.00886E+007    7.99407E+007    7.99407E+007   -1.10480E+005   -1.85318E+005    8.01260E+007   -2.65483E+007    8.00885E+007    7.99407E+007   -1.43411E+005   -1.52387E+005   -7.24385E+001   -2.68160E+002    3.71489E+004
            2494    8.00850E+007    7.99432E+007    7.99432E+007   -1.08506E+005   -1.75131E+005    8.01183E+007   -2.65532E+007    8.00849E+007    7.99432E+007   -1.28129E+005   -1.55508E+005   -5.29654E+001    1.01021E+002    3.03698E+004
            2495    8.00826E+007    7.99449E+007    7.99449E+007   -1.08231E+005   -1.67194E+005    8.01121E+007   -2.65565E+007    8.00826E+007    7.99449E+007   -1.16058E+005   -1.59367E+005   -9.28033E+001   -2.84255E+002    2.00062E+004
            2496    8.00812E+007    7.99460E+007    7.99460E+007   -1.08327E+005   -1.62037E+005    8.01080E+007   -2.65585E+007    8.00811E+007    7.99460E+007   -1.09213E+005   -1.61151E+005   -1.09519E+002    1.77818E+002    6.84284E+003
            2497    8.01102E+007    7.99256E+007    7.99256E+007   -1.58384E+005   -2.10615E+005    8.01363E+007   -2.65189E+007    8.01101E+007    7.99256E+007   -1.89687E+005   -1.79312E+005    1.15547E+003    5.21690E+000    2.55953E+004
            2498    8.01039E+007    7.99301E+007    7.99301E+007   -1.41178E+005   -2.06447E+005    8.01365E+007   -2.65275E+007    8.01039E+007    7.99301E+007   -1.75673E+005   -1.71952E+005    6.61685E+002   -8.13549E+002    3.25816E+004
            2499    8.00979E+007    7.99344E+007    7.99344E+007   -1.25295E+005   -2.01815E+005    8.01362E+007   -2.65357E+007    8.00979E+007    7.99344E+007   -1.59511E+005   -1.67599E+005   -4.79266E+001    8.21599E+002    3.80458E+004
            2500    8.00910E+007    7.99389E+007    7.99389E+007   -1.11836E+005   -1.92205E+005    8.01311E+007   -2.65450E+007    8.00909E+007    7.99389E+007   -1.38393E+005   -1.65648E+005    1.67281E+002   -7.73195E+002    3.78037E+004
            2501    8.00852E+007    7.99432E+007    7.99432E+007   -1.01832E+005   -1.81927E+005    8.01252E+007   -2.65532E+007    8.00851E+007    7.99432E+007   -1.18017E+005   -1.65742E+005   -3.74725E+001    6.80226E+002    3.21618E+004
            2502    8.00797E+007    7.99470E+007    7.99470E+007   -9.38659E+004   -1.71484E+005    8.01185E+007   -2.65605E+007    8.00796E+007    7.99470E+007   -1.00305E+005   -1.65045E+005    1.01258E+002   -6.58624E+002    2.14084E+004
            2503    8.00770E+007    7.99490E+007    7.99490E+007   -9.03958E+004   -1.65565E+005    8.01146E+007   -2.65643E+007    8.00769E+007    7.99490E+007   -9.11259E+004   -1.64835E+005    6.10552E+001    5.92133E+002    7.37229E+003
            2504    8.01172E+007    7.99218E+007    7.99218E+007   -1.78745E+005   -2.12086E+005    8.01339E+007   -2.65103E+007    8.01172E+007    7.99218E+007   -1.95228E+005   -1.95603E+005   -1.79810E+003    2.05503E+003    1.66690E+004
            2505    8.01120E+007    7.99245E+007    7.99245E+007   -1.61510E+005   -2.13453E+005    8.01379E+007   -2.65165E+007    8.01119E+007    7.99245E+007   -1.84018E+005   -1.90945E+005    1.89618E+002   -1.40967E+003    2.57395E+004
            2506    8.01045E+007    7.99301E+007    7.99301E+007   -1.44643E+005   -2.04270E+005    8.01343E+007   -2.65271E+007    8.01045E+007    7.99301E+007   -1.63988E+005   -1.84924E+005   -1.62361E+002    8.77796E+002    2.79155E+004
            2507    8.00942E+007    7.99367E+007    7.99367E+007   -1.24646E+005   -1.90223E+005    8.01270E+007   -2.65406E+007    8.00941E+007    7.99367E+007   -1.40689E+005   -1.74181E+005    5.18847E+001   -9.02838E+002    2.81899E+004
            2508    8.00820E+007    7.99454E+007    7.99454E+007   -1.00744E+005   -1.72378E+005    8.01178E+007   -2.65574E+007    8.00819E+007    7.99454E+007   -1.11490E+005   -1.61632E+005   -1.06407E+002    5.63558E+002    2.55798E+004
            2509    8.00724E+007    7.99519E+007    7.99519E+007   -8.29317E+004   -1.57980E+005    8.01099E+007   -2.65703E+007    8.00723E+007    7.99519E+007   -8.76810E+004   -1.53231E+005   -1.06771E+002   -6.65167E+002    1.82722E+004
            2510    8.00670E+007    7.99558E+007    7.99558E+007   -7.23672E+004   -1.49892E+005    8.01057E+007   -2.65779E+007    8.00669E+007    7.99558E+007   -7.30172E+004   -1.49242E+005   -1.59054E+002    5.04513E+002    7.06874E+003
            2511    8.00437E+007    7.99714E+007    7.99714E+007   -6.61409E+004   -7.84713E+004    8.00498E+007   -2.66089E+007    8.00437E+007    7.99714E+007   -6.62018E+004   -7.84104E+004    2.42134E+001   -4.46888E+001   -8.64325E+002
            2512    8.00573E+007    7.99621E+007    7.99621E+007   -8.77028E+004   -1.02680E+005    8.00648E+007   -2.65906E+007    8.00573E+007    7.99621E+007   -8.77853E+004   -1.02598E+005    1.54730E+000   -2.80050E+001   -1.10855E+003
            2513    8.00786E+007    7.99477E+007    7.99477E+007   -1.22426E+005   -1.39337E+005    8.00870E+007   -2.65620E+007    8.00785E+007    7.99477E+007   -1.22524E+005   -1.39239E+005    2.44234E+000   -8.08129E+001   -1.28582E+003
            2514    8.01000E+007    7.99331E+007    7.99331E+007   -1.56694E+005   -1.77051E+005    8.01102E+007   -2.65331E+007    8.01000E+007    7.99331E+007   -1.56729E+005   -1.77015E+005   -3.17361E+001   -3.15489E+001   -8.50924E+002
            2515    8.01176E+007    7.99212E+007    7.99212E+007   -1.83361E+005   -2.09426E+005    8.01306E+007   -2.65095E+007    8.01176E+007    7.99212E+007   -1.83456E+005   -2.09331E+005    1.38949E+001   -7.79876E-001   -1.57198E+003
            2516    8.01232E+007    7.99173E+007    7.99173E+007   -1.81791E+005   -2.29978E+005    8.01473E+007   -2.65018E+007    8.01232E+007    7.99173E+007   -1.82142E+005   -2.29627E+005   -3.14109E+001   -5.94956E+001    4.09672E+003
            2517    8.01209E+007    7.99189E+007    7.99189E+007   -1.63517E+005   -2.40266E+005    8.01592E+007   -2.65051E+007    8.01208E+007    7.99189E+007   -1.82869E+005   -2.20914E+005    5.37600E+002    2.01430E+002    3.33281E+004
            2518    8.00622E+007    7.99593E+007    7.99593E+007   -6.94145E+004   -1.36412E+005    8.00957E+007   -2.65845E+007    8.00621E+007    7.99593E+007   -6.99150E+004   -1.35912E+005    1.85603E+002    4.71893E+002   -5.76887E+003
            2519    8.00728E+007    7.99521E+007    7.99521E+007   -8.18928E+004   -1.59460E+005    8.01115E+007   -2.65702E+007    8.00727E+007    7.99521E+007   -8.26545E+004   -1.58698E+005   -5.53888E+001    6.91513E+002   -7.64896E+003
            2520    8.00785E+007    7.99480E+007    7.99480E+007   -9.66427E+004   -1.64265E+005    8.01123E+007   -2.65624E+007    8.00784E+007    7.99480E+007   -9.75655E+004   -1.63342E+005    1.13190E+002    3.88671E+002   -7.84554E+003
            2521    8.00814E+007    7.99461E+007    7.99461E+007   -1.10739E+005   -1.59918E+005    8.01060E+007   -2.65585E+007    8.00814E+007    7.99461E+007   -1.11806E+005   -1.58851E+005    2.24722E+001    9.03274E+001   -7.16615E+003
            2522    8.00824E+007    7.99449E+007    7.99449E+007   -1.22800E+005   -1.52178E+005    8.00971E+007   -2.65567E+007    8.00824E+007    7.99449E+007   -1.24044E+005   -1.50934E+005    4.14272E-001   -3.82109E+002   -5.91558E+003
            2523    8.00830E+007    7.99449E+007    7.99449E+007   -1.31760E+005   -1.44546E+005    8.00894E+007   -2.65562E+007    8.00830E+007    7.99449E+007   -1.32935E+005   -1.43371E+005    6.17332E+000   -6.56004E+002   -3.69292E+003
            2524    8.00828E+007    7.99445E+007    7.99445E+007   -1.36685E+005   -1.39962E+005    8.00845E+007   -2.65560E+007    8.00828E+007    7.99445E+007   -1.37980E+005   -1.38667E+005    3.24013E+001   -8.11240E+002   -1.60209E+003
            2525    8.00831E+007    7.99447E+007    7.99447E+007   -1.37237E+005   -1.39422E+005    8.00842E+007   -2.65560E+007    8.00831E+007    7.99447E+007   -1.38421E+005   -1.38238E+005   -3.57354E+001   -7.66093E+002    1.08862E+003
            2526    8.00829E+007    7.99446E+007    7.99446E+007   -1.33007E+005   -1.43645E+005    8.00882E+007   -2.65560E+007    8.00829E+007    7.99446E+007   -1.34058E+005   -1.42593E+005    3.43825E+001   -6.08204E+002    3.17470E+003
            2527    8.00697E+007    7.99540E+007    7.99540E+007   -8.30358E+004   -1.48410E+005    8.01024E+007   -2.65742E+007    8.00697E+007    7.99540E+007   -8.73107E+004   -1.44136E+005    1.06366E+002   -5.95597E+002   -1.61615E+004
            2528    8.00774E+007    7.99488E+007    7.99488E+007   -8.99849E+004   -1.67177E+005    8.01159E+007   -2.65639E+007    8.00773E+007    7.99488E+007   -9.61446E+004   -1.61017E+005   -4.78180E+001   -7.35076E+002   -2.09176E+004
            2529    8.00812E+007    7.99460E+007    7.99460E+007   -1.00187E+005   -1.70294E+005    8.01163E+007   -2.65585E+007    8.00812E+007    7.99460E+007   -1.07894E+005   -1.62586E+005   -2.40765E+000   -5.31795E+002   -2.19299E+004
            2530    8.00829E+007    7.99449E+007    7.99449E+007   -1.11105E+005   -1.64955E+005    8.01098E+007   -2.65563E+007    8.00829E+007    7.99449E+007   -1.20156E+005   -1.55904E+005    1.06034E+002   -5.27823E+001   -2.01360E+004
            2531    8.00832E+007    7.99444E+007    7.99444E+007   -1.20853E+005   -1.56652E+005    8.01011E+007   -2.65556E+007    8.00831E+007    7.99444E+007   -1.30650E+005   -1.46855E+005   -7.84415E+001    2.41552E+002   -1.59603E+004
            2532    8.00831E+007    7.99447E+007    7.99447E+007   -1.27899E+005   -1.49043E+005    8.00937E+007   -2.65559E+007    8.00831E+007    7.99447E+007   -1.38461E+005   -1.38482E+005    9.45700E+001    7.12493E+002   -1.05723E+004
            2533    8.00828E+007    7.99446E+007    7.99446E+007   -1.32458E+005   -1.43974E+005    8.00886E+007   -2.65561E+007    8.00828E+007    7.99446E+007   -1.42610E+005   -1.33822E+005   -5.97206E+001    6.86927E+002   -3.72148E+003
            2534    8.00829E+007    7.99448E+007    7.99448E+007   -1.32680E+005   -1.43574E+005    8.00884E+007   -2.65562E+007    8.00829E+007    7.99448E+007   -1.42682E+005   -1.33573E+005    6.57623E+000    8.22709E+002    2.98821E+003
            2535    8.00831E+007    7.99445E+007    7.99445E+007   -1.28695E+005   -1.48517E+005    8.00930E+007   -2.65558E+007    8.00831E+007    7.99445E+007   -1.38329E+005   -1.38883E+005   -6.09862E+001    5.08517E+002    9.90749E+003
            2536    8.00825E+007    7.99453E+007    7.99453E+007   -1.06733E+005   -1.67505E+005    8.01128E+007   -2.65570E+007    8.00824E+007    7.99453E+007   -1.16440E+005   -1.57798E+005    6.04602E+001    4.51057E+002   -2.22637E+004
            2537    8.00850E+007    7.99435E+007    7.99435E+007   -1.02764E+005   -1.80130E+005    8.01237E+007   -2.65536E+007    8.00849E+007    7.99435E+007   -1.17946E+005   -1.64948E+005    1.57812E+002    7.99491E+002   -3.07262E+004
            2538    8.00859E+007    7.99428E+007    7.99428E+007   -1.06250E+005   -1.79943E+005    8.01227E+007   -2.65522E+007    8.00858E+007    7.99428E+007   -1.25642E+005   -1.60551E+005   -5.59806E+001    2.83017E+002   -3.24499E+004
            2539    8.00853E+007    7.99431E+007    7.99431E+007   -1.11321E+005   -1.73153E+005    8.01162E+007   -2.65529E+007    8.00853E+007    7.99431E+007   -1.33788E+005   -1.50687E+005    1.07251E+002    1.57540E+002   -2.97388E+004
            2540    8.00842E+007    7.99437E+007    7.99437E+007   -1.16466E+005   -1.64442E+005    8.01082E+007   -2.65543E+007    8.00842E+007    7.99437E+007   -1.41800E+005   -1.39109E+005   -1.89679E+002   -4.17963E+002   -2.39505E+004
            2541    8.00832E+007    7.99446E+007    7.99446E+007   -1.21091E+005   -1.56182E+005    8.01007E+007   -2.65558E+007    8.00832E+007    7.99446E+007   -1.47487E+005   -1.29786E+005    9.58285E+001   -5.12180E+002   -1.51496E+004
            2542    8.00825E+007    7.99449E+007    7.99449E+007   -1.23519E+005   -1.51499E+005    8.00964E+007   -2.65566E+007    8.00824E+007    7.99449E+007   -1.50500E+005   -1.24517E+005   -1.25816E+002   -7.48422E+002   -5.19091E+003
            2543    8.00826E+007    7.99449E+007    7.99449E+007   -1.24046E+005   -1.51359E+005    8.00963E+007   -2.65565E+007    8.00826E+007    7.99449E+007   -1.50078E+005   -1.25327E+005    1.30421E+002   -6.06564E+002    5.77507E+003
            2544    8.00831E+007    7.99444E+007    7.99444E+007   -1.21306E+005   -1.56110E+005    8.01005E+007   -2.65557E+007    8.00831E+007    7.99444E+007   -1.46090E+005   -1.31326E+005   -1.85264E+001   -6.04940E+002    1.57583E+004
            2545    8.00960E+007    7.99358E+007    7.99358E+007   -1.32132E+005   -1.88199E+005    8.01240E+007   -2.65385E+007    8.00959E+007    7.99358E+007   -1.46695E+005   -1.73636E+005   -7.77226E+001   -8.85913E+002   -2.45850E+004
            2546    8.00935E+007    7.99373E+007    7.99373E+007   -1.18884E+005   -1.93329E+005    8.01307E+007   -2.65417E+007    8.00934E+007    7.99373E+007   -1.43656E+005   -1.68556E+005   -8.11481E+001   -8.44633E+002   -3.50789E+004
            2547    8.00907E+007    7.99392E+007    7.99392E+007   -1.13062E+005   -1.89867E+005    8.01291E+007   -2.65454E+007    8.00906E+007    7.99392E+007   -1.44780E+005   -1.58149E+005   -7.31207E+001   -5.85905E+002   -3.78164E+004
            2548    8.00877E+007    7.99412E+007    7.99412E+007   -1.10880E+005   -1.81981E+005    8.01232E+007   -2.65495E+007    8.00876E+007    7.99412E+007   -1.49320E+005   -1.43541E+005    4.64233E+001   -5.04521E+001   -3.54327E+004
            2549    8.00847E+007    7.99434E+007    7.99434E+007   -1.10475E+005   -1.72058E+005    8.01155E+007   -2.65536E+007    8.00847E+007    7.99434E+007   -1.53512E+005   -1.29022E+005   -4.08990E+001    1.99178E+002   -2.82523E+004
            2550    8.00823E+007    7.99450E+007    7.99450E+007   -1.10450E+005   -1.64048E+005    8.01091E+007   -2.65568E+007    8.00822E+007    7.99450E+007   -1.57178E+005   -1.17320E+005    9.55515E+001    5.62033E+002   -1.79172E+004
            2551    8.00813E+007    7.99459E+007    7.99459E+007   -1.11439E+005   -1.59361E+005    8.01052E+007   -2.65584E+007    8.00812E+007    7.99459E+007   -1.58851E+005   -1.11949E+005   -1.38350E+002    5.37208E+002   -4.91590E+003
            2552    8.00814E+007    7.99457E+007    7.99457E+007   -1.11689E+005   -1.59703E+005    8.01054E+007   -2.65581E+007    8.00814E+007    7.99457E+007   -1.58183E+005   -1.13209E+005    1.22316E+002    6.37926E+002    8.40645E+003
            2553    8.00831E+007    7.99446E+007    7.99446E+007   -1.11837E+005   -1.65228E+005    8.01098E+007   -2.65558E+007    8.00831E+007    7.99446E+007   -1.55089E+005   -1.21976E+005   -1.83356E+002    4.17485E+002    2.09411E+004
            2554    8.01077E+007    7.99281E+007    7.99281E+007   -1.56195E+005   -2.03096E+005    8.01312E+007   -2.65229E+007    8.01077E+007    7.99281E+007   -1.73377E+005   -1.85913E+005    1.03225E+002    7.79595E+002   -2.25972E+004
            2555    8.01008E+007    7.99325E+007    7.99325E+007   -1.34160E+005   -2.02482E+005    8.01350E+007   -2.65319E+007    8.01008E+007    7.99325E+007   -1.64220E+005   -1.72422E+005    1.87744E+002    1.00131E+003   -3.39139E+004
            2556    8.00950E+007    7.99363E+007    7.99363E+007   -1.20351E+005   -1.97070E+005    8.01334E+007   -2.65396E+007    8.00950E+007    7.99363E+007   -1.61985E+005   -1.55436E+005    4.30490E+001    3.22612E+002   -3.82194E+004
            2557    8.00891E+007    7.99402E+007    7.99402E+007   -1.10393E+005   -1.87336E+005    8.01275E+007   -2.65475E+007    8.00890E+007    7.99402E+007   -1.61198E+005   -1.36531E+005   -1.68042E+002    5.34022E+001   -3.64411E+004
            2558    8.00840E+007    7.99440E+007    7.99440E+007   -1.02726E+005   -1.77180E+005    8.01212E+007   -2.65547E+007    8.00839E+007    7.99440E+007   -1.62389E+005   -1.17518E+005   -1.06188E+002   -2.03047E+002   -2.97064E+004
            2559    8.00800E+007    7.99466E+007    7.99466E+007   -9.85478E+004   -1.68347E+005    8.01149E+007   -2.65599E+007    8.00800E+007    7.99466E+007   -1.63256E+005   -1.03639E+005   -1.02610E+001   -3.49982E+002   -1.81509E+004
            2560    8.00785E+007    7.99481E+007    7.99481E+007   -9.65429E+004   -1.64253E+005    8.01123E+007   -2.65624E+007    8.00784E+007    7.99481E+007   -1.64005E+005   -9.67910E+004   -1.74806E+002   -3.77065E+002   -4.09150E+003
            2561    8.00792E+007    7.99472E+007    7.99472E+007   -9.82897E+004   -1.65605E+005    8.01128E+007   -2.65611E+007    8.00791E+007    7.99472E+007   -1.63720E+005   -1.00175E+005    2.61822E+002   -3.70895E+002    1.11056E+004
            2562    8.00822E+007    7.99454E+007    7.99454E+007   -1.01502E+005   -1.71954E+005    8.01174E+007   -2.65573E+007    8.00821E+007    7.99454E+007   -1.62229E+005   -1.11228E+005   -1.67458E+002   -3.10192E+002    2.43020E+004
            2563    8.01143E+007    7.99229E+007    7.99229E+007   -1.73341E+005   -2.09389E+005    8.01323E+007   -2.65134E+007    8.01143E+007    7.99229E+007   -1.87340E+005   -1.95390E+005   -1.98495E+002   -1.42428E+003   -1.75690E+004
            2564    8.01066E+007    7.99282E+007    7.99282E+007   -1.50018E+005   -2.06687E+005    8.01349E+007   -2.65238E+007    8.01065E+007    7.99282E+007   -1.80244E+005   -1.76460E+005   -6.46048E+002   -1.11028E+003   -2.82712E+004
            2565    8.00983E+007    7.99342E+007    7.99342E+007   -1.29632E+005   -1.98419E+005    8.01327E+007   -2.65354E+007    8.00982E+007    7.99342E+007   -1.72014E+005   -1.56037E+005    4.09407E+002   -1.00983E+002   -3.34530E+004
            2566    8.00893E+007    7.99399E+007    7.99399E+007   -1.10938E+005   -1.87716E+005    8.01276E+007   -2.65471E+007    8.00892E+007    7.99399E+007   -1.67529E+005   -1.31125E+005   -3.09242E+002   -1.81008E+002   -3.37997E+004
            2567    8.00813E+007    7.99460E+007    7.99460E+007   -9.58144E+004   -1.74828E+005    8.01208E+007   -2.65584E+007    8.00812E+007    7.99460E+007   -1.63640E+005   -1.07002E+005    1.30298E+002    2.64931E+002   -2.75466E+004
            2568    8.00748E+007    7.99500E+007    7.99500E+007   -8.51418E+004   -1.64479E+005    8.01144E+007   -2.65668E+007    8.00747E+007    7.99500E+007   -1.60936E+005   -8.86850E+004    1.50387E+001    1.72105E+002   -1.63875E+004
            2569    8.00727E+007    7.99520E+007    7.99520E+007   -8.15016E+004   -1.59816E+005    8.01118E+007   -2.65702E+007    8.00726E+007    7.99520E+007   -1.59742E+005   -8.15763E+004   -2.15983E+002    3.59290E+002   -2.41722E+003
            2570    8.00739E+007    7.99507E+007    7.99507E+007   -8.37532E+004   -1.62669E+005    8.01133E+007   -2.65681E+007    8.00738E+007    7.99507E+007   -1.60813E+005   -8.56093E+004    3.56813E+002    2.00073E+002    1.19596E+004
            2571    8.00799E+007    7.99471E+007    7.99471E+007   -9.32475E+004   -1.72334E+005    8.01194E+007   -2.65605E+007    8.00798E+007    7.99471E+007   -1.63576E+005   -1.02005E+005   -4.68737E+002    3.12601E+002    2.48178E+004
            2572    8.01196E+007    7.99204E+007    7.99204E+007   -1.88035E+005   -2.10276E+005    8.01307E+007   -2.65074E+007    8.01196E+007    7.99204E+007   -1.98216E+005   -2.00095E+005    1.80329E+003    2.19428E+003   -1.10810E+004
            2573    8.01110E+007    7.99250E+007    7.99250E+007   -1.66843E+005   -2.05025E+005    8.01300E+007   -2.65177E+007    8.01110E+007    7.99250E+007   -1.87183E+005   -1.84685E+005   -8.83001E+002    1.74954E+002   -1.90503E+004
            2574    8.01018E+007    7.99320E+007    7.99320E+007   -1.42857E+005   -1.96762E+005    8.01287E+007   -2.65308E+007    8.01018E+007    7.99320E+007   -1.79822E+005   -1.59797E+005    4.15245E+002    2.89394E+002   -2.50235E+004
            2575    8.00888E+007    7.99403E+007    7.99403E+007   -1.18252E+005   -1.78761E+005    8.01190E+007   -2.65478E+007    8.00887E+007    7.99403E+007   -1.66883E+005   -1.30130E+005   -4.00847E+002   -3.89746E+001   -2.40341E+004
            2576    8.00756E+007    7.99498E+007    7.99498E+007   -9.35025E+004   -1.57992E+005    8.01078E+007   -2.65661E+007    8.00755E+007    7.99498E+007   -1.51583E+005   -9.99117E+004   -3.86963E+000   -9.29883E+000   -1.92937E+004
            2577    8.00651E+007    7.99566E+007    7.99566E+007   -7.51625E+004   -1.41822E+005    8.00985E+007   -2.65799E+007    8.00651E+007    7.99566E+007   -1.39710E+005   -7.72736E+004   -5.46954E+001   -6.98444E+001   -1.16735E+004
            2578    8.00615E+007    7.99596E+007    7.99596E+007   -6.73365E+004   -1.36469E+005    8.00961E+007   -2.65853E+007    8.00615E+007    7.99596E+007   -1.36448E+005   -6.73582E+004   -1.55499E+002   -5.92946E+001   -1.22496E+003
            2579    8.00648E+007    7.99569E+007    7.99569E+007   -7.38483E+004   -1.41895E+005    8.00988E+007   -2.65804E+007    8.00648E+007    7.99569E+007   -1.40452E+005   -7.52917E+004    2.81537E+002   -7.18049E+001    9.80459E+003
            2580    8.00748E+007    7.99506E+007    7.99506E+007   -9.06950E+004   -1.57635E+005    8.01082E+007   -2.65674E+007    8.00747E+007    7.99506E+007   -1.51939E+005   -9.63903E+004   -3.06461E+002   -5.58587E+000    1.86763E+004
            2581    8.00662E+007    7.99560E+007    7.99560E+007   -1.03071E+005   -1.17239E+005    8.00733E+007   -2.65786E+007    8.00662E+007    7.99560E+007   -1.16804E+005   -1.03506E+005    8.26921E+000    5.73951E+000   -2.44307E+003
            2582    8.00471E+007    7.99690E+007    7.99690E+007   -7.32795E+004   -8.29395E+004    8.00519E+007   -2.66042E+007    8.00471E+007    7.99690E+007   -8.24379E+004   -7.37811E+004    5.23880E+001    7.84825E+001   -2.14335E+003
            2583    8.00395E+007    7.99740E+007    7.99740E+007   -6.26917E+004   -6.83819E+004    8.00424E+007   -2.66143E+007    8.00395E+007    7.99740E+007   -6.83735E+004   -6.27000E+004   -4.77132E+001    2.75260E+001   -2.17689E+002
            2584    8.00472E+007    7.99688E+007    7.99688E+007   -7.39788E+004   -8.29602E+004    8.00517E+007   -2.66039E+007    8.00472E+007    7.99688E+007   -8.25935E+004   -7.43454E+004    1.03048E+000    7.33835E+001    1.77725E+003
            2585    8.00662E+007    7.99559E+007    7.99559E+007   -1.03869E+005   -1.16674E+005    8.00726E+007   -2.65784E+007    8.00662E+007    7.99559E+007   -1.16343E+005   -1.04200E+005   -9.54341E+001    3.14872E+000    2.03159E+003
            2586    8.00894E+007    7.99402E+007    7.99402E+007   -1.40012E+005   -1.58202E+005    8.00984E+007   -2.65473E+007    8.00893E+007    7.99402E+007   -1.57971E+005   -1.40244E+005    2.21546E+001    6.99270E+001    2.03734E+003
            2587    8.01090E+007    7.99269E+007    7.99269E+007   -1.69136E+005   -1.95088E+005    8.01220E+007   -2.65209E+007    8.01090E+007    7.99269E+007   -1.94997E+005   -1.69226E+005   -1.10266E+002   -1.11768E+002   -1.52700E+003
            2588    8.01190E+007    7.99202E+007    7.99202E+007   -1.82455E+005   -2.15115E+005    8.01353E+007   -2.65076E+007    8.01190E+007    7.99202E+007   -2.09563E+005   -1.88007E+005    1.02285E+002   -1.67016E+001   -1.22687E+004
            2589    8.01203E+007    7.99192E+007    7.99192E+007   -1.82893E+005   -2.19289E+005    8.01385E+007   -2.65057E+007    8.01203E+007    7.99192E+007   -1.91888E+005   -2.10293E+005   -3.73067E+002   -8.94154E+002   -1.56999E+004
            2590    8.00415E+007    7.99731E+007    7.99731E+007   -6.54078E+004   -7.12752E+004    8.00444E+007   -2.66121E+007    8.00415E+007    7.99731E+007   -6.54643E+004   -7.12188E+004   -2.92378E+001   -9.87523E+001    5.72678E+002
            2591    8.00562E+007    7.99632E+007    7.99632E+007   -8.83345E+004   -9.76491E+004    8.00608E+007   -2.65924E+007    8.00562E+007    7.99632E+007   -8.85296E+004   -9.74540E+004   -6.66885E+000    5.13878E+001    1.33395E+003
            2592    8.00787E+007    7.99478E+007    7.99478E+007   -1.25191E+005   -1.36703E+005    8.00845E+007   -2.65620E+007    8.00787E+007    7.99478E+007   -1.25194E+005   -1.36699E+005    2.77205E+001   -1.28759E+002   -1.94169E+002
            2593    8.01011E+007    7.99326E+007    7.99326E+007   -1.63581E+005   -1.73535E+005    8.01061E+007   -2.65318E+007    8.01011E+007    7.99326E+007   -1.63584E+005   -1.73532E+005    6.02155E+001    9.17468E+001   -1.89511E+002
            2594    8.01172E+007    7.99215E+007    7.99215E+007   -1.89009E+005   -2.02337E+005    8.01239E+007   -2.65101E+007    8.01172E+007    7.99215E+007   -1.89026E+005   -2.02321E+005    2.65940E+001   -9.02998E+001    4.64654E+002
            2595    8.01259E+007    7.99156E+007    7.99156E+007   -2.02854E+005   -2.17688E+005    8.01333E+007   -2.64984E+007    8.01259E+007    7.99156E+007   -2.02958E+005   -2.17583E+005    2.93002E+001    1.39274E+002    1.24266E+003
            2596    8.01253E+007    7.99159E+007    7.99159E+007   -1.94032E+005   -2.24804E+005    8.01407E+007   -2.64990E+007    8.01253E+007    7.99159E+007   -1.94114E+005   -2.24723E+005   -7.42766E+002   -2.15665E+002   -1.58435E+003
            2597    8.00672E+007    7.99559E+007    7.99559E+007   -7.24330E+004   -1.50107E+005    8.01060E+007   -2.65778E+007    8.00671E+007    7.99559E+007   -7.30172E+004   -1.49523E+005   -6.04117E+001    5.57627E+002   -6.71058E+003
            2598    8.00771E+007    7.99489E+007    7.99489E+007   -9.06874E+004   -1.65724E+005    8.01146E+007   -2.65642E+007    8.00771E+007    7.99489E+007   -9.14285E+004   -1.64983E+005   -2.16930E+002    6.24616E+002   -7.42014E+003
            2599    8.00811E+007    7.99461E+007    7.99461E+007   -1.08165E+005   -1.61950E+005    8.01080E+007   -2.65587E+007    8.00811E+007    7.99461E+007   -1.09080E+005   -1.61035E+005   -8.48904E+001    2.34479E+002   -6.95794E+003
            2600    8.00826E+007    7.99447E+007    7.99447E+007   -1.23307E+005   -1.52420E+005    8.00971E+007   -2.65563E+007    8.00826E+007    7.99447E+007   -1.24389E+005   -1.51338E+005    2.97540E+001   -1.45036E+002   -5.50867E+003
            2601    8.00729E+007    7.99520E+007    7.99520E+007   -8.32868E+004   -1.58439E+005    8.01105E+007   -2.65701E+007    8.00728E+007    7.99520E+007   -8.79081E+004   -1.53818E+005   -8.41991E+001   -3.62340E+002   -1.80540E+004
            2602    8.00800E+007    7.99471E+007    7.99471E+007   -9.39820E+004   -1.71684E+005    8.01188E+007   -2.65605E+007    8.00799E+007    7.99471E+007   -1.00493E+005   -1.65173E+005   -2.12696E+002   -4.11120E+002   -2.15293E+004
            2603    8.00827E+007    7.99450E+007    7.99450E+007   -1.08171E+005   -1.67273E+005    8.01123E+007   -2.65565E+007    8.00827E+007    7.99450E+007   -1.16147E+005   -1.59298E+005   -8.69147E+001   -1.55157E+002   -2.01928E+004
            2604    8.00832E+007    7.99444E+007    7.99444E+007   -1.20540E+005   -1.57047E+005    8.01014E+007   -2.65556E+007    8.00832E+007    7.99444E+007   -1.29544E+005   -1.48043E+005    7.84336E+001    2.76449E+002   -1.57365E+004
            2605    8.00821E+007    7.99449E+007    7.99449E+007   -1.01188E+005   -1.73136E+005    8.01181E+007   -2.65569E+007    8.00820E+007    7.99449E+007   -1.11928E+005   -1.62395E+005   -5.11165E+001    8.50920E+002   -2.56398E+004
            2606    8.00850E+007    7.99429E+007    7.99429E+007   -1.01969E+005   -1.82106E+005    8.01250E+007   -2.65530E+007    8.00849E+007    7.99429E+007   -1.18279E+005   -1.65796E+005    1.36946E+001    9.41356E+002   -3.22650E+004
            2607    8.00851E+007    7.99430E+007    7.99430E+007   -1.08506E+005   -1.75520E+005    8.01186E+007   -2.65530E+007    8.00850E+007    7.99430E+007   -1.28370E+005   -1.55656E+005   -2.17492E+001    3.10763E+002   -3.06036E+004
            2608    8.00843E+007    7.99435E+007    7.99435E+007   -1.16000E+005   -1.65564E+005    8.01091E+007   -2.65540E+007    8.00843E+007    7.99435E+007   -1.39037E+005   -1.42527E+005    6.71395E+001   -1.60126E+001   -2.47208E+004
            2609    8.00947E+007    7.99370E+007    7.99370E+007   -1.24766E+005   -1.90747E+005    8.01277E+007   -2.65405E+007    8.00947E+007    7.99370E+007   -1.41016E+005   -1.74497E+005   -1.25057E+002   -5.53259E+002   -2.84280E+004
            2610    8.00914E+007    7.99390E+007    7.99390E+007   -1.11953E+005   -1.92663E+005    8.01317E+007   -2.65448E+007    8.00913E+007    7.99390E+007   -1.38882E+005   -1.65734E+005   -1.55023E+002   -4.68317E+002   -3.80559E+004
            2611    8.00886E+007    7.99405E+007    7.99405E+007   -1.10580E+005   -1.85643E+005    8.01262E+007   -2.65481E+007    8.00886E+007    7.99405E+007   -1.44137E+005   -1.52086E+005    1.45499E+002   -1.62465E+002   -3.73202E+004
            2612    8.00855E+007    7.99428E+007    7.99428E+007   -1.10577E+005   -1.74729E+005    8.01176E+007   -2.65525E+007    8.00855E+007    7.99428E+007   -1.49939E+005   -1.35368E+005    5.07714E+001    2.33001E+002   -3.12376E+004
            2613    8.01041E+007    7.99291E+007    7.99291E+007   -1.45041E+005   -2.04965E+005    8.01341E+007   -2.65264E+007    8.01041E+007    7.99291E+007   -1.64886E+005   -1.85120E+005    2.02796E+002    1.10614E+003   -2.82023E+004
            2614    8.00976E+007    7.99338E+007    7.99338E+007   -1.25574E+005   -2.02014E+005    8.01358E+007   -2.65354E+007    8.00976E+007    7.99338E+007   -1.60009E+005   -1.67578E+005    1.14420E+002    1.06061E+003   -3.80321E+004
            2615    8.00920E+007    7.99380E+007    7.99380E+007   -1.14418E+005   -1.93675E+005    8.01316E+007   -2.65433E+007    8.00920E+007    7.99380E+007   -1.58856E+005   -1.49237E+005    4.01131E+002    2.57779E+002   -3.93357E+004
            2616    8.00868E+007    7.99421E+007    7.99421E+007   -1.06767E+005   -1.82680E+005    8.01248E+007   -2.65509E+007    8.00867E+007    7.99421E+007   -1.60500E+005   -1.28947E+005   -2.14810E+002   -9.90227E+001   -3.45220E+004
            2617    8.01128E+007    7.99250E+007    7.99250E+007   -1.61651E+005   -2.13948E+005    8.01390E+007   -2.65165E+007    8.01128E+007    7.99250E+007   -1.84867E+005   -1.90732E+005   -3.15931E+001   -1.36460E+003   -2.59836E+004
            2618    8.01036E+007    7.99305E+007    7.99305E+007   -1.40644E+005   -2.05517E+005    8.01360E+007   -2.65281E+007    8.01035E+007    7.99305E+007   -1.75277E+005   -1.70884E+005   -7.33649E+002   -8.47160E+002   -3.23621E+004
            2619    8.00955E+007    7.99350E+007    7.99350E+007   -1.22490E+005   -1.98452E+005    8.01335E+007   -2.65380E+007    8.00954E+007    7.99350E+007   -1.71150E+005   -1.49792E+005    1.04103E+003    8.13691E+001   -3.64485E+004
            2620    8.00876E+007    7.99421E+007    7.99421E+007   -1.06119E+005   -1.84933E+005    8.01270E+007   -2.65503E+007    8.00876E+007    7.99421E+007   -1.66671E+005   -1.24381E+005   -4.23016E+002   -1.12433E+002   -3.32537E+004
            2621    8.01166E+007    7.99197E+007    7.99197E+007   -1.79322E+005   -2.14482E+005    8.01341E+007   -2.65086E+007    8.01166E+007    7.99197E+007   -1.96404E+005   -1.97400E+005    2.24365E+003    2.39707E+003   -1.75733E+004
            2622    8.01108E+007    7.99266E+007    7.99266E+007   -1.58104E+005   -2.10401E+005    8.01370E+007   -2.65194E+007    8.01108E+007    7.99266E+007   -1.89487E+005   -1.79017E+005   -1.09029E+003    2.04864E+001   -2.56192E+004
            2623    8.00997E+007    7.99319E+007    7.99319E+007   -1.38659E+005   -1.96852E+005    8.01288E+007   -2.65321E+007    8.00997E+007    7.99319E+007   -1.81064E+005   -1.54446E+005    1.03281E+003    1.82852E+002   -2.58742E+004
            2624    8.00884E+007    7.99416E+007    7.99416E+007   -1.15215E+005   -1.78253E+005    8.01199E+007   -2.65494E+007    8.00884E+007    7.99416E+007   -1.66982E+005   -1.26486E+005   -4.07226E+002   -1.76971E+002   -2.41552E+004
            2625    8.00895E+007    7.99401E+007    7.99401E+007   -1.40124E+005   -1.58769E+005    8.00989E+007   -2.65471E+007    8.00895E+007    7.99401E+007   -1.58677E+005   -1.40216E+005    2.68129E+002   -5.66927E+001    1.30725E+003
            2626    8.01101E+007    7.99261E+007    7.99261E+007   -1.72080E+005   -1.95820E+005    8.01220E+007   -2.65194E+007    8.01101E+007    7.99261E+007   -1.95785E+005   -1.72116E+005    1.82256E+002   -1.49705E+002    9.17580E+002
            2627    8.01197E+007    7.99194E+007    7.99194E+007   -1.78944E+005   -2.21556E+005    8.01410E+007   -2.65063E+007    8.01197E+007    7.99194E+007   -2.21030E+005   -1.79470E+005    1.46838E+002   -8.89577E+001   -4.70415E+003
            2628    8.01197E+007    7.99193E+007    7.99193E+007   -1.64355E+005   -2.36254E+005    8.01556E+007   -2.65062E+007    8.01196E+007    7.99193E+007   -2.15851E+005   -1.84758E+005    7.73368E+001   -7.00451E+002   -3.24136E+004
            2629    8.00435E+007    7.99716E+007    7.99716E+007   -6.55204E+004   -7.81683E+004    8.00498E+007   -2.66093E+007    8.00435E+007    7.99716E+007   -6.55644E+004   -7.81243E+004   -1.17642E+002    3.62076E+001    7.45115E+002
            2630    8.00572E+007    7.99623E+007    7.99623E+007   -8.73238E+004   -1.02437E+005    8.00647E+007   -2.65908E+007    8.00572E+007    7.99623E+007   -8.73684E+004   -1.02393E+005   -1.20679E+002    2.03063E+002    8.19427E+002
            2631    8.00787E+007    7.99477E+007    7.99477E+007   -1.22768E+005   -1.39269E+005    8.00869E+007   -2.65619E+007    8.00787E+007    7.99477E+007   -1.22882E+005   -1.39155E+005   -1.24832E+002    2.25173E+002    1.36779E+003
            2632    8.01003E+007    7.99328E+007    7.99328E+007   -1.57250E+005   -1.77806E+005    8.01106E+007   -2.65326E+007    8.01003E+007    7.99328E+007   -1.57324E+005   -1.77732E+005   -8.83277E+001    2.85535E+002    1.23035E+003
            2633    8.01181E+007    7.99207E+007    7.99207E+007   -1.84024E+005   -2.10841E+005    8.01315E+007   -2.65086E+007    8.01181E+007    7.99207E+007   -1.84127E+005   -2.10738E+005   -1.19130E+002    1.96347E+002    1.65944E+003
            2634    8.01233E+007    7.99171E+007    7.99171E+007   -1.81146E+005   -2.31299E+005    8.01484E+007   -2.65016E+007    8.01233E+007    7.99171E+007   -1.81530E+005   -2.30915E+005   -5.46262E+001    1.41842E+002   -4.36996E+003
            2635    8.01205E+007    7.99188E+007    7.99188E+007   -1.62738E+005   -2.40698E+005    8.01595E+007   -2.65051E+007    8.01204E+007    7.99188E+007   -1.82709E+005   -2.20727E+005   -6.20796E+002    1.16267E+002   -3.40309E+004
            2636    8.00666E+007    7.99559E+007    7.99559E+007   -1.03816E+005   -1.17703E+005    8.00736E+007   -2.65781E+007    8.00666E+007    7.99559E+007   -1.17294E+005   -1.04224E+005    1.80839E+002   -9.02623E+001    2.34738E+003
            2637    8.00473E+007    7.99689E+007    7.99689E+007   -7.36213E+004   -8.32623E+004    8.00522E+007   -2.66040E+007    8.00473E+007    7.99689E+007   -8.27109E+004   -7.41727E+004    1.24362E+002   -4.18592E+000    2.23873E+003
            2638    8.00396E+007    7.99743E+007    7.99743E+007   -6.26396E+004   -6.78756E+004    8.00422E+007   -2.66146E+007    8.00396E+007    7.99743E+007   -6.78394E+004   -6.26757E+004   -1.20196E+001   -5.81235E+001    4.33486E+002
            2639    8.00470E+007    7.99691E+007    7.99691E+007   -7.37545E+004   -8.19685E+004    8.00511E+007   -2.66045E+007    8.00470E+007    7.99691E+007   -8.15797E+004   -7.41433E+004   -1.61884E+002   -4.87859E+000   -1.74427E+003
            2640    8.00662E+007    7.99562E+007    7.99562E+007   -1.03863E+005   -1.16255E+005    8.00724E+007   -2.65787E+007    8.00662E+007    7.99562E+007   -1.15850E+005   -1.04268E+005   -1.83715E+002   -1.04348E+002   -2.20320E+003
            2641    8.00897E+007    7.99399E+007    7.99399E+007   -1.40721E+005   -1.58860E+005    8.00988E+007   -2.65468E+007    8.00897E+007    7.99399E+007   -1.58583E+005   -1.40998E+005   -3.06653E+002   -5.19185E+001   -2.22437E+003
            2642    8.01098E+007    7.99265E+007    7.99265E+007   -1.69948E+005   -1.96631E+005    8.01231E+007   -2.65200E+007    8.01098E+007    7.99265E+007   -1.96569E+005   -1.70010E+005   -1.21929E+002   -2.03329E+002    1.28241E+003
            2643    8.01193E+007    7.99197E+007    7.99197E+007   -1.82781E+005   -2.16547E+005    8.01362E+007   -2.65068E+007    8.01193E+007    7.99197E+007   -2.11011E+005   -1.88317E+005   -2.68175E+002   -1.10533E+002    1.25017E+004
            2644    8.01203E+007    7.99195E+007    7.99195E+007   -1.82867E+005   -2.18694E+005    8.01382E+007   -2.65060E+007    8.01203E+007    7.99195E+007   -1.92198E+005   -2.09364E+005    3.55037E+002   -1.10497E+003    1.57233E+004
            2645    8.00738E+007    7.99502E+007    7.99502E+007   -9.06231E+004   -1.56683E+005    8.01068E+007   -2.65676E+007    8.00738E+007    7.99502E+007   -1.51028E+005   -9.62781E+004    6.23243E+002   -1.87129E+002   -1.84821E+004
            2646    8.00793E+007    7.99465E+007    7.99465E+007   -9.31258E+004   -1.72278E+005    8.01188E+007   -2.65604E+007    8.00792E+007    7.99465E+007   -1.63511E+005   -1.01893E+005    8.19033E+002    1.96617E+002   -2.48415E+004
            2647    8.00816E+007    7.99451E+007    7.99451E+007   -1.00921E+005   -1.71912E+005    8.01170E+007   -2.65574E+007    8.00815E+007    7.99451E+007   -1.62284E+005   -1.10549E+005    4.09584E+002   -4.12600E+002   -2.43056E+004
            2648    8.00831E+007    7.99444E+007    7.99444E+007   -1.11644E+005   -1.65622E+005    8.01101E+007   -2.65557E+007    8.00830E+007    7.99444E+007   -1.55544E+005   -1.21723E+005    2.65345E+002    3.73520E+002   -2.10345E+004
            2649    8.00832E+007    7.99446E+007    7.99446E+007   -1.21097E+005   -1.55984E+005    8.01006E+007   -2.65558E+007    8.00831E+007    7.99446E+007   -1.46314E+005   -1.30766E+005   -7.08100E+001   -5.78616E+002   -1.56155E+004
            2650    8.00833E+007    7.99447E+007    7.99447E+007   -1.28737E+005   -1.48411E+005    8.00931E+007   -2.65559E+007    8.00833E+007    7.99447E+007   -1.38489E+005   -1.38660E+005   -1.03676E+002    5.10731E+002   -9.83668E+003
            2651    8.00831E+007    7.99449E+007    7.99449E+007   -1.32818E+005   -1.43508E+005    8.00884E+007   -2.65562E+007    8.00831E+007    7.99449E+007   -1.33900E+005   -1.42426E+005   -1.59302E+002   -5.84356E+002   -3.22401E+003
            2652    8.00650E+007    7.99577E+007    7.99577E+007   -7.34773E+004   -1.41107E+005    8.00988E+007   -2.65811E+007    8.00650E+007    7.99577E+007   -1.39623E+005   -7.49606E+004   -2.06320E+002   -2.58650E+002   -9.90543E+003
            2653    8.00746E+007    7.99516E+007    7.99516E+007   -8.35110E+004   -1.62502E+005    8.01141E+007   -2.65685E+007    8.00746E+007    7.99516E+007   -1.60674E+005   -8.53394E+004   -2.99644E+002    5.33881E+001   -1.18778E+004
            2654    8.00792E+007    7.99478E+007    7.99478E+007   -9.73401E+004   -1.65533E+005    8.01133E+007   -2.65616E+007    8.00792E+007    7.99478E+007   -1.63744E+005   -9.91295E+004   -2.38051E+002   -5.52127E+002   -1.09008E+004
            2655    8.00816E+007    7.99459E+007    7.99459E+007   -1.11656E+005   -1.59854E+005    8.01057E+007   -2.65581E+007    8.00816E+007    7.99459E+007   -1.58466E+005   -1.13044E+005   -1.65837E+001    5.68892E+002   -8.06007E+003
            2656    8.00824E+007    7.99448E+007    7.99448E+007   -1.23757E+005   -1.51395E+005    8.00962E+007   -2.65566E+007    8.00824E+007    7.99448E+007   -1.50254E+005   -1.24898E+005    5.00891E+001   -6.73612E+002   -5.49790E+003
            2657    8.00826E+007    7.99444E+007    7.99444E+007   -1.32903E+005   -1.43662E+005    8.00880E+007   -2.65559E+007    8.00826E+007    7.99444E+007   -1.42818E+005   -1.33746E+005    1.57463E+002    8.15123E+002   -2.89243E+003
            2658    8.00827E+007    7.99442E+007    7.99442E+007   -1.37298E+005   -1.39549E+005    8.00838E+007   -2.65558E+007    8.00826E+007    7.99442E+007   -1.38532E+005   -1.38315E+005    1.39959E+002   -7.68116E+002   -1.12060E+003
            2659    8.00606E+007    7.99595E+007    7.99595E+007   -6.70024E+004   -1.35305E+005    8.00948E+007   -2.65857E+007    8.00606E+007    7.99595E+007   -1.35292E+005   -6.70152E+004    1.49221E+002   -2.41569E+002    9.35185E+002
            2660    8.00721E+007    7.99517E+007    7.99517E+007   -8.13996E+004   -1.59228E+005    8.01109E+007   -2.65704E+007    8.00720E+007    7.99517E+007   -1.59149E+005   -8.14784E+004    2.16090E+002    1.86911E+002    2.47410E+003
            2661    8.00778E+007    7.99477E+007    7.99477E+007   -9.60151E+004   -1.64266E+005    8.01119E+007   -2.65625E+007    8.00778E+007    7.99477E+007   -1.63967E+005   -9.63138E+004    1.37519E+002   -5.71420E+002    4.50554E+003
            2662    8.00813E+007    7.99457E+007    7.99457E+007   -1.11702E+005   -1.59602E+005    8.01053E+007   -2.65581E+007    8.00813E+007    7.99457E+007   -1.58979E+005   -1.12325E+005    2.37092E+001    5.00467E+002    5.42724E+003
            2663    8.00826E+007    7.99452E+007    7.99452E+007   -1.23329E+005   -1.51508E+005    8.00967E+007   -2.65568E+007    8.00826E+007    7.99452E+007   -1.50373E+005   -1.24464E+005   -6.82885E+001   -8.09769E+002    5.54123E+003
            2664    8.00833E+007    7.99450E+007    7.99450E+007   -1.32565E+005   -1.43989E+005    8.00890E+007   -2.65561E+007    8.00832E+007    7.99450E+007   -1.42553E+005   -1.34002E+005   -9.88367E+001    7.14939E+002    3.78777E+003
            2665    8.00834E+007    7.99451E+007    7.99451E+007   -1.36665E+005   -1.39780E+005    8.00849E+007   -2.65562E+007    8.00834E+007    7.99451E+007   -1.37877E+005   -1.38568E+005   -9.13952E+001   -8.22692E+002    1.51877E+003
            2666    8.00654E+007    7.99574E+007    7.99574E+007   -7.48178E+004   -1.41231E+005    8.00986E+007   -2.65805E+007    8.00654E+007    7.99574E+007   -1.39217E+005   -7.68315E+004   -1.77154E+002   -2.40171E+002    1.13877E+004
            2667    8.00758E+007    7.99507E+007    7.99507E+007   -8.53873E+004   -1.64808E+005    8.01155E+007   -2.65668E+007    8.00757E+007    7.99507E+007   -1.61157E+005   -8.90388E+004   -2.60899E+002    4.74086E+001    1.66334E+004
            2668    8.00805E+007    7.99469E+007    7.99469E+007   -9.83659E+004   -1.68807E+005    8.01157E+007   -2.65599E+007    8.00805E+007    7.99469E+007   -1.63382E+005   -1.03790E+005   -1.53827E+002   -5.05352E+002    1.87798E+004
            2669    8.00827E+007    7.99450E+007    7.99450E+007   -1.10853E+005   -1.64504E+005    8.01096E+007   -2.65566E+007    8.00827E+007    7.99450E+007   -1.57053E+005   -1.18304E+005   -1.47029E+002    5.48552E+002    1.85534E+004
            2670    8.00830E+007    7.99444E+007    7.99444E+007   -1.21087E+005   -1.56173E+005    8.01006E+007   -2.65557E+007    8.00830E+007    7.99444E+007   -1.47000E+005   -1.30260E+005    6.68467E+000   -5.68992E+002    1.54177E+004
            2671    8.00827E+007    7.99441E+007    7.99441E+007   -1.28086E+005   -1.49078E+005    8.00932E+007   -2.65557E+007    8.00827E+007    7.99441E+007   -1.38136E+005   -1.39028E+005   -1.05196E+001    7.55115E+002    1.04868E+004
            2672    8.00825E+007    7.99443E+007    7.99443E+007   -1.31834E+005   -1.44558E+005    8.00889E+007   -2.65560E+007    8.00825E+007    7.99443E+007   -1.32837E+005   -1.43555E+005    3.72502E+001   -6.49259E+002    3.42873E+003
            2673    8.00753E+007    7.99492E+007    7.99492E+007   -9.42045E+004   -1.57870E+005    8.01071E+007   -2.65657E+007    8.00752E+007    7.99492E+007   -1.51612E+005   -1.00463E+005   -2.65215E+002   -1.42248E+002    1.89547E+004
            2674    8.00812E+007    7.99451E+007    7.99451E+007   -9.66110E+004   -1.75437E+005    8.01205E+007   -2.65577E+007    8.00811E+007    7.99451E+007   -1.63876E+005   -1.08171E+005   -3.84595E+002    1.86531E+002    2.78855E+004
            2675    8.00839E+007    7.99434E+007    7.99434E+007   -1.03315E+005   -1.77726E+005    8.01211E+007   -2.65541E+007    8.00838E+007    7.99434E+007   -1.62179E+005   -1.18862E+005   -1.26700E+002   -2.90771E+002    3.02511E+004
            2676    8.00848E+007    7.99431E+007    7.99431E+007   -1.10854E+005   -1.72532E+005    8.01156E+007   -2.65532E+007    8.00847E+007    7.99431E+007   -1.52906E+005   -1.30479E+005   -2.13972E+002    3.18915E+002    2.87281E+004
            2677    8.00844E+007    7.99440E+007    7.99440E+007   -1.16414E+005   -1.64353E+005    8.01083E+007   -2.65544E+007    8.00843E+007    7.99440E+007   -1.40862E+005   -1.39905E+005    1.66326E+001   -3.85857E+002    2.39646E+004
            2678    8.00834E+007    7.99448E+007    7.99448E+007   -1.20779E+005   -1.56456E+005    8.01012E+007   -2.65558E+007    8.00834E+007    7.99448E+007   -1.30022E+005   -1.47212E+005    9.80745E+000    3.60579E+002    1.56314E+004
            2679    8.00829E+007    7.99455E+007    7.99455E+007   -1.22691E+005   -1.51969E+005    8.00975E+007   -2.65570E+007    8.00829E+007    7.99455E+007   -1.23743E+005   -1.50917E+005    1.18183E+002   -3.76553E+002    5.44911E+003
            2680    8.00900E+007    7.99405E+007    7.99405E+007   -1.19151E+005   -1.79684E+005    8.01202E+007   -2.65472E+007    8.00899E+007    7.99405E+007   -1.67909E+005   -1.30926E+005    7.10859E+001   -1.18335E+002    2.39613E+004
            2681    8.00905E+007    7.99401E+007    7.99401E+007   -1.11848E+005   -1.88823E+005    8.01290E+007   -2.65465E+007    8.00904E+007    7.99401E+007   -1.68076E+005   -1.32595E+005   -2.12866E+001   -1.84208E+002    3.41548E+004
            2682    8.00898E+007    7.99403E+007    7.99403E+007   -1.11029E+005   -1.87986E+005    8.01282E+007   -2.65471E+007    8.00897E+007    7.99403E+007   -1.60825E+005   -1.38190E+005    2.03412E+001    5.58159E+001    3.67768E+004
            2683    8.00878E+007    7.99413E+007    7.99413E+007   -1.10866E+005   -1.82019E+005    8.01233E+007   -2.65495E+007    8.00877E+007    7.99413E+007   -1.48045E+005   -1.44840E+005   -9.03108E+001    1.05445E+002    3.55406E+004
            2684    8.00851E+007    7.99430E+007    7.99430E+007   -1.11109E+005   -1.72895E+005    8.01159E+007   -2.65530E+007    8.00850E+007    7.99430E+007   -1.32529E+005   -1.51475E+005   -4.80403E+000    2.63174E+002    2.94044E+004
            2685    8.00825E+007    7.99446E+007    7.99446E+007   -1.10990E+005   -1.64741E+005    8.01094E+007   -2.65563E+007    8.00825E+007    7.99446E+007   -1.19485E+005   -1.56245E+005   -9.13702E+000    1.17752E+002    1.96076E+004
            2686    8.00811E+007    7.99457E+007    7.99457E+007   -1.10867E+005   -1.59902E+005    8.01056E+007   -2.65583E+007    8.00811E+007    7.99457E+007   -1.11771E+005   -1.58998E+005    4.31442E+001    1.36761E+002    6.59548E+003
            2687    8.01017E+007    7.99308E+007    7.99308E+007   -1.43954E+005   -1.97756E+005    8.01285E+007   -2.65297E+007    8.01016E+007    7.99308E+007   -1.80424E+005   -1.61286E+005   -6.18587E+002    2.75288E+002    2.51412E+004
            2688    8.00980E+007    7.99332E+007    7.99332E+007   -1.30373E+005   -1.99088E+005    8.01323E+007   -2.65346E+007    8.00979E+007    7.99332E+007   -1.72303E+005   -1.57158E+005   -6.63013E+002   -5.69508E+001    3.35129E+004
            2689    8.00950E+007    7.99358E+007    7.99358E+007   -1.20695E+005   -1.97566E+005    8.01334E+007   -2.65392E+007    8.00949E+007    7.99358E+007   -1.61281E+005   -1.56980E+005   -2.72138E+002    5.33032E+002    3.83749E+004
            2690    8.00904E+007    7.99394E+007    7.99394E+007   -1.12520E+005   -1.89369E+005    8.01288E+007   -2.65459E+007    8.00903E+007    7.99394E+007   -1.43171E+005   -1.58718E+005   -4.75727E+001   -3.68476E+002    3.76299E+004
            2691    8.00854E+007    7.99430E+007    7.99430E+007   -1.05620E+005   -1.79239E+005    8.01222E+007   -2.65527E+007    8.00853E+007    7.99430E+007   -1.24077E+005   -1.60783E+005    2.91448E+001    5.39491E+002    3.19075E+004
            2692    8.00812E+007    7.99464E+007    7.99464E+007   -9.97615E+004   -1.69715E+005    8.01161E+007   -2.65590E+007    8.00811E+007    7.99464E+007   -1.07011E+005   -1.62465E+005    1.30103E+002   -3.56186E+002    2.13212E+004
            2693    8.00785E+007    7.99483E+007    7.99483E+007   -9.64437E+004   -1.64066E+005    8.01123E+007   -2.65626E+007    8.00785E+007    7.99483E+007   -9.72481E+004   -1.63262E+005    1.33716E+002    4.42701E+002    7.33142E+003
            2694    8.01125E+007    7.99256E+007    7.99256E+007   -1.67749E+005   -2.06088E+005    8.01317E+007   -2.65173E+007    8.01125E+007    7.99256E+007   -1.88011E+005   -1.85825E+005    7.26121E+002    2.57455E+002    1.91382E+004
            2695    8.01068E+007    7.99288E+007    7.99288E+007   -1.49664E+005   -2.06186E+005    8.01350E+007   -2.65243E+007    8.01067E+007    7.99288E+007   -1.79564E+005   -1.76286E+005    6.32152E+002   -1.14180E+003    2.82136E+004
            2696    8.01001E+007    7.99322E+007    7.99322E+007   -1.33744E+005   -2.01993E+005    8.01342E+007   -2.65322E+007    8.01001E+007    7.99322E+007   -1.63126E+005   -1.72611E+005   -1.75338E+002    1.26152E+003    3.37938E+004
            2697    8.00932E+007    7.99381E+007    7.99381E+007   -1.17577E+005   -1.92451E+005    8.01306E+007   -2.65427E+007    8.00931E+007    7.99381E+007   -1.41819E+005   -1.68210E+005    1.58577E+002   -6.00364E+002    3.50345E+004
            2698    8.00842E+007    7.99435E+007    7.99435E+007   -1.01931E+005   -1.79476E+005    8.01230E+007   -2.65540E+007    8.00841E+007    7.99435E+007   -1.16698E+005   -1.64708E+005    2.01794E+001    1.11212E+003    3.04478E+004
            2699    8.00774E+007    7.99490E+007    7.99490E+007   -8.96665E+004   -1.67137E+005    8.01161E+007   -2.65641E+007    8.00774E+007    7.99490E+007   -9.56537E+004   -1.61150E+005    2.26929E+002   -4.74046E+002    2.06878E+004
            2700    8.00728E+007    7.99520E+007    7.99520E+007   -8.20696E+004   -1.59582E+005    8.01116E+007   -2.65701E+007    8.00728E+007    7.99520E+007   -8.27665E+004   -1.58885E+005    2.51324E+002    7.50016E+002    7.31660E+003
            2701    8.01185E+007    7.99181E+007    7.99181E+007   -1.88350E+005   -2.12382E+005    8.01305E+007   -2.65058E+007    8.01185E+007    7.99181E+007   -1.99538E+005   -2.01193E+005   -2.00928E+003    2.47773E+003    1.19874E+004
            2702    8.01149E+007    7.99237E+007    7.99237E+007   -1.72979E+005   -2.09400E+005    8.01331E+007   -2.65138E+007    8.01149E+007    7.99237E+007   -1.87165E+005   -1.95213E+005    5.35686E+001   -1.27230E+003    1.77603E+004
            2703    8.01067E+007    7.99275E+007    7.99275E+007   -1.55732E+005   -2.02565E+005    8.01301E+007   -2.65231E+007    8.01067E+007    7.99275E+007   -1.72730E+005   -1.85568E+005   -7.30186E+001    1.04212E+003    2.25194E+004
            2704    8.00957E+007    7.99365E+007    7.99365E+007   -1.31163E+005   -1.87249E+005    8.01238E+007   -2.65394E+007    8.00957E+007    7.99365E+007   -1.45593E+005   -1.72819E+005    1.18430E+002   -5.63756E+002    2.45171E+004
            2705    8.00817E+007    7.99454E+007    7.99454E+007   -1.05788E+005   -1.66847E+005    8.01123E+007   -2.65576E+007    8.00817E+007    7.99454E+007   -1.15424E+005   -1.57211E+005    8.93219E+001    7.62058E+002    2.22602E+004
            2706    8.00698E+007    7.99544E+007    7.99544E+007   -8.25954E+004   -1.48279E+005    8.01026E+007   -2.65745E+007    8.00697E+007    7.99544E+007   -8.67844E+004   -1.44090E+005    4.73782E+001   -3.38276E+002    1.60500E+004
            2707    8.00624E+007    7.99593E+007    7.99593E+007   -6.94638E+004   -1.36556E+005    8.00959E+007   -2.65844E+007    8.00623E+007    7.99593E+007   -6.99643E+004   -1.36056E+005    3.14678E+001    5.40772E+002    5.77303E+003
            2708    8.00415E+007    7.99732E+007    7.99732E+007   -6.52293E+004   -7.14236E+004    8.00446E+007   -2.66122E+007    8.00415E+007    7.99732E+007   -6.53050E+004   -7.13479E+004    1.33054E+002   -3.71444E+000   -6.80473E+002
            2709    8.00561E+007    7.99632E+007    7.99632E+007   -8.79676E+004   -9.77849E+004    8.00610E+007   -2.65925E+007    8.00561E+007    7.99632E+007   -8.81244E+004   -9.76281E+004    1.16582E+002    2.80530E+002   -1.23093E+003
            2710    8.00785E+007    7.99480E+007    7.99480E+007   -1.24580E+005   -1.36594E+005    8.00846E+007   -2.65623E+007    8.00785E+007    7.99480E+007   -1.24591E+005   -1.36583E+005    1.12873E+002    1.76199E+002    3.62971E+002
            2711    8.01006E+007    7.99328E+007    7.99328E+007   -1.62409E+005   -1.73054E+005    8.01059E+007   -2.65325E+007    8.01006E+007    7.99328E+007   -1.62445E+005   -1.73019E+005    6.45680E+001    3.72760E+002    6.10843E+002
            2712    8.01166E+007    7.99219E+007    7.99219E+007   -1.88303E+005   -2.01001E+005    8.01229E+007   -2.65109E+007    8.01166E+007    7.99219E+007   -1.88303E+005   -2.01001E+005    9.92898E+001    1.35827E+002    7.46502E+001
            2713    8.01256E+007    7.99158E+007    7.99158E+007   -2.02684E+005   -2.16896E+005    8.01327E+007   -2.64987E+007    8.01256E+007    7.99158E+007   -2.02785E+005   -2.16795E+005    4.21608E+000    2.37239E+002   -1.19617E+003
            2714    8.01250E+007    7.99162E+007    7.99162E+007   -1.93851E+005   -2.23741E+005    8.01400E+007   -2.64996E+007    8.01250E+007    7.99162E+007   -1.93970E+005   -2.23622E+005    8.19976E+002   -1.49261E+002    1.87766E+003
            2715    8.01198E+007    7.99194E+007    7.99194E+007   -1.63742E+005   -2.37067E+005    8.01564E+007   -2.65062E+007    8.01197E+007    7.99194E+007   -2.15681E+005   -1.85128E+005    1.67771E+002    7.77686E+002    3.33280E+004
            2716    8.01201E+007    7.99193E+007    7.99193E+007   -1.78590E+005   -2.22878E+005    8.01422E+007   -2.65060E+007    8.01200E+007    7.99193E+007   -2.22265E+005   -1.79203E+005    1.02629E+002    6.77027E+001    5.17422E+003
            2717    8.01106E+007    7.99259E+007    7.99259E+007   -1.72476E+005   -1.97043E+005    8.01229E+007   -2.65188E+007    8.01106E+007    7.99259E+007   -1.97003E+005   -1.72516E+005    2.40425E+002    1.92037E+002   -9.89642E+002
            2718    8.00898E+007    7.99401E+007    7.99401E+007   -1.40226E+005   -1.59212E+005    8.00993E+007   -2.65469E+007    8.00898E+007    7.99401E+007   -1.59088E+005   -1.40350E+005    1.97712E+002    4.57433E+001   -1.53029E+003
            2719    8.00885E+007    7.99416E+007    7.99416E+007   -1.14946E+005   -1.78806E+005    8.01204E+007   -2.65493E+007    8.00885E+007    7.99416E+007   -1.67295E+005   -1.26458E+005   -3.45652E+002    1.86268E+002    2.45480E+004
            2720    8.00878E+007    7.99420E+007    7.99420E+007   -1.06255E+005   -1.85349E+005    8.01274E+007   -2.65501E+007    8.00878E+007    7.99420E+007   -1.66844E+005   -1.24760E+005   -3.50153E+002    1.05826E+002    3.34845E+004
            2721    8.00868E+007    7.99421E+007    7.99421E+007   -1.06881E+005   -1.82461E+005    8.01246E+007   -2.65509E+007    8.00868E+007    7.99421E+007   -1.60130E+005   -1.29212E+005   -2.11547E+002    1.55001E+002    3.44831E+004
            2722    8.00854E+007    7.99428E+007    7.99428E+007   -1.10780E+005   -1.74387E+005    8.01172E+007   -2.65526E+007    8.00854E+007    7.99428E+007   -1.49703E+005   -1.35464E+005    2.55365E+001   -2.69007E+002    3.09962E+004
            2723    8.00843E+007    7.99436E+007    7.99436E+007   -1.16070E+005   -1.65311E+005    8.01089E+007   -2.65541E+007    8.00843E+007    7.99436E+007   -1.38547E+005   -1.42833E+005   -5.21634E+001    8.25876E+001    2.45272E+004
            2724    8.00831E+007    7.99443E+007    7.99443E+007   -1.20498E+005   -1.56963E+005    8.01013E+007   -2.65556E+007    8.00830E+007    7.99443E+007   -1.29257E+005   -1.48204E+005    2.11138E+001   -3.17280E+002    1.55786E+004
            2725    8.00826E+007    7.99448E+007    7.99448E+007   -1.23222E+005   -1.52428E+005    8.00972E+007   -2.65564E+007    8.00826E+007    7.99448E+007   -1.24277E+005   -1.51373E+005   -6.92475E+000    1.53350E+002    5.44839E+003
            2726    8.01000E+007    7.99319E+007    7.99319E+007   -1.38532E+005   -1.97485E+005    8.01294E+007   -2.65320E+007    8.00999E+007    7.99319E+007   -1.81240E+005   -1.54776E+005    9.47596E+002   -1.49789E+002    2.63394E+004
            2727    8.00956E+007    7.99351E+007    7.99351E+007   -1.22321E+005   -1.98663E+005    8.01338E+007   -2.65380E+007    8.00955E+007    7.99351E+007   -1.70828E+005   -1.50156E+005    9.77400E+002   -8.39822E+001    3.67449E+004
            2728    8.00921E+007    7.99381E+007    7.99381E+007   -1.14319E+005   -1.93550E+005    8.01316E+007   -2.65434E+007    8.00920E+007    7.99381E+007   -1.58285E+005   -1.49584E+005    3.70075E+002   -1.87646E+002    3.93759E+004
            2729    8.00885E+007    7.99406E+007    7.99406E+007   -1.10460E+005   -1.85386E+005    8.01260E+007   -2.65482E+007    8.00884E+007    7.99406E+007   -1.43498E+005   -1.52348E+005    1.98026E+002    1.27351E+002    3.72008E+004
            2730    8.00850E+007    7.99432E+007    7.99432E+007   -1.08521E+005   -1.75141E+005    8.01183E+007   -2.65532E+007    8.00850E+007    7.99432E+007   -1.28126E+005   -1.55536E+005    5.15205E+001   -2.73308E+002    3.03599E+004
            2731    8.00826E+007    7.99450E+007    7.99450E+007   -1.08100E+005   -1.67170E+005    8.01122E+007   -2.65566E+007    8.00826E+007    7.99450E+007   -1.15925E+005   -1.59345E+005   -2.65278E+001    1.40555E+002    2.00250E+004
            2732    8.00812E+007    7.99461E+007    7.99461E+007   -1.08122E+005   -1.62023E+005    8.01081E+007   -2.65587E+007    8.00812E+007    7.99461E+007   -1.08997E+005   -1.61148E+005   -7.73130E+001   -2.24727E+002    6.81220E+003
            2733    8.01111E+007    7.99265E+007    7.99265E+007   -1.58316E+005   -2.10754E+005    8.01373E+007   -2.65192E+007    8.01110E+007    7.99265E+007   -1.89521E+005   -1.79550E+005   -1.03390E+003   -3.45813E+001    2.57405E+004
            2734    8.01036E+007    7.99305E+007    7.99305E+007   -1.40675E+005   -2.05533E+005    8.01360E+007   -2.65281E+007    8.01036E+007    7.99305E+007   -1.74979E+005   -1.71229E+005   -6.43631E+002    8.56642E+002    3.23750E+004
            2735    8.00975E+007    7.99340E+007    7.99340E+007   -1.25212E+005   -2.01823E+005    8.01358E+007   -2.65356E+007    8.00974E+007    7.99340E+007   -1.59322E+005   -1.67713E+005    1.29717E+002   -1.05059E+003    3.80746E+004
            2736    8.00911E+007    7.99392E+007    7.99392E+007   -1.11545E+005   -1.92169E+005    8.01314E+007   -2.65452E+007    8.00910E+007    7.99392E+007   -1.38169E+005   -1.65545E+005   -1.61600E+002    5.17623E+002    3.79172E+004
            2737    8.00849E+007    7.99429E+007    7.99429E+007   -1.01788E+005   -1.82027E+005    8.01250E+007   -2.65530E+007    8.00848E+007    7.99429E+007   -1.18018E+005   -1.65797E+005   -1.08080E+001   -9.49190E+002    3.22316E+004
            2738    8.00798E+007    7.99471E+007    7.99471E+007   -9.37791E+004   -1.71622E+005    8.01187E+007   -2.65606E+007    8.00798E+007    7.99471E+007   -1.00278E+005   -1.65124E+005   -2.16461E+002    4.05101E+002    2.15327E+004
            2739    8.00770E+007    7.99490E+007    7.99490E+007   -9.04484E+004   -1.65656E+005    8.01146E+007   -2.65643E+007    8.00770E+007    7.99490E+007   -9.11791E+004   -1.64925E+005   -2.14060E+002   -6.49345E+002    7.37702E+003
            2740    8.01167E+007    7.99197E+007    7.99197E+007   -1.79576E+005   -2.14413E+005    8.01341E+007   -2.65086E+007    8.01167E+007    7.99197E+007   -1.96758E+005   -1.97231E+005    2.20779E+003   -2.36292E+003    1.74167E+004
            2741    8.01127E+007    7.99252E+007    7.99252E+007   -1.61330E+005   -2.13659E+005    8.01388E+007   -2.65167E+007    8.01126E+007    7.99252E+007   -1.84237E+005   -1.90752E+005   -3.55761E+001    1.34017E+003    2.59612E+004
            2742    8.01039E+007    7.99292E+007    7.99292E+007   -1.44890E+005   -2.04440E+005    8.01337E+007   -2.65266E+007    8.01039E+007    7.99292E+007   -1.64280E+005   -1.85050E+005    2.14920E+002   -1.11843E+003    2.79051E+004
            2743    8.00945E+007    7.99371E+007    7.99371E+007   -1.24573E+005   -1.90166E+005    8.01273E+007   -2.65408E+007    8.00945E+007    7.99371E+007   -1.40631E+005   -1.74108E+005   -9.13908E+001    5.83639E+002    2.82032E+004
            2744    8.00818E+007    7.99451E+007    7.99451E+007   -1.00847E+005   -1.72353E+005    8.01175E+007   -2.65573E+007    8.00817E+007    7.99451E+007   -1.11570E+005   -1.61630E+005   -2.34137E+001   -8.67172E+002    2.55296E+004
            2745    8.00727E+007    7.99522E+007    7.99522E+007   -8.29421E+004   -1.58031E+005    8.01102E+007   -2.65704E+007    8.00726E+007    7.99522E+007   -8.76776E+004   -1.53295E+005   -7.61189E+001    3.76418E+002    1.82525E+004
            2746    8.00671E+007    7.99559E+007    7.99559E+007   -7.24246E+004   -1.49962E+005    8.01058E+007   -2.65778E+007    8.00670E+007    7.99559E+007   -7.30705E+004   -1.49316E+005   -5.98728E+001   -5.82144E+002    7.04723E+003
            2747    8.00437E+007    7.99715E+007    7.99715E+007   -6.58957E+004   -7.84769E+004    8.00500E+007   -2.66090E+007    8.00437E+007    7.99715E+007   -6.59531E+004   -7.84195E+004   -1.22166E+002   -5.89648E+001   -8.48372E+002
            2748    8.00573E+007    7.99622E+007    7.99622E+007   -8.75266E+004   -1.02711E+005    8.00649E+007   -2.65906E+007    8.00573E+007    7.99622E+007   -8.76014E+004   -1.02636E+005   -1.08927E+002   -2.24669E+002   -1.06320E+003
            2749    8.00785E+007    7.99477E+007    7.99477E+007   -1.22333E+005   -1.39336E+005    8.00870E+007   -2.65620E+007    8.00785E+007    7.99477E+007   -1.22422E+005   -1.39247E+005   -1.23075E+002   -2.20937E+002   -1.22692E+003
            2750    8.01000E+007    7.99330E+007    7.99330E+007   -1.56691E+005   -1.77208E+005    8.01102E+007   -2.65330E+007    8.01000E+007    7.99330E+007   -1.56718E+005   -1.77181E+005   -7.88257E+001   -2.74336E+002   -7.40236E+002
            2751    8.01175E+007    7.99211E+007    7.99211E+007   -1.83391E+005   -2.09399E+005    8.01305E+007   -2.65094E+007    8.01175E+007    7.99211E+007   -1.83473E+005   -2.09316E+005   -1.01252E+002   -1.85099E+002   -1.46356E+003
            2752    8.01232E+007    7.99172E+007    7.99172E+007   -1.81760E+005   -2.30226E+005    8.01475E+007   -2.65018E+007    8.01232E+007    7.99172E+007   -1.82123E+005   -2.29863E+005   -1.57784E+001   -8.53013E+001    4.17703E+003
            2753    8.01204E+007    7.99189E+007    7.99189E+007   -1.63237E+005   -2.39816E+005    8.01587E+007   -2.65053E+007    8.01203E+007    7.99189E+007   -1.82382E+005   -2.20671E+005   -6.12351E+002   -1.61242E+002    3.31602E+004
            2754    8.00623E+007    7.99594E+007    7.99594E+007   -6.94376E+004   -1.36478E+005    8.00958E+007   -2.65845E+007    8.00623E+007    7.99594E+007   -6.99354E+004   -1.35980E+005    3.97468E+001   -5.18822E+002   -5.75591E+003
            2755    8.00728E+007    7.99520E+007    7.99520E+007   -8.20105E+004   -1.59563E+005    8.01116E+007   -2.65702E+007    8.00728E+007    7.99520E+007   -8.27703E+004   -1.58804E+005    2.21111E+002   -7.32502E+002   -7.63857E+003
            2756    8.00786E+007    7.99482E+007    7.99482E+007   -9.64227E+004   -1.64223E+005    8.01124E+007   -2.65625E+007    8.00785E+007    7.99482E+007   -9.73334E+004   -1.63312E+005    1.53451E+002   -4.29597E+002   -7.80506E+003
            2757    8.00811E+007    7.99457E+007    7.99457E+007   -1.10873E+005   -1.60060E+005    8.01057E+007   -2.65582E+007    8.00811E+007    7.99457E+007   -1.11938E+005   -1.58995E+005    2.26516E+001   -1.41716E+002   -7.15933E+003
            2758    8.00828E+007    7.99454E+007    7.99454E+007   -1.22700E+005   -1.52058E+005    8.00974E+007   -2.65569E+007    8.00828E+007    7.99454E+007   -1.23945E+005   -1.50812E+005    1.20024E+002    3.51835E+002   -5.91722E+003
            2759    8.00825E+007    7.99443E+007    7.99443E+007   -1.31774E+005   -1.44626E+005    8.00889E+007   -2.65560E+007    8.00825E+007    7.99443E+007   -1.32939E+005   -1.43461E+005   -6.61980E+000    6.43631E+002   -3.68918E+003
            2760    8.00833E+007    7.99451E+007    7.99451E+007   -1.36603E+005   -1.39857E+005    8.00849E+007   -2.65562E+007    8.00833E+007    7.99451E+007   -1.37949E+005   -1.38510E+005   -5.72697E+001    8.10089E+002   -1.60268E+003
            2761    8.00827E+007    7.99443E+007    7.99443E+007   -1.37301E+005   -1.39502E+005    8.00838E+007   -2.65558E+007    8.00827E+007    7.99443E+007   -1.38487E+005   -1.38315E+005    8.95111E+001    7.71167E+002    1.09719E+003
            2762    8.00831E+007    7.99450E+007    7.99450E+007   -1.32829E+005   -1.43525E+005    8.00885E+007   -2.65562E+007    8.00832E+007    7.99450E+007   -1.33876E+005   -1.42478E+005   -1.34973E+002    5.99193E+002    3.17851E+003
            2763    8.00700E+007    7.99542E+007    7.99542E+007   -8.30038E+004   -1.48435E+005    8.01027E+007   -2.65743E+007    8.00699E+007    7.99542E+007   -8.72605E+004   -1.44178E+005    9.99731E+001    3.35145E+002   -1.61369E+004
            2764    8.00776E+007    7.99489E+007    7.99489E+007   -9.00041E+004   -1.67355E+005    8.01163E+007   -2.65638E+007    8.00775E+007    7.99489E+007   -9.62191E+004   -1.61141E+005    1.91449E+002    4.66733E+002   -2.10263E+004
            2765    8.00814E+007    7.99462E+007    7.99462E+007   -9.99622E+004   -1.70241E+005    8.01165E+007   -2.65587E+007    8.00813E+007    7.99462E+007   -1.07663E+005   -1.62540E+005    2.09540E+002    3.44096E+002   -2.19528E+004
            2766    8.00828E+007    7.99447E+007    7.99447E+007   -1.11140E+005   -1.65121E+005    8.01098E+007   -2.65561E+007    8.00828E+007    7.99447E+007   -1.20237E+005   -1.56024E+005   -8.99746E+001   -8.88617E+001   -2.02068E+004
            2767    8.00835E+007    7.99448E+007    7.99448E+007   -1.20774E+005   -1.56648E+005    8.01014E+007   -2.65558E+007    8.00835E+007    7.99448E+007   -1.30583E+005   -1.46839E+005    1.43057E+002   -3.12583E+002   -1.59895E+004
            2768    8.00828E+007    7.99442E+007    7.99442E+007   -1.27985E+005   -1.49174E+005    8.00934E+007   -2.65557E+007    8.00828E+007    7.99442E+007   -1.38483E+005   -1.38676E+005   -1.24091E+002   -7.49643E+002   -1.05942E+004
            2769    8.00832E+007    7.99450E+007    7.99450E+007   -1.32481E+005   -1.44039E+005    8.00890E+007   -2.65561E+007    8.00832E+007    7.99450E+007   -1.42664E+005   -1.33856E+005    3.23655E+001   -6.96074E+002   -3.74121E+003
            2770    8.00826E+007    7.99444E+007    7.99444E+007   -1.32849E+005   -1.43662E+005    8.00880E+007   -2.65560E+007    8.00826E+007    7.99444E+007   -1.42752E+005   -1.33760E+005    3.41928E+001   -8.26969E+002    3.00249E+003
            2771    8.00832E+007    7.99446E+007    7.99446E+007   -1.28681E+005   -1.48514E+005    8.00932E+007   -2.65558E+007    8.00832E+007    7.99446E+007   -1.38297E+005   -1.38899E+005    1.51427E+001   -5.33641E+002    9.91214E+003
            2772    8.00822E+007    7.99451E+007    7.99451E+007   -1.06788E+005   -1.67432E+005    8.01125E+007   -2.65570E+007    8.00822E+007    7.99451E+007   -1.16456E+005   -1.57764E+005    1.14279E+002   -7.36598E+002   -2.22003E+004
            2773    8.00848E+007    7.99432E+007    7.99432E+007   -1.02818E+005   -1.80259E+005    8.01235E+007   -2.65534E+007    8.00847E+007    7.99432E+007   -1.18045E+005   -1.65032E+005   -5.37229E+001   -1.08938E+003   -3.07786E+004
            2774    8.00858E+007    7.99427E+007    7.99427E+007   -1.06205E+005   -1.79907E+005    8.01226E+007   -2.65522E+007    8.00857E+007    7.99427E+007   -1.25546E+005   -1.60566E+005    1.46523E+002   -5.15862E+002   -3.24251E+004
            2775    8.00852E+007    7.99428E+007    7.99428E+007   -1.11357E+005   -1.73258E+005    8.01161E+007   -2.65527E+007    8.00851E+007    7.99428E+007   -1.33854E+005   -1.50761E+005   -1.48820E+002   -3.40415E+002   -2.97739E+004
            2776    8.00842E+007    7.99439E+007    7.99439E+007   -1.16344E+005   -1.64391E+005    8.01083E+007   -2.65544E+007    8.00842E+007    7.99439E+007   -1.41745E+005   -1.38989E+005    1.49708E+002    3.43823E+002   -2.39838E+004
            2777    8.00829E+007    7.99444E+007    7.99444E+007   -1.20954E+005   -1.56128E+005    8.01005E+007   -2.65558E+007    8.00829E+007    7.99444E+007   -1.47457E+005   -1.29625E+005   -1.69259E+002    5.25295E+002   -1.51590E+004
            2778    8.00825E+007    7.99452E+007    7.99452E+007   -1.23260E+005   -1.51479E+005    8.00966E+007   -2.65568E+007    8.00825E+007    7.99452E+007   -1.50482E+005   -1.24256E+005    8.78643E+001    8.11901E+002   -5.20862E+003
            2779    8.00824E+007    7.99449E+007    7.99449E+007   -1.23833E+005   -1.51301E+005    8.00962E+007   -2.65566E+007    8.00824E+007    7.99449E+007   -1.50025E+005   -1.25108E+005   -1.12945E+002    6.81171E+002    5.78027E+003
            2780    8.00833E+007    7.99447E+007    7.99447E+007   -1.21158E+005   -1.56032E+005    8.01007E+007   -2.65558E+007    8.00832E+007    7.99447E+007   -1.46061E+005   -1.31128E+005    5.07496E+001    6.39103E+002    1.57571E+004
            2781    8.00962E+007    7.99361E+007    7.99361E+007   -1.32063E+005   -1.88148E+005    8.01243E+007   -2.65386E+007    8.00962E+007    7.99361E+007   -1.46616E+005   -1.73595E+005    1.70268E+002    5.48683E+002   -2.45846E+004
            2782    8.00937E+007    7.99377E+007    7.99377E+007   -1.18655E+005   -1.93347E+005    8.01310E+007   -2.65419E+007    8.00936E+007    7.99377E+007   -1.43494E+005   -1.68508E+005    1.44618E+002    5.41147E+002   -3.51898E+004
            2783    8.00907E+007    7.99392E+007    7.99392E+007   -1.12939E+005   -1.89866E+005    8.01291E+007   -2.65455E+007    8.00906E+007    7.99392E+007   -1.44737E+005   -1.58068E+005    1.82226E+001    3.73932E+002   -3.78814E+004
            2784    8.00877E+007    7.99414E+007    7.99414E+007   -1.10740E+005   -1.81980E+005    8.01233E+007   -2.65495E+007    8.00877E+007    7.99414E+007   -1.49268E+005   -1.43453E+005   -1.41462E+002   -7.02450E+001   -3.55011E+004
            2785    8.00846E+007    7.99432E+007    7.99432E+007   -1.10510E+005   -1.72166E+005    8.01154E+007   -2.65535E+007    8.00845E+007    7.99432E+007   -1.53529E+005   -1.29147E+005   -1.22919E+002   -2.56265E+002   -2.83148E+004
            2786    8.00826E+007    7.99452E+007    7.99452E+007   -1.10604E+005   -1.64205E+005    8.01094E+007   -2.65568E+007    8.00825E+007    7.99452E+007   -1.57286E+005   -1.17523E+005   -2.23046E+002   -5.57341E+002   -1.79718E+004
            2787    8.00813E+007    7.99457E+007    7.99457E+007   -1.11733E+005   -1.59465E+005    8.01052E+007   -2.65582E+007    8.00813E+007    7.99457E+007   -1.58950E+005   -1.12248E+005    8.50609E+001   -4.90330E+002   -4.93239E+003
            2788    8.00817E+007    7.99458E+007    7.99458E+007   -1.11912E+005   -1.59819E+005    8.01056E+007   -2.65580E+007    8.00817E+007    7.99458E+007   -1.58284E+005   -1.13448E+005   -9.62197E+001   -5.91736E+002    8.43882E+003
            2789    8.00831E+007    7.99444E+007    7.99444E+007   -1.12034E+005   -1.65460E+005    8.01098E+007   -2.65556E+007    8.00831E+007    7.99444E+007   -1.55258E+005   -1.22237E+005    3.23941E+002   -4.13651E+002    2.09997E+004
            2790    8.01071E+007    7.99273E+007    7.99273E+007   -1.56394E+005   -2.03190E+005    8.01305E+007   -2.65226E+007    8.01070E+007    7.99273E+007   -1.73618E+005   -1.85966E+005   -8.49475E+001   -1.03332E+003   -2.25689E+004
            2791    8.01004E+007    7.99320E+007    7.99320E+007   -1.34156E+005   -2.02475E+005    8.01345E+007   -2.65318E+007    8.01003E+007    7.99320E+007   -1.64105E+005   -1.72526E+005   -1.85573E+002   -1.26016E+003   -3.38992E+004
            2792    8.00949E+007    7.99359E+007    7.99359E+007   -1.20516E+005   -1.97395E+005    8.01333E+007   -2.65393E+007    8.00948E+007    7.99359E+007   -1.62178E+005   -1.55733E+005   -2.64719E+002   -5.41475E+002   -3.83045E+004
            2793    8.00893E+007    7.99404E+007    7.99404E+007   -1.10357E+005   -1.87357E+005    8.01278E+007   -2.65476E+007    8.00892E+007    7.99404E+007   -1.61201E+005   -1.36512E+005    4.14187E+000   -1.33058E+002   -3.64672E+004
            2794    8.00835E+007    7.99436E+007    7.99436E+007   -1.02640E+005   -1.77096E+005    8.01207E+007   -2.65546E+007    8.00834E+007    7.99436E+007   -1.62314E+005   -1.17422E+005   -1.48187E+002    2.38461E+002   -2.97002E+004
            2795    8.00803E+007    7.99470E+007    7.99470E+007   -9.81803E+004   -1.68397E+005    8.01154E+007   -2.65601E+007    8.00802E+007    7.99470E+007   -1.63334E+005   -1.03243E+005   -1.56432E+002    4.85679E+002   -1.81615E+004
            2796    8.00779E+007    7.99476E+007    7.99476E+007   -9.62314E+004   -1.64155E+005    8.01118E+007   -2.65624E+007    8.00778E+007    7.99476E+007   -1.63907E+005   -9.64786E+004    1.08749E+002    5.66368E+002   -4.09004E+003
            2797    8.00794E+007    7.99477E+007    7.99477E+007   -9.78473E+004   -1.65602E+005    8.01133E+007   -2.65614E+007    8.00793E+007    7.99477E+007   -1.63741E+005   -9.97084E+004   -2.35240E+002    5.63313E+002    1.10740E+004
            2798    8.00817E+007    7.99451E+007    7.99451E+007   -1.01307E+005   -1.71923E+005    8.01170E+007   -2.65573E+007    8.00817E+007    7.99451E+007   -1.62247E+005   -1.10983E+005    3.72504E+002    4.58512E+002    2.42832E+004
            2799    8.01150E+007    7.99236E+007    7.99236E+007   -1.73164E+005   -2.09625E+005    8.01332E+007   -2.65136E+007    8.01150E+007    7.99236E+007   -1.87469E+005   -1.95321E+005    1.00939E+002    1.28206E+003   -1.78030E+004
            2800    8.01066E+007    7.99289E+007    7.99289E+007   -1.49523E+005   -2.05932E+005    8.01348E+007   -2.65245E+007    8.01066E+007    7.99289E+007   -1.79728E+005   -1.75728E+005    6.84294E+002    1.11852E+003   -2.81332E+004
            2801    8.00975E+007    7.99335E+007    7.99335E+007   -1.29481E+005   -1.98309E+005    8.01318E+007   -2.65352E+007    8.00974E+007    7.99335E+007   -1.71944E+005   -1.55846E+005   -6.86254E+002    5.28717E+001   -3.34594E+004
            2802    8.00898E+007    7.99405E+007    7.99405E+007   -1.10702E+005   -1.87860E+005    8.01284E+007   -2.65473E+007    8.00898E+007    7.99405E+007   -1.67646E+005   -1.30916E+005    5.44295E+001    2.02803E+002   -3.39273E+004
            2803    8.00807E+007    7.99453E+007    7.99453E+007   -9.59048E+004   -1.74797E+005    8.01201E+007   -2.65582E+007    8.00806E+007    7.99453E+007   -1.63519E+005   -1.07182E+005   -4.47708E+002   -1.86398E+002   -2.76133E+004
            2804    8.00758E+007    7.99507E+007    7.99507E+007   -8.52693E+004   -1.64840E+005    8.01155E+007   -2.65669E+007    8.00757E+007    7.99507E+007   -1.61263E+005   -8.88464E+004   -2.31832E+002   -5.72646E+001   -1.64876E+004
            2805    8.00723E+007    7.99515E+007    7.99515E+007   -8.18445E+004   -1.59725E+005    8.01112E+007   -2.65700E+007    8.00722E+007    7.99515E+007   -1.59650E+005   -8.19200E+004    1.36290E+002   -1.93531E+002   -2.42311E+003
            2806    8.00749E+007    7.99514E+007    7.99514E+007   -8.39274E+004   -1.62976E+005    8.01144E+007   -2.65682E+007    8.00748E+007    7.99514E+007   -1.61112E+005   -8.57919E+004   -2.84056E+002   -4.85727E+001    1.19964E+004
            2807    8.00795E+007    7.99465E+007    7.99465E+007   -9.34752E+004   -1.72455E+005    8.01190E+007   -2.65602E+007    8.00794E+007    7.99465E+007   -1.63612E+005   -1.02319E+005    7.24957E+002   -1.87293E+002    2.49050E+004
            2808    8.01185E+007    7.99181E+007    7.99181E+007   -1.88818E+005   -2.12030E+005    8.01301E+007   -2.65057E+007    8.01185E+007    7.99181E+007   -1.99337E+005   -2.01511E+005   -2.07705E+003   -2.49270E+003   -1.15553E+004
            2809    8.01121E+007    7.99259E+007    7.99259E+007   -1.66880E+005   -2.05533E+005    8.01314E+007   -2.65178E+007    8.01120E+007    7.99259E+007   -1.87298E+005   -1.85115E+005    7.77318E+002   -2.87652E+002   -1.92959E+004
            2810    8.01010E+007    7.99311E+007    7.99311E+007   -1.43109E+005   -1.96801E+005    8.01279E+007   -2.65304E+007    8.01010E+007    7.99311E+007   -1.79761E+005   -1.60149E+005   -6.78699E+002   -2.91211E+002   -2.49914E+004
            2811    8.00894E+007    7.99408E+007    7.99408E+007   -1.18218E+005   -1.78821E+005    8.01197E+007   -2.65479E+007    8.00893E+007    7.99408E+007   -1.66974E+005   -1.30065E+005    1.03505E+002    9.69327E+001   -2.40331E+004
            2812    8.00750E+007    7.99493E+007    7.99493E+007   -9.35251E+004   -1.57804E+005    8.01071E+007   -2.65660E+007    8.00749E+007    7.99493E+007   -1.51431E+005   -9.98974E+004   -3.08006E+002    1.34564E+002   -1.92093E+004
            2813    8.00656E+007    7.99572E+007    7.99572E+007   -7.49378E+004   -1.41963E+005    8.00991E+007   -2.65801E+007    8.00656E+007    7.99572E+007   -1.39871E+005   -7.70305E+004   -1.66713E+002    2.25095E+002   -1.16570E+004
            2814    8.00610E+007    7.99592E+007    7.99592E+007   -6.72219E+004   -1.36380E+005    8.00956E+007   -2.65852E+007    8.00610E+007    7.99592E+007   -1.36359E+005   -6.72431E+004    7.26812E+001    2.39160E+002   -1.21152E+003
            2815    8.00654E+007    7.99575E+007    7.99575E+007   -7.35897E+004   -1.42041E+005    8.00996E+007   -2.65806E+007    8.00653E+007    7.99575E+007   -1.40613E+005   -7.50174E+004   -1.82675E+002    2.53193E+002    9.78199E+003
            2816    8.00742E+007    7.99501E+007    7.99501E+007   -9.06715E+004   -1.57512E+005    8.01076E+007   -2.65673E+007    8.00741E+007    7.99501E+007   -1.51851E+005   -9.63329E+004    5.39258E+002    1.86088E+002    1.86109E+004
            2817    8.00663E+007    7.99562E+007    7.99562E+007   -1.03033E+005   -1.17227E+005    8.00734E+007   -2.65786E+007    8.00663E+007    7.99562E+007   -1.16808E+005   -1.03453E+005    2.04904E+002    1.03266E+002   -2.40451E+003
            2818    8.00472E+007    7.99690E+007    7.99690E+007   -7.32841E+004   -8.30197E+004    8.00521E+007   -2.66042E+007    8.00472E+007    7.99690E+007   -8.25240E+004   -7.37798E+004    4.35048E+001    6.15581E+000   -2.14009E+003
            2819    8.00397E+007    7.99742E+007    7.99742E+007   -6.26881E+004   -6.84024E+004    8.00426E+007   -2.66144E+007    8.00397E+007    7.99742E+007   -6.83925E+004   -6.26979E+004   -1.60517E+001    5.02128E+001   -2.36790E+002
            2820    8.00473E+007    7.99688E+007    7.99688E+007   -7.39976E+004   -8.30208E+004    8.00518E+007   -2.66039E+007    8.00473E+007    7.99688E+007   -8.26701E+004   -7.43484E+004   -2.10355E+002    1.03953E+001    1.74413E+003
            2821    8.00663E+007    7.99560E+007    7.99560E+007   -1.03878E+005   -1.16680E+005    8.00727E+007   -2.65785E+007    8.00663E+007    7.99560E+007   -1.16380E+005   -1.04178E+005   -1.85113E+002    9.61254E+001    1.93747E+003
            2822    8.00893E+007    7.99401E+007    7.99401E+007   -1.40038E+005   -1.58299E+005    8.00984E+007   -2.65473E+007    8.00893E+007    7.99401E+007   -1.58090E+005   -1.40247E+005   -3.20893E+002    3.05333E+001    1.94471E+003
            2823    8.01089E+007    7.99269E+007    7.99269E+007   -1.68990E+005   -1.95102E+005    8.01220E+007   -2.65209E+007    8.01089E+007    7.99269E+007   -1.95004E+005   -1.69088E+005   -9.13638E+001    2.03492E+002   -1.59845E+003
            2824    8.01187E+007    7.99200E+007    7.99200E+007   -1.82224E+005   -2.15229E+005    8.01352E+007   -2.65075E+007    8.01187E+007    7.99200E+007   -2.09696E+005   -1.87757E+005   -2.69626E+002    8.28914E+001   -1.23283E+004
            2825    8.01200E+007    7.99194E+007    7.99194E+007   -1.82657E+005   -2.18429E+005    8.01379E+007   -2.65061E+007    8.01200E+007    7.99194E+007   -1.91511E+005   -2.09575E+005    4.09565E+002    9.91044E+002   -1.54377E+004
            2826    8.00415E+007    7.99733E+007    7.99733E+007   -6.51479E+004   -7.12637E+004    8.00445E+007   -2.66123E+007    8.00415E+007    7.99733E+007   -6.51998E+004   -7.12119E+004    1.16735E+002    2.45452E+001    5.60620E+002
            2827    8.00561E+007    7.99632E+007    7.99632E+007   -8.81574E+004   -9.76626E+004    8.00609E+007   -2.65925E+007    8.00561E+007    7.99632E+007   -8.83457E+004   -9.74743E+004    1.12306E+002   -2.72840E+002    1.32469E+003
            2828    8.00788E+007    7.99479E+007    7.99479E+007   -1.25071E+005   -1.36720E+005    8.00846E+007   -2.65620E+007    8.00788E+007    7.99479E+007   -1.25076E+005   -1.36715E+005    1.03551E+002   -1.63053E+002   -2.55132E+002
            2829    8.01011E+007    7.99325E+007    7.99325E+007   -1.63589E+005   -1.73708E+005    8.01062E+007   -2.65317E+007    8.01011E+007    7.99325E+007   -1.63597E+005   -1.73701E+005    7.60419E+001   -4.01382E+002   -2.83882E+002
            2830    8.01172E+007    7.99216E+007    7.99216E+007   -1.89027E+005   -2.02331E+005    8.01239E+007   -2.65101E+007    8.01172E+007    7.99216E+007   -1.89036E+005   -2.02321E+005    9.61802E+001   -1.17109E+002    3.51991E+002
            2831    8.01259E+007    7.99154E+007    7.99154E+007   -2.02894E+005   -2.17960E+005    8.01334E+007   -2.64982E+007    8.01259E+007    7.99154E+007   -2.02984E+005   -2.17871E+005    6.15328E+001   -3.15405E+002    1.15786E+003
            2832    8.01252E+007    7.99162E+007    7.99162E+007   -1.93562E+005   -2.24363E+005    8.01406E+007   -2.64994E+007    8.01252E+007    7.99162E+007   -1.93628E+005   -2.24296E+005    8.66828E+002    2.41573E+002   -1.42913E+003
            2833    8.00675E+007    7.99562E+007    7.99562E+007   -7.22379E+004   -1.50244E+005    8.01065E+007   -2.65779E+007    8.00674E+007    7.99562E+007   -7.28284E+004   -1.49654E+005   -3.75114E+002   -3.05041E+002   -6.76105E+003
            2834    8.00773E+007    7.99492E+007    7.99492E+007   -9.03140E+004   -1.65826E+005    8.01150E+007   -2.65644E+007    8.00772E+007    7.99492E+007   -9.10613E+004   -1.65078E+005   -3.30738E+002   -3.96032E+002   -7.47464E+003
            2835    8.00814E+007    7.99460E+007    7.99460E+007   -1.08499E+005   -1.62249E+005    8.01082E+007   -2.65584E+007    8.00813E+007    7.99460E+007   -1.09444E+005   -1.61303E+005   -5.23891E+001   -1.00817E+002   -7.06489E+003
            2836    8.00828E+007    7.99453E+007    7.99453E+007   -1.22791E+005   -1.52303E+005    8.00976E+007   -2.65567E+007    8.00828E+007    7.99453E+007   -1.23863E+005   -1.51230E+005   -3.46852E+002    1.92675E+002   -5.52187E+003
            2837    8.00728E+007    7.99519E+007    7.99519E+007   -8.31801E+004   -1.58640E+005    8.01105E+007   -2.65700E+007    8.00727E+007    7.99519E+007   -8.78544E+004   -1.53965E+005   -3.10484E+002    8.79518E+002   -1.81897E+004
            2838    8.00796E+007    7.99469E+007    7.99469E+007   -9.38048E+004   -1.71588E+005    8.01185E+007   -2.65605E+007    8.00796E+007    7.99469E+007   -1.00221E+005   -1.65171E+005   -2.32594E+002    8.08447E+002   -2.13992E+004
            2839    8.00827E+007    7.99447E+007    7.99447E+007   -1.08414E+005   -1.67572E+005    8.01122E+007   -2.65562E+007    8.00826E+007    7.99447E+007   -1.16478E+005   -1.59509E+005    2.35767E+001    4.84753E+002   -2.02974E+004
            2840    8.00832E+007    7.99447E+007    7.99447E+007   -1.20207E+005   -1.56813E+005    8.01015E+007   -2.65559E+007    8.00832E+007    7.99447E+007   -1.29153E+005   -1.47867E+005   -2.64929E+002   -1.13682E+002   -1.57303E+004
            2841    8.00827E+007    7.99456E+007    7.99456E+007   -1.00823E+005   -1.73430E+005    8.01190E+007   -2.65571E+007    8.00826E+007    7.99456E+007   -1.11699E+005   -1.62554E+005   -2.44657E+002    3.00797E+000   -2.59114E+004
            2842    8.00854E+007    7.99435E+007    7.99435E+007   -1.01728E+005   -1.82113E+005    8.01256E+007   -2.65532E+007    8.00853E+007    7.99435E+007   -1.18018E+005   -1.65824E+005   -2.39880E+002   -2.65745E+002   -3.23124E+004
            2843    8.00851E+007    7.99430E+007    7.99430E+007   -1.08325E+005   -1.75783E+005    8.01188E+007   -2.65530E+007    8.00851E+007    7.99430E+007   -1.28408E+005   -1.55699E+005    6.97085E+001    1.33169E+002   -3.08450E+004
            2844    8.00844E+007    7.99437E+007    7.99437E+007   -1.15874E+005   -1.65587E+005    8.01093E+007   -2.65541E+007    8.00844E+007    7.99437E+007   -1.38909E+005   -1.42552E+005   -6.64896E+000    1.96752E+002   -2.47895E+004
            2845    8.00937E+007    7.99359E+007    7.99359E+007   -1.24666E+005   -1.90983E+005    8.01269E+007   -2.65401E+007    8.00937E+007    7.99359E+007   -1.41019E+005   -1.74630E+005   -7.42202E+001    1.30385E+003   -2.85845E+004
            2846    8.00906E+007    7.99381E+007    7.99381E+007   -1.12220E+005   -1.92802E+005    8.01309E+007   -2.65444E+007    8.00906E+007    7.99381E+007   -1.39167E+005   -1.65855E+005    2.33958E+002    1.09600E+003   -3.80173E+004
            2847    8.00884E+007    7.99403E+007    7.99403E+007   -1.10381E+005   -1.85723E+005    8.01261E+007   -2.65481E+007    8.00883E+007    7.99403E+007   -1.43966E+005   -1.52138E+005    4.46998E+001    6.06982E+002   -3.74485E+004
            2848    8.00853E+007    7.99426E+007    7.99426E+007   -1.10539E+005   -1.74885E+005    8.01175E+007   -2.65524E+007    8.00852E+007    7.99426E+007   -1.50101E+005   -1.35323E+005    3.29463E+002   -9.99173E+001   -3.13133E+004
            2849    8.01048E+007    7.99303E+007    7.99303E+007   -1.44237E+005   -2.04728E+005    8.01350E+007   -2.65271E+007    8.01047E+007    7.99303E+007   -1.64097E+005   -1.84867E+005   -2.86767E+002   -5.06521E+002   -2.84067E+004
            2850    8.00981E+007    7.99342E+007    7.99342E+007   -1.25478E+005   -2.02309E+005    8.01365E+007   -2.65355E+007    8.00980E+007    7.99342E+007   -1.60392E+005   -1.67395E+005    2.37972E+002   -6.47070E+002   -3.82555E+004
            2851    8.00917E+007    7.99383E+007    7.99383E+007   -1.13747E+005   -1.93073E+005    8.01313E+007   -2.65438E+007    8.00916E+007    7.99383E+007   -1.58168E+005   -1.48652E+005   -1.41038E+002   -8.54159E+001   -3.93765E+004
            2852    8.00864E+007    7.99414E+007    7.99414E+007   -1.06883E+005   -1.83204E+005    8.01246E+007   -2.65504E+007    8.00864E+007    7.99414E+007   -1.60879E+005   -1.29208E+005    8.94072E+002    1.29124E+002   -3.47202E+004
            2853    8.01103E+007    7.99228E+007    7.99228E+007   -1.61643E+005   -2.13276E+005    8.01361E+007   -2.65160E+007    8.01103E+007    7.99228E+007   -1.84126E+005   -1.90792E+005   -1.79886E+001    1.80783E+003   -2.56004E+004
            2854    8.01033E+007    7.99288E+007    7.99288E+007   -1.41449E+005   -2.07512E+005    8.01363E+007   -2.65266E+007    8.01033E+007    7.99288E+007   -1.76724E+005   -1.72237E+005    1.50616E+003    1.36705E+003   -3.29553E+004
            2855    8.00963E+007    7.99361E+007    7.99361E+007   -1.22257E+005   -1.98211E+005    8.01343E+007   -2.65385E+007    8.00963E+007    7.99361E+007   -1.70739E+005   -1.49728E+005   -6.42042E+002   -5.73524E+000   -3.64950E+004
            2856    8.00862E+007    7.99406E+007    7.99406E+007   -1.06232E+005   -1.84945E+005    8.01256E+007   -2.65498E+007    8.00862E+007    7.99406E+007   -1.66716E+005   -1.24461E+005    1.20072E+003   -3.99231E+001   -3.32049E+004
            2857    8.01172E+007    7.99237E+007    7.99237E+007   -1.77277E+005   -2.09766E+005    8.01335E+007   -2.65122E+007    8.01172E+007    7.99237E+007   -1.93061E+005   -1.93982E+005   -2.66031E+003   -2.85042E+003   -1.62381E+004
            2858    8.01082E+007    7.99241E+007    7.99241E+007   -1.58050E+005   -2.10078E+005    8.01342E+007   -2.65187E+007    8.01081E+007    7.99241E+007   -1.89713E+005   -1.78415E+005    1.70704E+003   -7.93761E+001   -2.53933E+004
            2859    8.01009E+007    7.99335E+007    7.99335E+007   -1.37927E+005   -1.96812E+005    8.01303E+007   -2.65329E+007    8.01008E+007    7.99335E+007   -1.80976E+005   -1.53763E+005   -4.31798E+002   -3.20402E+002   -2.61100E+004
            2860    8.00871E+007    7.99402E+007    7.99402E+007   -1.15310E+005   -1.78469E+005    8.01187E+007   -2.65488E+007    8.00871E+007    7.99402E+007   -1.67043E+005   -1.26736E+005    1.18764E+003   -9.15140E+001   -2.43128E+004
            2861    8.00895E+007    7.99402E+007    7.99402E+007   -1.40073E+005   -1.58534E+005    8.00988E+007   -2.65472E+007    8.00895E+007    7.99402E+007   -1.58416E+005   -1.40191E+005    3.55015E+002   -2.33835E+002    1.47120E+003
            2862    8.01098E+007    7.99258E+007    7.99258E+007   -1.72184E+005   -1.95877E+005    8.01217E+007   -2.65192E+007    8.01098E+007    7.99258E+007   -1.95838E+005   -1.72224E+005    4.52970E+002   -7.72758E+001    9.69964E+002
            2863    8.01193E+007    7.99192E+007    7.99192E+007   -1.79222E+005   -2.21054E+005    8.01402E+007   -2.65063E+007    8.01193E+007    7.99192E+007   -2.20525E+005   -1.79752E+005    1.60785E+002   -1.93271E+001   -4.67719E+003
            2864    8.01198E+007    7.99186E+007    7.99186E+007   -1.64879E+005   -2.37447E+005    8.01561E+007   -2.65054E+007    8.01198E+007    7.99186E+007   -2.16357E+005   -1.85969E+005    2.81212E+002    8.79128E+002   -3.29495E+004
            2865    8.00442E+007    7.99720E+007    7.99720E+007   -6.60088E+004   -7.84265E+004    8.00504E+007   -2.66092E+007    8.00442E+007    7.99720E+007   -6.60548E+004   -7.83805E+004   -1.40119E+002    1.38222E+002    7.54256E+002
            2866    8.00577E+007    7.99626E+007    7.99626E+007   -8.76813E+004   -1.02560E+005    8.00652E+007   -2.65908E+007    8.00577E+007    7.99626E+007   -8.77328E+004   -1.02508E+005   -1.71854E+002    3.30517E+002    8.74049E+002
            2867    8.00788E+007    7.99477E+007    7.99477E+007   -1.22929E+005   -1.39331E+005    8.00870E+007   -2.65618E+007    8.00788E+007    7.99477E+007   -1.23063E+005   -1.39197E+005   -1.82562E+002    5.08327E+002    1.47510E+003
            2868    8.01001E+007    7.99328E+007    7.99328E+007   -1.57169E+005   -1.77482E+005    8.01102E+007   -2.65327E+007    8.01001E+007    7.99328E+007   -1.57266E+005   -1.77385E+005   -1.99358E+002    3.81951E+002    1.40065E+003
            2869    8.01176E+007    7.99203E+007    7.99203E+007   -1.83904E+005   -2.10718E+005    8.01310E+007   -2.65086E+007    8.01176E+007    7.99203E+007   -1.84025E+005   -2.10596E+005   -4.32837E+001    3.93804E+002    1.80336E+003
            2870    8.01226E+007    7.99167E+007    7.99167E+007   -1.81191E+005   -2.30717E+005    8.01474E+007   -2.65016E+007    8.01226E+007    7.99167E+007   -1.81569E+005   -2.30338E+005    4.49357E+001    8.97123E+001   -4.31406E+003
            2871    8.01206E+007    7.99181E+007    7.99181E+007   -1.63124E+005   -2.41808E+005    8.01599E+007   -2.65044E+007    8.01205E+007    7.99181E+007   -1.83700E+005   -2.21232E+005    9.03365E+002    1.93370E+002   -3.45777E+004
            2872    8.00667E+007    7.99559E+007    7.99559E+007   -1.03802E+005   -1.17821E+005    8.00737E+007   -2.65781E+007    8.00667E+007    7.99559E+007   -1.17390E+005   -1.04232E+005    4.25762E+002   -1.72447E+002    2.41770E+003
            2873    8.00478E+007    7.99693E+007    7.99693E+007   -7.35544E+004   -8.33542E+004    8.00527E+007   -2.66041E+007    8.00478E+007    7.99693E+007   -8.27829E+004   -7.41256E+004    1.85395E+002   -2.20396E+002    2.29598E+003
            2874    8.00398E+007    7.99745E+007    7.99745E+007   -6.26565E+004   -6.80118E+004    8.00425E+007   -2.66146E+007    8.00398E+007    7.99745E+007   -6.79797E+004   -6.26885E+004   -2.78671E+001   -1.36638E+002    4.12811E+002
            2875    8.00474E+007    7.99695E+007    7.99695E+007   -7.37165E+004   -8.20727E+004    8.00516E+007   -2.66046E+007    8.00474E+007    7.99695E+007   -8.16608E+004   -7.41284E+004   -2.35167E+002   -2.10916E+002   -1.80899E+003
            2876    8.00662E+007    7.99561E+007    7.99561E+007   -1.03884E+005   -1.16315E+005    8.00724E+007   -2.65786E+007    8.00662E+007    7.99561E+007   -1.15862E+005   -1.04336E+005   -4.42600E+002   -1.45524E+002   -2.32917E+003
            2877    8.00898E+007    7.99401E+007    7.99401E+007   -1.40704E+005   -1.58675E+005    8.00988E+007   -2.65469E+007    8.00898E+007    7.99401E+007   -1.58347E+005   -1.41031E+005   -3.21310E+002   -2.09837E+002   -2.40285E+003
            2878    8.01094E+007    7.99260E+007    7.99260E+007   -1.70197E+005   -1.96515E+005    8.01225E+007   -2.65198E+007    8.01094E+007    7.99260E+007   -1.96463E+005   -1.70249E+005   -4.51296E+002    1.15665E+001    1.17194E+003
            2879    8.01193E+007    7.99196E+007    7.99196E+007   -1.83102E+005   -2.16256E+005    8.01359E+007   -2.65067E+007    8.01193E+007    7.99196E+007   -2.10577E+005   -1.88780E+005   -2.40290E+001    4.72907E+001    1.24904E+004
            2880    8.01200E+007    7.99180E+007    7.99180E+007   -1.83388E+005   -2.20700E+005    8.01387E+007   -2.65046E+007    8.01200E+007    7.99180E+007   -1.93070E+005   -2.11018E+005   -7.23623E+002    1.32440E+003    1.63553E+004
            2881    8.00754E+007    7.99515E+007    7.99515E+007   -9.05611E+004   -1.57196E+005    8.01087E+007   -2.65679E+007    8.00754E+007    7.99515E+007   -1.51467E+005   -9.62900E+004    2.25978E+001   -1.33642E+002   -1.86794E+004
            2882    8.00804E+007    7.99480E+007    7.99480E+007   -9.24980E+004   -1.72335E+005    8.01203E+007   -2.65610E+007    8.00803E+007    7.99480E+007   -1.63707E+005   -1.01127E+005   -3.26610E+002   -5.63913E+002   -2.47882E+004
            2883    8.00826E+007    7.99459E+007    7.99459E+007   -1.01043E+005   -1.72205E+005    8.01181E+007   -2.65576E+007    8.00825E+007    7.99459E+007   -1.62458E+005   -1.10790E+005   -4.51349E+001    2.67453E+002   -2.44662E+004
            2884    8.00831E+007    7.99448E+007    7.99448E+007   -1.11147E+005   -1.65450E+005    8.01102E+007   -2.65561E+007    8.00831E+007    7.99448E+007   -1.55434E+005   -1.21163E+005   -4.47327E+001   -5.21622E+002   -2.10614E+004
            2885    8.00830E+007    7.99442E+007    7.99442E+007   -1.21291E+005   -1.56276E+005    8.01005E+007   -2.65555E+007    8.00830E+007    7.99442E+007   -1.46496E+005   -1.31071E+005    2.59918E+002    6.16790E+002   -1.57003E+004
            2886    8.00828E+007    7.99441E+007    7.99441E+007   -1.28790E+005   -1.48588E+005    8.00927E+007   -2.65556E+007    8.00828E+007    7.99441E+007   -1.38693E+005   -1.38686E+005    2.69821E+002   -4.63814E+002   -9.89896E+003
            2887    8.00826E+007    7.99441E+007    7.99441E+007   -1.33131E+005   -1.43844E+005    8.00880E+007   -2.65557E+007    8.00826E+007    7.99441E+007   -1.34227E+005   -1.42748E+005    3.14351E+002    5.86954E+002   -3.24568E+003
            2888    8.00645E+007    7.99570E+007    7.99570E+007   -7.39294E+004   -1.41081E+005    8.00981E+007   -2.65807E+007    8.00644E+007    7.99570E+007   -1.39557E+005   -7.54536E+004    5.29242E+002   -1.21311E+002   -1.00015E+004
            2889    8.00730E+007    7.99504E+007    7.99504E+007   -8.30097E+004   -1.62126E+005    8.01125E+007   -2.65684E+007    8.00729E+007    7.99504E+007   -1.60315E+005   -8.48201E+004    5.74538E+002   -5.58734E+002   -1.18303E+004
            2890    8.00789E+007    7.99470E+007    7.99470E+007   -9.80454E+004   -1.65740E+005    8.01127E+007   -2.65611E+007    8.00788E+007    7.99470E+007   -1.63904E+005   -9.98810E+004    4.86378E+002    3.03014E+002   -1.09950E+004
            2891    8.00811E+007    7.99457E+007    7.99457E+007   -1.11095E+005   -1.59774E+005    8.01055E+007   -2.65583E+007    8.00811E+007    7.99457E+007   -1.58401E+005   -1.12467E+005    1.39711E+002   -8.63947E+002   -8.05704E+003
            2892    8.00828E+007    7.99450E+007    7.99450E+007   -1.24018E+005   -1.51568E+005    8.00966E+007   -2.65565E+007    8.00828E+007    7.99450E+007   -1.50415E+005   -1.25171E+005   -3.36120E+001    6.44767E+002   -5.51512E+003
            2893    8.00834E+007    7.99454E+007    7.99454E+007   -1.32508E+005   -1.43528E+005    8.00889E+007   -2.65564E+007    8.00834E+007    7.99454E+007   -1.42704E+005   -1.33331E+005   -2.54661E+002   -8.41476E+002   -2.89837E+003
            2894    8.00836E+007    7.99453E+007    7.99453E+007   -1.37170E+005   -1.39391E+005    8.00847E+007   -2.65563E+007    8.00836E+007    7.99453E+007   -1.38434E+005   -1.38126E+005   -2.88827E+002    7.53443E+002   -1.09972E+003
            2895    8.00623E+007    7.99608E+007    7.99608E+007   -6.72016E+004   -1.35824E+005    8.00966E+007   -2.65859E+007    8.00622E+007    7.99608E+007   -1.35810E+005   -6.72156E+004   -2.07654E+002   -1.24714E+002    9.79883E+002
            2896    8.00733E+007    7.99531E+007    7.99531E+007   -8.04902E+004   -1.59696E+005    8.01128E+007   -2.65710E+007    8.00732E+007    7.99531E+007   -1.59616E+005   -8.05699E+004   -3.08582E+002   -6.87923E+002    2.51131E+003
            2897    8.00793E+007    7.99486E+007    7.99486E+007   -9.65199E+004   -1.64780E+005    8.01134E+007   -2.65625E+007    8.00792E+007    7.99486E+007   -1.64475E+005   -9.68246E+004   -2.56258E+002    3.26723E+002    4.55084E+003
            2898    8.00815E+007    7.99462E+007    7.99462E+007   -1.10958E+005   -1.59574E+005    8.01058E+007   -2.65586E+007    8.00815E+007    7.99462E+007   -1.58957E+005   -1.11576E+005   -1.29567E+002   -8.14903E+002    5.44601E+003
            2899    8.00823E+007    7.99446E+007    7.99446E+007   -1.23741E+005   -1.51677E+005    8.00962E+007   -2.65564E+007    8.00823E+007    7.99446E+007   -1.50521E+005   -1.24897E+005    1.90019E+001    7.84802E+002    5.56261E+003
            2900    8.00823E+007    7.99441E+007    7.99441E+007   -1.32522E+005   -1.43870E+005    8.00880E+007   -2.65559E+007    8.00823E+007    7.99441E+007   -1.42429E+005   -1.33963E+005    1.10501E+002   -7.48555E+002    3.77850E+003
            2901    8.00821E+007    7.99437E+007    7.99437E+007   -1.36775E+005   -1.39996E+005    8.00837E+007   -2.65556E+007    8.00821E+007    7.99437E+007   -1.37879E+005   -1.38893E+005    1.44430E+002    8.12629E+002    1.52869E+003
            2902    8.00649E+007    7.99567E+007    7.99567E+007   -7.52095E+004   -1.41177E+005    8.00979E+007   -2.65801E+007    8.00648E+007    7.99567E+007   -1.39113E+005   -7.72734E+004   -2.94292E+002   -1.04995E+002    1.14842E+004
            2903    8.00742E+007    7.99495E+007    7.99495E+007   -8.49134E+004   -1.64293E+005    8.01138E+007   -2.65668E+007    8.00741E+007    7.99495E+007   -1.60690E+005   -8.85163E+004   -1.86316E+002   -5.12276E+002    1.65232E+004
            2904    8.00800E+007    7.99460E+007    7.99460E+007   -9.89432E+004   -1.68944E+005    8.01149E+007   -2.65594E+007    8.00799E+007    7.99460E+007   -1.63411E+005   -1.04476E+005   -2.54088E+002    3.32326E+002    1.88859E+004
            2905    8.00822E+007    7.99449E+007    7.99449E+007   -1.10382E+005   -1.64324E+005    8.01092E+007   -2.65567E+007    8.00822E+007    7.99449E+007   -1.56915E+005   -1.17791E+005   -1.19601E+002   -7.55686E+002    1.85682E+004
            2906    8.00834E+007    7.99446E+007    7.99446E+007   -1.21219E+005   -1.56461E+005    8.01010E+007   -2.65556E+007    8.00834E+007    7.99446E+007   -1.47197E+005   -1.30482E+005   -1.42300E+002    6.31869E+002    1.55131E+004
            2907    8.00838E+007    7.99454E+007    7.99454E+007   -1.27877E+005   -1.48936E+005    8.00943E+007   -2.65562E+007    8.00838E+007    7.99454E+007   -1.38130E+005   -1.38682E+005    1.25649E+001   -7.16871E+002    1.05255E+004
            2908    8.00836E+007    7.99455E+007    7.99455E+007   -1.31856E+005   -1.44387E+005    8.00899E+007   -2.65564E+007    8.00836E+007    7.99455E+007   -1.32899E+005   -1.43344E+005    4.30678E+001    6.60058E+002    3.46195E+003
            2909    8.00766E+007    7.99503E+007    7.99503E+007   -9.41024E+004   -1.58471E+005    8.01088E+007   -2.65659E+007    8.00766E+007    7.99503E+007   -1.52097E+005   -1.00476E+005   -4.28736E+002   -1.28616E+002    1.92262E+004
            2910    8.00824E+007    7.99465E+007    7.99465E+007   -9.61461E+004   -1.75658E+005    8.01221E+007   -2.65582E+007    8.00823E+007    7.99465E+007   -1.64234E+005   -1.07570E+005   -2.06292E+002   -4.78548E+002    2.78897E+004
            2911    8.00849E+007    7.99441E+007    7.99441E+007   -1.03340E+005   -1.78224E+005    8.01223E+007   -2.65542E+007    8.00848E+007    7.99441E+007   -1.62530E+005   -1.19034E+005   -3.62658E+002    2.68028E+002    3.04791E+004
            2912    8.00850E+007    7.99436E+007    7.99436E+007   -1.10530E+005   -1.72417E+005    8.01160E+007   -2.65535E+007    8.00850E+007    7.99436E+007   -1.52850E+005   -1.30098E+005   -8.80045E+001   -3.13155E+002    2.87764E+004
            2913    8.00838E+007    7.99433E+007    7.99433E+007   -1.16451E+005   -1.64583E+005    8.01079E+007   -2.65541E+007    8.00838E+007    7.99433E+007   -1.40909E+005   -1.40125E+005   -1.85714E+002    5.83230E+002    2.40626E+004
            2914    8.00827E+007    7.99441E+007    7.99441E+007   -1.20747E+005   -1.56580E+005    8.01006E+007   -2.65556E+007    8.00827E+007    7.99441E+007   -1.29958E+005   -1.47368E+005   -7.74022E+001   -2.03742E+002    1.56596E+004
            2915    8.00817E+007    7.99442E+007    7.99442E+007   -1.22753E+005   -1.52285E+005    8.00965E+007   -2.65564E+007    8.00817E+007    7.99442E+007   -1.23815E+005   -1.51223E+005   -1.21700E+002    4.43181E+002    5.49689E+003
            2916    8.00886E+007    7.99392E+007    7.99392E+007   -1.19057E+005   -1.79730E+005    8.01190E+007   -2.65468E+007    8.00886E+007    7.99392E+007   -1.67791E+005   -1.30996E+005   -8.25479E+002   -9.73403E+001    2.41213E+004
            2917    8.00890E+007    7.99387E+007    7.99387E+007   -1.11994E+005   -1.88527E+005    8.01272E+007   -2.65461E+007    8.00889E+007    7.99387E+007   -1.67751E+005   -1.32770E+005   -6.78010E+002    1.07591E+002    3.40353E+004
            2918    8.00888E+007    7.99393E+007    7.99393E+007   -1.10918E+005   -1.88135E+005    8.01274E+007   -2.65467E+007    8.00887E+007    7.99393E+007   -1.60816E+005   -1.38237E+005   -6.16437E+002    7.93361E+001    3.69212E+004
            2919    8.00875E+007    7.99410E+007    7.99410E+007   -1.10855E+005   -1.82177E+005    8.01231E+007   -2.65493E+007    8.00874E+007    7.99410E+007   -1.48095E+005   -1.44937E+005   -2.36874E+002    1.93157E+002    3.56259E+004
            2920    8.00852E+007    7.99432E+007    7.99432E+007   -1.10917E+005   -1.72954E+005    8.01162E+007   -2.65531E+007    8.00851E+007    7.99432E+007   -1.32458E+005   -1.51413E+005    1.49929E+001    8.87151E+001    2.95352E+004
            2921    8.00831E+007    7.99454E+007    7.99454E+007   -1.10745E+005   -1.64609E+005    8.01100E+007   -2.65567E+007    8.00831E+007    7.99454E+007   -1.19218E+005   -1.56135E+005    3.03490E+002    1.47739E+002    1.96119E+004
            2922    8.00817E+007    7.99466E+007    7.99466E+007   -1.10483E+005   -1.59718E+005    8.01063E+007   -2.65588E+007    8.00816E+007    7.99466E+007   -1.11395E+005   -1.58806E+005    4.16355E+002   -2.58072E+001    6.63947E+003
            2923    8.01026E+007    7.99321E+007    7.99321E+007   -1.43208E+005   -1.97765E+005    8.01299E+007   -2.65304E+007    8.01026E+007    7.99321E+007   -1.80534E+005   -1.60439E+005    4.08179E+001   -3.98909E+002    2.53601E+004
            2924    8.00993E+007    7.99343E+007    7.99343E+007   -1.30434E+005   -1.99549E+005    8.01338E+007   -2.65348E+007    8.00992E+007    7.99343E+007   -1.72503E+005   -1.57479E+005    2.51412E+002    2.37880E+002    3.37312E+004
            2925    8.00950E+007    7.99364E+007    7.99364E+007   -1.20076E+005   -1.97053E+005    8.01335E+007   -2.65398E+007    8.00950E+007    7.99364E+007   -1.60819E+005   -1.56310E+005    9.69829E+001   -3.25766E+002    3.84223E+004
            2926    8.00901E+007    7.99391E+007    7.99391E+007   -1.12456E+005   -1.89462E+005    8.01286E+007   -2.65457E+007    8.00900E+007    7.99391E+007   -1.43082E+005   -1.58836E+005   -3.53759E+001    8.96886E+002    3.76890E+004
            2927    8.00854E+007    7.99430E+007    7.99430E+007   -1.05399E+005   -1.79438E+005    8.01224E+007   -2.65527E+007    8.00854E+007    7.99430E+007   -1.24004E+005   -1.60833E+005    3.38251E+001    2.88144E+001    3.21145E+004
            2928    8.00809E+007    7.99458E+007    7.99458E+007   -9.99966E+004   -1.70031E+005    8.01158E+007   -2.65586E+007    8.00808E+007    7.99458E+007   -1.07281E+005   -1.62747E+005    2.23896E+001    7.62025E+002    2.13805E+004
            2929    8.00785E+007    7.99479E+007    7.99479E+007   -9.67527E+004   -1.64412E+005    8.01123E+007   -2.65622E+007    8.00784E+007    7.99479E+007   -9.75885E+004   -1.63577E+005    9.23553E+001   -2.18272E+002    7.47370E+003
            2930    8.01095E+007    7.99234E+007    7.99234E+007   -1.67397E+005   -2.04886E+005    8.01283E+007   -2.65170E+007    8.01095E+007    7.99234E+007   -1.87539E+005   -1.84744E+005   -1.14540E+003   -4.08469E+002    1.86923E+004
            2931    8.01057E+007    7.99267E+007    7.99267E+007   -1.50424E+005   -2.07704E+005    8.01344E+007   -2.65228E+007    8.01057E+007    7.99267E+007   -1.80464E+005   -1.77664E+005   -1.24759E+003    1.70416E+003    2.86056E+004
            2932    8.01006E+007    7.99327E+007    7.99327E+007   -1.33484E+005   -2.02182E+005    8.01349E+007   -2.65324E+007    8.01005E+007    7.99327E+007   -1.63255E+005   -1.72411E+005   -8.05131E+001   -8.28195E+002    3.40426E+004
            2933    8.00922E+007    7.99370E+007    7.99370E+007   -1.17842E+005   -1.92601E+005    8.01296E+007   -2.65422E+007    8.00921E+007    7.99370E+007   -1.42116E+005   -1.68327E+005   -1.45834E+002    1.24308E+003    3.50072E+004
            2934    8.00849E+007    7.99443E+007    7.99443E+007   -1.01680E+005   -1.79492E+005    8.01237E+007   -2.65544E+007    8.00848E+007    7.99443E+007   -1.16449E+005   -1.64723E+005    2.75362E+002   -4.02585E+002    3.05132E+004
            2935    8.00771E+007    7.99489E+007    7.99489E+007   -8.94825E+004   -1.66976E+005    8.01159E+007   -2.65641E+007    8.00771E+007    7.99489E+007   -9.53887E+004   -1.61070E+005    2.97851E+002    8.91620E+002    2.05624E+004
            2936    8.00732E+007    7.99525E+007    7.99525E+007   -8.15954E+004   -1.59612E+005    8.01121E+007   -2.65704E+007    8.00731E+007    7.99525E+007   -8.22956E+004   -1.58912E+005    3.89622E+002   -4.66671E+002    7.35771E+003
            2937    8.01202E+007    7.99225E+007    7.99225E+007   -1.86450E+005   -2.08909E+005    8.01314E+007   -2.65091E+007    8.01202E+007    7.99225E+007   -1.97170E+005   -1.98189E+005    2.27616E+003   -2.86047E+003    1.12179E+004
            2938    8.01127E+007    7.99217E+007    7.99217E+007   -1.73097E+005   -2.08861E+005    8.01306E+007   -2.65132E+007    8.01127E+007    7.99217E+007   -1.86778E+005   -1.95180E+005    5.68634E+001    1.61578E+003    1.73810E+004
            2939    8.01075E+007    7.99288E+007    7.99288E+007   -1.55077E+005   -2.02371E+005    8.01311E+007   -2.65238E+007    8.01075E+007    7.99288E+007   -1.72054E+005   -1.85394E+005    2.01815E+002   -4.84878E+002    2.26868E+004
            2940    8.00947E+007    7.99355E+007    7.99355E+007   -1.31091E+005   -1.87374E+005    8.01228E+007   -2.65390E+007    8.00947E+007    7.99355E+007   -1.45594E+005   -1.72871E+005    1.27466E+002    1.24768E+003    2.46161E+004
            2941    8.00823E+007    7.99460E+007    7.99460E+007   -1.05489E+005   -1.67116E+005    8.01131E+007   -2.65578E+007    8.00822E+007    7.99460E+007   -1.15211E+005   -1.57394E+005    2.09131E+002    5.68549E+001    2.24637E+004
            2942    8.00696E+007    7.99542E+007    7.99542E+007   -8.25170E+004   -1.48440E+005    8.01026E+007   -2.65744E+007    8.00696E+007    7.99542E+007   -8.67658E+004   -1.44191E+005    3.08984E+002    8.65540E+002    1.61878E+004
            2943    8.00627E+007    7.99597E+007    7.99597E+007   -6.93658E+004   -1.36715E+005    8.00964E+007   -2.65845E+007    8.00627E+007    7.99597E+007   -6.98715E+004   -1.36209E+005    3.44226E+002   -2.42245E+002    5.81395E+003
            2944    8.00422E+007    7.99735E+007    7.99735E+007   -6.57593E+004   -7.16602E+004    8.00452E+007   -2.66120E+007    8.00422E+007    7.99735E+007   -6.58426E+004   -7.15770E+004    9.55504E+001    2.19964E+002   -6.96054E+002
            2945    8.00566E+007    7.99635E+007    7.99635E+007   -8.83617E+004   -9.78942E+004    8.00614E+007   -2.65924E+007    8.00566E+007    7.99635E+007   -8.85326E+004   -9.77234E+004    1.52334E+002    2.44461E+002   -1.26461E+003
            2946    8.00787E+007    7.99480E+007    7.99480E+007   -1.24783E+005   -1.36621E+005    8.00846E+007   -2.65622E+007    8.00787E+007    7.99480E+007   -1.24789E+005   -1.36616E+005    1.83784E+002    5.16788E+002    2.58318E+002
            2947    8.01004E+007    7.99328E+007    7.99328E+007   -1.62354E+005   -1.72699E+005    8.01055E+007   -2.65326E+007    8.01004E+007    7.99328E+007   -1.62379E+005   -1.72675E+005    2.15766E+002    2.42651E+002    4.98800E+002
            2948    8.01161E+007    7.99215E+007    7.99215E+007   -1.88216E+005   -2.00956E+005    8.01225E+007   -2.65108E+007    8.01161E+007    7.99215E+007   -1.88216E+005   -2.00955E+005    8.38774E+001    4.06203E+002   -7.91737E+001
            2949    8.01249E+007    7.99154E+007    7.99154E+007   -2.02566E+005   -2.16293E+005    8.01317E+007   -2.64989E+007    8.01249E+007    7.99154E+007   -2.02678E+005   -2.16181E+005    4.00667E+001   -9.01189E+000   -1.23544E+003
            2950    8.01246E+007    7.99150E+007    7.99150E+007   -1.94668E+005   -2.24520E+005    8.01396E+007   -2.64986E+007    8.01246E+007    7.99150E+007   -1.94849E+005   -2.24339E+005   -1.06385E+003    4.32113E+002    2.31537E+003
            2951    8.01199E+007    7.99187E+007    7.99187E+007   -1.64197E+005   -2.38261E+005    8.01570E+007   -2.65054E+007    8.01199E+007    7.99187E+007   -2.16151E+005   -1.86307E+005    2.33392E+002   -9.05505E+002    3.38926E+004
            2952    8.01197E+007    7.99191E+007    7.99191E+007   -1.78911E+005   -2.22406E+005    8.01415E+007   -2.65059E+007    8.01197E+007    7.99191E+007   -2.21797E+005   -1.79520E+005    2.41986E+002    8.07276E+001    5.11101E+003
            2953    8.01104E+007    7.99256E+007    7.99256E+007   -1.72628E+005   -1.97044E+005    8.01226E+007   -2.65186E+007    8.01104E+007    7.99256E+007   -1.96999E+005   -1.72674E+005    3.85636E+002    6.19487E+001   -1.05509E+003
            2954    8.00898E+007    7.99402E+007    7.99402E+007   -1.40217E+005   -1.59033E+005    8.00992E+007   -2.65470E+007    8.00898E+007    7.99402E+007   -1.58883E+005   -1.40366E+005    4.07230E+002    2.63753E+002   -1.66898E+003
            2955    8.00874E+007    7.99403E+007    7.99403E+007   -1.15050E+005   -1.79060E+005    8.01194E+007   -2.65487E+007    8.00873E+007    7.99403E+007   -1.67378E+005   -1.26732E+005    1.08627E+003    1.05146E+002    2.47246E+004
            2956    8.00865E+007    7.99407E+007    7.99407E+007   -1.06292E+005   -1.85244E+005    8.01259E+007   -2.65497E+007    8.00864E+007    7.99407E+007   -1.66820E+005   -1.24716E+005    1.07927E+003    1.25888E+002    3.33940E+004
            2957    8.00865E+007    7.99414E+007    7.99414E+007   -1.07040E+005   -1.83051E+005    8.01245E+007   -2.65504E+007    8.00864E+007    7.99414E+007   -1.60555E+005   -1.29536E+005    8.71952E+002   -1.60654E+002    3.46962E+004
            2958    8.00854E+007    7.99427E+007    7.99427E+007   -1.10734E+005   -1.74511E+005    8.01172E+007   -2.65525E+007    8.00853E+007    7.99427E+007   -1.49877E+005   -1.35368E+005    3.45956E+002    2.11958E+002    3.10522E+004
            2959    8.00843E+007    7.99436E+007    7.99436E+007   -1.16050E+005   -1.65416E+005    8.01090E+007   -2.65540E+007    8.00843E+007    7.99436E+007   -1.38596E+005   -1.42870E+005    1.45444E+002   -2.57480E+002    2.45905E+004
            2960    8.00834E+007    7.99448E+007    7.99448E+007   -1.20264E+005   -1.56819E+005    8.01016E+007   -2.65559E+007    8.00834E+007    7.99448E+007   -1.28983E+005   -1.48100E+005   -1.66501E+002    1.72576E+002    1.55787E+004
            2961    8.00827E+007    7.99451E+007    7.99451E+007   -1.22792E+005   -1.52277E+005    8.00974E+007   -2.65567E+007    8.00826E+007    7.99451E+007   -1.23844E+005   -1.51225E+005   -2.90314E+002   -2.05804E+002    5.46994E+003
            2962    8.01012E+007    7.99334E+007    7.99334E+007   -1.37869E+005   -1.97542E+005    8.01310E+007   -2.65327E+007    8.01011E+007    7.99334E+007   -1.81243E+005   -1.54168E+005   -3.24568E+002    3.22916E+002    2.65889E+004
            2963    8.00964E+007    7.99361E+007    7.99361E+007   -1.22085E+005   -1.98413E+005    8.01346E+007   -2.65385E+007    8.00963E+007    7.99361E+007   -1.70472E+005   -1.50026E+005   -5.59083E+002    9.53970E+001    3.67691E+004
            2964    8.00917E+007    7.99382E+007    7.99382E+007   -1.13719E+005   -1.93035E+005    8.01313E+007   -2.65438E+007    8.00916E+007    7.99382E+007   -1.57675E+005   -1.49080E+005   -7.78505E+001    4.99245E+001    3.94246E+004
            2965    8.00884E+007    7.99405E+007    7.99405E+007   -1.10210E+005   -1.85410E+005    8.01259E+007   -2.65483E+007    8.00883E+007    7.99405E+007   -1.43272E+005   -1.52349E+005    1.65654E+001   -5.04309E+002    3.73251E+004
            2966    8.00849E+007    7.99431E+007    7.99431E+007   -1.08258E+005   -1.75334E+005    8.01184E+007   -2.65532E+007    8.00848E+007    7.99431E+007   -1.28052E+005   -1.55539E+005    2.92156E+000   -1.48393E+002    3.05930E+004
            2967    8.00826E+007    7.99448E+007    7.99448E+007   -1.08193E+005   -1.67424E+005    8.01122E+007   -2.65564E+007    8.00826E+007    7.99448E+007   -1.16089E+005   -1.59528E+005   -4.23140E+001   -4.62706E+002    2.01327E+004
            2968    8.00813E+007    7.99459E+007    7.99459E+007   -1.08414E+005   -1.62273E+005    8.01082E+007   -2.65584E+007    8.00812E+007    7.99459E+007   -1.09322E+005   -1.61365E+005   -6.54865E+001    7.02893E+001    6.93346E+003
            2969    8.01084E+007    7.99241E+007    7.99241E+007   -1.58206E+005   -2.10370E+005    8.01345E+007   -2.65185E+007    8.01084E+007    7.99241E+007   -1.89684E+005   -1.78892E+005    1.67552E+003    1.72490E+002    2.55176E+004
            2970    8.01034E+007    7.99289E+007    7.99289E+007   -1.41430E+005   -2.07450E+005    8.01364E+007   -2.65267E+007    8.01033E+007    7.99289E+007   -1.76332E+005   -1.72548E+005    1.43359E+003   -1.30856E+003    3.29558E+004
            2971    8.00979E+007    7.99344E+007    7.99344E+007   -1.25097E+005   -2.02035E+005    8.01364E+007   -2.65357E+007    8.00979E+007    7.99344E+007   -1.59664E+005   -1.67468E+005    2.52506E+002    7.14353E+002    3.82709E+004
            2972    8.00904E+007    7.99382E+007    7.99382E+007   -1.11841E+005   -1.92375E+005    8.01306E+007   -2.65447E+007    8.00903E+007    7.99382E+007   -1.38527E+005   -1.65689E+005    2.96664E+002   -1.10607E+003    3.79077E+004
            2973    8.00854E+007    7.99435E+007    7.99435E+007   -1.01619E+005   -1.82066E+005    8.01256E+007   -2.65533E+007    8.00853E+007    7.99435E+007   -1.17871E+005   -1.65814E+005   -1.53155E+002    2.86812E+002    3.23000E+004
            2974    8.00796E+007    7.99469E+007    7.99469E+007   -9.37106E+004   -1.71569E+005    8.01185E+007   -2.65606E+007    8.00795E+007    7.99469E+007   -1.00136E+005   -1.65144E+005   -1.74143E+002   -8.25185E+002    2.14235E+004
            2975    8.00772E+007    7.99493E+007    7.99493E+007   -9.01048E+004   -1.65748E+005    8.01150E+007   -2.65645E+007    8.00771E+007    7.99493E+007   -9.08415E+004   -1.65011E+005   -3.15445E+002    3.77901E+002    7.42862E+003
            2976    8.01173E+007    7.99237E+007    7.99237E+007   -1.77529E+005   -2.09727E+005    8.01334E+007   -2.65122E+007    8.01173E+007    7.99237E+007   -1.93500E+005   -1.93757E+005   -2.54993E+003    2.88593E+003    1.60984E+004
            2977    8.01103E+007    7.99230E+007    7.99230E+007   -1.61382E+005   -2.13111E+005    8.01361E+007   -2.65162E+007    8.01102E+007    7.99230E+007   -1.83606E+005   -1.90887E+005    5.75364E+001   -1.71367E+003    2.56073E+004
            2978    8.01046E+007    7.99304E+007    7.99304E+007   -1.44087E+005   -2.04176E+005    8.01346E+007   -2.65274E+007    8.01045E+007    7.99304E+007   -1.63512E+005   -1.84751E+005   -2.35021E+002    5.88092E+002    2.81046E+004
            2979    8.00934E+007    7.99360E+007    7.99360E+007   -1.24459E+005   -1.90359E+005    8.01264E+007   -2.65404E+007    8.00934E+007    7.99360E+007   -1.40609E+005   -1.74209E+005   -5.49430E+001   -1.29385E+003    2.83452E+004
            2980    8.00823E+007    7.99457E+007    7.99457E+007   -1.00457E+005   -1.72610E+005    8.01183E+007   -2.65576E+007    8.00822E+007    7.99457E+007   -1.11295E+005   -1.61771E+005   -2.28739E+002    2.13816E+001    2.57792E+004
            2981    8.00725E+007    7.99519E+007    7.99519E+007   -8.27923E+004   -1.58188E+005    8.01101E+007   -2.65703E+007    8.00724E+007    7.99519E+007   -8.75896E+004   -1.53391E+005   -2.92450E+002   -9.35265E+002    1.84033E+004
            2982    8.00674E+007    7.99562E+007    7.99562E+007   -7.22259E+004   -1.50146E+005    8.01064E+007   -2.65780E+007    8.00674E+007    7.99562E+007   -7.28848E+004   -1.49487E+005   -3.66414E+002    2.55025E+002    7.13493E+003
            2983    8.00444E+007    7.99719E+007    7.99719E+007   -6.63413E+004   -7.86995E+004    8.00506E+007   -2.66089E+007    8.00444E+007    7.99719E+007   -6.64036E+004   -7.86373E+004   -1.31844E+002   -1.90680E+002   -8.74841E+002
            2984    8.00578E+007    7.99625E+007    7.99625E+007   -8.78318E+004   -1.02818E+005    8.00653E+007   -2.65906E+007    8.00578E+007    7.99625E+007   -8.79185E+004   -1.02732E+005   -1.71213E+002   -3.48994E+002   -1.13640E+003
            2985    8.00786E+007    7.99477E+007    7.99477E+007   -1.22467E+005   -1.39381E+005    8.00871E+007   -2.65620E+007    8.00786E+007    7.99477E+007   -1.22568E+005   -1.39279E+005   -1.62090E+002   -5.15517E+002   -1.30679E+003
            2986    8.00997E+007    7.99329E+007    7.99329E+007   -1.56641E+005   -1.76859E+005    8.01098E+007   -2.65331E+007    8.00997E+007    7.99329E+007   -1.56680E+005   -1.76820E+005   -1.68613E+002   -3.60430E+002   -8.90775E+002
            2987    8.01170E+007    7.99207E+007    7.99207E+007   -1.83276E+005   -2.09339E+005    8.01301E+007   -2.65094E+007    8.01170E+007    7.99207E+007   -1.83373E+005   -2.09241E+005   -1.83335E+001   -3.43995E+002   -1.58952E+003
            2988    8.01225E+007    7.99168E+007    7.99168E+007   -1.81773E+005   -2.29619E+005    8.01464E+007   -2.65018E+007    8.01224E+007    7.99168E+007   -1.82134E+005   -2.29258E+005    5.16255E+001   -9.90479E+001    4.14174E+003
            2989    8.01206E+007    7.99182E+007    7.99182E+007   -1.63675E+005   -2.40871E+005    8.01591E+007   -2.65046E+007    8.01205E+007    7.99182E+007   -1.83379E+005   -2.21168E+005    9.46302E+002   -6.22749E+001    3.36571E+004
            2990    8.00627E+007    7.99597E+007    7.99597E+007   -6.93589E+004   -1.36613E+005    8.00963E+007   -2.65846E+007    8.00626E+007    7.99597E+007   -6.98621E+004   -1.36110E+005    3.45190E+002    2.70472E+002   -5.79552E+003
            2991    8.00731E+007    7.99525E+007    7.99525E+007   -8.15663E+004   -1.59604E+005    8.01121E+007   -2.65704E+007    8.00730E+007    7.99525E+007   -8.23304E+004   -1.58840E+005    4.13952E+002    4.87294E+002   -7.68391E+003
            2992    8.00786E+007    7.99479E+007    7.99479E+007   -9.67112E+004   -1.64560E+005    8.01125E+007   -2.65622E+007    8.00785E+007    7.99479E+007   -9.76485E+004   -1.63623E+005    9.59429E+001    2.31263E+002   -7.91939E+003
            2993    8.00818E+007    7.99466E+007    7.99466E+007   -1.10467E+005   -1.59944E+005    8.01066E+007   -2.65587E+007    8.00818E+007    7.99466E+007   -1.11543E+005   -1.58867E+005    4.27009E+002    3.76237E+001   -7.21700E+003
            2994    8.00820E+007    7.99444E+007    7.99444E+007   -1.22729E+005   -1.52408E+005    8.00968E+007   -2.65564E+007    8.00820E+007    7.99444E+007   -1.23972E+005   -1.51165E+005   -1.10785E+002   -4.10256E+002   -5.94663E+003
            2995    8.00837E+007    7.99455E+007    7.99455E+007   -1.31775E+005   -1.44518E+005    8.00900E+007   -2.65564E+007    8.00837E+007    7.99455E+007   -1.32979E+005   -1.43314E+005    8.29429E+001   -6.57042E+002   -3.72709E+003
            2996    8.00822E+007    7.99438E+007    7.99438E+007   -1.36701E+005   -1.40046E+005    8.00839E+007   -2.65557E+007    8.00822E+007    7.99438E+007   -1.37928E+005   -1.38820E+005    1.04832E+002   -7.93951E+002   -1.61169E+003
            2997    8.00835E+007    7.99452E+007    7.99452E+007   -1.37192E+005   -1.39379E+005    8.00846E+007   -2.65562E+007    8.00835E+007    7.99452E+007   -1.38430E+005   -1.38140E+005   -2.26519E+002   -7.58443E+002    1.08410E+003
            2998    8.00825E+007    7.99440E+007    7.99440E+007   -1.33125E+005   -1.43798E+005    8.00878E+007   -2.65557E+007    8.00825E+007    7.99440E+007   -1.34188E+005   -1.42735E+005    2.73755E+002   -5.97948E+002    3.19560E+003
            2999    8.00699E+007    7.99541E+007    7.99541E+007   -8.30030E+004   -1.48611E+005    8.01027E+007   -2.65742E+007    8.00699E+007    7.99541E+007   -8.73108E+004   -1.44304E+005    2.77705E+002   -8.22921E+002   -1.62503E+004
            3000    8.00773E+007    7.99488E+007    7.99488E+007   -8.97552E+004   -1.67195E+005    8.01160E+007   -2.65640E+007    8.00772E+007    7.99488E+007   -9.58753E+004   -1.61075E+005    3.48027E+002   -8.63041E+002   -2.08922E+004
            3001    8.00811E+007    7.99457E+007    7.99457E+007   -1.00232E+005   -1.70559E+005    8.01163E+007   -2.65583E+007    8.00811E+007    7.99457E+007   -1.07978E+005   -1.62813E+005   -2.56738E+001   -7.48206E+002   -2.20170E+004
            3002    8.00831E+007    7.99451E+007    7.99451E+007   -1.10899E+005   -1.64955E+005    8.01101E+007   -2.65564E+007    8.00830E+007    7.99451E+007   -1.19958E+005   -1.55896E+005    3.87248E+002   -1.84517E+002   -2.01893E+004
            3003    8.00827E+007    7.99439E+007    7.99439E+007   -1.20777E+005   -1.56765E+005    8.01007E+007   -2.65555E+007    8.00827E+007    7.99439E+007   -1.30591E+005   -1.46951E+005   -2.03653E+002    1.30268E+002   -1.60279E+004
            3004    8.00836E+007    7.99452E+007    7.99452E+007   -1.27770E+005   -1.49038E+005    8.00943E+007   -2.65561E+007    8.00836E+007    7.99452E+007   -1.38486E+005   -1.38321E+005    1.24171E+002    6.99127E+002   -1.06338E+004
            3005    8.00823E+007    7.99442E+007    7.99442E+007   -1.32419E+005   -1.43907E+005    8.00881E+007   -2.65560E+007    8.00823E+007    7.99442E+007   -1.42530E+005   -1.33795E+005   -3.63894E+001    7.20294E+002   -3.73105E+003
            3006    8.00834E+007    7.99453E+007    7.99453E+007   -1.32503E+005   -1.43578E+005    8.00889E+007   -2.65564E+007    8.00834E+007    7.99453E+007   -1.42697E+005   -1.33384E+005   -1.17449E+002    8.60420E+002    2.99636E+003
            3007    8.00829E+007    7.99443E+007    7.99443E+007   -1.28646E+005   -1.48601E+005    8.00929E+007   -2.65557E+007    8.00829E+007    7.99443E+007   -1.38347E+005   -1.38900E+005    1.15857E+002    5.11302E+002    9.97353E+003
            3008    8.00828E+007    7.99457E+007    7.99457E+007   -1.06564E+005   -1.67754E+005    8.01134E+007   -2.65571E+007    8.00828E+007    7.99457E+007   -1.16341E+005   -1.57977E+005    2.05167E+002   -7.82217E+001   -2.24199E+004
            3009    8.00853E+007    7.99439E+007    7.99439E+007   -1.02491E+005   -1.80206E+005    8.01241E+007   -2.65537E+007    8.00852E+007    7.99439E+007   -1.17681E+005   -1.65016E+005    3.93357E+002    3.78955E+002   -3.08182E+004
            3010    8.00859E+007    7.99427E+007    7.99427E+007   -1.06078E+005   -1.80198E+005    8.01229E+007   -2.65522E+007    8.00858E+007    7.99427E+007   -1.25603E+005   -1.60673E+005   -7.99149E+001   -6.56195E+001   -3.26493E+004
            3011    8.00854E+007    7.99432E+007    7.99432E+007   -1.11071E+005   -1.73244E+005    8.01165E+007   -2.65530E+007    8.00854E+007    7.99432E+007   -1.33635E+005   -1.50680E+005    1.82014E+002   -4.22930E-001   -2.98951E+004
            3012    8.00840E+007    7.99434E+007    7.99434E+007   -1.16409E+005   -1.64622E+005    8.01081E+007   -2.65541E+007    8.00839E+007    7.99434E+007   -1.41810E+005   -1.39221E+005   -3.20987E+002   -5.36207E+002   -2.40716E+004
            3013    8.00834E+007    7.99446E+007    7.99446E+007   -1.21086E+005   -1.56376E+005    8.01010E+007   -2.65557E+007    8.00834E+007    7.99446E+007   -1.47596E+005   -1.29866E+005    3.26743E+001   -5.85177E+002   -1.52566E+004
            3014    8.00823E+007    7.99446E+007    7.99446E+007   -1.23650E+005   -1.51613E+005    8.00963E+007   -2.65565E+007    8.00823E+007    7.99446E+007   -1.50602E+005   -1.24662E+005   -1.59763E+002   -7.86070E+002   -5.22149E+003
            3015    8.00828E+007    7.99450E+007    7.99450E+007   -1.24132E+005   -1.51543E+005    8.00965E+007   -2.65564E+007    8.00828E+007    7.99450E+007   -1.50259E+005   -1.25416E+005    1.31699E+002   -6.54510E+002    5.79266E+003
            3016    8.00829E+007    7.99441E+007    7.99441E+007   -1.21313E+005   -1.56292E+005    8.01004E+007   -2.65555E+007    8.00829E+007    7.99441E+007   -1.46185E+005   -1.31421E+005    1.08301E+002   -6.85435E+002    1.58554E+004
            3017    8.00953E+007    7.99352E+007    7.99352E+007   -1.32003E+005   -1.88317E+005    8.01235E+007   -2.65383E+007    8.00953E+007    7.99352E+007   -1.46647E+005   -1.73673E+005    1.11212E+002   -1.24617E+003   -2.47026E+004
            3018    8.00928E+007    7.99366E+007    7.99366E+007   -1.18867E+005   -1.93414E+005    8.01300E+007   -2.65414E+007    8.00927E+007    7.99366E+007   -1.43692E+005   -1.68589E+005   -8.89835E+001   -1.18776E+003   -3.51334E+004
            3019    8.00904E+007    7.99389E+007    7.99389E+007   -1.12916E+005   -1.89989E+005    8.01289E+007   -2.65453E+007    8.00903E+007    7.99389E+007   -1.44707E+005   -1.58199E+005   -8.71183E+001   -9.24045E+002   -3.79414E+004
            3020    8.00874E+007    7.99409E+007    7.99409E+007   -1.10763E+005   -1.82144E+005    8.01230E+007   -2.65493E+007    8.00873E+007    7.99409E+007   -1.49310E+005   -1.43597E+005   -1.70310E+002   -2.84316E+002   -3.55761E+004
            3021    8.00847E+007    7.99435E+007    7.99435E+007   -1.10233E+005   -1.72148E+005    8.01157E+007   -2.65537E+007    8.00847E+007    7.99435E+007   -1.53540E+005   -1.28841E+005   -1.91842E+002    1.89689E+002   -2.83875E+004
            3022    8.00820E+007    7.99449E+007    7.99449E+007   -1.10135E+005   -1.64051E+005    8.01090E+007   -2.65569E+007    8.00820E+007    7.99449E+007   -1.57163E+005   -1.17023E+005   -6.28325E+001    7.22508E+002   -1.79989E+004
            3023    8.00814E+007    7.99462E+007    7.99462E+007   -1.11018E+005   -1.59439E+005    8.01056E+007   -2.65586E+007    8.00814E+007    7.99462E+007   -1.58926E+005   -1.11531E+005   -2.18142E+002    7.79375E+002   -4.95716E+003
            3024    8.00812E+007    7.99457E+007    7.99457E+007   -1.11332E+005   -1.59735E+005    8.01054E+007   -2.65582E+007    8.00812E+007    7.99457E+007   -1.58228E+005   -1.12839E+005    1.80823E+002    9.02581E+002    8.40705E+003
            3025    8.00832E+007    7.99449E+007    7.99449E+007   -1.11472E+005   -1.65197E+005    8.01101E+007   -2.65561E+007    8.00832E+007    7.99449E+007   -1.55069E+005   -1.21600E+005   -1.35555E+002    6.19840E+002    2.10133E+004
            3026    8.01079E+007    7.99285E+007    7.99285E+007   -1.55758E+005   -2.03055E+005    8.01315E+007   -2.65232E+007    8.01078E+007    7.99285E+007   -1.72963E+005   -1.85850E+005    2.48739E+002    4.31560E+002   -2.27537E+004
            3027    8.01009E+007    7.99325E+007    7.99325E+007   -1.33923E+005   -2.02680E+005    8.01352E+007   -2.65320E+007    8.01008E+007    7.99325E+007   -1.64242E+005   -1.72361E+005   -2.72702E+001    7.81297E+002   -3.41384E+004
            3028    8.00949E+007    7.99364E+007    7.99364E+007   -1.19900E+005   -1.96906E+005    8.01334E+007   -2.65399E+007    8.00948E+007    7.99364E+007   -1.61710E+005   -1.55096E+005    1.06366E+002    2.95200E+002   -3.83609E+004
            3029    8.00884E+007    7.99396E+007    7.99396E+007   -1.10171E+005   -1.87436E+005    8.01270E+007   -2.65473E+007    8.00884E+007    7.99396E+007   -1.61148E+005   -1.36459E+005   -5.89633E+002   -5.22427E+000   -3.66069E+004
            3030    8.00844E+007    7.99444E+007    7.99444E+007   -1.02602E+005   -1.77493E+005    8.01219E+007   -2.65548E+007    8.00844E+007    7.99444E+007   -1.62588E+005   -1.17507E+005   -3.41878E+002   -2.19571E+002   -2.99016E+004
            3031    8.00798E+007    7.99461E+007    7.99461E+007   -9.87433E+004   -1.68511E+005    8.01146E+007   -2.65596E+007    8.00797E+007    7.99461E+007   -1.63345E+005   -1.03909E+005   -2.83135E+002   -3.34418E+002   -1.82683E+004
            3032    8.00793E+007    7.99486E+007    7.99486E+007   -9.67127E+004   -1.64643E+005    8.01133E+007   -2.65624E+007    8.00793E+007    7.99486E+007   -1.64389E+005   -9.69672E+004   -2.82455E+002   -3.29267E+002   -4.14995E+003
            3033    8.00791E+007    7.99469E+007    7.99469E+007   -9.85886E+004   -1.65833E+005    8.01127E+007   -2.65608E+007    8.00790E+007    7.99469E+007   -1.63925E+005   -1.00497E+005    4.23965E+002   -3.18287E+002    1.11670E+004
            3034    8.00827E+007    7.99458E+007    7.99458E+007   -1.01518E+005   -1.72270E+005    8.01180E+007   -2.65573E+007    8.00826E+007    7.99458E+007   -1.62465E+005   -1.11323E+005   -5.18887E+001   -3.13289E+002    2.44454E+004
            3035    8.01127E+007    7.99216E+007    7.99216E+007   -1.73256E+005   -2.09022E+005    8.01306E+007   -2.65131E+007    8.01127E+007    7.99216E+007   -1.87026E+005   -1.95252E+005    5.76039E+001   -1.66296E+003   -1.74036E+004
            3036    8.01056E+007    7.99267E+007    7.99267E+007   -1.50281E+005   -2.07454E+005    8.01342E+007   -2.65230E+007    8.01056E+007    7.99267E+007   -1.80655E+005   -1.77081E+005   -1.25935E+003   -1.71492E+003   -2.85306E+004
            3037    8.00987E+007    7.99345E+007    7.99345E+007   -1.29528E+005   -1.98714E+005    8.01333E+007   -2.65354E+007    8.00986E+007    7.99345E+007   -1.72088E+005   -1.56153E+005    3.00835E+002   -2.75998E+002   -3.36631E+004
            3038    8.00883E+007    7.99390E+007    7.99390E+007   -1.10948E+005   -1.87682E+005    8.01267E+007   -2.65468E+007    8.00882E+007    7.99390E+007   -1.67396E+005   -1.31234E+005   -7.52947E+002   -2.14229E+002   -3.38392E+004
            3039    8.00819E+007    7.99466E+007    7.99466E+007   -9.55175E+004   -1.75078E+005    8.01217E+007   -2.65587E+007    8.00818E+007    7.99466E+007   -1.63904E+005   -1.06692E+005   -1.74861E+002    3.96288E+002   -2.76435E+004
            3040    8.00741E+007    7.99495E+007    7.99495E+007   -8.48144E+004   -1.64333E+005    8.01138E+007   -2.65668E+007    8.00740E+007    7.99495E+007   -1.60796E+005   -8.83512E+004   -2.65182E+002    4.75079E+002   -1.63932E+004
            3041    8.00735E+007    7.99529E+007    7.99529E+007   -8.09778E+004   -1.60201E+005    8.01131E+007   -2.65706E+007    8.00734E+007    7.99529E+007   -1.60124E+005   -8.10542E+004   -3.15990E+002    6.64820E+002   -2.45873E+003
            3042    8.00733E+007    7.99503E+007    7.99503E+007   -8.33883E+004   -1.62592E+005    8.01128E+007   -2.65681E+007    8.00732E+007    7.99503E+007   -1.60750E+005   -8.52304E+004    4.74590E+002    5.67842E+002    1.19379E+004
            3043    8.00805E+007    7.99479E+007    7.99479E+007   -9.28124E+004   -1.72490E+005    8.01204E+007   -2.65609E+007    8.00805E+007    7.99479E+007   -1.63805E+005   -1.01497E+005   -2.99397E+002    6.08059E+002    2.48306E+004
            3044    8.01202E+007    7.99224E+007    7.99224E+007   -1.86932E+005   -2.08545E+005    8.01310E+007   -2.65090E+007    8.01202E+007    7.99224E+007   -1.96935E+005   -1.98541E+005    2.41793E+003    2.80895E+003   -1.07762E+004
            3045    8.01090E+007    7.99236E+007    7.99236E+007   -1.66553E+005   -2.04395E+005    8.01280E+007   -2.65175E+007    8.01090E+007    7.99236E+007   -1.86864E+005   -1.84085E+005   -1.17057E+003    3.82798E+002   -1.88697E+004
            3046    8.01021E+007    7.99325E+007    7.99325E+007   -1.42375E+005   -1.96780E+005    8.01292E+007   -2.65311E+007    8.01020E+007    7.99325E+007   -1.79848E+005   -1.59307E+005    1.41560E+002    3.61376E+002   -2.51895E+004
            3047    8.00879E+007    7.99395E+007    7.99395E+007   -1.18102E+005   -1.78781E+005    8.01183E+007   -2.65475E+007    8.00879E+007    7.99395E+007   -1.66796E+005   -1.30087E+005   -8.48970E+002    9.18420E+001   -2.41578E+004
            3048    8.00763E+007    7.99504E+007    7.99504E+007   -9.33611E+004   -1.58361E+005    8.01088E+007   -2.65662E+007    8.00762E+007    7.99504E+007   -1.51873E+005   -9.98482E+004   -4.22151E+002    1.12915E+002   -1.94827E+004
            3049    8.00651E+007    7.99564E+007    7.99564E+007   -7.53137E+004   -1.41927E+005    8.00984E+007   -2.65797E+007    8.00650E+007    7.99564E+007   -1.39780E+005   -7.74608E+004   -3.80359E+002    9.73290E+001   -1.17651E+004
            3050    8.00626E+007    7.99605E+007    7.99605E+007   -6.73959E+004   -1.36856E+005    8.00973E+007   -2.65854E+007    8.00625E+007    7.99605E+007   -1.36832E+005   -6.74193E+004   -2.37424E+002    1.23359E+002   -1.27368E+003
            3051    8.00649E+007    7.99568E+007    7.99568E+007   -7.40534E+004   -1.42028E+005    8.00989E+007   -2.65802E+007    8.00648E+007    7.99568E+007   -1.40572E+005   -7.55098E+004    3.94574E+002    1.27259E+002    9.84263E+003
            3052    8.00757E+007    7.99514E+007    7.99514E+007   -9.06404E+004   -1.58020E+005    8.01094E+007   -2.65676E+007    8.00757E+007    7.99514E+007   -1.52286E+005   -9.63745E+004    3.11491E+001    1.48107E+002    1.88011E+004
            3053    8.00665E+007    7.99562E+007    7.99562E+007   -1.03077E+005   -1.17388E+005    8.00736E+007   -2.65786E+007    8.00665E+007    7.99562E+007   -1.16940E+005   -1.03525E+005    3.12316E+002    1.59410E+002   -2.49145E+003
            3054    8.00476E+007    7.99695E+007    7.99695E+007   -7.32548E+004   -8.30741E+004    8.00525E+007   -2.66044E+007    8.00476E+007    7.99695E+007   -8.25757E+004   -7.37531E+004    1.75937E+002    2.13172E+002   -2.15524E+003
            3055    8.00400E+007    7.99744E+007    7.99744E+007   -6.26691E+004   -6.85804E+004    8.00430E+007   -2.66144E+007    8.00400E+007    7.99744E+007   -6.85728E+004   -6.26767E+004   -1.36024E+002    1.41505E+002   -2.11871E+002
            3056    8.00477E+007    7.99692E+007    7.99692E+007   -7.39449E+004   -8.30636E+004    8.00522E+007   -2.66041E+007    8.00477E+007    7.99692E+007   -8.26946E+004   -7.43139E+004   -2.61100E+002    1.95442E+002    1.79692E+003
            3057    8.00662E+007    7.99559E+007    7.99559E+007   -1.03836E+005   -1.16732E+005    8.00727E+007   -2.65785E+007    8.00662E+007    7.99559E+007   -1.16377E+005   -1.04191E+005   -4.80212E+002    1.36509E+002    2.10971E+003
            3058    8.00892E+007    7.99402E+007    7.99402E+007   -1.39955E+005   -1.58104E+005    8.00983E+007   -2.65474E+007    8.00892E+007    7.99402E+007   -1.57861E+005   -1.40198E+005   -3.03796E+002    2.04049E+002    2.08608E+003
            3059    8.01086E+007    7.99264E+007    7.99264E+007   -1.69226E+005   -1.95003E+005    8.01214E+007   -2.65207E+007    8.01086E+007    7.99264E+007   -1.94913E+005   -1.69316E+005   -4.63723E+002   -4.41947E+001   -1.52193E+003
            3060    8.01186E+007    7.99198E+007    7.99198E+007   -1.82586E+005   -2.14995E+005    8.01348E+007   -2.65074E+007    8.01186E+007    7.99198E+007   -2.09332E+005   -1.88249E+005    3.00135E+001   -5.72505E+001   -1.23073E+004
            3061    8.01199E+007    7.99182E+007    7.99182E+007   -1.83023E+005   -2.20286E+005    8.01385E+007   -2.65050E+007    8.01199E+007    7.99182E+007   -1.92262E+005   -2.11047E+005   -7.28603E+002   -1.22446E+003   -1.60911E+004
            3062    8.00421E+007    7.99736E+007    7.99736E+007   -6.56210E+004   -7.14761E+004    8.00451E+007   -2.66122E+007    8.00421E+007    7.99736E+007   -6.56813E+004   -7.14158E+004    1.13027E+002   -1.85111E+002    5.91334E+002
            3063    8.00567E+007    7.99636E+007    7.99636E+007   -8.84699E+004   -9.77839E+004    8.00614E+007   -2.65924E+007    8.00567E+007    7.99636E+007   -8.86675E+004   -9.75862E+004    1.57695E+002   -2.20910E+002    1.34234E+003
            3064    8.00788E+007    7.99478E+007    7.99478E+007   -1.25266E+005   -1.36738E+005    8.00846E+007   -2.65620E+007    8.00788E+007    7.99478E+007   -1.25268E+005   -1.36736E+005    2.03067E+002   -5.13584E+002   -1.46754E+002
            3065    8.01010E+007    7.99325E+007    7.99325E+007   -1.63529E+005   -1.73365E+005    8.01059E+007   -2.65319E+007    8.01010E+007    7.99325E+007   -1.63531E+005   -1.73363E+005    2.28731E+002   -2.31900E+002   -1.39323E+002
            3066    8.01167E+007    7.99211E+007    7.99211E+007   -1.88951E+005   -2.02271E+005    8.01234E+007   -2.65100E+007    8.01167E+007    7.99211E+007   -1.88970E+005   -2.02251E+005    1.23422E+002   -4.55267E+002    5.04866E+002
            3067    8.01253E+007    7.99153E+007    7.99153E+007   -2.02811E+005   -2.17302E+005    8.01326E+007   -2.64984E+007    8.01253E+007    7.99153E+007   -2.02914E+005   -2.17199E+005    1.86100E+001    5.12308E+001    1.21759E+003
            3068    8.01246E+007    7.99147E+007    7.99147E+007   -1.94501E+005   -2.25284E+005    8.01400E+007   -2.64983E+007    8.01246E+007    7.99147E+007   -1.94616E+005   -2.25169E+005   -1.07227E+003   -5.97323E+002   -1.87405E+003
            3069    8.00680E+007    7.99566E+007    7.99566E+007   -7.21807E+004   -1.50519E+005    8.01071E+007   -2.65780E+007    8.00679E+007    7.99566E+007   -7.27614E+004   -1.49939E+005   -6.14235E+002    5.35548E+002   -6.71962E+003
            3070    8.00777E+007    7.99492E+007    7.99492E+007   -9.07352E+004   -1.66174E+005    8.01154E+007   -2.65641E+007    8.00776E+007    7.99492E+007   -9.14794E+004   -1.65430E+005   -3.30355E+002    5.66048E+002   -7.45603E+003
            3071    8.00812E+007    7.99463E+007    7.99463E+007   -1.07564E+005   -1.62058E+005    8.01084E+007   -2.65589E+007    8.00811E+007    7.99463E+007   -1.08471E+005   -1.61152E+005   -7.62659E+002    2.54885E+002   -6.96933E+003
            3072    8.00823E+007    7.99442E+007    7.99442E+007   -1.23423E+005   -1.52694E+005    8.00969E+007   -2.65560E+007    8.00823E+007    7.99442E+007   -1.24516E+005   -1.51601E+005    4.72412E+002   -5.65981E+001   -5.54902E+003
            3073    8.00736E+007    7.99527E+007    7.99527E+007   -8.29979E+004   -1.58762E+005    8.01115E+007   -2.65703E+007    8.00735E+007    7.99527E+007   -8.76029E+004   -1.54157E+005   -5.65228E+002    2.61232E+002   -1.81021E+004
            3074    8.00805E+007    7.99474E+007    7.99474E+007   -9.38461E+004   -1.72268E+005    8.01197E+007   -2.65604E+007    8.00804E+007    7.99474E+007   -1.00480E+005   -1.65634E+005   -2.73788E+002    1.90840E+002   -2.18231E+004
            3075    8.00828E+007    7.99453E+007    7.99453E+007   -1.07617E+005   -1.67437E+005    8.01127E+007   -2.65567E+007    8.00828E+007    7.99453E+007   -1.15632E+005   -1.59422E+005   -5.95947E+002    7.89039E+001   -2.03771E+004
            3076    8.00830E+007    7.99440E+007    7.99440E+007   -1.20517E+005   -1.57385E+005    8.01014E+007   -2.65554E+007    8.00829E+007    7.99440E+007   -1.29643E+005   -1.48260E+005    4.59302E+002    3.82026E+002   -1.59109E+004
            3077    8.00818E+007    7.99447E+007    7.99447E+007   -1.01019E+005   -1.73253E+005    8.01179E+007   -2.65568E+007    8.00817E+007    7.99447E+007   -1.11774E+005   -1.62498E+005   -3.97625E+002    1.31718E+003   -2.57137E+004
            3078    8.00846E+007    7.99424E+007    7.99424E+007   -1.01702E+005   -1.82456E+005    8.01249E+007   -2.65528E+007    8.00845E+007    7.99424E+007   -1.18205E+005   -1.65954E+005   -2.50781E+001    1.39735E+003   -3.25623E+004
            3079    8.00848E+007    7.99429E+007    7.99429E+007   -1.08156E+005   -1.75698E+005    8.01186E+007   -2.65530E+007    8.00848E+007    7.99429E+007   -1.28144E+005   -1.55711E+005   -1.55348E+002    5.94608E+002   -3.08303E+004
            3080    8.00841E+007    7.99433E+007    7.99433E+007   -1.15796E+005   -1.65816E+005    8.01091E+007   -2.65539E+007    8.00840E+007    7.99433E+007   -1.39067E+005   -1.42546E+005    3.36579E+002    1.50149E+002   -2.49491E+004
            3081    8.00948E+007    7.99371E+007    7.99371E+007   -1.24483E+005   -1.90931E+005    8.01280E+007   -2.65405E+007    8.00947E+007    7.99371E+007   -1.40839E+005   -1.74574E+005   -1.76002E+002    1.95123E+002   -2.86239E+004
            3082    8.00913E+007    7.99391E+007    7.99391E+007   -1.11318E+005   -1.92991E+005    8.01321E+007   -2.65449E+007    8.00912E+007    7.99391E+007   -1.38484E+005   -1.65825E+005   -2.19900E+002    1.51567E+002   -3.84801E+004
            3083    8.00884E+007    7.99402E+007    7.99402E+007   -1.10233E+005   -1.86050E+005    8.01263E+007   -2.65480E+007    8.00883E+007    7.99402E+007   -1.44159E+005   -1.52124E+005    4.76301E+002    7.74131E+001   -3.76988E+004
            3084    8.00854E+007    7.99428E+007    7.99428E+007   -1.10233E+005   -1.74985E+005    8.01178E+007   -2.65525E+007    8.00854E+007    7.99428E+007   -1.49966E+005   -1.35252E+005    1.69273E+002    3.28858E+002   -3.15287E+004
            3085    8.01025E+007    7.99273E+007    7.99273E+007   -1.45100E+005   -2.05222E+005    8.01325E+007   -2.65257E+007    8.01024E+007    7.99273E+007   -1.65265E+005   -1.85057E+005    4.58052E+002    1.59438E+003   -2.83854E+004
            3086    8.00961E+007    7.99326E+007    7.99326E+007   -1.25018E+005   -2.01825E+005    8.01345E+007   -2.65353E+007    8.00960E+007    7.99326E+007   -1.59525E+005   -1.67318E+005    2.21832E+001    1.59915E+003   -3.82053E+004
            3087    8.00912E+007    7.99369E+007    7.99369E+007   -1.14295E+005   -1.94288E+005    8.01312E+007   -2.65428E+007    8.00912E+007    7.99369E+007   -1.59194E+005   -1.49390E+005    1.32404E+003    7.21700E+002   -3.96949E+004
            3088    8.00871E+007    7.99424E+007    7.99424E+007   -1.06264E+005   -1.82907E+005    8.01253E+007   -2.65511E+007    8.00870E+007    7.99424E+007   -1.60583E+005   -1.28588E+005   -1.40156E+002   -1.71098E+002   -3.48224E+004
            3089    8.01132E+007    7.99251E+007    7.99251E+007   -1.61324E+005   -2.14876E+005    8.01400E+007   -2.65163E+007    8.01132E+007    7.99251E+007   -1.85299E+005   -1.90900E+005    6.95118E+002   -1.18346E+003   -2.66290E+004
            3090    8.01032E+007    7.99310E+007    7.99310E+007   -1.39634E+005   -2.04742E+005    8.01357E+007   -2.65289E+007    8.01031E+007    7.99310E+007   -1.74378E+005   -1.69999E+005   -1.35478E+003   -1.33750E+003   -3.24803E+004
            3091    8.00939E+007    7.99335E+007    7.99335E+007   -1.22162E+005   -1.98589E+005    8.01321E+007   -2.65376E+007    8.00938E+007    7.99335E+007   -1.71178E+005   -1.49573E+005    2.07906E+003    7.10802E+001   -3.66547E+004
            3092    8.00884E+007    7.99428E+007    7.99428E+007   -1.05686E+005   -1.85445E+005    8.01282E+007   -2.65506E+007    8.00883E+007    7.99428E+007   -1.67032E+005   -1.24098E+005   -3.05668E+001   -2.11748E+002   -3.36085E+004
            3093    8.01137E+007    7.99151E+007    7.99151E+007   -1.80323E+005   -2.16920E+005    8.01320E+007   -2.65059E+007    8.01137E+007    7.99151E+007   -1.98144E+005   -1.99098E+005    4.19168E+003    4.08636E+003   -1.82923E+004
            3094    8.01114E+007    7.99270E+007    7.99270E+007   -1.57732E+005   -2.11061E+005    8.01381E+007   -2.65194E+007    8.01114E+007    7.99270E+007   -1.89563E+005   -1.79230E+005   -9.97884E+002    3.42560E+002   -2.61589E+004
            3095    8.00981E+007    7.99302E+007    7.99302E+007   -1.38734E+005   -1.96929E+005    8.01272E+007   -2.65315E+007    8.00980E+007    7.99302E+007   -1.80986E+005   -1.54676E+005    1.74563E+003    1.25643E+002   -2.59539E+004
            3096    8.00890E+007    7.99423E+007    7.99423E+007   -1.14891E+005   -1.78468E+005    8.01208E+007   -2.65497E+007    8.00890E+007    7.99423E+007   -1.67223E+005   -1.26136E+005    1.81704E+002   -3.84362E+002   -2.42582E+004
            3097    8.00894E+007    7.99399E+007    7.99399E+007   -1.40059E+005   -1.58951E+005    8.00989E+007   -2.65470E+007    8.00894E+007    7.99399E+007   -1.58880E+005   -1.40131E+005    9.99715E+002   -2.93265E+002    1.15729E+003
            3098    8.01096E+007    7.99257E+007    7.99257E+007   -1.71909E+005   -1.95778E+005    8.01215E+007   -2.65193E+007    8.01096E+007    7.99257E+007   -1.95754E+005   -1.71934E+005    5.87389E+002   -4.33715E+002    7.68827E+002
            3099    8.01186E+007    7.99185E+007    7.99185E+007   -1.78485E+005   -2.21754E+005    8.01402E+007   -2.65061E+007    8.01186E+007    7.99185E+007   -2.21208E+005   -1.79032E+005    7.65108E+002   -3.65570E+002   -4.83084E+003
            3100    8.01180E+007    7.99186E+007    7.99186E+007   -1.63576E+005   -2.35162E+005    8.01538E+007   -2.65066E+007    8.01180E+007    7.99186E+007   -2.15068E+005   -1.83670E+005   -1.98527E+002   -1.35127E+003   -3.21667E+004
            3101    8.00445E+007    7.99727E+007    7.99727E+007   -6.52362E+004   -7.84495E+004    8.00511E+007   -2.66097E+007    8.00445E+007    7.99727E+007   -6.52771E+004   -7.84086E+004   -2.96593E+002    1.99522E+002    7.34108E+002
            3102    8.00578E+007    7.99629E+007    7.99629E+007   -8.70962E+004   -1.02674E+005    8.00656E+007   -2.65911E+007    8.00578E+007    7.99629E+007   -8.71333E+004   -1.02637E+005   -3.21691E+002    7.02217E+002    7.58696E+002
            3103    8.00790E+007    7.99479E+007    7.99479E+007   -1.22618E+005   -1.39433E+005    8.00874E+007   -2.65620E+007    8.00790E+007    7.99479E+007   -1.22707E+005   -1.39343E+005   -3.92104E+002    8.77166E+002    1.22204E+003
            3104    8.00999E+007    7.99323E+007    7.99323E+007   -1.57155E+005   -1.77940E+005    8.01103E+007   -2.65324E+007    8.00999E+007    7.99323E+007   -1.57204E+005   -1.77891E+005   -3.48586E+002    1.02551E+003    1.01334E+003
            3105    8.01174E+007    7.99201E+007    7.99201E+007   -1.83878E+005   -2.10822E+005    8.01309E+007   -2.65085E+007    8.01174E+007    7.99201E+007   -1.83953E+005   -2.10747E+005   -4.24469E+002    5.51211E+002    1.41587E+003
            3106    8.01221E+007    7.99160E+007    7.99160E+007   -1.80705E+005   -2.31467E+005    8.01475E+007   -2.65013E+007    8.01221E+007    7.99160E+007   -1.81111E+005   -2.31061E+005   -3.47786E+002    6.57793E+002   -4.52230E+003
            3107    8.01188E+007    7.99180E+007    7.99180E+007   -1.61988E+005   -2.39607E+005    8.01576E+007   -2.65055E+007    8.01187E+007    7.99180E+007   -1.81681E+005   -2.19914E+005   -1.26173E+003   -3.16534E+002   -3.37749E+004
            3108    8.00673E+007    7.99564E+007    7.99564E+007   -1.03790E+005   -1.17906E+005    8.00744E+007   -2.65783E+007    8.00673E+007    7.99564E+007   -1.17528E+005   -1.04167E+005    6.67868E+002   -3.10953E+002    2.27652E+003
            3109    8.00482E+007    7.99696E+007    7.99696E+007   -7.36334E+004   -8.35065E+004    8.00531E+007   -2.66042E+007    8.00482E+007    7.99696E+007   -8.29822E+004   -7.41577E+004    4.37909E+002   -1.56689E+002    2.21405E+003
            3110    8.00407E+007    7.99753E+007    7.99753E+007   -6.25974E+004   -6.81888E+004    8.00435E+007   -2.66149E+007    8.00407E+007    7.99753E+007   -6.81518E+004   -6.26344E+004   -7.01205E+001   -1.97953E+002    4.53258E+002
            3111    8.00477E+007    7.99698E+007    7.99698E+007   -7.37663E+004   -8.21712E+004    8.00519E+007   -2.66046E+007    8.00477E+007    7.99698E+007   -8.18169E+004   -7.41205E+004   -5.30461E+002   -1.50718E+002   -1.68881E+003
            3112    8.00667E+007    7.99566E+007    7.99566E+007   -1.03836E+005   -1.16414E+005    8.00730E+007   -2.65788E+007    8.00667E+007    7.99566E+007   -1.16059E+005   -1.04191E+005   -7.40819E+002   -2.92390E+002   -2.08171E+003
            3113    8.00894E+007    7.99396E+007    7.99396E+007   -1.40667E+005   -1.58951E+005    8.00986E+007   -2.65467E+007    8.00894E+007    7.99396E+007   -1.58719E+005   -1.40899E+005   -9.70090E+002   -2.67339E+002   -2.04667E+003
            3114    8.01093E+007    7.99261E+007    7.99261E+007   -1.69662E+005   -1.96673E+005    8.01228E+007   -2.65199E+007    8.01093E+007    7.99261E+007   -1.96594E+005   -1.69741E+005   -5.28590E+002   -4.73569E+002    1.46136E+003
            3115    8.01181E+007    7.99186E+007    7.99186E+007   -1.82259E+005   -2.16574E+005    8.01352E+007   -2.65066E+007    8.01180E+007    7.99186E+007   -2.11077E+005   -1.87756E+005   -7.49515E+002   -4.42749E+002    1.25863E+004
            3116    8.01191E+007    7.99194E+007    7.99194E+007   -1.82115E+005   -2.17235E+005    8.01366E+007   -2.65067E+007    8.01191E+007    7.99194E+007   -1.91325E+005   -2.08025E+005    7.43921E+002   -1.87682E+003    1.54477E+004
            3117    8.00735E+007    7.99499E+007    7.99499E+007   -9.03874E+004   -1.56699E+005    8.01066E+007   -2.65676E+007    8.00734E+007    7.99499E+007   -1.51063E+005   -9.60234E+004    1.08159E+003   -6.04806E+002   -1.84923E+004
            3118    8.00788E+007    7.99459E+007    7.99459E+007   -9.31952E+004   -1.72585E+005    8.01184E+007   -2.65600E+007    8.00787E+007    7.99459E+007   -1.63680E+005   -1.02100E+005    1.41362E+003    4.38209E+001   -2.50533E+004
            3119    8.00810E+007    7.99448E+007    7.99448E+007   -1.00491E+005   -1.72021E+005    8.01168E+007   -2.65574E+007    8.00810E+007    7.99448E+007   -1.62361E+005   -1.10151E+005    8.82482E+002   -7.97785E+002   -2.44466E+004
            3120    8.00828E+007    7.99440E+007    7.99440E+007   -1.11569E+005   -1.65961E+005    8.01100E+007   -2.65555E+007    8.00827E+007    7.99440E+007   -1.55777E+005   -1.21753E+005    6.01298E+002    4.67800E+002   -2.12181E+004
            3121    8.00835E+007    7.99450E+007    7.99450E+007   -1.20845E+005   -1.56102E+005    8.01011E+007   -2.65560E+007    8.00835E+007    7.99450E+007   -1.46354E+005   -1.30593E+005   -1.16332E+002   -6.31936E+002   -1.57687E+004
            3122    8.00836E+007    7.99451E+007    7.99451E+007   -1.28598E+005   -1.48447E+005    8.00936E+007   -2.65560E+007    8.00836E+007    7.99451E+007   -1.38488E+005   -1.38557E+005   -4.53992E+002    4.99386E+002   -9.92455E+003
            3123    8.00836E+007    7.99456E+007    7.99456E+007   -1.32699E+005   -1.43404E+005    8.00890E+007   -2.65565E+007    8.00836E+007    7.99456E+007   -1.33797E+005   -1.42306E+005   -6.66532E+002   -4.85022E+002   -3.24755E+003
            3124    8.00662E+007    7.99590E+007    7.99590E+007   -7.29966E+004   -1.41557E+005    8.01005E+007   -2.65815E+007    8.00662E+007    7.99590E+007   -1.40101E+005   -7.44522E+004    8.99596E+001   -6.84047E+002   -9.88326E+003
            3125    8.00762E+007    7.99527E+007    7.99527E+007   -8.36114E+004   -1.63282E+005    8.01160E+007   -2.65686E+007    8.00761E+007    7.99527E+007   -1.61433E+005   -8.54605E+004   -4.92033E+001   -7.77996E+001   -1.19958E+004
            3126    8.00800E+007    7.99487E+007    7.99487E+007   -9.66416E+004   -1.65881E+005    8.01146E+007   -2.65621E+007    8.00799E+007    7.99487E+007   -1.64101E+005   -9.84215E+004   -2.09574E+002   -1.10215E+003   -1.09579E+004
            3127    8.00819E+007    7.99459E+007    7.99459E+007   -1.11632E+005   -1.60258E+005    8.01062E+007   -2.65580E+007    8.00818E+007    7.99459E+007   -1.58857E+005   -1.13034E+005    4.49481E+001    6.44909E+002   -8.13481E+003
            3128    8.00824E+007    7.99449E+007    7.99449E+007   -1.23578E+005   -1.51420E+005    8.00963E+007   -2.65566E+007    8.00824E+007    7.99449E+007   -1.50263E+005   -1.24735E+005    1.61976E+002   -8.60769E+002   -5.55553E+003
            3129    8.00818E+007    7.99435E+007    7.99435E+007   -1.32956E+005   -1.43664E+005    8.00872E+007   -2.65556E+007    8.00818E+007    7.99435E+007   -1.42805E+005   -1.33814E+005    4.24479E+002    7.84099E+002   -2.90781E+003
            3130    8.00819E+007    7.99435E+007    7.99435E+007   -1.37289E+005   -1.39580E+005    8.00830E+007   -2.65555E+007    8.00819E+007    7.99435E+007   -1.38406E+005   -1.38463E+005    4.87889E+002   -6.72919E+002   -1.14502E+003
            3131    8.00609E+007    7.99598E+007    7.99598E+007   -6.66332E+004   -1.35464E+005    8.00953E+007   -2.65859E+007    8.00608E+007    7.99598E+007   -1.35452E+005   -6.66459E+004    3.58177E+001   -7.00827E+002    9.34886E+002
            3132    8.00721E+007    7.99515E+007    7.99515E+007   -8.17150E+004   -1.59456E+005    8.01110E+007   -2.65701E+007    8.00721E+007    7.99515E+007   -1.59375E+005   -8.17955E+004    9.48837E+001   -1.03838E+001    2.50062E+003
            3133    8.00775E+007    7.99476E+007    7.99476E+007   -9.54179E+004   -1.64289E+005    8.01119E+007   -2.65626E+007    8.00774E+007    7.99476E+007   -1.63987E+005   -9.57196E+004    4.98749E+001   -1.19885E+003    4.54806E+003
            3134    8.00811E+007    7.99453E+007    7.99453E+007   -1.11754E+005   -1.59902E+005    8.01052E+007   -2.65579E+007    8.00811E+007    7.99453E+007   -1.59267E+005   -1.12389E+005   -3.76435E+001    5.97172E+002    5.49414E+003
            3135    8.00831E+007    7.99458E+007    7.99458E+007   -1.23077E+005   -1.51652E+005    8.00974E+007   -2.65570E+007    8.00831E+007    7.99458E+007   -1.50509E+005   -1.24221E+005   -1.52344E+002   -1.00103E+003    5.60133E+003
            3136    8.00838E+007    7.99454E+007    7.99454E+007   -1.32443E+005   -1.44283E+005    8.00897E+007   -2.65562E+007    8.00838E+007    7.99454E+007   -1.42865E+005   -1.33861E+005   -2.07742E+002    7.21101E+002    3.84399E+003
            3137    8.00845E+007    7.99462E+007    7.99462E+007   -1.36751E+005   -1.39836E+005    8.00860E+007   -2.65565E+007    8.00845E+007    7.99462E+007   -1.38130E+005   -1.38457E+005   -2.29614E+002   -7.29172E+002    1.53399E+003
            3138    8.00665E+007    7.99584E+007    7.99584E+007   -7.43582E+004   -1.41628E+005    8.01001E+007   -2.65808E+007    8.00664E+007    7.99584E+007   -1.39630E+005   -7.63560E+004   -5.07939E+002   -6.54872E+002    1.14193E+004
            3139    8.00771E+007    7.99516E+007    7.99516E+007   -8.54619E+004   -1.65573E+005    8.01172E+007   -2.65668E+007    8.00770E+007    7.99516E+007   -1.61853E+005   -8.91824E+004   -6.13393E+002   -1.66441E+001    1.68586E+004
            3140    8.00812E+007    7.99477E+007    7.99477E+007   -9.77274E+004   -1.69133E+005    8.01169E+007   -2.65603E+007    8.00811E+007    7.99477E+007   -1.63696E+005   -1.03164E+005   -3.67561E+002   -9.96092E+002    1.89379E+004
            3141    8.00828E+007    7.99450E+007    7.99450E+007   -1.10769E+005   -1.64924E+005    8.01099E+007   -2.65564E+007    8.00828E+007    7.99450E+007   -1.57391E+005   -1.18302E+005   -3.57720E+002    7.05839E+002    1.87398E+004
            3142    8.00830E+007    7.99444E+007    7.99444E+007   -1.20885E+005   -1.56202E+005    8.01006E+007   -2.65558E+007    8.00829E+007    7.99444E+007   -1.46918E+005   -1.30168E+005   -1.24290E+002   -6.83201E+002    1.55463E+004
            3143    8.00817E+007    7.99432E+007    7.99432E+007   -1.27960E+005   -1.49130E+005    8.00923E+007   -2.65554E+007    8.00817E+007    7.99432E+007   -1.37974E+005   -1.39115E+005   -1.26239E+002    7.84666E+002    1.05696E+004
            3144    8.00816E+007    7.99435E+007    7.99435E+007   -1.31545E+005   -1.44735E+005    8.00882E+007   -2.65557E+007    8.00816E+007    7.99435E+007   -1.32515E+005   -1.43765E+005   -7.12546E+001   -5.48174E+002    3.44413E+003
            3145    8.00749E+007    7.99490E+007    7.99490E+007   -9.39817E+004   -1.57813E+005    8.01068E+007   -2.65657E+007    8.00749E+007    7.99490E+007   -1.51574E+005   -1.00221E+005   -8.16765E+002   -5.14412E+002    1.89558E+004
            3146    8.00805E+007    7.99444E+007    7.99444E+007   -9.65648E+004   -1.75663E+005    8.01200E+007   -2.65574E+007    8.00804E+007    7.99444E+007   -1.63924E+005   -1.08303E+005   -1.03015E+003    1.22833E+002    2.81195E+004
            3147    8.00833E+007    7.99430E+007    7.99430E+007   -1.02904E+005   -1.77749E+005    8.01207E+007   -2.65541E+007    8.00832E+007    7.99430E+007   -1.62102E+005   -1.18552E+005   -5.88234E+002   -5.71009E+002    3.04353E+004
            3148    8.00842E+007    7.99425E+007    7.99425E+007   -1.10656E+005   -1.72824E+005    8.01153E+007   -2.65530E+007    8.00842E+007    7.99425E+007   -1.52990E+005   -1.30490E+005   -5.41443E+002    5.18158E+002    2.89768E+004
            3149    8.00847E+007    7.99443E+007    7.99443E+007   -1.16167E+005   -1.64543E+005    8.01089E+007   -2.65545E+007    8.00847E+007    7.99443E+007   -1.40862E+005   -1.39847E+005   -1.96543E+001   -3.39146E+002    2.41828E+004
            3150    8.00838E+007    7.99452E+007    7.99452E+007   -1.20664E+005   -1.56589E+005    8.01018E+007   -2.65560E+007    8.00838E+007    7.99452E+007   -1.30092E+005   -1.47161E+005    2.58792E+002    4.56357E+002    1.58058E+004
            3151    8.00838E+007    7.99465E+007    7.99465E+007   -1.22668E+005   -1.51992E+005    8.00985E+007   -2.65573E+007    8.00838E+007    7.99465E+007   -1.23737E+005   -1.50924E+005    5.16578E+002   -3.09559E+002    5.49468E+003
            3152    8.00903E+007    7.99409E+007    7.99409E+007   -1.18937E+005   -1.79859E+005    8.01207E+007   -2.65474E+007    8.00902E+007    7.99409E+007   -1.68068E+005   -1.30727E+005   -4.84125E+002   -2.73295E+002    2.40684E+004
            3153    8.00909E+007    7.99405E+007    7.99405E+007   -1.11400E+005   -1.89309E+005    8.01298E+007   -2.65466E+007    8.00908E+007    7.99405E+007   -1.68398E+005   -1.32312E+005   -5.17197E+002   -2.01259E+002    3.45238E+004
            3154    8.00900E+007    7.99404E+007    7.99404E+007   -1.10648E+005   -1.88339E+005    8.01288E+007   -2.65472E+007    8.00899E+007    7.99404E+007   -1.60963E+005   -1.38024E+005   -1.81847E+002    1.48808E+002    3.71133E+004
            3155    8.00876E+007    7.99412E+007    7.99412E+007   -1.10495E+005   -1.82292E+005    8.01235E+007   -2.65495E+007    8.00875E+007    7.99412E+007   -1.48022E+005   -1.44765E+005   -1.94626E+002    3.04555E+002    3.58616E+004
            3156    8.00847E+007    7.99427E+007    7.99427E+007   -1.10858E+005   -1.73123E+005    8.01158E+007   -2.65529E+007    8.00846E+007    7.99427E+007   -1.32396E+005   -1.51585E+005   -1.83301E+002    5.17060E+002    2.96171E+004
            3157    8.00820E+007    7.99440E+007    7.99440E+007   -1.10773E+005   -1.65071E+005    8.01091E+007   -2.65561E+007    8.00819E+007    7.99440E+007   -1.19340E+005   -1.56504E+005   -2.77443E+002    3.78900E+002    1.97939E+004
            3158    8.00807E+007    7.99452E+007    7.99452E+007   -1.10704E+005   -1.60287E+005    8.01055E+007   -2.65581E+007    8.00806E+007    7.99452E+007   -1.11609E+005   -1.59382E+005   -2.76028E+002    2.25584E+002    6.63565E+003
            3159    8.01002E+007    7.99292E+007    7.99292E+007   -1.44053E+005   -1.97882E+005    8.01271E+007   -2.65291E+007    8.01002E+007    7.99292E+007   -1.80287E+005   -1.61648E+005   -1.14384E+003    3.27078E+002    2.52495E+004
            3160    8.00962E+007    7.99318E+007    7.99318E+007   -1.29904E+005   -1.98809E+005    8.01306E+007   -2.65344E+007    8.00961E+007    7.99318E+007   -1.71949E+005   -1.56764E+005   -1.32366E+003   -1.75353E+002    3.36054E+004
            3161    8.00937E+007    7.99344E+007    7.99344E+007   -1.20557E+005   -1.97945E+005    8.01324E+007   -2.65386E+007    8.00936E+007    7.99344E+007   -1.61367E+005   -1.57135E+005   -1.02636E+003    1.14035E+003    3.86363E+004
            3162    8.00902E+007    7.99392E+007    7.99392E+007   -1.12131E+005   -1.89729E+005    8.01290E+007   -2.65458E+007    8.00901E+007    7.99392E+007   -1.43053E+005   -1.58807E+005   -2.84899E+002   -9.79969E+000    3.79905E+004
            3163    8.00851E+007    7.99427E+007    7.99427E+007   -1.05312E+005   -1.79408E+005    8.01222E+007   -2.65527E+007    8.00851E+007    7.99427E+007   -1.23880E+005   -1.60841E+005    2.37201E+002    8.45388E+002    3.21097E+004
            3164    8.00816E+007    7.99470E+007    7.99470E+007   -9.92549E+004   -1.69909E+005    8.01169E+007   -2.65593E+007    8.00815E+007    7.99470E+007   -1.06565E+005   -1.62599E+005    7.68119E+002   -8.98575E+000    2.15188E+004
            3165    8.00789E+007    7.99489E+007    7.99489E+007   -9.59150E+004   -1.64182E+005    8.01130E+007   -2.65629E+007    8.00789E+007    7.99489E+007   -9.67145E+004   -1.63383E+005    9.82810E+002    3.99227E+002    7.34409E+003
            3166    8.01131E+007    7.99257E+007    7.99257E+007   -1.67645E+005   -2.07152E+005    8.01328E+007   -2.65170E+007    8.01130E+007    7.99257E+007   -1.88401E+005   -1.86396E+005    3.99929E+002    8.51591E+002    1.97282E+004
            3167    8.01069E+007    7.99296E+007    7.99296E+007   -1.48780E+005   -2.05731E+005    8.01353E+007   -2.65250E+007    8.01068E+007    7.99296E+007   -1.78977E+005   -1.75534E+005    1.16973E+003   -1.71347E+003    2.84230E+004
            3168    8.00986E+007    7.99309E+007    7.99309E+007   -1.33367E+005   -2.01816E+005    8.01328E+007   -2.65319E+007    8.00985E+007    7.99309E+007   -1.62808E+005   -1.72375E+005    2.56428E+001    1.75207E+003    3.38888E+004
            3169    8.00933E+007    7.99384E+007    7.99384E+007   -1.17039E+005   -1.92710E+005    8.01311E+007   -2.65429E+007    8.00932E+007    7.99384E+007   -1.41421E+005   -1.68328E+005    3.09267E+002    5.18550E+000    3.53628E+004
            3170    8.00837E+007    7.99429E+007    7.99429E+007   -1.01728E+005   -1.79722E+005    8.01226E+007   -2.65538E+007    8.00836E+007    7.99429E+007   -1.16627E+005   -1.64822E+005    1.11027E+002    1.53876E+003    3.06604E+004
            3171    8.00780E+007    7.99493E+007    7.99493E+007   -8.95778E+004   -1.67677E+005    8.01170E+007   -2.65640E+007    8.00779E+007    7.99493E+007   -9.56622E+004   -1.61593E+005    2.28521E+002    2.00582E+002    2.09326E+004
            3172    8.00733E+007    7.99522E+007    7.99522E+007   -8.22108E+004   -1.60013E+005    8.01122E+007   -2.65700E+007    8.00732E+007    7.99522E+007   -8.29165E+004   -1.59307E+005    2.49135E+002    7.18874E+002    7.37624E+003
            3173    8.01154E+007    7.99137E+007    7.99137E+007   -1.89224E+005   -2.14053E+005    8.01278E+007   -2.65035E+007    8.01153E+007    7.99137E+007   -2.00666E+005   -2.02611E+005   -3.32389E+003    3.87587E+003    1.23762E+004
            3174    8.01152E+007    7.99238E+007    7.99238E+007   -1.72641E+005   -2.10132E+005    8.01339E+007   -2.65137E+007    8.01152E+007    7.99238E+007   -1.87356E+005   -1.95417E+005   -5.81865E+002   -9.74461E+002    1.83071E+004
            3175    8.01051E+007    7.99259E+007    7.99259E+007   -1.55752E+005   -2.02779E+005    8.01286E+007   -2.65224E+007    8.01051E+007    7.99259E+007   -1.73045E+005   -1.85486E+005   -2.32291E+002    1.46113E+003    2.26753E+004
            3176    8.00958E+007    7.99366E+007    7.99366E+007   -1.30947E+005   -1.87422E+005    8.01240E+007   -2.65394E+007    8.00958E+007    7.99366E+007   -1.45457E+005   -1.72911E+005    1.77387E+002    1.48631E+002    2.46765E+004
            3177    8.00815E+007    7.99452E+007    7.99452E+007   -1.05655E+005   -1.66904E+005    8.01121E+007   -2.65576E+007    8.00815E+007    7.99452E+007   -1.15313E+005   -1.57246E+005    4.40730E+002    1.14996E+003    2.23218E+004
            3178    8.00705E+007    7.99550E+007    7.99550E+007   -8.23407E+004   -1.48488E+005    8.01035E+007   -2.65747E+007    8.00704E+007    7.99550E+007   -8.65040E+004   -1.44324E+005    5.38342E+002    2.22066E+002    1.60642E+004
            3179    8.00631E+007    7.99601E+007    7.99601E+007   -6.91853E+004   -1.36817E+005    8.00969E+007   -2.65847E+007    8.00630E+007    7.99601E+007   -6.96854E+004   -1.36317E+005    6.03886E+002    5.55359E+002    5.79451E+003
            3180    8.00424E+007    7.99741E+007    7.99741E+007   -6.49954E+004   -7.16127E+004    8.00458E+007   -2.66125E+007    8.00424E+007    7.99741E+007   -6.50613E+004   -7.15468E+004    2.60897E+002    2.00088E+002   -6.56886E+002
            3181    8.00567E+007    7.99638E+007    7.99638E+007   -8.77859E+004   -9.79197E+004    8.00617E+007   -2.65927E+007    8.00567E+007    7.99638E+007   -8.79238E+004   -9.77817E+004    2.77965E+002    7.53945E+002   -1.17428E+003
            3182    8.00788E+007    7.99482E+007    7.99482E+007   -1.24422E+005   -1.36733E+005    8.00849E+007   -2.65624E+007    8.00788E+007    7.99482E+007   -1.24442E+005   -1.36714E+005    3.40616E+002    7.50117E+002    4.88075E+002
            3183    8.01002E+007    7.99324E+007    7.99324E+007   -1.62296E+005   -1.73208E+005    8.01056E+007   -2.65323E+007    8.01002E+007    7.99324E+007   -1.62349E+005   -1.73154E+005    3.19064E+002    1.03009E+003    7.62577E+002
            3184    8.01159E+007    7.99214E+007    7.99214E+007   -1.88132E+005   -2.00938E+005    8.01223E+007   -2.65108E+007    8.01159E+007    7.99214E+007   -1.88138E+005   -2.00931E+005    3.68328E+002    4.37044E+002    2.83531E+002
            3185    8.01245E+007    7.99148E+007    7.99148E+007   -2.02425E+005   -2.17061E+005    8.01318E+007   -2.64984E+007    8.01245E+007    7.99148E+007   -2.02508E+005   -2.16978E+005    2.43785E+002    6.41702E+002   -1.10241E+003
            3186    8.01238E+007    7.99159E+007    7.99159E+007   -1.92989E+005   -2.22894E+005    8.01388E+007   -2.65000E+007    8.01238E+007    7.99159E+007   -1.93085E+005   -2.22797E+005    1.41660E+003   -5.76541E+002    1.69249E+003
            3187    8.01182E+007    7.99187E+007    7.99187E+007   -1.63003E+005   -2.35994E+005    8.01547E+007   -2.65066E+007    8.01182E+007    7.99187E+007   -2.14938E+005   -1.84059E+005   -4.02676E+001    1.48196E+003    3.30689E+004
            3188    8.01190E+007    7.99184E+007    7.99184E+007   -1.78105E+005   -2.23066E+005    8.01415E+007   -2.65058E+007    8.01190E+007    7.99184E+007   -2.22430E+005   -1.78741E+005    7.40674E+002    3.92793E+002    5.31067E+003
            3189    8.01103E+007    7.99256E+007    7.99256E+007   -1.72295E+005   -1.97081E+005    8.01227E+007   -2.65187E+007    8.01103E+007    7.99256E+007   -1.97052E+005   -1.72324E+005    6.87898E+002    4.92539E+002   -8.47902E+002
            3190    8.00898E+007    7.99400E+007    7.99400E+007   -1.40163E+005   -1.59389E+005    8.00994E+007   -2.65468E+007    8.00898E+007    7.99400E+007   -1.59286E+005   -1.40267E+005    8.69326E+002    2.69032E+002   -1.40629E+003
            3191    8.00892E+007    7.99424E+007    7.99424E+007   -1.14622E+005   -1.78980E+005    8.01213E+007   -2.65496E+007    8.00891E+007    7.99424E+007   -1.67537E+005   -1.26065E+005    2.14013E+002    4.73431E+002    2.46073E+004
            3192    8.00886E+007    7.99427E+007    7.99427E+007   -1.05899E+005   -1.85924E+005    8.01286E+007   -2.65503E+007    8.00885E+007    7.99427E+007   -1.67273E+005   -1.24550E+005    6.35381E+001    1.75613E+002    3.38333E+004
            3193    8.00871E+007    7.99426E+007    7.99426E+007   -1.06365E+005   -1.82633E+005    8.01252E+007   -2.65512E+007    8.00870E+007    7.99426E+007   -1.60206E+005   -1.28791E+005   -1.54775E+002    3.52941E+002    3.47487E+004
            3194    8.00853E+007    7.99427E+007    7.99427E+007   -1.10446E+005   -1.74635E+005    8.01173E+007   -2.65525E+007    8.00852E+007    7.99427E+007   -1.49761E+005   -1.35319E+005    1.50872E+002   -4.04366E+002    3.12715E+004
            3195    8.00842E+007    7.99435E+007    7.99435E+007   -1.15817E+005   -1.65532E+005    8.01091E+007   -2.65541E+007    8.00842E+007    7.99435E+007   -1.38514E+005   -1.42834E+005    1.51906E+002   -1.95622E+001    2.47637E+004
            3196    8.00827E+007    7.99439E+007    7.99439E+007   -1.20417E+005   -1.57224E+005    8.01011E+007   -2.65554E+007    8.00827E+007    7.99439E+007   -1.29312E+005   -1.48330E+005    3.19278E+002   -4.32494E+002    1.57564E+004
            3197    8.00825E+007    7.99445E+007    7.99445E+007   -1.23298E+005   -1.52727E+005    8.00972E+007   -2.65562E+007    8.00825E+007    7.99445E+007   -1.24364E+005   -1.51662E+005    3.96221E+002    7.06810E+001    5.49785E+003
            3198    8.00985E+007    7.99304E+007    7.99304E+007   -1.38575E+005   -1.97514E+005    8.01280E+007   -2.65315E+007    8.00984E+007    7.99304E+007   -1.81154E+005   -1.54935E+005    1.62000E+003    3.48896E+000    2.63928E+004
            3199    8.00941E+007    7.99336E+007    7.99336E+007   -1.22023E+005   -1.98816E+005    8.01324E+007   -2.65376E+007    8.00940E+007    7.99336E+007   -1.70880E+005   -1.49958E+005    1.99430E+003   -8.18224E+001    3.69437E+004
            3200    8.00914E+007    7.99372E+007    7.99372E+007   -1.14168E+005   -1.94119E+005    8.01313E+007   -2.65430E+007    8.00913E+007    7.99372E+007   -1.58627E+005   -1.49661E+005    1.26389E+003   -5.26919E+002    3.97233E+004
            3201    8.00882E+007    7.99402E+007    7.99402E+007   -1.10151E+005   -1.85797E+005    8.01260E+007   -2.65481E+007    8.00882E+007    7.99402E+007   -1.43592E+005   -1.52355E+005    5.55488E+002   -1.14390E+002    3.75684E+004
            3202    8.00849E+007    7.99430E+007    7.99430E+007   -1.08238E+005   -1.75355E+005    8.01184E+007   -2.65532E+007    8.00848E+007    7.99430E+007   -1.28008E+005   -1.55584E+005    1.66358E+001   -5.25420E+002    3.05951E+004
            3203    8.00827E+007    7.99452E+007    7.99452E+007   -1.07646E+005   -1.67357E+005    8.01126E+007   -2.65567E+007    8.00827E+007    7.99452E+007   -1.15548E+005   -1.59455E+005   -4.26012E+002   -1.14418E+002    2.02337E+004
            3204    8.00813E+007    7.99464E+007    7.99464E+007   -1.07552E+005   -1.62166E+005    8.01086E+007   -2.65589E+007    8.00813E+007    7.99464E+007   -1.08426E+005   -1.61291E+005   -7.05226E+002   -2.59351E+002    6.85647E+003
            3205    8.01117E+007    7.99270E+007    7.99270E+007   -1.58001E+005   -2.11458E+005    8.01384E+007   -2.65192E+007    8.01117E+007    7.99270E+007   -1.89667E+005   -1.79792E+005   -8.74049E+002   -3.35787E+002    2.62684E+004
            3206    8.01033E+007    7.99310E+007    7.99310E+007   -1.39716E+005   -2.04790E+005    8.01358E+007   -2.65288E+007    8.01032E+007    7.99310E+007   -1.74163E+005   -1.70343E+005   -1.17761E+003    1.42110E+003    3.24807E+004
            3207    8.00959E+007    7.99327E+007    7.99327E+007   -1.24676E+005   -2.01673E+005    8.01344E+007   -2.65355E+007    8.00959E+007    7.99327E+007   -1.58902E+005   -1.67447E+005    1.14361E+002   -1.57053E+003    3.82608E+004
            3208    8.00910E+007    7.99393E+007    7.99393E+007   -1.10890E+005   -1.92452E+005    8.01318E+007   -2.65453E+007    8.00909E+007    7.99393E+007   -1.37763E+005   -1.65579E+005   -1.99911E+002   -4.01742E+001    3.83362E+004
            3209    8.00843E+007    7.99424E+007    7.99424E+007   -1.01458E+005   -1.82320E+005    8.01247E+007   -2.65529E+007    8.00842E+007    7.99424E+007   -1.17889E+005   -1.65890E+005   -4.24335E+001   -1.38713E+003    3.25373E+004
            3210    8.00803E+007    7.99474E+007    7.99474E+007   -9.35461E+004   -1.72149E+005    8.01196E+007   -2.65606E+007    8.00802E+007    7.99474E+007   -1.00181E+005   -1.65515E+005   -3.01891E+002   -2.18528E+002    2.18519E+004
            3211    8.00775E+007    7.99492E+007    7.99492E+007   -9.04658E+004   -1.66098E+005    8.01153E+007   -2.65642E+007    8.00774E+007    7.99492E+007   -9.12089E+004   -1.65355E+005   -3.34191E+002   -6.46833E+002    7.45968E+003
            3212    8.01139E+007    7.99152E+007    7.99152E+007   -1.80591E+005   -2.16843E+005    8.01320E+007   -2.65059E+007    8.01139E+007    7.99152E+007   -1.98464E+005   -1.98970E+005    4.14221E+003   -3.99095E+003    1.81241E+004
            3213    8.01130E+007    7.99253E+007    7.99253E+007   -1.60964E+005   -2.14485E+005    8.01398E+007   -2.65166E+007    8.01130E+007    7.99253E+007   -1.84611E+005   -1.90838E+005    6.97373E+002    1.24245E+003    2.65787E+004
            3214    8.01022E+007    7.99274E+007    7.99274E+007   -1.44944E+005   -2.04681E+005    8.01321E+007   -2.65259E+007    8.01022E+007    7.99274E+007   -1.64663E+005   -1.84962E+005    5.00260E+002   -1.56005E+003    2.80912E+004
            3215    8.00945E+007    7.99372E+007    7.99372E+007   -1.24290E+005   -1.90355E+005    8.01275E+007   -2.65408E+007    8.00945E+007    7.99372E+007   -1.40488E+005   -1.74157E+005   -8.18483E+001   -1.32916E+002    2.84208E+004
            3216    8.00814E+007    7.99448E+007    7.99448E+007   -1.00693E+005   -1.72470E+005    8.01172E+007   -2.65572E+007    8.00813E+007    7.99448E+007   -1.11476E+005   -1.61687E+005   -3.06126E+002   -1.34030E+003    2.56458E+004
            3217    8.00734E+007    7.99528E+007    7.99528E+007   -8.26912E+004   -1.58360E+005    8.01112E+007   -2.65706E+007    8.00733E+007    7.99528E+007   -8.74290E+004   -1.53622E+005   -4.99352E+002   -2.93637E+002    1.83318E+004
            3218    8.00678E+007    7.99566E+007    7.99566E+007   -7.21784E+004   -1.50338E+005    8.01069E+007   -2.65780E+007    8.00678E+007    7.99566E+007   -7.28251E+004   -1.49691E+005   -5.93815E+002   -6.28904E+002    7.08012E+003
            3219    8.00447E+007    7.99725E+007    7.99725E+007   -6.56359E+004   -7.87623E+004    8.00512E+007   -2.66094E+007    8.00447E+007    7.99725E+007   -6.56855E+004   -7.87127E+004   -3.00900E+002   -3.06446E+002   -8.04804E+002
            3220    8.00579E+007    7.99628E+007    7.99628E+007   -8.73281E+004   -1.02910E+005    8.00657E+007   -2.65908E+007    8.00579E+007    7.99628E+007   -8.73886E+004   -1.02850E+005   -3.08274E+002   -7.79530E+002   -9.68307E+002
            3221    8.00787E+007    7.99478E+007    7.99478E+007   -1.22198E+005   -1.39455E+005    8.00873E+007   -2.65621E+007    8.00787E+007    7.99478E+007   -1.22266E+005   -1.39387E+005   -3.69901E+002   -8.71800E+002   -1.08054E+003
            3222    8.00995E+007    7.99325E+007    7.99325E+007   -1.56577E+005   -1.77325E+005    8.01098E+007   -2.65329E+007    8.00995E+007    7.99325E+007   -1.56590E+005   -1.77312E+005   -3.13292E+002   -9.76693E+002   -5.22107E+002
            3223    8.01167E+007    7.99204E+007    7.99204E+007   -1.83249E+005   -2.09309E+005    8.01297E+007   -2.65093E+007    8.01166E+007    7.99204E+007   -1.83306E+005   -2.09252E+005   -3.50905E+002   -5.02031E+002   -1.21394E+003
            3224    8.01221E+007    7.99162E+007    7.99162E+007   -1.81364E+005   -2.30400E+005    8.01466E+007   -2.65015E+007    8.01220E+007    7.99162E+007   -1.81748E+005   -2.30017E+005   -2.25668E+002   -4.99999E+002    4.31927E+003
            3225    8.01188E+007    7.99181E+007    7.99181E+007   -1.62482E+005   -2.38776E+005    8.01569E+007   -2.65056E+007    8.01187E+007    7.99181E+007   -1.81370E+005   -2.19889E+005   -1.19443E+003    2.71309E+002    3.29285E+004
            3226    8.00631E+007    7.99601E+007    7.99601E+007   -6.91667E+004   -1.36763E+005    8.00969E+007   -2.65847E+007    8.00631E+007    7.99601E+007   -6.96611E+004   -1.36268E+005    6.03189E+002   -4.84002E+002   -5.75960E+003
            3227    8.00734E+007    7.99523E+007    7.99523E+007   -8.21285E+004   -1.59990E+005    8.01123E+007   -2.65701E+007    8.00733E+007    7.99523E+007   -8.28906E+004   -1.59227E+005    2.65933E+002   -6.64873E+002   -7.66500E+003
            3228    8.00789E+007    7.99488E+007    7.99488E+007   -9.59089E+004   -1.64344E+005    8.01131E+007   -2.65628E+007    8.00789E+007    7.99488E+007   -9.68125E+004   -1.63440E+005    9.67550E+002   -3.80018E+002   -7.81157E+003
            3229    8.00806E+007    7.99450E+007    7.99450E+007   -1.10728E+005   -1.60392E+005    8.01054E+007   -2.65580E+007    8.00806E+007    7.99450E+007   -1.11787E+005   -1.59333E+005   -2.53895E+002   -2.17394E+002   -7.17462E+003
            3230    8.00835E+007    7.99461E+007    7.99461E+007   -1.22682E+005   -1.52044E+005    8.00982E+007   -2.65571E+007    8.00835E+007    7.99461E+007   -1.23946E+005   -1.50780E+005    4.94520E+002    2.72062E+002   -5.95964E+003
            3231    8.00816E+007    7.99434E+007    7.99434E+007   -1.31512E+005   -1.44754E+005    8.00882E+007   -2.65557E+007    8.00816E+007    7.99434E+007   -1.32638E+005   -1.43627E+005   -1.01442E+002    5.47243E+002   -3.69414E+003
            3232    8.00843E+007    7.99460E+007    7.99460E+007   -1.36676E+005   -1.39917E+005    8.00859E+007   -2.65565E+007    8.00843E+007    7.99460E+007   -1.38193E+005   -1.38400E+005   -1.87549E+002    7.04398E+002   -1.61706E+003
            3233    8.00820E+007    7.99436E+007    7.99436E+007   -1.37289E+005   -1.39532E+005    8.00832E+007   -2.65556E+007    8.00820E+007    7.99436E+007   -1.38363E+005   -1.38458E+005    4.06019E+002    6.91647E+002    1.12090E+003
            3234    8.00838E+007    7.99457E+007    7.99457E+007   -1.32709E+005   -1.43475E+005    8.00892E+007   -2.65565E+007    8.00838E+007    7.99457E+007   -1.33774E+005   -1.42410E+005   -5.97416E+002    4.99969E+002    3.21457E+003
            3235    8.00706E+007    7.99549E+007    7.99549E+007   -8.27247E+004   -1.48639E+005    8.01036E+007   -2.65745E+007    8.00706E+007    7.99549E+007   -8.69478E+004   -1.44415E+005    5.92528E+002   -2.07138E+002   -1.61409E+004
            3236    8.00782E+007    7.99492E+007    7.99492E+007   -8.99478E+004   -1.67898E+005    8.01171E+007   -2.65638E+007    8.00781E+007    7.99492E+007   -9.62575E+004   -1.61588E+005    2.29680E+002   -1.86433E+002   -2.12609E+004
            3237    8.00818E+007    7.99468E+007    7.99468E+007   -9.94516E+004   -1.70430E+005    8.01172E+007   -2.65590E+007    8.00817E+007    7.99468E+007   -1.07188E+005   -1.62694E+005    8.30742E+002    2.34566E+001   -2.21193E+004
            3238    8.00825E+007    7.99442E+007    7.99442E+007   -1.10932E+005   -1.65489E+005    8.01097E+007   -2.65559E+007    8.00824E+007    7.99442E+007   -1.20089E+005   -1.56331E+005   -3.25605E+002   -3.40301E+002   -2.03899E+004
            3239    8.00840E+007    7.99453E+007    7.99453E+007   -1.20638E+005   -1.56812E+005    8.01021E+007   -2.65560E+007    8.00840E+007    7.99453E+007   -1.30599E+005   -1.46851E+005    3.80232E+002   -3.67526E+002   -1.61586E+004
            3240    8.00820E+007    7.99434E+007    7.99434E+007   -1.27887E+005   -1.49237E+005    8.00927E+007   -2.65554E+007    8.00820E+007    7.99434E+007   -1.38330E+005   -1.38793E+005   -2.31756E+002   -7.69149E+002   -1.06725E+004
            3241    8.00837E+007    7.99454E+007    7.99454E+007   -1.32373E+005   -1.44319E+005    8.00897E+007   -2.65562E+007    8.00837E+007    7.99454E+007   -1.42948E+005   -1.33744E+005   -6.47952E+001   -6.86926E+002   -3.80733E+003
            3242    8.00819E+007    7.99436E+007    7.99436E+007   -1.32871E+005   -1.43670E+005    8.00873E+007   -2.65557E+007    8.00819E+007    7.99436E+007   -1.42745E+005   -1.33796E+005    2.53977E+002   -7.99854E+002    3.02203E+003
            3243    8.00834E+007    7.99448E+007    7.99448E+007   -1.28573E+005   -1.48567E+005    8.00934E+007   -2.65559E+007    8.00834E+007    7.99448E+007   -1.38359E+005   -1.38781E+005   -2.51691E+002   -5.53477E+002    9.99461E+003
            3244    8.00820E+007    7.99450E+007    7.99450E+007   -1.06617E+005   -1.67456E+005    8.01124E+007   -2.65570E+007    8.00820E+007    7.99450E+007   -1.16273E+005   -1.57800E+005    5.12108E+002   -1.10111E+003   -2.22313E+004
            3245    8.00844E+007    7.99427E+007    7.99427E+007   -1.02683E+005   -1.80566E+005    8.01233E+007   -2.65532E+007    8.00843E+007    7.99427E+007   -1.18040E+005   -1.65209E+005    1.75966E+001   -1.51358E+003   -3.09878E+004
            3246    8.00855E+007    7.99425E+007    7.99425E+007   -1.05857E+005   -1.80029E+005    8.01225E+007   -2.65522E+007    8.00854E+007    7.99425E+007   -1.25270E+005   -1.60617E+005    4.21845E+002   -8.11758E+002   -3.26041E+004
            3247    8.00847E+007    7.99423E+007    7.99423E+007   -1.11155E+005   -1.73503E+005    8.01158E+007   -2.65526E+007    8.00846E+007    7.99423E+007   -1.33774E+005   -1.50884E+005   -3.47654E+002   -6.58341E+002   -2.99774E+004
            3248    8.00844E+007    7.99441E+007    7.99441E+007   -1.16084E+005   -1.64570E+005    8.01087E+007   -2.65545E+007    8.00844E+007    7.99441E+007   -1.41735E+005   -1.38919E+005    1.18189E+002    2.41795E+002   -2.42022E+004
            3249    8.00828E+007    7.99444E+007    7.99444E+007   -1.20757E+005   -1.56164E+005    8.01005E+007   -2.65558E+007    8.00828E+007    7.99444E+007   -1.47393E+005   -1.29528E+005   -3.06348E+002    5.93043E+002   -1.52843E+004
            3250    8.00830E+007    7.99457E+007    7.99457E+007   -1.23018E+005   -1.51624E+005    8.00973E+007   -2.65570E+007    8.00830E+007    7.99457E+007   -1.50612E+005   -1.24030E+005    7.24232E+000    9.78368E+002   -5.28406E+003
            3251    8.00825E+007    7.99450E+007    7.99450E+007   -1.23641E+005   -1.51309E+005    8.00963E+007   -2.65567E+007    8.00825E+007    7.99450E+007   -1.50020E+005   -1.24929E+005   -4.89207E+001    8.85320E+002    5.82925E+003
            3252    8.00837E+007    7.99451E+007    7.99451E+007   -1.20942E+005   -1.56157E+005    8.01013E+007   -2.65560E+007    8.00837E+007    7.99451E+007   -1.46126E+005   -1.30974E+005    5.17992E+001    7.61313E+002    1.58942E+004
            3253    8.00963E+007    7.99362E+007    7.99362E+007   -1.31853E+005   -1.88292E+005    8.01245E+007   -2.65387E+007    8.00963E+007    7.99362E+007   -1.46454E+005   -1.73691E+005    2.61815E+002   -1.69445E+002   -2.47158E+004
            3254    8.00938E+007    7.99379E+007    7.99379E+007   -1.18171E+005   -1.93639E+005    8.01315E+007   -2.65420E+007    8.00937E+007    7.99379E+007   -1.43148E+005   -1.68662E+005    2.94523E+002   -1.07634E+002   -3.55124E+004
            3255    8.00905E+007    7.99391E+007    7.99391E+007   -1.12541E+005   -1.90208E+005    8.01293E+007   -2.65454E+007    8.00904E+007    7.99391E+007   -1.44575E+005   -1.58174E+005   -1.82450E+002    1.83804E+000   -3.82335E+004
            3256    8.00877E+007    7.99413E+007    7.99413E+007   -1.10371E+005   -1.82250E+005    8.01236E+007   -2.65496E+007    8.00876E+007    7.99413E+007   -1.49217E+005   -1.43404E+005   -2.54756E+002   -2.08707E+002   -3.58220E+004
            3257    8.00842E+007    7.99428E+007    7.99428E+007   -1.10312E+005   -1.72423E+005    8.01152E+007   -2.65534E+007    8.00842E+007    7.99428E+007   -1.53569E+005   -1.29166E+005   -4.26593E+002   -3.93124E+002   -2.85586E+004
            3258    8.00827E+007    7.99451E+007    7.99451E+007   -1.10530E+005   -1.64605E+005    8.01097E+007   -2.65567E+007    8.00826E+007    7.99451E+007   -1.57590E+005   -1.17546E+005   -4.27598E+002   -6.86952E+002   -1.81699E+004
            3259    8.00811E+007    7.99453E+007    7.99453E+007   -1.11782E+005   -1.59756E+005    8.01051E+007   -2.65579E+007    8.00811E+007    7.99453E+007   -1.59225E+005   -1.12312E+005   -2.62546E+000   -5.66163E+002   -5.01606E+003
            3260    8.00819E+007    7.99458E+007    7.99458E+007   -1.11904E+005   -1.60224E+005    8.01060E+007   -2.65579E+007    8.00819E+007    7.99458E+007   -1.58679E+005   -1.13449E+005   -3.89096E+001   -6.96390E+002    8.50160E+003
            3261    8.00828E+007    7.99438E+007    7.99438E+007   -1.11998E+005   -1.65826E+005    8.01097E+007   -2.65553E+007    8.00827E+007    7.99438E+007   -1.55544E+005   -1.22279E+005    6.56070E+002   -5.68537E+002    2.11597E+004
            3262    8.01056E+007    7.99257E+007    7.99257E+007   -1.56421E+005   -2.03373E+005    8.01291E+007   -2.65220E+007    8.01056E+007    7.99257E+007   -1.73910E+005   -1.85884E+005   -1.90351E+002   -1.44564E+003   -2.26993E+004
            3263    8.00988E+007    7.99307E+007    7.99307E+007   -1.33785E+005   -2.02293E+005    8.01330E+007   -2.65316E+007    8.00987E+007    7.99307E+007   -1.63771E+005   -1.72307E+005    2.69940E+001   -1.74006E+003   -3.39875E+004
            3264    8.00936E+007    7.99345E+007    7.99345E+007   -1.20397E+005   -1.97759E+005    8.01323E+007   -2.65388E+007    8.00936E+007    7.99345E+007   -1.62253E+005   -1.55903E+005   -9.86206E+002   -1.16319E+003   -3.85503E+004
            3265    8.00894E+007    7.99405E+007    7.99405E+007   -1.10036E+005   -1.87736E+005    8.01282E+007   -2.65476E+007    8.00893E+007    7.99405E+007   -1.61342E+005   -1.36429E+005   -1.92751E+002   -3.53007E+002   -3.67990E+004
            3266    8.00828E+007    7.99431E+007    7.99431E+007   -1.02275E+005   -1.77169E+005    8.01202E+007   -2.65545E+007    8.00827E+007    7.99431E+007   -1.62255E+005   -1.17188E+005   -6.38091E+002    3.83341E+002   -2.99085E+004
            3267    8.00809E+007    7.99477E+007    7.99477E+007   -9.75617E+004   -1.68731E+005    8.01165E+007   -2.65605E+007    8.00808E+007    7.99477E+007   -1.63637E+005   -1.02655E+005   -3.91307E+002    9.08860E+002   -1.83450E+004
            3268    8.00775E+007    7.99476E+007    7.99476E+007   -9.56593E+004   -1.64182E+005    8.01117E+007   -2.65626E+007    8.00774E+007    7.99476E+007   -1.63929E+005   -9.59126E+004   -8.30063E+000    1.14605E+003   -4.15860E+003
            3269    8.00801E+007    7.99486E+007    7.99486E+007   -9.71384E+004   -1.65913E+005    8.01145E+007   -2.65618E+007    8.00801E+007    7.99486E+007   -1.64077E+005   -9.89738E+004   -2.52962E+002    1.14690E+003    1.10841E+004
            3270    8.00813E+007    7.99448E+007    7.99448E+007   -1.00834E+005   -1.71994E+005    8.01168E+007   -2.65573E+007    8.00812E+007    7.99448E+007   -1.62320E+005   -1.10508E+005    7.98222E+002    9.61608E+002    2.43895E+004
            3271    8.01153E+007    7.99237E+007    7.99237E+007   -1.72856E+005   -2.10402E+005    8.01341E+007   -2.65135E+007    8.01153E+007    7.99237E+007   -1.87692E+005   -1.95566E+005   -4.96469E+002    9.25919E+002   -1.83554E+004
            3272    8.01067E+007    7.99296E+007    7.99296E+007   -1.48667E+005   -2.05468E+005    8.01351E+007   -2.65252E+007    8.01066E+007    7.99296E+007   -1.79120E+005   -1.75015E+005    1.25511E+003    1.62679E+003   -2.83263E+004
            3273    8.00957E+007    7.99321E+007    7.99321E+007   -1.29028E+005   -1.98050E+005    8.01302E+007   -2.65350E+007    8.00956E+007    7.99321E+007   -1.71592E+005   -1.55486E+005   -1.32353E+003    1.15171E+002   -3.35583E+004
            3274    8.00902E+007    7.99409E+007    7.99409E+007   -1.10184E+005   -1.88277E+005    8.01292E+007   -2.65475E+007    8.00901E+007    7.99409E+007   -1.67902E+005   -1.30560E+005   -4.19740E+002    2.76354E+002   -3.42930E+004
            3275    8.00800E+007    7.99446E+007    7.99446E+007   -9.58040E+004   -1.74951E+005    8.01196E+007   -2.65580E+007    8.00799E+007    7.99446E+007   -1.63500E+005   -1.07255E+005   -1.06978E+003   -7.79929E+001   -2.78418E+004
            3276    8.00770E+007    7.99515E+007    7.99515E+007   -8.53250E+004   -1.65579E+005    8.01171E+007   -2.65669E+007    8.00769E+007    7.99515E+007   -1.61922E+005   -8.89814E+004   -6.42189E+002   -7.49290E+000   -1.67353E+004
            3277    8.00724E+007    7.99514E+007    7.99514E+007   -8.21325E+004   -1.59935E+005    8.01113E+007   -2.65698E+007    8.00723E+007    7.99514E+007   -1.59855E+005   -8.22124E+004   -3.48801E+001    2.02409E+001   -2.49305E+003
            3278    8.00764E+007    7.99525E+007    7.99525E+007   -8.40675E+004   -1.63748E+005    8.01162E+007   -2.65682E+007    8.00763E+007    7.99525E+007   -1.61871E+005   -8.59442E+004   -1.12393E+002    6.95672E+001    1.20838E+004
            3279    8.00792E+007    7.99459E+007    7.99459E+007   -9.36047E+004   -1.72794E+005    8.01187E+007   -2.65598E+007    8.00791E+007    7.99459E+007   -1.63828E+005   -1.02570E+005    1.26716E+003   -6.63709E+001    2.50916E+004
            3280    8.01154E+007    7.99137E+007    7.99137E+007   -1.89701E+005   -2.13701E+005    8.01274E+007   -2.65034E+007    8.01154E+007    7.99137E+007   -2.00474E+005   -2.02929E+005   -3.40224E+003   -3.89605E+003   -1.19370E+004
            3281    8.01126E+007    7.99259E+007    7.99259E+007   -1.66760E+005   -2.06558E+005    8.01325E+007   -2.65175E+007    8.01125E+007    7.99259E+007   -1.87660E+005   -1.85658E+005    5.36906E+002   -9.04625E+002   -1.98739E+004
            3282    8.00995E+007    7.99294E+007    7.99294E+007   -1.43202E+005   -1.96916E+005    8.01263E+007   -2.65298E+007    8.00995E+007    7.99294E+007   -1.79597E+005   -1.60521E+005   -1.20503E+003   -3.71203E+002   -2.51064E+004
            3283    8.00897E+007    7.99411E+007    7.99411E+007   -1.18043E+005   -1.79049E+005    8.01202E+007   -2.65480E+007    8.00896E+007    7.99411E+007   -1.67155E+005   -1.29938E+005   -4.57393E+002    1.44615E+002   -2.41695E+004
            3284    8.00745E+007    7.99489E+007    7.99489E+007   -9.33555E+004   -1.57765E+005    8.01067E+007   -2.65659E+007    8.00745E+007    7.99489E+007   -1.51388E+005   -9.97326E+004   -8.81132E+002    4.16386E+002   -1.92373E+004
            3285    8.00666E+007    7.99581E+007    7.99581E+007   -7.44932E+004   -1.42329E+005    8.01004E+007   -2.65804E+007    8.00665E+007    7.99581E+007   -1.40243E+005   -7.65787E+004   -5.57343E+002    6.00206E+002   -1.17101E+004
            3286    8.00612E+007    7.99595E+007    7.99595E+007   -6.68841E+004   -1.36557E+005    8.00961E+007   -2.65854E+007    8.00612E+007    7.99595E+007   -1.36535E+005   -6.69060E+004   -1.22582E+002    6.61725E+002   -1.23443E+003
            3287    8.00666E+007    7.99588E+007    7.99588E+007   -7.31056E+004   -1.42477E+005    8.01012E+007   -2.65811E+007    8.00665E+007    7.99588E+007   -1.41081E+005   -7.45023E+004    3.48828E+001    6.98167E+002    9.74380E+003
            3288    8.00739E+007    7.99499E+007    7.99499E+007   -9.04164E+004   -1.57536E+005    8.01075E+007   -2.65673E+007    8.00739E+007    7.99499E+007   -1.51915E+005   -9.60373E+004    9.30317E+002    6.51735E+002    1.85926E+004
            3289    8.00670E+007    7.99568E+007    7.99568E+007   -1.02982E+005   -1.17437E+005    8.00743E+007   -2.65788E+007    8.00670E+007    7.99568E+007   -1.17049E+005   -1.03370E+005    6.68111E+002    3.19143E+002   -2.33576E+003
            3290    8.00481E+007    7.99698E+007    7.99698E+007   -7.32730E+004   -8.33138E+004    8.00531E+007   -2.66044E+007    8.00481E+007    7.99698E+007   -8.28258E+004   -7.37610E+004    2.35238E+002    1.51737E+002   -2.15914E+003
            3291    8.00408E+007    7.99751E+007    7.99751E+007   -6.26568E+004   -6.86709E+004    8.00438E+007   -2.66146E+007    8.00408E+007    7.99751E+007   -6.86587E+004   -6.26690E+004   -1.41748E+002    1.87615E+002   -2.70929E+002
            3292    8.00480E+007    7.99694E+007    7.99694E+007   -7.40107E+004   -8.32383E+004    8.00526E+007   -2.66041E+007    8.00480E+007    7.99694E+007   -8.29195E+004   -7.43294E+004   -6.49806E+002    1.59655E+002    1.68508E+003
            3293    8.00666E+007    7.99563E+007    7.99563E+007   -1.03859E+005   -1.16810E+005    8.00731E+007   -2.65785E+007    8.00666E+007    7.99563E+007   -1.16562E+005   -1.04107E+005   -7.61500E+002    2.88730E+002    1.77525E+003
            3294    8.00889E+007    7.99397E+007    7.99397E+007   -1.40004E+005   -1.58359E+005    8.00981E+007   -2.65471E+007    8.00889E+007    7.99397E+007   -1.58184E+005   -1.40178E+005   -9.79467E+002    2.37922E+002    1.78339E+003
            3295    8.01083E+007    7.99264E+007    7.99264E+007   -1.68715E+005   -1.95121E+005    8.01215E+007   -2.65209E+007    8.01083E+007    7.99264E+007   -1.95003E+005   -1.68832E+005   -4.35836E+002    4.37668E+002   -1.75537E+003
            3296    8.01174E+007    7.99190E+007    7.99190E+007   -1.81685E+005   -2.15237E+005    8.01342E+007   -2.65074E+007    8.01174E+007    7.99190E+007   -2.09732E+005   -1.87190E+005   -7.40547E+002    3.76786E+002   -1.24256E+004
            3297    8.01186E+007    7.99191E+007    7.99191E+007   -1.81995E+005   -2.17060E+005    8.01362E+007   -2.65067E+007    8.01186E+007    7.99191E+007   -1.90694E+005   -2.08361E+005    8.43231E+002    1.62438E+003   -1.51447E+004
            3298    8.00424E+007    7.99742E+007    7.99742E+007   -6.49365E+004   -7.14623E+004    8.00457E+007   -2.66126E+007    8.00424E+007    7.99742E+007   -6.49804E+004   -7.14184E+004    2.44701E+002   -1.39245E+002    5.33590E+002
            3299    8.00568E+007    7.99639E+007    7.99639E+007   -8.80145E+004   -9.78113E+004    8.00617E+007   -2.65927E+007    8.00568E+007    7.99639E+007   -8.81885E+004   -9.76374E+004    2.77364E+002   -6.92947E+002    1.29373E+003
            3300    8.00791E+007    7.99482E+007    7.99482E+007   -1.24924E+005   -1.36888E+005    8.00851E+007   -2.65621E+007    8.00791E+007    7.99482E+007   -1.24936E+005   -1.36877E+005    3.39234E+002   -7.41253E+002   -3.71868E+002
            3301    8.01008E+007    7.99321E+007    7.99321E+007   -1.63486E+005   -1.73867E+005    8.01059E+007   -2.65316E+007    8.01007E+007    7.99321E+007   -1.63505E+005   -1.73848E+005    3.43082E+002   -1.05564E+003   -4.46134E+002
            3302    8.01167E+007    7.99211E+007    7.99211E+007   -1.88870E+005   -2.02300E+005    8.01234E+007   -2.65100E+007    8.01167E+007    7.99211E+007   -1.88872E+005   -2.02298E+005    3.85518E+002   -4.45655E+002    1.59834E+002
            3303    8.01248E+007    7.99144E+007    7.99144E+007   -2.02612E+005   -2.18163E+005    8.01325E+007   -2.64979E+007    8.01248E+007    7.99144E+007   -2.02685E+005   -2.18090E+005    3.56721E+002   -7.67644E+002    1.06062E+003
            3304    8.01242E+007    7.99161E+007    7.99161E+007   -1.92616E+005   -2.23448E+005    8.01396E+007   -2.65000E+007    8.01241E+007    7.99161E+007   -1.92665E+005   -2.23399E+005    1.55193E+003    6.90352E+002   -1.22811E+003
            3305    8.00692E+007    7.99576E+007    7.99576E+007   -7.22048E+004   -1.50945E+005    8.01085E+007   -2.65781E+007    8.00691E+007    7.99576E+007   -7.28037E+004   -1.50346E+005   -8.79772E+002    1.62425E+002   -6.84060E+003
            3306    8.00777E+007    7.99500E+007    7.99500E+007   -8.91973E+004   -1.66213E+005    8.01162E+007   -2.65649E+007    8.00776E+007    7.99500E+007   -8.99482E+004   -1.65462E+005   -1.51398E+003    7.35967E+000   -7.56760E+003
            3307    8.00814E+007    7.99456E+007    7.99456E+007   -1.08585E+005   -1.62847E+005    8.01085E+007   -2.65581E+007    8.00813E+007    7.99456E+007   -1.09555E+005   -1.61877E+005    4.75836E+002    7.23885E+001   -7.18985E+003
            3308    8.00834E+007    7.99460E+007    7.99460E+007   -1.22353E+005   -1.52277E+005    8.00983E+007   -2.65571E+007    8.00834E+007    7.99460E+007   -1.23440E+005   -1.51190E+005   -1.26224E+003    1.21777E+002   -5.59824E+003
            3309    8.00738E+007    7.99525E+007    7.99525E+007   -8.30280E+004   -1.59358E+005    8.01119E+007   -2.65701E+007    8.00737E+007    7.99525E+007   -8.78248E+004   -1.54561E+005   -7.43744E+002    1.40521E+003   -1.85238E+004
            3310    8.00796E+007    7.99472E+007    7.99472E+007   -9.28682E+004   -1.71849E+005    8.01191E+007   -2.65608E+007    8.00795E+007    7.99472E+007   -9.92958E+004   -1.65422E+005   -1.19839E+003    9.50486E+002   -2.15951E+004
            3311    8.00824E+007    7.99442E+007    7.99442E+007   -1.08353E+005   -1.68172E+005    8.01123E+007   -2.65559E+007    8.00824E+007    7.99442E+007   -1.16554E+005   -1.59971E+005    4.96639E+002    7.43890E+002   -2.05747E+004
            3312    8.00837E+007    7.99453E+007    7.99453E+007   -1.19827E+005   -1.56908E+005    8.01022E+007   -2.65562E+007    8.00837E+007    7.99453E+007   -1.28877E+005   -1.47858E+005   -9.07271E+002    1.96114E+001   -1.59274E+004
            3313    8.00833E+007    7.99460E+007    7.99460E+007   -1.00317E+005   -1.74211E+005    8.01202E+007   -2.65571E+007    8.00832E+007    7.99460E+007   -1.11413E+005   -1.63115E+005   -5.54766E+002    1.39111E+003   -2.63966E+004
            3314    8.00856E+007    7.99438E+007    7.99438E+007   -1.00975E+005   -1.82718E+005    8.01265E+007   -2.65534E+007    8.00856E+007    7.99438E+007   -1.17437E+005   -1.66257E+005   -6.22160E+002    6.55063E+002   -3.27814E+004
            3315    8.00850E+007    7.99428E+007    7.99428E+007   -1.07910E+005   -1.76446E+005    8.01193E+007   -2.65528E+007    8.00850E+007    7.99428E+007   -1.28324E+005   -1.56033E+005    3.89264E+002    6.71020E+002   -3.13425E+004
            3316    8.00845E+007    7.99438E+007    7.99438E+007   -1.15493E+005   -1.65961E+005    8.01098E+007   -2.65541E+007    8.00845E+007    7.99438E+007   -1.38915E+005   -1.42540E+005   -1.10540E+002    3.24484E+002   -2.51687E+004
            3317    8.00922E+007    7.99346E+007    7.99346E+007   -1.23994E+005   -1.91288E+005    8.01258E+007   -2.65398E+007    8.00922E+007    7.99346E+007   -1.40627E+005   -1.74654E+005   -3.78990E+002    2.22869E+003   -2.90285E+004
            3318    8.00892E+007    7.99367E+007    7.99367E+007   -1.11826E+005   -1.93242E+005    8.01299E+007   -2.65439E+007    8.00891E+007    7.99367E+007   -1.39215E+005   -1.65854E+005    5.69460E+002    1.69794E+003   -3.84673E+004
            3319    8.00877E+007    7.99397E+007    7.99397E+007   -1.09791E+005   -1.86032E+005    8.01258E+007   -2.65480E+007    8.00876E+007    7.99397E+007   -1.43825E+005   -1.51998E+005    1.58017E+002    1.10380E+003   -3.79006E+004
            3320    8.00849E+007    7.99422E+007    7.99422E+007   -1.10137E+005   -1.75357E+005    8.01175E+007   -2.65522E+007    8.00849E+007    7.99422E+007   -1.50231E+005   -1.35262E+005    9.23067E+002    6.76288E+001   -3.17393E+004
            3321    8.01039E+007    7.99300E+007    7.99300E+007   -1.43088E+005   -2.04750E+005    8.01347E+007   -2.65274E+007    8.01039E+007    7.99300E+007   -1.62992E+005   -1.84846E+005   -5.91850E+002    5.23976E+002   -2.88297E+004
            3322    8.00978E+007    7.99335E+007    7.99335E+007   -1.25093E+005   -2.03533E+005    8.01370E+007   -2.65349E+007    8.00977E+007    7.99335E+007   -1.60766E+005   -1.67860E+005    1.41092E+003    5.90226E+001   -3.90595E+004
            3323    8.00918E+007    7.99386E+007    7.99386E+007   -1.12857E+005   -1.93416E+005    8.01320E+007   -2.65441E+007    8.00917E+007    7.99386E+007   -1.58013E+005   -1.48260E+005   -3.13316E+002   -1.38515E+002   -3.99832E+004
            3324    8.00852E+007    7.99401E+007    7.99401E+007   -1.06541E+005   -1.83618E+005    8.01237E+007   -2.65500E+007    8.00851E+007    7.99401E+007   -1.61033E+005   -1.29125E+005    1.93760E+003    2.35794E+002   -3.50813E+004
            3325    8.01060E+007    7.99196E+007    7.99196E+007   -1.60840E+005   -2.11812E+005    8.01314E+007   -2.65157E+007    8.01059E+007    7.99196E+007   -1.82973E+005   -1.89679E+005   -7.98733E+002    2.23775E+003   -2.52645E+004
            3326    8.00997E+007    7.99247E+007    7.99247E+007   -1.41594E+005   -2.08423E+005    8.01331E+007   -2.65249E+007    8.00996E+007    7.99247E+007   -1.77385E+005   -1.72632E+005    3.76926E+003    2.85885E+003   -3.33293E+004
            3327    8.00969E+007    7.99365E+007    7.99365E+007   -1.21631E+005   -1.99122E+005    8.01356E+007   -2.65386E+007    8.00968E+007    7.99365E+007   -1.71244E+005   -1.49509E+005   -2.85929E+002    3.25613E+002   -3.71898E+004
            3328    8.00847E+007    7.99392E+007    7.99392E+007   -1.05786E+005   -1.85056E+005    8.01243E+007   -2.65495E+007    8.00846E+007    7.99392E+007   -1.66651E+005   -1.24191E+005    2.14349E+003   -3.44702E+002   -3.34693E+004
            3329    8.01184E+007    7.99272E+007    7.99272E+007   -1.74944E+005   -2.07582E+005    8.01348E+007   -2.65149E+007    8.01184E+007    7.99272E+007   -1.90783E+005   -1.91742E+005   -4.88910E+003   -5.13747E+003   -1.63112E+004
            3330    8.01040E+007    7.99207E+007    7.99207E+007   -1.57562E+005   -2.09020E+005    8.01298E+007   -2.65181E+007    8.01040E+007    7.99207E+007   -1.88970E+005   -1.77612E+005    2.72306E+003   -6.84612E+002   -2.50945E+004
            3331    8.01010E+007    7.99338E+007    7.99338E+007   -1.37039E+005   -1.97246E+005    8.01311E+007   -2.65332E+007    8.01009E+007    7.99338E+007   -1.81346E+005   -1.52939E+005    5.70011E+002   -5.76473E+002   -2.65418E+004
            3332    8.00862E+007    7.99392E+007    7.99392E+007   -1.15039E+005   -1.78834E+005    8.01180E+007   -2.65484E+007    8.00861E+007    7.99392E+007   -1.67185E+005   -1.26687E+005    2.19762E+003   -4.80919E+002   -2.46462E+004
            3333    8.00897E+007    7.99404E+007    7.99404E+007   -1.39994E+005   -1.58620E+005    8.00990E+007   -2.65473E+007    8.00897E+007    7.99404E+007   -1.58494E+005   -1.40119E+005    1.17135E+003   -6.85352E+002    1.52274E+003
            3334    8.01085E+007    7.99245E+007    7.99245E+007   -1.72158E+005   -1.95809E+005    8.01204E+007   -2.65189E+007    8.01085E+007    7.99245E+007   -1.95772E+005   -1.72196E+005    1.56738E+003   -3.57425E+002    9.38346E+002
            3335    8.01177E+007    7.99176E+007    7.99176E+007   -1.79543E+005   -2.20684E+005    8.01383E+007   -2.65058E+007    8.01177E+007    7.99176E+007   -2.20095E+005   -1.80133E+005    4.43402E+002   -3.87325E+001   -4.88896E+003
            3336    8.01181E+007    7.99158E+007    7.99158E+007   -1.65344E+005   -2.39231E+005    8.01550E+007   -2.65037E+007    8.01180E+007    7.99158E+007   -2.17385E+005   -1.87190E+005    1.55854E+003    1.85695E+003   -3.37177E+004
            3337    8.00464E+007    7.99739E+007    7.99739E+007   -6.60919E+004   -7.89573E+004    8.00529E+007   -2.66096E+007    8.00464E+007    7.99739E+007   -6.61386E+004   -7.89106E+004   -5.52644E+002    3.33176E+002    7.73687E+002
            3338    8.00594E+007    7.99641E+007    7.99641E+007   -8.77004E+004   -1.02976E+005    8.00670E+007   -2.65911E+007    8.00594E+007    7.99641E+007   -8.77521E+004   -1.02924E+005   -6.43301E+002    1.10487E+003    8.87706E+002
            3339    8.00791E+007    7.99479E+007    7.99479E+007   -1.22879E+005   -1.39415E+005    8.00874E+007   -2.65619E+007    8.00791E+007    7.99479E+007   -1.23019E+005   -1.39275E+005   -6.26663E+002    1.55023E+003    1.51602E+003
            3340    8.00995E+007    7.99322E+007    7.99322E+007   -1.57076E+005   -1.77371E+005    8.01096E+007   -2.65326E+007    8.00995E+007    7.99322E+007   -1.57173E+005   -1.77275E+005   -5.92203E+002    1.29887E+003    1.39536E+003
            3341    8.01156E+007    7.99184E+007    7.99184E+007   -1.83897E+005   -2.10389E+005    8.01288E+007   -2.65080E+007    8.01155E+007    7.99184E+007   -1.84011E+005   -2.10275E+005   -7.85558E+001    1.37785E+003    1.73267E+003
            3342    8.01206E+007    7.99147E+007    7.99147E+007   -1.81553E+005   -2.30317E+005    8.01450E+007   -2.65009E+007    8.01206E+007    7.99147E+007   -1.81993E+005   -2.29877E+005    4.04283E+002    1.70592E+002   -4.61203E+003
            3343    8.01187E+007    7.99151E+007    7.99151E+007   -1.63563E+005   -2.43632E+005    8.01587E+007   -2.65026E+007    8.01186E+007    7.99151E+007   -1.84902E+005   -2.22293E+005    2.24486E+003    1.33226E+003   -3.54014E+004
            3344    8.00675E+007    7.99567E+007    7.99567E+007   -1.03699E+005   -1.18017E+005    8.00747E+007   -2.65783E+007    8.00675E+007    7.99567E+007   -1.17572E+005   -1.04145E+005    1.25242E+003   -5.60854E+002    2.48642E+003
            3345    8.00496E+007    7.99710E+007    7.99710E+007   -7.34499E+004   -8.37563E+004    8.00548E+007   -2.66046E+007    8.00496E+007    7.99710E+007   -8.32004E+004   -7.40058E+004    5.83971E+002   -5.66484E+002    2.32819E+003
            3346    8.00417E+007    7.99762E+007    7.99762E+007   -6.25698E+004   -6.83792E+004    8.00446E+007   -2.66151E+007    8.00417E+007    7.99762E+007   -6.83491E+004   -6.25999E+004   -1.08310E+002   -4.43811E+002    4.17334E+002
            3347    8.00490E+007    7.99710E+007    7.99710E+007   -7.36087E+004   -8.24064E+004    8.00534E+007   -2.66050E+007    8.00490E+007    7.99710E+007   -8.20065E+004   -7.40087E+004   -7.88349E+002   -5.42381E+002   -1.83262E+003
            3348    8.00668E+007    7.99566E+007    7.99566E+007   -1.03786E+005   -1.16416E+005    8.00731E+007   -2.65788E+007    8.00668E+007    7.99566E+007   -1.15941E+005   -1.04261E+005   -1.27020E+003   -5.21620E+002   -2.40286E+003
            3349    8.00896E+007    7.99400E+007    7.99400E+007   -1.40637E+005   -1.58664E+005    8.00987E+007   -2.65469E+007    8.00896E+007    7.99400E+007   -1.58321E+005   -1.40980E+005   -1.14457E+003   -5.73677E+002   -2.46052E+003
            3350    8.01079E+007    7.99246E+007    7.99246E+007   -1.70334E+005   -1.96285E+005    8.01209E+007   -2.65193E+007    8.01079E+007    7.99246E+007   -1.96231E+005   -1.70389E+005   -1.32015E+003   -1.57274E+002    1.18774E+003
            3351    8.01180E+007    7.99182E+007    7.99182E+007   -1.83363E+005   -2.16366E+005    8.01345E+007   -2.65061E+007    8.01180E+007    7.99182E+007   -2.10327E+005   -1.89402E+005   -3.01170E+002    2.70195E+002    1.27605E+004
            3352    8.01180E+007    7.99146E+007    7.99146E+007   -1.83950E+005   -2.22762E+005    8.01374E+007   -2.65026E+007    8.01179E+007    7.99146E+007   -1.94085E+005   -2.12626E+005   -1.94414E+003    2.53768E+003    1.70486E+004
            3353    8.00770E+007    7.99527E+007    7.99527E+007   -9.04583E+004   -1.58097E+005    8.01108E+007   -2.65681E+007    8.00770E+007    7.99527E+007   -1.52281E+005   -9.62745E+004    1.00338E+003   -4.57594E+002   -1.89624E+004
            3354    8.00817E+007    7.99494E+007    7.99494E+007   -9.15946E+004   -1.73027E+005    8.01224E+007   -2.65616E+007    8.00816E+007    7.99494E+007   -1.64417E+005   -1.00205E+005    2.28855E+002   -1.29301E+003   -2.50400E+004
            3355    8.00833E+007    7.99464E+007    7.99464E+007   -1.00712E+005   -1.73114E+005    8.01195E+007   -2.65575E+007    8.00832E+007    7.99464E+007   -1.63256E+005   -1.10570E+005    3.08177E+002    3.82326E+002   -2.48307E+004
            3356    8.00839E+007    7.99456E+007    7.99456E+007   -1.10699E+005   -1.65882E+005    8.01114E+007   -2.65563E+007    8.00838E+007    7.99456E+007   -1.55730E+005   -1.20851E+005    6.35323E+001   -8.45883E+002   -2.13807E+004
            3357    8.00822E+007    7.99434E+007    7.99434E+007   -1.21084E+005   -1.56484E+005    8.00999E+007   -2.65553E+007    8.00822E+007    7.99434E+007   -1.46633E+005   -1.30936E+005    5.49465E+002    6.12877E+002   -1.58646E+004
            3358    8.00822E+007    7.99435E+007    7.99435E+007   -1.28751E+005   -1.48716E+005    8.00922E+007   -2.65553E+007    8.00822E+007    7.99435E+007   -1.38554E+005   -1.38913E+005    8.53701E+002   -3.11306E+002   -9.98051E+003
            3359    8.00815E+007    7.99430E+007    7.99430E+007   -1.32977E+005   -1.44043E+005    8.00870E+007   -2.65553E+007    8.00815E+007    7.99430E+007   -1.34052E+005   -1.42969E+005    1.07535E+003    3.85253E+002   -3.27673E+003
            3360    8.00656E+007    7.99577E+007    7.99577E+007   -7.42022E+004   -1.41591E+005    8.00993E+007   -2.65806E+007    8.00655E+007    7.99577E+007   -1.40019E+005   -7.57742E+004    8.39624E+002   -5.26764E+002   -1.01719E+004
            3361    8.00728E+007    7.99506E+007    7.99506E+007   -8.20856E+004   -1.62141E+005    8.01128E+007   -2.65688E+007    8.00727E+007    7.99506E+007   -1.60335E+005   -8.38915E+004    6.76269E+002   -1.67009E+003   -1.18876E+004
            3362    8.00783E+007    7.99462E+007    7.99462E+007   -9.80361E+004   -1.66149E+005    8.01124E+007   -2.65607E+007    8.00782E+007    7.99462E+007   -1.64288E+005   -9.98969E+004    7.13903E+002    3.58374E+002   -1.11030E+004
            3363    8.00814E+007    7.99461E+007    7.99461E+007   -1.10709E+005   -1.59852E+005    8.01060E+007   -2.65585E+007    8.00814E+007    7.99461E+007   -1.58466E+005   -1.12095E+005    1.85435E+002   -1.42963E+003   -8.13698E+003
            3364    8.00826E+007    7.99448E+007    7.99448E+007   -1.23698E+005   -1.51942E+005    8.00968E+007   -2.65564E+007    8.00826E+007    7.99448E+007   -1.50818E+005   -1.24822E+005   -1.09017E+002    6.85038E+002   -5.52146E+003
            3365    8.00849E+007    7.99467E+007    7.99467E+007   -1.32491E+005   -1.43886E+005    8.00906E+007   -2.65568E+007    8.00848E+007    7.99467E+007   -1.43077E+005   -1.33300E+005   -5.34026E+002   -6.54045E+002   -2.92689E+003
            3366    8.00849E+007    7.99464E+007    7.99464E+007   -1.37244E+005   -1.39613E+005    8.00861E+007   -2.65565E+007    8.00849E+007    7.99464E+007   -1.38915E+005   -1.37942E+005   -6.90227E+002    5.04778E+002   -1.07959E+003
            3367    8.00645E+007    7.99625E+007    7.99625E+007   -6.74315E+004   -1.36620E+005    8.00991E+007   -2.65861E+007    8.00644E+007    7.99625E+007   -1.36604E+005   -6.74473E+004   -2.49233E+002   -5.13350E+002    1.04662E+003
            3368    8.00746E+007    7.99547E+007    7.99547E+007   -7.93849E+004   -1.60303E+005    8.01150E+007   -2.65717E+007    8.00745E+007    7.99547E+007   -1.60220E+005   -7.94680E+004   -3.58183E+002   -1.74998E+003    2.59257E+003
            3369    8.00800E+007    7.99489E+007    7.99489E+007   -9.64228E+004   -1.65624E+005    8.01146E+007   -2.65623E+007    8.00799E+007    7.99489E+007   -1.65310E+005   -9.67365E+004   -3.32751E+002    4.84499E+002    4.64871E+003
            3370    8.00823E+007    7.99472E+007    7.99472E+007   -1.10524E+005   -1.59794E+005    8.01069E+007   -2.65589E+007    8.00823E+007    7.99472E+007   -1.59167E+005   -1.11151E+005   -2.13503E+002   -1.39577E+003    5.52207E+003
            3371    8.00812E+007    7.99436E+007    7.99436E+007   -1.23463E+005   -1.51787E+005    8.00954E+007   -2.65561E+007    8.00812E+007    7.99436E+007   -1.50625E+005   -1.24625E+005    6.10406E+000    8.54312E+002    5.61845E+003
            3372    8.00818E+007    7.99437E+007    7.99437E+007   -1.32643E+005   -1.43598E+005    8.00873E+007   -2.65558E+007    8.00818E+007    7.99437E+007   -1.42075E+005   -1.34166E+005    1.56051E+002   -5.95050E+002    3.79008E+003
            3373    8.00807E+007    7.99424E+007    7.99424E+007   -1.36487E+005   -1.39924E+005    8.00824E+007   -2.65553E+007    8.00807E+007    7.99424E+007   -1.37438E+005   -1.38973E+005    2.50016E+002    5.64592E+002    1.53758E+003
            3374    8.00659E+007    7.99573E+007    7.99573E+007   -7.54445E+004   -1.41672E+005    8.00990E+007   -2.65801E+007    8.00658E+007    7.99573E+007   -1.39533E+005   -7.75830E+004   -9.51728E+002   -4.29283E+002    1.17068E+004
            3375    8.00740E+007    7.99498E+007    7.99498E+007   -8.40044E+004   -1.64310E+005    8.01141E+007   -2.65672E+007    8.00739E+007    7.99498E+007   -1.60689E+005   -8.76260E+004   -6.56266E+002   -1.55245E+003    1.66650E+004
            3376    8.00793E+007    7.99452E+007    7.99452E+007   -9.88300E+004   -1.69409E+005    8.01146E+007   -2.65590E+007    8.00792E+007    7.99452E+007   -1.63764E+005   -1.04475E+005   -7.24999E+002    4.95272E+002    1.91457E+004
            3377    8.00826E+007    7.99453E+007    7.99453E+007   -1.09989E+005   -1.64493E+005    8.01098E+007   -2.65569E+007    8.00825E+007    7.99453E+007   -1.56951E+005   -1.17531E+005   -3.19063E+002   -1.21920E+003    1.88190E+004
            3378    8.00832E+007    7.99443E+007    7.99443E+007   -1.20948E+005   -1.56826E+005    8.01011E+007   -2.65555E+007    8.00831E+007    7.99443E+007   -1.47563E+005   -1.30212E+005   -2.11074E+002    7.18255E+002    1.57018E+004
            3379    8.00852E+007    7.99466E+007    7.99466E+007   -1.27971E+005   -1.49261E+005    8.00959E+007   -2.65565E+007    8.00852E+007    7.99466E+007   -1.38487E+005   -1.38745E+005    4.63155E+001   -5.48233E+002    1.06444E+004
            3380    8.00848E+007    7.99465E+007    7.99465E+007   -1.32254E+005   -1.44341E+005    8.00908E+007   -2.65566E+007    8.00848E+007    7.99465E+007   -1.33388E+005   -1.43208E+005    1.26693E+002    4.44861E+002    3.52380E+003
            3381    8.00777E+007    7.99510E+007    7.99510E+007   -9.39517E+004   -1.59253E+005    8.01103E+007   -2.65659E+007    8.00776E+007    7.99510E+007   -1.52716E+005   -1.00489E+005   -1.38769E+003   -3.43856E+002    1.95993E+004
            3382    8.00831E+007    7.99473E+007    7.99473E+007   -9.53695E+004   -1.76216E+005    8.01235E+007   -2.65586E+007    8.00830E+007    7.99473E+007   -1.64722E+005   -1.06863E+005   -8.26468E+002   -1.05685E+003    2.82332E+004
            3383    8.00851E+007    7.99441E+007    7.99441E+007   -1.02976E+005   -1.79030E+005    8.01231E+007   -2.65540E+007    8.00850E+007    7.99441E+007   -1.63129E+005   -1.18876E+005   -8.90924E+002    5.43965E+002    3.09271E+004
            3384    8.00856E+007    7.99441E+007    7.99441E+007   -1.10120E+005   -1.72894E+005    8.01170E+007   -2.65537E+007    8.00855E+007    7.99441E+007   -1.53041E+005   -1.29974E+005   -3.84834E+002   -4.01888E+002    2.91910E+004
            3385    8.00830E+007    7.99425E+007    7.99425E+007   -1.16139E+005   -1.64838E+005    8.01074E+007   -2.65539E+007    8.00830E+007    7.99425E+007   -1.40866E+005   -1.40111E+005   -4.23626E+002    7.64799E+002    2.43463E+004
            3386    8.00820E+007    7.99434E+007    7.99434E+007   -1.20379E+005   -1.56812E+005    8.01002E+007   -2.65554E+007    8.00820E+007    7.99434E+007   -1.29499E+005   -1.47691E+005   -4.17108E+002   -4.54945E+001    1.57831E+004
            3387    8.00802E+007    7.99428E+007    7.99428E+007   -1.22172E+005   -1.52504E+005    8.00954E+007   -2.65561E+007    8.00802E+007    7.99428E+007   -1.23226E+005   -1.51449E+005   -5.12977E+002    3.67639E+002    5.55750E+003
            3388    8.00876E+007    7.99382E+007    7.99382E+007   -1.18656E+005   -1.80023E+005    8.01182E+007   -2.65465E+007    8.00875E+007    7.99382E+007   -1.67862E+005   -1.30817E+005   -1.86473E+003   -3.75724E+002    2.44619E+004
            3389    8.00876E+007    7.99374E+007    7.99374E+007   -1.11591E+005   -1.88664E+005    8.01261E+007   -2.65457E+007    8.00875E+007    7.99374E+007   -1.67623E+005   -1.32633E+005   -1.48592E+003    8.30748E+000    3.43365E+004
            3390    8.00875E+007    7.99380E+007    7.99380E+007   -1.10459E+005   -1.88361E+005    8.01264E+007   -2.65464E+007    8.00874E+007    7.99380E+007   -1.60698E+005   -1.38123E+005   -1.39767E+003    2.43577E+002    3.72798E+004
            3391    8.00868E+007    7.99403E+007    7.99403E+007   -1.10435E+005   -1.82522E+005    8.01228E+007   -2.65491E+007    8.00867E+007    7.99403E+007   -1.48002E+005   -1.44955E+005   -7.34054E+002    5.39511E+002    3.60111E+004
            3392    8.00853E+007    7.99433E+007    7.99433E+007   -1.10509E+005   -1.73424E+005    8.01168E+007   -2.65531E+007    8.00853E+007    7.99433E+007   -1.32397E+005   -1.51536E+005    9.48107E+001    4.43332E+002    2.99668E+004
            3393    8.00839E+007    7.99463E+007    7.99463E+007   -1.10443E+005   -1.64873E+005    8.01111E+007   -2.65570E+007    8.00839E+007    7.99463E+007   -1.19053E+005   -1.56263E+005    9.39899E+002    2.69369E+002    1.98620E+004
            3394    8.00826E+007    7.99476E+007    7.99476E+007   -1.10228E+005   -1.59765E+005    8.01073E+007   -2.65592E+007    8.00825E+007    7.99476E+007   -1.11173E+005   -1.58819E+005    1.36367E+003    1.71710E+001    6.77665E+003
            3395    8.01020E+007    7.99319E+007    7.99319E+007   -1.42334E+005   -1.97811E+005    8.01297E+007   -2.65306E+007    8.01019E+007    7.99319E+007   -1.80596E+005   -1.59549E+005   -8.72556E+002   -6.96097E+002    2.56650E+004
            3396    8.00992E+007    7.99338E+007    7.99338E+007   -1.30059E+005   -2.00595E+005    8.01344E+007   -2.65344E+007    8.00991E+007    7.99338E+007   -1.73077E+005   -1.57577E+005   -4.04511E+002    9.63101E+002    3.44058E+004
            3397    8.00954E+007    7.99369E+007    7.99369E+007   -1.19336E+005   -1.97594E+005    8.01345E+007   -2.65400E+007    8.00953E+007    7.99369E+007   -1.60729E+005   -1.56201E+005    2.08312E+002   -2.93234E+002    3.90639E+004
            3398    8.00891E+007    7.99383E+007    7.99383E+007   -1.11971E+005   -1.89686E+005    8.01280E+007   -2.65455E+007    8.00890E+007    7.99383E+007   -1.42932E+005   -1.58725E+005   -3.83829E+001    1.40944E+003    3.80463E+004
            3399    8.00853E+007    7.99428E+007    7.99428E+007   -1.04933E+005   -1.80056E+005    8.01229E+007   -2.65526E+007    8.00852E+007    7.99428E+007   -1.23735E+005   -1.61254E+005   -1.33803E+002    7.54462E+002    3.25417E+004
            3400    8.00803E+007    7.99451E+007    7.99451E+007   -9.97533E+004   -1.70552E+005    8.01157E+007   -2.65583E+007    8.00802E+007    7.99451E+007   -1.07106E+005   -1.63199E+005   -3.43201E+002    1.01257E+003    2.15987E+004
            3401    8.00782E+007    7.99474E+007    7.99474E+007   -9.65623E+004   -1.65019E+005    8.01124E+007   -2.65619E+007    8.00782E+007    7.99474E+007   -9.74214E+004   -1.64160E+005   -3.49640E+002    1.62109E+002    7.62062E+003
            3402    8.01060E+007    7.99209E+007    7.99209E+007   -1.66644E+005   -2.03390E+005    8.01243E+007   -2.65170E+007    8.01059E+007    7.99209E+007   -1.86446E+005   -1.83588E+005   -1.44498E+003   -1.39861E+003    1.83171E+004
            3403    8.01016E+007    7.99223E+007    7.99223E+007   -1.50540E+005   -2.07972E+005    8.01303E+007   -2.65213E+007    8.01016E+007    7.99223E+007   -1.80635E+005   -1.77877E+005   -2.88812E+003    3.27338E+003    2.86827E+004
            3404    8.01004E+007    7.99323E+007    7.99323E+007   -1.33086E+005   -2.03147E+005    8.01354E+007   -2.65320E+007    8.01003E+007    7.99323E+007   -1.63283E+005   -1.72949E+005   -9.93998E+002   -3.98709E+001    3.46957E+004
            3405    8.00906E+007    7.99354E+007    7.99354E+007   -1.17521E+005   -1.92887E+005    8.01283E+007   -2.65417E+007    8.00906E+007    7.99354E+007   -1.42115E+005   -1.68293E+005   -3.34595E+002    1.81389E+003    3.53366E+004
            3406    8.00853E+007    7.99448E+007    7.99448E+007   -1.01048E+005   -1.80033E+005    8.01248E+007   -2.65546E+007    8.00852E+007    7.99448E+007   -1.15938E+005   -1.65143E+005    7.25758E+002    5.45503E+002    3.08926E+004
            3407    8.00773E+007    7.99494E+007    7.99494E+007   -8.86747E+004   -1.67114E+005    8.01165E+007   -2.65645E+007    8.00772E+007    7.99494E+007   -9.45989E+004   -1.61190E+005    1.40962E+003    9.51837E+002    2.07267E+004
            3408    8.00739E+007    7.99537E+007    7.99537E+007   -8.05566E+004   -1.59851E+005    8.01135E+007   -2.65711E+007    8.00738E+007    7.99537E+007   -8.12626E+004   -1.59145E+005    1.80670E+003   -7.10792E+000    7.44877E+003
            3409    8.01218E+007    7.99257E+007    7.99257E+007   -1.84551E+005   -2.07584E+005    8.01333E+007   -2.65112E+007    8.01218E+007    7.99257E+007   -1.95670E+005   -1.96464E+005    3.74378E+003   -4.69406E+003    1.15095E+004
            3410    8.01089E+007    7.99188E+007    7.99188E+007   -1.72541E+005   -2.07669E+005    8.01265E+007   -2.65129E+007    8.01089E+007    7.99188E+007   -1.86014E+005   -1.94197E+005    9.00713E+002    1.79317E+003    1.70808E+004
            3411    8.01068E+007    7.99285E+007    7.99285E+007   -1.54253E+005   -2.02327E+005    8.01308E+007   -2.65240E+007    8.01068E+007    7.99285E+007   -1.71132E+005   -1.85448E+005    5.75591E+002    4.37369E+002    2.29463E+004
            3412    8.00934E+007    7.99343E+007    7.99343E+007   -1.30574E+005   -1.87524E+005    8.01218E+007   -2.65387E+007    8.00933E+007    7.99343E+007   -1.45253E+005   -1.72845E+005    5.24022E+002    1.93472E+003    2.49095E+004
            3413    8.00827E+007    7.99463E+007    7.99463E+007   -1.05139E+005   -1.67678E+005    8.01140E+007   -2.65578E+007    8.00827E+007    7.99463E+007   -1.14997E+005   -1.57821E+005    4.83843E+002    1.28798E+003    2.27886E+004
            3414    8.00706E+007    7.99548E+007    7.99548E+007   -8.25034E+004   -1.49000E+005    8.01038E+007   -2.65744E+007    8.00705E+007    7.99548E+007   -8.68729E+004   -1.44631E+005    5.64742E+002    1.36969E+003    1.64763E+004
            3415    8.00643E+007    7.99609E+007    7.99609E+007   -6.95500E+004   -1.37269E+005    8.00982E+007   -2.65847E+007    8.00643E+007    7.99609E+007   -7.00704E+004   -1.36748E+005    5.98418E+002    2.63544E+002    5.91359E+003
            3416    8.00441E+007    7.99752E+007    7.99752E+007   -6.58064E+004   -7.19646E+004    8.00472E+007   -2.66125E+007    8.00441E+007    7.99752E+007   -6.58895E+004   -7.18814E+004    4.63467E+002    4.49432E+002   -7.10662E+002
            3417    8.00580E+007    7.99647E+007    7.99647E+007   -8.83695E+004   -9.81605E+004    8.00629E+007   -2.65927E+007    8.00580E+007    7.99647E+007   -8.85437E+004   -9.79863E+004    5.61284E+002    8.93275E+002   -1.29430E+003
            3418    8.00789E+007    7.99482E+007    7.99482E+007   -1.24768E+005   -1.36623E+005    8.00848E+007   -2.65623E+007    8.00789E+007    7.99482E+007   -1.24772E+005   -1.36619E+005    5.84559E+002    1.37040E+003    2.14151E+002
            3419    8.00999E+007    7.99324E+007    7.99324E+007   -1.62314E+005   -1.72596E+005    8.01050E+007   -2.65325E+007    8.00999E+007    7.99324E+007   -1.62341E+005   -1.72570E+005    5.50772E+002    9.79843E+002    5.25147E+002
            3420    8.01145E+007    7.99200E+007    7.99200E+007   -1.88278E+005   -2.00814E+005    8.01208E+007   -2.65103E+007    8.01145E+007    7.99200E+007   -1.88278E+005   -2.00814E+005    2.00288E+002    1.26027E+003   -4.27258E+001
            3421    8.01232E+007    7.99138E+007    7.99138E+007   -2.02890E+005   -2.15810E+005    8.01297E+007   -2.64984E+007    8.01232E+007    7.99138E+007   -2.02958E+005   -2.15742E+005   -1.33083E+002    1.41474E+002   -9.33971E+002
            3422    8.01226E+007    7.99120E+007    7.99120E+007   -1.95572E+005   -2.25657E+005    8.01377E+007   -2.64969E+007    8.01226E+007    7.99120E+007   -1.95861E+005   -2.25367E+005   -2.14901E+003    1.49100E+003    2.93706E+003
            3423    8.01184E+007    7.99160E+007    7.99160E+007   -1.64666E+005   -2.40021E+005    8.01560E+007   -2.65038E+007    8.01183E+007    7.99160E+007   -2.17162E+005   -1.87525E+005    1.55271E+003   -1.81224E+003    3.46412E+004
            3424    8.01184E+007    7.99177E+007    7.99177E+007   -1.79285E+005   -2.22097E+005    8.01398E+007   -2.65054E+007    8.01184E+007    7.99177E+007   -2.21432E+005   -1.79949E+005    5.78408E+002    1.22602E+002    5.29253E+003
            3425    8.01093E+007    7.99246E+007    7.99246E+007   -1.72600E+005   -1.96910E+005    8.01215E+007   -2.65183E+007    8.01093E+007    7.99246E+007   -1.96866E+005   -1.72645E+005    1.46364E+003    4.11252E+002   -1.04268E+003
            3426    8.00903E+007    7.99406E+007    7.99406E+007   -1.40116E+005   -1.59187E+005    8.00998E+007   -2.65471E+007    8.00903E+007    7.99406E+007   -1.59027E+005   -1.40275E+005    1.23334E+003    7.67435E+002   -1.73460E+003
            3427    8.00867E+007    7.99395E+007    7.99395E+007   -1.14851E+005   -1.79530E+005    8.01190E+007   -2.65484E+007    8.00867E+007    7.99395E+007   -1.67624E+005   -1.26757E+005    2.08151E+003    4.85058E+002    2.50659E+004
            3428    8.00852E+007    7.99396E+007    7.99396E+007   -1.05775E+005   -1.85279E+005    8.01249E+007   -2.65495E+007    8.00851E+007    7.99396E+007   -1.66762E+005   -1.24292E+005    1.92268E+003    6.38108E+002    3.36050E+004
            3429    8.00853E+007    7.99401E+007    7.99401E+007   -1.06741E+005   -1.83502E+005    8.01236E+007   -2.65500E+007    8.00852E+007    7.99401E+007   -1.60807E+005   -1.29436E+005    1.90981E+003   -3.29088E+002    3.50288E+004
            3430    8.00852E+007    7.99425E+007    7.99425E+007   -1.10355E+005   -1.74978E+005    8.01175E+007   -2.65524E+007    8.00851E+007    7.99425E+007   -1.50031E+005   -1.35301E+005    9.28182E+002    1.86290E+002    3.14608E+004
            3431    8.00842E+007    7.99434E+007    7.99434E+007   -1.15721E+005   -1.65761E+005    8.01092E+007   -2.65540E+007    8.00841E+007    7.99434E+007   -1.38698E+005   -1.42784E+005    1.58490E+002   -4.03684E+002    2.49363E+004
            3432    8.00839E+007    7.99454E+007    7.99454E+007   -1.19937E+005   -1.57007E+005    8.01024E+007   -2.65562E+007    8.00839E+007    7.99454E+007   -1.28771E+005   -1.48174E+005   -6.45218E+002    3.52457E+001    1.57931E+004
            3433    8.00830E+007    7.99457E+007    7.99457E+007   -1.22380E+005   -1.52222E+005    8.00979E+007   -2.65570E+007    8.00830E+007    7.99457E+007   -1.23463E+005   -1.51139E+005   -1.12772E+003   -1.54610E+002    5.58111E+003
            3434    8.01013E+007    7.99337E+007    7.99337E+007   -1.37074E+005   -1.98039E+005    8.01318E+007   -2.65329E+007    8.01013E+007    7.99337E+007   -1.81677E+005   -1.53436E+005    7.45684E+002    5.63818E+002    2.70147E+004
            3435    8.00970E+007    7.99366E+007    7.99366E+007   -1.21444E+005   -1.99280E+005    8.01359E+007   -2.65386E+007    8.00969E+007    7.99366E+007   -1.71001E+005   -1.49724E+005   -1.63699E+002   -3.91415E+001    3.74356E+004
            3436    8.00916E+007    7.99384E+007    7.99384E+007   -1.12888E+005   -1.93370E+005    8.01318E+007   -2.65441E+007    8.00915E+007    7.99384E+007   -1.57585E+005   -1.48673E+005   -1.78506E+002    6.71700E+001    3.99936E+004
            3437    8.00877E+007    7.99400E+007    7.99400E+007   -1.09601E+005   -1.85698E+005    8.01257E+007   -2.65482E+007    8.00876E+007    7.99400E+007   -1.43141E+005   -1.52158E+005    1.52330E+002   -8.98642E+002    3.77803E+004
            3438    8.00847E+007    7.99428E+007    7.99428E+007   -1.07765E+005   -1.75915E+005    8.01187E+007   -2.65530E+007    8.00846E+007    7.99428E+007   -1.27929E+005   -1.55751E+005    2.29467E+002   -6.73521E+002    3.11058E+004
            3439    8.00824E+007    7.99444E+007    7.99444E+007   -1.08014E+005   -1.67966E+005    8.01124E+007   -2.65562E+007    8.00824E+007    7.99444E+007   -1.16057E+005   -1.59923E+005    2.94670E+002   -7.12188E+002    2.04325E+004
            3440    8.00812E+007    7.99455E+007    7.99455E+007   -1.08461E+005   -1.62818E+005    8.01084E+007   -2.65581E+007    8.00812E+007    7.99455E+007   -1.09402E+005   -1.61877E+005    3.97075E+002   -1.30853E+002    7.09084E+003
            3441    8.01045E+007    7.99210E+007    7.99210E+007   -1.57691E+005   -2.09257E+005    8.01303E+007   -2.65180E+007    8.01045E+007    7.99210E+007   -1.88922E+005   -1.78026E+005    2.67247E+003    9.33822E+002    2.52007E+004
            3442    8.00999E+007    7.99250E+007    7.99250E+007   -1.41540E+005   -2.08327E+005    8.01333E+007   -2.65250E+007    8.00998E+007    7.99250E+007   -1.76982E+005   -1.72885E+005    3.65429E+003   -2.72473E+003    3.33304E+004
            3443    8.00977E+007    7.99337E+007    7.99337E+007   -1.24712E+005   -2.03188E+005    8.01369E+007   -2.65353E+007    8.00976E+007    7.99337E+007   -1.60045E+005   -1.67855E+005    1.40362E+003    1.58052E+002    3.90434E+004
            3444    8.00889E+007    7.99367E+007    7.99367E+007   -1.11496E+005   -1.92801E+005    8.01295E+007   -2.65441E+007    8.00888E+007    7.99367E+007   -1.38677E+005   -1.65620E+005    7.32702E+002   -1.67665E+003    3.83558E+004
            3445    8.00856E+007    7.99437E+007    7.99437E+007   -1.00973E+005   -1.82699E+005    8.01264E+007   -2.65534E+007    8.00855E+007    7.99437E+007   -1.17471E+005   -1.66202E+005   -3.64563E+002   -6.35641E+002    3.28040E+004
            3446    8.00795E+007    7.99471E+007    7.99471E+007   -9.29271E+004   -1.71876E+005    8.01190E+007   -2.65608E+007    8.00794E+007    7.99471E+007   -9.94151E+004   -1.65388E+005   -9.51238E+002   -1.02212E+003    2.16824E+004
            3447    8.00776E+007    7.99500E+007    7.99500E+007   -8.90395E+004   -1.66141E+005    8.01162E+007   -2.65650E+007    8.00776E+007    7.99500E+007   -8.97954E+004   -1.65385E+005   -1.43130E+003   -8.90225E+001    7.59666E+003
            3448    8.01186E+007    7.99273E+007    7.99273E+007   -1.75216E+005   -2.07533E+005    8.01348E+007   -2.65148E+007    8.01186E+007    7.99273E+007   -1.91315E+005   -1.91434E+005   -4.60734E+003    5.29050E+003    1.61580E+004
            3449    8.01060E+007    7.99198E+007    7.99198E+007   -1.60661E+005   -2.11779E+005    8.01316E+007   -2.65158E+007    8.01060E+007    7.99198E+007   -1.82598E+005   -1.89841E+005   -5.61830E+002   -2.07540E+003    2.53012E+004
            3450    8.01038E+007    7.99302E+007    7.99302E+007   -1.42969E+005   -2.04206E+005    8.01344E+007   -2.65277E+007    8.01037E+007    7.99302E+007   -1.62469E+005   -1.84705E+005   -4.28620E+002   -3.49513E+002    2.85285E+004
            3451    8.00917E+007    7.99345E+007    7.99345E+007   -1.23777E+005   -1.90588E+005    8.01251E+007   -2.65401E+007    8.00917E+007    7.99345E+007   -1.40229E+005   -1.74136E+005   -2.83431E+002   -2.12107E+003    2.87840E+004
            3452    8.00826E+007    7.99460E+007    7.99460E+007   -9.98877E+004   -1.73293E+005    8.01193E+007   -2.65576E+007    8.00825E+007    7.99460E+007   -1.10953E+005   -1.62227E+005   -4.86152E+002   -1.35802E+003    2.62647E+004
            3453    8.00732E+007    7.99525E+007    7.99525E+007   -8.25271E+004   -1.58817E+005    8.01113E+007   -2.65704E+007    8.00731E+007    7.99525E+007   -8.74766E+004   -1.53868E+005   -7.11961E+002   -1.52950E+003    1.87910E+004
            3454    8.00690E+007    7.99575E+007    7.99575E+007   -7.21565E+004   -1.50856E+005    8.01084E+007   -2.65782E+007    8.00690E+007    7.99575E+007   -7.28406E+004   -1.50172E+005   -8.59453E+002   -3.68337E+002    7.30584E+003
            3455    8.00465E+007    7.99737E+007    7.99737E+007   -6.64069E+004   -7.91725E+004    8.00529E+007   -2.66094E+007    8.00465E+007    7.99737E+007   -6.64686E+004   -7.91107E+004   -5.40199E+002   -5.40469E+002   -8.85431E+002
            3456    8.00592E+007    7.99637E+007    7.99637E+007   -8.78406E+004   -1.03168E+005    8.00668E+007   -2.65909E+007    8.00592E+007    7.99637E+007   -8.79265E+004   -1.03082E+005   -6.06388E+002   -1.20668E+003   -1.14433E+003
            3457    8.00787E+007    7.99478E+007    7.99478E+007   -1.22410E+005   -1.39405E+005    8.00872E+007   -2.65620E+007    8.00787E+007    7.99478E+007   -1.22510E+005   -1.39305E+005   -5.66248E+002   -1.55934E+003   -1.30056E+003
            3458    8.00988E+007    7.99322E+007    7.99322E+007   -1.56561E+005   -1.76686E+005    8.01089E+007   -2.65330E+007    8.00988E+007    7.99322E+007   -1.56597E+005   -1.76650E+005   -4.86253E+002   -1.22590E+003   -8.47007E+002
            3459    8.01150E+007    7.99188E+007    7.99188E+007   -1.83266E+005   -2.09053E+005    8.01279E+007   -2.65088E+007    8.01149E+007    7.99188E+007   -1.83356E+005   -2.08963E+005    7.15672E+000   -1.20752E+003   -1.52073E+003
            3460    8.01204E+007    7.99148E+007    7.99148E+007   -1.82070E+005   -2.29184E+005    8.01440E+007   -2.65012E+007    8.01204E+007    7.99148E+007   -1.82496E+005   -2.28759E+005    4.24165E+002   -1.47073E+002    4.45552E+003
            3461    8.01187E+007    7.99153E+007    7.99153E+007   -1.64114E+005   -2.42598E+005    8.01579E+007   -2.65029E+007    8.01186E+007    7.99153E+007   -1.84561E+005   -2.22151E+005    2.35475E+003   -1.00615E+003    3.44479E+004
            3462    8.00643E+007    7.99609E+007    7.99609E+007   -6.95239E+004   -1.37135E+005    8.00981E+007   -2.65848E+007    8.00642E+007    7.99609E+007   -7.00362E+004   -1.36623E+005    6.39225E+002   -1.74678E+002   -5.86311E+003
            3463    8.00738E+007    7.99536E+007    7.99536E+007   -8.05712E+004   -1.59850E+005    8.01135E+007   -2.65711E+007    8.00738E+007    7.99536E+007   -8.13385E+004   -1.59083E+005    1.76919E+003    6.25045E+001   -7.76164E+003
            3464    8.00784E+007    7.99475E+007    7.99475E+007   -9.65099E+004   -1.65164E+005    8.01127E+007   -2.65620E+007    8.00783E+007    7.99475E+007   -9.74601E+004   -1.64214E+005   -2.67940E+002   -9.75603E+001   -8.02092E+003
            3465    8.00828E+007    7.99477E+007    7.99477E+007   -1.10186E+005   -1.60057E+005    8.01077E+007   -2.65591E+007    8.00828E+007    7.99477E+007   -1.11291E+005   -1.58952E+005    1.32504E+003   -7.15354E+000   -7.34020E+003
            3466    8.00807E+007    7.99433E+007    7.99433E+007   -1.22161E+005   -1.52677E+005    8.00959E+007   -2.65561E+007    8.00807E+007    7.99433E+007   -1.23386E+005   -1.51452E+005   -4.67612E+002   -3.17526E+002   -5.99188E+003
            3467    8.00849E+007    7.99465E+007    7.99465E+007   -1.32136E+005   -1.44531E+005    8.00910E+007   -2.65566E+007    8.00849E+007    7.99465E+007   -1.33429E+005   -1.43237E+005    1.40069E+002   -4.45865E+002   -3.78913E+003
            3468    8.00809E+007    7.99427E+007    7.99427E+007   -1.36456E+005   -1.39968E+005    8.00827E+007   -2.65554E+007    8.00809E+007    7.99427E+007   -1.37515E+005   -1.38909E+005    2.05815E+002   -5.31696E+002   -1.61206E+003
            3469    8.00846E+007    7.99462E+007    7.99462E+007   -1.37259E+005   -1.39578E+005    8.00858E+007   -2.65565E+007    8.00846E+007    7.99462E+007   -1.38880E+005   -1.37957E+005   -5.97164E+002   -5.27152E+002    1.06344E+003
            3470    8.00814E+007    7.99429E+007    7.99429E+007   -1.32989E+005   -1.43930E+005    8.00868E+007   -2.65553E+007    8.00813E+007    7.99429E+007   -1.34041E+005   -1.42878E+005    9.67979E+002   -3.79394E+002    3.22617E+003
            3471    8.00709E+007    7.99548E+007    7.99548E+007   -8.30285E+004   -1.49188E+005    8.01040E+007   -2.65742E+007    8.00709E+007    7.99548E+007   -8.74466E+004   -1.44770E+005    5.71829E+002   -1.26341E+003   -1.65160E+004
            3472    8.00775E+007    7.99494E+007    7.99494E+007   -8.89490E+004   -1.67327E+005    8.01167E+007   -2.65644E+007    8.00775E+007    7.99494E+007   -9.50521E+004   -1.61224E+005    1.45679E+003   -8.86610E+002   -2.10026E+004
            3473    8.00807E+007    7.99451E+007    7.99451E+007   -9.99929E+004   -1.71091E+005    8.01162E+007   -2.65580E+007    8.00806E+007    7.99451E+007   -1.07804E+005   -1.63279E+005   -3.25842E+002   -1.01944E+003   -2.22344E+004
            3474    8.00836E+007    7.99458E+007    7.99458E+007   -1.10589E+005   -1.65165E+005    8.01109E+007   -2.65567E+007    8.00836E+007    7.99458E+007   -1.19775E+005   -1.55980E+005    9.90032E+002   -2.87472E+002   -2.04188E+004
            3475    8.00819E+007    7.99432E+007    7.99432E+007   -1.20452E+005   -1.56929E+005    8.01001E+007   -2.65553E+007    8.00818E+007    7.99432E+007   -1.30174E+005   -1.47207E+005   -5.00148E+002   -6.06550E+001   -1.61277E+004
            3476    8.00848E+007    7.99463E+007    7.99463E+007   -1.27825E+005   -1.49337E+005    8.00956E+007   -2.65564E+007    8.00848E+007    7.99463E+007   -1.38805E+005   -1.38357E+005    1.28972E+002    5.28537E+002   -1.07539E+004
            3477    8.00820E+007    7.99438E+007    7.99438E+007   -1.32535E+005   -1.43665E+005    8.00875E+007   -2.65559E+007    8.00819E+007    7.99438E+007   -1.42235E+005   -1.33965E+005    2.74447E+001    5.54217E+002   -3.72446E+003
            3478    8.00847E+007    7.99465E+007    7.99465E+007   -1.32525E+005   -1.43879E+005    8.00904E+007   -2.65567E+007    8.00847E+007    7.99465E+007   -1.43010E+005   -1.33393E+005   -3.56713E+002    6.76917E+002    3.01732E+003
            3479    8.00827E+007    7.99440E+007    7.99440E+007   -1.28594E+005   -1.48759E+005    8.00928E+007   -2.65556E+007    8.00827E+007    7.99440E+007   -1.38211E+005   -1.39143E+005    5.93010E+002    3.95432E+002    1.00718E+004
            3480    8.00834E+007    7.99461E+007    7.99461E+007   -1.06314E+005   -1.68383E+005    8.01144E+007   -2.65571E+007    8.00834E+007    7.99461E+007   -1.16234E+005   -1.58463E+005    4.49772E+002   -1.29825E+003   -2.27449E+004
            3481    8.00857E+007    7.99444E+007    7.99444E+007   -1.01799E+005   -1.80657E+005    8.01251E+007   -2.65540E+007    8.00856E+007    7.99444E+007   -1.17062E+005   -1.65394E+005    9.69421E+002   -5.34683E+002   -3.11554E+004
            3482    8.00858E+007    7.99425E+007    7.99425E+007   -1.05672E+005   -1.80852E+005    8.01233E+007   -2.65520E+007    8.00857E+007    7.99425E+007   -1.25373E+005   -1.61152E+005   -3.11640E+002   -8.04235E+002   -3.30601E+004
            3483    8.00858E+007    7.99436E+007    7.99436E+007   -1.10657E+005   -1.73732E+005    8.01173E+007   -2.65531E+007    8.00858E+007    7.99436E+007   -1.33518E+005   -1.50871E+005    3.01462E+002   -2.90235E+002   -3.03205E+004
            3484    8.00833E+007    7.99428E+007    7.99428E+007   -1.16140E+005   -1.64898E+005    8.01077E+007   -2.65539E+007    8.00833E+007    7.99428E+007   -1.41733E+005   -1.39305E+005   -5.37119E+002   -6.70744E+002   -2.43491E+004
            3485    8.00833E+007    7.99445E+007    7.99445E+007   -1.20836E+005   -1.56758E+005    8.01012E+007   -2.65556E+007    8.00832E+007    7.99445E+007   -1.47932E+005   -1.29661E+005   -5.93222E+001   -6.35709E+002   -1.54642E+004
            3486    8.00814E+007    7.99438E+007    7.99438E+007   -1.23385E+005   -1.51737E+005    8.00955E+007   -2.65562E+007    8.00814E+007    7.99438E+007   -1.50716E+005   -1.24406E+005   -1.47994E+002   -8.27631E+002   -5.28365E+003
            3487    8.00824E+007    7.99446E+007    7.99446E+007   -1.23825E+005   -1.51881E+005    8.00964E+007   -2.65563E+007    8.00824E+007    7.99446E+007   -1.50635E+005   -1.25071E+005    8.60591E+001   -7.09751E+002    5.78059E+003
            3488    8.00821E+007    7.99433E+007    7.99433E+007   -1.21061E+005   -1.56486E+005    8.00998E+007   -2.65553E+007    8.00821E+007    7.99433E+007   -1.46353E+005   -1.31194E+005    3.29006E+002   -7.44193E+002    1.60091E+004
            3489    8.00942E+007    7.99341E+007    7.99341E+007   -1.31534E+005   -1.88519E+005    8.01226E+007   -2.65380E+007    8.00941E+007    7.99341E+007   -1.46344E+005   -1.73709E+005    5.35692E+002   -1.95084E+003   -2.49926E+004
            3490    8.00914E+007    7.99352E+007    7.99352E+007   -1.18514E+005   -1.93678E+005    8.01289E+007   -2.65410E+007    8.00913E+007    7.99352E+007   -1.43601E+005   -1.68591E+005   -1.89346E+002   -1.72600E+003   -3.54439E+004
            3491    8.00894E+007    7.99380E+007    7.99380E+007   -1.12479E+005   -1.90224E+005    8.01282E+007   -2.65451E+007    8.00893E+007    7.99380E+007   -1.44564E+005   -1.58140E+005   -1.04430E+002   -1.44304E+003   -3.82753E+004
            3492    8.00865E+007    7.99401E+007    7.99401E+007   -1.10371E+005   -1.82482E+005    8.01225E+007   -2.65491E+007    8.00864E+007    7.99401E+007   -1.49236E+005   -1.43617E+005   -6.30869E+002   -7.50362E+002   -3.59461E+004
            3493    8.00850E+007    7.99438E+007    7.99438E+007   -1.09838E+005   -1.72626E+005    8.01164E+007   -2.65538E+007    8.00850E+007    7.99438E+007   -1.53726E+005   -1.28738E+005   -5.04086E+002    1.54862E+002   -2.88009E+004
            3494    8.00823E+007    7.99453E+007    7.99453E+007   -1.09752E+005   -1.64235E+005    8.01095E+007   -2.65571E+007    8.00823E+007    7.99453E+007   -1.57213E+005   -1.16774E+005   -2.94864E+002    1.09967E+003   -1.82557E+004
            3495    8.00822E+007    7.99470E+007    7.99470E+007   -1.10600E+005   -1.59659E+005    8.01067E+007   -2.65589E+007    8.00822E+007    7.99470E+007   -1.59130E+005   -1.11129E+005   -2.83581E+002    1.30258E+003   -5.06642E+003
            3496    8.00815E+007    7.99462E+007    7.99462E+007   -1.10952E+005   -1.59778E+005    8.01059E+007   -2.65585E+007    8.00815E+007    7.99462E+007   -1.58269E+005   -1.12461E+005    1.71251E+002    1.51807E+003    8.44911E+003
            3497    8.00842E+007    7.99459E+007    7.99459E+007   -1.11016E+005   -1.65591E+005    8.01114E+007   -2.65564E+007    8.00841E+007    7.99459E+007   -1.55349E+005   -1.21257E+005   -6.13329E+001    1.07802E+003    2.13081E+004
            3498    8.01072E+007    7.99282E+007    7.99282E+007   -1.54970E+005   -2.03043E+005    8.01312E+007   -2.65234E+007    8.01072E+007    7.99282E+007   -1.72069E+005   -1.85945E+005    6.38023E+002   -5.57219E+002   -2.30135E+004
            3499    8.01007E+007    7.99321E+007    7.99321E+007   -1.33560E+005   -2.03630E+005    8.01357E+007   -2.65316E+007    8.01006E+007    7.99321E+007   -1.64265E+005   -1.72925E+005   -8.80858E+002   -7.61184E+001   -3.47666E+004
            3500    8.00952E+007    7.99368E+007    7.99368E+007   -1.19182E+005   -1.97449E+005    8.01343E+007   -2.65401E+007    8.00951E+007    7.99368E+007   -1.61592E+005   -1.55039E+005    2.24803E+002    2.19752E+002   -3.89959E+004
            3501    8.00872E+007    7.99386E+007    7.99386E+007   -1.09695E+005   -1.87631E+005    8.01262E+007   -2.65471E+007    8.00872E+007    7.99386E+007   -1.60978E+005   -1.36348E+005   -1.35401E+003   -6.37217E+001   -3.69708E+004
            3502    8.00848E+007    7.99445E+007    7.99445E+007   -1.02230E+005   -1.78237E+005    8.01227E+007   -2.65547E+007    8.00847E+007    7.99445E+007   -1.63106E+005   -1.17361E+005   -8.17644E+002   -3.87071E+002   -3.03506E+004
            3503    8.00791E+007    7.99453E+007    7.99453E+007   -9.86363E+004   -1.68946E+005    8.01143E+007   -2.65593E+007    8.00791E+007    7.99453E+007   -1.63651E+005   -1.03931E+005   -7.63738E+002   -4.79999E+002   -1.85530E+004
            3504    8.00800E+007    7.99489E+007    7.99489E+007   -9.66134E+004   -1.65456E+005    8.01144E+007   -2.65623E+007    8.00799E+007    7.99489E+007   -1.65186E+005   -9.68828E+004   -4.03189E+002   -4.57049E+002   -4.29788E+003
            3505    8.00785E+007    7.99461E+007    7.99461E+007   -9.86136E+004   -1.66263E+005    8.01124E+007   -2.65604E+007    8.00785E+007    7.99461E+007   -1.64338E+005   -1.00539E+005    6.25222E+002   -4.20833E+002    1.12480E+004
            3506    8.00834E+007    7.99461E+007    7.99461E+007   -1.01261E+005   -1.73181E+005    8.01193E+007   -2.65572E+007    8.00833E+007    7.99461E+007   -1.63301E+005   -1.11142E+005    2.70188E+002   -5.39409E+002    2.47589E+004
            3507    8.01090E+007    7.99188E+007    7.99188E+007   -1.72709E+005   -2.07775E+005    8.01266E+007   -2.65128E+007    8.01090E+007    7.99188E+007   -1.86216E+005   -1.94268E+005    9.61946E+002   -1.83702E+003   -1.70646E+004
            3508    8.01015E+007    7.99224E+007    7.99224E+007   -1.50407E+005   -2.07720E+005    8.01301E+007   -2.65214E+007    8.01015E+007    7.99224E+007   -1.80815E+005   -1.77312E+005   -2.84889E+003   -3.28494E+003   -2.86025E+004
            3509    8.00986E+007    7.99341E+007    7.99341E+007   -1.29186E+005   -1.99729E+005    8.01339E+007   -2.65351E+007    8.00985E+007    7.99341E+007   -1.72632E+005   -1.56283E+005   -3.09401E+002   -1.02727E+003   -3.43108E+004
            3510    8.00868E+007    7.99375E+007    7.99375E+007   -1.10678E+005   -1.87860E+005    8.01253E+007   -2.65463E+007    8.00867E+007    7.99375E+007   -1.67270E+005   -1.31268E+005   -1.53531E+003   -3.62168E+002   -3.41350E+004
            3511    8.00826E+007    7.99473E+007    7.99473E+007   -9.48357E+004   -1.75715E+005    8.01230E+007   -2.65589E+007    8.00825E+007    7.99473E+007   -1.64413E+005   -1.06137E+005   -8.80430E+002    7.35364E+002   -2.80419E+004
            3512    8.00738E+007    7.99497E+007    7.99497E+007   -8.39515E+004   -1.64359E+005    8.01140E+007   -2.65671E+007    8.00738E+007    7.99497E+007   -1.60778E+005   -8.75324E+004   -7.49592E+002    1.41297E+003   -1.65866E+004
            3513    8.00747E+007    7.99543E+007    7.99543E+007   -7.99277E+004   -1.60795E+005    8.01151E+007   -2.65712E+007    8.00746E+007    7.99543E+007   -1.60712E+005   -8.00107E+004   -4.67190E+002    1.63271E+003   -2.59062E+003
            3514    8.00732E+007    7.99506E+007    7.99506E+007   -8.24387E+004   -1.62586E+005    8.01132E+007   -2.65685E+007    8.00731E+007    7.99506E+007   -1.60774E+005   -8.42509E+004    5.05541E+002    1.73167E+003    1.19149E+004
            3515    8.00818E+007    7.99493E+007    7.99493E+007   -9.18486E+004   -1.73096E+005    8.01224E+007   -2.65615E+007    8.00817E+007    7.99493E+007   -1.64478E+005   -1.00467E+005    1.65210E+002    1.50396E+003    2.50184E+004
            3516    8.01217E+007    7.99256E+007    7.99256E+007   -1.85059E+005   -2.07218E+005    8.01328E+007   -2.65111E+007    8.01217E+007    7.99256E+007   -1.95434E+005   -1.96844E+005    4.04118E+003    4.52532E+003   -1.10569E+004
            3517    8.01055E+007    7.99210E+007    7.99210E+007   -1.65866E+005   -2.02933E+005    8.01240E+007   -2.65174E+007    8.01054E+007    7.99210E+007   -1.85775E+005   -1.83023E+005   -1.47834E+003    1.27366E+003   -1.84823E+004
            3518    8.01014E+007    7.99322E+007    7.99322E+007   -1.41525E+005   -1.96845E+005    8.01290E+007   -2.65313E+007    8.01013E+007    7.99322E+007   -1.79922E+005   -1.58448E+005   -6.74477E+002    5.49355E+002   -2.54910E+004
            3519    8.00866E+007    7.99383E+007    7.99383E+007   -1.17615E+005   -1.78949E+005    8.01173E+007   -2.65473E+007    8.00866E+007    7.99383E+007   -1.66752E+005   -1.29812E+005   -1.83482E+003    4.13610E+002   -2.44809E+004
            3520    8.00771E+007    7.99510E+007    7.99510E+007   -9.31058E+004   -1.59045E+005    8.01100E+007   -2.65663E+007    8.00770E+007    7.99510E+007   -1.52399E+005   -9.97519E+004   -1.39024E+003    3.50864E+002   -1.98511E+004
            3521    8.00659E+007    7.99569E+007    7.99569E+007   -7.55019E+004   -1.42408E+005    8.00993E+007   -2.65797E+007    8.00658E+007    7.99569E+007   -1.40169E+005   -7.77409E+004   -1.12846E+003    3.81880E+002   -1.20329E+004
            3522    8.00647E+007    7.99621E+007    7.99621E+007   -6.75686E+004   -1.37597E+005    8.00997E+007   -2.65857E+007    8.00647E+007    7.99621E+007   -1.37569E+005   -6.75966E+004   -4.08389E+002    5.46316E+002   -1.40071E+003
            3523    8.00661E+007    7.99576E+007    7.99576E+007   -7.43649E+004   -1.42547E+005    8.01001E+007   -2.65802E+007    8.00660E+007    7.99576E+007   -1.41062E+005   -7.58500E+004    5.67100E+002    5.20800E+002    9.95257E+003
            3524    8.00775E+007    7.99527E+007    7.99527E+007   -9.06311E+004   -1.58936E+005    8.01116E+007   -2.65677E+007    8.00774E+007    7.99527E+007   -1.53131E+005   -9.64365E+004    9.07978E+002    4.63720E+002    1.90482E+004
            3525    8.00675E+007    7.99572E+007    7.99572E+007   -1.02986E+005   -1.17638E+005    8.00748E+007   -2.65789E+007    8.00675E+007    7.99572E+007   -1.17164E+005   -1.03460E+005    9.96101E+002    5.54959E+002   -2.59217E+003
            3526    8.00495E+007    7.99712E+007    7.99712E+007   -7.31552E+004   -8.34501E+004    8.00547E+007   -2.66049E+007    8.00495E+007    7.99712E+007   -8.29735E+004   -7.36318E+004    4.88563E+002    5.66546E+002   -2.16317E+003
            3527    8.00418E+007    7.99760E+007    7.99760E+007   -6.25796E+004   -6.89970E+004    8.00450E+007   -2.66148E+007    8.00418E+007    7.99760E+007   -6.89886E+004   -6.25880E+004   -3.83194E+002    4.29395E+002   -2.31995E+002
            3528    8.00491E+007    7.99705E+007    7.99705E+007   -7.38426E+004   -8.33104E+004    8.00538E+007   -2.66044E+007    8.00491E+007    7.99705E+007   -8.29577E+004   -7.41953E+004   -8.91966E+002    5.08421E+002    1.79302E+003
            3529    8.00665E+007    7.99562E+007    7.99562E+007   -1.03758E+005   -1.16804E+005    8.00730E+007   -2.65786E+007    8.00665E+007    7.99562E+007   -1.16420E+005   -1.04142E+005   -1.34662E+003    4.53934E+002    2.20313E+003
            3530    8.00889E+007    7.99399E+007    7.99399E+007   -1.39893E+005   -1.58100E+005    8.00980E+007   -2.65473E+007    8.00889E+007    7.99399E+007   -1.57853E+005   -1.40140E+005   -1.08361E+003    4.95832E+002    2.10766E+003
            3531    8.01070E+007    7.99249E+007    7.99249E+007   -1.69337E+005   -1.94782E+005    8.01197E+007   -2.65203E+007    8.01070E+007    7.99249E+007   -1.94684E+005   -1.69435E+005   -1.34036E+003    9.59556E+001   -1.57724E+003
            3532    8.01172E+007    7.99182E+007    7.99182E+007   -1.82874E+005   -2.15092E+005    8.01333E+007   -2.65068E+007    8.01172E+007    7.99182E+007   -2.09083E+005   -1.88883E+005   -1.17522E+002   -3.52409E+002   -1.25496E+004
            3533    8.01181E+007    7.99152E+007    7.99152E+007   -1.83527E+005   -2.22236E+005    8.01375E+007   -2.65032E+007    8.01181E+007    7.99152E+007   -1.93244E+005   -2.12520E+005   -1.86378E+003   -2.34401E+003   -1.67840E+004
            3534    8.00440E+007    7.99753E+007    7.99753E+007   -6.56485E+004   -7.18101E+004    8.00471E+007   -2.66126E+007    8.00440E+007    7.99753E+007   -6.57140E+004   -7.17446E+004    4.78515E+002   -3.27284E+002    6.31879E+002
            3535    8.00582E+007    7.99649E+007    7.99649E+007   -8.84467E+004   -9.80601E+004    8.00630E+007   -2.65928E+007    8.00581E+007    7.99649E+007   -8.86414E+004   -9.78653E+004    5.65021E+002   -8.52704E+002    1.35432E+003
            3536    8.00792E+007    7.99482E+007    7.99482E+007   -1.25239E+005   -1.36735E+005    8.00849E+007   -2.65621E+007    8.00792E+007    7.99482E+007   -1.25240E+005   -1.36734E+005    6.17538E+002   -1.30967E+003   -8.65861E+001
            3537    8.01007E+007    7.99323E+007    7.99323E+007   -1.63498E+005   -1.73295E+005    8.01056E+007   -2.65318E+007    8.01007E+007    7.99323E+007   -1.63500E+005   -1.73294E+005    5.89886E+002   -9.88260E+002   -1.19361E+002
            3538    8.01151E+007    7.99196E+007    7.99196E+007   -1.89016E+005   -2.02098E+005    8.01217E+007   -2.65095E+007    8.01151E+007    7.99196E+007   -1.89033E+005   -2.02081E+005    2.88631E+002   -1.32429E+003    4.71381E+002
            3539    8.01238E+007    7.99138E+007    7.99138E+007   -2.03166E+005   -2.16827E+005    8.01306E+007   -2.64979E+007    8.01238E+007    7.99138E+007   -2.03231E+005   -2.16762E+005   -1.37475E+002   -1.31417E+002    9.41208E+002
            3540    8.01224E+007    7.99114E+007    7.99114E+007   -1.95555E+005   -2.26492E+005    8.01379E+007   -2.64965E+007    8.01224E+007    7.99114E+007   -1.95758E+005   -2.26289E+005   -2.18712E+003   -1.79126E+003   -2.49647E+003
            3541    8.00694E+007    7.99586E+007    7.99586E+007   -7.06512E+004   -1.50931E+005    8.01096E+007   -2.65790E+007    8.00694E+007    7.99586E+007   -7.12274E+004   -1.50355E+005   -2.51288E+003    3.87505E+002   -6.77698E+003
            3542    8.00781E+007    7.99491E+007    7.99491E+007   -9.08620E+004   -1.66989E+005    8.01161E+007   -2.65638E+007    8.00780E+007    7.99491E+007   -9.16268E+004   -1.66225E+005   -1.79935E+002    3.21999E+002   -7.59145E+003
            3543    8.00812E+007    7.99471E+007    7.99471E+007   -1.06225E+005   -1.61862E+005    8.01090E+007   -2.65597E+007    8.00811E+007    7.99471E+007   -1.07129E+005   -1.60958E+005   -2.50837E+003    7.68576E+001   -7.03502E+003
            3544    8.00805E+007    7.99424E+007    7.99424E+007   -1.23147E+005   -1.53010E+005    8.00954E+007   -2.65554E+007    8.00805E+007    7.99424E+007   -1.24212E+005   -1.51946E+005    1.90148E+003    5.83324E+001   -5.53667E+003
            3545    8.00750E+007    7.99545E+007    7.99545E+007   -8.15962E+004   -1.59337E+005    8.01138E+007   -2.65712E+007    8.00749E+007    7.99545E+007   -8.62044E+004   -1.54728E+005   -2.16182E+003    1.39845E+003   -1.83581E+004
            3546    8.00810E+007    7.99474E+007    7.99474E+007   -9.36370E+004   -1.73535E+005    8.01210E+007   -2.65601E+007    8.00810E+007    7.99474E+007   -1.00522E+005   -1.66650E+005   -1.28737E+001    1.16624E+003   -2.24211E+004
            3547    8.00833E+007    7.99462E+007    7.99462E+007   -1.06480E+005   -1.67691E+005    8.01139E+007   -2.65574E+007    8.00833E+007    7.99462E+007   -1.14643E+005   -1.59529E+005   -1.88571E+003    1.48741E+002   -2.08094E+004
            3548    8.00816E+007    7.99426E+007    7.99426E+007   -1.20352E+005   -1.57653E+005    8.01002E+007   -2.65549E+007    8.00816E+007    7.99426E+007   -1.29433E+005   -1.48572E+005    1.52174E+003    1.74873E+002   -1.60084E+004
            3549    8.00816E+007    7.99447E+007    7.99447E+007   -1.00065E+005   -1.73782E+005    8.01185E+007   -2.65569E+007    8.00815E+007    7.99447E+007   -1.10965E+005   -1.62883E+005   -1.27598E+003    2.28198E+003   -2.61668E+004
            3550    8.00841E+007    7.99417E+007    7.99417E+007   -1.01080E+005   -1.83487E+005    8.01252E+007   -2.65524E+007    8.00840E+007    7.99417E+007   -1.17998E+005   -1.66569E+005    1.17586E+002    2.04928E+003   -3.32855E+004
            3551    8.00850E+007    7.99430E+007    7.99430E+007   -1.07440E+005   -1.76433E+005    8.01195E+007   -2.65531E+007    8.00849E+007    7.99430E+007   -1.27839E+005   -1.56034E+005   -4.58822E+002    7.42088E+002   -3.14846E+004
            3552    8.00840E+007    7.99430E+007    7.99430E+007   -1.15738E+005   -1.66234E+005    8.01092E+007   -2.65537E+007    8.00839E+007    7.99430E+007   -1.39105E+005   -1.42866E+005    8.06988E+002    1.88841E+002   -2.51778E+004
            3553    8.00942E+007    7.99363E+007    7.99363E+007   -1.23962E+005   -1.91919E+005    8.01282E+007   -2.65401E+007    8.00942E+007    7.99363E+007   -1.40658E+005   -1.75223E+005   -3.07171E+001    2.16180E+003   -2.92549E+004
            3554    8.00912E+007    7.99390E+007    7.99390E+007   -1.10281E+005   -1.94034E+005    8.01330E+007   -2.65449E+007    8.00911E+007    7.99390E+007   -1.37863E+005   -1.66452E+005   -1.40890E+002    1.83704E+003   -3.93614E+004
            3555    8.00884E+007    7.99398E+007    7.99398E+007   -1.09707E+005   -1.87437E+005    8.01273E+007   -2.65476E+007    8.00883E+007    7.99398E+007   -1.44358E+005   -1.52786E+005    1.51070E+003    9.05827E+002   -3.86355E+004
            3556    8.00861E+007    7.99432E+007    7.99432E+007   -1.09852E+005   -1.75985E+005    8.01191E+007   -2.65524E+007    8.00860E+007    7.99432E+007   -1.50665E+005   -1.35172E+005    2.73868E+002    4.30886E+002   -3.21461E+004
            3557    8.00990E+007    7.99232E+007    7.99232E+007   -1.45179E+005   -2.06355E+005    8.01295E+007   -2.65239E+007    8.00989E+007    7.99232E+007   -1.66352E+005   -1.85181E+005    1.68478E+003    2.67691E+003   -2.91029E+004
            3558    8.00931E+007    7.99304E+007    7.99304E+007   -1.23831E+005   -2.01346E+005    8.01318E+007   -2.65351E+007    8.00930E+007    7.99304E+007   -1.58896E+005   -1.66281E+005   -4.88373E+002    2.14052E+003   -3.85810E+004
            3559    8.00881E+007    7.99336E+007    7.99336E+007   -1.13914E+005   -1.94909E+005    8.01286E+007   -2.65416E+007    8.00880E+007    7.99336E+007   -1.59438E+005   -1.49386E+005    3.48326E+003    1.85758E+003   -4.01845E+004
            3560    8.00888E+007    7.99438E+007    7.99438E+007   -1.05483E+005   -1.84465E+005    8.01283E+007   -2.65513E+007    8.00888E+007    7.99438E+007   -1.61804E+005   -1.28144E+005    3.87463E+002   -1.59966E+002   -3.57252E+004
            3561    8.01124E+007    7.99227E+007    7.99227E+007   -1.61374E+005   -2.17981E+005    8.01407E+007   -2.65145E+007    8.01124E+007    7.99227E+007   -1.86618E+005   -1.92737E+005    3.57796E+003    6.13001E+002   -2.81375E+004
            3562    8.01052E+007    7.99332E+007    7.99332E+007   -1.38074E+005   -2.05737E+005    8.01390E+007   -2.65298E+007    8.01051E+007    7.99332E+007   -1.74217E+005   -1.69594E+005   -2.27420E+003   -2.10881E+003   -3.37527E+004
            3563    8.00902E+007    7.99302E+007    7.99302E+007   -1.21548E+005   -1.98302E+005    8.01285E+007   -2.65368E+007    8.00901E+007    7.99302E+007   -1.70634E+005   -1.49216E+005    3.71195E+003   -2.32473E+002   -3.68527E+004
            3564    8.00898E+007    7.99437E+007    7.99437E+007   -1.04994E+005   -1.87068E+005    8.01308E+007   -2.65506E+007    8.00897E+007    7.99437E+007   -1.68515E+005   -1.23548E+005    1.43499E+003   -1.37047E+002   -3.43299E+004
            3565    8.01027E+007    7.99021E+007    7.99021E+007   -1.82542E+005   -2.18566E+005    8.01207E+007   -2.65003E+007    8.01026E+007    7.99021E+007   -2.00258E+005   -2.00849E+005    8.96492E+003    8.02226E+003   -1.80087E+004
            3566    8.01114E+007    7.99259E+007    7.99259E+007   -1.57352E+005   -2.13668E+005    8.01395E+007   -2.65183E+007    8.01114E+007    7.99259E+007   -1.91319E+005   -1.79701E+005    6.79017E+002    1.87645E+003   -2.75519E+004
            3567    8.00951E+007    7.99270E+007    7.99270E+007   -1.38706E+005   -1.97375E+005    8.01244E+007   -2.65303E+007    8.00950E+007    7.99270E+007   -1.80990E+005   -1.55092E+005    3.04421E+003    1.64979E+002   -2.63216E+004
            3568    8.00898E+007    7.99430E+007    7.99430E+007   -1.14200E+005   -1.79284E+005    8.01223E+007   -2.65499E+007    8.00897E+007    7.99430E+007   -1.68097E+005   -1.25386E+005    1.80273E+003   -9.45044E+002   -2.45547E+004
            3569    8.00892E+007    7.99396E+007    7.99396E+007   -1.39877E+005   -1.59251E+005    8.00989E+007   -2.65468E+007    8.00892E+007    7.99396E+007   -1.59209E+005   -1.39920E+005    2.69170E+003   -8.81231E+002    9.01893E+002
            3570    8.01084E+007    7.99246E+007    7.99246E+007   -1.71542E+005   -1.96209E+005    8.01208E+007   -2.65189E+007    8.01084E+007    7.99246E+007   -1.96199E+005   -1.71552E+005    1.82425E+003   -1.20145E+003    5.05353E+002
            3571    8.01149E+007    7.99152E+007    7.99152E+007   -1.77349E+005   -2.22012E+005    8.01372E+007   -2.65053E+007    8.01149E+007    7.99152E+007   -2.21491E+005   -1.77870E+005    2.48214E+003   -1.23790E+003   -4.79542E+003
            3572    8.01138E+007    7.99167E+007    7.99167E+007   -1.61890E+005   -2.32113E+005    8.01488E+007   -2.65076E+007    8.01137E+007    7.99167E+007   -2.12704E+005   -1.81299E+005   -1.19949E+003   -3.41787E+003   -3.14047E+004
            3573    8.00481E+007    7.99761E+007    7.99761E+007   -6.50880E+004   -7.88774E+004    8.00550E+007   -2.66107E+007    8.00481E+007    7.99761E+007   -6.51211E+004   -7.88443E+004   -8.88175E+002    5.59943E+002    6.74412E+002
            3574    8.00603E+007    7.99653E+007    7.99653E+007   -8.69396E+004   -1.03105E+005    8.00684E+007   -2.65918E+007    8.00603E+007    7.99653E+007   -8.69579E+004   -1.03087E+005   -9.16855E+002    1.83956E+003    5.43068E+002
            3575    8.00800E+007    7.99488E+007    7.99488E+007   -1.22392E+005   -1.39995E+005    8.00888E+007   -2.65621E+007    8.00800E+007    7.99488E+007   -1.22429E+005   -1.39957E+005   -1.10539E+003    2.67107E+003    8.14573E+002
            3576    8.00983E+007    7.99308E+007    7.99308E+007   -1.56751E+005   -1.78148E+005    8.01090E+007   -2.65320E+007    8.00983E+007    7.99308E+007   -1.56767E+005   -1.78132E+005   -9.81188E+002    2.89018E+003    5.73346E+002
            3577    8.01149E+007    7.99177E+007    7.99177E+007   -1.83209E+005   -2.11137E+005    8.01289E+007   -2.65078E+007    8.01149E+007    7.99177E+007   -1.83246E+005   -2.11100E+005   -1.15875E+003    1.64924E+003    1.01437E+003
            3578    8.01175E+007    7.99122E+007    7.99122E+007   -1.79258E+005   -2.31407E+005    8.01436E+007   -2.65005E+007    8.01175E+007    7.99122E+007   -1.79647E+005   -2.31018E+005   -1.14569E+003    1.90024E+003   -4.48725E+003
            3579    8.01142E+007    7.99159E+007    7.99159E+007   -1.60210E+005   -2.36397E+005    8.01523E+007   -2.65064E+007    8.01142E+007    7.99159E+007   -1.79255E+005   -2.17352E+005   -3.03450E+003   -1.95704E+003   -3.29890E+004
            3580    8.00694E+007    7.99583E+007    7.99583E+007   -1.03854E+005   -1.18448E+005    8.00767E+007   -2.65787E+007    8.00694E+007    7.99583E+007   -1.18158E+005   -1.04143E+005    1.89579E+003   -8.52563E+002    2.03646E+003
            3581    8.00510E+007    7.99722E+007    7.99722E+007   -7.37986E+004   -8.37628E+004    8.00560E+007   -2.66049E+007    8.00510E+007    7.99722E+007   -8.32834E+004   -7.42779E+004    9.84701E+002   -5.73809E+002    2.13218E+003
            3582    8.00440E+007    7.99784E+007    7.99784E+007   -6.27152E+004   -6.85179E+004    8.00469E+007   -2.66157E+007    8.00440E+007    7.99784E+007   -6.84774E+004   -6.27557E+004   -1.93080E+002   -5.75769E+002    4.83094E+002
            3583    8.00503E+007    7.99721E+007    7.99721E+007   -7.39641E+004   -8.24164E+004    8.00545E+007   -2.66052E+007    8.00503E+007    7.99721E+007   -8.21299E+004   -7.42506E+004   -1.33005E+003   -5.44712E+002   -1.52938E+003
            3584    8.00682E+007    7.99578E+007    7.99578E+007   -1.03917E+005   -1.16793E+005    8.00746E+007   -2.65790E+007    8.00682E+007    7.99578E+007   -1.16547E+005   -1.04164E+005   -2.14429E+003   -7.39236E+002   -1.76359E+003
            3585    8.00887E+007    7.99389E+007    7.99389E+007   -1.40508E+005   -1.59109E+005    8.00980E+007   -2.65464E+007    8.00887E+007    7.99389E+007   -1.58951E+005   -1.40665E+005   -2.51452E+003   -7.89260E+002   -1.70458E+003
            3586    8.01077E+007    7.99246E+007    7.99246E+007   -1.69016E+005   -1.97078E+005    8.01217E+007   -2.65195E+007    8.01077E+007    7.99246E+007   -1.96971E+005   -1.69123E+005   -1.70816E+003   -1.12765E+003    1.73466E+003
            3587    8.01141E+007    7.99155E+007    7.99155E+007   -1.81107E+005   -2.16044E+005    8.01316E+007   -2.65061E+007    8.01141E+007    7.99155E+007   -2.10894E+005   -1.86257E+005   -1.86328E+003   -1.47385E+003    1.23858E+004
            3588    8.01160E+007    7.99188E+007    7.99188E+007   -1.80376E+005   -2.13989E+005    8.01328E+007   -2.65082E+007    8.01160E+007    7.99188E+007   -1.89180E+005   -2.05185E+005    2.07083E+003   -4.16088E+003    1.47792E+004
            3589    8.00739E+007    7.99508E+007    7.99508E+007   -8.93387E+004   -1.56893E+005    8.01077E+007   -2.65682E+007    8.00739E+007    7.99508E+007   -1.51242E+005   -9.49897E+004    1.66334E+003   -1.87778E+003   -1.87034E+004
            3590    8.00782E+007    7.99450E+007    7.99450E+007   -9.29660E+004   -1.73311E+005    8.01183E+007   -2.65596E+007    8.00781E+007    7.99450E+007   -1.64174E+005   -1.02103E+005    1.92110E+003   -5.59454E+001   -2.55075E+004
            3591    8.00809E+007    7.99449E+007    7.99449E+007   -9.97121E+004   -1.72218E+005    8.01172E+007   -2.65577E+007    8.00809E+007    7.99449E+007   -1.62357E+005   -1.09573E+005    9.53393E+002   -1.76550E+003   -2.48544E+004
            3592    8.00814E+007    7.99427E+007    7.99427E+007   -1.11080E+005   -1.66182E+005    8.01089E+007   -2.65552E+007    8.00814E+007    7.99427E+007   -1.56072E+005   -1.21190E+005    5.99263E+002    6.19804E+002   -2.13277E+004
            3593    8.00850E+007    7.99462E+007    7.99462E+007   -1.21021E+005   -1.56472E+005    8.01027E+007   -2.65563E+007    8.00850E+007    7.99462E+007   -1.46706E+005   -1.30787E+005   -2.85885E+002   -3.76566E+002   -1.58382E+004
            3594    8.00850E+007    7.99463E+007    7.99463E+007   -1.28738E+005   -1.48679E+005    8.00950E+007   -2.65563E+007    8.00850E+007    7.99463E+007   -1.39167E+005   -1.38250E+005   -9.16149E+002    1.89579E+002   -9.96041E+003
            3595    8.00858E+007    7.99475E+007    7.99475E+007   -1.33359E+005   -1.43333E+005    8.00908E+007   -2.65569E+007    8.00858E+007    7.99475E+007   -1.34556E+005   -1.42137E+005   -1.31675E+003   -1.14222E+002   -3.24121E+003
            3596    8.00683E+007    7.99615E+007    7.99615E+007   -7.16047E+004   -1.41949E+005    8.01034E+007   -2.65826E+007    8.00682E+007    7.99615E+007   -1.40530E+005   -7.30240E+004    5.76970E+002   -2.29442E+003   -9.89090E+003
            3597    8.00774E+007    7.99534E+007    7.99534E+007   -8.35672E+004   -1.64474E+005    8.01179E+007   -2.65685E+007    8.00774E+007    7.99534E+007   -1.62577E+005   -8.54639E+004    5.11192E+002   -8.26222E+001   -1.22418E+004
            3598    8.00814E+007    7.99505E+007    7.99505E+007   -9.55791E+004   -1.66253E+005    8.01167E+007   -2.65629E+007    8.00814E+007    7.99505E+007   -1.64443E+005   -9.73892E+004   -1.86902E+002   -2.47457E+003   -1.11651E+004
            3599    8.00804E+007    7.99447E+007    7.99447E+007   -1.10786E+005   -1.60728E+005    8.01054E+007   -2.65577E+007    8.00804E+007    7.99447E+007   -1.59349E+005   -1.12165E+005    3.84911E+001    9.69549E+002   -8.18354E+003
            3600    8.00830E+007    7.99454E+007    7.99454E+007   -1.23894E+005   -1.51268E+005    8.00966E+007   -2.65567E+007    8.00829E+007    7.99454E+007   -1.50048E+005   -1.25114E+005    1.63093E+002   -5.67804E+002   -5.64834E+003
            3601    8.00800E+007    7.99420E+007    7.99420E+007   -1.32776E+005   -1.43237E+005    8.00852E+007   -2.65553E+007    8.00800E+007    7.99420E+007   -1.42349E+005   -1.33665E+005    5.33733E+002    3.52609E+002   -2.91686E+003
            3602    8.00804E+007    7.99422E+007    7.99422E+007   -1.36919E+005   -1.39457E+005    8.00816E+007   -2.65553E+007    8.00804E+007    7.99422E+007   -1.37703E+005   -1.38672E+005    7.03563E+002   -1.76773E+002   -1.17297E+003
            3603    8.00622E+007    7.99618E+007    7.99618E+007   -6.52641E+004   -1.35510E+005    8.00974E+007   -2.65870E+007    8.00622E+007    7.99618E+007   -1.35497E+005   -6.52777E+004   -2.29613E+002   -2.34120E+003    9.78924E+002
            3604    8.00723E+007    7.99514E+007    7.99514E+007   -8.18559E+004   -1.59976E+005    8.01113E+007   -2.65698E+007    8.00722E+007    7.99514E+007   -1.59890E+005   -8.19426E+004   -1.76523E+002   -1.52281E+002    2.60187E+003
            3605    8.00777E+007    7.99485E+007    7.99485E+007   -9.44500E+004   -1.64034E+005    8.01125E+007   -2.65633E+007    8.00776E+007    7.99485E+007   -1.63720E+005   -9.47639E+004   -1.20028E+002   -2.79369E+003    4.66381E+003
            3606    8.00790E+007    7.99435E+007    7.99435E+007   -1.10875E+005   -1.60166E+005    8.01037E+007   -2.65575E+007    8.00790E+007    7.99435E+007   -1.59522E+005   -1.11520E+005   -5.38458E+001    8.90007E+002    5.59882E+003
            3607    8.00847E+007    7.99471E+007    7.99471E+007   -1.23399E+005   -1.51883E+005    8.00990E+007   -2.65573E+007    8.00847E+007    7.99471E+007   -1.50711E+005   -1.24571E+005   -1.53041E+002   -7.60626E+002    5.65674E+003
            3608    8.00843E+007    7.99458E+007    7.99458E+007   -1.32156E+005   -1.44823E+005    8.00907E+007   -2.65563E+007    8.00843E+007    7.99458E+007   -1.43483E+005   -1.33497E+005   -2.19187E+002    3.00911E+002    3.89675E+003
            3609    8.00863E+007    7.99476E+007    7.99476E+007   -1.37084E+005   -1.40216E+005    8.00878E+007   -2.65568E+007    8.00863E+007    7.99476E+007   -1.38852E+005   -1.38448E+005   -2.94744E+002   -2.30477E+002    1.55284E+003
            3610    8.00681E+007    7.99606E+007    7.99606E+007   -7.29887E+004   -1.41998E+005    8.01026E+007   -2.65819E+007    8.00681E+007    7.99606E+007   -1.39998E+005   -7.49892E+004   -1.07242E+003   -2.17425E+003    1.15783E+004
            3611    8.00780E+007    7.99519E+007    7.99519E+007   -8.53623E+004   -1.66804E+005    8.01187E+007   -2.65666E+007    8.00779E+007    7.99519E+007   -1.62929E+005   -8.92366E+004   -1.18370E+003    1.55223E+002    1.73354E+004
            3612    8.00826E+007    7.99493E+007    7.99493E+007   -9.67988E+004   -1.69633E+005    8.01190E+007   -2.65610E+007    8.00825E+007    7.99493E+007   -1.64046E+005   -1.02386E+005   -4.23832E+002   -2.18297E+003    1.93830E+004
            3613    8.00815E+007    7.99438E+007    7.99438E+007   -1.10071E+005   -1.65426E+005    8.01092E+007   -2.65561E+007    8.00815E+007    7.99438E+007   -1.57914E+005   -1.17583E+005   -3.71962E+002    1.05653E+003    1.89575E+004
            3614    8.00837E+007    7.99450E+007    7.99450E+007   -1.21078E+005   -1.56300E+005    8.01013E+007   -2.65559E+007    8.00837E+007    7.99450E+007   -1.46768E+005   -1.30610E+005   -1.53095E+002   -4.09274E+002    1.56486E+004
            3615    8.00802E+007    7.99419E+007    7.99419E+007   -1.27658E+005   -1.48892E+005    8.00908E+007   -2.65551E+007    8.00802E+007    7.99419E+007   -1.37577E+005   -1.38973E+005   -2.07269E+002    4.01814E+002    1.05941E+004
            3616    8.00804E+007    7.99425E+007    7.99425E+007   -1.30954E+005   -1.44870E+005    8.00874E+007   -2.65556E+007    8.00804E+007    7.99425E+007   -1.31854E+005   -1.43970E+005   -1.90265E+002   -1.17110E+002    3.42347E+003
            3617    8.00751E+007    7.99496E+007    7.99496E+007   -9.30068E+004   -1.57992E+005    8.01076E+007   -2.65662E+007    8.00750E+007    7.99496E+007   -1.51709E+005   -9.92904E+004   -1.85175E+003   -1.60393E+003    1.92057E+004
            3618    8.00799E+007    7.99435E+007    7.99435E+007   -9.62017E+004   -1.76509E+005    8.01200E+007   -2.65569E+007    8.00798E+007    7.99435E+007   -1.64476E+005   -1.08234E+005   -2.06149E+003    2.63991E+002    2.86623E+004
            3619    8.00835E+007    7.99433E+007    7.99433E+007   -1.02187E+005   -1.78340E+005    8.01216E+007   -2.65542E+007    8.00835E+007    7.99433E+007   -1.62299E+005   -1.18228E+005   -1.08724E+003   -1.14582E+003    3.10524E+004
            3620    8.00833E+007    7.99415E+007    7.99415E+007   -1.10232E+005   -1.73324E+005    8.01149E+007   -2.65527E+007    8.00833E+007    7.99415E+007   -1.53342E+005   -1.30215E+005   -6.88834E+002    7.70639E+002    2.93502E+004
            3621    8.00860E+007    7.99453E+007    7.99453E+007   -1.16289E+005   -1.65082E+005    8.01104E+007   -2.65547E+007    8.00860E+007    7.99453E+007   -1.41159E+005   -1.40211E+005   -5.68466E+001   -1.98750E+002    2.43919E+004
            3622    8.00848E+007    7.99460E+007    7.99460E+007   -1.20913E+005   -1.56762E+005    8.01028E+007   -2.65561E+007    8.00848E+007    7.99460E+007   -1.30670E+005   -1.47004E+005    3.54872E+002    2.09773E+002    1.59557E+004
            3623    8.00857E+007    7.99480E+007    7.99480E+007   -1.23292E+005   -1.52016E+005    8.01000E+007   -2.65576E+007    8.00856E+007    7.99480E+007   -1.24400E+005   -1.50908E+005    6.37168E+002   -1.12776E+002    5.53073E+003
            3624    8.00901E+007    7.99406E+007    7.99406E+007   -1.18422E+005   -1.80447E+005    8.01211E+007   -2.65472E+007    8.00900E+007    7.99406E+007   -1.68527E+005   -1.30342E+005   -1.84740E+003   -5.52306E+002    2.44382E+004
            3625    8.00908E+007    7.99402E+007    7.99402E+007   -1.10719E+005   -1.90329E+005    8.01306E+007   -2.65464E+007    8.00907E+007    7.99402E+007   -1.69168E+005   -1.31880E+005   -1.92668E+003   -1.71595E+001    3.51686E+004
            3626    8.00904E+007    7.99406E+007    7.99406E+007   -1.10050E+005   -1.89616E+005    8.01302E+007   -2.65470E+007    8.00903E+007    7.99406E+007   -1.61778E+005   -1.37888E+005   -1.09679E+003    7.07466E+002    3.79478E+004
            3627    8.00883E+007    7.99414E+007    7.99414E+007   -1.10140E+005   -1.83471E+005    8.01249E+007   -2.65493E+007    8.00882E+007    7.99414E+007   -1.48510E+005   -1.45100E+005   -5.85891E+002    8.26116E+002    3.66258E+004
            3628    8.00844E+007    7.99423E+007    7.99423E+007   -1.10536E+005   -1.73686E+005    8.01160E+007   -2.65527E+007    8.00844E+007    7.99423E+007   -1.32151E+005   -1.52071E+005   -5.18753E+002    6.05642E+002    2.99627E+004
            3629    8.00803E+007    7.99425E+007    7.99425E+007   -1.10039E+005   -1.65381E+005    8.01079E+007   -2.65557E+007    8.00802E+007    7.99425E+007   -1.18560E+005   -1.56859E+005   -9.09943E+002    3.75140E+002    1.99746E+004
            3630    8.00783E+007    7.99432E+007    7.99432E+007   -1.09618E+005   -1.60615E+005    8.01038E+007   -2.65576E+007    8.00782E+007    7.99432E+007   -1.10495E+005   -1.59738E+005   -1.09448E+003    2.03976E+002    6.63037E+003
            3631    8.00977E+007    7.99262E+007    7.99262E+007   -1.44136E+005   -1.98800E+005    8.01250E+007   -2.65278E+007    8.00977E+007    7.99262E+007   -1.80583E+005   -1.62353E+005   -2.28718E+003    8.76536E+002    2.57668E+004
            3632    8.00935E+007    7.99296E+007    7.99296E+007   -1.29179E+005   -1.98432E+005    8.01281E+007   -2.65340E+007    8.00934E+007    7.99296E+007   -1.71195E+005   -1.56416E+005   -2.07068E+003   -6.84852E+002    3.38285E+004
            3633    8.00898E+007    7.99308E+007    7.99308E+007   -1.20152E+005   -1.97890E+005    8.01287E+007   -2.65376E+007    8.00897E+007    7.99308E+007   -1.61151E+005   -1.56891E+005   -2.48174E+003    2.31429E+003    3.88106E+004
            3634    8.00901E+007    7.99388E+007    7.99388E+007   -1.11610E+005   -1.90919E+005    8.01297E+007   -2.65454E+007    8.00900E+007    7.99388E+007   -1.42857E+005   -1.59672E+005   -1.07824E+003    1.17930E+003    3.87532E+004
            3635    8.00852E+007    7.99428E+007    7.99428E+007   -1.04662E+005   -1.80101E+005    8.01229E+007   -2.65527E+007    8.00851E+007    7.99428E+007   -1.23551E+005   -1.61212E+005    5.80523E+002    1.02272E+003    3.26831E+004
            3636    8.00827E+007    7.99483E+007    7.99483E+007   -9.83545E+004   -1.70325E+005    8.01186E+007   -2.65599E+007    8.00826E+007    7.99483E+007   -1.05866E+005   -1.62814E+005    2.11684E+003    3.06716E+002    2.20044E+004
            3637    8.00798E+007    7.99502E+007    7.99502E+007   -9.49675E+004   -1.64048E+005    8.01143E+007   -2.65637E+007    8.00797E+007    7.99502E+007   -9.57896E+004   -1.63226E+005    2.92857E+003    6.47997E+001    7.49125E+003
            3638    8.01117E+007    7.99228E+007    7.99228E+007   -1.67848E+005   -2.09776E+005    8.01326E+007   -2.65151E+007    8.01116E+007    7.99228E+007   -1.90134E+005   -1.87491E+005   -1.62455E+003    3.18531E+003    2.09223E+004
            3639    8.01094E+007    7.99319E+007    7.99319E+007   -1.47642E+005   -2.07317E+005    8.01392E+007   -2.65256E+007    8.01093E+007    7.99319E+007   -1.79101E+005   -1.75859E+005    1.67686E+003   -2.28590E+003    2.97937E+004
            3640    8.00955E+007    7.99285E+007    7.99285E+007   -1.32562E+005   -2.01417E+005    8.01299E+007   -2.65315E+007    8.00954E+007    7.99285E+007   -1.62482E+005   -1.71497E+005    6.33778E+002    2.16896E+003    3.41315E+004
            3641    8.00934E+007    7.99384E+007    7.99384E+007   -1.16291E+005   -1.93605E+005    8.01320E+007   -2.65428E+007    8.00933E+007    7.99384E+007   -1.40820E+005   -1.69076E+005    4.59353E+002    1.65233E+003    3.59829E+004
            3642    8.00830E+007    7.99421E+007    7.99421E+007   -1.01217E+005   -1.80423E+005    8.01226E+007   -2.65535E+007    8.00829E+007    7.99421E+007   -1.16344E+005   -1.65296E+005    1.36327E+002    2.03650E+003    3.11339E+004
            3643    8.00784E+007    7.99493E+007    7.99493E+007   -8.93467E+004   -1.68704E+005    8.01180E+007   -2.65638E+007    8.00783E+007    7.99493E+007   -9.56008E+004   -1.62449E+005   -9.44906E+001    1.30210E+003    2.13820E+004
            3644    8.00735E+007    7.99520E+007    7.99520E+007   -8.23194E+004   -1.60701E+005    8.01127E+007   -2.65696E+007    8.00734E+007    7.99520E+007   -8.30561E+004   -1.59964E+005   -1.01413E+002    5.61699E+002    7.56320E+003
            3645    8.01050E+007    7.99023E+007    7.99023E+007   -1.90934E+005   -2.14582E+005    8.01169E+007   -2.64989E+007    8.01050E+007    7.99023E+007   -2.01735E+005   -2.03780E+005   -6.22618E+003    7.09321E+003    1.17794E+004
            3646    8.01143E+007    7.99217E+007    7.99217E+007   -1.72688E+005   -2.12498E+005    8.01342E+007   -2.65122E+007    8.01142E+007    7.99217E+007   -1.88026E+005   -1.97160E+005   -2.76182E+003    9.53361E+002    1.93744E+004
            3647    8.01021E+007    7.99223E+007    7.99223E+007   -1.55795E+005   -2.03670E+005    8.01260E+007   -2.65210E+007    8.01020E+007    7.99223E+007   -1.73836E+005   -1.85629E+005   -1.02527E+003    2.33146E+003    2.32001E+004
            3648    8.00954E+007    7.99359E+007    7.99359E+007   -1.30676E+005   -1.88197E+005    8.01241E+007   -2.65390E+007    8.00953E+007    7.99359E+007   -1.45346E+005   -1.73527E+005    1.30370E+002    1.91459E+003    2.50722E+004
            3649    8.00815E+007    7.99454E+007    7.99454E+007   -1.04947E+005   -1.67271E+005    8.01127E+007   -2.65577E+007    8.00815E+007    7.99454E+007   -1.14703E+005   -1.57515E+005    1.26597E+003    1.80858E+003    2.26468E+004
            3650    8.00716E+007    7.99567E+007    7.99567E+007   -8.11306E+004   -1.48681E+005    8.01054E+007   -2.65756E+007    8.00716E+007    7.99567E+007   -8.52785E+004   -1.44533E+005    2.08137E+003    1.10957E+003    1.62171E+004
            3651    8.00645E+007    7.99622E+007    7.99622E+007   -6.77226E+004   -1.36825E+005    8.00990E+007   -2.65859E+007    8.00644E+007    7.99622E+007   -6.82243E+004   -1.36323E+005    2.50280E+003    4.90652E+002    5.86724E+003
            3652    8.00454E+007    7.99770E+007    7.99770E+007   -6.50800E+004   -7.18025E+004    8.00488E+007   -2.66134E+007    8.00454E+007    7.99770E+007   -6.51267E+004   -7.17557E+004    5.98029E+002    6.34312E+002   -5.58796E+002
            3653    8.00588E+007    7.99658E+007    7.99658E+007   -8.78310E+004   -9.80722E+004    8.00639E+007   -2.65933E+007    8.00588E+007    7.99658E+007   -8.79182E+004   -9.79850E+004    6.76026E+002    1.69673E+003   -9.40856E+002
            3654    8.00797E+007    7.99489E+007    7.99489E+007   -1.24222E+005   -1.37208E+005    8.00862E+007   -2.65625E+007    8.00797E+007    7.99489E+007   -1.24272E+005   -1.37158E+005    8.62180E+002    2.15794E+003    8.02236E+002
            3655    8.00989E+007    7.99312E+007    7.99312E+007   -1.61914E+005   -1.73412E+005    8.01046E+007   -2.65320E+007    8.00989E+007    7.99312E+007   -1.62001E+005   -1.73326E+005    9.03763E+002    2.47160E+003    9.95191E+002
            3656    8.01139E+007    7.99196E+007    7.99196E+007   -1.87491E+005   -2.01139E+005    8.01207E+007   -2.65103E+007    8.01139E+007    7.99196E+007   -1.87509E+005   -2.01121E+005    1.05144E+003    1.28547E+003    5.01334E+002
            3657    8.01206E+007    7.99113E+007    7.99113E+007   -2.01294E+005   -2.17222E+005    8.01285E+007   -2.64976E+007    8.01206E+007    7.99113E+007   -2.01409E+005   -2.17107E+005    9.87609E+002    1.65097E+003   -1.35041E+003
            3658    8.01203E+007    7.99145E+007    7.99145E+007   -1.90987E+005   -2.20624E+005    8.01351E+007   -2.65010E+007    8.01203E+007    7.99145E+007   -1.91028E+005   -2.20583E+005    3.13538E+003   -2.01828E+003    1.09902E+003
            3659    8.01141E+007    7.99170E+007    7.99170E+007   -1.61263E+005   -2.32994E+005    8.01500E+007   -2.65076E+007    8.01141E+007    7.99170E+007   -2.12604E+005   -1.81653E+005   -9.21136E+002    3.65357E+003    3.23549E+004
            3660    8.01156E+007    7.99156E+007    7.99156E+007   -1.76870E+005   -2.23248E+005    8.01388E+007   -2.65052E+007    8.01156E+007    7.99156E+007   -2.22635E+005   -1.77483E+005    2.49534E+003    1.43996E+003    5.29698E+003
            3661    8.01095E+007    7.99247E+007    7.99247E+007   -1.71965E+005   -1.97651E+005    8.01223E+007   -2.65184E+007    8.01095E+007    7.99247E+007   -1.97638E+005   -1.71978E+005    2.02004E+003    1.25146E+003   -5.68879E+002
            3662    8.00900E+007    7.99401E+007    7.99401E+007   -1.40050E+005   -1.59673E+005    8.00998E+007   -2.65468E+007    8.00900E+007    7.99401E+007   -1.59606E+005   -1.40116E+005    2.50211E+003    8.76982E+002   -1.14013E+003
            3663    8.00901E+007    7.99434E+007    7.99434E+007   -1.13790E+005   -1.79611E+005    8.01230E+007   -2.65500E+007    8.00900E+007    7.99434E+007   -1.68308E+005   -1.25093E+005    1.68501E+003    1.30536E+003    2.48231E+004
            3664    8.00898E+007    7.99434E+007    7.99434E+007   -1.05304E+005   -1.87565E+005    8.01309E+007   -2.65502E+007    8.00898E+007    7.99434E+007   -1.68792E+005   -1.24077E+005    1.54828E+003    3.71159E+000    3.45232E+004
            3665    8.00891E+007    7.99442E+007    7.99442E+007   -1.05537E+005   -1.84078E+005    8.01283E+007   -2.65515E+007    8.00890E+007    7.99442E+007   -1.61344E+005   -1.28270E+005    2.77547E+002    6.05565E+002    3.56190E+004
            3666    8.00856E+007    7.99428E+007    7.99428E+007   -1.10014E+005   -1.75522E+005    8.01184E+007   -2.65524E+007    8.00856E+007    7.99428E+007   -1.50510E+005   -1.35025E+005    2.10565E+002   -5.66126E+002    3.18260E+004
            3667    8.00846E+007    7.99437E+007    7.99437E+007   -1.15764E+005   -1.66014E+005    8.01097E+007   -2.65540E+007    8.00846E+007    7.99437E+007   -1.38590E+005   -1.43188E+005    4.66901E+002   -9.92954E+001    2.50199E+004
            3668    8.00815E+007    7.99427E+007    7.99427E+007   -1.20259E+005   -1.57412E+005    8.01001E+007   -2.65550E+007    8.00815E+007    7.99427E+007   -1.29164E+005   -1.48506E+005    1.15418E+003   -1.78168E+002    1.58603E+004
            3669    8.00810E+007    7.99430E+007    7.99430E+007   -1.23043E+005   -1.53077E+005    8.00960E+007   -2.65556E+007    8.00810E+007    7.99430E+007   -1.24081E+005   -1.52039E+005    1.71649E+003    4.10161E-001    5.48671E+003
            3670    8.00960E+007    7.99278E+007    7.99278E+007   -1.38404E+005   -1.97900E+005    8.01257E+007   -2.65305E+007    8.00959E+007    7.99278E+007   -1.81177E+005   -1.55127E+005    2.84842E+003    2.59699E+002    2.67445E+004
            3671    8.00905E+007    7.99305E+007    7.99305E+007   -1.21444E+005   -1.98569E+005    8.01291E+007   -2.65368E+007    8.00905E+007    7.99305E+007   -1.70445E+005   -1.49569E+005    3.58313E+003    1.61206E+002    3.71231E+004
            3672    8.00886E+007    7.99343E+007    7.99343E+007   -1.13755E+005   -1.94752E+005    8.01291E+007   -2.65419E+007    8.00885E+007    7.99343E+007   -1.58931E+005   -1.49577E+005    3.34780E+003   -1.42470E+003    4.02273E+004
            3673    8.00880E+007    7.99396E+007    7.99396E+007   -1.09693E+005   -1.87112E+005    8.01267E+007   -2.65476E+007    8.00880E+007    7.99396E+007   -1.43916E+005   -1.52888E+005    1.61160E+003   -9.24979E+002    3.84487E+004
            3674    8.00850E+007    7.99431E+007    7.99431E+007   -1.07693E+005   -1.76132E+005    8.01192E+007   -2.65531E+007    8.00850E+007    7.99431E+007   -1.27876E+005   -1.55948E+005   -1.78527E+001   -6.58633E+002    3.12085E+004
            3675    8.00830E+007    7.99458E+007    7.99458E+007   -1.06677E+005   -1.67689E+005    8.01135E+007   -2.65571E+007    8.00829E+007    7.99458E+007   -1.14785E+005   -1.59581E+005   -1.35430E+003   -2.16429E+002    2.07111E+004
            3676    8.00813E+007    7.99472E+007    7.99472E+007   -1.06262E+005   -1.62048E+005    8.01092E+007   -2.65596E+007    8.00813E+007    7.99472E+007   -1.07162E+005   -1.61147E+005   -2.28856E+003   -1.17416E+002    7.02938E+003
            3677    8.01117E+007    7.99258E+007    7.99258E+007   -1.57657E+005   -2.14124E+005    8.01399E+007   -2.65180E+007    8.01117E+007    7.99258E+007   -1.91495E+005   -1.80286E+005    9.52536E+002   -1.85181E+003    2.76719E+004
            3678    8.01052E+007    7.99332E+007    7.99332E+007   -1.38239E+005   -2.05752E+005    8.01390E+007   -2.65297E+007    8.01052E+007    7.99332E+007   -1.74061E+005   -1.69930E+005   -1.95638E+003    2.35471E+003    3.36930E+004
            3679    8.00928E+007    7.99304E+007    7.99304E+007   -1.23555E+005   -2.01188E+005    8.01316E+007   -2.65352E+007    8.00928E+007    7.99304E+007   -1.58386E+005   -1.66357E+005   -2.26776E+002   -2.10491E+003    3.86117E+004
            3680    8.00910E+007    7.99393E+007    7.99393E+007   -1.09855E+005   -1.93461E+005    8.01327E+007   -2.65453E+007    8.00909E+007    7.99393E+007   -1.37187E+005   -1.66128E+005   -8.08419E+001   -1.60767E+003    3.92185E+004
            3681    8.00837E+007    7.99417E+007    7.99417E+007   -1.00732E+005   -1.83214E+005    8.01249E+007   -2.65526E+007    8.00836E+007    7.99417E+007   -1.17603E+005   -1.66342E+005    3.91038E+001   -1.98985E+003    3.32707E+004
            3682    8.00807E+007    7.99475E+007    7.99475E+007   -9.31278E+004   -1.73270E+005    8.01208E+007   -2.65604E+007    8.00806E+007    7.99475E+007   -1.00050E+005   -1.66348E+005   -1.84293E+002   -1.21187E+003    2.25137E+004
            3683    8.00778E+007    7.99491E+007    7.99491E+007   -9.05117E+004   -1.66866E+005    8.01159E+007   -2.65639E+007    8.00777E+007    7.99491E+007   -9.12967E+004   -1.66081E+005   -2.34393E+002   -5.33272E+002    7.70224E+003
            3684    8.01030E+007    7.99024E+007    7.99024E+007   -1.82799E+005   -2.18511E+005    8.01209E+007   -2.65004E+007    8.01030E+007    7.99024E+007   -2.00504E+005   -2.00804E+005    8.80421E+003   -7.85635E+003    1.78548E+004
            3685    8.01124E+007    7.99232E+007    7.99232E+007   -1.60964E+005   -2.17375E+005    8.01406E+007   -2.65150E+007    8.01123E+007    7.99232E+007   -1.85808E+005   -1.92530E+005    3.47753E+003   -3.29350E+002    2.80043E+004
            3686    8.00986E+007    7.99232E+007    7.99232E+007   -1.45044E+005   -2.05680E+005    8.01289E+007   -2.65242E+007    8.00985E+007    7.99232E+007   -1.65764E+005   -1.84960E+005    1.76842E+003   -2.44154E+003    2.87585E+004
            3687    8.00938E+007    7.99362E+007    7.99362E+007   -1.23865E+005   -1.91329E+005    8.01275E+007   -2.65403E+007    8.00938E+007    7.99362E+007   -1.40436E+005   -1.74758E+005    2.39221E+002   -2.06914E+003    2.90407E+004
            3688    8.00810E+007    7.99445E+007    7.99445E+007   -9.99130E+004   -1.73024E+005    8.01175E+007   -2.65572E+007    8.00809E+007    7.99445E+007   -1.10938E+005   -1.61999E+005   -9.02459E+002   -2.26630E+003    2.61626E+004
            3689    8.00744E+007    7.99542E+007    7.99542E+007   -8.15050E+004   -1.58956E+005    8.01132E+007   -2.65712E+007    8.00744E+007    7.99542E+007   -8.63178E+004   -1.54143E+005   -1.79694E+003   -1.58519E+003    1.86975E+004
            3690    8.00693E+007    7.99585E+007    7.99585E+007   -7.07198E+004   -1.50713E+005    8.01092E+007   -2.65790E+007    8.00692E+007    7.99585E+007   -7.13854E+004   -1.50047E+005   -2.39710E+003   -6.86891E+002    7.26679E+003
            3691    8.00479E+007    7.99756E+007    7.99756E+007   -6.55061E+004   -7.91582E+004    8.00548E+007   -2.66103E+007    8.00479E+007    7.99756E+007   -6.55360E+004   -7.91283E+004   -8.58372E+002   -9.89986E+002   -6.38780E+002
            3692    8.00599E+007    7.99647E+007    7.99647E+007   -8.71656E+004   -1.03215E+005    8.00680E+007   -2.65915E+007    8.00599E+007    7.99647E+007   -8.71940E+004   -1.03186E+005   -8.87843E+002   -2.05728E+003   -6.75020E+002
            3693    8.00792E+007    7.99482E+007    7.99482E+007   -1.21971E+005   -1.39895E+005    8.00881E+007   -2.65621E+007    8.00792E+007    7.99482E+007   -1.21997E+005   -1.39869E+005   -9.91625E+002   -2.64205E+003   -6.76549E+002
            3694    8.00976E+007    7.99307E+007    7.99307E+007   -1.56177E+005   -1.77501E+005    8.01082E+007   -2.65324E+007    8.00976E+007    7.99307E+007   -1.56178E+005   -1.77500E+005   -8.32601E+002   -2.66117E+003   -1.21610E+002
            3695    8.01140E+007    7.99179E+007    7.99179E+007   -1.82629E+005   -2.09527E+005    8.01275E+007   -2.65086E+007    8.01140E+007    7.99179E+007   -1.82653E+005   -2.09503E+005   -9.60608E+002   -1.47528E+003   -8.05863E+002
            3696    8.01176E+007    7.99123E+007    7.99123E+007   -1.80091E+005   -2.30394E+005    8.01427E+007   -2.65006E+007    8.01175E+007    7.99123E+007   -1.80452E+005   -2.30032E+005   -7.87580E+002   -1.52629E+003    4.24973E+003
            3697    8.01145E+007    7.99162E+007    7.99162E+007   -1.60786E+005   -2.35729E+005    8.01519E+007   -2.65066E+007    8.01144E+007    7.99162E+007   -1.79029E+005   -2.17485E+005   -2.87009E+003    1.86895E+003    3.21619E+004
            3698    8.00646E+007    7.99623E+007    7.99623E+007   -6.77675E+004   -1.36818E+005    8.00991E+007   -2.65859E+007    8.00645E+007    7.99623E+007   -6.82598E+004   -1.36325E+005    2.44170E+003   -3.31474E+002   -5.81022E+003
            3699    8.00737E+007    7.99522E+007    7.99522E+007   -8.21903E+004   -1.60667E+005    8.01129E+007   -2.65698E+007    8.00736E+007    7.99522E+007   -8.29673E+004   -1.59890E+005    6.17542E+001   -4.15505E+002   -7.76975E+003
            3700    8.00796E+007    7.99500E+007    7.99500E+007   -9.49570E+004   -1.64202E+005    8.01142E+007   -2.65636E+007    8.00796E+007    7.99500E+007   -9.58775E+004   -1.63282E+005    2.83122E+003   -6.87013E+001   -7.93082E+003
            3701    8.00782E+007    7.99430E+007    7.99430E+007   -1.09680E+005   -1.60641E+005    8.01036E+007   -2.65576E+007    8.00781E+007    7.99430E+007   -1.10705E+005   -1.59617E+005   -1.00920E+003   -1.66123E+002   -7.15261E+003
            3702    8.00851E+007    7.99474E+007    7.99474E+007   -1.23274E+005   -1.52012E+005    8.00995E+007   -2.65574E+007    8.00851E+007    7.99474E+007   -1.24579E+005   -1.50708E+005    5.81373E+002    7.88796E+001   -5.98158E+003
            3703    8.00804E+007    7.99425E+007    7.99425E+007   -1.30980E+005   -1.44822E+005    8.00873E+007   -2.65556E+007    8.00804E+007    7.99425E+007   -1.32027E+005   -1.43775E+005   -1.78126E+002    1.30087E+002   -3.65940E+003
            3704    8.00859E+007    7.99473E+007    7.99473E+007   -1.36970E+005   -1.40272E+005    8.00876E+007   -2.65567E+007    8.00859E+007    7.99473E+007   -1.38866E+005   -1.38376E+005   -2.54811E+002    2.06850E+002   -1.63254E+003
            3705    8.00807E+007    7.99425E+007    7.99425E+007   -1.36930E+005   -1.39466E+005    8.00820E+007   -2.65554E+007    8.00807E+007    7.99425E+007   -1.37729E+005   -1.38668E+005    6.19389E+002    2.07444E+002    1.17781E+003
            3706    8.00860E+007    7.99476E+007    7.99476E+007   -1.33316E+005   -1.43466E+005    8.00910E+007   -2.65569E+007    8.00860E+007    7.99476E+007   -1.34457E+005   -1.42326E+005   -1.17938E+003    9.31889E+001    3.20533E+003
            3707    8.00719E+007    7.99567E+007    7.99567E+007   -8.15189E+004   -1.48797E+005    8.01055E+007   -2.65755E+007    8.00718E+007    7.99567E+007   -8.56932E+004   -1.44622E+005    2.16011E+003   -1.03950E+003   -1.62301E+004
            3708    8.00786E+007    7.99492E+007    7.99492E+007   -8.96964E+004   -1.68935E+005    8.01182E+007   -2.65635E+007    8.00785E+007    7.99492E+007   -9.61822E+004   -1.62450E+005   -5.65619E-001   -1.28332E+003   -2.17223E+004
            3709    8.00828E+007    7.99481E+007    7.99481E+007   -9.85573E+004   -1.70820E+005    8.01189E+007   -2.65596E+007    8.00827E+007    7.99481E+007   -1.06457E+005   -1.62920E+005    2.15033E+003   -2.08031E+002   -2.25487E+004
            3710    8.00810E+007    7.99429E+007    7.99429E+007   -1.10224E+005   -1.65833E+005    8.01087E+007   -2.65556E+007    8.00809E+007    7.99429E+007   -1.19288E+005   -1.56769E+005   -8.87764E+002   -3.77886E+002   -2.05402E+004
            3711    8.00852E+007    7.99462E+007    7.99462E+007   -1.20847E+005   -1.57079E+005    8.01033E+007   -2.65561E+007    8.00851E+007    7.99462E+007   -1.31130E+005   -1.46796E+005    3.89485E+002   -1.12556E+002   -1.63354E+004
            3712    8.00807E+007    7.99423E+007    7.99423E+007   -1.27658E+005   -1.49025E+005    8.00914E+007   -2.65552E+007    8.00807E+007    7.99423E+007   -1.37990E+005   -1.38693E+005   -2.42478E+002   -3.89903E+002   -1.06779E+004
            3713    8.00841E+007    7.99457E+007    7.99457E+007   -1.32110E+005   -1.44790E+005    8.00905E+007   -2.65563E+007    8.00841E+007    7.99457E+007   -1.43468E+005   -1.33432E+005   -1.47080E+002   -2.57909E+002   -3.87443E+003
            3714    8.00803E+007    7.99423E+007    7.99423E+007   -1.32643E+005   -1.43367E+005    8.00857E+007   -2.65554E+007    8.00803E+007    7.99423E+007   -1.42417E+005   -1.33593E+005    3.87487E+002   -3.65557E+002    3.04796E+003
            3715    8.00842E+007    7.99455E+007    7.99455E+007   -1.28668E+005   -1.48690E+005    8.00942E+007   -2.65560E+007    8.00842E+007    7.99455E+007   -1.38921E+005   -1.38437E+005   -6.42383E+002   -2.62668E+002    1.00079E+004
            3716    8.00821E+007    7.99454E+007    7.99454E+007   -1.05770E+005   -1.67694E+005    8.01131E+007   -2.65573E+007    8.00821E+007    7.99454E+007   -1.15461E+005   -1.58003E+005    1.55141E+003   -1.71212E+003   -2.24988E+004
            3717    8.00837E+007    7.99419E+007    7.99419E+007   -1.02258E+005   -1.81367E+005    8.01232E+007   -2.65528E+007    8.00836E+007    7.99419E+007   -1.17834E+005   -1.65791E+005   -8.70866E+001   -2.04986E+003   -3.14580E+004
            3718    8.00858E+007    7.99428E+007    7.99428E+007   -1.05182E+005   -1.80695E+005    8.01235E+007   -2.65523E+007    8.00857E+007    7.99428E+007   -1.24901E+005   -1.60976E+005    8.97592E+002   -9.47284E+002   -3.31695E+004
            3719    8.00840E+007    7.99416E+007    7.99416E+007   -1.10831E+005   -1.73971E+005    8.01155E+007   -2.65523E+007    8.00839E+007    7.99416E+007   -1.33497E+005   -1.51306E+005   -6.92042E+002   -7.65969E+002   -3.02885E+004
            3720    8.00857E+007    7.99450E+007    7.99450E+007   -1.16186E+005   -1.65074E+005    8.01101E+007   -2.65546E+007    8.00856E+007    7.99450E+007   -1.42088E+005   -1.39173E+005    1.70580E+001    1.04317E+002   -2.44007E+004
            3721    8.00834E+007    7.99448E+007    7.99448E+007   -1.20949E+005   -1.56211E+005    8.01010E+007   -2.65559E+007    8.00834E+007    7.99448E+007   -1.47251E+005   -1.29909E+005   -2.32418E+002    3.34220E+002   -1.53512E+004
            3722    8.00844E+007    7.99468E+007    7.99468E+007   -1.23327E+005   -1.51817E+005    8.00987E+007   -2.65572E+007    8.00844E+007    7.99468E+007   -1.50784E+005   -1.24359E+005   -5.41980E+001    7.16597E+002   -5.32496E+003
            3723    8.00833E+007    7.99457E+007    7.99457E+007   -1.23957E+005   -1.51234E+005    8.00970E+007   -2.65568E+007    8.00833E+007    7.99457E+007   -1.49873E+005   -1.25318E+005    1.79041E+000    5.97738E+002    5.93872E+003
            3724    8.00851E+007    7.99463E+007    7.99463E+007   -1.21154E+005   -1.56489E+005    8.01028E+007   -2.65562E+007    8.00851E+007    7.99463E+007   -1.46361E+005   -1.31283E+005   -7.32694E+001    5.35678E+002    1.59784E+004
            3725    8.00959E+007    7.99357E+007    7.99357E+007   -1.31517E+005   -1.88983E+005    8.01246E+007   -2.65384E+007    8.00959E+007    7.99357E+007   -1.46236E+005   -1.74264E+005    3.13942E+002   -1.86677E+003   -2.50836E+004
            3726    8.00939E+007    7.99378E+007    7.99378E+007   -1.17521E+005   -1.94505E+005    8.01323E+007   -2.65419E+007    8.00938E+007    7.99378E+007   -1.42608E+005   -1.69418E+005    3.84087E+002   -1.75576E+003   -3.60823E+004
            3727    8.00905E+007    7.99387E+007    7.99387E+007   -1.12041E+005   -1.91374E+005    8.01301E+007   -2.65451E+007    8.00904E+007    7.99387E+007   -1.44358E+005   -1.59058E+005   -9.01977E+002   -1.19149E+003   -3.89792E+004
            3728    8.00885E+007    7.99418E+007    7.99418E+007   -1.10067E+005   -1.83436E+005    8.01252E+007   -2.65494E+007    8.00885E+007    7.99418E+007   -1.49600E+005   -1.43904E+005   -6.61406E+002   -6.26986E+002   -3.65736E+004
            3729    8.00838E+007    7.99423E+007    7.99423E+007   -1.09977E+005   -1.72994E+005    8.01153E+007   -2.65531E+007    8.00837E+007    7.99423E+007   -1.53919E+005   -1.29051E+005   -5.66803E+002   -5.60654E+002   -2.89517E+004
            3730    8.00816E+007    7.99441E+007    7.99441E+007   -1.09903E+005   -1.65112E+005    8.01092E+007   -2.65563E+007    8.00815E+007    7.99441E+007   -1.58065E+005   -1.16950E+005   -3.69111E+002   -9.75881E+002   -1.84233E+004
            3731    8.00792E+007    7.99437E+007    7.99437E+007   -1.10951E+005   -1.60008E+005    8.01037E+007   -2.65576E+007    8.00792E+007    7.99437E+007   -1.59464E+005   -1.11495E+005   -4.62920E+001   -8.13706E+002   -5.13974E+003
            3732    8.00804E+007    7.99445E+007    7.99445E+007   -1.11045E+005   -1.60700E+005    8.01052E+007   -2.65576E+007    8.00803E+007    7.99445E+007   -1.59196E+005   -1.12549E+005    5.70168E+001   -1.07504E+003    8.50842E+003
            3733    8.00809E+007    7.99422E+007    7.99422E+007   -1.11446E+005   -1.65965E+005    8.01081E+007   -2.65549E+007    8.00808E+007    7.99422E+007   -1.55817E+005   -1.21595E+005    6.42094E+002   -8.24846E+002    2.12204E+004
            3734    8.01028E+007    7.99224E+007    7.99224E+007   -1.56491E+005   -2.04240E+005    8.01267E+007   -2.65206E+007    8.01028E+007    7.99224E+007   -1.74644E+005   -1.86087E+005   -8.82310E+002   -2.27773E+003   -2.31786E+004
            3735    8.00959E+007    7.99284E+007    7.99284E+007   -1.33027E+005   -2.01922E+005    8.01303E+007   -2.65312E+007    8.00958E+007    7.99284E+007   -1.63415E+005   -1.71535E+005    6.70252E+002   -2.13087E+003   -3.42075E+004
            3736    8.00899E+007    7.99310E+007    7.99310E+007   -1.20053E+005   -1.97698E+005    8.01287E+007   -2.65377E+007    8.00898E+007    7.99310E+007   -1.62031E+005   -1.55719E+005   -2.38085E+003   -2.36153E+003   -3.86940E+004
            3737    8.00896E+007    7.99403E+007    7.99403E+007   -1.09517E+005   -1.89018E+005    8.01293E+007   -2.65472E+007    8.00895E+007    7.99403E+007   -1.62166E+005   -1.36368E+005   -1.06482E+003   -1.15435E+003   -3.75998E+004
            3738    8.00828E+007    7.99431E+007    7.99431E+007   -1.01631E+005   -1.77792E+005    8.01209E+007   -2.65545E+007    8.00827E+007    7.99431E+007   -1.62485E+005   -1.16938E+005   -1.20467E+003    6.75484E+002   -3.05204E+004
            3739    8.00822E+007    7.99492E+007    7.99492E+007   -9.66887E+004   -1.69257E+005    8.01185E+007   -2.65611E+007    8.00822E+007    7.99492E+007   -1.63986E+005   -1.01959E+005   -4.62348E+002    1.92612E+003   -1.88331E+004
            3740    8.00776E+007    7.99483E+007    7.99483E+007   -9.47322E+004   -1.63938E+005    8.01122E+007   -2.65632E+007    8.00776E+007    7.99483E+007   -1.63664E+005   -9.50066E+004   -1.95495E+002    2.61241E+003   -4.34979E+003
            3741    8.00816E+007    7.99504E+007    7.99504E+007   -9.60753E+004   -1.66192E+005    8.01166E+007   -2.65627E+007    8.00815E+007    7.99504E+007   -1.64364E+005   -9.79032E+004   -3.10994E+002    2.63027E+003    1.11729E+004
            3742    8.00814E+007    7.99453E+007    7.99453E+007   -9.99947E+004   -1.72112E+005    8.01174E+007   -2.65577E+007    8.00813E+007    7.99453E+007   -1.62274E+005   -1.09833E+005    8.14144E+002    2.22022E+003    2.47535E+004
            3743    8.01145E+007    7.99216E+007    7.99216E+007   -1.72965E+005   -2.12833E+005    8.01344E+007   -2.65119E+007    8.01145E+007    7.99216E+007   -1.88416E+005   -1.97382E+005   -2.60314E+003   -1.15142E+003   -1.94236E+004
            3744    8.01092E+007    7.99319E+007    7.99319E+007   -1.47601E+005   -2.07040E+005    8.01389E+007   -2.65257E+007    8.01092E+007    7.99319E+007   -1.79242E+005   -1.75399E+005    1.83146E+003    2.07198E+003   -2.96575E+004
            3745    8.00928E+007    7.99298E+007    7.99298E+007   -1.28339E+005   -1.97660E+005    8.01275E+007   -2.65346E+007    8.00927E+007    7.99298E+007   -1.70795E+005   -1.55204E+005   -2.02067E+003    5.02783E+002   -3.37729E+004
            3746    8.00903E+007    7.99409E+007    7.99409E+007   -1.09424E+005   -1.89256E+005    8.01302E+007   -2.65474E+007    8.00902E+007    7.99409E+007   -1.68608E+005   -1.30072E+005   -1.83081E+003    2.67086E+002   -3.49574E+004
            3747    8.00794E+007    7.99438E+007    7.99438E+007   -9.54002E+004   -1.75654E+005    8.01195E+007   -2.65576E+007    8.00793E+007    7.99438E+007   -1.63911E+005   -1.07143E+005   -1.93045E+003   -7.79775E+001   -2.83637E+004
            3748    8.00777E+007    7.99517E+007    7.99517E+007   -8.52050E+004   -1.66738E+005    8.01184E+007   -2.65666E+007    8.00776E+007    7.99517E+007   -1.62900E+005   -8.90435E+004   -1.31600E+003   -2.31136E+002   -1.72694E+004
            3749    8.00726E+007    7.99512E+007    7.99512E+007   -8.22421E+004   -1.60422E+005    8.01116E+007   -2.65695E+007    8.00725E+007    7.99512E+007   -1.60328E+005   -8.23361E+004   -3.86999E+002    2.18067E+002   -2.70916E+003
            3750    8.00776E+007    7.99531E+007    7.99531E+007   -8.40973E+004   -1.64930E+005    8.01180E+007   -2.65680E+007    8.00776E+007    7.99531E+007   -1.63026E+005   -8.60018E+004    3.09547E+002    2.82012E+001    1.22604E+004
            3751    8.00787E+007    7.99451E+007    7.99451E+007   -9.34958E+004   -1.73597E+005    8.01187E+007   -2.65593E+007    8.00786E+007    7.99451E+007   -1.64440E+005   -1.02652E+005    1.74940E+003   -7.91714E+001    2.54874E+004
            3752    8.01051E+007    7.99023E+007    7.99023E+007   -1.91434E+005   -2.14225E+005    8.01165E+007   -2.64989E+007    8.01051E+007    7.99023E+007   -2.01523E+005   -2.04135E+005   -6.33145E+003   -7.12284E+003   -1.13198E+004
            3753    8.01112E+007    7.99231E+007    7.99231E+007   -1.66933E+005   -2.09139E+005    8.01323E+007   -2.65157E+007    8.01111E+007    7.99231E+007   -1.89389E+005   -1.86683E+005   -1.30177E+003   -3.24979E+003   -2.10596E+004
            3754    8.00968E+007    7.99263E+007    7.99263E+007   -1.43356E+005   -1.97741E+005    8.01240E+007   -2.65284E+007    8.00968E+007    7.99263E+007   -1.79807E+005   -1.61289E+005   -2.31143E+003   -9.48709E+002   -2.55676E+004
            3755    8.00893E+007    7.99405E+007    7.99405E+007   -1.17774E+005   -1.79765E+005    8.01203E+007   -2.65477E+007    8.00893E+007    7.99405E+007   -1.67695E+005   -1.29844E+005   -1.80394E+003    3.41437E+001   -2.45468E+004
            3756    8.00744E+007    7.99491E+007    7.99491E+007   -9.25838E+004   -1.58064E+005    8.01071E+007   -2.65661E+007    8.00744E+007    7.99491E+007   -1.51562E+005   -9.90862E+004   -2.00225E+003    1.15554E+003   -1.95831E+004
            3757    8.00680E+007    7.99601E+007    7.99601E+007   -7.32160E+004   -1.42675E+005    8.01028E+007   -2.65814E+007    8.00680E+007    7.99601E+007   -1.40558E+005   -7.53329E+004   -1.20872E+003    1.97819E+003   -1.19400E+004
            3758    8.00625E+007    7.99613E+007    7.99613E+007   -6.56320E+004   -1.36625E+005    8.00979E+007   -2.65864E+007    8.00624E+007    7.99613E+007   -1.36599E+005   -6.56581E+004   -5.80724E+002    2.13321E+003   -1.36455E+003
            3759    8.00687E+007    7.99614E+007    7.99614E+007   -7.16867E+004   -1.42845E+005    8.01043E+007   -2.65823E+007    8.00686E+007    7.99614E+007   -1.41512E+005   -7.30191E+004    3.22549E+002    2.39998E+003    9.64601E+003
            3760    8.00746E+007    7.99511E+007    7.99511E+007   -8.92307E+004   -1.57672E+005    8.01088E+007   -2.65681E+007    8.00745E+007    7.99511E+007   -1.52098E+005   -9.48050E+004    1.42925E+003    2.15187E+003    1.87203E+004
            3761    8.00696E+007    7.99590E+007    7.99590E+007   -1.03053E+005   -1.18014E+005    8.00771E+007   -2.65793E+007    8.00696E+007    7.99590E+007   -1.17707E+005   -1.03360E+005    1.80520E+003    8.80108E+002   -2.11980E+003
            3762    8.00511E+007    7.99725E+007    7.99725E+007   -7.34252E+004   -8.36722E+004    8.00562E+007   -2.66051E+007    8.00511E+007    7.99725E+007   -8.31890E+004   -7.39084E+004    4.94990E+002    5.34224E+002   -2.17213E+003
            3763    8.00440E+007    7.99781E+007    7.99781E+007   -6.27342E+004   -6.88995E+004    8.00470E+007   -2.66155E+007    8.00440E+007    7.99781E+007   -6.88798E+004   -6.27539E+004   -4.54023E+002    6.06147E+002   -3.47480E+002
            3764    8.00502E+007    7.99713E+007    7.99713E+007   -7.41970E+004   -8.35012E+004    8.00548E+007   -2.66045E+007    8.00502E+007    7.99713E+007   -8.32524E+004   -7.44457E+004   -1.63061E+003    5.01639E+002    1.50067E+003
            3765    8.00677E+007    7.99572E+007    7.99572E+007   -1.03835E+005   -1.17148E+005    8.00743E+007   -2.65787E+007    8.00677E+007    7.99572E+007   -1.16996E+005   -1.03987E+005   -2.15620E+003    7.39134E+002    1.41601E+003
            3766    8.00878E+007    7.99387E+007    7.99387E+007   -1.39789E+005   -1.58418E+005    8.00971E+007   -2.65468E+007    8.00878E+007    7.99387E+007   -1.58301E+005   -1.39907E+005   -2.49171E+003    7.43510E+002    1.47334E+003
            3767    8.01066E+007    7.99247E+007    7.99247E+007   -1.68165E+005   -1.95504E+005    8.01202E+007   -2.65204E+007    8.01066E+007    7.99247E+007   -1.95365E+005   -1.68305E+005   -1.38116E+003    9.18017E+002   -1.94646E+003
            3768    8.01136E+007    7.99159E+007    7.99159E+007   -1.80584E+005   -2.14770E+005    8.01307E+007   -2.65069E+007    8.01136E+007    7.99159E+007   -2.09622E+005   -1.85733E+005   -1.86946E+003    1.36957E+003   -1.22272E+004
            3769    8.01150E+007    7.99179E+007    7.99179E+007   -1.80320E+005   -2.13964E+005    8.01318E+007   -2.65079E+007    8.01150E+007    7.99179E+007   -1.88566E+005   -2.05717E+005    2.21216E+003    3.56864E+003   -1.44718E+004
            3770    8.00454E+007    7.99771E+007    7.99771E+007   -6.50070E+004   -7.15956E+004    8.00487E+007   -2.66135E+007    8.00454E+007    7.99771E+007   -6.50351E+004   -7.15675E+004    6.05114E+002   -4.93899E+002    4.29087E+002
            3771    8.00590E+007    7.99660E+007    7.99660E+007   -8.80961E+004   -9.79783E+004    8.00640E+007   -2.65933E+007    8.00590E+007    7.99660E+007   -8.82246E+004   -9.78497E+004    6.79844E+002   -1.48915E+003    1.11950E+003
            3772    8.00803E+007    7.99492E+007    7.99492E+007   -1.24786E+005   -1.37419E+005    8.00866E+007   -2.65623E+007    8.00803E+007    7.99492E+007   -1.24822E+005   -1.37382E+005    8.55245E+002   -2.16724E+003   -6.78629E+002
            3773    8.00996E+007    7.99310E+007    7.99310E+007   -1.63106E+005   -1.74051E+005    8.01051E+007   -2.65313E+007    8.00996E+007    7.99310E+007   -1.63155E+005   -1.74003E+005    9.61961E+002   -2.48398E+003   -7.25808E+002
            3774    8.01149E+007    7.99195E+007    7.99195E+007   -1.88257E+005   -2.02582E+005    8.01221E+007   -2.65096E+007    8.01149E+007    7.99195E+007   -1.88257E+005   -2.02582E+005    1.08479E+003   -1.33989E+003   -3.41254E+001
            3775    8.01209E+007    7.99110E+007    7.99110E+007   -2.01459E+005   -2.18351E+005    8.01293E+007   -2.64971E+007    8.01209E+007    7.99110E+007   -2.01564E+005   -2.18246E+005    1.20229E+003   -1.81836E+003    1.32676E+003
            3776    8.01211E+007    7.99153E+007    7.99153E+007   -1.90415E+005   -2.21156E+005    8.01364E+007   -2.65012E+007    8.01210E+007    7.99153E+007   -1.90426E+005   -2.21145E+005    3.56006E+003    2.13363E+003   -5.98700E+002
            3777    8.00718E+007    7.99597E+007    7.99597E+007   -7.25754E+004   -1.51520E+005    8.01112E+007   -2.65785E+007    8.00717E+007    7.99597E+007   -7.32203E+004   -1.50875E+005   -2.27900E+003    6.16172E+002   -7.10617E+003
            3778    8.00758E+007    7.99505E+007    7.99505E+007   -8.53294E+004   -1.65194E+005    8.01157E+007   -2.65667E+007    8.00757E+007    7.99505E+007   -8.60687E+004   -1.64455E+005   -5.20001E+003    7.49678E+001   -7.65036E+003
            3779    8.00770E+007    7.99414E+007    7.99414E+007   -1.08009E+005   -1.63194E+005    8.01046E+007   -2.65567E+007    8.00769E+007    7.99414E+007   -1.08939E+005   -1.62264E+005    3.72217E+003    7.59498E+001   -7.10277E+003
            3780    8.00873E+007    7.99494E+007    7.99494E+007   -1.23959E+005   -1.51837E+005    8.01012E+007   -2.65579E+007    8.00873E+007    7.99494E+007   -1.25126E+005   -1.50669E+005   -1.87479E+003   -1.43502E+002   -5.58409E+003
            3781    8.00758E+007    7.99540E+007    7.99540E+007   -8.27920E+004   -1.60832E+005    8.01148E+007   -2.65701E+007    8.00757E+007    7.99540E+007   -8.80518E+004   -1.55572E+005   -1.66771E+003    1.90331E+003   -1.95658E+004
            3782    8.00789E+007    7.99482E+007    7.99482E+007   -8.97359E+004   -1.71642E+005    8.01198E+007   -2.65623E+007    8.00788E+007    7.99482E+007   -9.63095E+004   -1.65068E+005   -4.17428E+003   -1.98857E+002   -2.22536E+004
            3783    8.00791E+007    7.99408E+007    7.99408E+007   -1.08120E+005   -1.68333E+005    8.01092E+007   -2.65548E+007    8.00790E+007    7.99408E+007   -1.16051E+005   -1.60402E+005    2.86000E+003   -4.03086E+001   -2.03638E+004
            3784    8.00870E+007    7.99481E+007    7.99481E+007   -1.20918E+005   -1.56880E+005    8.01050E+007   -2.65568E+007    8.00870E+007    7.99481E+007   -1.30245E+005   -1.47553E+005   -1.38627E+003    4.74940E+001   -1.57613E+004
            3785    8.00845E+007    7.99466E+007    7.99466E+007   -9.92215E+004   -1.76576E+005    8.01232E+007   -2.65569E+007    8.00844E+007    7.99466E+007   -1.10946E+005   -1.64851E+005   -1.05170E+003    3.86819E+003   -2.77397E+004
            3786    8.00866E+007    7.99448E+007    7.99448E+007   -9.91171E+004   -1.84515E+005    8.01293E+007   -2.65537E+007    8.00865E+007    7.99448E+007   -1.16179E+005   -1.67453E+005   -1.36610E+003    1.15319E+003   -3.41462E+004
            3787    8.00849E+007    7.99423E+007    7.99423E+007   -1.08008E+005   -1.77165E+005    8.01194E+007   -2.65524E+007    8.00848E+007    7.99423E+007   -1.28374E+005   -1.56800E+005    1.35857E+003    5.89227E+001   -3.15225E+004
            3788    8.00861E+007    7.99450E+007    7.99450E+007   -1.16044E+005   -1.66140E+005    8.01112E+007   -2.65543E+007    8.00861E+007    7.99450E+007   -1.39729E+005   -1.42454E+005   -4.10899E+002   -4.76765E+001   -2.50108E+004
            3789    8.00901E+007    7.99326E+007    7.99326E+007   -1.22385E+005   -1.92667E+005    8.01252E+007   -2.65392E+007    8.00901E+007    7.99326E+007   -1.39372E+005   -1.75679E+005   -5.84128E+002    4.48847E+003   -3.00892E+004
            3790    8.00891E+007    7.99353E+007    7.99353E+007   -1.11243E+005   -1.96160E+005    8.01315E+007   -2.65426E+007    8.00890E+007    7.99353E+007   -1.39701E+005   -1.67702E+005    2.38135E+003    2.43426E+003   -4.00834E+004
            3791    8.00905E+007    7.99415E+007    7.99415E+007   -1.10045E+005   -1.87937E+005    8.01295E+007   -2.65478E+007    8.00905E+007    7.99415E+007   -1.45193E+005   -1.52789E+005    1.30545E+002    5.40313E+002   -3.87604E+004
            3792    8.00857E+007    7.99426E+007    7.99426E+007   -1.10687E+005   -1.75518E+005    8.01181E+007   -2.65521E+007    8.00857E+007    7.99426E+007   -1.50410E+005   -1.35795E+005    4.11835E+002    6.44740E+001   -3.15807E+004
            3793    8.01003E+007    7.99275E+007    7.99275E+007   -1.41230E+005   -2.04407E+005    8.01319E+007   -2.65273E+007    8.01003E+007    7.99275E+007   -1.60558E+005   -1.85079E+005   -1.24162E+003    3.73085E+003   -2.91125E+004
            3794    8.00963E+007    7.99299E+007    7.99299E+007   -1.25415E+005   -2.07223E+005    8.01372E+007   -2.65324E+007    8.00962E+007    7.99299E+007   -1.61821E+005   -1.70816E+005    6.36579E+003    4.26534E+003   -4.06555E+004
            3795    8.00986E+007    7.99432E+007    7.99432E+007   -1.12783E+005   -1.97909E+005    8.01411E+007   -2.65442E+007    8.00985E+007    7.99432E+007   -1.61138E+005   -1.49554E+005    3.82836E+002    8.04035E+002   -4.21671E+004
            3796    8.00841E+007    7.99388E+007    7.99388E+007   -1.06279E+005   -1.84283E+005    8.01231E+007   -2.65494E+007    8.00840E+007    7.99388E+007   -1.61473E+005   -1.29089E+005    1.13225E+003    4.42832E+002   -3.54819E+004
            3797    8.00977E+007    7.99142E+007    7.99142E+007   -1.59055E+005   -2.08062E+005    8.01222E+007   -2.65157E+007    8.00977E+007    7.99142E+007   -1.80961E+005   -1.86157E+005   -3.25968E+003    1.23383E+003   -2.43655E+004
            3798    8.00858E+007    7.99113E+007    7.99113E+007   -1.42231E+005   -2.06651E+005    8.01180E+007   -2.65208E+007    8.00857E+007    7.99113E+007   -1.77112E+005   -1.71769E+005    8.84624E+003    5.94415E+003   -3.20985E+004
            3799    8.00992E+007    7.99369E+007    7.99369E+007   -1.21139E+005   -2.03269E+005    8.01402E+007   -2.65375E+007    8.00991E+007    7.99369E+007   -1.75305E+005   -1.49103E+005    3.27872E+003    2.74390E+003   -3.89188E+004
            3800    8.00846E+007    7.99390E+007    7.99390E+007   -1.04528E+005   -1.86595E+005    8.01256E+007   -2.65493E+007    8.00845E+007    7.99390E+007   -1.67602E+005   -1.23520E+005    1.95686E+003   -9.10447E+002   -3.46113E+004
            3801    8.01264E+007    7.99366E+007    7.99366E+007   -1.71019E+005   -2.08730E+005    8.01453E+007   -2.65189E+007    8.01264E+007    7.99366E+007   -1.89384E+005   -1.90364E+005   -8.29838E+003   -9.07680E+003   -1.88480E+004
            3802    8.00959E+007    7.99145E+007    7.99145E+007   -1.56888E+005   -2.05906E+005    8.01204E+007   -2.65172E+007    8.00959E+007    7.99145E+007   -1.86410E+005   -1.76383E+005    3.40707E+003   -2.91169E+003   -2.39910E+004
            3803    8.01002E+007    7.99330E+007    7.99330E+007   -1.35945E+005   -1.98410E+005    8.01314E+007   -2.65329E+007    8.01001E+007    7.99330E+007   -1.83130E+005   -1.51226E+005    4.28814E+003   -1.07549E+003   -2.68514E+004
            3804    8.00863E+007    7.99388E+007    7.99388E+007   -1.14298E+005   -1.80571E+005    8.01194E+007   -2.65480E+007    8.00862E+007    7.99388E+007   -1.68557E+005   -1.26312E+005    3.72916E+003   -9.11619E+002   -2.55322E+004
            3805    8.00910E+007    7.99414E+007    7.99414E+007   -1.39717E+005   -1.59533E+005    8.01009E+007   -2.65474E+007    8.00910E+007    7.99414E+007   -1.59405E+005   -1.39845E+005    3.15875E+003   -1.73146E+003    1.58744E+003
            3806    8.01052E+007    7.99210E+007    7.99210E+007   -1.72438E+005   -1.95964E+005    8.01170E+007   -2.65175E+007    8.01052E+007    7.99210E+007   -1.95911E+005   -1.72490E+005    4.18250E+003   -8.15014E+002    1.11429E+003
            3807    8.01139E+007    7.99125E+007    7.99125E+007   -1.81219E+005   -2.21433E+005    8.01340E+007   -2.65033E+007    8.01138E+007    7.99125E+007   -2.20723E+005   -1.81929E+005    1.80291E+003    2.65921E+002   -5.29488E+003
            3808    8.01106E+007    7.99042E+007    7.99042E+007   -1.67915E+005   -2.44679E+005    8.01489E+007   -2.64972E+007    8.01105E+007    7.99042E+007   -2.21841E+005   -1.90752E+005    6.17646E+003    4.92564E+003   -3.50927E+004
            3809    8.00518E+007    7.99799E+007    7.99799E+007   -6.52004E+004   -7.86772E+004    8.00586E+007   -2.66120E+007    8.00518E+007    7.99799E+007   -6.52431E+004   -7.86344E+004   -2.30258E+003    4.70249E+002    7.58208E+002
            3810    8.00638E+007    7.99688E+007    7.99688E+007   -8.68415E+004   -1.03065E+005    8.00719E+007   -2.65930E+007    8.00638E+007    7.99688E+007   -8.68753E+004   -1.03032E+005   -2.33253E+003    2.53494E+003    7.40125E+002
            3811    8.00804E+007    7.99494E+007    7.99494E+007   -1.22331E+005   -1.39551E+005    8.00890E+007   -2.65625E+007    8.00804E+007    7.99494E+007   -1.22456E+005   -1.39424E+005   -1.82915E+003    3.72167E+003    1.46730E+003
            3812    8.00978E+007    7.99303E+007    7.99303E+007   -1.57159E+005   -1.77977E+005    8.01082E+007   -2.65317E+007    8.00978E+007    7.99303E+007   -1.57242E+005   -1.77893E+005   -1.29193E+003    3.97080E+003    1.31165E+003
            3813    8.01094E+007    7.99119E+007    7.99119E+007   -1.84895E+005   -2.10121E+005    8.01221E+007   -2.65056E+007    8.01094E+007    7.99119E+007   -1.84996E+005   -2.10020E+005    4.60788E+002    3.80850E+003    1.59127E+003
            3814    8.01151E+007    7.99074E+007    7.99074E+007   -1.83944E+005   -2.31281E+005    8.01387E+007   -2.64974E+007    8.01150E+007    7.99074E+007   -1.84554E+005   -2.30671E+005    2.22376E+003    9.83594E+002   -5.34003E+003
            3815    8.01107E+007    7.99028E+007    7.99028E+007   -1.66315E+005   -2.49365E+005    8.01522E+007   -2.64957E+007    8.01106E+007    7.99028E+007   -1.88795E+005   -2.26884E+005    6.55040E+003    5.32884E+003   -3.69001E+004
            3816    8.00703E+007    7.99599E+007    7.99599E+007   -1.02995E+005   -1.17838E+005    8.00777E+007   -2.65797E+007    8.00703E+007    7.99599E+007   -1.17391E+005   -1.03442E+005    2.27741E+003   -1.78170E+003    2.53748E+003
            3817    8.00539E+007    7.99760E+007    7.99760E+007   -7.26144E+004   -8.32629E+004    8.00592E+007   -2.66067E+007    8.00539E+007    7.99760E+007   -8.27640E+004   -7.31133E+004    1.11843E+003   -1.97591E+003    2.25032E+003
            3818    8.00461E+007    7.99814E+007    7.99814E+007   -6.16995E+004   -6.77695E+004    8.00491E+007   -2.66173E+007    8.00461E+007    7.99814E+007   -6.77371E+004   -6.17319E+004   -2.54905E+002   -1.85115E+003    4.42742E+002
            3819    8.00530E+007    7.99756E+007    7.99756E+007   -7.27521E+004   -8.20006E+004    8.00576E+007   -2.66070E+007    8.00530E+007    7.99756E+007   -8.16539E+004   -7.30987E+004   -1.60287E+003   -1.88892E+003   -1.75672E+003
            3820    8.00688E+007    7.99590E+007    7.99590E+007   -1.03106E+005   -1.16370E+005    8.00754E+007   -2.65799E+007    8.00688E+007    7.99590E+007   -1.15901E+005   -1.03575E+005   -2.69469E+003   -1.67491E+003   -2.44875E+003
            3821    8.00894E+007    7.99396E+007    7.99396E+007   -1.40488E+005   -1.59141E+005    8.00987E+007   -2.65466E+007    8.00894E+007    7.99396E+007   -1.58788E+005   -1.40840E+005   -3.26481E+003   -1.31459E+003   -2.54021E+003
            3822    8.01039E+007    7.99203E+007    7.99203E+007   -1.71108E+005   -1.96147E+005    8.01164E+007   -2.65177E+007    8.01039E+007    7.99203E+007   -1.96091E+005   -1.71163E+005   -3.23532E+003   -1.88790E+002    1.17704E+003
            3823    8.01143E+007    7.99126E+007    7.99126E+007   -1.85007E+005   -2.18388E+005    8.01310E+007   -2.65031E+007    8.01143E+007    7.99126E+007   -2.11508E+005   -1.91887E+005   -1.66766E+003    1.69996E+003    1.35029E+004
            3824    8.01097E+007    7.99021E+007    7.99021E+007   -1.87152E+005   -2.27997E+005    8.01301E+007   -2.64956E+007    8.01096E+007    7.99021E+007   -1.98026E+005   -2.17122E+005   -5.98878E+003    6.64910E+003    1.80525E+004
            3825    8.00794E+007    7.99544E+007    7.99544E+007   -9.03465E+004   -1.59802E+005    8.01142E+007   -2.65681E+007    8.00794E+007    7.99544E+007   -1.53645E+005   -9.65035E+004    2.38748E+003   -1.07091E+003   -1.97417E+004
            3826    8.00834E+007    7.99518E+007    7.99518E+007   -8.94067E+004   -1.73850E+005    8.01256E+007   -2.65628E+007    8.00833E+007    7.99518E+007   -1.65046E+005   -9.82109E+004    3.71035E+002   -3.52871E+003   -2.58060E+004
            3827    8.00814E+007    7.99447E+007    7.99447E+007   -9.95334E+004   -1.73806E+005    8.01185E+007   -2.65571E+007    8.00813E+007    7.99447E+007   -1.64211E+005   -1.09128E+005    7.37992E+001    1.17595E+003   -2.49111E+004
            3828    8.00860E+007    7.99473E+007    7.99473E+007   -1.11334E+005   -1.66200E+005    8.01135E+007   -2.65566E+007    8.00860E+007    7.99473E+007   -1.55867E+005   -1.21667E+005   -1.84741E+002   -2.01593E+002   -2.14512E+004
            3829    8.00809E+007    7.99424E+007    7.99424E+007   -1.20848E+005   -1.56156E+005    8.00985E+007   -2.65551E+007    8.00808E+007    7.99424E+007   -1.46312E+005   -1.30693E+005    2.27484E+002    6.39266E+001   -1.58328E+004
            3830    8.00806E+007    7.99422E+007    7.99422E+007   -1.28505E+005   -1.48381E+005    8.00906E+007   -2.65551E+007    8.00806E+007    7.99422E+007   -1.37630E+005   -1.39256E+005    6.69621E+002    1.63498E+002   -9.90476E+003
            3831    8.00787E+007    7.99407E+007    7.99407E+007   -1.31928E+005   -1.43983E+005    8.00847E+007   -2.65549E+007    8.00787E+007    7.99407E+007   -1.32883E+005   -1.43028E+005    1.02983E+003   -2.04025E+002   -3.25629E+003
            3832    8.00678E+007    7.99593E+007    7.99593E+007   -7.47532E+004   -1.42053E+005    8.01014E+007   -2.65808E+007    8.00677E+007    7.99593E+007   -1.40302E+005   -7.65046E+004    9.12718E+002   -1.29664E+003   -1.07146E+004
            3833    8.00726E+007    7.99523E+007    7.99523E+007   -7.93608E+004   -1.61120E+005    8.01134E+007   -2.65706E+007    8.00725E+007    7.99523E+007   -1.59274E+005   -8.12071E+004   -3.04070E+002   -5.25482E+003   -1.21477E+004
            3834    8.00730E+007    7.99419E+007    7.99419E+007   -9.62305E+004   -1.65953E+005    8.01078E+007   -2.65599E+007    8.00729E+007    7.99419E+007   -1.64195E+005   -9.79890E+004    1.43829E+002    1.46286E+003   -1.09324E+004
            3835    8.00833E+007    7.99477E+007    7.99477E+007   -1.11774E+005   -1.59423E+005    8.01071E+007   -2.65588E+007    8.00833E+007    7.99477E+007   -1.58005E+005   -1.13191E+005   -7.73706E+001   -7.11278E+002   -8.09500E+003
            3836    8.00819E+007    7.99442E+007    7.99442E+007   -1.23264E+005   -1.52073E+005    8.00963E+007   -2.65563E+007    8.00819E+007    7.99442E+007   -1.51037E+005   -1.24300E+005   -1.02639E+002   -1.10123E+001   -5.36457E+003
            3837    8.00868E+007    7.99482E+007    7.99482E+007   -1.32811E+005   -1.44451E+005    8.00926E+007   -2.65570E+007    8.00868E+007    7.99482E+007   -1.43702E+005   -1.33560E+005   -3.31674E+002    1.07499E+002   -2.85707E+003
            3838    8.00866E+007    7.99478E+007    7.99478E+007   -1.37316E+005   -1.40286E+005    8.00881E+007   -2.65567E+007    8.00866E+007    7.99478E+007   -1.39875E+005   -1.37727E+005   -4.47700E+002   -2.77987E+002   -1.02578E+003
            3839    8.00672E+007    7.99646E+007    7.99646E+007   -6.82259E+004   -1.36886E+005    8.01015E+007   -2.65865E+007    8.00671E+007    7.99646E+007   -1.36866E+005   -6.82458E+004   -1.99041E+002   -1.50745E+003    1.16858E+003
            3840    8.00746E+007    7.99567E+007    7.99567E+007   -7.65320E+004   -1.59350E+005    8.01160E+007   -2.65736E+007    8.00745E+007    7.99567E+007   -1.59260E+005   -7.66221E+004   -1.25550E+002   -5.41956E+003    2.73523E+003
            3841    8.00751E+007    7.99450E+007    7.99450E+007   -9.43257E+004   -1.65955E+005    8.01109E+007   -2.65616E+007    8.00751E+007    7.99450E+007   -1.65645E+005   -9.46361E+004    9.34340E+000    1.81948E+003    4.70534E+003
            3842    8.00847E+007    7.99491E+007    7.99491E+007   -1.11695E+005   -1.59545E+005    8.01086E+007   -2.65593E+007    8.00847E+007    7.99491E+007   -1.58916E+005   -1.12324E+005   -5.16410E+001   -4.77304E+002    5.45161E+003
            3843    8.00796E+007    7.99423E+007    7.99423E+007   -1.22975E+005   -1.51519E+005    8.00938E+007   -2.65559E+007    8.00796E+007    7.99423E+007   -1.50397E+005   -1.24097E+005    5.62789E+000    2.62214E+002    5.54646E+003
            3844    8.00817E+007    7.99436E+007    7.99436E+007   -1.32977E+005   -1.43145E+005    8.00867E+007   -2.65558E+007    8.00817E+007    7.99436E+007   -1.41540E+005   -1.34582E+005    2.60480E+001    2.28581E+002    3.70722E+003
            3845    8.00792E+007    7.99414E+007    7.99414E+007   -1.36011E+005   -1.39667E+005    8.00811E+007   -2.65552E+007    8.00792E+007    7.99414E+007   -1.36805E+005   -1.38873E+005    8.68120E+001   -2.14369E+002    1.50714E+003
            3846    8.00681E+007    7.99588E+007    7.99588E+007   -7.59269E+004   -1.42501E+005    8.01013E+007   -2.65801E+007    8.00680E+007    7.99588E+007   -1.40093E+005   -7.83357E+004   -1.67556E+003   -9.86751E+002    1.24324E+004
            3847    8.00746E+007    7.99519E+007    7.99519E+007   -8.15267E+004   -1.63864E+005    8.01157E+007   -2.65688E+007    8.00745E+007    7.99519E+007   -1.60083E+005   -8.53075E+004   -2.62275E+002   -4.90119E+003    1.72346E+004
            3848    8.00750E+007    7.99415E+007    7.99415E+007   -9.72078E+004   -1.69551E+005    8.01111E+007   -2.65583E+007    8.00749E+007    7.99415E+007   -1.64042E+005   -1.02717E+005   -3.25344E+002    1.41887E+003    1.91886E+004
            3849    8.00847E+007    7.99470E+007    7.99470E+007   -1.10944E+005   -1.64422E+005    8.01115E+007   -2.65572E+007    8.00847E+007    7.99470E+007   -1.56727E+005   -1.18639E+005    1.09019E+001   -6.49941E+002    1.87699E+004
            3850    8.00825E+007    7.99437E+007    7.99437E+007   -1.20769E+005   -1.56796E+005    8.01005E+007   -2.65554E+007    8.00825E+007    7.99437E+007   -1.47824E+005   -1.29742E+005   -4.66497E+001   -4.75011E+001    1.55807E+004
            3851    8.00868E+007    7.99478E+007    7.99478E+007   -1.28459E+005   -1.49550E+005    8.00973E+007   -2.65566E+007    8.00868E+007    7.99478E+007   -1.39014E+005   -1.38995E+005    4.94754E+001    4.25592E+001    1.05456E+004
            3852    8.00859E+007    7.99473E+007    7.99473E+007   -1.32949E+005   -1.44197E+005    8.00915E+007   -2.65567E+007    8.00859E+007    7.99473E+007   -1.34181E+005   -1.42965E+005    2.17217E+001   -2.72459E+002    3.51272E+003
            3853    8.00793E+007    7.99518E+007    7.99518E+007   -9.37190E+004   -1.61144E+005    8.01130E+007   -2.65657E+007    8.00792E+007    7.99518E+007   -1.54153E+005   -1.00710E+005   -3.02949E+003   -5.38546E+002    2.05547E+004
            3854    8.00849E+007    7.99493E+007    7.99493E+007   -9.35734E+004   -1.77624E+005    8.01269E+007   -2.65594E+007    8.00848E+007    7.99493E+007   -1.65614E+005   -1.05583E+005   -1.11825E+003   -2.62534E+003    2.94144E+004
            3855    8.00839E+007    7.99428E+007    7.99428E+007   -1.02159E+005   -1.80085E+005    8.01229E+007   -2.65535E+007    8.00839E+007    7.99428E+007   -1.64209E+005   -1.18036E+005   -4.74035E+002    1.26349E+003    3.13872E+004
            3856    8.00879E+007    7.99457E+007    7.99457E+007   -1.10770E+005   -1.73523E+005    8.01192E+007   -2.65538E+007    8.00878E+007    7.99457E+007   -1.53381E+005   -1.30912E+005   -8.90578E+001   -1.80720E+001    2.92966E+004
            3857    8.00824E+007    7.99420E+007    7.99420E+007   -1.16135E+005   -1.64710E+005    8.01067E+007   -2.65537E+007    8.00824E+007    7.99420E+007   -1.40877E+005   -1.39969E+005   -1.91889E+002    1.93428E+002    2.42831E+004
            3858    8.00813E+007    7.99428E+007    7.99428E+007   -1.20224E+005   -1.56706E+005    8.00995E+007   -2.65553E+007    8.00813E+007    7.99428E+007   -1.29034E+005   -1.47896E+005   -3.37145E+002    1.30443E+002    1.56139E+004
            3859    8.00784E+007    7.99414E+007    7.99414E+007   -1.21550E+005   -1.52291E+005    8.00937E+007   -2.65559E+007    8.00783E+007    7.99414E+007   -1.22562E+005   -1.51279E+005   -5.00629E+002   -8.26431E+001    5.48513E+003
            3860    8.00866E+007    7.99370E+007    7.99370E+007   -1.17781E+005   -1.81392E+005    8.01184E+007   -2.65459E+007    8.00865E+007    7.99370E+007   -1.68969E+005   -1.30204E+005   -4.21403E+003   -5.88289E+002    2.52175E+004
            3861    8.00875E+007    7.99367E+007    7.99367E+007   -1.10620E+005   -1.90883E+005    8.01276E+007   -2.65451E+007    8.00874E+007    7.99367E+007   -1.69130E+005   -1.32373E+005   -2.69016E+003    5.86846E+002    3.56758E+004
            3862    8.00885E+007    7.99382E+007    7.99382E+007   -1.10353E+005   -1.90302E+005    8.01285E+007   -2.65458E+007    8.00885E+007    7.99382E+007   -1.61785E+005   -1.38869E+005   -1.38734E+003    8.63615E+002    3.82973E+004
            3863    8.00882E+007    7.99410E+007    7.99410E+007   -1.10901E+005   -1.83351E+005    8.01244E+007   -2.65489E+007    8.00881E+007    7.99410E+007   -1.48465E+005   -1.45786E+005   -4.83837E+002    2.95518E+002    3.62002E+004
            3864    8.00867E+007    7.99443E+007    7.99443E+007   -1.11001E+005   -1.73843E+005    8.01181E+007   -2.65531E+007    8.00867E+007    7.99443E+007   -1.33095E+005   -1.51749E+005   -5.23639E+001   -7.42060E-001    3.00049E+004
            3865    8.00861E+007    7.99480E+007    7.99480E+007   -1.11394E+005   -1.64855E+005    8.01128E+007   -2.65572E+007    8.00861E+007    7.99480E+007   -1.20146E+005   -1.56102E+005    6.40201E+002   -1.08972E+002    1.97817E+004
            3866    8.00850E+007    7.99496E+007    7.99496E+007   -1.11585E+005   -1.59358E+005    8.01089E+007   -2.65595E+007    8.00850E+007    7.99496E+007   -1.12576E+005   -1.58366E+005    8.52045E+002   -1.27666E+002    6.81047E+003
            3867    8.00989E+007    7.99296E+007    7.99296E+007   -1.41132E+005   -1.97329E+005    8.01270E+007   -2.65304E+007    8.00988E+007    7.99296E+007   -1.80642E+005   -1.57818E+005   -3.42064E+003   -1.45202E+003    2.56767E+004
            3868    8.00967E+007    7.99303E+007    7.99303E+007   -1.29860E+005   -2.02966E+005    8.01333E+007   -2.65325E+007    8.00967E+007    7.99303E+007   -1.75468E+005   -1.57357E+005   -4.17795E+003    4.26452E+003    3.54130E+004
            3869    8.01006E+007    7.99398E+007    7.99398E+007   -1.19531E+005   -2.01968E+005    8.01418E+007   -2.65394E+007    8.01005E+007    7.99398E+007   -1.62932E+005   -1.58567E+005   -1.46176E+003    1.89320E+003    4.11610E+004
            3870    8.00913E+007    7.99393E+007    7.99393E+007   -1.12096E+005   -1.91764E+005    8.01311E+007   -2.65452E+007    8.00912E+007    7.99393E+007   -1.43918E+005   -1.59942E+005   -4.60934E+002    1.14473E+003    3.90198E+004
            3871    8.00851E+007    7.99423E+007    7.99423E+007   -1.04471E+005   -1.81042E+005    8.01234E+007   -2.65523E+007    8.00850E+007    7.99423E+007   -1.23262E+005   -1.62251E+005   -8.17540E+002    5.54819E+002    3.29509E+004
            3872    8.00763E+007    7.99417E+007    7.99417E+007   -9.83789E+004   -1.70611E+005    8.01123E+007   -2.65576E+007    8.00762E+007    7.99417E+007   -1.05506E+005   -1.63484E+005   -1.65122E+003    7.67357E+001    2.15417E+004
            3873    8.00725E+007    7.99427E+007    7.99427E+007   -9.43862E+004   -1.65121E+005    8.01078E+007   -2.65611E+007    8.00724E+007    7.99427E+007   -9.51981E+004   -1.64309E+005   -2.17635E+003    3.13716E+002    7.53503E+003
            3874    8.01010E+007    7.99180E+007    7.99180E+007   -1.65428E+005   -2.00586E+005    8.01186E+007   -2.65173E+007    8.01010E+007    7.99180E+007   -1.83903E+005   -1.82110E+005   -3.81403E+002   -4.31719E+003    1.75565E+004
            3875    8.00876E+007    7.99098E+007    7.99098E+007   -1.50930E+005   -2.04830E+005    8.01146E+007   -2.65180E+007    8.00876E+007    7.99098E+007   -1.79599E+005   -1.76160E+005   -5.48784E+003    5.80992E+003    2.68945E+004
            3876    8.00986E+007    7.99291E+007    7.99291E+007   -1.33445E+005   -2.05573E+005    8.01346E+007   -2.65300E+007    8.00985E+007    7.99291E+007   -1.63211E+005   -1.75806E+005   -4.38648E+003    4.23386E+003    3.55097E+004
            3877    8.00897E+007    7.99337E+007    7.99337E+007   -1.17062E+005   -1.94909E+005    8.01286E+007   -2.65406E+007    8.00896E+007    7.99337E+007   -1.42035E+005   -1.69936E+005   -1.58897E+003    2.51300E+003    3.63373E+004
            3878    8.00864E+007    7.99458E+007    7.99458E+007   -9.95097E+004   -1.81608E+005    8.01274E+007   -2.65549E+007    8.00863E+007    7.99458E+007   -1.14839E+005   -1.66279E+005    1.50183E+003    1.35072E+003    3.19924E+004
            3879    8.00776E+007    7.99510E+007    7.99510E+007   -8.61915E+004   -1.66942E+005    8.01180E+007   -2.65660E+007    8.00776E+007    7.99510E+007   -9.23569E+004   -1.60776E+005    4.51155E+003   -1.19047E+002    2.14444E+004
            3880    8.00739E+007    7.99558E+007    7.99558E+007   -7.75101E+004   -1.58755E+005    8.01145E+007   -2.65732E+007    8.00738E+007    7.99558E+007   -7.82438E+004   -1.58021E+005    6.09727E+003    1.17794E+002    7.68855E+003
            3881    8.01292E+007    7.99333E+007    7.99333E+007   -1.81988E+005   -2.09828E+005    8.01432E+007   -2.65138E+007    8.01292E+007    7.99333E+007   -1.95416E+005   -1.96400E+005    5.58974E+003   -7.27377E+003    1.39109E+004
            3882    8.01025E+007    7.99142E+007    7.99142E+007   -1.71508E+005   -2.04947E+005    8.01192E+007   -2.65126E+007    8.01024E+007    7.99142E+007   -1.85003E+005   -1.91452E+005    3.24421E+003    6.13772E+002    1.64054E+004
            3883    8.01042E+007    7.99266E+007    7.99266E+007   -1.53372E+005   -2.01921E+005    8.01285E+007   -2.65238E+007    8.01042E+007    7.99266E+007   -1.69358E+005   -1.85935E+005    1.50673E+003    3.24460E+003    2.28153E+004
            3884    8.00921E+007    7.99330E+007    7.99330E+007   -1.29558E+005   -1.88425E+005    8.01215E+007   -2.65384E+007    8.00920E+007    7.99330E+007   -1.44205E+005   -1.73777E+005    1.06277E+003    3.38893E+003    2.54504E+004
            3885    8.00836E+007    7.99467E+007    7.99467E+007   -1.04463E+005   -1.69145E+005    8.01159E+007   -2.65577E+007    8.00835E+007    7.99467E+007   -1.14649E+005   -1.58959E+005    9.24025E+002    3.19184E+003    2.35597E+004
            3886    8.00722E+007    7.99559E+007    7.99559E+007   -8.26194E+004   -1.50003E+005    8.01059E+007   -2.65744E+007    8.00721E+007    7.99559E+007   -8.74089E+004   -1.45213E+005    9.32274E+002    1.88444E+003    1.73145E+004
            3887    8.00667E+007    7.99626E+007    7.99626E+007   -7.04023E+004   -1.37636E+005    8.01003E+007   -2.65849E+007    8.00666E+007    7.99626E+007   -7.10035E+004   -1.37035E+005    1.20484E+003    9.56882E+002    6.32925E+003
            3888    8.00483E+007    7.99803E+007    7.99803E+007   -6.48345E+004   -7.12248E+004    8.00515E+007   -2.66147E+007    8.00483E+007    7.99803E+007   -6.49030E+004   -7.11562E+004    2.05499E+003    8.22789E+002   -6.58542E+002
            3889    8.00610E+007    7.99684E+007    7.99684E+007   -8.75673E+004   -9.77235E+004    8.00661E+007   -2.65944E+007    8.00610E+007    7.99684E+007   -8.77138E+004   -9.75768E+004    1.91249E+003    1.90844E+003   -1.21133E+003
            3890    8.00801E+007    7.99496E+007    7.99496E+007   -1.24388E+005   -1.36537E+005    8.00861E+007   -2.65629E+007    8.00801E+007    7.99496E+007   -1.24390E+005   -1.36534E+005    1.53904E+003    2.61780E+003    1.79366E+002
            3891    8.00993E+007    7.99313E+007    7.99313E+007   -1.62507E+005   -1.73318E+005    8.01047E+007   -2.65318E+007    8.00993E+007    7.99313E+007   -1.62533E+005   -1.73293E+005    1.12386E+003    2.96797E+003    5.23248E+002
            3892    8.01101E+007    7.99150E+007    7.99150E+007   -1.89233E+005   -2.00964E+005    8.01159E+007   -2.65083E+007    8.01101E+007    7.99150E+007   -1.89233E+005   -2.00964E+005    2.82601E+001    3.29304E+003   -5.33153E+001
            3893    8.01192E+007    7.99086E+007    7.99086E+007   -2.04951E+005   -2.16413E+005    8.01250E+007   -2.64957E+007    8.01193E+007    7.99086E+007   -2.04956E+005   -2.16408E+005   -1.24015E+003    1.07221E+003   -2.43713E+002
            3894    8.01153E+007    7.99009E+007    7.99009E+007   -1.98827E+005   -2.29991E+005    8.01309E+007   -2.64907E+007    8.01153E+007    7.99009E+007   -1.99297E+005   -2.29520E+005   -5.48565E+003    5.40467E+003    3.80054E+003
            3895    8.01113E+007    7.99049E+007    7.99049E+007   -1.67305E+005   -2.45416E+005    8.01503E+007   -2.64974E+007    8.01112E+007    7.99049E+007   -2.21554E+005   -1.91166E+005    6.13886E+003   -4.89746E+003    3.59781E+004
            3896    8.01147E+007    7.99127E+007    7.99127E+007   -1.80991E+005   -2.22918E+005    8.01356E+007   -2.65029E+007    8.01146E+007    7.99127E+007   -2.22098E+005   -1.81810E+005    2.06162E+003   -2.88687E+002    5.80450E+003
            3897    8.01065E+007    7.99218E+007    7.99218E+007   -1.72645E+005   -1.96776E+005    8.01185E+007   -2.65174E+007    8.01065E+007    7.99218E+007   -1.96718E+005   -1.72703E+005    4.03950E+003    1.23450E+003   -1.18263E+003
            3898    8.00921E+007    7.99423E+007    7.99423E+007   -1.39634E+005   -1.60021E+005    8.01023E+007   -2.65475E+007    8.00921E+007    7.99423E+007   -1.59849E+005   -1.39806E+005    3.18788E+003    2.00710E+003   -1.86482E+003
            3899    8.00874E+007    7.99394E+007    7.99394E+007   -1.14272E+005   -1.81526E+005    8.01210E+007   -2.65479E+007    8.00873E+007    7.99394E+007   -1.69195E+005   -1.26603E+005    3.85172E+003    9.29344E+002    2.60245E+004
            3900    8.00855E+007    7.99400E+007    7.99400E+007   -1.04194E+005   -1.86701E+005    8.01267E+007   -2.65497E+007    8.00854E+007    7.99400E+007   -1.67649E+005   -1.23246E+005    1.63663E+003    1.84532E+003    3.47700E+004
            3901    8.00833E+007    7.99382E+007    7.99382E+007   -1.06279E+005   -1.83983E+005    8.01221E+007   -2.65493E+007    8.00832E+007    7.99382E+007   -1.61261E+005   -1.29001E+005    1.14352E+003   -6.69414E+002    3.53459E+004
            3902    8.00861E+007    7.99430E+007    7.99430E+007   -1.10904E+005   -1.75161E+005    8.01182E+007   -2.65523E+007    8.00860E+007    7.99430E+007   -1.50025E+005   -1.36039E+005    4.12867E+002    3.19632E+001    3.13581E+004
            3903    8.00849E+007    7.99440E+007    7.99440E+007   -1.16130E+005   -1.65769E+005    8.01097E+007   -2.65540E+007    8.00849E+007    7.99440E+007   -1.39236E+005   -1.42663E+005   -1.41613E+002    7.41660E+001    2.47606E+004
            3904    8.00865E+007    7.99476E+007    7.99476E+007   -1.20870E+005   -1.56977E+005    8.01046E+007   -2.65566E+007    8.00865E+007    7.99476E+007   -1.29830E+005   -1.48016E+005   -1.02128E+003   -9.69951E+001    1.55961E+004
            3905    8.00865E+007    7.99487E+007    7.99487E+007   -1.23873E+005   -1.51751E+005    8.01005E+007   -2.65577E+007    8.00865E+007    7.99487E+007   -1.25010E+005   -1.50614E+005   -1.69035E+003    6.87862E+001    5.51311E+003
            3906    8.01003E+007    7.99327E+007    7.99327E+007   -1.35998E+005   -1.99190E+005    8.01318E+007   -2.65325E+007    8.01002E+007    7.99327E+007   -1.83324E+005   -1.51864E+005    4.50305E+003    9.75064E+002    2.74023E+004
            3907    8.00992E+007    7.99372E+007    7.99372E+007   -1.20674E+005   -2.03232E+005    8.01405E+007   -2.65378E+007    8.00991E+007    7.99372E+007   -1.74784E+005   -1.49122E+005    3.28628E+003   -1.98475E+003    3.92341E+004
            3908    8.00975E+007    7.99424E+007    7.99424E+007   -1.12708E+005   -1.97531E+005    8.01399E+007   -2.65440E+007    8.00974E+007    7.99424E+007   -1.60585E+005   -1.49654E+005    3.69835E+002   -9.81331E+002    4.20574E+004
            3909    8.00909E+007    7.99422E+007    7.99422E+007   -1.09896E+005   -1.87555E+005    8.01297E+007   -2.65482E+007    8.00908E+007    7.99422E+007   -1.44500E+005   -1.52951E+005   -4.74161E+001   -4.53793E+002    3.85988E+004
            3910    8.00852E+007    7.99429E+007    7.99429E+007   -1.07904E+005   -1.76619E+005    8.01195E+007   -2.65528E+007    8.00851E+007    7.99429E+007   -1.28152E+005   -1.56371E+005    7.84530E+002   -1.29840E+002    3.13264E+004
            3911    8.00801E+007    7.99421E+007    7.99421E+007   -1.07876E+005   -1.68104E+005    8.01102E+007   -2.65554E+007    8.00801E+007    7.99421E+007   -1.15694E+005   -1.60286E+005    2.09167E+003    1.41448E+002    2.02428E+004
            3912    8.00771E+007    7.99416E+007    7.99416E+007   -1.07958E+005   -1.63111E+005    8.01047E+007   -2.65568E+007    8.00771E+007    7.99416E+007   -1.08853E+005   -1.62216E+005    3.39553E+003    6.53385E+001    6.96947E+003
            3913    8.00970E+007    7.99156E+007    7.99156E+007   -1.56826E+005   -2.06082E+005    8.01217E+007   -2.65176E+007    8.00970E+007    7.99156E+007   -1.86285E+005   -1.76623E+005    3.16847E+003    3.48309E+003    2.41497E+004
            3914    8.00864E+007    7.99121E+007    7.99121E+007   -1.42010E+005   -2.06602E+005    8.01187E+007   -2.65212E+007    8.00864E+007    7.99121E+007   -1.76781E+005   -1.71829E+005    8.50923E+003   -5.75148E+003    3.22006E+004
            3915    8.00966E+007    7.99306E+007    7.99306E+007   -1.25083E+005   -2.06845E+005    8.01375E+007   -2.65329E+007    8.00965E+007    7.99306E+007   -1.61190E+005   -1.70737E+005    6.07138E+003   -3.83323E+003    4.06012E+004
            3916    8.00888E+007    7.99353E+007    7.99353E+007   -1.11293E+005   -1.95557E+005    8.01309E+007   -2.65428E+007    8.00887E+007    7.99353E+007   -1.39467E+005   -1.67384E+005    2.67319E+003   -2.36634E+003    3.97522E+004
            3917    8.00866E+007    7.99444E+007    7.99444E+007   -9.96676E+004   -1.84578E+005    8.01290E+007   -2.65534E+007    8.00865E+007    7.99444E+007   -1.16794E+005   -1.67452E+005   -4.46914E+002   -1.10311E+003    3.40722E+004
            3918    8.00787E+007    7.99475E+007    7.99475E+007   -9.03371E+004   -1.71916E+005    8.01194E+007   -2.65618E+007    8.00786E+007    7.99475E+007   -9.70825E+004   -1.65171E+005   -3.07217E+003    9.79945E+000    2.24677E+004
            3919    8.00758E+007    7.99505E+007    7.99505E+007   -8.53683E+004   -1.65258E+005    8.01157E+007   -2.65666E+007    8.00757E+007    7.99505E+007   -8.61783E+004   -1.64448E+005   -4.78707E+003   -2.10202E+002    8.00478E+003
            3920    8.01270E+007    7.99370E+007    7.99370E+007   -1.71292E+005   -2.08616E+005    8.01456E+007   -2.65190E+007    8.01269E+007    7.99370E+007   -1.89987E+005   -1.89920E+005   -7.73656E+003    9.45905E+003    1.86611E+004
            3921    8.00977E+007    7.99140E+007    7.99140E+007   -1.59046E+005   -2.08241E+005    8.01222E+007   -2.65156E+007    8.00976E+007    7.99140E+007   -1.80881E+005   -1.86406E+005   -2.68914E+003   -1.08620E+003    2.44419E+004
            3922    8.01006E+007    7.99279E+007    7.99279E+007   -1.41409E+005   -2.04012E+005    8.01319E+007   -2.65275E+007    8.01006E+007    7.99279E+007   -1.60276E+005   -1.85145E+005   -9.03407E+002   -3.59630E+003    2.87260E+004
            3923    8.00897E+007    7.99325E+007    7.99325E+007   -1.22386E+005   -1.91839E+005    8.01244E+007   -2.65394E+007    8.00896E+007    7.99325E+007   -1.39116E+005   -1.75109E+005   -2.75561E+002   -3.94152E+003    2.96989E+004
            3924    8.00833E+007    7.99462E+007    7.99462E+007   -9.86726E+004   -1.75315E+005    8.01215E+007   -2.65574E+007    8.00832E+007    7.99462E+007   -1.10336E+005   -1.63652E+005   -8.18180E+002   -3.69240E+003    2.75295E+004
            3925    8.00745E+007    7.99536E+007    7.99536E+007   -8.19044E+004   -1.59995E+005    8.01136E+007   -2.65706E+007    8.00745E+007    7.99536E+007   -8.73910E+004   -1.54508E+005   -1.60354E+003   -2.08012E+003    1.99589E+004
            3926    8.00711E+007    7.99592E+007    7.99592E+007   -7.23425E+004   -1.51352E+005    8.01106E+007   -2.65785E+007    8.00710E+007    7.99592E+007   -7.31390E+004   -1.50556E+005   -2.17263E+003   -1.32386E+003    7.89331E+003
            3927    8.00515E+007    7.99794E+007    7.99794E+007   -6.55645E+004   -7.87732E+004    8.00581E+007   -2.66117E+007    8.00515E+007    7.99794E+007   -6.56122E+004   -7.87254E+004   -2.27381E+003   -1.24447E+003   -7.92604E+002
            3928    8.00624E+007    7.99672E+007    7.99672E+007   -8.71820E+004   -1.03040E+005    8.00703E+007   -2.65923E+007    8.00623E+007    7.99672E+007   -8.72342E+004   -1.02987E+005   -1.98158E+003   -2.91981E+003   -9.09327E+002
            3929    8.00791E+007    7.99484E+007    7.99484E+007   -1.22038E+005   -1.39476E+005    8.00879E+007   -2.65623E+007    8.00791E+007    7.99484E+007   -1.22122E+005   -1.39392E+005   -1.45731E+003   -3.47246E+003   -1.20478E+003
            3930    8.00969E+007    7.99298E+007    7.99298E+007   -1.56720E+005   -1.77372E+005    8.01072E+007   -2.65319E+007    8.00969E+007    7.99298E+007   -1.56748E+005   -1.77344E+005   -9.32269E+002   -3.67916E+003   -7.68781E+002
            3931    8.01089E+007    7.99123E+007    7.99123E+007   -1.84290E+005   -2.08970E+005    8.01212E+007   -2.65063E+007    8.01089E+007    7.99123E+007   -1.84386E+005   -2.08875E+005    6.95839E+002   -3.35434E+003   -1.52997E+003
            3932    8.01152E+007    7.99080E+007    7.99080E+007   -1.84250E+005   -2.30050E+005    8.01381E+007   -2.64979E+007    8.01151E+007    7.99080E+007   -1.84833E+005   -2.29466E+005    2.04998E+003   -8.79575E+002    5.13809E+003
            3933    8.01108E+007    7.99034E+007    7.99034E+007   -1.66697E+005   -2.48031E+005    8.01514E+007   -2.64962E+007    8.01107E+007    7.99034E+007   -1.88271E+005   -2.26456E+005    6.63310E+003   -4.66518E+003    3.59065E+004
            3934    8.00667E+007    7.99629E+007    7.99629E+007   -7.02868E+004   -1.37384E+005    8.01003E+007   -2.65851E+007    8.00667E+007    7.99629E+007   -7.08551E+004   -1.36816E+005    1.46710E+003   -7.38158E+002   -6.14928E+003
            3935    8.00736E+007    7.99554E+007    7.99554E+007   -7.75456E+004   -1.58700E+005    8.01141E+007   -2.65731E+007    8.00735E+007    7.99554E+007   -7.83365E+004   -1.57909E+005    5.90357E+003   -1.51685E+002   -7.97467E+003
            3936    8.00729E+007    7.99430E+007    7.99430E+007   -9.43530E+004   -1.65252E+005    8.01083E+007   -2.65611E+007    8.00728E+007    7.99430E+007   -9.52504E+004   -1.64355E+005   -1.97207E+003   -2.04578E+002   -7.92580E+003
            3937    8.00852E+007    7.99496E+007    7.99496E+007   -1.11468E+005   -1.59716E+005    8.01093E+007   -2.65595E+007    8.00851E+007    7.99496E+007   -1.12615E+005   -1.58570E+005    7.57328E+002    9.25692E+001   -7.34956E+003
            3938    8.00791E+007    7.99420E+007    7.99420E+007   -1.21599E+005   -1.52500E+005    8.00945E+007   -2.65560E+007    8.00790E+007    7.99420E+007   -1.22787E+005   -1.51313E+005   -4.45958E+002    1.10259E+002   -5.94052E+003
            3939    8.00859E+007    7.99473E+007    7.99473E+007   -1.32791E+005   -1.44414E+005    8.00917E+007   -2.65567E+007    8.00859E+007    7.99473E+007   -1.34178E+005   -1.43028E+005   -1.65510E+001    2.70142E+002   -3.76790E+003
            3940    8.00797E+007    7.99418E+007    7.99418E+007   -1.36064E+005   -1.39705E+005    8.00815E+007   -2.65553E+007    8.00797E+007    7.99418E+007   -1.36941E+005   -1.38828E+005    6.80084E+001    2.28525E+002   -1.55701E+003
            3941    8.00861E+007    7.99474E+007    7.99474E+007   -1.37331E+005   -1.40154E+005    8.00875E+007   -2.65566E+007    8.00861E+007    7.99474E+007   -1.39746E+005   -1.37740E+005   -4.10741E+002    2.62516E+002    9.93087E+002
            3942    8.00787E+007    7.99408E+007    7.99408E+007   -1.32016E+005   -1.43846E+005    8.00846E+007   -2.65550E+007    8.00787E+007    7.99408E+007   -1.32996E+005   -1.42866E+005    9.18244E+002    2.31124E+002    3.26165E+003
            3943    8.00727E+007    7.99561E+007    7.99561E+007   -8.31035E+004   -1.50187E+005    8.01062E+007   -2.65743E+007    8.00727E+007    7.99561E+007   -8.79692E+004   -1.45322E+005    1.06184E+003   -1.72589E+003   -1.73992E+004
            3944    8.00779E+007    7.99511E+007    7.99511E+007   -8.65000E+004   -1.67024E+005    8.01181E+007   -2.65659E+007    8.00778E+007    7.99511E+007   -9.27703E+004   -1.60753E+005    4.59768E+003    3.48758E+002   -2.15780E+004
            3945    8.00765E+007    7.99417E+007    7.99417E+007   -9.85778E+004   -1.71101E+005    8.01128E+007   -2.65573E+007    8.00764E+007    7.99417E+007   -1.06124E+005   -1.63555E+005   -1.55486E+003   -1.94933E+002   -2.21430E+004
            3946    8.00857E+007    7.99473E+007    7.99473E+007   -1.11478E+005   -1.65150E+005    8.01125E+007   -2.65569E+007    8.00856E+007    7.99473E+007   -1.20876E+005   -1.55753E+005    5.67922E+002    1.62860E+002   -2.03976E+004
            3947    8.00811E+007    7.99425E+007    7.99425E+007   -1.20374E+005   -1.56692E+005    8.00992E+007   -2.65552E+007    8.00811E+007    7.99425E+007   -1.29762E+005   -1.47305E+005   -2.98223E+002   -1.62199E+002   -1.58998E+004
            3948    8.00862E+007    7.99473E+007    7.99473E+007   -1.28257E+005   -1.49588E+005    8.00969E+007   -2.65565E+007    8.00862E+007    7.99473E+007   -1.39280E+005   -1.38565E+005    3.21087E+001   -2.09544E+001   -1.06597E+004
            3949    8.00819E+007    7.99438E+007    7.99438E+007   -1.32870E+005   -1.43265E+005    8.00871E+007   -2.65559E+007    8.00819E+007    7.99438E+007   -1.41822E+005   -1.34313E+005    6.67084E+001   -2.47420E+002   -3.59458E+003
            3950    8.00863E+007    7.99478E+007    7.99478E+007   -1.32874E+005   -1.44280E+005    8.00920E+007   -2.65569E+007    8.00863E+007    7.99478E+007   -1.43447E+005   -1.33707E+005   -2.72392E+002   -1.01989E+002    2.96710E+003
            3951    8.00818E+007    7.99433E+007    7.99433E+007   -1.28426E+005   -1.48626E+005    8.00919E+007   -2.65554E+007    8.00818E+007    7.99433E+007   -1.37529E+005   -1.39523E+005    5.10961E+002   -1.27448E+002    1.00510E+004
            3952    8.00844E+007    7.99464E+007    7.99464E+007   -1.05875E+005   -1.70035E+005    8.01165E+007   -2.65568E+007    8.00843E+007    7.99464E+007   -1.16163E+005   -1.59747E+005    6.55975E+002   -3.15785E+003   -2.35424E+004
            3953    8.00872E+007    7.99460E+007    7.99460E+007   -1.00181E+005   -1.82082E+005    8.01281E+007   -2.65546E+007    8.00871E+007    7.99460E+007   -1.15818E+005   -1.66446E+005    2.16120E+003   -1.17663E+003   -3.21889E+004
            3954    8.00850E+007    7.99415E+007    7.99415E+007   -1.05159E+005   -1.81742E+005    8.01232E+007   -2.65515E+007    8.00849E+007    7.99415E+007   -1.24714E+005   -1.62187E+005   -1.06560E+003   -6.51877E+002   -3.33945E+004
            3955    8.00878E+007    7.99450E+007    7.99450E+007   -1.11204E+005   -1.74310E+005    8.01194E+007   -2.65532E+007    8.00878E+007    7.99450E+007   -1.34340E+005   -1.51174E+005    3.16522E+001    8.93816E+001   -3.04093E+004
            3956    8.00829E+007    7.99424E+007    7.99424E+007   -1.16165E+005   -1.64802E+005    8.01072E+007   -2.65538E+007    8.00828E+007    7.99424E+007   -1.41683E+005   -1.39284E+005   -1.67430E+002   -1.36405E+002   -2.42888E+004
            3957    8.00828E+007    7.99440E+007    7.99440E+007   -1.20684E+005   -1.56784E+005    8.01008E+007   -2.65555E+007    8.00828E+007    7.99440E+007   -1.48231E+005   -1.29236E+005   -7.67118E+001    7.71630E+001   -1.53495E+004
            3958    8.00799E+007    7.99427E+007    7.99427E+007   -1.22941E+005   -1.51505E+005    8.00942E+007   -2.65561E+007    8.00799E+007    7.99427E+007   -1.50525E+005   -1.23921E+005    2.23424E+001   -2.08256E+002   -5.19968E+003
            3959    8.00814E+007    7.99437E+007    7.99437E+007   -1.23362E+005   -1.51907E+005    8.00956E+007   -2.65562E+007    8.00814E+007    7.99437E+007   -1.50746E+005   -1.24522E+005   -4.61896E+001   -7.18809E+000    5.63708E+003
            3960    8.00808E+007    7.99423E+007    7.99423E+007   -1.20783E+005   -1.56233E+005    8.00986E+007   -2.65551E+007    8.00808E+007    7.99423E+007   -1.46207E+005   -1.30810E+005    1.12059E+002   -1.68783E+002    1.59656E+004
            3961    8.00931E+007    7.99330E+007    7.99330E+007   -1.30682E+005   -1.89504E+005    8.01225E+007   -2.65376E+007    8.00931E+007    7.99330E+007   -1.45436E+005   -1.74749E+005    1.07304E+003   -3.50463E+003   -2.54988E+004
            3962    8.00907E+007    7.99339E+007    7.99339E+007   -1.17923E+005   -1.95725E+005    8.01296E+007   -2.65401E+007    8.00907E+007    7.99339E+007   -1.43369E+005   -1.70279E+005   -1.16528E+003   -2.50241E+003   -3.64995E+004
            3963    8.00912E+007    7.99388E+007    7.99388E+007   -1.12522E+005   -1.92266E+005    8.01311E+007   -2.65447E+007    8.00911E+007    7.99388E+007   -1.45402E+005   -1.59386E+005   -6.17888E+002   -1.13323E+003   -3.92538E+004
            3964    8.00877E+007    7.99406E+007    7.99406E+007   -1.10803E+005   -1.83291E+005    8.01239E+007   -2.65489E+007    8.00876E+007    7.99406E+007   -1.49874E+005   -1.44220E+005   -4.42199E+002   -4.42546E+002   -3.61340E+004
            3965    8.00868E+007    7.99450E+007    7.99450E+007   -1.10416E+005   -1.73100E+005    8.01181E+007   -2.65538E+007    8.00868E+007    7.99450E+007   -1.54060E+005   -1.29455E+005   -1.40747E+002   -9.68625E+001   -2.88265E+004
            3966    8.00844E+007    7.99470E+007    7.99470E+007   -1.10675E+005   -1.64118E+005    8.01111E+007   -2.65574E+007    8.00843E+007    7.99470E+007   -1.57029E+005   -1.17763E+005    1.95716E+001    6.13005E+002   -1.81273E+004
            3967    8.00845E+007    7.99489E+007    7.99489E+007   -1.11727E+005   -1.59421E+005    8.01083E+007   -2.65592E+007    8.00844E+007    7.99489E+007   -1.58902E+005   -1.12247E+005    1.04313E+001    3.93317E+002   -4.95141E+003
            3968    8.00836E+007    7.99479E+007    7.99479E+007   -1.12063E+005   -1.59345E+005    8.01072E+007   -2.65588E+007    8.00836E+007    7.99479E+007   -1.57767E+005   -1.13641E+005   -1.34790E+002    7.90397E+002    8.49298E+003
            3969    8.00869E+007    7.99480E+007    7.99480E+007   -1.11765E+005   -1.65995E+005    8.01140E+007   -2.65567E+007    8.00868E+007    7.99480E+007   -1.55497E+005   -1.22263E+005   -1.67594E+002    3.68198E+002    2.14263E+004
            3970    8.01045E+007    7.99261E+007    7.99261E+007   -1.54048E+005   -2.02595E+005    8.01287E+007   -2.65232E+007    8.01044E+007    7.99261E+007   -1.70299E+005   -1.86345E+005    1.64130E+003   -3.41732E+003   -2.29095E+004
            3971    8.00987E+007    7.99288E+007    7.99288E+007   -1.33861E+005   -2.05924E+005    8.01347E+007   -2.65297E+007    8.00986E+007    7.99288E+007   -1.64132E+005   -1.75653E+005   -4.23628E+003   -4.33088E+003   -3.55680E+004
            3972    8.01004E+007    7.99397E+007    7.99397E+007   -1.19443E+005   -2.01775E+005    8.01415E+007   -2.65395E+007    8.01003E+007    7.99397E+007   -1.63729E+005   -1.57489E+005   -1.48583E+003   -1.90979E+003   -4.10480E+004
            3973    8.00892E+007    7.99395E+007    7.99395E+007   -1.09802E+005   -1.89622E+005    8.01291E+007   -2.65467E+007    8.00891E+007    7.99395E+007   -1.62014E+005   -1.37411E+005   -1.40919E+003   -4.77994E+002   -3.79669E+004
            3974    8.00845E+007    7.99440E+007    7.99440E+007   -1.01662E+005   -1.79374E+005    8.01234E+007   -2.65543E+007    8.00844E+007    7.99440E+007   -1.64114E+005   -1.16922E+005   -2.46395E+002   -9.24450E+002   -3.08705E+004
            3975    8.00753E+007    7.99421E+007    7.99421E+007   -9.72344E+004   -1.69122E+005    8.01112E+007   -2.65586E+007    8.00752E+007    7.99421E+007   -1.63904E+005   -1.02453E+005   -3.05787E+002   -1.33589E+003   -1.86522E+004
            3976    8.00755E+007    7.99452E+007    7.99452E+007   -9.46523E+004   -1.65782E+005    8.01110E+007   -2.65616E+007    8.00754E+007    7.99452E+007   -1.65507E+005   -9.49271E+004    5.06043E+001   -1.71188E+003   -4.41261E+003
            3977    8.00729E+007    7.99415E+007    7.99415E+007   -9.67561E+004   -1.66084E+005    8.01076E+007   -2.65595E+007    8.00729E+007    7.99415E+007   -1.64281E+005   -9.85596E+004    2.51870E+002   -1.68842E+003    1.10354E+004
            3978    8.00805E+007    7.99437E+007    7.99437E+007   -9.99103E+004   -1.73731E+005    8.01174E+007   -2.65567E+007    8.00804E+007    7.99437E+007   -1.64239E+005   -1.09402E+005    9.91350E+001   -1.57924E+003    2.47102E+004
            3979    8.01028E+007    7.99145E+007    7.99145E+007   -1.71636E+005   -2.04992E+005    8.01195E+007   -2.65126E+007    8.01028E+007    7.99145E+007   -1.85090E+005   -1.91538E+005    3.39148E+003   -5.13420E+002   -1.63631E+004
            3980    8.00878E+007    7.99100E+007    7.99100E+007   -1.50877E+005   -2.04566E+005    8.01146E+007   -2.65182E+007    8.00877E+007    7.99100E+007   -1.79716E+005   -1.75726E+005   -5.38294E+003   -5.76361E+003   -2.67699E+004
            3981    8.00966E+007    7.99308E+007    7.99308E+007   -1.29210E+005   -2.02170E+005    8.01330E+007   -2.65332E+007    8.00965E+007    7.99308E+007   -1.75112E+005   -1.56268E+005   -4.05085E+003   -4.37479E+003   -3.52421E+004
            3982    8.00862E+007    7.99361E+007    7.99361E+007   -1.10056E+005   -1.90070E+005    8.01261E+007   -2.65453E+007    8.00861E+007    7.99361E+007   -1.68817E+005   -1.31309E+005   -2.52876E+003   -1.55698E+003   -3.53388E+004
            3983    8.00839E+007    7.99486E+007    7.99486E+007   -9.33292E+004   -1.77269E+005    8.01259E+007   -2.65593E+007    8.00838E+007    7.99486E+007   -1.65398E+005   -1.05199E+005   -1.44704E+003    1.56333E+003   -2.92487E+004
            3984    8.00745E+007    7.99516E+007    7.99516E+007   -8.16907E+004   -1.64065E+005    8.01156E+007   -2.65686E+007    8.00744E+007    7.99516E+007   -1.60257E+005   -8.54990E+004   -3.24112E+002    4.32947E+003   -1.72979E+004
            3985    8.00745E+007    7.99559E+007    7.99559E+007   -7.71862E+004   -1.59880E+005    8.01158E+007   -2.65730E+007    8.00744E+007    7.99559E+007   -1.59775E+005   -7.72913E+004   -3.32925E+002    4.96998E+003   -2.95140E+003
            3986    8.00730E+007    7.99524E+007    7.99524E+007   -7.96378E+004   -1.61403E+005    8.01138E+007   -2.65705E+007    8.00729E+007    7.99524E+007   -1.59635E+005   -8.14056E+004   -5.39026E+002    5.56137E+003    1.18930E+004
            3987    8.00836E+007    7.99521E+007    7.99521E+007   -8.94372E+004   -1.73609E+005    8.01257E+007   -2.65630E+007    8.00835E+007    7.99521E+007   -1.64905E+005   -9.81410E+004    9.74067E+001    4.37976E+003    2.56295E+004
            3988    8.01294E+007    7.99334E+007    7.99334E+007   -1.82615E+005   -2.09472E+005    8.01428E+007   -2.65138E+007    8.01294E+007    7.99334E+007   -1.95262E+005   -1.96823E+005    6.15745E+003    6.91058E+003   -1.34053E+004
            3989    8.01005E+007    7.99179E+007    7.99179E+007   -1.64904E+005   -2.00140E+005    8.01181E+007   -2.65176E+007    8.01004E+007    7.99179E+007   -1.83227E+005   -1.81817E+005   -4.30700E+002    3.93564E+003   -1.76042E+004
            3990    8.00982E+007    7.99297E+007    7.99297E+007   -1.40416E+005   -1.96507E+005    8.01262E+007   -2.65309E+007    8.00982E+007    7.99297E+007   -1.80128E+005   -1.56795E+005   -3.11371E+003    9.74275E+002   -2.55039E+004
            3991    8.00856E+007    7.99372E+007    7.99372E+007   -1.16545E+005   -1.80124E+005    8.01174E+007   -2.65469E+007    8.00855E+007    7.99372E+007   -1.67730E+005   -1.28940E+005   -4.04072E+003    8.50391E+002   -2.51874E+004
            3992    8.00783E+007    7.99516E+007    7.99516E+007   -9.26818E+004   -1.60621E+005    8.01123E+007   -2.65661E+007    8.00782E+007    7.99516E+007   -1.53597E+005   -9.97052E+004   -2.76685E+003    6.12942E+002   -2.06842E+004
            3993    8.00673E+007    7.99578E+007    7.99578E+007   -7.58359E+004   -1.43164E+005    8.01010E+007   -2.65796E+007    8.00673E+007    7.99578E+007   -1.40601E+005   -7.83983E+004   -2.10337E+003    6.96373E+002   -1.28826E+004
            3994    8.00674E+007    7.99644E+007    7.99644E+007   -6.81856E+004   -1.37804E+005    8.01022E+007   -2.65861E+007    8.00673E+007    7.99644E+007   -1.37759E+005   -6.82303E+004   -6.75991E+002    1.69006E+003   -1.76532E+003
            3995    8.00683E+007    7.99593E+007    7.99593E+007   -7.50357E+004   -1.42980E+005    8.01022E+007   -2.65804E+007    8.00682E+007    7.99593E+007   -1.41369E+005   -7.66471E+004    3.85630E+002    1.30725E+003    1.03390E+004
            3996    8.00804E+007    7.99546E+007    7.99546E+007   -9.07955E+004   -1.60768E+005    8.01154E+007   -2.65677E+007    8.00804E+007    7.99546E+007   -1.54647E+005   -9.69161E+004    2.06006E+003    1.06408E+003    1.97690E+004
            3997    8.00708E+007    7.99610E+007    7.99610E+007   -1.02155E+005   -1.17472E+005    8.00785E+007   -2.65805E+007    8.00708E+007    7.99610E+007   -1.16996E+005   -1.02630E+005    1.91690E+003    1.92637E+003   -2.65655E+003
            3998    8.00544E+007    7.99767E+007    7.99767E+007   -7.22310E+004   -8.30114E+004    8.00598E+007   -2.66072E+007    8.00544E+007    7.99767E+007   -8.25757E+004   -7.26666E+004    6.93776E+002    2.11330E+003   -2.12284E+003
            3999    8.00458E+007    7.99807E+007    7.99807E+007   -6.18366E+004   -6.84793E+004    8.00491E+007   -2.66168E+007    8.00458E+007    7.99807E+007   -6.84627E+004   -6.18531E+004   -1.01891E+003    1.62477E+003   -3.31147E+002
            4000    8.00524E+007    7.99745E+007    7.99745E+007   -7.30289E+004   -8.27643E+004    8.00572E+007   -2.66062E+007    8.00524E+007    7.99745E+007   -8.24681E+004   -7.33250E+004   -1.81927E+003    1.80984E+003    1.67180E+003
            4001    8.00677E+007    7.99576E+007    7.99576E+007   -1.03366E+005   -1.16798E+005    8.00744E+007   -2.65792E+007    8.00677E+007    7.99576E+007   -1.16424E+005   -1.03740E+005   -2.85468E+003    1.27772E+003    2.20924E+003
            4002    8.00883E+007    7.99388E+007    7.99388E+007   -1.40019E+005   -1.58842E+005    8.00977E+007   -2.65467E+007    8.00883E+007    7.99388E+007   -1.58576E+005   -1.40285E+005   -2.96830E+003    8.42704E+002    2.22180E+003
            4003    8.01028E+007    7.99204E+007    7.99204E+007   -1.70021E+005   -1.94753E+005    8.01152E+007   -2.65186E+007    8.01028E+007    7.99204E+007   -1.94650E+005   -1.70124E+005   -3.34831E+003    1.95434E+002   -1.58984E+003
            4004    8.01130E+007    7.99123E+007    7.99123E+007   -1.84509E+005   -2.16960E+005    8.01293E+007   -2.65036E+007    8.01130E+007    7.99123E+007   -2.10124E+005   -1.91346E+005   -1.16054E+003   -1.99415E+003   -1.32332E+004
            4005    8.01109E+007    7.99038E+007    7.99038E+007   -1.86878E+005   -2.27301E+005    8.01311E+007   -2.64965E+007    8.01108E+007    7.99038E+007   -1.97298E+005   -2.16881E+005   -5.65612E+003   -6.20009E+003   -1.76814E+004
            4006    8.00484E+007    7.99804E+007    7.99804E+007   -6.47472E+004   -7.12213E+004    8.00517E+007   -2.66148E+007    8.00484E+007    7.99804E+007   -6.48088E+004   -7.11596E+004    1.99671E+003   -5.13101E+002    6.28647E+002
            4007    8.00614E+007    7.99688E+007    7.99688E+007   -8.76235E+004   -9.75822E+004    8.00664E+007   -2.65946E+007    8.00614E+007    7.99688E+007   -8.77793E+004   -9.74264E+004    1.96084E+003   -1.86765E+003    1.23583E+003
            4008    8.00805E+007    7.99499E+007    7.99499E+007   -1.24674E+005   -1.36475E+005    8.00864E+007   -2.65629E+007    8.00805E+007    7.99499E+007   -1.24674E+005   -1.36475E+005    1.72818E+003   -2.44160E+003   -5.19115E+001
            4009    8.01004E+007    7.99315E+007    7.99315E+007   -1.63657E+005   -1.74010E+005    8.01055E+007   -2.65313E+007    8.01004E+007    7.99315E+007   -1.63658E+005   -1.74010E+005    1.21271E+003   -2.92657E+003   -3.08024E+001
            4010    8.01110E+007    7.99149E+007    7.99149E+007   -1.89932E+005   -2.02150E+005    8.01171E+007   -2.65076E+007    8.01110E+007    7.99149E+007   -1.89951E+005   -2.02130E+005    2.38919E+002   -3.31352E+003    4.83431E+002
            4011    8.01201E+007    7.99088E+007    7.99088E+007   -2.05214E+005   -2.17464E+005    8.01262E+007   -2.64954E+007    8.01201E+007    7.99088E+007   -2.05217E+005   -2.17461E+005   -1.18409E+003   -1.20716E+003    2.13341E+002
            4012    8.01146E+007    7.98996E+007    7.98996E+007   -1.99142E+005   -2.30840E+005    8.01305E+007   -2.64899E+007    8.01146E+007    7.98996E+007   -1.99501E+005   -2.30479E+005   -5.82005E+003   -5.83828E+003   -3.35971E+003
            4013    8.00639E+007    7.99602E+007    7.99602E+007   -6.06279E+004   -1.46693E+005    8.01069E+007   -2.65843E+007    8.00638E+007    7.99602E+007   -6.11509E+004   -1.46169E+005   -1.19760E+004   -1.04031E+003   -6.69967E+003
            4014    8.00647E+007    7.99364E+007    7.99364E+007   -8.93037E+004   -1.67096E+005    8.01035E+007   -2.65600E+007    8.00646E+007    7.99364E+007   -8.99772E+004   -1.66422E+005    7.32998E+003   -4.94814E+002   -7.21048E+003
            4015    8.00901E+007    7.99544E+007    7.99544E+007   -1.11016E+005   -1.60313E+005    8.01147E+007   -2.65610E+007    8.00901E+007    7.99544E+007   -1.12001E+005   -1.59327E+005   -1.79440E+003   -3.14117E+002   -6.89871E+003
            4016    8.00759E+007    7.99389E+007    7.99389E+007   -1.21417E+005   -1.52643E+005    8.00915E+007   -2.65549E+007    8.00759E+007    7.99389E+007   -1.22367E+005   -1.51693E+005    6.03475E+002    1.51901E+002   -5.36392E+003
            4017    8.00723E+007    7.99570E+007    7.99570E+007   -7.33551E+004   -1.57148E+005    8.01142E+007   -2.65755E+007    8.00722E+007    7.99570E+007   -7.81260E+004   -1.52376E+005   -9.83832E+003   -2.83432E+002   -1.94188E+004
            4018    8.00706E+007    7.99376E+007    7.99376E+007   -9.29849E+004   -1.72976E+005    8.01105E+007   -2.65572E+007    8.00705E+007    7.99376E+007   -9.91389E+004   -1.66822E+005    5.76053E+003   -3.94060E+002   -2.13172E+004
            4019    8.00905E+007    7.99521E+007    7.99521E+007   -1.10183E+005   -1.66573E+005    8.01187E+007   -2.65585E+007    8.00904E+007    7.99521E+007   -1.18587E+005   -1.58169E+005   -1.31015E+003   -2.64420E+002   -2.00816E+004
            4020    8.00782E+007    7.99400E+007    7.99400E+007   -1.19590E+005   -1.56824E+005    8.00968E+007   -2.65545E+007    8.00781E+007    7.99400E+007   -1.28052E+005   -1.48363E+005    3.67330E+002   -3.79376E+002   -1.56031E+004
            4021    8.00821E+007    7.99466E+007    7.99466E+007   -9.53127E+004   -1.75610E+005    8.01222E+007   -2.65586E+007    8.00820E+007    7.99466E+007   -1.07111E+005   -1.63811E+005   -3.87316E+003    4.51374E+002   -2.84288E+004
            4022    8.00816E+007    7.99391E+007    7.99391E+007   -1.01558E+005   -1.83421E+005    8.01226E+007   -2.65514E+007    8.00816E+007    7.99391E+007   -1.17820E+005   -1.67160E+005    2.18754E+003   -1.95270E+003   -3.26616E+004
            4023    8.00885E+007    7.99459E+007    7.99459E+007   -1.09861E+005   -1.75279E+005    8.01212E+007   -2.65536E+007    8.00885E+007    7.99459E+007   -1.29934E+005   -1.55206E+005   -5.36258E+002   -7.38601E+002   -3.01695E+004
            4024    8.00833E+007    7.99425E+007    7.99425E+007   -1.16099E+005   -1.65341E+005    8.01079E+007   -2.65537E+007    8.00832E+007    7.99425E+007   -1.38474E+005   -1.42965E+005   -3.38750E+002   -2.90973E+001   -2.45184E+004
            4025    8.00965E+007    7.99352E+007    7.99352E+007   -1.23431E+005   -1.99163E+005    8.01344E+007   -2.65375E+007    8.00964E+007    7.99352E+007   -1.41661E+005   -1.80933E+005    3.49659E+003    4.88291E+003   -3.23767E+004
            4026    8.00995E+007    7.99449E+007    7.99449E+007   -1.11606E+005   -1.97624E+005    8.01425E+007   -2.65452E+007    8.00994E+007    7.99449E+007   -1.40594E+005   -1.68636E+005   -6.75802E+000   -2.08599E+002   -4.06595E+004
            4027    8.00900E+007    7.99411E+007    7.99411E+007   -1.11465E+005   -1.86411E+005    8.01275E+007   -2.65477E+007    8.00899E+007    7.99411E+007   -1.44602E+005   -1.53274E+005   -1.90341E+002   -6.66518E+002   -3.72211E+004
            4028    8.00872E+007    7.99441E+007    7.99441E+007   -1.10676E+005   -1.75550E+005    8.01196E+007   -2.65526E+007    8.00871E+007    7.99441E+007   -1.50838E+005   -1.35389E+005   -3.68366E+002   -1.50091E+002   -3.15037E+004
            4029    8.00960E+007    7.99136E+007    7.99136E+007   -1.48125E+005   -2.16564E+005    8.01302E+007   -2.65163E+007    8.00959E+007    7.99136E+007   -1.71230E+005   -1.93456E+005    1.18997E+004    9.02208E+003   -3.23634E+004
            4030    8.01103E+007    7.99424E+007    7.99424E+007   -1.25273E+005   -2.10502E+005    8.01529E+007   -2.65355E+007    8.01102E+007    7.99424E+007   -1.65863E+005   -1.69912E+005   -6.55323E+002   -1.39516E+002   -4.25663E+004
            4031    8.00892E+007    7.99341E+007    7.99341E+007   -1.15434E+005   -1.94704E+005    8.01288E+007   -2.65413E+007    8.00892E+007    7.99341E+007   -1.59389E+005   -1.50749E+005   -3.97695E+002   -3.50867E+002   -3.93989E+004
            4032    8.00926E+007    7.99467E+007    7.99467E+007   -1.07247E+005   -1.84488E+005    8.01312E+007   -2.65516E+007    8.00925E+007    7.99467E+007   -1.62290E+005   -1.29444E+005   -6.19927E+002    2.60088E+002   -3.49548E+004
            4033    8.00986E+007    7.99019E+007    7.99019E+007   -1.66948E+005   -2.26492E+005    8.01283E+007   -2.65028E+007    8.00985E+007    7.99018E+007   -1.91258E+005   -2.02175E+005    1.82863E+004    1.48152E+004   -2.92638E+004
            4034    8.01295E+007    7.99478E+007    7.99478E+007   -1.40046E+005   -2.23203E+005    8.01710E+007   -2.65282E+007    8.01294E+007    7.99478E+007   -1.85872E+005   -1.77375E+005    4.78722E+003    5.17367E+003   -4.13605E+004
            4035    8.00983E+007    7.99352E+007    7.99352E+007   -1.22430E+005   -2.03762E+005    8.01390E+007   -2.65363E+007    8.00982E+007    7.99352E+007   -1.73464E+005   -1.52727E+005   -3.79997E+001    1.79001E+002   -3.93219E+004
            4036    8.00905E+007    7.99438E+007    7.99438E+007   -1.04815E+005   -1.88560E+005    8.01323E+007   -2.65501E+007    8.00904E+007    7.99438E+007   -1.70292E+005   -1.23083E+005    1.47277E+002    1.08884E+003   -3.45854E+004
            4037    8.00566E+007    7.98553E+007    7.98553E+007   -1.90963E+005   -2.11552E+005    8.00669E+007   -2.64843E+007    8.00566E+007    7.98553E+007   -2.01894E+005   -2.00612E+005    2.04301E+004    1.62662E+004   -1.02706E+004
            4038    8.01044E+007    7.99128E+007    7.99128E+007   -1.60450E+005   -2.22713E+005    8.01355E+007   -2.65099E+007    8.01043E+007    7.99128E+007   -2.02314E+005   -1.80846E+005    1.43437E+004    1.14481E+004   -2.92203E+004
            4039    8.00959E+007    7.99240E+007    7.99240E+007   -1.38827E+005   -2.05014E+005    8.01290E+007   -2.65267E+007    8.00959E+007    7.99240E+007   -1.87650E+005   -1.56191E+005    5.89887E+003    4.32806E+003   -2.91163E+004
            4040    8.00924E+007    7.99455E+007    7.99455E+007   -1.11435E+005   -1.82414E+005    8.01279E+007   -2.65505E+007    8.00923E+007    7.99455E+007   -1.70792E+005   -1.23057E+005    2.02954E+003   -2.50697E+003   -2.62649E+004
            4041    8.00918E+007    7.99418E+007    7.99418E+007   -1.39280E+005   -1.60774E+005    8.01025E+007   -2.65472E+007    8.00918E+007    7.99418E+007   -1.60773E+005   -1.39280E+005    5.00263E+003   -2.01122E+003   -6.39484E+001
            4042    8.01064E+007    7.99211E+007    7.99211E+007   -1.69834E+005   -2.00791E+005    8.01219E+007   -2.65168E+007    8.01064E+007    7.99211E+007   -2.00777E+005   -1.69847E+005    6.54818E+003   -2.91429E+003    6.42711E+002
            4043    8.01013E+007    7.99028E+007    7.99028E+007   -1.74261E+005   -2.22646E+005    8.01255E+007   -2.65020E+007    8.01013E+007    7.99028E+007   -2.22531E+005   -1.74375E+005    7.37497E+003   -4.03156E+003   -2.34725E+003
            4044    8.01028E+007    7.99117E+007    7.99117E+007   -1.59695E+005   -2.22384E+005    8.01341E+007   -2.65099E+007    8.01027E+007    7.99117E+007   -2.06134E+005   -1.75943E+005   -5.10764E+003   -1.01076E+004   -2.74696E+004
            4045    8.00583E+007    7.99873E+007    7.99873E+007   -6.56487E+004   -7.63464E+004    8.00637E+007   -2.66151E+007    8.00583E+007    7.99873E+007   -6.56535E+004   -7.63415E+004   -3.96038E+003    5.67943E+002    2.29326E+002
            4046    8.00685E+007    7.99739E+007    7.99739E+007   -8.70931E+004   -1.02054E+005    8.00760E+007   -2.65949E+007    8.00685E+007    7.99739E+007   -8.71744E+004   -1.01973E+005   -3.15920E+003    3.36350E+003   -1.10114E+003
            4047    8.00838E+007    7.99522E+007    7.99522E+007   -1.21691E+005   -1.41429E+005    8.00937E+007   -2.65630E+007    8.00838E+007    7.99522E+007   -1.21759E+005   -1.41361E+005   -2.78180E+003    5.95788E+003   -1.15595E+003
            4048    8.00950E+007    7.99271E+007    7.99271E+007   -1.54879E+005   -1.80961E+005    8.01081E+007   -2.65304E+007    8.00950E+007    7.99271E+007   -1.54882E+005   -1.80957E+005   -1.99450E+003    7.18422E+003   -3.08057E+002
            4049    8.01054E+007    7.99078E+007    7.99078E+007   -1.80045E+005   -2.15174E+005    8.01230E+007   -2.65042E+007    8.01054E+007    7.99078E+007   -1.80141E+005   -2.15078E+005   -2.76650E+003    6.53305E+003    1.83210E+003
            4050    8.00987E+007    7.98962E+007    7.98962E+007   -1.74831E+005   -2.30214E+005    8.01264E+007   -2.64971E+007    8.00987E+007    7.98962E+007   -1.74879E+005   -2.30165E+005   -3.74020E+003    4.73597E+003   -1.63744E+003
            4051    8.01016E+007    7.99099E+007    7.99099E+007   -1.57502E+005   -2.25751E+005    8.01357E+007   -2.65089E+007    8.01015E+007    7.99099E+007   -1.73672E+005   -2.09580E+005   -8.09735E+003   -8.57530E+003   -2.90191E+004
            4052    8.00756E+007    7.99643E+007    7.99643E+007   -1.04580E+005   -1.18028E+005    8.00823E+007   -2.65806E+007    8.00756E+007    7.99643E+007   -1.18007E+005   -1.04601E+005    3.14523E+003   -2.13746E+003    5.37729E+002
            4053    8.00585E+007    7.99803E+007    7.99803E+007   -7.51340E+004   -8.13253E+004    8.00616E+007   -2.66079E+007    8.00585E+007    7.99803E+007   -8.10812E+004   -7.53781E+004    1.26414E+003   -2.09069E+003    1.20494E+003
            4054    8.00522E+007    7.99874E+007    7.99874E+007   -6.38184E+004   -6.57809E+004    8.00532E+007   -2.66193E+007    8.00522E+007    7.99874E+007   -6.56263E+004   -6.39730E+004   -2.49327E+002   -2.50337E+003    5.28805E+002
            4055    8.00577E+007    7.99798E+007    7.99798E+007   -7.54099E+004   -8.04439E+004    8.00602E+007   -2.66080E+007    8.00577E+007    7.99798E+007   -8.04051E+004   -7.54486E+004   -1.92510E+003   -1.89815E+003   -4.39875E+002
            4056    8.00736E+007    7.99627E+007    7.99627E+007   -1.04661E+005   -1.17137E+005    8.00798E+007   -2.65803E+007    8.00736E+007    7.99627E+007   -1.17132E+005   -1.04666E+005   -4.03171E+003   -1.65705E+003   -2.63053E+002
            4057    8.00893E+007    7.99387E+007    7.99387E+007   -1.39771E+005   -1.61347E+005    8.01000E+007   -2.65459E+007    8.00893E+007    7.99387E+007   -1.61318E+005   -1.39800E+005   -5.92980E+003   -1.81150E+003   -7.89193E+002
            4058    8.01014E+007    7.99180E+007    7.99180E+007   -1.66601E+005   -2.00191E+005    8.01182E+007   -2.65171E+007    8.01014E+007    7.99180E+007   -2.00138E+005   -1.66652E+005   -6.55527E+003   -2.81640E+003    1.32139E+003
            4059    8.00993E+007    7.99039E+007    7.99039E+007   -1.78427E+005   -2.12394E+005    8.01163E+007   -2.65044E+007    8.00993E+007    7.99039E+007   -2.09358E+005   -1.81462E+005   -3.55022E+003   -5.09289E+003    9.68979E+003
            4060    8.01101E+007    7.99194E+007    7.99194E+007   -1.76604E+005   -2.04813E+005    8.01242E+007   -2.65127E+007    8.01101E+007    7.99194E+007   -1.83123E+005   -1.98292E+005    8.13903E+003   -1.16054E+004    1.18901E+004
            4061    8.00745E+007    7.99550E+007    7.99550E+007   -8.36826E+004   -1.55421E+005    8.01104E+007   -2.65720E+007    8.00745E+007    7.99550E+007   -1.49536E+005   -8.95673E+004   -9.96582E+002   -7.50671E+003   -1.96869E+004
            4062    8.00696E+007    7.99380E+007    7.99380E+007   -9.08394E+004   -1.72288E+005    8.01103E+007   -2.65583E+007    8.00695E+007    7.99380E+007   -1.63927E+005   -9.92012E+004   -1.24157E+003    2.07702E+003   -2.47213E+004
            4063    8.00837E+007    7.99471E+007    7.99471E+007   -1.02216E+005   -1.70942E+005    8.01181E+007   -2.65580E+007    8.00837E+007    7.99471E+007   -1.60986E+005   -1.12173E+005   -9.64427E+002    2.01517E+002   -2.41891E+004
            4064    8.00800E+007    7.99418E+007    7.99418E+007   -1.11419E+005   -1.64965E+005    8.01068E+007   -2.65551E+007    8.00800E+007    7.99418E+007   -1.55352E+005   -1.21033E+005   -4.96936E+002   -6.19168E+002   -2.05514E+004
            4065    8.00862E+007    7.99471E+007    7.99471E+007   -1.22022E+005   -1.56076E+005    8.01032E+007   -2.65563E+007    8.00862E+007    7.99471E+007   -1.46757E+005   -1.31341E+005   -1.27598E+002    3.54142E+002   -1.51824E+004
            4066    8.00866E+007    7.99475E+007    7.99475E+007   -1.29412E+005   -1.48675E+005    8.00962E+007   -2.65565E+007    8.00866E+007    7.99475E+007   -1.40136E+005   -1.37950E+005    4.37866E+001   -7.50887E+002   -9.56919E+003
            4067    8.00883E+007    7.99493E+007    7.99493E+007   -1.34704E+005   -1.43220E+005    8.00926E+007   -2.65571E+007    8.00883E+007    7.99493E+007   -1.36041E+005   -1.41883E+005    6.34723E+001    5.02054E+002   -3.09841E+003
            4068    8.00668E+007    7.99656E+007    7.99656E+007   -6.42319E+004   -1.38136E+005    8.01038E+007   -2.65878E+007    8.00668E+007    7.99656E+007   -1.36713E+005   -6.56540E+004   -7.74260E+002   -1.08249E+004   -1.01577E+004
            4069    8.00639E+007    7.99421E+007    7.99421E+007   -7.97259E+004   -1.63760E+005    8.01059E+007   -2.65662E+007    8.00638E+007    7.99421E+007   -1.62128E+005   -8.13580E+004    2.56447E+002    3.63988E+003   -1.15975E+004
            4070    8.00858E+007    7.99537E+007    7.99537E+007   -9.88864E+004   -1.65157E+005    8.01189E+007   -2.65632E+007    8.00857E+007    7.99537E+007   -1.63260E+005   -1.00783E+005   -1.14025E+002    5.00578E+002   -1.10507E+004
            4071    8.00783E+007    7.99430E+007    7.99430E+007   -1.10517E+005   -1.60021E+005    8.01030E+007   -2.65575E+007    8.00783E+007    7.99430E+007   -1.58713E+005   -1.11825E+005   -5.82300E+001    2.93957E+001   -7.93825E+003
            4072    8.00836E+007    7.99459E+007    7.99459E+007   -1.24764E+005   -1.50699E+005    8.00966E+007   -2.65568E+007    8.00836E+007    7.99459E+007   -1.49440E+005   -1.26022E+005   -2.41209E+002    9.68706E+002   -5.57257E+003
            4073    8.00789E+007    7.99413E+007    7.99413E+007   -1.32620E+005   -1.42612E+005    8.00839E+007   -2.65554E+007    8.00789E+007    7.99413E+007   -1.41706E+005   -1.33526E+005   -2.33932E+002   -6.29709E+002   -2.86770E+003
            4074    8.00794E+007    7.99416E+007    7.99416E+007   -1.36408E+005   -1.39253E+005    8.00808E+007   -2.65553E+007    8.00794E+007    7.99416E+007   -1.37007E+005   -1.38655E+005   -2.79773E+002    7.80822E+002   -1.15936E+003
            4075    8.00602E+007    7.99659E+007    7.99659E+007   -5.74204E+004   -1.31107E+005    8.00970E+007   -2.65925E+007    8.00601E+007    7.99659E+007   -1.31090E+005   -5.74355E+004   -2.95981E+002   -1.12300E+004    1.10734E+003
            4076    8.00584E+007    7.99398E+007    7.99398E+007   -7.72917E+004   -1.59663E+005    8.00995E+007   -2.65676E+007    8.00583E+007    7.99398E+007   -1.59583E+005   -7.73708E+004   -6.26347E+001    3.49902E+003    2.55342E+003
            4077    8.00822E+007    7.99519E+007    7.99519E+007   -9.80282E+004   -1.62667E+005    8.01145E+007   -2.65637E+007    8.00822E+007    7.99519E+007   -1.62363E+005   -9.83314E+004   -6.84813E+001    2.98697E+002    4.41662E+003
            4078    8.00768E+007    7.99418E+007    7.99418E+007   -1.10458E+005   -1.59405E+005    8.01012E+007   -2.65573E+007    8.00767E+007    7.99418E+007   -1.58798E+005   -1.11065E+005    2.83211E+001   -4.82152E+002    5.41714E+003
            4079    8.00857E+007    7.99478E+007    7.99478E+007   -1.24387E+005   -1.51544E+005    8.00993E+007   -2.65573E+007    8.00857E+007    7.99478E+007   -1.50391E+005   -1.25541E+005    1.02437E+002    6.45749E+002    5.47667E+003
            4080    8.00842E+007    7.99458E+007    7.99458E+007   -1.32077E+005   -1.44852E+005    8.00906E+007   -2.65563E+007    8.00842E+007    7.99458E+007   -1.43604E+005   -1.33325E+005    1.05250E+002   -9.15509E+002    3.79316E+003
            4081    8.00868E+007    7.99479E+007    7.99479E+007   -1.37282E+005   -1.40431E+005    8.00883E+007   -2.65567E+007    8.00868E+007    7.99479E+007   -1.39250E+005   -1.38463E+005    9.04758E+001    7.25548E+002    1.52451E+003
            4082    8.00677E+007    7.99652E+007    7.99652E+007   -6.61440E+004   -1.38847E+005    8.01040E+007   -2.65867E+007    8.00676E+007    7.99652E+007   -1.36746E+005   -6.82438E+004    6.48834E+002   -1.02878E+004    1.21797E+004
            4083    8.00657E+007    7.99416E+007    7.99416E+007   -8.17717E+004   -1.66197E+005    8.01078E+007   -2.65646E+007    8.00656E+007    7.99416E+007   -1.62731E+005   -8.52383E+004    3.65874E+002    3.30536E+003    1.67529E+004
            4084    8.00868E+007    7.99525E+007    7.99525E+007   -9.99503E+004   -1.68613E+005    8.01211E+007   -2.65613E+007    8.00867E+007    7.99525E+007   -1.62994E+005   -1.05570E+005    6.35112E+002    4.26807E+002    1.88221E+004
            4085    8.00798E+007    7.99424E+007    7.99424E+007   -1.10077E+005   -1.64525E+005    8.01070E+007   -2.65559E+007    8.00797E+007    7.99424E+007   -1.57419E+005   -1.17184E+005    2.53509E+002   -1.14736E+002    1.83419E+004
            4086    8.00846E+007    7.99457E+007    7.99457E+007   -1.21948E+005   -1.55810E+005    8.01015E+007   -2.65560E+007    8.00846E+007    7.99457E+007   -1.46451E+005   -1.31308E+005    1.98533E+002    7.87222E+002    1.51436E+004
            4087    8.00797E+007    7.99417E+007    7.99417E+007   -1.27738E+005   -1.48300E+005    8.00900E+007   -2.65552E+007    8.00797E+007    7.99417E+007   -1.37384E+005   -1.38653E+005    8.74699E-001   -6.38238E+002    1.02615E+004
            4088    8.00801E+007    7.99424E+007    7.99424E+007   -1.30879E+005   -1.44591E+005    8.00870E+007   -2.65556E+007    8.00801E+007    7.99424E+007   -1.31728E+005   -1.43743E+005   -4.85754E+001    6.63291E+002    3.30431E+003
            4089    8.00772E+007    7.99540E+007    7.99540E+007   -8.82019E+004   -1.58232E+005    8.01122E+007   -2.65692E+007    8.00772E+007    7.99540E+007   -1.51398E+005   -9.50350E+004   -3.42853E+002   -6.33934E+003    2.07813E+004
            4090    8.00745E+007    7.99389E+007    7.99389E+007   -9.45080E+004   -1.76661E+005    8.01155E+007   -2.65559E+007    8.00744E+007    7.99389E+007   -1.65238E+005   -1.05931E+005    7.13415E+002    1.68133E+003    2.84248E+004
            4091    8.00873E+007    7.99461E+007    7.99461E+007   -1.04476E+005   -1.77784E+005    8.01239E+007   -2.65546E+007    8.00872E+007    7.99461E+007   -1.61781E+005   -1.20478E+005    7.34895E+002   -5.28936E+000    3.02822E+004
            4092    8.00830E+007    7.99414E+007    7.99414E+007   -1.10837E+005   -1.72323E+005    8.01137E+007   -2.65527E+007    8.00829E+007    7.99414E+007   -1.53156E+005   -1.30004E+005    3.97403E+002   -7.22859E+002    2.84807E+004
            4093    8.00870E+007    7.99460E+007    7.99460E+007   -1.17329E+005   -1.64504E+005    8.01106E+007   -2.65547E+007    8.00869E+007    7.99460E+007   -1.41371E+005   -1.40462E+005    1.48006E+002   -3.66061E+001    2.35830E+004
            4094    8.00854E+007    7.99464E+007    7.99464E+007   -1.21803E+005   -1.56191E+005    8.01026E+007   -2.65561E+007    8.00854E+007    7.99464E+007   -1.31464E+005   -1.46530E+005   -2.16274E+002   -7.32188E+002    1.54561E+004
            4095    8.00866E+007    7.99486E+007    7.99486E+007   -1.24446E+005   -1.51568E+005    8.01001E+007   -2.65575E+007    8.00866E+007    7.99486E+007   -1.25554E+005   -1.50459E+005   -3.32188E+002    2.63953E+002    5.37001E+003
            4096    8.00923E+007    7.99412E+007    7.99412E+007   -1.16495E+005   -1.85521E+005    8.01268E+007   -2.65464E+007    8.00922E+007    7.99412E+007   -1.72594E+005   -1.29422E+005   -3.55418E+003   -3.67211E+001    2.69297E+004
            4097    8.00948E+007    7.99424E+007    7.99424E+007   -1.10977E+005   -1.93892E+005    8.01362E+007   -2.65458E+007    8.00947E+007    7.99424E+007   -1.71804E+005   -1.33065E+005   -5.36665E+002    1.19712E+003    3.66540E+004
            4098    8.00944E+007    7.99434E+007    7.99434E+007   -1.11759E+005   -1.90291E+005    8.01336E+007   -2.65471E+007    8.00943E+007    7.99434E+007   -1.62658E+005   -1.39391E+005    5.79568E+002    1.71702E+002    3.75033E+004
            4099    8.00901E+007    7.99428E+007    7.99428E+007   -1.11243E+005   -1.83263E+005    8.01260E+007   -2.65494E+007    8.00900E+007    7.99428E+007   -1.49063E+005   -1.45443E+005    1.29492E+002   -1.85920E+002    3.59646E+004
            4100    8.00847E+007    7.99426E+007    7.99426E+007   -1.11390E+005   -1.72829E+005    8.01154E+007   -2.65528E+007    8.00847E+007    7.99426E+007   -1.32344E+005   -1.51875E+005    2.65975E+002   -3.24073E+002    2.91256E+004
            4101    8.00788E+007    7.99414E+007    7.99414E+007   -1.10232E+005   -1.64429E+005    8.01058E+007   -2.65556E+007    8.00787E+007    7.99414E+007   -1.18391E+005   -1.56270E+005   -2.69213E+002   -2.92099E+002    1.93807E+004
            4102    8.00759E+007    7.99413E+007    7.99413E+007   -1.09324E+005   -1.59834E+005    8.01012E+007   -2.65574E+007    8.00759E+007    7.99413E+007   -1.10131E+005   -1.59027E+005   -3.59148E+002   -8.98510E+001    6.33533E+003
            4103    8.00943E+007    7.99184E+007    7.99184E+007   -1.45168E+005   -2.06704E+005    8.01251E+007   -2.65222E+007    8.00943E+007    7.99184E+007   -1.87637E+005   -1.64233E+005   -8.20180E+003    7.47611E+003    2.84550E+004
            4104    8.01057E+007    7.99367E+007    7.99367E+007   -1.30549E+005   -2.07387E+005    8.01441E+007   -2.65329E+007    8.01056E+007    7.99367E+007   -1.75809E+005   -1.62127E+005   -1.64263E+003    1.78587E+003    3.78049E+004
            4105    8.00945E+007    7.99336E+007    7.99336E+007   -1.21571E+005   -2.00134E+005    8.01337E+007   -2.65373E+007    8.00944E+007    7.99336E+007   -1.62700E+005   -1.59005E+005    4.89456E+001   -2.76151E+002    3.92379E+004
            4106    8.00931E+007    7.99409E+007    7.99409E+007   -1.13140E+005   -1.91240E+005    8.01321E+007   -2.65455E+007    8.00930E+007    7.99409E+007   -1.43734E+005   -1.60646E+005   -1.54965E+002   -4.23309E+002    3.81231E+004
            4107    8.00875E+007    7.99446E+007    7.99446E+007   -1.06613E+005   -1.79297E+005    8.01238E+007   -2.65529E+007    8.00875E+007    7.99446E+007   -1.25253E+005   -1.60657E+005   -8.01525E+001   -1.20386E+003    3.17397E+004
            4108    8.00866E+007    7.99512E+007    7.99512E+007   -1.01394E+005   -1.69345E+005    8.01206E+007   -2.65602E+007    8.00866E+007    7.99512E+007   -1.08970E+005   -1.61768E+005   -1.51200E+002   -3.12714E+002    2.13880E+004
            4109    8.00846E+007    7.99538E+007    7.99538E+007   -9.87626E+004   -1.62751E+005    8.01166E+007   -2.65641E+007    8.00845E+007    7.99538E+007   -9.96321E+004   -1.61882E+005   -5.49405E+001   -6.03143E+002    7.40835E+003
            4110    8.00943E+007    7.99012E+007    7.99012E+007   -1.71660E+005   -2.14368E+005    8.01156E+007   -2.65051E+007    8.00942E+007    7.99012E+007   -1.97132E+005   -1.88891E+005   -1.34316E+004    1.41948E+004    2.09502E+004
            4111    8.01262E+007    7.99396E+007    7.99396E+007   -1.50419E+005   -2.22574E+005    8.01622E+007   -2.65222E+007    8.01261E+007    7.99396E+007   -1.87132E+005   -1.85859E+005   -6.38559E+003    7.55579E+003    3.60715E+004
            4112    8.01083E+007    7.99362E+007    7.99362E+007   -1.34255E+005   -2.09864E+005    8.01460E+007   -2.65307E+007    8.01082E+007    7.99362E+007   -1.67798E+005   -1.76321E+005   -9.72797E+002    1.32330E+003    3.75638E+004
            4113    8.01004E+007    7.99430E+007    7.99430E+007   -1.17276E+005   -1.97445E+005    8.01404E+007   -2.65428E+007    8.01003E+007    7.99430E+007   -1.42906E+005   -1.71815E+005   -4.62690E+002    7.87546E+002    3.73874E+004
            4114    8.00804E+007    7.99398E+007    7.99398E+007   -1.00648E+005   -1.80567E+005    8.01203E+007   -2.65529E+007    8.00803E+007    7.99398E+007   -1.15353E+005   -1.65862E+005   -1.26890E+003   -1.46688E+003    3.09681E+004
            4115    8.00674E+007    7.99400E+007    7.99400E+007   -8.66606E+004   -1.68021E+005    8.01081E+007   -2.65618E+007    8.00673E+007    7.99400E+007   -9.22863E+004   -1.62395E+005   -3.55717E+003   -2.11044E+001    2.06416E+004
            4116    8.00581E+007    7.99389E+007    7.99389E+007   -7.77471E+004   -1.60457E+005    8.00994E+007   -2.65669E+007    8.00580E+007    7.99389E+007   -7.83761E+004   -1.59828E+005   -4.67750E+003   -5.12313E+002    7.18713E+003
            4117    8.00645E+007    7.98631E+007    7.98631E+007   -1.96842E+005   -2.05817E+005    8.00690E+007   -2.64868E+007    8.00645E+007    7.98631E+007   -2.00962E+005   -2.01693E+005   -1.05785E+004    1.31041E+004    4.47114E+003
            4118    8.01014E+007    7.99039E+007    7.99039E+007   -1.77317E+005   -2.17779E+005    8.01216E+007   -2.65029E+007    8.01014E+007    7.99039E+007   -1.89793E+005   -2.05299E+005   -1.18173E+004    1.37905E+004    1.86845E+004
            4119    8.00995E+007    7.99148E+007    7.99148E+007   -1.58653E+005   -2.10682E+005    8.01255E+007   -2.65151E+007    8.00994E+007    7.99148E+007   -1.76506E+005   -1.92828E+005   -7.81244E+003    7.13726E+003    2.47007E+004
            4120    8.00963E+007    7.99344E+007    7.99344E+007   -1.30590E+005   -1.93073E+005    8.01275E+007   -2.65369E+007    8.00962E+007    7.99344E+007   -1.45829E+005   -1.77834E+005   -2.53125E+003    4.05314E+003    2.68317E+004
            4121    8.00821E+007    7.99472E+007    7.99472E+007   -1.01186E+005   -1.68577E+005    8.01158E+007   -2.65591E+007    8.00820E+007    7.99472E+007   -1.11754E+005   -1.58010E+005    3.41650E+003    4.11749E+002    2.45047E+004
            4122    8.00711E+007    7.99606E+007    7.99606E+007   -7.43663E+004   -1.46719E+005    8.01073E+007   -2.65798E+007    8.00710E+007    7.99606E+007   -7.87939E+004   -1.42291E+005    9.25186E+003   -1.10158E+002    1.73440E+004
            4123    8.00627E+007    7.99666E+007    7.99666E+007   -5.93298E+004   -1.32674E+005    8.00993E+007   -2.65915E+007    8.00626E+007    7.99666E+007   -5.98301E+004   -1.32172E+005    1.22521E+004   -9.69005E+002    6.04739E+003
            4124    8.00538E+007    7.99858E+007    7.99858E+007   -6.66146E+004   -6.95073E+004    8.00553E+007   -2.66166E+007    8.00538E+007    7.99858E+007   -6.66164E+004   -6.95053E+004    2.22345E+003    9.42623E+002    7.41928E+001
            4125    8.00655E+007    7.99726E+007    7.99726E+007   -8.86879E+004   -9.71909E+004    8.00698E+007   -2.65956E+007    8.00655E+007    7.99726E+007   -8.87189E+004   -9.71596E+004    2.09251E+003    3.01736E+003    5.13581E+002
            4126    8.00820E+007    7.99512E+007    7.99512E+007   -1.23390E+005   -1.38084E+005    8.00893E+007   -2.65633E+007    8.00820E+007    7.99512E+007   -1.23790E+005   -1.37685E+005    1.90675E+003    4.70452E+003    2.38954E+003
            4127    8.00967E+007    7.99290E+007    7.99290E+007   -1.60476E+005   -1.74949E+005    8.01040E+007   -2.65312E+007    8.00967E+007    7.99290E+007   -1.60595E+005   -1.74830E+005    1.61821E+003    4.55351E+003    1.30221E+003
            4128    8.01088E+007    7.99138E+007    7.99138E+007   -1.85322E+005   -2.04627E+005    8.01185E+007   -2.65080E+007    8.01088E+007    7.99138E+007   -1.85360E+005   -2.04589E+005    2.68470E+003    4.63744E+003   -8.55101E+002
            4129    8.01067E+007    7.98989E+007    7.98989E+007   -1.97267E+005   -2.18211E+005    8.01171E+007   -2.64945E+007    8.01067E+007    7.98989E+007   -1.98325E+005   -2.17153E+005    4.05189E+003    4.15281E+003   -4.58668E+003
            4130    8.01125E+007    7.99122E+007    7.99122E+007   -1.86261E+005   -2.14243E+005    8.01265E+007   -2.65039E+007    8.01125E+007    7.99122E+007   -1.86376E+005   -2.14125E+005    9.20283E+003   -7.78652E+003   -1.80311E+003
            4131    8.01031E+007    7.99125E+007    7.99125E+007   -1.58073E+005   -2.23215E+005    8.01357E+007   -2.65104E+007    8.01031E+007    7.99125E+007   -2.05690E+005   -1.75596E+005   -4.87371E+003    1.05754E+004    2.88864E+004
            4132    8.01022E+007    7.99041E+007    7.99041E+007   -1.73224E+005   -2.23134E+005    8.01272E+007   -2.65026E+007    8.01022E+007    7.99041E+007   -2.22940E+005   -1.73417E+005    7.14455E+003    4.80992E+003    3.10471E+003
            4133    8.01075E+007    7.99212E+007    7.99212E+007   -1.70444E+005   -2.02120E+005    8.01233E+007   -2.65162E+007    8.01075E+007    7.99212E+007   -2.02116E+005   -1.70447E+005    7.39146E+003    2.93684E+003   -3.07827E+002
            4134    8.00946E+007    7.99440E+007    7.99440E+007   -1.39700E+005   -1.61458E+005    8.01055E+007   -2.65476E+007    8.00946E+007    7.99440E+007   -1.61457E+005   -1.39701E+005    5.31194E+003    2.46575E+003    9.64848E+001
            4135    8.00931E+007    7.99471E+007    7.99471E+007   -1.09880E+005   -1.82151E+005    8.01292E+007   -2.65517E+007    8.00930E+007    7.99471E+007   -1.70588E+005   -1.21443E+005    1.32227E+003    4.55063E+003    2.64948E+004
            4136    8.00879E+007    7.99413E+007    7.99413E+007   -1.04618E+005   -1.88497E+005    8.01298E+007   -2.65494E+007    8.00878E+007    7.99413E+007   -1.70399E+005   -1.22717E+005    2.10674E+002   -1.55026E+003    3.45040E+004
            4137    8.00933E+007    7.99474E+007    7.99474E+007   -1.07462E+005   -1.84226E+005    8.01317E+007   -2.65519E+007    8.00932E+007    7.99474E+007   -1.61631E+005   -1.30057E+005   -6.21403E+002   -3.84540E+002    3.49850E+004
            4138    8.00866E+007    7.99436E+007    7.99436E+007   -1.10787E+005   -1.75064E+005    8.01187E+007   -2.65526E+007    8.00865E+007    7.99436E+007   -1.50683E+005   -1.35168E+005   -3.13189E+002    2.34615E+002    3.11885E+004
            4139    8.00846E+007    7.99438E+007    7.99438E+007   -1.16308E+005   -1.65321E+005    8.01091E+007   -2.65541E+007    8.00846E+007    7.99438E+007   -1.38252E+005   -1.43377E+005   -2.95282E+002   -1.78633E+002    2.43724E+004
            4140    8.00791E+007    7.99409E+007    7.99409E+007   -1.19775E+005   -1.56703E+005    8.00976E+007   -2.65548E+007    8.00791E+007    7.99409E+007   -1.28215E+005   -1.48263E+005    2.57659E+002    4.60055E+002    1.55063E+004
            4141    8.00768E+007    7.99396E+007    7.99396E+007   -1.21485E+005   -1.52748E+005    8.00924E+007   -2.65551E+007    8.00768E+007    7.99396E+007   -1.22453E+005   -1.51780E+005    5.94251E+002   -1.47700E+002    5.41598E+003
            4142    8.00973E+007    7.99259E+007    7.99259E+007   -1.37402E+005   -2.05430E+005    8.01313E+007   -2.65277E+007    8.00972E+007    7.99259E+007   -1.87662E+005   -1.55169E+005    5.91758E+003   -2.67360E+003    2.98826E+004
            4143    8.00972E+007    7.99343E+007    7.99343E+007   -1.21893E+005   -2.03799E+005    8.01381E+007   -2.65362E+007    8.00971E+007    7.99343E+007   -1.73382E+005   -1.52309E+005   -9.46641E+001   -5.77718E+002    3.95746E+004
            4144    8.00900E+007    7.99350E+007    7.99350E+007   -1.15248E+005   -1.94678E+005    8.01297E+007   -2.65417E+007    8.00899E+007    7.99350E+007   -1.58662E+005   -1.51263E+005   -4.24926E+002    3.55804E+002    3.95424E+004
            4145    8.00890E+007    7.99403E+007    7.99403E+007   -1.11190E+005   -1.86047E+005    8.01264E+007   -2.65477E+007    8.00889E+007    7.99403E+007   -1.43767E+005   -1.53470E+005   -1.83749E+002    5.52228E+002    3.71130E+004
            4146    8.00872E+007    7.99448E+007    7.99448E+007   -1.09665E+005   -1.74921E+005    8.01198E+007   -2.65534E+007    8.00871E+007    7.99448E+007   -1.29151E+005   -1.55436E+005   -3.71348E+002    8.26140E+002    2.98643E+004
            4147    8.00881E+007    7.99500E+007    7.99500E+007   -1.09788E+005   -1.66501E+005    8.01165E+007   -2.65579E+007    8.00881E+007    7.99500E+007   -1.17843E+005   -1.58446E+005   -8.17898E+002    1.89823E+002    1.97980E+004
            4148    8.00895E+007    7.99538E+007    7.99538E+007   -1.10753E+005   -1.60497E+005    8.01143E+007   -2.65609E+007    8.00894E+007    7.99538E+007   -1.11648E+005   -1.59601E+005   -1.64374E+003    1.93171E+002    6.61426E+003
            4149    8.01031E+007    7.99116E+007    7.99116E+007   -1.59984E+005   -2.22900E+005    8.01345E+007   -2.65096E+007    8.01030E+007    7.99116E+007   -2.01886E+005   -1.80993E+005    1.46068E+004   -1.14949E+004    2.96707E+004
            4150    8.01280E+007    7.99468E+007    7.99468E+007   -1.39871E+005   -2.22609E+005    8.01694E+007   -2.65281E+007    8.01279E+007    7.99468E+007   -1.84872E+005   -1.77608E+005    4.55715E+003   -4.93023E+003    4.12093E+004
            4151    8.01092E+007    7.99418E+007    7.99418E+007   -1.25118E+005   -2.09647E+005    8.01514E+007   -2.65357E+007    8.01091E+007    7.99418E+007   -1.64928E+005   -1.69837E+005   -7.58548E+002   -1.61381E+002    4.21935E+004
            4152    8.01000E+007    7.99458E+007    7.99458E+007   -1.11275E+005   -1.96989E+005    8.01428E+007   -2.65459E+007    8.00999E+007    7.99458E+007   -1.40019E+005   -1.68244E+005   -4.31333E+002    2.15051E+002    4.04667E+004
            4153    8.00835E+007    7.99411E+007    7.99411E+007   -1.01517E+005   -1.83210E+005    8.01244E+007   -2.65521E+007    8.00834E+007    7.99411E+007   -1.17947E+005   -1.66780E+005    1.16332E+003    1.72949E+003    3.27460E+004
            4154    8.00732E+007    7.99404E+007    7.99404E+007   -9.28798E+004   -1.72711E+005    8.01131E+007   -2.65583E+007    8.00731E+007    7.99404E+007   -9.91522E+004   -1.66439E+005    4.27325E+003    7.10842E+002    2.14804E+004
            4155    8.00654E+007    7.99374E+007    7.99374E+007   -8.91510E+004   -1.66909E+005    8.01043E+007   -2.65604E+007    8.00653E+007    7.99374E+007   -8.98187E+004   -1.66241E+005    6.78842E+003    9.85696E+002    7.17733E+003
            4156    8.00568E+007    7.98557E+007    7.98557E+007   -1.90491E+005   -2.11556E+005    8.00673E+007   -2.64846E+007    8.00568E+007    7.98557E+007   -2.01805E+005   -2.00234E+005    1.93310E+004   -1.64629E+004    1.04996E+004
            4157    8.01003E+007    7.99043E+007    7.99043E+007   -1.66340E+005   -2.25678E+005    8.01300E+007   -2.65041E+007    8.01003E+007    7.99043E+007   -1.90027E+005   -2.01985E+005    1.68845E+004   -1.44588E+004    2.90570E+004
            4158    8.00965E+007    7.99146E+007    7.99146E+007   -1.48380E+005   -2.15354E+005    8.01299E+007   -2.65170E+007    8.00964E+007    7.99146E+007   -1.70703E+005   -1.93029E+005    1.12971E+004   -8.04165E+003    3.15710E+004
            4159    8.00966E+007    7.99352E+007    7.99352E+007   -1.24489E+005   -1.98163E+005    8.01334E+007   -2.65375E+007    8.00965E+007    7.99352E+007   -1.42330E+005   -1.80321E+005    4.21539E+003   -4.73145E+003    3.15611E+004
            4160    8.00816E+007    7.99456E+007    7.99456E+007   -9.69458E+004   -1.75103E+005    8.01207E+007   -2.65578E+007    8.00816E+007    7.99456E+007   -1.08894E+005   -1.63155E+005   -1.68515E+003   -2.86521E+002    2.81261E+004
            4161    8.00716E+007    7.99553E+007    7.99553E+007   -7.49131E+004   -1.57526E+005    8.01128E+007   -2.65743E+007    8.00715E+007    7.99553E+007   -8.01616E+004   -1.52277E+005   -7.10620E+003   -3.83972E+002    2.01517E+004
            4162    8.00641E+007    7.99600E+007    7.99600E+007   -6.13271E+004   -1.46953E+005    8.01069E+007   -2.65839E+007    8.00640E+007    7.99600E+007   -6.20952E+004   -1.46184E+005   -1.10344E+004    5.79933E+002    8.08115E+003
            4163    8.00565E+007    7.99853E+007    7.99853E+007   -6.59585E+004   -7.64648E+004    8.00617E+007   -2.66143E+007    8.00565E+007    7.99853E+007   -6.59770E+004   -7.64460E+004   -3.49735E+003   -2.38542E+003    4.42253E+002
            4164    8.00655E+007    7.99711E+007    7.99711E+007   -8.69706E+004   -1.01971E+005    8.00730E+007   -2.65940E+007    8.00655E+007    7.99711E+007   -8.70457E+004   -1.01895E+005   -2.86405E+003   -3.70658E+003    1.05970E+003
            4165    8.00807E+007    7.99495E+007    7.99495E+007   -1.21115E+005   -1.41167E+005    8.00907E+007   -2.65624E+007    8.00807E+007    7.99495E+007   -1.21172E+005   -1.41109E+005   -2.07596E+003   -5.51039E+003    1.06900E+003
            4166    8.00940E+007    7.99265E+007    7.99265E+007   -1.54726E+005   -1.80334E+005    8.01068E+007   -2.65305E+007    8.00940E+007    7.99265E+007   -1.54729E+005   -1.80331E+005   -1.18415E+003   -5.78329E+003    2.58374E+002
            4167    8.01062E+007    7.99092E+007    7.99092E+007   -1.79870E+005   -2.13992E+005    8.01232E+007   -2.65051E+007    8.01061E+007    7.99092E+007   -1.79976E+005   -2.13884E+005   -2.49219E+003   -6.05908E+003   -1.90462E+003
            4168    8.00997E+007    7.98966E+007    7.98966E+007   -1.76301E+005   -2.29741E+005    8.01264E+007   -2.64969E+007    8.00996E+007    7.98966E+007   -1.76334E+005   -2.29709E+005   -3.17729E+003   -4.76068E+003    1.32105E+003
            4169    8.01022E+007    7.99102E+007    7.99102E+007   -1.58152E+005   -2.25647E+005    8.01359E+007   -2.65088E+007    8.01021E+007    7.99102E+007   -1.73727E+005   -2.10069E+005   -8.08916E+003    7.81467E+003    2.84372E+004
            4170    8.00620E+007    7.99660E+007    7.99660E+007   -5.94617E+004   -1.32468E+005    8.00985E+007   -2.65914E+007    8.00619E+007    7.99660E+007   -5.99744E+004   -1.31953E+005    1.18143E+004    7.27709E+002   -6.10700E+003
            4171    8.00587E+007    7.99397E+007    7.99397E+007   -7.76430E+004   -1.60385E+005    8.01001E+007   -2.65672E+007    8.00586E+007    7.99397E+007   -7.83179E+004   -1.59710E+005   -4.25708E+003    7.00788E+002   -7.44311E+003
            4172    8.00840E+007    7.99532E+007    7.99532E+007   -9.85762E+004   -1.62932E+005    8.01162E+007   -2.65639E+007    8.00839E+007    7.99532E+007   -9.95392E+004   -1.61969E+005   -2.68646E+002    4.85635E+002   -7.81359E+003
            4173    8.00760E+007    7.99413E+007    7.99413E+007   -1.09504E+005   -1.59814E+005    8.01012E+007   -2.65573E+007    8.00760E+007    7.99413E+007   -1.10487E+005   -1.58831E+005   -2.93551E+002    1.29642E+002   -6.96223E+003
            4174    8.00859E+007    7.99480E+007    7.99480E+007   -1.24371E+005   -1.51549E+005    8.00995E+007   -2.65574E+007    8.00859E+007    7.99480E+007   -1.25669E+005   -1.50252E+005   -3.78006E+002   -2.34615E+002   -5.79554E+003
            4175    8.00802E+007    7.99424E+007    7.99424E+007   -1.30939E+005   -1.44540E+005    8.00870E+007   -2.65556E+007    8.00802E+007    7.99424E+007   -1.31935E+005   -1.43544E+005    3.66318E+001   -6.49846E+002   -3.54359E+003
            4176    8.00863E+007    7.99475E+007    7.99475E+007   -1.37148E+005   -1.40446E+005    8.00880E+007   -2.65566E+007    8.00863E+007    7.99475E+007   -1.39240E+005   -1.38354E+005    6.05403E+001   -6.97187E+002   -1.58850E+003
            4177    8.00799E+007    7.99420E+007    7.99420E+007   -1.36430E+005   -1.39337E+005    8.00814E+007   -2.65554E+007    8.00799E+007    7.99420E+007   -1.37100E+005   -1.38667E+005   -1.86974E+002   -8.00057E+002    1.22380E+003
            4178    8.00882E+007    7.99492E+007    7.99492E+007   -1.34599E+005   -1.43311E+005    8.00925E+007   -2.65571E+007    8.00882E+007    7.99492E+007   -1.35802E+005   -1.42108E+005    4.13316E+001   -5.11232E+002    3.00579E+003
            4179    8.00711E+007    7.99606E+007    7.99606E+007   -7.48629E+004   -1.46202E+005    8.01068E+007   -2.65798E+007    8.00711E+007    7.99606E+007   -7.91469E+004   -1.41917E+005    9.50588E+003    7.18628E+002   -1.69508E+004
            4180    8.00673E+007    7.99398E+007    7.99398E+007   -8.68251E+004   -1.68104E+005    8.01079E+007   -2.65616E+007    8.00672E+007    7.99398E+007   -9.26182E+004   -1.62311E+005   -3.36838E+003   -2.81636E+002   -2.09119E+004
            4181    8.00866E+007    7.99509E+007    7.99509E+007   -1.01471E+005   -1.69964E+005    8.01209E+007   -2.65598E+007    8.00866E+007    7.99509E+007   -1.09561E+005   -1.61874E+005   -2.62727E+002    4.18224E+002   -2.21060E+004
            4182    8.00795E+007    7.99418E+007    7.99418E+007   -1.10515E+005   -1.64812E+005    8.01066E+007   -2.65555E+007    8.00795E+007    7.99418E+007   -1.19178E+005   -1.56150E+005   -1.99327E+002    2.32425E+002   -1.98825E+004
            4183    8.00857E+007    7.99466E+007    7.99466E+007   -1.21678E+005   -1.56597E+005    8.01032E+007   -2.65561E+007    8.00857E+007    7.99466E+007   -1.31944E+005   -1.46331E+005   -3.06068E+002    6.97361E+002   -1.59088E+004
            4184    8.00802E+007    7.99421E+007    7.99421E+007   -1.27803E+005   -1.48404E+005    8.00905E+007   -2.65553E+007    8.00802E+007    7.99421E+007   -1.37875E+005   -1.38332E+005    6.94707E+001    6.19098E+002   -1.02982E+004
            4185    8.00840E+007    7.99456E+007    7.99456E+007   -1.32066E+005   -1.44742E+005    8.00904E+007   -2.65563E+007    8.00840E+007    7.99456E+007   -1.43508E+005   -1.33300E+005   -2.48275E+001    9.14858E+002   -3.75774E+003
            4186    8.00795E+007    7.99418E+007    7.99418E+007   -1.32448E+005   -1.42913E+005    8.00847E+007   -2.65555E+007    8.00795E+007    7.99418E+007   -1.41946E+005   -1.33415E+005   -1.34133E+002    6.40432E+002    3.03002E+003
            4187    8.00851E+007    7.99463E+007    7.99463E+007   -1.29218E+005   -1.48498E+005    8.00948E+007   -2.65562E+007    8.00851E+007    7.99463E+007   -1.39553E+005   -1.38163E+005   -2.89579E+001    7.62185E+002    9.61521E+003
            4188    8.00837E+007    7.99487E+007    7.99487E+007   -1.01636E+005   -1.68396E+005    8.01171E+007   -2.65595E+007    8.00836E+007    7.99487E+007   -1.11842E+005   -1.58189E+005    4.93347E+003    1.21424E+002   -2.40255E+004
            4189    8.00795E+007    7.99381E+007    7.99381E+007   -1.01386E+005   -1.81295E+005    8.01194E+007   -2.65518E+007    8.00794E+007    7.99381E+007   -1.16296E+005   -1.66385E+005   -1.66806E+003    1.25459E+003   -3.11308E+004
            4190    8.00889E+007    7.99452E+007    7.99452E+007   -1.07189E+005   -1.80138E+005    8.01253E+007   -2.65526E+007    8.00888E+007    7.99452E+007   -1.26963E+005   -1.60364E+005   -1.27247E+002    1.22479E+003   -3.24268E+004
            4191    8.00838E+007    7.99415E+007    7.99415E+007   -1.11587E+005   -1.72973E+005    8.01145E+007   -2.65523E+007    8.00838E+007    7.99415E+007   -1.33590E+005   -1.50970E+005    3.77144E+002    4.22713E+002   -2.94367E+004
            4192    8.00866E+007    7.99458E+007    7.99458E+007   -1.17238E+005   -1.64447E+005    8.01102E+007   -2.65547E+007    8.00866E+007    7.99458E+007   -1.42433E+005   -1.39252E+005   -2.94813E+001    1.07752E+002   -2.35508E+004
            4193    8.00842E+007    7.99455E+007    7.99455E+007   -1.21805E+005   -1.55650E+005    8.01011E+007   -2.65560E+007    8.00842E+007    7.99455E+007   -1.46915E+005   -1.30540E+005    4.46780E+002   -6.86352E+002   -1.48099E+004
            4194    8.00853E+007    7.99474E+007    7.99474E+007   -1.24241E+005   -1.51469E+005    8.00989E+007   -2.65572E+007    8.00853E+007    7.99474E+007   -1.50490E+005   -1.25221E+005   -3.39491E+001   -6.63593E+002   -5.07080E+003
            4195    8.00842E+007    7.99464E+007    7.99464E+007   -1.24832E+005   -1.50788E+005    8.00972E+007   -2.65569E+007    8.00842E+007    7.99464E+007   -1.49348E+005   -1.26272E+005   -3.01756E+001   -9.70893E+002    5.94106E+003
            4196    8.00861E+007    7.99470E+007    7.99470E+007   -1.22109E+005   -1.56066E+005    8.01031E+007   -2.65563E+007    8.00861E+007    7.99470E+007   -1.46186E+005   -1.31990E+005   -2.08069E+002   -3.98658E+002    1.54235E+004
            4197    8.00971E+007    7.99349E+007    7.99349E+007   -1.30765E+005   -1.93781E+005    8.01286E+007   -2.65368E+007    8.00971E+007    7.99349E+007   -1.45967E+005   -1.78578E+005   -1.38842E+003   -3.97595E+003   -2.69604E+004
            4198    8.00997E+007    7.99415E+007    7.99415E+007   -1.18249E+005   -1.98202E+005    8.01397E+007   -2.65417E+007    8.00996E+007    7.99415E+007   -1.44222E+005   -1.72229E+005   -7.62815E+002   -7.42771E+002   -3.74432E+004
            4199    8.00939E+007    7.99411E+007    7.99411E+007   -1.13685E+005   -1.91820E+005    8.01329E+007   -2.65452E+007    8.00938E+007    7.99411E+007   -1.45574E+005   -1.59931E+005   -1.62199E+002    3.66817E+002   -3.84019E+004
            4200    8.00906E+007    7.99433E+007    7.99433E+007   -1.11200E+005   -1.83257E+005    8.01266E+007   -2.65496E+007    8.00905E+007    7.99433E+007   -1.50087E+005   -1.44371E+005    1.26635E+002    2.14141E+002   -3.59148E+004
            4201    8.00838E+007    7.99424E+007    7.99424E+007   -1.10622E+005   -1.72152E+005    8.01146E+007   -2.65532E+007    8.00838E+007    7.99424E+007   -1.53833E+005   -1.28942E+005    4.13030E+002    7.08452E+002   -2.81351E+004
            4202    8.00799E+007    7.99428E+007    7.99428E+007   -1.09921E+005   -1.64262E+005    8.01070E+007   -2.65562E+007    8.00798E+007    7.99428E+007   -1.57644E+005   -1.16539E+005    2.54145E+002    9.13399E+001   -1.77712E+004
            4203    8.00771E+007    7.99422E+007    7.99422E+007   -1.10596E+005   -1.59237E+005    8.01014E+007   -2.65575E+007    8.00771E+007    7.99422E+007   -1.58743E+005   -1.11090E+005    2.11399E-001    5.58853E+002   -4.87832E+003
            4204    8.00780E+007    7.99427E+007    7.99427E+007   -1.10683E+005   -1.60022E+005    8.01027E+007   -2.65573E+007    8.00780E+007    7.99427E+007   -1.58589E+005   -1.12116E+005    6.42355E+001   -3.46402E+001    8.28573E+003
            4205    8.00790E+007    7.99409E+007    7.99409E+007   -1.11564E+005   -1.64707E+005    8.01056E+007   -2.65549E+007    8.00790E+007    7.99409E+007   -1.55002E+005   -1.21269E+005   -5.52611E+002    5.86383E+002    2.05322E+004
            4206    8.01001E+007    7.99150E+007    7.99150E+007   -1.58822E+005   -2.11364E+005    8.01264E+007   -2.65149E+007    8.01001E+007    7.99150E+007   -1.76859E+005   -1.93325E+005   -7.47927E+003   -7.33523E+003   -2.49468E+004
            4207    8.01084E+007    7.99358E+007    7.99358E+007   -1.34545E+005   -2.10554E+005    8.01464E+007   -2.65302E+007    8.01083E+007    7.99358E+007   -1.68571E+005   -1.76527E+005   -1.06977E+003   -1.42522E+003   -3.77956E+004
            4208    8.00946E+007    7.99339E+007    7.99339E+007   -1.21364E+005   -2.00038E+005    8.01339E+007   -2.65375E+007    8.00945E+007    7.99339E+007   -1.63753E+005   -1.57649E+005   -1.43889E+002    4.24096E+002   -3.92184E+004
            4209    8.00927E+007    7.99424E+007    7.99424E+007   -1.10933E+005   -1.89563E+005    8.01320E+007   -2.65473E+007    8.00926E+007    7.99424E+007   -1.63227E+005   -1.37268E+005    7.39645E+002   -1.83096E+002   -3.71106E+004
            4210    8.00857E+007    7.99453E+007    7.99453E+007   -1.03727E+005   -1.76964E+005    8.01223E+007   -2.65549E+007    8.00856E+007    7.99453E+007   -1.62059E+005   -1.18632E+005    5.50441E+002    4.40967E+001   -2.94863E+004
            4211    8.00863E+007    7.99523E+007    7.99523E+007   -9.97139E+004   -1.68144E+005    8.01205E+007   -2.65615E+007    8.00862E+007    7.99523E+007   -1.62974E+005   -1.04884E+005    8.32439E+002   -2.71272E+002   -1.80848E+004
            4212    8.00819E+007    7.99515E+007    7.99515E+007   -9.82036E+004   -1.62621E+005    8.01141E+007   -2.65636E+007    8.00819E+007    7.99515E+007   -1.62383E+005   -9.84415E+004   -4.61420E+000   -3.85198E+002   -3.90752E+003
            4213    8.00865E+007    7.99542E+007    7.99542E+007   -9.95244E+004   -1.65172E+005    8.01193E+007   -2.65632E+007    8.00865E+007    7.99542E+007   -1.63161E+005   -1.01536E+005   -8.01044E+001   -3.75356E+002    1.13131E+004
            4214    8.00851E+007    7.99482E+007    7.99482E+007   -1.02768E+005   -1.71024E+005    8.01192E+007   -2.65581E+007    8.00850E+007    7.99482E+007   -1.60819E+005   -1.12973E+005   -8.41849E+002   -1.39633E+002    2.43400E+004
            4215    8.01008E+007    7.99032E+007    7.99032E+007   -1.77319E+005   -2.18013E+005    8.01212E+007   -2.65026E+007    8.01008E+007    7.99032E+007   -1.90136E+005   -2.05192E+005   -1.18400E+004   -1.40731E+004   -1.89012E+004
            4216    8.01258E+007    7.99395E+007    7.99395E+007   -1.50282E+005   -2.22274E+005    8.01618E+007   -2.65223E+007    8.01258E+007    7.99395E+007   -1.87449E+005   -1.85105E+005   -6.61421E+003   -7.46456E+003   -3.59763E+004
            4217    8.01053E+007    7.99371E+007    7.99371E+007   -1.29988E+005   -2.06350E+005    8.01435E+007   -2.65336E+007    8.01052E+007    7.99371E+007   -1.75345E+005   -1.60992E+005   -1.50608E+003   -1.66913E+003   -3.75007E+004
            4218    8.00967E+007    7.99451E+007    7.99451E+007   -1.10295E+005   -1.92902E+005    8.01380E+007   -2.65473E+007    8.00966E+007    7.99451E+007   -1.71066E+005   -1.32132E+005   -7.40052E+002   -5.13379E+002   -3.64286E+004
            4219    8.00766E+007    7.99413E+007    7.99413E+007   -9.44473E+004   -1.76036E+005    8.01173E+007   -2.65569E+007    8.00765E+007    7.99413E+007   -1.64603E+005   -1.05880E+005    1.33751E+003   -1.13257E+003   -2.83209E+004
            4220    8.00668E+007    7.99425E+007    7.99425E+007   -8.22768E+004   -1.66271E+005    8.01087E+007   -2.65646E+007    8.00667E+007    7.99425E+007   -1.62764E+005   -8.57836E+004    3.23464E+002   -3.31207E+003   -1.68006E+004
            4221    8.00597E+007    7.99406E+007    7.99406E+007   -7.80877E+004   -1.60145E+005    8.01007E+007   -2.65674E+007    8.00596E+007    7.99406E+007   -1.60056E+005   -7.81758E+004    2.29646E+002   -3.30425E+003   -2.68804E+003
            4222    8.00633E+007    7.99410E+007    7.99410E+007   -8.01576E+004   -1.64243E+005    8.01053E+007   -2.65656E+007    8.00632E+007    7.99410E+007   -1.62620E+005   -8.17804E+004    4.99267E+002   -4.08617E+003    1.15686E+004
            4223    8.00680E+007    7.99363E+007    7.99363E+007   -9.08786E+004   -1.72414E+005    8.01088E+007   -2.65577E+007    8.00679E+007    7.99363E+007   -1.64228E+005   -9.90646E+004   -9.77488E+002   -2.72209E+003    2.45039E+004
            4224    8.00646E+007    7.98632E+007    7.98632E+007   -1.97259E+005   -2.05420E+005    8.00687E+007   -2.64869E+007    8.00646E+007    7.98632E+007   -2.00619E+005   -2.02056E+005   -1.11602E+004   -1.26229E+004   -4.01506E+003
            4225    8.00950E+007    7.99026E+007    7.99026E+007   -1.71008E+005   -2.13831E+005    8.01164E+007   -2.65059E+007    8.00950E+007    7.99026E+007   -1.96737E+005   -1.88097E+005   -1.31137E+004   -1.38242E+004   -2.09688E+004
            4226    8.00946E+007    7.99192E+007    7.99192E+007   -1.45281E+005   -2.05433E+005    8.01246E+007   -2.65228E+007    8.00945E+007    7.99192E+007   -1.86899E+005   -1.63814E+005   -7.78388E+003   -7.58195E+003   -2.77725E+004
            4227    8.00904E+007    7.99394E+007    7.99394E+007   -1.17150E+005   -1.84906E+005    8.01243E+007   -2.65458E+007    8.00904E+007    7.99394E+007   -1.71864E+005   -1.30192E+005   -3.19163E+003   -2.31547E+003   -2.67132E+004
            4228    8.00757E+007    7.99517E+007    7.99517E+007   -8.88533E+004   -1.59068E+005    8.01108E+007   -2.65679E+007    8.00756E+007    7.99517E+007   -1.51758E+005   -9.61626E+004   -1.36506E+003    3.91677E+003   -2.14432E+004
            4229    8.00681E+007    7.99643E+007    7.99643E+007   -6.71472E+004   -1.40328E+005    8.01046E+007   -2.65856E+007    8.00680E+007    7.99643E+007   -1.37974E+005   -6.94995E+004    4.83921E+002    8.97977E+003   -1.29103E+004
            4230    8.00596E+007    7.99642E+007    7.99642E+007   -5.82441E+004   -1.32473E+005    8.00967E+007   -2.65912E+007    8.00595E+007    7.99642E+007   -1.32423E+005   -5.82924E+004   -6.00383E+002    1.00913E+004   -1.91771E+003
            4231    8.00672E+007    7.99658E+007    7.99658E+007   -6.40574E+004   -1.38529E+005    8.01044E+007   -2.65878E+007    8.00671E+007    7.99658E+007   -1.37345E+005   -6.52400E+004   -1.33084E+003    1.14882E+004    9.31598E+003
            4232    8.00752E+007    7.99562E+007    7.99562E+007   -8.27449E+004   -1.55263E+005    8.01115E+007   -2.65727E+007    8.00752E+007    7.99562E+007   -1.49737E+005   -8.82700E+004   -1.51403E+003    9.37437E+003    1.92407E+004
            4233    8.00776E+007    7.99668E+007    7.99668E+007   -1.04127E+005   -1.17487E+005    8.00843E+007   -2.65817E+007    8.00776E+007    7.99668E+007   -1.17431E+005   -1.04183E+005    2.26869E+003    2.28796E+003   -8.64100E+002
            4234    8.00585E+007    7.99806E+007    7.99806E+007   -7.48195E+004   -8.09132E+004    8.00616E+007   -2.66083E+007    8.00585E+007    7.99806E+007   -8.05678E+004   -7.51648E+004    2.90649E+002    1.93681E+003   -1.40900E+003
            4235    8.00523E+007    7.99874E+007    7.99874E+007   -6.33979E+004   -6.63102E+004    8.00537E+007   -2.66192E+007    8.00523E+007    7.99874E+007   -6.61317E+004   -6.35762E+004   -9.12860E+002    2.96111E+003   -6.98553E+002
            4236    8.00557E+007    7.99769E+007    7.99769E+007   -7.55993E+004   -8.19330E+004    8.00589E+007   -2.66065E+007    8.00557E+007    7.99769E+007   -8.19285E+004   -7.56037E+004   -3.02778E+003    1.29256E+003    1.66061E+002
            4237    8.00712E+007    7.99604E+007    7.99604E+007   -1.04003E+005   -1.17523E+005    8.00780E+007   -2.65796E+007    8.00712E+007    7.99604E+007   -1.17520E+005   -1.04006E+005   -3.66676E+003    1.54598E+003    2.04384E+002
            4238    8.00871E+007    7.99377E+007    7.99377E+007   -1.38469E+005   -1.60413E+005    8.00981E+007   -2.65463E+007    8.00871E+007    7.99377E+007   -1.60391E+005   -1.38490E+005   -5.65825E+003    1.92553E+003    6.81171E+002
            4239    8.00999E+007    7.99174E+007    7.99174E+007   -1.66340E+005   -1.98797E+005    8.01162E+007   -2.65174E+007    8.00999E+007    7.99174E+007   -1.98751E+005   -1.66385E+005   -5.42904E+003    1.67996E+003   -1.21592E+003
            4240    8.01002E+007    7.99050E+007    7.99050E+007   -1.78679E+005   -2.11659E+005    8.01167E+007   -2.65049E+007    8.01002E+007    7.99050E+007   -2.08884E+005   -1.81454E+005   -3.71297E+003    4.96782E+003   -9.15570E+003
            4241    8.01080E+007    7.99172E+007    7.99172E+007   -1.76549E+005   -2.05055E+005    8.01222E+007   -2.65119E+007    8.01080E+007    7.99172E+007   -1.82484E+005   -1.99118E+005    7.82932E+003    1.06075E+004   -1.15732E+004
            4242    8.00537E+007    7.99863E+007    7.99863E+007   -6.62207E+004   -6.87437E+004    8.00550E+007   -2.66171E+007    8.00537E+007    7.99863E+007   -6.62316E+004   -6.87326E+004    2.60612E+003   -8.89819E+002   -1.66474E+002
            4243    8.00657E+007    7.99729E+007    7.99729E+007   -8.90294E+004   -9.65409E+004    8.00695E+007   -2.65958E+007    8.00657E+007    7.99729E+007   -8.90448E+004   -9.65255E+004    2.05923E+003   -2.39907E+003   -3.39600E+002
            4244    8.00837E+007    7.99522E+007    7.99522E+007   -1.24570E+005   -1.38525E+005    8.00907E+007   -2.65630E+007    8.00837E+007    7.99522E+007   -1.24910E+005   -1.38185E+005    1.58800E+003   -4.29661E+003   -2.15283E+003
            4245    8.00989E+007    7.99301E+007    7.99301E+007   -1.61723E+005   -1.75830E+005    8.01059E+007   -2.65308E+007    8.00989E+007    7.99301E+007   -1.61810E+005   -1.75743E+005    2.02884E+003   -4.85456E+003   -1.10351E+003
            4246    8.01096E+007    7.99137E+007    7.99137E+007   -1.85817E+005   -2.05997E+005    8.01197E+007   -2.65073E+007    8.01096E+007    7.99137E+007   -1.85871E+005   -2.05943E+005    3.05960E+003   -5.25654E+003    1.03904E+003
            4247    8.01065E+007    7.98985E+007    7.98985E+007   -1.97372E+005   -2.18772E+005    8.01172E+007   -2.64941E+007    8.01065E+007    7.98985E+007   -1.98304E+005   -2.17840E+005    4.16923E+003   -4.00403E+003    4.36569E+003
            4248    8.01145E+007    7.99145E+007    7.99145E+007   -1.85064E+005   -2.14800E+005    8.01293E+007   -2.65049E+007    8.01145E+007    7.99145E+007   -1.85227E+005   -2.14634E+005    1.01471E+004    8.24202E+003    2.21052E+003
            4249    8.00317E+007    7.99206E+007    7.99206E+007   -6.90762E+004   -1.53090E+005    8.00737E+007   -2.65662E+007    8.00316E+007    7.99206E+007   -6.95236E+004   -1.52642E+005    9.87338E+003    3.03000E+002   -6.12308E+003
            4250    8.00956E+007    7.99654E+007    7.99654E+007   -9.87875E+004   -1.61642E+005    8.01270E+007   -2.65683E+007    8.00956E+007    7.99654E+007   -9.96586E+004   -1.60771E+005    3.10677E+003    2.77519E+002   -7.34818E+003
            4251    8.00703E+007    7.99364E+007    7.99364E+007   -1.05931E+005   -1.61736E+005    8.00982E+007   -2.65563E+007    8.00702E+007    7.99364E+007   -1.06757E+005   -1.60910E+005   -2.12110E+003    2.35947E+001   -6.74209E+003
            4252    8.00891E+007    7.99505E+007    7.99505E+007   -1.26159E+005   -1.51107E+005    8.01016E+007   -2.65577E+007    8.00891E+007    7.99505E+007   -1.27322E+005   -1.49944E+005    2.38631E+003   -3.92699E+002   -5.26047E+003
            4253    8.00438E+007    7.99232E+007    7.99232E+007   -8.15400E+004   -1.59532E+005    8.00828E+007   -2.65607E+007    8.00437E+007    7.99232E+007   -8.52225E+004   -1.55848E+005    8.44033E+003   -2.90944E+003   -1.65444E+004
            4254    8.00944E+007    7.99600E+007    7.99600E+007   -1.00580E+005   -1.68058E+005    8.01281E+007   -2.65638E+007    8.00943E+007    7.99600E+007   -1.07369E+005   -1.61269E+005    2.05782E+003   -1.82603E+003   -2.02983E+004
            4255    8.00740E+007    7.99373E+007    7.99373E+007   -1.07357E+005   -1.66151E+005    8.01034E+007   -2.65546E+007    8.00740E+007    7.99373E+007   -1.14567E+005   -1.58941E+005   -1.51219E+003   -5.77390E+002   -1.92856E+004
            4256    8.00883E+007    7.99490E+007    7.99490E+007   -1.22647E+005   -1.55910E+005    8.01049E+007   -2.65568E+007    8.00883E+007    7.99490E+007   -1.31676E+005   -1.46881E+005    1.29708E+003   -3.21483E+002   -1.47919E+004
            4257    8.00727E+007    7.99354E+007    7.99354E+007   -1.00757E+005   -1.73820E+005    8.01092E+007   -2.65536E+007    8.00726E+007    7.99354E+007   -1.10669E+005   -1.63908E+005    3.32891E+003   -3.58208E+003   -2.50190E+004
            4258    8.00921E+007    7.99494E+007    7.99494E+007   -1.06483E+005   -1.78865E+005    8.01283E+007   -2.65547E+007    8.00921E+007    7.99494E+007   -1.22160E+005   -1.63188E+005    1.61358E+003   -1.26079E+003   -2.98152E+004
            4259    8.00830E+007    7.99414E+007    7.99414E+007   -1.08998E+005   -1.74111E+005    8.01155E+007   -2.65528E+007    8.00829E+007    7.99414E+007   -1.27831E+005   -1.55278E+005   -1.44887E+003   -5.55952E+002   -2.95231E+004
            4260    8.00860E+007    7.99451E+007    7.99451E+007   -1.17574E+005   -1.64165E+005    8.01093E+007   -2.65545E+007    8.00860E+007    7.99451E+007   -1.39765E+005   -1.41974E+005    6.96346E+002   -9.50831E+002   -2.32695E+004
            4261    8.01056E+007    7.99461E+007    7.99461E+007   -1.25161E+005   -1.93658E+005    8.01398E+007   -2.65424E+007    8.01055E+007    7.99461E+007   -1.43605E+005   -1.75214E+005    3.17297E+002   -5.24616E+003   -3.03834E+004
            4262    8.00895E+007    7.99375E+007    7.99375E+007   -1.15626E+005   -1.88275E+005    8.01258E+007   -2.65445E+007    8.00894E+007    7.99375E+007   -1.39529E+005   -1.64371E+005   -2.43107E+003   -5.31261E+003   -3.41345E+004
            4263    8.00908E+007    7.99427E+007    7.99427E+007   -1.12192E+005   -1.83894E+005    8.01266E+007   -2.65489E+007    8.00907E+007    7.99427E+007   -1.44731E+005   -1.51355E+005   -5.31537E+002   -9.17583E+002   -3.56972E+004
            4264    8.00855E+007    7.99431E+007    7.99431E+007   -1.12561E+005   -1.72295E+005    8.01154E+007   -2.65527E+007    8.00854E+007    7.99431E+007   -1.48944E+005   -1.35912E+005   -1.83226E+003   -8.45423E+002   -2.91474E+004
            4265    8.01421E+007    7.99613E+007    7.99613E+007   -1.44797E+005   -2.16700E+005    8.01780E+007   -2.65333E+007    8.01420E+007    7.99613E+007   -1.71689E+005   -1.89808E+005   -1.61707E+003   -1.64466E+003   -3.47912E+004
            4266    8.00967E+007    7.99330E+007    7.99330E+007   -1.28375E+005   -1.99114E+005    8.01321E+007   -2.65352E+007    8.00966E+007    7.99330E+007   -1.58163E+005   -1.69326E+005   -4.39983E+003   -2.68049E+003   -3.49261E+004
            4267    8.01006E+007    7.99461E+007    7.99461E+007   -1.16048E+005   -1.92829E+005    8.01389E+007   -2.65457E+007    8.01005E+007    7.99461E+007   -1.59543E+005   -1.49334E+005   -6.22209E+002   -7.92765E+002   -3.80497E+004
            4268    8.00839E+007    7.99396E+007    7.99396E+007   -1.08595E+005   -1.80004E+005    8.01196E+007   -2.65503E+007    8.00838E+007    7.99396E+007   -1.58647E+005   -1.29952E+005   -2.38032E+003   -9.26753E+002   -3.26948E+004
            4269    8.01585E+007    7.99586E+007    7.99586E+007   -1.61874E+005   -2.37979E+005    8.01965E+007   -2.65196E+007    8.01584E+007    7.99586E+007   -2.01103E+005   -1.98749E+005    4.16304E+003    3.70339E+002   -3.80341E+004
            4270    8.00995E+007    7.99251E+007    7.99251E+007   -1.44224E+005   -2.04616E+005    8.01297E+007   -2.65254E+007    8.00995E+007    7.99251E+007   -1.75222E+005   -1.73616E+005   -9.85507E+003   -7.90119E+003   -3.01840E+004
            4271    8.01023E+007    7.99411E+007    7.99411E+007   -1.24745E+005   -1.97564E+005    8.01387E+007   -2.65396E+007    8.01022E+007    7.99411E+007   -1.72371E+005   -1.49938E+005   -1.54233E+003   -1.26646E+003   -3.46387E+004
            4272    8.00881E+007    7.99425E+007    7.99425E+007   -1.09552E+005   -1.81563E+005    8.01240E+007   -2.65505E+007    8.00880E+007    7.99425E+007   -1.63845E+005   -1.27269E+005   -4.87013E+003    3.10406E+002   -3.10152E+004
            4273    8.01906E+007    7.99734E+007    7.99734E+007   -1.76592E+005   -2.57669E+005    8.02311E+007   -2.65131E+007    8.01905E+007    7.99734E+007   -2.18987E+005   -2.15266E+005    1.81712E+004    1.70859E+004   -4.04923E+004
            4274    8.01415E+007    7.99472E+007    7.99472E+007   -1.59345E+005   -2.29037E+005    8.01763E+007   -2.65196E+007    8.01414E+007    7.99472E+007   -1.97750E+005   -1.90632E+005   -1.32509E+003    4.10774E+003   -3.46638E+004
            4275    8.01191E+007    7.99481E+007    7.99481E+007   -1.38856E+005   -2.03035E+005    8.01512E+007   -2.65354E+007    8.01190E+007    7.99481E+007   -1.85191E+005   -1.56701E+005   -1.57549E+003   -4.45369E+002   -2.87547E+004
            4276    8.00824E+007    7.99359E+007    7.99359E+007   -1.14891E+005   -1.78103E+005    8.01140E+007   -2.65476E+007    8.00824E+007    7.99359E+007   -1.66980E+005   -1.26013E+005   -4.02156E+003    1.98676E+003   -2.40694E+004
            4277    8.00946E+007    7.99475E+007    7.99475E+007   -1.36191E+005   -1.57859E+005    8.01054E+007   -2.65512E+007    8.00946E+007    7.99475E+007   -1.57857E+005   -1.36193E+005    2.36444E+003   -4.88385E+003    1.94367E+002
            4278    8.01027E+007    7.99121E+007    7.99121E+007   -1.77691E+005   -2.03451E+005    8.01156E+007   -2.65103E+007    8.01027E+007    7.99121E+007   -2.03449E+005   -1.77692E+005    8.16069E+003    5.36703E+003   -2.02760E+002
            4279    8.00968E+007    7.98768E+007    7.98768E+007   -1.94668E+005   -2.45244E+005    8.01221E+007   -2.64790E+007    8.00968E+007    7.98768E+007   -2.44414E+005   -1.95491E+005    2.09081E+004    1.35292E+004   -6.40158E+003
            4280    8.00406E+007    7.98078E+007    7.98078E+007   -1.93466E+005   -2.72029E+005    8.00799E+007   -2.64474E+007    8.00405E+007    7.98078E+007   -2.53992E+005   -2.11473E+005    4.03401E+004    2.69657E+004   -3.30140E+004
            4281    8.00618E+007    8.00072E+007    8.00072E+007   -4.59742E+004   -6.33656E+004    8.00705E+007   -2.66326E+007    8.00618E+007    8.00072E+007   -4.60178E+004   -6.33162E+004   -2.15231E+004   -1.25144E+003    9.26400E+002
            4282    8.00736E+007    7.99922E+007    7.99922E+007   -7.13039E+004   -9.15658E+004    8.00837E+007   -2.66098E+007    8.00736E+007    7.99921E+007   -7.12998E+004   -9.15658E+004   -1.81612E+004   -4.90767E+002    2.17703E+001
            4283    8.00855E+007    7.99601E+007    7.99601E+007   -1.15316E+005   -1.35573E+005    8.00957E+007   -2.65697E+007    8.00855E+007    7.99601E+007   -1.15315E+005   -1.35573E+005   -7.88439E+003    2.57478E+003   -2.55694E+001
            4284    8.00944E+007    7.99215E+007    7.99215E+007   -1.61243E+005   -1.84566E+005    8.01061E+007   -2.65252E+007    8.00944E+007    7.99215E+007   -1.61260E+005   -1.84548E+005    3.73427E+003    8.14283E+003   -6.34271E+002
            4285    8.00936E+007    7.98802E+007    7.98802E+007   -2.00070E+005   -2.26642E+005    8.01068E+007   -2.64845E+007    8.00935E+007    7.98802E+007   -2.00068E+005   -2.26638E+005    1.70981E+004    1.57344E+004   -2.09006E+002
            4286    8.00815E+007    7.98480E+007    7.98480E+007   -2.07019E+005   -2.60088E+005    8.01080E+007   -2.64603E+007    8.00815E+007    7.98479E+007   -2.07631E+005   -2.59461E+005    2.59839E+004    2.45631E+004   -5.69354E+003
            4287    8.00337E+007    7.97966E+007    7.97966E+007   -1.96198E+005   -2.77937E+005    8.00746E+007   -2.64408E+007    8.00336E+007    7.97966E+007   -2.14654E+005   -2.59447E+005    3.51216E+004    3.82868E+004   -3.41690E+004
            4288    8.00796E+007    7.99788E+007    7.99788E+007   -9.23252E+004   -1.09300E+005    8.00881E+007   -2.65924E+007    8.00796E+007    7.99788E+007   -1.09082E+005   -9.25412E+004   -7.81708E+002   -1.28405E+004    1.91183E+003
            4289    8.00647E+007    8.00002E+007    8.00002E+007   -5.79436E+004   -7.11304E+004    8.00713E+007   -2.66237E+007    8.00647E+007    8.00002E+007   -7.06783E+004   -5.83916E+004   -1.98415E+003   -1.80744E+004    2.39985E+003
            4290    8.00556E+007    8.00053E+007    8.00053E+007   -4.63188E+004   -5.44258E+004    8.00597E+007   -2.66348E+007    8.00556E+007    8.00052E+007   -5.43939E+004   -4.63466E+004   -2.12228E+002   -1.80152E+004    5.07099E+002
            4291    8.00640E+007    7.99994E+007    7.99994E+007   -5.87743E+004   -7.04870E+004    8.00698E+007   -2.66234E+007    8.00640E+007    7.99994E+007   -7.01829E+004   -5.90747E+004    1.41046E+003   -1.73080E+004   -1.86286E+003
            4292    8.00781E+007    7.99763E+007    7.99763E+007   -9.41446E+004   -1.09460E+005    8.00857E+007   -2.65909E+007    8.00781E+007    7.99763E+007   -1.09306E+005   -9.42967E+004   -3.83620E+002   -1.13464E+004   -1.52634E+003
            4293    8.00913E+007    7.99412E+007    7.99412E+007   -1.39788E+005   -1.60454E+005    8.01017E+007   -2.65470E+007    8.00913E+007    7.99412E+007   -1.60420E+005   -1.39821E+005   -4.71660E+003   -1.72721E+003   -8.30674E+002
            4294    8.00944E+007    7.99004E+007    7.99004E+007   -1.79281E+005   -2.08729E+005    8.01091E+007   -2.65041E+007    8.00944E+007    7.99004E+007   -2.08442E+005   -1.79566E+005   -1.15910E+004    9.57636E+003    2.88645E+003
            4295    8.00810E+007    7.98584E+007    7.98584E+007   -2.02435E+005   -2.42668E+005    8.01011E+007   -2.64711E+007    8.00809E+007    7.98584E+007   -2.36291E+005   -2.08800E+005   -2.39174E+004    2.08863E+004    1.46809E+004
            4296    8.00258E+007    7.97937E+007    7.97937E+007   -2.16595E+005   -2.47575E+005    8.00412E+007   -2.64432E+007    8.00257E+007    7.97936E+007   -2.24930E+005   -2.39212E+005   -3.26368E+004    3.38576E+004    1.37315E+004
            4297    8.00555E+007    7.99330E+007    7.99330E+007   -8.77697E+004   -1.57107E+005    8.00901E+007   -2.65627E+007    8.00554E+007    7.99330E+007   -1.52580E+005   -9.22966E+004   -1.66939E+003    3.30399E+003   -1.71290E+004
            4298    8.00886E+007    7.99548E+007    7.99548E+007   -9.72808E+004   -1.70291E+005    8.01251E+007   -2.65624E+007    8.00886E+007    7.99548E+007   -1.61382E+005   -1.06190E+005   -2.06357E+002    4.04599E+003   -2.38977E+004
            4299    8.00798E+007    7.99436E+007    7.99436E+007   -1.01471E+005   -1.70886E+005    8.01144E+007   -2.65571E+007    8.00797E+007    7.99436E+007   -1.61927E+005   -1.10430E+005   -3.01941E+002   -1.28363E+003   -2.32723E+004
            4300    8.00858E+007    7.99470E+007    7.99470E+007   -1.13193E+005   -1.64428E+005    8.01114E+007   -2.65565E+007    8.00858E+007    7.99470E+007   -1.54564E+005   -1.23057E+005   -8.85769E+001    2.12656E+003   -2.02007E+004
            4301    8.00810E+007    7.99428E+007    7.99428E+007   -1.21399E+005   -1.55015E+005    8.00978E+007   -2.65555E+007    8.00810E+007    7.99428E+007   -1.45594E+005   -1.30820E+005   -9.63930E+002   -1.04427E+003   -1.50975E+004
            4302    8.00803E+007    7.99421E+007    7.99421E+007   -1.28613E+005   -1.47665E+005    8.00898E+007   -2.65553E+007    8.00803E+007    7.99421E+007   -1.37217E+005   -1.39061E+005   -1.21524E+003    1.22486E+003   -9.48125E+003
            4303    8.00785E+007    7.99410E+007    7.99410E+007   -1.31633E+005   -1.43470E+005    8.00844E+007   -2.65553E+007    8.00785E+007    7.99410E+007   -1.32529E+005   -1.42574E+005   -1.78847E+003   -9.53550E+002   -3.13068E+003
            4304    8.00343E+007    7.99290E+007    7.99290E+007   -6.88901E+004   -1.41699E+005    8.00707E+007   -2.65728E+007    8.00342E+007    7.99290E+007   -1.40612E+005   -6.99768E+004   -9.61607E+002    5.75668E+003   -8.83011E+003
            4305    8.00830E+007    7.99589E+007    7.99589E+007   -8.91694E+004   -1.59042E+005    8.01179E+007   -2.65702E+007    8.00829E+007    7.99589E+007   -1.56985E+005   -9.12263E+004   -1.31330E+003    4.23142E+003   -1.18111E+004
            4306    8.00716E+007    7.99408E+007    7.99408E+007   -9.76010E+004   -1.63962E+005    8.01048E+007   -2.65598E+007    8.00716E+007    7.99408E+007   -1.62320E+005   -9.92424E+004   -8.18261E+002   -1.33137E+003   -1.03067E+004
            4307    8.00841E+007    7.99481E+007    7.99481E+007   -1.13694E+005   -1.58288E+005    8.01064E+007   -2.65587E+007    8.00841E+007    7.99481E+007   -1.56900E+005   -1.15082E+005   -5.50781E+002    1.72406E+003   -7.74513E+003
            4308    8.00816E+007    7.99441E+007    7.99441E+007   -1.23813E+005   -1.51218E+005    8.00953E+007   -2.65564E+007    8.00816E+007    7.99441E+007   -1.50224E+005   -1.24807E+005    3.70063E+002   -1.56514E+003   -5.12292E+003
            4309    8.00860E+007    7.99474E+007    7.99474E+007   -1.33032E+005   -1.44144E+005    8.00916E+007   -2.65568E+007    8.00860E+007    7.99474E+007   -1.43434E+005   -1.33742E+005    5.67252E+002    9.56224E+002   -2.71795E+003
            4310    8.00858E+007    7.99470E+007    7.99470E+007   -1.37373E+005   -1.40156E+005    8.00872E+007   -2.65565E+007    8.00858E+007    7.99470E+007   -1.39740E+005   -1.37789E+005    1.13126E+003   -1.14975E+003   -9.92168E+002
            4311    8.00311E+007    7.99318E+007    7.99318E+007   -6.11367E+004   -1.37424E+005    8.00692E+007   -2.65778E+007    8.00310E+007    7.99318E+007   -1.37412E+005   -6.11483E+004    4.81055E+002    5.06482E+003    9.51185E+002
            4312    8.00839E+007    7.99619E+007    7.99619E+007   -8.72407E+004   -1.56696E+005    8.01186E+007   -2.65727E+007    8.00838E+007    7.99619E+007   -1.56629E+005   -8.73073E+004    6.73575E+002    5.45937E+003    2.15502E+003
            4313    8.00728E+007    7.99430E+007    7.99430E+007   -9.56759E+004   -1.63854E+005    8.01069E+007   -2.65612E+007    8.00728E+007    7.99430E+007   -1.63583E+005   -9.59471E+004    3.47353E+002   -1.62504E+003    4.29172E+003
            4314    8.00849E+007    7.99489E+007    7.99489E+007   -1.13761E+005   -1.58327E+005    8.01072E+007   -2.65589E+007    8.00849E+007    7.99489E+007   -1.57746E+005   -1.14342E+005    3.72672E+002    2.89873E+003    5.05554E+003
            4315    8.00801E+007    7.99430E+007    7.99430E+007   -1.23403E+005   -1.50832E+005    8.00938E+007   -2.65562E+007    8.00801E+007    7.99430E+007   -1.49788E+005   -1.24447E+005   -2.02588E+002   -1.49438E+003    5.24799E+003
            4316    8.00820E+007    7.99440E+007    7.99440E+007   -1.33100E+005   -1.43025E+005    8.00870E+007   -2.65559E+007    8.00820E+007    7.99440E+007   -1.41545E+005   -1.34580E+005   -1.95063E+002    1.67840E+003    3.53557E+003
            4317    8.00802E+007    7.99424E+007    7.99424E+007   -1.36155E+005   -1.39471E+005    8.00819E+007   -2.65556E+007    8.00802E+007    7.99424E+007   -1.37031E+005   -1.38595E+005   -5.40128E+002   -1.33835E+003    1.46219E+003
            4318    8.00367E+007    7.99307E+007    7.99307E+007   -7.01902E+004   -1.41871E+005    8.00726E+007   -2.65729E+007    8.00367E+007    7.99307E+007   -1.40334E+005   -7.17269E+004    1.07753E+003    4.99564E+003    1.03831E+004
            4319    8.00841E+007    7.99579E+007    7.99579E+007   -9.08754E+004   -1.61451E+005    8.01194E+007   -2.65685E+007    8.00841E+007    7.99579E+007   -1.57736E+005   -9.45905E+004    1.08439E+003    3.96644E+003    1.57609E+004
            4320    8.00737E+007    7.99408E+007    7.99408E+007   -9.87529E+004   -1.67103E+005    8.01079E+007   -2.65583E+007    8.00737E+007    7.99408E+007   -1.62140E+005   -1.03716E+005    6.34750E+002   -1.53297E+003    1.77368E+004
            4321    8.00853E+007    7.99474E+007    7.99474E+007   -1.12830E+005   -1.62951E+005    8.01103E+007   -2.65572E+007    8.00852E+007    7.99474E+007   -1.55727E+005   -1.20054E+005    4.54605E+002    1.45044E+003    1.76040E+004
            4322    8.00822E+007    7.99437E+007    7.99437E+007   -1.21477E+005   -1.55592E+005    8.00992E+007   -2.65555E+007    8.00822E+007    7.99437E+007   -1.47142E+005   -1.29926E+005    1.98943E+002   -1.57987E+003    1.47264E+004
            4323    8.00857E+007    7.99469E+007    7.99469E+007   -1.28821E+005   -1.48927E+005    8.00958E+007   -2.65564E+007    8.00857E+007    7.99469E+007   -1.38871E+005   -1.38877E+005   -1.57550E+002    7.79142E+002    1.00530E+004
            4324    8.00850E+007    7.99465E+007    7.99465E+007   -1.33028E+005   -1.43917E+005    8.00904E+007   -2.65565E+007    8.00850E+007    7.99465E+007   -1.34156E+005   -1.42790E+005   -1.23113E+002   -9.97988E+002    3.31710E+003
            4325    8.00603E+007    7.99351E+007    7.99351E+007   -9.14829E+004   -1.58747E+005    8.00939E+007   -2.65616E+007    8.00602E+007    7.99351E+007   -1.53394E+005   -9.68351E+004    2.37471E+003    2.58247E+003    1.82036E+004
            4326    8.00896E+007    7.99525E+007    7.99525E+007   -1.00663E+005   -1.73427E+005    8.01259E+007   -2.65595E+007    8.00895E+007    7.99525E+007   -1.62053E+005   -1.12037E+005    1.90552E+003    3.11398E+003    2.64244E+004
            4327    8.00825E+007    7.99422E+007    7.99422E+007   -1.04194E+005   -1.76393E+005    8.01186E+007   -2.65539E+007    8.00825E+007    7.99422E+007   -1.61969E+005   -1.18619E+005    1.01650E+003   -1.45994E+003    2.88680E+004
            4328    8.00874E+007    7.99456E+007    7.99456E+007   -1.12648E+005   -1.71033E+005    8.01166E+007   -2.65540E+007    8.00874E+007    7.99456E+007   -1.52255E+005   -1.31426E+005    8.37501E+002    1.27720E+003    2.72718E+004
            4329    8.00827E+007    7.99426E+007    7.99426E+007   -1.17184E+005   -1.63014E+005    8.01056E+007   -2.65541E+007    8.00826E+007    7.99426E+007   -1.40743E+005   -1.39455E+005    3.74930E+002   -1.16984E+003    2.29058E+004
            4330    8.00816E+007    7.99432E+007    7.99432E+007   -1.21117E+005   -1.55620E+005    8.00989E+007   -2.65555E+007    8.00816E+007    7.99432E+007   -1.29593E+005   -1.47145E+005    6.82320E+002    7.19469E+002    1.48526E+004
            4331    8.00793E+007    7.99424E+007    7.99424E+007   -1.22426E+005   -1.51425E+005    8.00938E+007   -2.65562E+007    8.00793E+007    7.99424E+007   -1.23400E+005   -1.50451E+005    5.14347E+002   -8.13632E+002    5.22470E+003
            4332    8.00908E+007    7.99404E+007    7.99404E+007   -1.18970E+005   -1.81727E+005    8.01222E+007   -2.65466E+007    8.00908E+007    7.99404E+007   -1.69145E+005   -1.31552E+005    3.20115E+003    1.14219E+003    2.51263E+004
            4333    8.00920E+007    7.99414E+007    7.99414E+007   -1.15008E+005   -1.86025E+005    8.01275E+007   -2.65468E+007    8.00919E+007    7.99414E+007   -1.66463E+005   -1.34570E+005    4.29266E+003   -9.47612E+002    3.17268E+004
            4334    8.00894E+007    7.99401E+007    7.99401E+007   -1.12752E+005   -1.85818E+005    8.01259E+007   -2.65472E+007    8.00894E+007    7.99401E+007   -1.59848E+005   -1.38722E+005    1.91317E+003   -1.37454E+003    3.49722E+004
            4335    8.00882E+007    7.99419E+007    7.99419E+007   -1.12895E+005   -1.79694E+005    8.01216E+007   -2.65498E+007    8.00882E+007    7.99419E+007   -1.47835E+005   -1.44753E+005    1.45914E+003   -1.55508E+003    3.33639E+004
            4336    8.00864E+007    7.99443E+007    7.99443E+007   -1.12772E+005   -1.71349E+005    8.01156E+007   -2.65534E+007    8.00863E+007    7.99443E+007   -1.33588E+005   -1.50533E+005   -3.86376E+002   -1.02778E+003    2.80365E+004
            4337    8.00861E+007    7.99477E+007    7.99477E+007   -1.13325E+005   -1.63295E+005    8.01110E+007   -2.65570E+007    8.00860E+007    7.99477E+007   -1.21675E+005   -1.54945E+005   -1.34206E+003   -7.33020E+002    1.86418E+004
            4338    8.00854E+007    7.99494E+007    7.99494E+007   -1.13724E+005   -1.58251E+005    8.01076E+007   -2.65591E+007    8.00853E+007    7.99494E+007   -1.14665E+005   -1.57309E+005   -1.94100E+003   -4.55589E+001    6.40741E+003
            4339    8.01270E+007    7.99505E+007    7.99505E+007   -1.44437E+005   -2.08404E+005    8.01589E+007   -2.65326E+007    8.01269E+007    7.99505E+007   -1.86044E+005   -1.66797E+005    2.70332E+002    1.12006E+003    3.05019E+004
            4340    8.01039E+007    7.99378E+007    7.99378E+007   -1.32805E+005   -1.99355E+005    8.01371E+007   -2.65352E+007    8.01038E+007    7.99378E+007   -1.74247E+005   -1.57913E+005    3.09220E+003   -2.99086E+003    3.22575E+004
            4341    8.01030E+007    7.99432E+007    7.99432E+007   -1.22426E+005   -1.97108E+005    8.01403E+007   -2.65412E+007    8.01029E+007    7.99432E+007   -1.62157E+005   -1.57377E+005    8.64629E+002   -9.26992E+002    3.72644E+004
            4342    8.00921E+007    7.99411E+007    7.99411E+007   -1.14450E+005   -1.87505E+005    8.01286E+007   -2.65464E+007    8.00920E+007    7.99411E+007   -1.44171E+005   -1.57785E+005    8.62159E+002   -2.04656E+003    3.58876E+004
            4343    8.00846E+007    7.99424E+007    7.99424E+007   -1.06822E+005   -1.77665E+005    8.01200E+007   -2.65526E+007    8.00846E+007    7.99424E+007   -1.24447E+005   -1.60040E+005    4.46709E+002   -5.84061E+002    3.06265E+004
            4344    8.00751E+007    7.99409E+007    7.99409E+007   -1.00112E+005   -1.68226E+005    8.01091E+007   -2.65575E+007    8.00750E+007    7.99409E+007   -1.06781E+005   -1.61557E+005    1.09789E+003   -1.08940E+003    2.02431E+004
            4345    8.00708E+007    7.99412E+007    7.99412E+007   -9.59163E+004   -1.63307E+005    8.01045E+007   -2.65607E+007    8.00708E+007    7.99412E+007   -9.66270E+004   -1.62597E+005    9.11097E+002    2.48086E+001    6.88385E+003
            4346    8.01479E+007    7.99483E+007    7.99483E+007   -1.69409E+005   -2.29828E+005    8.01781E+007   -2.65163E+007    8.01478E+007    7.99483E+007   -1.97722E+005   -2.01514E+005   -3.16125E+003    7.39959E+003    3.01499E+004
            4347    8.01086E+007    7.99276E+007    7.99276E+007   -1.52869E+005   -2.09145E+005    8.01368E+007   -2.65219E+007    8.01086E+007    7.99276E+007   -1.82554E+005   -1.79458E+005    6.18776E+003   -7.31763E+003    2.80949E+004
            4348    8.01049E+007    7.99359E+007    7.99359E+007   -1.35808E+005   -2.02031E+005    8.01380E+007   -2.65327E+007    8.01048E+007    7.99359E+007   -1.63025E+005   -1.74814E+005    2.98006E+003   -2.22670E+003    3.25823E+004
            4349    8.00921E+007    7.99371E+007    7.99371E+007   -1.20444E+005   -1.89512E+005    8.01266E+007   -2.65424E+007    8.00920E+007    7.99371E+007   -1.42956E+005   -1.67000E+005    1.42258E+003   -5.17787E+003    3.23738E+004
            4350    8.00893E+007    7.99479E+007    7.99479E+007   -1.05472E+005   -1.77293E+005    8.01252E+007   -2.65550E+007    8.00892E+007    7.99479E+007   -1.19821E+005   -1.62944E+005   -1.95604E+003   -1.34359E+003    2.87168E+004
            4351    8.00865E+007    7.99567E+007    7.99567E+007   -9.53104E+004   -1.64334E+005    8.01210E+007   -2.65657E+007    8.00865E+007    7.99567E+007   -1.01474E+005   -1.58170E+005   -3.81497E+003   -2.00594E+003    1.96837E+004
            4352    8.00858E+007    7.99630E+007    7.99630E+007   -8.90622E+004   -1.56386E+005    8.01194E+007   -2.65725E+007    8.00857E+007    7.99630E+007   -8.98488E+004   -1.55599E+005   -4.83323E+003    3.34041E+002    7.23567E+003
            4353    8.01658E+007    7.99441E+007    7.99441E+007   -1.91452E+005   -2.52002E+005    8.01961E+007   -2.65002E+007    8.01658E+007    7.99441E+007   -2.18025E+005   -2.25418E+005   -1.95980E+004    2.28054E+004    3.00427E+004
            4354    8.01464E+007    7.99431E+007    7.99431E+007   -1.75784E+005   -2.30902E+005    8.01740E+007   -2.65121E+007    8.01464E+007    7.99431E+007   -1.99959E+005   -2.06726E+005   -5.32868E+003    2.98111E+003    2.73502E+004
            4355    8.01340E+007    7.99496E+007    7.99496E+007   -1.56819E+005   -2.12107E+005    8.01617E+007   -2.65269E+007    8.01340E+007    7.99496E+007   -1.78157E+005   -1.90768E+005   -2.13369E+002    3.26710E+002    2.69151E+004
            4356    8.01036E+007    7.99428E+007    7.99428E+007   -1.31652E+005   -1.89853E+005    8.01327E+007   -2.65404E+007    8.01036E+007    7.99428E+007   -1.47960E+005   -1.73545E+005   -6.43444E+002   -3.66764E+003    2.61380E+004
            4357    8.00738E+007    7.99379E+007    7.99379E+007   -1.04554E+005   -1.67267E+005    8.01051E+007   -2.65554E+007    8.00738E+007    7.99379E+007   -1.13476E+005   -1.58345E+005   -2.18747E+003   -2.11185E+003    2.19078E+004
            4358    8.00442E+007    7.99303E+007    7.99303E+007   -7.89234E+004   -1.48890E+005    8.00791E+007   -2.65675E+007    8.00441E+007    7.99303E+007   -8.22178E+004   -1.45595E+005   -4.93959E+003   -2.61844E+003    1.48212E+004
            4359    8.00283E+007    7.99272E+007    7.99272E+007   -6.34706E+004   -1.38629E+005    8.00659E+007   -2.65750E+007    8.00282E+007    7.99272E+007   -6.38154E+004   -1.38284E+005   -6.71944E+003    5.24307E+001    5.08262E+003
            4360    8.00608E+007    8.00078E+007    8.00078E+007   -4.79165E+004   -5.81838E+004    8.00660E+007   -2.66339E+007    8.00608E+007    8.00078E+007   -4.80092E+004   -5.80858E+004    2.04379E+004   -1.41493E+003   -9.98380E+002
            4361    8.00712E+007    7.99898E+007    7.99898E+007   -7.46331E+004   -8.81365E+004    8.00779E+007   -2.66090E+007    8.00712E+007    7.99898E+007   -7.46373E+004   -8.81293E+004    1.56919E+004   -4.67514E+001   -3.12450E+002
            4362    8.00839E+007    7.99574E+007    7.99574E+007   -1.19130E+005   -1.33880E+005    8.00913E+007   -2.65681E+007    8.00839E+007    7.99574E+007   -1.19281E+005   -1.33729E+005    6.37523E+003    1.65571E+003    1.48699E+003
            4363    8.00956E+007    7.99238E+007    7.99238E+007   -1.65527E+005   -1.78130E+005    8.01019E+007   -2.65267E+007    8.00956E+007    7.99238E+007   -1.65856E+005   -1.77801E+005   -3.38209E+003    5.70431E+003    2.00793E+003
            4364    8.00998E+007    7.98940E+007    7.98940E+007   -1.99683E+005   -2.11879E+005    8.01059E+007   -2.64941E+007    8.00998E+007    7.98940E+007   -1.99704E+005   -2.11855E+005   -1.13189E+004    9.63573E+003    5.17959E+002
            4365    8.00975E+007    7.98677E+007    7.98677E+007   -2.20335E+005   -2.39146E+005    8.01069E+007   -2.64694E+007    8.00975E+007    7.98677E+007   -2.20403E+005   -2.39071E+005   -1.57513E+004    2.03057E+004   -1.15280E+003
            4366    8.00436E+007    7.98051E+007    7.98051E+007   -2.19249E+005   -2.57810E+005    8.00629E+007   -2.64427E+007    8.00436E+007    7.98051E+007   -2.19306E+005   -2.57730E+005   -2.31646E+004    3.67339E+004   -1.57461E+003
            4367    8.00384E+007    7.98055E+007    7.98055E+007   -1.93159E+005   -2.72497E+005    8.00780E+007   -2.64466E+007    8.00383E+007    7.98055E+007   -2.52755E+005   -2.12871E+005    3.88707E+004   -2.94564E+004    3.42754E+004
            4368    8.00940E+007    7.98734E+007    7.98734E+007   -1.93862E+005   -2.47250E+005    8.01207E+007   -2.64774E+007    8.00940E+007    7.98734E+007   -2.46034E+005   -1.95069E+005    2.31179E+004   -1.39190E+004    7.94066E+003
            4369    8.01074E+007    7.99178E+007    7.99178E+007   -1.75159E+005   -2.03987E+005    8.01218E+007   -2.65129E+007    8.01074E+007    7.99178E+007   -2.03985E+005   -1.75160E+005    8.37693E+003   -1.65589E+003    2.01046E+002
            4370    8.00989E+007    7.99544E+007    7.99544E+007   -1.33337E+005   -1.55722E+005    8.01101E+007   -2.65551E+007    8.00989E+007    7.99544E+007   -1.55695E+005   -1.33363E+005    6.35989E+002    8.15094E+003   -7.70830E+002
            4371    8.00771E+007    7.99309E+007    7.99309E+007   -1.14085E+005   -1.78247E+005    8.01091E+007   -2.65462E+007    8.00770E+007    7.99309E+007   -1.67629E+005   -1.24702E+005   -3.67651E+003   -2.43379E+003    2.38433E+004
            4372    8.00904E+007    7.99442E+007    7.99442E+007   -1.09842E+005   -1.82489E+005    8.01267E+007   -2.65506E+007    8.00903E+007    7.99442E+007   -1.63871E+005   -1.28460E+005   -4.35739E+003   -1.32982E+003    3.17158E+004
            4373    8.00829E+007    7.99387E+007    7.99387E+007   -1.08533E+005   -1.79777E+005    8.01185E+007   -2.65501E+007    8.00828E+007    7.99387E+007   -1.58187E+005   -1.30122E+005   -2.40106E+003    1.25706E+003    3.27416E+004
            4374    8.00858E+007    7.99433E+007    7.99433E+007   -1.12666E+005   -1.72189E+005    8.01155E+007   -2.65528E+007    8.00857E+007    7.99433E+007   -1.48536E+005   -1.36320E+005   -1.72085E+003    2.88234E+002    2.91279E+004
            4375    8.00847E+007    7.99441E+007    7.99441E+007   -1.17406E+005   -1.63894E+005    8.01080E+007   -2.65543E+007    8.00847E+007    7.99441E+007   -1.38895E+005   -1.42406E+005    1.66827E+001    1.18861E+003    2.31777E+004
            4376    8.00871E+007    7.99480E+007    7.99480E+007   -1.22362E+005   -1.55886E+005    8.01039E+007   -2.65566E+007    8.00871E+007    7.99480E+007   -1.30845E+005   -1.47404E+005    1.07764E+003    1.52772E+002    1.45747E+004
            4377    8.00884E+007    7.99500E+007    7.99500E+007   -1.25950E+005   -1.51001E+005    8.01010E+007   -2.65577E+007    8.00884E+007    7.99500E+007   -1.27017E+005   -1.49935E+005    1.85793E+003    5.36806E+002    5.05794E+003
            4378    8.01147E+007    7.99437E+007    7.99437E+007   -1.38288E+005   -2.03612E+005    8.01473E+007   -2.65339E+007    8.01146E+007    7.99437E+007   -1.85796E+005   -1.56104E+005   -1.75196E+003   -3.43179E+002    2.90934E+004
            4379    8.01028E+007    7.99416E+007    7.99416E+007   -1.24786E+005   -1.97636E+005    8.01392E+007   -2.65397E+007    8.01027E+007    7.99416E+007   -1.71316E+005   -1.51106E+005   -1.87547E+003    8.10821E+002    3.49956E+004
            4380    8.00994E+007    7.99451E+007    7.99451E+007   -1.15899E+005   -1.92638E+005    8.01378E+007   -2.65455E+007    8.00993E+007    7.99451E+007   -1.58936E+005   -1.49601E+005   -5.72521E+002    7.52490E+002    3.80845E+004
            4381    8.00913E+007    7.99433E+007    7.99433E+007   -1.12111E+005   -1.83748E+005    8.01271E+007   -2.65492E+007    8.00912E+007    7.99433E+007   -1.43900E+005   -1.51959E+005   -5.35108E+002    8.91305E+002    3.55911E+004
            4382    8.00843E+007    7.99427E+007    7.99427E+007   -1.09330E+005   -1.73685E+005    8.01164E+007   -2.65532E+007    8.00842E+007    7.99427E+007   -1.28048E+005   -1.54967E+005   -7.07177E+002    3.58702E+002    2.92273E+004
            4383    8.00767E+007    7.99398E+007    7.99398E+007   -1.07739E+005   -1.66110E+005    8.01059E+007   -2.65553E+007    8.00767E+007    7.99398E+007   -1.14966E+005   -1.58882E+005   -1.31628E+003    6.24086E+002    1.92263E+004
            4384    8.00710E+007    7.99370E+007    7.99370E+007   -1.06199E+005   -1.61759E+005    8.00988E+007   -2.65564E+007    8.00710E+007    7.99370E+007   -1.07030E+005   -1.60927E+005   -1.52206E+003   -1.16763E+002    6.74599E+003
            4385    8.01416E+007    7.99474E+007    7.99474E+007   -1.58702E+005   -2.29728E+005    8.01771E+007   -2.65196E+007    8.01415E+007    7.99474E+007   -1.97577E+005   -1.90853E+005   -1.57079E+003   -4.16885E+003    3.53532E+004
            4386    8.01000E+007    7.99255E+007    7.99255E+007   -1.44303E+005   -2.04706E+005    8.01302E+007   -2.65255E+007    8.01000E+007    7.99255E+007   -1.75104E+005   -1.73903E+005   -9.30404E+003    7.25960E+003    3.01944E+004
            4387    8.00969E+007    7.99334E+007    7.99334E+007   -1.27610E+005   -1.99390E+005    8.01328E+007   -2.65355E+007    8.00968E+007    7.99334E+007   -1.57217E+005   -1.69783E+005   -4.32513E+003    2.47708E+003    3.53355E+004
            4388    8.00882E+007    7.99368E+007    7.99368E+007   -1.14839E+005   -1.87920E+005    8.01247E+007   -2.65447E+007    8.00881E+007    7.99368E+007   -1.38238E+005   -1.64520E+005   -2.66741E+003    4.85165E+003    3.40953E+004
            4389    8.00892E+007    7.99469E+007    7.99469E+007   -1.05498E+005   -1.79074E+005    8.01259E+007   -2.65541E+007    8.00891E+007    7.99469E+007   -1.20556E+005   -1.64016E+005    8.07000E+002    1.64314E+003    2.96843E+004
            4390    8.00899E+007    7.99560E+007    7.99560E+007   -9.95076E+004   -1.68176E+005    8.01242E+007   -2.65628E+007    8.00898E+007    7.99560E+007   -1.05771E+005   -1.61913E+005    1.98125E+003    1.69657E+003    1.97701E+004
            4391    8.00942E+007    7.99643E+007    7.99643E+007   -9.80571E+004   -1.61663E+005    8.01259E+007   -2.65682E+007    8.00941E+007    7.99643E+007   -9.87491E+004   -1.60971E+005    2.50883E+003   -1.27203E+002    6.59855E+003
            4392    8.01897E+007    7.99728E+007    7.99728E+007   -1.76805E+005   -2.56946E+005    8.02297E+007   -2.65130E+007    8.01896E+007    7.99728E+007   -2.17373E+005   -2.16371E+005    1.78203E+004   -1.75992E+004    4.00635E+004
            4393    8.01545E+007    7.99554E+007    7.99554E+007   -1.61865E+005   -2.36288E+005    8.01917E+007   -2.65191E+007    8.01544E+007    7.99554E+007   -1.99294E+005   -1.98859E+005    3.67266E+003   -2.06589E+002    3.72104E+004
            4394    8.01406E+007    7.99606E+007    7.99606E+007   -1.44920E+005   -2.15111E+005    8.01757E+007   -2.65335E+007    8.01405E+007    7.99606E+007   -1.70521E+005   -1.89510E+005   -2.00409E+003    9.44805E+002    3.37868E+004
            4395    8.01069E+007    7.99479E+007    7.99479E+007   -1.25209E+005   -1.92792E+005    8.01407E+007   -2.65433E+007    8.01069E+007    7.99479E+007   -1.43554E+005   -1.74446E+005   -3.22174E+002    5.21770E+003    3.00550E+004
            4396    8.00785E+007    7.99417E+007    7.99417E+007   -1.00770E+005   -1.72795E+005    8.01144E+007   -2.65560E+007    8.00784E+007    7.99417E+007   -1.11081E+005   -1.62484E+005    1.95317E+003    2.69313E+003    2.52259E+004
            4397    8.00517E+007    7.99315E+007    7.99315E+007   -8.17523E+004   -1.58521E+005    8.00900E+007   -2.65637E+007    8.00516E+007    7.99315E+007   -8.57315E+004   -1.54541E+005    6.11949E+003    4.00577E+003    1.70203E+004
            4398    8.00341E+007    7.99231E+007    7.99231E+007   -6.95086E+004   -1.52484E+005    8.00756E+007   -2.65670E+007    8.00340E+007    7.99231E+007   -7.00387E+004   -1.51953E+005    9.67534E+003    8.10974E+002    6.61825E+003
            4399    8.00607E+007    8.00040E+007    8.00040E+007   -4.80013E+004   -6.52114E+004    8.00693E+007   -2.66303E+007    8.00606E+007    8.00040E+007   -4.79979E+004   -6.52098E+004   -2.01610E+004   -4.69121E+002   -1.66616E+002
            4400    8.00674E+007    7.99823E+007    7.99823E+007   -7.58522E+004   -9.44704E+004    8.00767E+007   -2.66040E+007    8.00674E+007    7.99823E+007   -7.58557E+004   -9.44649E+004   -1.26775E+004   -1.28072E+003    3.20397E+002
            4401    8.00813E+007    7.99529E+007    7.99529E+007   -1.18868E+005   -1.37829E+005    8.00908E+007   -2.65654E+007    8.00813E+007    7.99529E+007   -1.18879E+005   -1.37818E+005   -3.67917E+003   -1.78692E+003   -4.55231E+002
            4402    8.00937E+007    7.99204E+007    7.99204E+007   -1.61912E+005   -1.84536E+005    8.01050E+007   -2.65247E+007    8.00937E+007    7.99204E+007   -1.61934E+005   -1.84512E+005    5.07492E+003   -7.74056E+003    7.17886E+002
            4403    8.00946E+007    7.98832E+007    7.98832E+007   -1.98977E+005   -2.23956E+005    8.01071E+007   -2.64868E+007    8.00946E+007    7.98832E+007   -1.98974E+005   -2.23953E+005    1.65054E+004   -1.36572E+004   -1.79103E+001
            4404    8.00871E+007    7.98556E+007    7.98556E+007   -2.05425E+005   -2.57547E+005    8.01132E+007   -2.64642E+007    8.00871E+007    7.98556E+007   -2.05947E+005   -2.57012E+005    2.30959E+004   -2.30521E+004    5.21269E+003
            4405    8.00369E+007    7.98015E+007    7.98015E+007   -1.95205E+005   -2.75538E+005    8.00770E+007   -2.64436E+007    8.00368E+007    7.98014E+007   -2.12205E+005   -2.58508E+005    3.18514E+004   -3.80361E+004    3.28062E+004
            4406    8.00298E+007    7.99289E+007    7.99289E+007   -6.35672E+004   -1.38284E+005    8.00672E+007   -2.65757E+007    8.00298E+007    7.99289E+007   -6.39357E+004   -1.37915E+005   -6.02616E+003    2.23442E+002   -5.23727E+003
            4407    8.00844E+007    7.99618E+007    7.99618E+007   -8.86137E+004   -1.56540E+005    8.01183E+007   -2.65722E+007    8.00843E+007    7.99618E+007   -8.94402E+004   -1.55713E+005   -5.17798E+003   -5.38377E+002   -7.44867E+003
            4408    8.00716E+007    7.99418E+007    7.99418E+007   -9.61848E+004   -1.63356E+005    8.01051E+007   -2.65607E+007    8.00715E+007    7.99418E+007   -9.70569E+004   -1.62484E+005    1.05450E+003   -7.37927E+001   -7.60417E+003
            4409    8.00853E+007    7.99492E+007    7.99492E+007   -1.13527E+005   -1.58586E+005    8.01078E+007   -2.65590E+007    8.00853E+007    7.99492E+007   -1.14622E+005   -1.57492E+005   -2.09590E+003    3.79767E+001   -6.93719E+003
            4410    8.00798E+007    7.99428E+007    7.99428E+007   -1.22509E+005   -1.51593E+005    8.00944E+007   -2.65562E+007    8.00798E+007    7.99428E+007   -1.23690E+005   -1.50412E+005    6.93688E+002    7.45802E+002   -5.74057E+003
            4411    8.00849E+007    7.99464E+007    7.99464E+007   -1.32925E+005   -1.44032E+005    8.00904E+007   -2.65565E+007    8.00849E+007    7.99464E+007   -1.34200E+005   -1.42758E+005   -4.22817E+002    1.01286E+003   -3.54057E+003
            4412    8.00805E+007    7.99427E+007    7.99427E+007   -1.36194E+005   -1.39532E+005    8.00822E+007   -2.65556E+007    8.00805E+007    7.99427E+007   -1.37124E+005   -1.38601E+005   -2.51715E+002    1.28047E+003   -1.49685E+003
            4413    8.00854E+007    7.99467E+007    7.99467E+007   -1.37332E+005   -1.40057E+005    8.00868E+007   -2.65564E+007    8.00854E+007    7.99467E+007   -1.39645E+005   -1.37744E+005    6.95407E+002    1.21000E+003    9.76127E+002
            4414    8.00786E+007    7.99410E+007    7.99410E+007   -1.31702E+005   -1.43457E+005    8.00845E+007   -2.65553E+007    8.00786E+007    7.99410E+007   -1.32642E+005   -1.42516E+005   -1.35219E+003    8.93988E+002    3.18898E+003
            4415    8.00436E+007    7.99296E+007    7.99296E+007   -7.92906E+004   -1.48770E+005    8.00783E+007   -2.65672E+007    8.00435E+007    7.99296E+007   -8.25396E+004   -1.45520E+005   -5.01495E+003    1.70222E+003   -1.46700E+004
            4416    8.00863E+007    7.99562E+007    7.99562E+007   -9.52479E+004   -1.64903E+005    8.01211E+007   -2.65654E+007    8.00863E+007    7.99562E+007   -1.01888E+005   -1.58263E+005   -3.87820E+003    2.00714E+003   -2.04556E+004
            4417    8.00755E+007    7.99410E+007    7.99410E+007   -1.00556E+005   -1.68549E+005    8.01095E+007   -2.65573E+007    8.00755E+007    7.99410E+007   -1.07625E+005   -1.61480E+005    8.47325E+002    1.11108E+003   -2.07527E+004
            4418    8.00858E+007    7.99472E+007    7.99472E+007   -1.13324E+005   -1.63695E+005    8.01109E+007   -2.65567E+007    8.00857E+007    7.99472E+007   -1.22463E+005   -1.54556E+005   -1.24270E+003    7.90597E+002   -1.94118E+004
            4419    8.00815E+007    7.99431E+007    7.99431E+007   -1.21318E+005   -1.55542E+005    8.00986E+007   -2.65554E+007    8.00815E+007    7.99431E+007   -1.30335E+005   -1.46525E+005    6.26904E+002   -5.43291E+002   -1.50759E+004
            4420    8.00854E+007    7.99466E+007    7.99466E+007   -1.28613E+005   -1.49001E+005    8.00956E+007   -2.65563E+007    8.00854E+007    7.99466E+007   -1.39132E+005   -1.38482E+005   -6.30206E+001   -7.26961E+002   -1.01886E+004
            4421    8.00822E+007    7.99441E+007    7.99441E+007   -1.32967E+005   -1.43157E+005    8.00873E+007   -2.65560E+007    8.00822E+007    7.99441E+007   -1.41879E+005   -1.34245E+005   -1.40256E+002   -1.61820E+003   -3.37555E+003
            4422    8.00856E+007    7.99471E+007    7.99471E+007   -1.33097E+005   -1.43936E+005    8.00910E+007   -2.65567E+007    8.00856E+007    7.99471E+007   -1.43113E+005   -1.33920E+005    5.34288E+002   -9.98293E+002    2.87200E+003
            4423    8.00815E+007    7.99432E+007    7.99432E+007   -1.28574E+005   -1.48022E+005    8.00912E+007   -2.65555E+007    8.00815E+007    7.99432E+007   -1.37279E+005   -1.39316E+005   -9.97743E+002   -1.31828E+003    9.67058E+003
            4424    8.00697E+007    7.99331E+007    7.99331E+007   -1.05328E+005   -1.67703E+005    8.01008E+007   -2.65534E+007    8.00696E+007    7.99331E+007   -1.13812E+005   -1.59218E+005   -2.67516E+003    1.95952E+003   -2.13835E+004
            4425    8.00915E+007    7.99492E+007    7.99492E+007   -1.06438E+005   -1.78243E+005    8.01274E+007   -2.65548E+007    8.00915E+007    7.99492E+007   -1.21794E+005   -1.62887E+005   -2.65920E+003    1.22741E+003   -2.94422E+004
            4426    8.00840E+007    7.99412E+007    7.99412E+007   -1.07372E+005   -1.78232E+005    8.01194E+007   -2.65519E+007    8.00839E+007    7.99412E+007   -1.25755E+005   -1.59848E+005    1.07879E+003    7.44001E+002   -3.10599E+004
            4427    8.00875E+007    7.99451E+007    7.99451E+007   -1.13065E+005   -1.71813E+005    8.01169E+007   -2.65534E+007    8.00875E+007    7.99451E+007   -1.35045E+005   -1.49832E+005   -9.82878E+002    7.79984E+002   -2.84283E+004
            4428    8.00829E+007    7.99427E+007    7.99427E+007   -1.17104E+005   -1.63140E+005    8.01059E+007   -2.65542E+007    8.00828E+007    7.99427E+007   -1.41563E+005   -1.38680E+005    9.04556E+002    1.05605E+003   -2.29728E+004
            4429    8.00824E+007    7.99439E+007    7.99439E+007   -1.21383E+005   -1.55565E+005    8.00994E+007   -2.65556E+007    8.00823E+007    7.99439E+007   -1.47689E+005   -1.29258E+005   -3.99492E+002    1.43187E+003   -1.43936E+004
            4430    8.00804E+007    7.99433E+007    7.99433E+007   -1.23431E+005   -1.50769E+005    8.00941E+007   -2.65564E+007    8.00804E+007    7.99433E+007   -1.49877E+005   -1.24324E+005    3.25299E+002    1.49345E+003   -4.85783E+003
            4431    8.00811E+007    7.99436E+007    7.99436E+007   -1.23825E+005   -1.51098E+005    8.00947E+007   -2.65562E+007    8.00811E+007    7.99436E+007   -1.49955E+005   -1.24968E+005   -2.47878E+002    1.59230E+003    5.46651E+003
            4432    8.00811E+007    7.99429E+007    7.99429E+007   -1.21344E+005   -1.55193E+005    8.00981E+007   -2.65554E+007    8.00811E+007    7.99429E+007   -1.45533E+005   -1.31004E+005   -3.53734E+002    1.20956E+003    1.52863E+004
            4433    8.01017E+007    7.99403E+007    7.99403E+007   -1.32234E+005   -1.90609E+005    8.01309E+007   -2.65391E+007    8.01016E+007    7.99403E+007   -1.48147E+005   -1.74696E+005   -1.04322E+003    3.81648E+003   -2.59935E+004
            4434    8.00938E+007    7.99376E+007    7.99376E+007   -1.21702E+005   -1.90559E+005    8.01282E+007   -2.65418E+007    8.00937E+007    7.99376E+007   -1.45153E+005   -1.67108E+005    1.16690E+003    5.00859E+003   -3.26311E+004
            4435    8.00920E+007    7.99406E+007    7.99406E+007   -1.14680E+005   -1.88062E+005    8.01287E+007   -2.65460E+007    8.00920E+007    7.99406E+007   -1.45637E+005   -1.57105E+005    7.62021E+002    2.15527E+003   -3.62401E+004
            4436    8.00877E+007    7.99415E+007    7.99415E+007   -1.12656E+005   -1.79654E+005    8.01211E+007   -2.65497E+007    8.00876E+007    7.99415E+007   -1.49391E+005   -1.42919E+005    1.54926E+003    1.89742E+003   -3.33419E+004
            4437    8.00864E+007    7.99450E+007    7.99450E+007   -1.12283E+005   -1.70463E+005    8.01155E+007   -2.65541E+007    8.00864E+007    7.99450E+007   -1.53012E+005   -1.29735E+005    7.47350E+002   -9.34754E+002   -2.66603E+004
            4438    8.00850E+007    7.99474E+007    7.99474E+007   -1.12500E+005   -1.62618E+005    8.01100E+007   -2.65574E+007    8.00849E+007    7.99474E+007   -1.56018E+005   -1.19100E+005    7.27466E+002   -1.21843E+003   -1.69472E+004
            4439    8.00844E+007    7.99485E+007    7.99485E+007   -1.13586E+005   -1.58323E+005    8.01068E+007   -2.65589E+007    8.00844E+007    7.99485E+007   -1.57884E+005   -1.14025E+005    3.19149E+002   -2.82676E+003   -4.40918E+003
            4440    8.00845E+007    7.99484E+007    7.99484E+007   -1.13953E+005   -1.58308E+005    8.01067E+007   -2.65587E+007    8.00845E+007    7.99484E+007   -1.56655E+005   -1.15606E+005   -3.08953E+002   -1.84028E+003    8.40244E+003
            4441    8.00866E+007    7.99476E+007    7.99476E+007   -1.13723E+005   -1.64341E+005    8.01120E+007   -2.65565E+007    8.00866E+007    7.99476E+007   -1.54145E+005   -1.23918E+005   -2.45545E+001   -2.43526E+003    2.03009E+004
            4442    8.01332E+007    7.99481E+007    7.99481E+007   -1.57222E+005   -2.12980E+005    8.01611E+007   -2.65260E+007    8.01332E+007    7.99481E+007   -1.78764E+005   -1.91438E+005   -1.36286E+002   -4.38655E+002   -2.71491E+004
            4443    8.01054E+007    7.99360E+007    7.99360E+007   -1.36205E+005   -2.02618E+005    8.01386E+007   -2.65324E+007    8.01054E+007    7.99360E+007   -1.64318E+005   -1.74505E+005    2.42037E+003    2.57799E+003   -3.28138E+004
            4444    8.01027E+007    7.99431E+007    7.99431E+007   -1.22278E+005   -1.96885E+005    8.01400E+007   -2.65413E+007    8.01026E+007    7.99431E+007   -1.63197E+005   -1.55967E+005    1.31766E+003    8.68877E+002   -3.71281E+004
            4445    8.00904E+007    7.99417E+007    7.99417E+007   -1.12281E+005   -1.85158E+005    8.01268E+007   -2.65481E+007    8.00903E+007    7.99417E+007   -1.60096E+005   -1.37342E+005    1.45693E+003    1.07569E+003   -3.46167E+004
            4446    8.00833E+007    7.99436E+007    7.99436E+007   -1.03471E+005   -1.76011E+005    8.01196E+007   -2.65547E+007    8.00833E+007    7.99436E+007   -1.62125E+005   -1.17357E+005    1.32633E+003    1.16050E+003   -2.85391E+004
            4447    8.00738E+007    7.99411E+007    7.99411E+007   -9.85600E+004   -1.66822E+005    8.01079E+007   -2.65586E+007    8.00738E+007    7.99411E+007   -1.62315E+005   -1.03067E+005    2.19455E+002    1.36480E+003   -1.69510E+004
            4448    8.00735E+007    7.99437E+007    7.99437E+007   -9.60204E+004   -1.63613E+005    8.01073E+007   -2.65613E+007    8.00734E+007    7.99437E+007   -1.63410E+005   -9.62229E+004    6.56039E+002    1.75943E+003   -3.69483E+003
            4449    8.00710E+007    7.99400E+007    7.99400E+007   -9.79067E+004   -1.64131E+005    8.01041E+007   -2.65593E+007    8.00710E+007    7.99400E+007   -1.62412E+005   -9.96256E+004   -9.22336E+002    1.39128E+003    1.05299E+004
            4450    8.00786E+007    7.99423E+007    7.99423E+007   -1.01448E+005   -1.71046E+005    8.01134E+007   -2.65566E+007    8.00785E+007    7.99423E+007   -1.61984E+005   -1.10509E+005   -1.75026E+002    1.61874E+003    2.34209E+004
            4451    8.01470E+007    7.99433E+007    7.99433E+007   -1.75648E+005   -2.31621E+005    8.01750E+007   -2.65120E+007    8.01469E+007    7.99433E+007   -2.00325E+005   -2.06944E+005   -6.00962E+003   -2.90490E+003   -2.77895E+004
            4452    8.01087E+007    7.99278E+007    7.99278E+007   -1.52731E+005   -2.08959E+005    8.01368E+007   -2.65220E+007    8.01086E+007    7.99278E+007   -1.82836E+005   -1.78852E+005    6.42333E+003    7.15561E+003   -2.80430E+004
            4453    8.01036E+007    7.99385E+007    7.99385E+007   -1.31519E+005   -1.98782E+005    8.01373E+007   -2.65361E+007    8.01036E+007    7.99385E+007   -1.74040E+005   -1.56261E+005    2.34858E+003    3.45146E+003   -3.24354E+004
            4454    8.00888E+007    7.99395E+007    7.99395E+007   -1.13312E+005   -1.85078E+005    8.01246E+007   -2.65471E+007    8.00887E+007    7.99395E+007   -1.66666E+005   -1.31723E+005    4.91944E+003    1.63154E+003   -3.13421E+004
            4455    8.00871E+007    7.99510E+007    7.99510E+007   -9.96768E+004   -1.72484E+005    8.01235E+007   -2.65596E+007    8.00870E+007    7.99510E+007   -1.62047E+005   -1.10114E+005    1.35670E+003   -2.23112E+003   -2.55137E+004
            4456    8.00840E+007    7.99580E+007    7.99580E+007   -9.05385E+004   -1.61361E+005    8.01194E+007   -2.65687E+007    8.00839E+007    7.99580E+007   -1.57896E+005   -9.40025E+004    1.97835E+003   -3.10270E+003   -1.52753E+004
            4457    8.00833E+007    7.99608E+007    7.99608E+007   -8.74432E+004   -1.57449E+005    8.01183E+007   -2.65720E+007    8.00832E+007    7.99608E+007   -1.57405E+005   -8.74863E+004    6.69954E+002   -5.45103E+003   -1.74534E+003
            4458    8.00847E+007    7.99600E+007    7.99600E+007   -8.96326E+004   -1.59666E+005    8.01197E+007   -2.65702E+007    8.00847E+007    7.99600E+007   -1.57350E+005   -9.19486E+004   -8.37239E+002   -4.13980E+003    1.25241E+004
            4459    8.00906E+007    7.99563E+007    7.99563E+007   -9.80530E+004   -1.70500E+005    8.01268E+007   -2.65626E+007    8.00905E+007    7.99563E+007   -1.61034E+005   -1.07520E+005    2.84864E+001   -4.65104E+003    2.44177E+004
            4460    8.01658E+007    7.99440E+007    7.99440E+007   -1.91603E+005   -2.51929E+005    8.01960E+007   -2.65002E+007    8.01658E+007    7.99440E+007   -2.18620E+005   -2.24900E+005   -1.96991E+004   -2.29241E+004   -2.99937E+004
            4461    8.01466E+007    7.99479E+007    7.99479E+007   -1.68754E+005   -2.28576E+005    8.01765E+007   -2.65169E+007    8.01466E+007    7.99479E+007   -1.97247E+005   -2.00082E+005   -3.35344E+003   -6.51675E+003   -2.98769E+004
            4462    8.01266E+007    7.99511E+007    7.99511E+007   -1.44149E+005   -2.06761E+005    8.01579E+007   -2.65334E+007    8.01265E+007    7.99511E+007   -1.85045E+005   -1.65864E+005    4.42605E+002   -1.23847E+003   -2.98011E+004
            4463    8.00964E+007    7.99467E+007    7.99467E+007   -1.18737E+005   -1.80803E+005    8.01275E+007   -2.65490E+007    8.00964E+007    7.99467E+007   -1.67438E+005   -1.32102E+005    2.41115E+003    3.09351E+000   -2.55129E+004
            4464    8.00664E+007    7.99411E+007    7.99411E+007   -9.18191E+004   -1.58749E+005    8.00999E+007   -2.65635E+007    8.00664E+007    7.99411E+007   -1.52850E+005   -9.77182E+004    3.78584E+003   -1.98979E+003   -1.89745E+004
            4465    8.00397E+007    7.99327E+007    7.99327E+007   -7.13014E+004   -1.42667E+005    8.00754E+007   -2.65729E+007    8.00397E+007    7.99327E+007   -1.40949E+005   -7.30194E+004    8.09998E+002   -5.09459E+003   -1.09397E+004
            4466    8.00349E+007    7.99347E+007    7.99347E+007   -6.18782E+004   -1.38392E+005    8.00731E+007   -2.65782E+007    8.00348E+007    7.99347E+007   -1.38374E+005   -6.18957E+004    1.21781E+003   -4.33383E+003   -1.16650E+003
            4467    8.00323E+007    7.99264E+007    7.99264E+007   -6.90626E+004   -1.42655E+005    8.00690E+007   -2.65716E+007    8.00322E+007    7.99264E+007   -1.41644E+005   -7.00727E+004    6.85756E+001   -6.53450E+003    8.56456E+003
            4468    8.00505E+007    7.99279E+007    7.99279E+007   -8.72554E+004   -1.58001E+005    8.00859E+007   -2.65609E+007    8.00504E+007    7.99279E+007   -1.53746E+005   -9.15092E+004   -1.46052E+003   -4.20089E+003    1.68185E+004
            4469    8.00823E+007    7.99846E+007    7.99846E+007   -8.88436E+004   -1.06701E+005    8.00913E+007   -2.65963E+007    8.00823E+007    7.99846E+007   -1.06467E+005   -8.90740E+004   -1.51612E+003    1.58881E+004   -2.02915E+003
            4470    8.00662E+007    8.00027E+007    8.00027E+007   -5.63213E+004   -7.06649E+004    8.00734E+007   -2.66252E+007    8.00662E+007    8.00027E+007   -6.99006E+004   -5.70808E+004   -3.71754E+003    1.93175E+004   -3.22224E+003
            4471    8.00520E+007    8.00004E+007    8.00004E+007   -4.79790E+004   -5.52652E+004    8.00557E+007   -2.66324E+007    8.00520E+007    8.00004E+007   -5.52384E+004   -4.80028E+004   -6.50102E+002    1.55307E+004   -4.40983E+002
            4472    8.00640E+007    7.99969E+007    7.99969E+007   -6.04243E+004   -7.38375E+004    8.00707E+007   -2.66209E+007    8.00640E+007    7.99969E+007   -7.35358E+004   -6.07229E+004    1.63783E+003    1.59536E+004    1.98930E+003
            4473    8.00728E+007    7.99676E+007    7.99676E+007   -9.75230E+004   -1.12730E+005    8.00804E+007   -2.65858E+007    8.00727E+007    7.99676E+007   -1.12729E+005   -9.75229E+004   -3.73046E+003    7.42457E+003    9.12322E+001
            4474    8.00849E+007    7.99327E+007    7.99327E+007   -1.43104E+005   -1.61278E+005    8.00940E+007   -2.65428E+007    8.00849E+007    7.99327E+007   -1.61225E+005   -1.43157E+005   -3.66854E+003   -3.59140E+003    9.80598E+002
            4475    8.00960E+007    7.99028E+007    7.99028E+007   -1.78887E+005   -2.07374E+005    8.01102E+007   -2.65055E+007    8.00960E+007    7.99028E+007   -2.07179E+005   -1.79079E+005   -1.02005E+004   -9.25516E+003   -2.33698E+003
            4476    8.00828E+007    7.98620E+007    7.98620E+007   -2.00924E+005   -2.40590E+005    8.01026E+007   -2.64735E+007    8.00828E+007    7.98620E+007   -2.34223E+005   -2.07279E+005   -2.31850E+004   -1.99395E+004   -1.45488E+004
            4477    8.00308E+007    7.97993E+007    7.97993E+007   -2.16205E+005   -2.46821E+005    8.00461E+007   -2.64454E+007    8.00308E+007    7.97993E+007   -2.24508E+005   -2.38492E+005   -3.31879E+004   -3.14946E+004   -1.36048E+004
            4478    8.00575E+007    8.00042E+007    8.00042E+007   -4.89426E+004   -5.77852E+004    8.00620E+007   -2.66325E+007    8.00575E+007    8.00042E+007   -4.89461E+004   -5.77774E+004    1.85657E+004    2.44274E+002    2.62277E+002
            4479    8.00712E+007    7.99902E+007    7.99902E+007   -7.47453E+004   -8.72721E+004    8.00774E+007   -2.66094E+007    8.00712E+007    7.99902E+007   -7.48952E+004   -8.71191E+004    1.56669E+004    2.24215E+003    1.37601E+003
            4480    8.00888E+007    7.99639E+007    7.99639E+007   -1.17173E+005   -1.32477E+005    8.00964E+007   -2.65714E+007    8.00888E+007    7.99639E+007   -1.17228E+005   -1.32421E+005    9.48979E+003   -4.70397E+002   -9.22455E+002
            4481    8.00980E+007    7.99268E+007    7.99268E+007   -1.64746E+005   -1.77650E+005    8.01045E+007   -2.65281E+007    8.00980E+007    7.99268E+007   -1.65053E+005   -1.77342E+005   -1.15237E+003   -5.85107E+003   -1.96524E+003
            4482    8.01009E+007    7.98945E+007    7.98945E+007   -1.99869E+005   -2.12921E+005    8.01074E+007   -2.64939E+007    8.01009E+007    7.98945E+007   -1.99870E+005   -2.12918E+005   -1.08199E+004   -9.76637E+003   -1.67173E+002
            4483    8.00964E+007    7.98658E+007    7.98658E+007   -2.20439E+005   -2.40738E+005    8.01066E+007   -2.64682E+007    8.00964E+007    7.98658E+007   -2.20487E+005   -2.40681E+005   -1.54617E+004   -2.15159E+004    1.02333E+003
            4484    8.00384E+007    7.97992E+007    7.97992E+007   -2.19917E+005   -2.58373E+005    8.00576E+007   -2.64403E+007    8.00384E+007    7.97992E+007   -2.20000E+005   -2.58265E+005   -2.54444E+004   -3.70357E+004    1.88273E+003
            4485    8.00912E+007    7.99745E+007    7.99745E+007   -9.00602E+004   -1.43263E+005    8.01178E+007   -2.65804E+007    8.00911E+007    7.99745E+007   -9.08824E+004   -1.42435E+005    2.11672E+004   -3.98789E+002   -6.58468E+003
            4486    8.00678E+007    7.99400E+007    7.99400E+007   -9.16891E+004   -1.63710E+005    8.01037E+007   -2.65615E+007    8.00677E+007    7.99400E+007   -9.23567E+004   -1.63041E+005   -1.03174E+004   -9.13943E+002   -6.90866E+003
            4487    8.00861E+007    7.99501E+007    7.99501E+007   -1.12434E+005   -1.59572E+005    8.01097E+007   -2.65594E+007    8.00861E+007    7.99501E+007   -1.13358E+005   -1.58647E+005    6.89826E+003   -4.18418E+002   -6.53594E+003
            4488    8.00799E+007    7.99427E+007    7.99427E+007   -1.23016E+005   -1.51411E+005    8.00941E+007   -2.65561E+007    8.00799E+007    7.99427E+007   -1.23978E+005   -1.50448E+005   -4.07082E+003    4.70215E+002   -5.13859E+003
            4489    8.00925E+007    7.99672E+007    7.99672E+007   -9.87418E+004   -1.51734E+005    8.01189E+007   -2.65722E+007    8.00924E+007    7.99672E+007   -1.03532E+005   -1.46939E+005    1.81660E+004   -9.06000E+002   -1.52017E+004
            4490    8.00725E+007    7.99402E+007    7.99402E+007   -9.60780E+004   -1.68426E+005    8.01086E+007   -2.65586E+007    8.00724E+007    7.99402E+007   -1.01908E+005   -1.62595E+005   -8.69490E+003    8.40582E+002   -1.96944E+004
            4491    8.00866E+007    7.99484E+007    7.99484E+007   -1.11860E+005   -1.64476E+005    8.01129E+007   -2.65574E+007    8.00865E+007    7.99484E+007   -1.19451E+005   -1.56884E+005    5.83983E+003   -4.07349E+002   -1.84875E+004
            4492    8.00809E+007    7.99427E+007    7.99427E+007   -1.20927E+005   -1.55532E+005    8.00982E+007   -2.65554E+007    8.00809E+007    7.99427E+007   -1.29131E+005   -1.47327E+005   -3.43411E+003   -2.37622E+002   -1.47175E+004
            4493    8.00902E+007    7.99516E+007    7.99516E+007   -1.13064E+005   -1.63987E+005    8.01156E+007   -2.65582E+007    8.00901E+007    7.99516E+007   -1.22077E+005   -1.54973E+005    7.40164E+003   -6.00748E+003   -1.94365E+004
            4494    8.00820E+007    7.99411E+007    7.99411E+007   -1.05263E+005   -1.76389E+005    8.01175E+007   -2.65532E+007    8.00819E+007    7.99411E+007   -1.19797E+005   -1.61855E+005   -3.23037E+003   -3.01074E+002   -2.86795E+004
            4495    8.00859E+007    7.99443E+007    7.99443E+007   -1.11628E+005   -1.71562E+005    8.01158E+007   -2.65537E+007    8.00858E+007    7.99443E+007   -1.29725E+005   -1.53465E+005    1.38891E+003   -2.11175E+003   -2.75163E+004
            4496    8.00836E+007    7.99434E+007    7.99434E+007   -1.17271E+005   -1.63139E+005    8.01065E+007   -2.65543E+007    8.00835E+007    7.99434E+007   -1.38394E+005   -1.42016E+005   -1.30842E+003    1.05359E+003   -2.28627E+004
            4497    8.00911E+007    7.99373E+007    7.99373E+007   -1.32448E+005   -1.75005E+005    8.01123E+007   -2.65433E+007    8.00910E+007    7.99373E+007   -1.42399E+005   -1.65053E+005   -3.21751E+003   -6.37732E+003   -1.80131E+004
            4498    8.00921E+007    7.99419E+007    7.99419E+007   -1.15963E+005   -1.84446E+005    8.01263E+007   -2.65472E+007    8.00921E+007    7.99419E+007   -1.39301E+005   -1.61108E+005    7.37187E+002    1.28484E+003   -3.24595E+004
            4499    8.00875E+007    7.99410E+007    7.99410E+007   -1.13527E+005   -1.79340E+005    8.01204E+007   -2.65494E+007    8.00874E+007    7.99410E+007   -1.42662E+005   -1.50206E+005   -1.07961E+003   -9.38720E+002   -3.26895E+004
            4500    8.00852E+007    7.99431E+007    7.99431E+007   -1.12712E+005   -1.71468E+005    8.01146E+007   -2.65530E+007    8.00852E+007    7.99431E+007   -1.48713E+005   -1.35467E+005    1.50599E+002   -5.01649E+002   -2.86220E+004
            4501    8.00921E+007    7.99282E+007    7.99282E+007   -1.48256E+005   -1.79600E+005    8.01078E+007   -2.65334E+007    8.00921E+007    7.99282E+007   -1.55785E+005   -1.72065E+005   -1.64026E+004   -1.53774E+004   -1.33893E+004
            4502    8.00994E+007    7.99406E+007    7.99406E+007   -1.28954E+005   -1.88730E+005    8.01293E+007   -2.65410E+007    8.00994E+007    7.99406E+007   -1.56845E+005   -1.60839E+005    3.61070E+003   -1.69819E+003   -2.98211E+004
            4503    8.00884E+007    7.99374E+007    7.99374E+007   -1.17930E+005   -1.84061E+005    8.01214E+007   -2.65451E+007    8.00883E+007    7.99374E+007   -1.54168E+005   -1.47822E+005   -5.85786E+003   -3.76290E+003   -3.29124E+004
            4504    8.00877E+007    7.99438E+007    7.99438E+007   -1.10111E+005   -1.77721E+005    8.01215E+007   -2.65520E+007    8.00877E+007    7.99438E+007   -1.57662E+005   -1.30170E+005    9.67391E+002    1.70051E+003   -3.08841E+004
            4505    8.01045E+007    7.99351E+007    7.99351E+007   -1.59640E+005   -1.79094E+005    8.01142E+007   -2.65321E+007    8.01045E+007    7.99351E+007   -1.64560E+005   -1.74168E+005   -2.15475E+004   -7.31878E+003   -8.45706E+003
            4506    8.01088E+007    7.99428E+007    7.99428E+007   -1.44030E+005   -1.87952E+005    8.01307E+007   -2.65369E+007    8.01088E+007    7.99428E+007   -1.66691E+005   -1.65290E+005    3.46972E+003    1.44711E+003   -2.19498E+004
            4507    8.00942E+007    7.99381E+007    7.99381E+007   -1.26238E+005   -1.85846E+005    8.01240E+007   -2.65420E+007    8.00941E+007    7.99381E+007   -1.62421E+005   -1.49663E+005   -4.52939E+003    6.88918E+002   -2.91131E+004
            4508    8.00869E+007    7.99424E+007    7.99424E+007   -1.10631E+005   -1.78390E+005    8.01208E+007   -2.65511E+007    8.00868E+007    7.99424E+007   -1.61924E+005   -1.27098E+005    9.91072E+002   -1.84419E+003   -2.90623E+004
            4509    8.01151E+007    7.99424E+007    7.99424E+007   -1.67217E+005   -1.78292E+005    8.01206E+007   -2.65323E+007    8.01151E+007    7.99423E+007   -1.69657E+005   -1.75832E+005   -2.97535E+004   -2.75424E+004    4.60804E+003
            4510    8.01079E+007    7.99386E+007    7.99386E+007   -1.58291E+005   -1.80325E+005    8.01189E+007   -2.65333E+007    8.01079E+007    7.99386E+007   -1.70623E+005   -1.67990E+005   -6.53624E+003   -1.27462E+004   -1.09375E+004
            4511    8.00959E+007    7.99346E+007    7.99346E+007   -1.43539E+005   -1.79014E+005    8.01136E+007   -2.65374E+007    8.00959E+007    7.99346E+007   -1.68167E+005   -1.54384E+005   -1.09539E+004   -6.00785E+003   -1.63430E+004
            4512    8.00917E+007    7.99450E+007    7.99450E+007   -1.23943E+005   -1.69526E+005    8.01145E+007   -2.65505E+007    8.00917E+007    7.99450E+007   -1.59516E+005   -1.33953E+005   -2.12808E+003    4.89101E+003   -1.88706E+004
            4513    8.00791E+007    7.99300E+007    7.99300E+007   -1.43069E+005   -1.54952E+005    8.00850E+007   -2.65440E+007    8.00791E+007    7.99300E+007   -1.53290E+005   -1.44730E+005    8.44143E+002   -4.28717E+003    4.12099E+003
            4514    8.01283E+007    7.99537E+007    7.99537E+007   -1.68362E+005   -1.80974E+005    8.01346E+007   -2.65348E+007    8.01283E+007    7.99537E+007   -1.80020E+005   -1.69314E+005    7.73846E+003    7.78824E+003    3.33384E+003
            4515    8.01782E+007    7.99955E+007    7.99955E+007   -1.70198E+005   -1.95071E+005    8.01906E+007   -2.65434E+007    8.01781E+007    7.99955E+007   -1.94852E+005   -1.70410E+005    1.34891E+004    1.72741E+004   -2.30564E+003
            4516    8.02416E+007    8.00635E+007    8.00635E+007   -1.49395E+005   -2.06913E+005    8.02704E+007   -2.65691E+007    8.02416E+007    8.00634E+007   -1.85087E+005   -1.71170E+005    4.60158E+004    4.42543E+004   -2.78785E+004
            4517    7.99902E+007    7.99012E+007    7.99012E+007   -8.68124E+004   -9.12651E+004    7.99924E+007   -2.65744E+007    7.99902E+007    7.99012E+007   -8.70781E+004   -9.09946E+004   -1.94097E+004   -1.05097E+003    1.06378E+003
            4518    8.00128E+007    7.99057E+007    7.99057E+007   -1.02613E+005   -1.11543E+005    8.00173E+007   -2.65639E+007    8.00128E+007    7.99057E+007   -1.04674E+005   -1.09478E+005   -1.66818E+004   -1.07581E+003    3.76481E+003
            4519    8.00570E+007    7.99232E+007    7.99232E+007   -1.27241E+005   -1.40423E+005    8.00636E+007   -2.65519E+007    8.00570E+007    7.99232E+007   -1.30998E+005   -1.36666E+005   -6.15418E+003    1.87966E+003    5.95034E+003
            4520    8.01129E+007    7.99534E+007    7.99534E+007   -1.52506E+005   -1.66524E+005    8.01200E+007   -2.65448E+007    8.01129E+007    7.99534E+007   -1.54818E+005   -1.64211E+005    4.88598E+003    6.16397E+003    5.20316E+003
            4521    8.01666E+007    7.99872E+007    7.99872E+007   -1.70470E+005   -1.88308E+005    8.01755E+007   -2.65428E+007    8.01666E+007    7.99872E+007   -1.71884E+005   -1.86886E+005    1.96848E+004    1.60115E+004    4.83070E+003
            4522    8.02130E+007    8.00306E+007    8.00306E+007   -1.64055E+005   -2.00865E+005    8.02314E+007   -2.65552E+007    8.02130E+007    8.00305E+007   -1.64307E+005   -2.00598E+005    2.99215E+004    1.90730E+004   -3.09538E+003
            4523    8.02529E+007    8.00754E+007    8.00754E+007   -1.45586E+005   -2.09440E+005    8.02848E+007   -2.65735E+007    8.02529E+007    8.00754E+007   -1.66291E+005   -1.88676E+005    5.06493E+004    4.58020E+004   -2.98729E+004
            4524    8.00330E+007    7.99145E+007    7.99145E+007   -1.13064E+005   -1.23878E+005    8.00384E+007   -2.65592E+007    8.00330E+007    7.99145E+007   -1.21245E+005   -1.15695E+005   -7.63943E+002   -1.19444E+004    4.64147E+003
            4525    8.00022E+007    7.99107E+007    7.99107E+007   -8.80678E+004   -9.50461E+004    8.00057E+007   -2.65759E+007    8.00022E+007    7.99107E+007   -9.32961E+004   -8.98137E+004   -2.01817E+003   -1.80677E+004    3.02529E+003
            4526    7.99927E+007    7.99127E+007    7.99127E+007   -7.91049E+004   -8.09093E+004    7.99936E+007   -2.65842E+007    7.99927E+007    7.99127E+007   -8.08952E+004   -7.91153E+004   -3.34481E+002   -1.72078E+004    1.58886E+002
            4527    8.00037E+007    7.99137E+007    7.99137E+007   -8.66837E+004   -9.32087E+004    8.00069E+007   -2.65779E+007    8.00037E+007    7.99137E+007   -9.11644E+004   -8.87242E+004    1.39574E+003   -1.73841E+004   -3.02684E+003
            4528    8.00368E+007    7.99211E+007    7.99211E+007   -1.10345E+005   -1.21108E+005    8.00422E+007   -2.65632E+007    8.00368E+007    7.99211E+007   -1.17834E+005   -1.13618E+005   -4.33431E+002   -1.06669E+004   -4.95165E+003
            4529    8.00870E+007    7.99407E+007    7.99407E+007   -1.39633E+005   -1.53107E+005    8.00938E+007   -2.65493E+007    8.00870E+007    7.99407E+007   -1.50410E+005   -1.42330E+005   -3.25649E+003   -1.06558E+003   -5.39156E+003
            4530    8.01405E+007    7.99699E+007    7.99699E+007   -1.63313E+005   -1.77856E+005    8.01477E+007   -2.65429E+007    8.01405E+007    7.99699E+007   -1.77749E+005   -1.63416E+005   -1.16568E+004    1.28615E+004   -1.23411E+003
            4531    8.01931E+007    8.00133E+007    8.00133E+007   -1.69574E+005   -1.90099E+005    8.02034E+007   -2.65512E+007    8.01931E+007    8.00132E+007   -1.83982E+005   -1.75677E+005   -1.89138E+004    2.67210E+004    9.37925E+003
            4532    8.02494E+007    8.00687E+007    8.00687E+007   -1.62541E+005   -1.98924E+005    8.02676E+007   -2.65691E+007    8.02494E+007    8.00686E+007   -1.69438E+005   -1.91963E+005   -4.64060E+004    5.51325E+004    1.42500E+004
            4533    8.00848E+007    7.99570E+007    7.99570E+007   -1.03454E+005   -1.52152E+005    8.01092E+007   -2.65671E+007    8.00848E+007    7.99570E+007   -1.45970E+005   -1.09634E+005   -2.36055E+003    1.20931E+004   -1.62124E+004
            4534    8.00759E+007    7.99432E+007    7.99432E+007   -9.72117E+004   -1.67978E+005    8.01112E+007   -2.65594E+007    8.00758E+007    7.99432E+007   -1.59917E+005   -1.05273E+005   -1.76262E+003   -4.19874E+003   -2.24829E+004
            4535    8.00829E+007    7.99462E+007    7.99462E+007   -1.04924E+005   -1.68401E+005    8.01146E+007   -2.65576E+007    8.00828E+007    7.99462E+007   -1.59187E+005   -1.14138E+005   -2.05295E+003    2.69638E+003   -2.23602E+004
            4536    8.00819E+007    7.99438E+007    7.99438E+007   -1.13052E+005   -1.63110E+005    8.01070E+007   -2.65559E+007    8.00819E+007    7.99438E+007   -1.53884E+005   -1.22278E+005   -3.95531E+002   -2.17303E+003   -1.94094E+004
            4537    8.00838E+007    7.99452E+007    7.99452E+007   -1.22434E+005   -1.54854E+005    8.01000E+007   -2.65560E+007    8.00838E+007    7.99452E+007   -1.45846E+005   -1.31443E+005    4.12946E+002    7.40043E+002   -1.45227E+004
            4538    8.00842E+007    7.99456E+007    7.99456E+007   -1.29439E+005   -1.47801E+005    8.00934E+007   -2.65561E+007    8.00842E+007    7.99456E+007   -1.39053E+005   -1.38187E+005    2.28891E+003   -1.35850E+003   -9.17092E+003
            4539    8.00846E+007    7.99461E+007    7.99461E+007   -1.33842E+005   -1.43136E+005    8.00892E+007   -2.65564E+007    8.00846E+007    7.99461E+007   -1.34954E+005   -1.42023E+005    2.57148E+003    8.47302E+002   -3.01681E+003
            4540    8.00806E+007    7.99671E+007    7.99671E+007   -8.93248E+004   -1.37704E+005    8.01048E+007   -2.65800E+007    8.00806E+007    7.99671E+007   -1.35792E+005   -9.12330E+004    1.07428E+003    1.77397E+004   -9.42568E+003
            4541    8.00698E+007    7.99460E+007    7.99460E+007   -8.75940E+004   -1.59984E+005    8.01060E+007   -2.65661E+007    8.00697E+007    7.99460E+007   -1.58290E+005   -8.92869E+004    2.74921E+001   -6.69522E+003   -1.09418E+004
            4542    8.00823E+007    7.99499E+007    7.99499E+007   -1.01642E+005   -1.63172E+005    8.01131E+007   -2.65617E+007    8.00823E+007    7.99499E+007   -1.61375E+005   -1.03439E+005    8.72278E+002    5.59308E+003   -1.03621E+004
            4543    8.00803E+007    7.99447E+007    7.99447E+007   -1.12807E+005   -1.58329E+005    8.01030E+007   -2.65579E+007    8.00803E+007    7.99447E+007   -1.57029E+005   -1.14108E+005   -2.72501E+001   -2.73160E+003   -7.58446E+003
            4544    8.00829E+007    7.99453E+007    7.99453E+007   -1.24768E+005   -1.50411E+005    8.00957E+007   -2.65567E+007    8.00829E+007    7.99453E+007   -1.49298E+005   -1.25882E+005   -3.42569E+002    2.71470E+003   -5.22717E+003
            4545    8.00816E+007    7.99437E+007    7.99437E+007   -1.32901E+005   -1.42941E+005    8.00866E+007   -2.65559E+007    8.00816E+007    7.99437E+007   -1.42121E+005   -1.33720E+005   -1.32684E+003   -1.58774E+003   -2.74949E+003
            4546    8.00819E+007    7.99438E+007    7.99438E+007   -1.37037E+005   -1.39131E+005    8.00829E+007   -2.65559E+007    8.00819E+007    7.99438E+007   -1.38002E+005   -1.38166E+005   -1.44761E+003    1.67942E+003   -1.04419E+003
            4547    8.00768E+007    7.99689E+007    7.99689E+007   -8.40474E+004   -1.31660E+005    8.01006E+007   -2.65844E+007    8.00767E+007    7.99689E+007   -1.31659E+005   -8.40452E+004    2.42225E+002    1.73739E+004    2.73790E+002
            4548    8.00674E+007    7.99463E+007    7.99463E+007   -8.51296E+004   -1.57048E+005    8.01034E+007   -2.65681E+007    8.00674E+007    7.99463E+007   -1.56990E+005   -8.51871E+004   -4.69686E+002   -6.33223E+003    2.04055E+003
            4549    8.00808E+007    7.99496E+007    7.99496E+007   -1.00692E+005   -1.61711E+005    8.01113E+007   -2.65624E+007    8.00808E+007    7.99496E+007   -1.61454E+005   -1.00948E+005   -2.17560E+002    4.66612E+003    3.95049E+003
            4550    8.00799E+007    7.99446E+007    7.99446E+007   -1.12536E+005   -1.58074E+005    8.01027E+007   -2.65580E+007    8.00799E+007    7.99446E+007   -1.57520E+005   -1.13090E+005   -7.43720E+001   -2.97290E+003    4.99400E+003
            4551    8.00834E+007    7.99457E+007    7.99457E+007   -1.24606E+005   -1.50715E+005    8.00964E+007   -2.65568E+007    8.00834E+007    7.99457E+007   -1.49655E+005   -1.25666E+005    1.63305E+002    1.73109E+003    5.15288E+003
            4552    8.00832E+007    7.99450E+007    7.99450E+007   -1.32509E+005   -1.43903E+005    8.00889E+007   -2.65562E+007    8.00832E+007    7.99450E+007   -1.42643E+005   -1.33768E+005    5.48125E+002   -1.76951E+003    3.57256E+003
            4553    8.00839E+007    7.99455E+007    7.99455E+007   -1.36963E+005   -1.39860E+005    8.00854E+007   -2.65562E+007    8.00839E+007    7.99455E+007   -1.38314E+005   -1.38508E+005    4.46990E+002    1.30812E+003    1.44555E+003
            4554    8.00799E+007    7.99661E+007    7.99661E+007   -9.02853E+004   -1.37253E+005    8.01033E+007   -2.65795E+007    8.00798E+007    7.99661E+007   -1.35222E+005   -9.23133E+004    4.75084E+002    1.67498E+004    9.55478E+003
            4555    8.00711E+007    7.99455E+007    7.99455E+007   -8.95072E+004   -1.61590E+005    8.01071E+007   -2.65648E+007    8.00710E+007    7.99455E+007   -1.58468E+005   -9.26287E+004    6.94205E+002   -6.34458E+003    1.46728E+004
            4556    8.00831E+007    7.99488E+007    7.99488E+007   -1.02546E+005   -1.65979E+005    8.01148E+007   -2.65601E+007    8.00831E+007    7.99488E+007   -1.60949E+005   -1.07576E+005    4.52017E+002    5.10110E+003    1.71392E+004
            4557    8.00814E+007    7.99440E+007    7.99440E+007   -1.12253E+005   -1.62390E+005    8.01064E+007   -2.65565E+007    8.00813E+007    7.99440E+007   -1.55667E+005   -1.18976E+005    1.81363E+002   -2.62765E+003    1.70836E+004
            4558    8.00835E+007    7.99449E+007    7.99449E+007   -1.22257E+005   -1.54933E+005    8.00999E+007   -2.65559E+007    8.00835E+007    7.99449E+007   -1.46395E+005   -1.30795E+005    2.29768E+002    2.34792E+003    1.43556E+004
            4559    8.00820E+007    7.99438E+007    7.99438E+007   -1.28431E+005   -1.48117E+005    8.00919E+007   -2.65557E+007    8.00820E+007    7.99438E+007   -1.37908E+005   -1.38639E+005    1.23722E+002   -1.51245E+003    9.83618E+003
            4560    8.00821E+007    7.99441E+007    7.99441E+007   -1.31963E+005   -1.43984E+005    8.00881E+007   -2.65561E+007    8.00821E+007    7.99441E+007   -1.32892E+005   -1.43056E+005    3.71295E+002    1.43752E+003    3.20884E+003
            4561    8.00847E+007    7.99556E+007    7.99556E+007   -1.06360E+005   -1.51734E+005    8.01074E+007   -2.65658E+007    8.00847E+007    7.99556E+007   -1.46086E+005   -1.12007E+005    2.92090E+003    1.03831E+004    1.49797E+004
            4562    8.00784E+007    7.99429E+007    7.99429E+007   -1.00636E+005   -1.70159E+005    8.01131E+007   -2.65574E+007    8.00783E+007    7.99429E+007   -1.60210E+005   -1.10585E+005    7.84528E+002   -4.01534E+003    2.43454E+004
            4563    8.00851E+007    7.99448E+007    7.99448E+007   -1.07157E+005   -1.73338E+005    8.01181E+007   -2.65548E+007    8.00850E+007    7.99448E+007   -1.59243E+005   -1.21252E+005    1.39536E+003    2.06978E+003    2.70955E+004
            4564    8.00838E+007    7.99428E+007    7.99428E+007   -1.12584E+005   -1.69291E+005    8.01121E+007   -2.65536E+007    8.00837E+007    7.99428E+007   -1.51731E+005   -1.30144E+005    2.39771E+002   -2.05258E+003    2.62189E+004
            4565    8.00847E+007    7.99444E+007    7.99444E+007   -1.18060E+005   -1.62532E+005    8.01069E+007   -2.65546E+007    8.00847E+007    7.99444E+007   -1.40819E+005   -1.39773E+005   -5.75590E+001    5.56349E+002    2.22299E+004
            4566    8.00837E+007    7.99451E+007    7.99451E+007   -1.22180E+005   -1.55073E+005    8.01002E+007   -2.65559E+007    8.00837E+007    7.99451E+007   -1.31047E+005   -1.46207E+005   -9.27727E+002   -1.06625E+003    1.45958E+004
            4567    8.00836E+007    7.99460E+007    7.99460E+007   -1.24227E+005   -1.51023E+005    8.00970E+007   -2.65569E+007    8.00836E+007    7.99460E+007   -1.25249E+005   -1.50001E+005   -1.42988E+003    6.08737E+002    5.13223E+003
            4568    8.00914E+007    7.99440E+007    7.99440E+007   -1.26699E+005   -1.68070E+005    8.01121E+007   -2.65498E+007    8.00914E+007    7.99440E+007   -1.59683E+005   -1.35086E+005    4.63063E+003    1.72396E+003    1.66326E+004
            4569    8.00896E+007    7.99415E+007    7.99415E+007   -1.16104E+005   -1.80102E+005    8.01216E+007   -2.65484E+007    8.00896E+007    7.99415E+007   -1.62633E+005   -1.33573E+005    2.46501E+002   -1.08909E+003    2.85097E+004
            4570    8.00894E+007    7.99416E+007    7.99416E+007   -1.14259E+005   -1.81365E+005    8.01229E+007   -2.65487E+007    8.00893E+007    7.99416E+007   -1.58150E+005   -1.37474E+005    8.92761E+002    2.43812E+002    3.19212E+004
            4571    8.00873E+007    7.99418E+007    7.99418E+007   -1.13276E+005   -1.77751E+005    8.01196E+007   -2.65503E+007    8.00873E+007    7.99418E+007   -1.47313E+005   -1.43714E+005   -3.41349E+001   -4.32288E+002    3.21870E+004
            4572    8.00845E+007    7.99431E+007    7.99431E+007   -1.13159E+005   -1.69736E+005    8.01128E+007   -2.65534E+007    8.00845E+007    7.99431E+007   -1.32978E+005   -1.49917E+005    9.98335E+002    1.48352E+002    2.69910E+004
            4573    8.00814E+007    7.99438E+007    7.99438E+007   -1.12510E+005   -1.62678E+005    8.01065E+007   -2.65562E+007    8.00814E+007    7.99438E+007   -1.20414E+005   -1.54774E+005    1.66295E+003   -1.71697E+002    1.82767E+004
            4574    8.00797E+007    7.99445E+007    7.99445E+007   -1.12144E+005   -1.58271E+005    8.01027E+007   -2.65580E+007    8.00797E+007    7.99445E+007   -1.12950E+005   -1.57465E+005    2.52174E+003   -7.78291E+001    6.04725E+003
            4575    8.00981E+007    7.99363E+007    7.99363E+007   -1.47178E+005   -1.76431E+005    8.01127E+007   -2.65376E+007    8.00981E+007    7.99363E+007   -1.67263E+005   -1.56343E+005    1.08596E+004   -9.36193E+003    1.35680E+004
            4576    8.00983E+007    7.99389E+007    7.99389E+007   -1.33683E+005   -1.85028E+005    8.01239E+007   -2.65401E+007    8.00982E+007    7.99389E+007   -1.64988E+005   -1.53723E+005    2.78065E+003    2.79881E+002    2.50467E+004
            4577    8.00922E+007    7.99367E+007    7.99367E+007   -1.23708E+005   -1.87206E+005    8.01239E+007   -2.65419E+007    8.00921E+007    7.99367E+007   -1.57915E+005   -1.52998E+005    4.04224E+003   -4.34103E+003    3.16533E+004
            4578    8.00896E+007    7.99404E+007    7.99404E+007   -1.15628E+005   -1.82793E+005    8.01232E+007   -2.65473E+007    8.00895E+007    7.99404E+007   -1.42951E+005   -1.55470E+005    6.40654E+002   -7.30775E+002    3.29940E+004
            4579    8.00857E+007    7.99436E+007    7.99436E+007   -1.09022E+005   -1.75143E+005    8.01188E+007   -2.65532E+007    8.00857E+007    7.99436E+007   -1.26189E+005   -1.57976E+005   -1.00425E+003   -2.02892E+003    2.89894E+004
            4580    8.00836E+007    7.99481E+007    7.99481E+007   -1.04100E+005   -1.66864E+005    8.01149E+007   -2.65590E+007    8.00835E+007    7.99481E+007   -1.10976E+005   -1.59987E+005   -4.01649E+003    3.34030E+001    1.96041E+004
            4581    8.00818E+007    7.99503E+007    7.99503E+007   -1.01383E+005   -1.61634E+005    8.01119E+007   -2.65624E+007    8.00818E+007    7.99503E+007   -1.02175E+005   -1.60842E+005   -5.22354E+003   -4.90988E+002    6.86372E+003
            4582    8.01128E+007    7.99426E+007    7.99426E+007   -1.66552E+005   -1.74011E+005    8.01166E+007   -2.65340E+007    8.01128E+007    7.99426E+007   -1.71345E+005   -1.69214E+005    7.81059E+003   -1.57096E+004    3.57268E+003
            4583    8.01114E+007    7.99416E+007    7.99416E+007   -1.51516E+005   -1.87987E+005    8.01296E+007   -2.65340E+007    8.01114E+007    7.99416E+007   -1.72103E+005   -1.67400E+005   -7.53849E+002    1.66809E+003    1.80834E+004
            4584    8.01003E+007    7.99378E+007    7.99378E+007   -1.36327E+005   -1.88732E+005    8.01265E+007   -2.65376E+007    8.01003E+007    7.99378E+007   -1.61077E+005   -1.63981E+005   -7.21267E+002   -3.77797E+003    2.61623E+004
            4585    8.00937E+007    7.99405E+007    7.99405E+007   -1.21283E+005   -1.84956E+005    8.01255E+007   -2.65448E+007    8.00936E+007    7.99405E+007   -1.43089E+005   -1.63150E+005   -6.75940E+002    9.93548E+002    3.02151E+004
            4586    8.00826E+007    7.99424E+007    7.99424E+007   -1.06098E+005   -1.74272E+005    8.01167E+007   -2.65540E+007    8.00825E+007    7.99424E+007   -1.19485E+005   -1.60885E+005    2.12485E+003   -1.39730E+003    2.70821E+004
            4587    8.00731E+007    7.99442E+007    7.99442E+007   -9.36495E+004   -1.64081E+005    8.01083E+007   -2.65622E+007    8.00731E+007    7.99442E+007   -9.90095E+004   -1.58721E+005    5.51550E+003    4.98837E+002    1.86765E+004
            4588    8.00669E+007    7.99452E+007    7.99452E+007   -8.58831E+004   -1.57558E+005    8.01028E+007   -2.65673E+007    8.00669E+007    7.99452E+007   -8.64544E+004   -1.56986E+005    7.62125E+003   -1.33383E+003    6.37776E+003
            4589    8.01369E+007    7.99588E+007    7.99588E+007   -1.73214E+005   -1.83000E+005    8.01418E+007   -2.65342E+007    8.01369E+007    7.99588E+007   -1.80039E+005   -1.76168E+005    1.40560E+004   -1.80576E+004   -4.49718E+003
            4590    8.01168E+007    7.99413E+007    7.99413E+007   -1.70604E+005   -1.80313E+005    8.01216E+007   -2.65301E+007    8.01168E+007    7.99413E+007   -1.74578E+005   -1.76337E+005    1.29175E+004   -6.15762E+003    4.77304E+003
            4591    8.01015E+007    7.99313E+007    7.99313E+007   -1.56578E+005   -1.83826E+005    8.01151E+007   -2.65303E+007    8.01015E+007    7.99313E+007   -1.67274E+005   -1.73127E+005    9.83255E+003   -1.10625E+004    1.33049E+004
            4592    8.00937E+007    7.99375E+007    7.99375E+007   -1.36488E+005   -1.75751E+005    8.01133E+007   -2.65418E+007    8.00936E+007    7.99375E+007   -1.46722E+005   -1.65516E+005    2.32385E+003   -4.62630E+003    1.72360E+004
            4593    8.00870E+007    7.99488E+007    7.99488E+007   -1.15914E+005   -1.60379E+005    8.01092E+007   -2.65575E+007    8.00870E+007    7.99488E+007   -1.24177E+005   -1.52115E+005   -6.24463E+003   -4.20211E+003    1.72965E+004
            4594    8.00834E+007    7.99627E+007    7.99627E+007   -9.72808E+004   -1.43957E+005    8.01067E+007   -2.65738E+007    8.00833E+007    7.99627E+007   -1.01497E+005   -1.39738E+005   -1.49673E+004   -5.63850E+002    1.33844E+004
            4595    8.00806E+007    7.99707E+007    7.99707E+007   -8.71327E+004   -1.32550E+005    8.01032E+007   -2.65837E+007    8.00805E+007    7.99707E+007   -8.76972E+004   -1.31980E+005   -1.96791E+004   -4.33446E+002    5.05311E+003
            4596    7.99906E+007    7.99070E+007    7.99070E+007   -8.22948E+004   -8.48330E+004    7.99919E+007   -2.65800E+007    7.99906E+007    7.99070E+007   -8.32864E+004   -8.38364E+004    1.99496E+004   -1.07659E+003   -1.23974E+003
            4597    8.00161E+007    7.99129E+007    7.99129E+007   -9.86928E+004   -1.07548E+005    8.00205E+007   -2.65689E+007    8.00161E+007    7.99129E+007   -1.01860E+005   -1.04378E+005    1.51724E+004   -1.03988E+003   -4.24543E+003
            4598    8.00609E+007    7.99283E+007    7.99283E+007   -1.28274E+005   -1.36921E+005    8.00652E+007   -2.65544E+007    8.00609E+007    7.99283E+007   -1.30225E+005   -1.34969E+005    5.41190E+003    1.15807E+003   -3.61469E+003
            4599    8.01102E+007    7.99486E+007    7.99486E+007   -1.58393E+005   -1.64755E+005    8.01134E+007   -2.65418E+007    8.01102E+007    7.99486E+007   -1.59783E+005   -1.63365E+005   -3.78349E+003    4.61092E+003   -2.62929E+003
            4600    8.01525E+007    7.99701E+007    7.99701E+007   -1.79618E+005   -1.85133E+005    8.01552E+007   -2.65351E+007    8.01525E+007    7.99701E+007   -1.79809E+005   -1.84938E+005   -1.39073E+004    1.10581E+004   -1.01657E+003
            4601    8.01902E+007    7.99979E+007    7.99979E+007   -1.90426E+005   -1.94187E+005    8.01920E+007   -2.65378E+007    8.01902E+007    7.99979E+007   -1.90464E+005   -1.94141E+005   -1.93110E+004    1.59138E+004   -4.02747E+002
            4602    8.02412E+007    8.00526E+007    8.00526E+007   -1.79926E+005   -1.97300E+005    8.02499E+007   -2.65584E+007    8.02412E+007    8.00525E+007   -1.81175E+005   -1.95998E+005   -4.22304E+004    4.94071E+004    4.49887E+003
            4603    8.02427E+007    8.00640E+007    8.00640E+007   -1.49776E+005   -2.07622E+005    8.02716E+007   -2.65689E+007    8.02427E+007    8.00640E+007   -1.86172E+005   -1.71175E+005    4.35780E+004   -4.70948E+004    2.79092E+004
            4604    8.01776E+007    7.99942E+007    7.99942E+007   -1.71054E+005   -1.95800E+005    8.01900E+007   -2.65425E+007    8.01776E+007    7.99942E+007   -1.95718E+005   -1.71128E+005    1.63102E+004   -1.81487E+004    1.38681E+003
            4605    8.01211E+007    7.99440E+007    7.99440E+007   -1.71383E+005   -1.82889E+005    8.01269E+007   -2.65299E+007    8.01211E+007    7.99440E+007   -1.81697E+005   -1.72574E+005    6.70940E+003   -3.87486E+003   -3.50613E+003
            4606    8.00701E+007    7.99184E+007    7.99184E+007   -1.46084E+005   -1.57455E+005    8.00758E+007   -2.65383E+007    8.00701E+007    7.99184E+007   -1.55889E+005   -1.47649E+005   -5.69715E+002    7.50556E+003   -3.91888E+003
            4607    8.00947E+007    7.99465E+007    7.99465E+007   -1.24811E+005   -1.71417E+005    8.01179E+007   -2.65501E+007    8.00946E+007    7.99465E+007   -1.59389E+005   -1.36838E+005   -1.27838E+003   -7.81146E+003    2.03942E+004
            4608    8.00862E+007    7.99413E+007    7.99413E+007   -1.10787E+005   -1.78902E+005    8.01202E+007   -2.65505E+007    8.00861E+007    7.99413E+007   -1.61774E+005   -1.27914E+005    5.40848E+002    2.75562E+003    2.95518E+004
            4609    8.00882E+007    7.99441E+007    7.99441E+007   -1.10271E+005   -1.77979E+005    8.01220E+007   -2.65519E+007    8.00881E+007    7.99441E+007   -1.57257E+005   -1.30993E+005    9.70456E+002   -2.21158E+003    3.12035E+004
            4610    8.00851E+007    7.99430E+007    7.99430E+007   -1.12799E+005   -1.71273E+005    8.01143E+007   -2.65530E+007    8.00851E+007    7.99430E+007   -1.48320E+005   -1.35752E+005    4.58837E+002    7.11607E+002    2.85537E+004
            4611    8.00841E+007    7.99438E+007    7.99438E+007   -1.17424E+005   -1.63128E+005    8.01069E+007   -2.65544E+007    8.00840E+007    7.99438E+007   -1.38031E+005   -1.42521E+005   -7.03099E+002   -1.02693E+003    2.27412E+004
            4612    8.00814E+007    7.99432E+007    7.99432E+007   -1.20964E+005   -1.55545E+005    8.00987E+007   -2.65556E+007    8.00814E+007    7.99432E+007   -1.29034E+005   -1.47474E+005   -2.18993E+003    1.23123E+002    1.46272E+004
            4613    8.00801E+007    7.99428E+007    7.99428E+007   -1.23005E+005   -1.51524E+005    8.00944E+007   -2.65561E+007    8.00801E+007    7.99428E+007   -1.23954E+005   -1.50575E+005   -3.95068E+003   -6.73172E+002    5.11547E+003
            4614    8.00982E+007    7.99358E+007    7.99358E+007   -1.44764E+005   -1.79991E+005    8.01158E+007   -2.65370E+007    8.00981E+007    7.99358E+007   -1.67691E+005   -1.57063E+005   -1.04310E+004    2.94279E+003    1.67926E+004
            4615    8.00939E+007    7.99375E+007    7.99375E+007   -1.26276E+005   -1.86586E+005    8.01241E+007   -2.65415E+007    8.00939E+007    7.99375E+007   -1.62357E+005   -1.50504E+005   -4.17054E+003    5.01669E+002    2.95669E+004
            4616    8.00888E+007    7.99377E+007    7.99377E+007   -1.17752E+005   -1.84452E+005    8.01221E+007   -2.65452E+007    8.00887E+007    7.99377E+007   -1.53391E+005   -1.48813E+005   -5.49434E+003    2.58696E+003    3.32708E+004
            4617    8.00871E+007    7.99408E+007    7.99408E+007   -1.13244E+005   -1.79377E+005    8.01202E+007   -2.65494E+007    8.00871E+007    7.99408E+007   -1.41846E+005   -1.50775E+005   -1.50356E+003    1.41260E+003    3.27634E+004
            4618    8.00851E+007    7.99438E+007    7.99438E+007   -1.11199E+005   -1.71400E+005    8.01152E+007   -2.65537E+007    8.00851E+007    7.99438E+007   -1.28818E+005   -1.53781E+005    3.87486E+002    1.45493E+003    2.73909E+004
            4619    8.00852E+007    7.99473E+007    7.99473E+007   -1.11371E+005   -1.64448E+005    8.01117E+007   -2.65572E+007    8.00852E+007    7.99473E+007   -1.18551E+005   -1.57267E+005    3.83288E+003    8.75484E+002    1.81542E+004
            4620    8.00858E+007    7.99499E+007    7.99499E+007   -1.12172E+005   -1.59614E+005    8.01096E+007   -2.65594E+007    8.00858E+007    7.99499E+007   -1.12969E+005   -1.58816E+005    6.59102E+003    6.97168E+002    6.10083E+003
            4621    8.01076E+007    7.99375E+007    7.99375E+007   -1.59788E+005   -1.80491E+005    8.01180E+007   -2.65324E+007    8.01076E+007    7.99375E+007   -1.70918E+005   -1.69357E+005   -7.80135E+003    1.34735E+004    1.03209E+004
            4622    8.01085E+007    7.99422E+007    7.99422E+007   -1.43992E+005   -1.88518E+005    8.01307E+007   -2.65366E+007    8.01084E+007    7.99422E+007   -1.66324E+005   -1.66187E+005    3.15123E+003   -2.25261E+003    2.22629E+004
            4623    8.00991E+007    7.99403E+007    7.99403E+007   -1.28541E+005   -1.88988E+005    8.01293E+007   -2.65409E+007    8.00990E+007    7.99403E+007   -1.56076E+005   -1.61453E+005    3.17295E+003    2.56137E+003    3.01033E+004
            4624    8.00922E+007    7.99423E+007    7.99423E+007   -1.15270E+005   -1.84442E+005    8.01268E+007   -2.65475E+007    8.00921E+007    7.99423E+007   -1.38199E+005   -1.61512E+005    1.42579E+003   -1.91470E+003    3.25621E+004
            4625    8.00834E+007    7.99425E+007    7.99425E+007   -1.05268E+005   -1.76436E+005    8.01189E+007   -2.65536E+007    8.00833E+007    7.99425E+007   -1.19548E+005   -1.62156E+005   -1.65762E+003    9.96216E+002    2.85019E+004
            4626    8.00748E+007    7.99424E+007    7.99424E+007   -9.62865E+004   -1.68303E+005    8.01108E+007   -2.65593E+007    8.00747E+007    7.99424E+007   -1.02042E+005   -1.62547E+005   -5.70559E+003   -1.57208E+003    1.95295E+004
            4627    8.00683E+007    7.99406E+007    7.99406E+007   -9.17414E+004   -1.63621E+005    8.01042E+007   -2.65618E+007    8.00682E+007    7.99406E+007   -9.23794E+004   -1.62982E+005   -9.83993E+003    4.31058E+002    6.74815E+003
            4628    8.01147E+007    7.99413E+007    7.99413E+007   -1.68435E+005   -1.78519E+005    8.01198E+007   -2.65314E+007    8.01147E+007    7.99412E+007   -1.71768E+005   -1.75167E+005   -2.77905E+004    2.74761E+004   -4.75688E+003
            4629    8.01058E+007    7.99358E+007    7.99358E+007   -1.59512E+005   -1.80572E+005    8.01163E+007   -2.65319E+007    8.01058E+007    7.99358E+007   -1.65405E+005   -1.74673E+005   -1.97526E+004    7.30242E+003    9.45453E+003
            4630    8.00922E+007    7.99282E+007    7.99282E+007   -1.46900E+005   -1.80954E+005    8.01092E+007   -2.65335E+007    8.00921E+007    7.99282E+007   -1.55049E+005   -1.72799E+005   -1.57683E+004    1.35951E+004    1.45289E+004
            4631    8.00897E+007    7.99366E+007    7.99366E+007   -1.30369E+005   -1.75656E+005    8.01123E+007   -2.65435E+007    8.00896E+007    7.99366E+007   -1.39994E+005   -1.66030E+005   -4.62675E+003    6.47109E+003    1.85266E+004
            4632    8.00856E+007    7.99485E+007    7.99485E+007   -1.10548E+005   -1.63665E+005    8.01121E+007   -2.65581E+007    8.00855E+007    7.99485E+007   -1.18507E+005   -1.55705E+005    3.74943E+003    5.08667E+003    1.89587E+004
            4633    8.00866E+007    7.99624E+007    7.99624E+007   -9.66618E+004   -1.51701E+005    8.01141E+007   -2.65713E+007    8.00865E+007    7.99624E+007   -1.00476E+005   -1.47885E+005    1.28277E+004    2.61032E+003    1.39817E+004
            4634    8.00894E+007    7.99731E+007    7.99731E+007   -8.92706E+004   -1.43384E+005    8.01165E+007   -2.65802E+007    8.00894E+007    7.99731E+007   -8.96979E+004   -1.42952E+005    2.00839E+004    1.69570E+003    4.81780E+003
            4635    7.99943E+007    7.99064E+007    7.99064E+007   -8.41370E+004   -9.17218E+004    7.99981E+007   -2.65769E+007    7.99943E+007    7.99064E+007   -8.57540E+004   -9.01005E+004   -1.84445E+004    3.64955E+002   -3.10954E+003
            4636    8.00237E+007    7.99196E+007    7.99196E+007   -9.78488E+004   -1.10480E+005    8.00300E+007   -2.65704E+007    8.00237E+007    7.99196E+007   -1.00578E+005   -1.07748E+005   -1.10971E+004   -7.70693E+002   -5.19960E+003
            4637    8.00680E+007    7.99372E+007    7.99372E+007   -1.23872E+005   -1.37807E+005    8.00750E+007   -2.65585E+007    8.00680E+007    7.99372E+007   -1.26243E+005   -1.35436E+005   -2.32819E+003   -1.22254E+003   -5.23607E+003
            4638    8.01151E+007    7.99573E+007    7.99573E+007   -1.51254E+005   -1.64509E+005    8.01218E+007   -2.65472E+007    8.01151E+007    7.99573E+007   -1.52512E+005   -1.63250E+005    5.76251E+003   -6.81182E+003   -3.88583E+003
            4639    8.01658E+007    7.99868E+007    7.99868E+007   -1.70067E+005   -1.88030E+005    8.01748E+007   -2.65429E+007    8.01658E+007    7.99868E+007   -1.71002E+005   -1.87088E+005    1.89912E+004   -1.36160E+004   -4.00186E+003
            4640    8.02044E+007    8.00209E+007    8.00209E+007   -1.65797E+005   -2.01178E+005    8.02221E+007   -2.65513E+007    8.02044E+007    8.00209E+007   -1.66120E+005   -2.00842E+005    2.64362E+004   -1.81473E+004    3.40469E+003
            4641    8.02480E+007    8.00697E+007    8.00697E+007   -1.46816E+005   -2.09927E+005    8.02796E+007   -2.65710E+007    8.02480E+007    8.00696E+007   -1.67319E+005   -1.89371E+005    4.78856E+004   -4.42271E+004    2.95411E+004
            4642    8.00793E+007    7.99693E+007    7.99693E+007   -8.69490E+004   -1.32893E+005    8.01022E+007   -2.65832E+007    8.00792E+007    7.99693E+007   -8.75338E+004   -1.32304E+005   -1.82234E+004    9.70997E+002   -5.16893E+003
            4643    8.00677E+007    7.99459E+007    7.99459E+007   -8.61475E+004   -1.57458E+005    8.01033E+007   -2.65674E+007    8.00676E+007    7.99459E+007   -8.68832E+004   -1.56722E+005    6.47762E+003    8.23817E+002   -7.20803E+003
            4644    8.00815E+007    7.99500E+007    7.99500E+007   -1.01273E+005   -1.61848E+005    8.01118E+007   -2.65623E+007    8.00815E+007    7.99500E+007   -1.02193E+005   -1.60929E+005   -4.58566E+003    6.88056E+002   -7.40623E+003
            4645    8.00798E+007    7.99445E+007    7.99445E+007   -1.12208E+005   -1.58375E+005    8.01029E+007   -2.65580E+007    8.00798E+007    7.99445E+007   -1.13216E+005   -1.57367E+005    2.01681E+003   -2.61126E+000   -6.74563E+003
            4646    8.00835E+007    7.99458E+007    7.99458E+007   -1.24246E+005   -1.51051E+005    8.00969E+007   -2.65568E+007    8.00835E+007    7.99458E+007   -1.25463E+005   -1.49835E+005   -1.04072E+003   -4.70865E+002   -5.57907E+003
            4647    8.00821E+007    7.99441E+007    7.99441E+007   -1.31904E+005   -1.44055E+005    8.00882E+007   -2.65561E+007    8.00821E+007    7.99441E+007   -1.32981E+005   -1.42979E+005    1.64482E+002   -1.47224E+003   -3.45249E+003
            4648    8.00838E+007    7.99454E+007    7.99454E+007   -1.36906E+005   -1.39867E+005    8.00853E+007   -2.65562E+007    8.00838E+007    7.99454E+007   -1.38415E+005   -1.38359E+005    6.41441E+002   -1.20393E+003   -1.48053E+003
            4649    8.00820E+007    7.99439E+007    7.99439E+007   -1.37001E+005   -1.39213E+005    8.00831E+007   -2.65559E+007    8.00820E+007    7.99439E+007   -1.37970E+005   -1.38243E+005   -1.43795E+003   -1.77011E+003    1.09746E+003
            4650    8.00846E+007    7.99461E+007    7.99461E+007   -1.33793E+005   -1.43131E+005    8.00892E+007   -2.65564E+007    8.00846E+007    7.99461E+007   -1.34865E+005   -1.42059E+005    2.57606E+003   -7.84556E+002    2.97702E+003
            4651    8.00836E+007    7.99624E+007    7.99624E+007   -9.74035E+004   -1.45096E+005    8.01075E+007   -2.65733E+007    8.00836E+007    7.99624E+007   -1.02213E+005   -1.40284E+005   -1.53599E+004   -7.66534E+002   -1.43656E+004
            4652    8.00736E+007    7.99442E+007    7.99442E+007   -9.44297E+004   -1.64178E+005    8.01084E+007   -2.65619E+007    8.00735E+007    7.99442E+007   -1.00091E+005   -1.58517E+005    5.46630E+003    1.67240E+002   -1.90475E+004
            4653    8.00837E+007    7.99478E+007    7.99478E+007   -1.04176E+005   -1.67512E+005    8.01153E+007   -2.65587E+007    8.00836E+007    7.99478E+007   -1.11714E+005   -1.59974E+005   -4.21881E+003   -3.81717E+002   -2.05081E+004
            4654    8.00817E+007    7.99438E+007    7.99438E+007   -1.12811E+005   -1.62963E+005    8.01068E+007   -2.65560E+007    8.00817E+007    7.99438E+007   -1.21319E+005   -1.54454E+005    2.03443E+003    2.22727E+002   -1.88233E+004
            4655    8.00838E+007    7.99451E+007    7.99451E+007   -1.22096E+005   -1.55334E+005    8.01004E+007   -2.65559E+007    8.00838E+007    7.99451E+007   -1.31599E+005   -1.45831E+005   -1.43280E+003    7.92803E+002   -1.50186E+004
            4656    8.00822E+007    7.99439E+007    7.99439E+007   -1.28435E+005   -1.48157E+005    8.00920E+007   -2.65558E+007    8.00822E+007    7.99439E+007   -1.38402E+005   -1.38190E+005    5.92740E+002    1.52280E+003   -9.86047E+003
            4657    8.00831E+007    7.99450E+007    7.99450E+007   -1.32500E+005   -1.43841E+005    8.00888E+007   -2.65562E+007    8.00831E+007    7.99450E+007   -1.42644E+005   -1.33696E+005   -6.94199E+001    1.65251E+003   -3.48422E+003
            4658    8.00818E+007    7.99438E+007    7.99438E+007   -1.32736E+005   -1.43130E+005    8.00870E+007   -2.65560E+007    8.00818E+007    7.99438E+007   -1.42219E+005   -1.33647E+005   -6.76759E+002    1.60896E+003    2.93965E+003
            4659    8.00837E+007    7.99451E+007    7.99451E+007   -1.29284E+005   -1.47835E+005    8.00930E+007   -2.65560E+007    8.00837E+007    7.99451E+007   -1.38614E+005   -1.38506E+005    1.30397E+003    1.62556E+003    9.27529E+003
            4660    8.00902E+007    7.99506E+007    7.99506E+007   -1.17175E+005   -1.61927E+005    8.01125E+007   -2.65572E+007    8.00902E+007    7.99506E+007   -1.26766E+005   -1.52334E+005   -8.97033E+003    3.39249E+003   -1.83647E+004
            4661    8.00822E+007    7.99412E+007    7.99412E+007   -1.06888E+005   -1.75064E+005    8.01162E+007   -2.65531E+007    8.00821E+007    7.99412E+007   -1.20778E+005   -1.61174E+005    3.22205E+003    1.62803E+003   -2.74597E+004
            4662    8.00867E+007    7.99438E+007    7.99438E+007   -1.09740E+005   -1.75864E+005    8.01197E+007   -2.65527E+007    8.00866E+007    7.99438E+007   -1.28128E+005   -1.57476E+005   -1.67914E+003    1.84808E+003   -2.96272E+004
            4663    8.00842E+007    7.99426E+007    7.99426E+007   -1.13276E+005   -1.69971E+005    8.01126E+007   -2.65531E+007    8.00842E+007    7.99426E+007   -1.34235E+005   -1.49011E+005    1.22871E+003    2.64035E+002   -2.73679E+004
            4664    8.00846E+007    7.99443E+007    7.99443E+007   -1.18044E+005   -1.62483E+005    8.01068E+007   -2.65546E+007    8.00846E+007    7.99443E+007   -1.41903E+005   -1.38624E+005   -6.31666E+001   -2.91261E+002   -2.21588E+004
            4665    8.00834E+007    7.99449E+007    7.99449E+007   -1.22112E+005   -1.54811E+005    8.00997E+007   -2.65560E+007    8.00834E+007    7.99449E+007   -1.46815E+005   -1.30108E+005    3.54373E+002   -2.22044E+003   -1.40536E+004
            4666    8.00832E+007    7.99456E+007    7.99456E+007   -1.24414E+005   -1.50731E+005    8.00963E+007   -2.65568E+007    8.00832E+007    7.99456E+007   -1.49865E+005   -1.25280E+005    9.42456E+001   -1.58060E+003   -4.69637E+003
            4667    8.00832E+007    7.99455E+007    7.99455E+007   -1.24857E+005   -1.50425E+005    8.00959E+007   -2.65567E+007    8.00831E+007    7.99455E+007   -1.49106E+005   -1.26175E+005    1.76615E+001   -2.76154E+003    5.65519E+003
            4668    8.00838E+007    7.99451E+007    7.99451E+007   -1.22411E+005   -1.54942E+005    8.01001E+007   -2.65559E+007    8.00838E+007    7.99451E+007   -1.45411E+005   -1.31942E+005    6.85126E+001   -1.21921E+003    1.48054E+004
            4669    8.00955E+007    7.99379E+007    7.99379E+007   -1.38088E+005   -1.76963E+005    8.01149E+007   -2.65410E+007    8.00954E+007    7.99379E+007   -1.49459E+005   -1.65592E+005    4.67035E+002    4.74492E+003   -1.76847E+004
            4670    8.00939E+007    7.99398E+007    7.99398E+007   -1.22218E+005   -1.85806E+005    8.01256E+007   -2.65439E+007    8.00938E+007    7.99398E+007   -1.44975E+005   -1.63049E+005    2.11961E+002   -8.82725E+002   -3.04830E+004
            4671    8.00899E+007    7.99403E+007    7.99403E+007   -1.16088E+005   -1.83173E+005    8.01235E+007   -2.65470E+007    8.00899E+007    7.99403E+007   -1.44721E+005   -1.54539E+005    2.65678E+000    8.81549E+002   -3.31812E+004
            4672    8.00875E+007    7.99421E+007    7.99421E+007   -1.13182E+005   -1.77709E+005    8.01198E+007   -2.65504E+007    8.00875E+007    7.99421E+007   -1.48595E+005   -1.42295E+005    6.77563E+002   -1.08694E+002   -3.21090E+004
            4673    8.00838E+007    7.99432E+007    7.99432E+007   -1.12163E+005   -1.69076E+005    8.01123E+007   -2.65540E+007    8.00838E+007    7.99432E+007   -1.52453E+005   -1.28786E+005   -5.59679E+002    1.53467E+003   -2.58798E+004
            4674    8.00812E+007    7.99442E+007    7.99442E+007   -1.11928E+005   -1.62184E+005    8.01063E+007   -2.65567E+007    8.00812E+007    7.99442E+007   -1.56127E+005   -1.17985E+005    6.59611E+002    2.59657E+003   -1.63620E+004
            4675    8.00801E+007    7.99449E+007    7.99449E+007   -1.12637E+005   -1.57873E+005    8.01027E+007   -2.65581E+007    8.00801E+007    7.99449E+007   -1.57459E+005   -1.13050E+005   -5.45511E+002    2.62850E+003   -4.30633E+003
            4676    8.00802E+007    7.99445E+007    7.99445E+007   -1.12908E+005   -1.58392E+005    8.01029E+007   -2.65577E+007    8.00801E+007    7.99445E+007   -1.56906E+005   -1.14394E+005    1.52602E+002    3.04213E+003    8.08625E+003
            4677    8.00817E+007    7.99435E+007    7.99435E+007   -1.13226E+005   -1.63107E+005    8.01066E+007   -2.65557E+007    8.00817E+007    7.99435E+007   -1.53554E+005   -1.22779E+005   -7.34974E+002    2.73431E+003    1.96280E+004
            4678    8.01026E+007    7.99315E+007    7.99315E+007   -1.57771E+005   -1.84316E+005    8.01158E+007   -2.65298E+007    8.01026E+007    7.99315E+007   -1.69183E+005   -1.72901E+005    9.52338E+003    1.09358E+004   -1.31402E+004
            4679    8.01005E+007    7.99376E+007    7.99376E+007   -1.36755E+005   -1.88974E+005    8.01266E+007   -2.65373E+007    8.01004E+007    7.99376E+007   -1.62174E+005   -1.63555E+005   -9.18896E+002    3.83861E+003   -2.61002E+004
            4680    8.00922E+007    7.99370E+007    7.99370E+007   -1.23362E+005   -1.87147E+005    8.01241E+007   -2.65422E+007    8.00922E+007    7.99370E+007   -1.58926E+005   -1.51583E+005    4.30853E+003    4.21663E+003   -3.16807E+004
            4681    8.00883E+007    7.99413E+007    7.99413E+007   -1.13163E+005   -1.80837E+005    8.01222E+007   -2.65491E+007    8.00883E+007    7.99413E+007   -1.58792E+005   -1.35207E+005    2.24443E+002    7.78113E+002   -3.17154E+004
            4682    8.00841E+007    7.99447E+007    7.99447E+007   -1.06262E+005   -1.72637E+005    8.01173E+007   -2.65553E+007    8.00841E+007    7.99447E+007   -1.59722E+005   -1.19177E+005    2.36680E+003   -1.12227E+003   -2.62759E+004
            4683    8.00828E+007    7.99490E+007    7.99490E+007   -1.02146E+005   -1.65496E+005    8.01145E+007   -2.65604E+007    8.00828E+007    7.99490E+007   -1.60970E+005   -1.06671E+005    2.82412E+001   -5.01989E+003   -1.63163E+004
            4684    8.00804E+007    7.99493E+007    7.99493E+007   -1.00531E+005   -1.61822E+005    8.01111E+007   -2.65623E+007    8.00804E+007    7.99493E+007   -1.61655E+005   -1.00697E+005    2.89093E+002   -4.06347E+003   -3.18993E+003
            4685    8.00829E+007    7.99501E+007    7.99501E+007   -1.02101E+005   -1.63404E+005    8.01136E+007   -2.65615E+007    8.00829E+007    7.99501E+007   -1.61333E+005   -1.04171E+005    1.00639E+003   -6.14505E+003    1.10762E+004
            4686    8.00836E+007    7.99465E+007    7.99465E+007   -1.05445E+005   -1.68599E+005    8.01151E+007   -2.65575E+007    8.00835E+007    7.99465E+007   -1.58976E+005   -1.15069E+005   -1.78593E+003   -3.70515E+003    2.26973E+004
            4687    8.01167E+007    7.99413E+007    7.99413E+007   -1.71035E+005   -1.79866E+005    8.01212E+007   -2.65301E+007    8.01167E+007    7.99413E+007   -1.74763E+005   -1.76135E+005    1.21930E+004    6.97946E+003   -4.36105E+003
            4688    8.01113E+007    7.99418E+007    7.99418E+007   -1.51136E+005   -1.87857E+005    8.01297E+007   -2.65343E+007    8.01113E+007    7.99418E+007   -1.72337E+005   -1.66656E+005   -2.72505E+002   -1.79119E+003   -1.81394E+004
            4689    8.00974E+007    7.99390E+007    7.99390E+007   -1.32477E+005   -1.84375E+005    8.01234E+007   -2.65407E+007    8.00974E+007    7.99390E+007   -1.64826E+005   -1.52026E+005    2.34701E+003    1.43059E+002   -2.51474E+004
            4690    8.00902E+007    7.99431E+007    7.99431E+007   -1.14775E+005   -1.79447E+005    8.01226E+007   -2.65496E+007    8.00902E+007    7.99431E+007   -1.62518E+005   -1.31704E+005    1.01852E+003   -7.29474E+002   -2.84298E+004
            4691    8.00788E+007    7.99442E+007    7.99442E+007   -9.93853E+004   -1.69769E+005    8.01140E+007   -2.65583E+007    8.00787E+007    7.99442E+007   -1.60154E+005   -1.09000E+005   -7.61324E+002    2.74693E+003   -2.41713E+004
            4692    8.00709E+007    7.99456E+007    7.99456E+007   -8.88088E+004   -1.61803E+005    8.01074E+007   -2.65650E+007    8.00708E+007    7.99456E+007   -1.59001E+005   -9.16112E+004    1.31506E+003    6.55978E+003   -1.40263E+004
            4693    8.00683E+007    7.99469E+007    7.99469E+007   -8.53209E+004   -1.57442E+005    8.01043E+007   -2.65680E+007    8.00682E+007    7.99469E+007   -1.57418E+005   -8.53441E+004   -8.57487E+002    5.51673E+003   -1.30372E+003
            4694    8.00693E+007    7.99451E+007    7.99451E+007   -8.76998E+004   -1.60628E+005    8.01057E+007   -2.65656E+007    8.00692E+007    7.99451E+007   -1.58754E+005   -8.95728E+004   -2.12661E+002    7.61592E+003    1.15385E+004
            4695    8.00753E+007    7.99423E+007    7.99423E+007   -9.72824E+004   -1.68647E+005    8.01109E+007   -2.65588E+007    8.00752E+007    7.99423E+007   -1.60142E+005   -1.05787E+005   -1.72910E+003    5.45869E+003    2.31219E+004
            4696    8.01370E+007    7.99588E+007    7.99588E+007   -1.73021E+005   -1.83213E+005    8.01420E+007   -2.65342E+007    8.01370E+007    7.99588E+007   -1.79405E+005   -1.76822E+005    1.57003E+004    1.71749E+004    4.93280E+003
            4697    8.01127E+007    7.99430E+007    7.99430E+007   -1.65139E+005   -1.74308E+005    8.01173E+007   -2.65345E+007    8.01127E+007    7.99430E+007   -1.70492E+005   -1.68951E+005    6.41822E+003    1.58417E+004   -4.51857E+003
            4698    8.00976E+007    7.99369E+007    7.99369E+007   -1.44710E+005   -1.76649E+005    8.01136E+007   -2.65385E+007    8.00976E+007    7.99369E+007   -1.67436E+005   -1.53921E+005    1.11000E+004    8.95770E+003   -1.44674E+004
            4699    8.00874E+007    7.99419E+007    7.99419E+007   -1.23542E+005   -1.67326E+005    8.01093E+007   -2.65504E+007    8.00874E+007    7.99419E+007   -1.59833E+005   -1.31035E+005    3.21471E+003    2.61845E+003   -1.64905E+004
            4700    8.00814E+007    7.99539E+007    7.99539E+007   -1.03790E+005   -1.51160E+005    8.01050E+007   -2.65663E+007    8.00813E+007    7.99539E+007   -1.46564E+005   -1.08386E+005    5.87631E+003   -6.77804E+003   -1.40221E+004
            4701    8.00793E+007    7.99661E+007    7.99661E+007   -8.88845E+004   -1.37420E+005    8.01036E+007   -2.65799E+007    8.00793E+007    7.99661E+007   -1.35892E+005   -9.04093E+004   -9.14118E+000   -1.56901E+004   -8.47461E+003
            4702    8.00754E+007    7.99674E+007    7.99674E+007   -8.31936E+004   -1.32817E+005    8.01002E+007   -2.65838E+007    8.00754E+007    7.99674E+007   -1.32806E+005   -8.32011E+004    1.44979E+003   -1.50134E+004    7.14688E+002
            4703    8.00827E+007    7.99684E+007    7.99684E+007   -8.91868E+004   -1.39322E+005    8.01077E+007   -2.65800E+007    8.00826E+007    7.99684E+007   -1.36850E+005   -9.16534E+004    2.18258E+003   -1.92798E+004    1.08526E+004
            4704    8.00881E+007    7.99590E+007    7.99590E+007   -1.04069E+005   -1.54047E+005    8.01131E+007   -2.65670E+007    8.00881E+007    7.99590E+007   -1.46492E+005   -1.11621E+005   -1.47494E+003   -1.50496E+004    1.79034E+004
            4705    8.00255E+007    7.99053E+007    7.99053E+007   -1.15351E+005   -1.25089E+005    8.00304E+007   -2.65549E+007    8.00255E+007    7.99053E+007   -1.22862E+005   -1.17575E+005   -1.47443E+003    1.49285E+004   -4.09057E+003
            4706    7.99994E+007    7.99072E+007    7.99072E+007   -8.98100E+004   -9.44814E+004    8.00017E+007   -2.65743E+007    7.99994E+007    7.99072E+007   -9.39810E+004   -9.03054E+004   -2.78972E+003    1.96886E+004   -1.44524E+003
            4707    7.99974E+007    7.99178E+007    7.99178E+007   -7.76705E+004   -8.14730E+004    7.99993E+007   -2.65862E+007    7.99974E+007    7.99178E+007   -8.12890E+004   -7.78521E+004   -1.19225E+003    1.39689E+004    8.15707E+002
            4708    8.00093E+007    7.99207E+007    7.99207E+007   -8.50414E+004   -9.21353E+004    8.00129E+007   -2.65812E+007    8.00093E+007    7.99207E+007   -8.99339E+004   -8.72394E+004    2.67901E+003    1.65357E+004    3.28237E+003
            4709    8.00454E+007    7.99323E+007    7.99323E+007   -1.06664E+005   -1.19514E+005    8.00518E+007   -2.65687E+007    8.00454E+007    7.99323E+007   -1.15451E+005   -1.10725E+005   -4.39387E+003    6.38456E+003    5.97425E+003
            4710    8.00992E+007    7.99558E+007    7.99558E+007   -1.35773E+005   -1.51060E+005    8.01068E+007   -2.65563E+007    8.00992E+007    7.99558E+007   -1.49276E+005   -1.37557E+005   -1.80496E+003   -4.65369E+003    4.90820E+003
            4711    8.01398E+007    7.99709E+007    7.99709E+007   -1.61680E+005   -1.76006E+005    8.01469E+007   -2.65444E+007    8.01398E+007    7.99709E+007   -1.75996E+005   -1.61687E+005   -1.14411E+004   -1.15200E+004   -3.33449E+002
            4712    8.01912E+007    8.00118E+007    8.00118E+007   -1.69141E+005   -1.89749E+005    8.02015E+007   -2.65510E+007    8.01912E+007    8.00117E+007   -1.83556E+005   -1.75322E+005   -1.71460E+004   -2.59437E+004   -9.44131E+003
            4713    8.02456E+007    8.00651E+007    8.00651E+007   -1.61938E+005   -1.99013E+005    8.02641E+007   -2.65681E+007    8.02456E+007    8.00651E+007   -1.68754E+005   -1.92136E+005   -4.71414E+004   -5.15720E+004   -1.43532E+004
            4714    7.99932E+007    7.99098E+007    7.99098E+007   -8.14389E+004   -8.52818E+004    7.99951E+007   -2.65810E+007    7.99932E+007    7.99098E+007   -8.23405E+004   -8.43763E+004    1.76372E+004    1.63555E+002    1.63097E+003
            4715    8.00157E+007    7.99120E+007    7.99120E+007   -1.00035E+005   -1.07357E+005    8.00194E+007   -2.65682E+007    8.00157E+007    7.99120E+007   -1.01880E+005   -1.05509E+005    1.52513E+004    2.52869E+003    3.18085E+003
            4716    8.00539E+007    7.99194E+007    7.99194E+007   -1.31076E+005   -1.37817E+005    8.00572E+007   -2.65502E+007    8.00539E+007    7.99194E+007   -1.32732E+005   -1.36160E+005    9.08456E+003   -1.78758E+002    2.90195E+003
            4717    8.01056E+007    7.99418E+007    7.99418E+007   -1.60461E+005   -1.67120E+005    8.01089E+007   -2.65381E+007    8.01056E+007    7.99418E+007   -1.62813E+005   -1.64767E+005   -1.86869E+003   -4.59404E+003    3.18308E+003
            4718    8.01510E+007    7.99673E+007    7.99673E+007   -1.80691E+005   -1.86760E+005    8.01541E+007   -2.65333E+007    8.01510E+007    7.99673E+007   -1.81124E+005   -1.86323E+005   -1.34059E+004   -1.10683E+004    1.56843E+003
            4719    8.01913E+007    7.99984E+007    7.99984E+007   -1.91039E+005   -1.94688E+005    8.01931E+007   -2.65376E+007    8.01913E+007    7.99984E+007   -1.91080E+005   -1.94638E+005   -1.92580E+004   -1.71966E+004    4.10607E+002
            4720    8.02444E+007    8.00558E+007    8.00558E+007   -1.79617E+005   -1.97615E+005    8.02534E+007   -2.65595E+007    8.02444E+007    8.00557E+007   -1.80614E+005   -1.96560E+005   -4.52504E+004   -5.10546E+004   -4.13735E+003


  Minimum           7.99902E+007    7.97937E+007    7.97937E+007   -2.20439E+005   -2.77937E+005    7.99919E+007   -2.66348E+007    7.99902E+007    7.97936E+007   -2.53992E+005   -2.59461E+005   -5.06493E+004   -5.51325E+004   -4.25663E+004
      At Element            4517            4296            4296            4483            4287            4596            4290            4517            4296            4280            4286              39              48            4030

  Maximum           8.02529E+007    8.00754E+007    8.00754E+007   -4.59742E+004   -5.44258E+004    8.02848E+007   -2.64403E+007    8.02529E+007    8.00754E+007   -4.60178E+004   -4.63466E+004    5.06493E+004    5.51325E+004    4.21935E+004
      At Element            4523            4523            4523            4281            4290            4523            4484            4523            4523            4281            4290            4523            4532            4151

           Total    3.78011E+011    3.77326E+011    3.77326E+011   -5.67831E+008   -8.02057E+008    3.78128E+011   -1.25319E+011    3.78011E+011    3.77326E+011   -6.86633E+008   -6.83251E+008    1.08138E-004    7.97808E-005    3.71830E+004


